lattice_vector   -2.4810521300000001     2.4810521300000001    17.6247548199999997
lattice_vector    2.4810521300000001    -2.4810521300000001    17.6247548199999997
lattice_vector    2.4810521300000001     2.4810521300000001   -17.6247548199999997
atom_frac     0.4325890977277852     0.4325890977277852     0.0000632080924617 Ba
atom_frac     0.5674109022722149     0.5674109022722149     0.9999367919075383 Ba
atom_frac     0.3004693079134485     0.3004693079134485     0.9999071661019111 Ba
atom_frac     0.6995306920865515     0.6995306920865514     0.0000928338980889 Ba
atom_frac     0.5000000000000000     0.0000000000000000     0.5000000000000000 S
atom_frac     0.0000000000000000     0.5000000000000000     0.5000000000000000 S
atom_frac     0.9301968016412651     0.9301968016412646     0.0017425442489136 S
atom_frac     0.0698031983587349     0.0698031983587353     0.9982574557510864 S
atom_frac     0.7857499291392643     0.7857499291392646     0.9990034528557830 S
atom_frac     0.2142500708607357     0.2142500708607354     0.0009965471442170 S
atom_frac     0.8608167998803791     0.3608617710080216     0.5000838373635041 S
atom_frac     0.3608617710080215     0.8608167998803791     0.5000838373635041 S
atom_frac     0.1391832001196209     0.6391382289919785     0.4999161626364958 S
atom_frac     0.6391382289919785     0.1391832001196209     0.4999161626364958 S
atom_frac     0.0000000000000000     0.0000000000000000     0.0000000000000000 Zr
atom_frac     0.8566462521326695     0.8566462521326695     0.0000323051261134 Zr
atom_frac     0.1433537478673303     0.1433537478673303     0.9999676948738866 Zr
