lattice_vector   -2.4772084300000001     2.4772084300000001    12.6664911199999999
lattice_vector    2.4772084300000001    -2.4772084300000001    12.6664911199999999
lattice_vector    2.4772084300000001     2.4772084300000001   -12.6664911199999999
atom_frac     0.0000000000000000     0.0000000000000000     0.0000000000000000 Ba
atom_frac     0.1803320590146922     0.1803320590146926     0.9996009721886621 Ba
atom_frac     0.8196679409853079     0.8196679409853075     0.0003990278113379 Ba
atom_frac     0.5000000000000000     0.5000000000000000     0.0000000000000000 S
atom_frac     0.3018145573825390     0.3018145573825373     0.0018006563010976 S
atom_frac     0.6981854426174611     0.6981854426174627     0.9981993436989024 S
atom_frac     0.9039263659102013     0.4036721057732314     0.4995512263277541 S
atom_frac     0.4036721057732307     0.9039263659102014     0.4995512263277536 S
atom_frac     0.0960736340897987     0.5963278942267685     0.5004487736722458 S
atom_frac     0.5963278942267692     0.0960736340897985     0.5004487736722464 S
atom_frac     0.3992845759257043     0.3992845759257047     0.9996254814471913 Zr
atom_frac     0.6007154240742957     0.6007154240742953     0.0003745185528087 Zr
