lattice_vector   -2.4772084300000001     2.4772084300000001    12.6664911199999999
lattice_vector    2.4772084300000001    -2.4772084300000001    12.6664911199999999
lattice_vector    2.4772084300000001     2.4772084300000001   -12.6664911199999999
atom_frac     0.0000000000000000     0.0000000000000000     0.0000000000000000 Ba
atom_frac     0.1802910472730234     0.1802910472730234     0.9999993042956092 Ba
atom_frac     0.8197089527269766     0.8197089527269766     0.0000006957043907 Ba
atom_frac     0.5000000000000000     0.5000000000000000     0.0000000000000000 S
atom_frac     0.3009221533112814     0.3009221533112814     0.9999977859706677 S
atom_frac     0.6990778466887186     0.6990778466887186     0.0000022140293323 S
atom_frac     0.9041234894578607     0.4041220615250571     0.4999978347934463 S
atom_frac     0.4041220615250570     0.9041234894578607     0.4999978347934462 S
atom_frac     0.0958765105421394     0.5958779384749427     0.5000021652065537 S
atom_frac     0.5958779384749429     0.0958765105421393     0.5000021652065538 S
atom_frac     0.3994660236936498     0.3994660236936498     0.0000004520045703 Zr
atom_frac     0.6005339763063503     0.6005339763063503     0.9999995479954297 Zr
