lattice_vector   -2.4810521300000001     2.4810521300000001    17.6247548199999997
lattice_vector    2.4810521300000001    -2.4810521300000001    17.6247548199999997
lattice_vector    2.4810521300000001     2.4810521300000001   -17.6247548199999997
atom_frac     0.4323845751282104     0.4323845751282104     0.0000003018170363 Ba
atom_frac     0.5676154248717896     0.5676154248717896     0.9999996981829637 Ba
atom_frac     0.3004519432762446     0.3004519432762446     0.9999986829621542 Ba
atom_frac     0.6995480567237553     0.6995480567237553     0.0000013170378458 Ba
atom_frac     0.5000000000000000     0.0000000000000000     0.5000000000000000 S
atom_frac     0.0000000000000000     0.5000000000000000     0.5000000000000000 S
atom_frac     0.9292973728691130     0.9292973728691130     0.0000018216982214 S
atom_frac     0.0707026271308870     0.0707026271308870     0.9999981783017786 S
atom_frac     0.7862387588776512     0.7862387588776512     0.0000015769767890 S
atom_frac     0.2137612411223488     0.2137612411223488     0.9999984230232110 S
atom_frac     0.8607483032548298     0.3607461504639694     0.5000033987437600 S
atom_frac     0.3607461504639694     0.8607483032548298     0.5000033987437600 S
atom_frac     0.1392516967451702     0.6392538495360307     0.4999966012562401 S
atom_frac     0.6392538495360307     0.1392516967451702     0.4999966012562401 S
atom_frac     0.0000000000000000     0.0000000000000000     0.0000000000000000 Zr
atom_frac     0.8566270909508890     0.8566270909508890     0.9999988467711222 Zr
atom_frac     0.1433729090491110     0.1433729090491110     0.0000011532288778 Zr
