#=======================================================
# FHI-aims file: sym_relax/sym_relax_RP_5_00Mz_000.in
# Created using the Atomic Simulation Environment (ASE)
# Fri Mar 14 10:33:06 2025
#=======================================================
lattice_vector 10.0122673122865802 -0.0000000000000004 -0.0000000000000000 
lattice_vector -0.0000000000000004 10.0122673122865802 -0.0000000000000000 
lattice_vector -0.0000000000000000 -0.0000000000000000 56.1093040952054238 
atom -0.0000000000000000 -0.0000000000000000 0.1893788757366370 Ba
atom 5.0061336561432892 -0.0000000000000000 0.1893788757366370 Ba
atom -0.0000000000000000 5.0061336561432892 0.1893788757366370 Ba
atom 5.0061336561432892 5.0061336561432892 0.1893788757366370 Ba
atom 0.0000000000000000 -0.0000000000000000 4.9422026150421274 Ba
atom 5.0061336561432892 -0.0000000000000000 4.9422026150421274 Ba
atom -0.0000000000000000 5.0061336561432892 4.9422026150421274 Ba
atom 5.0061336561432892 5.0061336561432892 4.9422026150421274 Ba
atom 2.5030668280716446 2.5030668280716446 2.3213303051346688 Zr
atom 7.5092004842149240 2.5030668280716446 2.3213303051346688 Zr
atom 2.5030668280716446 7.5092004842149240 2.3213303051346688 Zr
atom 7.5092004842149240 7.5092004842149240 2.3213303051346688 Zr
atom 2.5030668280716446 2.5030668280716446 7.4343357815799918 Zr
atom 7.5092004842149240 2.5030668280716446 7.4343357815799918 Zr
atom 2.5030668280716446 7.5092004842149240 7.4343357815799918 Zr
atom 7.5092004842149240 7.5092004842149240 7.4343357815799918 Zr
atom 2.5030668280716446 2.5030668280716446 -0.1893841669345766 S
atom 7.5092004842149240 2.5030668280716446 -0.1893841669345766 S
atom 2.5030668280716446 7.5092004842149240 -0.1893841669345766 S
atom 7.5092004842149240 7.5092004842149240 -0.1893841669345765 S
atom 2.5030668280716446 2.5030668280716446 4.9186141060681532 S
atom 7.5092004842149240 2.5030668280716446 4.9186141060681532 S
atom 2.5030668280716446 7.5092004842149240 4.9186141060681532 S
atom 7.5092004842149240 7.5092004842149240 4.9186141060681532 S
atom 2.2361816471022729 0.0000000000000005 2.4419918471460473 S
atom 7.7760856651842998 -0.0000000000000000 2.4419918471460473 S
atom 2.7699520090410146 5.0061336561432892 2.4419918471460473 S
atom 7.2423153032455598 5.0061336561432892 2.4419918471460473 S
atom 2.9936948994820618 0.0000000000000005 7.4482365710089722 S
atom 7.0185724128045077 -0.0000000000000000 7.4482365710089740 S
atom 2.0124387566612252 5.0061336561432892 7.4482365710089740 S
atom 7.9998285556253581 5.0061336561432892 7.4482365710089722 S
atom -0.0000000000000000 2.7699520090410146 2.4419918471460464 S
atom 5.0061336561432892 2.2361816471022733 2.4419918471460464 S
atom 0.0000000000000000 7.2423153032455616 2.4419918471460464 S
atom 5.0061336561432892 7.7760856651842998 2.4419918471460464 S
atom -0.0000000000000000 2.0124387566612252 7.4482365710089722 S
atom 5.0061336561432892 2.9936948994820627 7.4482365710089722 S
atom 0.0000000000000000 7.9998285556253617 7.4482365710089722 S
atom 5.0061336561432892 7.0185724128045077 7.4482365710089722 S
atom -0.0000000000000000 -0.0000000000000000 9.9960242001145350 Ba
atom 5.0061336561432892 -0.0000000000000000 9.9960242001145350 Ba
atom -0.0000000000000000 5.0061336561432892 9.9960242001145350 Ba
atom 5.0061336561432892 5.0061336561432892 9.9960242001145350 Ba
atom 0.0000000000000000 -0.0000000000000000 15.0527722709593039 Ba
atom 5.0061336561432892 -0.0000000000000000 15.0527722709593039 Ba
atom -0.0000000000000000 5.0061336561432892 15.0527722709593039 Ba
atom 5.0061336561432892 5.0061336561432892 15.0527722709593039 Ba
atom 2.5030668280716446 2.5030668280716446 12.5243982355369248 Zr
atom 7.5092004842149240 2.5030668280716446 12.5243982355369248 Zr
atom 2.5030668280716446 7.5092004842149240 12.5243982355369248 Zr
atom 7.5092004842149240 7.5092004842149240 12.5243982355369248 Zr
atom 2.5030668280716446 2.5030668280716446 17.6144606894938285 Zr
atom 7.5092004842149240 2.5030668280716446 17.6144606894938285 Zr
atom 2.5030668280716446 7.5092004842149240 17.6144606894938285 Zr
atom 7.5092004842149240 7.5092004842149240 17.6144606894938285 Zr
atom 2.5030668280716446 2.5030668280716446 9.9861684072406067 S
atom 7.5092004842149240 2.5030668280716446 9.9861684072406067 S
atom 2.5030668280716446 7.5092004842149240 9.9861684072406067 S
atom 7.5092004842149240 7.5092004842149240 9.9861684072406067 S
atom 2.5030668280716446 2.5030668280716446 15.0626280638332339 S
atom 7.5092004842149240 2.5030668280716446 15.0626280638332339 S
atom 2.5030668280716446 7.5092004842149240 15.0626280638332339 S
atom 7.5092004842149240 7.5092004842149240 15.0626280638332339 S
atom 2.9596071947434170 0.0000000000000005 12.5243982355369248 S
atom 7.0526601175431578 -0.0000000000000000 12.5243982355369248 S
atom 2.0465264613998730 5.0061336561432892 12.5243982355369248 S
atom 7.9657408508867027 5.0061336561432892 12.5243982355369248 S
atom 2.9936948994820618 0.0000000000000005 17.6005599000648409 S
atom 7.0185724128045077 -0.0000000000000000 17.6005599000648409 S
atom 2.0124387566612252 5.0061336561432892 17.6005599000648409 S
atom 7.9998285556253581 5.0061336561432892 17.6005599000648409 S
atom -0.0000000000000000 2.0465264613998713 12.5243982355369248 S
atom 5.0061336561432892 2.9596071947434188 12.5243982355369248 S
atom 0.0000000000000000 7.9657408508867027 12.5243982355369248 S
atom 5.0061336561432892 7.0526601175431578 12.5243982355369248 S
atom -0.0000000000000000 2.0124387566612252 17.6005599000648409 S
atom 5.0061336561432892 2.9936948994820627 17.6005599000648409 S
atom 0.0000000000000000 7.9998285556253617 17.6005599000648409 S
atom 5.0061336561432892 7.0185724128045077 17.6005599000648409 S
atom 0.0000000000000000 -0.0000000000000000 20.1065938560317221 Ba
atom 5.0061336561432892 -0.0000000000000000 20.1065938560317221 Ba
atom -0.0000000000000000 5.0061336561432892 20.1065938560317221 Ba
atom 5.0061336561432892 5.0061336561432892 20.1065938560317221 Ba
atom 0.0000000000000000 -0.0000000000000000 24.8594175953372236 Ba
atom 5.0061336561432892 -0.0000000000000000 24.8594175953372236 Ba
atom -0.0000000000000000 5.0061336561432892 24.8594175953372236 Ba
atom 5.0061336561432892 5.0061336561432892 24.8594175953372236 Ba
atom 2.5030668280716446 2.5030668280716446 22.7274661659391732 Zr
atom 7.5092004842149240 2.5030668280716446 22.7274661659391732 Zr
atom 2.5030668280716446 7.5092004842149240 22.7274661659391732 Zr
atom 7.5092004842149240 7.5092004842149240 22.7274661659391732 Zr
atom 2.5030668280716446 2.5030668280716446 20.1301823650057017 S
atom 7.5092004842149240 2.5030668280716446 20.1301823650057017 S
atom 2.5030668280716446 7.5092004842149240 20.1301823650057017 S
atom 7.5092004842149240 7.5092004842149240 20.1301823650057017 S
atom 2.5030668280716446 2.5030668280716446 25.2381806380084299 S
atom 7.5092004842149240 2.5030668280716446 25.2381806380084299 S
atom 2.5030668280716446 7.5092004842149240 25.2381806380084299 S
atom 7.5092004842149240 7.5092004842149240 25.2381806380084299 S
atom 2.2361816471022729 0.0000000000000005 22.6068046239277756 S
atom 7.7760856651842998 -0.0000000000000001 22.6068046239277756 S
atom 2.7699520090410146 5.0061336561432892 22.6068046239277756 S
atom 7.2423153032455598 5.0061336561432892 22.6068046239277756 S
atom -0.0000000000000000 2.7699520090410146 22.6068046239277756 S
atom 5.0061336561432892 2.2361816471022733 22.6068046239277756 S
atom 0.0000000000000000 7.2423153032455616 22.6068046239277756 S
atom 5.0061336561432892 7.7760856651842998 22.6068046239277756 S
atom 2.5030668280716446 2.5030668280716446 28.3660471203792817 Ba
atom 7.5092004842149240 2.5030668280716446 28.3660471203792817 Ba
atom 2.5030668280716446 7.5092004842149240 28.3660471203792817 Ba
atom 7.5092004842149240 7.5092004842149240 28.3660471203792817 Ba
atom 2.5030668280716446 2.5030668280716446 33.1637825906203858 Ba
atom 7.5092004842149240 2.5030668280716446 33.1637825906203858 Ba
atom 2.5030668280716446 7.5092004842149240 33.1637825906203858 Ba
atom 7.5092004842149240 7.5092004842149240 33.1637825906203858 Ba
atom 5.0061336561432892 5.0061336561432892 30.4338152112523446 Zr
atom 10.0122673122865784 5.0061336561432892 30.4338152112523446 Zr
atom 5.0061336561432892 10.0122673122865784 30.4338152112523446 Zr
atom 10.0122673122865784 10.0122673122865784 30.4338152112523446 Zr
atom 5.0061336561432892 5.0061336561432892 35.5226054413615060 Zr
atom 10.0122673122865784 5.0061336561432892 35.5226054413615060 Zr
atom 5.0061336561432892 10.0122673122865784 35.5226054413615060 Zr
atom 10.0122673122865784 10.0122673122865784 35.5226054413615060 Zr
atom 5.0061336561432892 5.0061336561432892 27.9298703921384650 S
atom 10.0122673122865784 5.0061336561432892 27.9298703921384650 S
atom 5.0061336561432892 10.0122673122865784 27.9298703921384650 S
atom 10.0122673122865784 10.0122673122865784 27.9298703921384650 S
atom 5.0061336561432892 5.0061336561432892 33.0184938440895195 S
atom 10.0122673122865784 5.0061336561432892 33.0184938440895195 S
atom 5.0061336561432892 10.0122673122865784 33.0184938440895195 S
atom 10.0122673122865784 10.0122673122865784 33.0184938440895195 S
atom 5.0061336561432892 2.5030660097114459 30.5455157561356891 S
atom 10.0122673122865784 2.5030676464318429 30.5455157561356891 S
atom 5.0061336561432892 7.5092013025751330 30.5455157561356891 S
atom 10.0122673122865784 7.5091996658547293 30.5455157561356891 S
atom 5.0061336561432892 2.5030658124474496 35.5470015300514177 S
atom 10.0122673122865784 2.5030678436958396 35.5470015300514177 S
atom 5.0061336561432892 7.5092014998391292 35.5470015300514177 S
atom 10.0122673122865784 7.5091994685907411 35.5470015300514177 S
atom 2.5030676464318411 5.0061336561432892 30.5455157561356891 S
atom 7.5091996658547311 5.0061336561432892 30.5455157561356891 S
atom 2.5030660097114446 10.0122673122865784 30.5455157561356891 S
atom 7.5092013025751312 10.0122673122865784 30.5455157561356891 S
atom 2.5030678436958405 5.0061336561432892 35.5470015300514177 S
atom 7.5091994685907402 5.0061336561432892 35.5470015300514177 S
atom 2.5030658124474505 10.0122673122865784 35.5470015300514177 S
atom 7.5092014998391292 10.0122673122865784 35.5470015300514177 S
atom 2.5030668280716446 2.5030668280716446 38.0964377966915038 Ba
atom 7.5092004842149240 2.5030668280716446 38.0964377966915038 Ba
atom 2.5030668280716446 7.5092004842149240 38.0964377966915038 Ba
atom 7.5092004842149240 7.5092004842149240 38.0964377966915038 Ba
atom 2.5030668280716446 2.5030668280716446 43.0616627695878265 Ba
atom 7.5092004842149240 2.5030668280716446 43.0616627695878265 Ba
atom 2.5030668280716446 7.5092004842149240 43.0616627695878265 Ba
atom 7.5092004842149240 7.5092004842149240 43.0616627695878265 Ba
atom 5.0061336561432892 5.0061336561432892 40.5790502831396367 Zr
atom 10.0122673122865784 5.0061336561432892 40.5790502831396367 Zr
atom 5.0061336561432892 10.0122673122865784 40.5790502831396367 Zr
atom 10.0122673122865784 10.0122673122865784 40.5790502831396367 Zr
atom 5.0061336561432892 5.0061336561432892 45.6354951249177816 Zr
atom 10.0122673122865784 5.0061336561432892 45.6354951249177816 Zr
atom 5.0061336561432892 10.0122673122865784 45.6354951249177816 Zr
atom 10.0122673122865784 10.0122673122865784 45.6354951249177816 Zr
atom 5.0061336561432892 5.0061336561432892 38.0592152865045037 S
atom 10.0122673122865784 5.0061336561432892 38.0592152865045037 S
atom 5.0061336561432892 10.0122673122865784 38.0592152865045037 S
atom 10.0122673122865784 10.0122673122865784 38.0592152865045037 S
atom 5.0061336561432892 5.0061336561432892 43.0988852797747768 S
atom 10.0122673122865784 5.0061336561432892 43.0988852797747768 S
atom 5.0061336561432892 10.0122673122865784 43.0988852797747768 S
atom 10.0122673122865784 10.0122673122865784 43.0988852797747768 S
atom 5.0061336561432892 2.5030678023841508 40.5790502831396367 S
atom 10.0122673122865784 2.5030658537591419 40.5790502831396367 S
atom 5.0061336561432892 7.5091995099024347 40.5790502831396367 S
atom 10.0122673122865784 7.5092014585274312 40.5790502831396367 S
atom 5.0061336561432892 2.5030658124474505 45.6110990362279267 S
atom 10.0122673122865784 2.5030678436958405 45.6110990362279267 S
atom 5.0061336561432892 7.5092014998391292 45.6110990362279267 S
atom 10.0122673122865784 7.5091994685907419 45.6110990362279267 S
atom 2.5030658537591428 5.0061336561432892 40.5790502831396367 S
atom 7.5092014585274303 5.0061336561432892 40.5790502831396367 S
atom 2.5030678023841508 10.0122673122865784 40.5790502831396367 S
atom 7.5091995099024356 10.0122673122865784 40.5790502831396367 S
atom 2.5030678436958396 5.0061336561432892 45.6110990362279267 S
atom 7.5091994685907419 5.0061336561432892 45.6110990362279267 S
atom 2.5030658124474514 10.0122673122865784 45.6110990362279267 S
atom 7.5092014998391292 10.0122673122865784 45.6110990362279267 S
atom 2.5030668280716446 2.5030668280716446 47.9943179756589586 Ba
atom 7.5092004842149240 2.5030668280716446 47.9943179756589586 Ba
atom 2.5030668280716446 7.5092004842149240 47.9943179756589586 Ba
atom 7.5092004842149240 7.5092004842149240 47.9943179756589586 Ba
atom 2.5030668280716446 2.5030668280716446 52.7920534459000095 Ba
atom 7.5092004842149240 2.5030668280716446 52.7920534459000095 Ba
atom 2.5030668280716446 7.5092004842149240 52.7920534459000095 Ba
atom 7.5092004842149240 7.5092004842149240 52.7920534459000095 Ba
atom 5.0061336561432892 5.0061336561432892 50.7242853550269288 Zr
atom 10.0122673122865784 5.0061336561432892 50.7242853550269288 Zr
atom 5.0061336561432892 10.0122673122865784 50.7242853550269288 Zr
atom 10.0122673122865784 10.0122673122865784 50.7242853550269288 Zr
atom 5.0061336561432892 5.0061336561432892 48.1396067221897894 S
atom 10.0122673122865784 5.0061336561432892 48.1396067221897894 S
atom 5.0061336561432892 10.0122673122865784 48.1396067221897894 S
atom 10.0122673122865784 10.0122673122865784 48.1396067221897894 S
atom 5.0061336561432892 5.0061336561432892 53.2282301741408617 S
atom 10.0122673122865784 5.0061336561432892 53.2282301741408617 S
atom 5.0061336561432892 10.0122673122865784 53.2282301741408617 S
atom 10.0122673122865784 10.0122673122865784 53.2282301741408617 S
atom 5.0061336561432892 2.5030660097114450 50.6125848101435878 S
atom 10.0122673122865784 2.5030676464318420 50.6125848101435878 S
atom 5.0061336561432892 7.5092013025751330 50.6125848101435878 S
atom 10.0122673122865784 7.5091996658547311 50.6125848101435878 S
atom 2.5030676464318411 5.0061336561432892 50.6125848101435878 S
atom 7.5091996658547311 5.0061336561432892 50.6125848101435878 S
atom 2.5030660097114446 10.0122673122865784 50.6125848101435878 S
atom 7.5092013025751330 10.0122673122865784 50.6125848101435878 S
