#=======================================================
# FHI-aims file: sym_relax/sym_relax_RP_2_RxRyRz_RxRy0.in
# Created using the Atomic Simulation Environment (ASE)
# Fri Mar 14 10:22:11 2025
#=======================================================
lattice_vector 10.0884002421140213 0.1462847320812306 0.0002730610745598 
lattice_vector 0.1462847320812306 10.0884002421140231 -0.0002730610745598 
lattice_vector -0.0002951108421998 0.0002951108421998 25.4318372716940999 
atom -0.0909295541609215 -0.0908725270521808 0.2763071861253122 Ba
atom 5.1350726481091664 0.1640719202015369 0.2764437166625917 Ba
atom 0.1640148930927954 5.1351296752179358 0.2761706555880323 Ba
atom 5.0264129329366929 5.0264699600454659 0.2763071861253122 Ba
atom 0.0273989916475933 0.0275124958176703 4.8907379368642543 Ba
atom 5.0166876252393440 0.0457433743930218 4.8908744674015363 Ba
atom 0.0456298702229449 5.0168011294094246 4.8906014063269723 Ba
atom 5.1447414787451997 5.1448549829153025 4.8907379368642543 Ba
atom 2.5545100024794745 2.5545663326137542 2.3530494353935962 Zr
atom 7.6069762755408670 2.6359748506587635 2.3531859659308774 Zr
atom 2.6359185205244882 7.6070326056751725 2.3529129048563155 Zr
atom 7.6718524895770823 7.6719088197113949 2.3530494353935971 Zr
atom 2.5544528284436696 2.5546235066495626 7.4284264383348964 Zr
atom 7.6069191015050537 2.6360320246945657 7.4285629688721855 Zr
atom 2.6358613464886820 7.6070897797109795 7.4282899077976277 Zr
atom 7.6717953155412912 7.6719659937471958 7.4284264383348972 Zr
atom 2.7924723336885382 2.7923844774059416 -0.1389200796496804 S
atom 7.3691581307486862 2.3980125194497024 -0.1387835491124008 S
atom 2.3981003757322972 7.3690702744661012 -0.1390566101869604 S
atom 7.9098148207861527 7.9097269645035757 -0.1389200796496803 S
atom 2.2827460437141611 2.2828595478842457 4.8907379368642543 S
atom 7.8786830602703786 2.9077388094240759 4.8908744674015363 S
atom 2.9076253052539918 7.8787965644404796 4.8906014063269723 S
atom 7.4000885308117832 7.4002020349818922 4.8907379368642543 S
atom 2.5220002830341688 0.0365909539758490 2.1966087800614393 S
atom 7.5663313451327703 0.1097447681551706 2.7016839749424437 S
atom 2.5952735901163773 5.0808025231715748 2.7014109138678832 S
atom 7.6393427701317709 5.1539334410734892 2.1966087800614393 S
atom 2.5220863338527653 0.0366649162348429 7.5850036242043455 S
atom 7.5661555138681669 0.1097958341367516 7.0802014903978998 S
atom 2.5950977588517681 5.0808535891531594 7.0799284293233384 S
atom 7.6394288209503820 5.1540074033324759 7.5850036242043464 S
atom 0.0365514120647657 2.5221998380228445 2.1964722495241622 S
atom 5.0807400849830673 2.5952112630218571 2.7015474444051657 S
atom 0.1096823299666743 7.5662690180382661 2.7012743833306048 S
atom 5.1538938991623722 7.6395423251204875 2.1964722495241600 S
atom 0.0364774498057726 2.5221137872042525 7.5848670936670688 S
atom 5.0806890190014800 2.5953870942864694 7.0800649598606240 S
atom 0.1096312639850943 7.5664448493028749 7.0797918987860644 S
atom 5.1538199369033943 7.6394562743018790 7.5848670936670679 S
atom -0.0909860312222571 -0.0908160499908452 9.5051686876031827 Ba
atom 5.1350161710478437 0.1641283972628723 9.5053052181404585 Ba
atom 0.1639584160314600 5.1351861522792754 9.5050321570658962 Ba
atom 5.0263564558753684 5.0265264371067975 9.5051686876031827 Ba
atom 2.7922709732358513 2.7925858378586286 9.9203959533782040 S
atom 7.3689567702959931 2.3982138799023933 9.9205324839154638 S
atom 2.3978990152796169 7.3692716349187899 9.9202594228409122 S
atom 7.9096134603334729 7.9099283249562600 9.9203959533782040 S
atom 2.4676345763957706 2.4679289267847566 12.9922457253807799 Ba
atom 7.6936136813698646 2.7228502767424736 12.9923822559180628 Ba
atom 2.7225559263534787 7.6939080317588795 12.9921091948434970 Ba
atom 7.5849770634933753 7.5852714138823965 12.9922457253807817 Ba
atom 2.5859199102545714 2.5863285252668642 17.6066565727113193 Ba
atom 7.5752140828877712 2.6045649428836670 17.6067931032485880 Ba
atom 2.6041563278713871 7.5756226979000711 17.6065200421740080 Ba
atom 7.7032623973521810 7.7036710123644960 17.6066565727113193 Ba
atom 5.1130481582861993 5.1133794254837008 15.0689817846744791 Zr
atom 10.1655056697685335 5.1947791819496603 15.0691183152117674 Zr
atom 5.1944479147521561 10.1658369369660857 15.0688452541372140 Zr
atom 10.2303906453838245 10.2307219125813447 15.0689817846744791 Zr
atom 5.1129708104714195 5.1134567732985001 20.1443313607481578 Zr
atom 10.1654283219537671 5.1948565297644524 20.1444678912854442 Zr
atom 5.1943705669373745 10.1659142847808521 20.1441948302108678 Zr
atom 10.2303132975690367 10.2307992603961413 20.1443313607481578 Zr
atom 5.3509971326239638 5.3512054959439830 12.5770140607425667 S
atom 9.9276795993082700 4.9568302076119020 12.5771505912798354 S
atom 4.9566218442918739 9.9278879626283167 12.5768775302052891 S
atom 10.4683396197215863 10.4685479830416028 12.5770140607425667 S
atom 4.8412838338764104 4.8416924488887050 17.6066565727113193 S
atom 10.4371926463635631 5.4665435063594625 17.6067931032485880 S
atom 5.4661348913471599 10.4376012613758657 17.6065200421740080 S
atom 9.9586263209740249 9.9590349359863399 17.6066565727113229 S
atom 5.0805488253251987 2.5954026536546593 14.9125646857904162 S
atom 10.1248531707276470 2.6685571494319213 15.4176099194087772 S
atom 5.1537954157112544 7.6396149044483215 15.4173368583341972 S
atom 10.1978913124228399 7.7127451407523004 14.9125646857904179 S
atom 5.0805851678171479 2.5954908144958626 20.3008849901695001 S
atom 10.1246810645287155 2.6686210507998380 19.7961128176257120 S
atom 5.1536233095123256 7.6396788058162368 19.7958397565511071 S
atom 10.1979276549147357 7.7128333015934905 20.3008849901695001 S
atom 2.5950821994835809 5.0809937828294345 14.9124281552531315 S
atom 7.6392701908039387 5.1540319245246220 15.4174733888714890 S
atom 2.6682124357875470 10.1250896795410181 15.4172003277969232 S
atom 7.7124246865811950 10.1983362699270632 14.9124281552531315 S
atom 2.5949940386423735 5.0809574403374915 20.3007484596322101 S
atom 7.6392062894360206 5.1542040307235517 19.7959762870884077 S
atom 2.6681485344196414 10.1252617857399567 19.7957032260138774 S
atom 7.7123365257400032 10.1982999274351549 20.3007484596322101 S
atom 2.4675203117724780 2.4680431914080545 22.2210674200418516 Ba
atom 7.6934994167465751 2.7229645413657613 22.2212039505791203 Ba
atom 2.7224416617301865 7.6940222963821796 22.2209308895045616 Ba
atom 7.5848627988700930 7.5853856785056859 22.2210674200418552 Ba
atom 5.3507968809316955 5.3514057476362513 22.6362990846800649 S
atom 9.9274793476159982 4.9570304593041836 22.6364356152173158 S
atom 4.9564215925996109 9.9280882143205762 22.6361625541428104 S
atom 10.4681393680293251 10.4687482347338676 22.6362990846800578 S
