#=======================================================
# FHI-aims file: sym_relax/sym_relax_RP_8_RxRyRz_-RxRy0.in
# Created using the Atomic Simulation Environment (ASE)
# Mon Mar 17 16:27:02 2025
#=======================================================
lattice_vector 9.9782615610325234 -0.0271960595735330 0.0024061825194092 
lattice_vector -0.0271960595735325 9.9782615610325163 -0.0024061825194092 
lattice_vector 0.0218136402330248 -0.0218136402330247 86.5253778408583827 
atom 0.0413049601911196 -0.1306826617366947 0.1378626933935003 Ba
atom 5.1198134422529415 -0.0549029899778856 0.1390657846532047 Ba
atom 0.1170846319499285 4.9478258203251428 0.1366596021337958 Ba
atom 5.0168377109206137 4.8448500889927963 0.1378626933935004 Ba
atom -0.2653131988677428 0.1934461094213804 4.9457125497281993 Ba
atom 4.7956846710948682 0.2517151690809762 4.9469156409879034 Ba
atom -0.2070441392081456 5.2544439793840070 4.9445094584684979 Ba
atom 4.7102195518617416 5.1689788601508670 4.9457125497282002 Ba
atom 2.4590090588218723 2.5100071400311599 2.3273625949639074 Zr
atom 7.4546563912145771 2.5029256621208607 2.3285656862236128 Zr
atom 2.4519275809115646 7.5056544724238918 2.3261595037042024 Zr
atom 7.4345418095513365 7.4855398907606618 2.3273625949639074 Zr
atom 2.4147654805630925 2.5241552708405948 7.4125599144304548 Zr
atom 7.4405082604051325 2.5471692403796293 7.4137630056901651 Zr
atom 2.4377794501021262 7.5498980506826747 7.4113568231707534 Zr
atom 7.3902982312925598 7.4996880215700932 7.4125599144304548 Zr
atom 2.5772106394790275 2.7007845367831100 -0.1831598033824281 S
atom 7.2638789944626447 2.3847240814636939 -0.1819567121227239 S
atom 2.2611501841596175 7.3874528917667224 -0.1843628946421333 S
atom 7.5527433902085050 7.6763172875126013 -0.1831598033824281 S
atom 2.2488081992819882 2.2863590295729490 4.9056766205011426 S
atom 7.6783045016728027 2.7131265216607425 4.9068797117608609 S
atom 2.6755756913697653 7.7158553319637750 4.9044735292414412 S
atom 7.2243409500114586 7.2618917803024390 4.9056766205011426 S
atom 2.7663833955267219 0.0273637391207918 2.2118775160996198 S
atom 7.1284757585898468 0.0163476162287954 2.6530652336669265 S
atom 2.1257469482868281 5.0190764265318268 2.6506590511475183 S
atom 7.7419161462562105 5.0028964898502890 2.2118775160996207 S
atom 2.9361563304187452 0.0345974161838310 7.6331307652439833 S
atom 7.0042096498139754 0.0212975980705484 7.2419362755149770 S
atom 2.0014808395109771 5.0240264083735928 7.2395300929955742 S
atom 7.9116890811482152 5.0101301669133322 7.6331307652439833 S
atom -0.0409617689075579 2.2227473849895394 2.2106744248399166 S
atom 4.9455871047139226 2.8361877726558915 2.6518621424072188 S
atom -0.0571417055890958 7.8389165829589214 2.6494559598878102 S
atom 4.9345709818219117 7.1982801357190516 2.2106744248399166 S
atom -0.0481954459705973 2.0529744500975089 7.6319276739842827 S
atom 4.9406371228721557 2.9604538814317438 7.2407331842552818 S
atom -0.0620916874308480 7.9631826917347865 7.2383270017358621 S
atom 4.9273373047588835 7.0285072008270140 7.6319276739842845 S
atom 0.0138589728512257 -0.0877865485794872 9.9672181894912786 Ba
atom 5.0769173290957301 -0.0274570026379921 9.9684212807509915 Ba
atom 0.0741885187927211 4.9752718076650391 9.9660150982315852 Ba
atom 4.9893917235807042 4.8877462021500051 9.9672181894912786 Ba
atom 0.0656651104705746 0.0009104258239871 15.0393057683176643 Ba
atom 4.9882203546922668 -0.0792631402573415 15.0405088595773648 Ba
atom -0.0145084556107530 4.9234656700456823 15.0381026770579584 Ba
atom 5.0411978612000530 4.9764431765534871 15.0393057683176643 Ba
atom 2.5060312290003948 2.4814602223253224 12.4903542311831739 Zr
atom 7.4832033089204062 2.4559034919423244 12.4915573224428744 Zr
atom 2.4804744986174021 7.4586323022453458 12.4891511399234787 Zr
atom 7.4815639797298958 7.4569929730548212 12.4903542311831721 Zr
atom 2.4970956119290708 2.4785237785698273 17.5778039292501127 Zr
atom 7.4861397526759488 2.4648391090136501 17.5790070205098132 Zr
atom 2.4834109423728976 7.4675679193166804 17.5766008379904122 Zr
atom 7.4726283626585461 7.4540565292993195 17.5778039292501091 Zr
atom 2.5861248896239508 2.6637357218005637 9.9620519409804977 S
atom 7.3009278094451728 2.3758098313187679 9.9632550322402178 S
atom 2.2981989991421710 7.3785386416217920 9.9608488497208327 S
atom 7.5616576403534390 7.6392684725300413 9.9620519409804977 S
atom 2.4183239466315141 2.4386425301198171 15.0393153035873244 S
atom 7.5260210011259128 2.5436107743112104 15.0405183948470196 S
atom 2.5232921908229029 7.5463395846142287 15.0381122123276150 S
atom 7.3938566973610067 7.4141752808493173 15.0393153035873262 S
atom 2.0215230737215104 -0.0101749600064697 12.4326793881548916 S
atom 8.0066222035137340 -0.0222249367393435 12.5788730052591280 S
atom 3.0038933932107059 4.9805038735636948 12.5764668227397394 S
atom 6.9970558244510093 4.9653577907230249 12.4326793881548898 S
atom 3.0109647643145125 -0.0115765042505809 17.6164212498398669 S
atom 6.9829825999677251 -0.0257105146678103 17.5491176998947260 S
atom 1.9802537896647170 4.9770182956352214 17.5467115173753321 S
atom 7.9864975150439896 4.9639562464789160 17.6164212498398740 S
atom -0.0034230697802965 2.9676077067947348 12.4314762968951698 S
atom 4.9841596576820546 1.9580413277320214 12.5776699139994488 S
atom -0.0185691526209570 6.9607701380350431 12.5752637314800282 S
atom 4.9721096809492025 7.9431404575242164 12.4314762968951751 S
atom -0.0020215255361856 1.9781660162017465 17.6152181585801664 S
atom 4.9876452356105174 2.9816809312780008 17.5479146086349971 S
atom -0.0150835746924894 7.9844097415810333 17.5455084261155712 S
atom 4.9735112251932874 6.9536987669312467 17.6152181585801628 S
atom -0.0157114496465643 -0.0258573288247154 20.1221808932228186 Ba
atom 5.0149881093409698 0.0021134198597977 20.1233839844825511 Ba
atom 0.0122592990379491 5.0048422301628239 20.1209778019631464 Ba
atom 4.9598213010829086 4.9496754219047743 20.1221808932228186 Ba
atom 0.0110563050021379 0.0555192312924236 25.2050560181279941 Ba
atom 4.9336115492237926 -0.0246543347889047 25.2062591093877089 Ba
atom -0.0691172610791897 4.9780744755141217 25.2038529268683149 Ba
atom 4.9865890557316179 5.0310519820219231 25.2050560181279941 Ba
atom 2.4886696577479817 2.4869497327509280 22.6665578571955173 Zr
atom 7.4777137984948068 2.4732650631947548 22.6677609484552107 Zr
atom 2.4749849881917805 7.4759938734977860 22.6653547659358132 Zr
atom 7.4642024084774201 7.4624824834804446 22.6665578571955244 Zr
atom 2.4916061015034643 2.4958853498222551 27.7540075552624508 Zr
atom 7.4687781814234784 2.4703286194392553 27.7552106465221513 Zr
atom 2.4660493711204694 7.4730574297422709 27.7528044640027467 Zr
atom 7.4671388522329689 7.4714181005517579 27.7540075552624508 Zr
atom 2.5328739902160922 2.5227281110379569 20.1221808932228186 S
atom 7.4419354202077859 2.4290607307266239 20.1233839844825511 S
atom 2.4392066099047729 7.4317895410296284 20.1209778019631464 S
atom 7.5084067409455830 7.4982608617674380 20.1221808932228186 S
atom 2.4487884092979626 2.4081780674533699 25.2050464828583642 S
atom 7.5564854637923693 2.5131463116447597 25.2062495741180257 S
atom 2.5537566534893470 7.5158751219477855 25.2038433915986282 S
atom 7.4243211600274455 7.3837108181828635 25.2050464828583642 S
atom 1.9883118953798857 -0.0121674047143369 22.6291436278654778 S
atom 7.9945556207591739 -0.0252294538706412 22.6988533603300553 S
atom 2.9918268104561472 4.9774993564323857 22.6964471778106436 S
atom 6.9638446461093642 4.9633653460151423 22.6291436278654885 S
atom 2.9777535859728852 -0.0135689489584481 27.8128854895504354 S
atom 6.9709160172131748 -0.0287150317991080 27.6690980549656587 S
atom 1.9681872069101716 4.9740137785039291 27.6666918724462576 S
atom 7.9532863367023241 4.9619638017710548 27.8128854895504283 S
atom -0.0014306250724294 3.0008188851363733 22.6279405366057844 S
atom 4.9871641748133717 1.9701079104865760 22.6976502690703512 S
atom -0.0155646354896594 6.9728367207895934 22.6952440865509288 S
atom 4.9741021256570646 7.9763516358658633 22.6279405366057773 S
atom -0.0000290808283184 2.0113771945433778 27.8116823982907171 S
atom 4.9906497527418239 2.9937475140325644 27.6678949637060008 S
atom -0.0120790575611918 7.9964763243355907 27.6654887811865748 S
atom 4.9755036699011459 6.9869099452728900 27.8116823982907135 S
atom -0.0776406694013361 0.0037130936730743 30.2771435969543816 Ba
atom 4.9854176868431717 0.0640426396145695 30.2783466882140857 Ba
atom -0.0173111234598406 5.0667714499175984 30.2759405056946456 Ba
atom 4.8978920813281439 4.9792458444025645 30.2771435969543816 Ba
atom 0.2035919885995307 -0.2754590780458941 35.2986492367174733 Ba
atom 5.2645898585621476 -0.2171900183862986 35.2998523279771419 Ba
atom 0.2618610482591279 4.7855387919167374 35.2974461454578190 Ba
atom 5.1791247393290032 4.7000736726836001 35.2986492367174733 Ba
atom 2.5343011500187331 2.4046196013849497 32.8318018720151201 Zr
atom 7.5600439298607967 2.4276335709239798 32.8330049632748313 Zr
atom 2.5573151195577797 7.4303623812270230 32.8305987807554729 Zr
atom 7.5098339007482213 7.3801523521144246 32.8318018720151201 Zr
atom 2.5201530192092996 2.4488631796437184 37.9169991914817075 Zr
atom 7.5158003516020271 2.4417817017334258 37.9182022827414613 Zr
atom 2.5130715412990035 7.4445105120364561 37.9157961002220745 Zr
atom 7.4956857699387855 7.4243959303732101 37.9169991914817075 Zr
atom 2.6738816009787025 2.5759790104458102 30.2823098454651642 S
atom 7.3886845207999183 2.2880531199640211 30.2835129367248328 S
atom 2.3859557104969116 7.2907819302670447 30.2811067542054602 S
atom 7.6494143517081783 7.5515117611753215 30.2823098454651571 S
atom 2.2965049087510949 2.2386623201038391 35.3386851659444758 S
atom 7.7260012111419218 2.6654298121916309 35.3398882572042083 S
atom 2.7232724008388844 7.6681586224946692 35.3374820746847860 S
atom 7.2720376594805769 7.2141950708333482 35.3386851659444758 S
atom 2.0631203292756419 -0.0583413251487488 32.6124341124613082 S
atom 7.9733285709129094 -0.0722375666090000 33.0060347847097617 S
atom 2.9705997606098919 4.9304912436940240 33.0036286021903820 S
atom 7.0386530800051261 4.9171914255807589 32.6124341124613082 S
atom 2.2328932641676760 -0.0511076480857095 38.0336873616057787 S
atom 7.8490624621370442 -0.0672875847672468 37.5949058265577918 S
atom 2.8463336518340339 4.9354412255357811 37.5924996440384618 S
atom 7.2084260148971699 4.9244251026437809 38.0336873616057787 S
atom 0.0447432953619825 2.9260104512405958 32.6112310212015899 S
atom 5.0341722875517183 1.9913349603328203 33.0048316934500079 S
atom 0.0314434772486994 6.9940637706358348 33.0024255109306921 S
atom 5.0202760460914595 7.9015432019701066 32.6112310212015899 S
atom 0.0375096182989429 2.7562375163485693 38.0324842703461314 S
atom 5.0292223057099585 2.1156010691086951 37.5937027352981730 S
atom 0.0264934954069467 7.1183298794117249 37.5912965527787648 S
atom 5.0130423690284340 7.7317702670780664 38.0324842703461314 S
atom -0.1205367825585430 0.0311590810129678 40.1064990930521148 Ba
atom 4.9579716995032763 0.1069387527717767 40.1077021843118473 Ba
atom -0.0447571107997344 5.1096675630748054 40.1052960017924391 Ba
atom 4.8549959681709396 5.0066918317424580 40.1064990930521148 Ba
atom 2.7109304159612502 2.5670647603008874 40.4275215898280678 S
atom 7.3975987709448505 2.2510043049814694 40.4287246810878429 S
atom 2.3948699606418322 7.2537331152845033 40.4263184985683210 S
atom 7.6864631666907375 7.5425975110303760 40.4275215898280678 S
atom 2.6357468138508828 2.4287950640059788 43.5481602330116928 Ba
atom 7.5358684672397658 2.3261879070918368 43.5493633242714395 Ba
atom 2.5331396569367501 7.3289167173948719 43.5469571417520314 Ba
atom 7.6112795645803608 7.4043278147354687 43.5481602330116928 Ba
atom 2.2825969200767351 2.7611070646336411 48.3497059979530306 Ba
atom 7.2035564666121097 2.6793378008659903 48.3509090892127773 Ba
atom 2.2008276563090843 7.6820666111690148 48.3485029066932697 Ba
atom 7.2581296708062331 7.7366398153631186 48.3497059979530164 Ba
atom 4.9606862865593984 4.9980753820423587 45.7395102217466913 Zr
atom 9.9421208999328599 4.9767811851128059 45.7407133130063954 Zr
atom 4.9393920896298411 9.9795099954158282 45.7383071304870015 Zr
atom 9.9362190372888826 9.9736081327718509 45.7395102217466842 Zr
atom 4.9470632774991445 5.0084783316533361 50.8063932724289842 Zr
atom 9.9317179503218629 4.9904041941730632 50.8075963636886243 Zr
atom 4.9289891400188708 9.9931330044761246 50.8051901811693085 Zr
atom 9.9225960282286305 9.9840110823828123 50.8063932724289842 Zr
atom 4.7526367335159314 4.8640037469173505 43.2283047145316459 S
atom 10.0761925350578814 5.1848307381562675 43.2295078057913713 S
atom 5.0734637247548484 10.1875595484593120 43.2271016232719774 S
atom 9.7281694842454076 9.8395364976468596 43.2283047145316459 S
atom 5.2383603442343016 5.2475135990693236 48.3077337358566652 S
atom 9.6926826829058843 4.6991071274378946 48.3089368271164119 S
atom 4.6899538726029046 9.7018359377409311 48.3065306445970180 S
atom 10.2138930949637796 10.2230463497988033 48.3077337358566723 S
atom 4.6294403088430256 2.5125551811017059 46.0905580377358106 S
atom 10.2451280154024964 2.4953156071710820 45.5918132134852740 S
atom 5.2423992050994546 7.4980444174741177 45.5894070309658375 S
atom 9.6049730595725347 7.4880879318311910 46.0905580377358177 S
atom 4.5627746938049940 2.5089257991581877 50.5264947291531001 S
atom 10.3506527959876635 2.4915368320633582 51.1311751275279960 S
atom 5.3479239856846643 7.4942656423663889 51.1287689450086233 S
atom 9.5383074445344729 7.4844585498876963 50.5264947291531001 S
atom 2.4493795398410150 5.3352232224027079 46.0893549464761065 S
atom 7.4421518645011195 4.6950682665727257 45.5906101222255273 S
atom 2.4394230541981008 9.6977970768757586 45.5882039397062186 S
atom 7.4249122905704965 10.3107559731321921 46.0893549464761136 S
atom 2.4530089217845292 5.4018888374407439 50.5252916378933818 S
atom 7.4459306396088332 4.5895434859875515 51.1299720362682990 S
atom 2.4432018293058322 9.5922722962905898 51.1275658537489051 S
atom 7.4285416725140117 10.3774215881702556 50.5252916378933961 S
atom 2.6415577677141657 2.2445107747086204 53.3419512220238232 Ba
atom 7.7201527565371251 2.3203769532285401 53.3431543132834776 Ba
atom 2.7174239462341085 7.3231057635315659 53.3407481307640836 Ba
atom 7.6170905184436464 7.2200435254381023 53.3419512220238516 Ba
atom 2.2848585124554779 2.7745119427890397 58.3634339765928942 Ba
atom 7.1901515884567049 2.6770762084872466 58.3646370678526267 Ba
atom 2.1874227781536790 7.6798050187902840 58.3622308853331546 Ba
atom 7.2603912631849559 7.7500446935185368 58.3634339765928800 Ba
atom 4.9513858767049062 4.9935888275769535 55.8349251621452964 Zr
atom 9.9466074543983076 4.9860815949672945 55.8361282534050147 Zr
atom 4.9438786440952578 9.9888104052703355 55.8337220708856208 Zr
atom 9.9269186274343468 9.9691215783064315 55.8349251621452964 Zr
atom 4.9320531449640308 5.0341967154741196 60.8655739348397518 Zr
atom 9.9059995665010980 5.0054143267081725 60.8667770260994558 Zr
atom 4.9032707561980722 10.0081431370111904 60.8643708435800264 Zr
atom 9.9075858956935257 10.0097294662036038 60.8655739348397375 Zr
atom 4.6369212382516061 4.7375769147374358 53.3310851091761862 S
atom 10.2026193672377961 5.3005462334205866 53.3322882004359116 S
atom 5.1998905569347764 10.3032750437236267 53.3298820179165176 S
atom 9.6124539889811178 9.7131096654668934 53.3310851091761791 S
atom 5.2509087244705475 5.2501175733277279 58.3524216493110615 S
atom 9.6900787086474907 4.6865587472016630 58.3536247405706945 S
atom 4.6873498983444932 9.6892875575047146 58.3512185580513218 S
atom 10.2264414752000281 10.2256503240572290 58.3524216493110544 S
atom 4.5575712492346154 2.5061620248239835 56.1547926236216384 S
atom 10.3435758904650186 2.4889485534599509 55.5448189632578604 S
atom 5.3408470801620105 7.4916773637629746 55.5424127807383812 S
atom 9.5331039999641334 7.4816947755534873 56.1547926236216313 S
atom 4.5477546852041488 2.5184710052233004 60.6038136617631906 S
atom 10.3111423896087313 2.5019045723472777 61.1300034772693976 S
atom 5.3084135793056930 7.5046333826503009 61.1275972947499682 S
atom 9.5232874359336019 7.4940037559527823 60.6038136617631906 S
atom 2.4557726961187347 5.4070922820111198 56.1535895323619485 S
atom 7.4485189182122493 4.5966203915102177 55.5436158719980213 S
atom 2.4457901079092430 9.5993492018132489 55.5412096894786345 S
atom 7.4313054468482127 10.3826250327406022 56.1535895323619272 S
atom 2.4434637157194143 5.4169088460416006 60.6026105705034226 S
atom 7.4355628993249274 4.6290538923664943 61.1288003860097433 S
atom 2.4328340890219122 9.6317827026695113 61.1263942034902925 S
atom 7.4189964664489176 10.3924415967710981 60.6026105705034226 S
atom 2.5120264420125662 2.4800669226013978 63.3848698136518891 Ba
atom 7.4845966086443498 2.4499082789301614 63.3860729049116003 Ba
atom 2.4818677983413275 7.4526370892331881 63.3836667223922134 Ba
atom 7.4875591927420357 7.4555996733308856 63.3848698136518962 Ba
atom 2.8064714622002103 2.2528989930443144 68.4063056507109764 Ba
atom 7.7117645382014324 2.1554632587425182 68.4075087419707302 Ba
atom 2.7090357278984132 7.1581920690455281 68.4051025594513220 Ba
atom 7.7820042129296896 7.2284317437737995 68.4063056507109764 Ba
atom 5.0661562348852902 4.9000936255528886 65.9041656924640193 Zr
atom 10.0401026564223503 4.8713112367869273 65.9053687837238300 Zr
atom 5.0373738461193289 9.8740400470899932 65.9029626012044645 Zr
atom 10.0416889856147797 9.8756263762823639 65.9041656924640478 Zr
atom 5.0255483469881135 4.9194263572937373 70.9348144651585528 Zr
atom 10.0207699246815061 4.9119191246841103 70.9360175564182214 Zr
atom 5.0180411143784625 9.9146479349871566 70.9336113738989127 Zr
atom 10.0010810977175826 9.8949591080232295 70.9348144651585528 Zr
atom 4.7515510953627524 4.7195915759515898 63.3848698136518962 S
atom 10.2206047060236287 5.1859163763094713 63.3860729049116003 S
atom 5.2178758957206250 10.1886451866124812 63.3836667223922134 S
atom 9.7270838460922668 9.6951243266810714 63.3848698136518962 S
atom 5.2820770927388665 5.2189492050593982 68.4173179779927096 S
atom 9.7212470769158337 4.6553903789333395 68.4185210692525345 S
atom 4.7185182666128238 9.6581191892363556 68.4161148867332685 S
atom 10.2576098434683374 10.1944819557888788 68.4173179779927096 S
atom 5.4488683654527863 2.4115041963082531 66.1671290568003485 S
atom 9.6637422220806855 2.4008745696107492 65.6433454238134573 S
atom 4.6610134117776569 7.4036033799137702 65.6409392412939781 S
atom 10.4244011161822563 7.3870369470377533 66.1671290568003485 S
atom 5.4390518014222753 2.4238131767075712 70.6161500949417729 S
atom 9.6313087212243822 2.4138305884980680 71.2285299378251437 S
atom 4.6285799109213697 7.4165593988010929 71.2261237553056077 S
atom 10.4145845521517497 7.3993459274370705 70.6161500949417729 S
atom 2.5504305246344692 4.5157951657929631 66.1659259655406800 S
atom 7.5365929020614368 5.2764540598945571 65.6421423325537461 S
atom 2.5338640917584510 10.2791828701975785 65.6397361500343237 S
atom 7.5259632753639529 9.4913279165224580 66.1659259655406657 S
atom 2.5381215442351444 4.5256117298234653 70.6149470036820048 S
atom 7.5236368831741514 5.3088875607508461 71.2273268465653473 S
atom 2.5209080728711237 10.3116163710538871 71.2249206640460102 S
atom 7.5136542949646392 9.5011444805529841 70.6149470036819906 S
atom 2.2764702941197874 2.6095982483030120 73.4277884052798839 Ba
atom 7.3550652829427197 2.6854644268229331 73.4289914965397514 Ba
atom 2.3523364726397222 7.6881932371259740 73.4265853140203433 Ba
atom 7.2520030448492605 7.5851309990325122 73.4277884052798839 Ba
atom 2.7930665840448059 2.2506374006655663 78.4200336293510958 Ba
atom 7.7140261305801729 2.1688681368979190 78.4212367206106222 Ba
atom 2.7112973202771524 7.1715969472009515 78.4188305380912851 Ba
atom 7.7685993347742812 7.2261701513950767 78.4200336293510958 Ba
atom 5.0404378510644809 4.9151037580879935 75.9633463548748438 Zr
atom 10.0250925238872863 4.8970296206077197 75.9645494461345265 Zr
atom 5.0223637135842436 9.8997584309107491 75.9621432636150331 Zr
atom 10.0159706017939705 9.8906365088174475 75.9633463548748438 Zr
atom 5.0300349014535159 4.9287267671482278 81.0302294055572929 Zr
atom 10.0114695148269686 4.9074325702186901 81.0314324968168336 Zr
atom 5.0087407045239747 9.9101613805217337 81.0290263142975391 Zr
atom 10.0055676521829771 9.9042595178777066 81.0302294055572929 Zr
atom 4.7695364341486135 4.6049617188404390 73.4386545181276347 S
atom 10.3352345631347635 5.1679310375236227 73.4398576093874027 S
atom 5.3325057528317608 10.1706598478266539 73.4374514268679661 S
atom 9.7450691848780568 9.5804944695699437 73.4386545181276347 S
atom 5.2794731184804746 5.2064008248231568 78.4620058914470206 S
atom 9.7337954571520875 4.6579943531917243 78.4632089827067318 S
atom 4.7310666468490608 9.6607231634947652 78.4608028001872952 S
atom 10.2550058692099579 10.1819335755526250 78.4620058914470349 S
atom 5.4338483568519109 2.4210494023733640 76.2444479894104745 S
atom 9.6242318157017372 2.4112423098946665 75.6421737735547026 S
atom 4.6215030053987114 7.4139711201976857 75.6397675910353229 S
atom 10.4093811075813782 7.3965821531028517 76.2444479894104745 S
atom 5.3671827418138713 2.4174200204298470 80.6803846808276006 S
atom 9.7297565962869044 2.4074635347869386 81.1815356875976590 S
atom 4.7270277859838883 7.4101923450899578 81.1791295050782367 S
atom 10.3427154925433111 7.3929527711593481 80.6803846808276006 S
atom 2.5408853185693641 4.5308151743938394 76.2432448981509481 S
atom 7.5262251617775471 5.3159644662735044 75.6409706822949914 S
atom 2.5234963514745279 10.3186932765765320 75.6385644997755833 S
atom 7.5164180692988367 9.5063479251233218 76.2432448981509623 S
atom 2.5445147005128770 4.5974807894318825 80.6791815895678468 S
atom 7.5300039368852829 5.2104396856883177 81.1803325963379905 S
atom 2.5272751265822553 10.2131684959913507 81.1779264138186250 S
atom 7.5200474512423545 9.5730135401613801 80.6791815895678184 S
atom 2.4607545834171543 2.6037872944397105 83.2215793942918793 Ba
atom 7.3608762368060248 2.5011801375255716 83.2227824855517184 Ba
atom 2.3581474265030207 7.5039089478286076 83.2203763030321539 Ba
atom 7.4362873341466331 7.5793200451692044 83.2215793942918793 Ba
atom 4.8959632663285131 4.7206772141047839 83.5414349127720470 S
atom 10.2195190678704311 5.0415042053436796 83.5426380040318151 S
atom 5.2167902575674336 10.0442330156467463 83.5402318215122222 S
atom 9.8714960170580088 9.6962099648342619 83.5414349127720612 S
