#=======================================================
# FHI-aims file: sym_relax/sym_relax_RP_1_RxRyRz_-Rx-Ry-Rz.in
# Created using the Atomic Simulation Environment (ASE)
# Fri Mar 14 10:20:31 2025
#=======================================================
lattice_vector 10.0858340682471042 0.2044642146131416 0.0009255820611742 
lattice_vector 0.2044642146131416 10.0858340682470988 -0.0009255820611741 
lattice_vector -0.0014275557595657 0.0014275557595658 15.5513170566255656 
atom -0.1072347933007121 -0.1071950537035636 0.2366436964444438 Ba
atom 5.1501120878271136 0.2094669006072829 0.2371064874750315 Ba
atom 0.2094271610101342 5.1501518274242617 0.2361809054138568 Ba
atom 5.0379143481294069 5.0379540877265612 0.2366436964444441 Ba
atom 0.1067886821258478 0.1076411648784270 4.6231428837510524 Ba
atom 4.9352758692451202 -0.0045565748192780 4.6236056747816363 Ba
atom -0.0054090575718573 4.9361283519977093 4.6226800927204668 Ba
atom 5.2519378235559628 5.2527903063085546 4.6231428837510524 Ba
atom 2.5723515151276293 2.5727976263024912 2.4298932900977457 Zr
atom 7.6152685492511747 2.6750297336090658 2.4303560811283318 Zr
atom 2.6745836224341986 7.6157146604260424 2.4294304990671578 Zr
atom 7.7175006565577471 7.7179467677326121 2.4298932900977457 Zr
atom 2.7865578834363220 2.7865318270017192 -0.1074765682524147 S
atom 7.4015343485519560 2.4608233653003664 -0.1070137772218271 S
atom 2.4608494217349715 7.4015082921173363 -0.1079393592830017 S
atom 7.9317070248664443 7.9316809684318414 -0.1074765682524145 S
atom 2.3581451468189329 2.3590634256032663 4.9672631484479011 S
atom 7.8290027499503996 2.8892361019177599 4.9677259394784885 S
atom 2.8883178231334221 7.8299210287347440 4.9668003574173154 S
atom 7.5032942882490463 7.5042125670333943 4.9672631484479011 S
atom 2.5212539655257209 0.0513196128076098 2.2211766613345105 S
atom 7.5641339915465142 0.1535907129803944 2.6395355009221566 S
atom 2.6234490647295345 5.0942756397973694 2.6386099188609800 S
atom 7.6664031069558360 5.1964687542377321 2.2211766613345110 S
atom 0.0509124944989598 2.5216630685978290 2.2207138703039218 S
atom 5.0937905357562983 2.6239321840071548 2.6390727098915669 S
atom 0.1531056089393165 7.5646171108241305 2.6381471278303930 S
atom 5.1960616359290670 7.6668122100279552 2.2207138703039222 S
atom 2.6790558465388403 2.6805231418955566 8.0123022247572315 Ba
atom 7.5075430336581190 2.5683254021978534 8.0127650157878207 Ba
atom 2.5668581068411318 7.5090103290148278 8.0118394337266441 Ba
atom 7.8242049879689635 7.8256722833256758 8.0123022247572315 Ba
atom 2.4642196279568478 2.4664996664689971 12.3988014120638272 Ba
atom 7.7215665090846661 2.7831616207798375 12.3992642030944111 Ba
atom 2.7808815822676922 7.7238465475968283 12.3983386210332398 Ba
atom 7.6093687693869700 7.6116488078991127 12.3988014120638255 Ba
atom 5.1442123079629001 5.1460859748973355 10.2055518184105285 Zr
atom 10.1871293420864486 5.2483180822039008 10.2060146094411142 Zr
atom 5.2464444152694778 10.1890030090208938 10.2050890273799482 Zr
atom 10.2893614493930272 10.2912351163274565 10.2055518184105285 Zr
atom 4.9304781072636858 4.9318796065886374 7.6681819600603696 S
atom 10.4013357103951325 5.4620522829031328 7.6686447510909570 S
atom 5.4606507835781803 10.4027372097201170 7.6677191690297848 S
atom 10.0756272486938165 10.0770287480187655 7.6681819600603696 S
atom 5.3579465086621250 5.3602923432060345 12.7429216767607034 S
atom 9.9729229737777541 5.0345838815046839 12.7433844677912855 S
atom 5.0322380469607761 9.9752688083216547 12.7424588857301035 S
atom 10.5030956500922610 10.5054414846361510 12.7429216767607034 S
atom 5.0930777502582423 2.6246469542686715 10.4147312382043502 S
atom 10.1360317924845642 2.7268400687090240 9.9972979806778799 S
atom 5.1953468656675632 7.6675249955260041 9.9963723986167086 S
atom 10.2382268916883490 7.7697960956987906 10.4147312382043502 S
atom 2.6227342944680250 5.0949884252954325 10.4142684471737645 S
atom 7.6656903214577881 5.1971835244992475 9.9968351896472978 S
atom 2.7250053946408093 10.1378684513162121 9.9959096075861211 S
atom 7.7678834358981437 10.2401375667255561 10.4142684471737645 S
