#=======================================================
# FHI-aims file: sym_relax/sym_relax_RP_3_RxRyMz_-Rx-RyMz.in
# Created using the Atomic Simulation Environment (ASE)
# Fri Mar 14 10:24:45 2025
#=======================================================
lattice_vector 10.0405365905641943 -0.0038210581985541 0.0000000000000000 
lattice_vector -0.0038210581985540 10.0405365905641961 0.0000000000000000 
lattice_vector 0.0000000000000000 0.0000000000000000 35.6783545226483056 
atom 0.0652463288818840 -0.1514241672612308 0.2341230000855817 Ba
atom 5.1716924625433194 -0.0671568579811615 0.2341230000855817 Ba
atom 0.1495136381619537 4.9550219664002091 0.2341230000855817 Ba
atom 5.0836040950646924 4.8669335989215829 0.2341230000855817 Ba
atom -0.2329071150754186 0.1821121857502231 4.9712713966085538 Ba
atom 4.8381561095318641 0.2309965859761415 4.9712713966085538 Ba
atom -0.1840227148495000 5.2531754103575077 4.9712713966085538 Ba
atom 4.7854506511074044 5.2004699519330417 4.9712713966085538 Ba
atom 2.5074050598201150 2.5104059913856216 2.3841649717607680 Zr
atom 7.5282200700792812 2.5090421772634177 2.3841649717607680 Zr
atom 2.5060412456979173 7.5312210016447851 2.3841649717607680 Zr
atom 7.5257628260029366 7.5287637575684370 2.3841649717607680 Zr
atom 2.5091788830914039 2.5091788830914092 7.4329905255517339 Zr
atom 7.5294471783734913 2.5072683539921323 7.4329905255517339 Zr
atom 2.5072683539921314 7.5294471783735046 7.4329905255517339 Zr
atom 7.5275366492742162 7.5275366492742286 7.4329905255517339 Zr
atom 2.6838217606524388 2.7756542081854363 -0.1180656787622993 S
atom 7.2629718532794731 2.3326254764311036 -0.1180656787622993 S
atom 2.2407930288981044 7.3548043008124742 -0.1180656787622993 S
atom 7.7021795268352475 7.7940119743682512 -0.1180656787622993 S
atom 2.2469525613704020 2.1995371431363968 4.9340130271631351 S
atom 7.8390889183285184 2.7694946757131405 4.9340130271631351 S
atom 2.8169100939471434 7.7916735000945101 4.9340130271631351 S
atom 7.2653103275532187 7.2178949093192086 4.9340130271631351 S
atom 2.7322113747774943 0.0078707889977697 2.2060097914660086 S
atom 7.2626608443713119 0.0097252865568295 2.7517030170134800 S
atom 2.2404820199899373 5.0319041109381901 2.7517030170134800 S
atom 7.7505691409602981 5.0262285551805910 2.2060097914660086 S
atom 2.8808949683380840 -0.0038333194626921 7.7379533880558036 S
atom 7.1596416222261059 0.0000122612641377 7.1280276630476544 S
atom 2.1374627978447274 5.0221910856455043 7.1280276630476544 S
atom 7.8992527345208954 5.0145244467201318 7.7379533880558036 S
atom -0.0097813180970469 2.2880569205046002 2.2060097914660086 S
atom 5.0067219505267131 2.7759652170936016 2.7517030170134800 S
atom -0.0154568738546611 7.7981440414749637 2.7517030170134800 S
atom 5.0085764480857575 7.3064146866874191 2.2060097914660086 S
atom 0.0019227903634149 2.1393733269440052 7.7379533880558036 S
atom 5.0164349758194025 2.8789844392388106 7.1280276630476544 S
atom -0.0057438485619693 7.9011632636201776 7.1280276630476544 S
atom 5.0202805565462212 7.1577310931268237 7.7379533880558036 S
atom 0.2329071150754186 -0.1821121857502231 9.8947096544949034 Ba
atom 5.2023804810323151 -0.2348176441746955 9.8947096544949034 Ba
atom 0.1802016566509459 4.7873611802066822 9.8947096544949034 Ba
atom 5.2512648812582290 4.8362455804325872 9.8947096544949034 Ba
atom -0.0652463288818840 0.1514241672612308 14.6318580510178702 Ba
atom 4.8688441280208536 0.0633357997826069 14.6318580510178702 Ba
atom -0.1533346963605076 5.0855146241639737 14.6318580510178702 Ba
atom 4.9531114373009286 5.1697819334440487 14.6318580510178702 Ba
atom 2.5109527063626906 2.5079517747971951 12.4818160793427015 Zr
atom 7.5306742866677103 2.5054945307208443 12.4818160793427015 Zr
atom 2.5084954622863411 7.5276733551022188 12.4818160793427015 Zr
atom 7.5293104725455064 7.5263095409800140 12.4818160793427015 Zr
atom 2.7714052048124094 2.8188206230464212 9.9319680239403443 S
atom 7.2198054384184784 2.2450420322711251 9.9319680239403443 S
atom 2.1976266140371195 7.2672208566525018 9.9319680239403443 S
atom 7.7897629709952367 7.8371783892292433 9.9319680239403443 S
atom 2.3345360055303801 2.2427035579973809 14.9840467298657583 S
atom 7.7959225034675121 2.6819112315531610 14.9840467298657583 S
atom 2.7737436790861572 7.7040900559345245 14.9840467298657583 S
atom 7.3528937717131964 7.2610613241801962 14.9840467298657583 S
atom 2.7778757461928776 -0.0135463447553839 12.1142780340899705 S
atom 7.3083252157867022 -0.0116918471963241 12.6599712596374498 S
atom 2.2861463914053264 5.0104869771850478 12.6599712596374498 S
atom 7.7962335123756947 5.0048114214274388 12.1142780340899705 S
atom 0.0116358156561063 2.2423925490892125 12.1142780340899705 S
atom 5.0281390842798510 2.7303008456782152 12.6599712596374498 S
atom 0.0059602598984926 7.7524796700595759 12.6599712596374498 S
atom 5.0299935818389114 7.2607503152720376 12.1142780340899705 S
atom 2.4439325542095243 2.6606030503526368 18.0733002614097380 Ba
atom 7.3780230111122647 2.5725146828740146 18.0733002614097380 Ba
atom 2.3558441867309003 7.5946935072553812 18.0733002614097380 Ba
atom 7.4622903203923432 7.6789608165354597 18.0733002614097380 Ba
atom 2.7420859981668206 2.3270666973411829 22.8104486579327066 Ba
atom 7.7115593641237190 2.2743612389167143 22.8104486579327066 Ba
atom 2.6893805397423534 7.2965400632980835 22.8104486579327066 Ba
atom 7.7604437643496356 7.3454244635240009 22.8104486579327066 Ba
atom 5.0201315894541052 5.0171306578886057 20.2233422330849564 Zr
atom 10.0398531697590929 5.0146734138122540 20.2233422330849564 Zr
atom 5.0176743453777455 10.0368522381936227 20.2233422330849564 Zr
atom 10.0384893556369104 10.0354884240714313 20.2233422330849564 Zr
atom 5.0183577661828078 5.0183577661828185 25.2721677868758974 Zr
atom 10.0386260614649085 5.0164472370835380 25.2721677868758974 Zr
atom 5.0164472370835345 10.0386260614649085 25.2721677868758974 Zr
atom 10.0367155323656156 10.0367155323656370 25.2721677868758974 Zr
atom 4.8437148886217871 4.7518824410887914 17.7211115825618961 S
atom 10.3051013865589152 5.1910901146445694 17.7211115825618961 S
atom 5.2829225621775686 10.2132689390259461 17.7211115825618961 S
atom 9.8620726548045976 9.7702402072716055 17.7211115825618961 S
atom 5.2805840879038151 5.3279995061378296 22.7731902884873030 S
atom 9.7289843215098912 4.7542209153625370 22.7731902884873030 S
atom 4.7068054971285234 9.7763997397439102 22.7731902884873030 S
atom 10.2989418540866371 10.3463572723206561 22.7731902884873030 S
atom 5.2870546292842846 2.4956325383360247 20.5908802783376466 S
atom 9.8175040988780822 2.4974870358950834 20.0451870527901939 S
atom 4.7953252744967267 7.5196658602764570 20.0451870527901939 S
atom 10.3054123954670960 7.5139903045188499 20.5908802783376466 S
atom 5.3900738514294932 2.5053455636287163 24.9672049243718135 S
atom 9.6688205053174876 2.5091911443555439 25.5771306493799599 S
atom 4.6466416809361393 7.5313699687369136 25.5771306493799599 S
atom 10.4084316176123313 7.5237033298115445 24.9672049243718135 S
atom 2.5208146987475155 4.7515714321806239 20.5908802783376466 S
atom 7.5373179673712700 5.2394797287696235 20.0451870527901939 S
atom 2.5151391429899004 10.2616585531510136 20.0451870527901939 S
atom 7.5391724649303233 9.7699291983634389 20.5908802783376466 S
atom 2.5111016734548208 4.6485522100354109 24.9672049243718135 S
atom 7.5256138589108090 5.3881633223302128 25.5771306493799599 S
atom 2.5034350345294389 10.4103421467115993 25.5771306493799599 S
atom 7.5294594396376278 9.6669099762182320 24.9672049243718135 S
atom 2.2762717680159890 2.6912910688416329 27.7338869158190811 Ba
atom 7.3473349926232645 2.7401754690675464 27.7338869158190811 Ba
atom 2.3251561682419069 7.7623542934489151 27.7338869158190811 Ba
atom 7.2946295341988074 7.7096488350244528 27.7338869158190811 Ba
atom 2.5744252119732867 2.3577547158301821 32.4710353123420461 Ba
atom 7.6808713456347171 2.4420220251102478 32.4710353123420461 Ba
atom 2.6586925212533585 7.4642008494916130 32.4710353123420461 Ba
atom 7.5927829781561025 7.3761124820129931 32.4710353123420461 Ba
atom 5.0165839429115273 5.0195848744770206 30.3209933406668419 Zr
atom 10.0373989531706957 5.0182210603548345 30.3209933406668419 Zr
atom 5.0152201287893279 10.0403998847362139 30.3209933406668419 Zr
atom 10.0349417090943209 10.0379426406598462 30.3209933406668419 Zr
atom 4.7561314444618201 4.7087160262278056 27.7711452852644705 S
atom 10.3482678014199241 5.2786735588045417 27.7711452852644705 S
atom 5.3260889770385518 10.3008523831859140 27.7711452852644705 S
atom 9.7744892106446279 9.7270737924106161 27.7711452852644705 S
atom 5.1930006437438401 5.2848330912768420 32.8232239911899484 S
atom 9.7721507363708930 4.8418043595225146 32.8232239911899484 S
atom 4.7499719119895074 9.8639831839038727 32.8232239911899484 S
atom 10.2113584099266621 10.3031908574596471 32.8232239911899484 S
atom 5.2413902578689031 2.5170496720891768 30.4991485209616044 S
atom 9.7718397274627069 2.5189041696482395 29.9534552954141482 S
atom 4.7496609030813426 7.5410829940296003 29.9534552954141482 S
atom 10.2597480240517207 7.5354074382719958 30.4991485209616044 S
atom 2.4993975649943581 4.7972358035960205 30.4991485209616044 S
atom 7.5159008336181232 5.2851441001850077 29.9534552954141482 S
atom 2.4937220092367425 10.3073229245663800 29.9534552954141482 S
atom 7.5177553311771703 9.8155935697788141 30.4991485209616044 S
