#=======================================================
# FHI-aims file: sym_relax/sym_relax_RP_2_Rx0Mz_0Ry0.in
# Created using the Atomic Simulation Environment (ASE)
# Fri Mar 14 10:21:19 2025
#=======================================================
lattice_vector 10.0975490469445859 0.0000000000000000 0.0000000000000000 
lattice_vector 0.0000000000000000 10.0975455358613324 0.0000000000000000 
lattice_vector 0.0000000000000000 0.0000000000000000 25.4732416987695913 
atom -0.1651914735856223 -0.0000000000000000 0.2875206985355847 Ba
atom 5.2139717447947662 -0.0000000000000000 0.2875143583082792 Ba
atom 0.1651972213224785 5.0487727679306689 0.2875143583082792 Ba
atom 4.8835830498866670 5.0487727679306689 0.2875206985355846 Ba
atom 0.0439922529649260 0.0000000000000000 4.8987003266864573 Ba
atom 5.0047673161603310 0.0000000000000000 4.8987003266864573 Ba
atom -0.0440072073119568 5.0487727679306689 4.8987003266864573 Ba
atom 5.0927667764372080 5.0487727679306689 4.8987003266864573 Ba
atom 2.5243860722788520 2.5043314871070734 2.3639536537246206 Zr
atom 7.5731605957511388 2.5444412808235954 2.3639536537246206 Zr
atom 2.5243860722788520 7.5932140487542608 2.3639536537246206 Zr
atom 7.5731605957511388 7.5531042550377494 2.3639536537246206 Zr
atom 2.5243860722788520 2.5043314871070734 7.4334469996482975 Zr
atom 7.5731605957511388 2.5444412808235954 7.4334469996482975 Zr
atom 2.5243860722788520 7.5932140487542608 7.4334469996482975 Zr
atom 7.5731605957511388 7.5531042550377494 7.4334469996482975 Zr
atom 2.5243933641882128 2.8072835933239166 -0.1225258534084971 S
atom 7.5731678876605057 2.2414891746067584 -0.1225258534084971 S
atom 2.5243933641882128 7.2902619425374260 -0.1225258534084970 S
atom 7.5731678876605057 7.8560563612545824 -0.1225258534084970 S
atom 2.5243922618523960 2.1093353122679095 4.8987003266864573 S
atom 7.5731667853246805 2.9394374556627678 4.8987003266864573 S
atom 2.5243922618523960 7.9882102235934216 4.8987003266864573 S
atom 7.5731667853246805 7.1581080801985797 4.8987003266864573 S
atom 2.5243845154180145 -0.0000000000000000 2.0833836287936642 S
atom 7.5731595201791055 -0.0000000000000000 2.7784181910486665 S
atom 2.5243849967068228 5.0487727679306689 2.7784181910486665 S
atom 7.5731590388903021 5.0487727679306689 2.0833836287936642 S
atom 2.5243845154180145 -0.0000000000000000 7.7140170245792579 S
atom 7.5731595201791055 0.0000000000000000 7.0189824623242441 S
atom 2.5243849967068228 5.0487727679306689 7.0189824623242441 S
atom 7.5731590388903021 5.0487727679306689 7.7140170245792579 S
atom 0.0000030803105715 2.5243904034175402 2.4788152580714518 S
atom 5.0487776037828622 2.5243823645131287 2.4788152580714518 S
atom 0.0000030803105715 7.5731551324437891 2.4788152580714518 S
atom 5.0487776037828622 7.5731631713482077 2.4788152580714518 S
atom 0.0000030803105715 2.5243904034175402 7.3185853953014632 S
atom 5.0487776037828622 2.5243823645131287 7.3185853953014632 S
atom 0.0000030803105715 7.5731551324437891 7.3185853953014632 S
atom 5.0487776037828622 7.5731631713482077 7.3185853953014632 S
atom -0.1651914735856223 -0.0000000000000000 9.5098799548373272 Ba
atom 5.2139717447947662 0.0000000000000000 9.5098862950646446 Ba
atom 0.1651972213224785 5.0487727679306689 9.5098862950646446 Ba
atom 4.8835830498866670 5.0487727679306689 9.5098799548373272 Ba
atom 2.5243933641882128 2.8072835933239166 9.9199265067814224 S
atom 7.5731678876605057 2.2414891746067584 9.9199265067814224 S
atom 2.5243933641882128 7.2902619425374260 9.9199265067814224 S
atom 7.5731678876605057 7.8560563612545824 9.9199265067814224 S
atom 2.5243761563068539 2.6895731991072620 13.0241314178156919 Ba
atom 7.5731506797791486 2.3591995688234046 13.0241314178156919 Ba
atom 2.5243761563068539 7.4079723367540744 13.0241314178156919 Ba
atom 7.5731506797791486 7.7383459670379358 13.0241314178156919 Ba
atom 2.5244291516274360 2.4803502183151789 17.6353211760712334 Ba
atom 7.5732036750997187 2.5684225496154931 17.6353211760712334 Ba
atom 2.5244291516274360 7.6171953175461651 17.6353211760712334 Ba
atom 7.5732036750997187 7.5291229862458398 17.6353211760712334 Ba
atom 5.0688230651928796 5.0487727679306689 15.1005724607497420 Zr
atom 10.0774883266702151 5.0487727679306689 15.1005719194139481 Zr
atom 5.0287138031979177 10.0975455358613377 15.1005719194139481 Zr
atom 10.1175975886651646 10.0975455358613377 15.1005724607497420 Zr
atom 5.0688230651928796 5.0487727679306689 20.1700698913927106 Zr
atom 10.0774883266702151 5.0487727679306689 20.1700704327285187 Zr
atom 5.0287138031979177 10.0975455358613377 20.1700704327285187 Zr
atom 10.1175975886651646 10.0975455358613377 20.1700698913927106 Zr
atom 4.7658630199157734 5.0487727679306689 12.6140898339826997 S
atom 10.3804613787841866 5.0487727679306689 12.6140913822500309 S
atom 5.3316868553118830 10.0975455358613377 12.6140913822500309 S
atom 9.8146375433880397 10.0975455358613377 12.6140898339826997 S
atom 5.4638386923850941 5.0487727679306689 17.6353211760712334 S
atom 9.6825251769030753 5.0487727679306689 17.6353211760712334 S
atom 4.6337506534308215 10.0975455358613377 17.6353211760712334 S
atom 10.5126132158573853 10.0975455358613377 17.6353211760712334 S
atom 5.0487581166238495 2.5243875503416842 15.2154297348263761 S
atom 10.0975326400961389 2.5243852175889883 15.2154297348263761 S
atom 5.0487581166238495 7.5731579855196456 15.2154297348263761 S
atom 10.0975326400961389 7.5731603182723548 15.2154297348263761 S
atom 5.0487581166238495 2.5243875503416842 20.0552126173161049 S
atom 10.0975326400961389 2.5243852175889883 20.0552126173161049 S
atom 5.0487581166238495 7.5731579855196456 20.0552126173161049 S
atom 10.0975326400961389 7.5731603182723548 20.0552126173161049 S
atom 2.5243827025982206 5.0487727679306689 15.5150658514391733 S
atom 7.5731564338920450 5.0487727679306689 14.8200226926046454 S
atom 2.5243819104197582 10.0975455358613377 14.8200226926046454 S
atom 7.5731572260705082 10.0975455358613377 15.5150658514391733 S
atom 2.5243827025982206 5.0487727679306689 19.7555765007032988 S
atom 7.5731564338920450 5.0487727679306689 20.4506196595378604 S
atom 2.5243819104197582 10.0975455358613377 20.4506196595378604 S
atom 7.5731572260705082 10.0975455358613377 19.7555765007032988 S
atom 2.5243761563068539 2.6895731991072620 22.2465109343267997 Ba
atom 7.5731506797791486 2.3591995688234046 22.2465109343267997 Ba
atom 2.5243761563068539 7.4079723367540744 22.2465109343267997 Ba
atom 7.5731506797791486 7.7383459670379358 22.2465109343267997 Ba
atom 4.7658630199157734 5.0487727679306689 22.6565525181597778 S
atom 10.3804613787841866 5.0487727679306689 22.6565509698924501 S
atom 5.3316868553118830 10.0975455358613377 22.6565509698924501 S
atom 9.8146375433880397 10.0975455358613377 22.6565525181597778 S
