#=======================================================
# FHI-aims file: sym_relax/sym_relax_RP_3_RxRyMz_RxRy0.in
# Created using the Atomic Simulation Environment (ASE)
# Fri Mar 14 10:25:13 2025
#=======================================================
lattice_vector 10.0277224848129283 -0.0250528323226669 -0.0000004116389277 
lattice_vector -0.0250528323226671 10.0277224848129318 0.0000004116389277 
lattice_vector 0.0002189901648610 -0.0002189901648610 35.7906023846088530 
atom 0.0572001774341629 -0.1698352144773424 0.2312381192687469 Ba
atom 5.1836964568838102 -0.0697265935954965 0.2312379134492835 Ba
atom 0.1573087983160090 4.9566610649723151 0.2312383250882113 Ba
atom 5.0585350036793058 4.8314996117677893 0.2312381192687470 Ba
atom -0.2433406465095891 0.1831027771314178 4.9862619793423999 Ba
atom 4.8307584652750579 0.2308142303482547 4.9862617735229362 Ba
atom -0.1956291932927512 5.2572018889160601 4.9862621851618663 Ba
atom 4.7579941797355456 5.1844376033765505 4.9862619793424008 Ba
atom 2.4915176367770537 2.4957324379510371 2.3997103181448627 Zr
atom 7.5194636307005833 2.4972907733067502 2.3997101123253959 Zr
atom 2.4930759721327616 7.5236784318745480 2.3997105239643206 Zr
atom 7.4928524630221842 7.4970672641961578 2.3997103181448618 Zr
atom 2.5007130360735861 2.5006217901715542 7.4563754967935187 Zr
atom 7.5145742784800538 2.4880953740102236 7.4563752909740471 Zr
atom 2.4881866199122409 7.5144830325780205 7.4563757026129807 Zr
atom 7.5020478623187197 7.5019566164166935 7.4563754967935187 Zr
atom 2.6265760731237910 2.7192333680500349 -0.1054367707503631 S
atom 7.2959627006015770 2.3622323369600076 -0.1054369765698267 S
atom 2.2695750420337619 7.3886199955278196 -0.1054365649308991 S
atom 7.6279108993689260 7.7205681942951667 -0.1054367707503631 S
atom 2.2487820117300714 2.2046018093661264 4.9536380419933073 S
atom 7.8105942592854811 2.7400263983537285 4.9536378361738516 S
atom 2.7842066007176784 7.7664140569215556 4.9536382478127781 S
atom 7.2501168379752201 7.2059366356112733 4.9536380419933073 S
atom 2.7659783367822079 0.0021889908281324 2.2393976539827745 S
atom 7.2339828928938550 -0.0070667202677149 2.7422737220407649 S
atom 2.2075952343260585 5.0193209383000807 2.7422741336796901 S
atom 7.7673131630273442 5.0035238170732645 2.2393976539827745 S
atom 2.8924812455203428 -0.0087218983713284 7.7534388175117765 S
atom 7.1353324851946374 -0.0164221798533643 7.1593117644363415 S
atom 2.1089448266268236 5.0099654787144390 7.1593121760752583 S
atom 7.8938160717654817 4.9926129278738056 7.7534388175117765 S
atom -0.0147154069894654 2.2478829056242620 2.2393978598022333 S
atom 4.9958751303515152 2.7812131757577503 2.7422739278602304 S
atom -0.0305125282162861 7.8076008343255685 2.7422743394991582 S
atom 4.9866194192556694 7.2492177318694084 2.2393978598022350 S
atom -0.0038045177900046 2.1213799968861320 7.7534390233312376 S
atom 5.0052305899371570 2.8798635834569821 7.1593119702558035 S
atom -0.0211570686306366 7.9062512420247950 7.1593123818947211 S
atom 4.9975303084551355 7.1227148231312727 7.7534390233312358 S
atom 0.2434318924116137 -0.1831940230334429 9.9264890142446465 Ba
atom 5.1970552654399071 -0.2559583085729480 9.9264888084251819 Ba
atom 0.1706676068721101 4.7704293499948571 9.9264892200641111 Ba
atom 5.2447667186567566 4.8181408032117101 9.9264890142446465 Ba
atom -0.0571089315321373 0.1697439685753170 14.6815128743182957 Ba
atom 4.8441172738311638 0.0445825153708037 14.6815126684988293 Ba
atom -0.1822703847366503 5.0709701739386084 14.6815130801377656 Ba
atom 4.9442258947130071 5.1710787948204446 14.6815128743182957 Ba
atom 2.5099084353701127 2.5055111423920740 12.5130406754421912 Zr
atom 7.5096849262595162 2.4788999747136944 12.5130404696227142 Zr
atom 2.4832972676917269 7.5052876332814948 12.5130408812616505 Zr
atom 7.5112432616152480 7.5068459686372266 12.5130406754421930 Zr
atom 2.7526440604170905 2.7966417709769846 9.9591129515937453 S
atom 7.2185542976746282 2.2361643496667125 9.9591127457742683 S
atom 2.1921666391068175 7.2625520082345050 9.9591131574132135 S
atom 7.7539788866622272 7.7979765972221085 9.9591129515937471 S
atom 2.3748499990233696 2.2820102122930743 15.0181877643374069 S
atom 7.7331858563585412 2.6139584110604379 15.0181875585179530 S
atom 2.7067981977907349 7.6403460696282570 15.0181879701568732 S
atom 7.3761848252685045 7.2833450385382088 15.0181877643374069 S
atom 2.7938308378211074 -0.0180773579569780 12.1704768599073336 S
atom 7.2618353939327704 -0.0273330690528252 12.6733529279653769 S
atom 2.2354477353649562 4.9990545895149721 12.6733533396042812 S
atom 7.7951656640662472 4.9832574682881523 12.1704768599073336 S
atom 0.0055509417956441 2.2200304045853567 12.1704770657268337 S
atom 5.0161414791366310 2.7533606747188442 12.6733531337848362 S
atom -0.0102461794311757 7.7797483332866637 12.6733535454237529 S
atom 5.0068857680407888 7.2213652308304921 12.1704770657268302 S
atom 2.3310287514081169 2.5577790836919458 18.1265176811990329 Ba
atom 7.4574169849596625 2.6577796586756950 18.1265174753795755 Ba
atom 2.4310293263918643 7.6841673172434968 18.1265178870184727 Ba
atom 7.3323635776532576 7.5591139099370839 18.1265176811990329 Ba
atom 2.6839784325473586 2.2571102810893962 22.8815656805243890 Ba
atom 7.7580857875622096 2.3048299775364449 22.8815654747049599 Ba
atom 2.7316981289943993 7.3312176361042534 22.8815658863438784 Ba
atom 7.6853132587925010 7.2584451073345368 22.8815656805243961 Ba
atom 4.9965775626218756 4.9920471271558169 20.2949886576600207 Zr
atom 10.0244837677409091 4.9935656737070691 20.2949884518405952 Zr
atom 4.9980961091731180 10.0199533322748824 20.2949888634795030 Zr
atom 9.9979123888670127 9.9933819534009452 20.2949886576600242 Zr
atom 5.0014899442785721 5.0011797082116995 25.3516766890979817 Zr
atom 10.0153511866850717 4.9886532920503637 25.3516764832785029 Zr
atom 4.9889635281172371 10.0150409506181628 25.3516768949174676 Zr
atom 10.0028247705237341 10.0025145344568109 25.3516766890979817 Zr
atom 5.2201302237496199 5.1271251114122549 17.7898476442925499 S
atom 9.8894057834844968 4.7700130125793194 17.7898474384730889 S
atom 4.8630181249166942 9.7964006711471274 17.7898478501120074 S
atom 10.2214650499947588 10.1284599376573912 17.7898476442925499 S
atom 4.7055169760480346 4.7492603978575652 22.8489276212055437 S
atom 10.2672704970391813 5.2846262602809109 22.8489274153860578 S
atom 5.2408828384713741 10.3110139188487242 22.8489278270249905 S
atom 9.7068518022931638 9.7505952241026783 22.8489276212055543 S
atom 4.7487208177290894 2.4857742272569610 20.1346894194269623 S
atom 10.3085145717467945 2.4699730192870093 20.6375706210655920 S
atom 5.2821269131789919 7.4963606778548186 20.6375710327045425 S
atom 9.7500556439742372 7.4871090535020990 20.1346894194269623 S
atom 4.6222578049111505 2.4966626896200106 25.6487146839820923 S
atom 10.4071097422138354 2.4793090682355756 25.0546382825749276 S
atom 5.3807220836460168 7.5056967268033823 25.0546386942138497 S
atom 9.6235926311562672 7.4979975158651540 25.6487146839820852 S
atom 2.5030341828268439 5.2664752509225270 20.1346896252464411 S
atom 7.5201702170419349 4.7080163231499439 20.6375708268851028 S
atom 2.4937825584741318 9.7344039817177475 20.6375712385240142 S
atom 7.5043690090719704 10.2678100771676579 20.1346896252464482 S
atom 2.4921457204637982 5.3929382637404721 25.6487148898015533 S
atom 7.5108341680933730 4.6094211526829207 25.0546384883944135 S
atom 2.4844465095255663 9.6358088112507208 25.0546389000333463 S
atom 7.4934805467089376 10.3942730899856226 25.6487148898015498 S
atom 2.3176666297646653 2.7439143090888485 27.8217876976715282 Ba
atom 7.2712817595627586 2.6711417803191431 27.8217874918521098 Ba
atom 2.2448941009949506 7.6975294388869404 27.8217879034910247 Ba
atom 7.3190014560098051 7.7452491353339976 27.8217876976715282 Ba
atom 2.6706163109039132 2.4432455064863041 32.5768356969968806 Ba
atom 7.5719505621652896 2.3181920991798952 32.5768354911773841 Ba
atom 2.5455629035974940 7.3445797577477006 32.5768359028163772 Ba
atom 7.6719511371490405 7.4445803327314444 32.5768356969968806 Ba
atom 5.0064023259353005 5.0103122892675769 30.4083647205359284 Zr
atom 10.0062186056291758 4.9837409103936476 30.4083645147164781 Zr
atom 4.9798309470613704 10.0101285689614539 30.4083649263554001 Zr
atom 10.0077371521804395 10.0116471155126980 30.4083647205359249 Zr
atom 5.2974629125091299 5.2530990185658206 27.8544257569904374 S
atom 9.7634318763309107 4.6926803238198245 27.8544255511709515 S
atom 4.7370442177631249 9.7190679823876316 27.8544259628098771 S
atom 10.2987977387542724 10.2544338448109755 27.8544257569904339 S
atom 4.7828496648075323 4.8752343050111371 32.9135057339033850 S
atom 10.1412965898855951 5.2072935715213990 32.9135055280839524 S
atom 5.1149089313178120 10.2336812300892124 32.9135059397228176 S
atom 9.7841844910526845 9.8765691312562858 32.9135057339033779 S
atom 4.7208529753781505 2.5059987385685765 30.0657823454914208 S
atom 10.2806467293958352 2.4901975305986248 30.5686635471300789 S
atom 5.2542590708280885 7.5165851891664230 30.5686639587689939 S
atom 9.7221878016233259 7.5073335648137158 30.0657823454914137 S
atom 2.4828096715152239 5.2943430932734392 30.0657825513108712 S
atom 7.4999457057303260 4.7358841655008641 30.5686637529495222 S
atom 2.4735580471625194 9.7622718240686925 30.5686641645884514 S
atom 7.4841444977603668 10.2956779195185621 30.0657825513108712 S
