#=======================================================
# FHI-aims file: sym_relax/sym_relax_RP_9_00Mz_00Mz.in
# Created using the Atomic Simulation Environment (ASE)
# Mon Mar 17 16:27:57 2025
#=======================================================
lattice_vector 9.9086195299682682 0.0000000330151073 -0.0000000000000000 
lattice_vector 0.0000000330151073 9.9086195299683162 0.0000000000000000 
lattice_vector -0.0000000000000000 0.0000000000000000 97.8449461636326419 
atom -0.0000000000000000 0.0000000000000000 0.1615484076105243 Ba
atom 4.9543097649841359 0.0000000165075512 0.1615484076105243 Ba
atom 0.0000000165075539 4.9543097649841563 0.1615484076105242 Ba
atom 4.9543097814916921 4.9543097814917099 0.1615484076105243 Ba
atom -0.0000000000000000 0.0000000000000000 5.0649811712803157 Ba
atom 4.9543097649841359 0.0000000165075521 5.0649811712803157 Ba
atom 0.0000000165075538 4.9543097649841572 5.0649811712803157 Ba
atom 4.9543097814916921 4.9543097814917099 5.0649811712803157 Ba
atom 2.4771548907458460 2.4771548907458549 2.4347876691064902 Zr
atom 7.4314646557299815 2.4771549072534027 2.4347876691064902 Zr
atom 2.4771549072533943 7.4314646557300046 2.4347876691064902 Zr
atom 7.4314646722375359 7.4314646722375590 2.4347876691064902 Zr
atom 2.4771548907458460 2.4771548907458549 7.5729042427437312 Zr
atom 7.4314646557299815 2.4771549072534027 7.5729042427437312 Zr
atom 2.4771549072533943 7.4314646557300046 7.5729042427437312 Zr
atom 7.4314646722375359 7.4314646722375590 7.5729042427437312 Zr
atom 2.4771548907458460 2.4771548907458549 -0.1079962131105663 S
atom 7.4314646557299815 2.4771549072534027 -0.1079962131105663 S
atom 2.4771549072533943 7.4314646557300046 -0.1079962131105663 S
atom 7.4314646722375359 7.4314646722375599 -0.1079962131105663 S
atom 2.4771548907458460 2.4771548907458549 5.0356713824797890 S
atom 7.4314646557299815 2.4771549072534027 5.0356713824797890 S
atom 2.4771549072533943 7.4314646557300046 5.0356713824797890 S
atom 7.4314646722375359 7.4314646722375590 5.0356713824797890 S
atom 2.0524824495464378 -0.0000032832370692 2.5285036272232699 S
atom 7.8561370804218376 0.0000033162521725 2.5285036272232699 S
atom 2.9018273319452490 4.9543130647287752 2.5285036272232699 S
atom 7.0067922310381245 4.9543064982546285 2.5285036272232699 S
atom 2.9977808380112774 -0.0000003266704928 7.5895052873247284 S
atom 6.9108386919569851 0.0000003596855965 7.5895052873247284 S
atom 1.9565289434804081 4.9543101081621996 7.5895052873247284 S
atom 7.9520906195029584 4.9543094548212094 7.5895052873247284 S
atom 0.0000032997446213 2.9018273154377106 2.5285036272232699 S
atom 4.9543064817470652 2.0524824660539935 2.5285036272232699 S
atom -0.0000032667295132 7.0067922145305994 2.5285036272232699 S
atom 4.9543130812363119 7.8561370969294204 2.5285036272232699 S
atom 0.0000003431780448 1.9565289269728636 7.5895052873247284 S
atom 4.9543094383136435 2.9977808545188411 7.5895052873247284 S
atom -0.0000003101629372 7.9520906029954403 7.5895052873247284 S
atom 4.9543101246697390 6.9108387084645608 7.5895052873247284 S
atom -0.0000000000000000 0.0000000000000000 10.1538309886916629 Ba
atom 4.9543097649841359 0.0000000165075521 10.1538309886916629 Ba
atom 0.0000000165075538 4.9543097649841572 10.1538309886916629 Ba
atom 4.9543097814916921 4.9543097814917099 10.1538309886916629 Ba
atom -0.0000000000000004 0.0000000000000004 15.2624889545911824 Ba
atom 4.9543097649841359 0.0000000165075525 15.2624889545911824 Ba
atom 0.0000000165075534 4.9543097649841572 15.2624889545911824 Ba
atom 4.9543097814916921 4.9543097814917099 15.2624889545911824 Ba
atom 2.4771548907458456 2.4771548907458549 12.6946898736136493 Zr
atom 7.4314646557299815 2.4771549072534031 12.6946898736136493 Zr
atom 2.4771549072533938 7.4314646557300046 12.6946898736136493 Zr
atom 7.4314646722375359 7.4314646722375590 12.6946898736136493 Zr
atom 2.4771548907458456 2.4771548907458549 17.8139673558802478 Zr
atom 7.4314646557299815 2.4771549072534031 17.8139673558802478 Zr
atom 2.4771549072533938 7.4314646557300046 17.8139673558802478 Zr
atom 7.4314646722375359 7.4314646722375590 17.8139673558802478 Zr
atom 2.4771548907458460 2.4771548907458549 10.1451945239143075 S
atom 7.4314646557299815 2.4771549072534027 10.1451945239143075 S
atom 2.4771549072533943 7.4314646557300046 10.1451945239143075 S
atom 7.4314646722375359 7.4314646722375590 10.1451945239143075 S
atom 2.4771548907458456 2.4771548907458549 15.2602894506118503 S
atom 7.4314646557299815 2.4771549072534031 15.2602894506118503 S
atom 2.4771549072533938 7.4314646557300046 15.2602894506118503 S
atom 7.4314646722375359 7.4314646722375590 15.2602894506118503 S
atom 2.9798357210049722 -0.0000000308268813 12.7084651544368299 S
atom 6.9287838089633009 0.0000000638419854 12.7084651544368299 S
atom 1.9744740604867164 4.9543098123185931 12.7084651544368299 S
atom 7.9341455024966567 4.9543097506648177 12.7084651544368299 S
atom 2.9819614239623542 0.0000000119132097 17.8192216117696205 S
atom 6.9266581060059149 0.0000000211018949 17.8192216117696205 S
atom 1.9723483575293350 4.9543097695784875 17.8192216117696205 S
atom 7.9362712054540383 4.9543097934049145 17.8192216117696205 S
atom 0.0000000473344334 1.9744740439791677 12.7084651544368299 S
atom 4.9543097341572526 2.9798357375125373 12.7084651544368299 S
atom -0.0000000143193261 7.9341454859891352 12.7084651544368299 S
atom 4.9543098288261200 6.9287838254708811 12.7084651544368299 S
atom 0.0000000045943432 1.9723483410217906 17.8192216117696205 S
atom 4.9543097768973512 2.9819614404699184 17.8192216117696205 S
atom 0.0000000284207645 7.9362711889465203 17.8192216117696205 S
atom 4.9543097860860321 6.9266581225134845 17.8192216117696205 S
atom -0.0000000000000004 0.0000000000000004 20.3751720278965287 Ba
atom 4.9543097649841359 0.0000000165075525 20.3751720278965287 Ba
atom 0.0000000165075534 4.9543097649841572 20.3751720278965287 Ba
atom 4.9543097814916921 4.9543097814917099 20.3751720278965287 Ba
atom -0.0000000000000004 0.0000000000000004 25.4896464863062135 Ba
atom 4.9543097649841359 0.0000000165075525 25.4896464863062135 Ba
atom 0.0000000165075534 4.9543097649841572 25.4896464863062135 Ba
atom 4.9543097814916921 4.9543097814917099 25.4896464863062135 Ba
atom 2.4771548907458456 2.4771548907458549 22.9324092571013836 Zr
atom 7.4314646557299815 2.4771549072534031 22.9324092571013836 Zr
atom 2.4771549072533938 7.4314646557300046 22.9324092571013836 Zr
atom 7.4314646722375359 7.4314646722375590 22.9324092571013836 Zr
atom 2.4771548907458456 2.4771548907458549 28.0508511583225228 Zr
atom 7.4314646557299806 2.4771549072534031 28.0508511583225228 Zr
atom 2.4771549072533938 7.4314646557300055 28.0508511583225228 Zr
atom 7.4314646722375359 7.4314646722375608 28.0508511583225228 Zr
atom 2.4771548907458456 2.4771548907458549 20.3750540124969390 S
atom 7.4314646557299815 2.4771549072534031 20.3750540124969390 S
atom 2.4771549072533938 7.4314646557300046 20.3750540124969390 S
atom 7.4314646722375359 7.4314646722375590 20.3750540124969390 S
atom 2.4771548907458456 2.4771548907458549 25.4897645017058387 S
atom 7.4314646557299806 2.4771549072534031 25.4897645017058387 S
atom 2.4771549072533938 7.4314646557300055 25.4897645017058387 S
atom 7.4314646722375359 7.4314646722375608 25.4897645017058387 S
atom 2.9824713829035114 0.0000000119281862 22.9324092571013836 S
atom 6.9261481470647546 0.0000000210869184 22.9324092571013836 S
atom 1.9718383985881744 4.9543097695635243 22.9324092571013836 S
atom 7.9367811643951987 4.9543097934198936 22.9324092571013836 S
atom 2.9819614239623533 0.0000000119132097 28.0455969024331750 S
atom 6.9266581060059149 0.0000000211018949 28.0455969024331750 S
atom 1.9723483575293350 4.9543097695784875 28.0455969024331750 S
atom 7.9362712054540383 4.9543097934049163 28.0455969024331750 S
atom 0.0000000045793667 1.9718383820806336 22.9324092571013836 S
atom 4.9543097769123250 2.9824713994110743 22.9324092571013836 S
atom 0.0000000284357409 7.9367811478876824 22.9324092571013836 S
atom 4.9543097860710557 6.9261481635723321 22.9324092571013836 S
atom 0.0000000045943428 1.9723483410217906 28.0455969024331750 S
atom 4.9543097768973512 2.9819614404699193 28.0455969024331750 S
atom 0.0000000284207645 7.9362711889465238 28.0455969024331750 S
atom 4.9543097860860312 6.9266581225134862 28.0455969024331750 S
atom -0.0000000000000004 0.0000000000000004 30.6023295596115972 Ba
atom 4.9543097649841359 0.0000000165075525 30.6023295596115972 Ba
atom 0.0000000165075534 4.9543097649841572 30.6023295596115972 Ba
atom 4.9543097814916921 4.9543097814917099 30.6023295596115972 Ba
atom -0.0000000000000009 0.0000000000000009 35.7109875255111149 Ba
atom 4.9543097649841350 0.0000000165075530 35.7109875255111149 Ba
atom 0.0000000165075530 4.9543097649841581 35.7109875255111149 Ba
atom 4.9543097814916912 4.9543097814917108 35.7109875255111149 Ba
atom 2.4771548907458456 2.4771548907458549 33.1701286405891409 Zr
atom 7.4314646557299806 2.4771549072534031 33.1701286405891409 Zr
atom 2.4771549072533938 7.4314646557300055 33.1701286405891409 Zr
atom 7.4314646722375359 7.4314646722375608 33.1701286405891409 Zr
atom 2.4771548907458452 2.4771548907458549 38.2919142714589924 Zr
atom 7.4314646557299806 2.4771549072534036 38.2919142714589924 Zr
atom 2.4771549072533934 7.4314646557300055 38.2919142714589924 Zr
atom 7.4314646722375350 7.4314646722375608 38.2919142714589924 Zr
atom 2.4771548907458456 2.4771548907458549 30.6045290635909133 S
atom 7.4314646557299806 2.4771549072534031 30.6045290635909133 S
atom 2.4771549072533938 7.4314646557300055 30.6045290635909133 S
atom 7.4314646722375359 7.4314646722375608 30.6045290635909133 S
atom 2.4771548907458452 2.4771548907458549 35.7196239902884329 S
atom 7.4314646557299806 2.4771549072534031 35.7196239902884329 S
atom 2.4771549072533938 7.4314646557300055 35.7196239902884329 S
atom 7.4314646722375350 7.4314646722375608 35.7196239902884329 S
atom 2.9798357210049722 -0.0000000308268813 33.1563533597658875 S
atom 6.9287838089633009 0.0000000638419859 33.1563533597658875 S
atom 1.9744740604867159 4.9543098123185940 33.1563533597658875 S
atom 7.9341455024966567 4.9543097506648195 33.1563533597658875 S
atom 2.9977808380112765 -0.0000003266704919 38.2753132268779979 S
atom 6.9108386919569851 0.0000003596855969 38.2753132268779979 S
atom 1.9565289434804072 4.9543101081622005 38.2753132268779979 S
atom 7.9520906195029584 4.9543094548212121 38.2753132268779979 S
atom 0.0000000473344329 1.9744740439791677 33.1563533597658875 S
atom 4.9543097341572526 2.9798357375125373 33.1563533597658875 S
atom -0.0000000143193265 7.9341454859891369 33.1563533597658875 S
atom 4.9543098288261191 6.9287838254708829 33.1563533597658875 S
atom 0.0000003431780444 1.9565289269728645 38.2753132268779979 S
atom 4.9543094383136426 2.9977808545188420 38.2753132268779979 S
atom -0.0000003101629376 7.9520906029954439 38.2753132268779979 S
atom 4.9543101246697381 6.9108387084645635 38.2753132268779979 S
atom -0.0000000000000009 0.0000000000000009 40.7998373429224230 Ba
atom 4.9543097649841350 0.0000000165075530 40.7998373429224230 Ba
atom 0.0000000165075530 4.9543097649841581 40.7998373429224230 Ba
atom 4.9543097814916912 4.9543097814917108 40.7998373429224230 Ba
atom -0.0000000000000009 0.0000000000000009 45.7032701065922069 Ba
atom 4.9543097649841350 0.0000000165075530 45.7032701065922069 Ba
atom 0.0000000165075530 4.9543097649841581 45.7032701065922069 Ba
atom 4.9543097814916912 4.9543097814917108 45.7032701065922069 Ba
atom 2.4771548907458452 2.4771548907458549 43.4300308450962618 Zr
atom 7.4314646557299806 2.4771549072534036 43.4300308450962618 Zr
atom 2.4771549072533934 7.4314646557300055 43.4300308450962618 Zr
atom 7.4314646722375350 7.4314646722375608 43.4300308450962618 Zr
atom 2.4771548907458452 2.4771548907458549 40.8291471317230048 S
atom 7.4314646557299806 2.4771549072534036 40.8291471317230048 S
atom 2.4771549072533934 7.4314646557300055 40.8291471317230048 S
atom 7.4314646722375350 7.4314646722375608 40.8291471317230048 S
atom 2.4771548907458452 2.4771548907458549 45.9728147273133274 S
atom 7.4314646557299806 2.4771549072534036 45.9728147273133274 S
atom 2.4771549072533934 7.4314646557300055 45.9728147273133274 S
atom 7.4314646722375350 7.4314646722375608 45.9728147273133274 S
atom 2.0524824495464369 -0.0000032832370684 43.3363148869794443 S
atom 7.8561370804218358 0.0000033162521734 43.3363148869794443 S
atom 2.9018273319452481 4.9543130647287761 43.3363148869794443 S
atom 7.0067922310381245 4.9543064982546312 43.3363148869794443 S
atom 0.0000032997446209 2.9018273154377114 43.3363148869794443 S
atom 4.9543064817470635 2.0524824660539944 43.3363148869794443 S
atom -0.0000032667295141 7.0067922145306030 43.3363148869794443 S
atom 4.9543130812363110 7.8561370969294222 43.3363148869794443 S
atom 2.4771548907458452 2.4771548907458549 49.0840214894268598 Ba
atom 7.4314646557299806 2.4771549072534036 49.0840214894268598 Ba
atom 2.4771549072533934 7.4314646557300055 49.0840214894268598 Ba
atom 7.4314646722375350 7.4314646722375608 49.0840214894268598 Ba
atom 2.4771548907458452 2.4771548907458558 53.9874542530966366 Ba
atom 7.4314646557299806 2.4771549072534036 53.9874542530966366 Ba
atom 2.4771549072533934 7.4314646557300055 53.9874542530966366 Ba
atom 7.4314646722375350 7.4314646722375608 53.9874542530966366 Ba
atom 4.9543097814916912 4.9543097814917108 51.3572607509228334 Zr
atom 9.9086195464758227 4.9543097979992634 51.3572607509228334 Zr
atom 4.9543097979992359 9.9086195464758671 51.3572607509228334 Zr
atom 9.9086195629833824 9.9086195629834215 51.3572607509228334 Zr
atom 4.9543097814916912 4.9543097814917108 56.4953773245600317 Zr
atom 9.9086195464758227 4.9543097979992634 56.4953773245600317 Zr
atom 4.9543097979992359 9.9086195464758671 56.4953773245600317 Zr
atom 9.9086195629833824 9.9086195629834215 56.4953773245600317 Zr
atom 4.9543097814916912 4.9543097814917108 48.8144768687057677 S
atom 9.9086195464758227 4.9543097979992634 48.8144768687057677 S
atom 4.9543097979992359 9.9086195464758671 48.8144768687057677 S
atom 9.9086195629833842 9.9086195629834215 48.8144768687057677 S
atom 4.9543097814916912 4.9543097814917108 53.9581444642961259 S
atom 9.9086195464758227 4.9543097979992634 53.9581444642961259 S
atom 4.9543097979992359 9.9086195464758671 53.9581444642961259 S
atom 9.9086195629833824 9.9086195629834215 53.9581444642961259 S
atom 5.3789822061835419 2.4771581904904787 51.4509767090396011 S
atom 9.4839471052764157 2.4771516240163347 51.4509767090396011 S
atom 4.5296373567998316 7.4314613724929375 51.4509767090396011 S
atom 10.3332919876752296 7.4314679719821850 51.4509767090396011 S
atom 4.4336838177186992 2.4771552339239000 56.5119783691410191 S
atom 10.4292454937412682 2.4771545805829129 56.5119783691410191 S
atom 5.4749357452646725 7.4314643290595139 56.5119783691410191 S
atom 9.3879935992104002 7.4314650154156050 56.5119783691410191 S
atom 2.4771516075087754 4.5296373402922949 51.4509767090396011 S
atom 7.4314679554745995 5.3789822226911150 51.4509767090396011 S
atom 2.4771582069980176 10.3332919711677267 51.4509767090396011 S
atom 7.4314613890004608 9.4839471217839897 51.4509767090396011 S
atom 2.4771545640753501 5.4749357287571465 56.5119783691410191 S
atom 7.4314649989080248 4.4336838342262661 56.5119783691410191 S
atom 2.4771552504314407 9.3879935827028742 56.5119783691410191 S
atom 7.4314643455670399 10.4292455102488582 56.5119783691410191 S
atom 2.4771548907458452 2.4771548907458558 59.0763040705079518 Ba
atom 7.4314646557299806 2.4771549072534036 59.0763040705079518 Ba
atom 2.4771549072533934 7.4314646557300055 59.0763040705079518 Ba
atom 7.4314646722375350 7.4314646722375608 59.0763040705079518 Ba
atom 2.4771548907458447 2.4771548907458563 64.1849620364074980 Ba
atom 7.4314646557299806 2.4771549072534040 64.1849620364074980 Ba
atom 2.4771549072533929 7.4314646557300064 64.1849620364074980 Ba
atom 7.4314646722375350 7.4314646722375617 64.1849620364074980 Ba
atom 4.9543097814916912 4.9543097814917108 61.6171629554299045 Zr
atom 9.9086195464758209 4.9543097979992634 61.6171629554299045 Zr
atom 4.9543097979992359 9.9086195464758671 61.6171629554299045 Zr
atom 9.9086195629833824 9.9086195629834215 61.6171629554299045 Zr
atom 4.9543097814916912 4.9543097814917108 66.7364404376964870 Zr
atom 9.9086195464758209 4.9543097979992634 66.7364404376964870 Zr
atom 4.9543097979992359 9.9086195464758671 66.7364404376964870 Zr
atom 9.9086195629833824 9.9086195629834215 66.7364404376964870 Zr
atom 4.9543097814916912 4.9543097814917108 59.0676676057306693 S
atom 9.9086195464758227 4.9543097979992634 59.0676676057306693 S
atom 4.9543097979992359 9.9086195464758671 59.0676676057306693 S
atom 9.9086195629833824 9.9086195629834215 59.0676676057306693 S
atom 4.9543097814916912 4.9543097814917108 64.1827625324281001 S
atom 9.9086195464758209 4.9543097979992634 64.1827625324281001 S
atom 4.9543097979992359 9.9086195464758671 64.1827625324281001 S
atom 9.9086195629833824 9.9086195629834215 64.1827625324281001 S
atom 4.4516289347250124 2.4771549380802877 61.6309382362531650 S
atom 10.4113003767349586 2.4771548764265279 61.6309382362531650 S
atom 5.4569906282583673 7.4314646249031213 61.6309382362531650 S
atom 9.4059387162166956 7.4314647195719958 61.6309382362531650 S
atom 4.4495032317676193 2.4771548953401972 66.7416946935859414 S
atom 10.4134260796923339 2.4771549191666171 66.7416946935859414 S
atom 5.4591163312157605 7.4314646676432243 66.7416946935859414 S
atom 9.4038130132593238 7.4314646768319026 66.7416946935859414 S
atom 2.4771548599189654 5.4569906117508369 61.6309382362531650 S
atom 7.4314647030644210 4.4516289512325766 61.6309382362531650 S
atom 2.4771549545878253 9.4059386997091785 61.6309382362531650 S
atom 7.4314646414106553 10.4113003932425414 61.6309382362531650 S
atom 2.4771549026590578 5.4591163147082229 66.7416946935859414 S
atom 7.4314646603243171 4.4495032482751888 66.7416946935859414 S
atom 2.4771549118477392 9.4038129967518049 66.7416946935859414 S
atom 7.4314646841507477 10.4134260961999203 66.7416946935859414 S
atom 2.4771548907458447 2.4771548907458563 69.2976451097128461 Ba
atom 7.4314646557299806 2.4771549072534040 69.2976451097128461 Ba
atom 2.4771549072533929 7.4314646557300064 69.2976451097128461 Ba
atom 7.4314646722375350 7.4314646722375617 69.2976451097128461 Ba
atom 2.4771548907458447 2.4771548907458563 74.4121195681224918 Ba
atom 7.4314646557299806 2.4771549072534040 74.4121195681224918 Ba
atom 2.4771549072533929 7.4314646557300064 74.4121195681224918 Ba
atom 7.4314646722375350 7.4314646722375617 74.4121195681224918 Ba
atom 4.9543097814916912 4.9543097814917108 71.8548823389176334 Zr
atom 9.9086195464758209 4.9543097979992634 71.8548823389176334 Zr
atom 4.9543097979992359 9.9086195464758671 71.8548823389176334 Zr
atom 9.9086195629833824 9.9086195629834215 71.8548823389176334 Zr
atom 4.9543097814916903 4.9543097814917116 76.9733242401388367 Zr
atom 9.9086195464758209 4.9543097979992634 76.9733242401388367 Zr
atom 4.9543097979992359 9.9086195464758671 76.9733242401388367 Zr
atom 9.9086195629833824 9.9086195629834215 76.9733242401388367 Zr
atom 4.9543097814916912 4.9543097814917108 69.2975270943133381 S
atom 9.9086195464758209 4.9543097979992634 69.2975270943133381 S
atom 4.9543097979992359 9.9086195464758671 69.2975270943133381 S
atom 9.9086195629833824 9.9086195629834215 69.2975270943133381 S
atom 4.9543097814916903 4.9543097814917116 74.4122375835220566 S
atom 9.9086195464758209 4.9543097979992634 74.4122375835220566 S
atom 4.9543097979992359 9.9086195464758671 74.4122375835220566 S
atom 9.9086195629833824 9.9086195629834215 74.4122375835220566 S
atom 4.4489932728264581 2.4771548953252212 71.8548823389176334 S
atom 10.4139360386334943 2.4771549191815891 71.8548823389176334 S
atom 5.4596262901569128 7.4314646676581937 71.8548823389176334 S
atom 9.4033030543181599 7.4314646768169297 71.8548823389176334 S
atom 4.4495032317676193 2.4771548953401972 76.9680699842495244 S
atom 10.4134260796923339 2.4771549191666171 76.9680699842495244 S
atom 5.4591163312157605 7.4314646676432243 76.9680699842495244 S
atom 9.4038130132593221 7.4314646768319026 76.9680699842495244 S
atom 2.4771549026740298 5.4596262736493832 71.8548823389176334 S
atom 7.4314646603093450 4.4489932893340338 71.8548823389176334 S
atom 2.4771549118327649 9.4033030378106304 71.8548823389176334 S
atom 7.4314646841657135 10.4139360551410931 71.8548823389176334 S
atom 2.4771549026590578 5.4591163147082238 76.9680699842495244 S
atom 7.4314646603243162 4.4495032482751888 76.9680699842495244 S
atom 2.4771549118477387 9.4038129967518049 76.9680699842495244 S
atom 7.4314646841507477 10.4134260961999221 76.9680699842495244 S
atom 2.4771548907458447 2.4771548907458563 79.5248026414278542 Ba
atom 7.4314646557299806 2.4771549072534040 79.5248026414278542 Ba
atom 2.4771549072533929 7.4314646557300064 79.5248026414278542 Ba
atom 7.4314646722375350 7.4314646722375617 79.5248026414278542 Ba
atom 2.4771548907458443 2.4771548907458567 84.6334606073274216 Ba
atom 7.4314646557299797 2.4771549072534045 84.6334606073274216 Ba
atom 2.4771549072533925 7.4314646557300064 84.6334606073274216 Ba
atom 7.4314646722375342 7.4314646722375617 84.6334606073274216 Ba
atom 4.9543097814916903 4.9543097814917116 82.0926017224055187 Zr
atom 9.9086195464758209 4.9543097979992634 82.0926017224055187 Zr
atom 4.9543097979992359 9.9086195464758671 82.0926017224055187 Zr
atom 9.9086195629833824 9.9086195629834215 82.0926017224055187 Zr
atom 4.9543097814916903 4.9543097814917116 87.2143873532753133 Zr
atom 9.9086195464758209 4.9543097979992634 87.2143873532753133 Zr
atom 4.9543097979992350 9.9086195464758671 87.2143873532753133 Zr
atom 9.9086195629833824 9.9086195629834215 87.2143873532753133 Zr
atom 4.9543097814916903 4.9543097814917116 79.5270021454072662 S
atom 9.9086195464758209 4.9543097979992634 79.5270021454072662 S
atom 4.9543097979992359 9.9086195464758671 79.5270021454072662 S
atom 9.9086195629833824 9.9086195629834215 79.5270021454072662 S
atom 4.9543097814916903 4.9543097814917116 84.6420970721048889 S
atom 9.9086195464758209 4.9543097979992634 84.6420970721048889 S
atom 4.9543097979992350 9.9086195464758671 84.6420970721048889 S
atom 9.9086195629833824 9.9086195629834215 84.6420970721048889 S
atom 4.4516289347250124 2.4771549380802882 82.0788264415823079 S
atom 10.4113003767349586 2.4771548764265279 82.0788264415823079 S
atom 5.4569906282583673 7.4314646249031213 82.0788264415823079 S
atom 9.4059387162166956 7.4314647195719958 82.0788264415823079 S
atom 4.4336838177186992 2.4771552339239005 87.1977863086944041 S
atom 10.4292454937412682 2.4771545805829138 87.1977863086944041 S
atom 5.4749357452646725 7.4314643290595148 87.1977863086944041 S
atom 9.3879935992103984 7.4314650154156050 87.1977863086944041 S
atom 2.4771548599189650 5.4569906117508369 82.0788264415823079 S
atom 7.4314647030644201 4.4516289512325766 82.0788264415823079 S
atom 2.4771549545878249 9.4059386997091785 82.0788264415823079 S
atom 7.4314646414106553 10.4113003932425414 82.0788264415823079 S
atom 2.4771545640753496 5.4749357287571474 87.1977863086944041 S
atom 7.4314649989080239 4.4336838342262670 87.1977863086944041 S
atom 2.4771552504314402 9.3879935827028742 87.1977863086944041 S
atom 7.4314643455670391 10.4292455102488582 87.1977863086944041 S
atom 2.4771548907458443 2.4771548907458567 89.7223104247388505 Ba
atom 7.4314646557299797 2.4771549072534045 89.7223104247388505 Ba
atom 2.4771549072533925 7.4314646557300064 89.7223104247388505 Ba
atom 7.4314646722375342 7.4314646722375617 89.7223104247388505 Ba
atom 2.4771548907458443 2.4771548907458567 94.6257431884085065 Ba
atom 7.4314646557299797 2.4771549072534045 94.6257431884085065 Ba
atom 2.4771549072533925 7.4314646557300064 94.6257431884085065 Ba
atom 7.4314646722375342 7.4314646722375617 94.6257431884085065 Ba
atom 4.9543097814916903 4.9543097814917116 92.3525039269126466 Zr
atom 9.9086195464758209 4.9543097979992634 92.3525039269126466 Zr
atom 4.9543097979992350 9.9086195464758671 92.3525039269126466 Zr
atom 9.9086195629833824 9.9086195629834215 92.3525039269126466 Zr
atom 4.9543097814916903 4.9543097814917116 89.7516202135393115 S
atom 9.9086195464758209 4.9543097979992634 89.7516202135393115 S
atom 4.9543097979992350 9.9086195464758671 89.7516202135393115 S
atom 9.9086195629833824 9.9086195629834215 89.7516202135393115 S
atom 4.9543097814916903 4.9543097814917116 94.8952878091298118 S
atom 9.9086195464758209 4.9543097979992634 94.8952878091298118 S
atom 4.9543097979992350 9.9086195464758671 94.8952878091298118 S
atom 9.9086195629833824 9.9086195629834215 94.8952878091298118 S
atom 5.3789822061835402 2.4771581904904796 92.2587879687956303 S
atom 9.4839471052764157 2.4771516240163356 92.2587879687956303 S
atom 4.5296373567998316 7.4314613724929384 92.2587879687956303 S
atom 10.3332919876752278 7.4314679719821859 92.2587879687956303 S
atom 2.4771516075087745 4.5296373402922958 92.2587879687956303 S
atom 7.4314679554745986 5.3789822226911159 92.2587879687956303 S
atom 2.4771582069980171 10.3332919711677267 92.2587879687956303 S
atom 7.4314613890004591 9.4839471217839897 92.2587879687956303 S
