#=======================================================
# FHI-aims file: sym_relax/sym_relax_RP_2_RxRyRz_-Rx-RyRz.in
# Created using the Atomic Simulation Environment (ASE)
# Fri Mar 14 10:21:52 2025
#=======================================================
lattice_vector 10.0810422155743371 0.1195222208345729 -0.0000000000000000 
lattice_vector 0.1195222208345727 10.0810422155743336 0.0000000000000000 
lattice_vector -0.0000000000000000 0.0000000000000000 25.5129814529961081 
atom -0.0998308119936653 -0.0998264540670731 0.2830150601274877 Ba
atom 5.1403475618542371 0.1595919224109514 0.2830150601274877 Ba
atom 0.1595875644843593 5.1403519197808416 0.2830150601274878 Ba
atom 5.0004514062107761 5.0004557641373841 0.2830150601274877 Ba
atom 0.0263234484395861 0.0263234484395861 4.9063425871146356 Ba
atom 5.0141976593475839 0.0334376619777001 4.9063425871146356 Ba
atom 0.0334376619777001 5.0141976593475812 4.9063425871146356 Ba
atom 5.1266056666440356 5.1266056666440409 4.9063425871146356 Ba
atom 2.5408091764812553 2.5408097200526711 2.3647053867783847 Zr
atom 7.5999936059389430 2.6192341521404874 2.3647053867783847 Zr
atom 2.6192336085690648 7.5999941495103682 2.3647053867783847 Zr
atom 7.6410913946857022 7.6410919382571283 2.3647053867783847 Zr
atom 2.5408097200526689 2.5408091764812539 7.4479797874508904 Zr
atom 7.5999941495103664 2.6192336085690688 7.4479797874508904 Zr
atom 2.6192341521404887 7.5999936059389475 7.4479797874508904 Zr
atom 7.6410919382571292 7.6410913946857084 7.4479797874508904 Zr
atom 2.7330712068846768 2.7330735424614536 -0.1263035268515182 S
atom 7.4077297835301632 2.4269721217370654 -0.1263035268515183 S
atom 2.4269697861602855 7.4077321191069432 -0.1263035268515183 S
atom 7.8333534250891335 7.8333557606659117 -0.1263035268515183 S
atom 2.2948880262143749 2.2948880262143758 4.9063425871146356 S
atom 7.8459152997772490 2.8651553024073668 4.9063425871146356 S
atom 2.8651553024073673 7.8459152997772525 4.9063425871146356 S
atom 7.3951702444188223 7.3951702444188232 4.9063425871146356 S
atom 2.5202562742492538 0.0298812100797254 2.2328208458742562 S
atom 7.5607842400028158 0.0896421855258068 2.6833808508355599 S
atom 2.5800242426329349 5.0704021828956876 2.6833808508355599 S
atom 7.6205384924537123 5.1301634282841846 2.2328208458742562 S
atom 2.5202648335379094 0.0298799003375607 7.5798643283550318 S
atom 7.5607790833586863 0.0896411457260520 7.1293043233937157 S
atom 2.5800190859888010 5.0704011430959337 7.1293043233937157 S
atom 7.6205470517423590 5.1301621185420130 7.5798643283550318 S
atom 0.0298799003375603 2.5202648335379103 2.2328208458742562 S
atom 5.0704011430959275 2.5800190859888050 2.6833808508355599 S
atom 0.0896411457260514 7.5607790833586828 2.6833808508355599 S
atom 5.1301621185420103 7.6205470517423617 2.2328208458742562 S
atom 0.0298812100797259 2.5202562742492578 7.5798643283550318 S
atom 5.0704021828956929 2.5800242426329345 7.1293043233937157 S
atom 0.0896421855258072 7.5607842400028220 7.1293043233937157 S
atom 5.1301634282841810 7.6205384924537150 7.5798643283550318 S
atom -0.0998264540670730 -0.0998308119936654 9.5296701141018012 Ba
atom 5.1403519197808398 0.1595875644843595 9.5296701141018012 Ba
atom 0.1595919224109513 5.1403475618542371 9.5296701141018012 Ba
atom 5.0004557641373841 5.0004514062107832 9.5296701141018012 Ba
atom 2.7330735424614541 2.7330712068846763 9.9389887010807936 S
atom 7.4077321191069414 2.4269697861602846 9.9389887010807936 S
atom 2.4269721217370637 7.4077297835301676 9.9389887010807936 S
atom 7.8333557606659063 7.8333534250891370 9.9389887010807936 S
atom 2.6499719210958910 2.6499675631693012 13.0395057866255417 Ba
atom 7.4908357628223188 2.5100714075258490 13.0395057866255417 Ba
atom 2.5100757654524388 7.4908314048957294 13.0395057866255417 Ba
atom 7.7502541393003428 7.7502497813737516 13.0395057866255417 Ba
atom 2.5238176606626435 2.5238176606626417 17.6628333136127083 Ba
atom 7.6169856653289782 2.6362256679590979 17.6628333136127083 Ba
atom 2.6362256679590979 7.6169856653289774 17.6628333136127083 Ba
atom 7.6240998788670868 7.6240998788670948 17.6628333136127083 Ba
atom 5.1096141508254274 5.1096136072540030 15.1211961132764596 Zr
atom 10.1314719369420470 5.1507113960007658 15.1211961132764596 Zr
atom 5.1507119395721883 10.1314713933706582 15.1211961132764596 Zr
atom 10.2098963690298756 10.2098958254584744 15.1211961132764596 Zr
atom 5.1096136072540093 5.1096141508254300 20.2044705139489658 Zr
atom 10.1314713933706564 5.1507119395721892 20.2044705139489658 Zr
atom 5.1507113960007711 10.1314719369420612 20.2044705139489658 Zr
atom 10.2098958254584726 10.2098963690298792 20.2044705139489658 Zr
atom 4.9173521204220094 4.9173497848452232 12.6301871996465334 S
atom 10.3237357593508481 5.3429734264041908 12.6301871996465334 S
atom 5.3429757619809681 10.3237334237740797 12.6301871996465334 S
atom 10.0176343386264453 10.0176320030496839 12.6301871996465334 S
atom 5.3555353010923117 5.3555353010923135 17.6628333136127083 S
atom 9.8855502431037703 4.9047902457338868 17.6628333136127083 S
atom 4.9047902457338939 9.8855502431037738 17.6628333136127083 S
atom 10.4558175192967546 10.4558175192967617 17.6628333136127083 S
atom 5.0703990846737446 2.5800211444109937 15.4398715773336246 S
atom 10.1109270504273034 2.6397821198570748 14.9893115723723174 S
atom 5.1301670530574199 7.6205421172269565 14.9893115723723174 S
atom 10.1706813028782044 7.6803033626154464 15.4398715773336246 S
atom 5.0704042413178705 2.5800221842107480 19.8857950498917653 S
atom 10.1109184911386389 2.6397834295992419 20.3363550548530903 S
atom 5.1301584937687750 7.6205434269691263 20.3363550548530903 S
atom 10.1706864595223347 7.6803044024152030 19.8857950498917653 S
atom 2.5800221842107485 5.0704042413178758 15.4398715773336246 S
atom 7.6205434269691139 5.1301584937687705 14.9893115723723174 S
atom 2.6397834295992366 10.1109184911386549 14.9893115723723174 S
atom 7.6803044024152012 10.1706864595223241 15.4398715773336246 S
atom 2.5800211444109920 5.0703990846737437 19.8857950498917653 S
atom 7.6205421172269494 5.1301670530574208 20.3363550548530903 S
atom 2.6397821198570730 10.1109270504273034 20.3363550548530903 S
atom 7.6803033626154402 10.1706813028782026 19.8857950498917653 S
atom 2.6499675631693020 2.6499719210958896 22.2861608405998268 Ba
atom 7.4908314048957276 2.5100757654524406 22.2861608405998268 Ba
atom 2.5100714075258455 7.4908357628223259 22.2861608405998268 Ba
atom 7.7502497813737481 7.7502541393003499 22.2861608405998268 Ba
atom 4.9173497848452214 4.9173521204220068 22.6954794275788352 S
atom 10.3237334237740868 5.3429757619809681 22.6954794275788352 S
atom 5.3429734264041899 10.3237357593508534 22.6954794275788352 S
atom 10.0176320030496662 10.0176343386264577 22.6954794275788352 S
