#=======================================================
# FHI-aims file: sym_relax/sym_relax_RP_9_RxRy0_-Rx-Ry0.in
# Created using the Atomic Simulation Environment (ASE)
# Mon Mar 17 16:34:01 2025
#=======================================================
lattice_vector 10.0665437997998026 0.0970255112159440 0.0000000000000000 
lattice_vector 0.0970255112159440 10.0665437997997937 -0.0000000000000003 
lattice_vector 0.0000000000000000 -0.0000000000000025 94.9264259207062082 
atom -0.0831914000365053 -0.0831914000365052 0.2671643425654174 Ba
atom 5.1164632999364006 0.1317041556444757 0.2671643425654174 Ba
atom 0.1317041556444776 5.1164632999363890 0.2671643425654172 Ba
atom 4.9985932554713548 4.9985932554713717 0.2671643425654172 Ba
atom -0.0078580162322528 -0.0078580162322530 4.9420253435275727 Ba
atom 5.0411299161321539 0.0563707718402227 4.9420253435275727 Ba
atom 0.0563707718402246 5.0411299161321512 4.9420253435275727 Ba
atom 5.0739266392756059 5.0739266392756157 4.9420253435275727 Ba
atom 2.5346343025084552 2.5346343025084574 2.3305955488906518 Zr
atom 7.5804222528993073 2.5956631086073836 2.3305955488906531 Zr
atom 2.5956631086073854 7.5804222528993135 2.3305955488906531 Zr
atom 7.6164189580163235 7.6164189580163200 2.3305955488906518 Zr
atom 2.5424884176401932 2.5424884176401954 7.3541257792849910 Zr
atom 7.5725681377675711 2.5878089934756434 7.3541257792849883 Zr
atom 2.5878089934756492 7.5725681377675764 7.3541257792849883 Zr
atom 7.6242730731480552 7.6242730731480579 7.3541257792849910 Zr
atom 2.7729636215257858 2.7729636215257849 -0.1558593284606185 S
atom 7.3420929338819718 2.3573337895900535 -0.1558593284606185 S
atom 2.3573337895900508 7.3420929338819869 -0.1558593284606186 S
atom 7.8547482770336536 7.8547482770336554 -0.1558593284606186 S
atom 2.2275654175722712 2.2275654175722770 4.8777783932013561 S
atom 7.8874911378354868 2.9027319935435676 4.8777783932013543 S
atom 2.9027319935435649 7.8874911378354993 4.8777783932013561 S
atom 7.3093500730801475 7.3093500730801466 4.8777783932013561 S
atom 2.5166359499499489 0.0242563778039851 2.1645800759426979 S
atom 7.5499078498498466 0.0727691334119553 2.7081695970952362 S
atom 2.5651487055579207 5.0575282777038808 2.7081695970952353 S
atom 7.5984206054578154 5.1060410333118487 2.1645800759426979 S
atom 2.5166359499499489 0.0242563778039850 7.7097995335150058 S
atom 7.5499078498498466 0.0727691334119552 7.0186924687829855 S
atom 2.5651487055579207 5.0575282777038808 7.0186924687829855 S
atom 7.5984206054578154 5.1060410333118487 7.7097995335150058 S
atom 0.0242563778039861 2.5166359499499511 2.1645800759426979 S
atom 5.0575282777038799 2.5651487055579207 2.7081695970952362 S
atom 0.0727691334119582 7.5499078498498422 2.7081695970952353 S
atom 5.1060410333118540 7.5984206054578181 2.1645800759426979 S
atom 0.0242563778039861 2.5166359499499511 7.7097995335150058 S
atom 5.0575282777038799 2.5651487055579207 7.0186924687829855 S
atom 0.0727691334119582 7.5499078498498422 7.0186924687829855 S
atom 5.1060410333118540 7.5984206054578181 7.7097995335150058 S
atom 0.0343685249583548 0.0343685249583546 9.8523387435308294 Ba
atom 4.9989033749415412 0.0141442306496148 9.8523387435308276 Ba
atom 0.0141442306496170 4.9989033749415510 9.8523387435308276 Ba
atom 5.1161531804662079 5.1161531804662159 9.8523387435308276 Ba
atom -0.0356156212314774 -0.0356156212314778 14.8091727362879286 Ba
atom 5.0688875211313684 0.0841283768394470 14.8091727362879286 Ba
atom 0.0841283768394490 5.0688875211313702 14.8091727362879304 Ba
atom 5.0461690342763914 5.0461690342763914 14.8091727362879304 Ba
atom 2.5414827599831851 2.5414827599831833 12.3214488202839991 Zr
atom 7.5735737954245721 2.5888146511326546 12.3214488202839991 Zr
atom 2.5888146511326502 7.5735737954245801 12.3214488202839991 Zr
atom 7.6232674154910471 7.6232674154910596 12.3214488202839991 Zr
atom 2.5407020282471495 2.5407020282471491 17.2853971396934725 Zr
atom 7.5743545271606223 2.5895953828686893 17.2853971396934618 Zr
atom 2.5895953828686933 7.5743545271606152 17.2853971396934618 Zr
atom 7.6224866837550129 7.6224866837550138 17.2853971396934725 Zr
atom 2.8910280534707171 2.8910280534707176 9.8444340865145605 S
atom 7.2240285019370472 2.2392693576451204 9.8444340865145659 S
atom 2.2392693576451195 7.2240285019370454 9.8444340865145659 S
atom 7.9728127089785934 7.9728127089785925 9.8444340865145605 S
atom 2.1867526959353110 2.1867526959353119 14.8057166606688604 S
atom 7.9283038594724466 2.9435447151805252 14.8057166606688497 S
atom 2.9435447151805247 7.9283038594724555 14.8057166606688497 S
atom 7.2685373514431815 7.2685373514431832 14.8057166606688604 S
atom 2.5166359499499489 0.0242563778039849 11.9643527798985883 S
atom 7.5499078498498466 0.0727691334119551 12.6922934509946810 S
atom 2.5651487055579207 5.0575282777038808 12.6922934509946810 S
atom 7.5984206054578154 5.1060410333118487 11.9643527798985883 S
atom 2.5166359499499489 0.0242563778039847 17.6530801720070514 S
atom 7.5499078498498466 0.0727691334119550 16.9220823009054193 S
atom 2.5651487055579207 5.0575282777038808 16.9220823009054193 S
atom 7.5984206054578154 5.1060410333118487 17.6530801720070514 S
atom 0.0242563778039861 2.5166359499499511 11.9643527798985883 S
atom 5.0575282777038799 2.5651487055579207 12.6922934509946810 S
atom 0.0727691334119582 7.5499078498498422 12.6922934509946810 S
atom 5.1060410333118540 7.5984206054578181 11.9643527798985883 S
atom 0.0242563778039861 2.5166359499499507 17.6530801720070514 S
atom 5.0575282777038799 2.5651487055579203 16.9220823009054193 S
atom 0.0727691334119582 7.5499078498498422 16.9220823009054193 S
atom 5.1060410333118540 7.5984206054578181 17.6530801720070514 S
atom 0.0361468445354909 0.0361468445354904 19.7678550079103381 Ba
atom 4.9971250553643944 0.0123659110724788 19.7678550079103310 Ba
atom 0.0123659110724813 4.9971250553644095 19.7678550079103310 Ba
atom 5.1179315000433485 5.1179315000433547 19.7678550079103381 Ba
atom -0.0361468445354910 -0.0361468445354916 24.7289071424206490 Ba
atom 5.0694187444353860 0.0846596001434606 24.7289071424206561 Ba
atom 0.0846596001434630 5.0694187444353886 24.7289071424206490 Ba
atom 5.0456378109723765 5.0456378109723774 24.7289071424206419 Ba
atom 2.5408923277539319 2.5408923277539324 22.2483810751654794 Zr
atom 7.5741642276538217 2.5894050833619060 22.2483810751654794 Zr
atom 2.5894050833619078 7.5741642276538332 22.2483810751654794 Zr
atom 7.6226769832618064 7.6226769832618055 22.2483810751654794 Zr
atom 2.5410826272607170 2.5410826272607214 27.2113650106374969 Zr
atom 7.5739739281470388 2.5892147838551183 27.2113650106375005 Zr
atom 2.5892147838551152 7.5739739281470309 27.2113650106375005 Zr
atom 7.6228672827685866 7.6228672827685955 27.2113650106374969 Zr
atom 2.8956747259693270 2.8956747259693230 19.7675609110481361 S
atom 7.2193818294384329 2.2346226851465145 19.7675609110481361 S
atom 2.2346226851465141 7.2193818294384400 19.7675609110481361 S
atom 7.9774593814771855 7.9774593814771988 19.7675609110481361 S
atom 2.1861099295385413 2.1861099295385440 24.7292012392828937 S
atom 7.9289466258692114 2.9441874815772939 24.7292012392828973 S
atom 2.9441874815772970 7.9289466258692203 24.7292012392828973 S
atom 7.2678945850464087 7.2678945850464087 24.7292012392828937 S
atom 2.5166359499499489 0.0242563778039846 21.8823684427471292 S
atom 7.5499078498498466 0.0727691334119548 22.6143937075838757 S
atom 2.5651487055579207 5.0575282777038808 22.6143937075838757 S
atom 7.5984206054578154 5.1060410333118487 21.8823684427471292 S
atom 2.5166359499499489 0.0242563778039845 27.5746798494255749 S
atom 7.5499078498498466 0.0727691334119547 26.8436819783238967 S
atom 2.5651487055579207 5.0575282777038808 26.8436819783238967 S
atom 7.5984206054578154 5.1060410333118487 27.5746798494255749 S
atom 0.0242563778039861 2.5166359499499507 21.8823684427471292 S
atom 5.0575282777038799 2.5651487055579203 22.6143937075838757 S
atom 0.0727691334119582 7.5499078498498422 22.6143937075838757 S
atom 5.1060410333118540 7.5984206054578181 21.8823684427471292 S
atom 0.0242563778039861 2.5166359499499507 27.5746798494255749 S
atom 5.0575282777038799 2.5651487055579203 26.8436819783238967 S
atom 0.0727691334119582 7.5499078498498422 26.8436819783238967 S
atom 5.1060410333118540 7.5984206054578181 27.5746798494255749 S
atom 0.0356156212314773 0.0356156212314766 29.6875894140430674 Ba
atom 4.9976562786684235 0.0128971343764926 29.6875894140430709 Ba
atom 0.0128971343764953 4.9976562786684218 29.6875894140430709 Ba
atom 5.1174002767393363 5.1174002767393416 29.6875894140430674 Ba
atom -0.0343685249583548 -0.0343685249583558 34.6444234068001435 Ba
atom 5.0676404248582418 0.0828812805663247 34.6444234068001435 Ba
atom 0.0828812805663275 5.0676404248582498 34.6444234068001435 Ba
atom 5.0474161305495198 5.0474161305495162 34.6444234068001435 Ba
atom 2.5403018955246823 2.5403018955246846 32.1753133300469685 Zr
atom 7.5747546598830873 2.5899955155911525 32.1753133300469685 Zr
atom 2.5899955155911556 7.5747546598830819 32.1753133300469685 Zr
atom 7.6220865510325435 7.6220865510325444 32.1753133300469685 Zr
atom 2.5392962378676747 2.5392962378676733 37.1426363710459952 Zr
atom 7.5757603175400856 2.5910011732481619 37.1426363710459952 Zr
atom 2.5910011732481615 7.5757603175400865 37.1426363710459952 Zr
atom 7.6210808933755372 7.6210808933755434 37.1426363710459952 Zr
atom 2.8950319595725569 2.8950319595725547 29.6910454896621658 S
atom 7.2200245958352003 2.2352654515432815 29.6910454896621623 S
atom 2.2352654515432855 7.2200245958352118 29.6910454896621623 S
atom 7.9768166150804172 7.9768166150804261 29.6910454896621658 S
atom 2.1907566020371494 2.1907566020371476 34.6523280638164053 S
atom 7.9242999533706140 2.9395408090786859 34.6523280638163769 S
atom 2.9395408090786894 7.9242999533706193 34.6523280638163769 S
atom 7.2725412575450052 7.2725412575450177 34.6523280638164053 S
atom 2.5166359499499489 0.0242563778039844 31.8044686993362760 S
atom 7.5499078498498466 0.0727691334119546 32.5324093704323829 S
atom 2.5651487055579207 5.0575282777038799 32.5324093704323900 S
atom 7.5984206054578154 5.1060410333118478 31.8044686993362760 S
atom 2.5166359499499489 0.0242563778039842 37.4780696815479715 S
atom 7.5499078498498466 0.0727691334119545 36.7869626168159485 S
atom 2.5651487055579207 5.0575282777038799 36.7869626168159485 S
atom 7.5984206054578154 5.1060410333118478 37.4780696815479715 S
atom 0.0242563778039861 2.5166359499499507 31.8044686993362760 S
atom 5.0575282777038799 2.5651487055579203 32.5324093704323829 S
atom 0.0727691334119582 7.5499078498498413 32.5324093704323829 S
atom 5.1060410333118540 7.5984206054578172 31.8044686993362760 S
atom 0.0242563778039861 2.5166359499499507 37.4780696815479715 S
atom 5.0575282777038799 2.5651487055579203 36.7869626168159485 S
atom 0.0727691334119582 7.5499078498498413 36.7869626168159485 S
atom 5.1060410333118540 7.5984206054578172 37.4780696815479715 S
atom 0.0078580162322528 0.0078580162322518 39.5547368068034473 Ba
atom 5.0254138836676416 0.0406547393757168 39.5547368068034473 Ba
atom 0.0406547393757198 5.0254138836676425 39.5547368068034473 Ba
atom 5.0896426717401182 5.0896426717401244 39.5547368068034473 Ba
atom 0.0831914000365053 0.0831914000365041 44.2295978077655576 Ba
atom 4.9500804998633940 -0.0346786444285360 44.2295978077655576 Ba
atom -0.0346786444285330 4.9500804998633949 44.2295978077655576 Ba
atom 5.1649760555443676 5.1649760555443729 44.2295978077655576 Ba
atom 2.5471503529994108 2.5471503529994126 42.1661666014402954 Zr
atom 7.5679062024083450 2.5831470581164262 42.1661666014402812 Zr
atom 2.5831470581164253 7.5679062024083512 42.1661666014402812 Zr
atom 7.6289350085072813 7.6289350085072787 42.1661666014402954 Zr
atom 2.8542192379355900 2.8542192379355917 39.6189837571296124 S
atom 7.2608373174721654 2.2760781731802435 39.6189837571296124 S
atom 2.2760781731802493 7.2608373174721814 39.6189837571296124 S
atom 7.9360038934434600 7.9360038934434618 39.6189837571296124 S
atom 2.3088210339820803 2.3088210339820816 44.6526214787916587 S
atom 7.8062355214256822 2.8214763771337577 44.6526214787916587 S
atom 2.8214763771337585 7.8062355214256778 44.6526214787916587 S
atom 7.3906056894899450 7.3906056894899459 44.6526214787916587 S
atom 2.5166359499499489 0.0242563778039841 41.7885925532357874 S
atom 7.5499078498498466 0.0727691334119543 42.3321820743883066 S
atom 2.5651487055579207 5.0575282777038799 42.3321820743883066 S
atom 7.5984206054578154 5.1060410333118478 41.7885925532357874 S
atom 0.0242563778039861 2.5166359499499507 41.7885925532357874 S
atom 5.0575282777038799 2.5651487055579203 42.3321820743883066 S
atom 0.0727691334119582 7.5499078498498413 42.3321820743883066 S
atom 5.1060410333118540 7.5984206054578172 41.7885925532357874 S
atom 2.6240837277904450 2.6240837277904436 47.7303773029184910 Ba
atom 7.4909728276173242 2.5062136833253947 47.7303773029184910 Ba
atom 2.5062136833253961 7.4909728276173277 47.7303773029184910 Ba
atom 7.7058683832982968 7.7058683832983013 47.7303773029184910 Ba
atom 2.5487503439861801 2.5487503439861783 52.4052383038805445 Ba
atom 7.5663062114215762 2.5815470671296539 52.4052383038805445 Ba
atom 2.5815470671296592 7.5663062114215798 52.4052383038805445 Ba
atom 7.6305349994940528 7.6305349994940563 52.4052383038805445 Ba
atom 5.0880426807533334 5.0880426807533503 49.7938085092436964 Zr
atom 10.1087985301622787 5.1240393858703595 49.7938085092436964 Zr
atom 5.1240393858703630 10.1087985301622894 49.7938085092436964 Zr
atom 10.1698273362612124 10.1698273362612301 49.7938085092436964 Zr
atom 5.0801885656216097 5.0801885656216088 54.8173387396380534 Zr
atom 10.1166526452940335 5.1318935010020921 54.8173387396380534 Zr
atom 5.1318935010020974 10.1166526452940335 54.8173387396380534 Zr
atom 10.1619732211294789 10.1619732211294806 54.8173387396380534 Zr
atom 4.8497133617359980 4.8497133617360131 47.3073536318923544 S
atom 10.3471278491796088 5.3623687048876896 47.3073536318923544 S
atom 5.3623687048876905 10.3471278491796106 47.3073536318923544 S
atom 9.9314980172438805 9.9314980172438929 47.3073536318923544 S
atom 5.3951115656895237 5.3951115656895263 52.3409913535544433 S
atom 9.8017296452260894 4.8169705009341763 52.3409913535544433 S
atom 4.8169705009341746 9.8017296452261071 52.3409913535544433 S
atom 10.4768962211974035 10.4768962211974124 52.3409913535544433 S
atom 5.0575282777038799 2.5651487055579194 50.1713825574482541 S
atom 10.0908001776037626 2.6136614611658882 49.6277930362957775 S
atom 5.1060410333118540 7.5984206054578172 49.6277930362957775 S
atom 10.1393129332117535 7.6469333610657912 50.1713825574482541 S
atom 5.0575282777038799 2.5651487055579194 54.4819054291360487 S
atom 10.0908001776037626 2.6136614611658882 55.1730124938681499 S
atom 5.1060410333118540 7.5984206054578172 55.1730124938681499 S
atom 10.1393129332117535 7.6469333610657912 54.4819054291360487 S
atom 2.5651487055579207 5.0575282777038799 50.1713825574482541 S
atom 7.5984206054578154 5.1060410333118478 49.6277930362957775 S
atom 2.6136614611658913 10.0908001776037715 49.6277930362957775 S
atom 7.6469333610657788 10.1393129332117500 50.1713825574482541 S
atom 2.5651487055579207 5.0575282777038799 54.4819054291360487 S
atom 7.5984206054578154 5.1060410333118478 55.1730124938681499 S
atom 2.6136614611658913 10.0908001776037715 55.1730124938681499 S
atom 7.6469333610657788 10.1393129332117500 54.4819054291360487 S
atom 2.5065238027955763 2.5065238027955723 57.3155517038839264 Ba
atom 7.6085327526121818 2.6237736083202616 57.3155517038839335 Ba
atom 2.6237736083202634 7.6085327526121791 57.3155517038839335 Ba
atom 7.5883084583034455 7.5883084583034535 57.3155517038839264 Ba
atom 2.5765079489854084 2.5765079489854088 62.2723856966410239 Ba
atom 7.5385486064223546 2.5537894621304225 62.2723856966409883 Ba
atom 2.5537894621304251 7.5385486064223572 62.2723856966409883 Ba
atom 7.6582926044932691 7.6582926044932798 62.2723856966410239 Ba
atom 5.0811942232786134 5.0811942232786116 59.7846617806370659 Zr
atom 10.1156469876370139 5.1308878433450955 59.7846617806370659 Zr
atom 5.1308878433450973 10.1156469876370263 59.7846617806370659 Zr
atom 10.1629788787864719 10.1629788787864808 59.7846617806370659 Zr
atom 5.0819749550146485 5.0819749550146529 64.7486101000465624 Zr
atom 10.1148662559009601 5.1301071116090471 64.7486101000465624 Zr
atom 5.1301071116090480 10.1148662559009779 64.7486101000465624 Zr
atom 10.1637596105225274 10.1637596105225274 64.7486101000465624 Zr
atom 4.7316489297910742 4.7316489297910813 57.3076470468676575 S
atom 10.4651922811245441 5.4804331368326293 57.3076470468676575 S
atom 5.4804331368326240 10.4651922811245566 57.3076470468676575 S
atom 9.8134335852989452 9.8134335852989576 57.3076470468676575 S
atom 5.4359242873264879 5.4359242873264879 62.2689296210219752 S
atom 9.7609169235891500 4.7761577792972183 62.2689296210219752 S
atom 4.7761577792972165 9.7609169235891518 62.2689296210219752 S
atom 10.5177089428343411 10.5177089428343535 62.2689296210219752 S
atom 5.0575282777038799 2.5651487055579194 60.1555064113477869 S
atom 10.0908001776037626 2.6136614611658882 59.4275657402516728 S
atom 5.1060410333118540 7.5984206054578172 59.4275657402516728 S
atom 10.1393129332117535 7.6469333610657912 60.1555064113477869 S
atom 5.0575282777038799 2.5651487055579190 64.3852952612584346 S
atom 10.0908001776037626 2.6136614611658877 65.1162931323600986 S
atom 5.1060410333118540 7.5984206054578172 65.1162931323600986 S
atom 10.1393129332117535 7.6469333610657912 64.3852952612584346 S
atom 2.5651487055579207 5.0575282777038799 60.1555064113477869 S
atom 7.5984206054578154 5.1060410333118478 59.4275657402516728 S
atom 2.6136614611658913 10.0908001776037715 59.4275657402516799 S
atom 7.6469333610657788 10.1393129332117500 60.1555064113477869 S
atom 2.5651487055579207 5.0575282777038799 64.3852952612584346 S
atom 7.5984206054578154 5.1060410333118478 65.1162931323600986 S
atom 2.6136614611658913 10.0908001776037697 65.1162931323600986 S
atom 7.6469333610657788 10.1393129332117482 64.3852952612584346 S
atom 2.5047454832184473 2.5047454832184406 67.2310679682634742 Ba
atom 7.6103110721893046 2.6255519278973947 67.2310679682634742 Ba
atom 2.6255519278973956 7.6103110721893250 67.2310679682634742 Ba
atom 7.5865301387263067 7.5865301387263102 67.2310679682634742 Ba
atom 2.5770391722894246 2.5770391722894241 72.1921201027737141 Ba
atom 7.5380173831183326 2.5532582388264116 72.1921201027737141 Ba
atom 2.5532582388264107 7.5380173831183406 72.1921201027737141 Ba
atom 7.6588238277972875 7.6588238277972982 72.1921201027737141 Ba
atom 5.0817846555078638 5.0817846555078647 69.7115940355185586 Zr
atom 10.1150565554077598 5.1302974111158406 69.7115940355185586 Zr
atom 5.1302974111158415 10.1150565554077598 69.7115940355185586 Zr
atom 10.1635693110157277 10.1635693110157295 69.7115940355185586 Zr
atom 5.0815943560010766 5.0815943560010810 74.6745779709904269 Zr
atom 10.1152468549145542 5.1304877106226279 74.6745779709904411 Zr
atom 5.1304877106226296 10.1152468549145542 74.6745779709904411 Zr
atom 10.1633790115089333 10.1633790115089404 74.6745779709904269 Zr
atom 4.7270022572924724 4.7270022572924804 67.2307738714011549 S
atom 10.4698389536231460 5.4850798093312312 67.2307738714011265 S
atom 5.4850798093312303 10.4698389536231424 67.2307738714011265 S
atom 9.8087869128003433 9.8087869128003451 67.2307738714011549 S
atom 5.4365670537232571 5.4365670537232589 72.1924141996359765 S
atom 9.7602741571923790 4.7755150129004456 72.1924141996359907 S
atom 4.7755150129004420 9.7602741571923790 72.1924141996359907 S
atom 10.5183517092311245 10.5183517092311138 72.1924141996359765 S
atom 5.0575282777038799 2.5651487055579190 70.0776066679370473 S
atom 10.0908001776037626 2.6136614611658877 69.3455814031000699 S
atom 5.1060410333118540 7.5984206054578172 69.3455814031000699 S
atom 10.1393129332117535 7.6469333610657912 70.0776066679370473 S
atom 5.0575282777038799 2.5651487055579190 74.3068949386770186 S
atom 10.0908001776037626 2.6136614611658877 75.0378928097786257 S
atom 5.1060410333118540 7.5984206054578172 75.0378928097786257 S
atom 10.1393129332117535 7.6469333610657912 74.3068949386770186 S
atom 2.5651487055579207 5.0575282777038799 70.0776066679370473 S
atom 7.5984206054578154 5.1060410333118478 69.3455814031000699 S
atom 2.6136614611658913 10.0908001776037697 69.3455814031000699 S
atom 7.6469333610657788 10.1393129332117482 70.0776066679370473 S
atom 2.5651487055579207 5.0575282777038799 74.3068949386770186 S
atom 7.5984206054578154 5.1060410333118478 75.0378928097786257 S
atom 2.6136614611658913 10.0908001776037697 75.0378928097786257 S
atom 7.6469333610657788 10.1393129332117482 74.3068949386770186 S
atom 2.5052767065224559 2.5052767065224564 77.1508023743960649 Ba
atom 7.6097798488853021 2.6250207045933802 77.1508023743960649 Ba
atom 2.6250207045933829 7.6097798488852986 77.1508023743960649 Ba
atom 7.5870613620303260 7.5870613620303313 77.1508023743960649 Ba
atom 2.5752608527122920 2.5752608527122933 82.1076363671532192 Ba
atom 7.5397957026954678 2.5550365584035433 82.1076363671532334 Ba
atom 2.5550365584035482 7.5397957026954820 82.1076363671532334 Ba
atom 7.6570455082201416 7.6570455082201470 82.1076363671532192 Ba
atom 5.0823750877371223 5.0823750877371179 79.6385262903998523 Zr
atom 10.1144661231785147 5.1297069788865866 79.6385262903998523 Zr
atom 5.1297069788865750 10.1144661231785005 79.6385262903998523 Zr
atom 10.1641597432449871 10.1641597432450013 79.6385262903998523 Zr
atom 5.0833807453941207 5.0833807453941198 84.6058493313990994 Zr
atom 10.1134604655215039 5.1287013212295731 84.6058493313990994 Zr
atom 5.1287013212295776 10.1134604655215004 84.6058493313990994 Zr
atom 10.1651654009019836 10.1651654009019872 84.6058493313990994 Zr
atom 4.7276450236892389 4.7276450236892451 77.1542584500152060 S
atom 10.4691961872263732 5.4844370429344602 77.1542584500151918 S
atom 5.4844370429344576 10.4691961872263839 77.1542584500151918 S
atom 9.8094296791971161 9.8094296791971143 77.1542584500152060 S
atom 5.4319203812246482 5.4319203812246490 82.1155410241693744 S
atom 9.7649208296909880 4.7801616853990465 82.1155410241693886 S
atom 4.7801616853990554 9.7649208296909809 82.1155410241693886 S
atom 10.5137050367325156 10.5137050367325280 82.1155410241693744 S
atom 5.0575282777038799 2.5651487055579185 79.9956223307855083 S
atom 10.0908001776037626 2.6136614611658873 79.2676816596894156 S
atom 5.1060410333118540 7.5984206054578172 79.2676816596894156 S
atom 10.1393129332117535 7.6469333610657912 79.9956223307855083 S
atom 5.0575282777038799 2.5651487055579185 84.2501755771691734 S
atom 10.0908001776037626 2.6136614611658873 84.9412826419009974 S
atom 5.1060410333118540 7.5984206054578172 84.9412826419009974 S
atom 10.1393129332117535 7.6469333610657912 84.2501755771691734 S
atom 2.5651487055579207 5.0575282777038799 79.9956223307855083 S
atom 7.5984206054578154 5.1060410333118478 79.2676816596894156 S
atom 2.6136614611658913 10.0908001776037697 79.2676816596894156 S
atom 7.6469333610657788 10.1393129332117482 79.9956223307855083 S
atom 2.5651487055579207 5.0575282777038799 84.2501755771691734 S
atom 7.5984206054578154 5.1060410333118478 84.9412826419009974 S
atom 2.6136614611658913 10.0908001776037697 84.9412826419009974 S
atom 7.6469333610657788 10.1393129332117482 84.2501755771691734 S
atom 2.5330343115216887 2.5330343115216878 87.0179497671563240 Ba
atom 7.5820222438860849 2.5972630995941515 87.0179497671563240 Ba
atom 2.5972630995941528 7.5820222438860840 87.0179497671563240 Ba
atom 7.6148189670295530 7.6148189670295467 87.0179497671563240 Ba
atom 2.4577009277174207 2.4577009277174224 91.6928107681185054 Ba
atom 7.6573556276903378 2.6725964833984128 91.6928107681185054 Ba
atom 2.6725964833984177 7.6573556276903343 91.6928107681185054 Ba
atom 7.5394855832252929 7.5394855832252983 91.6928107681185054 Ba
atom 5.0755266302623818 5.0755266302623898 89.6293795617933711 Zr
atom 10.1213145806532481 5.1365554363613173 89.6293795617933853 Zr
atom 5.1365554363613093 10.1213145806532392 89.6293795617933853 Zr
atom 10.1573112857702519 10.1573112857702501 89.6293795617933711 Zr
atom 4.7684577453262120 4.7684577453262040 87.0821967174827023 S
atom 10.4283834655894321 5.4436243212974977 87.0821967174827165 S
atom 5.4436243212975022 10.4283834655894250 87.0821967174827165 S
atom 9.8502424008340661 9.8502424008340697 87.0821967174827023 S
atom 5.3138559492797262 5.3138559492797217 92.1158344391447628 S
atom 9.8829852616359180 4.8982261173439872 92.1158344391447628 S
atom 4.8982261173439827 9.8829852616359357 92.1158344391447628 S
atom 10.3956406047876033 10.3956406047875767 92.1158344391447628 S
atom 5.0575282777038799 2.5651487055579185 89.7953950347413752 S
atom 10.0908001776037626 2.6136614611658873 89.2518055135888204 S
atom 5.1060410333118540 7.5984206054578172 89.2518055135888204 S
atom 10.1393129332117535 7.6469333610657912 89.7953950347413752 S
atom 2.5651487055579207 5.0575282777038799 89.7953950347413752 S
atom 7.5984206054578154 5.1060410333118478 89.2518055135888204 S
atom 2.6136614611658913 10.0908001776037697 89.2518055135888204 S
atom 7.6469333610657788 10.1393129332117482 89.7953950347413752 S
