#=======================================================
# FHI-aims file: sym_relax/sym_relax_RP_10_RxRyMz_-Rx-RyMz.in
# Created using the Atomic Simulation Environment (ASE)
# Mon Mar 17 18:39:40 2025
#=======================================================
lattice_vector 10.0064477043578002 -0.0777560206712069 0.0000000000000000 
lattice_vector -0.0777560206712069 10.0064477043577718 0.0000000000000000 
lattice_vector 0.0000000000000000 0.0000000000000000 106.0742399626552128 
atom 0.0636179893821464 -0.1454229083801680 0.2214304214455733 Ba
atom 5.1486467605590827 -0.1024959997177496 0.2214304214455732 Ba
atom 0.1065448980445657 4.9396058627967152 0.2214304214455732 Ba
atom 5.0279638312254660 4.8189229334630959 0.2214304214455732 Ba
atom -0.3057470974920821 0.2241646152677231 5.0141554639790469 Ba
atom 4.7790592369111824 0.2668690871564763 5.0141554639790469 Ba
atom -0.2630426256033291 5.3089709496709467 5.0141554639790469 Ba
atom 4.6585987443512211 5.1885104571109739 5.0141554639790469 Ba
atom 2.4479389126721394 2.5073437732114718 2.4066524681326849 Zr
atom 7.4602259208107142 2.4775289188355338 2.4066524681326849 Zr
atom 2.4181240582962045 7.5196307813499930 2.4066524681326849 Zr
atom 7.4122847545154356 7.4716896150547321 2.4066524681326849 Zr
atom 2.4365377641657333 2.5234242378920428 7.4651366801692243 Zr
atom 7.4441454561301477 2.4889300673419474 7.4651366801692243 Zr
atom 2.4020435936156348 7.5310319298564075 7.4651366801692243 Zr
atom 7.4008836060090211 7.4877700797353013 7.4651366801692243 Zr
atom 2.5717402712796726 2.7229636036093563 -0.1003262111944047 S
atom 7.2446060904128249 2.3537275602279992 -0.1003262111944047 S
atom 2.2025042278983200 7.3958294227424570 -0.1003262111944047 S
atom 7.5360861131229777 7.6873094454526161 -0.1003262111944047 S
atom 2.1988503781234665 2.2242784134624185 4.9712523855227433 S
atom 7.7432912805597711 2.7266174533842040 4.9712523855227433 S
atom 2.7011894180452591 7.7687193158986751 4.9712523855227433 S
atom 7.1631962199667720 7.1886242553056787 4.9712523855227433 S
atom 2.7657059899812522 0.0212351997370929 2.2548753093142326 S
atom 7.1406716149813514 -0.0149772123307886 2.7617682232990548 S
atom 2.0985697524668390 5.0271246501836861 2.7617682232990548 S
atom 7.7300518318245670 4.9855810415803568 2.2548753093142326 S
atom 2.8625026995584353 0.0177793982972227 7.7951416614572695 S
atom 7.0774734172759342 -0.0182810828426630 7.1791552323488714 S
atom 2.0353715547614222 5.0238207796718042 7.1791552323488714 S
atom 7.8268485414017217 4.9821252401404887 7.7951416614572695 S
atom -0.0601132100726968 2.2375178621976355 2.2548753093142326 S
atom 4.9404450438384782 2.8268980790408329 2.7617682232990548 S
atom -0.1016568186760231 7.8689999415553018 2.7617682232990548 S
atom 4.9042326317706078 7.2018637040408855 2.2548753093142326 S
atom -0.0566574086328266 2.1407211526204541 7.7951416614572695 S
atom 4.9437489143503672 2.8900962767462524 7.1791552323488714 S
atom -0.0983529481641485 7.9321981392607182 7.1791552323488714 S
atom 4.9076884332104651 7.1050669944637130 7.7951416614572695 S
atom 0.2497623390507655 -0.1474527948043386 9.9941418028958982 Ba
atom 5.1506766469832472 -0.2886403493863670 9.9941418028958982 Ba
atom 0.1085747844687368 4.7534615131280900 9.9941418028958982 Ba
atom 5.2141081808940806 4.8168930470389189 9.9941418028958982 Ba
atom -0.3225823738788567 0.2183066447364635 14.9993445765890741 Ba
atom 4.7849172074424455 0.2837043635432492 14.9993445765890741 Ba
atom -0.2571846550720690 5.3258062260577095 14.9993445765890741 Ba
atom 4.6417634679644495 5.1826524865797188 14.9993445765890741 Ba
atom 2.4510805506373399 2.5162020441886748 12.4832069816137139 Zr
atom 7.4513676498335046 2.4743872808703267 12.4832069816137139 Zr
atom 2.4092657873189998 7.5164891433847876 12.4832069816137139 Zr
atom 7.4154263924806578 7.4805478860319381 12.4832069816137139 Zr
atom 2.4443299450313365 2.5187510886940103 17.4979992542429450 Zr
atom 7.4488186053281629 2.4811378864763354 17.4979992542429450 Zr
atom 2.4067167428136536 7.5232397489907994 17.4979992542429450 Zr
atom 7.4086757868746425 7.4830969305372754 17.4979992542429450 Zr
atom 2.7083064523498197 2.8445943553842601 9.9857284869847280 S
atom 7.1229753386379153 2.2171613791578570 9.9857284869847280 S
atom 2.0808734761234042 7.2592632416723175 9.9857284869847280 S
atom 7.6726522941931092 7.8089401972275247 9.9857284869847280 S
atom 2.1806856934144339 2.1876010755938071 14.9966119495955557 S
atom 7.7799686184283781 2.7447821380932353 14.9966119495955557 S
atom 2.7378667559138692 7.7868840006076994 14.9966119495955557 S
atom 7.1450315352577345 7.1519469174370656 14.9966119495955557 S
atom 2.8540661087440999 0.0138502789866956 12.1785348941569183 S
atom 7.0817372139235664 -0.0225329374104274 12.8159188665990520 S
atom 2.0396353514090548 5.0195689251040427 12.8159188665990520 S
atom 7.8184119505874010 4.9781961208299554 12.1785348941569183 S
atom 2.8520017053746725 0.0158076546630253 17.8251091760044176 S
atom 7.0820219286535231 -0.0205771972056129 17.1832032061872511 S
atom 2.0399200661390218 5.0215246653088599 17.1832032061872511 S
atom 7.8163475472179655 4.9801534965062872 17.8251091760044176 S
atom -0.0527282893222994 2.1491577434347846 12.1785348941569183 S
atom 4.9480007689181384 2.8858324800986188 12.8159188665990520 S
atom -0.0941010935963843 7.9279343426130913 12.8159188665990520 S
atom 4.9116175525210091 7.1135035852780462 12.1785348941569183 S
atom -0.0546856649986291 2.1512221468042139 17.8251091760044176 S
atom 4.9460450287133071 2.8855477653686497 17.1832032061872511 S
atom -0.0960568338011987 7.9276496278831079 17.1832032061872511 S
atom 4.9096601768446613 7.1155679886474816 17.8251091760044176 S
atom 0.2513598997842759 -0.1459707872359266 20.0075017038136380 Ba
atom 5.1491946394148433 -0.2902379101198778 20.0075017038136380 Ba
atom 0.1070927769003242 4.7518639523945980 20.0075017038136380 Ba
atom 5.2157057416275876 4.8183750546073343 20.0075017038136380 Ba
atom -0.3232901121838702 0.2176206897821778 25.0175094251545467 Ba
atom 4.7856031623967246 0.2844121018482625 25.0175094251545467 Ba
atom -0.2564987001177845 5.3265139643627286 25.0175094251545467 Ba
atom 4.6410557296594304 5.1819665316254380 25.0175094251545467 Ba
atom 2.4468110335670756 2.5178987883597119 22.5111313423061397 Zr
atom 7.4496709056624741 2.4786567979405989 22.5111313423061397 Zr
atom 2.4075690431479648 7.5207586604550700 22.5111313423061397 Zr
atom 7.4111568754103834 7.4822446302029730 22.5111313423061397 Zr
atom 2.4468110335670756 2.5178987883597119 27.5238875080029537 Zr
atom 7.4496709056624741 2.4786567979405989 27.5238875080029537 Zr
atom 2.4075690431479648 7.5207586604550700 27.5238875080029537 Zr
atom 7.4111568754103834 7.4822446302029730 27.5238875080029537 Zr
atom 2.7127814113387450 2.8498160154039041 20.0071542601839916 S
atom 7.1177536786182838 2.2126864201689371 20.0071542601839916 S
atom 2.0756518161037611 7.2547882826833998 20.0071542601839916 S
atom 7.6771272531820385 7.8141618572471687 20.0071542601839916 S
atom 2.1795719186346387 2.1860620896112293 25.0175094251545467 S
atom 7.7815076044109448 2.7458959128730327 25.0175094251545467 S
atom 2.7394057418964426 7.7879977753874972 25.0175094251545467 S
atom 7.1439177604779367 7.1504079314544953 25.0175094251545467 S
atom 2.8523718821537614 0.0150325985981268 22.1914279507109740 S
atom 7.0825867690239344 -0.0213535148592325 22.8344731081626193 S
atom 2.0404849065094184 5.0207483476552328 22.8344731081626193 S
atom 7.8167177239970655 4.9793784404413932 22.1914279507109740 S
atom 2.8523718821537614 0.0150325985981268 27.8435908995981158 S
atom 7.0825867690239344 -0.0213535148592325 27.2005457421465096 S
atom 2.0404849065094175 5.0207483476552328 27.2005457421465096 S
atom 7.8167177239970664 4.9793784404413932 27.8435908995981158 S
atom -0.0539106089337304 2.1508519700251183 22.1914279507109740 S
atom 4.9468213463669244 2.8849829249982553 22.8344731081626193 S
atom -0.0952805161475788 7.9270847875127206 22.8344731081626193 S
atom 4.9104352329095757 7.1151978118683799 22.1914279507109740 S
atom -0.0539106089337304 2.1508519700251183 27.8435908995981158 S
atom 4.9468213463669244 2.8849829249982553 27.2005457421465096 S
atom -0.0952805161475789 7.9270847875127206 27.2005457421465096 S
atom 4.9104352329095757 7.1151978118683799 27.8435908995981158 S
atom 0.2513598997842759 -0.1459707872359266 30.0275171464954589 Ba
atom 5.1491946394148433 -0.2902379101198778 30.0275171464954589 Ba
atom 0.1070927769003242 4.7518639523945980 30.0275171464954589 Ba
atom 5.2157057416275876 4.8183750546073343 30.0275171464954589 Ba
atom -0.3225823738788567 0.2183066447364635 35.0356742737200193 Ba
atom 4.7849172074424455 0.2837043635432492 35.0356742737200193 Ba
atom -0.2571846550720690 5.3258062260577095 35.0356742737200193 Ba
atom 4.6417634679644495 5.1826524865797188 35.0356742737200193 Ba
atom 2.4443299450313365 2.5187510886940103 32.5370195960662230 Zr
atom 7.4488186053281629 2.4811378864763354 32.5370195960662230 Zr
atom 2.4067167428136536 7.5232397489907994 32.5370195960662230 Zr
atom 7.4086757868746425 7.4830969305372754 32.5370195960662230 Zr
atom 2.4510805506373399 2.5162020441886748 37.5518118686953528 Zr
atom 7.4513676498335046 2.4743872808703267 37.5518118686953528 Zr
atom 2.4092657873189998 7.5164891433847876 37.5518118686953528 Zr
atom 7.4154263924806578 7.4805478860319381 37.5518118686953528 Zr
atom 2.7127814113387450 2.8498160154039041 30.0278645901251089 S
atom 7.1177536786182838 2.2126864201689371 30.0278645901251089 S
atom 2.0756518161037611 7.2547882826833998 30.0278645901251089 S
atom 7.6771272531820385 7.8141618572471687 30.0278645901251089 S
atom 2.1806856934144339 2.1876010755938071 35.0384069007135182 S
atom 7.7799686184283781 2.7447821380932353 35.0384069007135182 S
atom 2.7378667559138692 7.7868840006076994 35.0384069007135182 S
atom 7.1450315352577345 7.1519469174370656 35.0384069007135182 S
atom 2.8520017053746725 0.0158076546630253 32.2099096743045763 S
atom 7.0820219286535231 -0.0205771972056129 32.8518156441218068 S
atom 2.0399200661390218 5.0215246653088599 32.8518156441218068 S
atom 7.8163475472179655 4.9801534965062872 32.2099096743045763 S
atom 2.8540661087440999 0.0138502789866956 37.8564839561521538 S
atom 7.0817372139235664 -0.0225329374104274 37.2190999837100023 S
atom 2.0396353514090548 5.0195689251040427 37.2190999837100023 S
atom 7.8184119505874010 4.9781961208299554 37.8564839561521538 S
atom -0.0546856649986291 2.1512221468042139 32.2099096743045763 S
atom 4.9460450287133071 2.8855477653686497 32.8518156441218068 S
atom -0.0960568338011987 7.9276496278831079 32.8518156441218068 S
atom 4.9096601768446613 7.1155679886474816 32.2099096743045763 S
atom -0.0527282893222994 2.1491577434347846 37.8564839561521538 S
atom 4.9480007689181384 2.8858324800986188 37.2190999837100023 S
atom -0.0941010935963843 7.9279343426130913 37.2190999837100023 S
atom 4.9116175525210091 7.1135035852780462 37.8564839561521538 S
atom 0.2497623390507655 -0.1474527948043385 40.0408770474131046 Ba
atom 5.1506766469832472 -0.2886403493863671 40.0408770474131046 Ba
atom 0.1085747844687368 4.7534615131280900 40.0408770474131046 Ba
atom 5.2141081808940806 4.8168930470389189 40.0408770474131046 Ba
atom -0.3057470974920820 0.2241646152677231 45.0208633863299568 Ba
atom 4.7790592369111824 0.2668690871564763 45.0208633863299568 Ba
atom -0.2630426256033291 5.3089709496709458 45.0208633863299568 Ba
atom 4.6585987443512211 5.1885104571109739 45.0208633863299568 Ba
atom 2.4365377641657333 2.5234242378920428 42.5698821701398984 Zr
atom 7.4441454561301477 2.4889300673419474 42.5698821701398984 Zr
atom 2.4020435936156348 7.5310319298564075 42.5698821701398984 Zr
atom 7.4008836060090211 7.4877700797353013 42.5698821701398984 Zr
atom 2.4479389126721394 2.5073437732114718 47.6283663821764449 Zr
atom 7.4602259208107142 2.4775289188355338 47.6283663821764449 Zr
atom 2.4181240582962045 7.5196307813499930 47.6283663821764449 Zr
atom 7.4122847545154356 7.4716896150547321 47.6283663821764449 Zr
atom 2.7083064523498197 2.8445943553842601 40.0492903633243813 S
atom 7.1229753386379153 2.2171613791578570 40.0492903633243813 S
atom 2.0808734761234042 7.2592632416723175 40.0492903633243813 S
atom 7.6726522941931092 7.8089401972275247 40.0492903633243813 S
atom 2.1988503781234665 2.2242784134624185 45.0637664647862977 S
atom 7.7432912805597711 2.7266174533842040 45.0637664647862977 S
atom 2.7011894180452591 7.7687193158986751 45.0637664647862977 S
atom 7.1631962199667720 7.1886242553056787 45.0637664647862977 S
atom 2.8625026995584353 0.0177793982972227 42.2398771888518638 S
atom 7.0774734172759342 -0.0182810828426630 42.8558636179601748 S
atom 2.0353715547614222 5.0238207796718042 42.8558636179601748 S
atom 7.8268485414017217 4.9821252401404887 42.2398771888518638 S
atom 2.7657059899812522 0.0212351997370929 47.7801435409948851 S
atom 7.1406716149813514 -0.0149772123307886 47.2732506270099648 S
atom 2.0985697524668390 5.0271246501836861 47.2732506270099648 S
atom 7.7300518318245670 4.9855810415803568 47.7801435409948851 S
atom -0.0566574086328266 2.1407211526204541 42.2398771888518638 S
atom 4.9437489143503672 2.8900962767462519 42.8558636179601748 S
atom -0.0983529481641485 7.9321981392607182 42.8558636179601748 S
atom 4.9076884332104651 7.1050669944637130 42.2398771888518638 S
atom -0.0601132100726968 2.2375178621976355 47.7801435409948851 S
atom 4.9404450438384782 2.8268980790408329 47.2732506270099648 S
atom -0.1016568186760231 7.8689999415553018 47.2732506270099648 S
atom 4.9042326317706078 7.2018637040408855 47.7801435409948851 S
atom 0.0636179893821464 -0.1454229083801680 49.8135884288635893 Ba
atom 5.1486467605590827 -0.1024959997177495 49.8135884288635893 Ba
atom 0.1065448980445657 4.9396058627967152 49.8135884288635893 Ba
atom 5.0279638312254660 4.8189229334630959 49.8135884288635893 Ba
atom 2.5717402712796726 2.7229636036093563 50.1353450615035356 S
atom 7.2446060904128249 2.3537275602279992 50.1353450615035356 S
atom 2.2025042278983200 7.3958294227424570 50.1353450615035356 S
atom 7.5360861131229777 7.6873094454526161 50.1353450615035356 S
atom 2.4185549315395005 2.6275958293017951 53.2585504027731460 Ba
atom 7.3399738647203909 2.5069128999681696 53.2585504027731460 Ba
atom 2.2978720022058767 7.5490147624826438 53.2585504027731460 Ba
atom 7.3829007733828167 7.5919416711450536 53.2585504027731460 Ba
atom 2.7879200184137374 2.2580083056539064 58.0512754453067501 Ba
atom 7.7095613883682725 2.1375478130939451 58.0512754453067501 Ba
atom 2.6674595258537752 7.1796496756084167 58.0512754453067501 Ba
atom 7.7522658602570411 7.2223541474971693 58.0512754453067501 Ba
atom 4.9985798500928187 4.9391749895534236 55.4437724494602833 Zr
atom 9.9927405463120706 4.8912338232581378 55.4437724494602833 Zr
atom 4.9506386837975471 9.9333356857725814 55.4437724494602833 Zr
atom 9.9629256919361175 9.9035208313966692 55.4437724494602833 Zr
atom 5.0099809985992243 4.9230945248728437 60.5022566614967303 Zr
atom 10.0088210109926443 4.8798326747517340 60.5022566614967303 Zr
atom 4.9667191484781190 9.9219345372662175 60.5022566614967303 Zr
atom 9.9743268404425098 9.8874403667160990 60.5022566614967303 Zr
atom 4.8747784914852650 4.7235551591555316 52.9367937701331996 S
atom 10.2083603767099245 5.0150351818656906 52.9367937701331996 S
atom 5.1662585141954294 10.0571370443801449 52.9367937701331996 S
atom 9.8391243333285878 9.6879010009987905 52.9367937701331996 S
atom 5.2476683846414902 5.2222403493024681 58.0083723668503382 S
atom 9.7096751865630164 4.6421452887094725 58.0083723668503382 S
atom 4.6675733240484965 9.6842471512239534 58.0083723668503382 S
atom 10.2120142264848059 10.1865861911457163 58.0083723668503382 S
atom 5.3479490102981160 2.4193941125812084 55.7988882046266781 S
atom 9.7229146352982259 2.3831817005133336 55.2919952906418573 S
atom 4.6808127727836988 7.4252835630277918 55.2919952906418573 S
atom 10.3122948521414024 7.3837399544244677 55.7988882046266781 S
atom 5.4111472080035341 2.4226979830930846 60.2162752136766173 S
atom 9.6261179257210401 2.3866375019532025 60.8322616427848217 S
atom 4.5840160632065263 7.4287393644676563 60.8322616427848217 S
atom 10.3754930498468401 7.3870438249363373 60.2162752136766173 S
atom 2.5060737189264617 4.6196206837240581 55.7988882046266781 S
atom 7.5066319728376483 5.2090009005672577 55.2919952906418573 S
atom 2.4645301103231385 10.2511027630817129 55.2919952906418573 S
atom 7.4704195607697716 9.5839665255673268 55.7988882046266781 S
atom 2.5027698484145988 4.5564224860186373 60.2162752136766173 S
atom 7.5031761713977900 5.3057976101444293 60.8322616427848217 S
atom 2.4610743088832674 10.3478994726588898 60.8322616427848217 S
atom 7.4671156902578959 9.5207683278618962 60.2162752136766173 S
atom 2.2324105818708899 2.6296257157259673 63.0312617842235596 Ba
atom 7.3379439782962255 2.6930572496367873 63.0312617842235596 Ba
atom 2.2958421157817082 7.7351591121512557 63.0312617842235596 Ba
atom 7.1967564237141861 7.5939715575692235 63.0312617842235596 Ba
atom 2.8047552948005139 2.2638662761851642 68.0364645579167586 Ba
atom 7.7037034178370085 2.1207125367071735 68.0364645579167586 Ba
atom 2.6616015553225094 7.1628143992216344 68.0364645579167586 Ba
atom 7.7691011366438136 7.2282121180284280 68.0364645579167586 Ba
atom 4.9954382121276115 4.9303167185762113 65.5203269629413114 Zr
atom 10.0015988172892776 4.8943754612233628 65.5203269629413114 Zr
atom 4.9594969547747496 9.9364773237378010 65.5203269629413114 Zr
atom 9.9597840539709050 9.8946625604194516 65.5203269629413114 Zr
atom 5.0021888177336082 4.9277676740708758 70.5351192355707042 Zr
atom 10.0041478617946051 4.8876248556173421 70.5351192355707042 Zr
atom 4.9620459992800994 9.9297267181318052 70.5351192355707042 Zr
atom 9.9665346595769080 9.8921135159141347 70.5351192355707042 Zr
atom 4.7382123104151495 4.6019244073806211 63.0228484683123966 S
atom 10.3299911284848456 5.1516013629358248 63.0228484683123966 S
atom 5.2878892659703469 10.1937032254502782 63.0228484683123966 S
atom 9.7025581522584421 9.5662702492238818 63.0228484683123966 S
atom 5.2658330693505269 5.2589176871710892 68.0337319309231248 S
atom 9.6729978486944077 4.6239806040004536 68.0337319309231248 S
atom 4.6308959861798780 9.6660824665149097 68.0337319309231248 S
atom 10.2301789111938142 10.2232635290143197 68.0337319309231248 S
atom 5.4068834113559028 2.4269498376608518 65.8530388479268254 S
atom 9.6345545165353670 2.3905666212637224 65.2156548754844607 S
atom 4.5924526540208559 7.4326684837781967 65.2156548754844607 S
atom 10.3712292531992158 7.3912956795041040 65.8530388479268254 S
atom 5.4065986966259407 2.4249940974560285 70.2203231875147793 S
atom 9.6366189199047962 2.3886092455873955 70.8622291573319956 S
atom 4.5945170573902905 7.4307111081018578 70.8622291573319956 S
atom 10.3709445384692192 7.3893399392992922 70.2203231875147793 S
atom 2.4985179938468312 4.5606862826662740 65.8530388479268254 S
atom 7.4992470520872434 5.2973610193300962 65.2156548754844607 S
atom 2.4571451895727487 10.3394628818445735 65.2156548754844607 S
atom 7.4628638356901407 9.5250321245095275 65.8530388479268254 S
atom 2.5004737340516443 4.5609709973962396 70.2203231875147793 S
atom 7.5012044277635868 5.2952966159606785 70.8622291573319956 S
atom 2.4591025652490743 10.3373984784751514 70.8622291573319956 S
atom 7.4648195758949516 9.5253168392395047 70.2203231875147793 S
atom 2.2308130211373793 2.6281437081575598 73.0446216851413226 Ba
atom 7.3394259858646391 2.6946548103702965 73.0446216851413226 Ba
atom 2.2973241233501174 7.7367566728847592 73.0446216851413226 Ba
atom 7.1951588629806817 7.5924895500008178 73.0446216851413226 Ba
atom 2.8054630331055184 2.2645522311394477 78.0546294064820785 Ba
atom 7.7030174628827499 2.1200047984021615 78.0546294064820785 Ba
atom 2.6609156003682330 7.1621066609166286 78.0546294064820785 Ba
atom 7.7698088749488257 7.2288980729826990 78.0546294064820785 Ba
atom 4.9997077291978824 4.9286199744051782 75.5482513236336786 Zr
atom 10.0032955614603427 4.8901059441530803 75.5482513236336786 Zr
atom 4.9611936989458014 9.9322078066675701 75.5482513236336786 Zr
atom 9.9640535710411839 9.8929658162484166 75.5482513236336786 Zr
atom 4.9997077291978824 4.9286199744051782 80.5610074893304215 Zr
atom 10.0032955614603427 4.8901059441530803 80.5610074893304215 Zr
atom 4.9611936989458014 9.9322078066675701 80.5610074893304215 Zr
atom 9.9640535710411839 9.8929658162484166 80.5610074893304215 Zr
atom 4.7337373514262211 4.5967027473609807 73.0442742415117010 S
atom 10.3352127885045029 5.1560763219247487 73.0442742415117010 S
atom 5.2931109259899900 10.1981781844392092 73.0442742415117010 S
atom 9.6980831932695128 9.5610485892042281 73.0442742415117010 S
atom 5.2669468441303229 5.2604566731536515 78.0546294064820785 S
atom 9.6714588627118161 4.6228668292206478 78.0546294064820785 S
atom 4.6293570001973086 9.6649686917351172 78.0546294064820785 S
atom 10.2312926859736084 10.2248025149969219 78.0546294064820785 S
atom 5.4060338562555392 2.4257704151096520 75.8715930894903607 S
atom 9.6362487431256962 2.3893843016522975 75.2285479320385377 S
atom 4.5941468806111931 7.4314861641667580 75.2285479320385377 S
atom 10.3703796980988319 7.3901162569529122 75.8715930894903607 S
atom 5.4060338562555392 2.4257704151096520 80.2376657234740520 S
atom 9.6362487431256962 2.3893843016522975 80.8807108809258182 S
atom 4.5941468806111931 7.4314861641667580 80.8807108809258182 S
atom 10.3703796980988319 7.3901162569529122 80.2376657234740520 S
atom 2.4996974163980168 4.5615358377666384 75.8715930894903607 S
atom 7.5004293716986927 5.2956667927397616 75.2285479320385377 S
atom 2.4583275091841754 10.3377686552542372 75.2285479320385377 S
atom 7.4640432582413192 9.5258816796098813 75.8715930894903607 S
atom 2.4996974163980168 4.5615358377666384 80.2376657234740520 S
atom 7.5004293716986927 5.2956667927397616 80.8807108809258182 S
atom 2.4583275091841754 10.3377686552542372 80.8807108809258182 S
atom 7.4640432582413192 9.5258816796098813 80.2376657234740520 S
atom 2.2308130211373793 2.6281437081575598 83.0646371278230902 Ba
atom 7.3394259858646391 2.6946548103702965 83.0646371278230902 Ba
atom 2.2973241233501174 7.7367566728847592 83.0646371278230902 Ba
atom 7.1951588629806817 7.5924895500008178 83.0646371278230902 Ba
atom 2.8047552948005139 2.2638662761851642 88.0727942550476257 Ba
atom 7.7037034178370085 2.1207125367071735 88.0727942550476257 Ba
atom 2.6616015553225094 7.1628143992216344 88.0727942550476257 Ba
atom 7.7691011366438136 7.2282121180284280 88.0727942550476257 Ba
atom 5.0021888177336082 4.9277676740708758 85.5741395773936375 Zr
atom 10.0041478617946051 4.8876248556173421 85.5741395773936375 Zr
atom 4.9620459992800994 9.9297267181318052 85.5741395773936375 Zr
atom 9.9665346595769080 9.8921135159141347 85.5741395773936375 Zr
atom 4.9954382121276115 4.9303167185762113 90.5889318500230729 Zr
atom 10.0015988172892776 4.8943754612233628 90.5889318500230729 Zr
atom 4.9594969547747496 9.9364773237378010 90.5889318500230729 Zr
atom 9.9597840539709050 9.8946625604194516 90.5889318500230729 Zr
atom 4.7337373514262211 4.5967027473609807 83.0649845714526833 S
atom 10.3352127885045029 5.1560763219247487 83.0649845714526833 S
atom 5.2931109259899900 10.1981781844392092 83.0649845714526833 S
atom 9.6980831932695128 9.5610485892042281 83.0649845714526833 S
atom 5.2658330693505269 5.2589176871710892 88.0755268820412169 S
atom 9.6729978486944077 4.6239806040004536 88.0755268820412169 S
atom 4.6308959861798780 9.6660824665149097 88.0755268820412169 S
atom 10.2301789111938142 10.2232635290143197 88.0755268820412169 S
atom 5.4065986966259407 2.4249940974560285 85.8889356254495340 S
atom 9.6366189199047962 2.3886092455873955 85.2470296556323461 S
atom 4.5945170573902905 7.4307111081018578 85.2470296556323461 S
atom 10.3709445384692192 7.3893399392992922 85.8889356254495340 S
atom 5.4068834113559028 2.4269498376608518 90.2562199650376584 S
atom 9.6345545165353670 2.3905666212637224 90.8936039374799378 S
atom 4.5924526540208559 7.4326684837781967 90.8936039374799378 S
atom 10.3712292531992158 7.3912956795041040 90.2562199650376584 S
atom 2.5004737340516443 4.5609709973962396 85.8889356254495340 S
atom 7.5012044277635868 5.2952966159606785 85.2470296556323461 S
atom 2.4591025652490743 10.3373984784751514 85.2470296556323461 S
atom 7.4648195758949516 9.5253168392395047 85.8889356254495340 S
atom 2.4985179938468312 4.5606862826662740 90.2562199650376584 S
atom 7.4992470520872434 5.2973610193300980 90.8936039374799378 S
atom 2.4571451895727487 10.3394628818445735 90.8936039374799378 S
atom 7.4628638356901407 9.5250321245095275 90.2562199650376584 S
atom 2.2324105818708899 2.6296257157259673 93.0779970287407394 Ba
atom 7.3379439782962255 2.6930572496367873 93.0779970287407394 Ba
atom 2.2958421157817082 7.7351591121512557 93.0779970287407394 Ba
atom 7.1967564237141861 7.5939715575692226 93.0779970287407394 Ba
atom 2.7879200184137374 2.2580083056539064 98.0579833676575845 Ba
atom 7.7095613883682725 2.1375478130939451 98.0579833676575845 Ba
atom 2.6674595258537752 7.1796496756084167 98.0579833676575845 Ba
atom 7.7522658602570411 7.2223541474971693 98.0579833676575845 Ba
atom 5.0099809985992243 4.9230945248728437 95.6070021514673698 Zr
atom 10.0088210109926443 4.8798326747517340 95.6070021514673698 Zr
atom 4.9667191484781190 9.9219345372662175 95.6070021514673698 Zr
atom 9.9743268404425098 9.8874403667160990 95.6070021514673698 Zr
atom 4.9985798500928187 4.9391749895534236 100.6654863635039590 Zr
atom 9.9927405463120706 4.8912338232581378 100.6654863635039590 Zr
atom 4.9506386837975471 9.9333356857725814 100.6654863635039590 Zr
atom 9.9629256919361175 9.9035208313966692 100.6654863635039590 Zr
atom 4.7382123104151495 4.6019244073806211 93.0864103446519522 S
atom 10.3299911284848456 5.1516013629358248 93.0864103446519522 S
atom 5.2878892659703469 10.1937032254502782 93.0864103446519522 S
atom 9.7025581522584421 9.5662702492238818 93.0864103446519522 S
atom 5.2476683846414902 5.2222403493024681 98.1008864461140178 S
atom 9.7096751865630164 4.6421452887094725 98.1008864461140178 S
atom 4.6675733240484965 9.6842471512239534 98.1008864461140178 S
atom 10.2120142264848059 10.1865861911457163 98.1008864461140178 S
atom 5.4111472080035341 2.4226979830930846 95.8929835992877173 S
atom 9.6261179257210401 2.3866375019532025 95.2769971701794702 S
atom 4.5840160632065263 7.4287393644676563 95.2769971701794702 S
atom 10.3754930498468401 7.3870438249363373 95.8929835992877173 S
atom 5.3479490102981160 2.4193941125812084 100.3103706083376068 S
atom 9.7229146352982259 2.3831817005133336 100.8172635223224063 S
atom 4.6808127727836988 7.4252835630277918 100.8172635223224063 S
atom 10.3122948521414024 7.3837399544244677 100.3103706083376068 S
atom 2.5027698484145984 4.5564224860186373 95.8929835992877173 S
atom 7.5031761713977900 5.3057976101444293 95.2769971701794702 S
atom 2.4610743088832674 10.3478994726588898 95.2769971701794702 S
atom 7.4671156902578959 9.5207683278618962 95.8929835992877173 S
atom 2.5060737189264617 4.6196206837240581 100.3103706083376068 S
atom 7.5066319728376483 5.2090009005672577 100.8172635223224063 S
atom 2.4645301103231385 10.2511027630817111 100.8172635223224063 S
atom 7.4704195607697716 9.5839665255673268 100.3103706083376068 S
atom 2.4185549315395005 2.6275958293017951 102.8507084101910465 Ba
atom 7.3399738647203909 2.5069128999681696 102.8507084101910465 Ba
atom 2.2978720022058767 7.5490147624826438 102.8507084101910465 Ba
atom 7.3829007733828167 7.5919416711450536 102.8507084101910465 Ba
atom 4.8747784914852650 4.7235551591555316 103.1724650428311918 S
atom 10.2083603767099245 5.0150351818656906 103.1724650428311918 S
atom 5.1662585141954294 10.0571370443801449 103.1724650428311918 S
atom 9.8391243333285878 9.6879010009987905 103.1724650428311918 S
