#=======================================================
# FHI-aims file: sym_relax/sym_relax_RP_3_Rx0Mz_0-Ry0.in
# Created using the Atomic Simulation Environment (ASE)
# Fri Mar 14 10:24:05 2025
#=======================================================
lattice_vector 10.0930154096744094 -0.0000000000000000 0.0017442392080335 
lattice_vector -0.0000000000000000 10.0943224516431318 -0.0000000000000000 
lattice_vector 0.0062489154282621 -0.0000000000000000 35.3555687825752685 
atom -0.1747770709356059 -0.0000000000000000 0.2937972656035268 Ba
atom 5.2131748219776597 -0.0000000000000000 0.2926453166651188 Ba
atom 0.1666671171404575 5.0471612258215606 0.2917731970611020 Ba
atom 4.8717306339016044 5.0471612258215606 0.2946693852075438 Ba
atom 0.0068736535213856 -0.0000000000000000 4.9573037574410392 Ba
atom 4.9979129058307752 -0.0000000000000000 4.9354498733240888 Ba
atom -0.0485947990064318 5.0471612258215606 4.9345777537200801 Ba
atom 5.0533813583585845 5.0471612258215606 4.9581758770450639 Ba
atom 2.5173225632336158 2.5006290831220199 2.3489224477226962 Zr
atom 7.5638302680708254 2.5465321426995362 2.3497945673267044 Zr
atom 2.5173225632336158 7.5936933685210972 2.3489224477226962 Zr
atom 7.5638302680708254 7.5477903089435818 2.3497945673267044 Zr
atom 2.5245557097994893 2.5235806129107803 7.3661795561718666 Zr
atom 7.5710634146366935 2.5235806129107803 7.3670516757758806 Zr
atom 2.5245557097994893 7.5707418387323333 7.3661795561718666 Zr
atom 7.5710634146366935 7.5707418387323333 7.3670516757758806 Zr
atom 2.5195654981427107 2.8118244319219108 -0.1309840487636408 S
atom 7.5660732029798989 2.2353367938996462 -0.1301119291596239 S
atom 2.5195654981427107 7.2824980197212028 -0.1309840487636408 S
atom 7.5660732029798980 7.8589856577434620 -0.1301119291596240 S
atom 2.5209270849355891 2.0607571295656077 4.8876201391072858 S
atom 7.5674347897727916 2.9864040962559542 4.8884922587113060 S
atom 2.5209270849355891 8.0335653220775125 4.8876201391072840 S
atom 7.5674347897727916 7.1079183553871665 4.8884922587113060 S
atom 2.5203348889418540 -0.0000000000000000 2.0455468444107763 S
atom 7.5638845550861404 -0.0000000000000000 2.7824944490154011 S
atom 2.5173768502489495 5.0471612258215606 2.7816223294113800 S
atom 7.5668425937790680 5.0471612258215606 2.0464189640147907 S
atom 2.5923232233930857 -0.0000000000000000 7.8143564013165863 S
atom 7.5032959010431126 -0.0000000000000000 6.9188748306311618 S
atom 2.4567881962058893 5.0471612258215606 6.9180027110271558 S
atom 7.6388309282302815 5.0471612258215606 7.8152285209205896 S
atom -0.0048210216494745 2.5240510149109414 2.4784197549827116 S
atom 5.0416866831877289 2.5231102109106169 2.4792918745867372 S
atom -0.0048210216494745 7.5702714367321802 2.4784197549827125 S
atom 5.0416866831877289 7.5712122407325113 2.4792918745867381 S
atom 0.0013018573808875 2.4475603298709818 7.3657434963698591 S
atom 5.0478095622181005 2.5996008959505823 7.3666156159738749 S
atom 0.0013018573808875 7.6467621217721362 7.3657434963698591 S
atom 5.0478095622181005 7.4947215556925375 7.3666156159738749 S
atom -0.0042699387596097 -0.0000000000000000 9.7741832352986631 Ba
atom 5.0977062186054134 -0.0000000000000000 9.7977813586236575 Ba
atom 0.0511985137682065 5.0471612258215606 9.7969092390196373 Ba
atom 5.0422377660775837 5.0471612258215606 9.7750553549026957 Ba
atom 0.1773807856973820 -0.0000000000000000 14.4376897271361724 Ba
atom 4.8824443024585227 -0.0000000000000000 14.4405859152826288 Ba
atom -0.1640634023786815 5.0471612258215606 14.4397137956786015 Ba
atom 5.2238884905345859 5.0471612258215606 14.4385618467402104 Ba
atom 2.5317888563653623 2.5465321426995371 12.3834366646210530 Zr
atom 7.5782965612025572 2.5006290831220199 12.3843087842250519 Zr
atom 2.5317888563653614 7.5477903089435818 12.3834366646210530 Zr
atom 7.5782965612025572 7.5936933685210972 12.3843087842250501 Zr
atom 2.5281843346633881 2.9864040962559542 9.8447389732364563 S
atom 7.5746920395005919 2.0607571295656077 9.8456110928404623 S
atom 2.5281843346633881 7.1079183553871665 9.8447389732364563 S
atom 7.5746920395005919 8.0335653220775125 9.8456110928404623 S
atom 2.5295459214562643 2.2353367938996462 14.8633431611073767 S
atom 7.5760536262934766 2.8118244319219099 14.8642152807113881 S
atom 2.5295459214562652 7.8589856577434620 14.8633431611073767 S
atom 7.5760536262934766 7.2824980197212028 14.8642152807113881 S
atom 2.5317345693500273 -0.0000000000000000 11.9507367829323510 S
atom 7.5752842354943324 -0.0000000000000000 12.6876843875369580 S
atom 2.5287765306571224 5.0471612258215606 12.6868122679329502 S
atom 7.5782422741872448 5.0471612258215606 11.9516089025363819 S
atom 0.0074247364112495 2.5240510149109405 12.2530672377570085 S
atom 5.0539324412484552 2.5231102109106160 12.2539393573610162 S
atom 0.0074247364112495 7.5702714367321802 12.2530672377570102 S
atom 5.0539324412484552 7.5712122407325113 12.2539393573610162 S
atom 2.5288293039134766 2.3526350348772702 17.9725374692041520 Ba
atom 7.5753370087506839 2.6945261909442908 17.9734095888081882 Ba
atom 2.5288293039134766 7.7416874167658483 17.9725374692041449 Ba
atom 7.5753370087506839 7.3997962606988290 17.9734095888081811 Ba
atom 2.5281409628708720 2.5513096580952959 22.6264440844646550 Ba
atom 7.5746486677080718 2.4958515677262643 22.6273162040686735 Ba
atom 2.5281409628708720 7.5430127935478231 22.6264440844646550 Ba
atom 7.5746486677080718 7.5984708839168542 22.6273162040686735 Ba
atom 5.0287008149313461 5.0471612258215606 20.0282033508979822 Zr
atom 10.1213281799014805 5.0471612258215606 20.0294992376355943 Zr
atom 5.0748204750642767 10.0943224516431211 20.0286271180315758 Zr
atom 10.0752085197684931 10.0943224516431211 20.0290754705019829 Zr
atom 5.0509340199322077 5.0471612258215606 25.0444000072615545 Zr
atom 10.0974417247694142 5.0471612258215606 25.0452721268655303 Zr
atom 5.0509340199322077 10.0943224516431211 25.0444000072615545 Zr
atom 10.0974417247694177 10.0943224516431211 25.0452721268655303 Zr
atom 5.3412884621621588 5.0471612258215606 17.5484759709686244 S
atom 9.8096336030373159 5.0471612258215606 17.5496988028919176 S
atom 4.7631258982001192 10.0943224516431211 17.5488266832879241 S
atom 10.3877961669993866 10.0943224516431211 17.5493480905725932 S
atom 4.5856241113390537 5.0471612258215606 22.5664598480576366 S
atom 10.5636691850764510 5.0471612258215606 22.5675440544796970 S
atom 5.5171614802392588 10.0943224516431211 22.5666719348756786 S
atom 9.6321318161762441 10.0943224516431211 22.5673319676616515 S
atom 5.0517665386801829 2.5235949952807815 20.1589619641331126 S
atom 10.0982742435174053 2.5235662305407867 20.1598340837371310 S
atom 5.0517665386801829 7.5707274563623397 20.1589619641331055 S
atom 10.0982742435174053 7.5707562211023385 20.1598340837371310 S
atom 5.0509340199322077 2.5235676014455368 25.0444000072615545 S
atom 10.0974417247694142 2.5235936243760193 25.0452721268655303 S
atom 5.0509340199322077 7.5707548501975790 25.0444000072615545 S
atom 10.0974417247694142 7.5707288272670921 25.0452721268655303 S
atom 2.5285774785302251 5.0471612258215606 19.7225292402315660 S
atom 7.5749473841439841 5.0471612258215606 20.4629631007133490 S
atom 2.5284396793067847 10.0943224516431211 20.4620909811093483 S
atom 7.5750851833674453 10.0943224516431211 19.7234013598355915 S
atom 2.5275853630268568 5.0471612258215606 25.4954552268060333 S
atom 7.5742826768375906 5.0471612258215606 24.5933447877170721 S
atom 2.5277749720003739 10.0943224516431211 24.5924726681130750 S
atom 7.5740930678640614 10.0943224516431211 25.4963273464100588 S
atom 2.5272193721563680 2.4958515677262634 27.4614838104544638 Ba
atom 7.5737270769935847 2.5513096580952954 27.4623559300584965 Ba
atom 2.5272193721563680 7.5984708839168542 27.4614838104544567 Ba
atom 7.5737270769935847 7.5430127935478213 27.4623559300584930 Ba
atom 2.5265310311137705 2.6945261909442912 32.1153904257149918 Ba
atom 7.5730387359509663 2.3526350348772702 32.1162625453189889 Ba
atom 2.5265310311137705 7.3997962606988290 32.1153904257149918 Ba
atom 7.5730387359509663 7.7416874167658483 32.1162625453189889 Ba
atom 5.0731672249331181 5.0471612258215606 30.0605966636251338 Zr
atom 10.0735552696373549 5.0471612258215606 30.0610450160955196 Zr
atom 5.0270475648001636 10.0943224516431211 30.0601728964915296 Zr
atom 10.1196749297703548 10.0943224516431211 30.0614687832291736 Zr
atom 5.5162439285253964 5.0471612258215606 27.5223401664654475 S
atom 9.6312142644623808 5.0471612258215606 27.5230001992514133 S
atom 4.5847065596251841 10.0943224516431211 27.5221280796473948 S
atom 10.5627516333625824 10.0943224516431211 27.5232122860694766 S
atom 4.7605795777022868 5.0471612258215606 32.5403240435545413 S
atom 10.3852498465015408 5.0471612258215606 32.5408454508392353 S
atom 5.3387421416643432 10.0943224516431211 32.5399733312351103 S
atom 9.8070872825394666 10.0943224516431211 32.5411961631586237 S
atom 5.0501015011842671 2.5235949952807815 29.9298380503899679 S
atom 10.0966092060214496 2.5235662305407867 29.9307101699940183 S
atom 5.0501015011842671 7.5707274563623397 29.9298380503899679 S
atom 10.0966092060214496 7.5707562211023385 29.9307101699940183 S
atom 2.5269206557204540 5.0471612258215606 29.6258369138097670 S
atom 7.5732905613342094 5.0471612258215606 30.3662707742915288 S
atom 2.5267828564970198 10.0943224516431211 30.3653986546875068 S
atom 7.5734283605576573 10.0943224516431211 29.6267090334137322 S
