#=======================================================
# FHI-aims file: sym_relax/sym_relax_RP_1_00Rz_000.in
# Created using the Atomic Simulation Environment (ASE)
# Fri Mar 14 10:20:09 2025
#=======================================================
lattice_vector 10.0137778567156044 -0.0000000000000004 -0.0000000000000000 
lattice_vector -0.0000000000000004 10.0137778567156044 0.0000000000000000 
lattice_vector 0.0000000000000000 0.0000000000000000 15.6661243489996487 
atom -0.0000000000000000 0.0000000000000000 0.2276195719961978 Ba
atom 5.0068889283578013 0.0000000000000000 0.2276195719961978 Ba
atom -0.0000000000000000 5.0068889283578013 0.2276195719961978 Ba
atom 5.0068889283578013 5.0068889283578013 0.2276195719961978 Ba
atom 0.0000000000000000 0.0000000000000000 4.6680442870661922 Ba
atom 5.0068889283578013 0.0000000000000000 4.6680442870661922 Ba
atom -0.0000000000000000 5.0068889283578013 4.6680442870661922 Ba
atom 5.0068889283578013 5.0068889283578013 4.6680442870661922 Ba
atom 2.5034444641789007 2.5034444641789007 2.4478319295311950 Zr
atom 7.5103333925366984 2.5034444641789007 2.4478319295311950 Zr
atom 2.5034444641789007 7.5103333925366984 2.4478319295311950 Zr
atom 7.5103333925366984 7.5103333925366984 2.4478319295311950 Zr
atom 2.5034444641789007 2.5034444641789007 -0.1067281600699229 S
atom 7.5103333925366984 2.5034444641789007 -0.1067281600699229 S
atom 2.5034444641789007 7.5103333925366984 -0.1067281600699229 S
atom 7.5103333925366984 7.5103333925366984 -0.1067281600699229 S
atom 2.5034444641789007 2.5034444641789007 5.0023920191323104 S
atom 7.5103333925366984 2.5034444641789007 5.0023920191323104 S
atom 2.5034444641789007 7.5103333925366984 5.0023920191323104 S
atom 7.5103333925366984 7.5103333925366984 5.0023920191323104 S
atom 2.5034090872637211 -0.0000000000000000 2.4478319295311950 S
atom 7.5103687694518824 0.0000000000000000 2.4478319295311950 S
atom 2.5034798410940811 5.0068889283578013 2.4478319295311950 S
atom 7.5102980156215224 5.0068889283578013 2.4478319295311950 S
atom 0.0000000000000000 2.5034798410940819 2.4478319295311950 S
atom 5.0068889283578013 2.5034090872637211 2.4478319295311950 S
atom -0.0000000000000000 7.5102980156215224 2.4478319295311950 S
atom 5.0068889283578013 7.5103687694518833 2.4478319295311950 S
atom 2.5034444641789007 2.5034444641789007 8.0606680490815243 Ba
atom 7.5103333925366984 2.5034444641789007 8.0606680490815243 Ba
atom 2.5034444641789007 7.5103333925366984 8.0606680490815243 Ba
atom 7.5103333925366984 7.5103333925366984 8.0606680490815243 Ba
atom 2.5034444641789007 2.5034444641789007 12.5011201589805179 Ba
atom 7.5103333925366984 2.5034444641789007 12.5011201589805179 Ba
atom 2.5034444641789007 7.5103333925366984 12.5011201589805179 Ba
atom 7.5103333925366984 7.5103333925366984 12.5011201589805179 Ba
atom 5.0068889283578013 5.0068889283578013 10.2808941040310255 Zr
atom 10.0137778567156026 5.0068889283578013 10.2808941040310255 Zr
atom 5.0068889283578013 10.0137778567156026 10.2808941040310255 Zr
atom 10.0137778567156026 10.0137778567156026 10.2808941040310255 Zr
atom 5.0068889283578013 5.0068889283578013 7.7263286174894148 S
atom 10.0137778567156026 5.0068889283578013 7.7263286174894148 S
atom 5.0068889283578013 10.0137778567156026 7.7263286174894148 S
atom 10.0137778567156026 10.0137778567156026 7.7263286174894148 S
atom 5.0068889283578013 5.0068889283578013 12.8354595905726381 S
atom 10.0137778567156026 5.0068889283578013 12.8354595905726381 S
atom 5.0068889283578013 10.0137778567156026 12.8354595905726381 S
atom 10.0137778567156026 10.0137778567156026 12.8354595905726381 S
atom 5.0068889283578013 2.5034382699821727 10.2808941040310255 S
atom 10.0137778567156026 2.5034506583756282 10.2808941040310255 S
atom 5.0068889283578013 7.5103395867334299 10.2808941040310255 S
atom 10.0137778567156026 7.5103271983399713 10.2808941040310255 S
atom 2.5034506583756282 5.0068889283578013 10.2808941040310255 S
atom 7.5103271983399713 5.0068889283578013 10.2808941040310255 S
atom 2.5034382699821727 10.0137778567156026 10.2808941040310255 S
atom 7.5103395867334299 10.0137778567156026 10.2808941040310255 S
