#=======================================================
# FHI-aims file: sym_relax/sym_relax_RP_7_RxRyMz_RxRy0.in
# Created using the Atomic Simulation Environment (ASE)
# Mon Mar 17 15:55:59 2025
#=======================================================
lattice_vector 10.0088587111206806 -0.0711234825155199 -0.0000036188501326 
lattice_vector -0.0711234825155198 10.0088587111206770 0.0000036188501326 
lattice_vector 0.0000401560951865 -0.0000401560951867 75.9686463061553496 
atom 0.0980792312523532 -0.1817750431769049 0.2168887914334192 Ba
atom 5.1862043987372495 -0.1336409725101131 0.2168869820083530 Ba
atom 0.1462133019191460 4.9063501243079815 0.2168906008584860 Ba
atom 5.0669468455549449 4.7870925711256671 0.2168887914334192 Ba
atom -0.2675435152680716 0.1874768455390192 5.0082233379032486 Ba
atom 4.8169525100213155 0.2319817740103106 5.0082215284781668 Ba
atom -0.2230385867967795 5.2719728708283995 5.0082251473283179 Ba
atom 4.7013240990345251 5.1563444598415948 5.0082233379032486 Ba
atom 2.4848640337172143 2.4741271429003557 2.4034338473039520 Zr
atom 7.4991698269625715 2.4484418393276037 2.4034320378788894 Zr
atom 2.4591787301444659 7.4884329361457089 2.4034356567290232 Zr
atom 7.4537316480198035 7.4429947572029311 2.4034338473039516 Zr
atom 2.4754231607637243 2.4894904886076543 7.4606621044154071 Zr
atom 7.4838064812552858 2.4578827122810925 7.4606602949903316 Zr
atom 2.4438153844371624 7.4978738090991746 7.4606639138404596 Zr
atom 7.4442907750663192 7.4583581029102159 7.4606621044154089 Zr
atom 2.6085792748085423 2.6944700967995066 -0.1037948679476081 S
atom 7.2788268730634211 2.3247265982362841 -0.1037966773726742 S
atom 2.2388357762453137 7.3647176950543622 -0.1037930585225418 S
atom 7.5774468891111244 7.6633377111020762 -0.1037948679476080 S
atom 2.2353959662640683 2.1892133722772260 4.9661766146148389 S
atom 7.7840835975856910 2.6979099067807519 4.9661748051897634 S
atom 2.7440925007675951 7.7379010035988358 4.9661784240399083 S
atom 7.2042635805666571 7.1580809865798054 4.9661766146148389 S
atom 2.8029732510280589 -0.0129508413154864 2.2490691296912728 S
atom 7.1814284969334254 -0.0457535074891761 2.7575558922907435 S
atom 2.1414374001153078 4.9942375893289119 2.7575595111408804 S
atom 7.7718408653306552 4.9559167729870754 2.2490691296912724 S
atom 2.8969559204487290 -0.0168114363315277 7.7890696757763900 S
atom 7.1175695362444840 -0.0493201061004422 7.1718099529735237 S
atom 2.0775784394263890 4.9906709907176472 7.1718135718236500 S
atom 7.8658235347513301 4.9520561779710546 7.7890696757763891 S
atom -0.0226108999422731 2.2014561045322845 2.2490709391163399 S
atom 4.9790593805340064 2.7918684729295236 2.7575577017158124 S
atom -0.0609317162841043 7.8318595697476052 2.7575613205659453 S
atom 4.9462567143603140 7.1703237188348483 2.2490709391163390 S
atom -0.0187503049262318 2.1074734351116087 7.7890714852014575 S
atom 4.9826259791452694 2.8557274336184291 7.1718117623985904 S
atom -0.0573651176728382 7.8957185304365387 7.1718153812487229 S
atom 4.9501173093763562 7.0763410494141743 7.7890714852014593 S
atom 0.2831440193722801 -0.1828032387340552 9.9872496707311971 Ba
atom 5.1872325942943860 -0.3187057606300385 9.9872478613061197 Ba
atom 0.1472414974762968 4.7212853361880533 9.9872514801562691 Ba
atom 5.2520116336748730 4.7860643755685182 9.9872496707311935 Ba
atom -0.2839997209581595 0.1820556249303201 14.9905864398358428 Ba
atom 4.8223737306300318 0.2484379797003990 14.9905846304107708 Ba
atom -0.2176173661880803 5.2884290765184785 14.9905882492609130 Ba
atom 4.6848678933444203 5.1509232392328848 14.9905864398358393 Ba
atom 2.4881626038871074 2.4829048171204389 12.4780307872466931 Zr
atom 7.4903921527424995 2.4451432691577168 12.4780289778216584 Zr
atom 2.4504010559243916 7.4851343659758260 12.4780325966717616 Zr
atom 7.4570302181896935 7.4517724314229916 12.4780307872466967 Zr
atom 2.4844430536205748 2.4844245606820001 17.4927803994437241 Zr
atom 7.4888724091809182 2.4488628194242388 17.4927785900186272 Zr
atom 2.4488813123628188 7.4888539162423324 17.4927822088688067 Zr
atom 7.4533106679231604 7.4532921749845737 17.4927803994437241 Zr
atom 2.7476441535478942 2.8121848228377946 9.9790291934667241 S
atom 7.1611121470251256 2.1856617194969279 9.9790273840416610 S
atom 2.1211210502070199 7.2256528163150131 9.9790310028917784 S
atom 7.7165117678504807 7.7810524371403664 9.9790291934667170 S
atom 2.2179168690609679 2.1531004916334990 14.9882495039606489 S
atom 7.8201964782294437 2.7153890039838493 14.9882476945355840 S
atom 2.7802053814113288 7.7553801008019496 14.9882513133857120 S
atom 7.1867844833635690 7.1219681059360527 14.9882495039606471 S
atom 2.8881508271223102 -0.0201345572412603 12.1693801377033886 S
atom 7.1212833590104312 -0.0529730385263794 12.8075533196020110 S
atom 2.0812922621923362 4.9870180582917119 12.8075569384521533 S
atom 7.8570184414249029 4.9487330570613013 12.1693801377033957 S
atom 2.8867939802486422 -0.0191514825210057 17.8135255993403518 S
atom 7.1220832238106286 -0.0519904929330875 17.1720315806969168 S
atom 2.0820921269925163 4.9880006038849993 17.1720351995470182 S
atom 7.8556615945512123 4.9497161317815719 17.8135255993403554 S
atom -0.0154271840164993 2.1162785284380385 12.1693819471284552 S
atom 4.9862789115712030 2.8520136108524801 12.8075551290270706 S
atom -0.0537121852469010 7.8920047076705764 12.8075587478772128 S
atom 4.9534404302860899 7.0851461427406219 12.1693819471284588 S
atom -0.0164102587367538 2.1176353753117070 17.8135274087654984 S
atom 4.9852963659779208 2.8512137460522964 17.1720333901219888 S
atom -0.0546947308401927 7.8912048428703869 17.1720370089721222 S
atom 4.9524573555658309 7.0865029896142628 17.8135274087654984 S
atom 0.2840182138967321 -0.1820741178688927 19.9949743590515610 Ba
atom 5.1865034734292284 -0.3195799551544917 19.9949725496264996 Ba
atom 0.1465123766111341 4.7204111416635994 19.9949761684766223 Ba
atom 5.2528858281993225 4.7867934964336918 19.9949743590515574 Ba
atom -0.2831255264337073 0.1827847457954824 24.9983111281562564 Ba
atom 4.8216446097648653 0.2475637851759456 24.9983093187311809 Ba
atom -0.2183464870532432 5.2875548819940432 24.9983129375812965 Ba
atom 4.6857420878688707 5.1516523600980433 24.9983111281562600 Ba
atom 2.4807235033540449 2.4859443042435707 22.5075300116407746 Zr
atom 7.4873526656193654 2.4525823696907678 22.5075282022156280 Zr
atom 2.4473615688012500 7.4925734665088450 22.5075318210658004 Zr
atom 7.4495911176566505 7.4548119185461239 22.5075300116407782 Zr
atom 2.4934629464774360 2.4793586327563411 27.5248986944720109 Zr
atom 7.4939383371065782 2.4398429265673851 27.5248968850469744 Zr
atom 2.4539472402884779 7.4798340233854796 27.5249005038970864 Zr
atom 7.4623305607800132 7.4482262470589236 27.5248986944720109 Zr
atom 2.7509692381801880 2.8157486297304999 19.9973112949267424 S
atom 7.1575483401324176 2.1823366348646300 19.9973094855016775 S
atom 2.1175572433143230 7.2223277316827188 19.9973131043518322 S
atom 7.7198368524827821 7.7846162440330708 19.9973112949267424 S
atom 2.2212419536932613 2.1566642985261977 25.0065316054207010 S
atom 7.8166326713367198 2.7120639193515568 25.0065297959956219 S
atom 2.7766415745186119 7.7520550161696447 25.0065334148457694 S
atom 7.1901095679958447 7.1255319128287740 25.0065316054206939 S
atom 2.8875938450488170 -0.0181689369277140 22.1780038604352896 S
atom 7.1207263769369709 -0.0510074182128330 22.8161770423339192 S
atom 2.0807352801188541 4.9889836786052557 22.8161806611840596 S
atom 7.8564614593514097 4.9506986773748558 22.1780038604352896 S
atom 2.8913076678147696 -0.0218218693536512 27.8137472270637325 S
atom 7.1119212836105126 -0.0543305391225654 27.1964875042609471 S
atom 2.0719301867924287 4.9856605576955193 27.1964911231110698 S
atom 7.8601752821173623 4.9470457449489311 27.8137472270637325 S
atom -0.0173928043300466 2.1168355105115233 22.1780056698603723 S
atom 4.9843132912576680 2.8525705929259595 22.8161788517589912 S
atom -0.0556778055604473 7.8925616897440367 22.8161824706090890 S
atom 4.9514748099725399 7.0857031248140911 22.1780056698603723 S
atom -0.0137398719041093 2.1131216877455725 27.8137490364888187 S
atom 4.9876364121673902 2.8613756862523956 27.1964893136860191 S
atom -0.0523546846507149 7.9013667830704950 27.1964929325361666 S
atom 4.9551277423984619 7.0819893020481262 27.8137490364888116 S
atom 0.2675620082066439 -0.1874953384775924 29.9773374609841774 Ba
atom 5.1919246940379438 -0.3031237494644046 29.9773356515591054 Ba
atom 0.1519335972198327 4.7368673473536758 29.9773392704092849 Ba
atom 5.2364296225092239 4.7813722758249773 29.9773374609841774 Ba
atom -0.0980607383137806 0.1817565502383324 34.7686720074540574 Ba
atom 4.8226728053220231 0.0624989970560202 34.7686701980289570 Ba
atom -0.2173182914960924 5.1024900938741098 34.7686738168790583 Ba
atom 4.8708068759888121 5.1506241645408997 34.7686720074540574 Ba
atom 2.4840220735239398 2.4947219784636454 32.5821269515835255 Zr
atom 7.4785749913992863 2.4492837995208787 32.5821251421584606 Zr
atom 2.4385838945811766 7.4892748963389630 32.5821287610085264 Zr
atom 7.4528896878265387 7.4635895927662164 32.5821269515835255 Zr
atom 2.7334901409770938 2.7796357490867711 30.0193841842725995 S
atom 7.1936612207761454 2.1998157320677216 30.0193823748475062 S
atom 2.1536701239580389 7.2398068288858353 30.0193859936976288 S
atom 7.7023577552796789 7.7485033633893536 30.0193841842725995 S
atom 2.3603068324326246 2.2743790245644910 35.0893556668349262 S
atom 7.6989179452984287 2.5729990406122023 35.0893538574099253 S
atom 2.6589268484803328 7.6129901374303008 35.0893574762599982 S
atom 7.3291744467351991 7.2432466388670642 35.0893556668349262 S
atom 2.8274487071258596 -0.0253884679649173 32.2280012877465296 S
atom 7.2059039530312061 -0.0581911341386068 32.7364880503460114 S
atom 2.1659128562130969 4.9817999626794824 32.7364916691961483 S
atom 7.7963163214284350 4.9434791463376548 32.2280012877465296 S
atom -0.0101732732928431 2.1769806484344754 32.2280030971717011 S
atom 4.9914970071834244 2.7673930168317100 32.7364898597710265 S
atom -0.0484940896346733 7.8073841136497979 32.7364934786211776 S
atom 4.9586943410097426 7.1458482627370596 32.2280030971717011 S
atom 2.3026776833858351 2.5824998772969905 38.2012265888777378 Ba
atom 7.3907970925659345 2.6306281896589812 38.2012247794527013 Ba
atom 2.3508059957478125 7.6706192864770664 38.2012283983027459 Ba
atom 7.2715452976884327 7.5513674915995717 38.2012265888777449 Ba
atom 2.6719436574594857 2.2168311312559328 42.9925574259831507 Ba
atom 7.7564658386070020 2.2613622155853306 42.9925556165580645 Ba
atom 2.7164747417888919 7.3013533124034211 42.9925592354083079 Ba
atom 7.6408112717620575 7.1856987455585077 42.9925574259831507 Ba
atom 4.9585728943851466 4.9692904648324996 40.3877620535342459 Zr
atom 9.9728741193329959 4.9436005929622544 40.3877602441091952 Zr
atom 4.9328830225149014 9.9835916897803489 40.3877638629593037 Zr
atom 9.9274405086877220 9.9381580791350626 40.3877620535342459 Zr
atom 4.9739983642777448 4.9597626778361041 45.4449676514058680 Zr
atom 9.9824019063293878 4.9281751230696385 45.4449658419807818 Zr
atom 4.9424108095113031 9.9681662198877170 45.4449694608310040 Zr
atom 9.9428659785803308 9.9286302921387009 45.4449676514058609 Zr
atom 5.1789330377142351 5.0930277227301781 37.8805414099239641 S
atom 9.8491368614353192 4.7232404496331677 37.8805396004988353 S
atom 4.8091457646172042 9.7632315464512249 37.8805432193489722 S
atom 10.1478006520168229 10.0618953370327393 37.8805414099239499 S
atom 4.6736658003950353 4.7197606657842526 42.9504939475748060 S
atom 10.2224039183812625 5.2285076869523692 42.9504921381497340 S
atom 5.1824128215631537 10.2684987837704398 42.9504957569998567 S
atom 9.6425334146976240 9.6886282800868031 42.9504939475748060 S
atom 4.6859601760474545 2.4618025026160821 40.2333671111481266 S
atom 10.3162965675416558 2.4234795860150182 40.7419209138459735 S
atom 5.2763054707235932 7.4634706828331119 40.7419245326961246 S
atom 9.6548277903500299 7.4306701169186535 40.2333671111481408 S
atom 4.5919716937412431 2.4656365010892678 45.7733800817918564 S
atom 10.3801490619143664 2.4270154083411182 45.1561177013248383 S
atom 5.3401579650962745 7.4670065051592074 45.1561213201749680 S
atom 9.5608393080438088 7.4345041153918299 45.7733800817918421 S
atom 2.4715033704287332 5.2873367938154621 40.2333689205731844 S
atom 7.4786939013323730 4.6258680166238042 40.7419227232710170 S
atom 2.4387028045142740 9.6658591134418952 40.7419263421212037 S
atom 7.4403709847313158 10.2562044081180019 40.2333689205731702 S
atom 2.4676693719555516 5.3813252761216726 45.7733818912169994 S
atom 7.4751580790062961 4.5620155222511274 45.1561195107499813 S
atom 2.4351669821881798 9.6020066190692148 45.1561231296000614 S
atom 7.4365369862581474 10.3501928904242657 45.7733818912169994 S
atom 2.3016657344372065 2.7675354508114793 47.9715578899313826 Ba
atom 7.2057615190514426 2.6316401386076107 47.9715560805063888 Ba
atom 2.1657704222333312 7.6716312354257008 47.9715596993565470 Ba
atom 7.2705333487397894 7.7364030651140610 47.9715578899313755 Ba
atom 2.6665018074165028 2.2004161087135961 52.9749112432820297 Ba
atom 7.7728808611493445 2.2668040656283135 52.9749094338570004 Ba
atom 2.7328897643312233 7.3067951624464040 52.9749130527071586 Ba
atom 7.6353694217190942 7.1692837230161741 52.9749112432820439 Ba
atom 4.9673567872605808 4.9725809502063587 50.4623465079968554 Zr
atom 9.9695836339591342 4.9348167000868077 50.4623446985717479 Zr
atom 4.9295925371410512 9.9748077969049120 50.4623483174219203 Zr
atom 9.9362244015631909 9.9414485645089226 50.4623465079968554 Zr
atom 4.9688969388194675 4.9688382897856878 55.4771035525215126 Zr
atom 9.9733262943798291 4.9332765485279317 55.4771017430964406 Zr
atom 4.9333351975617123 9.9732676453460201 55.4771053619465491 Zr
atom 9.9377645531220651 9.9377059040882330 55.4771035525215126 Zr
atom 5.2966628775977576 5.2320318525037530 47.9633403456822194 S
atom 9.7101327316617425 4.6055106097496568 47.9633385362571332 S
atom 4.6701416348436338 9.6455017065677566 47.9633421551073056 S
atom 10.2655304919003409 10.2008994668063302 47.9633403456822052 S
atom 4.6375824024805583 4.7023431967115963 52.9725732437565782 S
atom 10.2398213874539028 5.2645910848668436 52.9725714343314422 S
atom 5.1998302906358065 10.3045821816849283 52.9725750531815933 S
atom 9.6064500167831390 9.6712108110141770 52.9725732437565640 S
atom 4.6007330847329779 2.4689900603906074 50.1537088548812733 S
atom 10.3764381936735202 2.4307036008390712 50.7918626140141711 S
atom 5.3364470968554238 7.4706946976571622 50.7918662328643009 S
atom 9.5696006990355720 7.4378576746931735 50.1537088548812804 S
atom 4.6020885422733908 2.4679845370518736 55.7978417412459109 S
atom 10.3756964321836147 2.4297009457014096 55.1563617449469774 S
atom 5.3357053353655370 7.4696920425195108 55.1563653637970290 S
atom 9.5709561565759920 7.4368521513544437 55.7978417412459109 S
atom 2.4643158126542133 5.3725638851299227 50.1537106643063737 S
atom 7.4714698865083422 4.5657263904919621 50.7918644234392076 S
atom 2.4314787896902335 9.6057174873100610 50.7918680422894298 S
atom 7.4331834269568100 10.3414314994324972 50.1537106643063737 S
atom 2.4653213359929400 5.3712084275895213 55.7978435506709829 S
atom 7.4724725416459927 4.5664681519818737 55.1563635543719926 S
atom 2.4324814448278875 9.6064592487999594 55.1563671732221863 S
atom 7.4341889502955292 10.3400760418920790 55.7978435506709687 S
atom 2.3024244559198328 2.7683928565552263 57.9792958617609173 Ba
atom 7.2049041133077099 2.6308814171249808 57.9792940523358666 Ba
atom 2.1649130164896007 7.6708725139430767 57.9792976711859680 Ba
atom 7.2712920702224286 7.7372604708577866 57.9792958617609315 Ba
atom 2.6672605288991305 2.2012735144573292 62.9826492151115502 Ba
atom 7.7720234554055843 2.2660453441456840 62.9826474056865280 Ba
atom 2.7320323585874879 7.3060364409637657 62.9826510245366435 Ba
atom 7.6361281432017298 7.1701411287599015 62.9826492151115787 Ba
atom 4.9704370903783399 4.9650956293650328 60.4918605970461201 Zr
atom 9.9770689548004476 4.9317363969690620 60.4918587876209841 Zr
atom 4.9370778579823673 9.9717274937871494 60.4918624064711281 Zr
atom 9.9393047046809375 9.9339632436676144 60.4918605970461059 Zr
atom 4.9637955133611786 4.9779139017352803 65.5092394536371216 Zr
atom 9.9642506824302597 4.9383779739862339 65.5092376442120496 Zr
atom 4.9242595856121092 9.9783690708043000 65.5092412630622647 Zr
atom 9.9326631276637656 9.9467815160378485 65.5092394536371501 Zr
atom 5.3002114751583571 5.2353333828598059 57.9816338612864683 S
atom 9.7068312013057181 4.6019620121890279 57.9816320518613395 S
atom 4.6668401044875916 9.6419531090070905 57.9816356707114622 S
atom 10.2690790894609663 10.2042009971623511 57.9816338612864826 S
atom 4.6411310000411916 4.7056447270676180 62.9908667593607845 S
atom 10.2365198570978588 5.2610424873062094 62.9908649499357409 S
atom 5.1965287602797696 10.3010335841243226 62.9908685687859062 S
atom 9.6099986143437857 9.6745123413701926 62.9908667593607987 S
atom 4.6013467807835076 2.4669818819142231 60.1623408721787101 S
atom 10.3770518897240684 2.4286954223626909 60.8004946313116292 S
atom 5.3370607929059544 7.4686865191807739 60.8004982501617306 S
atom 9.5702143950860812 7.4358494962167905 60.1623408721787243 S
atom 4.5976359125426631 2.4706700744121775 65.7980857848678937 S
atom 10.3858132807158050 2.4320489816640318 65.1808234044009396 S
atom 5.3458221838976874 7.4720400784821095 65.1808270232511973 S
atom 9.5665035268452456 7.4395376887147284 65.7980857848678795 S
atom 2.4663239911305963 5.3719501890794170 60.1623426816037608 S
atom 7.4734780649847163 4.5651126944414582 60.8004964407367794 S
atom 2.4334869681666160 9.6051037912595554 60.8005000595868808 S
atom 7.4351916054331895 10.3408178033819969 60.1623426816037608 S
atom 2.4626357986326517 5.3756610573202410 65.7980875942929231 S
atom 7.4701245056833665 4.5563513034497092 65.1808252138259974 S
atom 2.4301334088652728 9.5963424002678117 65.1808288326762693 S
atom 7.4315034129352409 10.3445286716228289 65.7980875942929231 S
atom 2.2969826058768614 2.7519778340128838 67.9616496790596898 Ba
atom 7.2213191358500541 2.6363232671679597 67.9616478696345894 Ba
atom 2.1813280390319334 7.6763143639860401 67.9616514884846623 Ba
atom 7.2658502201794564 7.7208454483154325 67.9616496790596898 Ba
atom 2.6662485799505116 2.3863090879718123 72.7529805161651097 Ba
atom 7.5869878818911207 2.2670572930943109 72.7529787067401941 Ba
atom 2.5469967850730115 7.3070483899124117 72.7529823255901249 Ba
atom 7.6351161942530847 7.3551767022743970 72.7529805161651382 Ba
atom 4.9792209832537822 4.9683861147388813 70.5664450515087367 Zr
atom 9.9737784694266374 4.9229525040936135 70.5664432420835652 Zr
atom 4.9337873726085304 9.9629436009117089 70.5664468609336524 Zr
atom 9.9480885975563638 9.9372537290414567 70.5664450515087367 Zr
atom 5.2641280772439059 5.2179159137871425 68.0037131574682405 S
atom 9.7242486703783566 4.6380454101035058 68.0037113480431117 S
atom 4.6842575735602647 9.6780365069215701 68.0037149668933409 S
atom 10.2329956915465079 10.1867835280897179 68.0037131574682263 S
atom 4.7588608399247052 4.8446488568412089 73.0736656951190753 S
atom 10.0975157273242839 5.1433126474227002 73.0736638856940033 S
atom 5.0575246305061814 10.1833037442408170 73.0736675045442752 S
atom 9.7277284542272859 9.8135164711437941 73.0736656951190753 S
atom 4.6614884069153453 2.4742058967382743 70.2122825723468083 S
atom 10.2918247984095963 2.4358829801372064 70.7208363750447120 S
atom 5.2518337015914787 7.4758740769553036 70.7208399938949555 S
atom 9.6303560212179420 7.4430735110408373 70.2122825723467940 S
atom 2.4590999763065429 5.3118085629475900 70.2122843817719655 S
atom 7.4662905072101884 4.6503397857559268 70.7208381844698692 S
atom 2.4262994103920925 9.6903308825740222 70.7208418033197859 S
atom 7.4279675906091382 10.2806761772501076 70.2122843817719797 S
