#=======================================================
# FHI-aims file: sym_relax/sym_relax_RP_6_Rx0Rz_0-RyRz.in
# Created using the Atomic Simulation Environment (ASE)
# Fri Mar 14 11:03:51 2025
#=======================================================
lattice_vector 10.0077730241560037 0.0000628426401407 0.0163226301528778 
lattice_vector 0.0000628426401407 10.0077730241560054 0.0163226301528778 
lattice_vector 0.1076774568531614 0.1076774568531616 65.9644371196492187 
atom -0.1854099356239375 0.0484256301667331 0.2521776927802573 Ba
atom 5.0699937324749875 0.0485084506459993 0.2596891852750743 Ba
atom 0.0661386417170777 5.0523635414039294 0.2596891852750745 Ba
atom 4.8185079977741143 5.0523435635648015 0.2685003229331349 Ba
atom -0.1172647001029728 0.0407535804858748 4.9474413000485491 Ba
atom 4.8411442770422157 0.0407696257694556 4.9282096958481301 Ba
atom -0.1627108137156912 5.0446247165273794 4.9282096958481301 Ba
atom 4.8866532332950952 5.0446715138839462 4.9637639302014218 Ba
atom 2.4354666526332398 2.5437344264990087 2.3332111388698351 Zr
atom 7.4393500673003530 2.5502442945535493 2.3408657018868104 Zr
atom 2.4354949765424316 7.5540993853114751 2.3408657018868104 Zr
atom 7.4393845860312782 7.5476523598970697 2.3495337690227145 Zr
atom 2.4568949418351682 2.5217148685634112 7.4072126180519193 Zr
atom 7.4607854907588891 2.5557340767750376 7.4151749868100589 Zr
atom 2.4569304000009713 7.5595891675329439 7.4151749868100616 Zr
atom 7.4608128752332252 7.5256328019614722 7.4235352482048000 Zr
atom 2.4439180983456694 2.8604890987588805 -0.1596912452675304 S
atom 7.4477123568596761 2.2414797026343094 -0.1530821743259760 S
atom 2.4438572661017561 7.2453347933922387 -0.1530821743259761 S
atom 7.4478360317437264 7.8644070321569401 -0.1433686151146525 S
atom 2.4539659193723633 2.2085773528174375 4.9056989670304008 S
atom 7.4579578168198521 2.8769450953575313 4.9148274399969099 S
atom 2.4541027260619304 7.8808001861154526 4.9148274399969116 S
atom 7.4578838527704274 7.2124952862155123 4.9220215971832850 S
atom 2.4431771568996532 0.0453961193654094 2.0958115250105789 S
atom 7.4220794500204565 0.0443849951447345 2.7687991820434572 S
atom 2.4182243592625414 5.0482400859026688 2.7687991820434572 S
atom 7.4470950902977062 5.0493140527634646 2.1121341551634600 S
atom 2.9231251200916208 0.0362921803404363 7.6879844413893945 S
atom 7.0702589878592779 0.0371890328976092 7.1550120774937458 S
atom 2.0664038971013632 5.0410441236555377 7.1550120774937458 S
atom 7.9270430534896734 5.0402101137384987 7.7043070715422788 S
atom -0.0647298233039070 2.5400782039296814 2.4451913568688131 S
atom 4.9392000019524893 2.5534777089184764 2.4534826819190174 S
atom -0.0646550888054299 7.5573327996764172 2.4534826819190165 S
atom 4.9391881100941575 7.5439961373277606 2.4615139870216889 S
atom -0.0344123947372608 2.1016831541365657 7.4215322785433182 S
atom 4.9694722224277701 2.9756261620738473 7.4310529084831707 S
atom -0.0343828683301476 7.9794812528317740 7.4310529084831716 S
atom 4.9695055386608029 7.1056010875346267 7.4378549086961865 S
atom -0.0659766313427304 0.0325895631657983 9.9320763433502144 Ba
atom 5.0915613607793242 0.0326334833017281 9.9672752502480559 Ba
atom 0.0877062700214099 5.0364885740596570 9.9672752502480595 Ba
atom 4.9379413020553153 5.0365074965638623 9.9483989735030942 Ba
atom 0.1029929721250575 0.0245259952584335 14.9944994033116625 Ba
atom 4.9498378385225505 0.0244497246312552 14.9974969661508322 Ba
atom -0.0540172522353687 5.0283048153891832 14.9974969661508286 Ba
atom 5.1069109055231063 5.0284439286565084 15.0108220334645317 Ba
atom 2.5157347833450907 2.5336124476482200 12.4665158486940406 Zr
atom 7.5196098383141923 2.5274379682413182 12.4744888549607520 Zr
atom 2.5157547475562754 7.5312930589992426 12.4744888549607555 Zr
atom 7.5196527167431464 7.5375303810462704 12.4828384788469133 Zr
atom 2.5371389057314673 2.5254556850464378 17.5338301446545834 Zr
atom 7.5410139607005719 2.5192812056395391 17.5418031509212966 Zr
atom 2.5371588699426626 7.5231362963974711 17.5418031509212931 Zr
atom 7.5410568391295287 7.5293736184445077 17.5501527748075041 Zr
atom 2.4876532771610216 2.7845295992384647 9.9447720384628102 S
atom 7.4914833847874958 2.2846612451647519 9.9520478011683355 S
atom 2.4876282940295709 7.2885163359226741 9.9520478011683373 S
atom 7.4915712105590915 7.7884475326365177 9.9610946686156989 S
atom 2.5264097556076228 2.3148696796491448 14.9997700859951024 S
atom 7.5303389884380270 2.7380239736386089 15.0085489136202597 S
atom 2.5264838976801234 7.7418790643965316 15.0085489136202597 S
atom 7.5303276890056781 7.3187876130472089 15.0160927161479876 S
atom 2.0591737371201675 0.0288607234736103 12.2795052922132353 S
atom 7.9850327258170228 0.0282714602376103 12.6669454849010510 S
atom 2.9811776350591037 5.0321265509955300 12.6669454849010545 S
atom 7.0630916705182338 5.0327786568716792 12.2958279223661098 S
atom 2.9936570735274368 0.0201149964160789 17.7124910772492505 S
atom 7.0755711089865496 0.0207671022922197 17.3413735147142702 S
atom 2.0717160182286394 5.0246221930501491 17.3413735147142738 S
atom 7.9975750069255023 5.0240329298141368 17.7288137074021392 S
atom 0.0111424573964668 2.9984801957958318 12.4744084300008176 S
atom 5.0150354630019987 2.0624627146343948 12.4810658463149835 S
atom 0.0111803722440693 7.0663178053923197 12.4810658463149817 S
atom 5.0150603907945248 8.0023981291938995 12.4907310601536778 S
atom 0.0378332624932218 2.0543506148517889 17.5175879394616949 S
atom 5.0417132810436716 2.9904309386533590 17.5272531533003821 S
atom 0.0378581902857596 7.9942860294112856 17.5272531533003750 S
atom 5.0417511958912824 7.0582685482498579 17.5339105696145587 S
atom -0.0387305501317215 0.0163422365879597 20.0247211192144228 Ba
atom 5.1188074419903513 0.0163861567238904 20.0599200261122519 Ba
atom 0.1149523512324191 5.0202412474818185 20.0599200261122519 Ba
atom 4.9651873832663309 5.0202601699860301 20.0410437493673292 Ba
atom 0.2116865336053805 0.0082060941202332 25.0637866736143273 Ba
atom 5.1700955107505786 0.0082221394038134 25.0445550694139172 Ba
atom 0.1662404199926613 5.0120772301617329 25.0445550694139172 Ba
atom 5.2156044670034376 5.0121240275183121 25.0801093037672551 Ba
atom 2.5959632532867842 2.4971595765127246 22.5931440128052898 Zr
atom 7.5998538022105038 2.5311787847243488 22.6011063815634223 Zr
atom 2.5959987114525815 7.5350338754822896 22.6011063815634223 Zr
atom 7.5998811866848461 7.5010775099107940 22.6094666429581608 Zr
atom 2.6173986767453128 2.5026493587342031 27.6674532977285388 Zr
atom 7.6212820914124393 2.5091592267887557 27.6751078607454879 Zr
atom 2.6174270006545162 7.5130143175466833 27.6751078607454879 Zr
atom 7.6213166101433556 7.5065672921322699 27.6837759278814310 Zr
atom 2.5652653592581771 2.7682324081230081 20.0562711984470106 S
atom 7.5690954668846464 2.2683640540492940 20.0635469611525394 S
atom 2.5652403761267344 7.2722191448072202 20.0635469611525430 S
atom 7.5691832926562235 7.7721503415210682 20.0725938285998957 S
atom 2.5987909272258141 2.1759485579302269 25.0934915596184283 S
atom 7.6027828246733060 2.8443163004703176 25.1026200325849871 S
atom 2.5989277339153802 7.8481713912282496 25.1026200325849906 S
atom 7.6027088606238733 7.1798664913282861 25.1098141897712992 S
atom 2.1297056905559857 0.0126835395492516 22.3040119280731233 S
atom 7.9903448469443212 0.0118495296322204 22.8533069221216323 S
atom 2.9864897561863901 5.0157046203901521 22.8533069221216323 S
atom 7.1336236239540645 5.0166014729473227 22.3203345582259587 S
atom 2.6096536537479489 0.0035796005242798 27.8961848444519234 S
atom 7.6385243847831354 0.0046535673850940 27.2395198175718569 S
atom 2.6346692940252021 5.0085086581430085 27.2395198175718569 S
atom 7.6135715871460237 5.0074975339223551 27.9125074746048050 S
atom 0.0833881146269494 2.9511476565110448 22.5704640909191738 S
atom 5.0872765216178912 2.0772674912139086 22.5772660911322021 S
atom 0.0834214308599765 7.0811225819718357 22.5772660911322021 S
atom 5.0873060480250150 7.9550655899091218 22.5867867210720483 S
atom 0.1137055431935956 2.5127526067179340 27.5468050125936799 S
atom 5.1175487420931907 2.4994159443692787 27.5548363176962958 S
atom 0.1136936513352590 7.5032710351271996 27.5548363176962958 S
atom 5.1176234765916622 7.5166705401159941 27.5631276427465508 S
atom -0.0171629218273893 0.0004672692436895 29.7323071841874231 Ba
atom 5.2382407462715550 0.0005500897229557 29.7398186766822441 Ba
atom 0.2343856555136265 5.0044051804808865 29.7398186766822441 Ba
atom 4.9867550115706800 5.0043852026417532 29.7486298143402585 Ba
atom 2.6090363871859985 2.8114139506534510 30.1614011739413677 S
atom 7.6128306456999972 2.1924045545288684 30.1680102448829111 S
atom 2.6089755549420759 7.1962596452868111 30.1680102448829111 S
atom 7.6129543205840537 7.8153318840515151 30.1777238040942493 S
atom 2.6042233252923470 2.3703877595016714 33.2425575676813452 Ba
atom 7.6081612365295310 2.6219363368426980 33.2500690601761733 Ba
atom 2.6043061457716083 7.6257914276006167 33.2500690601761733 Ba
atom 7.6081412586903863 7.3743056928997266 33.2588801978342445 Ba
atom 2.5965512756114855 2.4385329950226460 37.9378211749496757 Ba
atom 7.6004224116529810 2.3930868814099187 37.9185895707492833 Ba
atom 2.5965673208950606 7.3969419721678502 37.9185895707492833 Ba
atom 7.6004692090095620 7.4424509284207172 37.9541438051025182 Ba
atom 5.0995321216246072 4.9912643477588450 35.3235910137709013 Zr
atom 10.1098970804371184 4.9912926716680595 35.3312455767878717 Zr
atom 5.1060419896791638 9.9951477624259937 35.3312455767878717 Zr
atom 10.1034500550226642 9.9951822811569180 35.3399136439237296 Zr
atom 5.0775125636890071 5.0126926369607911 40.3975924929530095 Zr
atom 10.1153868626585748 5.0127280951265707 40.4055548617111384 Zr
atom 5.1115317719006228 10.0165831858845227 40.4055548617111384 Zr
atom 10.0814304970870765 10.0166105703588304 40.4139151231059230 Zr
atom 5.4162867938844990 4.9997157934712932 32.8306886296335136 S
atom 9.8011324885178617 4.9996549612273844 32.8372977005751352 S
atom 4.7972773977599319 10.0035100519853248 32.8372977005751352 S
atom 10.4202047272825595 10.0036337268693529 32.8470112597864627 S
atom 4.7643750479430471 5.0097636144979711 37.8960788419314838 S
atom 10.4365978812410738 5.0099004211875604 37.9052073148980142 S
atom 5.4327427904831458 10.0137555119454760 37.9052073148980142 S
atom 9.7682929813411192 10.0136815478960610 37.9124014720843263 S
atom 5.0958758990552928 2.4910678718217105 35.4355712317698135 S
atom 10.1131304948020020 2.4911426063201838 35.4438625568201076 S
atom 5.1092754040440855 7.4949976970781016 35.4438625568201076 S
atom 10.0997938324533436 7.4949858052197733 35.4518938619227768 S
atom 4.6574808492621749 2.5213853003883546 40.4119121534443266 S
atom 10.5352789479574014 2.5214148267954615 40.4214327833842546 S
atom 5.5314238571994299 7.5252699175533904 40.4214327833842546 S
atom 9.6613987826602532 7.5253032337864303 40.4282347835971976 S
atom 2.6011938144910181 4.9989748520252677 35.0861913999116979 S
atom 7.6040377810282767 4.9740220543881533 35.7591790569445678 S
atom 2.6001826902703442 9.9778771451460955 35.7591790569445678 S
atom 7.6051117478890582 10.0028927854233594 35.1025140300644907 S
atom 2.5920898754660544 5.4789228152172456 40.6783643162904696 S
atom 7.5968418187811251 4.6222015922269719 40.1453919523948528 S
atom 2.5929867280232171 9.6260566829848990 40.1453919523948457 S
atom 7.5960078088641003 10.4828407486153132 40.6946869464433334 S
atom 2.5883872582914060 2.4898210637828830 42.9224562182512059 Ba
atom 7.5922862691852586 2.6435039651470280 42.9576551251491381 Ba
atom 2.5884311784273368 7.6473590559049560 42.9576551251491381 Ba
atom 7.5923051916894639 7.4937389971809445 42.9387788484041550 Ba
atom 2.5803236903840419 2.6587906672506705 47.9848792782127447 Ba
atom 7.5841025105147803 2.5017804428902455 47.9878768410518575 Ba
atom 2.5802474197568630 7.5056355336481744 47.9878768410518646 Ba
atom 7.5842416237821091 7.6627086006487453 48.0012019083656014 Ba
atom 5.0894101427738141 5.0715324784707088 45.4568957235951814 Zr
atom 10.0870907541248496 5.0715524426819023 45.4648687298618412 Zr
atom 5.0832356633669331 10.0754075334398401 45.4648687298618412 Zr
atom 10.0933280761718773 10.0754504118687827 45.4732183537480310 Zr
atom 5.0812533801720372 5.0929366008570822 50.5242100195557171 Zr
atom 10.0789339915230887 5.0929565650682758 50.5321830258223912 Zr
atom 5.0750789007651447 10.0968116558261993 50.5321830258223912 Zr
atom 10.0851713135700791 10.0968545342551419 50.5405326497086307 Zr
atom 5.3403272943640596 5.0434509722866405 42.9351519133639243 S
atom 9.8443140310482722 5.0434259891551987 42.9424276760694426 S
atom 4.8404589402903504 10.0472810799130929 42.9424276760694426 S
atom 10.3442452277621122 10.0473689056847135 42.9514745435167953 S
atom 4.8706673747747482 5.0822074507332431 47.9901499608962183 S
atom 10.2976767595221492 5.0822815928057361 47.9989287885214253 S
atom 5.2938216687642061 10.0861366835636623 47.9989287885214253 S
atom 9.8745853081727972 10.0861253841313019 48.0064725910489614 S
atom 5.5542778909214130 2.5669401525220814 45.4647883049019299 S
atom 9.6221155005179142 2.5669780673696803 45.4714457212160852 S
atom 4.6182604097599942 7.5708331581276154 45.4714457212160781 S
atom 10.5581958243194745 7.5708580859201469 45.4811109350547866 S
atom 4.6101483099773981 2.5936309576188328 50.5079678143626509 S
atom 10.5500837245368597 2.5936558854113758 50.5176330282014874 S
atom 5.5462286337789681 7.5975109761693096 50.5176330282014945 S
atom 9.6140662433754311 7.5975488910169044 50.5242904445155858 S
atom 2.5846584185992265 4.6149714322457793 45.2698851671142677 S
atom 7.5879242461211307 5.5369753301847364 45.6573253598020727 S
atom 2.5840691553632258 10.5408304209426458 45.6573253598020727 S
atom 7.5885763519972844 9.6188893656438754 45.2862077972671671 S
atom 2.5759126915416868 5.5494547686530593 50.7028709521502847 S
atom 7.5804198881757472 4.6275137133542588 50.3317533896154288 S
atom 2.5765647974178227 9.6313688041122063 50.3317533896154288 S
atom 7.5798306249397385 10.5533727020510870 50.7191935823032125 S
atom 2.5721399317135667 2.5170671449938915 53.0151009941153930 Ba
atom 7.5760389426074166 2.6707500463580409 53.0502999010134459 Ba
atom 2.5721838518495019 7.6746051371159645 53.0502999010134459 Ba
atom 7.5760578651116255 7.5209850783919547 53.0314236242683279 Ba
atom 2.5640037892458465 2.7674842287309986 58.0541665485154752 Ba
atom 7.5678749252873319 2.7220381151182793 58.0349349443150260 Ba
atom 2.5640198345294252 7.7258932058761989 58.0349349443150260 Ba
atom 7.5679217226439111 7.7714021621290703 58.0704891786682893 Ba
atom 5.0529572716383448 5.1517609484123943 55.5835238877064057 Zr
atom 10.0908315706078380 5.1517964065781996 55.5914862564644636 Zr
atom 5.0869764798499455 10.1556514973361409 55.5914862564644636 Zr
atom 10.0568752050363770 10.1556788818104806 55.5998465178592554 Zr
atom 5.0584470538598190 5.1731963718709340 60.6578331726295801 Zr
atom 10.0688120126722609 5.1732246957801387 60.6654877356466500 Zr
atom 5.0649569219143489 10.1770797865380480 60.6654877356466500 Zr
atom 10.0623649872578174 10.1771143052689812 60.6741558027824652 Zr
atom 5.3240301032486217 5.1210630543837947 53.0466510733480803 S
atom 9.8280168399327845 5.1210380712523467 53.0539268360535985 S
atom 4.8241617491748938 10.1248931620102613 53.0539268360535985 S
atom 10.3279480366466849 10.1249809877818695 53.0629737035009796 S
atom 4.7317462530558210 5.1545886223514303 58.0838714345194802 S
atom 10.4039690863537970 5.1547254290410027 58.0929999074860959 S
atom 5.4001139955959188 10.1585805197989067 58.0929999074860959 S
atom 9.7356641864538886 10.1585065557494882 58.1001940646723867 S
atom 5.5069453516366424 2.6391858097525605 55.5608439658202968 S
atom 9.6369202770974258 2.6392191259855937 55.5676459660331901 S
atom 4.6330651863395182 7.6430742167435239 55.5676459660331901 S
atom 10.5108632850347092 7.6431037431506184 55.5771665959731891 S
atom 5.0685503018435361 2.6695032383192072 60.5371848874947958 S
atom 10.0590687302527897 2.6694913464608727 60.5452161925973371 S
atom 5.0552136394948635 7.6733464372188065 60.5452161925973371 S
atom 10.0724682352416082 7.6734211717172744 60.5535075176476596 S
atom 2.5684812346748678 4.6855033856816020 55.2943918029741823 S
atom 7.5715023155157555 5.5422874513120064 55.8436867970226842 S
atom 2.5676472247578275 10.5461425420699175 55.8436867970226771 S
atom 7.5723991680729252 9.6894213190796510 55.3107144331270391 S
atom 2.5593772956498859 5.1654513488735834 60.8865647193530322 S
atom 7.5643063532685968 5.1904669891508215 60.2298996924730403 S
atom 2.5604512625107119 10.1943220799087477 60.2298996924730403 S
atom 7.5632952290479718 10.1693692822716315 60.9028873495058747 S
atom 2.5562649643693010 2.5386347732982220 62.7226870590884786 Ba
atom 7.5602028756064721 2.7901833506392442 62.7301985515833209 Ba
atom 2.5563477848485627 7.7940384413971637 62.7301985515833209 Ba
atom 7.5601828977673637 7.5425527066962959 62.7390096892414135 Ba
atom 5.3672116457790393 5.1648340823116135 63.1517810488424089 S
atom 9.7520573404123905 5.1647732500676895 63.1583901197840234 S
atom 4.7482022496544793 10.1686283408256219 63.1583901197840234 S
atom 10.3711295791770723 10.1687520157096554 63.1681036789952728 S
