#=======================================================
# FHI-aims file: sym_relax/sym_relax_RP_2_RxRyRz_-RxRy0.in
# Created using the Atomic Simulation Environment (ASE)
# Fri Mar 14 10:22:15 2025
#=======================================================
lattice_vector 10.0810486328320383 0.1195043355232315 0.0001186807455811 
lattice_vector 0.1195043355232317 10.0810486328320295 -0.0001186807455811 
lattice_vector -0.0004557519041768 0.0004557519041768 25.5129816907054021 
atom -0.0998348229771425 -0.0997993316942410 0.2830082779591887 Ba
atom 5.1403236481102539 0.1595869907387578 0.2830676183319787 Ba
atom 0.1595514994558569 5.1403591393931372 0.2829489375863977 Ba
atom 5.0004416612004938 5.0004771524833727 0.2830082779591887 Ba
atom 0.0262560156014650 0.0264313047953791 4.9063426328279700 Ba
atom 5.0140930116206315 0.0334961521601507 4.9064019732007660 Ba
atom 0.0333208629662365 5.0142683008145399 4.9062832924551829 Ba
atom 5.1265324997791089 5.1267077889729968 4.9063426328279700 Ba
atom 2.5407407079201327 2.5408822303056620 2.3646992185181070 Zr
atom 7.5999185702879872 2.6192879440191130 2.3647585588908995 Zr
atom 2.6191464216335762 7.6000600926734823 2.3646398781453137 Zr
atom 7.6410171920977810 7.6411587144832804 2.3646992185181075 Zr
atom 2.5407069411117584 2.5409159971140385 7.4479860471378432 Zr
atom 7.5998848034796014 2.6193217108274869 7.4480453875106294 Zr
atom 2.6191126548252059 7.6000938594818770 7.4479267067650534 Zr
atom 7.6409834252893996 7.6411924812916610 7.4479860471378432 Zr
atom 2.7330567927921803 2.7330616335851867 -0.1263111178730592 S
atom 7.4077391670084634 2.4269718591470713 -0.1262517775002690 S
atom 2.4269670183540524 7.4077440078014627 -0.1263704582458500 S
atom 7.8333332769698005 7.8333381177628123 -0.1263111178730592 S
atom 2.2948188026754668 2.2949940918693712 4.9063426328279700 S
atom 7.8458067087242735 2.8652098492637812 4.9064019732007660 S
atom 2.8650345600698670 7.8459819979181695 4.9062832924551829 S
atom 7.3950952868531115 7.3952705760469879 4.9063426328279700 S
atom 2.5202175867821945 0.0299387275355937 2.2328681998721458 S
atom 7.5606856052164453 0.0896969934749277 2.6834471878606077 S
atom 2.5799134565620530 5.0704691421293084 2.6833285071150224 S
atom 7.6204940709598397 5.1302152117132085 2.2328681998721458 S
atom 2.5201314404399100 0.0299887294199361 7.5798764061565862 S
atom 7.5607120548376914 0.0897347990038332 7.1294160989137065 S
atom 2.5799399061832817 5.0705069476582185 7.1292974181681279 S
atom 7.6204079246175400 5.1302652135975588 7.5798764061565862 S
atom 0.0298134402260215 2.5203067296338166 2.2328088594993609 S
atom 5.0703316584643279 2.5801151953771893 2.6833878474878134 S
atom 0.0895595098099186 7.5608873440315882 2.6832691667422308 S
atom 5.1300899244036557 7.6205832138114227 2.2328088594993618 S
atom 0.0297634383416800 2.5203928759761087 7.5798170657838053 S
atom 5.0702938529354302 2.5800887457559587 7.1293567585409177 S
atom 0.0895217042810142 7.5608608944103413 7.1292380777953390 S
atom 5.1300399225193232 7.6206693601537223 7.5798170657838053 S
atom -0.0999746208881550 -0.0996595337832281 9.5296769876967797 Ba
atom 5.1401838501992465 0.1597267886497706 9.5297363280695535 Ba
atom 0.1594117015448439 5.1404989373041658 9.5296176473239811 Ba
atom 5.0003018632894838 5.0006169503943907 9.5296769876967797 Ba
atom 2.7328863443912845 2.7332320819860820 9.9389963835289947 S
atom 7.4075687186075596 2.4271423075479612 9.9390557239017898 S
atom 2.4267965699531584 7.4079144562023442 9.9389370431562032 S
atom 7.8331628285689119 7.8335085661636983 9.9389963835289947 S
atom 2.6496831018691513 2.6502237047784316 13.0395131622596914 Ba
atom 7.4905770958152038 2.5103455500700953 13.0395725026324900 Ba
atom 2.5098049471608128 7.4911176987244721 13.0394538218869016 Ba
atom 7.7499595860467902 7.7505001889560603 13.0395131622596914 Ba
atom 2.5235021017890187 2.5241331428870999 17.6628334781807048 Ba
atom 7.6166676577065324 2.6365265501502257 17.6628928185534733 Ba
atom 2.6358955090521397 7.6172986988045954 17.6627741378079115 Ba
atom 7.6237785859666642 7.6244096270647299 17.6628334781807048 Ba
atom 5.1093386858275212 5.1098699822973224 15.1211972440545246 Zr
atom 10.1312073024739622 5.1509664502893413 15.1212565844272913 Zr
atom 5.1504351538195552 10.1317385989437359 15.1211379036817366 Zr
atom 10.2096151700051525 10.2101464664749546 15.1211972440545246 Zr
atom 5.1092389411992336 5.1099697269255948 20.2044697123068708 Zr
atom 10.1311075578456720 5.1510661949176217 20.2045290526796570 Zr
atom 5.1503354091912774 10.1318383435719959 20.2044103719340775 Zr
atom 10.2095154253768765 10.2102462111032111 20.2044697123068708 Zr
atom 4.9171028552912821 4.9175756778842974 12.6301908208378659 S
atom 10.3235016068869818 5.3432022808255795 12.6302501612106628 S
atom 5.3427294582325802 10.3239744294799731 12.6301314804651117 S
atom 10.0173793394689099 10.0178521620619279 12.6301908208378695 S
atom 5.3552006176923568 5.3558316587904367 17.6628334781807048 S
atom 9.8852456259808630 4.9051045184245172 17.6628928185534733 S
atom 4.9044734773264427 9.8858766670789251 17.6627741378079115 S
atom 10.4554771018699881 10.4561081429680360 17.6628334781807048 S
atom 5.0700938240566105 2.5802906415014730 15.4398967475427522 S
atom 10.1106753406231071 2.6400358349496762 14.9894192045114192 S
atom 5.1299031919686859 7.6208079836040650 14.9893005237658485 S
atom 10.1703703082342596 7.6805671256790760 15.4398967475427504 S
atom 5.0700759354389469 2.5803690515358579 19.8858295491914419 S
atom 10.1105430517044823 2.6401281936108854 20.3364257729683260 S
atom 5.1297709030501046 7.6209003422652799 20.3363070922227358 S
atom 10.1703524196165613 7.6806455357134800 19.8858295491914419 S
atom 2.5797380104377758 5.0707069765370267 15.4398374071699465 S
atom 7.6202693011672098 5.1304019441481783 14.9893598641386241 S
atom 2.6394971525128001 10.1111740928025693 14.9892411833930606 S
atom 7.6800144946154232 10.1709834607146323 15.4398374071699465 S
atom 2.5796596004033914 5.0707248651546974 19.8857702088186521 S
atom 7.6201769425059878 5.1305342330667623 20.3363664325955682 S
atom 2.6394047938515905 10.1113063817211710 20.3362477518499496 S
atom 7.6799360845810121 10.1710013493323252 19.8857702088186592 S
atom 2.6495926636803406 2.6503141429672343 22.2861537941017076 Ba
atom 7.4904866576264046 2.5104359882588940 22.2862131344745116 Ba
atom 2.5097145089720092 7.4912081369132899 22.2860944537289321 Ba
atom 7.7498691478579786 7.7505906271448595 22.2861537941017076 Ba
atom 4.9169446367862184 4.9177338963893629 22.6954761355235277 S
atom 10.3233433883819004 5.3433604993306467 22.6955354758962926 S
atom 5.3425712397275111 10.3241326479850155 22.6954167951507308 S
atom 10.0172211209638569 10.0180103805669649 22.6954761355235277 S
