#=======================================================
# FHI-aims file: sym_relax/sym_relax_RP_8_RxRyMz_RxRyMz.in
# Created using the Atomic Simulation Environment (ASE)
# Mon Mar 17 16:16:15 2025
#=======================================================
lattice_vector 10.0109424061346743 -0.0712228378344159 -0.0000000000000000 
lattice_vector -0.0712228378344161 10.0109424061346566 -0.0000000000000000 
lattice_vector -0.0000000000000000 -0.0000000000000000 85.9339948418825372 
atom 0.1365866114441471 -0.1714936676666070 0.2120050843751885 Ba
atom 5.1769648707339480 -0.1721980303613556 0.2120050843751885 Ba
atom 0.1358822487493987 4.8688845916231891 0.2120050843751885 Ba
atom 5.1064463955942836 4.7983661164835274 0.2120050843751885 Ba
atom -0.2673182780728910 0.1903712624500878 5.0047403182722192 Ba
atom 4.8150999406172490 0.2317068591556821 5.0047403182722192 Ba
atom -0.2259826813672958 5.2727894811402329 5.0047403182722192 Ba
atom 4.7025415060772353 5.1602310466002210 5.0047403182722192 Ba
atom 2.5011647709492264 2.4764866953465909 2.3958030750561319 Zr
atom 7.4988442918708902 2.4330835942836977 2.3958030750561319 Zr
atom 2.4577616698863376 7.4741662162682516 2.3958030750561319 Zr
atom 7.4710245550993610 7.4463464794967216 2.3958030750561319 Zr
atom 2.4744523424493416 2.4904067139261268 7.4492806268592435 Zr
atom 7.4849242732913437 2.4597960227835842 7.4492806268592435 Zr
atom 2.4438416513067924 7.5008786447681359 7.4492806268592435 Zr
atom 7.4443121265994732 7.4602664980762663 7.4492806268592435 Zr
atom 2.6596557555755367 2.7370236600060300 -0.1109985991541406 S
atom 7.2383073272114418 2.2745926096573839 -0.1109985991541406 S
atom 2.1972247052268976 7.3156752316419373 -0.1109985991541406 S
atom 7.6295155397256753 7.7068834441561584 -0.1109985991541406 S
atom 2.2321129645543545 2.1801296716679843 4.9563177324742389 S
atom 7.7952013155494946 2.7021354006785638 4.9563177324742389 S
atom 2.7541186935649420 7.7432180226631218 4.9563177324742389 S
atom 7.2019727487045007 7.1499894558181198 4.9563177324742389 S
atom 2.7927870924128100 -0.0165518870738149 2.2228292423575819 S
atom 7.1784418147150655 -0.0491800893957797 2.7754274136978898 S
atom 2.1373591927305120 4.9919025325887665 2.7754274136978898 S
atom 7.7626468765629362 4.9533078970763098 2.2228292423575819 S
atom 2.8941046377962394 -0.0167970228752671 7.7828587650994914 S
atom 7.1228942517994875 -0.0492202979304997 7.1590562904036492 S
atom 2.0818116298149465 4.9918623240540558 7.1590562904036492 S
atom 7.8639644219463714 4.9530627612748566 7.7828587650994914 S
atom -0.0190595318433929 2.2126841106545294 2.2228292423575819 S
atom 4.9834284546287080 2.7968891725024148 2.7754274136978898 S
atom -0.0576541673558453 7.8379717944869647 2.7754274136978898 S
atom 4.9508002523067445 7.1825438948046596 2.2228292423575819 S
atom -0.0188143960419402 2.1113665652711013 7.7828587650994914 S
atom 4.9834686631634248 2.8524367354179812 7.1590562904036492 S
atom -0.0576139588211254 7.8935193574025293 7.1590562904036492 S
atom 4.9510453881082004 7.0812263494212351 7.7828587650994914 S
atom 0.2833424026691928 -0.1828483645960795 9.9772097326452460 Ba
atom 5.1883195676634219 -0.3189538215864011 9.9772097326452460 Ba
atom 0.1472369456788716 4.7221288003981545 9.9772097326452460 Ba
atom 5.2532021868193199 4.7870114195540481 9.9772097326452460 Ba
atom -0.2840213958538372 0.1816243392520200 14.9793059964797646 Ba
atom 4.8238468638153229 0.2484099769366288 14.9793059964797646 Ba
atom -0.2172357581692278 5.2894925989211670 14.9793059964797646 Ba
atom 4.6858383882962968 5.1514841234021409 14.9793059964797646 Ba
atom 2.4896372353114136 2.4830330366403319 12.4652714522727450 Zr
atom 7.4922979505771323 2.4446111299215065 12.4652714522727450 Zr
atom 2.4512153285925855 7.4856937519060525 12.4652714522727450 Zr
atom 7.4594970194615442 7.4528928207904714 12.4652714522727450 Zr
atom 2.4839425585878319 2.4852056496476478 17.4785543120904094 Zr
atom 7.4901253375698253 2.4503058066450878 17.4785543120904094 Zr
atom 2.4490427155852776 7.4913884286296453 17.4785543120904094 Zr
atom 7.4538023427379674 7.4550654337977713 17.4785543120904094 Zr
atom 2.7495443806355202 2.8144388060141194 9.9679756576267042 S
atom 7.1608921812033559 2.1847039845973990 9.9679756576267042 S
atom 2.1198095592188015 7.2257866065819414 9.9679756576267042 S
atom 7.7194041647856695 7.7842985901642523 9.9679756576267042 S
atom 2.2178862126013308 2.1521826027234217 14.9764418203938128 S
atom 7.8231483844940479 2.7163621526315911 14.9764418203938128 S
atom 2.7820657625095024 7.7574447746161415 14.9764418203938128 S
atom 7.1877459967514650 7.1220423868735478 14.9764418203938128 S
atom 2.8874304098770947 -0.0205554304531243 12.1577798183877999 S
atom 7.1244327497773421 -0.0533853222806046 12.7977801387580392 S
atom 2.0833501277927984 4.9876972997039450 12.7977801387580392 S
atom 7.8572901940272342 4.9493043536969985 12.1577798183877999 S
atom 2.8862807985520345 -0.0190102644866325 17.8036629225721903 S
atom 7.1248549088682376 -0.0518711445727133 17.1600899351272957 S
atom 2.0837722868836908 4.9892114774118363 17.1600899351272957 S
atom 7.8561405827021673 4.9508495196634970 17.8036629225721903 S
atom -0.0150559884640835 2.1180407931902430 12.1577798183877999 S
atom 4.9876336875135374 2.8508982374401226 12.7977801387580392 S
atom -0.0534489344710201 7.8919808594246792 12.7977801387580392 S
atom 4.9548037956860558 7.0879005773403740 12.1577798183877999 S
atom -0.0166011544305753 2.1191904045153103 17.8036629225721903 S
atom 4.9861195098056390 2.8504760783492324 17.1600899351272957 S
atom -0.0549631121789118 7.8915587003337766 17.1600899351272957 S
atom 4.9532586297195564 7.0890501886654365 17.8036629225721903 S
atom 0.2847355241103898 -0.1815406057680252 19.9846499632284811 Ba
atom 5.1870118088353658 -0.3203469430275975 19.9846499632284811 Ba
atom 0.1459291868508175 4.7207356789569488 19.9846499632284811 Ba
atom 5.2545953082605212 4.7883191783821051 19.9846499632284811 Ba
atom -0.2840213958538372 0.1816243392520200 24.9899939299771567 Ba
atom 4.8238468638153229 0.2484099769366288 24.9899939299771567 Ba
atom -0.2172357581692278 5.2894925989211670 24.9899939299771567 Ba
atom 4.6858383882962968 5.1514841234021409 24.9899939299771567 Ba
atom 2.4839425585878319 2.4852056496476478 22.4907456143665492 Zr
atom 7.4901253375698253 2.4503058066450878 22.4907456143665492 Zr
atom 2.4490427155852776 7.4913884286296453 22.4907456143665492 Zr
atom 7.4538023427379674 7.4550654337977713 22.4907456143665492 Zr
atom 2.4896372353114136 2.4830330366403319 27.5040284741842100 Zr
atom 7.4922979505771323 2.4446111299215065 27.5040284741842100 Zr
atom 2.4512153285925855 7.4856937519060525 27.5040284741842100 Zr
atom 7.4594970194615442 7.4528928207904714 27.5040284741842100 Zr
atom 2.7528407333063916 2.8182414679938645 19.9846499632284811 S
atom 7.1570895192236099 2.1814076319265330 19.9846499632284811 S
atom 2.1160068972390604 7.2224902539110811 19.9846499632284811 S
atom 7.7227005174565200 7.7881012521439947 19.9846499632284811 S
atom 2.2178862126013308 2.1521826027234217 24.9928581060631245 S
atom 7.8231483844940479 2.7163621526315911 24.9928581060631245 S
atom 2.7820657625095024 7.7574447746161415 24.9928581060631245 S
atom 7.1877459967514650 7.1220423868735478 24.9928581060631245 S
atom 2.8862807985520345 -0.0190102644866325 22.1656370038847754 S
atom 7.1248549088682376 -0.0518711445727133 22.8092099913296451 S
atom 2.0837722868836908 4.9892114774118363 22.8092099913296451 S
atom 7.8561405827021673 4.9508495196634970 22.1656370038847754 S
atom 2.8874304098770947 -0.0205554304531243 27.8115201080691854 S
atom 7.1244327497773421 -0.0533853222806046 27.1715197876988768 S
atom 2.0833501277927984 4.9876972997039450 27.1715197876988768 S
atom 7.8572901940272342 4.9493043536969985 27.8115201080691854 S
atom -0.0166011544305753 2.1191904045153103 22.1656370038847754 S
atom 4.9861195098056390 2.8504760783492324 22.8092099913296451 S
atom -0.0549631121789118 7.8915587003337766 22.8092099913296451 S
atom 4.9532586297195564 7.0890501886654365 22.1656370038847754 S
atom -0.0150559884640835 2.1180407931902430 27.8115201080691854 S
atom 4.9876336875135374 2.8508982374401226 27.1715197876988768 S
atom -0.0534489344710201 7.8919808594246792 27.1715197876988768 S
atom 4.9548037956860558 7.0879005773403740 27.8115201080691854 S
atom 0.2833424026691928 -0.1828483645960795 29.9920901938116877 Ba
atom 5.1883195676634219 -0.3189538215864011 29.9920901938116877 Ba
atom 0.1472369456788716 4.7221288003981545 29.9920901938116877 Ba
atom 5.2532021868193199 4.7870114195540481 29.9920901938116877 Ba
atom -0.2673182780728910 0.1903712624500878 34.9645596081847501 Ba
atom 4.8150999406172490 0.2317068591556821 34.9645596081847501 Ba
atom -0.2259826813672958 5.2727894811402329 34.9645596081847501 Ba
atom 4.7025415060772353 5.1602310466002210 34.9645596081847501 Ba
atom 2.4744523424493416 2.4904067139261268 32.5200192995976778 Zr
atom 7.4849242732913437 2.4597960227835842 32.5200192995976778 Zr
atom 2.4438416513067924 7.5008786447681359 32.5200192995976778 Zr
atom 7.4443121265994732 7.4602664980762663 32.5200192995976778 Zr
atom 2.5011647709492264 2.4764866953465909 37.5734968514008401 Zr
atom 7.4988442918708902 2.4330835942836977 37.5734968514008401 Zr
atom 2.4577616698863376 7.4741662162682516 37.5734968514008401 Zr
atom 7.4710245550993610 7.4463464794967216 37.5734968514008401 Zr
atom 2.7495443806355202 2.8144388060141194 30.0013242688302597 S
atom 7.1608921812033559 2.1847039845973990 30.0013242688302597 S
atom 2.1198095592188007 7.2257866065819432 30.0013242688302597 S
atom 7.7194041647856695 7.7842985901642523 30.0013242688302597 S
atom 2.2321129645543545 2.1801296716679843 35.0129821939827153 S
atom 7.7952013155494946 2.7021354006785638 35.0129821939827153 S
atom 2.7541186935649420 7.7432180226631218 35.0129821939827153 S
atom 7.2019727487045007 7.1499894558181198 35.0129821939827153 S
atom 2.8941046377962394 -0.0167970228752671 32.1864411613574433 S
atom 7.1228942517994875 -0.0492202979304997 32.8102436360532934 S
atom 2.0818116298149465 4.9918623240540558 32.8102436360532934 S
atom 7.8639644219463714 4.9530627612748566 32.1864411613574433 S
atom 2.7927870924128100 -0.0165518870738149 37.7464706840993713 S
atom 7.1784418147150655 -0.0491800893957797 37.1938725127590644 S
atom 2.1373591927305120 4.9919025325887665 37.1938725127590644 S
atom 7.7626468765629362 4.9533078970763098 37.7464706840993713 S
atom -0.0188143960419402 2.1113665652711013 32.1864411613574433 S
atom 4.9834686631634248 2.8524367354179812 32.8102436360532934 S
atom -0.0576139588211254 7.8935193574025293 32.8102436360532934 S
atom 4.9510453881082004 7.0812263494212351 32.1864411613574433 S
atom -0.0190595318433929 2.2126841106545294 37.7464706840993713 S
atom 4.9834284546287080 2.7968891725024148 37.1938725127590644 S
atom -0.0576541673558453 7.8379717944869647 37.1938725127590644 S
atom 4.9508002523067445 7.1825438948046596 37.7464706840993713 S
atom 0.1365866114441471 -0.1714936676666070 39.7572948420818335 Ba
atom 5.1769648707339488 -0.1721980303613552 39.7572948420818335 Ba
atom 0.1358822487493992 4.8688845916231891 39.7572948420818335 Ba
atom 5.1064463955942836 4.7983661164835274 39.7572948420818335 Ba
atom 2.6596557555755376 2.7370236600060309 40.0802985256110702 S
atom 7.2383073272114435 2.2745926096573839 40.0802985256110702 S
atom 2.1972247052268985 7.3156752316419373 40.0802985256110702 S
atom 7.6295155397256753 7.7068834441561584 40.0802985256110702 S
atom 2.6215165035192145 2.3134362244084556 43.1790025053164044 Ba
atom 7.6618947628090082 2.3127318617137087 43.1790025053164044 Ba
atom 2.6208121408244693 7.3538144836982546 43.1790025053164044 Ba
atom 7.5913762876693500 7.2832960085585965 43.1790025053164044 Ba
atom 2.2176116140021751 2.6753011545251497 47.9717377392134807 Ba
atom 7.3000298326923119 2.7166367512307485 47.9717377392134807 Ba
atom 2.2589472107077735 7.7577193732152967 47.9717377392134807 Ba
atom 7.1874713981523088 7.6451609386752954 47.9717377392134807 Ba
atom 4.9860946630242999 4.9614165874216534 45.3628004959973765 Zr
atom 9.9837741839459504 4.9180134863587668 45.3628004959973765 Zr
atom 4.9426915619614045 9.9590961083432905 45.3628004959973765 Zr
atom 9.9559544471744310 9.9312763715717942 45.3628004959973765 Zr
atom 4.9593822345244041 4.9753366060012052 50.4162780478004464 Zr
atom 9.9698541653663941 4.9447259148586493 50.4162780478004464 Zr
atom 4.9287715433818482 9.9858085368431961 50.4162780478004464 Zr
atom 9.9292420186745609 9.9451963901513256 50.4162780478004464 Zr
atom 5.1445856476506080 5.2219535520810929 42.8559988217870966 S
atom 9.7232372192865029 4.7595225017324543 42.8559988217870966 S
atom 4.6821545973019658 9.8006051237170002 42.8559988217870966 S
atom 10.1144454318007178 10.1918133362312293 42.8559988217870966 S
atom 4.7170428566294280 4.6650595637430445 47.9233151534154516 S
atom 10.2801312076245903 5.1870652927536334 47.9233151534154516 S
atom 5.2390485856400097 10.2281479147382068 47.9233151534154516 S
atom 9.6869026407795502 9.6349193478931667 47.9233151534154516 S
atom 5.2777169844878840 2.4683780050012514 45.1898266632988097 S
atom 9.6633717067901355 2.4357498026792892 45.7424248346392091 S
atom 4.6222890848055744 7.4768324246638302 45.7424248346392091 S
atom 10.2475767686380070 7.4382377891513825 45.1898266632988097 S
atom 5.3790345298713005 2.4681328691997995 50.7498561860407236 S
atom 9.6078241438745913 2.4357095941445737 50.1260537113448095 S
atom 4.5667415218900071 7.4767922161291178 50.1260537113448095 S
atom 10.3488943140214342 7.4379926533499239 50.7498561860407236 S
atom 2.4658703602316723 4.6976140027295887 45.1898266632988097 S
atom 7.4683583467037709 5.2818190645774798 45.7424248346392091 S
atom 2.4272757247192183 10.3229016865620231 45.7424248346392091 S
atom 7.4357301443818162 9.6674737868797234 45.1898266632988097 S
atom 2.4661154960331282 4.5962964573461660 50.7498561860407236 S
atom 7.4683985552384868 5.3373666274930445 50.1260537113448095 S
atom 2.4273159332539325 10.3784492494775566 50.1260537113448095 S
atom 7.4359752801832544 9.5661562414962873 50.7498561860407236 S
atom 2.7682722947442588 2.3020815274789879 52.9442071535864898 Ba
atom 7.6732494597384910 2.1659760704886688 52.9442071535864898 Ba
atom 2.6321668377539358 7.2070586924732156 52.9442071535864898 Ba
atom 7.7381320788943881 7.2719413116291163 52.9442071535864898 Ba
atom 2.2009084962212269 2.6665542313270909 57.9463034174209923 Ba
atom 7.3087767558904053 2.7333398690116919 57.9463034174209923 Ba
atom 2.2676941339058323 7.7744224909962378 57.9463034174209923 Ba
atom 7.1707682803713659 7.6364140154772091 57.9463034174209923 Ba
atom 4.9745671273864813 4.9679629287153988 55.4322688732139213 Zr
atom 9.9772278426522085 4.9295410219965756 55.4322688732139213 Zr
atom 4.9361452206676555 9.9706236439811065 55.4322688732139213 Zr
atom 9.9444269115366239 9.9378227128655396 55.4322688732139213 Zr
atom 4.9688724506628921 4.9701355417227147 60.4455517330316638 Zr
atom 9.9750552296449211 4.9352356987201631 60.4455517330316638 Zr
atom 4.9339726076603512 9.9763183207047081 60.4455517330316638 Zr
atom 9.9387322348130169 9.9399953258728324 60.4455517330316638 Zr
atom 5.2344742727106039 5.2993686980891841 52.9349730785680137 S
atom 9.6458220732784081 4.6696338766724601 52.9349730785680137 S
atom 4.6047394512938746 9.7107164986570176 52.9349730785680137 S
atom 10.2043340568607217 10.2692284822393329 52.9349730785680137 S
atom 4.7028161046764030 4.6371124947984788 57.9434392413350494 S
atom 10.3080782765691268 5.2012920447066566 57.9434392413350494 S
atom 5.2669956545845720 10.2423746666912194 57.9434392413350494 S
atom 9.6726758888265358 9.6069722789486001 57.9434392413350494 S
atom 5.3723603019521695 2.4643744616219414 55.1247772393289992 S
atom 9.6093626418523961 2.4315445697944642 55.7647775596993043 S
atom 4.5682800198678581 7.4726271917790150 55.7647775596993043 S
atom 10.3422200861023033 7.4342342457720738 55.1247772393289992 S
atom 5.3712106906270947 2.4659196275884350 60.7706603435133630 S
atom 9.6097848009432987 2.4330587475023520 60.1270873560685004 S
atom 4.5687021789587545 7.4741413694868992 60.1270873560685004 S
atom 10.3410704747772151 7.4357794117385705 60.7706603435133630 S
atom 2.4698739036109809 4.6029706852653103 55.1247772393289992 S
atom 7.4725635795885967 5.3358281295151917 55.7647775596993043 S
atom 2.4314809576040428 10.3769107514997536 55.7647775596993043 S
atom 7.4397336877611133 9.5728304694154360 55.1247772393289992 S
atom 2.4683287376444945 4.6041202965903736 60.7706603435133630 S
atom 7.4710494018807081 5.3354059704243051 60.1270873560685004 S
atom 2.4299667798961546 10.3764885924088546 60.1270873560685004 S
atom 7.4381885217946104 9.5739800807405171 60.7706603435133630 S
atom 2.7696654161854570 2.3033892863070369 62.9516473841697248 Ba
atom 7.6719417009104420 2.1645829490474662 62.9516473841697248 Ba
atom 2.6308590789258850 7.2056655710320170 62.9516473841697248 Ba
atom 7.7395252003355726 7.2732490704571786 62.9516473841697248 Ba
atom 2.2009084962212269 2.6665542313270909 67.9569913509184431 Ba
atom 7.3087767558904053 2.7333398690116919 67.9569913509184431 Ba
atom 2.2676941339058323 7.7744224909962378 67.9569913509184431 Ba
atom 7.1707682803713659 7.6364140154772091 67.9569913509184431 Ba
atom 4.9688724506628921 4.9701355417227147 65.4577430353079563 Zr
atom 9.9750552296449211 4.9352356987201631 65.4577430353079563 Zr
atom 4.9339726076603512 9.9763183207047081 65.4577430353079563 Zr
atom 9.9387322348130169 9.9399953258728324 65.4577430353079563 Zr
atom 4.9745671273864813 4.9679629287153988 70.4710258951253365 Zr
atom 9.9772278426522085 4.9295410219965756 70.4710258951253365 Zr
atom 4.9361452206676555 9.9706236439811065 70.4710258951253365 Zr
atom 9.9444269115366239 9.9378227128655396 70.4710258951253365 Zr
atom 5.2377706253814580 5.3031713600689230 62.9516473841697248 S
atom 9.6420194112986728 4.6663375240016025 62.9516473841697248 S
atom 4.6009367893141313 9.7074201459861342 62.9516473841697248 S
atom 10.2076304095316033 10.2730311442190505 62.9516473841697248 S
atom 4.7028161046764030 4.6371124947984788 67.9598555270043363 S
atom 10.3080782765691268 5.2012920447066566 67.9598555270043363 S
atom 5.2669956545845720 10.2423746666912194 67.9598555270043363 S
atom 9.6726758888265358 9.6069722789486001 67.9598555270043363 S
atom 5.3712106906270947 2.4659196275884350 65.1326344248259232 S
atom 9.6097848009432987 2.4330587475023520 65.7762074122708071 S
atom 4.5687021789587545 7.4741413694868992 65.7762074122708071 S
atom 10.3410704747772151 7.4357794117385705 65.1326344248259232 S
atom 5.3723603019521695 2.4643744616219414 70.7785175290104860 S
atom 9.6093626418523961 2.4315445697944642 70.1385172086401809 S
atom 4.5682800198678581 7.4726271917790150 70.1385172086401809 S
atom 10.3422200861023033 7.4342342457720738 70.7785175290104860 S
atom 2.4683287376444945 4.6041202965903736 65.1326344248259232 S
atom 7.4710494018807081 5.3354059704243051 65.7762074122708071 S
atom 2.4299667798961546 10.3764885924088546 65.7762074122708071 S
atom 7.4381885217946104 9.5739800807405171 65.1326344248259232 S
atom 2.4698739036109809 4.6029706852653103 70.7785175290104860 S
atom 7.4725635795885967 5.3358281295151917 70.1385172086401809 S
atom 2.4314809576040428 10.3769107514997536 70.1385172086401809 S
atom 7.4397336877611133 9.5728304694154360 70.7785175290104860 S
atom 2.7682722947442588 2.3020815274789879 72.9590876147529315 Ba
atom 7.6732494597384910 2.1659760704886688 72.9590876147529315 Ba
atom 2.6321668377539358 7.2070586924732156 72.9590876147529315 Ba
atom 7.7381320788943881 7.2719413116291163 72.9590876147529315 Ba
atom 2.2176116140021751 2.6753011545251497 77.9315570291260684 Ba
atom 7.3000298326923119 2.7166367512307485 77.9315570291260684 Ba
atom 2.2589472107077735 7.7577193732152967 77.9315570291260684 Ba
atom 7.1874713981523088 7.6451609386752954 77.9315570291260684 Ba
atom 4.9593822345244041 4.9753366060012052 75.4870167205387617 Zr
atom 9.9698541653663941 4.9447259148586493 75.4870167205387617 Zr
atom 4.9287715433818482 9.9858085368431961 75.4870167205387617 Zr
atom 9.9292420186745609 9.9451963901513256 75.4870167205387617 Zr
atom 4.9860946630242999 4.9614165874216534 80.5404942723420874 Zr
atom 9.9837741839459504 4.9180134863587668 80.5404942723420874 Zr
atom 4.9426915619614045 9.9590961083432905 80.5404942723420874 Zr
atom 9.9559544471744310 9.9312763715717942 80.5404942723420874 Zr
atom 5.2344742727106039 5.2993686980891841 72.9683216897714573 S
atom 9.6458220732784081 4.6696338766724601 72.9683216897714573 S
atom 4.6047394512938746 9.7107164986570176 72.9683216897714573 S
atom 10.2043340568607217 10.2692284822393329 72.9683216897714573 S
atom 4.7170428566294280 4.6650595637430445 77.9799796149238631 S
atom 10.2801312076245903 5.1870652927536334 77.9799796149238631 S
atom 5.2390485856400097 10.2281479147382068 77.9799796149238631 S
atom 9.6869026407795502 9.6349193478931667 77.9799796149238631 S
atom 5.3790345298713005 2.4681328691997995 75.1534385822986479 S
atom 9.6078241438745913 2.4357095941445737 75.7772410569945265 S
atom 4.5667415218900071 7.4767922161291178 75.7772410569945265 S
atom 10.3488943140214342 7.4379926533499239 75.1534385822986479 S
atom 5.2777169844878840 2.4683780050012514 80.7134681050405476 S
atom 9.6633717067901355 2.4357498026792892 80.1608699337002975 S
atom 4.6222890848055744 7.4768324246638302 80.1608699337002975 S
atom 10.2475767686380070 7.4382377891513825 80.7134681050405476 S
atom 2.4661154960331282 4.5962964573461660 75.1534385822986479 S
atom 7.4683985552384868 5.3373666274930445 75.7772410569945265 S
atom 2.4273159332539325 10.3784492494775584 75.7772410569945265 S
atom 7.4359752801832544 9.5661562414962873 75.1534385822986479 S
atom 2.4658703602316723 4.6976140027295887 80.7134681050405476 S
atom 7.4683583467037709 5.2818190645774798 80.1608699337002975 S
atom 2.4272757247192183 10.3229016865620231 80.1608699337002975 S
atom 7.4357301443818162 9.6674737868797234 80.7134681050405476 S
atom 2.6215165035192145 2.3134362244084556 82.7242922630229032 Ba
atom 7.6618947628090082 2.3127318617137087 82.7242922630229032 Ba
atom 2.6208121408244698 7.3538144836982546 82.7242922630229032 Ba
atom 7.5913762876693500 7.2832960085585965 82.7242922630229032 Ba
atom 5.1445856476506080 5.2219535520810947 83.0472959465522536 S
atom 9.7232372192865029 4.7595225017324543 83.0472959465522536 S
atom 4.6821545973019676 9.8006051237170002 83.0472959465522536 S
atom 10.1144454318007178 10.1918133362312293 83.0472959465522536 S
