#=======================================================
# FHI-aims file: sym_relax/sym_relax_RP_5_RxRyMz_RxRy-Mz.in
# Created using the Atomic Simulation Environment (ASE)
# Fri Mar 14 10:55:17 2025
#=======================================================
lattice_vector 10.0134996299858994 -0.0600650726029824 -0.0000000000000000 
lattice_vector -0.0600650726029823 10.0134996299858905 -0.0000000000000000 
lattice_vector -0.0000000000000000 -0.0000000000000000 55.8953204850941319 
atom 0.0887200337056592 -0.1794633777448394 0.2209293326001902 Ba
atom 5.1862131927377968 -0.1187525700071505 0.2209293326001902 Ba
atom 0.1494308414433480 4.9180297812872817 0.2209293326001902 Ba
atom 5.0654373123971252 4.7972539009466120 0.2209293326001902 Ba
atom -0.2622381161731177 0.1864563052978878 5.0045857202242559 Ba
atom 4.8202935096950696 0.2322055798716268 5.0045857202242559 Ba
atom -0.2164888415993794 5.2689879311660652 5.0045857202242559 Ba
atom 4.7144791625183311 5.1631735839893391 5.0045857202242559 Ba
atom 2.4867170214394636 2.4791314755366129 2.4024842638521511 Zr
atom 7.5043356181477838 2.4599677209505018 2.4024842638521511 Zr
atom 2.4675532668533506 7.4967500722449323 2.4024842638521511 Zr
atom 7.4634343001309196 7.4558487542280663 2.4024842638521511 Zr
atom 2.4809061231202243 2.4928857341612152 7.4589165047887240 Zr
atom 7.4905813595231852 2.4657786192697384 7.4589165047887240 Zr
atom 2.4537990082287453 7.5025609705641783 7.4589165047887240 Zr
atom 7.4576234018116789 7.4696030128526738 7.4589165047887240 Zr
atom 2.6131218839234163 2.7009853105271007 -0.1040825116426915 S
atom 7.2824817831572970 2.3335628584665451 -0.1040825116426915 S
atom 2.2456994318628634 7.3703452097609761 -0.1040825116426915 S
atom 7.5898391626148767 7.6777025892185549 -0.1040825116426915 S
atom 2.2374194544673909 2.1916966888161706 4.9629858843837678 S
atom 7.7917704048682346 2.7092652879225736 4.9629858843837678 S
atom 2.7549880535737943 7.7460476392170028 4.9629858843837678 S
atom 7.2141367331588437 7.1684139675076244 4.9629858843837678 S
atom 2.7946027844614139 -0.0094036446139691 2.2465327665114536 S
atom 7.1937611626904570 -0.0364995526944503 2.7552241575403111 S
atom 2.1569788113960207 5.0002827985999909 2.7552241575403111 S
atom 7.7713200631528609 4.9673136340774846 2.2465327665114536 S
atom 2.8945790494001149 -0.0146855711958233 7.7827676289562850 S
atom 7.1250866245609492 -0.0412656816644753 7.1650132106185307 S
atom 2.0883042732665045 4.9955166696299651 7.1650132106185307 S
atom 7.8712963280915629 4.9620317074956386 7.7827676289562850 S
atom -0.0206288916875216 2.2121470305315381 2.2465327665114536 S
atom 4.9831842950844116 2.7897059309939349 2.7552241575403111 S
atom -0.0535980562100243 7.8264882822883770 2.7552241575403111 S
atom 4.9560883870039278 7.1888643092229900 2.2465327665114536 S
atom -0.0153469651056673 2.1121707655928357 7.7827676289562850 S
atom 4.9879504240544321 2.8583804691234640 7.1650132106185307 S
atom -0.0488319272399994 7.8951628204178990 7.1650132106185307 S
atom 4.9613703135857721 7.0888880442842925 7.7827676289562850 S
atom 0.2782165809234203 -0.1823827163627019 9.9787887253421754 Ba
atom 5.1891325313556491 -0.3082491172249118 9.9787887253421754 Ba
atom 0.1523501800612106 4.7285332340695190 9.9787887253421754 Ba
atom 5.2549338596148774 4.7943345623287437 9.9787887253421754 Ba
atom -0.2782165809234203 0.1823827163627019 14.9744793483605676 Ba
atom 4.8243670986302494 0.2481840446219291 14.9744793483605676 Ba
atom -0.2124152526641931 5.2849663959163706 14.9744793483605676 Ba
atom 4.6985006977680275 5.1590999950541541 14.9744793483605676 Ba
atom 2.4883586393457322 2.4883586393457269 12.4766340368513582 Zr
atom 7.4951084543386806 2.4583261030442367 12.4766340368513582 Zr
atom 2.4583261030442376 7.4951084543386752 12.4766340368513582 Zr
atom 7.4650759180371873 7.4650759180371793 12.4766340368513582 Zr
atom 2.4958111555712312 2.4838315445302359 17.4943515689140376 Zr
atom 7.4996355491541706 2.4508735868187346 17.4943515689140376 Zr
atom 2.4628531978597290 7.4876559381131713 17.4943515689140376 Zr
atom 7.4725284342626894 7.4605488232216910 17.4943515689140376 Zr
atom 2.7525220600138680 2.8169618996117243 9.9731162648037230 S
atom 7.1665051940726761 2.1941626823760951 9.9731162648037230 S
atom 2.1297228427782415 7.2309450336705439 9.9731162648037230 S
atom 7.7292393387053178 7.7936791783031758 9.9731162648037230 S
atom 2.2241952186775888 2.1597553790797348 14.9801518088989845 S
atom 7.8237117146046717 2.7224895237123721 14.9801518088989845 S
atom 2.7869293633102408 7.7592718750068093 14.9801518088989845 S
atom 7.2009124973690497 7.1364726577711828 14.9801518088989845 S
atom 2.8861349474208264 -0.0165763384809744 12.1592936109874543 S
atom 7.1273646825650658 -0.0434887341220083 12.7939744627152603 S
atom 2.0905823312706326 4.9932936171724283 12.7939744627152603 S
atom 7.8628522261122846 4.9601409402104784 12.1592936109874543 S
atom 2.8884130054249582 -0.0187993909385076 17.7882548630841946 S
atom 7.1189205805857840 -0.0453795014071594 17.1705004447464162 S
atom 2.0821382292913428 4.9914028498872733 17.1705004447464162 S
atom 7.8651302841164190 4.9579178877529424 17.7882548630841946 S
atom -0.0134561978205161 2.1206148675721255 12.1592936109874543 S
atom 4.9901734765119592 2.8561024111193301 12.7939744627152603 S
atom -0.0466088747824662 7.8928847624137690 12.7939744627152603 S
atom 4.9632610808709439 7.0973321462635797 12.1592936109874543 S
atom -0.0112331453629840 2.1183368095679933 17.7882548630841946 S
atom 4.9920642437971274 2.8645465130986216 17.1705004447464162 S
atom -0.0447181074973150 7.9013288643930535 17.1705004447464162 S
atom 4.9654841333284763 7.0950540882594400 17.7882548630841946 S
atom 0.2622381161731177 -0.1864563052978877 19.9486823534785103 Ba
atom 5.1932061202908280 -0.2922706524746088 19.9486823534785103 Ba
atom 0.1564237689963968 4.7445116988198279 19.9486823534785103 Ba
atom 5.2389553948645702 4.7902609733935675 19.9486823534785103 Ba
atom -0.0887200337056592 0.1794633777448394 24.7323387411025486 Ba
atom 4.8272864372481061 0.0586874974041680 24.7323387411025486 Ba
atom -0.2094959140463304 5.0954698486986061 24.7323387411025486 Ba
atom 4.8879972449857982 5.1561806564362982 24.7323387411025486 Ba
atom 2.4900002572519928 2.4975858031548408 22.5507838098505715 Zr
atom 7.4858812905295631 2.4566844851379721 22.5507838098505715 Zr
atom 2.4490989392351272 7.4934668364324066 22.5507838098505715 Zr
atom 7.4667175359434523 7.4743030818462932 22.5507838098505715 Zr
atom 2.7392978242240686 2.7850205898752871 19.9902821893189859 S
atom 7.1984465038091257 2.2073869181658941 19.9902821893189859 S
atom 2.1616641525146845 7.2441692694603335 19.9902821893189859 S
atom 7.7160151029155228 7.7617378685667369 19.9902821893189859 S
atom 2.3635953947680419 2.2757319681643540 25.0573505853454002 S
atom 7.7077351255200570 2.5830893476219274 25.0573505853454002 S
atom 2.6709527742256127 7.6198716989163628 25.0573505853454002 S
atom 7.3403126734594846 7.2524492468558073 25.0573505853454002 S
atom 2.8197384672954326 -0.0235655199085324 22.1980439161623764 S
atom 7.2188968455244922 -0.0506614279890137 22.7067353071912557 S
atom 2.1821144942300421 4.9861209233054291 22.7067353071912557 S
atom 7.7964557459868953 4.9531517587829192 22.1980439161623764 S
atom -0.0064670163929591 2.1870113476975162 22.1980439161623764 S
atom 4.9973461703789788 2.7645702481599170 22.7067353071912557 S
atom -0.0394361809154606 7.8013525994543507 22.7067353071912557 S
atom 4.9702502622984950 7.1637286263889655 22.1980439161623764 S
atom 2.3088952616008886 2.5770786730513886 28.1685895751472479 Ba
atom 7.4063884206330250 2.6377894807890776 28.1685895751472479 Ba
atom 2.3696060693385763 7.6745718320835179 28.1685895751472479 Ba
atom 7.2856125402923420 7.5537959517428410 28.1685895751472479 Ba
atom 2.6748149446436185 2.2261205231726122 32.9522459627713218 Ba
atom 7.7573465705117979 2.2718697977463456 32.9522459627713218 Ba
atom 2.7205642192173549 7.3086521490407872 32.9522459627713218 Ba
atom 7.6515322233350682 7.2028378018640602 32.9522459627713218 Ba
atom 4.9674901148823460 4.9750756607851905 30.3501445063991753 Zr
atom 9.9851087115906498 4.9559119061990744 30.3501445063991753 Zr
atom 4.9483263602962246 9.9926942574935147 30.3501445063991753 Zr
atom 9.9442073935737980 9.9517929394766380 30.3501445063991753 Zr
atom 4.9812443735069492 4.9692647624659463 35.4065767473357838 Zr
atom 9.9909196099099038 4.9421576475744704 35.4065767473357838 Zr
atom 4.9541372586154644 9.9789399988689045 35.4065767473357838 Zr
atom 9.9579616521984136 9.9459820411574000 35.4065767473357838 Zr
atom 5.1893439498728382 5.1014805232691494 27.8435777309043893 S
atom 9.8587038491067158 4.7340580712085867 27.8435777309043893 S
atom 4.8219214978122800 9.7708404225030208 27.8435777309043893 S
atom 10.1660612285642920 10.0781978019605880 27.8435777309043893 S
atom 4.6800553281619024 4.7257780938131191 32.9106461269308781 S
atom 10.2344062785627656 5.2433466929195180 32.9106461269308781 S
atom 5.1976239272683058 10.2801290442139361 32.9106461269308781 S
atom 9.6567726068533695 9.7024953725045613 32.9106461269308781 S
atom 4.7005056698772663 2.4677297476582045 30.1941930090585089 S
atom 10.3148469216341123 2.4347605831357026 30.7028844000873917 S
atom 5.2780645703396685 7.4715429344301416 30.7028844000873917 S
atom 9.6772229485687138 7.4444470263496623 30.1941930090585089 S
atom 4.6005294049385617 2.4730116742400594 35.7304278715033519 S
atom 10.3835214597636369 2.4395267121057316 35.1126734531655131 S
atom 5.3467391084691958 7.4763090634001612 35.1126734531655131 S
atom 9.5772466836300243 7.4497289529315065 35.7304278715033519 S
atom 2.4789549947317551 5.2829614238071319 30.1941930090585089 S
atom 7.4886414379457191 4.6453374507417422 30.7028844000873917 S
atom 2.4518590866512788 9.6821198020361798 30.7028844000873917 S
atom 7.4556722734232173 10.2596787024986060 30.1941930090585089 S
atom 2.4736730681499024 5.3829376887458373 35.7304278715033519 S
atom 7.4838753089757004 4.5766629126122309 35.1126734531655131 S
atom 2.4470929576812455 9.6134452639066623 35.1126734531655131 S
atom 7.4503903468413579 10.3596549674372991 35.7304278715033519 S
atom 2.3059759229830310 2.7665752202691460 37.9264489678892147 Ba
atom 7.2168918734152614 2.6407088194069366 37.9264489678892147 Ba
atom 2.1801095221208193 7.6774911707013764 37.9264489678892147 Ba
atom 7.2826932016744790 7.7432924989606091 37.9264489678892147 Ba
atom 2.6707413557084303 2.2101420584223090 42.9221395909076477 Ba
atom 7.7733250352620953 2.2759433866815342 42.9221395909076477 Ba
atom 2.7365426839676621 7.3127257379759660 42.9221395909076477 Ba
atom 7.6474586343998929 7.1868593371137584 42.9221395909076477 Ba
atom 4.9767172786914644 4.9767172786914537 40.4242942793984383 Zr
atom 9.9834670936844034 4.9466847423899614 40.4242942793984383 Zr
atom 4.9466847423899587 9.9834670936843946 40.4242942793984383 Zr
atom 9.9534345573829288 9.9534345573829075 40.4242942793984383 Zr
atom 4.9721901838759708 4.9841697949169603 45.4420118114610361 Zr
atom 9.9760145774589137 4.9512118372054461 45.4420118114610361 Zr
atom 4.9392322261644628 9.9879941884999024 45.4420118114610361 Zr
atom 9.9489074625674014 9.9608870736084132 45.4420118114610361 Zr
atom 5.3053205389574520 5.2408806993595789 37.9207765073508156 S
atom 9.7193036730162827 4.6180814821239640 37.9207765073508156 S
atom 4.6825213217218256 9.6548638334183980 37.9207765073508156 S
atom 10.2820378176489022 10.2175979780510300 37.9207765073508156 S
atom 4.6481140184254661 4.7125538580233224 42.9278120514460539 S
atom 10.2476305143525330 5.2752880026559588 42.9278120514460539 S
atom 5.2108481630581034 10.3120703539503928 42.9278120514460539 S
atom 9.6248312971169074 9.6892711367147832 42.9278120514460539 S
atom 4.6089735069178506 2.4749024415252121 40.1069538535345202 S
atom 10.3812434017594857 2.4417497645632591 40.7416347052623351 S
atom 5.3444610504650605 7.4785321158576954 40.7416347052623351 S
atom 9.5856907856093283 7.4516197202166694 40.1069538535345202 S
atom 4.6066954489137197 2.4771254939827361 45.7359151056313209 S
atom 10.3896875037387897 2.4436405318484136 45.1181606872934964 S
atom 5.3529051524443494 7.4804228831428521 45.1181606872934964 S
atom 9.5834127276051859 7.4538427726742036 45.7359151056313209 S
atom 2.4717823008647546 5.3744935867665466 40.1069538535345202 S
atom 7.4816522565181645 4.5789409706163635 40.7416347052623351 S
atom 2.4448699052237206 9.6157233219108047 40.7416347052623351 S
atom 7.4484995795562039 10.3512108654579968 40.1069538535345202 S
atom 2.4695592484072222 5.3767716447706801 45.7359151056313209 S
atom 7.4797614892330113 4.5704968686370693 45.1181606872934964 S
atom 2.4429791379385661 9.6072792199315167 45.1181606872934964 S
atom 7.4462765270986777 10.3534889234621303 45.7359151056313209 S
atom 2.3019023340478419 2.7505967555188424 47.8963425960255265 Ba
atom 7.2328703381655659 2.6447824083421256 47.8963425960255265 Ba
atom 2.1960879868711194 7.6815647596365570 47.8963425960255265 Ba
atom 7.2786196127393019 7.7273140342102966 47.8963425960255265 Ba
atom 2.6678220170905695 2.3996386056400669 52.6799989836495683 Ba
atom 7.5838284880443378 2.2788627252993945 52.6799989836495683 Ba
atom 2.5470461367498984 7.3156450765938255 52.6799989836495683 Ba
atom 7.6445392957820228 7.3763558843315167 52.6799989836495683 Ba
atom 4.9859444425005668 4.9783588965977215 50.4984440523976161 Zr
atom 9.9818254757781624 4.9374575785808528 50.4984440523976161 Zr
atom 4.9450431244837008 9.9742399298752797 50.4984440523976161 Zr
atom 9.9626617211920312 9.9550761752891592 50.4984440523976161 Zr
atom 5.2733792292210167 5.2276564635697911 47.9379424318660412 S
atom 9.7325279088060554 4.6500227918604100 47.9379424318660412 S
atom 4.6957455575116276 9.6868051431548565 47.9379424318660412 S
atom 10.2500965079124686 10.2043737422612519 47.9379424318660412 S
atom 4.7640906075100844 4.8519540341137626 53.0050108278924199 S
atom 10.1082303382620946 5.1593114135713343 53.0050108278924199 S
atom 5.0714479869676587 10.1960937648657826 53.0050108278924199 S
atom 9.7408078862015319 9.8286713128052199 53.0050108278924199 S
atom 4.6753699870432488 2.4818916229527677 50.1457041587094920 S
atom 10.2897112388000913 2.4489224584302667 50.6543955497383678 S
atom 5.2529288875056404 7.4857048097246999 50.6543955497383678 S
atom 9.6520872657346999 7.4586089016442179 50.1457041587094920 S
atom 2.4647931194371968 5.3080971066411626 50.1457041587094920 S
atom 7.4744795626511591 4.6704731335757694 50.6543955497383678 S
atom 2.4376972113567166 9.7072554848701937 50.6543955497383678 S
atom 7.4415103981286528 10.2848143853326217 50.1457041587094920 S
