#=======================================================
# FHI-aims file: sym_relax/sym_relax_RP_2_RxRyMz_-Rx-Ry0.in
# Created using the Atomic Simulation Environment (ASE)
# Fri Mar 14 10:22:06 2025
#=======================================================
lattice_vector 10.0810466108372161 0.1194864163767225 0.0000000000000000 
lattice_vector 0.1194864163767226 10.0810466108372179 -0.0000000000000000 
lattice_vector 0.0000000000000000 -0.0000000000000000 25.5129719163049380 
atom -0.0997789553041605 -0.0998273270326389 0.2830346861939090 Ba
atom 5.1403506324512502 0.1595221634925222 0.2830346861939090 Ba
atom 0.1595705352209995 5.1403022607227804 0.2830346861939090 Ba
atom 5.0004875583028001 5.0004391865743294 0.2830346861939090 Ba
atom 0.0263312185934447 0.0263733038369025 4.9063407531355665 Ba
atom 5.0141500015817062 0.0334119895949163 4.9063407531355665 Ba
atom 0.0333699043514587 5.0141920868251759 4.9063407531355665 Ba
atom 5.1265977322004073 5.1266398174438743 4.9063407531355665 Ba
atom 2.5408103861416182 2.5408143417487761 2.3647102596876803 Zr
atom 7.5999754772768053 2.6191993356537071 2.3647102596876803 Zr
atom 2.6191953800465493 7.5999794328839565 2.3647102596876803 Zr
atom 7.6410768997485885 7.6410808553557477 2.3647102596876803 Zr
atom 2.5408103861416182 2.5408143417487761 7.4479712465834558 Zr
atom 7.5999754772768053 2.6191993356537071 7.4479712465834558 Zr
atom 2.6191953800465502 7.5999794328839565 7.4479712465834558 Zr
atom 7.6410768997485885 7.6410808553557477 7.4479712465834558 Zr
atom 2.7330643372506294 2.7330743534600601 -0.1262933454918455 S
atom 7.4077154655655155 2.4269453845447018 -0.1262933454918455 S
atom 2.4269353683352732 7.4077254817749552 -0.1262933454918455 S
atom 7.8333308508575961 7.8333408670670375 -0.1262933454918455 S
atom 2.2949496736713897 2.2948759761666153 4.9063407531355665 S
atom 7.8459138428589608 2.8650600481239330 4.9063407531355665 S
atom 2.8651337456287149 7.8458401453541873 4.9063407531355665 S
atom 7.3952161872783702 7.3951424897735949 4.9063407531355665 S
atom 2.5202955165227876 0.0298644878226478 2.2328613479524595 S
atom 7.5607812112550512 0.0896064112578949 2.6833808139709259 S
atom 2.5800011140248138 5.0703865084881432 2.6833808139709259 S
atom 7.6205620301297365 5.1301310014296231 2.2328613479524595 S
atom 2.5202955165227876 0.0298644878226478 7.5798201583186779 S
atom 7.5607812112550512 0.0896064112578949 7.1293006923002036 S
atom 2.5800011140248138 5.0703865084881432 7.1293006923002036 S
atom 7.6205620301297365 5.1301310014296231 7.5798201583186779 S
atom 0.0298787203657134 2.5202277888958262 2.2328613479524595 S
atom 5.0704033105374489 2.5800086077705151 2.6833808139709259 S
atom 0.0896232133071884 7.5607887050007729 2.6833808139709259 S
atom 5.1301452339726819 7.6204943025028076 2.2328613479524595 S
atom 0.0298787203657134 2.5202277888958262 7.5798201583186779 S
atom 5.0704033105374489 2.5800086077705151 7.1293006923002036 S
atom 0.0896232133071884 7.5607887050007729 7.1293006923002036 S
atom 5.1301452339726819 7.6204943025028076 7.5798201583186779 S
atom -0.0997789553041606 -0.0998273270326389 9.5296468200772271 Ba
atom 5.1403506324512502 0.1595221634925222 9.5296468200772271 Ba
atom 0.1595705352209995 5.1403022607227804 9.5296468200772271 Ba
atom 5.0004875583028001 5.0004391865743294 9.5296468200772271 Ba
atom 2.7330643372506294 2.7330743534600601 9.9389748517629926 S
atom 7.4077154655655155 2.4269453845447018 9.9389748517629926 S
atom 2.4269353683352732 7.4077254817749552 9.9389748517629926 S
atom 7.8333308508575961 7.8333408670670375 9.9389748517629926 S
atom 2.6499983486848104 2.6499635116511708 13.0394912106245542 Ba
atom 7.4908263073743973 2.5100113731105189 13.0394912106245542 Ba
atom 2.5100462101441625 7.4907914703407785 13.0394912106245542 Ba
atom 7.7502648622917807 7.7502300252581540 13.0394912106245542 Ba
atom 2.5236922430655437 2.5239147173595553 17.6628267112880444 Ba
atom 7.6168751016660137 2.6363174787297892 17.6628267112880444 Ba
atom 2.6360950044357736 7.6170975759600550 17.6628267112880444 Ba
atom 7.6239587566724927 7.6241812309665278 17.6628267112880444 Ba
atom 5.1096108647518657 5.1095922876710906 15.1211761383750893 Zr
atom 10.1314640449614650 5.1506653706504464 15.1211761383750893 Zr
atom 5.1506839477312170 10.1314454678806811 15.1211761383750893 Zr
atom 10.2098773783588310 10.2098588012780613 15.1211761383750893 Zr
atom 5.1096108647518657 5.1095922876710906 20.2044772842010403 Zr
atom 10.1314640449614650 5.1506653706504464 20.2044772842010403 Zr
atom 5.1506839477312170 10.1314454678806811 20.2044772842010403 Zr
atom 10.2098773783588310 10.2098588012780613 20.2044772842010403 Zr
atom 4.9173290876601161 4.9173555273535259 12.6301650039997497 S
atom 10.3237008052789943 5.3429471477421977 12.6301650039997497 S
atom 5.3429207080487737 10.3237272449724564 12.6301650039997497 S
atom 10.0175956012670682 10.0176220409605001 12.6301650039997497 S
atom 5.3554968487657622 5.3555304109135760 17.6628267112880444 S
atom 9.8855259217189673 4.9047793866365375 17.6628267112880444 S
atom 4.9047458244887361 9.8855594838667926 17.6628267112880444 S
atom 10.4557633623727373 10.4557969245205449 17.6628267112880444 S
atom 5.0703398114792133 2.5800063738758667 15.4398444845522835 S
atom 10.1109776120163470 2.6397456516243776 14.9892848582073519 S
atom 5.1301975147861132 7.6205257488546296 14.9892848582073519 S
atom 10.1706063250862009 7.6802728874828361 15.4398444845522835 S
atom 5.0703398114792133 2.5800063738758667 19.8858089380237963 S
atom 10.1109776120163470 2.6397456516243776 20.3363685643687155 S
atom 5.1301975147861132 7.6205257488546296 20.3363685643687155 S
atom 10.1706063250862009 7.6802728874828361 19.8858089380237963 S
atom 2.5800033479194644 5.0704500075463503 15.4398444845522835 S
atom 7.6205305837779251 5.1300787206162042 14.9892848582073519 S
atom 2.6397504865476793 10.1108588178464611 14.9892848582073519 S
atom 7.6802698615264298 10.1707165211533326 15.4398444845522835 S
atom 2.5800033479194644 5.0704500075463503 19.8858089380237963 S
atom 7.6205305837779251 5.1300787206162042 20.3363685643687155 S
atom 2.6397504865476793 10.1108588178464611 20.3363685643687155 S
atom 7.6802698615264298 10.1707165211533326 19.8858089380237963 S
atom 2.6499983486848104 2.6499635116511708 22.2861622119515594 Ba
atom 7.4908263073743973 2.5100113731105189 22.2861622119515594 Ba
atom 2.5100462101441625 7.4907914703407785 22.2861622119515594 Ba
atom 7.7502648622917807 7.7502300252581540 22.2861622119515594 Ba
atom 4.9173290876601161 4.9173555273535259 22.6954884185763319 S
atom 10.3237008052789943 5.3429471477421977 22.6954884185763319 S
atom 5.3429207080487737 10.3237272449724564 22.6954884185763319 S
atom 10.0175956012670682 10.0176220409605001 22.6954884185763319 S
