#=======================================================
# FHI-aims file: sym_relax/sym_relax_RP_7_Rx0Rz_0RyRz.in
# Created using the Atomic Simulation Environment (ASE)
# Mon Mar 17 15:45:28 2025
#=======================================================
lattice_vector 9.9895167508693827 -0.0000700675798910 0.0140586645940541 
lattice_vector -0.0000700675798910 9.9895167508694076 -0.0140586645940542 
lattice_vector 0.1072510917900905 -0.1072510917900906 76.2414866280341386 
atom -0.1795784418132305 -0.0488673652242173 0.2454885817396757 Ba
atom 5.0552248629883270 -0.0489534043925269 0.2511628551276768 Ba
atom 0.0604314537636882 4.9458400048321183 0.2371041905336234 Ba
atom 4.8151448998315249 4.9458559764205408 0.2454885817396756 Ba
atom -0.1108122204642145 -0.0423021651659492 4.9455622860937209 Ba
atom 4.8383367293501438 -0.0422924120122634 4.9244611864412766 Ba
atom -0.1564566798744751 4.9525009972123906 4.9104025218472227 Ba
atom 4.8839111211805282 4.9524211764788095 4.9455622860937218 Ba
atom 2.4331452282801149 2.4494124423055412 2.3241594051755206 Zr
atom 7.4279024052090401 2.4533942591722115 2.3318934064168912 Zr
atom 2.4331089959843997 7.4481876683968693 2.3178347418228404 Zr
atom 7.4278685699248639 7.4441357839502986 2.3241594051755210 Zr
atom 2.4569988175655375 2.4409710689588278 7.4073094396407440 Zr
atom 7.4517771941216999 2.4760459974913154 7.4146155764453612 Zr
atom 2.4569837848970697 7.4708394067159531 7.4005569118513073 Zr
atom 7.4517221592102754 7.4356944106035874 7.4073094396407440 Zr
atom 2.4408491951959750 2.7475269426741757 -0.1721782325558368 S
atom 7.4357165980286464 2.1483587033613181 -0.1635759461919655 S
atom 2.4409231888040210 7.1431521125859696 -0.1776346107860197 S
atom 7.4355725368406951 7.7422502843189323 -0.1721782325558368 S
atom 2.4520560964914950 2.1385333048774746 4.9034744754049395 S
atom 7.4467304617618106 2.7715262400362235 4.9097608728575910 S
atom 2.4519370525371778 7.7663196492608684 4.8957022082635397 S
atom 7.4467794381362422 7.1332566465222333 4.9034744754049404 S
atom 2.4349715549748914 -0.0462598026152060 2.1073697895210066 S
atom 7.4185216108919789 -0.0454426817624483 2.7579913531060489 S
atom 2.4237282016673509 4.9493507274622068 2.7439326885119950 S
atom 7.4296948966196288 4.9484635390295484 2.1073697895210066 S
atom 2.9462934029472643 -0.0384759180367535 7.6736372035542031 S
atom 7.0381970859294336 -0.0391942738320621 7.1840629141827987 S
atom 2.0434036767047923 4.9555991353925739 7.1700042495887404 S
atom 7.9410167445920159 4.9562474236080014 7.6736372035542040 S
atom -0.0622944239890379 2.4518127729641708 2.4361522070365647 S
atom 4.9324121268294974 2.4513618196278877 2.4431040854707278 S
atom -0.0623812823951378 7.4461552288525272 2.4290454208766752 S
atom 4.9324289176557086 7.4465361146089224 2.4361522070365655 S
atom -0.0316672376797547 2.0007092296004849 7.4257690746618170 S
atom 4.9631104240684163 2.9163807941876483 7.4315736207065912 S
atom -0.0316829851562267 7.9111742034122923 7.4175149561125462 S
atom 4.9630561039650054 6.9954325712452379 7.4257690746618188 S
atom -0.0552166656272922 -0.0352685929322277 9.9506344518789405 Ba
atom 5.0899772506991088 -0.0352972083228907 9.9749484874528616 Ba
atom 0.0951838414744859 4.9594962009017634 9.9608898228588192 Ba
atom 4.9395066760174542 4.9594547487125169 9.9506344518789422 Ba
atom 0.0953316732339634 -0.0281950857515548 15.0230107616963551 Ba
atom 4.9528817738958928 -0.0281274390699939 15.0264581209284049 Ba
atom -0.0419116353287327 4.9666659701546561 15.0123994563343519 Ba
atom 5.0900550148787049 4.9665282558932029 15.0230107616963533 Ba
atom 2.5103571112068774 2.4692780163690657 12.4771987509710716 Zr
atom 7.5051413788081396 2.4619818903309452 12.4843745465901268 Zr
atom 2.5103479695835045 7.4567752995555914 12.4703158819960791 Zr
atom 7.5050804528516197 7.4640013580138236 12.4771987509710698 Zr
atom 2.5220576459056234 2.4726656957391402 17.5556054735604690 Zr
atom 7.5168160213403166 2.4726306619491858 17.5626348058575239 Zr
atom 2.5220226121156739 7.4674240711738316 17.5485761412634602 Zr
atom 7.5167809875503524 7.4673890373838940 17.5556054735604690 Zr
atom 2.4805558888933019 2.6810706955029695 9.9515070961306371 S
atom 7.4754044077843576 2.2430854654672423 9.9592247874382966 S
atom 2.4806109985597229 7.2378788746918969 9.9451661228442418 S
atom 7.4752792305380478 7.6757940371477149 9.9515070961306371 S
atom 2.5100390174607501 2.3053304078841541 15.0198864517159087 S
atom 7.5048206986380972 2.6329463284516232 15.0264900118808242 S
atom 2.5100272894134648 7.6277397376762792 15.0124313472867623 S
atom 7.5047623591055235 7.3000537495289217 15.0198864517159087 S
atom 2.0339707561190794 -0.0319446973069170 12.3374097703206118 S
atom 7.9918010617206550 -0.0315341149067391 12.6542136202854483 S
atom 2.9970076524960119 4.9632592943179077 12.6401549556913899 S
atom 7.0286940977638306 4.9627786443378374 12.3374097703206154 S
atom 3.0114720137418507 -0.0245300719358337 17.6905695674105949 S
atom 7.0274366872940393 -0.0249319458105450 17.4347000443044600 S
atom 2.0326432780693895 4.9698614634141052 17.4206413797103998 S
atom 8.0061953553865894 4.9701932697089193 17.6905695674105949 S
atom 0.0081559425695664 2.9517641843205031 12.4864244001500353 S
atom 5.0029184936505038 1.9796279107418839 12.4947842259302639 S
atom 0.0081250844258684 6.9744213199665293 12.4807255613362020 S
atom 5.0028792842143313 7.9464875259652583 12.4864244001500282 S
atom 0.0246730438719798 1.9796618054246444 17.5528379484637007 S
atom 5.0194422479392529 2.9656695860536182 17.5583729986572550 S
atom 0.0246488387146186 7.9604629952782595 17.5443143340631948 S
atom 5.0193963855167345 6.9743851470693929 17.5528379484637007 S
atom -0.0459397230674748 -0.0211968644149336 20.0882001854245154 Ba
atom 5.0860269271399687 -0.0213345786763851 20.0988114907866020 Ba
atom 0.0912335179153307 4.9734588305482621 20.0847528261925312 Ba
atom 4.9487836185772798 4.9735264772298144 20.0882001854245189 Ba
atom 0.1046086157937815 -0.0141233572342612 25.1605764952420223 Ba
atom 4.9489314503367714 -0.0141648094234891 25.1503211242621170 Ba
atom -0.0458619588878873 4.9806285998011584 25.1362624596680710 Ba
atom 5.0993319574385367 4.9805999844104987 25.1605764952420223 Ba
atom 2.5337581806043596 2.4760533751092066 22.6340121961499037 Zr
atom 7.5284906638724953 2.4832794335674344 22.6408950651248304 Zr
atom 2.5336972546478442 7.4780728427920753 22.6268364005308236 Zr
atom 7.5284815222491055 7.4707767167539689 22.6340121961499037 Zr
atom 2.5871164742457013 2.5043603225194428 27.7039015074802357 Zr
atom 7.5818548485589190 2.4692153264070669 27.7106540352696697 Zr
atom 2.5870614393342786 7.4640087356317100 27.6965953706756061 Zr
atom 7.5818398158904685 7.4990836641641883 27.7039015074802322 Zr
atom 2.5340762743504741 2.6400009835941196 20.0913244954050292 S
atom 7.5288113440425217 2.3123149954467515 20.0987795998341774 S
atom 2.5340179348178800 7.3071084046713981 20.0847209352401386 S
atom 7.5287996159952204 7.6347243252388708 20.0913244954050292 S
atom 2.5635594029179321 2.2642606959752940 25.1597038509903648 S
atom 7.5582276348962578 2.7021758584311431 25.1660448242767529 S
atom 2.5634342256716263 7.6969692676557813 25.1519861596826928 S
atom 7.5582827445626863 7.2589840376200581 25.1597038509903648 S
atom 2.0471076393152283 -0.0179279028396392 22.4710559914295267 S
atom 8.0049379449167937 -0.0175173204394633 22.7878598413943827 S
atom 3.0101445356921559 4.9772760887851790 22.7738011768003332 S
atom 7.0418309809599631 4.9767954388051114 22.4710559914295231 S
atom 3.0007116151064523 -0.0102677439143169 27.9412066975322020 S
atom 7.0926152980886048 -0.0109860997096268 27.4516324081608190 S
atom 2.0978218888639772 4.9838073095150310 27.4375737435667979 S
atom 7.9954349567511906 4.9844555977304559 27.9412066975321984 S
atom 0.0411967981607299 2.9657034807363836 22.6164267211907628 S
atom 5.0359593492416561 1.9935672071577597 22.6247865469708955 S
atom 0.0411659400170307 6.9883606163824039 22.6107278823768709 S
atom 5.0359201398054729 7.9604268223811356 22.6164267211907628 S
atom 0.0810048677428247 2.0289505972906166 27.6796373264143440 S
atom 5.0757825294909926 2.9446221618777857 27.6854418724591298 S
atom 0.0809891202663528 7.9394155711024466 27.6713832078650910 S
atom 5.0757282093875764 7.0236739389353762 27.6796373264143405 S
atom 0.1602041706307033 -0.0070897850005392 30.1656486610272481 Ba
atom 5.2005719716857168 -0.0071696057341164 30.2008084252737028 Ba
atom 0.2057785624610728 4.9876238034905276 30.1867497606796924 Ba
atom 5.1549275122754583 4.9876335566442167 30.1656486610272516 Ba
atom 0.2289703919797192 -0.0005245849422715 34.8657223653812167 Ba
atom 4.9836838380475399 -0.0005086133538529 34.8741067565873308 Ba
atom -0.0111095711770901 4.9942847958707857 34.8600480919932565 Ba
atom 5.2236937336244891 4.9941987567024722 34.8657223653812167 Ba
atom 2.6109700635311159 2.4959189491727312 32.7870515419454591 Zr
atom 7.6057296374715957 2.4918670647261663 32.7933762052981379 Zr
atom 2.6109362282469482 7.4866604739508071 32.7793175407041062 Zr
atom 7.6056934051758782 7.4906422908174761 32.7870515419454591 Zr
atom 2.5920591953197492 2.8067980866007911 30.2077364717160108 S
atom 7.5869015809188074 2.1737350838621561 30.2155087388573698 S
atom 2.5921081716941674 7.1685284930868027 30.2014500742633807 S
atom 7.5867825369644928 7.8015214282455441 30.2077364717160108 S
atom 2.6032660966152736 2.1978044488040878 35.2833891796767247 S
atom 7.5979154446519868 2.7969026205370584 35.2888455579069387 S
atom 2.6031220354273290 7.7916960297617006 35.2747868933128359 S
atom 7.5979894382600275 7.1925277904488478 35.2833891796767247 S
atom 2.6203870901438950 -0.0040193359839304 32.3672782586088914 S
atom 7.6039371460609919 -0.0032022151311738 33.0178998221940390 S
atom 2.6091437368363501 4.9915911940934645 33.0038411575999859 S
atom 7.6151104317886373 4.9907040056608185 32.3672782586088914 S
atom 0.1117031649817367 2.4939695718503834 32.6681068616502515 S
atom 5.1064097158002708 2.4935186185140981 32.6750587400844381 S
atom 0.1116163065756357 7.4883120277387372 32.6610000754904064 S
atom 5.1064265066264900 7.4886929134951421 32.6681068616502515 S
atom 2.5998545819416474 2.6233145667405684 38.3662318957567621 Ba
atom 7.5946639627546952 2.3832346035837548 38.3719061691448076 Ba
atom 2.5998705535300597 7.3780280128083922 38.3578475045506337 Ba
atom 7.5945779235863746 7.6180379083853227 38.3662318957567621 Ba
atom 2.5932893818833676 2.5545483453915465 43.0663056001107947 Ba
atom 7.5880029703744274 2.6001227372219167 43.0452045004582970 Ba
atom 2.5932095611497932 7.5949161464465709 43.0311458358642653 Ba
atom 7.5880127235281201 7.5492716870363079 43.0663056001107947 Ba
atom 5.0962981160566221 5.0053142382919553 40.4449027191925765 Zr
atom 10.0870396408346910 5.0052804030077764 40.4526367204338726 Zr
atom 5.0922462316100692 10.0000738122324382 40.4385780558398764 Zr
atom 10.0910214577013786 10.0000375799367323 40.4449027191925765 Zr
atom 5.1047394894033289 4.9814606490065492 45.5280527536577537 Zr
atom 10.0643879025156426 4.9814056140951264 45.5353588904624615 Zr
atom 5.0695944932909773 9.9761990233197722 45.5213002258683588 Zr
atom 10.0994628310480898 9.9761839906512950 45.5280527536577537 Zr
atom 4.7981836156880071 4.9976102713761152 37.9485650814612967 S
atom 10.3920751966455907 4.9974662101881711 37.9571673678251216 S
atom 5.3972817874209635 9.9922596194128008 37.9431087032310401 S
atom 9.7929069573327236 9.9923336130208948 37.9485650814612967 S
atom 5.4071772534847096 4.9864033700805832 43.0242177894218969 S
atom 9.7689076599707221 4.9864523464550032 43.0305041868746230 S
atom 4.7741142507460586 9.9812457556796588 43.0164455222805344 S
atom 10.4019005951294332 9.9811267117253593 43.0242177894218969 S
atom 5.0943487387342747 2.5060473397425822 40.5638473994877486 S
atom 10.0886911946226459 2.5059604813364871 40.5709541856476221 S
atom 5.0938977853980125 7.5007538905611231 40.5568955210535265 S
atom 10.0890720803790472 7.5007706813873360 40.5638473994877486 S
atom 4.6293297641745337 2.4753490425036659 45.5523169347236490 S
atom 10.5397947379863339 2.4753332950271996 45.5605710532728452 S
atom 5.5450013287617059 7.4701267042518316 45.5465123886788348 S
atom 9.6240531058192786 7.4700723841484145 45.5523169347236490 S
atom 2.5963598308999742 5.0147312649047286 40.8646760025290590 S
atom 7.5919703609773608 5.0034879115972020 40.2281131035380213 S
atom 2.5971769517527323 9.9982813208218566 40.2140544389439683 S
atom 7.5910831725447236 10.0094546065494967 40.8646760025290590 S
atom 2.5901114229695859 5.3950557898673024 45.2907475636057200 S
atom 7.5841864763989228 4.4921660636248095 45.7943805175712484 S
atom 2.5893930671742806 9.4869594728494508 45.7803218529771954 S
atom 7.5848347646143317 10.3897791315120287 45.2907475636057200 S
atom 2.5862558096496566 2.4989527905546223 48.0713777658959671 Ba
atom 7.5810077666850697 2.3484822158729548 48.0956918014698473 Ba
atom 2.5862143574604159 7.3432756250976041 48.0816331368758938 Ba
atom 7.5809791512943958 7.4936761321993881 48.0713777658959671 Ba
atom 2.5791823024689706 2.3484044516933684 53.1437540757133533 Ba
atom 7.5738379974321592 2.4855776926761735 53.1472014349455151 Ba
atom 2.5790445882075153 7.4803711019008157 53.1331427703513484 Ba
atom 7.5739056441137329 7.3431277933381329 53.1437540757133533 Ba
atom 5.0764325419931078 4.9281023553652066 50.5979420649881320 Zr
atom 10.0784520096759636 4.9280414294086929 50.6051178606072156 Zr
atom 5.0836586004513267 9.9228348386333352 50.5910591960131200 Zr
atom 10.0711558836378554 9.9228256970099480 50.5979420649881320 Zr
atom 5.0730448626230320 4.9164018206664668 55.6763487875775098 Zr
atom 10.0678032380577118 4.9163667868765284 55.6833781198744973 Zr
atom 5.0730098288330980 9.9111601961011608 55.6693194552804940 Zr
atom 10.0677682042677681 9.9111251623112278 55.6763487875775098 Zr
atom 4.8646398628592022 4.9579035776787768 48.0722504101475820 S
atom 10.2973484345397104 4.9577784004324661 48.0799681014553286 S
atom 5.3025550253150353 9.9525718096571261 48.0659094368612401 S
atom 9.8593632045039783 9.9526269193235137 48.0722504101475820 S
atom 5.2403801504780265 4.9284204491113224 53.1406297657329105 S
atom 9.9074875715552988 4.9283621095787291 53.1472333258978153 S
atom 4.9126941623306495 9.9231555188033980 53.1331746613036842 S
atom 10.2351034921227608 9.9231437907560682 53.1406297657329105 S
atom 5.5660826476202780 2.4355409729215771 50.6155275399473439 S
atom 9.5887397832663162 2.4355101147778768 50.6212263787611079 S
atom 4.5939463740416624 7.4303035240025128 50.6071677141670691 S
atom 10.5608059892650559 7.4302643145663456 50.6155275399473510 S
atom 4.5800409723085584 2.4190172186328192 55.6791163126742887 S
atom 10.5608421621622011 2.4189930134754691 55.6876399270747910 S
atom 5.5660487529375233 7.4137864227001042 55.6735812624807096 S
atom 9.5747643139533043 7.4137405602775992 55.6791163126742887 S
atom 2.5824512640442743 4.4414518140760677 50.7608982697083420 S
atom 7.5776552556690806 5.4044887104530073 50.4581530843375603 S
atom 2.5828618464444442 10.3992821196776344 50.4440944197435286 S
atom 7.5771746056890077 9.4361751557208429 50.7608982697083420 S
atom 2.5758490949480746 5.4058161885027012 55.5413846937273945 S
atom 7.5702406302980059 4.4269874528302262 55.8113128814276607 S
atom 2.5754472210733672 9.4217808620548524 55.7972542168335437 S
atom 7.5705724365928351 10.4005395301474675 55.5413846937274087 S
atom 2.5721840811323520 2.4896758479948153 58.2089434994416237 Ba
atom 7.5670451370385639 2.3524325394321099 58.2195548048036216 Ba
atom 2.5722517278139119 7.3472259486567717 58.2054961402095543 Ba
atom 7.5669074227771143 7.4843991896395501 58.2089434994416237 Ba
atom 2.5651105739516802 2.3391275091335455 63.2813198092590454 Ba
atom 7.5598753677856747 2.4895280162353317 63.2710644382791543 Ba
atom 2.5650819585610183 7.4843214254599744 63.2570057736851084 Ba
atom 7.5598339155964309 7.3338508507783002 63.2813198092590454 Ba
atom 5.0696571832529695 4.9047012859677261 60.7547555101669516 Zr
atom 10.0571544664394850 4.9046921443443603 60.7616383791418713 Zr
atom 5.0623610572148490 9.8994855535690149 60.7475797145477756 Zr
atom 10.0643805248977092 9.8994246276124720 60.7547555101669516 Zr
atom 5.0413502358427404 4.8513429923263782 65.8246448214971451 Zr
atom 10.0712185735998467 4.8513279596579233 65.8313973492866609 Zr
atom 5.0764251643752294 9.8461213688825495 65.8173386846927713 Zr
atom 10.0360735774874890 9.8460663339711179 65.8246448214971451 Zr
atom 4.9057095747680393 4.9043831922216192 58.2120678094221375 S
atom 10.2281189045601675 4.9043714641743152 58.2195229138512644 S
atom 5.2333254953355413 9.8991648733989290 58.2054642492572327 S
atom 9.9004329164128304 9.8991065338663713 58.2120678094221375 S
atom 5.2814498623868653 4.8749000636541719 63.2804471650073594 S
atom 9.8382580415757861 4.8749551733205658 63.2867881382937725 S
atom 4.8434646323511412 9.8697485825452151 63.2727294736997621 S
atom 10.2761732040316254 9.8696234052989134 63.2804471650073523 S
atom 5.5521433512044096 2.4025001173304101 60.7455298609879719 S
atom 9.5748004868504069 2.4024692591867152 60.7512286998017998 S
atom 4.5800070776257904 7.3972626684113507 60.7371700352076331 S
atom 10.5468666928491359 7.3972234589751764 60.7455298609879648 S
atom 4.6010883964843785 2.3626769370810927 65.8061851864761280 S
atom 10.5115533702961645 2.3626611896046135 65.8144393050254592 S
atom 5.5167599610715445 7.3574545988292712 65.8003806404313849 S
atom 9.5958117381291750 7.3574002787258532 65.8061851864761280 S
atom 2.5684344695769910 4.4283149308799343 60.8945444908174025 S
atom 7.5636384612018093 5.3913518272568837 60.5917993054466919 S
atom 2.5688450519771697 10.3861452364815108 60.5777406408526247 S
atom 7.5631578112217461 9.4230382725246820 60.8945444908174025 S
atom 2.5619032488471558 5.3406375777081321 65.5583170575838636 S
atom 7.5559783022764879 4.4377478514656348 66.0619500115492428 S
atom 2.5611848930518493 9.4325412606902912 66.0478913469551117 S
atom 7.5566265904918977 10.3353609193528868 65.5583170575838636 S
atom 2.5580770017179542 2.2835319542966275 68.2863919750443529 Ba
atom 7.5528801640962948 2.2378874948863685 68.3215517392906690 Ba
atom 2.5580867548716442 7.2326809041110112 68.3074930746966800 Ba
atom 7.5528003433627182 7.2782552959413849 68.2863919750443529 Ba
atom 2.5515118016596903 2.2147657329476087 72.9864656793982505 Ba
atom 7.5462191717160199 2.4547756285245375 72.9948500706044143 Ba
atom 2.5514257624913763 7.4495690377491774 72.9807914060102831 Ba
atom 7.5462351433044539 7.2094890745923648 72.9864656793982505 Ba
atom 5.0497916091894464 4.8274894030409712 70.9077948559624218 Zr
atom 10.0485668352807416 4.8274531707452519 70.9141195193150082 Zr
atom 5.0537734260561065 9.8222465799699084 70.9000608547210192 Zr
atom 10.0445149508342055 9.8222127446857357 70.9077948559624218 Zr
atom 4.7389124717613642 4.8464002712523442 68.3284797857331938 S
atom 10.3666988161448153 4.8462812272980438 68.3362520528744852 S
atom 5.3719054069201126 9.8410746365226807 68.3221933882804819 S
atom 9.7336358134061545 9.8411236128970803 68.3284797857331938 S
atom 5.3479061095580667 4.8351933699568104 73.4041324936939077 S
atom 9.7435312794698827 4.8352673635648689 73.4095888719241856 S
atom 4.7487378702452219 9.8300607727895439 73.3955302073299265 S
atom 10.3426294512028072 9.8299167116015536 73.4041324936939077 S
atom 5.0521919398480737 2.3320497507718025 70.7958020541013724 S
atom 10.0465343957364208 2.3319628923657105 70.8029088402612388 S
atom 5.0517409865117884 7.3267563015903514 70.7888501756671218 S
atom 10.0469152814928311 7.3267730924165502 70.7958020541013724 S
atom 2.5541193642687068 4.8293157297357379 71.1245844716169842 S
atom 7.5497298943461022 4.8180723764281952 70.4880215726260388 S
atom 2.5549364851214569 9.8128657856528374 70.4739629080318792 S
atom 7.5488427059134562 9.8240390713804988 71.1245844716169842 S
