#=======================================================
# FHI-aims file: sym_relax/sym_relax_RP_8_RxRy0_-Rx-Ry0.in
# Created using the Atomic Simulation Environment (ASE)
# Mon Mar 17 16:04:18 2025
#=======================================================
lattice_vector 10.0658913784158628 0.0929815327578730 0.0000000000000000 
lattice_vector 0.0929815327578729 10.0658913784158646 -0.0000000000000000 
lattice_vector 0.0000000000000000 -0.0000000000000000 85.0759101038969874 
atom -0.0985943494641526 -0.0985943494641524 0.2781491319766540 Ba
atom 5.1315400386720942 0.1450851158430873 0.2781491319766539 Ba
atom 0.1450851158430892 5.1315400386720640 0.2781491319766539 Ba
atom 4.9808421061227222 4.9808421061226937 0.2781491319766540 Ba
atom -0.0080244106257760 -0.0080244106257758 4.9547110055608128 Ba
atom 5.0409700998337170 0.0545151770047107 4.9547110055608128 Ba
atom 0.0545151770047121 5.0409700998336824 4.9547110055608128 Ba
atom 5.0714120449610931 5.0714120449610816 4.9547110055608128 Ba
atom 2.5268717449231834 2.5268717449231688 2.3444920128994169 Zr
atom 7.5855103998716364 2.5990554770426155 2.3444920128994178 Zr
atom 2.5990554770426253 7.5855103998715983 2.3444920128994178 Zr
atom 7.6063082005100515 7.6063082005100213 2.3444920128994169 Zr
atom 2.5417526738555756 2.5417526738555605 7.3712017321586538 Zr
atom 7.5706294709392505 2.5841745481102292 7.3712017321586520 Zr
atom 2.5841745481102372 7.5706294709392035 7.3712017321586520 Zr
atom 7.6211891294424623 7.6211891294424161 7.3712017321586538 Zr
atom 2.7270639703485950 2.7270639703485826 -0.1397573366329790 S
atom 7.3853181744462182 2.3988632516172008 -0.1397573366329790 S
atom 2.3988632516172124 7.3853181744461880 -0.1397573366329790 S
atom 7.8065004259354760 7.8065004259354280 -0.1397573366329790 S
atom 2.2319976510466577 2.2319976510466488 4.8941002881359870 S
atom 7.8803844937481609 2.8939295709191395 4.8941002881359870 S
atom 2.8939295709191555 7.8803844937481173 4.8941002881359870 S
atom 7.3114341066335422 7.3114341066334960 4.8941002881359870 S
atom 2.5164728446039675 0.0232453831894675 2.1931274190184289 S
atom 7.5494185338119077 0.0697361495684025 2.7001145383843204 S
atom 2.5629636109829068 5.0561910723973789 2.7001145383843204 S
atom 7.5959093001908471 5.1026818387763173 2.1931274190184289 S
atom 2.5164728446039675 0.0232453831894675 7.7245128254330897 S
atom 7.5494185338119077 0.0697361495684025 7.0363994919807551 S
atom 2.5629636109829068 5.0561910723973789 7.0363994919807551 S
atom 7.5959093001908471 5.1026818387763173 7.7245128254330897 S
atom 0.0232453831894679 2.5164728446039573 2.1931274190184289 S
atom 5.0561910723974046 2.5629636109828895 2.7001145383843204 S
atom 0.0697361495684045 7.5494185338118758 2.7001145383843204 S
atom 5.1026818387763448 7.5959093001908071 2.1931274190184289 S
atom 0.0232453831894679 2.5164728446039573 7.7245128254330897 S
atom 5.0561910723974046 2.5629636109828895 7.0363994919807551 S
atom 0.0697361495684045 7.5494185338118758 7.0363994919807551 S
atom 5.1026818387763448 7.5959093001908071 7.7245128254330897 S
atom 0.0347458711349318 0.0347458711349315 9.8683511837475315 Ba
atom 4.9981998180730036 0.0117448952440034 9.8683511837475351 Ba
atom 0.0117448952440044 4.9981998180729779 9.8683511837475351 Ba
atom 5.1141823267218145 5.1141823267217790 9.8683511837475315 Ba
atom -0.0359495669969608 -0.0359495669969606 14.8261441243348866 Ba
atom 5.0688952562049092 0.0824403333758956 14.8261441243348759 Ba
atom 0.0824403333758972 5.0688952562048772 14.8261441243348759 Ba
atom 5.0434868885899071 5.0434868885898894 14.8261441243348866 Ba
atom 2.5401984078099544 2.5401984078099371 12.3389858551033882 Zr
atom 7.5721837369848615 2.5857288141558477 12.3389858551033882 Zr
atom 2.5857288141558610 7.5721837369848251 12.3389858551033882 Zr
atom 7.6196348633968265 7.6196348633967883 12.3389858551033882 Zr
atom 2.5395899766196681 2.5395899766196584 17.3032690200413199 Zr
atom 7.5727921681751491 2.5863372453461255 17.3032690200413235 Zr
atom 2.5863372453461411 7.5727921681751136 17.3032690200413235 Zr
atom 7.6190264322065389 7.6190264322065007 17.3032690200413199 Zr
atom 2.8890718552542620 2.8890718552542447 9.8613952875891542 S
atom 7.2233102895405672 2.2368553667115405 9.8613952875891542 S
atom 2.2368553667115538 7.2233102895405228 9.8613952875891542 S
atom 7.9685083108411296 7.9685083108410986 9.8613952875891542 S
atom 2.1861259240611273 2.1861259240611166 14.8229663842493427 S
atom 7.9262562207336780 2.9398012979046677 14.8229663842493320 S
atom 2.9398012979046810 7.9262562207336424 14.8229663842493320 S
atom 7.2655623796480091 7.2655623796479762 14.8229663842493427 S
atom 2.5164728446039675 0.0232453831894675 11.9811030304490309 S
atom 7.5494185338119077 0.0697361495684025 12.7089016195207876 S
atom 2.5629636109829068 5.0561910723973789 12.7089016195207876 S
atom 7.5959093001908471 5.1026818387763173 11.9811030304490309 S
atom 2.5164728446039675 0.0232453831894675 17.6699268891306609 S
atom 7.5494185338119077 0.0697361495684025 16.9394299529011931 S
atom 2.5629636109829068 5.0561910723973789 16.9394299529011931 S
atom 7.5959093001908471 5.1026818387763173 17.6699268891306609 S
atom 0.0232453831894679 2.5164728446039573 11.9811030304490309 S
atom 5.0561910723974046 2.5629636109828895 12.7089016195207876 S
atom 0.0697361495684045 7.5494185338118758 12.7089016195207876 S
atom 5.1026818387763448 7.5959093001908071 11.9811030304490309 S
atom 0.0232453831894679 2.5164728446039573 17.6699268891306609 S
atom 5.0561910723974046 2.5629636109828895 16.9394299529011931 S
atom 0.0697361495684045 7.5494185338118758 16.9394299529011931 S
atom 5.1026818387763448 7.5959093001908071 17.6699268891306609 S
atom 0.0362943546762763 0.0362943546762760 19.7850953729993257 Ba
atom 4.9966513345316557 0.0101964117026590 19.7850953729993257 Ba
atom 0.0101964117026599 4.9966513345316432 19.7850953729993257 Ba
atom 5.1157308102631509 5.1157308102631243 19.7850953729993257 Ba
atom -0.0359495669969608 -0.0359495669969605 24.7440466216637169 Ba
atom 5.0688952562049092 0.0824403333758956 24.7440466216637134 Ba
atom 0.0824403333758972 5.0688952562048772 24.7440466216637134 Ba
atom 5.0434868885899071 5.0434868885898894 24.7440466216637169 Ba
atom 2.5395899766196681 2.5395899766196584 22.2669217259573031 Zr
atom 7.5727921681751491 2.5863372453461255 22.2669217259573031 Zr
atom 2.5863372453461411 7.5727921681751136 22.2669217259573031 Zr
atom 7.6190264322065389 7.6190264322065007 22.2669217259573031 Zr
atom 2.5401984078099544 2.5401984078099371 27.2312048908952242 Zr
atom 7.5721837369848615 2.5857288141558477 27.2312048908952278 Zr
atom 2.5857288141558610 7.5721837369848251 27.2312048908952278 Zr
atom 7.6196348633968265 7.6196348633967883 27.2312048908952242 Zr
atom 2.8937024312027493 2.8937024312027320 19.7850953729993257 S
atom 7.2186797135920715 2.2322247907630559 19.7850953729993257 S
atom 2.2322247907630692 7.2186797135920324 19.7850953729993257 S
atom 7.9731388867896102 7.9731388867895774 19.7850953729993257 S
atom 2.1861259240611282 2.1861259240611166 24.7472243617492786 S
atom 7.9262562207336780 2.9398012979046677 24.7472243617492751 S
atom 2.9398012979046810 7.9262562207336424 24.7472243617492751 S
atom 7.2655623796480091 7.2655623796479762 24.7472243617492786 S
atom 2.5164728446039675 0.0232453831894675 21.9002638568679906 S
atom 7.5494185338119077 0.0697361495684025 22.6307607930974015 S
atom 2.5629636109829068 5.0561910723973789 22.6307607930974015 S
atom 7.5959093001908471 5.1026818387763173 21.9002638568679906 S
atom 2.5164728446039675 0.0232453831894675 27.5890877155495851 S
atom 7.5494185338119077 0.0697361495684025 26.8612891264778284 S
atom 2.5629636109829068 5.0561910723973789 26.8612891264778284 S
atom 7.5959093001908471 5.1026818387763173 27.5890877155495851 S
atom 0.0232453831894679 2.5164728446039573 21.9002638568679906 S
atom 5.0561910723974046 2.5629636109828895 22.6307607930974015 S
atom 0.0697361495684045 7.5494185338118758 22.6307607930974015 S
atom 5.1026818387763448 7.5959093001908071 21.9002638568679906 S
atom 0.0232453831894679 2.5164728446039573 27.5890877155495851 S
atom 5.0561910723974046 2.5629636109828895 26.8612891264778284 S
atom 0.0697361495684045 7.5494185338118758 26.8612891264778284 S
atom 5.1026818387763448 7.5959093001908071 27.5890877155495851 S
atom 0.0347458711349318 0.0347458711349316 29.7018395622511271 Ba
atom 4.9981998180730036 0.0117448952440034 29.7018395622511271 Ba
atom 0.0117448952440044 4.9981998180729779 29.7018395622511271 Ba
atom 5.1141823267218145 5.1141823267217790 29.7018395622511271 Ba
atom -0.0080244106257760 -0.0080244106257758 34.6154797404378343 Ba
atom 5.0409700998337170 0.0545151770047107 34.6154797404378343 Ba
atom 0.0545151770047121 5.0409700998336824 34.6154797404378343 Ba
atom 5.0714120449610931 5.0714120449610816 34.6154797404378343 Ba
atom 2.5417526738555756 2.5417526738555605 32.1989890138399275 Zr
atom 7.5706294709392505 2.5841745481102292 32.1989890138399275 Zr
atom 2.5841745481102372 7.5706294709392035 32.1989890138399275 Zr
atom 7.6211891294424623 7.6211891294424161 32.1989890138399275 Zr
atom 2.5268717449231834 2.5268717449231688 37.2256987330992430 Zr
atom 7.5855103998716364 2.5990554770426155 37.2256987330992430 Zr
atom 2.5990554770426253 7.5855103998715983 37.2256987330992430 Zr
atom 7.6063082005100515 7.6063082005100213 37.2256987330992430 Zr
atom 2.8890718552542620 2.8890718552542447 29.7087954584094724 S
atom 7.2233102895405672 2.2368553667115405 29.7087954584094653 S
atom 2.2368553667115538 7.2233102895405228 29.7087954584094653 S
atom 7.9685083108411296 7.9685083108410986 29.7087954584094724 S
atom 2.2319976510466577 2.2319976510466488 34.6760904578626779 S
atom 7.8803844937481609 2.8939295709191395 34.6760904578626779 S
atom 2.8939295709191555 7.8803844937481173 34.6760904578626779 S
atom 7.3114341066335422 7.3114341066334960 34.6760904578626779 S
atom 2.5164728446039675 0.0232453831894675 31.8456779205655494 S
atom 7.5494185338119077 0.0697361495684025 32.5337912540178564 S
atom 2.5629636109829068 5.0561910723973789 32.5337912540178564 S
atom 7.5959093001908471 5.1026818387763173 31.8456779205655494 S
atom 2.5164728446039675 0.0232453831894675 37.3770633269801849 S
atom 7.5494185338119077 0.0697361495684025 36.8700762076143178 S
atom 2.5629636109829068 5.0561910723973789 36.8700762076143178 S
atom 7.5959093001908471 5.1026818387763173 37.3770633269801849 S
atom 0.0232453831894679 2.5164728446039573 31.8456779205655494 S
atom 5.0561910723974046 2.5629636109828895 32.5337912540178564 S
atom 0.0697361495684045 7.5494185338118758 32.5337912540178564 S
atom 5.1026818387763448 7.5959093001908071 31.8456779205655494 S
atom 0.0232453831894679 2.5164728446039573 37.3770633269801849 S
atom 5.0561910723974046 2.5629636109828895 36.8700762076143178 S
atom 0.0697361495684045 7.5494185338118758 36.8700762076143178 S
atom 5.1026818387763448 7.5959093001908071 37.3770633269801849 S
atom -0.0985943494641526 -0.0985943494641524 39.2920416140219473 Ba
atom 5.1315400386720933 0.1450851158430874 39.2920416140219473 Ba
atom 0.1450851158430887 5.1315400386720640 39.2920416140219473 Ba
atom 4.9808421061227213 4.9808421061226937 39.2920416140219473 Ba
atom 2.7270639703485942 2.7270639703485826 39.7099480826316054 S
atom 7.3853181744462182 2.3988632516172008 39.7099480826316054 S
atom 2.3988632516172124 7.3853181744461862 39.7099480826316054 S
atom 7.8065004259354760 7.8065004259354280 39.7099480826316054 S
atom 2.6383125772575875 2.6383125772575786 42.8161041839251553 Ba
atom 7.4740695675372280 2.4876146447082066 42.8161041839251553 Ba
atom 2.4876146447082226 7.4740695675371862 42.8161041839251553 Ba
atom 7.7177490328444707 7.7177490328444316 42.8161041839251553 Ba
atom 2.5477426384192112 2.5477426384191997 47.4926660575093322 Ba
atom 7.5646395063756069 2.5781845835465864 47.4926660575093322 Ba
atom 2.5781845835466024 7.5646395063755687 47.4926660575093322 Ba
atom 7.6271790940060882 7.6271790940060464 47.4926660575093322 Ba
atom 5.0922829384571342 5.0922829384571084 44.8824470648479732 Zr
atom 10.0995356619245520 5.1130807390955253 44.8824470648479732 Zr
atom 5.1130807390955617 10.0995356619245094 44.8824470648479732 Zr
atom 10.1717193940440183 10.1717193940439543 44.8824470648479732 Zr
atom 5.0774020095247367 5.0774020095247119 49.9091567841072248 Zr
atom 10.1144165908569601 5.1279616680279210 49.9091567841072248 Zr
atom 5.1279616680279521 10.1144165908569175 49.9091567841072248 Zr
atom 10.1568384651116084 10.1568384651115586 49.9091567841072248 Zr
atom 4.8920907130317168 4.8920907130316964 42.3981977153155327 S
atom 10.2997278873500093 5.3132729645209427 42.3981977153155327 S
atom 5.3132729645209755 10.2997278873499418 42.3981977153155327 S
atom 9.9715271686185858 9.9715271686185201 42.3981977153155327 S
atom 5.3871570323336595 5.3871570323336266 47.4320553400844815 S
atom 9.8046615680480489 4.8182066452190062 47.4320553400844815 S
atom 4.8182066452190364 9.8046615680479636 47.4320553400844815 S
atom 10.4665934879205480 10.4665934879204876 47.4320553400844815 S
atom 5.0561910723974055 2.5629636109828895 45.2380695903328558 S
atom 10.0891367616053405 2.6094543773618271 44.7310824709670101 S
atom 5.1026818387763457 7.5959093001908071 44.7310824709670101 S
atom 10.1356275279842762 7.6424000665697411 45.2380695903328558 S
atom 5.0561910723974055 2.5629636109828895 49.5743545439293172 S
atom 10.0891367616053405 2.6094543773618271 50.2624678773816314 S
atom 5.1026818387763457 7.5959093001908071 50.2624678773816314 S
atom 10.1356275279842762 7.6424000665697411 49.5743545439293172 S
atom 2.5629636109829064 5.0561910723973789 45.2380695903328558 S
atom 7.5959093001908462 5.1026818387763173 44.7310824709670101 S
atom 2.6094543773618373 10.0891367616053067 44.7310824709670101 S
atom 7.6424000665697900 10.1356275279842372 45.2380695903328558 S
atom 2.5629636109829064 5.0561910723973789 49.5743545439293172 S
atom 7.5959093001908462 5.1026818387763173 50.2624678773816314 S
atom 2.6094543773618373 10.0891367616053067 50.2624678773816314 S
atom 7.6424000665697900 10.1356275279842372 49.5743545439293172 S
atom 2.5049723566585089 2.5049723566584947 52.4063062356960856 Ba
atom 7.6074097881363167 2.6209548653072914 52.4063062356960856 Ba
atom 2.6209548653073047 7.6074097881362750 52.4063062356960856 Ba
atom 7.5844088122453801 7.5844088122453313 52.4063062356960856 Ba
atom 2.5756677947903985 2.5756677947903874 57.3640991762833465 Ba
atom 7.5367143500044111 2.5502594271753982 57.3640991762833536 Ba
atom 2.5502594271754111 7.5367143500043783 57.3640991762833536 Ba
atom 7.6551042503772857 7.6551042503772360 57.3640991762833465 Ba
atom 5.0789562755703610 5.0789562755703361 54.8769409070518961 Zr
atom 10.1128623248113207 5.1264074019822985 54.8769409070518961 Zr
atom 5.1264074019823234 10.1128623248112639 54.8769409070518961 Zr
atom 10.1583927311572531 10.1583927311571998 54.8769409070518961 Zr
atom 5.0795647067606540 5.0795647067606247 59.8412240719898350 Zr
atom 10.1122538936210571 5.1257989707920046 59.8412240719898350 Zr
atom 5.1257989707920402 10.1122538936210091 59.8412240719898350 Zr
atom 10.1590011623475256 10.1590011623474634 59.8412240719898350 Zr
atom 4.7300828281260534 4.7300828281260321 52.3993503395376621 S
atom 10.4617357722556417 5.4752808494265963 52.3993503395376621 S
atom 5.4752808494266318 10.4617357722555919 52.3993503395376621 S
atom 9.8095192837129446 9.8095192837128877 52.3993503395376621 S
atom 5.4330287593191811 5.4330287593191553 57.3609214361978985 S
atom 9.7587898410624678 4.7723349182334811 57.3609214361978985 S
atom 4.7723349182335086 9.7587898410624447 57.3609214361978985 S
atom 10.5124652149060953 10.5124652149060172 57.3609214361978985 S
atom 5.0561910723974055 2.5629636109828895 55.2468566714693381 S
atom 10.0891367616053405 2.6094543773618271 54.5190580823975921 S
atom 5.1026818387763457 7.5959093001908071 54.5190580823975921 S
atom 10.1356275279842762 7.6424000665697411 55.2468566714693381 S
atom 5.0561910723974055 2.5629636109828895 59.4773850048497366 S
atom 10.0891367616053405 2.6094543773618271 60.2078819410792150 S
atom 5.1026818387763457 7.5959093001908071 60.2078819410792150 S
atom 10.1356275279842762 7.6424000665697411 59.4773850048497366 S
atom 2.5629636109829064 5.0561910723973789 55.2468566714693381 S
atom 7.5959093001908462 5.1026818387763173 54.5190580823975921 S
atom 2.6094543773618373 10.0891367616053067 54.5190580823975921 S
atom 7.6424000665697900 10.1356275279842372 55.2468566714693381 S
atom 2.5629636109829064 5.0561910723973789 59.4773850048497366 S
atom 7.5959093001908462 5.1026818387763173 60.2078819410792150 S
atom 2.6094543773618373 10.0891367616053067 60.2078819410792150 S
atom 7.6424000665697900 10.1356275279842372 59.4773850048497366 S
atom 2.5034238731171605 2.5034238731171494 62.3230504249478656 Ba
atom 7.6089582716776594 2.6225033488486362 62.3230504249478656 Ba
atom 2.6225033488486478 7.6089582716776096 62.3230504249478656 Ba
atom 7.5828603287040384 7.5828603287040020 62.3230504249478656 Ba
atom 2.5756677947903985 2.5756677947903874 67.2820016736123137 Ba
atom 7.5367143500044111 2.5502594271753982 67.2820016736123137 Ba
atom 2.5502594271754111 7.5367143500043783 67.2820016736123137 Ba
atom 7.6551042503772857 7.6551042503772360 67.2820016736123137 Ba
atom 5.0795647067606540 5.0795647067606247 64.8048767779059176 Zr
atom 10.1122538936210571 5.1257989707920046 64.8048767779059176 Zr
atom 5.1257989707920402 10.1122538936210091 64.8048767779059176 Zr
atom 10.1590011623475256 10.1590011623474634 64.8048767779059176 Zr
atom 5.0789562755703610 5.0789562755703361 69.7691599428437854 Zr
atom 10.1128623248113207 5.1264074019822985 69.7691599428437854 Zr
atom 5.1264074019823234 10.1128623248112639 69.7691599428437854 Zr
atom 10.1583927311572531 10.1583927311571998 69.7691599428437854 Zr
atom 4.7254522521775790 4.7254522521775488 62.3230504249478656 S
atom 10.4663663482041152 5.4799114253750894 62.3230504249478656 S
atom 5.4799114253751222 10.4663663482040654 62.3230504249478656 S
atom 9.8048887077644480 9.8048887077644018 62.3230504249478656 S
atom 5.4330287593191811 5.4330287593191553 67.2851794136978469 S
atom 9.7587898410624678 4.7723349182334811 67.2851794136978469 S
atom 4.7723349182335086 9.7587898410624447 67.2851794136978469 S
atom 10.5124652149060953 10.5124652149060172 67.2851794136978469 S
atom 5.0561910723974055 2.5629636109828895 65.1687158450460089 S
atom 10.0891367616053405 2.6094543773618271 64.4382189088164097 S
atom 5.1026818387763457 7.5959093001908071 64.4382189088164097 S
atom 10.1356275279842762 7.6424000665697411 65.1687158450460089 S
atom 5.0561910723974055 2.5629636109828895 69.3992441784264287 S
atom 10.0891367616053405 2.6094543773618271 70.1270427674981107 S
atom 5.1026818387763457 7.5959093001908071 70.1270427674981107 S
atom 10.1356275279842762 7.6424000665697411 69.3992441784264287 S
atom 2.5629636109829064 5.0561910723973789 65.1687158450460089 S
atom 7.5959093001908462 5.1026818387763173 64.4382189088164097 S
atom 2.6094543773618373 10.0891367616053067 64.4382189088164097 S
atom 7.6424000665697900 10.1356275279842372 65.1687158450460089 S
atom 2.5629636109829064 5.0561910723973789 69.3992441784264287 S
atom 7.5959093001908462 5.1026818387763173 70.1270427674981107 S
atom 2.6094543773618373 10.0891367616053067 70.1270427674981107 S
atom 7.6424000665697900 10.1356275279842372 69.3992441784264287 S
atom 2.5049723566585089 2.5049723566584947 72.2397946141995106 Ba
atom 7.6074097881363167 2.6209548653072914 72.2397946141995106 Ba
atom 2.6209548653073047 7.6074097881362750 72.2397946141995106 Ba
atom 7.5844088122453801 7.5844088122453313 72.2397946141995106 Ba
atom 2.5477426384192112 2.5477426384191997 77.1534347923862356 Ba
atom 7.5646395063756069 2.5781845835465864 77.1534347923862356 Ba
atom 2.5781845835466024 7.5646395063755687 77.1534347923862356 Ba
atom 7.6271790940060882 7.6271790940060464 77.1534347923862356 Ba
atom 5.0774020095247367 5.0774020095247119 74.7369440657885065 Zr
atom 10.1144165908569601 5.1279616680279210 74.7369440657885065 Zr
atom 5.1279616680279521 10.1144165908569175 74.7369440657885065 Zr
atom 10.1568384651116084 10.1568384651115586 74.7369440657885065 Zr
atom 5.0922829384571342 5.0922829384571084 79.7636537850477367 Zr
atom 10.0995356619245520 5.1130807390955253 79.7636537850477367 Zr
atom 5.1130807390955617 10.0995356619245094 79.7636537850477367 Zr
atom 10.1717193940440183 10.1717193940439543 79.7636537850477367 Zr
atom 4.7300828281260534 4.7300828281260321 72.2467505103580834 S
atom 10.4617357722556417 5.4752808494265963 72.2467505103580550 S
atom 5.4752808494266318 10.4617357722555919 72.2467505103580550 S
atom 9.8095192837129446 9.8095192837128877 72.2467505103580834 S
atom 5.3871570323336595 5.3871570323336266 77.2140455098112142 S
atom 9.8046615680480489 4.8182066452190062 77.2140455098112142 S
atom 4.8182066452190364 9.8046615680479636 77.2140455098112142 S
atom 10.4665934879205480 10.4665934879204876 77.2140455098112142 S
atom 5.0561910723974055 2.5629636109828895 75.0717463059663856 S
atom 10.0891367616053405 2.6094543773618271 74.3836329725140217 S
atom 5.1026818387763457 7.5959093001908071 74.3836329725140217 S
atom 10.1356275279842762 7.6424000665697411 75.0717463059663856 S
atom 5.0561910723974055 2.5629636109828895 79.4080312595628328 S
atom 10.0891367616053405 2.6094543773618271 79.9150183789287070 S
atom 5.1026818387763457 7.5959093001908071 79.9150183789287070 S
atom 10.1356275279842762 7.6424000665697411 79.4080312595628328 S
atom 2.5629636109829064 5.0561910723973789 75.0717463059663856 S
atom 7.5959093001908462 5.1026818387763173 74.3836329725140217 S
atom 2.6094543773618373 10.0891367616053067 74.3836329725140217 S
atom 7.6424000665697900 10.1356275279842372 75.0717463059663856 S
atom 2.5629636109829064 5.0561910723973789 79.4080312595628328 S
atom 7.5959093001908462 5.1026818387763173 79.9150183789287070 S
atom 2.6094543773618373 10.0891367616053067 79.9150183789287070 S
atom 7.6424000665697900 10.1356275279842372 79.4080312595628328 S
atom 2.6383125772575875 2.6383125772575786 81.8299966659704694 Ba
atom 7.4740695675372280 2.4876146447082066 81.8299966659704694 Ba
atom 2.4876146447082226 7.4740695675371862 81.8299966659704694 Ba
atom 7.7177490328444698 7.7177490328444316 81.8299966659704694 Ba
atom 4.8920907130317177 4.8920907130316964 82.2479031345801985 S
atom 10.2997278873500075 5.3132729645209427 82.2479031345801985 S
atom 5.3132729645209755 10.2997278873499418 82.2479031345801985 S
atom 9.9715271686185858 9.9715271686185236 82.2479031345801985 S
