#=======================================================
# FHI-aims file: sym_relax/sym_relax_RP_10_RxRyRz_RxRyRz.in
# Created using the Atomic Simulation Environment (ASE)
# Mon Mar 17 18:35:34 2025
#=======================================================
lattice_vector 9.9365062098982690 -0.0050949609245042 -0.0031939198878966 
lattice_vector -0.0050949609245045 9.9365062098982797 0.0031939198878967 
lattice_vector -0.0248846867917547 0.0248846867917526 107.4738689989956129 
atom 0.0598850220856718 -0.0996272138793242 0.1886971463526052 Ba
atom 5.0678803188284807 -0.0624325025479220 0.1871001864086569 Ba
atom 0.0970797334170740 4.9083680828634710 0.1902941062965531 Ba
atom 5.0255906465725424 4.8660784106075461 0.1886971463526055 Ba
atom -0.2720661772582297 0.2096111534939449 5.0270471225358522 Ba
atom 4.7586419514552203 0.2695186967959782 5.0254501625918921 Ba
atom -0.2121586339561955 5.2403192822073583 5.0286440824797953 Ba
atom 4.6936394472286747 5.1753167779808162 5.0270471225358513 Ba
atom 2.4521010999278756 2.5249026095272207 2.4009368221847991 Zr
atom 7.4090561199088159 2.5110570440967566 2.3993398622408550 Zr
atom 2.4382555344974217 7.4818576295081280 2.4025337821287480 Zr
atom 7.4178067244147750 7.4906082340140925 2.4009368221847991 Zr
atom 2.3948332570747608 2.5345067886185273 7.4989779415321545 Zr
atom 7.3994519408174888 2.5683248869498709 7.4973809815882042 Zr
atom 2.4286513554061107 7.5391254723612642 7.5005749014761021 Zr
atom 7.3605388815616672 7.5002124131054186 7.4989779415321545 Zr
atom 2.6037015261604304 2.7400649824157224 -0.1180307878633604 S
atom 7.1938937470202928 2.3594566178641974 -0.1196277478073088 S
atom 2.2230931616089151 7.3302572032755844 -0.1164338279194120 S
atom 7.5694071506473293 7.7057706069026093 -0.1180307878633605 S
atom 2.2281780867662042 2.3038058871970488 4.9850220317027603 S
atom 7.6301528422389886 2.7349800572584386 4.9834250717588136 S
atom 2.6593522568275874 7.7057806426698177 4.9866189916467274 S
atom 7.1938837112530942 7.2695115116839348 4.9850220317027611 S
atom 2.7506867883951087 0.0468717718575949 2.2683812004561954 S
atom 7.0454112739636718 0.0472845581367999 2.7369213555841303 S
atom 2.0746106885522653 5.0180851435481815 2.7401152754720330 S
atom 7.7163924128820058 5.0125773963444740 2.2683812004561954 S
atom 2.9247431756381168 0.0565646709899780 7.7114346705513466 S
atom 6.9416281793893928 0.0549167109955297 7.3347259256887192 S
atom 1.9708275939779991 5.0257172964069268 7.3379198455766135 S
atom 7.8904488001250019 5.0222702954768605 7.7114346705513483 S
atom -0.0494192523198459 2.2175663165540258 2.2699781604001372 S
atom 4.9158735858878382 2.8885474554723727 2.7385183155280841 S
atom -0.0549269995235550 7.8593480408837486 2.7417122354159789 S
atom 4.9162863721670558 7.1832719410408927 2.2699781604001372 S
atom -0.0591121514522292 2.0435099293110159 7.7130316304952977 S
atom 4.9082414330291009 2.9923305500466295 7.3363228856326570 S
atom -0.0625591523822857 7.9631311354580214 7.3395168055205557 S
atom 4.9065934730346807 7.0092155537978860 7.7130316304952968 S
atom -0.0077704083672363 -0.0679860100913366 10.0622758429971935 Ba
atom 5.0362391150404768 0.0052229279049852 10.0606788830532405 Ba
atom 0.0654385296290865 4.9760235133163677 10.0638728029411304 Ba
atom 4.9579352161196484 4.8977196143955490 10.0622758429971935 Ba
atom 0.0399508854070505 0.0170219112519273 15.1515533176442059 Ba
atom 4.9512311936972146 -0.0424983658693018 15.1499563577002299 Ba
atom -0.0195693917141778 4.9283022195420747 15.1531502775881233 Ba
atom 5.0056565098939458 4.9827275357388263 15.1515533176442059 Ba
atom 2.4807502105983761 2.4965973959587071 12.5922021293492410 Zr
atom 7.4373613334773205 2.4824079334262552 12.5906051694052952 Zr
atom 2.4665607480659255 7.4532085188376440 12.5937990892932028 Zr
atom 7.4464558350852821 7.4623030204455922 12.5922021293492410 Zr
atom 2.4760220587185535 2.4897384793253896 17.6940346088557376 Zr
atom 7.4442202501106589 2.4871360853060871 17.6924376489118380 Zr
atom 2.4734196646992457 7.4579366707174533 17.6956315687996728 Zr
atom 7.4417276832054720 7.4554441038122503 17.6940346088557412 Zr
atom 2.5553706687024511 2.6628628736845790 10.0582974082205929 S
atom 7.2710958557514607 2.4077874753221842 10.0567004482766400 S
atom 2.3002952703400537 7.3785880607335663 10.0598943681645174 S
atom 7.5210762931893402 7.6285684981714521 10.0582974082205965 S
atom 2.4104830654523313 2.4603138876493245 15.1510464860855141 S
atom 7.4736448417867072 2.5526750785722947 15.1494495261415487 S
atom 2.5028442563753059 7.5234756639836915 15.1526434460294617 S
atom 7.3761886899392159 7.4260195121362100 15.1510464860855141 S
atom 1.9738794775396507 0.0139496097004063 12.5460858742251560 S
atom 7.9726222722949425 0.0125148001651623 12.6683854419850501 S
atom 3.0018216868835395 4.9833153855765371 12.6715793618729435 S
atom 6.9395851020265411 4.9796552341872706 12.5460858742251542 S
atom 2.9985806635416274 0.0098878897871810 17.7256428263497092 S
atom 6.9211382390246889 0.0071688571072299 17.6752783093802357 S
atom 1.9503376536133001 4.9779694425186332 17.6784722292681415 S
atom 7.9642862880285348 4.9755935142740499 17.7256428263497163 S
atom -0.0164970901626576 2.9943736274094874 12.5476828341691018 S
atom 4.9506433438594657 1.9613364571410969 12.6699824019290048 S
atom -0.0201572415519174 6.9321370425524842 12.6731763218168947 S
atom 4.9492085343242573 7.9600792518963761 12.5476828341691018 S
atom -0.0124353702494322 1.9696724414075126 17.7272397862936373 S
atom 4.9559892869173998 3.0128204904113405 17.6768752693242099 S
atom -0.0148112984939852 7.9836210758227137 17.6800691892120660 S
atom 4.9532702542374594 6.9353780658943895 17.7272397862936373 S
atom -0.0153854068541142 -0.0078777832439989 20.2490056383645580 Ba
atom 4.9761308881931576 0.0128379263918628 20.2474086784206015 Ba
atom 0.0053303027817484 4.9836385118032496 20.2506025983084719 Ba
atom 4.9503202176327878 4.9578278412428629 20.2490056383645616 Ba
atom 0.0033642500038145 0.0151023098112453 25.3476106129706658 Ba
atom 4.9531507951379066 -0.0059117304660660 25.3460136530267377 Ba
atom -0.0176497902734960 4.9648888549453316 25.3492075729145974 Ba
atom 4.9690698744906978 4.9808079342981264 25.3476106129706622 Ba
atom 2.4761890126690171 2.4898483941298646 22.7964736462140110 Zr
atom 7.4441103353061759 2.4869691313556146 22.7948766862700154 Zr
atom 2.4733097498947738 7.4577697167669887 22.7980706061579319 Zr
atom 7.4418946371559160 7.4555540186167395 22.7964736462140110 Zr
atom 2.4781103343224378 2.4879270724764453 27.8987475797273738 Zr
atom 7.4460316569595930 2.4850478097021989 27.8971506197833570 Zr
atom 2.4752310715481856 7.4558483951135885 27.9003445396712735 Zr
atom 7.4438159588093153 7.4536326969633322 27.8987475797273774 Zr
atom 2.4937736836001392 2.5187811083816021 20.2489484095553856 S
atom 7.4151776210544336 2.4693844604245112 20.2473514496114397 S
atom 2.4443770356430274 7.4401850458359080 20.2505453694993669 S
atom 7.4594793080869959 7.4844867328684836 20.2489484095553856 S
atom 2.4587527465534644 2.4704908063608881 25.3476106129706622 S
atom 7.4634679230751280 2.5044053974711664 25.3460136530267377 S
atom 2.4926673376637467 7.4752059828825619 25.3492075729145974 S
atom 7.4244583710403518 7.4361964308477821 25.3476106129706622 S
atom 1.9540138403617227 0.0062467196249656 22.7827309051890019 S
atom 7.9691812690969170 0.0037942777038406 22.8119609617133818 S
atom 2.9983806836855158 4.9745948631152386 22.8151548816012451 S
atom 6.9197194648486171 4.9719523441118465 22.7827309051889948 S
atom 3.0025012047799922 0.0029438597202137 27.9108933608084087 S
atom 6.9238399859430819 0.0003013407168350 27.8784693843960980 S
atom 1.9530394005316940 4.9711019261282212 27.8816633042839825 S
atom 7.9682068292668973 4.9686494842071065 27.9108933608084016 S
atom -0.0087942000872171 3.0142392645874181 22.7843278651328944 S
atom 4.9593638663208006 1.9647774603391237 22.8135579216573205 S
atom -0.0114367190905958 6.9355780457505070 22.8167518415451767 S
atom 4.9569114243996708 7.9799448890742983 22.7843278651328944 S
atom -0.0054913401824653 1.9657519001691484 27.9124903207523438 S
atom 4.9628568033078109 3.0101187434929471 27.8800663443400758 S
atom -0.0079437821035904 7.9809193289043403 27.8832602642279497 S
atom 4.9602142843044295 6.9314575246560368 27.9124903207523545 S
atom -0.0196158430514299 -0.0036473470466833 30.4462155875767664 Ba
atom 4.9719004519958494 0.0170683625891782 30.4446186276328490 Ba
atom 0.0010998665844325 4.9878689480005729 30.4478125475207158 Ba
atom 4.9460897814354583 4.9620582774401942 30.4462155875767664 Ba
atom 0.0052838514444963 0.0516889452144813 35.5436679082971807 Ba
atom 4.9165641597346568 -0.0078313319067478 35.5420709483532562 Ba
atom -0.0542364256767323 4.9629692535046344 35.5452648682411549 Ba
atom 4.9709894759314031 5.0173945697013611 35.5436679082971736 Ba
atom 2.4780004195179552 2.4877601185259852 33.0011866170855797 Zr
atom 7.4461986109100229 2.4851577245066725 32.9995896571416694 Zr
atom 2.4753980254986518 7.4559583099180697 33.0027835770295894 Zr
atom 7.4437060440048386 7.4534657430128739 33.0011866170855797 Zr
atom 2.4848593361512790 2.4924882704058096 38.1030190965920283 Zr
atom 7.4414704590302243 2.4782988078733572 38.1014221366482246 Zr
atom 2.4706698736188355 7.4490993932847527 38.1046160565360523 Zr
atom 7.4505649606381619 7.4581938948926911 38.1030190965920355 Zr
atom 2.5070430485741757 2.5055117434075576 30.4462728163859460 S
atom 7.4284469860284830 2.4561150954504543 30.4446758564419824 S
atom 2.4576464006170764 7.4269156808618488 30.4478697763298456 S
atom 7.4727486730610693 7.4712173678944138 30.4462728163859389 S
atom 2.4485758278419087 2.4222211252597594 35.5441747398558832 S
atom 7.5117376041762727 2.5145823161827381 35.5425777799118237 S
atom 2.5409370187648705 7.4853829015941376 35.5457716997998077 S
atom 7.4142814523287957 7.3879267497466330 35.5441747398558832 S
atom 1.9579343816000829 -0.0006973104420018 32.9679814396476445 S
atom 7.9718830160153180 -0.0030732386865545 33.0151520367291980 S
atom 3.0010824306039154 4.9677273467248115 33.0183459566172033 S
atom 6.9236400060869823 4.9650083140448826 32.9679814396476445 S
atom 2.9826355676020628 -0.0047590303552268 38.1475383917722297 S
atom 6.9203989827450831 -0.0084191817444867 38.0220449041244635 S
atom 1.9495983973336715 4.9623814036668961 38.0252388240123622 S
atom 7.9483411920889457 4.9609465941316619 38.1475383917722368 S
atom -0.0018501700202500 3.0103187233490591 32.9695783995915832 S
atom 4.9662313827112134 1.9620757134207161 33.0167489966731793 S
atom -0.0045692027002013 6.9328762988321326 33.0199429165611846 S
atom 4.9638554544666347 7.9760243478359421 32.9695783995915903 S
atom 0.0022115498929751 1.9856175373470772 38.1491353517161969 S
atom 4.9715773257691325 3.0135597466909632 38.0236418640684661 S
atom 0.0007767403577310 7.9843603321023471 38.0268357839563294 S
atom 4.9679171743798713 6.9513231618339502 38.1491353517161969 S
atom -0.0797240698987679 0.0039676514401940 40.6329453829440155 Ba
atom 4.9642854535089471 0.0771765894365160 40.6313484230000626 Ba
atom -0.0065151319024450 5.0479771748478992 40.6345423428880324 Ba
atom 4.8859815545881187 4.9696732759270787 40.6329453829440155 Ba
atom 0.1978730936865147 -0.2603281174507983 45.6681741034055051 Ba
atom 5.2285812223999315 -0.2004205741487659 45.6665771434615095 Ba
atom 0.2577806369885475 4.7703800112626400 45.6697710633493941 Ba
atom 5.1635787181733903 4.7053775070360944 45.6681741034055051 Ba
atom 2.5227687288110943 2.4065713168821850 43.1962432844092206 Zr
atom 7.5273874125538525 2.4403894152135388 43.1946463244652179 Zr
atom 2.5565868271424530 7.4111900006249121 43.1978402443531451 Zr
atom 7.4884743532980069 7.3722769413690736 43.1962432844092135 Zr
atom 2.5131645497197930 2.4638391597352962 48.2942844037565280 Zr
atom 7.4701195697007279 2.4499935943048476 48.2926874438125751 Zr
atom 2.4993189842893302 7.4207941797162338 48.2958813637004454 Zr
atom 7.4788701742066772 7.4295447842221991 48.2942844037565209 Zr
atom 2.6511248138771477 2.5671087285098708 40.6369238177207279 S
atom 7.3668500009261644 2.3120333301474845 40.6353268577767324 S
atom 2.3960494155147649 7.2828339155588795 40.6385207776646737 S
atom 7.6168304383640377 7.5328143529967599 40.6369238177207279 S
atom 2.2920678273896202 2.2399161465736284 45.7101991942385624 S
atom 7.6940425828624024 2.6710903166350120 45.7086022342945810 S
atom 2.7232419974510140 7.6418909020464048 45.7117961541825011 S
atom 7.2577734518765107 7.2056217710605175 45.7101991942385624 S
atom 2.0317718695035794 -0.0473740916447985 42.9821895954459663 S
atom 7.9513930756505777 -0.0508210925748546 43.3557044204207926 S
atom 2.9805924902392111 4.9199794928365446 43.3588983403086843 S
atom 6.9974774939904805 4.9183315328420889 42.9821895954459663 S
atom 2.2058282567465954 -0.0376811925124156 48.4252430655412596 S
atom 7.8476099810763547 -0.0431889397161243 47.9535089905253429 S
atom 2.8768093956649454 4.9276116456952579 47.9567029104132345 S
atom 7.1715338812334908 4.9280244319744684 48.4252430655412596 S
atom 0.0448266111825468 2.9364812354455525 42.9837865553899405 S
atom 5.0139792365994911 1.9825656537854248 43.3573013803646177 S
atom 0.0431786511880993 6.9533662391968045 43.3604953002525875 S
atom 5.0105322356694444 7.9021868599324216 42.9837865553899405 S
atom 0.0351337120501637 2.7624248482025391 48.4268400254851556 S
atom 5.0063470837407600 2.0863487483596934 47.9551059504691892 S
atom 0.0355464983293687 7.0571493337710889 47.9582998703571803 S
atom 5.0008393365370631 7.7281304726894247 48.4268400254851556 S
atom -0.1113652736867554 0.0716230818931019 50.5065240795886439 Ba
atom 4.8966300230560345 0.1088177932245031 50.5049271196447336 Ba
atom -0.0741705623553533 5.0796183786358871 50.5081210395326039 Ba
atom 4.8543403508001317 5.0373287063799799 50.5065240795886510 Ba
atom 2.7283269226082969 2.6154395859678572 50.8132520138046928 S
atom 7.3185191434681691 2.2348312214163442 50.8116550538607186 S
atom 2.3477185580567830 7.2056318068277223 50.8148489737487594 S
atom 7.6940325470951985 7.5811452104547401 50.8132520138046928 S
atom 2.5302954909332449 2.3956679417599895 53.9256316458503804 Ba
atom 7.5382907876760417 2.4328626530913930 53.9240346859065056 Ba
atom 2.5674902022646480 7.4036632385027898 53.9272286057943546 Ba
atom 7.4960011154201105 7.3613735662468773 53.9256316458503804 Ba
atom 2.1983442915893368 2.7049063091332624 58.7639816220335973 Ba
atom 7.2290524203027697 2.7648138524352990 58.7623846620896089 Ba
atom 2.2582518348913703 7.7356144378466887 58.7655785819775360 Ba
atom 7.1640499160762330 7.6706119336201377 58.7639816220335973 Ba
atom 4.9225115687754393 5.0201977651665164 56.1378713216826029 Zr
atom 9.8794665887563813 5.0063521997360709 56.1362743617385860 Zr
atom 4.9086660033449885 9.9771527851474477 56.1394682816265274 Zr
atom 9.8882171932623297 9.9859033896534317 56.1378713216826100 Zr
atom 4.8652437259223333 5.0298019442578417 61.2359124410299955 Zr
atom 9.8698624096650569 5.0636200425891769 61.2343154810860710 Zr
atom 4.8990618242536730 10.0344206280005803 61.2375094009739342 Zr
atom 9.8309493504092043 9.9955075687447170 61.2359124410299955 Zr
atom 5.0741119950080007 5.2353601380550510 53.6189037116343812 S
atom 9.6643042158678689 4.8547517735035060 53.6173067516905277 S
atom 4.6935036304564779 9.8255523589149192 53.6205006715784336 S
atom 10.0398176194948761 10.2010657625419316 53.6189037116343812 S
atom 4.6985885556137719 4.7991010428363579 58.7219565312005400 S
atom 10.1005633110865620 5.2302752128977454 58.7203595712566297 S
atom 5.1297627256751639 10.2010757983091285 58.7235534911444930 S
atom 9.6642941801007041 9.7648066673232474 58.7219565312005400 S
atom 5.2210972572426844 2.5421669274969125 56.0053156999539468 S
atom 9.5158217428112124 2.5425797137761190 56.4738558550819292 S
atom 4.5450211573998347 7.5133802991875074 56.4770497749697640 S
atom 10.1868028817296299 7.5078725519838079 56.0053156999539468 S
atom 5.3951536444856893 2.5518598266293018 61.4483691700491264 S
atom 9.4120386482369689 2.5502118666348501 61.0716604251865718 S
atom 4.4412380628255583 7.5210124520462385 61.0748543450743995 S
atom 10.3608592689725842 7.5175654511161829 61.4483691700491264 S
atom 2.4209912165277219 4.7128614721933424 56.0069126598979423 S
atom 7.3862840547354098 5.3838426111116791 56.4754528150258608 S
atom 2.4154834693240099 10.3546431965230994 56.4786467349138235 S
atom 7.3866968410146194 9.6785670966801938 56.0069126598979352 S
atom 2.4112983173953428 4.5388050849503365 61.4499661299932285 S
atom 7.3786519018766681 5.4876257056859590 61.0732573851304466 S
atom 2.4078513164652797 10.4584262910973322 61.0764513050183595 S
atom 7.3770039418822373 9.5045107094372199 61.4499661299932285 S
atom 2.4626400604803300 2.4273091455479818 63.7992103424950656 Ba
atom 7.5066495838880369 2.5005180835442991 63.7976133825511198 Ba
atom 2.5358489984766543 7.4713186689556945 63.8008073024390256 Ba
atom 7.4283456849672271 7.3930147700348572 63.7992103424950656 Ba
atom 2.5103613542546159 2.5123170668912445 68.8884878171419217 Ba
atom 7.4216416625447863 2.4527967897700238 68.8868908571979119 Ba
atom 2.4508410771333877 7.4235973751814086 68.8900847770859741 Ba
atom 7.4760669787415264 7.4780226913781327 68.8884878171419217 Ba
atom 4.9511606794459482 4.9918925515980286 66.3291366288469817 Zr
atom 9.9077718023248860 4.9777030890655736 66.3275396689030288 Zr
atom 4.9369712169134896 9.9485036744769655 66.3307335887908636 Zr
atom 9.9168663039328120 9.9575981760849128 66.3291366288469817 Zr
atom 4.9464325275661354 4.9850336349646831 71.4309691083536080 Zr
atom 9.9146307189582270 4.9824312409453935 71.4293721484097119 Zr
atom 4.9438301335468227 9.9532318263567934 71.4325660682975325 Zr
atom 9.9121381520529930 9.9507392594515789 71.4309691083536080 Zr
atom 5.0257811375500134 5.1581580293238831 63.7952319077183745 S
atom 9.7415063245990403 4.9030826309615101 63.7936349477744002 S
atom 4.7707057391876235 9.8738832163728834 63.7968288676623203 S
atom 9.9914867620369154 10.1238636538107940 63.7952319077183816 S
atom 4.8808935342998971 4.9556090432886402 68.8879809855831979 S
atom 9.9440553106342708 5.0479702342116202 68.8863840256392308 S
atom 4.9732547252228700 10.0187708196229845 68.8895779455272077 S
atom 9.8465991587868498 9.9213146677755084 68.8879809855831979 S
atom 4.4442899463872152 2.5092447653397230 66.2830203737229198 S
atom 10.4430327411425683 2.5078099558044769 66.4053199414828725 S
atom 5.4722321557310902 7.4786105412158781 66.4085138613706931 S
atom 9.4099955708741110 7.4749503898265957 66.2830203737229198 S
atom 5.4689911323892018 2.5051830454264952 71.4625773258473060 S
atom 9.3915487078722162 2.5024640127465481 71.4122128088779391 S
atom 4.4207481224608793 7.4732645981579369 71.4154067287658165 S
atom 10.4346967568760931 7.4708886699133741 71.4625773258473060 S
atom 2.4539133786849150 5.4896687830488151 66.2846173336668585 S
atom 7.4210538127070436 4.4566316127804235 66.4069169014268965 S
atom 2.4502532272956494 9.4274321981917684 66.4101108213148166 S
atom 7.4196190031718192 10.4553744075357002 66.2846173336668443 S
atom 2.4579750985981454 4.4649675970468286 71.4641742857914863 S
atom 7.4263997557649635 5.5081156460506486 71.4138097688218636 S
atom 2.4555991703535858 10.4789162314620352 71.4170036887097837 S
atom 7.4236807230850230 9.4306732215337288 71.4641742857914863 S
atom 2.4550250619934610 2.4874173723953166 73.9859401378621442 Ba
atom 7.4465413570407151 2.5081330820311800 73.9843431779183902 Ba
atom 2.4757407716293249 7.4789336674425675 73.9875370978062534 Ba
atom 7.4207306864803346 7.4531229968822004 73.9859401378621442 Ba
atom 2.4737747188513795 2.5103974654505645 79.0845451124685042 Ba
atom 7.4235612639854702 2.4893834251732523 79.0829481525244091 Ba
atom 2.4527606785740712 7.4601840105846433 79.0861420724124144 Ba
atom 7.4394803433382739 7.4761030899374257 79.0845451124685042 Ba
atom 4.9465994815165795 4.9851435497691812 76.5334081457116895 Zr
atom 9.9145208041537689 4.9822642869949272 76.5318111857676797 Zr
atom 4.9437202187423415 9.9530648724063315 76.5350051056556282 Zr
atom 9.9123051060035170 9.9508491742560423 76.5334081457116895 Zr
atom 4.9485208031699992 4.9832222281157694 81.6356820792251199 Zr
atom 9.9164421258071656 4.9803429653415145 81.6340851192812522 Zr
atom 4.9456415403957648 9.9511435507529189 81.6372790391690160 Zr
atom 9.9142264276569012 9.9489278526026368 81.6356820792251199 Zr
atom 4.9641841524476940 5.0140762640209102 73.9858829090531884 S
atom 9.8855880899020239 4.9646796160638482 73.9842859491090508 S
atom 4.9147875044906044 9.9354802014752419 73.9874798689970277 S
atom 9.9298897769345551 9.9797818885077838 73.9858829090531884 S
atom 4.9291632154010276 4.9657859620002016 79.0845451124685042 S
atom 9.9338783919226810 4.9997005531104914 79.0829481525244091 S
atom 4.9630778065113104 9.9705011385218825 79.0861420724124144 S
atom 9.8948688398879305 9.9314915864870894 79.0845451124685042 S
atom 4.4244243092093019 2.5015418752642864 76.5196654046869327 S
atom 10.4395917379444931 2.4990894333431601 76.5488954612113019 S
atom 5.4687911525330817 7.4698900187545503 76.5520893810992789 S
atom 9.3901299336962207 7.4672474997511609 76.5196654046869327 S
atom 5.4729116736275500 2.4982390153595322 81.6478278603059096 S
atom 9.3942504547906420 2.4955964963561481 81.6154038838938334 S
atom 4.4234498693792634 7.4663970817675400 81.6185978037817250 S
atom 10.4386172981144387 7.4639446398464093 81.6478278603059238 S
atom 2.4616162687603569 5.5095344202267196 76.5212623646308430 S
atom 7.4297743351683625 4.4600726159784339 76.5504924211551838 S
atom 2.4589737497569693 9.4308732013898240 76.5536863410430328 S
atom 7.4273218932472522 10.4752400447136296 76.5212623646308572 S
atom 2.4649191286651004 4.4610470558084758 81.6494248202498483 S
atom 7.4332672721553754 5.5054138991322716 81.6170008438377863 S
atom 2.4624666867439733 10.4762144845436236 81.6201947637254932 S
atom 7.4306247531519922 9.4267526802953334 81.6494248202498483 S
atom 2.4507946257961355 2.4916478085926355 84.1831500870746368 Ba
atom 7.4423109208433917 2.5123635182284909 84.1815531271305133 Ba
atom 2.4715103354320016 7.4831641036398819 84.1847470470185328 Ba
atom 7.4165002502830237 7.4573534330795148 84.1831500870746368 Ba
atom 2.4756943202920683 2.5469841008537975 89.2806024077947740 Ba
atom 7.3869746285822320 2.4874638237325688 89.2790054478510200 Ba
atom 2.4161740431708374 7.4582644091439478 89.2821993677389116 Ba
atom 7.4413999447789720 7.5126897253406852 89.2806024077947740 Ba
atom 4.9484108883655118 4.9830552741653138 86.7381211165834856 Zr
atom 9.9166090797576434 4.9804528801460055 86.7365241566394900 Zr
atom 4.9458084943462000 9.9512534655573930 86.7397180765272822 Zr
atom 9.9141165128524644 9.9487608986521554 86.7381211165834713 Zr
atom 4.9552698049988484 4.9877834260451213 91.8399535960898845 Zr
atom 9.9118809278778315 4.9735939635126600 91.8383566361459742 Zr
atom 4.9410803424664032 9.9443945489240377 91.8415505560337806 Zr
atom 9.9209754294857468 9.9534890505319886 91.8399535960898845 Zr
atom 4.9774535174217451 5.0008068990468493 84.1832073158838341 S
atom 9.8988574548760422 4.9514102510897855 84.1816103559400233 S
atom 4.9280568694646796 9.9222108365012005 84.1848042758278297 S
atom 9.9431591419086374 9.9665125235337353 84.1832073158838341 S
atom 4.9189862966894520 4.9175162808990738 89.2811092393538246 S
atom 9.9821480730238203 5.0098774718220467 89.2795122794096443 S
atom 5.0113474876124515 9.9806780572334155 89.2827061992976212 S
atom 9.8846919211763478 9.8832219053860015 89.2811092393538246 S
atom 4.4283448504476723 2.4945978451973128 86.7049159391453514 S
atom 10.4422934848628710 2.4922219169527620 86.7520865362271962 S
atom 5.4714928994514658 7.4630225023641454 86.7552804561150168 S
atom 9.3940504749345166 7.4603034696842032 86.7049159391453514 S
atom 5.4530460364496323 2.4905361252840854 91.8844728912698940 S
atom 9.3908094515926237 2.4868759738948327 91.7589794036221633 S
atom 4.4200088661812469 7.4576765593062104 91.7621733235101971 S
atom 10.4187516609365254 7.4562417497709808 91.8844728912698798 S
atom 2.4685602988273168 5.5056138789883668 86.7065128990894607 S
atom 7.4366418515587673 4.4573708690600560 86.7536834961709928 S
atom 2.4658412661473630 9.4281714544714035 86.7568774160589840 S
atom 7.4342659233142063 10.4713195034752484 86.7065128990894607 S
atom 2.4726220187405481 4.4809126929863892 91.8860698512140175 S
atom 7.4419877946167023 5.5088549023302784 91.7605763635661162 S
atom 2.4711872092052931 10.4796554877417041 91.7637702834540789 S
atom 7.4383276432274172 9.4466183174732965 91.8860698512140175 S
atom 2.3906863989488127 2.4992628070795084 94.3698798824419924 Ba
atom 7.4346959223565028 2.5724717450758257 94.3682829224980111 Ba
atom 2.4638953369451229 7.5432723304872198 94.3714768423858459 Ba
atom 7.3563920234356877 7.4649684315663931 94.3698798824419924 Ba
atom 2.6682835625340866 2.2349670381885081 99.4051086029031552 Ba
atom 7.6989916912474925 2.2948745814905478 99.4035116429592307 Ba
atom 2.7281911058361175 7.2656751669019588 99.4067055628471934 Ba
atom 7.6339891870209664 7.2006726626754078 99.4051086029031552 Ba
atom 4.9931791976586641 4.9018664725215118 96.9331777839067996 Zr
atom 9.9977978814014588 4.9356845708528603 96.9315808239629604 Zr
atom 5.0269972959900118 9.9064851562642264 96.9347747438507241 Zr
atom 9.9588848221456043 9.8675720970083649 96.9331777839067996 Zr
atom 4.9835750185673584 4.9591343153746310 102.0312189032543131 Zr
atom 9.9405300385482747 4.9452887499441607 102.0296219433103744 Zr
atom 4.9697294531369067 9.9160893353555402 102.0328158631983655 Zr
atom 9.9492806430542409 9.9248399398614975 102.0312189032543131 Zr
atom 5.1215352827247145 5.0624038841491892 94.3738583172185486 S
atom 9.8372604697737049 4.8073284857868037 94.3722613572745672 S
atom 4.8664598843623388 9.7781290711981548 94.3754552771624589 S
atom 10.0872409072116316 10.0281095086360654 94.3738583172185486 S
atom 4.7624782962371794 4.7352113022129512 99.4471336937362480 S
atom 10.1644530517099643 5.1663854722743316 99.4455367337923946 S
atom 5.1936524662985795 10.1371860576857156 99.4487306536802436 S
atom 9.7281839207240672 9.7009169266998505 99.4471336937362480 S
atom 4.5021823383511554 2.4479210639945173 96.7191240949438225 S
atom 10.4218035444981787 2.4444740630644621 97.0926389199185707 S
atom 5.4510029590867850 7.4152746484758518 97.0958328398064481 S
atom 9.4678879628380503 7.4136266884813953 96.7191240949438225 S
atom 4.6762387255941702 2.4576139631269056 102.1621775650391442 S
atom 10.3180204499239299 2.4521062159231968 101.6904434900229290 S
atom 5.3472198645125228 7.4229068013345767 101.6936374099109912 S
atom 9.6419443500810065 7.4233195876137872 102.1621775650391442 S
atom 2.5152370800301123 5.4317763910848571 96.7207210548877612 S
atom 7.4843897054470538 4.4778608094247456 97.0942358798623673 S
atom 2.5135891200356588 9.4486613948361455 97.0974297997503157 S
atom 7.4809427045170089 10.3974820155717431 96.7207210548877612 S
atom 2.5055441808977270 5.2577200038418495 102.1637745249829123 S
atom 7.4767575525883396 4.5816439039990078 101.6920404499671093 S
atom 2.5059569671769308 9.5524444894103677 101.6952343698549015 S
atom 7.4712498053846286 10.2234256283287692 102.1637745249829123 S
atom 2.3590451951608178 2.5669182375324180 104.2434585790865356 Ba
atom 7.3670404919036105 2.6041129488638197 104.2418616191427247 Ba
atom 2.3962399064922115 7.5749135342752112 104.2450555390304032 Ba
atom 7.3247508196476963 7.5326238620192942 104.2434585790865356 Ba
atom 5.1987373914558717 5.1107347416071827 104.5501865133025348 S
atom 9.7889296123157106 4.7301263770556563 104.5485895533586387 S
atom 4.8181290269043213 9.7009269624670171 104.5517834732463029 S
atom 10.1644430159427657 10.0764403660940314 104.5501865133025348 S
