#=======================================================
# FHI-aims file: sym_relax/sym_relax_RP_3_RxRyRz_-Rx-Ry-Rz.in
# Created using the Atomic Simulation Environment (ASE)
# Fri Mar 14 10:25:04 2025
#=======================================================
lattice_vector 10.0410236160782098 -0.0044912726117965 -0.0128625107568916 
lattice_vector -0.0044912726117965 10.0410236160782080 0.0128625107568916 
lattice_vector -0.0498304448273355 0.0498304448273354 35.6921825396586954 
atom 0.0448152095397224 -0.1333690767726702 0.2378970596877238 Ba
atom 5.1538808848117776 -0.0470608458456214 0.2314658043092770 Ba
atom 0.1311234404667731 4.9756965984993737 0.2443283150661697 Ba
atom 5.0630813812729336 4.8848970949605235 0.2378970596877235 Ba
atom -0.2467039156205046 0.1959957733845928 4.9753114951500228 Ba
atom 4.8245160346545006 0.2444582793146058 4.9688802397715728 Ba
atom -0.1982414096904910 5.2672157236595902 4.9817427505284639 Ba
atom 4.7715622561126878 5.2142619451177987 4.9753114951500219 Ba
atom 2.4909962924068454 2.5266113007828399 2.3866597338847710 Zr
atom 7.5121666789894661 2.5250242430204608 2.3802284785063272 Zr
atom 2.4894092346444627 7.5477816873654611 2.3930909892632211 Zr
atom 7.5092624641400523 7.5448774725160446 2.3866597338847706 Zr
atom 2.4987517431942377 2.5195144285389635 7.4358713624288928 Zr
atom 7.5192635512333439 2.5172687922330628 7.4294401070504463 Zr
atom 2.4965061068883387 7.5400262365780666 7.4423026178073419 Zr
atom 7.5170179149274450 7.5377806002721632 7.4358713624288928 Zr
atom 2.6650437482530536 2.7930658043120844 -0.1152418093979625 S
atom 7.2457121754602207 2.3509767871742429 -0.1216730647764090 S
atom 2.2229547311152196 7.3737342315192400 -0.1088105540195165 S
atom 7.6833099199862440 7.8113319760452828 -0.1152418093979628 S
atom 2.2338402672302689 2.2132416050530037 4.9367572681896315 S
atom 7.8255363747192845 2.7821802681970333 4.9303260128111877 S
atom 2.8027789303743060 7.8049377125420376 4.9431885235680797 S
atom 7.2521064389634669 7.2315077767862235 4.9367572681896315 S
atom 2.7155598729231496 0.0244754397454949 2.2060549656549884 S
atom 7.2448923765325857 0.0255075564261604 2.7449793980046082 S
atom 2.2221349321875894 5.0482650007711571 2.7578419087615043 S
atom 7.7338260446563529 5.0427416114787000 2.2060549656549884 S
atom 2.8709697915556784 0.0059957391509509 7.7369265052173848 S
atom 7.1492911391777998 0.0102756735819776 7.1219537088835052 S
atom 2.1265336948327955 5.0330331179269798 7.1348162196403999 S
atom 7.8892359632888951 5.0242619108841557 7.7369265052173866 S
atom -0.0267210760513930 2.3049519351159509 2.2124862210334308 S
atom 4.9905129790011404 2.7938856032397141 2.7514106533830578 S
atom -0.0322444653438539 7.8166430475847140 2.7642731641399467 S
atom 4.9915450956818184 7.3232181068491489 2.2124862210334295 S
atom -0.0082413754568480 2.1495420164834154 7.7433577605958384 S
atom 5.0057448618453240 2.8894868405945084 7.1283849642619481 S
atom -0.0170125824996703 7.9122442849395034 7.1412474750188482 S
atom 5.0100247962763440 7.1678081882166262 7.7433577605958384 S
atom 0.2259412302757806 -0.1752330880398693 9.8964312297077335 Ba
atom 5.1957448960789723 -0.2281868665816777 9.8899999743293048 Ba
atom 0.1729874517339722 4.7945705777633121 9.9028624850861835 Ba
atom 5.2442074020089908 4.8430330836933324 9.8964312297077353 Ba
atom -0.0655778948844462 0.1541317621173936 14.6338456651700586 Ba
atom 4.8663800459217024 0.0633322585785489 14.6274144097916192 Ba
atom -0.1563773984232908 5.0860897029235481 14.6402769205485157 Ba
atom 4.9526882768487432 5.1723979338505996 14.6338456651700604 Ba
atom 2.5065071939816348 2.5124175562950883 12.4850829909730159 Zr
atom 7.5263604234772163 2.5095133414456616 12.4786517355945623 Zr
atom 2.5036029791322139 7.5322707857906703 12.4915142463514517 Zr
atom 7.5247733657148421 7.5306837280282952 12.4850829909730159 Zr
atom 2.7636632191582167 2.8257872520249210 9.9349854566681763 S
atom 7.2129907277473935 2.2523573162690957 9.9285542012897317 S
atom 2.1902332834023803 7.2751147606140876 9.9414167120466104 S
atom 7.7819293908914045 7.8440534237581101 9.9349854566681763 S
atom 2.3324597381354231 2.2459630527658425 14.9869845342557415 S
atom 7.7928149270064688 2.6835607972918840 14.9805532788773004 S
atom 2.7700574826614646 7.7063182416368807 14.9934157896341933 S
atom 7.3507259098686317 7.2642292244990418 14.9869845342557415 S
atom 2.7753685542008903 -0.0092361436932320 12.1139008160962920 S
atom 7.3047010578103331 -0.0082040270125673 12.6528252484459056 S
atom 2.2819436134653315 5.0145534173324240 12.6656877592027843 S
atom 7.7936347259340879 5.0090300280399713 12.1139008160962920 S
atom 0.0069905073873346 2.2451432538382110 12.1203320714747296 S
atom 5.0242245624398674 2.7340769219619734 12.6592565038243468 S
atom 0.0014671180948746 7.7568343663069710 12.6721190145812415 S
atom 5.0252566791205364 7.2634094255714077 12.1203320714747296 S
atom 2.6175869402256047 2.4892330987405442 18.0839883295170658 Ba
atom 7.5495448810317614 2.3984335952016989 18.0775570741386424 Ba
atom 2.5267874366867562 7.4211910395466907 18.0904195848954963 Ba
atom 7.6358531119588111 7.5074992704737387 18.0839883295170623 Ba
atom 2.2882220900683419 2.7807522239007718 22.8214027649793465 Ba
atom 7.2580257558715324 2.7277984453589634 22.8149715096008734 Ba
atom 2.2352683115265304 7.7505558897039624 22.8278340203577628 Ba
atom 7.3064882618015465 7.7990183956339729 22.8214027649793429 Ba
atom 4.9758727344032980 5.0613181876066315 20.2327510037141316 Zr
atom 9.9957259638988862 5.0584139727572071 20.2263197483356763 Zr
atom 4.9729685195538806 10.0811714171022064 20.2391822590925585 Zr
atom 9.9941389061364863 10.0795843593398295 20.2327510037141316 Zr
atom 4.9829696066471696 5.0535627368192300 25.2819626322582387 Zr
atom 10.0034814146862789 5.0513171005133302 25.2755313768798118 Zr
atom 4.9807239703412840 10.0740745448583340 25.2883938876366798 Zr
atom 10.0012357783803854 10.0718289085524404 25.2819626322582387 Zr
atom 4.7094182308740491 4.8872707317604140 17.7308494604313545 S
atom 10.1697734197450700 5.3248684762864524 17.7244182050528778 S
atom 5.1470159754000822 10.3476259206314580 17.7372807158097991 S
atom 9.7276844026072897 9.9055369034936209 17.7308494604313545 S
atom 5.2892424301331209 5.3184742127832001 22.7828485380189889 S
atom 9.7385699387222875 4.7450442770273877 22.7764172826405478 S
atom 4.7158124943773085 9.7678017213723773 22.7892797933974443 S
atom 10.3075086018663544 10.3367403845164088 22.7828485380189889 S
atom 4.7085984319464194 2.5618015010123236 20.5975019232124126 S
atom 10.2202895444151771 2.5562781117198670 20.0457149801058634 S
atom 5.1975321000701857 7.5790355560648655 20.0585774908627634 S
atom 9.7268646036796316 7.5800676727455336 20.5975019232124090 S
atom 4.6129971945916362 2.5465696181681445 24.9744762340913020 S
atom 10.3756994630477219 2.5377984111253200 25.5765865196682789 S
atom 5.3529420187027164 7.5605558554703292 25.5894490304251718 S
atom 9.6312633663248324 7.5648357899013483 24.9744762340913020 S
atom 2.4542190344149821 5.3301795478258791 20.6039331785908431 S
atom 7.4780085954406479 4.8367546070903273 20.0521462354843116 S
atom 2.4552511510956454 9.8595120514353134 20.0650087462412010 S
atom 7.4724852061481668 10.3484457195590949 20.6039331785908431 S
atom 2.4694509172591661 5.4257807851806623 24.9809074894697396 S
atom 7.4964882960351966 4.6813446884577861 25.5830177750467094 S
atom 2.4737308516901919 9.7041021328028005 25.5958802858036130 S
atom 7.4877170889923645 10.4440469569138568 24.9809074894697432 S
atom 2.6594509514928006 2.3081070780044892 27.7425224995371416 Ba
atom 7.7306709017678283 2.3565695839345047 27.7360912441587217 Ba
atom 2.7079134574228183 7.3793270282794952 27.7489537549155862 Ba
atom 7.6777171232259915 7.3263732497376912 27.7425224995371416 Ba
atom 2.3300861013355396 2.5996262031647173 32.4799369349994791 Ba
atom 7.4391517766075950 2.6859344340917652 32.4735056796210273 Ba
atom 2.4163943322625898 7.7086918784367739 32.4863681903778527 Ba
atom 7.3483522730687332 7.6178923748979246 32.4799369349994862 Ba
atom 4.9900664788910474 5.0458072860318310 30.3311742608023494 Zr
atom 10.0112368654736663 5.0442202282694621 30.3247430054239011 Zr
atom 4.9884794211286723 10.0669776726144509 30.3376055161808083 Zr
atom 10.0083326506242667 10.0640734577650335 30.3311742608023494 Zr
atom 4.6766967831612227 4.7886512608552687 27.7810767264974743 S
atom 10.2683928906502455 5.3575899239992850 27.7746454711190047 S
atom 5.2456354463052586 10.3803473683442906 27.7875079818759225 S
atom 9.6949629548944127 9.8069174325884614 27.7810767264974743 S
atom 5.2565209824202928 5.2198547418780477 32.8330758040851123 S
atom 9.8371894096274559 4.7777657247402088 32.8266445487066250 S
atom 4.8144319652824699 9.8005231690852259 32.8395070594635357 S
atom 10.2747871541535059 10.2381209136112279 32.8330758040851123 S
atom 4.7684071132241623 2.5280899175735994 30.5053477736537140 S
atom 10.2800982256929281 2.5225665282811449 29.9535608305471719 S
atom 5.2573407813479243 7.5453239726261367 29.9664233413040790 S
atom 9.7866732849573594 7.5463560893068031 30.5053477736537140 S
atom 2.4879306178537060 5.2703708665481361 30.5117790290321267 S
atom 7.5117201788793748 4.7769459258125888 29.9599920859255917 S
atom 2.4889627345343714 9.7997033701575536 29.9728545966825166 S
atom 7.5061967895869106 10.2886370382813421 30.5117790290321267 S
