#=======================================================
# FHI-aims file: sym_relax/sym_relax_RP_6_Rx0Mz_0-RyMz.in
# Created using the Atomic Simulation Environment (ASE)
# Fri Mar 14 11:03:22 2025
#=======================================================
lattice_vector 10.0154245823446644 0.0618598265571327 0.0000000000000000 
lattice_vector 0.0618598265571326 10.0154245823446466 -0.0000000000000000 
lattice_vector 0.0000000000000000 -0.0000000000000000 65.8603644024811246 
atom 0.1277319671241869 0.1698816231532218 0.2156284849309351 Ba
atom 5.1776191182432632 0.1586501308841108 0.2156245284426196 Ba
atom 0.2008367403495074 5.1354325087778641 0.2156245284426196 Ba
atom 5.1663741715750744 5.2085238276041217 0.2156284849309351 Ba
atom -0.2624439482750030 -0.1886603907263946 5.0013419924764806 Ba
atom 4.8190401537881540 -0.2314950064729431 5.0013239131687879 Ba
atom -0.1577422241056046 4.7452873714208161 5.0013239131687879 Ba
atom 4.7761982561759018 4.8499818137244857 5.0013419924764806 Ba
atom 2.5272109492254788 2.5338613634971892 2.3942681102406640 Zr
atom 7.5415911914706211 2.5581217014942497 2.3942692375228223 Zr
atom 2.5648088135768732 7.5349040793880020 2.3942692375228223 Zr
atom 7.5658531536763816 7.5725035679480746 2.3942681102406640 Zr
atom 2.5146745256408414 2.5103098893114915 7.4465529845251082 Zr
atom 7.5180191911710228 2.5456105539581602 7.4465440740841480 Zr
atom 2.5412368132772807 7.5223929318519192 7.4465440740841498 Zr
atom 7.5533167300917112 7.5489520937623817 7.4465529845251082 Zr
atom 2.2650858362251771 2.6947253865760081 -0.1117395149724938 S
atom 7.7024446242107460 2.2960173038645317 -0.1117427506498926 S
atom 2.7256622463169822 7.2727996817582996 -0.1117427506498926 S
atom 7.3037280406760763 7.7333675910269086 -0.1117395149724937 S
atom 2.8261642735405386 2.2650823996942151 4.9531755889851397 S
atom 7.2727805981771620 2.8571017259747467 4.9531702240208721 S
atom 2.2959982202833933 7.8338841038685052 4.9531702240208721 S
atom 7.8648064779914328 7.3037246041451152 4.9531755889851397 S
atom 2.7857080993527781 0.0138359134402820 2.2204294029044029 S
atom 7.1905850353943741 0.0416041770577122 2.7732087451653626 S
atom 2.2138026575006320 5.0183865549514746 2.7732087451653626 S
atom 7.8243503038036888 5.0524781178911846 2.2204294029044029 S
atom 2.8926525512579020 0.0154723539150024 7.7779417315139909 S
atom 7.1305110683277366 0.0428621195130373 7.1527711756751682 S
atom 2.1537286904339883 5.0196444974068051 7.1527711756751682 S
atom 7.9312947557088016 5.0541145583658889 7.7779417315139909 S
atom 0.0106860428843227 2.1828561778331297 2.7732069808879936 S
atom 5.0215657888031258 2.8166110154643822 2.2204256798168394 S
atom 0.0447834109093520 7.7933933933581399 2.2204256798168394 S
atom 5.0493282473352208 7.2214983822840288 2.7732069808879936 S
atom 0.0119214862308380 2.1228256415356470 7.1527627923143147 S
atom 5.0231764834914472 2.9235993068644524 7.7779426985558526 S
atom 0.0463941055976931 7.9003816847582096 7.7779426985558526 S
atom 5.0505636906817335 7.1614678459865404 7.1527627923143147 S
atom 0.2801882752929815 0.1826593800755810 9.9711248018134988 Ba
atom 5.1903685889406175 0.3111256049080320 9.9711055939303996 Ba
atom 0.2135862110468643 5.2879079828017979 9.9711055939303996 Ba
atom 5.3188304797438644 5.2213015845264792 9.9711248018134988 Ba
atom -0.2791708561762626 -0.1807978894296466 14.9682646369275218 Ba
atom 4.8269203566526304 -0.2482616413401208 14.9682646369275218 Ba
atom -0.1498620212411241 4.7285207365536328 14.9682646369275218 Ba
atom 4.7594713482746194 4.8578443150212527 14.9682646369275218 Ba
atom 2.5212116544656316 2.5229556292728561 12.4614513333468686 Zr
atom 7.5306737308398688 2.5521432655822238 12.4614488827754073 Zr
atom 2.5538913529460872 7.5289256434759926 12.4614488827754073 Zr
atom 7.5598538589165329 7.5615978337237530 12.4614513333468686 Zr
atom 2.5212116544656316 2.5229556292728561 17.4750779405082284 Zr
atom 7.5306737308398688 2.5521432655822238 17.4750803910797110 Zr
atom 2.5538913529460872 7.5289256434759926 17.4750803910797110 Zr
atom 7.5598538589165329 7.5615978337237530 17.4750779405082284 Zr
atom 2.1884985320460744 2.7860669388719792 9.9621783332234823 S
atom 7.7937841905555070 2.2194401573100118 9.9621748805145920 S
atom 2.8170018126617364 7.1962225352037841 9.9621748805145920 S
atom 7.2271407364969589 7.8247091433228730 9.9621783332234823 S
atom 2.8534411002796736 2.2519706912878310 14.9682646369275218 S
atom 7.2597126257409910 2.8843599628020486 14.9682646369275218 S
atom 2.2829302478472244 7.8611423406958076 14.9682646369275218 S
atom 7.8920833047305861 7.2906128957386986 14.9682646369275218 S
atom 2.8853414184699790 0.0184555533116772 12.1485708907688945 S
atom 7.1317765791594319 0.0462707678879809 12.7892096987034183 S
atom 2.1549942012656751 5.0230531457817404 12.7892096987034183 S
atom 7.9239836229208676 5.0570977577625804 12.1485708907688945 S
atom 2.8853414184699790 0.0184555533116772 17.7879583830861741 S
atom 7.1317765791594319 0.0462707678879809 17.1473195751516272 S
atom 2.1549942012656751 5.0230531457817404 17.1473195751516272 S
atom 7.9239836229208676 5.0570977577625804 17.7879583830861741 S
atom 0.0153497283272013 2.1240522754680460 12.7892097507811364 S
atom 5.0261771421531520 2.9162521448001399 12.1485790112310656 S
atom 0.0493947642593988 7.8930345226939114 12.1485790112310656 S
atom 5.0539919327780911 7.1626944799189376 12.7892097507811364 S
atom 0.0153497283272013 2.1240522754680460 17.1473195230739464 S
atom 5.0261771421531520 2.9162521448001399 17.7879502626239834 S
atom 0.0493947642593988 7.8930345226939114 17.7879502626239834 S
atom 5.0539919327780911 7.1626944799189376 17.1473195230739464 S
atom 0.2801882752929815 0.1826593800755810 19.9654044720416088 Ba
atom 5.1903685889406175 0.3111256049080320 19.9654236799246974 Ba
atom 0.2135862110468643 5.2879079828017979 19.9654236799246974 Ba
atom 5.3188304797438644 5.2213015845264792 19.9654044720416088 Ba
atom -0.2624439482750030 -0.1886603907263946 24.9351872813786208 Ba
atom 4.8190401537881540 -0.2314950064729431 24.9352053606862825 Ba
atom -0.1577422241056046 4.7452873714208161 24.9352053606862825 Ba
atom 4.7761982561759018 4.8499818137244857 24.9351872813786208 Ba
atom 2.5146745256408414 2.5103098893114915 22.4899762893298885 Zr
atom 7.5180191911710228 2.5456105539581602 22.4899851997708708 Zr
atom 2.5412368132772807 7.5223929318519192 22.4899851997708708 Zr
atom 7.5533167300917112 7.5489520937623817 22.4899762893298885 Zr
atom 2.5272109492254788 2.5338613634971892 27.5422611636143841 Zr
atom 7.5415911914706211 2.5581217014942497 27.5422600363322587 Zr
atom 2.5648088135768732 7.5349040793880020 27.5422600363322587 Zr
atom 7.5658531536763816 7.5725035679480746 27.5422611636143841 Zr
atom 2.1884985320460744 2.7860669388719792 19.9743509406316022 S
atom 7.7937841905555070 2.2194401573100118 19.9743543933405157 S
atom 2.8170018126617364 7.1962225352037841 19.9743543933405157 S
atom 7.2271407364969589 7.8247091433228730 19.9743509406316022 S
atom 2.8261642735405386 2.2650823996942151 24.9833536848699609 S
atom 7.2727805981771620 2.8571017259747467 24.9833590498342382 S
atom 2.2959982202833933 7.8338841038685052 24.9833590498342382 S
atom 7.8648064779914328 7.3037246041451152 24.9833536848699609 S
atom 2.8926525512579020 0.0154723539150024 22.1585875423410990 S
atom 7.1305110683277366 0.0428621195130373 22.7837580981799128 S
atom 2.1537286904339883 5.0196444974068060 22.7837580981799128 S
atom 7.9312947557088016 5.0541145583658889 22.1585875423410990 S
atom 2.7857080993527781 0.0138359134402820 27.7160998709506288 S
atom 7.1905850353943741 0.0416041770577122 27.1633205286897343 S
atom 2.2138026575006320 5.0183865549514746 27.1633205286897343 S
atom 7.8243503038036888 5.0524781178911846 27.7160998709506288 S
atom 0.0119214862308380 2.1228256415356470 22.7837664815407130 S
atom 5.0231764834914472 2.9235993068644524 22.1585865752991822 S
atom 0.0463941055976931 7.9003816847582096 22.1585865752991822 S
atom 5.0505636906817335 7.1614678459865404 22.7837664815407130 S
atom 0.0106860428843227 2.1828561778331297 27.1633222929670701 S
atom 5.0215657888031258 2.8166110154643822 27.7161035940382163 S
atom 0.0447834109093520 7.7933933933581399 27.7161035940382163 S
atom 5.0493282473352208 7.2214983822840288 27.1633222929670701 S
atom 0.1277319671241869 0.1698816231532218 29.7209007889241477 Ba
atom 5.1776191182432632 0.1586501308841109 29.7209047454124935 Ba
atom 0.2008367403495074 5.1354325087778641 29.7209047454124935 Ba
atom 5.1663741715750744 5.2085238276041217 29.7209007889241477 Ba
atom 2.2650858362251771 2.6947253865760081 30.0482687888275777 S
atom 7.7024446242107460 2.2960173038645317 30.0482720245050210 S
atom 2.7256622463169822 7.2727996817582996 30.0482720245050210 S
atom 7.3037280406760763 7.7333675910269086 30.0482687888275777 S
atom 2.6892027253786703 2.6470530693496377 33.1458106861715081 Ba
atom 7.6547536110032963 2.7201578425749489 33.1458067296832368 Ba
atom 2.6779712331095631 7.6969402204687221 33.1458067296832368 Ba
atom 7.7278449298295637 7.6856952738005377 33.1458106861715081 Ba
atom 2.3306607114990441 2.2568771539504402 37.9315241937170526 Ba
atom 7.2646084736462555 2.3615788781198424 37.9315061144093590 Ba
atom 2.2878260957525045 7.3383612560136005 37.9315061144093590 Ba
atom 7.3693029159499330 7.2955193584013500 37.9315241937170526 Ba
atom 5.0531824657226272 5.0465320514509449 35.3244503114812076 Zr
atom 10.0542251816134645 5.0841299158023121 35.3244514387634183 Zr
atom 5.0774428037196930 10.0609122936960809 35.3244514387634183 Zr
atom 10.0918246701735299 10.0851742559018351 35.3244503114812076 Zr
atom 5.0296309915369406 5.0339956278662843 40.3767351857656465 Zr
atom 10.0417140340773567 5.0605579155027325 40.3767262753247422 Zr
atom 5.0649316561836129 10.0373402933964950 40.3767262753247422 Zr
atom 10.0682731959878282 10.0726378323171932 40.3767351857656465 Zr
atom 5.2140464888014524 4.7844069384506271 32.8184426862680212 S
atom 9.7921207839837177 5.2449833485424273 32.8184394505906951 S
atom 4.8153384060899835 10.2217657264361836 32.8184394505906951 S
atom 10.2526886932523258 9.8230491429015387 32.8184426862680212 S
atom 4.7844035019196696 5.3454853757659810 37.8833577902255456 S
atom 10.3532052060939517 4.8153193225088495 37.8833524252614851 S
atom 5.3764228282001767 9.7921017004025863 37.8833524252614851 S
atom 9.8230457063705536 10.3841275802168909 37.8833577902255456 S
atom 4.7021772800585460 2.5300071451097730 35.7033891821286105 S
atom 10.3127144955835419 2.5641045131347959 35.1506078810574394 S
atom 5.3359321176898264 7.5408868910285713 35.1506078810574394 S
atom 9.7408194845094691 7.5686493495606584 35.7033891821286105 S
atom 4.6421467437610859 2.5312425884562870 40.0829449935548823 S
atom 10.4197027869836578 2.5657152078231409 40.7081248997963598 S
atom 5.4429204090898855 7.5424975857169017 40.7081248997963598 S
atom 9.6807889482119833 7.5698847929071817 40.0829449935548823 S
atom 2.5331570156657266 5.3050292015782281 35.1506116041449701 S
atom 7.5377076571769157 4.7331237597260811 35.7033909464059178 S
atom 2.5609252792831545 9.7099061376198392 35.7033909464059178 S
atom 7.5717992201166151 10.3436714060291166 35.1506116041449701 S
atom 2.5347934561404526 5.4119736534833507 40.7081239327546029 S
atom 7.5389655996322364 4.6730497926594330 40.0829533769156896 S
atom 2.5621832217384819 9.6498321705531840 40.0829533769156896 S
atom 7.5734356605913273 10.4506158579342383 40.7081239327546029 S
atom 2.7019804823010287 2.7995093775184290 42.9013070030540575 Ba
atom 7.8072290850272372 2.7329073132723072 42.9012877951710152 Ba
atom 2.8304467071334791 7.7096896911660782 42.9012877951710152 Ba
atom 7.7406226867519203 7.8381515819693197 42.9013070030540575 Ba
atom 2.3385232127957978 2.2401502460491893 47.8984468381680983 Ba
atom 7.2478418387790660 2.3694590809843215 47.8984468381680983 Ba
atom 2.2710594608853238 7.3462414588780884 47.8984468381680983 Ba
atom 7.3771654172466965 7.2787924505000783 47.8984468381680983 Ba
atom 5.0422767314983012 5.0405327566910749 45.3916335345875410 Zr
atom 10.0482467457014319 5.0732124551715376 45.3916310840159625 Zr
atom 5.0714643678076659 10.0499948330653055 45.3916310840159625 Zr
atom 10.0809189359491764 10.0791749611419750 45.3916335345875410 Zr
atom 5.0422767314983012 5.0405327566910749 50.4052601417487338 Zr
atom 10.0482467457014319 5.0732124551715376 50.4052625923202555 Zr
atom 5.0714643678076659 10.0499948330653055 50.4052625923202555 Zr
atom 10.0809189359491764 10.0791749611419750 50.4052601417487338 Zr
atom 5.3053880410974070 4.7078196342715160 42.8923605344640038 S
atom 9.7155436374292172 5.3363229148871971 42.8923570817550512 S
atom 4.7387612595354600 10.3131052927809570 42.8923570817550512 S
atom 10.3440302455483035 9.7464618387224320 42.8923605344640038 S
atom 4.7712917935132486 5.3727622025051405 47.8984468381680983 S
atom 10.3804634429212452 4.8022513500726696 47.8984468381680983 S
atom 5.4036810650275013 9.7790337279664232 47.8984468381680983 S
atom 9.8099339979641549 10.4114044069560183 47.8984468381680983 S
atom 4.6433733776934742 2.5346708305526509 45.7193919520216880 S
atom 10.4123556249193321 2.5687158664848475 45.0787612124716972 S
atom 5.4355732470255820 7.5454982443786101 45.0787612124716972 S
atom 9.6820155821443574 7.5733130350035438 45.7193919520216880 S
atom 4.6433733776934742 2.5346708305526509 50.0775017243145300 S
atom 10.4123556249193321 2.5687158664848475 50.7181324638646274 S
atom 5.4355732470255820 7.5454982443786101 50.7181324638646274 S
atom 9.6820155821443574 7.5733130350035438 50.0775017243145300 S
atom 2.5377766555371242 5.4046625206954175 45.0787530920094213 S
atom 7.5423742480071807 4.6743153034911202 45.7193918999439788 S
atom 2.5655918701134270 9.6510976813848544 45.7193918999439788 S
atom 7.5764188599880100 10.4433047251463016 45.0787530920094213 S
atom 2.5377766555371242 5.4046625206954175 50.7181405843266617 S
atom 7.5423742480071807 4.6743153034911202 50.0775017763922392 S
atom 2.5655918701134270 9.6510976813848544 50.0775017763922392 S
atom 7.5764188599880100 10.4433047251463016 50.7181405843266617 S
atom 2.7019804823010287 2.7995093775184290 52.8955866732821676 Ba
atom 7.8072290850272372 2.7329073132723072 52.8956058811652809 Ba
atom 2.8304467071334791 7.7096896911660782 52.8956058811652809 Ba
atom 7.7406226867519203 7.8381515819693197 52.8955866732821676 Ba
atom 2.3306607114990441 2.2568771539504402 57.8653694826191582 Ba
atom 7.2646084736462555 2.3615788781198424 57.8653875619269300 Ba
atom 2.2878260957525045 7.3383612560136005 57.8653875619269300 Ba
atom 7.3693029159499330 7.2955193584013500 57.8653694826191582 Ba
atom 5.0296309915369406 5.0339956278662843 55.4201584905705502 Zr
atom 10.0417140340773567 5.0605579155027325 55.4201674010114900 Zr
atom 5.0649316561836129 10.0373402933964950 55.4201674010114900 Zr
atom 10.0682731959878282 10.0726378323171932 55.4201584905705502 Zr
atom 5.0531824657226272 5.0465320514509449 60.4724433648550246 Zr
atom 10.0542251816134645 5.0841299158023121 60.4724422375727855 Zr
atom 5.0774428037196930 10.0609122936960809 60.4724422375727855 Zr
atom 10.0918246701735299 10.0851742559018351 60.4724433648550246 Zr
atom 5.3053880410974070 4.7078196342715160 52.9045331418721432 S
atom 9.7155436374292172 5.3363229148871971 52.9045365945811668 S
atom 4.7387612595354600 10.3131052927809570 52.9045365945811668 S
atom 10.3440302455483035 9.7464618387224320 52.9045331418721432 S
atom 4.7844035019196696 5.3454853757659810 57.9135358861105729 S
atom 10.3532052060939517 4.8153193225088495 57.9135412510747685 S
atom 5.3764228282001767 9.7921017004025863 57.9135412510747685 S
atom 9.8230457063705536 10.3841275802168909 57.9135358861105729 S
atom 4.6421467437610859 2.5312425884562870 55.7139486827813428 S
atom 10.4197027869836578 2.5657152078231409 55.0887687765399150 S
atom 5.4429204090898855 7.5424975857169017 55.0887687765399150 S
atom 9.6807889482119833 7.5698847929071817 55.7139486827813428 S
atom 4.7021772800585460 2.5300071451097730 60.0935044942075862 S
atom 10.3127144955835419 2.5641045131347959 60.6462857952787431 S
atom 5.3359321176898264 7.5408868910285713 60.6462857952787431 S
atom 9.7408194845094691 7.5686493495606584 60.0935044942075862 S
atom 2.5347934561404526 5.4119736534833507 55.0887697435816079 S
atom 7.5389655996322364 4.6730497926594330 55.7139402994204573 S
atom 2.5621832217384819 9.6498321705531840 55.7139402994204573 S
atom 7.5734356605913273 10.4506158579342383 55.0887697435816079 S
atom 2.5331570156657266 5.3050292015782281 60.6462820721912763 S
atom 7.5377076571769157 4.7331237597260811 60.0935027299302646 S
atom 2.5609252792831545 9.7099061376198392 60.0935027299302646 S
atom 7.5717992201166151 10.3436714060291166 60.6462820721912763 S
atom 2.6892027253786703 2.6470530693496377 62.6510829901647099 Ba
atom 7.6547536110032963 2.7201578425749489 62.6510869466529456 Ba
atom 2.6779712331095631 7.6969402204687221 62.6510869466529456 Ba
atom 7.7278449298295637 7.6856952738005377 62.6510829901647099 Ba
atom 5.2140464888014524 4.7844069384506271 62.9784509900682039 S
atom 9.7921207839837177 5.2449833485424273 62.9784542257455513 S
atom 4.8153384060899835 10.2217657264361836 62.9784542257455513 S
atom 10.2526886932523258 9.8230491429015387 62.9784509900682039 S
