#=======================================================
# FHI-aims file: sym_relax/sym_relax_RP_4_RxRyMz_RxRy-Mz.in
# Created using the Atomic Simulation Environment (ASE)
# Fri Mar 14 10:29:55 2025
#=======================================================
lattice_vector 10.0275550841411523 -0.0366177860226901 0.0000000000000000 
lattice_vector -0.0366177860226902 10.0275550841411363 0.0000000000000000 
lattice_vector 0.0000000000000000 0.0000000000000000 45.7704955750775042 
atom 0.0609460336029713 -0.1271168904677380 0.2303255186831270 Ba
atom 5.1408944325382979 -0.0792549266143151 0.2303255186831271 Ba
atom 0.1088079974563936 4.9528315084675905 0.2303255186831270 Ba
atom 5.0564146826621847 4.8683517585914844 0.2303255186831271 Ba
atom -0.2855569126603430 0.2219566966009533 4.9927689851373156 Ba
atom 4.7918208454696085 0.2672480196489995 4.9927689851373156 Ba
atom -0.2402655896122971 5.2993344547309018 4.9927689851373156 Ba
atom 4.7099117363988761 5.2174253456601720 4.9927689851373156 Ba
atom 2.4692528398954980 2.5293336110184073 2.3921021367072894 Zr
atom 7.4799125801113879 2.5079069161523755 2.3921021367072894 Zr
atom 2.4478261450294676 7.5399933512342807 2.3921021367072894 Zr
atom 7.4647214889547255 7.5248022600776192 2.3921021367072894 Zr
atom 2.4568873823519071 2.5369016432792808 7.4429604392833433 Zr
atom 7.4723445478504953 2.5202723736959665 7.4429604392833433 Zr
atom 2.4402581127685963 7.5523588087778819 7.4429604392833433 Zr
atom 7.4523560314111208 7.5323702923385039 7.4429604392833433 Zr
atom 2.6377532016775760 2.7913051428717313 -0.1116890881613389 S
atom 7.2179410482580453 2.3394065543703015 -0.1116890881613389 S
atom 2.1858546131761458 7.3714929894522010 -0.1116890881613389 S
atom 7.6332218507367955 7.7867737919309459 -0.1116890881613389 S
atom 2.2032950077460312 2.2247594376749982 4.9473648807759920 S
atom 7.7844867534547921 2.7738647483018450 4.9473648807759920 S
atom 2.7524003183728785 7.8059511833837520 4.9473648807759920 S
atom 7.1987636568052551 7.2202280867342186 4.9473648807759920 S
atom 2.7248007256225897 0.0315333895691522 2.2179433639590793 S
atom 7.1871901832509195 0.0169057405514476 2.7676162935797355 S
atom 2.1551037481690063 5.0489921756333587 2.7676162935797355 S
atom 7.7202693746818145 5.0270020386283756 2.2179433639590793 S
atom 2.8510807574796209 0.0255484275851334 7.7631398078218954 S
atom 7.1126278980233035 0.0116810277102576 7.1386242360196599 S
atom 2.0805414629413952 5.0437674627921671 7.1386242360196599 S
atom 7.8465494065388324 5.0210170766443571 7.7631398078218954 S
atom -0.0498422825804979 2.2889768164479718 2.2179433639590793 S
atom 4.9602540154964228 2.8220560078788672 2.7676162935797355 S
atom -0.0718324195854813 7.8541424429607734 2.7676162935797355 S
atom 4.9456263664787254 7.2844454655071802 2.2179433639590793 S
atom -0.0438573205964792 2.1626967845909397 7.7631398078218954 S
atom 4.9654787283376240 2.8966182931064828 7.1386242360196599 S
atom -0.0666077067442912 7.9287047281883920 7.1386242360196599 S
atom 4.9516113284627323 7.1581654336501623 7.7631398078218954 S
atom 0.2328890148579381 -0.1451242050447007 9.9501077337125032 Ba
atom 5.1589017471152703 -0.2511979078692825 9.9501077337125032 Ba
atom 0.1268153120333561 4.7808885272126274 9.9501077337125032 Ba
atom 5.2283576639171532 4.8503444440145138 9.9501077337125032 Ba
atom -0.2855569126603431 0.2219566966009533 14.9074464822876731 Ba
atom 4.7918208454696085 0.2672480196489995 14.9074464822876731 Ba
atom -0.2402655896122972 5.2993344547309018 14.9074464822876731 Ba
atom 4.7099117363988761 5.2174253456601720 14.9074464822876731 Ba
atom 2.4568873823519071 2.5369016432792808 12.4572550281416703 Zr
atom 7.4723445478504953 2.5202723736959665 12.4572550281416703 Zr
atom 2.4402581127685963 7.5523588087778819 12.4572550281416703 Zr
atom 7.4523560314111208 7.5323702923385039 12.4572550281416703 Zr
atom 2.4692528398954980 2.5293336110184073 17.5081133307177161 Zr
atom 7.4799125801113879 2.5079069161523755 17.5081133307177161 Zr
atom 2.4478261450294676 7.5399933512342807 17.5081133307177161 Zr
atom 7.4647214889547255 7.5248022600776192 17.5081133307177161 Zr
atom 2.7294621572509503 2.8667118148667745 9.9501077337125032 S
atom 7.1425343762630114 2.2476975987969228 9.9501077337125032 S
atom 2.1104479411810986 7.2797840338788324 9.9501077337125032 S
atom 7.7249308063101703 7.8621804639259993 9.9501077337125032 S
atom 2.2032950077460312 2.2247594376749982 14.9528505866490171 S
atom 7.7844867534547921 2.7738647483018450 14.9528505866490171 S
atom 2.7524003183728785 7.8059511833837520 14.9528505866490171 S
atom 7.1987636568052551 7.2202280867342186 14.9528505866490171 S
atom 2.8510807574796209 0.0255484275851334 12.1370756596031164 S
atom 7.1126278980233035 0.0116810277102576 12.7615912314053457 S
atom 2.0805414629413952 5.0437674627921671 12.7615912314053457 S
atom 7.8465494065388324 5.0210170766443571 12.1370756596031164 S
atom 2.7248007256225897 0.0315333895691522 17.6822721034659160 S
atom 7.1871901832509195 0.0169057405514476 17.1325991738452537 S
atom 2.1551037481690063 5.0489921756333587 17.1325991738452537 S
atom 7.7202693746818145 5.0270020386283756 17.6822721034659160 S
atom -0.0438573205964792 2.1626967845909397 12.1370756596031164 S
atom 4.9654787283376240 2.8966182931064828 12.7615912314053457 S
atom -0.0666077067442912 7.9287047281883920 12.7615912314053457 S
atom 4.9516113284627323 7.1581654336501623 12.1370756596031164 S
atom -0.0498422825804979 2.2889768164479718 17.6822721034659160 S
atom 4.9602540154964228 2.8220560078788672 17.1325991738452537 S
atom -0.0718324195854813 7.8541424429607734 17.1325991738452537 S
atom 4.9456263664787254 7.2844454655071802 17.6822721034659160 S
atom 0.0609460336029713 -0.1271168904677380 19.6698899487418863 Ba
atom 5.1408944325382979 -0.0792549266143151 19.6698899487418863 Ba
atom 0.1088079974563936 4.9528315084675905 19.6698899487418863 Ba
atom 5.0564146826621847 4.8683517585914844 19.6698899487418863 Ba
atom 2.6377532016775760 2.7913051428717313 20.0119045555863622 S
atom 7.2179410482580453 2.3394065543703015 20.0119045555863622 S
atom 2.1858546131761458 7.3714929894522010 20.0119045555863622 S
atom 7.6332218507367955 7.7867737919309459 20.0119045555863622 S
atom 2.3706174340618724 2.5586803581325781 23.1155733062218616 Ba
atom 7.4505658329972002 2.6065423219859998 23.1155733062218616 Ba
atom 2.4184793979152954 7.6386287570679023 23.1155733062218616 Ba
atom 7.3660860831210924 7.5541490071918034 23.1155733062218616 Ba
atom 2.7196910211305565 2.2121774118692694 27.8780167726760659 Ba
atom 7.7970687792605053 2.2574687349173170 27.8780167726760659 Ba
atom 2.7649823441786090 7.2895551699992174 27.8780167726760659 Ba
atom 7.7151596701897835 7.2076460609284858 27.8780167726760659 Ba
atom 5.0270679355480095 4.9669871644251149 25.2773499242460069 Zr
atom 10.0377276757638931 4.9455604695590836 25.2773499242460069 Zr
atom 5.0056412406819808 9.9776469046409968 25.2773499242460069 Zr
atom 10.0225365846072325 9.9624558134843095 25.2773499242460069 Zr
atom 5.0346359678088897 4.9546217068815039 30.3282082268221025 Zr
atom 10.0500931333074597 4.9379924372982096 30.3282082268221025 Zr
atom 5.0180066982255873 9.9700788723801033 30.3282082268221025 Zr
atom 10.0301046168680958 9.9500903559407483 30.3282082268221025 Zr
atom 5.2890394674013361 5.1354875262071822 22.7735586993773751 S
atom 9.8692273139818099 4.6835889377057551 22.7735586993773751 S
atom 4.8371408788999126 9.7156753727876595 22.7735586993773751 S
atom 10.2845081164605627 10.1309561752663964 22.7735586993773751 S
atom 4.7224937622046026 4.7010293322756436 27.8326126683147450 S
atom 10.3036855079133520 5.2501346429024869 27.8326126683147450 S
atom 5.2715990728314388 10.2822210779844045 27.8326126683147450 S
atom 9.7179624112638141 9.6964979813348720 27.8326126683147450 S
atom 4.7867111409775687 2.4478920419491126 25.1031911514978674 S
atom 10.3518767674903778 2.4259019049441277 25.6528640811184694 S
atom 5.3197903324084841 7.4579883400260290 25.6528640811184694 S
atom 9.7821797900367979 7.4433606910083272 25.1031911514978674 S
atom 4.6604311091205517 2.4538770039331381 30.6483875953606955 S
atom 10.4264390527180062 2.4311266177853197 30.0238720235584253 S
atom 5.3943526176360841 7.4632130528672302 30.0238720235584253 S
atom 9.6558997581797570 7.4493456529923421 30.6483875953606955 S
atom 2.5292677140987609 5.2225350501522119 25.1031911514978674 S
atom 7.5467265001629702 4.6528380726986125 25.6528640811184694 S
atom 2.5146400650810596 9.6849245077805310 25.6528640811184694 S
atom 7.5247363631579738 10.2180036992114207 25.1031911514978674 S
atom 2.5232827521147394 5.3488150820092253 30.6483875953606955 S
atom 7.5415017873217725 4.5782757874710107 30.0238720235584253 S
atom 2.5094153522398681 9.6103622225529204 30.0238720235584253 S
atom 7.5187514011739642 10.3442837310684475 30.6483875953606955 S
atom 2.3526101194849085 2.7306233393875479 32.8353555212512376 Ba
atom 7.2786228517422309 2.6245496365629650 32.8353555212512376 Ba
atom 2.2465364166603292 7.6566360716448862 32.8353555212512376 Ba
atom 7.3480787685441191 7.7260919884467647 32.8353555212512376 Ba
atom 2.7196910211305565 2.2121774118692694 37.7926942698265407 Ba
atom 7.7970687792605053 2.2574687349173170 37.7926942698265407 Ba
atom 2.7649823441786090 7.2895551699992174 37.7926942698265407 Ba
atom 7.7151596701897835 7.2076460609284858 37.7926942698265407 Ba
atom 5.0346359678088897 4.9546217068815039 35.3425028156804046 Zr
atom 10.0500931333074597 4.9379924372982096 35.3425028156804046 Zr
atom 5.0180066982255873 9.9700788723801033 35.3425028156804046 Zr
atom 10.0301046168680958 9.9500903559407483 35.3425028156804046 Zr
atom 5.0270679355480095 4.9669871644251149 40.3933611182565073 Zr
atom 10.0377276757638931 4.9455604695590836 40.3933611182565073 Zr
atom 5.0056412406819808 9.9776469046409968 40.3933611182565073 Zr
atom 10.0225365846072325 9.9624558134843095 40.3933611182565073 Zr
atom 5.3644461393963896 5.2271964817805712 32.8353555212512376 S
atom 9.7775183584084235 4.6081822657107034 32.8353555212512376 S
atom 4.7454319233265281 9.6402687007926247 32.8353555212512376 S
atom 10.3599147884555975 10.2226651308397880 32.8353555212512376 S
atom 4.7224937622046026 4.7010293322756436 37.8380983741877515 S
atom 10.3036855079133520 5.2501346429024869 37.8380983741877515 S
atom 5.2715990728314388 10.2822210779844045 37.8380983741877515 S
atom 9.7179624112638141 9.6964979813348720 37.8380983741877515 S
atom 4.6604311091205517 2.4538770039331381 35.0223234471418365 S
atom 10.4264390527180062 2.4311266177853197 35.6468390189440854 S
atom 5.3943526176360841 7.4632130528672302 35.6468390189440854 S
atom 9.6558997581797570 7.4493456529923421 35.0223234471418365 S
atom 4.7867111409775687 2.4478920419491126 40.5675198910047143 S
atom 10.3518767674903778 2.4259019049441277 40.0178469613839809 S
atom 5.3197903324084841 7.4579883400260290 40.0178469613839809 S
atom 9.7821797900367979 7.4433606910083272 40.5675198910047143 S
atom 2.5232827521147394 5.3488150820092253 35.0223234471418365 S
atom 7.5415017873217725 4.5782757874710107 35.6468390189440854 S
atom 2.5094153522398681 9.6103622225529204 35.6468390189440854 S
atom 7.5187514011739642 10.3442837310684475 35.0223234471418365 S
atom 2.5292677140987609 5.2225350501522119 40.5675198910047143 S
atom 7.5467265001629702 4.6528380726986125 40.0178469613839809 S
atom 2.5146400650810596 9.6849245077805310 40.0178469613839809 S
atom 7.5247363631579738 10.2180036992114207 40.5675198910047143 S
atom 2.3706174340618724 2.5586803581325781 42.5551377362806562 Ba
atom 7.4505658329972002 2.6065423219859998 42.5551377362806562 Ba
atom 2.4184793979152954 7.6386287570679023 42.5551377362806562 Ba
atom 7.3660860831210933 7.5541490071918034 42.5551377362806562 Ba
atom 5.2890394674013352 5.1354875262071822 42.8971523431250930 S
atom 9.8692273139818099 4.6835889377057551 42.8971523431250930 S
atom 4.8371408788999126 9.7156753727876595 42.8971523431250930 S
atom 10.2845081164605627 10.1309561752663964 42.8971523431250930 S
