#=======================================================
# FHI-aims file: sym_relax/sym_relax_RP_2_RxRyRz_-Rx-Ry-Rz.in
# Created using the Atomic Simulation Environment (ASE)
# Fri Mar 14 10:21:58 2025
#=======================================================
lattice_vector 10.0810172394952691 0.1195297146360909 0.0004630526266984 
lattice_vector 0.1195297146360907 10.0810172394952726 -0.0004630526266984 
lattice_vector -0.0010032733539155 0.0010032733539155 25.5130511927986348 
atom -0.0997999198479685 -0.0998624248128474 0.2830084198030036 Ba
atom 5.1403710445604753 0.1595647771660126 0.2832399461163528 Ba
atom 0.1596272821308917 5.1403085395956154 0.2827768934896537 Ba
atom 5.0004735572177061 5.0004110522528356 0.2830084198030035 Ba
atom 0.0261316509722519 0.0265175253391423 4.9063559986151262 Ba
atom 5.0139910944084907 0.0336332063457933 4.9065875249284741 Ba
atom 0.0332473319789019 5.0143769687753821 4.9061244723017783 Ba
atom 5.1264051280379253 5.1267910024048327 4.9063559986151262 Ba
atom 2.5407262833069124 2.5408863796293470 2.3647011906494773 Zr
atom 7.5998957171839505 2.6193120510768133 2.3649327169628256 Zr
atom 2.6191519547543760 7.6000558135064171 2.3644696643361280 Zr
atom 7.6409997603725781 7.6411598566950394 2.3647011906494777 Zr
atom 2.5405005052624530 2.5411121576738038 7.4480108065807737 Zr
atom 7.5996699391395186 2.6195378291212705 7.4482423328941341 Zr
atom 2.6189261767099223 7.6002815915508597 7.4477792802674223 Zr
atom 7.6407739823281320 7.6413856347394820 7.4480108065807737 Zr
atom 2.7330914218223392 2.7330600779561256 -0.1263076847326155 S
atom 7.4077220188571893 2.4269469125613834 -0.1260761584192664 S
atom 2.4269782564275975 7.4076906749909774 -0.1265392110459654 S
atom 7.8333648988880134 7.8333335550218042 -0.1263076847326157 S
atom 2.2946902033223000 2.2950760776891928 4.9063559986151262 S
atom 7.8457060191241190 2.8653481310614244 4.9065875249284741 S
atom 2.8649622566945268 7.8460918934910113 4.9061244723017783 S
atom 7.3949636803879804 7.3953495547548806 4.9063559986151262 S
atom 2.5202002833883004 0.0299527898244837 2.2329070935992901 S
atom 7.5606870941198876 0.0897363743349174 2.6837256425141929 S
atom 2.5799433316902909 5.0704801367645143 2.6832625898874922 S
atom 7.6204737604539847 5.1302262668901637 2.2329070935992901 S
atom 2.5199224619924441 0.0301979418604525 7.5800364299443093 S
atom 7.5604528907561299 0.0899440719861075 7.1296809336561022 S
atom 2.5797091283265421 5.0706878344157014 7.1292178810294002 S
atom 7.6201959390581173 5.1304714189261373 7.5800364299443084 S
atom 0.0298120674935614 2.5203083363593342 2.2326755672859386 S
atom 5.0703019600488037 2.5800950026934335 2.6834941162008392 S
atom 0.0895581976192167 7.5608387651230231 2.6830310635741426 S
atom 5.1300855445592406 7.6205818134250114 2.2326755672859377 S
atom 0.0295669154575925 2.5205861577551958 7.5798049036309605 S
atom 5.0700942623976104 2.5803292060571845 7.1294494073427526 S
atom 0.0893504999680261 7.5610729684867826 7.1289863547160586 S
atom 5.1298403925232643 7.6208596348208868 7.5798049036309623 S
atom -0.1002482991797377 -0.0994140454810781 9.5297035774272434 Ba
atom 5.1399226652287151 0.1600131564977829 9.5299351037406002 Ba
atom 0.1591789027991221 5.1407569189273774 9.5294720511139026 Ba
atom 5.0000251778859441 5.0008594315846020 9.5297035774272452 Ba
atom 2.7326742035892289 2.7334772961892324 9.9390196819628578 S
atom 7.4073048006240860 2.4273641307944960 9.9392512082761950 S
atom 2.4265610381944906 7.4081078932240905 9.9387881556495135 S
atom 7.8329476806549083 7.8337507732549208 9.9390196819628578 S
atom 2.6494975266687262 2.6504382950577670 13.0395340162023174 Ba
atom 7.4903438017555422 2.5105408077149995 13.0397655425156636 Ba
atom 2.5096000393259561 7.4912845701445949 13.0393024898889749 Ba
atom 7.7497710037344012 7.7507117721234531 13.0395340162023174 Ba
atom 2.5231175765167397 2.5245067242375487 17.6628815950144435 Ba
atom 7.6162753725757613 2.6369207578669864 17.6631131213278074 Ba
atom 2.6355316101461770 7.6176645202965858 17.6626500687010761 Ba
atom 7.6233910535824032 7.6247802013032331 17.6628815950144435 Ba
atom 5.1090221992922125 5.1101855689685776 15.1212267870488031 Zr
atom 10.1308700049104150 5.1512896121571963 15.1214583133621492 Zr
atom 5.1501262424808187 10.1320333745867917 15.1209952607354605 Zr
atom 10.2092956763578897 10.2104590460342521 15.1212267870488031 Zr
atom 5.1087964212477619 5.1104113470130157 20.2045364029800965 Zr
atom 10.1306442268659698 5.1515153902016380 20.2047679292934284 Zr
atom 5.1499004644363833 10.1322591526312351 20.2043048766667432 Zr
atom 10.2090698983134214 10.2106848240787098 20.2045364029800965 Zr
atom 4.9168485009654406 4.9178204304531379 12.6302179116667119 S
atom 10.3232351434258653 5.3434633104839682 12.6304494379800687 S
atom 5.3424913809962549 10.3242070729135733 12.6299863853533658 S
atom 10.0171219780311080 10.0180939075188178 12.6302179116667119 S
atom 5.3548325012323605 5.3562216489531780 17.6628815950144435 S
atom 9.8848339249258004 4.9054793102170429 17.6631131213278074 S
atom 4.9040901624962290 9.8862230726466365 17.6626500687010761 S
atom 10.4551059782980271 10.4564951260188721 17.6628815950144435 S
atom 5.0698135762281318 2.5806098922266734 15.4400197126001704 S
atom 10.1103440049917985 2.6403560223523272 14.9896642163119669 S
atom 5.1296002425622280 7.6210997847819186 14.9892011636852747 S
atom 10.1700870532937984 7.6808833692923582 15.4400197126001686 S
atom 5.0695793728643865 2.5808175898778645 19.8859750037420788 S
atom 10.1100661835959720 2.6406011743882947 20.3367935526569710 S
atom 5.1293224211663500 7.6213449368178994 20.3363305000302645 S
atom 10.1698528499300540 7.6810910669435488 19.8859750037420753 S
atom 2.5794284421570537 5.0709685205851933 15.4397881862868189 S
atom 7.6199557890970837 5.1307115688871798 14.9894326899986154 S
atom 2.6392120266674821 10.1114553313167921 14.9889696373719286 S
atom 7.6797019192227296 10.1712419976508723 15.4397881862868189 S
atom 2.5792207445058657 5.0712027239489395 19.8857434774287185 S
atom 7.6197106370611092 5.1309893902830419 20.3365620263436071 S
atom 2.6389668746315196 10.1117331527126169 20.3360989737169326 S
atom 7.6794942215715398 10.1714762010146256 19.8857434774287221 S
atom 2.6490491473369548 2.6508866743895338 22.2862291738265696 Ba
atom 7.4898954224237704 2.5109891870467673 22.2864607001399193 Ba
atom 2.5091516599941905 7.4917329494763623 22.2859976475131987 Ba
atom 7.7493226244026401 7.7511601514552204 22.2862291738265661 Ba
atom 4.9164312827323267 4.9182376486862580 22.6955452783621716 S
atom 10.3228179251927408 5.3438805287170705 22.6957768046755355 S
atom 5.3420741627631481 10.3246242911466837 22.6953137520488539 S
atom 10.0167047597979728 10.0185111257519246 22.6955452783621681 S
