#=======================================================
# FHI-aims file: sym_relax/sym_relax_RP_1_RxRyMz_RxRy0.in
# Created using the Atomic Simulation Environment (ASE)
# Fri Mar 14 10:20:32 2025
#=======================================================
lattice_vector 10.0578028637719168 0.1251372972819206 -0.0001780208878770 
lattice_vector 0.1251372972819206 10.0578028637719132 0.0001780208878770 
lattice_vector 0.0004760094051951 -0.0004760094051951 15.6289979902173695 
atom -0.0908098239715666 -0.0908407365009459 0.2364349899847012 Ba
atom 5.1197421683869084 0.1533784726125270 0.2363459795407631 Ba
atom 0.1534093851419061 5.1197112558575011 0.2365240004286400 Ba
atom 5.0006602565553440 5.0006293440259517 0.2364349899847012 Ba
atom 0.0909585769106901 0.0906919835618224 4.6476268819582316 Ba
atom 4.9382094483241206 -0.0283899282697304 4.6475378715142952 Ba
atom -0.0281233349208625 4.9379428549752422 4.6477158924021760 Ba
atom 5.1824286574376046 5.1821620640887165 4.6476268819582316 Ba
atom 2.5458094167330221 2.5456606637938863 2.4420309359714643 Zr
atom 7.5747108486189774 2.6082293124348488 2.4419419255275279 Zr
atom 2.6083780653739823 7.5745620956798243 2.4421199464154046 Zr
atom 7.6372794972599269 7.6371307443207854 2.4420309359714643 Zr
atom 2.6910197337442416 2.6909169319030339 -0.0990233641397258 S
atom 7.4294545805098196 2.4630189954236328 -0.0991123745836643 S
atom 2.4631217972648289 7.4293517786686092 -0.0989343536957872 S
atom 7.7824898142711403 7.7823870124299370 -0.0990233641397258 S
atom 2.4005990997217976 2.4004043956847356 4.9830852360826547 S
atom 7.7199671167281174 2.7534396294460715 4.9829962256387148 S
atom 2.7536343334831281 7.7197724126910501 4.9831742465265947 S
atom 7.4920691802487127 7.4918744762116427 4.9830852360826547 S
atom 2.5144938855817887 0.0312143383552544 2.2904369257324859 S
atom 7.5434577311292301 0.0937742059875422 2.5934469253225672 S
atom 2.5771249478842502 5.0601069892325272 2.5936249462104448 S
atom 7.6059639661087042 5.1226844188821543 2.2904369257324855 S
atom 0.0313543102857062 2.5144075463041586 2.2905259361764232 S
atom 5.0602645231803338 2.5769137812836185 2.5935359357665106 S
atom 0.0939317399353383 7.5432465645286051 2.5937139566543856 S
atom 5.1228243908126272 7.6058776268310497 2.2905259361764236 S
atom 2.4552149685649645 2.4546647185775332 8.0509175636012955 Ba
atom 7.6657067938353247 2.6988237606029055 8.0508285531573733 Ba
atom 2.6993740105903319 7.6651565438478828 8.0510065740452372 Ba
atom 7.5466850490918826 7.5461347991044256 8.0509175636012955 Ba
atom 2.6368798743062722 2.6361805996050469 12.4621422985589980 Ba
atom 7.4841909128078097 2.5171588548615955 12.4620532881150652 Ba
atom 2.5178581295628195 7.4834916381065790 12.4622313090029522 Ba
atom 7.7283499548331669 7.7276506801319504 12.4621422985589980 Ba
atom 5.0917824616990668 5.0911576993547456 10.2565299310801574 Zr
atom 10.1206838935850421 5.1537263479956925 10.2564409206362193 Zr
atom 5.1543511103400297 10.1200591312406818 10.2566189415240956 Zr
atom 10.1832525422259845 10.1826277798816367 10.2565299310801574 Zr
atom 5.2368704295417121 5.2364113831894308 7.7154624501982996 S
atom 9.9754302097503391 5.0086383801530587 7.7153734397543658 S
atom 5.0090974265053392 9.9749711633980294 7.7155514606422386 S
atom 10.3283405100686370 10.3278814637163254 7.7154624501982987 S
atom 4.9466944938564232 4.9459040155200551 12.7975974119620091 S
atom 10.2659375774197148 5.2988143158383449 12.7975084015180762 S
atom 5.2996047941747300 10.2651470990833413 12.7976864224059490 S
atom 10.0381645743833552 10.0373740960469444 12.7975974119620073 S
atom 5.0605713357201960 2.5767123131864071 10.1050181929813974 S
atom 10.0893263709229331 2.6392703022780988 10.4078636482910287 S
atom 5.1229935876779535 7.6056030855230716 10.4080416691789157 S
atom 10.1520414162471013 7.6681823937132991 10.1050181929813974 S
atom 2.5773264159814633 5.0598001766926588 10.1051072034253497 S
atom 7.6062385074166805 5.1225152220168209 10.4079526587349651 S
atom 2.6399057241716934 10.0888480052617933 10.4081306796228379 S
atom 7.6687964965083788 10.1512702572195792 10.1051072034253497 S
