#=======================================================
# FHI-aims file: sym_relax/sym_relax_RP_4_Rx1Ry20_Rx2Ry10.in
# Created using the Atomic Simulation Environment (ASE)
# Fri Mar 14 10:26:47 2025
#=======================================================
lattice_vector 10.0954310142747481 -0.0000023287126930 0.0000000000000000 
lattice_vector -0.0000023287126930 10.0954310142747445 0.0000000000000000 
lattice_vector 0.0000000000000000 0.0000000000000000 45.1499595387846071 
atom 0.0000023514886788 -0.1558750031024339 0.2852032555020053 Ba
atom 5.0477131556486947 0.1558738387460873 0.2852032555020053 Ba
atom -0.0000035158450256 5.2035905102398097 0.2852032555020053 Ba
atom 5.0477166942697078 4.8918393396785920 0.2852032555020053 Ba
atom 0.0000105494496403 0.0299373509034894 4.9406886917285542 Ba
atom 5.0477049576877207 -0.0299385152598361 4.9406886917285542 Ba
atom -0.0000117138059871 5.0177781562338790 4.9406886917285542 Ba
atom 5.0477248922306694 5.0776516936845200 4.9406886917285542 Ba
atom 2.5107507104110502 2.5238605065981083 2.3243964739789957 Zr
atom 7.5846791395073385 2.5238526718265684 2.3243964739789957 Zr
atom 2.5369624680136269 7.5715693433202906 2.3243964739789957 Zr
atom 7.5584650531920712 7.5715748493791271 2.3243964739789957 Zr
atom 2.5241985400576086 2.5238637663579566 7.3351142861314678 Zr
atom 7.5712313098607931 2.5238494120667219 7.3351142861314678 Zr
atom 2.5235146383670690 7.5715660835604419 7.3351142861314678 Zr
atom 7.5719128828386228 7.5715781091389900 7.3351142861314678 Zr
atom 2.8807775323259603 2.5238683735917071 -0.1561898832346736 S
atom 7.2146523175924235 2.5238448048329678 -0.1561898832346736 S
atom 2.1669356460987088 7.5715614763266919 -0.1561898832346736 S
atom 7.9284918751069853 7.5715827163727356 -0.1561898832346736 S
atom 2.0493614810382117 2.5238717121819008 4.8635292125763705 S
atom 8.0460683688801904 2.5238414662427773 4.8635292125763705 S
atom 2.9983516973864672 7.5715581377364929 4.8635292125763705 S
atom 7.0970758238192211 7.5715860549629346 4.8635292125763705 S
atom 2.5238577535686866 -0.0000005821781733 2.4580264954331725 S
atom 7.5715732607060504 -0.0000017465345200 2.4580243333943583 S
atom 2.5238565892123352 5.0477149249591982 2.4580243333943583 S
atom 7.5715720963497066 5.0477137606028526 2.4580264954331725 S
atom 2.5238577535686866 -0.0000005821781733 7.3446404783245818 S
atom 7.5715732607060504 -0.0000017465345200 7.3446782020478363 S
atom 2.5238565892123352 5.0477149249591982 7.3446782020478363 S
atom 7.5715720963497066 5.0477137606028526 7.3446404783245818 S
atom -0.0000005821781733 2.5238577535686857 2.0069566524891314 S
atom 5.0477149249591928 2.5238565892123406 2.7991171820760359 S
atom -0.0000017465345200 7.5715732607060602 2.7991171820760359 S
atom 5.0477137606028482 7.5715720963497111 2.0069566524891314 S
atom -0.0000005821781733 2.5238577535686857 7.8024055396463945 S
atom 5.0477149249591928 2.5238565892123406 6.8735205175282665 S
atom -0.0000017465345200 7.5715732607060602 6.8735205175282665 S
atom 5.0477137606028482 7.5715720963497111 7.8024055396463945 S
atom 0.0000350527195464 -0.0100955220963946 9.8152085953879649 Ba
atom 5.0476804544178142 0.0100943577400479 9.8152085953879649 Ba
atom -0.0000362170758932 5.0578110292337648 9.8152085953879649 Ba
atom 5.0477493955005723 5.0376188206846351 9.8152085953879649 Ba
atom 0.0000105494496403 0.0299373509034894 14.6897284990473587 Ba
atom 5.0477049576877207 -0.0299385152598361 14.6897284990473587 Ba
atom -0.0000117138059871 5.0177781562338790 14.6897284990473587 Ba
atom 5.0477248922306694 5.0776516936845200 14.6897284990473587 Ba
atom 2.5241985400576086 2.5238637663579566 12.2953029046444620 Zr
atom 7.5712313098607931 2.5238494120667219 12.2953029046444620 Zr
atom 2.5235146383670690 7.5715660835604419 12.2953029046444620 Zr
atom 7.5719128828386228 7.5715781091389900 12.2953029046444620 Zr
atom 2.5107507104110502 2.5238605065981083 17.3060207167969189 Zr
atom 7.5846791395073385 2.5238526718265684 17.3060207167969189 Zr
atom 2.5369624680136269 7.5715693433202906 17.3060207167969189 Zr
atom 7.5584650531920712 7.5715748493791271 17.3060207167969189 Zr
atom 3.0312332550794783 2.5238534105423511 9.8152085953879649 S
atom 7.0641965948389114 2.5238597678823260 9.8152085953879649 S
atom 2.0164799233451962 7.5715764393760505 9.8152085953879649 S
atom 8.0789475978604894 7.5715677533233761 9.8152085953879649 S
atom 2.0493614810382117 2.5238717121819008 14.7668879781995397 S
atom 8.0460683688801904 2.5238414662427773 14.7668879781995397 S
atom 2.9983516973864672 7.5715581377364929 14.7668879781995397 S
atom 7.0970758238192211 7.5715860549629346 14.7668879781995397 S
atom 2.5238577535686866 -0.0000005821781733 12.2857767124513320 S
atom 7.5715732607060504 -0.0000017465345200 12.2857389887280650 S
atom 2.5238565892123352 5.0477149249591982 12.2857389887280650 S
atom 7.5715720963497066 5.0477137606028526 12.2857767124513320 S
atom 2.5238577535686866 -0.0000005821781733 17.1723906953427417 S
atom 7.5715732607060504 -0.0000017465345200 17.1723928573815812 S
atom 2.5238565892123352 5.0477149249591982 17.1723928573815812 S
atom 7.5715720963497066 5.0477137606028526 17.1723906953427417 S
atom -0.0000005821781733 2.5238577535686857 11.8280116511295272 S
atom 5.0477149249591928 2.5238565892123406 12.7568966732476383 S
atom -0.0000017465345200 7.5715732607060602 12.7568966732476383 S
atom 5.0477137606028482 7.5715720963497111 11.8280116511295272 S
atom -0.0000005821781733 2.5238577535686857 17.6234605382867819 S
atom 5.0477149249591928 2.5238565892123406 16.8313000086999054 S
atom -0.0000017465345200 7.5715732607060602 16.8313000086999054 S
atom 5.0477137606028482 7.5715720963497111 17.6234605382867819 S
atom 0.0000023514886788 -0.1558750031024339 19.3452139352739039 Ba
atom 5.0477131556486947 0.1558738387460873 19.3452139352739039 Ba
atom -0.0000035158450256 5.2035905102398097 19.3452139352739039 Ba
atom 5.0477166942697078 4.8918393396785920 19.3452139352739039 Ba
atom 2.8807775323259603 2.5238683735917071 19.7866070740105897 S
atom 7.2146523175924235 2.5238448048329678 19.7866070740105897 S
atom 2.1669356460987088 7.5715614763266919 19.7866070740105897 S
atom 7.9284918751069853 7.5715827163727356 19.7866070740105897 S
atom 2.3679821682880835 2.5238595228791936 22.8601830248943294 Ba
atom 7.7274476816303173 2.5238536555454867 22.8601830248943294 Ba
atom 2.6797310101365959 7.5715703270392005 22.8601830248943294 Ba
atom 7.4156965110690978 7.5715738656602216 22.8601830248943294 Ba
atom 2.5537945222939924 2.5238677208401503 27.5156684611208426 Ba
atom 7.5416353276243893 2.5238454575845282 27.5156684611208426 Ba
atom 2.4939186561306759 7.5715621290782371 27.5156684611208426 Ba
atom 7.6015088650750178 7.5715820636211779 27.5156684611208426 Ba
atom 5.0477176779886115 5.0346078818015645 24.8993762433712966 Zr
atom 10.0954265147107947 5.0608196394041389 24.8993762433712966 Zr
atom 5.0477098432170857 10.1085363108978630 24.8993762433712966 Zr
atom 10.0954320207696266 10.0823222245825868 24.8993762433712966 Zr
atom 5.0477209377484789 5.0480557114481108 29.9100940555237464 Zr
atom 10.0954232549509637 5.0473718097575873 29.9100940555237464 Zr
atom 5.0477065834572299 10.0950884812513255 29.9100940555237464 Zr
atom 10.0954352805294931 10.0957700542291331 29.9100940555237464 Zr
atom 5.0477255449822129 5.4046347037164821 22.4187898861576329 S
atom 10.0954186477171817 4.6907928174892266 22.4187898861576329 S
atom 5.0477019762234780 9.7385094889829542 22.4187898861576329 S
atom 10.0954398877632539 10.4523490464974902 22.4187898861576329 S
atom 5.0477288835724163 4.5732186524287197 27.4385089819686847 S
atom 10.0954153091270005 5.5222088687769899 27.4385089819686847 S
atom 5.0476986376332871 10.5699255402706971 27.4385089819686847 S
atom 10.0954432263534297 9.6209329952097455 27.4385089819686847 S
atom 5.0477149249591928 2.5238565892123406 24.5819364218814052 S
atom 10.0954304320965704 2.5238554248559901 25.3740969514683314 S
atom 5.0477137606028482 7.5715720963497111 25.3740969514683314 S
atom 10.0954292677402222 7.5715709319933664 24.5819364218814052 S
atom 5.0477149249591928 2.5238565892123406 30.3773853090386936 S
atom 10.0954304320965704 2.5238554248559901 29.4485002869205985 S
atom 5.0477137606028482 7.5715720963497111 29.4485002869205985 S
atom 10.0954292677402222 7.5715709319933664 30.3773853090386936 S
atom 2.5238565892123352 5.0477149249591982 25.0330062648254845 S
atom 7.5715720963497066 5.0477137606028526 25.0330041027866592 S
atom 2.5238554248559946 10.0954304320965775 25.0330041027866592 S
atom 7.5715709319933602 10.0954292677402240 25.0330062648254845 S
atom 2.5238565892123352 5.0477149249591982 29.9196202477168924 S
atom 7.5715720963497066 5.0477137606028526 29.9196579714401629 S
atom 2.5238554248559946 10.0954304320965775 29.9196579714401629 S
atom 7.5715709319933602 10.0954292677402240 29.9196202477168924 S
atom 2.5137616492941173 2.5238922241100576 32.3901883647802649 Ba
atom 7.5816682006242759 2.5238209543146213 32.3901883647802649 Ba
atom 2.5339515291305554 7.5715376258083369 32.3901883647802649 Ba
atom 7.5614759920751462 7.5716065668910835 32.3901883647802649 Ba
atom 2.5537945222939924 2.5238677208401503 37.2647082684396196 Ba
atom 7.5416353276243893 2.5238454575845282 37.2647082684396196 Ba
atom 2.4939186561306759 7.5715621290782371 37.2647082684396196 Ba
atom 7.6015088650750178 7.5715820636211779 37.2647082684396196 Ba
atom 5.0477209377484789 5.0480557114481108 34.8702826740367442 Zr
atom 10.0954232549509637 5.0473718097575873 34.8702826740367442 Zr
atom 5.0477065834572299 10.0950884812513255 34.8702826740367442 Zr
atom 10.0954352805294931 10.0957700542291331 34.8702826740367442 Zr
atom 5.0477176779886115 5.0346078818015645 39.8810004861891940 Zr
atom 10.0954265147107947 5.0608196394041389 39.8810004861891940 Zr
atom 5.0477098432170857 10.1085363108978630 39.8810004861891940 Zr
atom 10.0954320207696266 10.0823222245825868 39.8810004861891940 Zr
atom 5.0477105819328640 5.5550904264699872 32.3901883647802649 S
atom 10.0954336107665519 4.5403370947357162 32.3901883647802649 S
atom 5.0477169392728465 9.5880537662294234 32.3901883647802649 S
atom 10.0954249247138943 10.6028047692510210 32.3901883647802649 S
atom 5.0477288835724163 4.5732186524287197 37.3418677475918628 S
atom 10.0954153091270005 5.5222088687769899 37.3418677475918628 S
atom 5.0476986376332871 10.5699255402706971 37.3418677475918628 S
atom 10.0954432263534297 9.6209329952097455 37.3418677475918628 S
atom 5.0477149249591928 2.5238565892123406 34.4029914205217722 S
atom 10.0954304320965704 2.5238554248559901 35.3318764426399667 S
atom 5.0477137606028482 7.5715720963497111 35.3318764426399667 S
atom 10.0954292677402222 7.5715709319933664 34.4029914205217722 S
atom 5.0477149249591928 2.5238565892123406 40.1984403076790784 S
atom 10.0954304320965704 2.5238554248559901 39.4062797780921557 S
atom 5.0477137606028482 7.5715720963497111 39.4062797780921557 S
atom 10.0954292677402222 7.5715709319933664 40.1984403076790784 S
atom 2.5238565892123352 5.0477149249591982 34.8607564818435876 S
atom 7.5715720963497066 5.0477137606028526 34.8607187581203419 S
atom 2.5238554248559946 10.0954304320965775 34.8607187581203419 S
atom 7.5715709319933602 10.0954292677402240 34.8607564818435876 S
atom 2.5238565892123352 5.0477149249591982 39.7473704647350345 S
atom 7.5715720963497066 5.0477137606028526 39.7473726267739096 S
atom 2.5238554248559946 10.0954304320965775 39.7473726267739096 S
atom 7.5715709319933602 10.0954292677402240 39.7473704647350345 S
atom 2.3679821682880835 2.5238595228791936 41.9201937046662252 Ba
atom 7.7274476816303173 2.5238536555454867 41.9201937046662252 Ba
atom 2.6797310101365959 7.5715703270392005 41.9201937046662252 Ba
atom 7.4156965110690978 7.5715738656602216 41.9201937046662252 Ba
atom 5.0477255449822129 5.4046347037164821 42.3615868434029252 S
atom 10.0954186477171817 4.6907928174892266 42.3615868434029252 S
atom 5.0477019762234780 9.7385094889829542 42.3615868434029252 S
atom 10.0954398877632539 10.4523490464974902 42.3615868434029252 S
