#=======================================================
# FHI-aims file: sym_relax/sym_relax_RP_6_Rx00_0-Ry0.in
# Created using the Atomic Simulation Environment (ASE)
# Fri Mar 14 11:01:09 2025
#=======================================================
lattice_vector 10.0824450275963695 -0.0000000000000004 -0.0000000000000000 
lattice_vector -0.0000000000000004 10.0824450275963695 -0.0000000000000000 
lattice_vector -0.0000000000000000 -0.0000000000000001 65.0886130984404900 
atom -0.1691815869615509 0.0000000000000000 0.2912002314641498 Ba
atom 5.2104041007597361 -0.0000000000000000 0.2912002314641498 Ba
atom 0.1691815869615509 5.0412225137981856 0.2912002314641498 Ba
atom 4.8720409268366387 5.0412225137981856 0.2912002314641498 Ba
atom 0.0267266912380334 -0.0000000000000000 4.9625267326396409 Ba
atom 5.0144958225601481 -0.0000000000000000 4.9625267326396409 Ba
atom -0.0267266912380334 5.0412225137981856 4.9625267326396409 Ba
atom 5.0679492050362258 5.0412225137981856 4.9625267326396409 Ba
atom 2.5206112568990928 2.4986375845104747 2.3399778491416234 Zr
atom 7.5618337706972758 2.5425849292877118 2.3399778491416243 Zr
atom 2.5206112568990928 7.5838074430858953 2.3399778491416243 Zr
atom 7.5618337706972758 7.5398600983086608 2.3399778491416234 Zr
atom 2.5206112568990928 2.5198652250034228 7.3545138410137518 Zr
atom 7.5618337706972758 2.5213572887947597 7.3545138410137518 Zr
atom 2.5206112568990928 7.5625798025929400 7.3545138410137518 Zr
atom 7.5618337706972758 7.5610877388016080 7.3545138410137518 Zr
atom 2.5206112568990928 2.8074063647340823 -0.1386099871609278 S
atom 7.5618337706972758 2.2338161490641046 -0.1386099871609278 S
atom 2.5206112568990928 7.2750386628622898 -0.1386099871609278 S
atom 7.5618337706972758 7.8486288785322680 -0.1386099871609278 S
atom 2.5206112568990928 2.0541922526271468 4.8843902479774677 S
atom 7.5618337706972758 2.9870302611710358 4.8843902479774695 S
atom 2.5206112568990928 8.0282527749692143 4.8843902479774695 S
atom 7.5618337706972758 7.0954147664253364 4.8843902479774677 S
atom 2.5206112568990928 -0.0000000000000000 2.0408640381895986 S
atom 7.5618337706972758 -0.0000000000000000 2.7818364397580626 S
atom 2.5206112568990928 5.0412225137981856 2.7818364397580626 S
atom 7.5618337706972758 5.0412225137981856 2.0408640381895986 S
atom 2.5206112568990928 -0.0000000000000000 7.8303165619017561 S
atom 7.5618337706972758 -0.0000000000000000 6.8956779653824105 S
atom 2.5206112568990928 5.0412225137981856 6.8956779653824105 S
atom 7.5618337706972758 5.0412225137981856 7.8303165619017561 S
atom -0.0000000000000000 2.5206112568990928 2.4788105875242130 S
atom 5.0412225137981856 2.5206112568990928 2.4788105875242130 S
atom 0.0000000000000000 7.5618337706972758 2.4788105875242130 S
atom 5.0412225137981856 7.5618337706972749 2.4788105875242130 S
atom 0.0000000000000000 2.5206112568990928 7.3731222209215499 S
atom 5.0412225137981856 2.5206112568990928 7.3731222209215499 S
atom 0.0000000000000000 7.5618337706972758 7.3731222209215499 S
atom 5.0412225137981856 7.5618337706972749 7.3731222209215499 S
atom -0.0075109844738207 -0.0000000000000000 9.8578124280343662 Ba
atom 5.0487334982720053 -0.0000000000000000 9.8578124280343662 Ba
atom 0.0075109844738207 5.0412225137981856 9.8578124280343662 Ba
atom 5.0337115293243668 5.0412225137981856 9.8578124280343662 Ba
atom 0.0082374088287817 -0.0000000000000000 14.7928666132819160 Ba
atom 5.0329851049694039 -0.0000000000000000 14.7928666132819160 Ba
atom -0.0082374088287817 5.0412225137981856 14.7928666132819160 Ba
atom 5.0494599226269612 5.0412225137981856 14.7928666132819160 Ba
atom 2.5206112568990928 2.5218867276580412 12.3138092014174632 Zr
atom 7.5618337706972758 2.5193357861401444 12.3138092014174632 Zr
atom 2.5206112568990928 7.5605582999383252 12.3138092014174632 Zr
atom 7.5618337706972758 7.5631092414562264 12.3138092014174632 Zr
atom 2.5206112568990928 2.5218867276580412 17.2719240251463475 Zr
atom 7.5618337706972758 2.5193357861401444 17.2719240251463475 Zr
atom 2.5206112568990928 7.5605582999383252 17.2719240251463475 Zr
atom 7.5618337706972758 7.5631092414562264 17.2719240251463475 Zr
atom 2.5206112568990928 3.0285562898098348 9.8402475664218585 S
atom 7.5618337706972758 2.0126662239883548 9.8402475664218567 S
atom 2.5206112568990928 7.0538887377865356 9.8402475664218567 S
atom 7.5618337706972758 8.0697788036080080 9.8402475664218585 S
atom 2.5206112568990928 2.0121689683299029 14.7928666132819160 S
atom 7.5618337706972758 3.0290535454682850 14.7928666132819160 S
atom 2.5206112568990928 8.0702760592664546 14.7928666132819160 S
atom 7.5618337706972758 7.0533914821280845 14.7928666132819160 S
atom 2.5206112568990928 -0.0000000000000000 11.8407490216221056 S
atom 7.5618337706972758 -0.0000000000000000 12.7981434937312226 S
atom 2.5206112568990928 5.0412225137981856 12.7981434937312226 S
atom 7.5618337706972758 5.0412225137981856 11.8407490216221056 S
atom 2.5206112568990928 -0.0000000000000000 17.7449842049417335 S
atom 7.5618337706972758 -0.0000000000000000 16.7875897328326289 S
atom 2.5206112568990928 5.0412225137981856 16.7875897328326289 S
atom 7.5618337706972758 5.0412225137981856 17.7449842049417335 S
atom 0.0000000000000000 2.5206112568990928 12.3198308354939492 S
atom 5.0412225137981856 2.5206112568990928 12.3198308354939492 S
atom 0.0000000000000000 7.5618337706972758 12.3198308354939492 S
atom 5.0412225137981856 7.5618337706972749 12.3198308354939492 S
atom -0.0000000000000000 2.5206112568990928 17.2659023910698757 S
atom 5.0412225137981856 2.5206112568990928 17.2659023910698757 S
atom 0.0000000000000000 7.5618337706972758 17.2659023910698757 S
atom 5.0412225137981856 7.5618337706972749 17.2659023910698757 S
atom -0.0075109844738207 -0.0000000000000000 19.7279207985294711 Ba
atom 5.0487334982720053 -0.0000000000000000 19.7279207985294711 Ba
atom 0.0075109844738207 5.0412225137981856 19.7279207985294711 Ba
atom 5.0337115293243668 5.0412225137981856 19.7279207985294711 Ba
atom 0.0267266912380334 -0.0000000000000000 24.6232064939241830 Ba
atom 5.0144958225601481 -0.0000000000000000 24.6232064939241830 Ba
atom -0.0267266912380334 5.0412225137981856 24.6232064939241830 Ba
atom 5.0679492050362258 5.0412225137981856 24.6232064939241830 Ba
atom 2.5206112568990928 2.5198652250034228 22.2312193855500801 Zr
atom 7.5618337706972758 2.5213572887947597 22.2312193855500801 Zr
atom 2.5206112568990928 7.5625798025929400 22.2312193855500801 Zr
atom 7.5618337706972758 7.5610877388016080 22.2312193855500801 Zr
atom 2.5206112568990928 2.4986375845104747 27.2457553774221921 Zr
atom 7.5618337706972758 2.5425849292877118 27.2457553774221921 Zr
atom 2.5206112568990928 7.5838074430858953 27.2457553774221921 Zr
atom 7.5618337706972758 7.5398600983086608 27.2457553774221921 Zr
atom 2.5206112568990928 3.0285562898098348 19.7454856601419593 S
atom 7.5618337706972758 2.0126662239883548 19.7454856601419593 S
atom 2.5206112568990928 7.0538887377865356 19.7454856601419593 S
atom 7.5618337706972758 8.0697788036080080 19.7454856601419593 S
atom 2.5206112568990928 2.0541922526271477 24.7013429785863394 S
atom 7.5618337706972758 2.9870302611710358 24.7013429785863394 S
atom 2.5206112568990928 8.0282527749692143 24.7013429785863394 S
atom 7.5618337706972758 7.0954147664253364 24.7013429785863394 S
atom 2.5206112568990928 -0.0000000000000000 21.7554166646620644 S
atom 7.5618337706972758 -0.0000000000000000 22.6900552611813993 S
atom 2.5206112568990928 5.0412225137981856 22.6900552611813993 S
atom 7.5618337706972758 5.0412225137981856 21.7554166646620644 S
atom 2.5206112568990928 -0.0000000000000000 27.5448691883742178 S
atom 7.5618337706972758 -0.0000000000000000 26.8038967868057796 S
atom 2.5206112568990928 5.0412225137981856 26.8038967868057796 S
atom 7.5618337706972758 5.0412225137981856 27.5448691883742178 S
atom 0.0000000000000000 2.5206112568990928 22.2126110056422625 S
atom 5.0412225137981856 2.5206112568990928 22.2126110056422625 S
atom -0.0000000000000000 7.5618337706972758 22.2126110056422625 S
atom 5.0412225137981856 7.5618337706972749 22.2126110056422625 S
atom 0.0000000000000000 2.5206112568990928 27.1069226390395919 S
atom 5.0412225137981856 2.5206112568990928 27.1069226390395919 S
atom 0.0000000000000000 7.5618337706972758 27.1069226390395919 S
atom 5.0412225137981856 7.5618337706972749 27.1069226390395919 S
atom -0.1691815869615509 -0.0000000000000000 29.2945329950996864 Ba
atom 5.2104041007597361 -0.0000000000000000 29.2945329950996864 Ba
atom 0.1691815869615509 5.0412225137981856 29.2945329950996864 Ba
atom 4.8720409268366387 5.0412225137981856 29.2945329950996864 Ba
atom 2.5206112568990928 2.8074063647340823 29.7243432137247439 S
atom 7.5618337706972758 2.2338161490641046 29.7243432137247439 S
atom 2.5206112568990928 7.2750386628622898 29.7243432137247439 S
atom 7.5618337706972758 7.8486288785322680 29.7243432137247439 S
atom 2.5206112568990928 2.6897928438606438 32.8355067806843763 Ba
atom 7.5618337706972758 2.3514296699375437 32.8355067806843763 Ba
atom 2.5206112568990928 7.3926521837357262 32.8355067806843763 Ba
atom 7.5618337706972758 7.7310153576588334 32.8355067806843763 Ba
atom 2.5206112568990928 2.4938845656610606 37.5068332818598122 Ba
atom 7.5618337706972758 2.5473379481371250 37.5068332818598122 Ba
atom 2.5206112568990928 7.5885604619353151 37.5068332818598122 Ba
atom 7.5618337706972758 7.5351070794592374 37.5068332818598122 Ba
atom 5.0631961861868060 5.0412225137981856 34.8842843983618565 Zr
atom 10.0604713552077403 5.0412225137981856 34.8842843983618565 Zr
atom 5.0192488414095644 10.0824450275963713 34.8842843983618565 Zr
atom 10.1044186999850041 10.0824450275963713 34.8842843983618565 Zr
atom 5.0419685456938499 5.0412225137981856 39.8988203902339791 Zr
atom 10.0816989957006982 5.0412225137981856 39.8988203902339791 Zr
atom 5.0404764819025196 10.0824450275963713 39.8988203902339791 Zr
atom 10.0831910594920373 10.0824450275963713 39.8988203902339791 Zr
atom 4.7544274059631935 5.0412225137981856 32.4056965620593473 S
atom 10.3692401354313493 5.0412225137981856 32.4056965620593473 S
atom 5.3280176216331769 10.0824450275963713 32.4056965620593473 S
atom 9.7956499197614004 10.0824450275963713 32.4056965620593473 S
atom 5.5076415180701224 5.0412225137981856 37.4286967971976168 S
atom 9.6160260233244248 5.0412225137981856 37.4286967971976168 S
atom 4.5748035095262436 10.0824450275963713 37.4286967971976168 S
atom 10.5488640318683018 10.0824450275963713 37.4286967971976168 S
atom 5.0412225137981856 2.5206112568990928 35.0231171367444318 S
atom 10.0824450275963713 2.5206112568990928 35.0231171367444318 S
atom 5.0412225137981856 7.5618337706972749 35.0231171367444318 S
atom 10.0824450275963713 7.5618337706972749 35.0231171367444318 S
atom 5.0412225137981856 2.5206112568990928 39.9174287701417896 S
atom 10.0824450275963713 2.5206112568990928 39.9174287701417896 S
atom 5.0412225137981856 7.5618337706972749 39.9174287701417896 S
atom 10.0824450275963713 7.5618337706972749 39.9174287701417896 S
atom 2.5206112568990928 5.0412225137981856 35.3261429889782619 S
atom 7.5618337706972758 5.0412225137981856 34.5851705874097561 S
atom 2.5206112568990928 10.0824450275963713 34.5851705874097561 S
atom 7.5618337706972758 10.0824450275963713 35.3261429889782619 S
atom 2.5206112568990928 5.0412225137981856 39.4399845146026138 S
atom 7.5618337706972758 5.0412225137981856 40.3746231111219487 S
atom 2.5206112568990928 10.0824450275963713 40.3746231111219487 S
atom 7.5618337706972758 10.0824450275963713 39.4399845146026138 S
atom 2.5206112568990928 2.5281222413729130 42.4021189772545597 Ba
atom 7.5618337706972758 2.5131002724252713 42.4021189772545597 Ba
atom 2.5206112568990928 7.5543227862234597 42.4021189772545597 Ba
atom 7.5618337706972758 7.5693447551710991 42.4021189772545597 Ba
atom 2.5206112568990928 2.5123738480703119 47.3371731625021539 Ba
atom 7.5618337706972758 2.5288486657278737 47.3371731625021539 Ba
atom 2.5206112568990928 7.5700711795260567 47.3371731625021539 Ba
atom 7.5618337706972758 7.5535963618685011 47.3371731625021539 Ba
atom 5.0399470430392368 5.0412225137981856 44.8581157506376229 Zr
atom 10.0837204983553139 5.0412225137981856 44.8581157506376229 Zr
atom 5.0424979845571380 10.0824450275963713 44.8581157506376229 Zr
atom 10.0811695568374322 10.0824450275963713 44.8581157506376229 Zr
atom 5.0399470430392368 5.0412225137981856 49.8162305743665499 Zr
atom 10.0837204983553139 5.0412225137981856 49.8162305743665499 Zr
atom 5.0424979845571380 10.0824450275963713 49.8162305743665499 Zr
atom 10.0811695568374322 10.0824450275963713 49.8162305743665499 Zr
atom 4.5332774808874436 5.0412225137981856 42.3845541156420325 S
atom 10.5903900605071115 5.0412225137981856 42.3845541156420325 S
atom 5.5491675467089294 10.0824450275963713 42.3845541156420325 S
atom 9.5744999946856417 10.0824450275963713 42.3845541156420325 S
atom 5.5496648023673751 5.0412225137981856 47.3371731625021539 S
atom 9.5740027390271898 5.0412225137981856 47.3371731625021539 S
atom 4.5327802252289944 10.0824450275963713 47.3371731625021539 S
atom 10.5908873161655528 10.0824450275963713 47.3371731625021539 S
atom 5.0412225137981856 2.5206112568990928 44.8641373847141267 S
atom 10.0824450275963713 2.5206112568990928 44.8641373847141267 S
atom 5.0412225137981856 7.5618337706972749 44.8641373847141267 S
atom 10.0824450275963713 7.5618337706972749 44.8641373847141267 S
atom 5.0412225137981856 2.5206112568990928 49.8102089402900319 S
atom 10.0824450275963713 2.5206112568990928 49.8102089402900319 S
atom 5.0412225137981856 7.5618337706972749 49.8102089402900319 S
atom 10.0824450275963713 7.5618337706972749 49.8102089402900319 S
atom 2.5206112568990928 5.0412225137981856 45.3424500429513841 S
atom 7.5618337706972758 5.0412225137981856 44.3850555708422760 S
atom 2.5206112568990928 10.0824450275963713 44.3850555708422760 S
atom 7.5618337706972758 10.0824450275963713 45.3424500429513841 S
atom 2.5206112568990928 5.0412225137981856 49.3318962820528668 S
atom 7.5618337706972758 5.0412225137981856 50.2892907541619536 S
atom 2.5206112568990928 10.0824450275963713 50.2892907541619536 S
atom 7.5618337706972758 10.0824450275963713 49.3318962820528668 S
atom 2.5206112568990928 2.5281222413729130 52.2722273477496842 Ba
atom 7.5618337706972758 2.5131002724252713 52.2722273477496842 Ba
atom 2.5206112568990928 7.5543227862234597 52.2722273477496842 Ba
atom 7.5618337706972758 7.5693447551710991 52.2722273477496842 Ba
atom 2.5206112568990928 2.4938845656610606 57.1675130431443961 Ba
atom 7.5618337706972758 2.5473379481371250 57.1675130431443961 Ba
atom 2.5206112568990928 7.5885604619353151 57.1675130431443961 Ba
atom 7.5618337706972758 7.5351070794592374 57.1675130431443961 Ba
atom 5.0419685456938499 5.0412225137981856 54.7755259347702577 Zr
atom 10.0816989957006982 5.0412225137981856 54.7755259347702577 Zr
atom 5.0404764819025196 10.0824450275963713 54.7755259347702577 Zr
atom 10.0831910594920373 10.0824450275963713 54.7755259347702577 Zr
atom 5.0631961861868060 5.0412225137981856 59.7900619266424371 Zr
atom 10.0604713552077403 5.0412225137981856 59.7900619266424371 Zr
atom 5.0192488414095644 10.0824450275963713 59.7900619266424371 Zr
atom 10.1044186999850041 10.0824450275963713 59.7900619266424371 Zr
atom 4.5332774808874436 5.0412225137981856 52.2897922093621759 S
atom 10.5903900605071115 5.0412225137981856 52.2897922093621759 S
atom 5.5491675467089294 10.0824450275963713 52.2897922093621759 S
atom 9.5744999946856417 10.0824450275963713 52.2897922093621759 S
atom 5.5076415180701224 5.0412225137981856 57.2456495278065987 S
atom 9.6160260233244248 5.0412225137981856 57.2456495278065987 S
atom 4.5748035095262436 10.0824450275963713 57.2456495278065987 S
atom 10.5488640318683018 10.0824450275963713 57.2456495278065987 S
atom 5.0412225137981856 2.5206112568990928 54.7569175548624543 S
atom 10.0824450275963713 2.5206112568990928 54.7569175548624543 S
atom 5.0412225137981856 7.5618337706972749 54.7569175548624543 S
atom 10.0824450275963713 7.5618337706972749 54.7569175548624543 S
atom 5.0412225137981856 2.5206112568990928 59.6512291882598333 S
atom 10.0824450275963713 2.5206112568990928 59.6512291882598333 S
atom 5.0412225137981856 7.5618337706972749 59.6512291882598333 S
atom 10.0824450275963713 7.5618337706972749 59.6512291882598333 S
atom 2.5206112568990928 5.0412225137981856 55.2343618104016230 S
atom 7.5618337706972758 5.0412225137981856 54.2997232138822667 S
atom 2.5206112568990928 10.0824450275963713 54.2997232138822667 S
atom 7.5618337706972758 10.0824450275963713 55.2343618104016230 S
atom 2.5206112568990928 5.0412225137981856 59.3482033360259891 S
atom 7.5618337706972758 5.0412225137981856 60.0891757375944380 S
atom 2.5206112568990928 10.0824450275963713 60.0891757375944380 S
atom 7.5618337706972758 10.0824450275963713 59.3482033360259891 S
atom 2.5206112568990928 2.6897928438606438 61.8388395443198675 Ba
atom 7.5618337706972758 2.3514296699375437 61.8388395443198675 Ba
atom 2.5206112568990928 7.3926521837357262 61.8388395443198675 Ba
atom 7.5618337706972758 7.7310153576588334 61.8388395443198675 Ba
atom 4.7544274059631935 5.0412225137981856 62.2686497629448965 S
atom 10.3692401354313493 5.0412225137981856 62.2686497629448965 S
atom 5.3280176216331769 10.0824450275963713 62.2686497629448965 S
atom 9.7956499197614004 10.0824450275963713 62.2686497629448965 S
