#=======================================================
# FHI-aims file: sym_relax/sym_relax_RP_7_RxRyMz_-Rx-RyMz.in
# Created using the Atomic Simulation Environment (ASE)
# Mon Mar 17 15:53:18 2025
#=======================================================
lattice_vector 10.0127738460350670 -0.0673847713916181 0.0000000000000000 
lattice_vector -0.0673847713916181 10.0127738460350706 0.0000000000000000 
lattice_vector 0.0000000000000000 0.0000000000000000 75.8988589015556983 
atom 0.1321079999665960 -0.1700074808604371 0.2135065751831385 Ba
atom 5.1763944038779721 -0.1658003856624047 0.2135065751831385 Ba
atom 0.1363150951646279 4.8742789230509338 0.2135065751831385 Ba
atom 5.1048025372883261 4.8026870564612878 0.2135065751831385 Ba
atom -0.2661289295185798 0.1904443537865998 5.0033717316771709 Ba
atom 4.8159425692309403 0.2324365438227701 5.0033717316771709 Ba
atom -0.2241367394824094 5.2725158525361095 5.0033717316771709 Ba
atom 4.7065656078031548 5.1631388911083205 5.0033717316771709 Ba
atom 2.5010866138028698 2.4789400349171840 2.3951464377864746 Zr
atom 7.5001414254220826 2.4379155378230397 2.3951464377864746 Zr
atom 2.4600621167087349 7.4779948465363901 2.3951464377864746 Zr
atom 7.4737811511246033 7.4516345722389046 2.3951464377864746 Zr
atom 2.4756861587280863 2.4922320793190393 7.4481335555033965 Zr
atom 7.4868493810202237 2.4633159928978312 7.4481335555033965 Zr
atom 2.4467700723068768 7.5033953016111719 7.4481335555033965 Zr
atom 7.4483806960498136 7.4649266166407653 7.4481335555033965 Zr
atom 2.6605065589825232 2.7401639064371914 -0.1113014556299714 S
atom 7.2389175539020876 2.2784955926433939 -0.1113014556299714 S
atom 2.1988382451887198 7.3185749013567323 -0.1113014556299714 S
atom 7.6332010963042576 7.7128584437589112 -0.1113014556299714 S
atom 2.2321454219531889 2.1814912143049314 4.9550477452431059 S
atom 7.7975902460343507 2.7068567296727291 4.9550477452431059 S
atom 2.7575109373209887 7.7469360383860648 4.9550477452431059 S
atom 7.2048399592749197 7.1541857516266392 4.9550477452431059 S
atom 2.7890570595004989 -0.0146260667613967 2.2218718575562009 S
atom 7.1825827105518414 -0.0452594335417469 2.7745261753135537 S
atom 2.1425034018384816 4.9948198751715935 2.7745261753135537 S
atom 7.7617515968222319 4.9580684705603213 2.2218718575562009 S
atom 2.8928479505847391 -0.0155204399732370 7.7809671047463862 S
atom 7.1252577035016289 -0.0458833464225506 7.1565350734111348 S
atom 2.0851783947882829 4.9941959622907905 7.1565350734111348 S
atom 7.8655424879064704 4.9571740973484886 7.7809671047463862 S
atom -0.0190663189344125 2.2173298635170351 2.2218718575562009 S
atom 4.9842615851676717 2.7964987497874358 2.7745261753135537 S
atom -0.0558177235456807 7.8365780585007698 2.7745261753135537 S
atom 4.9536282183873208 7.1900244008387570 2.2218718575562009 S
atom -0.0181719457225722 2.1135389724327922 7.7809671047463862 S
atom 4.9848854980484756 2.8538237568376381 7.1565350734111348 S
atom -0.0551938106648771 7.8939030655509805 7.1565350734111348 S
atom 4.9545225915991615 7.0862335097545142 7.7809671047463862 S
atom 0.2814560495920186 -0.1820858434463415 9.9748755692134239 Ba
atom 5.1884727664638799 -0.3151484352878269 9.9748755692134239 Ba
atom 0.1483934577505329 4.7249308734255022 9.9748755692134239 Ba
atom 5.2541505869137648 4.7906086938753720 9.9748755692134239 Ba
atom -0.2826464661824202 0.1816748380000359 14.9756335489387062 Ba
atom 4.8247120850175014 0.2489540804866103 14.9756335489387062 Ba
atom -0.2153672236958457 5.2890333891999504 14.9756335489387062 Ba
atom 4.6900480711393104 5.1543693753217692 14.9756335489387062 Ba
atom 2.4901658332082039 2.4849765215319386 12.4635984901948422 Zr
atom 7.4941049388073289 2.4488363184177153 12.4635984901948422 Zr
atom 2.4540256300939798 7.4889156271310533 12.4635984901948422 Zr
atom 7.4628603705299268 7.4576710588536637 12.4635984901948422 Zr
atom 2.4863472686608650 2.4863472686608605 17.4767109312793103 Zr
atom 7.4927341916784078 2.4526548829650499 17.4767109312793103 Zr
atom 2.4526548829650583 7.4927341916783856 17.4767109312793103 Zr
atom 7.4590418059825918 7.4590418059825803 17.4767109312793103 Zr
atom 2.7512236775184569 2.8170932836909830 9.9656499674561640 S
atom 7.1619881766482827 2.1877784741074664 9.9656499674561640 S
atom 2.1219088679349341 7.2278577828208057 9.9656499674561640 S
atom 7.7239182148401762 7.7897878210127018 9.9656499674561640 S
atom 2.2185086043030418 2.1532604820238541 14.9730411963692518 S
atom 7.8258209783153925 2.7204935473228731 14.9730411963692518 S
atom 2.7857416696020669 7.7605728560362230 14.9730411963692518 S
atom 7.1912031416247624 7.1259550193455841 14.9730411963692518 S
atom 2.8859750686450769 -0.0191293757873369 12.1540745662297365 S
atom 7.1267196357157507 -0.0499173159045998 12.7945640069682778 S
atom 2.0866403270024114 4.9901619928087495 12.7945640069682778 S
atom 7.8586696059668188 4.9535651615343861 12.1540745662297365 S
atom 2.8851547452049613 -0.0183054089684503 17.7983855986966084 S
atom 7.1276191008301186 -0.0490793624231681 17.1550362638620015 S
atom 2.0875397921167704 4.9909999462901657 17.1550362638620015 S
atom 7.8578492825266810 4.9543891283532808 17.7983855986966084 S
atom -0.0145630099084723 2.1204118543724539 12.1540745662297365 S
atom 4.9889194675305193 2.8523618246235110 12.7945640069682778 S
atom -0.0511598411828277 7.8924411333368525 12.7945640069682778 S
atom 4.9581315274132587 7.0931063916941763 12.1540745662297365 S
atom -0.0153869767273589 2.1212321778125762 17.7983855986966084 S
atom 4.9880815140490968 2.8514623595091417 17.1550362638620015 S
atom -0.0519977946642594 7.8915416682224828 17.1550362638620015 S
atom 4.9573075605943631 7.0939267151343017 17.7983855986966084 S
atom 0.2826464661824203 -0.1816748380000360 19.9777883136198433 Ba
atom 5.1880617610175834 -0.3163388518782290 19.9777883136198433 Ba
atom 0.1479824523042270 4.7237404568351051 19.9777883136198433 Ba
atom 5.2553410035041566 4.7910196993216809 19.9777883136198433 Ba
atom -0.2814560495920186 0.1820858434463415 24.9785462933451470 Ba
atom 4.8243010795711916 0.2477636638962088 24.9785462933451470 Ba
atom -0.2157782291421513 5.2878429726095533 24.9785462933451470 Ba
atom 4.6912384877296924 5.1547803807680639 24.9785462933451470 Ba
atom 2.4825287041135242 2.4877180157897842 22.4898233723637198 Zr
atom 7.4913634445494912 2.4564734475123848 22.4898233723637198 Zr
atom 2.4512841358361355 7.4965527562257259 22.4898233723637198 Zr
atom 7.4552232414352604 7.4604125531115022 22.4898233723637198 Zr
atom 2.4970083785936499 2.4804624580026808 27.5052883070551744 Zr
atom 7.4986190023365973 2.4419937730322725 27.5052883070551744 Zr
atom 2.4585396936232380 7.4820730817456074 27.5052883070551744 Zr
atom 7.4697029159153807 7.4531569953244015 27.5052883070551744 Zr
atom 2.7541859330186904 2.8194340552978687 19.9803806661893120 S
atom 7.1596474050414161 2.1848162186072253 19.9803806661893120 S
atom 2.1195680963280483 7.2248955273205624 19.9803806661893120 S
atom 7.7268804703404310 7.7921285926195818 19.9803806661893120 S
atom 2.2214708598032797 2.1556012536307412 24.9877718951024086 S
atom 7.8234802067085178 2.7175312918226391 24.9877718951024086 S
atom 2.7834008979951816 7.7576106005359788 24.9877718951024086 S
atom 7.1941653971250163 7.1282957909524578 24.9877718951024086 S
atom 2.8860542103193243 -0.0174674554870186 22.1588578555902878 S
atom 7.1267987773899888 -0.0482553956042815 22.7993472963288752 S
atom 2.0867194686766499 4.9918239131090543 22.7993472963288752 S
atom 7.8587487476410649 4.9552270818347006 22.1588578555902878 S
atom 2.8875161425334461 -0.0215014249690679 27.7968867891474112 S
atom 7.1199258954503399 -0.0518643314183815 27.1724547578122149 S
atom 2.0798465867369869 4.9882149772949500 27.1724547578122149 S
atom 7.8602106798551814 4.9511931123526560 27.7968867891474112 S
atom -0.0162249302087911 2.1203327126982159 22.1588578555902878 S
atom 4.9872575472302101 2.8522826829492622 22.7993472963288752 S
atom -0.0528217614831460 7.8923619916626073 22.7993472963288752 S
atom 4.9564696071129477 7.0930272500199267 22.1588578555902878 S
atom -0.0121909607267418 2.1188707804840843 27.7968867891474112 S
atom 4.9908664830443099 2.8591555648889284 27.1724547578122149 S
atom -0.0492128256690462 7.8992348736022651 27.1724547578122149 S
atom 4.9605035765949896 7.0915653178058058 27.7968867891474112 S
atom 0.2661289295185796 -0.1904443537865997 29.9500501308814151 Ba
atom 5.1968312768041374 -0.2998213152143877 29.9500501308814151 Ba
atom 0.1567519680907910 4.7402579934989522 29.9500501308814151 Ba
atom 5.2388234668403033 4.7822501835351270 29.9500501308814151 Ba
atom -0.1321079999665960 0.1700074808604371 34.7399152873754602 Ba
atom 4.8363794421571082 0.0984156142707864 34.7399152873754673 Ba
atom -0.2036998665562464 5.1384949229841235 34.7399152873754602 Ba
atom 4.8405865373551418 5.1427020181821597 34.7399152873754602 Ba
atom 2.4716079235188610 2.4937545024045353 32.5582754247721198 Zr
atom 7.4853269579347375 2.4673942281070591 32.5582754247721198 Zr
atom 2.4452476492213777 7.5074735368203873 32.5582754247721198 Zr
atom 7.4443024608405928 7.4664490397262560 32.5582754247721198 Zr
atom 2.7405491153685477 2.7912033230167901 29.9983741173154854 S
atom 7.1878781373224605 2.1984530362573733 29.9983741173154854 S
atom 2.1477988286091261 7.2385323449707135 29.9983741173154854 S
atom 7.7132436526902657 7.7638978603385231 29.9983741173154854 S
atom 2.3121879783392139 2.2325306308845287 35.0647233181884630 S
atom 7.7465508294547369 2.6268141732867094 35.0647233181884630 S
atom 2.7064715207413905 7.6668934820000540 35.0647233181884630 S
atom 7.2848825156609394 7.2052251682062556 35.0647233181884630 S
atom 2.8301911354832527 -0.0221253378498717 32.1788956872450029 S
atom 7.2237167865345873 -0.0527587046302217 32.7315500050024255 S
atom 2.1836374778212293 4.9873206040831253 32.7315500050024255 S
atom 7.8028856728049796 4.9505691994718539 32.1788956872450029 S
atom -0.0115670478459380 2.1761957875342826 32.1788956872450029 S
atom 4.9917608562561462 2.7553646738046860 32.7315500050024255 S
atom -0.0483184524572059 7.7954439825180240 32.7315500050024255 S
atom 4.9611274894757997 7.1488903248560121 32.1788956872450029 S
atom 2.3542392686942719 2.6563547495212960 38.1629360259610095 Ba
atom 7.3227267108179692 2.5847628829316456 38.1629360259610095 Ba
atom 2.2826474021046264 7.6248421916449916 38.1629360259610095 Ba
atom 7.3269338060160010 7.6290492868430144 38.1629360259610095 Ba
atom 2.7524761981794428 2.2959029148742642 42.9528011824550902 Ba
atom 7.6831785454650037 2.1865259534464712 42.9528011824550902 Ba
atom 2.6430992367516533 7.2266052621598140 42.9528011824550902 Ba
atom 7.7251707355011776 7.2685974521959897 42.9528011824550902 Ba
atom 4.9579551921797229 4.9801017710653905 40.3445758885643500 Zr
atom 9.9716742265956153 4.9537414967679148 40.3445758885643500 Zr
atom 4.9315949178822454 9.9938208054812705 40.3445758885643500 Zr
atom 9.9306497295014395 9.9527963083871178 40.3445758885643500 Zr
atom 4.9833556472545126 4.9668097266635396 45.3975630062812883 Zr
atom 9.9849662709974734 4.9283410416931286 45.3975630062812883 Zr
atom 4.9448869622841158 9.9684203504064435 45.3975630062812883 Zr
atom 9.9560501845762666 9.9395042639852598 45.3975630062812883 Zr
atom 4.7985352470000686 4.7188778995453955 37.8381279951479641 S
atom 10.2328980981155944 5.1131614419475735 37.8381279951479641 S
atom 5.1928187894022457 10.1532407506609150 37.8381279951479641 S
atom 9.7712297843218163 9.6915724368671246 37.8381279951479641 S
atom 5.2268963840294012 5.2775505916776595 42.9044771960209133 S
atom 9.6742254059833463 4.6848003049182303 42.9044771960209133 S
atom 4.6341460972699897 9.7248796136315754 42.9044771960209133 S
atom 10.1995909213511542 10.2502451289993601 42.9044771960209133 S
atom 5.3165384041441044 2.4642219308109925 40.7239556260914171 S
atom 9.7100640551954598 2.4335885640306398 40.1713013083340655 S
atom 4.6699847464820943 7.4736678727439774 40.1713013083340655 S
atom 10.2892329414658477 7.4369164681327176 40.7239556260914171 S
atom 5.3738634111943249 2.4648458436917893 45.1059645241889342 S
atom 9.6062731641111831 2.4344829372424752 45.7303965555242655 S
atom 4.5661938553978576 7.4745622459558243 45.7303965555242655 S
atom 10.3465579485160539 7.4375403810135152 45.1059645241889342 S
atom 2.4747802208149277 4.6625430561951502 40.7239556260914171 S
atom 7.4781081249170116 5.2417119424655434 40.1713013083340655 S
atom 2.4380288162036621 10.2817912511788894 40.1713013083340655 S
atom 7.4474747581366589 9.6352375935168730 40.7239556260914171 S
atom 2.4741563079341256 4.6052180491449439 45.1059645241889342 S
atom 7.4772137517051727 5.3455028335497827 45.7303965555242655 S
atom 2.4371344429918254 10.3855821422631251 45.7303965555242655 S
atom 7.4468508452558559 9.5779125864666685 45.1059645241889342 S
atom 2.2048912190688501 2.6684331121072047 47.9243050199913370 Ba
atom 7.3106483482320659 2.7341109325570643 47.9243050199913370 Ba
atom 2.2705690395187137 7.7741902412704160 47.9243050199913370 Ba
atom 7.1775857563905836 7.6411276494289249 47.9243050199913370 Ba
atom 2.7689937348432880 2.3046724306608195 52.9250629997166442 Ba
atom 7.6744090296784560 2.1700084167826259 52.9250629997166442 Ba
atom 2.6343297209650927 7.2100877254959723 52.9250629997166442 Ba
atom 7.7416882721650246 7.2773669679825455 52.9250629997166442 Ba
atom 4.9688759727743887 4.9740652844506457 50.4130279409727109 Zr
atom 9.9777107132103495 4.9428207161732463 50.4130279409727109 Zr
atom 4.9376314044970080 9.9829000248865825 50.4130279409727109 Zr
atom 9.9415705100961311 9.9467598217723570 50.4130279409727109 Zr
atom 4.9726945373217299 4.9726945373217211 55.4261403820571559 Zr
atom 9.9790814603392732 4.9390021516259113 55.4261403820571559 Zr
atom 4.9390021516259228 9.9790814603392644 55.4261403820571559 Zr
atom 9.9453890746434599 9.9453890746434421 55.4261403820571559 Zr
atom 4.7078181284641465 4.6419485222916093 47.9150794182340576 S
atom 10.3098274753694046 5.2038785604834956 47.9150794182340576 S
atom 5.2697481666560400 10.2439578691968265 47.9150794182340576 S
atom 9.6805126657858658 9.6146430596133303 47.9150794182340576 S
atom 5.2405332016795594 5.3057813239587208 52.9224706471471080 S
atom 9.6459946737022744 4.6711634872680809 52.9224706471471080 S
atom 4.6059153649889160 9.7112427959814323 52.9224706471471080 S
atom 10.2132277390012636 10.2784758612804410 52.9224706471471080 S
atom 5.3724014789802004 2.4688798131738436 50.7439934577461216 S
atom 9.6131460460508773 2.4380918730565821 50.1035040170075945 S
atom 4.5730667373375145 7.4781711817699170 50.1035040170075945 S
atom 10.3450960163019179 7.4415743504955509 50.7439934577461216 S
atom 5.3715020138658227 2.4680418596924065 55.1044657146398578 S
atom 9.6139663694909725 2.4372679062376936 55.7478150494744682 S
atom 4.5738870607776372 7.4773472149510347 55.7478150494744682 S
atom 10.3441965511875598 7.4407363970141400 55.1044657146398578 S
atom 2.4701223384520734 4.6066799813590738 50.7439934577461216 S
atom 7.4736048158910675 5.3386299516101285 50.1035040170075945 S
atom 2.4335255071777215 10.3787092603234488 50.1035040170075945 S
atom 7.4428168757738158 9.5793745186808099 50.7439934577461216 S
atom 2.4709602919335074 4.6075794464734523 55.1044657146398578 S
atom 7.4744287827099676 5.3378096281699943 55.7478150494744682 S
atom 2.4343494739966030 10.3778889368833607 55.7478150494744682 S
atom 7.4436548292552400 9.5802739837951556 55.1044657146398578 S
atom 2.2037008024784406 2.6680221066608976 57.9272177643977670 Ba
atom 7.3110593536783623 2.7353013491474751 57.9272177643977670 Ba
atom 2.2709800449650199 7.7753806578608167 57.9272177643977670 Ba
atom 7.1763953398001759 7.6407166439826266 57.9272177643977670 Ba
atom 2.7678033182528838 2.3042614252145155 62.9279757441230814 Ba
atom 7.6748200351247586 2.1711988333730341 62.9279757441230814 Ba
atom 2.6347407264114016 7.2112781420863596 62.9279757441230814 Ba
atom 7.7404978555746240 7.2769559625362410 62.9279757441230814 Ba
atom 4.9765131018690667 4.9713237901928062 60.4392528231415866 Zr
atom 9.9804522074681756 4.9351835870785736 60.4392528231415866 Zr
atom 4.9403728987548314 9.9752628957919374 60.4392528231415866 Zr
atom 9.9492076391908064 9.9440183275145362 60.4392528231415866 Zr
atom 4.9620334273889402 4.9785793479799061 65.4547177578331656 Zr
atom 9.9731966496810607 4.9496632615586948 65.4547177578331656 Zr
atom 4.9331173409677440 9.9897425702720621 65.4547177578331656 Zr
atom 9.9347279647106390 9.9512738853016351 65.4547177578331656 Zr
atom 4.7048558729638978 4.6396077506847222 57.9298101169672535 S
atom 10.3121682469762668 5.2068408159837452 57.9298101169672535 S
atom 5.2720889382629235 10.2469201246970609 57.9298101169672535 S
atom 9.6775504102856473 9.6123022880064397 57.9298101169672535 S
atom 5.2375709461793178 5.3034405523518355 62.9372013458803465 S
atom 9.6483354453091330 4.6741257427683314 62.9372013458803465 S
atom 4.6082561365957995 9.7142050514816880 62.9372013458803465 S
atom 10.2102654835010327 10.2761350896735753 62.9372013458803465 S
atom 5.3723223373059428 2.4672178928735238 60.7487767471067386 S
atom 9.6130669043766286 2.4364299527562601 60.1082873063681262 S
atom 4.5729875956632711 7.4765092614696123 60.1082873063681262 S
atom 10.3450168746276603 7.4399124301952462 60.7487767471067386 S
atom 5.3791952192456050 2.4708268286876311 65.1218842085900178 S
atom 9.6116049721624908 2.4404639222383113 65.7463162399252496 S
atom 4.5715256634491483 7.4805432309516471 65.7463162399252496 S
atom 10.3518897565673509 7.4435213660093469 65.1218842085900178 S
atom 2.4717842587523915 4.6067591230333118 60.7487767471067386 S
atom 7.4752667361913829 5.3387090932843728 60.1082873063681262 S
atom 2.4351874274780361 10.3787884019977046 60.1082873063681262 S
atom 7.4444787960741232 9.5794536603550640 60.7487767471067386 S
atom 2.4681753229382886 4.5998862410936612 65.1218842085900178 S
atom 7.4712327667093428 5.3401710254984893 65.7463162399252496 S
atom 2.4311534579959857 10.3802503342118442 65.7463162399252496 S
atom 7.4408698602600367 9.5725807784153769 65.1218842085900178 S
atom 2.2202183391422854 2.6767916224474551 67.8994795816593637 Ba
atom 7.3022898378918111 2.7187838124836299 67.8994795816593637 Ba
atom 2.2622105291784540 7.7588631211969652 67.8994795816593637 Ba
atom 7.1929128764640176 7.6494861597691850 67.8994795816593637 Ba
atom 2.6184552686274696 2.3163397878004246 72.6893447381531814 Ba
atom 7.6627416725388464 2.3205468829984537 72.6893447381531814 Ba
atom 2.6226623638254911 7.3606261917118010 72.6893447381531814 Ba
atom 7.5911498059491933 7.2890343251221408 72.6893447381531814 Ba
atom 4.9874338824637361 4.9652873035780516 70.5077048755499334 Zr
atom 9.9864886940829365 4.9242628064839122 70.5077048755499334 Zr
atom 4.9464093853695958 9.9643421151972369 70.5077048755499334 Zr
atom 9.9601284197854820 9.9379818408997913 70.5077048755499334 Zr
atom 4.7184926906140587 4.6678384829657817 67.9478035680932493 S
atom 10.2839375146952090 5.1932039983335860 67.9478035680932493 S
atom 5.2438582059818684 10.2332833070469356 67.9478035680932493 S
atom 9.6911872279357834 9.6405330202875241 67.9478035680932493 S
atom 5.1468538276433948 5.2265111750980475 73.0141527689664116 S
atom 9.7252648225629450 4.7648428613042517 73.0141527689664116 S
atom 4.6851855138495990 9.8049221700175906 73.0141527689664116 S
atom 10.1195483649651319 10.1992057124197686 73.0141527689664116 S
atom 5.2754043281613594 2.4717212018994665 70.6809794557802320 S
atom 9.6689299792127201 2.4410878351191125 70.1283251380229871 S
atom 4.6288506704993573 7.4811671438324510 70.1283251380229871 S
atom 10.2480988654830742 7.4444157392211761 70.6809794557802320 S
atom 2.4672809497264554 4.7036771321779014 70.6809794557802320 S
atom 7.4706088538285460 5.2828460184482875 70.1283251380229871 S
atom 2.4305295451151827 10.3229253271616503 70.1283251380229871 S
atom 7.4399754870481933 9.6763716694996340 70.6809794557802320 S
