#=======================================================
# FHI-aims file: sym_relax/sym_relax_RP_8_RxRyMz_-Rx-Ry0.in
# Created using the Atomic Simulation Environment (ASE)
# Mon Mar 17 16:25:01 2025
#=======================================================
lattice_vector 10.0075915735428715 -0.0742358632980426 0.0000000000000000 
lattice_vector -0.0742358632980422 10.0075915735428751 0.0000000000000000 
lattice_vector -0.0000000000000000 0.0000000000000000 86.0018503493949424 
atom 0.1016885802330234 -0.1834095953357920 0.2157354339126749 Ba
atom 5.1872053821072273 -0.1388065118820451 0.2157354339126749 Ba
atom 0.1462916636867717 4.9021072065383962 0.2157354339126749 Ba
atom 5.0683664353554505 4.7832682597865936 0.2157354339126749 Ba
atom -0.2680038712768311 0.1868223295772808 5.0091329496073298 Ba
atom 4.8169734571941776 0.2308859396278085 5.0091329496073298 Ba
atom -0.2239402612263028 5.2717996580482556 5.0091329496073298 Ba
atom 4.6986739838455902 5.1535001846996797 5.0091329496073298 Ba
atom 2.4853453172232349 2.4717349095387888 2.4037507756896899 Zr
atom 7.4987387323550623 2.4442146062501586 2.4037507756896899 Zr
atom 2.4578250139346123 7.4851283246706037 2.4037507756896899 Zr
atom 7.4520231723456671 7.4384127646611891 2.4037507756896899 Zr
atom 2.4749303627968180 2.4875521114850065 7.4613051318560935 Zr
atom 7.4829215304088450 2.4546295606765773 7.4613051318560935 Zr
atom 2.4420078119883875 7.4955432790970180 7.4613051318560935 Zr
atom 7.4416082179192493 7.4542299666074019 7.4613051318560935 Zr
atom 2.6083384276525230 2.6916223269433526 -0.1037161501623421 S
atom 7.2788513149505158 2.3212214958208692 -0.1037161501623420 S
atom 2.2379375965300494 7.3621352142413183 -0.1037161501623420 S
atom 7.5750162827749419 7.6583001820657515 -0.1037161501623420 S
atom 2.2358440594172926 2.1876332151709765 4.9670327752640695 S
atom 7.7828404267228866 2.6937158640561045 4.9670327752640695 S
atom 2.7419267083024272 7.7346295824765523 4.9670327752640695 S
atom 7.2025219145397257 7.1543110702933941 4.9670327752640695 S
atom 2.8062304282298061 -0.0149402344433144 2.2497367721803760 S
atom 7.1790555747940870 -0.0493523261303327 2.7581291469698672 S
atom 2.1381418563736263 4.9915613922901176 2.7581291469698672 S
atom 7.7729082833522325 4.9517376206790855 2.2497367721803760 S
atom 2.8985281151420925 -0.0183660555765883 7.7905044922910083 S
atom 7.1164294052064667 -0.0525543292011448 7.1737086070101146 S
atom 2.0755156867860061 4.9883593892192906 7.1737086070101146 S
atom 7.8652059702645074 4.9483117995458112 7.7905044922910083 S
atom -0.0221776972057066 2.1975653585416381 2.2497367721803760 S
atom 4.9789122496037335 2.7914180670997522 2.7581291469698672 S
atom -0.0620014688167329 7.8323317855202035 2.7581291469698672 S
atom 4.9445001579167238 7.1642432136640473 2.2497367721803760 S
atom -0.0187518760724328 2.1052676716293517 7.7905044922910083 S
atom 4.9821142526745410 2.8540442366873879 7.1737086070101146 S
atom -0.0587994657459208 7.8949579551078344 7.1737086070101146 S
atom 4.9479259790499928 7.0719455267517519 7.7905044922910083 S
atom 0.2852832962302889 -0.1840079315331931 9.9889903500173034 Ba
atom 5.1878037183046457 -0.3224012278793100 9.9889903500173034 Ba
atom 0.1468899998841722 4.7185124905411362 9.9889903500173034 Ba
atom 5.2519611513527122 4.7826699235891983 9.9889903500173034 Ba
atom -0.2843765923127796 0.1812163664459089 14.9933857788797571 Ba
atom 4.8225794203255363 0.2472586606637554 14.9933857788797571 Ba
atom -0.2183342980949309 5.2881723790842026 14.9933857788797571 Ba
atom 4.6823012628096654 5.1478942215683077 14.9933857788797571 Ba
atom 2.4885619100131970 2.4806673011581966 12.4789777602805003 Zr
atom 7.4898063407356634 2.4409980134601947 12.4789777602805003 Zr
atom 2.4488926223151899 7.4819117318806301 12.4789777602805003 Zr
atom 7.4552397651356230 7.4473451562806048 12.4789777602805003 Zr
atom 2.4832159326753627 2.4828008849797811 17.4936580267200057 Zr
atom 7.4876727569140913 2.4463439907980375 17.4936580267200057 Zr
atom 2.4467590384936142 7.4872577092184756 17.4936580267200057 Zr
atom 7.4498937877977713 7.4494787401021849 17.4936580267200057 Zr
atom 2.7469591836808771 2.8095586005252025 9.9807185874582487 S
atom 7.1609150413686526 2.1826007397925071 9.9807185874582487 S
atom 2.1200013229481893 7.2235144582129562 9.9807185874582487 S
atom 7.7136370388033084 7.7762364556476058 9.9807185874582487 S
atom 2.2181359326645129 2.1513959355619119 14.9907875666152091 S
atom 7.8190777063319459 2.7114239908088726 14.9907875666152091 S
atom 2.7781639879114768 7.7523377092293213 14.9907875666152091 S
atom 7.1848137877869291 7.1180737906843206 14.9907875666152091 S
atom 2.8899755840846018 -0.0219979704684856 12.1722580999457826 S
atom 7.1204301272558830 -0.0564997054040624 12.8101225517485027 S
atom 2.0795164088354099 4.9844140130163810 12.8101225517485027 S
atom 7.8566534392070251 4.9446798846539135 12.1722580999457826 S
atom 2.8883532281910935 -0.0204980230512964 17.8179384949336068 S
atom 7.1209649959056573 -0.0550038610412377 17.1758131684292827 S
atom 2.0800512774851936 4.9859098573792053 17.1758131684292827 S
atom 7.8550310833135182 4.9461798320711079 17.8179384949336068 S
atom -0.0151199611805355 2.1138202026868451 12.1722580999457826 S
atom 4.9860596288774692 2.8500435146379695 12.8101225517485027 S
atom -0.0548540895430032 7.8909572330584004 12.8101225517485027 S
atom 4.9515578939418834 7.0804980578092493 12.1722580999457826 S
atom -0.0166199085977247 2.1154425585803494 17.8179384949336068 S
atom 4.9845637845146520 2.8495086459881902 17.1758131684292827 S
atom -0.0563499339058280 7.8904223644086473 17.1758131684292827 S
atom 4.9500579465246846 7.0821204137027562 17.8179384949336068 S
atom 0.2866948351827062 -0.1827484255807101 20.0004303138127710 Ba
atom 5.1865442123521435 -0.3238127668317273 20.0004303138127710 Ba
atom 0.1456304939316901 4.7171009515887157 20.0004303138127710 Ba
atom 5.2533726903051381 4.7839294295416970 20.0004303138127710 Ba
atom -0.2843765923127796 0.1812163664459089 25.0074748487458294 Ba
atom 4.8225794203255363 0.2472586606637554 25.0074748487458294 Ba
atom -0.2183342980949310 5.2881723790842026 25.0074748487458294 Ba
atom 4.6823012628096654 5.1478942215683077 25.0074748487458294 Ba
atom 2.4832159326753627 2.4828008849797811 22.5072026009056394 Zr
atom 7.4876727569140913 2.4463439907980375 22.5072026009056394 Zr
atom 2.4467590384936142 7.4872577092184756 22.5072026009056394 Zr
atom 7.4498937877977713 7.4494787401021849 22.5072026009056394 Zr
atom 2.4885619100131970 2.4806673011581966 27.5218828673451021 Zr
atom 7.4898063407356634 2.4409980134601947 27.5218828673451021 Zr
atom 2.4488926223151899 7.4819117318806301 27.5218828673451021 Zr
atom 7.4552397651356230 7.4473451562806048 27.5218828673451021 Zr
atom 2.7511128177009319 2.8143843156297135 20.0004303138127710 S
atom 7.1560893262641470 2.1784471057724626 20.0004303138127710 S
atom 2.1151756078436739 7.2193608241928926 20.0004303138127710 S
atom 7.7177906728233623 7.7810621707521177 20.0004303138127710 S
atom 2.2181359326645129 2.1513959355619119 25.0100730610103987 S
atom 7.8190777063319459 2.7114239908088726 25.0100730610103987 S
atom 2.7781639879114768 7.7523377092293213 25.0100730610103987 S
atom 7.1848137877869291 7.1180737906843206 25.0100730610103987 S
atom 2.8883532281910935 -0.0204980230512964 22.1829221326920312 S
atom 7.1209649959056573 -0.0550038610412377 22.8250474591962842 S
atom 2.0800512774851936 4.9859098573792053 22.8250474591962842 S
atom 7.8550310833135182 4.9461798320711079 22.1829221326920312 S
atom 2.8899755840846018 -0.0219979704684856 27.8286025276798057 S
atom 7.1204301272558830 -0.0564997054040624 27.1907380758771176 S
atom 2.0795164088354099 4.9844140130163810 27.1907380758771176 S
atom 7.8566534392070251 4.9446798846539135 27.8286025276798057 S
atom -0.0166199085977247 2.1154425585803494 22.1829221326920312 S
atom 4.9845637845146520 2.8495086459881902 22.8250474591962842 S
atom -0.0563499339058280 7.8904223644086473 22.8250474591962842 S
atom 4.9500579465246846 7.0821204137027562 22.1829221326920312 S
atom -0.0151199611805355 2.1138202026868451 27.8286025276798057 S
atom 4.9860596288774692 2.8500435146379695 27.1907380758771176 S
atom -0.0548540895430032 7.8909572330584004 27.1907380758771176 S
atom 4.9515578939418834 7.0804980578092493 27.8286025276798057 S
atom 0.2852832962302889 -0.1840079315331931 30.0118702776082884 Ba
atom 5.1878037183046457 -0.3224012278793100 30.0118702776082884 Ba
atom 0.1468899998841723 4.7185124905411362 30.0118702776082884 Ba
atom 5.2519611513527131 4.7826699235891983 30.0118702776082884 Ba
atom -0.2680038712768311 0.1868223295772808 34.9917276780182291 Ba
atom 4.8169734571941776 0.2308859396278085 34.9917276780182291 Ba
atom -0.2239402612263028 5.2717996580482556 34.9917276780182291 Ba
atom 4.6986739838455902 5.1535001846996797 34.9917276780182291 Ba
atom 2.4749303627968180 2.4875521114850065 32.5395554957694841 Zr
atom 7.4829215304088450 2.4546295606765773 32.5395554957694841 Zr
atom 2.4420078119883875 7.4955432790970180 32.5395554957694841 Zr
atom 7.4416082179192493 7.4542299666074019 32.5395554957694841 Zr
atom 2.4853453172232349 2.4717349095387888 37.5971098519358549 Zr
atom 7.4987387323550623 2.4442146062501586 37.5971098519358549 Zr
atom 2.4578250139346123 7.4851283246706037 37.5971098519358549 Zr
atom 7.4520231723456671 7.4384127646611891 37.5971098519358549 Zr
atom 2.7469591836808771 2.8095586005252025 30.0201420401673218 S
atom 7.1609150413686526 2.1826007397925071 30.0201420401673218 S
atom 2.1200013229481893 7.2235144582129562 30.0201420401673218 S
atom 7.7136370388033084 7.7762364556476058 30.0201420401673218 S
atom 2.2358440594172926 2.1876332151709765 35.0338278523615472 S
atom 7.7828404267228866 2.6937158640561045 35.0338278523615472 S
atom 2.7419267083024272 7.7346295824765523 35.0338278523615472 S
atom 7.2025219145397257 7.1543110702933941 35.0338278523615472 S
atom 2.8985281151420925 -0.0183660555765883 32.2103561353346279 S
atom 7.1164294052064667 -0.0525543292011448 32.8271520206155216 S
atom 2.0755156867860061 4.9883593892192906 32.8271520206155216 S
atom 7.8652059702645074 4.9483117995458112 32.2103561353346279 S
atom 2.8062304282298061 -0.0149402344433144 37.7511238554452504 S
atom 7.1790555747940870 -0.0493523261303327 37.2427314806557135 S
atom 2.1381418563736263 4.9915613922901176 37.2427314806557135 S
atom 7.7729082833522325 4.9517376206790855 37.7511238554452504 S
atom -0.0187518760724328 2.1052676716293508 32.2103561353346279 S
atom 4.9821142526745410 2.8540442366873879 32.8271520206155216 S
atom -0.0587994657459208 7.8949579551078344 32.8271520206155216 S
atom 4.9479259790499928 7.0719455267517519 32.2103561353346279 S
atom -0.0221776972057066 2.1975653585416381 37.7511238554452504 S
atom 4.9789122496037335 2.7914180670997522 37.2427314806557135 S
atom -0.0620014688167329 7.8323317855202035 37.2427314806557135 S
atom 4.9445001579167238 7.1642432136640473 37.7511238554452504 S
atom 0.1016885802330235 -0.1834095953357919 39.7851251937129717 Ba
atom 5.1872053821072273 -0.1388065118820451 39.7851251937129717 Ba
atom 0.1462916636867717 4.9021072065383970 39.7851251937129717 Ba
atom 5.0683664353554505 4.7832682597865936 39.7851251937129717 Ba
atom 2.6083384276525230 2.6916223269433526 40.1045767777878979 S
atom 7.2788513149505158 2.3212214958208692 40.1045767777878979 S
atom 2.2379375965300494 7.3621352142413183 40.1045767777878979 S
atom 7.5750162827749419 7.6583001820657515 40.1045767777878979 S
atom 2.6668381986355505 2.3815667733401691 43.2166284899788593 Ba
atom 7.5889068685536962 2.2627217248378408 43.2166284899788593 Ba
atom 2.5479931501332369 7.3036354432582922 43.2166284899788593 Ba
atom 7.6335160537579849 7.3482446284625791 43.2166284899788593 Ba
atom 2.2966503062329444 2.7512171185569949 48.0100112372382171 Ba
atom 7.2192565233368606 2.6329096172404456 48.0100112372382171 Ba
atom 2.1783428049163915 7.6738233356608996 48.0100112372382171 Ba
atom 7.2633281613553651 7.7178949736793996 48.0100112372382171 Ba
atom 4.9783636921246321 4.9645972105590612 45.4046567673735098 Zr
atom 9.9725542864572070 4.9178740864711745 45.4046567673735098 Zr
atom 4.9316405680367525 9.9587878048916121 45.4046567673735098 Zr
atom 9.9450415472470510 9.9312750656814845 45.4046567673735098 Zr
atom 4.9626170777360938 4.9749201853300171 50.4621892352165844 Zr
atom 9.9622313116862458 4.9336207008596995 50.4621892352165844 Zr
atom 4.9213175932657904 9.9745344192801255 50.4621892352165844 Zr
atom 9.9292949328585394 9.9415980404524138 50.4621892352165844 Zr
atom 4.7584686969128018 4.8415908146197131 42.8971871346503235 S
atom 10.0955606823965649 5.1377690816829880 42.8971871346503235 S
atom 5.0546469639761025 10.1786828001034362 42.8971871346503235 S
atom 9.7251465520352198 9.8082686697421035 42.8971871346503235 S
atom 5.2625334337592351 5.2140510574959373 47.9679210566573175 S
atom 9.7231004395202909 4.6337043448365502 47.9679210566573175 S
atom 4.6821867210998471 9.6746180632569985 47.9679210566573175 S
atom 10.2292112888816842 10.1807289126183296 47.9679210566573175 S
atom 4.6586984850236766 2.4710060488251879 45.7590477401515372 S
atom 10.2934743076520103 2.4311916114256249 45.2506195719661832 S
atom 5.2525605892315390 7.4721053298460616 45.2506195719661832 S
atom 9.6253763401461043 7.4376839039475975 45.7590477401515372 S
atom 4.5961342474425519 2.4677518497450843 50.1745544198268760 S
atom 10.3858154210958187 2.4277036731339692 50.7913929559197470 S
atom 5.3449017026753394 7.4686173915544192 50.7913929559197470 S
atom 9.5628121025650028 7.4344297048674841 50.1745544198268760 S
atom 2.4585538746482078 5.3117751568701701 45.7590477401515372 S
atom 7.4650461671701942 4.6436771893642943 45.2506195719661832 S
atom 2.4241324487497224 9.6845909077847399 45.2506195719661832 S
atom 7.4252317297706174 10.2784530119925481 45.7590477401515372 S
atom 2.4618080737283012 5.3743393944512947 50.1745544198268760 S
atom 7.4685341054618384 4.5513360759204744 50.7913929559197470 S
atom 2.4276203870413777 9.5922497943409066 50.7913929559197470 S
atom 7.4284859288507414 10.3410172495736852 50.1745544198268760 S
atom 2.6674502490853960 2.1978947706473448 52.9898770710840736 Ba
atom 7.7725788712465134 2.2621096743879878 52.9898770710840736 Ba
atom 2.7316651528260478 7.3030233928084254 52.9898770710840736 Ba
atom 7.6341281042078322 7.1645726257697442 52.9898770710840736 Ba
atom 2.3022600201734109 2.7675617922532525 57.9942828576423395 Ba
atom 7.2029118496406088 2.6272999032999791 57.9942828576423395 Ba
atom 2.1619981312201397 7.6682136217204295 57.9942828576423395 Ba
atom 7.2689378752958378 7.7342396473756647 57.9942828576423395 Ba
atom 4.9694482944284495 4.9613474062614724 55.4798643266737912 Zr
atom 9.9758040907548189 4.9267894841673492 55.4798643266737912 Zr
atom 4.9348903723343396 9.9677032025877903 55.4798643266737912 Zr
atom 9.9361261495508835 9.9280252613838620 55.4798643266737912 Zr
atom 4.9673714106368889 4.9666565610888229 60.4945583001398148 Zr
atom 9.9704949359274710 4.9288663679589275 60.4945583001398148 Zr
atom 4.9295812175069873 9.9697800863793766 60.4945583001398148 Zr
atom 9.9340492657593167 9.9333344162112169 60.4945583001398148 Zr
atom 4.6405809527438757 4.7029191893172246 52.9816002077770705 S
atom 10.2342323076990844 5.2556568258519212 52.9816002077770705 S
atom 5.1933185892785847 10.2965705442723827 52.9816002077770705 S
atom 9.6072588078662982 9.6695970444396284 52.9816002077770705 S
atom 5.2987491933487512 5.2317277261009467 57.9916772463742802 S
atom 9.7054237709153153 4.5974885852470626 57.9916772463742802 S
atom 4.6645100524948440 9.6384023036674922 57.9916772463742802 S
atom 10.2654270484711851 10.1984055812233407 57.9916772463742802 S
atom 4.6000972797615240 2.4638365647015155 55.8110062136300868 S
atom 10.3772294350397445 2.4241029499831734 55.1731513458675238 S
atom 5.3363157166192625 7.4650166684036066 55.1731513458675238 S
atom 9.5667751348839580 7.4305144198239201 55.8110062136300868 S
atom 4.6006373713491060 2.4652931693993878 60.1767536943119694 S
atom 10.3756836732154927 2.4255655808720560 60.8187967433591865 S
atom 5.3347699547950196 7.4664792992925140 60.8187967433591865 S
atom 9.5673152264715196 7.4319710245217907 60.1767536943119694 S
atom 2.4657233587718719 5.3703763621323306 55.8110062136300868 S
atom 7.4721348286126510 4.5599220619765459 55.1731513458675238 S
atom 2.4312211101921783 9.6008357803969631 55.1731513458675238 S
atom 7.4324012138942965 10.3370542172547530 55.8110062136300868 S
atom 2.4642667540740009 5.3698362705447451 60.1767536943119694 S
atom 7.4706721977237578 4.5614678238007835 60.8187967433591865 S
atom 2.4297584793032874 9.6023815422212504 60.8187967433591865 S
atom 7.4309446091964331 10.3365141256671595 60.1767536943119694 S
atom 2.6662549011518575 2.1965091673673758 63.0013554885103062 Ba
atom 7.7739644745264940 2.2633050223215285 63.0013554885103062 Ba
atom 2.7330507561060178 7.3042187407419759 63.0013554885103062 Ba
atom 7.6329327562742932 7.1631870224897831 63.0013554885103062 Ba
atom 2.3022600201734109 2.7675617922532525 68.0084281193782942 Ba
atom 7.2029118496406088 2.6272999032999791 68.0084281193782942 Ba
atom 2.1619981312201397 7.6682136217204295 68.0084281193782942 Ba
atom 7.2689378752958378 7.7342396473756647 68.0084281193782942 Ba
atom 4.9673714106368889 4.9666565610888229 65.5081526768810818 Zr
atom 9.9704949359274710 4.9288663679589275 65.5081526768810818 Zr
atom 4.9295812175069873 9.9697800863793766 65.5081526768810818 Zr
atom 9.9340492657593167 9.9333344162112169 65.5081526768810818 Zr
atom 4.9694482944284495 4.9613474062614724 70.5228466503468354 Zr
atom 9.9758040907548189 4.9267894841673492 70.5228466503468354 Zr
atom 4.9348903723343396 9.9677032025877903 70.5228466503468354 Zr
atom 9.9361261495508835 9.9280252613838620 70.5228466503468354 Zr
atom 4.6358589788709494 4.6987689687169496 63.0013554885103062 S
atom 10.2383825282993026 5.2603787997248483 63.0013554885103062 S
atom 5.1974688098788526 10.3012925181453046 63.0013554885103062 S
atom 9.6025368339934012 9.6654468238393640 63.0013554885103062 S
atom 5.2987491933487512 5.2317277261009467 68.0110337306463890 S
atom 9.7054237709153153 4.5974885852470626 68.0110337306463890 S
atom 4.6645100524948440 9.6384023036674922 68.0110337306463890 S
atom 10.2654270484711851 10.1984055812233407 68.0110337306463890 S
atom 4.6006373713491060 2.4652931693993878 65.8259572827084156 S
atom 10.3756836732154927 2.4255655808720560 65.1839142336615680 S
atom 5.3347699547950196 7.4664792992925140 65.1839142336615680 S
atom 9.5673152264715196 7.4319710245217907 65.8259572827084156 S
atom 4.6000972797615240 2.4638365647015155 70.1917047633907032 S
atom 10.3772294350397445 2.4241029499831734 70.8295596311533444 S
atom 5.3363157166192625 7.4650166684036066 70.8295596311533444 S
atom 9.5667751348839580 7.4305144198239201 70.1917047633907032 S
atom 2.4642667540740009 5.3698362705447451 65.8259572827084156 S
atom 7.4706721977237578 4.5614678238007835 65.1839142336615680 S
atom 2.4297584793032874 9.6023815422212504 65.1839142336615680 S
atom 7.4309446091964331 10.3365141256671595 65.8259572827084156 S
atom 2.4657233587718719 5.3703763621323306 70.1917047633907032 S
atom 7.4721348286126510 4.5599220619765459 70.8295596311533444 S
atom 2.4312211101921783 9.6008357803969631 70.8295596311533444 S
atom 7.4324012138942965 10.3370542172547530 70.1917047633907032 S
atom 2.6674502490853960 2.1978947706473448 73.0128339059364038 Ba
atom 7.7725788712465134 2.2621096743879878 73.0128339059364038 Ba
atom 2.7316651528260478 7.3030233928084254 73.0128339059364038 Ba
atom 7.6341281042078322 7.1645726257697442 73.0128339059364038 Ba
atom 2.2966503062329444 2.7512171185569949 77.9926997397824522 Ba
atom 7.2192565233368606 2.6329096172404456 77.9926997397824522 Ba
atom 2.1783428049163915 7.6738233356608996 77.9926997397824522 Ba
atom 7.2633281613553651 7.7178949736793996 77.9926997397824522 Ba
atom 4.9626170777360938 4.9749201853300171 75.5405217418041985 Zr
atom 9.9622313116862458 4.9336207008596995 75.5405217418041985 Zr
atom 4.9213175932657904 9.9745344192801255 75.5405217418041985 Zr
atom 9.9292949328585394 9.9415980404524138 75.5405217418041985 Zr
atom 4.9783636921246321 4.9645972105590612 80.5980542096471453 Zr
atom 9.9725542864572034 4.9178740864711745 80.5980542096471453 Zr
atom 4.9316405680367525 9.9587878048916121 80.5980542096471453 Zr
atom 9.9450415472470510 9.9312750656814845 80.5980542096471453 Zr
atom 4.6405809527438757 4.7029191893172246 73.0211107692434780 S
atom 10.2342323076990844 5.2556568258519212 73.0211107692434780 S
atom 5.1933185892785847 10.2965705442723827 73.0211107692434780 S
atom 9.6072588078662982 9.6695970444396284 73.0211107692434780 S
atom 5.2625334337592351 5.2140510574959373 78.0347899203632664 S
atom 9.7231004395202909 4.6337043448365502 78.0347899203632664 S
atom 4.6821867210998471 9.6746180632569985 78.0347899203632664 S
atom 10.2292112888816842 10.1807289126183296 78.0347899203632664 S
atom 4.5961342474425519 2.4677518497450843 75.8281565571937222 S
atom 10.3858154210958187 2.4277036731339692 75.2113180211010928 S
atom 5.3449017026753394 7.4686173915544192 75.2113180211010928 S
atom 9.5628121025650028 7.4344297048674841 75.8281565571937222 S
atom 4.6586984850236766 2.4710060488251879 80.2436632368692244 S
atom 10.2934743076520103 2.4311916114256249 80.7520914050544150 S
atom 5.2525605892315408 7.4721053298460616 80.7520914050544150 S
atom 9.6253763401461043 7.4376839039475975 80.2436632368692244 S
atom 2.4618080737283012 5.3743393944512947 75.8281565571937222 S
atom 7.4685341054618384 4.5513360759204744 75.2113180211010928 S
atom 2.4276203870413777 9.5922497943409066 75.2113180211010928 S
atom 7.4284859288507414 10.3410172495736852 75.8281565571937222 S
atom 2.4585538746482078 5.3117751568701701 80.2436632368692244 S
atom 7.4650461671701951 4.6436771893642943 80.7520914050544150 S
atom 2.4241324487497224 9.6845909077847399 80.7520914050544150 S
atom 7.4252317297706174 10.2784530119925481 80.2436632368692244 S
atom 2.6668381986355505 2.3815667733401691 82.7860824870417957 Ba
atom 7.5889068685536962 2.2627217248378408 82.7860824870417957 Ba
atom 2.5479931501332369 7.3036354432582922 82.7860824870417957 Ba
atom 7.6335160537579849 7.3482446284625791 82.7860824870417957 Ba
atom 4.7584686969128018 4.8415908146197131 83.1055238423704736 S
atom 10.0955606823965649 5.1377690816829880 83.1055238423704736 S
atom 5.0546469639761025 10.1786828001034362 83.1055238423704736 S
atom 9.7251465520352198 9.8082686697421035 83.1055238423704736 S
