#=======================================================
# FHI-aims file: sym_relax/sym_relax_RP_7_Rx0Rz_0-RyRz.in
# Created using the Atomic Simulation Environment (ASE)
# Mon Mar 17 15:47:19 2025
#=======================================================
lattice_vector 9.8999549721891142 0.0002640185756262 -0.0004004479483765 
lattice_vector 0.0002640185756262 9.8999549721890716 -0.0004004479483764 
lattice_vector 0.0023803589050990 0.0023803589050978 77.3835353087284687 
atom 0.0234419059691088 -0.0143971914925047 0.1615738144303185 Ba
atom 4.9645876503328301 -0.0225284483766957 0.1613769099689594 Ba
atom 0.0147421735260834 4.9273170284300418 0.1613769099689597 Ba
atom 4.9735514013514885 4.9357123038898649 0.1611733664819420 Ba
atom -0.0091419213438860 -0.0067355940852827 5.0699965594213507 Ba
atom 4.9569832895398411 0.0087970634772151 5.0697902825280181 Ba
atom 0.0071378127330878 4.9586425402839556 5.0697902825280199 Ba
atom 4.9409675740385106 4.9433739012970763 5.0695961114729782 Ba
atom 2.4803327366130814 2.4674625989922334 2.4392481927940093 Zr
atom 7.4326731972983060 2.4700756878430754 2.4390535129094175 Zr
atom 2.4828277204915645 7.4199211646497893 2.4390535129094193 Zr
atom 7.4304422319954702 7.4175720943746049 2.4388477448456354 Zr
atom 2.4767168089980158 2.4745892593414576 7.5810051747997127 Zr
atom 7.4257631977200544 2.4737237556013714 7.5808050536508222 Zr
atom 2.4759177209133107 7.4235692324081155 7.5808050536508222 Zr
atom 7.4268263043804028 7.4246987547238152 7.5806047268513348 Zr
atom 2.4597319416210226 2.4554631896122312 -0.1040595540953421 S
atom 7.4433334126673891 2.4910930083853846 -0.1042650388175958 S
atom 2.4934879358606352 7.4409384851921230 -0.1042650388175957 S
atom 7.4098414370033998 7.4055726849945920 -0.1044600020437185 S
atom 2.4960389500843050 2.4890720483463649 5.0435727940764910 S
atom 7.4121046746555290 2.4534874617777107 5.0433742667760084 S
atom 2.4622591978487760 7.4033329385844517 5.0433742667760084 S
atom 7.4461484454666920 7.4391815437287407 5.0431723461281104 S
atom 2.0483118828605011 -0.0046624290599009 2.5531781975353351 S
atom 7.8574403140245312 -0.0045614829408573 2.5135607640366944 S
atom 2.9075948372177636 4.9452839938658961 2.5135607640366939 S
atom 6.9984213782428872 4.9454470663224752 2.5527777495869621 S
atom 3.0112766893708356 -0.0014711898871016 7.5926829213488141 S
atom 6.8890056523189305 -0.0013362081109347 7.6136545267829092 S
atom 1.9391601755121821 4.9485092686958021 7.6136545267829021 S
atom 7.9613861847532057 4.9486383054952778 7.5922824734004193 S
atom 0.0048232808198777 2.9015959180579962 2.5521321668222590 S
atom 4.9548276171403760 2.0425687625494127 2.5146220930647551 S
atom 0.0049821403336234 6.9924142393561670 2.5146220930647551 S
atom 4.9549327762022424 7.8517054134403468 2.5517317188738953 S
atom 0.0018649795758141 1.9388408435323279 7.5932234264666523 S
atom 4.9518406831384416 3.0112525757521982 7.6130897116168885 S
atom 0.0019952063316926 7.9610980525589357 7.6130897116168867 S
atom 4.9519744749581776 6.8889503389146789 7.5928229785182895 S
atom 0.0019655276823515 0.0066321503793835 10.1577090966648793 Ba
atom 4.9434221604595123 -0.0012907418211803 10.1575088440105361 Ba
atom -0.0064233163472417 4.9485547349855556 10.1575088440105397 Ba
atom 4.9520750230647410 4.9567416457617410 10.1573086487165174 Ba
atom -0.0024884970316858 -0.0009227108014545 15.2649121265190040 Ba
atom 4.9518619351344277 0.0033287311255126 15.2647172763780059 Ba
atom 0.0020164583276691 4.9531742079322534 15.2647172763780059 Ba
atom 4.9476209983506871 4.9491867845809105 15.2645116785706172 Ba
atom 2.4751796125992276 2.4752660607081340 12.6999132097602310 Zr
atom 7.4254426850592807 2.4756838821661309 12.6997113318978698 Zr
atom 2.4755972082525308 7.4255293589728701 12.6997113318978645 Zr
atom 7.4252891079815795 7.4253755560904837 12.6995127618118584 Zr
atom 2.4756028566496049 2.4756028566495956 17.8183769852724687 Zr
atom 7.4255803427441656 2.4757348659374028 17.8181767612982718 Zr
atom 2.4757348659374143 7.4255803427441389 17.8181767612982718 Zr
atom 7.4257123520319652 7.4257123520319501 17.8179765373241246 Zr
atom 2.4694587698765380 2.4646042197966902 10.1526968211234276 S
atom 7.4355888193360142 2.4816761821951459 10.1524943402883174 S
atom 2.4857433425292537 7.4315216590018931 10.1524943402883139 S
atom 7.4195682652589143 7.4147137151790545 10.1522963731750462 S
atom 2.4800148334703662 2.4790508779771536 15.2630205025371382 S
atom 7.4221633528108013 2.4708954348015757 15.2628200223806552 S
atom 2.4723178760040496 7.4207409116083065 15.2628200223806552 S
atom 7.4301243288527345 7.4291603733595188 15.2626200545887674 S
atom 1.9396738500354216 -0.0000276580616818 12.7167525515808908 S
atom 7.9604589654262430 0.0000946259410350 12.7074744642015212 S
atom 3.0106134886195015 4.9499401027477798 12.7074744642015265 S
atom 6.8897833454177855 4.9500818373206821 12.7163521036325236 S
atom 3.0108835706758956 0.0006163645246046 17.8155448161339116 S
atom 6.8901676194300538 0.0007438719678424 17.8212091544109619 S
atom 1.9403221426232911 4.9505893487745807 17.8212091544109548 S
atom 7.9609930660582764 4.9507258599069912 17.8151443681855248 S
atom 0.0008044199830546 3.0109128967672238 12.7165112975149714 S
atom 4.9507922534428088 1.9402678388683436 12.7077734401936677 S
atom 0.0009467766360503 6.8901133156750687 12.7077734401936748 S
atom 4.9509139153654358 7.9610223921496024 12.7161108495665900 S
atom 0.0006117882401358 1.9401911736887072 17.8157571942704216 S
atom 4.9505939250590538 3.0110145396104842 17.8209967762745265 S
atom 0.0007484482523119 7.9608600164172296 17.8209967762745194 S
atom 4.9507212836225403 6.8903006690710722 17.8153567463220242 S
atom 0.0035847149485076 0.0020189287182756 20.3722422919742954 Ba
atom 4.9491892549715217 -0.0019684946330660 20.3720366941669546 Ba
atom -0.0006562218352217 4.9478769821736792 20.3720366941669546 Ba
atom 4.9536942103309176 4.9521284241006400 20.3718418440259548 Ba
atom -0.0008693097655300 -0.0055359324625624 25.4794453218284254 Ba
atom 4.9576290296464585 0.0026509783136269 25.4792451265343516 Ba
atom 0.0077835528396894 4.9524964551203832 25.4792451265343445 Ba
atom 4.9492401856168176 4.9445735629198078 25.4790448738799959 Ba
atom 2.4760261006999769 2.4759396525910615 22.9368407607846798 Zr
atom 7.4257180004290522 2.4757858497086773 22.9366421906987341 Zr
atom 2.4758725236222978 7.4256313265154201 22.9366421906987341 Zr
atom 7.4261355960823696 7.4260491479734245 22.9364403128363179 Zr
atom 2.4744889043011851 2.4766164539577327 28.0557487957452452 Zr
atom 7.4253974877682731 2.4777459762734519 28.0555484689456485 Zr
atom 2.4755520109615219 7.4275914530801730 28.0555484689456485 Zr
atom 7.4245983996835720 7.4267259493401081 28.0553483477968406 Zr
atom 2.4711908798288325 2.4721548353220237 20.3737334680077922 S
atom 7.4289973326775121 2.4805742970732401 20.3735335002159275 S
atom 2.4791518558707772 7.4304197738799820 20.3735335002159204 S
atom 7.4213003752111897 7.4222643307044027 20.3733330200594231 S
atom 2.4817469434226589 2.4866014935024983 25.4840571494215027 S
atom 7.4155718661523258 2.4697935496796632 25.4838591823082012 S
atom 2.4657263893455563 7.4196390264864140 25.4838591823081977 S
atom 7.4318564388050294 7.4367109888848661 25.4836567014731017 S
atom 1.9405922246796987 0.0012656105514121 22.9292795063433807 S
atom 7.9613773400705243 0.0013878945541283 22.9200014189640378 S
atom 3.0115318632637749 4.9512333713608507 22.9200014189640306 S
atom 6.8907017200620606 4.9513751059337840 22.9288790583950117 S
atom 3.0120455377870141 0.0026964446033817 28.0230994437619998 S
atom 6.8897745007351459 0.0028314263795483 28.0440710491961127 S
atom 1.9399290239283693 4.9526769031862763 28.0440710491961127 S
atom 7.9621550331693864 4.9528059399857494 28.0226989958136663 S
atom 0.0004134598563973 3.0109378744308501 22.9289805303512573 S
atom 4.9504012933161574 1.9402928165319639 22.9202426730299464 S
atom 0.0005558165093932 6.8901382933387003 22.9202426730299464 S
atom 4.9505229552387648 7.9610473698132092 22.9285800824028847 S
atom -0.0006349698392455 1.9399531375469929 28.0236642589280649 S
atom 4.9493407337233792 3.0123648697668530 28.0435305440782194 S
atom -0.0005047430833667 7.9622103465735918 28.0435305440782194 S
atom 4.9494745255431454 6.8900626329293519 28.0232638109796888 S
atom 0.0102381392607086 0.0078318120021043 30.5671578590719832 Ba
atom 4.9440679005660790 -0.0074368269847680 30.5669636880168802 Ba
atom -0.0057775762406401 4.9424086498219655 30.5669636880168731 Ba
atom 4.9603476346430622 4.9579413073844778 30.5667574111236213 Ba
atom -0.0223456880522869 0.0154934094093262 35.4755806040629196 Ba
atom 4.9364635397731158 0.0238886848691429 35.4753770605760010 Ba
atom -0.0133819370336358 4.9737341616758686 35.4753770605760010 Ba
atom 4.9277638073301118 4.9656029047916812 35.4751801561145825 Ba
atom 2.4708729766861119 2.4837431143069453 33.1975057777510116 Zr
atom 7.4184874881899905 2.4813940440317466 33.1973000096870337 Zr
atom 2.4686420113832610 7.4312395208384920 33.1973000096870337 Zr
atom 7.4209824720684816 7.4338526096893034 33.1971053298026746 Zr
atom 2.4551667632148995 2.4621336649528196 30.5931811764683879 S
atom 7.4390560108328163 2.4979822700971051 30.5929792558205662 S
atom 2.4892105340260495 7.4478277469038465 30.5929792558205662 S
atom 7.4052762585972598 7.4122431603351719 30.5927807285200473 S
atom 2.4914737716781761 2.4957425236869653 35.7408135246402949 S
atom 7.4078272728209500 2.4603767234894161 35.7406185614140313 S
atom 2.4579817960141832 7.4102222002961913 35.7406185614140313 S
atom 7.4415832670605493 7.4458520190693243 35.7404130766918513 S
atom 2.0436108760814244 0.0059217194333036 33.1231932065081836 S
atom 7.8527393072454501 0.0060226655523471 33.0835757730096134 S
atom 2.9028938304386926 4.9558681423590842 33.0835757730096134 S
atom 6.9937203714638017 4.9560312148156731 33.1227927585598536 S
atom -0.0036219038411755 2.9086369507497700 33.1221318774801645 S
atom 4.9463824324793171 2.0496097952411905 33.0846218037226762 S
atom -0.0034630443274303 6.9994552720479222 33.0846218037226762 S
atom 4.9464875915412048 7.8587464461321268 33.1217314295316996 S
atom 2.4618477356512241 2.4996868331128459 38.8531412448203355 Ba
atom 7.4035619555737782 2.4909871006698228 38.8529443403588388 Ba
atom 2.4537164787670509 7.4408325774765451 38.8529443403588388 Ba
atom 7.4119572310336261 7.4497963284952133 38.8527407968719487 Ba
atom 2.4695093330584532 2.4671030057998453 43.7615639898112576 Ba
atom 7.4348874674277088 2.4833827398768129 43.7613577129179347 Ba
atom 2.4850419906209451 7.4332282166835641 43.7613577129179276 Ba
atom 7.4196188284408091 7.4172125011821990 43.7611635418629845 Ba
atom 4.9437075261359853 4.9565776637567938 41.1308156231838922 Zr
atom 9.8961660917935301 4.9590726476352769 41.1306209432994336 Zr
atom 4.9463206149867815 9.9089181244420477 41.1306209432994336 Zr
atom 9.8938170215183412 9.9066871591391781 41.1304151752355125 Zr
atom 4.9508341864851921 4.9529617361417548 46.2725726051896231 Zr
atom 9.8998141595519051 4.9521626480570209 46.2723724840407087 Zr
atom 4.9499686827450926 9.9020081248637712 46.2723724840407087 Zr
atom 9.9009436818675969 9.9030712315241125 46.2721721572413998 Zr
atom 4.9317081167559582 4.9359768687647403 38.5875078762946231 S
atom 9.9171834123358948 4.9697328630043600 38.5873023915723437 S
atom 4.9673379355291365 9.9195783398110944 38.5873023915723437 S
atom 9.8818176121383328 9.8860863641471184 38.5871074283462860 S
atom 4.9653169754901256 4.9722838772280289 43.7351402244664058 S
atom 9.8795778657281890 4.9385041249925115 43.7349416971659792 S
atom 4.9297323889214466 9.8883496017992094 43.7349416971659721 S
atom 9.9154264708725179 9.9223933726104026 43.7347397765181043 S
atom 5.3778408452017272 2.4810682079636117 41.2436995972122418 S
atom 9.4686591664999167 2.4812270674773553 41.2061895234547677 S
atom 4.5188136896931459 7.4310725442841088 41.2061895234547677 S
atom 10.3279503405841115 7.4311777033459778 41.2432991492638052 S
atom 4.4150857706760629 2.4781099067195429 46.2847908568565742 S
atom 10.4373429797026986 2.4782401334754223 46.3046571420069029 S
atom 5.4874975028959616 7.4280856102821762 46.3046571420069029 S
atom 9.3651952660584108 7.4282194021019219 46.2843904089082656 S
atom 2.4715824980838317 4.5245568100042375 41.2447456279253828 S
atom 7.4215289210096520 5.3838397643615075 41.2051281944267060 S
atom 2.4716834442028817 10.3336852411682241 41.2051281944266989 S
atom 7.4216919934662098 9.4746663053866111 41.2443451799768397 S
atom 2.4747737372566334 5.4875216165145453 46.2842503517388195 S
atom 7.4247541958395393 4.4154051026558978 46.3052219571729040 S
atom 2.4749087190328063 9.3652505794626570 46.3052219571729111 S
atom 7.4248832326390239 10.4376311118968843 46.2838499037904398 S
atom 2.4828770775231281 2.4782104548260828 48.8492765270548475 Ba
atom 7.4247996621293044 2.4698216107964885 48.8490762744005735 Ba
atom 2.4749541853225581 7.4196670876032131 48.8490762744005735 Ba
atom 7.4329865729054792 7.4283199502084285 48.8488760791065246 Ba
atom 2.4753222163422870 2.4737564301120365 53.9564795569091089 Ba
atom 7.4294191350759995 2.4782613854713946 53.9562847067679527 Ba
atom 2.4795736582692518 7.4281068622781472 53.9562847067679598 Ba
atom 7.4254317117246735 7.4238659254944190 53.9560791089606724 Ba
atom 4.9515109878518757 4.9514245397429493 51.3914806401502062 Zr
atom 9.9017742861166091 4.9518421353962481 51.3912787622878113 Zr
atom 4.9519288093098588 9.9016876122029984 51.3912787622878113 Zr
atom 9.9016204832342662 9.9015340351253336 51.3910801922018408 Zr
atom 4.9518477837933261 4.9518477837933217 56.5099444156624671 Zr
atom 9.9018252698879063 4.9519797930811418 56.5097441916882559 Zr
atom 4.9519797930811524 9.9018252698878531 56.5097441916882559 Zr
atom 9.9019572791757167 9.9019572791757149 56.5095439677140092 Zr
atom 4.9408491469404359 4.9457036970202735 48.8442642515133869 S
atom 9.9077665861456534 4.9619882696729789 48.8440617706782234 S
atom 4.9579211093388835 9.9118337464797186 48.8440617706782163 S
atom 9.8909586423228397 9.8958131924026365 48.8438638035649646 S
atom 4.9552958051209055 4.9562597606140839 53.9545879329271543 S
atom 9.8969858387521086 4.9485628031477731 53.9543874527705754 S
atom 4.9471403619453023 9.8984082799545536 53.9543874527705825 S
atom 9.9054053005032934 9.9063692559964647 53.9541874849788172 S
atom 5.4871578239109766 2.4770493471267838 51.4080787279048153 S
atom 9.3663582428188139 2.4771917037797908 51.3993408705836217 S
atom 4.4165127660120627 7.4270371805865194 51.3993408705836146 S
atom 10.4372673192933636 7.4271588425091428 51.4076782799564711 S
atom 4.4164361008324580 2.4768567153838630 56.5073246246602778 S
atom 10.4371049435610228 2.4769933753960411 56.5125642066644858 S
atom 5.4872594667542192 7.4268388522027697 56.5125642066644787 S
atom 9.3665455962148041 7.4269662107662491 56.5069241767118911 S
atom 2.4762172690820563 4.4159187771791375 51.4083199819708270 S
atom 7.4261850298915144 5.4868584157632085 51.3990418945912637 S
atom 2.4763395530847645 10.4367038925699465 51.3990418945912637 S
atom 7.4263267644644353 9.3660282725614916 51.4079195340224686 S
atom 2.4768612916683410 5.4871284978196133 56.5071122465238957 S
atom 7.4268342759183410 4.4165670697670301 56.5127765848008892 S
atom 2.4769887991115769 9.3664125465737751 56.5127765848008892 S
atom 7.4269707870507213 10.4372379932019896 56.5067117985755374 S
atom 2.4782638558620023 2.4798296420922372 59.0638097223642475 Ba
atom 7.4241219093174076 2.4755887053085139 59.0636041245568038 Ba
atom 2.4742764325106661 7.4254341821152519 59.0636041245568038 Ba
atom 7.4283733512443870 7.4299391374746131 59.0634092744158394 Ba
atom 2.4707089946811736 2.4753756173782016 64.1710127522183313 Ba
atom 7.4287413822641177 2.4840284799834254 64.1708125569242611 Ba
atom 2.4788959054573683 7.4338739567901655 64.1708125569242611 Ba
atom 7.4208184900635432 7.4254851127605663 64.1706123042699232 Ba
atom 4.9521845797348245 4.9522710278437136 61.6284081911746142 Zr
atom 9.9018762536591787 4.9521174507660195 61.6282096210886507 Zr
atom 4.9520307768524425 9.9019629275727770 61.6282096210886650 Zr
atom 9.9022940751171848 9.9023805232260464 61.6280077432261351 Zr
atom 4.9528613811014823 4.9507338314449036 66.7473162261352542 Zr
atom 9.9038363802239342 4.9517969381052325 66.7471158993356255 Zr
atom 4.9539909034171998 9.9016424149120130 66.7471158993356255 Zr
atom 9.9029708764838169 9.9008433268272391 66.7469157781867466 Zr
atom 4.9483997624657787 4.9474358069725595 59.0653008983976022 S
atom 9.9066647010237485 4.9553967830145025 59.0651009306058938 S
atom 4.9568192242170017 9.9052422598212182 59.0651009306058867 S
atom 9.8985092578481346 9.8975453023549385 59.0649004504493220 S
atom 4.9628464206462510 4.9579918705663868 64.1756245798113270 S
atom 9.8958839536301113 4.9419713164892931 64.1754266126983026 S
atom 4.9460384768234054 9.8918167932960266 64.1754266126983026 S
atom 9.9129559160286291 9.9081013659487560 64.1752241318630041 S
atom 5.4871828015746011 2.4766583870001235 61.6205479607412485 S
atom 9.3663832204824846 2.4768007436531239 61.6118101034199981 S
atom 4.4165377436756881 7.4266462204598742 61.6118101034199981 S
atom 10.4372922969569597 7.4267678823825038 61.6201475127928475 S
atom 4.4161980646907324 2.4756099573044819 66.7152316893179744 S
atom 10.4384552737173557 2.4757401840603768 66.7350979744682320 S
atom 5.4886097969106054 7.4255856608670960 66.7350979744682320 S
atom 9.3663075600730501 7.4257194526868604 66.7148312413696658 S
atom 2.4775105376951481 4.4168371518234277 61.6208469367335141 S
atom 7.4274782985046004 5.4877767904074997 61.6115688493539935 S
atom 2.4776328216978607 10.4376222672142340 61.6115688493539935 S
atom 7.4276200330775293 9.3669466472057881 61.6204464887851486 S
atom 2.4789413717471120 5.4882904649307518 66.7146668741519875 S
atom 7.4289218303300171 4.4161739510720919 66.7356384795862425 S
atom 2.4790763535232894 9.3660194278788573 66.7356384795862425 S
atom 7.4290508671295097 10.4383999603131112 66.7142664262036220 S
atom 2.4840767391458392 2.4864830664044351 69.2587252894617365 Ba
atom 7.4186535769657196 2.4704673509030952 69.2585311184067649 Ba
atom 2.4688081001589786 7.4203128277098305 69.2585311184067649 Ba
atom 7.4341862345282532 7.4365925617868127 69.2583248415135699 Ba
atom 2.4917383365530679 2.4538992390914349 74.1671480344529073 Ba
atom 7.4499790888196475 2.4628629901100880 74.1669444909659461 Ba
atom 2.5001336120128723 7.4127084669168442 74.1669444909659461 Ba
atom 7.4418478319354380 7.4040087344738090 74.1667475865045560 Ba
atom 4.9599880414506909 4.9471179038298443 71.8890732081407009 Zr
atom 9.9074844479822470 4.9448869385269987 71.8888674400770498 Zr
atom 4.9576389711755056 9.8947324153337313 71.8888674400770498 Zr
atom 9.9100975368330673 9.8972273992122162 71.8886727601922644 Zr
atom 4.9383785920965790 4.9314116903586367 69.2847486068583152 S
atom 9.9240726740475775 4.9654554611697890 69.2845466862104615 S
atom 4.9742271972408387 9.9153009379765003 69.2845466862104615 S
atom 9.8884880874789438 9.8815211857409384 69.2843481589099781 S
atom 4.9719874508307278 4.9677186988219155 74.4323809550303963 S
atom 9.8864671274399143 4.9342267231579058 74.4321859918040900 S
atom 4.9366216506331710 9.8840721999646490 74.4321859918040900 S
atom 9.9220969462131041 9.9178281942042936 74.4319805070820308 S
atom 5.3848818778935135 2.4726230233025599 71.8136993078701806 S
atom 9.4757001991916674 2.4727818828162973 71.7761892341125076 S
atom 4.5258547223849481 7.4226273596230428 71.7761892341125076 S
atom 10.3349913732759191 7.4227325186849091 71.8132988599221704 S
atom 2.4821666465770367 4.5198558032251501 71.8147606368982707 S
atom 7.4321130695028605 5.3791387575824272 71.7751432033998071 S
atom 2.4822675926960915 10.3289842343891678 71.7751432033998071 S
atom 7.4322761419594086 9.4699652986075460 71.8143601889499479 S
