#=======================================================
# FHI-aims file: sym_relax/sym_relax_RP_1_RxRyMz_RxRy-Mz.in
# Created using the Atomic Simulation Environment (ASE)
# Fri Mar 14 10:20:26 2025
#=======================================================
lattice_vector 10.0577715367969880 0.1251877056982026 0.0000000000000000 
lattice_vector 0.1251877056982024 10.0577715367969809 -0.0000000000000000 
lattice_vector -0.0000000000000000 -0.0000000000000000 15.6289940404737742 
atom -0.0908454979058863 -0.0907992412362356 0.2364304536404160 Ba
atom 5.1196850096347335 0.1534393507549876 0.2364304536404160 Ba
atom 0.1533930940853367 5.1197312663043775 0.2364304536404160 Ba
atom 5.0006341233417055 5.0006803800113540 0.2364304536404160 Ba
atom 0.0908454979058864 0.0907992412362356 4.6476301840076442 Ba
atom 4.9380865271622527 -0.0282516450567853 4.6476301840076442 Ba
atom -0.0282053883871351 4.9380402704925963 4.6476301840076442 Ba
atom 5.1823251191534814 5.1822788624838285 4.6476301840076442 Ba
atom 2.5457398106237945 2.5457398106237945 2.4420303188240280 Zr
atom 7.5746255790222943 2.6083336634728980 2.4420303188240280 Zr
atom 2.6083336634728975 7.5746255790222863 2.4420303188240280 Zr
atom 7.6372194318713911 7.6372194318713911 2.4420303188240280 Zr
atom 2.6909675998814127 2.6909587901998595 -0.0990304222200029 S
atom 7.4294065994462199 2.4631058742152785 -0.0990304222200029 S
atom 2.4631146838968343 7.4293977897646695 -0.0990304222200029 S
atom 7.7824472211289990 7.7824384114474485 -0.0990304222200029 S
atom 2.4005120213661777 2.4005208310477322 4.9830910598680696 S
atom 7.7198445585983535 2.7535614527305148 4.9830910598680696 S
atom 2.7535526430489621 7.7198533682799066 4.9830910598680696 S
atom 7.4919916426137734 7.4920004522953274 4.9830910598680696 S
atom 2.5143760396512294 0.0313020041881410 2.2904956241985066 S
atom 7.5433954971457595 0.0938857015100611 2.5935650134495511 S
atom 2.5771035815963685 5.0601776170594492 2.5935650134495511 S
atom 7.6058556608988228 5.1227816254357359 2.2904956241985066 S
atom 0.0312918486609608 2.5145097287472629 2.2904956241985066 S
atom 5.0601877725866320 2.5769698925003297 2.5935650134495511 S
atom 0.0938958570372416 7.5432618080497180 2.5935650134495511 S
atom 5.1227714699085576 7.6059893499948528 2.2904956241985066 S
atom 2.4549405693875617 2.4548943127179106 8.0509274738773087 Ba
atom 7.6654710769281849 2.6991329047091299 8.0509274738773087 Ba
atom 2.6991791613787872 7.6654248202585222 8.0509274738773087 Ba
atom 7.5464201906351560 7.5463739339654961 8.0509274738773087 Ba
atom 2.6365390518600318 2.6365853085296798 12.4621272042445419 Ba
atom 7.4837800811163966 2.5175344222366620 12.4621272042445419 Ba
atom 2.5174881655670149 7.4838263377860441 12.4621272042445419 Ba
atom 7.7280186731076261 7.7280649297772772 12.4621272042445419 Ba
atom 5.0914796212475890 5.0914796212475890 10.2565273390609253 Zr
atom 10.1203653896460821 5.1540734740966947 10.2565273390609253 Zr
atom 5.1540734740966920 10.1203653896460786 10.2565273390609253 Zr
atom 10.1829592424951780 10.1829592424951780 10.2565273390609253 Zr
atom 5.2366986008236589 5.2367074105052076 7.7154665980168833 S
atom 9.9751376003884644 5.0088544945206293 7.7154665980168833 S
atom 5.0088456848390823 9.9751464100700140 7.7154665980168833 S
atom 10.3281782220712532 10.3281870317527922 7.7154665980168833 S
atom 4.9462606416715316 4.9462518319899704 12.7975880801049495 S
atom 10.2655931789037052 5.2992924536727539 12.7975880801049495 S
atom 5.2993012633543133 10.2655843692221502 12.7975880801049495 S
atom 10.0377402629191206 10.0377314532375568 12.7975880801049495 S
atom 5.0602495393710578 2.5770316592847542 10.1049926444354057 S
atom 10.0890016186735156 2.6396356676610364 10.4080620336864520 S
atom 5.1227097031241291 7.6059275832104278 10.4080620336864520 S
atom 10.1517291606186539 7.6685112805323490 10.1049926444354057 S
atom 2.5770418148119374 5.0601158502750279 10.1049926444354057 S
atom 7.6059174276832540 5.1228433922201564 10.4080620336864520 S
atom 2.6396255121338599 10.0891353077695491 10.4080620336864520 S
atom 7.6685214360595282 10.1515954715226169 10.1049926444354057 S
