#=======================================================
# FHI-aims file: sym_relax/sym_relax_RP_8_Rx0Mz_0RyMz.in
# Created using the Atomic Simulation Environment (ASE)
# Mon Mar 17 16:06:06 2025
#=======================================================
lattice_vector 10.0075861561525290 -0.0742233500344415 -0.0000000000000000 
lattice_vector -0.0742233500344412 10.0075861561525272 -0.0000000000000000 
lattice_vector -0.0000000000000000 -0.0000000000000000 86.0016722376640104 
atom 0.1016203684490585 -0.1835927847633847 0.2157180150022227 Ba
atom 5.1871112356364408 -0.1389200439177901 0.2157199228604179 Ba
atom 0.1462064825429702 4.9019847091756992 0.2157199228604179 Ba
atom 5.0683017715080831 4.7830886182956505 0.2157180150022226 Ba
atom -0.2682185140160135 0.1864556135921492 5.0090970475663825 Ba
atom 4.8167309639732379 0.2305010582397834 5.0090488600790728 Ba
atom -0.2241737891202383 5.2714058113332527 5.0090488600790728 Ba
atom 4.6984628890430109 5.1531370166511783 5.0090970475663825 Ba
atom 2.4851869497801693 2.4715255089770038 2.4037268174853348 Zr
atom 7.4985964343113789 2.4440027012078063 2.4037209418247341 Zr
atom 2.4576916812178911 7.4849074543012986 2.4037209418247341 Zr
atom 7.4518683528391998 7.4382069120360335 2.4037268174853348 Zr
atom 2.4746445523406408 2.4871008358388731 7.4612526968738866 Zr
atom 7.4826103866850069 2.4541690148286666 7.4612536924241439 Zr
atom 2.4417056335915359 7.4950737679221504 7.4612536924241439 Zr
atom 7.4413259553996696 7.4537822388979116 7.4612526968738866 Zr
atom 2.6082393081753605 2.6914858898662888 -0.1037415675858255 S
atom 7.2787472005998657 2.3210588434905457 -0.1037411506700445 S
atom 2.2378424475063854 7.3619635965840287 -0.1037411506700445 S
atom 7.5749207112344044 7.6581672929253237 -0.1037415675858255 S
atom 2.2356147426136697 2.1872630626427281 4.9669745294770697 S
atom 7.7826288313988847 2.6933625191380774 4.9669990719628778 S
atom 2.7417240783053924 7.7342672722315609 4.9669990719628778 S
atom 7.2022961456726842 7.1539444657017723 4.9669745294770697 S
atom 2.8060849453815013 -0.0151771874921018 2.2496846691406533 S
atom 7.1789036613130133 -0.0495867823411659 2.7581417482488746 S
atom 2.1379989082195352 4.9913179707523065 2.7581417482488746 S
atom 7.7727663484405491 4.9515042155669322 2.2496846691406533 S
atom 2.8981831337643840 -0.0188157735739089 7.7904422595426208 S
atom 7.1161502396490652 -0.0529917546158457 7.1736344173373059 S
atom 2.0752454865555925 4.9879129984776336 7.1736344173373059 S
atom 7.8648645368234096 4.9478656294851424 7.7904422595426208 S
atom -0.0223227997087426 2.1973346860322276 2.2497032390229874 S
atom 4.9787534226319217 2.7911253398760749 2.7580722659173809 S
atom -0.0621513304615488 7.8320300929695659 2.7580722659173809 S
atom 4.9443586033502998 7.1640160890912608 2.2497032390229874 S
atom -0.0190418758640367 2.1048468127832427 7.7904634442260274 S
atom 4.9818216265720512 2.8535955258584758 7.1736149212551625 S
atom -0.0590831265214172 7.8945002789519636 7.1736149212551625 S
atom 4.9476395271949931 7.0715282158422816 7.7904634442260274 S
atom 0.2849313772245592 -0.1844841551521904 9.9889067569600272 Ba
atom 5.1874191659184872 -0.3229099785645821 9.9889287991214690 Ba
atom 0.1465144128250180 4.7179947745288935 9.9889287991214690 Ba
atom 5.2516127802835930 4.7821972479068480 9.9889067569600272 Ba
atom -0.2847432093625409 0.1806956764469418 14.9933283302439975 Ba
atom 4.8221939956151720 0.2467491838159348 14.9933274162968004 Ba
atom -0.2187107574782968 5.2876539369094262 14.9933274162968004 Ba
atom 4.6819381936964852 5.1473770795059819 14.9933283302439975 Ba
atom 2.4881658824148167 2.4801610613028453 12.4789147439636654 Zr
atom 7.4894017731799742 2.4404970822119401 12.4789224280866069 Zr
atom 2.4484970200865108 7.4814018353054212 12.4789224280866069 Zr
atom 7.4548472854738383 7.4468424643618940 12.4789147439636654 Zr
atom 2.4828414884940888 2.4822760865168370 17.4936044199335790 Zr
atom 7.4873225569494135 2.4458338889583682 17.4936040224313381 Zr
atom 2.4464178038559479 7.4867386420518551 17.4936040224313381 Zr
atom 7.4495228915531122 7.4489574895758812 17.4936044199335790 Zr
atom 2.7466285808452242 2.8090824573285555 9.9806588899118474 S
atom 7.1605484868743501 2.1821044235553102 9.9806531227496240 S
atom 2.1196437337808787 7.2230091766488025 9.9806531227496240 S
atom 7.7133099839042423 7.7757638603875900 9.9806588899118474 S
atom 2.2177735695220546 2.1508975281594402 14.9907253185312257 S
atom 7.8187009307702571 2.7109067159984939 14.9907282600486091 S
atom 2.7777961776768003 7.7518114690919706 14.9907282600486091 S
atom 7.1844549725810705 7.1175789312184916 14.9907253185312257 S
atom 2.8895817403836386 -0.0224955584381752 12.1721888521648793 S
atom 7.1200205248199921 -0.0569933573454072 12.8100548161117658 S
atom 2.0791157717265336 4.9839113957480814 12.8100548161117658 S
atom 7.8562631434426686 4.9441858446208773 12.1721888521648793 S
atom 2.8880281179159120 -0.0210280575968524 17.8178550422942479 S
atom 7.1205715851668767 -0.0555231088424733 17.1758019669585664 S
atom 2.0796668320734093 4.9853816442510173 17.1758019669585664 S
atom 7.8547095209749358 4.9456533454621878 17.8178550422942479 S
atom -0.0155015055264259 2.1133235270596922 12.1721848660615439 S
atom 4.9856744018673913 2.8495716623075187 12.8100602011637221 S
atom -0.0552303512260716 7.8904764154010083 12.8100602011637221 S
atom 4.9511798975326125 7.0800049301187196 12.1721848660615439 S
atom -0.0169784557193476 2.1148732681354590 17.8178543569506616 S
atom 4.9842052160264396 2.8489874485132209 17.1757884440981528 S
atom -0.0566995370670405 7.8898922016067008 17.1757884440981528 S
atom 4.9497029473396879 7.0815546711944934 17.8178543569506616 S
atom 0.2863354766406697 -0.1832762054451153 20.0003888924799824 Ba
atom 5.1862002330182380 -0.3242845574587207 20.0003888924799789 Ba
atom 0.1452954799247615 4.7166201956347642 20.0003888924799789 Ba
atom 5.2530168796997003 4.7834051976139227 20.0003888924799789 Ba
atom -0.2847432093625409 0.1806956764469418 25.0074494547160171 Ba
atom 4.8221939956151720 0.2467491838159348 25.0074503686631751 Ba
atom -0.2187107574782968 5.2876539369094262 25.0074503686631751 Ba
atom 4.6819381936964852 5.1473770795059819 25.0074494547160171 Ba
atom 2.4828414884940888 2.4822760865168370 22.5071733650264072 Zr
atom 7.4873225569494135 2.4458338889583682 22.5071737625286445 Zr
atom 2.4464178038559479 7.4867386420518551 22.5071737625286445 Zr
atom 7.4495228915531122 7.4489574895758812 22.5071733650264072 Zr
atom 2.4881658824148167 2.4801610613028453 27.5218630409962977 Zr
atom 7.4894017731799742 2.4404970822119401 27.5218553568733419 Zr
atom 2.4484970200865108 7.4814018353054212 27.5218553568733419 Zr
atom 7.4548472854738383 7.4468424643618940 27.5218630409962977 Zr
atom 2.7507329041345461 2.8137980740714967 20.0003888924799789 S
atom 7.1557979728948995 2.1779539596617994 20.0003888924799789 S
atom 2.1148932198014272 7.2188587127552939 20.0003888924799789 S
atom 7.7174143071935841 7.7804794771305339 20.0003888924799789 S
atom 2.2177735695220546 2.1508975281594402 25.0100524664287462 S
atom 7.8187009307702571 2.7109067159984939 25.0100495249114019 S
atom 2.7777961776768003 7.7518114690919706 25.0100495249114019 S
atom 7.1844549725810705 7.1175789312184934 25.0100524664287462 S
atom 2.8880281179159120 -0.0210280575968524 22.1829227426656814 S
atom 7.1205715851668767 -0.0555231088424733 22.8249758180014410 S
atom 2.0796668320734093 4.9853816442510173 22.8249758180014410 S
atom 7.8547095209749358 4.9456533454621878 22.1829227426656814 S
atom 2.8895817403836386 -0.0224955584381751 27.8285889327951779 S
atom 7.1200205248199904 -0.0569933573454072 27.1907229688482559 S
atom 2.0791157717265336 4.9839113957480814 27.1907229688482559 S
atom 7.8562631434426686 4.9441858446208773 27.8285889327951779 S
atom -0.0169784557193476 2.1148732681354590 22.1829234280093601 S
atom 4.9842052160264396 2.8489874485132209 22.8249893408618618 S
atom -0.0566995370670405 7.8898922016067008 22.8249893408618618 S
atom 4.9497029473396879 7.0815546711944934 22.1829234280093601 S
atom -0.0155015055264259 2.1133235270596922 27.8285929188984298 S
atom 4.9856744018673913 2.8495716623075187 27.1907175837962924 S
atom -0.0552303512260716 7.8904764154010083 27.1907175837962924 S
atom 4.9511798975326125 7.0800049301187196 27.8285929188984298 S
atom 0.2849313772245592 -0.1844841551521904 30.0118710279999590 Ba
atom 5.1874191659184872 -0.3229099785645821 30.0118489858385544 Ba
atom 0.1465144128250180 4.7179947745288935 30.0118489858385544 Ba
atom 5.2516127802835930 4.7821972479068480 30.0118710279999590 Ba
atom -0.2682185140160135 0.1864556135921492 34.9916807373936223 Ba
atom 4.8167309639732379 0.2305010582397834 34.9917289248809027 Ba
atom -0.2241737891202383 5.2714058113332527 34.9917289248809027 Ba
atom 4.6984628890430109 5.1531370166511783 34.9916807373936223 Ba
atom 2.4746445523406408 2.4871008358388731 32.5395250880860303 Zr
atom 7.4826103866850069 2.4541690148286666 32.5395240925358991 Zr
atom 2.4417056335915359 7.4950737679221504 32.5395240925358991 Zr
atom 7.4413259553996696 7.4537822388979116 32.5395250880860303 Zr
atom 2.4851869497801693 2.4715255089770038 37.5970509674745443 Zr
atom 7.4985964343113789 2.4440027012078063 37.5970568431352632 Zr
atom 2.4576916812178911 7.4849074543012986 37.5970568431352632 Zr
atom 7.4518683528391998 7.4382069120360335 37.5970509674745443 Zr
atom 2.7466285808452242 2.8090824573285555 30.0201188950480642 S
atom 7.1605484868743501 2.1821044235553102 30.0201246622103852 S
atom 2.1196437337808787 7.2230091766488025 30.0201246622103852 S
atom 7.7133099839042423 7.7757638603875900 30.0201188950480642 S
atom 2.2356147426136697 2.1872630626427281 35.0338032554828871 S
atom 7.7826288313988847 2.6933625191380774 35.0337787129971474 S
atom 2.7417240783053924 7.7342672722315609 35.0337787129971474 S
atom 7.2022961456726842 7.1539444657017723 35.0338032554828871 S
atom 2.8981831337643840 -0.0188157735739089 32.2103355254173991 S
atom 7.1161502396490652 -0.0529917546158457 32.8271433676226607 S
atom 2.0752454865555925 4.9879129984776336 32.8271433676226607 S
atom 7.8648645368234096 4.9478656294851424 32.2103355254173991 S
atom 2.8060849453815013 -0.0151771874921018 37.7510931158193372 S
atom 7.1789036613130133 -0.0495867823411659 37.2426360367111329 S
atom 2.1379989082195352 4.9913179707523065 37.2426360367111329 S
atom 7.7727663484405491 4.9515042155669322 37.7510931158193372 S
atom -0.0190418758640367 2.1048468127832427 32.2103143407340013 S
atom 4.9818216265720512 2.8535955258584758 32.8271628637048849 S
atom -0.0590831265214172 7.8945002789519636 32.8271628637048849 S
atom 4.9476395271949931 7.0715282158422816 32.2103143407340013 S
atom -0.0223227997087426 2.1973346860322276 37.7510745459370511 S
atom 4.9787534226319217 2.7911253398760749 37.2427055190425804 S
atom -0.0621513304615488 7.8320300929695659 37.2427055190425804 S
atom 4.9443586033502998 7.1640160890912608 37.7510745459370511 S
atom 0.1016203684490585 -0.1835927847633847 39.7850597699578543 Ba
atom 5.1871112356364408 -0.1389200439177901 39.7850578620995563 Ba
atom 0.1462064825429702 4.9019847091756992 39.7850578620995563 Ba
atom 5.0683017715080831 4.7830886182956505 39.7850597699578472 Ba
atom 2.6082393081753605 2.6914858898662888 40.1045193525458217 S
atom 7.2787472005998657 2.3210588434905457 40.1045189356301250 S
atom 2.2378424475063854 7.3619635965840287 40.1045189356301250 S
atom 7.5749207112344044 7.6581672929253237 40.1045193525458217 S
atom 2.6669334862928959 2.3817203330804584 43.2165541338341939 Ba
atom 7.5889421485063231 2.2629108689521074 43.2165560416924066 Ba
atom 2.5480373954128677 7.3038156220455850 43.2165560416924066 Ba
atom 7.6336148893519429 7.3484017361395093 43.2165541338341939 Ba
atom 2.2968850879373681 2.7515592155455284 48.0099331663983691 Ba
atom 7.2195210463487598 2.6332911406153143 48.0098849789110957 Ba
atom 2.1786162932552955 7.6741958937087924 48.0098849789110957 Ba
atom 7.2635664909963937 7.7182406186045682 48.0099331663983691 Ba
atom 4.9784965956115528 4.9648351548083820 45.4045629363174044 Zr
atom 9.9727008064398017 4.9181070733362082 45.4045570606566855 Zr
atom 4.9317960533463001 9.9590118264296930 45.4045570606566855 Zr
atom 9.9451779986706015 9.9315165578674431 45.4045629363174044 Zr
atom 4.9629212687496809 4.9753775522479131 50.4620888157059397 Zr
atom 9.9625344928189143 4.9340931209625785 50.4620898112560710 Zr
atom 4.9216297397254358 9.9749978740560614 50.4620898112560710 Zr
atom 9.9296026718086825 9.9420589553069298 50.4620888157059397 Zr
atom 4.7585362147222625 4.8417827964131916 42.8970945512461697 S
atom 10.0956446641569979 5.1379563070477161 42.8970949681619302 S
atom 5.0547399110635638 10.1788610601412213 42.8970949681619302 S
atom 9.7252176177813006 9.8084641994722173 42.8970945512461697 S
atom 5.2627590419458175 5.2144073619748976 47.9678106483090900 S
atom 9.7233409885095270 4.6340746762487237 47.9678351907948937 S
atom 4.6824362354160431 9.6749794293422049 47.9678351907948937 S
atom 10.2294404450048297 10.1810887650339108 47.9678106483090900 S
atom 4.6588967647124742 2.4712686819566310 45.7589083847494678 S
atom 10.2935921716497845 2.4314401512038248 45.2505393578549260 S
atom 5.2526874185563344 7.4723449042973069 45.2505393578549260 S
atom 9.6255781677715273 7.4379500850156735 45.7589083847494678 S
atom 4.5964265787300658 2.4682004780164930 50.1744510400872130 S
atom 10.3860800448988080 2.4281592273591155 50.7912995630579900 S
atom 5.3451752918053081 7.4690639804526011 50.7912995630579900 S
atom 9.5631079817890914 7.4348818810755448 50.1744510400872130 S
atom 2.4587041338362319 5.3120231963690232 45.7589778670809224 S
atom 7.4651992920806531 4.6439371592070406 45.2505207879726399 S
atom 2.4242945389871746 9.6848419123005378 45.2505207879726399 S
atom 7.4253855368952886 10.2787045994280355 45.7589778670809224 S
atom 2.4621091061109124 5.3747766180329517 50.1744705361691956 S
atom 7.4688378781624509 4.5518389708241731 50.7912783783745212 S
atom 2.4279331250689831 9.5927437239176445 50.7912783783745212 S
atom 7.4287905091699562 10.3414580210919969 50.1744705361691956 S
atom 2.6678248566817073 2.1984093243049623 52.9897428757921176 Ba
atom 7.7729320831531279 2.2626029386700548 52.9897649179534440 Ba
atom 2.7320273300596583 7.3035076917635458 52.9897649179534440 Ba
atom 7.6345062597407356 7.1650907273640074 52.9897428757921176 Ba
atom 2.3026450250825734 2.7680839108920647 57.9941644490759387 Ba
atom 7.2032729207726058 2.6278281089733779 57.9941635351288411 Ba
atom 2.1623681676791371 7.6687328620668573 57.9941635351288411 Ba
atom 7.2693264281416079 7.7347653139511063 57.9941644490759387 Ba
atom 4.9698610432857029 4.9618562221737381 55.4797508627956475 Zr
atom 9.9762064254356382 4.9273017344676120 55.4797585469185890 Zr
atom 4.9353016723421810 9.9682064875610994 55.4797585469185890 Zr
atom 9.9365424463447223 9.9285376252327762 55.4797508627956475 Zr
atom 4.9677460180717068 4.9671806160944678 60.4944405387654882 Zr
atom 9.9708696186892247 4.9293809506981772 60.4944401412633610 Zr
atom 4.9299648655957231 9.9702857037916548 60.4944401412633610 Zr
atom 9.9344274211307422 9.9338620191535121 60.4944405387654882 Zr
atom 4.6409396472600131 4.7033935237433422 52.9814950087437708 S
atom 10.2345990840922667 5.2561550207732388 52.9814892415816416 S
atom 5.1936943309987953 10.2970597738667209 52.9814892415816416 S
atom 9.6076210503190556 9.6700749268023607 52.9814950087437708 S
atom 5.2991245764290955 5.2322485350665087 57.9915614373631101 S
atom 9.7057967916490941 4.5980025768773265 57.9915643788805610 S
atom 4.6648920385556067 9.6389073299708112 57.9915643788805610 S
atom 10.2658059794881247 10.1989299381255449 57.9915614373631101 S
atom 4.6004504422810353 2.4643477027211489 55.8108963199956705 S
atom 10.3776033306223319 2.4246188570215081 55.1730209848934905 S
atom 5.3366985775288764 7.4655236101149827 55.1730209848934905 S
atom 9.5671318453400573 7.4310291057801976 55.8108963199956705 S
atom 4.6010346560753277 2.4658168885621192 60.1766245629301579 S
atom 10.3760535895465438 2.4260958072144287 60.8186904757826667 S
atom 5.3351488364530990 7.4670005603078957 60.8186904757826667 S
atom 9.5677160591343711 7.4324982916211590 60.1766245629301579 S
atom 2.4661107088404752 5.3709063328620328 55.8108909349438420 S
atom 7.4725176630267089 4.5604403642049354 55.1730249709968419 S
atom 2.4316129099332464 9.6013451172984148 55.1730249709968419 S
atom 7.4327921118995022 10.3375877359210513 55.8108909349438420 S
atom 2.4646404603375434 5.3703552725151589 60.1766380857905148 S
atom 7.4710501621853895 4.5619939866726646 60.8186911611263170 S
atom 2.4301454090919257 9.6028987397661218 60.8186911611263170 S
atom 7.4313218633965690 10.3370366755742111 60.1766380857905148 S
atom 2.6666169069746304 2.1970052248888550 63.0012250113119876 Ba
atom 7.7743066620472741 2.2638218715703182 63.0012250113119876 Ba
atom 2.7334019089537942 7.3047266246638003 63.0012250113119876 Ba
atom 7.6332983100336573 7.1636866279478886 63.0012250113119876 Ba
atom 2.3026450250825734 2.7680839108920647 68.0082855735479939 Ba
atom 7.2032729207726058 2.6278281089733779 68.0082864874953259 Ba
atom 2.1623681676791371 7.6687328620668573 68.0082864874953259 Ba
atom 7.2693264281416079 7.7347653139511063 68.0082855735479939 Ba
atom 4.9677460180717068 4.9671806160944678 65.5080094838584586 Zr
atom 9.9708696186892247 4.9293809506981772 65.5080098813608203 Zr
atom 4.9299648655957231 9.9702857037916548 65.5080098813608203 Zr
atom 9.9344274211307422 9.9338620191535121 65.5080094838584586 Zr
atom 4.9698610432857029 4.9618562221737381 70.5226991598283206 Zr
atom 9.9762064254356382 4.9273017344676120 70.5226914757054715 Zr
atom 4.9353016723421810 9.9682064875610994 70.5226914757054715 Zr
atom 9.9365424463447223 9.9285376252327762 70.5226991598283206 Zr
atom 4.6362240305170470 4.6992892004540172 63.0012250113119876 S
atom 10.2387495479857886 5.2609055347526930 63.0012250113119876 S
atom 5.1978447948923066 10.3018102878461733 63.0012250113119876 S
atom 9.6029054335760851 9.6659706035130615 63.0012250113119876 S
atom 5.2991245764290955 5.2322485350665087 68.0108885852607727 S
atom 9.7057967916490941 4.5980025768773265 68.0108856437433644 S
atom 4.6648920385556067 9.6389073299708112 68.0108856437433644 S
atom 10.2658059794881247 10.1989299381255449 68.0108885852607727 S
atom 4.6010346560753277 2.4658168885621192 65.8258254596938599 S
atom 10.3760535895465438 2.4260958072144287 65.1837595468413582 S
atom 5.3351488364530990 7.4670005603078957 65.1837595468413582 S
atom 9.5677160591343711 7.4324982916211590 65.8258254596938599 S
atom 4.6004504422810353 2.4643477027211489 70.1915537026281697 S
atom 10.3776033306223319 2.4246188570215081 70.8294290377305202 S
atom 5.3366985775288764 7.4655236101149827 70.8294290377305202 S
atom 9.5671318453400573 7.4310291057801976 70.1915537026281697 S
atom 2.4646404603375434 5.3703552725151589 65.8258119368332189 S
atom 7.4710501621853895 4.5619939866726646 65.1837588614976085 S
atom 2.4301454090919257 9.6028987397661218 65.1837588614976085 S
atom 7.4313218633965690 10.3370366755742111 65.8258119368332189 S
atom 2.4661107088404752 5.3709063328620328 70.1915590876802042 S
atom 7.4725176630267089 4.5604403642049354 70.8294250516272115 S
atom 2.4316129099332464 9.6013451172984130 70.8294250516272115 S
atom 7.4327921118995022 10.3375877359210513 70.1915590876802042 S
atom 2.6678248566817073 2.1984093243049623 73.0127071468321560 Ba
atom 7.7729320831531279 2.2626029386700548 73.0126851046704388 Ba
atom 2.7320273300596583 7.3035076917635458 73.0126851046704388 Ba
atom 7.6345062597407356 7.1650907273640074 73.0127071468321560 Ba
atom 2.2968850879373681 2.7515592155455284 77.9925168562255919 Ba
atom 7.2195210463487598 2.6332911406153143 77.9925650437128581 Ba
atom 2.1786162932552955 7.6741958937087924 77.9925650437128581 Ba
atom 7.2635664909963937 7.7182406186045682 77.9925168562255919 Ba
atom 4.9629212687496809 4.9753775522479131 75.5403612069181492 Zr
atom 9.9625344928189143 4.9340931209625785 75.5403602113679540 Zr
atom 4.9216297397254358 9.9749978740560614 75.5403602113679540 Zr
atom 9.9296026718086825 9.9420589553069298 75.5403612069181492 Zr
atom 4.9784965956115528 4.9648351548083820 80.5978870863066277 Zr
atom 9.9727008064398017 4.9181070733362082 80.5978929619672044 Zr
atom 4.9317960533463001 9.9590118264296930 80.5978929619672044 Zr
atom 9.9451779986706015 9.9315165578674431 80.5978870863066277 Zr
atom 4.6409396472600131 4.7033935237433422 73.0209550138801120 S
atom 10.2345990840922667 5.2561550207732388 73.0209607810424046 S
atom 5.1936943309987953 10.2970597738667209 73.0209607810424046 S
atom 9.6076210503190556 9.6700749268023607 73.0209550138801120 S
atom 5.2627590419458175 5.2144073619748976 78.0346393743150344 S
atom 9.7233409885095270 4.6340746762487237 78.0346148318292876 S
atom 4.6824362354160431 9.6749794293422049 78.0346148318292876 S
atom 10.2294404450048297 10.1810887650339108 78.0346393743150344 S
atom 4.5964265787300658 2.4682004780164930 75.8279989825368119 S
atom 10.3860800448988080 2.4281592273591155 75.2111504595659568 S
atom 5.3451752918053081 7.4690639804526011 75.2111504595659568 S
atom 9.5631079817890914 7.4348818810755448 75.8279989825368119 S
atom 4.6588967647124742 2.4712686819566310 80.2435416378745856 S
atom 10.2935921716497845 2.4314401512038248 80.7519106647688147 S
atom 5.2526874185563344 7.4723449042973069 80.7519106647688147 S
atom 9.6255781677715273 7.4379500850156735 80.2435416378745856 S
atom 2.4621091061109124 5.3747766180329517 75.8279794864545664 S
atom 7.4688378781624509 4.5518389708241731 75.2111716442493616 S
atom 2.4279331250689831 9.5927437239176445 75.2111716442493616 S
atom 7.4287905091699562 10.3414580210919969 75.8279794864545664 S
atom 2.4587041338362319 5.3120231963690232 80.2434721555430315 S
atom 7.4651992920806531 4.6439371592070406 80.7519292346514419 S
atom 2.4242945389871746 9.6848419123005378 80.7519292346514419 S
atom 7.4253855368952886 10.2787045994280355 80.2434721555430315 S
atom 2.6669334862928959 2.3817203330804584 82.7858958887899377 Ba
atom 7.5889421485063231 2.2629108689521074 82.7858939809314194 Ba
atom 2.5480373954128677 7.3038156220455850 82.7858939809314194 Ba
atom 7.6336148893519429 7.3484017361395093 82.7858958887899377 Ba
atom 4.7585362147222625 4.8417827964131916 83.1053554713778340 S
atom 10.0956446641569979 5.1379563070477161 83.1053550544619100 S
atom 5.0547399110635638 10.1788610601412213 83.1053550544619100 S
atom 9.7252176177813006 9.8084641994722173 83.1053554713778340 S
