#=======================================================
# FHI-aims file: sym_relax/sym_relax_RP_5_00Rz_000.in
# Created using the Atomic Simulation Environment (ASE)
# Fri Mar 14 10:48:12 2025
#=======================================================
lattice_vector 10.0090359408042229 -0.0000000000000004 -0.0000000000000000 
lattice_vector -0.0000000000000004 10.0090359408042229 -0.0000000000000000 
lattice_vector 0.0000000000000000 -0.0000000000000000 56.1163349222453505 
atom -0.0000000000000000 -0.0000000000000000 0.1886473334316534 Ba
atom 5.0045179704021088 -0.0000000000000000 0.1886473334316534 Ba
atom 0.0000000000000000 5.0045179704021088 0.1886473334316534 Ba
atom 5.0045179704021088 5.0045179704021088 0.1886473334316534 Ba
atom 0.0000000000000000 -0.0000000000000000 4.9425357079060186 Ba
atom 5.0045179704021088 -0.0000000000000000 4.9425357079060186 Ba
atom 0.0000000000000000 5.0045179704021088 4.9425357079060186 Ba
atom 5.0045179704021088 5.0045179704021088 4.9425357079060186 Ba
atom 2.5022589852010544 2.5022589852010544 2.3233493103792133 Zr
atom 7.5067769556031578 2.5022589852010544 2.3233493103792133 Zr
atom 2.5022589852010544 7.5067769556031578 2.3233493103792133 Zr
atom 7.5067769556031578 7.5067769556031578 2.3233493103792133 Zr
atom 2.5022589852010544 2.5022589852010544 7.4387573961311828 Zr
atom 7.5067769556031578 2.5022589852010544 7.4387573961311828 Zr
atom 2.5022589852010544 7.5067769556031578 7.4387573961311828 Zr
atom 7.5067769556031578 7.5067769556031578 7.4387573961311828 Zr
atom 2.5022589852010544 2.5022589852010544 -0.1870613028659217 S
atom 7.5067769556031578 2.5022589852010544 -0.1870613028659216 S
atom 2.5022589852010544 7.5067769556031578 -0.1870613028659216 S
atom 7.5067769556031578 7.5067769556031578 -0.1870613028659216 S
atom 2.5022589852010544 2.5022589852010544 4.9234810679833085 S
atom 7.5067769556031578 2.5022589852010544 4.9234810679833085 S
atom 2.5022589852010544 7.5067769556031578 4.9234810679833085 S
atom 7.5067769556031578 7.5067769556031578 4.9234810679833085 S
atom 2.2314420746236894 -0.0000000000000000 2.4451492277127196 S
atom 7.7775938661805339 0.0000000000000000 2.4451492277127205 S
atom 2.7730758957784163 5.0045179704021088 2.4451492277127205 S
atom 7.2359600450257933 5.0045179704021088 2.4451492277127196 S
atom 3.0091968807077518 0.0000000000000005 7.4570790147974257 S
atom 6.9998390600964608 -0.0000000000000000 7.4570790147974249 S
atom 1.9953210896943574 5.0045179704021088 7.4570790147974249 S
atom 8.0137148511098601 5.0045179704021088 7.4570790147974257 S
atom 0.0000000000000000 2.7730758957784181 2.4451492277127205 S
atom 5.0045179704021088 2.2314420746236894 2.4451492277127200 S
atom -0.0000000000000000 7.2359600450257933 2.4451492277127200 S
atom 5.0045179704021088 7.7775938661805339 2.4451492277127205 S
atom -0.0000000000000000 1.9953210896943572 7.4570790147974240 S
atom 5.0045179704021088 3.0091968807077523 7.4570790147974249 S
atom 0.0000000000000000 8.0137148511098601 7.4570790147974249 S
atom 5.0045179704021088 6.9998390600964608 7.4570790147974240 S
atom 0.0000000000000000 -0.0000000000000000 9.9945140100401346 Ba
atom 5.0045179704021088 -0.0000000000000000 9.9945140100401346 Ba
atom 0.0000000000000000 5.0045179704021088 9.9945140100401346 Ba
atom 5.0045179704021088 5.0045179704021088 9.9945140100401346 Ba
atom -0.0000000000000000 -0.0000000000000000 15.0574212231050879 Ba
atom 5.0045179704021088 -0.0000000000000000 15.0574212231050879 Ba
atom 0.0000000000000000 5.0045179704021088 15.0574212231050879 Ba
atom 5.0045179704021088 5.0045179704021088 15.0574212231050879 Ba
atom 2.5022589852010544 2.5022589852010544 12.5259676165726130 Zr
atom 7.5067769556031578 2.5022589852010544 12.5259676165726130 Zr
atom 2.5022589852010544 7.5067769556031578 12.5259676165726130 Zr
atom 7.5067769556031578 7.5067769556031578 12.5259676165726130 Zr
atom 2.5022589852010544 2.5022589852010544 17.6131778370140637 Zr
atom 7.5067769556031578 2.5022589852010544 17.6131778370140637 Zr
atom 2.5022589852010544 7.5067769556031578 17.6131778370140637 Zr
atom 7.5067769556031578 7.5067769556031578 17.6131778370140637 Zr
atom 2.5022589852010544 2.5022589852010544 9.9901720687060109 S
atom 7.5067769556031578 2.5022589852010544 9.9901720687060109 S
atom 2.5022589852010544 7.5067769556031578 9.9901720687060109 S
atom 7.5067769556031578 7.5067769556031578 9.9901720687060109 S
atom 2.5022589852010544 2.5022589852010544 15.0617631644392205 S
atom 7.5067769556031578 2.5022589852010544 15.0617631644392205 S
atom 2.5022589852010544 7.5067769556031578 15.0617631644392205 S
atom 7.5067769556031578 7.5067769556031578 15.0617631644392205 S
atom 2.0031709367516011 -0.0000000000000000 12.5259676165726130 S
atom 8.0058650040526107 0.0000000000000000 12.5259676165726130 S
atom 3.0013470336505015 5.0045179704021088 12.5259676165726130 S
atom 7.0076889071537067 5.0045179704021088 12.5259676165726130 S
atom 3.0091968807077518 0.0000000000000005 17.5948562183478003 S
atom 6.9998390600964608 -0.0000000000000000 17.5948562183478003 S
atom 1.9953210896943574 5.0045179704021088 17.5948562183478003 S
atom 8.0137148511098601 5.0045179704021088 17.5948562183478003 S
atom 0.0000000000000000 3.0013470336505024 12.5259676165726130 S
atom 5.0045179704021088 2.0031709367516020 12.5259676165726130 S
atom -0.0000000000000000 7.0076889071537050 12.5259676165726130 S
atom 5.0045179704021088 8.0058650040526089 12.5259676165726130 S
atom -0.0000000000000000 1.9953210896943572 17.5948562183478003 S
atom 5.0045179704021088 3.0091968807077523 17.5948562183478003 S
atom 0.0000000000000000 8.0137148511098601 17.5948562183478003 S
atom 5.0045179704021088 6.9998390600964608 17.5948562183478003 S
atom -0.0000000000000000 -0.0000000000000000 20.1093995252392332 Ba
atom 5.0045179704021088 -0.0000000000000000 20.1093995252392332 Ba
atom -0.0000000000000000 5.0045179704021088 20.1093995252392332 Ba
atom 5.0045179704021088 5.0045179704021088 20.1093995252392332 Ba
atom -0.0000000000000000 -0.0000000000000000 24.8632878997135727 Ba
atom 5.0045179704021088 -0.0000000000000000 24.8632878997135727 Ba
atom 0.0000000000000000 5.0045179704021088 24.8632878997135727 Ba
atom 5.0045179704021088 5.0045179704021088 24.8632878997135727 Ba
atom 2.5022589852010544 2.5022589852010544 22.7285859227660190 Zr
atom 7.5067769556031578 2.5022589852010544 22.7285859227660190 Zr
atom 2.5022589852010544 7.5067769556031578 22.7285859227660190 Zr
atom 7.5067769556031578 7.5067769556031578 22.7285859227660190 Zr
atom 2.5022589852010544 2.5022589852010544 20.1284541651619406 S
atom 7.5067769556031578 2.5022589852010544 20.1284541651619406 S
atom 2.5022589852010544 7.5067769556031578 20.1284541651619406 S
atom 7.5067769556031578 7.5067769556031578 20.1284541651619406 S
atom 2.5022589852010544 2.5022589852010544 25.2389965360111361 S
atom 7.5067769556031578 2.5022589852010544 25.2389965360111361 S
atom 2.5022589852010544 7.5067769556031578 25.2389965360111361 S
atom 7.5067769556031578 7.5067769556031578 25.2389965360111361 S
atom 2.2314420746236894 -0.0000000000000000 22.6067860054325394 S
atom 7.7775938661805339 0.0000000000000000 22.6067860054325394 S
atom 2.7730758957784163 5.0045179704021088 22.6067860054325394 S
atom 7.2359600450257933 5.0045179704021088 22.6067860054325394 S
atom 0.0000000000000000 2.7730758957784181 22.6067860054325394 S
atom 5.0045179704021088 2.2314420746236894 22.6067860054325394 S
atom -0.0000000000000000 7.2359600450257933 22.6067860054325394 S
atom 5.0045179704021088 7.7775938661805339 22.6067860054325394 S
atom 2.5022589852010544 2.5022589852010544 28.3683436535911468 Ba
atom 7.5067769556031578 2.5022589852010544 28.3683436535911468 Ba
atom 2.5022589852010544 7.5067769556031578 28.3683436535911468 Ba
atom 7.5067769556031578 7.5067769556031578 28.3683436535911468 Ba
atom 2.5022589852010544 2.5022589852010544 33.1673310330853468 Ba
atom 7.5067769556031578 2.5022589852010544 33.1673310330853468 Ba
atom 2.5022589852010544 7.5067769556031578 33.1673310330853468 Ba
atom 7.5067769556031578 7.5067769556031578 33.1673310330853468 Ba
atom 5.0045179704021088 5.0045179704021088 30.4374426085485617 Zr
atom 10.0090359408042175 5.0045179704021088 30.4374426085485617 Zr
atom 5.0045179704021088 10.0090359408042175 30.4374426085485617 Zr
atom 10.0090359408042175 10.0090359408042175 30.4374426085485617 Zr
atom 5.0045179704021088 5.0045179704021088 35.5269190230708602 Zr
atom 10.0090359408042175 5.0045179704021088 35.5269190230708602 Zr
atom 5.0045179704021088 10.0090359408042175 35.5269190230708602 Zr
atom 10.0090359408042175 10.0090359408042175 35.5269190230708602 Zr
atom 5.0045179704021088 5.0045179704021088 27.9327533875661125 S
atom 10.0090359408042175 5.0045179704021088 27.9327533875661125 S
atom 5.0045179704021088 10.0090359408042175 27.9327533875661125 S
atom 10.0090359408042175 10.0090359408042175 27.9327533875661125 S
atom 5.0045179704021088 5.0045179704021088 33.0221755320106283 S
atom 10.0090359408042175 5.0045179704021088 33.0221755320106283 S
atom 5.0045179704021088 10.0090359408042175 33.0221755320106283 S
atom 10.0090359408042175 10.0090359408042175 33.0221755320106283 S
atom 5.0045179704021088 2.5022553076966783 30.5483874977274148 S
atom 10.0090359408042175 2.5022626627054252 30.5483874977274148 S
atom 5.0045179704021088 7.5067806331075353 30.5483874977274148 S
atom 10.0090359408042175 7.5067732780987795 30.5483874977274148 S
atom 5.0045179704021088 2.5022593255375343 35.5510573704582526 S
atom 10.0090359408042175 2.5022586448645736 35.5510573704582455 S
atom 5.0045179704021088 7.5067766152666753 35.5510573704582455 S
atom 10.0090359408042175 7.5067772959396395 35.5510573704582526 S
atom 2.5022626627054243 5.0045179704021088 30.5483874977274148 S
atom 7.5067732780987795 5.0045179704021088 30.5483874977274112 S
atom 2.5022553076966796 10.0090359408042175 30.5483874977274112 S
atom 7.5067806331075326 10.0090359408042175 30.5483874977274148 S
atom 2.5022586448645736 5.0045179704021088 35.5510573704582455 S
atom 7.5067772959396395 5.0045179704021088 35.5510573704582455 S
atom 2.5022593255375343 10.0090359408042175 35.5510573704582455 S
atom 7.5067766152666744 10.0090359408042175 35.5510573704582455 S
atom 2.5022589852010544 2.5022589852010544 38.1009877774328629 Ba
atom 7.5067769556031578 2.5022589852010544 38.1009877774328629 Ba
atom 2.5022589852010544 7.5067769556031578 38.1009877774328629 Ba
atom 7.5067769556031578 7.5067769556031578 38.1009877774328629 Ba
atom 2.5022589852010544 2.5022589852010544 43.0672823779576817 Ba
atom 7.5067769556031578 2.5022589852010544 43.0672823779576817 Ba
atom 2.5022589852010544 7.5067769556031578 43.0672823779576817 Ba
atom 7.5067769556031578 7.5067769556031578 43.0672823779576817 Ba
atom 5.0045179704021088 5.0045179704021088 40.5841350776952723 Zr
atom 10.0090359408042175 5.0045179704021088 40.5841350776952723 Zr
atom 5.0045179704021088 10.0090359408042175 40.5841350776952723 Zr
atom 10.0090359408042175 10.0090359408042175 40.5841350776952723 Zr
atom 5.0045179704021088 5.0045179704021088 45.6413511323197625 Zr
atom 10.0090359408042175 5.0045179704021088 45.6413511323197625 Zr
atom 5.0045179704021088 10.0090359408042175 45.6413511323197625 Zr
atom 10.0090359408042175 10.0090359408042175 45.6413511323197625 Zr
atom 5.0045179704021088 5.0045179704021088 38.0638322071323358 S
atom 10.0090359408042175 5.0045179704021088 38.0638322071323358 S
atom 5.0045179704021088 10.0090359408042175 38.0638322071323358 S
atom 10.0090359408042175 10.0090359408042175 38.0638322071323358 S
atom 5.0045179704021088 5.0045179704021088 43.1044379482582940 S
atom 10.0090359408042175 5.0045179704021088 43.1044379482582940 S
atom 5.0045179704021088 10.0090359408042175 43.1044379482582940 S
atom 10.0090359408042175 10.0090359408042175 43.1044379482582940 S
atom 5.0045179704021088 2.5022589602749425 40.5841350776952723 S
atom 10.0090359408042175 2.5022590101271627 40.5841350776952723 S
atom 5.0045179704021088 7.5067769805292635 40.5841350776952723 S
atom 10.0090359408042175 7.5067769306770478 40.5841350776952723 S
atom 5.0045179704021088 2.5022593255375352 45.6172127849323772 S
atom 10.0090359408042175 2.5022586448645736 45.6172127849323772 S
atom 5.0045179704021088 7.5067766152666753 45.6172127849323772 S
atom 10.0090359408042175 7.5067772959396395 45.6172127849323772 S
atom 2.5022590101271627 5.0045179704021088 40.5841350776952723 S
atom 7.5067769306770478 5.0045179704021088 40.5841350776952723 S
atom 2.5022589602749443 10.0090359408042175 40.5841350776952723 S
atom 7.5067769805292626 10.0090359408042175 40.5841350776952723 S
atom 2.5022586448645736 5.0045179704021088 45.6172127849323843 S
atom 7.5067772959396395 5.0045179704021088 45.6172127849323843 S
atom 2.5022593255375343 10.0090359408042175 45.6172127849323843 S
atom 7.5067766152666744 10.0090359408042175 45.6172127849323843 S
atom 2.5022589852010544 2.5022589852010544 48.0009391223051765 Ba
atom 7.5067769556031578 2.5022589852010544 48.0009391223051765 Ba
atom 2.5022589852010544 7.5067769556031578 48.0009391223051765 Ba
atom 7.5067769556031578 7.5067769556031578 48.0009391223051765 Ba
atom 2.5022589852010544 2.5022589852010544 52.7999265017993764 Ba
atom 7.5067769556031578 2.5022589852010544 52.7999265017993764 Ba
atom 2.5022589852010544 7.5067769556031578 52.7999265017993764 Ba
atom 7.5067769556031578 7.5067769556031578 52.7999265017993764 Ba
atom 5.0045179704021088 5.0045179704021088 50.7308275468419723 Zr
atom 10.0090359408042175 5.0045179704021088 50.7308275468419723 Zr
atom 5.0045179704021088 10.0090359408042175 50.7308275468419723 Zr
atom 10.0090359408042175 10.0090359408042175 50.7308275468419723 Zr
atom 5.0045179704021088 5.0045179704021088 48.1460946233799518 S
atom 10.0090359408042175 5.0045179704021088 48.1460946233799518 S
atom 5.0045179704021088 10.0090359408042175 48.1460946233799518 S
atom 10.0090359408042175 10.0090359408042175 48.1460946233799518 S
atom 5.0045179704021088 5.0045179704021088 53.2355167678244641 S
atom 10.0090359408042175 5.0045179704021088 53.2355167678244641 S
atom 5.0045179704021088 10.0090359408042175 53.2355167678244641 S
atom 10.0090359408042175 10.0090359408042175 53.2355167678244641 S
atom 5.0045179704021088 2.5022553076966783 50.6198826576631475 S
atom 10.0090359408042175 2.5022626627054252 50.6198826576631475 S
atom 5.0045179704021088 7.5067806331075353 50.6198826576631475 S
atom 10.0090359408042175 7.5067732780987795 50.6198826576631475 S
atom 2.5022626627054243 5.0045179704021088 50.6198826576631475 S
atom 7.5067732780987795 5.0045179704021088 50.6198826576631475 S
atom 2.5022553076966796 10.0090359408042175 50.6198826576631475 S
atom 7.5067806331075326 10.0090359408042175 50.6198826576631475 S
