#=======================================================
# FHI-aims file: sym_relax/sym_relax_RP_2_Rx0Rz_0-RyRz.in
# Created using the Atomic Simulation Environment (ASE)
# Fri Mar 14 10:21:15 2025
#=======================================================
lattice_vector 10.1108459755364848 0.0000520843109815 0.0004709796262603 
lattice_vector 0.0000520843109815 10.1108459755364883 0.0004709796262603 
lattice_vector -0.0011962356663058 -0.0011962356663057 25.3660295661678674 
atom -0.1548540308868650 -0.0000241972927694 0.2814230994753859 Ba
atom 5.2102573827777867 0.0000235919730885 0.2816691039801683 Ba
atom 0.1548604371650353 5.0554205375858325 0.2816691039801682 Ba
atom 4.9005949990368656 5.0554248326309654 0.2818940791016457 Ba
atom 0.0481617097677493 -0.0002466996538910 4.8780923125504092 Ba
atom 5.0068011873596072 -0.0001873488315059 4.8783083950196291 Ba
atom -0.0485957582531463 5.0552095967812347 4.8783083950196255 Ba
atom 5.1036107396914687 5.0552023302698377 4.8785632921766640 Ba
atom 2.5276113727683995 2.5153670336703877 2.3475511120255681 Zr
atom 7.5830361113346392 2.5398775571905867 2.3477946721606267 Zr
atom 2.5276391657218906 7.5952745028033402 2.3477946721606284 Zr
atom 7.5830604026921344 7.5708160635941049 2.3480220916518273 Zr
atom 2.5273758157164430 2.5151374242477487 7.4090770150356580 Zr
atom 7.5828005542826631 2.5396479477679441 7.4093205751707298 Zr
atom 2.5274036086699212 7.5950448933807024 7.4093205751707307 Zr
atom 7.5828248456401530 7.5705864541714663 7.4095479946619234 Zr
atom 2.5277787573219856 2.8831430189289717 -0.1397434142767622 S
atom 7.5831400050470767 2.1723277864896016 -0.1395353166841726 S
atom 2.5277430594343233 7.2277247321023497 -0.1395353166841725 S
atom 7.5832277872457290 7.9385920488526995 -0.1392724346505020 S
atom 2.5274602925224037 2.0898319414102238 4.8782968383225054 S
atom 7.5829516345286798 2.9651830400281129 4.8785748488737886 S
atom 2.5275546889159295 8.0205799856408682 4.8785748488737877 S
atom 7.5829093224461275 7.1452809713339471 4.8787678179487619 S
atom 2.5276062377705744 -0.0000905787759001 2.0403744574909410 S
atom 7.5829952054852239 -0.0000985365538613 2.8004511215472623 S
atom 2.5275982598724824 5.0552984090588842 2.8004511215472609 S
atom 7.5830552676943048 5.0553584511478267 2.0408454371172042 S
atom 2.5273566593567813 -0.0003434697094972 7.7160262500790946 S
atom 7.5828136671785948 -0.0002834276205540 6.9564205656490197 S
atom 2.5274167215658485 5.0551135179921909 6.9564205656490197 S
atom 7.5828056892804971 5.0551055602142281 7.7164972297053485 S
atom -0.0001008654352105 2.5275841446479523 2.4610059069581980 S
atom 5.0553169019184043 2.5276055912531668 2.4613419790984037 S
atom -0.0000800436943453 7.5830025368659184 2.4613419790984032 S
atom 5.0553481644885245 7.5830331745716766 2.4614768865844581 S
atom -0.0003331830501865 2.5273787524793963 7.2953948006118319 S
atom 5.0550950251326672 2.5274093901851633 7.2955297080978898 S
atom -0.0003019204800705 7.5828063357978994 7.2955297080978898 S
atom 5.0551158468735391 7.5828277824031352 7.2958657802380946 S
atom -0.1552944856504324 -0.0004576404584853 9.4747316035898521 Ba
atom 5.2098169280142166 -0.0004098511926275 9.4749776080946368 Ba
atom 0.1544199824014683 5.0549870944201221 9.4749776080946368 Ba
atom 4.9001545442732901 5.0549913894652407 9.4752025832161060 Ba
atom 2.5272719220040112 2.8826871949487267 9.8964070038804728 S
atom 7.5826331697290907 2.1718719625093552 9.8966151014730546 S
atom 2.5272362241163373 7.2272689081221069 9.8966151014730546 S
atom 7.5827209519277217 7.9381362248724665 9.8968779835067107 S
atom 2.5271021998359422 2.3722723662418490 12.9646733723724985 Ba
atom 7.5825469347145447 2.6819868342937490 12.9649193768772832 Ba
atom 2.5271499891018019 7.7373837799064962 12.9649193768772832 Ba
atom 7.5825512297596678 7.4277213961655759 12.9651443519987613 Ba
atom 2.5268796974748260 2.5752881068964615 17.5613425854475196 Ba
atom 7.5823359939099442 2.4785306388755677 17.5615586679167421 Ba
atom 2.5269390482972072 7.5339275844883167 17.5615586679167421 Ba
atom 7.5823287273985551 7.6307371368201835 17.5618135650737663 Ba
atom 5.0424934307990981 5.0547377698971241 15.0308013849226700 Zr
atom 10.1224008999320585 5.0547655628506094 15.0310449450577348 Zr
atom 5.0670039543192953 10.1101625084633451 15.0310449450577348 Zr
atom 10.0979424607228232 10.1101867998208750 15.0312723645489221 Zr
atom 5.0422638213764470 5.0545022128451391 20.0923272879327897 Zr
atom 10.1221712905094314 5.0545300057986298 20.0925708480678331 Zr
atom 5.0667743448966602 10.1099269514113885 20.0925708480678331 Zr
atom 10.0977128513001624 10.1099512427688811 20.0927982675590719 Zr
atom 5.4102694160576839 5.0549051544507106 12.5435068586203311 S
atom 9.7548511292310689 5.0548694565630514 12.5437149562129342 S
atom 4.6994541836183155 10.1102664021757729 12.5437149562129342 S
atom 10.4657184459814179 10.1103541843744367 12.5439778382466027 S
atom 4.6169583385389181 5.0545866896511109 17.5615471112195856 S
atom 10.5477063827695776 5.0546810860446438 17.5618251217708981 S
atom 5.4923094371568251 10.1100780316573839 17.5618251217708981 S
atom 9.6724073684626362 10.1100357195748369 17.5620180908458536 S
atom 5.0547105417766662 2.5270255316935031 15.1442561798553115 S
atom 10.1101289339946518 2.5270463534343679 15.1445922519955118 S
atom 5.0547319883818833 7.5824432990471209 15.1445922519955154 S
atom 10.1101595717003825 7.5824745616172367 15.1447271594815547 S
atom 5.0545051496081070 2.5267932140785216 19.9786450735089183 S
atom 10.1099327329266302 2.5268244766486445 19.9787799809950215 S
atom 5.0545357873138794 7.5822214222613855 19.9787799809950215 S
atom 10.1099541795318526 7.5822422440022574 19.9791160531351579 S
atom 2.5270358183528101 5.0547326348992945 14.7236247303880390 S
atom 7.5824248061875954 5.0547246570011906 15.4837013944443793 S
atom 2.5270278605748491 10.1101216026139618 15.4837013944443793 S
atom 7.5824848482765344 10.1101816648230152 14.7240957100143106 S
atom 2.5267829274192164 5.0544830564854895 20.3992765229761908 S
atom 7.5822399151209048 5.0545431186945606 19.6396708385461416 S
atom 2.5268429695081545 10.1099400643073132 19.6396708385461416 S
atom 7.5822319573429526 10.1099320864092324 20.3997475026024659 S
atom 2.5266687566702246 2.3718319114782815 22.1579818764869643 Ba
atom 7.5821134915488413 2.6815463795301802 22.1582278809917774 Ba
atom 2.5267165459360825 7.7369433251429323 22.1582278809917774 Ba
atom 7.5821177865939582 7.4272809414020164 22.1584528561132750 Ba
atom 5.4098135920774499 5.0543983191327149 22.5796572767775672 S
atom 9.7543953052508101 5.0543626212450539 22.5798653743701507 S
atom 4.6989983596380718 10.1097595668577878 22.5798653743701507 S
atom 10.4652626220011644 10.1098473490564515 22.5801282564038317 S
