#=======================================================
# FHI-aims file: sym_relax/sym_relax_RP_4_Rx0Rz_0-Ry0.in
# Created using the Atomic Simulation Environment (ASE)
# Fri Mar 14 10:29:23 2025
#=======================================================
lattice_vector 10.0939664300163603 0.0000000000000000 0.0024851455990702 
lattice_vector 0.0000000000000000 10.0954977806800894 -0.0000000000000000 
lattice_vector 0.0088978816624390 -0.0000000000000002 45.1563659497400280 
atom -0.1609689482440339 -0.0000000000000000 0.2840930845249443 Ba
atom 5.1971838349298256 0.0000000000000000 0.2844783977754045 Ba
atom 0.1502006199216531 5.0477488903400456 0.2832358249758695 Ba
atom 4.8860142667641222 5.0477488903400456 0.2853356573244795 Ba
atom 0.0098019735045141 -0.0000000000000000 4.9440482112704354 Ba
atom 4.9975691559028599 -0.0000000000000000 4.9345704857990231 Ba
atom -0.0494140591053090 5.0477488903400456 4.9333279129994940 Ba
atom 5.0567851885126816 5.0477488903400456 4.9452907840699751 Ba
atom 2.5164471842639426 2.5108300836575932 2.3241286430838333 Zr
atom 7.5634303992721073 2.5369188066824542 2.3253712158833717 Zr
atom 2.5164471842639426 7.5846676970225104 2.3241286430838342 Zr
atom 7.5634303992721073 7.5585789739976361 2.3253712158833699 Zr
atom 2.5187422407787006 2.5239648270446238 7.3360172763525009 Zr
atom 7.5657254557868718 2.5237840632954267 7.3372598491520318 Zr
atom 2.5187422407786997 7.5715329536354794 7.3360172763524973 Zr
atom 7.5657254557868718 7.5717137173846751 7.3372598491520353 Zr
atom 2.5183815775626708 2.8802562337799764 -0.1566860218655687 S
atom 7.5653647925708487 2.1674926565600741 -0.1554434490660339 S
atom 2.5183815775626699 7.2152415469001161 -0.1566860218655688 S
atom 7.5653647925708487 7.9280051241200278 -0.1554434490660339 S
atom 2.5196782666372970 2.0514336572790266 4.8637009242267819 S
atom 7.5666614816454620 2.9963152330610225 4.8649434970263208 S
atom 2.5196782666372961 8.0440641234010783 4.8637009242267801 S
atom 7.5666614816454620 7.0991825476190664 4.8649434970263199 S
atom 2.5188859286283822 -0.0000000000000000 2.0078903552837244 S
atom 7.5611680256281604 -0.0000000000000000 2.7992870762439237 S
atom 2.5141848106199944 5.0477488903400456 2.7980445034443897 S
atom 7.5658691436365508 5.0477488903400456 2.0091329280832575 S
atom 2.5854896445080762 -0.0000000000000000 7.8011370384936729 S
atom 7.5176775405790757 -0.0000000000000000 6.8785485490576459 S
atom 2.4706943255708911 5.0477488903400456 6.8773059762581088 S
atom 7.6324728595162314 5.0477488903400456 7.8023796112932082 S
atom -0.0063926509790237 2.5231573287546172 2.4565800352106368 S
atom 5.0405905640291548 2.5245915615854284 2.4578226080101713 S
atom -0.0063926509790237 7.5723404519254700 2.4565800352106355 S
atom 5.0405905640291548 7.5709062190946668 2.4578226080101704 S
atom -0.0013395854676473 2.4562860202129722 7.3436777115501641 S
atom 5.0456436295405229 2.5914628701270770 7.3449202843497030 S
atom -0.0013395854676473 7.6392117604671332 7.3436777115501659 S
atom 5.0456436295405229 7.5040349105530160 7.3449202843497039 S
atom -0.0086621736151090 -0.0000000000000000 9.7814244833367638 Ba
atom 5.0595140328243495 -0.0000000000000000 9.8530206763062615 Ba
atom 0.0125308178161701 5.0477488903400456 9.8517781035067333 Ba
atom 5.0383210413930444 5.0477488903400456 9.7826670561363276 Ba
atom 0.0532827033063696 -0.0000000000000001 14.6998746738440182 Ba
atom 5.0410498857047035 -0.0000000000000000 14.6903969483726016 Ba
atom -0.0059333293034531 5.0477488903400456 14.6891543755730698 Ba
atom 5.1002659183145358 5.0477488903400456 14.7011172466435500 Ba
atom 2.5321096184305381 2.5239648270446220 12.2984278832905378 Zr
atom 7.5790928334386889 2.5237840632954276 12.2996704560900927 Zr
atom 2.5321096184305381 7.5715329536354794 12.2984278832905378 Zr
atom 7.5790928334386871 7.5717137173846734 12.2996704560900927 Zr
atom 2.5344046749452929 2.5108300836575914 17.3103165165592188 Zr
atom 7.5813878899534659 2.5369188066824524 17.3115590893587417 Zr
atom 2.5344046749452938 7.5846676970225086 17.3103165165592188 Zr
atom 7.5813878899534659 7.5585789739976397 17.3115590893587417 Zr
atom 2.5254259296046175 3.0277894408217145 9.8172225798215340 S
atom 7.5724091446127888 2.0199594495183306 9.8184651526210498 S
atom 2.5254259296046175 7.0677083398583740 9.8172225798215340 S
atom 7.5724091446127888 8.0755383311617521 9.8184651526210498 S
atom 2.5311735925719310 2.0514336572790257 14.7707442354162488 S
atom 7.5781568075800960 2.9963152330610234 14.7719868082157966 S
atom 2.5311735925719310 8.0440641234010766 14.7707442354162541 S
atom 7.5781568075800960 7.0991825476190691 14.7719868082157983 S
atom 2.4653622147011509 -0.0000000000000000 11.8333081211493916 S
atom 7.6271407486465028 -0.0000000000000000 12.7583817561844963 S
atom 2.5801575336383356 5.0477488903400456 12.7571391833849539 S
atom 7.5123454297093364 5.0477488903400456 11.8345506939489269 S
atom 2.5319659305808506 -0.0000000000000001 17.6265548043593512 S
atom 7.5836502635974012 -0.0000000000000001 16.8376432289981821 S
atom 2.5366670485892349 5.0477488903400456 16.8364006561986592 S
atom 7.5789491455890268 5.0477488903400456 17.6277973771588812 S
atom 0.0052082296687083 2.5914628701270761 12.2895248752933473 S
atom 5.0521914446768692 2.4562860202129722 12.2907674480928755 S
atom 0.0052082296687083 7.5040349105530177 12.2895248752933508 S
atom 5.0521914446768692 7.6392117604671297 12.2907674480928844 S
atom 0.0102612951800837 2.5245915615854284 17.1766225516329172 S
atom 5.0572445101882453 2.5231573287546176 17.1778651244324507 S
atom 0.0102612951800837 7.5709062190946703 17.1766225516329172 S
atom 5.0572445101882453 7.5723404519254700 17.1778651244324507 S
atom -0.1463319757205919 -0.0000000000000001 19.3499667618676519 Ba
atom 5.2118208074532726 -0.0000000000000001 19.3503520751180709 Ba
atom 0.1648375924450938 5.0477488903400456 19.3491095023185196 Ba
atom 4.9006512392875701 5.0477488903400456 19.3512093346671605 Ba
atom 2.5324702816465603 2.8802562337799760 19.7911311815086037 S
atom 7.5794534966547218 2.1674926565600749 19.7923737543081373 S
atom 2.5324702816465603 7.2152415469001161 19.7911311815086037 S
atom 7.5794534966547218 7.9280051241200296 19.7923737543081373 S
atom 2.5320357015662633 2.3681412629737908 22.8648333891493181 Ba
atom 7.5790189165744239 2.6796076273662544 22.8660759619488481 Ba
atom 2.5320357015662633 7.7273565177063022 22.8648333891493039 Ba
atom 7.5790189165744239 7.4158901533138541 22.8660759619488623 Ba
atom 2.5308900394463874 2.5537145317557117 27.5205982982813211 Ba
atom 7.5778732544545431 2.4940343585843365 27.5218408710808902 Ba
atom 2.5308900394463869 7.5417832489243919 27.5205982982813318 Ba
atom 7.5778732544545431 7.6014634220957635 27.5218408710808760 Ba
atom 5.0419460752661704 5.0477488903400456 24.9051563227458423 Zr
atom 10.1150890179976276 5.0477488903400456 24.9061416476434694 Zr
atom 5.0681058029894555 10.0954977806800912 24.9048990748439394 Zr
atom 10.0889292902743435 10.0954977806800912 24.9063988955453546 Zr
atom 5.0541956315067704 5.0477488903400456 29.9159335075965025 Zr
atom 10.1005049163180747 5.0477488903400456 29.9170331969070773 Zr
atom 5.0535217013098990 10.0954977806800912 29.9157906241075864 Zr
atom 10.1011788465149479 10.0954977806800912 29.9171760803960076 Zr
atom 5.4123527100102082 5.0477488903400456 22.4245438237657950 S
atom 9.7458300407758038 5.0477488903400456 22.4253518396783669 S
atom 4.6988468257676113 10.0954977806800912 22.4241092668788156 S
atom 10.4593359250183990 10.0954977806800912 22.4257863965653073 S
atom 4.5799340594113360 5.0477488903400456 27.4440932051796729 S
atom 10.5759157898366940 5.0477488903400456 27.4455018238677440 S
atom 5.5289325748285307 10.0954977806800912 27.4442592510681784 S
atom 9.6269172744195117 10.0954977806800912 27.4453357779792597 S
atom 5.0549849556812338 2.5238610738136313 25.0385078663556584 S
atom 10.1019681706893856 2.5238878165264178 25.0397504391552026 S
atom 5.0549849556812338 7.5716367068664603 25.0385078663556619 S
atom 10.1019681706893856 7.5716099641536774 25.0397504391552133 S
atom 5.0538267919069160 2.5238753446371720 29.9253940484594807 S
atom 10.1008100069150899 2.5238735457028816 29.9266366212590178 S
atom 5.0538267919069177 7.5716224360429258 29.9253940484594771 S
atom 10.1008100069150881 7.5716242349772207 29.9266366212590107 S
atom 2.5316049828551104 5.0477488903400456 24.5866817988348849 S
atom 7.5784134446125497 5.0477488903400456 25.3804758528948398 S
atom 2.5314302296043811 10.0954977806800912 25.3792332800953098 S
atom 7.5785881978632741 10.0954977806800912 24.5879243716344398 S
atom 2.5302502565260721 5.0477488903400456 30.3827609763083366 S
atom 7.5774472210150083 5.0477488903400456 29.4546105254494464 S
atom 2.5304640060068238 10.0954977806800912 29.4533679526499270 S
atom 7.5772334715342451 10.0954977806800912 30.3840035491078169 S
atom 2.5298748704358314 2.5138695758515701 32.3954055546915640 Ba
atom 7.5768580854439991 2.5338793144884764 32.3966481274911118 Ba
atom 2.5298748704358314 7.5816282048285286 32.3954055546915640 Ba
atom 7.5768580854439991 7.5616184661916170 32.3966481274911118 Ba
atom 2.5288597014252776 2.5537145317557117 37.2702128111018283 Ba
atom 7.5758429164334515 2.4940343585843356 37.2714553839014329 Ba
atom 2.5288597014252776 7.5417832489243883 37.2702128111018354 Ba
atom 7.5758429164334515 7.6014634220957653 37.2714553839014258 Ba
atom 5.0532112545699377 5.0477488903400456 34.8762630580750397 Zr
atom 10.0995205393812473 5.0477488903400456 34.8773627473858028 Zr
atom 5.0525373243730707 10.0954977806800912 34.8761201745862124 Zr
atom 10.1001944695781081 10.0954977806800912 34.8775056308745732 Zr
atom 5.0386271528903865 5.0477488903400456 39.8871546073387506 Zr
atom 10.1117700956218464 5.0477488903400456 39.8881399322362711 Zr
atom 5.0647868806136680 10.0954977806800912 39.8868973594367233 Zr
atom 10.0856103678985463 10.0954977806800912 39.8883971801382842 Zr
atom 5.5606694555438265 5.0477488903400456 32.3961618400615663 S
atom 9.5930467153441406 5.0477488903400456 32.3971344149207567 S
atom 4.5460635003359950 10.0954977806800912 32.3958918421211877 S
atom 10.6076526705520013 10.0954977806800912 32.3974044128609435 S
atom 4.5778003810513042 5.0477488903400456 37.3477944311144583 S
atom 10.5737821114766799 5.0477488903400456 37.3492030498024974 S
atom 5.5267988964684829 10.0954977806800912 37.3479604770030278 S
atom 9.6247835960595030 10.0954977806800912 37.3490370039139847 S
atom 5.0529061639729260 2.5238735457028816 34.8666596337231240 S
atom 10.0998893789810928 2.5238753446371711 34.8679022065226860 S
atom 5.0529061639729260 7.5716242349772207 34.8666596337231525 S
atom 10.0998893789810928 7.5716224360429241 34.8679022065227002 S
atom 5.0517480001986108 2.5238878165264160 39.7535458158269535 S
atom 10.0987312152067741 2.5238610738136313 39.7547883886265012 S
atom 5.0517480001986108 7.5716099641536747 39.7535458158269535 S
atom 10.0987312152067741 7.5716367068664603 39.7547883886265154 S
atom 2.5294994843455982 5.0477488903400456 34.4080501330747737 S
atom 7.5762689498730031 5.0477488903400456 35.3386857295327630 S
atom 2.5292857348648425 10.0954977806800912 35.3374431567332437 S
atom 7.5764826993537584 10.0954977806800912 34.4092927058743214 S
atom 2.5281447580165635 5.0477488903400456 40.2041293105482396 S
atom 7.5753027262754653 5.0477488903400456 39.4128204020872346 S
atom 2.5283195112672878 10.0954977806800912 39.4115778292877934 S
atom 7.5751279730247365 10.0954977806800912 40.2053718833477518 S
atom 2.5277140393054016 2.3681412629737899 41.9259777202338668 Ba
atom 7.5746972543135760 2.6796076273662561 41.9272202930333719 Ba
atom 2.5277140393054025 7.7273565177063022 41.9259777202338668 Ba
atom 7.5746972543135769 7.4158901533138559 41.9272202930333719 Ba
atom 5.4078861301122227 5.0477488903400456 42.3679444153039100 S
atom 9.7413634608777890 5.0477488903400456 42.3687524312164996 S
atom 4.6943802458696293 10.0954977806800912 42.3675098584168808 S
atom 10.4548693451203594 10.0954977806800912 42.3691869881034151 S
