#=======================================================
# FHI-aims file: sym_relax/sym_relax_RP_10_RxRyMz_RxRyMz.in
# Created using the Atomic Simulation Environment (ASE)
# Mon Mar 17 18:33:47 2025
#=======================================================
lattice_vector 10.0085137232355077 -0.0762039807846753 0.0000000000000000 
lattice_vector -0.0762039807846753 10.0085137232354793 0.0000000000000000 
lattice_vector 0.0000000000000000 0.0000000000000000 105.9991674533137740 
atom 0.1413389467844459 -0.1724643817491635 0.2099719117892702 Ba
atom 5.1767212433669290 -0.1794409371767814 0.2099719117892703 Ba
atom 0.1343623913568280 4.8629179148332975 0.2099719117892702 Ba
atom 5.1074938180098686 4.7936904894762309 0.2099719117892702 Ba
atom -0.2696662541407926 0.1911670346871448 5.0063184761164869 Ba
atom 4.8130898269306321 0.2315642637484553 5.0063184761164869 Ba
atom -0.2292690250794825 5.2739231157585191 5.0063184761164869 Ba
atom 4.6964886170846381 5.1573219059125339 5.0063184761164869 Ba
atom 2.5003492093500559 2.4741711820641066 2.3966126100742038 Zr
atom 7.4962405507790537 2.4277036714830174 2.3966126100742038 Zr
atom 2.4538816987689631 7.4700625234930849 2.3966126100742038 Zr
atom 7.4665040805754801 7.4403260532895237 2.3966126100742038 Zr
atom 2.4720701550321560 2.4888463555826572 7.4508541906132333 Zr
atom 7.4815653772605204 2.4559827258009173 7.4508541906132333 Zr
atom 2.4392065252504156 7.4983415778109910 7.4508541906132333 Zr
atom 7.4382250262575758 7.4550012268080526 7.4508541906132333 Zr
atom 2.6575533355376240 2.7338215942680080 -0.1107003416435139 S
atom 7.2365901385751616 2.2704995452954462 -0.1107003416435139 S
atom 2.1942312865650599 7.3128583973055177 -0.1107003416435139 S
atom 7.6237082067630517 7.6999764654934042 -0.1107003416435139 S
atom 2.2312031574464282 2.1793376546488843 4.9578257837635888 S
atom 7.7910740781942796 2.6968497233866460 4.9578257837635888 S
atom 2.7487152261841938 7.7392085753967246 4.9578257837635888 S
atom 7.1973580286718537 7.1454925258742783 4.9578257837635888 S
atom 2.7965720728336652 -0.0181348560252483 2.2239426970801190 S
atom 7.1722252723112776 -0.0533604441254226 2.7763518595229870 S
atom 2.1298664203011985 4.9889984078846563 2.7763518595229870 S
atom 7.7627269440590858 4.9480200152001528 2.2239426970801190 S
atom 2.8951306401962729 -0.0176691793342471 7.7849829858628805 S
atom 7.1188797669361890 -0.0527847361352533 7.1621630766409226 S
atom 2.0765209149260899 4.9895741158748121 7.1621630766409226 S
atom 7.8612855114217020 4.9484856918911575 7.7849829858628805 S
atom -0.0199671343670873 2.2076847887840825 2.2239426970801190 S
atom 4.9814133249585071 2.7981864605318756 2.7763518595229870 S
atom -0.0609455270515893 7.8405453125419564 2.7763518595229870 S
atom 4.9461877368583282 7.1738396600094818 2.2239426970801190 S
atom -0.0204328110580886 2.1091262214214854 7.7849829858628805 S
atom 4.9808376169683370 2.8515319659069802 7.1621630766409226 S
atom -0.0615212350417589 7.8938908179170584 7.1621630766409226 S
atom 4.9457220601673244 7.0752810926468719 7.7849829858628805 S
atom 0.2850268899725705 -0.1831499709410548 9.9800715649493270 Ba
atom 5.1874068325588256 -0.3231288803649054 9.9800715649493270 Ba
atom 0.1450479805487189 4.7192299716451718 9.9800715649493270 Ba
atom 5.2511817611979978 4.7830049002843413 9.9800715649493270 Ba
atom -0.2861456807668362 0.1822729656328909 14.9836723771012323 Ba
atom 4.8219838959848662 0.2480436903744989 14.9836723771012323 Ba
atom -0.2203749560252288 5.2904025423845775 14.9836723771012323 Ba
atom 4.6800091904585797 5.1484278368582927 14.9836723771012323 Ba
atom 2.4880747390233351 2.4812433342696769 12.4676967477944167 Zr
atom 7.4891683985734980 2.4399781418097333 12.4676967477944167 Zr
atom 2.4468095465634017 7.4823369938198168 12.4676967477944167 Zr
atom 7.4542296102487677 7.4473982054950705 12.4676967477944167 Zr
atom 2.4809884676897429 2.4838488817391395 17.4815785427720662 Zr
atom 7.4865628511040345 2.4470644131433352 17.4815785427720662 Zr
atom 2.4442039990939377 7.4894232651534107 17.4815785427720662 Zr
atom 7.4471433389151720 7.4500037529645482 17.4815785427720662 Zr
atom 2.7464837666022124 2.8115785172773227 9.9708609351572584 S
atom 7.1588332155658527 2.1815691142308569 9.9708609351572584 S
atom 2.1164743635557506 7.2239279662409412 9.9708609351572584 S
atom 7.7126386378276335 7.7777333885027264 9.9708609351572584 S
atom 2.2167758547044465 2.1516150231348559 14.9806930551834245 S
atom 7.8187967097083266 2.7112770261286254 14.9806930551834245 S
atom 2.7764378576982156 7.7536358781386960 14.9806930551834245 S
atom 7.1829307259298698 7.1177698943602588 14.9806930551834245 S
atom 2.8887761950513720 -0.0216788967469729 12.1624058265306108 S
atom 7.1205146265600341 -0.0571858561905264 12.8014254412290107 S
atom 2.0781557745499417 4.9851729958195410 12.8014254412290107 S
atom 7.8549310662767855 4.9444759744784363 12.1624058265306108 S
atom 2.8870606460494121 -0.0196470622518216 17.8092944474404220 S
atom 7.1207211799760524 -0.0551781798769615 17.1664013463963734 S
atom 2.0783623279659422 4.9871806721331087 17.1664013463963734 S
atom 7.8532155172748164 4.9465078089735695 17.8092944474404220 S
atom -0.0164230936453626 2.1154806665663868 12.1624058265306108 S
atom 4.9852387370236082 2.8498971062831320 12.8014254412290107 S
atom -0.0571201149864859 7.8922559582932070 12.8014254412290107 S
atom 4.9497317775800500 7.0816355377917839 12.1624058265306108 S
atom -0.0184549281405140 2.1171962155683404 17.8092944474404220 S
atom 4.9832310607100530 2.8496905528671306 17.1664013463963734 S
atom -0.0591277913000503 7.8920494048771959 17.1664013463963734 S
atom 4.9476999430849142 7.0833510867937406 17.8092944474404220 S
atom 0.2865822425544691 -0.1815549366467066 19.9907440625859962 Ba
atom 5.1858117982644538 -0.3246842329468044 19.9907440625859962 Ba
atom 0.1434529462543710 4.7176746190632732 19.9907440625859962 Ba
atom 5.2527371137798804 4.7845999345787016 19.9907440625859962 Ba
atom -0.2869113061617358 0.1816247642443450 24.9998036446494645 Ba
atom 4.8226320973734271 0.2488093157693985 24.9998036446494645 Ba
atom -0.2197267546366811 5.2911681677794817 24.9998036446494645 Ba
atom 4.6792435650636790 5.1477796354697443 24.9998036446494645 Ba
atom 2.4835270933840921 2.4829996436066111 22.4938569352366358 Zr
atom 7.4874120892365470 2.4445257874489852 22.4938569352366358 Zr
atom 2.4450532372264617 7.4868846394590580 22.4938569352366358 Zr
atom 7.4496819646095132 7.4491545148320233 22.4938569352366358 Zr
atom 2.4835270933840921 2.4829996436066111 27.5057503540622932 Zr
atom 7.4874120892365470 2.4445257874489852 27.5057503540622932 Zr
atom 2.4450532372264617 7.4868846394590580 27.5057503540622932 Zr
atom 7.4496819646095132 7.4491545148320233 27.5057503540622932 Zr
atom 2.7500633828953895 2.8158420710718870 19.9903365651213782 S
atom 7.1545696617712888 2.1779894979376846 19.9903365651213782 S
atom 2.1122108097611920 7.2203483499477645 19.9903365651213782 S
atom 7.7162182541208146 7.7819969422972743 19.9903365651213782 S
atom 2.2157122897568446 2.1502707447050540 24.9998036446494645 S
atom 7.8201409881381219 2.7123405910762339 24.9998036446494645 S
atom 2.7777821361280193 7.7546994430863130 24.9998036446494645 S
atom 7.1818671609822466 7.1164256159304538 24.9998036446494645 S
atom 2.8874528337966581 -0.0204138119879557 22.1737435591595506 S
atom 7.1211516971601023 -0.0559474918060184 22.8176881537824165 S
atom 2.0787928451500006 4.9864113602040545 22.8176881537824165 S
atom 7.8536077050220827 4.9457410592374469 22.1737435591595506 S
atom 2.8874528337966581 -0.0204138119879557 27.8258637301393534 S
atom 7.1211516971601023 -0.0559474918060184 27.1819191355164484 S
atom 2.0787928451500006 4.9864113602040545 27.1819191355164484 S
atom 7.8536077050220827 4.9457410592374469 27.8258637301393534 S
atom -0.0176881784043800 2.1168040278210953 22.1737435591595506 S
atom 4.9840003726391009 2.8492600356830682 22.8176881537824165 S
atom -0.0583584793709938 7.8916188876931432 22.8176881537824165 S
atom 4.9484666928210368 7.0829588990465009 22.1737435591595506 S
atom -0.0176881784043800 2.1168040278210953 27.8258637301393534 S
atom 4.9840003726391009 2.8492600356830682 27.1819191355164484 S
atom -0.0583584793709938 7.8916188876931432 27.1819191355164484 S
atom 4.9484666928210368 7.0829588990465009 27.8258637301393534 S
atom 0.2865822425544691 -0.1815549366467066 30.0088632267129043 Ba
atom 5.1858117982644538 -0.3246842329468044 30.0088632267129043 Ba
atom 0.1434529462543710 4.7176746190632732 30.0088632267129043 Ba
atom 5.2527371137798804 4.7845999345787016 30.0088632267129043 Ba
atom -0.2861456807668362 0.1822729656328909 35.0159349121977428 Ba
atom 4.8219838959848662 0.2480436903744989 35.0159349121977428 Ba
atom -0.2203749560252288 5.2904025423845775 35.0159349121977428 Ba
atom 4.6800091904585797 5.1484278368582927 35.0159349121977428 Ba
atom 2.4809884676897429 2.4838488817391395 32.5180287465268236 Zr
atom 7.4865628511040345 2.4470644131433352 32.5180287465268236 Zr
atom 2.4442039990939377 7.4894232651534107 32.5180287465268236 Zr
atom 7.4471433389151720 7.4500037529645482 32.5180287465268236 Zr
atom 2.4880747390233351 2.4812433342696769 37.5319105415044376 Zr
atom 7.4891683985734980 2.4399781418097333 37.5319105415044376 Zr
atom 2.4468095465634017 7.4823369938198168 37.5319105415044376 Zr
atom 7.4542296102487677 7.4473982054950705 37.5319105415044376 Zr
atom 2.7500633828953895 2.8158420710718870 30.0092707241775614 S
atom 7.1545696617712888 2.1779894979376846 30.0092707241775614 S
atom 2.1122108097611920 7.2203483499477645 30.0092707241775614 S
atom 7.7162182541208146 7.7819969422972743 30.0092707241775614 S
atom 2.2167758547044465 2.1516150231348559 35.0189142341155701 S
atom 7.8187967097083266 2.7112770261286254 35.0189142341155701 S
atom 2.7764378576982156 7.7536358781386960 35.0189142341155701 S
atom 7.1829307259298698 7.1177698943602588 35.0189142341155701 S
atom 2.8870606460494121 -0.0196470622518216 32.1903128418585425 S
atom 7.1207211799760524 -0.0551781798769615 32.8332059429025094 S
atom 2.0783623279659422 4.9871806721331087 32.8332059429025094 S
atom 7.8532155172748164 4.9465078089735695 32.1903128418585425 S
atom 2.8887761950513720 -0.0216788967469729 37.8372014627683058 S
atom 7.1205146265600341 -0.0571858561905264 37.1981818480698720 S
atom 2.0781557745499417 4.9851729958195410 37.1981818480698720 S
atom 7.8549310662767855 4.9444759744784363 37.8372014627683058 S
atom -0.0184549281405140 2.1171962155683404 32.1903128418585425 S
atom 4.9832310607100530 2.8496905528671306 32.8332059429025094 S
atom -0.0591277913000503 7.8920494048771959 32.8332059429025094 S
atom 4.9476999430849142 7.0833510867937406 32.1903128418585425 S
atom -0.0164230936453626 2.1154806665663868 37.8372014627683058 S
atom 4.9852387370236082 2.8498971062831320 37.1981818480698720 S
atom -0.0571201149864859 7.8922559582932070 37.1981818480698720 S
atom 4.9497317775800500 7.0816355377917839 37.8372014627683058 S
atom 0.2850268899725705 -0.1831499709410548 40.0195357243496161 Ba
atom 5.1874068325588256 -0.3231288803649054 40.0195357243496161 Ba
atom 0.1450479805487189 4.7192299716451718 40.0195357243496161 Ba
atom 5.2511817611979978 4.7830049002843413 40.0195357243496161 Ba
atom -0.2696662541407926 0.1911670346871448 44.9932888131824669 Ba
atom 4.8130898269306321 0.2315642637484553 44.9932888131824669 Ba
atom -0.2292690250794825 5.2739231157585191 44.9932888131824669 Ba
atom 4.6964886170846381 5.1573219059125339 44.9932888131824669 Ba
atom 2.4720701550321560 2.4888463555826572 42.5487530986856868 Zr
atom 7.4815653772605204 2.4559827258009173 42.5487530986856868 Zr
atom 2.4392065252504156 7.4983415778109910 42.5487530986856868 Zr
atom 7.4382250262575758 7.4550012268080526 42.5487530986856868 Zr
atom 2.5003492093500559 2.4741711820641066 47.6029946792246648 Zr
atom 7.4962405507790537 2.4277036714830174 47.6029946792246648 Zr
atom 2.4538816987689631 7.4700625234930849 47.6029946792246648 Zr
atom 7.4665040805754801 7.4403260532895237 47.6029946792246648 Zr
atom 2.7464837666022124 2.8115785172773227 40.0287463541416670 S
atom 7.1588332155658527 2.1815691142308569 40.0287463541416670 S
atom 2.1164743635557506 7.2239279662409412 40.0287463541416670 S
atom 7.7126386378276335 7.7777333885027264 40.0287463541416670 S
atom 2.2312031574464282 2.1793376546488843 45.0417815055352762 S
atom 7.7910740781942796 2.6968497233866460 45.0417815055352762 S
atom 2.7487152261841938 7.7392085753967246 45.0417815055352762 S
atom 7.1973580286718537 7.1454925258742783 45.0417815055352762 S
atom 2.8951306401962729 -0.0176691793342471 42.2146243034360893 S
atom 7.1188797669361890 -0.0527847361352533 42.8374442126579780 S
atom 2.0765209149260899 4.9895741158748121 42.8374442126579780 S
atom 7.8612855114217020 4.9484856918911575 42.2146243034360893 S
atom 2.7965720728336652 -0.0181348560252483 47.7756645922187886 S
atom 7.1722252723112776 -0.0533604441254226 47.2232554297759393 S
atom 2.1298664203011985 4.9889984078846563 47.2232554297759393 S
atom 7.7627269440590858 4.9480200152001528 47.7756645922187886 S
atom -0.0204328110580886 2.1091262214214854 42.2146243034360893 S
atom 4.9808376169683370 2.8515319659069802 42.8374442126579780 S
atom -0.0615212350417589 7.8938908179170584 42.8374442126579780 S
atom 4.9457220601673244 7.0752810926468719 42.2146243034360893 S
atom -0.0199671343670873 2.2076847887840825 47.7756645922187886 S
atom 4.9814133249585071 2.7981864605318756 47.2232554297759393 S
atom -0.0609455270515893 7.8405453125419564 47.2232554297759393 S
atom 4.9461877368583282 7.1738396600094818 47.7756645922187886 S
atom 0.1413389467844459 -0.1724643817491635 49.7896353775096117 Ba
atom 5.1767212433669281 -0.1794409371767818 49.7896353775096117 Ba
atom 0.1343623913568271 4.8629179148332975 49.7896353775096117 Ba
atom 5.1074938180098686 4.7936904894762309 49.7896353775096117 Ba
atom 2.6575533355376240 2.7338215942680080 50.1103076309423443 S
atom 7.2365901385751634 2.2704995452954462 50.1103076309423443 S
atom 2.1942312865650599 7.3128583973055177 50.1103076309423443 S
atom 7.6237082067630517 7.6999764654934042 50.1103076309423443 S
atom 2.6244163823971554 2.3106130538635425 53.2095556384461261 Ba
atom 7.6597986789796408 2.3036364984359237 53.2095556384461261 Ba
atom 2.6174398269695347 7.3459953504459987 53.2095556384461261 Ba
atom 7.5905712536225813 7.2767679250889286 53.2095556384461261 Ba
atom 2.2134111814719195 2.6742444702998491 58.0059022027733207 Ba
atom 7.2961672625433387 2.7146416993611560 58.0059022027733207 Ba
atom 2.2538084105332210 7.7570005513712283 58.0059022027733207 Ba
atom 7.1795660526973402 7.6403993415252405 58.0059022027733207 Ba
atom 4.9834266449627842 4.9572486176768056 55.3961963367310730 Zr
atom 9.9793179863917416 4.9107811070957164 55.3961963367310730 Zr
atom 4.9369591343816701 9.9531399591058030 55.3961963367310730 Zr
atom 9.9495815161881662 9.9234034889021956 55.3961963367310730 Zr
atom 4.9551475906448745 4.9719237911953567 60.4504379172700439 Zr
atom 9.9646428128732243 4.9390601614136118 60.4504379172700439 Zr
atom 4.9222839608631270 9.9814190134236931 60.4504379172700439 Zr
atom 9.9213024618702974 9.9380786624207555 60.4504379172700439 Zr
atom 5.1406307711503301 5.2168990298807163 52.8888833850133437 S
atom 9.7196675741878789 4.7535769809081412 52.8888833850133437 S
atom 4.6773087221777772 9.7959358329182162 52.8888833850133437 S
atom 10.1067856423757707 10.1830539011061134 52.8888833850133437 S
atom 4.7142805930591409 4.6624150902615735 57.9574095104204972 S
atom 10.2741515138070021 5.1799271589993374 57.9574095104204972 S
atom 5.2317926617968888 10.2222860110094231 57.9574095104204972 S
atom 9.6804354642845514 9.6285699614869600 57.9574095104204972 S
atom 5.2796495084463713 2.4649425795874516 55.2235264237369208 S
atom 9.6553027079239904 2.4297169914872776 55.7759355861798127 S
atom 4.6129438559138958 7.4720758434973522 55.7759355861798127 S
atom 10.2458043796717977 7.4310974508128567 55.2235264237369208 S
atom 5.3782080758089847 2.4654082562784563 60.7845667125196911 S
atom 9.6019572025488902 2.4302926994774507 60.1617468032977811 S
atom 4.5595983505387876 7.4726515514875178 60.1617468032977811 S
atom 10.3443629470343978 7.4315631275038543 60.7845667125196911 S
atom 2.4631103012456195 4.6907622243967788 55.2235264237369208 S
atom 7.4644907605712119 5.2812638961445781 55.7759355861798127 S
atom 2.4221319085611226 10.3236227481546550 55.7759355861798127 S
atom 7.4292651724710526 9.6569170956221999 55.2235264237369208 S
atom 2.4626446245546223 4.5922036570341760 60.7845667125196911 S
atom 7.4639150525810418 5.3346094015196819 60.1617468032977811 S
atom 2.4215562005709494 10.3769682535297427 60.1617468032977811 S
atom 7.4287994957800274 9.5583585282595998 60.7845667125196911 S
atom 2.7681043255852775 2.2999274646716459 62.9796552916060932 Ba
atom 7.6704842681715313 2.1599485552477975 62.9796552916060932 Ba
atom 2.6281254161614269 7.2023074072578650 62.9796552916060932 Ba
atom 7.7342591968107000 7.2660823358970461 62.9796552916060932 Ba
atom 2.1969317548458744 2.6653504012455849 67.9832561037580945 Ba
atom 7.3050613315975896 2.7311211259871966 67.9832561037580945 Ba
atom 2.2627024795874875 7.7734799779972752 67.9832561037580945 Ba
atom 7.1630866260712986 7.6315052724709895 67.9832561037580945 Ba
atom 4.9711521746360514 4.9643207698823719 65.4672804744512717 Zr
atom 9.9722458341862215 4.9230555774224367 65.4672804744512717 Zr
atom 4.9298869821760940 9.9654144294325100 65.4672804744512717 Zr
atom 9.9373070458614468 9.9304756411077655 65.4672804744512717 Zr
atom 4.9640659033024468 4.9669263173518390 70.4811622694290065 Zr
atom 9.9696402867167375 4.9301418487560325 70.4811622694290065 Zr
atom 4.9272814347066518 9.9725007007661173 70.4811622694290065 Zr
atom 9.9302207745278643 9.9330811885772317 70.4811622694290065 Zr
atom 5.2295612022149172 5.2946559528900217 62.9704446618140352 S
atom 9.6419106511785557 4.6646465498435656 62.9704446618140352 S
atom 4.5995517991684611 9.7070054018536585 62.9704446618140352 S
atom 10.1957160734403409 10.2608108241154241 62.9704446618140352 S
atom 4.6998532903171615 4.6346924587475575 67.9802767818401747 S
atom 10.3018741453210261 5.1943544617413178 67.9802767818401747 S
atom 5.2595152933109262 10.2367133137514088 67.9802767818401747 S
atom 9.6660081615425852 9.6008473299729822 67.9802767818401747 S
atom 5.3718536306640763 2.4613985388657240 65.1619895531875386 S
atom 9.6035920621727513 2.4258915794221751 65.8010091678858231 S
atom 4.5612332101626585 7.4682504314322431 65.8010091678858231 S
atom 10.3380085018895080 7.4275534100911305 65.1619895531875386 S
atom 5.3701380816621302 2.4634303733608824 70.8088781740971598 S
atom 9.6037986155887669 2.4278992557357371 70.1659850730532355 S
atom 4.5614397635786581 7.4702581077458010 70.1659850730532355 S
atom 10.3362929528875398 7.4295852445862787 70.8088781740971598 S
atom 2.4666543419673537 4.5985581021790782 65.1619895531875386 S
atom 7.4683161726363174 5.3329745418958181 65.8010091678858231 S
atom 2.4259573206262188 10.3753333939059171 65.8010091678858231 S
atom 7.4328092131927574 9.5647129734044718 65.1619895531875386 S
atom 2.4646225074721939 4.6002736511810456 70.8088781740971598 S
atom 7.4663084963227604 5.3327679884798149 70.1659850730532355 S
atom 2.4239496443126520 10.3751268404899140 70.1659850730532355 S
atom 7.4307773786976199 9.5664285224064471 70.8088781740971598 S
atom 2.7696596781671832 2.3015224989659910 72.9903277892427553 Ba
atom 7.6688892338771657 2.1583932026658954 72.9903277892427553 Ba
atom 2.6265303818670818 7.2007520546759842 72.9903277892427553 Ba
atom 7.7358145493925887 7.2676773701914028 72.9903277892427553 Ba
atom 2.1961661294509716 2.6647021998570470 77.9993873713062840 Ba
atom 7.3057095329861248 2.7318867513821012 77.9993873713062840 Ba
atom 2.2633506809760275 7.7742456033921696 77.9993873713062840 Ba
atom 7.1623210006764007 7.6308570710824410 77.9993873713062840 Ba
atom 4.9666045289967968 4.9660770792193203 75.4934406618933593 Zr
atom 9.9704895248492580 4.9276032230616851 75.4934406618933593 Zr
atom 4.9281306728391829 9.9699620750717468 75.4934406618933593 Zr
atom 9.9327594002222277 9.9322319504447307 75.4934406618933593 Zr
atom 4.9666045289967968 4.9660770792193203 80.5053340807193081 Zr
atom 9.9704895248492580 4.9276032230616851 80.5053340807193081 Zr
atom 4.9281306728391829 9.9699620750717468 80.5053340807193081 Zr
atom 9.9327594002222277 9.9322319504447307 80.5053340807193081 Zr
atom 5.2331408185080956 5.2989195066845767 72.9899202917782901 S
atom 9.6376470973839989 4.6610669335503836 72.9899202917782901 S
atom 4.5952882453738972 9.7034257855604675 72.9899202917782901 S
atom 10.1992956897335247 10.2650743779099969 72.9899202917782901 S
atom 4.6987897253695561 4.6333481803177525 77.9993873713062840 S
atom 10.3032184237508115 5.1954180266889356 77.9993873713062840 S
atom 5.2608595717407427 10.2377768786990142 77.9993873713062840 S
atom 9.6649445965949781 9.5995030515431594 77.9993873713062840 S
atom 5.3705302694093611 2.4626636236247506 75.1733272858164412 S
atom 9.6042291327728098 2.4271299438066856 75.8172718804392787 S
atom 4.5618702807627169 7.4694887958167611 75.8172718804392787 S
atom 10.3366851406347671 7.4288184948501463 75.1733272858164412 S
atom 5.3705302694093611 2.4626636236247506 80.8254474567961410 S
atom 9.6042291327728098 2.4271299438066856 80.1815028621733461 S
atom 4.5618702807627169 7.4694887958167611 80.1815028621733461 S
atom 10.3366851406347671 7.4288184948501463 80.8254474567961410 S
atom 2.4653892572083258 4.5998814634338006 75.1733272858164412 S
atom 7.4670778082518137 5.3323374712957712 75.8172718804392787 S
atom 2.4247189562417120 10.3746963233058249 75.8172718804392787 S
atom 7.4315441284337505 9.5660363346591986 75.1733272858164412 S
atom 2.4653892572083258 4.5998814634338006 80.8254474567961410 S
atom 7.4670778082518137 5.3323374712957712 80.1815028621733461 S
atom 2.4247189562417120 10.3746963233058249 80.1815028621733461 S
atom 7.4315441284337505 9.5660363346591986 80.8254474567961410 S
atom 2.7696596781671832 2.3015224989659910 83.0084469533698979 Ba
atom 7.6688892338771657 2.1583932026658958 83.0084469533698979 Ba
atom 2.6265303818670818 7.2007520546759842 83.0084469533698979 Ba
atom 7.7358145493925887 7.2676773701914028 83.0084469533698979 Ba
atom 2.1969317548458744 2.6653504012455849 88.0155186388546298 Ba
atom 7.3050613315975896 2.7311211259871966 88.0155186388546298 Ba
atom 2.2627024795874875 7.7734799779972752 88.0155186388546298 Ba
atom 7.1630866260712986 7.6315052724709895 88.0155186388546298 Ba
atom 4.9640659033024468 4.9669263173518390 85.5176124731837177 Zr
atom 9.9696402867167375 4.9301418487560325 85.5176124731837177 Zr
atom 4.9272814347066518 9.9725007007661173 85.5176124731837177 Zr
atom 9.9302207745278643 9.9330811885772317 85.5176124731837177 Zr
atom 4.9711521746360514 4.9643207698823719 90.5314942681614383 Zr
atom 9.9722458341862215 4.9230555774224367 90.5314942681614383 Zr
atom 4.9298869821760940 9.9654144294325100 90.5314942681614383 Zr
atom 9.9373070458614468 9.9304756411077655 90.5314942681614383 Zr
atom 5.2331408185080948 5.2989195066845767 83.0088544508343631 S
atom 9.6376470973839989 4.6610669335503836 83.0088544508343631 S
atom 4.5952882453738972 9.7034257855604675 83.0088544508343631 S
atom 10.1992956897335247 10.2650743779099969 83.0088544508343631 S
atom 4.6998532903171615 4.6346924587475575 88.0184979607724500 S
atom 10.3018741453210261 5.1943544617413178 88.0184979607724500 S
atom 5.2595152933109262 10.2367133137514088 88.0184979607724500 S
atom 9.6660081615425852 9.6008473299729822 88.0184979607724500 S
atom 5.3701380816621302 2.4634303733608824 85.1898965685153939 S
atom 9.6037986155887669 2.4278992557357371 85.8327896695595030 S
atom 4.5614397635786581 7.4702581077458010 85.8327896695595030 S
atom 10.3362929528875398 7.4295852445862787 85.1898965685153939 S
atom 5.3718536306640763 2.4613985388657240 90.8367851894251572 S
atom 9.6035920621727513 2.4258915794221751 90.1977655747268301 S
atom 4.5612332101626585 7.4682504314322431 90.1977655747268301 S
atom 10.3380085018895080 7.4275534100911305 90.8367851894251572 S
atom 2.4646225074721939 4.6002736511810456 85.1898965685153939 S
atom 7.4663084963227604 5.3327679884798149 85.8327896695595030 S
atom 2.4239496443126520 10.3751268404899140 85.8327896695595030 S
atom 7.4307773786976199 9.5664285224064471 85.1898965685153939 S
atom 2.4666543419673537 4.5985581021790782 90.8367851894251572 S
atom 7.4683161726363174 5.3329745418958181 90.1977655747268301 S
atom 2.4259573206262188 10.3753333939059171 90.1977655747268301 S
atom 7.4328092131927574 9.5647129734044718 90.8367851894251572 S
atom 2.7681043255852775 2.2999274646716459 93.0191194510064605 Ba
atom 7.6704842681715313 2.1599485552477975 93.0191194510064605 Ba
atom 2.6281254161614269 7.2023074072578650 93.0191194510064605 Ba
atom 7.7342591968107000 7.2660823358970461 93.0191194510064605 Ba
atom 2.2134111814719195 2.6742444702998491 97.9928725398392118 Ba
atom 7.2961672625433387 2.7146416993611560 97.9928725398392118 Ba
atom 2.2538084105332210 7.7570005513712283 97.9928725398392118 Ba
atom 7.1795660526973402 7.6403993415252405 97.9928725398392118 Ba
atom 4.9551475906448745 4.9719237911953567 95.5483368253425454 Zr
atom 9.9646428128732243 4.9390601614136118 95.5483368253425454 Zr
atom 4.9222839608631270 9.9814190134236931 95.5483368253425454 Zr
atom 9.9213024618702974 9.9380786624207555 95.5483368253425454 Zr
atom 4.9834266449627842 4.9572486176768056 100.6025784058815447 Zr
atom 9.9793179863917416 4.9107811070957164 100.6025784058815447 Zr
atom 4.9369591343816701 9.9531399591058030 100.6025784058815447 Zr
atom 9.9495815161881662 9.9234034889021956 100.6025784058815447 Zr
atom 5.2295612022149172 5.2946559528900217 93.0283300807985967 S
atom 9.6419106511785557 4.6646465498435656 93.0283300807985967 S
atom 4.5995517991684611 9.7070054018536585 93.0283300807985967 S
atom 10.1957160734403409 10.2608108241154241 93.0283300807985967 S
atom 4.7142805930591409 4.6624150902615735 98.0413652321921774 S
atom 10.2741515138070021 5.1799271589993374 98.0413652321921774 S
atom 5.2317926617968888 10.2222860110094231 98.0413652321921774 S
atom 9.6804354642845514 9.6285699614869600 98.0413652321921774 S
atom 5.3782080758089847 2.4654082562784563 95.2142080300929194 S
atom 9.6019572025488902 2.4302926994774507 95.8370279393148365 S
atom 4.5595983505387876 7.4726515514875178 95.8370279393148365 S
atom 10.3443629470343978 7.4315631275038543 95.2142080300929194 S
atom 5.2796495084463713 2.4649425795874516 100.7752483188755264 S
atom 9.6553027079239904 2.4297169914872776 100.2228391564327836 S
atom 4.6129438559138958 7.4720758434973522 100.2228391564327836 S
atom 10.2458043796717977 7.4310974508128567 100.7752483188755264 S
atom 2.4626446245546223 4.5922036570341760 95.2142080300929194 S
atom 7.4639150525810418 5.3346094015196819 95.8370279393148365 S
atom 2.4215562005709494 10.3769682535297427 95.8370279393148365 S
atom 7.4287994957800274 9.5583585282595998 95.2142080300929194 S
atom 2.4631103012456195 4.6907622243967788 100.7752483188755264 S
atom 7.4644907605712119 5.2812638961445781 100.2228391564327836 S
atom 2.4221319085611226 10.3236227481546550 100.2228391564327836 S
atom 7.4292651724710526 9.6569170956221999 100.7752483188755264 S
atom 2.6244163823971554 2.3106130538635425 102.7892191041664205 Ba
atom 7.6597986789796391 2.3036364984359237 102.7892191041664205 Ba
atom 2.6174398269695338 7.3459953504459987 102.7892191041664205 Ba
atom 7.5905712536225822 7.2767679250889286 102.7892191041664205 Ba
atom 5.1406307711503301 5.2168990298807163 103.1098913575991958 S
atom 9.7196675741878789 4.7535769809081430 103.1098913575991958 S
atom 4.6773087221777772 9.7959358329182162 103.1098913575991958 S
atom 10.1067856423757707 10.1830539011061134 103.1098913575991958 S
