#=======================================================
# FHI-aims file: sym_relax/sym_relax_RP_6_00Mz_000.in
# Created using the Atomic Simulation Environment (ASE)
# Fri Mar 14 10:59:10 2025
#=======================================================
lattice_vector 10.0096459042706805 -0.0000000000000004 0.0000000000000000 
lattice_vector -0.0000000000000004 10.0096459042706805 -0.0000000000000000 
lattice_vector -0.0000000000000000 -0.0000000000000000 66.2466603839298216 
atom -0.0000000000000000 -0.0000000000000000 0.1765211275090233 Ba
atom 5.0048229521353385 -0.0000000000000000 0.1765211275090232 Ba
atom -0.0000000000000000 5.0048229521353385 0.1765211275090233 Ba
atom 5.0048229521353385 5.0048229521353385 0.1765211275090232 Ba
atom -0.0000000000000000 -0.0000000000000000 4.9333308598846939 Ba
atom 5.0048229521353385 -0.0000000000000000 4.9333308598846939 Ba
atom 0.0000000000000000 5.0048229521353385 4.9333308598846939 Ba
atom 5.0048229521353385 5.0048229521353385 4.9333308598846939 Ba
atom 2.5024114760676692 2.5024114760676692 2.3099988874257984 Zr
atom 7.5072344282030095 2.5024114760676692 2.3099988874257984 Zr
atom 2.5024114760676692 7.5072344282030095 2.3099988874257984 Zr
atom 7.5072344282030095 7.5072344282030095 2.3099988874257984 Zr
atom 2.5024114760676692 2.5024114760676692 7.4231292460404337 Zr
atom 7.5072344282030095 2.5024114760676692 7.4231292460404337 Zr
atom 2.5024114760676692 7.5072344282030095 7.4231292460404337 Zr
atom 7.5072344282030095 7.5072344282030095 7.4231292460404337 Zr
atom 2.5024114760676692 2.5024114760676692 -0.2001848647270864 S
atom 7.5072344282030095 2.5024114760676692 -0.2001848647270864 S
atom 2.5024114760676692 7.5072344282030095 -0.2001848647270864 S
atom 7.5072344282030095 7.5072344282030095 -0.2001848647270864 S
atom 2.5024114760676692 2.5024114760676692 4.9095666410973307 S
atom 7.5072344282030095 2.5024114760676692 4.9095666410973307 S
atom 2.5024114760676692 7.5072344282030095 4.9095666410973307 S
atom 7.5072344282030095 7.5072344282030095 4.9095666410973307 S
atom 2.2307287512960547 0.0000000000000005 2.4329662871222162 S
atom 7.7789171529746177 -0.0000000000000000 2.4329662871222153 S
atom 2.7740942008392846 5.0048229521353385 2.4329662871222153 S
atom 7.2355517034313968 5.0048229521353385 2.4329662871222162 S
atom 2.9943213931205879 0.0000000000000005 7.4412148159884692 S
atom 7.0153245111500828 -0.0000000000000000 7.4412148159884692 S
atom 2.0105015590147515 5.0048229521353385 7.4412148159884692 S
atom 7.9991443452559281 5.0048229521353385 7.4412148159884692 S
atom -0.0000000000000000 2.7740942008392855 2.4329662871222153 S
atom 5.0048229521353385 2.2307287512960547 2.4329662871222153 S
atom 0.0000000000000000 7.2355517034313950 2.4329662871222153 S
atom 5.0048229521353385 7.7789171529746186 2.4329662871222153 S
atom -0.0000000000000000 2.0105015590147501 7.4412148159884692 S
atom 5.0048229521353385 2.9943213931205905 7.4412148159884692 S
atom 0.0000000000000000 7.9991443452559290 7.4412148159884692 S
atom 5.0048229521353385 7.0153245111500828 7.4412148159884692 S
atom -0.0000000000000000 -0.0000000000000000 9.9909555186912371 Ba
atom 5.0048229521353385 -0.0000000000000000 9.9909555186912371 Ba
atom 0.0000000000000000 5.0048229521353385 9.9909555186912371 Ba
atom 5.0048229521353385 5.0048229521353385 9.9909555186912371 Ba
atom -0.0000000000000000 -0.0000000000000000 15.0560591781658442 Ba
atom 5.0048229521353385 -0.0000000000000000 15.0560591781658442 Ba
atom 0.0000000000000000 5.0048229521353385 15.0560591781658442 Ba
atom 5.0048229521353385 5.0048229521353385 15.0560591781658442 Ba
atom 2.5024114760676692 2.5024114760676692 12.5121980467623821 Zr
atom 7.5072344282030095 2.5024114760676692 12.5121980467623821 Zr
atom 2.5024114760676692 7.5072344282030095 12.5121980467623821 Zr
atom 7.5072344282030095 7.5072344282030095 12.5121980467623821 Zr
atom 2.5024114760676692 2.5024114760676692 17.5999203095693062 Zr
atom 7.5072344282030095 2.5024114760676692 17.5999203095693062 Zr
atom 2.5024114760676692 7.5072344282030095 17.5999203095693062 Zr
atom 7.5072344282030095 7.5072344282030095 17.5999203095693062 Zr
atom 2.5024114760676692 2.5024114760676692 9.9786638030732746 S
atom 7.5072344282030095 2.5024114760676692 9.9786638030732746 S
atom 2.5024114760676692 7.5072344282030095 9.9786638030732746 S
atom 7.5072344282030095 7.5072344282030095 9.9786638030732746 S
atom 2.5024114760676692 2.5024114760676692 15.0560591781658442 S
atom 7.5072344282030095 2.5024114760676692 15.0560591781658442 S
atom 2.5024114760676692 7.5072344282030095 15.0560591781658442 S
atom 7.5072344282030095 7.5072344282030095 15.0560591781658442 S
atom 2.9642476220202454 0.0000000000000005 12.5235172614762611 S
atom 7.0453982822504333 -0.0000000000000000 12.5235172614762611 S
atom 2.0405753301150931 5.0048229521353385 12.5235172614762611 S
atom 7.9690705741555821 5.0048229521353385 12.5235172614762611 S
atom 2.9642476220202454 0.0000000000000005 17.5886010948554343 S
atom 7.0453982822504315 -0.0000000000000000 17.5886010948554343 S
atom 2.0405753301150931 5.0048229521353385 17.5886010948554343 S
atom 7.9690705741555821 5.0048229521353385 17.5886010948554343 S
atom -0.0000000000000000 2.0405753301150931 12.5235172614762647 S
atom 5.0048229521353385 2.9642476220202454 12.5235172614762575 S
atom 0.0000000000000000 7.9690705741555821 12.5235172614762575 S
atom 5.0048229521353385 7.0453982822504315 12.5235172614762647 S
atom -0.0000000000000000 2.0405753301150922 17.5886010948554272 S
atom 5.0048229521353385 2.9642476220202454 17.5886010948554343 S
atom 0.0000000000000000 7.9690705741555838 17.5886010948554343 S
atom 5.0048229521353385 7.0453982822504333 17.5886010948554272 S
atom -0.0000000000000000 -0.0000000000000000 20.1211628376404654 Ba
atom 5.0048229521353385 -0.0000000000000000 20.1211628376404654 Ba
atom 0.0000000000000000 5.0048229521353385 20.1211628376404654 Ba
atom 5.0048229521353385 5.0048229521353385 20.1211628376404654 Ba
atom 0.0000000000000000 -0.0000000000000000 25.1787874964469971 Ba
atom 5.0048229521353385 -0.0000000000000000 25.1787874964469971 Ba
atom -0.0000000000000000 5.0048229521353385 25.1787874964469971 Ba
atom 5.0048229521353385 5.0048229521353385 25.1787874964469971 Ba
atom 2.5024114760676692 2.5024114760676692 22.6889891102912635 Zr
atom 7.5072344282030095 2.5024114760676692 22.6889891102912635 Zr
atom 2.5024114760676692 7.5072344282030095 22.6889891102912635 Zr
atom 7.5072344282030095 7.5072344282030095 22.6889891102912635 Zr
atom 2.5024114760676692 2.5024114760676692 27.8021194689059143 Zr
atom 7.5072344282030095 2.5024114760676692 27.8021194689059143 Zr
atom 2.5024114760676692 7.5072344282030095 27.8021194689059143 Zr
atom 7.5072344282030095 7.5072344282030095 27.8021194689059143 Zr
atom 2.5024114760676692 2.5024114760676692 20.1334545532584066 S
atom 7.5072344282030095 2.5024114760676692 20.1334545532584066 S
atom 2.5024114760676692 7.5072344282030095 20.1334545532584066 S
atom 7.5072344282030095 7.5072344282030095 20.1334545532584066 S
atom 2.5024114760676692 2.5024114760676692 25.2025517152343674 S
atom 7.5072344282030095 2.5024114760676692 25.2025517152343674 S
atom 2.5024114760676692 7.5072344282030095 25.2025517152343674 S
atom 7.5072344282030095 7.5072344282030095 25.2025517152343674 S
atom 2.9943213931205879 0.0000000000000005 22.6709035403432146 S
atom 7.0153245111500828 -0.0000000000000000 22.6709035403432146 S
atom 2.0105015590147515 5.0048229521353385 22.6709035403432146 S
atom 7.9991443452559281 5.0048229521353385 22.6709035403432146 S
atom 2.2307287512960547 0.0000000000000005 27.6791520692094828 S
atom 7.7789171529746177 -0.0000000000000001 27.6791520692094828 S
atom 2.7740942008392846 5.0048229521353385 27.6791520692094828 S
atom 7.2355517034313968 5.0048229521353385 27.6791520692094828 S
atom -0.0000000000000000 2.0105015590147506 22.6709035403432146 S
atom 5.0048229521353385 2.9943213931205910 22.6709035403432146 S
atom 0.0000000000000000 7.9991443452559290 22.6709035403432146 S
atom 5.0048229521353385 7.0153245111500828 22.6709035403432146 S
atom -0.0000000000000000 2.7740942008392855 27.6791520692094828 S
atom 5.0048229521353385 2.2307287512960547 27.6791520692094828 S
atom 0.0000000000000000 7.2355517034313950 27.6791520692094828 S
atom 5.0048229521353385 7.7789171529746186 27.6791520692094828 S
atom -0.0000000000000000 -0.0000000000000000 29.9355972288226653 Ba
atom 5.0048229521353385 -0.0000000000000000 29.9355972288226653 Ba
atom 0.0000000000000000 5.0048229521353385 29.9355972288226653 Ba
atom 5.0048229521353385 5.0048229521353385 29.9355972288226653 Ba
atom 2.5024114760676692 2.5024114760676692 30.3123032210587802 S
atom 7.5072344282030095 2.5024114760676692 30.3123032210587802 S
atom 2.5024114760676692 7.5072344282030095 30.3123032210587802 S
atom 7.5072344282030095 7.5072344282030095 30.3123032210587802 S
atom 2.5024114760676692 2.5024114760676692 33.4422814083233035 Ba
atom 7.5072344282030095 2.5024114760676692 33.4422814083233035 Ba
atom 2.5024114760676692 7.5072344282030095 33.4422814083233035 Ba
atom 7.5072344282030095 7.5072344282030095 33.4422814083233035 Ba
atom 2.5024114760676692 2.5024114760676692 38.2465427841190930 Ba
atom 7.5072344282030095 2.5024114760676692 38.2465427841190930 Ba
atom 2.5024114760676692 7.5072344282030095 38.2465427841190930 Ba
atom 7.5072344282030095 7.5072344282030095 38.2465427841190930 Ba
atom 5.0048229521353385 5.0048229521353385 35.5095711195576627 Zr
atom 10.0096459042706769 5.0048229521353385 35.5095711195576627 Zr
atom 5.0048229521353385 10.0096459042706769 35.5095711195576627 Zr
atom 10.0096459042706769 10.0096459042706769 35.5095711195576627 Zr
atom 5.0048229521353385 5.0048229521353385 40.5981750643971253 Zr
atom 10.0096459042706769 5.0048229521353385 40.5981750643971253 Zr
atom 5.0048229521353385 10.0096459042706769 40.5981750643971253 Zr
atom 10.0096459042706769 10.0096459042706769 40.5981750643971253 Zr
atom 5.0048229521353385 5.0048229521353385 33.0052187794928642 S
atom 10.0096459042706769 5.0048229521353385 33.0052187794928642 S
atom 5.0048229521353385 10.0096459042706769 33.0052187794928642 S
atom 10.0096459042706769 10.0096459042706769 33.0052187794928642 S
atom 5.0048229521353385 5.0048229521353385 38.0949262972166593 S
atom 10.0096459042706769 5.0048229521353385 38.0949262972166593 S
atom 5.0048229521353385 10.0096459042706769 38.0949262972166593 S
atom 10.0096459042706769 10.0096459042706769 38.0949262972166593 S
atom 5.0048229521353385 2.5024097288036016 35.6211293845703167 S
atom 10.0096459042706769 2.5024132233317387 35.6211293845703167 S
atom 5.0048229521353385 7.5072361754670762 35.6211293845703167 S
atom 10.0096459042706769 7.5072326809389311 35.6211293845703167 S
atom 5.0048229521353385 2.5024117456556132 40.6250155038577674 S
atom 10.0096459042706769 2.5024112064797293 40.6250155038577674 S
atom 5.0048229521353385 7.5072341586150726 40.6250155038577674 S
atom 10.0096459042706769 7.5072346977909508 40.6250155038577674 S
atom 2.5024132233317395 5.0048229521353385 35.6211293845703167 S
atom 7.5072326809389329 5.0048229521353385 35.6211293845703167 S
atom 2.5024097288036034 10.0096459042706769 35.6211293845703167 S
atom 7.5072361754670798 10.0096459042706769 35.6211293845703167 S
atom 2.5024112064797288 5.0048229521353385 40.6250155038577674 S
atom 7.5072346977909481 5.0048229521353385 40.6250155038577674 S
atom 2.5024117456556114 10.0096459042706769 40.6250155038577674 S
atom 7.5072341586150717 10.0096459042706769 40.6250155038577674 S
atom 2.5024114760676692 2.5024114760676692 43.1929472454223387 Ba
atom 7.5072344282030095 2.5024114760676692 43.1929472454223387 Ba
atom 2.5024114760676692 7.5072344282030095 43.1929472454223387 Ba
atom 7.5072344282030095 7.5072344282030095 43.1929472454223387 Ba
atom 2.5024114760676692 2.5024114760676692 48.1793893701306644 Ba
atom 7.5072344282030095 2.5024114760676692 48.1793893701306644 Ba
atom 2.5024114760676692 7.5072344282030095 48.1793893701306644 Ba
atom 7.5072344282030095 7.5072344282030095 48.1793893701306644 Ba
atom 5.0048229521353385 5.0048229521353385 45.6533053569082554 Zr
atom 10.0096459042706769 5.0048229521353385 45.6533053569082554 Zr
atom 5.0048229521353385 10.0096459042706769 45.6533053569082554 Zr
atom 10.0096459042706769 10.0096459042706769 45.6533053569082554 Zr
atom 5.0048229521353385 5.0048229521353385 50.7054733833531444 Zr
atom 10.0096459042706769 5.0048229521353385 50.7054733833531444 Zr
atom 5.0048229521353385 10.0096459042706769 50.7054733833531444 Zr
atom 10.0096459042706769 10.0096459042706769 50.7054733833531444 Zr
atom 5.0048229521353385 5.0048229521353385 43.1374679441798747 S
atom 10.0096459042706769 5.0048229521353385 43.1374679441798747 S
atom 5.0048229521353385 10.0096459042706769 43.1374679441798747 S
atom 10.0096459042706769 10.0096459042706769 43.1374679441798747 S
atom 5.0048229521353385 5.0048229521353385 48.1793893701306644 S
atom 10.0096459042706769 5.0048229521353385 48.1793893701306644 S
atom 5.0048229521353385 10.0096459042706769 48.1793893701306644 S
atom 10.0096459042706769 10.0096459042706769 48.1793893701306644 S
atom 5.0048229521353385 2.5024114371788673 45.6621506688835126 S
atom 10.0096459042706769 2.5024115149564730 45.6621506688835126 S
atom 5.0048229521353385 7.5072344670918030 45.6621506688835126 S
atom 10.0096459042706769 7.5072343893142017 45.6621506688835126 S
atom 5.0048229521353385 2.5024114371788682 50.6966280713778303 S
atom 10.0096459042706769 2.5024115149564738 50.6966280713778303 S
atom 5.0048229521353385 7.5072344670918039 50.6966280713778303 S
atom 10.0096459042706769 7.5072343893142026 50.6966280713778303 S
atom 2.5024115149564721 5.0048229521353385 45.6621506688835126 S
atom 7.5072343893142026 5.0048229521353385 45.6621506688835126 S
atom 2.5024114371788673 10.0096459042706769 45.6621506688835126 S
atom 7.5072344670918021 10.0096459042706769 45.6621506688835126 S
atom 2.5024115149564743 5.0048229521353385 50.6966280713778303 S
atom 7.5072343893142035 5.0048229521353385 50.6966280713778303 S
atom 2.5024114371788690 10.0096459042706769 50.6966280713778303 S
atom 7.5072344670918030 10.0096459042706769 50.6966280713778303 S
atom 2.5024114760676692 2.5024114760676692 53.1658314948391038 Ba
atom 7.5072344282030095 2.5024114760676692 53.1658314948391038 Ba
atom 2.5024114760676692 7.5072344282030095 53.1658314948391038 Ba
atom 7.5072344282030095 7.5072344282030095 53.1658314948391038 Ba
atom 2.5024114760676692 2.5024114760676692 58.1122359561422499 Ba
atom 7.5072344282030095 2.5024114760676692 58.1122359561422499 Ba
atom 2.5024114760676692 7.5072344282030095 58.1122359561422499 Ba
atom 7.5072344282030095 7.5072344282030095 58.1122359561422499 Ba
atom 5.0048229521353385 5.0048229521353385 55.7606036758643739 Zr
atom 10.0096459042706769 5.0048229521353385 55.7606036758643739 Zr
atom 5.0048229521353385 10.0096459042706769 55.7606036758643739 Zr
atom 10.0096459042706769 10.0096459042706769 55.7606036758643739 Zr
atom 5.0048229521353385 5.0048229521353385 60.8492076207037371 Zr
atom 10.0096459042706769 5.0048229521353385 60.8492076207037371 Zr
atom 5.0048229521353385 10.0096459042706769 60.8492076207037371 Zr
atom 10.0096459042706769 10.0096459042706769 60.8492076207037371 Zr
atom 5.0048229521353385 5.0048229521353385 53.2213107960815677 S
atom 10.0096459042706769 5.0048229521353385 53.2213107960815677 S
atom 5.0048229521353385 10.0096459042706769 53.2213107960815677 S
atom 10.0096459042706769 10.0096459042706769 53.2213107960815677 S
atom 5.0048229521353385 5.0048229521353385 58.2638524430447760 S
atom 10.0096459042706769 5.0048229521353385 58.2638524430447760 S
atom 5.0048229521353385 10.0096459042706769 58.2638524430447760 S
atom 10.0096459042706769 10.0096459042706769 58.2638524430447760 S
atom 5.0048229521353385 2.5024117456556114 55.7337632364036750 S
atom 10.0096459042706769 2.5024112064797275 55.7337632364036750 S
atom 5.0048229521353385 7.5072341586150673 55.7337632364036750 S
atom 10.0096459042706769 7.5072346977909454 55.7337632364036750 S
atom 5.0048229521353385 2.5024097288036029 60.7376493556911043 S
atom 10.0096459042706769 2.5024132233317395 60.7376493556911043 S
atom 5.0048229521353385 7.5072361754670798 60.7376493556911043 S
atom 10.0096459042706769 7.5072326809389347 60.7376493556911043 S
atom 2.5024112064797288 5.0048229521353385 55.7337632364036750 S
atom 7.5072346977909463 5.0048229521353385 55.7337632364036750 S
atom 2.5024117456556114 10.0096459042706769 55.7337632364036750 S
atom 7.5072341586150682 10.0096459042706769 55.7337632364036750 S
atom 2.5024132233317387 5.0048229521353385 60.7376493556911043 S
atom 7.5072326809389329 5.0048229521353385 60.7376493556911043 S
atom 2.5024097288036034 10.0096459042706769 60.7376493556911043 S
atom 7.5072361754670780 10.0096459042706769 60.7376493556911043 S
atom 2.5024114760676692 2.5024114760676692 62.9164973319381318 Ba
atom 7.5072344282030095 2.5024114760676692 62.9164973319381318 Ba
atom 2.5024114760676692 7.5072344282030095 62.9164973319381318 Ba
atom 7.5072344282030095 7.5072344282030095 62.9164973319381318 Ba
atom 5.0048229521353385 5.0048229521353385 63.3535599607685995 S
atom 10.0096459042706769 5.0048229521353385 63.3535599607685995 S
atom 5.0048229521353385 10.0096459042706769 63.3535599607685995 S
atom 10.0096459042706769 10.0096459042706769 63.3535599607685995 S
