#=======================================================
# FHI-aims file: sym_relax/sym_relax_RP_8_RxRyRz_-Rx-Ry-Rz.in
# Created using the Atomic Simulation Environment (ASE)
# Mon Mar 17 16:22:57 2025
#=======================================================
lattice_vector 9.9431056929016446 -0.0064859284558689 -0.0005279894832359 
lattice_vector -0.0064859284558692 9.9431056929016748 0.0005279894832359 
lattice_vector 0.0017148951026794 -0.0017148951026808 87.0760655617316957 
atom 0.0394093874822942 -0.1195394171807665 0.1947433231300206 Ba
atom 5.0910922636315679 -0.0426523517102293 0.1944793283884023 Ba
atom 0.1162964529528309 4.9321434589685627 0.1950073178716379 Ba
atom 5.0077192697051638 4.8487704650421461 0.1947433231300204 Ba
atom -0.2533722282399994 0.1883792810066101 5.0295421267793099 Ba
atom 4.7831735654441978 0.2501292640120688 5.0292781320376854 Ba
atom -0.1916222452345421 5.2249250746908533 5.0298061215209131 Ba
atom 4.7149376539828882 5.1566891632295286 5.0295421267793099 Ba
atom 2.4548447676454468 2.5097591993761026 2.4075406437746150 Zr
atom 7.4301035292975905 2.5102221503495232 2.4072766490329993 Zr
atom 2.4553077186188585 7.4850179610283041 2.4078046385162328 Zr
atom 7.4231546498683105 7.4780690815990409 2.4075406437746150 Zr
atom 2.4115631064840906 2.5215654922533930 7.5074410898391681 Zr
atom 7.4182972364203135 2.5535038115108666 7.5071770950975463 Zr
atom 2.4435014257415717 7.5282996221896710 7.5077050845807918 Zr
atom 7.3798729887069614 7.4898753744763047 7.5074410898391672 Zr
atom 2.5722051334641010 2.6869926611833250 -0.1113335332487696 S
atom 7.2528700674903916 2.3928617845308735 -0.1115975279903874 S
atom 2.2780742568116286 7.3676575952096535 -0.1110695385071516 S
atom 7.5405150156869611 7.6553025434062656 -0.1113335332487695 S
atom 2.2539067975629021 2.3031400633171275 4.9925930598336343 S
atom 7.6367226653565714 2.7111601204320674 4.9923290650920151 S
atom 2.6619268546778247 7.6859559311108461 4.9928570545752597 S
atom 7.2222166797857925 7.2714499455400485 4.9925930598336352 S
atom 2.7795042001478318 0.0340877515836106 2.2994836089284520 S
atom 7.0736109720982761 0.0335688770499647 2.7169120411414003 S
atom 2.0988151614195427 5.0083646877287533 2.7174400306246405 S
atom 7.7478140823706916 5.0023976338065390 2.2994836089284516 S
atom 2.9434047262869298 0.0416462755592620 7.7114317788119608 S
atom 6.9590538205640637 0.0389970892866173 7.3507547208168198 S
atom 1.9842580098853213 5.0137928999654005 7.3512827103000538 S
atom 7.9117146085097874 5.0099561577822023 7.7114317788119608 S
atom -0.0373307158115444 2.1920486463029922 2.2997476036700699 S
atom 4.9314980409449785 2.8662517565754282 2.7171760358830199 S
atom -0.0432977697337668 7.8410475672542050 2.7177040253662557 S
atom 4.9309791664113325 7.1603585285259168 2.2997476036700708 S
atom -0.0448892397871961 2.0281481201638973 7.7116957735535854 S
atom 4.9260698287083207 2.9808089081096396 7.3510187155584301 S
atom -0.0487259819704196 7.9556047187884431 7.3515467050416667 S
atom 4.9234206424356799 6.9964580023868086 7.7116957735535845 S
atom 0.0023648858274343 -0.0792810064069832 10.0690659830900344 Ba
atom 5.0508338528577896 -0.0056078500553687 10.0688019883484312 Ba
atom 0.0760380421790478 4.9691879606234339 10.0693299778316749 Ba
atom 4.9706747680503094 4.8890288758159475 10.0690659830900344 Ba
atom 0.0489777004576371 0.0101454675139460 15.1558613220346245 Ba
atom 4.9614073789368609 -0.0522206646855728 15.1555973272930355 Ba
atom -0.0133884317418816 4.9225751459932230 15.1561253167762686 Ba
atom 5.0172875826804990 4.9784553497368762 15.1558613220346299 Ba
atom 2.4926855176191758 2.4861506672877249 12.5995944165537512 Zr
atom 7.4537120613859758 2.4723814003757849 12.5993304218121498 Zr
atom 2.4789162507072362 7.4471772110545915 12.5998584112953615 Zr
atom 7.4609953998420560 7.4544605495106468 12.5995944165537530 Zr
atom 2.4864970491896865 2.4821174541634718 17.6997601601396433 Zr
atom 7.4577452745102422 2.4785698688052755 17.6994961653980241 Zr
atom 2.4829494638314960 7.4533656794840635 17.7000241548812696 Zr
atom 7.4548069314125636 7.4504273363863867 17.6997601601396397 Zr
atom 2.5672223229848239 2.6478622886293386 10.0649339763346060 S
atom 7.2920004400443750 2.3978445950101399 10.0646699815929619 S
atom 2.3172046293656328 7.3726404056889310 10.0651979710762145 S
atom 7.5355322052077103 7.6161721708522609 10.0649339763346060 S
atom 2.4207022732797383 2.4466754104220065 15.1553244977661059 S
atom 7.4931873182516844 2.5443646447152140 15.1550605030244743 S
atom 2.5183915075729542 7.5191604553940037 15.1555884925077109 S
atom 7.3890121555026216 7.4149852926449249 15.1553244977661095 S
atom 1.9876810090522701 0.0022178877366224 12.5516400132626718 S
atom 7.9852806825625775 0.0000098923866520 12.6755226997040165 S
atom 3.0104848718838424 4.9748057030654422 12.6760506891872460 S
atom 6.9559908912751212 4.9705277699595571 12.5516400132626735 S
atom 3.0067776762536038 -0.0006576136584433 17.7331261731957035 S
atom 6.9379747108919814 -0.0040668003872488 17.6738845958735844 S
atom 1.9631789002132412 4.9707290102915325 17.6744125853568441 S
atom 7.9750875584764795 4.9676522685644731 17.7331261731957035 S
atom -0.0054608519645576 2.9838718373985609 12.5519040080042856 S
atom 4.9650570256082949 1.9545820461111207 12.6757866944456428 S
atom -0.0097387850704549 6.9293778567899178 12.6763146839288794 S
atom 4.9628490302583028 7.9521817196214926 12.5519040080042874 S
atom -0.0025853505694914 1.9647751701972158 17.7333901679372801 S
atom 4.9691337183822020 3.0018880177817246 17.6741485906152533 S
atom -0.0056620922965548 7.9766838284605024 17.6746765800984562 S
atom 4.9657245316533807 6.9330850524201324 17.7333901679372730 S
atom -0.0168467597180809 -0.0176443853472353 20.2502478050539096 Ba
atom 4.9891972317980287 0.0136037954901463 20.2499838103122691 Ba
atom 0.0144014211193003 4.9883996061689331 20.2505117997954791 Ba
atom 4.9514631225047978 4.9506654968756978 20.2502478050539096 Ba
atom 0.0109430931431009 0.0481800748284841 25.3446342880731059 Ba
atom 4.9233727716223141 -0.0141860573710354 25.3443702933315009 Ba
atom -0.0514230390564178 4.9606097533077493 25.3448982828147358 Ba
atom 4.9792529753659602 5.0164899570514185 25.3446342880731095 Ba
atom 2.4829150797925954 2.4856994235605581 22.8007354499680872 Zr
atom 7.4541633051131466 2.4821518382023586 22.8004714552264751 Zr
atom 2.4793674944344084 7.4569476488811590 22.8009994447097313 Zr
atom 7.4512249620154671 7.4540093057834742 22.8007354499680872 Zr
atom 2.4869482929168454 2.4918878919900518 27.9009011935539135 Zr
atom 7.4479748366836516 2.4781186250781069 27.9006371988123405 Zr
atom 2.4731790260049129 7.4529144357569006 27.9011651882955647 Zr
atom 7.4552581751397309 7.4601977742129773 27.9009011935539135 Zr
atom 2.5187581656589808 2.5179605400298497 20.2502478050539096 S
atom 7.4219021886438536 2.4463087523359870 20.2499838103122691 S
atom 2.4471063779651110 7.4211045630147723 20.2505117997954791 S
atom 7.4870680478818468 7.4862704222527841 20.2502478050539096 S
atom 2.4474730360511310 2.4199046476506152 25.3451711123416779 S
atom 7.5199580810230682 2.5175938819438346 25.3449071176000338 S
atom 2.5451622703443508 7.4923896926226261 25.3454351070832971 S
atom 7.4157829182740045 7.3882145298735447 25.3451711123416779 S
atom 1.9655727958263467 -0.0033829761986457 22.7671054421704753 S
atom 7.9774814540895846 -0.0064597179257088 22.8258190300092778 S
atom 3.0026856434108473 4.9683360927530895 22.8263470194924807 S
atom 6.9338826780492351 4.9649269060242602 22.7671054421704646 S
atom 2.9846694630276840 -0.0062584775937119 27.9485916021034484 S
atom 6.9301754824189947 -0.0105364106996088 27.8241809261788902 S
atom 1.9553796717402558 4.9642593999791735 27.8247089156620859 S
atom 7.9529793452505615 4.9620514046292010 27.9485916021034519 S
atom 0.0001400119707107 3.0059800506244896 22.7673694369121051 S
atom 4.9715266359206360 1.9623812745841069 22.8260830247508792 S
atom -0.0032691747580945 6.9371770852629071 22.8266110142341567 S
atom 4.9684498941935775 7.9742899328474088 22.7673694369121016 S
atom 0.0030155133657769 1.9868833834231359 27.9488555968450534 S
atom 4.9756033286945325 3.0096872462547184 27.8244449209204667 S
atom 0.0008075180158059 7.9844830569335041 27.8249729104037407 S
atom 4.9713253955886456 6.9551932656460576 27.9488555968450534 S
atom -0.0784833807778284 0.0015672601982796 30.4314296270176889 Ba
atom 4.9699855862525260 0.0752404165498945 30.4311656322760733 Ba
atom -0.0048102244262148 5.0500362272286816 30.4316936217593188 Ba
atom 4.8898265014450351 4.9698771424212023 30.4314296270176889 Ba
atom 0.1891769066357614 -0.2541698538691579 35.4709534833284650 Ba
atom 5.2257227003199587 -0.1924198708636989 35.4706894885868422 Ba
atom 0.2509268896412191 4.7823759398151005 35.4712174780701446 Ba
atom 5.1574867888586269 4.7141400283537713 35.4709534833284650 Ba
atom 2.5223631178825268 2.4107654808549612 32.9930545202686929 Zr
atom 7.5290972478187399 2.4427038001124348 32.9927905255270772 Zr
atom 2.5543014371399968 7.4174996107912321 32.9933185150103654 Zr
atom 7.4906730001053941 7.3790753630778800 32.9930545202687000 Zr
atom 2.5105568250052341 2.4540471420163161 38.0929549663331315 Zr
atom 7.4858155866573766 2.4545100929897270 38.0926909715915514 Zr
atom 2.5110197759786512 7.4293059036685287 38.0932189610746974 Zr
atom 7.4788667072280992 7.4223570242392407 38.0929549663331315 Zr
atom 2.6486599142584581 2.5664246973556950 30.4355616337731156 S
atom 7.3734380313180070 2.3164070037364985 30.4352976390315106 S
atom 2.3986422206392692 7.2912028144152794 30.4358256285147810 S
atom 7.6169697964813370 7.5347345795786191 30.4355616337731192 S
atom 2.3039376889462502 2.2531091719337648 35.5079025502742098 S
atom 7.6867535567399248 2.6611292290487070 35.5076385555325444 S
atom 2.7119577460611879 7.6359250397275025 35.5081665450158326 S
atom 7.2722475711691406 7.2214190541566960 35.5079025502742098 S
atom 2.0289457457930196 -0.0456868654163508 32.7887998365541264 S
atom 7.9564023444175067 -0.0495236075995747 33.1489489050660566 S
atom 2.9816065337387681 4.9252722030792020 33.1494768945491813 S
atom 6.9972556280158997 4.9226230168065639 32.7887998365541193 S
atom 2.1928462719321273 -0.0381283414406998 38.2007480064376921 S
atom 7.8418451928832891 -0.0440953953629218 37.7827915847415667 S
atom 2.8670493822045531 4.9307004153158669 37.7833195742247483 S
atom 7.1611561541550035 4.9301815407822316 38.2007480064376921 S
atom 0.0424439011884155 2.9426071006578089 32.7890638312957421 S
atom 5.0145905255945049 1.9834603842561942 33.1492128998075799 S
atom 0.0397947149157703 6.9582561949349824 33.1497408892909249 S
atom 5.0107537834113005 7.9109169828807344 32.7890638312957421 S
atom 0.0348853772127637 2.7787065745187109 38.2010120011793362 S
atom 5.0091623133578818 2.0980175357904063 37.7830555794831113 S
atom 0.0343665026791177 7.0728133464692000 37.7835835689662716 S
atom 5.0031952594356435 7.7470164567416182 38.2010120011793433 S
atom -0.1187417915516116 0.0386117618531402 40.3057522869777003 Ba
atom 4.9329410845976742 0.1154988273236777 40.3054882922361131 Ba
atom -0.0418547260810747 5.0902946380024696 40.3060162817192733 Ba
atom 4.8495680906712648 5.0069216440760647 40.3057522869777003 Ba
atom 2.6877902868124663 2.5714075078349663 40.6118291433565730 S
atom 7.3684552208387357 2.2772766311825046 40.6115651486149289 S
atom 2.3936594101599957 7.2520724418612916 40.6120931380981176 S
atom 7.6561001690353194 7.5397173900579055 40.6118291433565730 S
atom 2.6045518058435406 2.4438881060778286 43.7327761039958389 Ba
atom 7.4959746225958694 2.3605151121514161 43.7325121092542446 Ba
atom 2.5211788119171392 7.3353109228302005 43.7330400987374404 Ba
atom 7.5728616880664177 7.4121979883007487 43.7327761039958389 Ba
atom 2.2966331076561706 2.7366697218001277 48.5675749076450671 Ba
atom 7.2031930068735699 2.6684338103387950 48.5673109129035154 Ba
atom 2.2283971961948339 7.6432296210175830 48.5678389023866970 Ba
atom 7.2649429898790308 7.7049796040230483 48.5675749076450671 Ba
atom 4.9435630715095655 4.9967626081375629 45.9455734246404717 Zr
atom 9.9114100027590055 4.9898137287082927 45.9453094298988844 Zr
atom 4.9366141920802944 9.9646095393870908 45.9458374193820660 Zr
atom 9.9118729537324377 9.9650724903605052 45.9455734246404717 Zr
atom 4.9317567786322858 5.0400442692989218 51.0454738707049458 Zr
atom 9.8681283415976360 5.0016200215855884 51.0452098759632520 Zr
atom 4.8933325309189240 9.9764158322643652 51.0457378654464264 Zr
atom 9.9000666608551597 10.0083541515218624 51.0454738707049458 Zr
atom 4.7663296097023453 4.8794022423189167 43.4266992476170302 S
atom 10.0287703685776801 5.1670471905155164 43.4264352528754287 S
atom 5.0539745578989317 10.1418430011942924 43.4269632423587026 S
atom 9.7346394919252344 9.8477121245418342 43.4266992476170302 S
atom 5.1501822075685313 5.1977005782201200 48.5306258406993649 S
atom 9.7104720326764795 4.7831945926493074 48.5303618459577777 S
atom 4.7356762219977462 9.7579904033280958 48.5308898354410445 S
atom 10.1184920897914363 10.1660104604430117 48.5306258406993649 S
atom 4.5870705143102253 2.5201093348380232 46.2552088167488691 S
atom 10.2360694352613972 2.5141422809157987 45.8372523950525732 S
atom 5.2612736245826666 7.4889380915945924 45.8377803845358116 S
atom 9.5553803965331330 7.4884192170609580 46.2552088167488691 S
atom 4.4725133627760263 2.5255375470746673 50.8890514964243437 S
atom 10.3999699614005650 2.5217008048914518 51.2492005649362525 S
atom 5.4251741507217792 7.4964966155702450 51.2497285544194767 S
atom 9.4408232449989065 7.4938474292975883 50.8890514964243437 S
atom 2.4449575831569414 5.3527922143634799 46.2554728114904066 S
atom 7.4192345193020390 4.6721031756351747 45.8375163897942102 S
atom 2.4444387086232977 9.6468989863139978 45.8380443792774273 S
atom 7.4132674653798096 10.3211020965864062 46.2554728114904066 S
atom 2.4395293709202943 5.4673493658977055 50.8893154911659522 S
atom 7.4116759953263855 4.5082026494960763 51.2494645596777616 S
atom 2.4368801846476416 9.4829984601748443 51.2499925491610568 S
atom 7.4078392531431652 10.4356592481206327 50.8893154911659522 S
atom 2.5642933950697504 2.4809326077326901 53.6070987639558396 Ba
atom 7.4589301209410133 2.4007735229252041 53.6068347692142240 Ba
atom 2.4841343102622773 7.3755693336039982 53.6073627586975263 Ba
atom 7.5326032772926217 7.4492424899556102 53.6070987639558396 Ba
atom 2.4748669211488261 2.4343197931024836 58.6938941029004724 Ba
atom 7.5055429355712180 2.4901999968461386 58.6936301081587644 Ba
atom 2.5307471248924838 7.4649958075249252 58.6941580976420241 Ba
atom 7.4431768033717018 7.4026296753254037 58.6938941029004866 Ba
atom 4.9671716035979623 4.9589218581638308 56.1376271974195475 Zr
atom 9.9492507527327643 4.9662051966199154 56.1373632026779390 Zr
atom 4.9744549420540141 9.9410010072986950 56.1378911921612129 Zr
atom 9.9354814858208265 9.9272317403867572 56.1376271974195475 Zr
atom 4.9712048167222109 4.9651103265933250 61.2377929410054662 Zr
atom 9.9430622843032559 4.9621719834956481 61.2375289462638150 Zr
atom 4.9682664736245448 9.9369677941744481 61.2380569357469895 Zr
atom 9.9395146989450485 9.9334202088162442 61.2377929410054662 Zr
atom 4.8054599822563233 4.8843850527981951 53.6029667572002992 S
atom 10.0237875580984088 5.1279168179615287 53.6027027624586978 S
atom 5.0489917474196613 10.1027126286403295 53.6032307519419575 S
atom 9.7737698644792079 9.8526949350211126 53.6029667572002992 S
atom 5.0066468604636762 5.0309051025032536 58.6933572786320283 S
atom 9.8772675083933255 4.9267299397541917 58.6930932838903843 S
atom 4.9024716977145895 9.9015257504330005 58.6936212733735871 S
atom 9.9749567426865333 9.9992149847261924 58.6933572786320283 S
atom 5.4987402247745401 2.4865503501747028 56.2138194753114746 S
atom 9.4442462441658517 2.4822724170688089 56.0894087993869235 S
atom 4.4694504334870908 7.4570682277476159 56.0899367888701406 S
atom 10.4670501069974087 7.4548602323976247 56.2138194753114675 S
atom 4.4514342531039635 2.4824736574008077 61.2121813714809733 S
atom 10.4633429113672065 2.4793969156737448 61.2708949593198753 S
atom 5.4885471006884483 7.4541927263525416 61.2714229488030924 S
atom 9.4197441353268161 7.4507835396237239 61.2121813714809733 S
atom 2.4785165678202530 4.4411225038991669 56.2140834700531187 S
atom 7.4511043831490236 5.4639263667307656 56.0896727941285320 S
atom 2.4763085724702911 10.4387221774095469 56.0902007836117704 S
atom 7.4468264500431367 9.4094323861220914 56.2140834700531187 S
atom 2.4825932605941476 5.4884284755697781 61.2124453662226173 S
atom 7.4539798845440846 4.4448296995293930 61.2711589540614909 S
atom 2.4791840738653450 9.4196255102081903 61.2716869435447293 S
atom 7.4509031428170331 10.4567383577927249 61.2124453662226173 S
atom 2.5026567740100103 2.5001442532782043 63.7882805859196651 Ba
atom 7.4397184753954981 2.4624101439849526 63.7880165911781134 Ba
atom 2.4649226647167555 7.4372059546637566 63.7885445806613163 Ba
atom 7.4709666562328598 7.4684541355011191 63.7882805859196651 Ba
atom 2.4368323138342891 2.4723544004170157 68.8826670689389999 Ba
atom 7.4675083282566828 2.5282346041606680 68.8824030741973132 Ba
atom 2.4927125175779468 7.5030304148394569 68.8829310636806156 Ba
atom 7.4051421960571711 7.4406642826399416 68.8826670689389999 Ba
atom 4.9676228473251047 4.9686922959904205 66.3387682308338640 Zr
atom 9.9394803149061932 4.9657539528927446 66.3385042360923052 Zr
atom 4.9646845042274297 9.9405497635715481 66.3390322255756359 Zr
atom 9.9359327295480071 9.9370021782133513 66.3387682308338640 Zr
atom 4.9614343788956168 4.9646590828661576 71.4389339744196690 Zr
atom 9.9435135280304223 4.9719424213222352 71.4386699796781812 Zr
atom 4.9687177173516952 9.9467382320010067 71.4391979691613130 Zr
atom 9.9297442611185183 9.9329689650890742 71.4389339744196690 Zr
atom 4.9353617308558144 4.9328492101240382 63.7882805859196651 S
atom 9.9753234007725613 4.9980150693620393 63.7880165911781134 S
atom 5.0005275900938289 9.9728108800408179 63.7885445806613163 S
atom 9.9036716130786893 9.9011590923469583 63.7882805859196651 S
atom 5.0334176232350440 5.0041343397318947 68.8832038932075648 S
atom 9.9040382711647510 4.8999591769828212 68.8829398984657502 S
atom 4.9292424604859777 9.8747549876616123 68.8834678879491378 S
atom 10.0017275054579269 9.9724442219547935 68.8832038932075648 S
atom 5.4909409963015507 2.4800807398623346 66.3641158056168905 S
atom 9.4221380309399194 2.4766715531335426 66.3048742282946364 S
atom 4.4473422202611870 7.4514673638123314 66.3054022177777824 S
atom 10.4592508785244469 7.4483906220852827 66.3641158056168905 S
atom 4.4436350246309742 2.4760040470884528 71.3624777017863892 S
atom 10.4412346981412778 2.4737960517384785 71.4863603882276806 S
atom 5.4664388874625365 7.4485918624172598 71.4868883777109261 S
atom 9.4119449068538046 7.4443139293113756 71.3624777017863892 S
atom 2.4849861781326195 4.4489217323721668 66.3643798003584777 S
atom 7.4567052470842885 5.4860345799566774 66.3051382230362663 S
atom 2.4819094364055565 10.4608303906354720 66.3056662125194691 S
atom 7.4532960603554814 9.4172316145950763 66.3643798003584919 S
atom 2.4890628709065092 5.4962277040427727 71.3627416965278485 S
atom 7.4595807484793699 4.4669379127553146 71.4866243829692536 S
atom 2.4847849378006237 9.4417337234341137 71.4871523724524707 S
atom 7.4573727531293725 10.4645375862657026 71.3627416965278485 S
atom 2.4834451284644907 2.5617808743379533 73.9694624078835545 Ba
atom 7.3780818543357443 2.4816217895304664 73.9691984131420526 Ba
atom 2.4032860436570180 7.4564176002092557 73.9697264026251275 Ba
atom 7.4517550106873625 7.5300907565608748 73.9694624078835545 Ba
atom 2.7391822425319305 2.2941205869243606 79.0089862641942489 Ba
atom 7.6457421417493441 2.2258846754630222 79.0087222694526048 Ba
atom 2.6709463310705988 7.2006804861418257 79.0092502589359071 Ba
atom 7.7074921247548041 7.2624304691472714 79.0089862641942489 Ba
atom 5.0425567900307282 4.9292442579004963 76.5310873011343205 Zr
atom 9.9789283529961210 4.8908200101871424 76.5308233063926764 Zr
atom 5.0041325423173610 9.8656158208659139 76.5313512958760498 Zr
atom 10.0108666722535915 9.8975541401234128 76.5310873011343205 Zr
atom 4.9992751288693498 4.9410505507777760 81.6309877471988727 Zr
atom 9.9671220601188235 4.9341016713485146 81.6307237524573139 Zr
atom 4.9923262494400689 9.9088974820272959 81.6312517419405310 Zr
atom 9.9675850110922148 9.9093604330007210 81.6309877471988727 Zr
atom 4.8868975735299820 4.8029474615245382 73.9735944146389954 S
atom 10.1052251493720693 5.0464792266878877 73.9733304198974366 S
atom 5.1304293386933022 10.0212750373666566 73.9738584093805116 S
atom 9.8552074557528453 9.7712573437474699 73.9735944146389954 S
atom 5.2002130989519024 5.1476696868367586 79.0459353311400861 S
atom 9.7605029240598178 4.7331637012659611 79.0456713363982999 S
atom 4.7857071133811040 9.7079595119447575 79.0461993258815880 S
atom 10.1685229811747799 10.1159795690596894 79.0459353311400861 S
atom 5.4698618866294799 2.4370168501884844 76.6872456806735840 S
atom 9.4855109809066089 2.4343676639158391 76.3265686226783231 S
atom 4.5107151702278774 7.4091634745946138 76.3270966121615544 S
atom 10.4381717688523459 7.4053267324114023 76.6872456806735840 S
atom 5.3553047350952596 2.4424450624251217 81.3210883603490515 S
atom 9.6494115070457251 2.4419261878914815 81.7385167925617964 S
atom 4.6746156963669696 7.4167219985702832 81.7390447820451556 S
atom 10.3236146173181247 7.4107549446480538 81.3210883603490515 S
atom 2.5280500678064812 4.4700008420442447 76.6875096754151713 S
atom 7.4990091363019973 5.4226616299900030 76.3268326174199245 S
atom 2.5242133256232546 10.3974574406688003 76.3273606069031558 S
atom 7.4963599500293387 9.4383107242671631 76.6875096754151713 S
atom 2.5226218555698243 4.5845579935784437 81.3213523550907951 S
atom 7.4914506123263562 5.2587611038508868 81.7387807873034404 S
atom 2.5166548016476060 10.2335569145296947 81.7393087767868707 S
atom 7.4909317377927094 9.5528678758013985 81.3213523550907951 S
atom 2.4464006268096345 2.6020392851117333 83.8437850678433847 Ba
atom 7.3378234435619571 2.5186662911853261 83.8435210731017264 Ba
atom 2.3630276328832349 7.4934621018641225 83.8440490625852135 Ba
atom 7.4147105090324921 7.5703491673346752 83.8437850678433847 Ba
atom 4.8819147630507116 4.7638170889705602 84.1498619242225203 S
atom 10.1443555219260375 5.0514620371671635 84.1495979294808336 S
atom 5.1695597112472988 10.0262578478459385 84.1501259189640081 S
atom 9.8502246452735989 9.7321269711934786 84.1498619242225203 S
