#=======================================================
# FHI-aims file: sym_relax/sym_relax_RP_5_RxRyRz_-Rx-Ry-Rz.in
# Created using the Atomic Simulation Environment (ASE)
# Fri Mar 14 10:56:53 2025
#=======================================================
lattice_vector 9.9964649290462511 0.0157153098021937 0.0047074954280401 
lattice_vector 0.0157153098021940 9.9964649290461907 -0.0047074954280401 
lattice_vector 0.0269985960096349 -0.0269985960096339 56.0847800737643851 
atom 0.0351425928534274 -0.1139302717009775 0.2223493195586318 Ba
atom 5.1121627362241018 -0.0272849379523284 0.2247030672726515 Ba
atom 0.1217879266020749 4.9630898716696752 0.2199955718446112 Ba
atom 5.0412327122776546 4.8921598477232395 0.2223493195586320 Ba
atom -0.2484276533724000 0.1970956920628461 4.9968874420880347 Ba
atom 4.8011367724602820 0.2562853082734957 4.9992411898020546 Ba
atom -0.1892380371617493 5.2466601178955070 4.9945336943740273 Ba
atom 4.7576624660518041 5.2031858114870504 4.9968874420880347 Ba
atom 2.4785232770576378 2.5329444004307313 2.3808176026496652 Zr
atom 7.4713781835166149 2.5354244972676701 2.3831713503636798 Zr
atom 2.4810033738945712 7.5257993068896880 2.3784638549356472 Zr
atom 7.4846133964818584 7.5390345198549173 2.3808176026496648 Zr
atom 2.4271672009834826 2.5445293596110230 7.4539763328704964 Zr
atom 7.4597932243363063 2.5867805733418221 7.4563300805845243 Zr
atom 2.4694184147142866 7.5771553829638449 7.4516225851564828 Zr
atom 7.4332573204077059 7.5506194790352250 7.4539763328704955 Zr
atom 2.6484788680049252 2.7732635406873172 -0.1253441395283180 S
atom 7.2310590432600064 2.3654689063203711 -0.1229903918142986 S
atom 2.2406842336379911 7.3558437159423846 -0.1276978872423384 S
atom 7.6545689874291440 7.7793536601115205 -0.1253441395283180 S
atom 2.2427439510350649 2.2755452012711341 4.9492069814373867 S
atom 7.7287773826761867 2.7712038232902390 4.9515607291514065 S
atom 2.7384025730541728 7.7615786329122622 4.9468532337233677 S
atom 7.2488340704592833 7.2816353206953419 4.9492069814373849 S
atom 2.7095436013268448 0.0399671143444362 2.2357543296001845 S
atom 7.1788145156019176 0.0516440263323555 2.7406910396018525 S
atom 2.1884397059798766 5.0420188359543632 2.7359835441738105 S
atom 7.7156337207510441 5.0460572337686429 2.2357543296001845 S
atom 2.9103842277531213 0.0447493270654707 7.6860747513279790 S
atom 7.0390152463134834 0.0545381845183318 7.2592185054203613 S
atom 2.0486404366914512 5.0449129941403470 7.2545110099923278 S
atom 7.9164743471773367 5.0508394464896744 7.6860747513279790 S
atom -0.0321094594433397 2.2886888631962674 2.2334005818861624 S
atom 4.9623037479929542 2.8255080683454188 2.7383372918878313 S
atom -0.0280710616290632 7.8158828779674305 2.7336297964597902 S
atom 4.9739806599808771 7.2947789826204854 2.2334005818861620 S
atom -0.0368916721643739 2.0878482367699975 7.6837210036139556 S
atom 4.9594095898069828 2.9653073376338517 7.2568647577063476 S
atom -0.0309652198150395 7.9556821472558505 7.2521572622783008 S
atom 4.9691984472598492 7.0939383561941955 7.6837210036139556 S
atom -0.0227862040908134 -0.0690005760209428 9.9981215780575923 Ba
atom 5.0672330405440658 0.0306438589919107 10.0004753257716068 Ba
atom 0.0768582309220410 5.0210186686139373 9.9957678303435546 Ba
atom 4.9833039153333969 4.9370895434032711 9.9981215780575923 Ba
atom 0.0348391487379722 0.0569476313737836 15.0397266691586466 Ba
atom 4.9412848331493304 -0.0269814938368750 15.0420804168726914 Ba
atom -0.0490899764726859 4.9633933157851322 15.0373729214446534 Ba
atom 5.0409292681621913 5.0630377507979851 15.0397266691586502 Ba
atom 2.5090715320356893 2.4970185873885229 12.5189241236081426 Zr
atom 7.5073039965588064 2.5048762422896163 12.5212778713221464 Zr
atom 2.5169291869367880 7.4952510519116418 12.5165703758941174 Zr
atom 7.5151616514599056 7.5031087068127293 12.5189241236081426 Zr
atom 2.5909758630878961 2.4495078151660201 17.5838719143457496 Zr
atom 7.5548147687813083 2.4229719112374197 17.5862256620597677 Zr
atom 2.5644399591592828 7.4133467208594190 17.5815181666317280 Zr
atom 7.5970659825120999 7.4555979345902257 17.5838719143457531 Zr
atom 2.6483538906152684 2.6977463727902657 9.9898571967794947 S
atom 7.3065762111570622 2.3655938837100394 9.9922109444935021 S
atom 2.3162014015350318 7.3559686933320512 9.9875034490654713 S
atom 7.6544440100394757 7.7038364922144735 9.9898571967794947 S
atom 2.3697891734561076 2.2962908019867823 15.0479910504367673 S
atom 7.7080317819605559 2.6441586008691944 15.0503447981507854 S
atom 2.7176569723385313 7.6345334104912093 15.0456373027227475 S
atom 7.3758792928803460 7.3023809214109789 15.0479910504367673 S
atom 2.0463820582948773 -0.0022871342006522 12.3927845253606286 S
atom 7.9621358153985184 0.0059494993556886 12.6497712172836714 S
atom 2.9717610057765009 4.9963243089776945 12.6450637218556210 S
atom 7.0524721777190749 5.0038029852235599 12.3927845253606250 S
atom 2.9695026273799310 -0.0508758193632955 17.7833372372239502 S
atom 7.0981336459402815 -0.0410869619104343 17.3564809913163280 S
atom 2.1077588363182547 4.9492878477115845 17.3517734958883025 S
atom 7.9755927468041259 4.9552143000609030 17.7833372372239502 S
atom 0.0101447891017497 2.9518504062282349 12.3904307776465981 S
atom 5.0079982749696281 2.0421867685488113 12.6474174695696533 S
atom 0.0176234653476046 7.0325615781708057 12.6427099741416118 S
atom 5.0162349085259743 7.9579405256524423 12.3904307776466016 S
atom 0.0587334742643936 2.0287298371431883 17.7809834895099534 S
atom 5.0550347362357435 2.9061889380070518 17.3541272436023135 S
atom 0.0646599266137278 7.8965637476290711 17.3494197481742525 S
atom 5.0648235936886206 7.0348199565674001 17.7809834895099570 S
atom 0.2604805980195585 -0.2091486367100050 20.0409608051282433 Ba
atom 5.2073811012331230 -0.2526229431184600 20.0433145528422543 Ba
atom 0.2170062916111037 4.7377518665035430 20.0386070574141861 Ba
atom 5.2665707174437806 4.7969414827141970 20.0409608051282468 Ba
atom -0.0230896482062683 0.1018773270538183 24.8154989276576572 Ba
atom 4.8963551374692971 0.0309473031073661 24.8178526753716753 Ba
atom -0.0940196721527208 5.0213221127293837 24.8131451799436391 Ba
atom 4.9830004712179425 5.1079674464780256 24.8154989276576572 Ba
atom 2.5396197870137391 2.4610927743463105 22.6570306445665786 Zr
atom 7.5432298096010069 2.4743279873115753 22.6593843922806073 Zr
atom 2.5528549999789960 7.4647027969335733 22.6546768968525214 Zr
atom 7.5457099064379607 7.4671828937705333 22.6570306445665786 Zr
atom 2.7753991130363183 2.7184919735059081 20.0886412657788540 S
atom 7.2858306104414154 2.2385486612890002 20.0909950134928970 S
atom 2.2954558008193939 7.2289234709110053 20.0862875180648182 S
atom 7.7814892324605287 7.7245820929301052 20.0886412657788540 S
atom 2.3696641960664500 2.2207736340897255 25.1631923867445693 S
atom 7.7835489498576242 2.6442835782588645 25.1655461344586016 S
atom 2.7931741402355890 7.6346583878808776 25.1608386390305618 S
atom 7.3757543154906724 7.2268637535139231 25.1631923867445693 S
atom 2.8297033580914883 -0.0479816611773191 22.3018647030424582 S
atom 7.2989742723665589 -0.0363047491894008 22.8068014130441092 S
atom 2.3085994627445285 4.9540700604326036 22.8020939176160695 S
atom 7.8357934775157165 4.9581084582468806 22.3018647030424582 S
atom 0.0558393160784182 2.1685291064316283 22.2995109553284188 S
atom 5.0502525235147120 2.7053483115807784 22.8044476653301160 S
atom 0.0598777138926945 7.6957231212027812 22.7997401699020408 S
atom 5.0619294355026367 7.1746192258558334 22.2995109553284188 S
atom 2.6304746294179107 2.4544031688538608 28.2647393564408169 Ba
atom 7.5499194150934761 2.3834731449074025 28.2670931041548421 Ba
atom 2.5595446054714501 7.3738479545294151 28.2623856087268024 Ba
atom 7.6365647488421207 7.4604932882780544 28.2647393564408169 Ba
atom 2.3194486656540718 2.7379734150796788 33.0392774789702912 Ba
atom 7.2663491688676460 2.6944991086712351 33.0416312266842809 Ba
atom 2.2759743592456303 7.6848739182932446 33.0369237312562802 Ba
atom 7.3255387850782974 7.7440635345038897 33.0392774789702912 Ba
atom 4.9896900767104277 5.0171126040738647 30.4232076395318884 Zr
atom 9.9933000992977394 5.0303478170391092 30.4255613872458923 Zr
atom 5.0029252896756429 10.0207226266611062 30.4208538918178846 Zr
atom 9.9957801961346053 10.0232027234980521 30.4232076395318884 Zr
atom 4.9781051175301050 5.0684686801480092 35.4963663697527636 Zr
atom 9.9419440232235186 5.0419327762194168 35.4987201174667177 Zr
atom 4.9515692136015099 10.0323075858414281 35.4940126220387100 Zr
atom 9.9841952369543083 10.0745587995722108 35.4963663697527636 Zr
atom 4.7493709364538050 4.8471570131265622 27.9170458973539013 S
atom 10.1632556902449753 5.2706669572956901 27.9193996450678803 S
atom 5.1728808806229578 10.2610417669177263 27.9146921496398406 S
atom 9.7554610558780031 9.8532471325507842 27.9170458973539013 S
atom 5.2470892758700032 5.2528919300964310 32.9915970183196094 S
atom 9.7575207732751164 4.7729486178795195 32.9939507660335636 S
atom 4.7671459636531051 9.7633234275015273 32.9892432706055772 S
atom 10.2531793952942341 10.2589820495206112 32.9915970183196094 S
atom 4.6971264087956985 2.5333321331385434 30.7807273287700376 S
atom 10.2243204235669101 2.5373705309528134 30.2804981141964120 S
atom 5.2339456139448597 7.5277453405748309 30.2757906187683901 S
atom 9.7032165282199401 7.5394222525627566 30.7807273287700376 S
atom 4.5573271395072918 2.5362262913245148 35.2992547945885207 S
atom 10.4251610499931786 2.5421527436738569 35.7308185359242287 S
atom 5.4347862403711522 7.5325275532958500 35.7261110404961713 S
atom 9.5634172589314890 7.5423164107487191 35.2992547945885207 S
atom 2.4806156411867648 5.3071961751516081 30.7783735810559911 S
atom 7.4826673627967111 4.7860922798046666 30.2781443664823762 S
atom 2.4922925531746829 9.7764670894266601 30.2734368710543720 S
atom 7.4867057606109784 10.3132862945758070 30.7783735810559911 S
atom 2.4777214830007872 5.4469954444400344 35.2969010468745310 S
atom 7.4778851500756813 4.5852516533783678 35.7284647882102036 S
atom 2.4875103404536532 9.5756264630003738 35.7237572927822100 S
atom 7.4838116024249990 10.4530855638642528 35.2969010468745310 S
atom 2.5855449337378693 2.5123319657981025 38.0405116149397315 Ba
atom 7.4919906181492388 2.4284028405874332 38.0428653626538207 Ba
atom 2.5016158085272111 7.4187776502094405 38.0381578672257561 Ba
atom 7.5916350531620838 7.5184220852222996 38.0405116149397386 Ba
atom 2.4595967263431358 2.4547066129693111 43.0821167060408854 Ba
atom 7.5496159709780146 2.5543510479821618 43.0844704537549674 Ba
atom 2.5592411613560015 7.5447258576041722 43.0797629583269241 Ba
atom 7.4656868457673768 7.4607967323935105 43.0821167060408783 Ba
atom 5.0256158897525998 4.9865643490958140 40.5613141604903404 Zr
atom 10.0238483542757244 4.9944220039968990 40.5636679082043869 Zr
atom 5.0334735446537069 9.9847968136188978 40.5589604127762726 Zr
atom 10.0317060091768280 9.9926544685200085 40.5613141604903404 Zr
atom 5.0731266619751159 4.9046600180436117 45.6262619512279457 Zr
atom 10.1057526853279178 4.9469112317744059 45.6286156989419638 Zr
atom 5.1153778757059181 9.9372860413964066 45.6239082035139347 Zr
atom 10.0792167813993352 9.9107501374678311 45.6262619512279457 Zr
atom 4.8248881043508671 4.8472819905162350 38.0322472336616428 S
atom 10.1631307128552990 5.1951497893986485 38.0346009813757462 S
atom 5.1727559032332824 10.1855245990206491 38.0298934859476887 S
atom 9.8309782237750891 9.8533721099404445 38.0322472336616428 S
atom 5.2263436751543528 5.1258467076753851 43.0903810873190238 S
atom 9.8845659956961480 4.7936942185951530 43.0927348350330490 S
atom 4.8941911860741421 9.7840690282171678 43.0880273396049702 S
atom 10.2324337945785739 10.1319368270995795 43.0903810873190238 S
atom 5.4804477085923464 2.4876376061618766 40.6898075064519062 S
atom 9.5611588805349186 2.4951162824077353 40.4375283099568250 S
atom 4.5707840709128931 7.4854910920297471 40.4328208145288528 S
atom 10.4865378280165693 7.4937277255860710 40.6898075064519062 S
atom 4.6164455391340677 2.4406011448957483 45.3965172804845309 S
atom 10.4842794496199740 2.4465275972450851 45.8280810218201822 S
atom 5.4939046399979397 7.4369024068670981 45.8233735263921602 S
atom 9.6225356585583128 7.4466912643199690 45.3965172804845309 S
atom 2.5263101681634379 4.5238748753549833 40.6874537587378455 S
atom 7.5249216113417914 5.4492538228366207 40.4351745622428140 S
atom 2.5345468017197699 10.4396286324586338 40.4304670668147921 S
atom 7.5324002875876577 9.5299649947792133 40.6874537587378455 S
atom 2.5733466294295591 5.3878770448132469 45.3941635327705129 S
atom 7.5735102965044359 4.5261332537515750 45.8257272741061783 S
atom 2.5831354868824090 9.5165080633735872 45.8210197786781706 S
atom 7.5794367488537677 10.3939671642374023 45.3941635327705129 S
atom 2.7256929944269395 2.2290651636877237 48.0833508420104607 Ba
atom 7.7752574202596048 2.2882547798983732 48.0857045897244575 Ba
atom 2.7848826106375859 7.2786295895203885 48.0809970942963858 Ba
atom 7.7317831138511499 7.2351552831119292 48.0833508420104607 Ba
atom 2.4146670306631028 2.5126354099135524 52.8578889645398320 Ba
atom 7.4916871740337738 2.5992807436622041 52.8602427122538927 Ba
atom 2.5013123644117590 7.5896555532842092 52.8555352168258210 Ba
atom 7.4207571500873231 7.5187255293377531 52.8578889645398320 Ba
atom 5.0615417027948224 4.9560160941177491 50.6994206814488066 Zr
atom 10.0543966092537609 4.9584961909547136 50.7017744291627608 Zr
atom 5.0640217996317825 9.9488710005767178 50.6970669337347175 Zr
atom 10.0676318222190151 9.9621062135419791 50.6994206814488066 Zr
atom 4.8041425036352390 4.7202367680951856 48.1310313026611141 S
atom 10.2901759352763644 5.2158953901142864 48.1333850503750895 S
atom 5.2998011256543425 10.2062701997363039 48.1286775549471031 S
atom 9.8102326230594041 9.7263268875194093 48.1310313026611141 S
atom 5.3018608430514202 5.1259716850650543 53.2055824236267512 S
atom 9.8844410183065268 4.7181770506980989 53.2079361713407906 S
atom 4.8940662086844728 9.7085518603201120 53.2032286759127970 S
atom 10.3079509624756191 10.1320618044892701 53.2055824236267512 S
atom 4.8172861655603700 2.4453833576167883 50.8468377022122269 S
atom 10.3444801803315194 2.4494217554310618 50.3466084876387256 S
atom 5.3541053707095241 7.4397965650530713 50.3419009922106753 S
atom 9.8233762849845832 7.4514734770409969 50.8468377022122269 S
atom 2.5685644167085235 5.1870364183869455 50.8444839544982941 S
atom 7.5706161383184627 4.6659325230400093 50.3442547399246862 S
atom 2.5802413286964452 9.6563073326620152 50.3395472444967496 S
atom 7.5746545361327371 10.1931265378111622 50.8444839544982941 S
