#=======================================================
# FHI-aims file: sym_relax/sym_relax_RP_1_RxRy0_RxRy0.in
# Created using the Atomic Simulation Environment (ASE)
# Fri Mar 14 10:20:11 2025
#=======================================================
lattice_vector 10.0578066677730984 0.1251437233457847 0.0000000000000000 
lattice_vector 0.1251437233457846 10.0578066677731002 -0.0000000000000000 
lattice_vector 0.0000000000000000 -0.0000000000000000 15.6289482988535440 
atom -0.0908151525732913 -0.0908151525732913 0.2364327664741300 Ba
atom 5.1197184864598437 0.1533870142461825 0.2364327664741300 Ba
atom 0.1533870142461826 5.1197184864598455 0.2364327664741300 Ba
atom 5.0006600429861479 5.0006600429861559 0.2364327664741300 Ba
atom 0.0908151525732913 0.0908151525732913 4.6476135769176024 Ba
atom 4.9380881813132609 -0.0282432909004000 4.6476135769176024 Ba
atom -0.0282432909004000 4.9380881813132653 4.6476135769176015 Ba
atom 5.1822903481327351 5.1822903481327369 4.6476135769176024 Ba
atom 2.5457375977797199 2.5457375977797216 2.4420231716958667 Zr
atom 7.5746409316662726 2.6083094594526139 2.4420231716958667 Zr
atom 2.6083094594526131 7.5746409316662771 2.4420231716958667 Zr
atom 7.6372127933391649 7.6372127933391649 2.4420231716958667 Zr
atom 2.6909474993154108 2.6909474993154077 -0.0990334543189809 S
atom 7.4294310301305790 2.4630995579169257 -0.0990334543189809 S
atom 2.4630995579169257 7.4294310301305844 -0.0990334543189809 S
atom 7.7824226948748523 7.7824226948748532 -0.0990334543189810 S
atom 2.4005276962440329 2.4005276962440338 4.9830797977107117 S
atom 7.7198508332019573 2.7535193609883004 4.9830797977107117 S
atom 2.7535193609883035 7.7198508332019706 4.9830797977107117 S
atom 7.4920028918034713 7.4920028918034758 4.9830797977107117 S
atom 2.5144516669432750 0.0312859308364456 2.2905049618466919 S
atom 7.5433550008298313 0.0938577925093365 2.5935413815450397 S
atom 2.5770235286161696 5.0601892647229985 2.5935413815450397 S
atom 7.6059268625027148 5.1227611263958917 2.2905049618466919 S
atom 0.0312859308364461 2.5144516669432773 2.2905049618466919 S
atom 5.0601892647229949 2.5770235286161673 2.5935413815450397 S
atom 0.0938577925093369 7.5433550008298322 2.5935413815450397 S
atom 5.1227611263958908 7.6059268625027228 2.2905049618466919 S
atom 2.4549224452064347 2.4549224452064302 8.0509069159008977 Ba
atom 7.6654560842395600 2.6991246120259049 8.0509069159008977 Ba
atom 2.6991246120259045 7.6654560842395609 8.0509069159008977 Ba
atom 7.5463976407658713 7.5463976407658748 8.0509069159008977 Ba
atom 2.6365527503530117 2.6365527503530135 12.4620877263443823 Ba
atom 7.4838257790929799 2.5174943068793225 12.4620877263443823 Ba
atom 2.5174943068793203 7.4838257790929834 12.4620877263443823 Ba
atom 7.7280279459124444 7.7280279459124532 12.4620877263443823 Ba
atom 5.0914751955594397 5.0914751955594433 10.2564973211226391 Zr
atom 10.1203785294459898 5.1540470572323347 10.2564973211226391 Zr
atom 5.1540470572323374 10.1203785294459969 10.2564973211226391 Zr
atom 10.1829503911188795 10.1829503911188866 10.2564973211226391 Zr
atom 5.2366850970951386 5.2366850970951342 7.7154406951077865 S
atom 9.9751686279103069 5.0088371556966429 7.7154406951077865 S
atom 5.0088371556966376 9.9751686279103104 7.7154406951077865 S
atom 10.3281602926545713 10.3281602926545748 7.7154406951077865 S
atom 4.9462652940237488 4.9462652940237524 12.7975539471374820 S
atom 10.2655884309816834 5.2992569587680300 12.7975539471374820 S
atom 5.2992569587680274 10.2655884309816763 12.7975539471374820 S
atom 10.0377404895831894 10.0377404895831965 12.7975539471374820 S
atom 5.0601892647229949 2.5770235286161673 10.1049791112734759 S
atom 10.0890925986095485 2.6395953902890583 10.4080155309718005 S
atom 5.1227611263958908 7.6059268625027228 10.4080155309718005 S
atom 10.1516644602824435 7.6684987241756124 10.1049791112734759 S
atom 2.5770235286161696 5.0601892647229985 10.1049791112734759 S
atom 7.6059268625027148 5.1227611263958917 10.4080155309718005 S
atom 2.6395953902890579 10.0890925986095539 10.4080155309718005 S
atom 7.6684987241756106 10.1516644602824453 10.1049791112734759 S
