#=======================================================
# FHI-aims file: sym_relax/sym_relax_RP_5_Rx0Mz_0RyMz.in
# Created using the Atomic Simulation Environment (ASE)
# Fri Mar 14 10:50:36 2025
#=======================================================
lattice_vector 10.0194235618620127 0.0534263156609055 -0.0000164319575194 
lattice_vector 0.0534263156609052 10.0194235618620162 0.0000164319575195 
lattice_vector -0.0001405510743735 0.0001405510743745 55.8173944709981029 
atom 0.1184282940185453 0.1670807620216392 0.2186891092006872 Ba
atom 5.1767674847895515 0.1451727474214428 0.2186971488003363 Ba
atom 0.1937688616890001 5.1281713705219936 0.2187135807578554 Ba
atom 5.1548532327800034 5.2035057007830892 0.2186891092006872 Ba
atom -0.2591013791151611 -0.1883625934940839 4.9979454129576251 Ba
atom 4.8212939076707046 -0.2323334360560615 4.9979315579951091 Ba
atom -0.1617047154298505 4.7506651870444720 4.9979479899526282 Ba
atom 4.7773235596462982 4.8480623452673637 4.9979454129576233 Ba
atom 2.5242623786069496 2.5299317034242903 2.3929136029133202 Zr
atom 7.5396102985805920 2.5510160840023688 2.3929060962145430 Zr
atom 2.5566116754800392 7.5340147071029078 2.3929225281720616 Zr
atom 7.5606873173684033 7.5663566421857409 2.3929136029133207 Zr
atom 2.5132675469375880 2.5097059808885529 7.4443931126871483 Zr
atom 7.5193678765542469 2.5400368597098066 7.4443871548883545 Zr
atom 2.5363692534537012 7.5230354828103749 7.4444035868458815 Zr
atom 7.5496924856990386 7.5461309196500110 7.4443931126871474 Zr
atom 2.2610163721947663 2.6928950958814672 -0.1125103339042317 S
atom 7.7025846658424131 2.2877731185191594 -0.1125198922350330 S
atom 2.7195860427418825 7.2707717416197104 -0.1125034602775132 S
atom 7.2974413109562253 7.7293200346429316 -0.1125103339042316 S
atom 2.8254337901757021 2.2616616030629721 4.9502470214564029 S
atom 7.2713261731952414 2.8522132931970479 4.9502374610586166 S
atom 2.2883275500946918 7.8352119162975944 4.9502538930161419 S
atom 7.8618587289371664 7.2980865418244321 4.9502470214564056 S
atom 2.7779318331665159 0.0101526854275970 2.2181987834982304 S
atom 7.2002921054739888 0.0335582332065952 2.7708327476191514 S
atom 2.2172934823734285 5.0165568563071412 2.7708491795766732 S
atom 7.8143567719279714 5.0465776241890552 2.2181987834982313 S
atom 2.8897646882021988 0.0131233795091881 7.7727853600220573 S
atom 7.1360930322044229 0.0359912087459404 7.1470897843274006 S
atom 2.1530944091038791 5.0189898318464765 7.1471062162849144 S
atom 7.9261896269636605 5.0495483182706487 7.7727853600220618 S
atom 0.0068025052842985 2.1906173068443482 2.7708436398663943 S
atom 5.0198225258143410 2.8046773721478151 2.2181917044341697 S
atom 0.0368239027137950 7.7876759952483727 2.2182081363916977 S
atom 5.0432274440457485 7.2270422456058014 2.7708436398663934 S
atom 0.0092199702902742 2.1264400643018040 7.1470837704968373 S
atom 5.0227824538536874 2.9165221345509167 7.7727906270173026 S
atom 0.0397838307531460 7.8995207576514668 7.7728070589748208 S
atom 5.0456449090517212 7.1628650030632484 7.1470837704968364 S
atom 0.2756881489343723 0.1815693915415744 9.9635381656803865 Ba
atom 5.1912292032835996 0.3024502008678546 9.9635327822903506 Ba
atom 0.2082305801830526 5.2854488239684105 9.9635492142478554 Ba
atom 5.3121130876958356 5.2179943303030321 9.9635381656803865 Ba
atom -0.2757508949497180 -0.1815066455262286 14.9549415088723396 Ba
atom 4.8281316125630767 -0.2489611391916029 14.9549304603048796 Ba
atom -0.1548670105374919 4.7340374839089412 14.9549468922624023 Ba
atom 4.7606740438117363 4.8549182932352171 14.9549415088723396 Ba
atom 2.5181810963730538 2.5182438423884004 12.4592398372763498 Zr
atom 7.5278928773040619 2.5449570002188553 12.4592316212976009 Zr
atom 2.5448942542035087 7.5279556233194054 12.4592480532551164 Zr
atom 7.5546060351345066 7.5546687811498714 12.4592398372763498 Zr
atom 2.5230946458085231 2.5267817038882487 17.4740865618656080 Zr
atom 7.5364178780538627 2.5498771407279031 17.4740760877067913 Zr
atom 2.5534192549533192 7.5328757638284323 17.4740925196643424 Zr
atom 7.5595195845699648 7.5632066426497078 17.4740865618656116 Zr
atom 2.1857318949823723 2.7851285353068058 9.9571705706239637 S
atom 7.7948047817936343 2.2125156718830401 9.9571614070890408 S
atom 2.8118061586930740 7.1955142949835800 9.9571778390465475 S
atom 7.2221568337438438 7.8215534740682644 9.9571705706239708 S
atom 2.8506302977637326 2.2513591494699905 14.9613091039287518 S
atom 7.2609809728145107 2.8773983285546629 14.9613018355061609 S
atom 2.2779823497139398 7.8603969516552192 14.9613182674636853 S
atom 7.8870552365251925 7.2877840882314349 14.9613091039287465 S
atom 2.8829882598155661 0.0151070831734964 12.1399425146835593 S
atom 7.1363725560311240 0.0383819785027550 12.7785207279116459 S
atom 2.1533739329305424 5.0213806016033065 12.7785371598691562 S
atom 7.9194131985770024 5.0515320219349569 12.1399425146835611 S
atom 2.8832677836422262 0.0174978529303111 17.7713734582678420 S
atom 7.1295961276444659 0.0403656821670632 17.1456778825731035 S
atom 2.1465975045439181 5.0233643052675987 17.1456943145306511 S
atom 7.9196927224036973 5.0539227916917699 17.7713734582678420 S
atom 0.0116100094338766 2.1267345617700233 12.7785642971873017 S
atom 5.0247521833122395 2.9097531230067748 12.1399153773654156 S
atom 0.0417535602116845 7.8927517461073231 12.1399318093229382 S
atom 5.0480349481953368 7.1631595005314859 12.7785642971873017 S
atom 0.0135797388924144 2.1199655502258850 17.1456890475354307 S
atom 5.0271422224558462 2.9100476204749977 17.7713959040558969 S
atom 0.0441435993552859 7.8930462435755455 17.7714123360133947 S
atom 5.0500046776538845 7.1563904889873360 17.1456890475354307 S
atom 0.2590386330998164 0.1884253395094294 19.9205342615950727 Ba
atom 5.1980669081759565 0.2858224977323132 19.9205316846000464 Ba
atom 0.2150682850754116 5.2688211208328628 19.9205481165576046 Ba
atom 5.2954635718612790 5.2248502782708863 19.9205342615950833 Ba
atom -0.1184910400338905 -0.1670180160062934 24.6997905653520142 Ba
atom 4.8425933310571105 -0.0916836857451915 24.6997660937948673 Ba
atom -0.1404052920434403 4.8913149373553582 24.6997825257524077 Ba
atom 4.9179338987275729 4.8694069227551697 24.6997905653520142 Ba
atom 2.5120998141391611 2.5065559813525145 22.5255660716393749 Zr
atom 7.5161754560275362 2.5388979164353347 22.5255571463807023 Zr
atom 2.5331768329269910 7.5218965395358985 22.5255735783381503 Zr
atom 7.5485247529006019 7.5429809201139788 22.5255660716393677 Zr
atom 2.2109284025704015 2.7748260817138277 19.9682326530963330 S
atom 7.7844595814128761 2.2377007072406592 19.9682257815365602 S
atom 2.8014609583123162 7.2206993303411995 19.9682422134940758 S
atom 7.2473533413318503 7.8112510204752814 19.9682326530963365 S
atom 2.7753458205513475 2.3435925888953268 25.0309900084569215 S
atom 7.3532010887656911 2.8021408819185529 25.0309831348302190 S
atom 2.3702024656651322 7.7851395050191012 25.0309995667877168 S
atom 7.8117707593128154 7.3800175276567659 25.0309900084569215 S
atom 2.8190687103726826 0.0199308284696563 22.1476304949760348 S
atom 7.2414289826801461 0.0433363762486547 22.7002644590969744 S
atom 2.2584303595795925 5.0263349993492135 22.7002808910544935 S
atom 7.8554936491341376 5.0563557672311150 22.1476304949760348 S
atom 0.0165396669317650 2.2318103126289826 22.7002879701185378 S
atom 5.0295596874618180 2.8458703779324463 22.1476360346863324 S
atom 0.0465610643612623 7.8288690010330075 22.1476524666438088 S
atom 5.0529646056932238 7.2682352513904451 22.7002879701185378 S
atom 2.3510614318218983 2.3998544508993667 28.1273863446997723 Ba
atom 7.4093943851835604 2.3779401988898261 28.1273943842993823 Ba
atom 2.4263957620830046 7.3609388219903558 28.1274108162568943 Ba
atom 7.3874863705833720 7.4362793896608217 28.1273863446997723 Ba
atom 2.7065047873376207 2.7773841240330821 32.9066426484566747 Ba
atom 7.7869005686610526 2.7334137760086739 32.9066287934942139 Ba
atom 2.8039019455605061 7.7164123991092133 32.9066452254517401 Ba
atom 7.7429297260990708 7.8138090627945296 32.9066426484566747 Ba
atom 5.0246354291807185 5.0304453050724263 30.3016108384123832 Zr
atom 10.0399759873640750 5.0515223238602331 30.3016033317135616 Zr
atom 5.0569773642635436 10.0345209469607966 30.3016197636711091 Zr
atom 10.0610603679421651 10.0668702438338826 30.3016108384123832 Zr
atom 5.0448611517164412 5.0414401367417776 35.3530903481861927 Zr
atom 10.0509552116566780 5.0717647458865809 35.3530843903875009 Zr
atom 5.0679565885560818 10.0547633689871336 35.3531008223449774 Zr
atom 10.0812860904778994 10.0778650755032579 35.3530903481861856 Zr
atom 4.8616720367235375 5.2936913114845821 27.7961869015948579 S
atom 10.3032189528473292 4.8885479565983996 27.7961773432640662 S
atom 5.3202203297467356 9.8715465796989186 27.7961937752215746 S
atom 9.8980969754850197 10.3301162502460500 27.7961869015948579 S
atom 5.2929055295420202 4.7292738935036542 32.8589442569554109 S
atom 9.7387787781694151 5.3198064492455810 32.8589346965575970 S
atom 4.7557801550688357 10.3028050723461462 32.8589511285151730 S
atom 10.3293304683034890 9.7656988322651017 32.8589442569554038 S
atom 4.7498897604571759 2.5348851578650184 30.1268889399332451 S
atom 10.3469484488611894 2.5649065552945229 30.6795244434079279 S
atom 5.3639498257606748 7.5479051783950721 30.6795408753654222 S
atom 9.7863146992186163 7.5713100966264939 30.1268889399332451 S
atom 4.6380449980540801 2.5319252298256760 35.6814878625162990 S
atom 10.4111256914037309 2.5624890902885427 35.0557645740383776 S
atom 5.4281270683032057 7.5454877133890967 35.0557810059958541 S
atom 9.6744699368155409 7.5683501685871333 35.6814878625162990 S
atom 2.5380102762978591 5.3374142013059203 30.6795464150757589 S
atom 7.5444144471773953 4.7767758505128537 30.1268960189972681 S
atom 2.5614158240768528 9.7597744736134029 30.1269124509548085 S
atom 7.5744352150593217 10.3738391400674264 30.6795464150757589 S
atom 2.5355773007585123 5.4016132745755030 35.0558034517839090 S
atom 7.5414437530958134 4.6649429954771726 35.6814825955210608 S
atom 2.5584451299952615 9.6479416185777325 35.6814990274786368 S
atom 7.5720022395199642 10.4380382133369540 35.0558034517839090 S
atom 2.3365728023019652 2.2425945959835412 37.8722354011794167 Ba
atom 7.2521169317371381 2.3634784803957740 37.8722300177893203 Ba
atom 2.2691183086365951 7.3464771034963157 37.8722464497468749 Ba
atom 7.3729977410634149 7.2790195347449984 37.8722354011794167 Ba
atom 2.6996488393697708 2.7940336398676382 42.8636387443714071 Ba
atom 7.8035282717966172 2.7265760711163090 42.8636276958039133 Ba
atom 2.8205296486960485 7.7095746942168670 42.8636441277615745 Ba
atom 7.7360737781312414 7.8304585786290737 42.8636387443714000 Ba
atom 5.0363232902166075 5.0365265873063141 40.3679370727753764 Zr
atom 10.0460350711475801 5.0632397451367623 40.3679288567967376 Zr
atom 5.0630364480470611 10.0462383682373098 40.3679452887541643 Zr
atom 10.0727482289780621 10.0729515260677669 40.3679370727753764 Zr
atom 5.0277854287167623 5.0316130378708488 45.3827837973646453 Zr
atom 10.0411149306385514 5.0547147443869571 45.3827733232059387 Zr
atom 5.0581163075379996 10.0377133674874859 45.3827897551634223 Zr
atom 10.0642103674781946 10.0680379766322723 45.3827837973646453 Zr
atom 4.7694385972981941 5.3689757886969760 37.8658678061229494 S
atom 10.3784763994833966 4.7963278406472192 37.8658586425880443 S
atom 5.3954777763828714 9.7793264637477542 37.8658750745456487 S
atom 9.8058635360596362 10.4054007274584723 37.8658678061229494 S
atom 5.3032079831350201 4.7040773859156468 42.8700063394277393 S
atom 9.7135937428118027 5.3301516496263330 42.8699990710052958 S
atom 4.7305951197112304 10.3131502727268849 42.8700155029628434 S
atom 10.3396329218964507 9.7405023246770952 42.8700063394277393 S
atom 4.6448140095982140 2.5299555003671421 40.0486126128644173 S
atom 10.4108311939355360 2.5600990511449435 40.6872451007288376 S
atom 5.4278325708349877 7.5430976742455034 40.6872615326864135 S
atom 9.6812389483596526 7.5663804391285936 40.0486126128644173 S
atom 4.6445195121299898 2.5275654612235394 45.6800931395549270 S
atom 10.4176002054796584 2.5581293216864092 45.0543698510771051 S
atom 5.4346015823791083 7.5411279447869521 45.0543862830346029 S
atom 9.6809444508914435 7.5639903999849869 45.6800931395549270 S
atom 2.5331865310016872 5.4013337507488055 40.6872343953682645 S
atom 7.5394600494315149 4.6717194238638111 40.0486397501826943 S
atom 2.5564614263309560 9.6547180469643781 40.0486561821401779 S
atom 7.5696114697631494 10.4377586895102752 40.6872343953682645 S
atom 2.5312028273373817 5.4081101791354547 45.0543915500297842 S
atom 7.5370692796746610 4.6714399000371332 45.6800706937668934 S
atom 2.5540706565741353 9.6544385231377010 45.6800871257243415 S
atom 7.5676277660988527 10.4445351178969048 45.0543915500297913 S
atom 2.3297168543341122 2.2592441118180924 47.8292314970941561 Ba
atom 7.2687446348726796 2.3566407755034051 47.8292289200991050 Ba
atom 2.2857460117721384 7.3396393986039570 47.8292453520566383 Ba
atom 7.3661417930955748 7.2956690505795567 47.8292314970941632 Ba
atom 2.6851602098498328 2.6367737849518043 52.6084878008512078 Ba
atom 7.6462508183501923 2.7121143526222600 52.6084633292939543 Ba
atom 2.6632521952496364 7.6951129757228145 52.6084797612514734 Ba
atom 7.7215851486112745 7.6731987237132691 52.6084878008512078 Ba
atom 5.0480111512524832 5.0426078695402099 50.4342633071384157 Zr
atom 10.0520941549311047 5.0749571664132969 50.4342543818796685 Zr
atom 5.0690955318305635 10.0579557895138283 50.4342708138371876 Zr
atom 10.0844360900139360 10.0790328083016565 50.4342633071384299 Zr
atom 4.7797410508911540 5.3437792811089597 47.8769298885954200 S
atom 10.3532913641257913 4.8066730410279579 47.8769230170355868 S
atom 5.3702927410252332 9.7896716641284982 47.8769394489931699 S
atom 9.8161659896526352 10.3802042198704338 47.8769298885954200 S
atom 5.2109745437096739 4.7793618631280470 52.9396872439559942 S
atom 9.7888511894478807 5.2379315336751526 52.9396803703293273 S
atom 4.8058525663473635 10.2209301567757116 52.9396968022868322 S
atom 10.2473994824710886 9.8157868018894874 52.9396872439559942 S
atom 4.7086967546725402 2.5251479962175551 50.0563332701852985 S
atom 10.3057554430765528 2.5551693936470476 50.6089687736601164 S
atom 5.3227568199760187 7.5381680167476111 50.6089852056176284 S
atom 9.7451216934339939 7.5615729349790231 50.0563332701852914 S
atom 2.5282321332557922 5.2962773240997834 50.6089781265534882 S
atom 7.5346363041353506 4.7356389733066973 50.0563277304751182 S
atom 2.5516376810347867 9.7186375964072269 50.0563441624325947 S
atom 7.5646570720172601 10.3327022628612362 50.6089781265534882 S
