#=======================================================
# FHI-aims file: sym_relax/sym_relax_RP_10_Rx0Mz_0-Ry0.in
# Created using the Atomic Simulation Environment (ASE)
# Mon Mar 17 18:30:54 2025
#=======================================================
lattice_vector 10.0165698955986571 0.0000000000000000 0.0000000000000000 
lattice_vector 0.0000000000000000 10.0828198879309756 0.0000000000000000 
lattice_vector 0.0000000000000000 0.0000000000000000 105.2348605294600645 
atom -0.1514664459103792 0.0000000000000000 0.1563901599259732 Ba
atom 5.1335581751825146 -0.0000000000000000 0.1504569818972501 Ba
atom 0.1252732273831893 5.0414099439654843 0.1504569818972501 Ba
atom 4.8568185018889487 5.0414099439654843 0.1563901599259732 Ba
atom -0.0572695468825623 -0.0000000000000000 4.8587291808787967 Ba
atom 4.8984201286290983 0.0000000000000000 4.7899034537335918 Ba
atom -0.1098648191702329 5.0414099439654843 4.7899034537335918 Ba
atom 4.9510154009167726 5.0414099439654843 4.8587291808787967 Ba
atom 2.4864674020175848 2.5133782529321804 2.2111034114740891 Zr
atom 7.4947523498169213 2.5280316910333029 2.2111034114740891 Zr
atom 2.4864674020175848 7.5694416349987899 2.2111034114740891 Zr
atom 7.4947523498169213 7.5547881968976567 2.2111034114740891 Zr
atom 2.5309871779723472 2.5177142164701243 7.2590528054065855 Zr
atom 7.5392721257716797 2.5236957274953689 7.2590528054065855 Zr
atom 2.5309871779723472 7.5651056714608478 7.2590528054065855 Zr
atom 7.5392721257716797 7.5591241604356050 7.2590528054065855 Zr
atom 2.4917382638573558 2.8517178953190179 -0.2749902836118661 S
atom 7.5000232116566981 2.1896920486464722 -0.2749902836118661 S
atom 2.4917382638573558 7.2311019926119586 -0.2749902836118661 S
atom 7.5000232116566981 7.8931278392845048 -0.2749902836118661 S
atom 2.5042493281752312 2.1265645677099374 4.7730640892243263 S
atom 7.5125342759745699 2.9148453762555446 4.7730640892243263 S
atom 2.5042493281752312 7.9562553202210227 4.7730640892243263 S
atom 7.5125342759745699 7.1679745116754408 4.7730640892243263 S
atom 2.4964908244219064 0.0000000000000000 1.9511818289497418 S
atom 7.4859204400900516 0.0000000000000000 2.6598903389431494 S
atom 2.4776354922907178 5.0414099439654843 2.6598903389431494 S
atom 7.5047757722212349 5.0414099439654843 1.9511818289497418 S
atom 2.8690712038081725 -0.0000000000000000 7.6410816954921854 S
atom 7.2196177288735104 0.0000000000000000 6.9012016829926530 S
atom 2.2113327810741699 5.0414099439654843 6.9012016829926530 S
atom 7.8773561516075059 5.0414099439654843 7.6410816954921872 S
atom -0.0148648854550182 2.5175965776423208 2.3372526174790389 S
atom 4.9934200623443159 2.5238133663231732 2.3372526174790389 S
atom -0.0148648854550182 7.5652233102886486 2.3372526174790389 S
atom 4.9934200623443159 7.5590065216078104 2.3372526174790389 S
atom 0.0242665997509263 2.1746519333855203 7.2860443938937864 S
atom 5.0325515475502565 2.8667580105799639 7.2860443938937864 S
atom 0.0242665997509263 7.9081679545454620 7.2860443938937864 S
atom 5.0325515475502565 7.2160618773509944 7.2860443938937864 S
atom 0.2107365800400243 -0.0000000000000000 9.7942688965147937 Ba
atom 5.2000293485642768 -0.0000000000000000 9.7848966931182133 Ba
atom 0.1917444007649480 5.0414099439654843 9.7848966931182133 Ba
atom 5.2190215278393532 5.0414099439654843 9.7942688965147937 Ba
atom -0.1739573916271284 0.0000000000000000 14.7942858880179351 Ba
atom 4.8561984550906994 0.0000000000000000 14.7930048025446457 Ba
atom -0.1520864927086371 5.0414099439654843 14.7930048025446457 Ba
atom 4.8343275561722079 5.0414099439654843 14.7942858880179351 Ba
atom 2.5286527704179038 2.5232321806630220 12.2748199550628918 Zr
atom 7.5369377182172412 2.5181777633024605 12.2748199550628918 Zr
atom 2.5286527704179038 7.5595877072679443 12.2748199550628918 Zr
atom 7.5369377182172412 7.5646421246285014 12.2748199550628918 Zr
atom 2.5252752134550058 2.5199061016396929 17.2929984162504695 Zr
atom 7.5335601612543375 2.5215038423257932 17.2929984162504695 Zr
atom 2.5252752134550058 7.5629137862912774 17.2929984162504695 Zr
atom 7.5335601612543375 7.5613160456051771 17.2929984162504695 Zr
atom 2.5223408152740414 2.8898101945024126 9.7771612826442578 S
atom 7.5306257630733739 2.1515997494630739 9.7771612826442578 S
atom 2.5223408152740414 7.1930096934285599 9.7771612826442578 S
atom 7.5306257630733739 7.9312201384678875 9.7771612826442578 S
atom 2.5298715802173071 2.1606130040677689 14.7895410798739597 S
atom 7.5381565280166347 2.8807969398977145 14.7895410798739597 S
atom 2.5298715802173071 7.9222068838631960 14.7895410798739597 S
atom 7.5381565280166347 7.2020229480332620 14.7895410798739597 S
atom 2.8761151247173538 0.0000000000000000 11.9267635815190278 S
atom 7.1827350852911431 0.0000000000000000 12.6491801041492185 S
atom 2.1744501374918146 5.0414099439654843 12.6491801041492185 S
atom 7.8844000725166810 5.0414099439654843 11.9267635815190278 S
atom 2.8820722010237505 -0.0000000000000000 17.6561165324753446 S
atom 7.1789719600525652 -0.0000000000000000 16.9411060868236945 S
atom 2.1706870122532300 5.0414099439654843 16.9411060868236945 S
atom 7.8903571488230826 5.0414099439654843 17.6561165324753446 S
atom 0.0229721510146002 2.1536668555756768 12.2904871301645624 S
atom 5.0312570988139385 2.8877430883898025 12.2904871301645624 S
atom 0.0229721510146002 7.9291530323552868 12.2904871301645624 S
atom 5.0312570988139385 7.1950767995411677 12.2904871301645624 S
atom 0.0216395633515999 2.1489466758112892 17.2993758062843632 S
atom 5.0299245111509299 2.8924632681541964 17.2993758062843632 S
atom 0.0216395633515999 7.9338732121196793 17.2993758062843632 S
atom 5.0299245111509299 7.1903566197767734 17.2993758062843632 S
atom 0.2217543485482706 0.0000000000000000 19.8049837091598206 Ba
atom 5.2049956925707601 0.0000000000000000 19.8042714564127884 Ba
atom 0.1967107447714228 5.0414099439654843 19.8042714564127884 Ba
atom 5.2300392963476110 5.0414099439654843 19.8049837091598206 Ba
atom -0.1783881705543971 0.0000000000000000 24.8195425777028120 Ba
atom 4.8558210452643875 0.0000000000000000 24.8195425777028120 Ba
atom -0.1524639025349458 5.0414099439654843 24.8195425777028120 Ba
atom 4.8298967772449330 5.0414099439654843 24.8195425777028120 Ba
atom 2.5266030193839155 2.5209120977928259 22.3107257348014087 Zr
atom 7.5348879671832361 2.5204978461726575 22.3107257348014087 Zr
atom 2.5266030193839155 7.5619077901381457 22.3107257348014087 Zr
atom 7.5348879671832361 7.5623220417583212 22.3107257348014087 Zr
atom 2.5266030193839155 2.5209120977928259 27.3283594206042970 Zr
atom 7.5348879671832361 2.5204978461726575 27.3283594206042970 Zr
atom 2.5266030193839155 7.5619077901381457 27.3283594206042970 Zr
atom 7.5348879671832361 7.5623220417583212 27.3283594206042970 Zr
atom 2.5220966399827445 2.8781892201413002 19.8042878656992407 S
atom 7.5303815877820854 2.1632207238241836 19.8042878656992407 S
atom 2.5220966399827445 7.2046306677896697 19.8042878656992407 S
atom 7.5303815877820854 7.9195991641067929 19.8042878656992407 S
atom 2.5306695758104802 2.1638508361598401 24.8195425777028120 S
atom 7.5389545236098217 2.8775591078056451 24.8195425777028120 S
atom 2.5306695758104802 7.9189690517711302 24.8195425777028120 S
atom 7.5389545236098217 7.2052607801253190 24.8195425777028120 S
atom 2.8843775574565607 0.0000000000000000 21.9559492028859182 S
atom 7.1768228599526021 -0.0000000000000000 22.6687543739413400 S
atom 2.1685379121532762 5.0414099439654843 22.6687543739413400 S
atom 7.8926625052558865 5.0414099439654843 21.9559492028859182 S
atom 2.8843775574565607 0.0000000000000000 27.6831359525197698 S
atom 7.1768228599526021 -0.0000000000000000 26.9703307814643338 S
atom 2.1685379121532762 5.0414099439654843 26.9703307814643338 S
atom 7.8926625052558865 5.0414099439654843 27.6831359525197698 S
atom 0.0223487270854894 2.1466037809186900 22.3125985339407187 S
atom 5.0306336748848199 2.8948061630467850 22.3125985339407187 S
atom 0.0223487270854894 7.9362161070122816 22.3125985339407187 S
atom 5.0306336748848199 7.1880137248841667 22.3125985339407187 S
atom 0.0223487270854894 2.1466037809186900 27.3264866214649942 S
atom 5.0306336748848199 2.8948061630467850 27.3264866214649942 S
atom 0.0223487270854894 7.9362161070122816 27.3264866214649942 S
atom 5.0306336748848199 7.1880137248841649 27.3264866214649942 S
atom 0.2217543485482706 -0.0000000000000000 29.8341014462458709 Ba
atom 5.2049956925707601 0.0000000000000000 29.8348136989928996 Ba
atom 0.1967107447714228 5.0414099439654843 29.8348136989928996 Ba
atom 5.2300392963476110 5.0414099439654843 29.8341014462458709 Ba
atom -0.1739573916271284 -0.0000000000000000 34.8447992673877849 Ba
atom 4.8561984550906994 0.0000000000000000 34.8460803528611507 Ba
atom -0.1520864927086371 5.0414099439654843 34.8460803528611507 Ba
atom 4.8343275561722079 5.0414099439654843 34.8447992673877849 Ba
atom 2.5252752134550058 2.5199061016396929 32.3460867391552327 Zr
atom 7.5335601612543375 2.5215038423257932 32.3460867391552327 Zr
atom 2.5252752134550058 7.5629137862912774 32.3460867391552327 Zr
atom 7.5335601612543375 7.5613160456051771 32.3460867391552327 Zr
atom 2.5286527704179038 2.5232321806630220 37.3642652003427713 Zr
atom 7.5369377182172412 2.5181777633024605 37.3642652003427713 Zr
atom 2.5286527704179038 7.5595877072679443 37.3642652003427713 Zr
atom 7.5369377182172412 7.5646421246285014 37.3642652003427713 Zr
atom 2.5220966399827445 2.8781892201413002 29.8347972897064579 S
atom 7.5303815877820854 2.1632207238241836 29.8347972897064579 S
atom 2.5220966399827445 7.2046306677896697 29.8347972897064579 S
atom 7.5303815877820854 7.9195991641067929 29.8347972897064579 S
atom 2.5298715802173071 2.1606130040677689 34.8495440755316821 S
atom 7.5381565280166347 2.8807969398977145 34.8495440755316821 S
atom 2.5298715802173071 7.9222068838631960 34.8495440755316821 S
atom 7.5381565280166347 7.2020229480332620 34.8495440755316821 S
atom 2.8820722010237505 0.0000000000000000 31.9829686229303292 S
atom 7.1789719600525652 0.0000000000000000 32.6979790685820007 S
atom 2.1706870122532300 5.0414099439654843 32.6979790685820007 S
atom 7.8903571488230826 5.0414099439654843 31.9829686229303292 S
atom 2.8761151247173538 -0.0000000000000000 37.7123215738866406 S
atom 7.1827350852911431 -0.0000000000000000 36.9899050512564500 S
atom 2.1744501374918146 5.0414099439654843 36.9899050512564500 S
atom 7.8844000725166810 5.0414099439654843 37.7123215738866406 S
atom 0.0216395633515999 2.1489466758112892 32.3397093491212360 S
atom 5.0299245111509299 2.8924632681541964 32.3397093491212360 S
atom 0.0216395633515999 7.9338732121196793 32.3397093491212360 S
atom 5.0299245111509299 7.1903566197767734 32.3397093491212360 S
atom 0.0229721510146002 2.1536668555756768 37.3485980252411167 S
atom 5.0312570988139385 2.8877430883898025 37.3485980252411167 S
atom 0.0229721510146002 7.9291530323552868 37.3485980252411167 S
atom 5.0312570988139385 7.1950767995411677 37.3485980252411167 S
atom 0.2107365800400243 0.0000000000000000 39.8448162588909227 Ba
atom 5.2000293485642768 0.0000000000000000 39.8541884622875671 Ba
atom 0.1917444007649480 5.0414099439654843 39.8541884622875671 Ba
atom 5.2190215278393532 5.0414099439654843 39.8448162588909227 Ba
atom -0.0572695468825623 0.0000000000000000 44.7803559745267918 Ba
atom 4.8984201286290983 0.0000000000000000 44.8491817016721370 Ba
atom -0.1098648191702329 5.0414099439654843 44.8491817016721370 Ba
atom 4.9510154009167726 5.0414099439654843 44.7803559745267918 Ba
atom 2.5309871779723472 2.5177142164701243 42.3800323499991407 Zr
atom 7.5392721257716797 2.5236957274953689 42.3800323499991407 Zr
atom 2.5309871779723472 7.5651056714608478 42.3800323499991407 Zr
atom 7.5392721257716797 7.5591241604356050 42.3800323499991407 Zr
atom 2.4864674020175848 2.5133782529321804 47.4279817439316389 Zr
atom 7.4947523498169213 2.5280316910333029 47.4279817439316389 Zr
atom 2.4864674020175848 7.5694416349987899 47.4279817439316389 Zr
atom 7.4947523498169213 7.5547881968976567 47.4279817439316389 Zr
atom 2.5223408152740414 2.8898101945024126 39.8619238727613521 S
atom 7.5306257630733739 2.1515997494630739 39.8619238727613521 S
atom 2.5223408152740414 7.1930096934285599 39.8619238727613521 S
atom 7.5306257630733739 7.9312201384678875 39.8619238727613521 S
atom 2.5042493281752312 2.1265645677099374 44.8660210661813394 S
atom 7.5125342759745699 2.9148453762555446 44.8660210661813394 S
atom 2.5042493281752312 7.9562553202210227 44.8660210661813394 S
atom 7.5125342759745699 7.1679745116754408 44.8660210661813394 S
atom 2.8690712038081725 0.0000000000000000 41.9980034599134768 S
atom 7.2196177288735104 -0.0000000000000000 42.7378834724129959 S
atom 2.2113327810741699 5.0414099439654843 42.7378834724129959 S
atom 7.8773561516075059 5.0414099439654843 41.9980034599134768 S
atom 2.4964908244219073 -0.0000000000000000 47.6879033264558743 S
atom 7.4859204400900516 -0.0000000000000000 46.9791948164625524 S
atom 2.4776354922907169 5.0414099439654843 46.9791948164625524 S
atom 7.5047757722212349 5.0414099439654843 47.6879033264558743 S
atom 0.0242665997509263 2.1746519333855203 42.3530407615118847 S
atom 5.0325515475502565 2.8667580105799639 42.3530407615118847 S
atom 0.0242665997509263 7.9081679545454620 42.3530407615118847 S
atom 5.0325515475502565 7.2160618773509944 42.3530407615118847 S
atom -0.0148648854550182 2.5175965776423208 47.3018325379266145 S
atom 4.9934200623443159 2.5238133663231732 47.3018325379266145 S
atom -0.0148648854550182 7.5652233102886486 47.3018325379266145 S
atom 4.9934200623443159 7.5590065216078104 47.3018325379266145 S
atom -0.1514664459103792 -0.0000000000000000 49.4826949954796689 Ba
atom 5.1335581751825146 -0.0000000000000000 49.4886281735084950 Ba
atom 0.1252732273831893 5.0414099439654843 49.4886281735084950 Ba
atom 4.8568185018889487 5.0414099439654843 49.4826949954796689 Ba
atom 2.4917382638573558 2.8517178953190170 49.9140754390175445 S
atom 7.5000232116566981 2.1896920486464722 49.9140754390175445 S
atom 2.4917382638573558 7.2311019926119586 49.9140754390175445 S
atom 7.5000232116566981 7.8931278392845048 49.9140754390175445 S
atom 2.4902393518917472 2.3734212931900101 52.9928159887171546 Ba
atom 7.4985242996910939 2.6679886507754711 52.9928159887171546 Ba
atom 2.4902393518917472 7.7093985947409731 52.9928159887171546 Ba
atom 7.4985242996910939 7.4148312371554859 52.9928159887171546 Ba
atom 2.4902415873911083 2.5439131722389332 57.6700420344854336 Ba
atom 7.4985265351904395 2.4974967717265528 57.6700420344854336 Ba
atom 2.4902415873911083 7.5389067156920495 57.6700420344854336 Ba
atom 7.4985265351904395 7.5853231162044112 57.6700420344854336 Ba
atom 4.9829538962708666 5.0414099439654843 55.0483932924530706 Zr
atom 10.0141026356696425 5.0414099439654843 55.0500110372610933 Zr
atom 5.0058176878703087 10.0828198879309685 55.0500110372610933 Zr
atom 9.9912388440701960 10.0828198879309685 55.0483932924530706 Zr
atom 4.9928975441467056 5.0414099439654843 60.0660890544874420 Zr
atom 10.0037734881131328 5.0414099439654843 60.0668280607556753 Zr
atom 4.9954885403137839 10.0828198879309685 60.0668280607556753 Zr
atom 10.0011824919460039 10.0828198879309685 60.0660890544874420 Zr
atom 5.3408110203504835 5.0414099439654843 52.5616236457303003 S
atom 9.6564392308773179 5.0414099439654843 52.5631193935261791 S
atom 4.6481542830779805 10.0828198879309685 52.5631193935261791 S
atom 10.3490959681498218 10.0828198879309685 52.5616236457303003 S
atom 4.5221207627095357 5.0414099439654843 57.5922588823410706 S
atom 10.4749356224509214 5.0414099439654843 57.5926327774318665 S
atom 5.4666506746515910 10.0828198879309685 57.5926327774318665 S
atom 9.5304057105088429 10.0828198879309685 57.5922588823410706 S
atom 4.9944009477052065 2.5207727071219814 55.1798928341698485 S
atom 10.0026858955045341 2.5206372368435002 55.1798928341698485 S
atom 4.9944009477052065 7.5620471808089675 55.1798928341698485 S
atom 10.0026858955045341 7.5621826510874746 55.1798928341698485 S
atom 4.9942511912139276 2.5206836663028698 60.0823923578176959 S
atom 10.0025361390132534 2.5207262776626145 60.0823923578176959 S
atom 4.9942511912139276 7.5621362216281014 60.0823923578176959 S
atom 10.0025361390132534 7.5620936102683700 60.0823923578176959 S
atom 2.4902586256392634 5.0414099439654843 54.7221321927604336 S
atom 7.4984523751220955 5.0414099439654843 55.5317134250642965 S
atom 2.4901674273227568 10.0828198879309685 55.5317134250642965 S
atom 7.4985435734385977 10.0828198879309685 54.7221321927604336 S
atom 2.4900805716096079 5.0414099439654843 60.5566041070652403 S
atom 7.4984371759959334 5.0414099439654843 59.5975103713964742 S
atom 2.4901522281966058 10.0828198879309685 59.5975103713964742 S
atom 7.4983655194089511 10.0828198879309685 60.5566041070652403 S
atom 2.4899288941332873 2.5162998888646175 62.5739609386447455 Ba
atom 7.4982138419326336 2.5251100551008756 62.5739609386447455 Ba
atom 2.4899288941332873 7.5665199990663581 62.5739609386447455 Ba
atom 7.4982138419326336 7.5577098328300956 62.5739609386447455 Ba
atom 2.4898428777417894 2.5249381634367372 67.5221576489047095 Ba
atom 7.4981278255411210 2.5164717805287458 67.5221576489047095 Ba
atom 2.4898428777417894 7.5578817244942282 67.5221576489047095 Ba
atom 7.4981278255411210 7.5663481074022316 67.5221576489047095 Ba
atom 4.9956973640578966 5.0414099439654843 65.0313716460694451 Zr
atom 10.0006997063981338 5.0414099439654843 65.0317353376724725 Zr
atom 4.9924147585988079 10.0828198879309685 65.0317353376724725 Zr
atom 10.0039823118572375 10.0828198879309685 65.0313716460694451 Zr
atom 4.9935029537942883 5.0414099439654843 69.9944947461164304 Zr
atom 10.0025515526885531 5.0414099439654843 69.9946619866805122 Zr
atom 4.9942666048892299 10.0828198879309685 69.9946619866805122 Zr
atom 10.0017879015936266 10.0828198879309685 69.9944947461164304 Zr
atom 5.5006086599475186 5.0414099439654843 62.5554652188605900 S
atom 9.4958288943209013 5.0414099439654843 62.5556588364775052 S
atom 4.4875439465215559 10.0828198879309685 62.5556588364775052 S
atom 10.5088936077468649 10.0828198879309685 62.5554652188605900 S
atom 4.4860900535976906 5.0414099439654843 67.5155839383496641 S
atom 10.5101654374901194 5.0414099439654843 67.5157064765567725 S
atom 5.5018804896908060 10.0828198879309685 67.5157064765567725 S
atom 9.4943750013970334 10.0828198879309685 67.5155839383496641 S
atom 4.9940272838591273 2.5206956848292079 65.0395626604908443 S
atom 10.0023122316584558 2.5207142591362754 65.0395626604908443 S
atom 4.9940272838591273 7.5621242031017610 65.0395626604908443 S
atom 10.0023122316584558 7.5621056287946864 65.0395626604908443 S
atom 4.9938985286047526 2.5207033064775017 69.9970333322276588 S
atom 10.0021834764040918 2.5207066374879816 69.9970333322276588 S
atom 4.9938985286047526 7.5621165814534672 69.9970333322276588 S
atom 10.0021834764040918 7.5621132504429935 69.9970333322276588 S
atom 2.4898706994285691 5.0414099439654843 64.5497709321640514 S
atom 7.4981645457598098 5.0414099439654843 65.5307899701276995 S
atom 2.4898795979604706 10.0828198879309685 65.5307899701276995 S
atom 7.4981556472278958 10.0828198879309685 64.5497709321640514 S
atom 2.4897524150648458 5.0414099439654843 70.4893682229173635 S
atom 7.4980493227596048 5.0414099439654843 69.5054038600080446 S
atom 2.4897643749602838 10.0828198879309685 69.5054038600080446 S
atom 7.4980373628641779 10.0828198879309685 70.4893682229173635 S
atom 2.4896750649379600 2.5173876436143465 72.4774776139758359 Ba
atom 7.4979600127372894 2.5240223003511431 72.4774776139758359 Ba
atom 2.4896750649379600 7.5654322443166198 72.4774776139758359 Ba
atom 7.4979600127372894 7.5587975875798294 72.4774776139758359 Ba
atom 2.4896481287184633 2.5237841526475528 77.4369728424328230 Ba
atom 7.4979330765177918 2.5176257913179287 77.4369728424328230 Ba
atom 2.4896481287184633 7.5590357352834250 77.4369728424328230 Ba
atom 7.4979330765177918 7.5651940966130411 77.4369728424328230 Ba
atom 4.9938524717820165 5.0414099439654843 74.9562846508367215 Zr
atom 10.0020055839423421 5.0414099439654843 74.9563332293087683 Zr
atom 4.9937206361430091 10.0828198879309685 74.9563332293087683 Zr
atom 10.0021374195813486 10.0828198879309685 74.9562846508367215 Zr
atom 4.9938524717820165 5.0414099439654843 79.9176610340291802 Zr
atom 10.0020055839423421 5.0414099439654843 79.9176124555569345 Zr
atom 4.9937206361430091 10.0828198879309685 79.9176124555569345 Zr
atom 10.0021374195813486 10.0828198879309685 79.9176610340291802 Zr
atom 5.5027826582210926 5.0414099439654843 72.4763963611284225 S
atom 9.4931636792627589 5.0414099439654843 72.4764151171861499 S
atom 4.4848787314634153 10.0828198879309685 72.4764151171861499 S
atom 10.5110676060204096 10.0828198879309685 72.4763963611284225 S
atom 4.4844097596416361 5.0414099439654843 77.4369728424328230 S
atom 10.5114613302999746 5.0414099439654843 77.4369728424328230 S
atom 5.5031763825006532 10.0828198879309685 77.4369728424328230 S
atom 9.4926947074409878 10.0828198879309685 77.4369728424328230 S
atom 4.9937764350979741 2.5207026100172505 74.9570399074908806 S
atom 10.0020613828973026 2.5207073339482373 74.9570399074908806 S
atom 4.9937764350979741 7.5621172779137291 74.9570399074908806 S
atom 10.0020613828973026 7.5621125539827228 74.9570399074908806 S
atom 4.9937764350979741 2.5207026100172505 79.9169057773749785 S
atom 10.0020613828973026 2.5207073339482373 79.9169057773749785 S
atom 4.9937764350979741 7.5621172779137291 79.9169057773749785 S
atom 10.0020613828973026 7.5621125539827228 79.9169057773749785 S
atom 2.4896458296147332 5.0414099439654843 74.4638626350210302 S
atom 7.4979388151317785 5.0414099439654843 75.4499320770231776 S
atom 2.4896538673324540 10.0828198879309685 75.4499320770231776 S
atom 7.4979307774140587 10.0828198879309685 74.4638626350210302 S
atom 2.4896458296147332 5.0414099439654843 80.4100830498446015 S
atom 7.4979388151317785 5.0414099439654843 79.4240136078423973 S
atom 2.4896538673324540 10.0828198879309685 79.4240136078423973 S
atom 7.4979307774140587 10.0828198879309685 80.4100830498446015 S
atom 2.4896750649379600 2.5173876436143465 82.3964680708896680 Ba
atom 7.4979600127372894 2.5240223003511431 82.3964680708896680 Ba
atom 2.4896750649379600 7.5654322443166198 82.3964680708896680 Ba
atom 7.4979600127372894 7.5587975875798294 82.3964680708896680 Ba
atom 2.4898428777417894 2.5249381634367372 87.3517880359608654 Ba
atom 7.4981278255411210 2.5164717805287458 87.3517880359608654 Ba
atom 2.4898428777417894 7.5578817244942282 87.3517880359608654 Ba
atom 7.4981278255411210 7.5663481074022316 87.3517880359608654 Ba
atom 4.9935029537942883 5.0414099439654843 84.8794509387491871 Zr
atom 10.0025515526885531 5.0414099439654843 84.8792836981853469 Zr
atom 4.9942666048892299 10.0828198879309685 84.8792836981853469 Zr
atom 10.0017879015936266 10.0828198879309685 84.8794509387491871 Zr
atom 4.9956973640578966 5.0414099439654843 89.8425740387961866 Zr
atom 10.0006997063981338 5.0414099439654843 89.8422103471933156 Zr
atom 4.9924147585988079 10.0828198879309685 89.8422103471933156 Zr
atom 10.0039823118572375 10.0828198879309685 89.8425740387961866 Zr
atom 5.5027826582210926 5.0414099439654843 82.3975493237376213 S
atom 9.4931636792627589 5.0414099439654843 82.3975305676794960 S
atom 4.4848787314634153 10.0828198879309685 82.3975305676794960 S
atom 10.5110676060204096 10.0828198879309685 82.3975493237376213 S
atom 4.4860900535976906 5.0414099439654843 87.3583617465158682 S
atom 10.5101654374901194 5.0414099439654843 87.3582392083090866 S
atom 5.5018804896908060 10.0828198879309685 87.3582392083090866 S
atom 9.4943750013970334 10.0828198879309685 87.3583617465158682 S
atom 4.9938985286047526 2.5207033064775017 84.8769123526381435 S
atom 10.0021834764040918 2.5207066374879816 84.8769123526381435 S
atom 4.9938985286047526 7.5621165814534672 84.8769123526381435 S
atom 10.0021834764040918 7.5621132504429935 84.8769123526381435 S
atom 4.9940272838591273 2.5206956848292079 89.8343830243747448 S
atom 10.0023122316584558 2.5207142591362754 89.8343830243747448 S
atom 4.9940272838591273 7.5621242031017610 89.8343830243747448 S
atom 10.0023122316584558 7.5621056287946864 89.8343830243747448 S
atom 2.4897524150648458 5.0414099439654843 84.3845774619481972 S
atom 7.4980493227596048 5.0414099439654843 85.3685418248575445 S
atom 2.4897643749602838 10.0828198879309685 85.3685418248575445 S
atom 7.4980373628641779 10.0828198879309685 84.3845774619481972 S
atom 2.4898706994285691 5.0414099439654843 90.3241747527015946 S
atom 7.4981645457598098 5.0414099439654843 89.3431557147380460 S
atom 2.4898795979604706 10.0828198879309685 89.3431557147380460 S
atom 7.4981556472278958 10.0828198879309685 90.3241747527015946 S
atom 2.4899288941332873 2.5162998888646175 92.2999847462211562 Ba
atom 7.4982138419326336 2.5251100551008756 92.2999847462211562 Ba
atom 2.4899288941332873 7.5665199990663581 92.2999847462211562 Ba
atom 7.4982138419326336 7.5577098328300956 92.2999847462211562 Ba
atom 2.4902415873911083 2.5439131722389332 97.2039036503803118 Ba
atom 7.4985265351904395 2.4974967717265528 97.2039036503803118 Ba
atom 2.4902415873911083 7.5389067156920495 97.2039036503803118 Ba
atom 7.4985265351904395 7.5853231162044112 97.2039036503803118 Ba
atom 4.9928975441467056 5.0414099439654843 94.8078566303780974 Zr
atom 10.0037734881131328 5.0414099439654843 94.8071176241099494 Zr
atom 4.9954885403137839 10.0828198879309685 94.8071176241099494 Zr
atom 10.0011824919460039 10.0828198879309685 94.8078566303780974 Zr
atom 4.9829538962708666 5.0414099439654843 99.8255523924123906 Zr
atom 10.0141026356696425 5.0414099439654843 99.8239346476045455 Zr
atom 5.0058176878703087 10.0828198879309685 99.8239346476045455 Zr
atom 9.9912388440701960 10.0828198879309685 99.8255523924123906 Zr
atom 5.5006086599475186 5.0414099439654843 92.3184804660051554 S
atom 9.4958288943209013 5.0414099439654843 92.3182868483882402 S
atom 4.4875439465215559 10.0828198879309685 92.3182868483882402 S
atom 10.5088936077468649 10.0828198879309685 92.3184804660051554 S
atom 4.5221207627095357 5.0414099439654843 97.2816868025245185 S
atom 10.4749356224509214 5.0414099439654843 97.2813129074336160 S
atom 5.4666506746515910 10.0828198879309685 97.2813129074336160 S
atom 9.5304057105088429 10.0828198879309685 97.2816868025245185 S
atom 4.9942511912139276 2.5206836663028698 94.7915533270480068 S
atom 10.0025361390132534 2.5207262776626145 94.7915533270480068 S
atom 4.9942511912139276 7.5621362216281014 94.7915533270480068 S
atom 10.0025361390132534 7.5620936102683700 94.7915533270480068 S
atom 4.9944009477052065 2.5207727071219814 99.6940528506959538 S
atom 10.0026858955045341 2.5206372368435002 99.6940528506959538 S
atom 4.9944009477052065 7.5620471808089675 99.6940528506959538 S
atom 10.0026858955045341 7.5621826510874746 99.6940528506959538 S
atom 2.4900805716096079 5.0414099439654843 94.3173415778005335 S
atom 7.4984371759959334 5.0414099439654843 95.2764353134692215 S
atom 2.4901522281966058 10.0828198879309685 95.2764353134692215 S
atom 7.4983655194089511 10.0828198879309685 94.3173415778005335 S
atom 2.4902586256392634 5.0414099439654843 100.1518134921051910 S
atom 7.4984523751220955 5.0414099439654843 99.3422322598012926 S
atom 2.4901674273227568 10.0828198879309685 99.3422322598012926 S
atom 7.4985435734385977 10.0828198879309685 100.1518134921051910 S
atom 2.4902393518917472 2.3734212931900101 101.8811296961484345 Ba
atom 7.4985242996910939 2.6679886507754711 101.8811296961484345 Ba
atom 2.4902393518917472 7.7093985947409731 101.8811296961484345 Ba
atom 7.4985242996910939 7.4148312371554859 101.8811296961484345 Ba
atom 5.3408110203504835 5.0414099439654843 102.3123220391354948 S
atom 9.6564392308773179 5.0414099439654843 102.3108262913396374 S
atom 4.6481542830779805 10.0828198879309685 102.3108262913396374 S
atom 10.3490959681498218 10.0828198879309685 102.3123220391354948 S
