#=======================================================
# FHI-aims file: sym_relax/sym_relax_RP_2_RxRy0_-Rx-Ry0.in
# Created using the Atomic Simulation Environment (ASE)
# Fri Mar 14 10:20:56 2025
#=======================================================
lattice_vector 10.0810402714501706 0.1195262028592264 -0.0000000000000000 
lattice_vector 0.1195262028592263 10.0810402714501777 0.0000000000000000 
lattice_vector -0.0000000000000000 0.0000000000000000 25.5129812088756900 
atom -0.0998263022618252 -0.0998263022618252 0.2830169117416811 Ba
atom 5.1403464379869082 0.1595894036914368 0.2830169117416811 Ba
atom 0.1595894036914386 5.1403464379869170 0.2830169117416811 Ba
atom 5.0004569348928722 5.0004569348928820 0.2830169117416811 Ba
atom 0.0263308849090750 0.0263308849090749 4.9063425401684073 Ba
atom 5.0141892508160124 0.0334322165205366 4.9063425401684073 Ba
atom 0.0334322165205379 5.0141892508160204 4.9063425401684073 Ba
atom 5.1266141220637733 5.1266141220637733 4.9063425401684073 Ba
atom 2.5408118036831957 2.5408118036831939 2.3647071095885925 Zr
atom 7.5999915691965967 2.6192345349011212 2.3647071095885925 Zr
atom 2.6192345349011168 7.5999915691966038 2.3647071095885925 Zr
atom 7.6410950408378904 7.6410950408378913 2.3647071095885925 Zr
atom 2.5408118036831957 2.5408118036831939 7.4479779707482106 Zr
atom 7.5999915691965967 2.6192345349011212 7.4479779707482106 Zr
atom 2.6192345349011168 7.5999915691966038 7.4479779707482106 Zr
atom 7.6410950408378904 7.6410950408378913 7.4479779707482106 Zr
atom 2.7330716578397127 2.7330716578397132 -0.1263036605605020 S
atom 7.4077317150400761 2.4269746807445998 -0.1263036605605020 S
atom 2.4269746807446033 7.4077317150400779 -0.1263036605605020 S
atom 7.8333548949944110 7.8333548949944145 -0.1263036605605020 S
atom 2.2948892020048586 2.2948892020048568 4.9063425401684073 S
atom 7.8459141708749325 2.8651571365794584 4.9063425401684073 S
atom 2.8651571365794575 7.8459141708749369 4.9063425401684073 S
atom 7.3951724391595555 7.3951724391595626 4.9063425401684073 S
atom 2.5202600678625440 0.0298815507148058 2.2328238322115253 S
atom 7.5607802035876333 0.0896446521444174 2.6833845862961945 S
atom 2.5800231692921534 5.0704016864398991 2.6833845862961945 S
atom 7.6205433050172422 5.1301647878695089 2.2328238322115253 S
atom 2.5202600678625440 0.0298815507148058 7.5798612481252867 S
atom 7.5607802035876333 0.0896446521444174 7.1293004940406179 S
atom 2.5800231692921534 5.0704016864398991 7.1293004940406179 S
atom 7.6205433050172422 5.1301647878695089 7.5798612481252867 S
atom 0.0298815507148062 2.5202600678625453 2.2328238322115253 S
atom 5.0704016864398973 2.5800231692921587 2.6833845862961945 S
atom 0.0896446521444196 7.5607802035876368 2.6833845862961945 S
atom 5.1301647878695018 7.6205433050172466 2.2328238322115253 S
atom 0.0298815507148062 2.5202600678625453 7.5798612481252867 S
atom 5.0704016864398973 2.5800231692921587 7.1293004940406179 S
atom 0.0896446521444196 7.5607802035876368 7.1293004940406179 S
atom 5.1301647878695018 7.6205433050172466 7.5798612481252867 S
atom -0.0998263022618252 -0.0998263022618252 9.5296681685951352 Ba
atom 5.1403464379869090 0.1595894036914368 9.5296681685951352 Ba
atom 0.1595894036914381 5.1403464379869170 9.5296681685951352 Ba
atom 5.0004569348928722 5.0004569348928820 9.5296681685951352 Ba
atom 2.7330716578397136 2.7330716578397132 9.9389887408973081 S
atom 7.4077317150400779 2.4269746807445998 9.9389887408973081 S
atom 2.4269746807446033 7.4077317150400779 9.9389887408973081 S
atom 7.8333548949944110 7.8333548949944145 9.9389887408973081 S
atom 2.6499679208391758 2.6499679208391766 13.0395075161795262 Ba
atom 7.4908354520406126 2.5100784177451390 13.0395075161795262 Ba
atom 2.5100784177451398 7.4908354520406188 13.0395075161795262 Ba
atom 7.7502511579938780 7.7502511579938727 13.0395075161795262 Ba
atom 2.5238107336682734 2.5238107336682769 17.6628331446062568 Ba
atom 7.6169926392115057 2.6362356049160396 17.6628331446062568 Ba
atom 2.6362356049160378 7.6169926392115146 17.6628331446062568 Ba
atom 7.6240939708229778 7.6240939708229805 17.6628331446062568 Ba
atom 5.1096130520488652 5.1096130520488616 15.1211977140264349 Zr
atom 10.1314735579856290 5.1507165236901535 15.1211977140264349 Zr
atom 5.1507165236901509 10.1314735579856414 15.1211977140264349 Zr
atom 10.2098962892035559 10.2098962892035559 15.1211977140264349 Zr
atom 5.1096130520488652 5.1096130520488616 20.2044685751860342 Zr
atom 10.1314735579856290 5.1507165236901535 20.2044685751860342 Zr
atom 5.1507165236901509 10.1314735579856414 20.2044685751860342 Zr
atom 10.2098962892035559 10.2098962892035559 20.2044685751860342 Zr
atom 4.9173531978923437 4.9173531978923428 12.6301869438773444 S
atom 10.3237334121421398 5.3429763778466750 12.6301869438773444 S
atom 5.3429763778466706 10.3237334121421629 12.6301869438773444 S
atom 10.0176364350470397 10.0176364350470450 12.6301869438773444 S
atom 5.3555356537271903 5.3555356537271912 17.6628331446062568 S
atom 9.8855509563072914 4.9047939220118213 17.6628331446062568 S
atom 4.9047939220118160 9.8855509563073021 17.6628331446062568 S
atom 10.4558188908818916 10.4558188908819023 17.6628331446062568 S
atom 5.0704016864398964 2.5800231692921587 15.4398751907340355 S
atom 10.1109218221649915 2.6397862707217694 14.9893144366493658 S
atom 5.1301647878695027 7.6205433050172466 14.9893144366493658 S
atom 10.1706849235945853 7.6803064064468556 15.4398751907340355 S
atom 5.0704016864398964 2.5800231692921587 19.8857910984784780 S
atom 10.1109218221649915 2.6397862707217694 20.3363518525631299 S
atom 5.1301647878695027 7.6205433050172466 20.3363518525631299 S
atom 10.1706849235945853 7.6803064064468556 19.8857910984784780 S
atom 2.5800231692921538 5.0704016864398991 15.4398751907340355 S
atom 7.6205433050172413 5.1301647878695089 14.9893144366493658 S
atom 2.6397862707217694 10.1109218221649986 14.9893144366493658 S
atom 7.6803064064468538 10.1706849235945960 15.4398751907340355 S
atom 2.5800231692921538 5.0704016864398991 19.8857910984784780 S
atom 7.6205433050172413 5.1301647878695089 20.3363518525631299 S
atom 2.6397862707217694 10.1109218221649986 20.3363518525631299 S
atom 7.6803064064468538 10.1706849235945960 19.8857910984784780 S
atom 2.6499679208391749 2.6499679208391766 22.2861587730329589 Ba
atom 7.4908354520406109 2.5100784177451390 22.2861587730329589 Ba
atom 2.5100784177451403 7.4908354520406188 22.2861587730329589 Ba
atom 7.7502511579938771 7.7502511579938727 22.2861587730329589 Ba
atom 4.9173531978923437 4.9173531978923428 22.6954793453351549 S
atom 10.3237334121421416 5.3429763778466750 22.6954793453351549 S
atom 5.3429763778466706 10.3237334121421629 22.6954793453351549 S
atom 10.0176364350470397 10.0176364350470450 22.6954793453351549 S
