#=======================================================
# FHI-aims file: sym_relax/sym_relax_RP_10_00Rz_00Rz.in
# Created using the Atomic Simulation Environment (ASE)
# Mon Mar 17 17:06:38 2025
#=======================================================
lattice_vector 9.8969040518208438 0.0000000451843074 0.0000000000000000 
lattice_vector 0.0000000451843074 9.8969040518208473 -0.0000000000000003 
lattice_vector 0.0000000000000000 -0.0000000000000027 108.0876137066472609 
atom 0.0000000000000000 -0.0000000000000000 0.1589512302010770 Ba
atom 4.9484520259104219 0.0000000225921526 0.1589512302010771 Ba
atom 0.0000000225921526 4.9484520259104237 0.1589512302010769 Ba
atom 4.9484520485025731 4.9484520485025758 0.1589512302010769 Ba
atom 0.0000000000000000 -0.0000000000000001 5.0704450785389552 Ba
atom 4.9484520259104219 0.0000000225921525 5.0704450785389552 Ba
atom 0.0000000225921526 4.9484520259104237 5.0704450785389552 Ba
atom 4.9484520485025731 4.9484520485025758 5.0704450785389552 Ba
atom 2.4742260242512866 2.4742260242512879 2.4381872162773455 Zr
atom 7.4226780501617098 2.4742260468434383 2.4381872162773455 Zr
atom 2.4742260468434369 7.4226780501617098 2.4381872162773455 Zr
atom 7.4226780727538584 7.4226780727538628 2.4381872162773455 Zr
atom 2.4742260242512866 2.4742260242512875 7.5804473670329351 Zr
atom 7.4226780501617098 2.4742260468434378 7.5804473670329351 Zr
atom 2.4742260468434369 7.4226780501617098 7.5804473670329351 Zr
atom 7.4226780727538584 7.4226780727538628 7.5804473670329351 Zr
atom 2.4742260242512866 2.4742260242512879 -0.1052711608073433 S
atom 7.4226780501617098 2.4742260468434383 -0.1052711608073433 S
atom 2.4742260468434369 7.4226780501617098 -0.1052711608073435 S
atom 7.4226780727538584 7.4226780727538628 -0.1052711608073435 S
atom 2.4742260242512866 2.4742260242512879 5.0441707105807128 S
atom 7.4226780501617098 2.4742260468434383 5.0441707105807128 S
atom 2.4742260468434369 7.4226780501617098 5.0441707105807128 S
atom 7.4226780727538584 7.4226780727538628 5.0441707105807128 S
atom 2.0422199510623944 -0.0000014500251869 2.5332326321568597 S
atom 7.8546841007584458 0.0000014952094920 2.5332326321568592 S
atom 2.9062320974401765 4.9484534985277762 2.5332326321568597 S
atom 6.9906719995649640 4.9484505984773834 2.5332326321568601 S
atom 3.0114896419178070 -0.0000002047140304 7.6054511482761180 S
atom 6.8854144099030385 0.0000002498983345 7.6054511482761162 S
atom 1.9369624065847701 4.9484522532166118 7.6054511482761162 S
atom 7.9599416904203677 4.9484518437885372 7.6054511482761180 S
atom 0.0000014726173399 2.9062320748480230 2.5332326321568597 S
atom 4.9484505758852269 2.0422199736545470 2.5332326321568592 S
atom -0.0000014274330346 6.9906719769728145 2.5332326321568592 S
atom 4.9484535211199221 7.8546841233506068 2.5332326321568592 S
atom 0.0000002273061824 1.9369623839926198 7.6054511482761162 S
atom 4.9484518211963868 3.0114896645099565 7.6054511482761162 S
atom -0.0000001821218772 7.9599416678282244 7.6054511482761162 S
atom 4.9484522758087648 6.8854144324951978 7.6054511482761162 S
atom 0.0000000000000000 -0.0000000000000003 10.1600659246648100 Ba
atom 4.9484520259104219 0.0000000225921524 10.1600659246648100 Ba
atom 0.0000000225921526 4.9484520259104237 10.1600659246648100 Ba
atom 4.9484520485025731 4.9484520485025758 10.1600659246648100 Ba
atom 0.0000000000000000 -0.0000000000000004 15.2692589474364269 Ba
atom 4.9484520259104219 0.0000000225921523 15.2692589474364269 Ba
atom 0.0000000225921526 4.9484520259104228 15.2692589474364269 Ba
atom 4.9484520485025731 4.9484520485025749 15.2692589474364269 Ba
atom 2.4742260242512866 2.4742260242512875 12.6994756148718011 Zr
atom 7.4226780501617098 2.4742260468434378 12.6994756148718011 Zr
atom 2.4742260468434369 7.4226780501617098 12.6994756148718011 Zr
atom 7.4226780727538584 7.4226780727538628 12.6994756148718011 Zr
atom 2.4742260242512866 2.4742260242512875 17.8174546896082049 Zr
atom 7.4226780501617098 2.4742260468434378 17.8174546896082049 Zr
atom 2.4742260468434369 7.4226780501617089 17.8174546896082049 Zr
atom 7.4226780727538584 7.4226780727538619 17.8174546896082049 Zr
atom 2.4742260242512866 2.4742260242512875 10.1550248147453228 S
atom 7.4226780501617098 2.4742260468434378 10.1550248147453228 S
atom 2.4742260468434369 7.4226780501617098 10.1550248147453228 S
atom 7.4226780727538584 7.4226780727538628 10.1550248147453228 S
atom 2.4742260242512866 2.4742260242512875 15.2671638616814356 S
atom 7.4226780501617098 2.4742260468434378 15.2671638616814356 S
atom 2.4742260468434369 7.4226780501617089 15.2671638616814356 S
atom 7.4226780727538584 7.4226780727538619 15.2671638616814356 S
atom 1.9378665236138926 0.0000000101260263 12.7167376427356302 S
atom 7.9590375282069470 0.0000000350582784 12.7167376427356302 S
atom 3.0105855248886804 4.9484520383765380 12.7167376427356302 S
atom 6.8863185721164664 4.9484520586286100 12.7167376427356302 S
atom 3.0108481337182234 0.0000000121436616 17.8259471943545016 S
atom 6.8860559181026204 0.0000000330406419 17.8259471943545016 S
atom 1.9376039147843518 4.9484520363589128 17.8259471943545016 S
atom 7.9593001822207965 4.9484520606462361 17.8259471943545016 S
atom 0.0000000124661265 3.0105855022965300 12.7167376427356338 S
atom 4.9484520360364570 1.9378665462060425 12.7167376427356302 S
atom 0.0000000327181788 6.8863185495243151 12.7167376427356302 S
atom 4.9484520609686928 7.9590375507990991 12.7167376427356338 S
atom 0.0000000104484901 1.9376038921921990 17.8259471943544980 S
atom 4.9484520380540804 3.0108481563103755 17.8259471943545051 S
atom 0.0000000347358152 7.9593001596286417 17.8259471943545051 S
atom 4.9484520589510668 6.8860559406947726 17.8259471943544980 S
atom 0.0000000000000000 -0.0000000000000005 20.3800814553423102 Ba
atom 4.9484520259104219 0.0000000225921521 20.3800814553423102 Ba
atom 0.0000000225921526 4.9484520259104228 20.3800814553423102 Ba
atom 4.9484520485025731 4.9484520485025749 20.3800814553423102 Ba
atom 0.0000000000000000 -0.0000000000000006 25.4923617232658550 Ba
atom 4.9484520259104219 0.0000000225921520 25.4923617232658550 Ba
atom 0.0000000225921526 4.9484520259104228 25.4923617232658550 Ba
atom 4.9484520485025731 4.9484520485025749 25.4923617232658550 Ba
atom 2.4742260242512866 2.4742260242512870 22.9341715198759246 Zr
atom 7.4226780501617098 2.4742260468434374 22.9341715198759246 Zr
atom 2.4742260468434369 7.4226780501617089 22.9341715198759246 Zr
atom 7.4226780727538584 7.4226780727538619 22.9341715198759246 Zr
atom 2.4742260242512866 2.4742260242512870 28.0505519266557926 Zr
atom 7.4226780501617098 2.4742260468434374 28.0505519266557926 Zr
atom 2.4742260468434369 7.4226780501617089 28.0505519266557926 Zr
atom 7.4226780727538584 7.4226780727538619 28.0505519266557926 Zr
atom 2.4742260242512866 2.4742260242512875 20.3797547902979730 S
atom 7.4226780501617098 2.4742260468434378 20.3797547902979730 S
atom 2.4742260468434369 7.4226780501617089 20.3797547902979730 S
atom 7.4226780727538584 7.4226780727538619 20.3797547902979730 S
atom 2.4742260242512866 2.4742260242512870 25.4923617232658550 S
atom 7.4226780501617098 2.4742260468434374 25.4923617232658550 S
atom 2.4742260468434369 7.4226780501617089 25.4923617232658550 S
atom 7.4226780727538584 7.4226780727538619 25.4923617232658550 S
atom 1.9372728519681213 0.0000000107279989 22.9367697435122899 S
atom 7.9596311998527183 0.0000000344563053 22.9367697435122899 S
atom 3.0111791965344499 4.9484520377745635 22.9367697435122899 S
atom 6.8857249004706951 4.9484520592305756 22.9367697435122899 S
atom 3.0111791739423022 0.0000000118641525 28.0479537030194486 S
atom 6.8857248778785403 0.0000000333201514 28.0479537030194415 S
atom 1.9372728745602714 4.9484520366384261 28.0479537030194415 S
atom 7.9596312224448651 4.9484520603667193 28.0479537030194486 S
atom 0.0000000118641536 3.0111791739423026 22.9367697435122864 S
atom 4.9484520366384155 1.9372728745602732 22.9367697435122864 S
atom 0.0000000333201517 6.8857248778785412 22.9367697435122864 S
atom 4.9484520603667184 7.9596312224448713 22.9367697435122864 S
atom 0.0000000107279994 1.9372728519681208 28.0479537030194415 S
atom 4.9484520377745671 3.0111791965344530 28.0479537030194379 S
atom 0.0000000344563063 7.9596311998527183 28.0479537030194379 S
atom 4.9484520592305756 6.8857249004706933 28.0479537030194415 S
atom 0.0000000000000000 -0.0000000000000008 30.6046419911894070 Ba
atom 4.9484520259104219 0.0000000225921519 30.6046419911894070 Ba
atom 0.0000000225921526 4.9484520259104228 30.6046419911894070 Ba
atom 4.9484520485025731 4.9484520485025749 30.6046419911894070 Ba
atom 0.0000000000000000 -0.0000000000000009 35.7154644990953116 Ba
atom 4.9484520259104219 0.0000000225921517 35.7154644990953116 Ba
atom 0.0000000225921526 4.9484520259104228 35.7154644990953116 Ba
atom 4.9484520485025731 4.9484520485025749 35.7154644990953116 Ba
atom 2.4742260242512866 2.4742260242512870 33.1672687569234412 Zr
atom 7.4226780501617098 2.4742260468434374 33.1672687569234412 Zr
atom 2.4742260468434369 7.4226780501617089 33.1672687569234412 Zr
atom 7.4226780727538584 7.4226780727538619 33.1672687569234412 Zr
atom 2.4742260242512866 2.4742260242512866 38.2852478316598877 Zr
atom 7.4226780501617098 2.4742260468434369 38.2852478316598877 Zr
atom 2.4742260468434369 7.4226780501617089 38.2852478316598877 Zr
atom 7.4226780727538584 7.4226780727538619 38.2852478316598877 Zr
atom 2.4742260242512866 2.4742260242512870 30.6049686562337584 S
atom 7.4226780501617098 2.4742260468434374 30.6049686562337584 S
atom 2.4742260468434369 7.4226780501617089 30.6049686562337584 S
atom 7.4226780727538584 7.4226780727538619 30.6049686562337584 S
atom 2.4742260242512866 2.4742260242512870 35.7175595848502923 S
atom 7.4226780501617098 2.4742260468434374 35.7175595848502923 S
atom 2.4742260468434369 7.4226780501617089 35.7175595848502923 S
atom 7.4226780727538584 7.4226780727538619 35.7175595848502923 S
atom 1.9376038921921992 0.0000000104484897 33.1587762521772262 S
atom 7.9593001596286408 0.0000000347358148 33.1587762521772120 S
atom 3.0108481563103733 4.9484520380540804 33.1587762521772120 S
atom 6.8860559406947681 4.9484520589510641 33.1587762521772262 S
atom 3.0105855022965309 0.0000000124661251 38.2679858037960940 S
atom 6.8863185495243151 0.0000000327181783 38.2679858037960940 S
atom 1.9378665462060438 4.9484520360364588 38.2679858037960940 S
atom 7.9590375507990982 4.9484520609686937 38.2679858037960940 S
atom 0.0000000121436625 3.0108481337182220 33.1587762521772191 S
atom 4.9484520363589128 1.9376039147843498 33.1587762521772120 S
atom 0.0000000330406428 6.8860559181026213 33.1587762521772120 S
atom 4.9484520606462308 7.9593001822207894 33.1587762521772191 S
atom 0.0000000101260266 1.9378665236138921 38.2679858037960940 S
atom 4.9484520383765318 3.0105855248886808 38.2679858037960940 S
atom 0.0000000350582791 7.9590375282069461 38.2679858037960940 S
atom 4.9484520586286065 6.8863185721164673 38.2679858037960940 S
atom 0.0000000000000000 -0.0000000000000010 40.8246575218668681 Ba
atom 4.9484520259104219 0.0000000225921516 40.8246575218668681 Ba
atom 0.0000000225921526 4.9484520259104228 40.8246575218668681 Ba
atom 4.9484520485025731 4.9484520485025749 40.8246575218668681 Ba
atom 0.0000000000000000 -0.0000000000000012 45.9142783679927291 Ba
atom 4.9484520259104219 0.0000000225921515 45.9142783679927291 Ba
atom 0.0000000225921526 4.9484520259104219 45.9142783679927291 Ba
atom 4.9484520485025731 4.9484520485025740 45.9142783679927291 Ba
atom 2.4742260242512866 2.4742260242512870 43.4042760794987927 Zr
atom 7.4226780501617098 2.4742260468434374 43.4042760794987927 Zr
atom 2.4742260468434369 7.4226780501617089 43.4042760794987927 Zr
atom 7.4226780727538584 7.4226780727538619 43.4042760794987927 Zr
atom 2.4742260242512866 2.4742260242512870 48.5465362302543539 Zr
atom 7.4226780501617098 2.4742260468434374 48.5465362302543539 Zr
atom 2.4742260468434369 7.4226780501617080 48.5465362302543539 Zr
atom 7.4226780727538584 7.4226780727538610 48.5465362302543539 Zr
atom 2.4742260242512866 2.4742260242512870 40.8296986317864210 S
atom 7.4226780501617098 2.4742260468434374 40.8296986317864210 S
atom 2.4742260468434369 7.4226780501617089 40.8296986317864210 S
atom 7.4226780727538584 7.4226780727538619 40.8296986317864210 S
atom 2.4742260242512866 2.4742260242512870 45.9405527359510302 S
atom 7.4226780501617098 2.4742260468434374 45.9405527359510302 S
atom 2.4742260468434369 7.4226780501617080 45.9405527359510302 S
atom 7.4226780727538584 7.4226780727538610 45.9405527359510302 S
atom 1.9369623839926191 0.0000002273061818 43.3792722982556711 S
atom 7.9599416678282262 -0.0000001821218778 43.3792722982556711 S
atom 3.0114896645099560 4.9484518211963868 43.3792722982556711 S
atom 6.8854144324951898 4.9484522758087648 43.3792722982556711 S
atom 2.9062320748480248 0.0000014726173382 48.4514908143748926 S
atom 6.9906719769728065 -0.0000014274330354 48.4514908143748926 S
atom 2.0422199736545492 4.9484505758852215 48.4514908143748926 S
atom 7.8546841233505926 4.9484535211199265 48.4514908143748926 S
atom -0.0000002047140298 3.0114896419178052 43.3792722982556640 S
atom 4.9484522532166118 1.9369624065847706 43.3792722982556711 S
atom 0.0000002498983351 6.8854144099030403 43.3792722982556711 S
atom 4.9484518437885399 7.9599416904203801 43.3792722982556640 S
atom -0.0000014500251868 2.0422199510623957 48.4514908143748926 S
atom 4.9484534985277673 2.9062320974401765 48.4514908143748926 S
atom 0.0000014952094925 7.8546841007584458 48.4514908143748926 S
atom 4.9484505984773799 6.9906719995649649 48.4514908143748926 S
atom 0.0000000000000000 -0.0000000000000013 50.8257722163306553 Ba
atom 4.9484520259104219 0.0000000225921514 50.8257722163306553 Ba
atom 0.0000000225921526 4.9484520259104219 50.8257722163306553 Ba
atom 4.9484520485025731 4.9484520485025740 50.8257722163306553 Ba
atom 2.4742260242512866 2.4742260242512870 51.0899946073390652 S
atom 7.4226780501617098 2.4742260468434374 51.0899946073390652 S
atom 2.4742260468434369 7.4226780501617080 51.0899946073390652 S
atom 7.4226780727538584 7.4226780727538610 51.0899946073390652 S
atom 2.4742260242512866 2.4742260242512866 54.2027580835247278 Ba
atom 7.4226780501617098 2.4742260468434369 54.2027580835247278 Ba
atom 2.4742260468434369 7.4226780501617080 54.2027580835247278 Ba
atom 7.4226780727538584 7.4226780727538610 54.2027580835247278 Ba
atom 2.4742260242512866 2.4742260242512866 59.1142519318625830 Ba
atom 7.4226780501617098 2.4742260468434369 59.1142519318625830 Ba
atom 2.4742260468434369 7.4226780501617080 59.1142519318625830 Ba
atom 7.4226780727538584 7.4226780727538610 59.1142519318625830 Ba
atom 4.9484520485025731 4.9484520485025740 56.4819940696009297 Zr
atom 9.8969040744129924 4.9484520710947262 56.4819940696009297 Zr
atom 4.9484520710947182 9.8969040744129906 56.4819940696009297 Zr
atom 9.8969040970051463 9.8969040970051498 56.4819940696009297 Zr
atom 4.9484520485025731 4.9484520485025740 61.6242542203565691 Zr
atom 9.8969040744129924 4.9484520710947262 61.6242542203565691 Zr
atom 4.9484520710947182 9.8969040744129906 61.6242542203565691 Zr
atom 9.8969040970051463 9.8969040970051498 61.6242542203565691 Zr
atom 4.9484520485025731 4.9484520485025740 53.9385356925163038 S
atom 9.8969040744129924 4.9484520710947262 53.9385356925163038 S
atom 4.9484520710947182 9.8969040744129906 53.9385356925163038 S
atom 9.8969040970051463 9.8969040970051498 53.9385356925163038 S
atom 4.9484520485025731 4.9484520485025740 59.0879775639043388 S
atom 9.8969040744129924 4.9484520710947262 59.0879775639043388 S
atom 4.9484520710947182 9.8969040744129906 59.0879775639043388 S
atom 9.8969040970051463 9.8969040970051498 59.0879775639043388 S
atom 4.5164459753136912 2.4742245742261018 56.5770394854804550 S
atom 10.3289101250097346 2.4742275194607775 56.5770394854804550 S
atom 5.3804581216914595 7.4226795227790507 56.5770394854804550 S
atom 9.4648980238162661 7.4226766227286669 56.5770394854804550 S
atom 5.4857156661690949 2.4742258195372586 61.6492580015996978 S
atom 9.3596404341543256 2.4742262741496175 61.6492580015996978 S
atom 4.4111884308360567 7.4226782774678970 61.6492580015996978 S
atom 10.4341677146716698 7.4226778680398269 61.6492580015996978 S
atom 2.4742274968686249 5.3804580990993154 56.5770394854804550 S
atom 7.4226766001365112 4.5164459979058318 56.5770394854804550 S
atom 2.4742245968182561 9.4648980012241104 56.5770394854804550 S
atom 7.4226795453712171 10.3289101476018814 56.5770394854804550 S
atom 2.4742262515574676 4.4111884082438984 61.6492580015996978 S
atom 7.4226778454476792 5.4857156887612470 61.6492580015997049 S
atom 2.4742258421294121 10.4341676920795230 61.6492580015997049 S
atom 7.4226783000600536 9.3596404567464706 61.6492580015996978 S
atom 2.4742260242512866 2.4742260242512866 64.2038727779884226 Ba
atom 7.4226780501617098 2.4742260468434369 64.2038727779884226 Ba
atom 2.4742260468434369 7.4226780501617080 64.2038727779884226 Ba
atom 7.4226780727538584 7.4226780727538610 64.2038727779884226 Ba
atom 2.4742260242512866 2.4742260242512861 69.3130658007600005 Ba
atom 7.4226780501617098 2.4742260468434365 69.3130658007600005 Ba
atom 2.4742260468434369 7.4226780501617080 69.3130658007600005 Ba
atom 7.4226780727538584 7.4226780727538610 69.3130658007600005 Ba
atom 4.9484520485025731 4.9484520485025740 66.7432824681954457 Zr
atom 9.8969040744129924 4.9484520710947262 66.7432824681954457 Zr
atom 4.9484520710947182 9.8969040744129906 66.7432824681954457 Zr
atom 9.8969040970051463 9.8969040970051498 66.7432824681954457 Zr
atom 4.9484520485025731 4.9484520485025740 71.8612615429317856 Zr
atom 9.8969040744129924 4.9484520710947262 71.8612615429317856 Zr
atom 4.9484520710947182 9.8969040744129906 71.8612615429317998 Zr
atom 9.8969040970051463 9.8969040970051498 71.8612615429317998 Zr
atom 4.9484520485025731 4.9484520485025740 64.1988316680688911 S
atom 9.8969040744129924 4.9484520710947262 64.1988316680688911 S
atom 4.9484520710947182 9.8969040744129906 64.1988316680688911 S
atom 9.8969040970051463 9.8969040970051498 64.1988316680688911 S
atom 4.9484520485025731 4.9484520485025740 69.3109707150050554 S
atom 9.8969040744129924 4.9484520710947262 69.3109707150050554 S
atom 4.9484520710947182 9.8969040744129906 69.3109707150050554 S
atom 9.8969040970051463 9.8969040970051498 69.3109707150050554 S
atom 4.4120925478651811 2.4742260343773097 66.7605444960593815 S
atom 10.4332635524582429 2.4742260593095664 66.7605444960593815 S
atom 5.4848115491399687 7.4226780626278250 66.7605444960593815 S
atom 9.3605445963677436 7.4226780828798917 66.7605444960593815 S
atom 5.4850741579695086 2.4742260363949464 71.8697540476780716 S
atom 9.3602819423538985 2.4742260572919270 71.8697540476780716 S
atom 4.4118299390356412 7.4226780606102007 71.8697540476780716 S
atom 10.4335262064720933 7.4226780848975213 71.8697540476780716 S
atom 2.4742260367174165 5.4848115265478086 66.7605444960593815 S
atom 7.4226780602877342 4.4120925704573315 66.7605444960593815 S
atom 2.4742260569694685 9.3605445737755915 66.7605444960593815 S
atom 7.4226780852199807 10.4332635750504004 66.7605444960593815 S
atom 2.4742260346997753 4.4118299164434829 71.8697540476780716 S
atom 7.4226780623053701 5.4850741805616616 71.8697540476780858 S
atom 2.4742260589871012 10.4335261838799340 71.8697540476780858 S
atom 7.4226780832023600 9.3602819649460471 71.8697540476780716 S
atom 2.4742260242512866 2.4742260242512861 74.4238883086660650 Ba
atom 7.4226780501617098 2.4742260468434365 74.4238883086660650 Ba
atom 2.4742260468434369 7.4226780501617071 74.4238883086660650 Ba
atom 7.4226780727538584 7.4226780727538602 74.4238883086660650 Ba
atom 2.4742260242512866 2.4742260242512861 79.5361685765894464 Ba
atom 7.4226780501617098 2.4742260468434365 79.5361685765894464 Ba
atom 2.4742260468434369 7.4226780501617080 79.5361685765894464 Ba
atom 7.4226780727538584 7.4226780727538610 79.5361685765894464 Ba
atom 4.9484520485025731 4.9484520485025731 76.9779783731994911 Zr
atom 9.8969040744129924 4.9484520710947253 76.9779783731994911 Zr
atom 4.9484520710947182 9.8969040744129906 76.9779783731994911 Zr
atom 9.8969040970051463 9.8969040970051498 76.9779783731994911 Zr
atom 4.9484520485025731 4.9484520485025740 82.0943587799794301 Zr
atom 9.8969040744129924 4.9484520710947262 82.0943587799794301 Zr
atom 4.9484520710947182 9.8969040744129906 82.0943587799794301 Zr
atom 9.8969040970051463 9.8969040970051498 82.0943587799794301 Zr
atom 4.9484520485025731 4.9484520485025731 74.4235616436217526 S
atom 9.8969040744129924 4.9484520710947253 74.4235616436217526 S
atom 4.9484520710947182 9.8969040744129906 74.4235616436217526 S
atom 9.8969040970051463 9.8969040970051498 74.4235616436217526 S
atom 4.9484520485025731 4.9484520485025740 79.5361685765894464 S
atom 9.8969040744129924 4.9484520710947262 79.5361685765894464 S
atom 4.9484520710947182 9.8969040744129906 79.5361685765894464 S
atom 9.8969040970051463 9.8969040970051498 79.5361685765894464 S
atom 4.4114988762194107 2.4742260349792855 76.9805765968359168 S
atom 10.4338572241040026 2.4742260587075919 76.9805765968359168 S
atom 5.4854052207857382 7.4226780620258586 76.9805765968359168 S
atom 9.3599509247219874 7.4226780834818582 76.9805765968359168 S
atom 5.4854051981935914 2.4742260361154367 82.0917605563431465 S
atom 9.3599509021298459 2.4742260575714372 82.0917605563431465 S
atom 4.4114988988115575 7.4226780608897140 82.0917605563431465 S
atom 10.4338572466961494 7.4226780846180116 82.0917605563431465 S
atom 2.4742260361154420 5.4854051981935852 76.9805765968359168 S
atom 7.4226780608897087 4.4114988988115567 76.9805765968359310 S
atom 2.4742260575714399 9.3599509021298317 76.9805765968359310 S
atom 7.4226780846180072 10.4338572466961548 76.9805765968359168 S
atom 2.4742260349792868 4.4114988762194089 82.0917605563431465 S
atom 7.4226780620258559 5.4854052207857409 82.0917605563431465 S
atom 2.4742260587075928 10.4338572241040115 82.0917605563431465 S
atom 7.4226780834818600 9.3599509247219856 82.0917605563431465 S
atom 2.4742260242512866 2.4742260242512857 84.6484488445130268 Ba
atom 7.4226780501617098 2.4742260468434361 84.6484488445130268 Ba
atom 2.4742260468434369 7.4226780501617080 84.6484488445130268 Ba
atom 7.4226780727538584 7.4226780727538610 84.6484488445130268 Ba
atom 2.4742260242512866 2.4742260242512857 89.7592713524189634 Ba
atom 7.4226780501617098 2.4742260468434361 89.7592713524189634 Ba
atom 2.4742260468434369 7.4226780501617080 89.7592713524189634 Ba
atom 7.4226780727538584 7.4226780727538610 89.7592713524189634 Ba
atom 4.9484520485025731 4.9484520485025740 87.2110756102470219 Zr
atom 9.8969040744129924 4.9484520710947262 87.2110756102470361 Zr
atom 4.9484520710947182 9.8969040744129906 87.2110756102470361 Zr
atom 9.8969040970051463 9.8969040970051498 87.2110756102470361 Zr
atom 4.9484520485025731 4.9484520485025740 92.3290546849835891 Zr
atom 9.8969040744129924 4.9484520710947262 92.3290546849835891 Zr
atom 4.9484520710947182 9.8969040744129888 92.3290546849835891 Zr
atom 9.8969040970051463 9.8969040970051481 92.3290546849835891 Zr
atom 4.9484520485025731 4.9484520485025740 84.6487755095573675 S
atom 9.8969040744129924 4.9484520710947262 84.6487755095573675 S
atom 4.9484520710947182 9.8969040744129906 84.6487755095573675 S
atom 9.8969040970051463 9.8969040970051498 84.6487755095573675 S
atom 4.9484520485025731 4.9484520485025740 89.7613664381739369 S
atom 9.8969040744129924 4.9484520710947262 89.7613664381739369 S
atom 4.9484520710947182 9.8969040744129888 89.7613664381739369 S
atom 9.8969040970051463 9.8969040970051481 89.7613664381739369 S
atom 4.4118299164434900 2.4742260346997758 87.2025831055008496 S
atom 10.4335261838799465 2.4742260589871004 87.2025831055008496 S
atom 5.4850741805616634 7.4226780623053719 87.2025831055008496 S
atom 9.3602819649460489 7.4226780832023573 87.2025831055008496 S
atom 5.4848115265478183 2.4742260367174151 92.3117926571197955 S
atom 9.3605445737755897 2.4742260569694636 92.3117926571197955 S
atom 4.4120925704573404 7.4226780602877431 92.3117926571197955 S
atom 10.4332635750503968 7.4226780852199816 92.3117926571197955 S
atom 2.4742260363949478 5.4850741579695130 87.2025831055008496 S
atom 7.4226780606102052 4.4118299390356404 87.2025831055008638 S
atom 2.4742260572919306 9.3602819423538897 87.2025831055008638 S
atom 7.4226780848975213 10.4335262064720844 87.2025831055008496 S
atom 2.4742260343773119 4.4120925478651829 92.3117926571197955 S
atom 7.4226780626278295 5.4848115491399660 92.3117926571197955 S
atom 2.4742260593095704 10.4332635524582500 92.3117926571197955 S
atom 7.4226780828798917 9.3605445963677418 92.3117926571197955 S
atom 2.4742260242512866 2.4742260242512857 94.8684643751906691 Ba
atom 7.4226780501617098 2.4742260468434361 94.8684643751906691 Ba
atom 2.4742260468434369 7.4226780501617080 94.8684643751906691 Ba
atom 7.4226780727538584 7.4226780727538610 94.8684643751906691 Ba
atom 2.4742260242512866 2.4742260242512852 99.9580852213164803 Ba
atom 7.4226780501617098 2.4742260468434356 99.9580852213164803 Ba
atom 2.4742260468434369 7.4226780501617080 99.9580852213164803 Ba
atom 7.4226780727538584 7.4226780727538610 99.9580852213164803 Ba
atom 4.9484520485025731 4.9484520485025740 97.4480829328223876 Zr
atom 9.8969040744129924 4.9484520710947262 97.4480829328223876 Zr
atom 4.9484520710947182 9.8969040744129888 97.4480829328223876 Zr
atom 9.8969040970051463 9.8969040970051481 97.4480829328223876 Zr
atom 4.9484520485025731 4.9484520485025740 102.5903430835780625 Zr
atom 9.8969040744129924 4.9484520710947262 102.5903430835780625 Zr
atom 4.9484520710947182 9.8969040744129888 102.5903430835780625 Zr
atom 9.8969040970051463 9.8969040970051481 102.5903430835780625 Zr
atom 4.9484520485025731 4.9484520485025740 94.8735054851100870 S
atom 9.8969040744129924 4.9484520710947262 94.8735054851100870 S
atom 4.9484520710947182 9.8969040744129888 94.8735054851100870 S
atom 9.8969040970051463 9.8969040970051481 94.8735054851100870 S
atom 4.9484520485025731 4.9484520485025740 99.9843595892747317 S
atom 9.8969040744129924 4.9484520710947262 99.9843595892747317 S
atom 4.9484520710947182 9.8969040744129888 99.9843595892747317 S
atom 9.8969040970051463 9.8969040970051481 99.9843595892747317 S
atom 4.4111884082439072 2.4742262515574649 97.4230791515791452 S
atom 10.4341676920795319 2.4742258421294068 97.4230791515791452 S
atom 5.4857156887612453 7.4226778454476738 97.4230791515791452 S
atom 9.3596404567464795 7.4226783000600474 97.4230791515791452 S
atom 5.3804580990993180 2.4742274968686178 102.4952976676985088 S
atom 9.4648980012241068 2.4742245968182561 102.4952976676985088 S
atom 4.5164459979058362 7.4226766001365112 102.4952976676985088 S
atom 10.3289101476018814 7.4226795453712118 102.4952976676985088 S
atom 2.4742258195372573 5.4857156661690896 97.4230791515791452 S
atom 7.4226782774678970 4.4111884308360558 97.4230791515791452 S
atom 2.4742262741496188 9.3596404341543114 97.4230791515791452 S
atom 7.4226778680398269 10.4341677146716698 97.4230791515791452 S
atom 2.4742245742261026 4.5164459753136788 102.4952976676985088 S
atom 7.4226795227790516 5.3804581216914666 102.4952976676985088 S
atom 2.4742275194607717 10.3289101250097097 102.4952976676985088 S
atom 7.4226766227286696 9.4648980238162732 102.4952976676985088 S
atom 2.4742260242512866 2.4742260242512852 104.8695790696542502 Ba
atom 7.4226780501617098 2.4742260468434356 104.8695790696542502 Ba
atom 2.4742260468434369 7.4226780501617071 104.8695790696542502 Ba
atom 7.4226780727538584 7.4226780727538602 104.8695790696542502 Ba
atom 4.9484520485025731 4.9484520485025731 105.1338014606628235 S
atom 9.8969040744129924 4.9484520710947253 105.1338014606628235 S
atom 4.9484520710947182 9.8969040744129888 105.1338014606628235 S
atom 9.8969040970051463 9.8969040970051481 105.1338014606628235 S
