#=======================================================
# FHI-aims file: sym_relax/sym_relax_RP_9_RxRyMz_-Rx-Ry-Mz.in
# Created using the Atomic Simulation Environment (ASE)
# Mon Mar 17 16:55:01 2025
#=======================================================
lattice_vector 10.0102273137636768 -0.0731727491171205 -0.0104502835079559 
lattice_vector -0.0731727491171214 10.0102273137636519 0.0104502835079559 
lattice_vector -0.1006687016509279 0.1006687016509279 95.9798194009225938 
atom 0.0857097259061690 -0.1251973337087448 0.2181664390183108 Ba
atom 5.1303109905905604 -0.1222961004647285 0.2129412972643328 Ba
atom 0.0886109591501844 4.9194039309756592 0.2233915807722887 Ba
atom 5.0542370082294328 4.8433299486145245 0.2181664390183106 Ba
atom -0.3096680856211107 0.2325117540622278 5.0106759311387350 Ba
atom 4.7726019028195941 0.2730817110625502 5.0054507893847608 Ba
atom -0.2690981286207889 5.3147817425029498 5.0159010728927198 Ba
atom 4.6588591967021484 5.2010390363854961 5.0106759311387368 Ba
atom 2.4558255352248000 2.5200692739319424 2.3995688080585720 Zr
atom 7.4535716652731487 2.4761153725399097 2.3943436663045969 Zr
atom 2.4118716338327646 7.5178154039803031 2.4047939498125559 Zr
atom 7.4243528175480789 7.4885965562552173 2.3995688080585720 Zr
atom 2.4341703199779627 2.5292444152312736 7.4539422450516426 Zr
atom 7.4443965239738299 2.4977705877867487 7.4487171032976534 Zr
atom 2.4026964925334324 7.5394706192271359 7.4591673868056168 Zr
atom 7.4026976023012372 7.4977716975545494 7.4539422450516426 Zr
atom 2.6125842209492922 2.7795503568688904 -0.1067699394004967 S
atom 7.1940905823362229 2.3193566868154165 -0.1119950811544745 S
atom 2.1523905508958237 7.3610567182558198 -0.1015447976465187 S
atom 7.5811115032725453 7.7480776391921573 -0.1067699394004967 S
atom 2.1902997096686843 2.2222375204326306 4.9610240516886943 S
atom 7.7514034187724761 2.7416411980960191 4.9557989099347148 S
atom 2.7097033873320764 7.7833412295364122 4.9662491934426756 S
atom 7.1588269919919627 7.1907648027558917 4.9610240516886943 S
atom 2.7459101932682839 0.0278334033586464 2.2256857512042645 S
atom 7.1330396591238125 -0.0062635266670478 2.7716474382240435 S
atom 2.0913396276834244 5.0354365047733598 2.7820977217320029 S
atom 7.7144374755915530 4.9963606856819078 2.2256857512042645 S
atom 2.8556873025659475 0.0218249445062156 7.7847850043059221 S
atom 7.0819016538179511 -0.0109927361858346 7.1572955734270254 S
atom 2.0402016223775563 5.0307072952545537 7.1677458569349692 S
atom 7.8242145848892095 4.9903522268294926 7.7847850043059221 S
atom -0.0644197779172062 2.2592034636135465 2.2309108929582346 S
atom 4.9382044344317357 2.8406012800812892 2.7768725799780181 S
atom -0.1034955970086324 7.8823013115216707 2.7873228634859806 S
atom 4.9041075044060580 7.2277307459368094 2.2309108929582351 S
atom -0.0584113190647754 2.1494263543158851 7.7900101460598918 S
atom 4.9429336439505436 2.8917392853871466 7.1625207151810084 S
atom -0.0987663874898454 7.9334393168275454 7.1729709986889674 S
atom 4.9101159632584848 7.1179536366391476 7.7900101460598918 S
atom 0.2473538304072825 -0.1462947695698457 9.9821829434455758 Ba
atom 5.1514084264516775 -0.2839402049658425 9.9769578016916132 Ba
atom 0.1097083950112853 4.7577598264745449 9.9874080851995704 Ba
atom 5.2158811127305587 4.8222325127534349 9.9821829434455793 Ba
atom -0.3163416967993937 0.2132735373615202 14.9857540870524044 Ba
atom 4.7918401195203115 0.2797553222408343 14.9805289452984258 Ba
atom -0.2498599119200804 5.3214553536812197 14.9909792288063954 Ba
atom 4.6521855855238785 5.1818008196847796 14.9857540870524044 Ba
atom 2.4551332854117818 2.5164176797508611 12.4701351021742415 Zr
atom 7.4572232594542198 2.4768076223529194 12.4649099604202647 Zr
atom 2.4155232280138419 7.5185076537933044 12.4753602439282147 Zr
atom 7.4236605677350527 7.4849449620741311 12.4701351021742415 Zr
atom 2.4538095217734455 2.5136401397737740 17.4834534153738623 Zr
atom 7.4600007994313131 2.4781313859912619 17.4782282736198624 Zr
atom 2.4183007679909352 7.5198314174316581 17.4886785571278018 Zr
atom 7.4223368040967275 7.4821674220970378 17.4834534153738659 Zr
atom 2.7117177747995065 2.8500527150325925 9.9733647621686217 S
atom 7.1235882241724875 2.2202231329652067 9.9681396204146377 S
atom 2.0818881927321224 7.2619231644055979 9.9785899039226020 S
atom 7.6802450571227654 7.8185799973558687 9.9733647621686217 S
atom 2.1859963109597804 2.1833562918394223 14.9822049724929585 S
atom 7.7902846473656817 2.7459445968049239 14.9769798307389976 S
atom 2.7485846159252851 7.7876446282453315 14.9874301142469477 S
atom 7.1545235932830522 7.1518835741626878 14.9822049724929585 S
atom 2.8535622977344199 0.0133594782356446 12.1608956122699201 S
atom 7.0894565907858738 -0.0211858334700236 12.7961156034661911 S
atom 2.0477565593454936 5.0205141979703649 12.8065658869741608 S
atom 7.8220895800576793 4.9818867605589183 12.1608956122699183 S
atom 2.8578985658437293 0.0093085584051563 17.8073879238164565 S
atom 7.0943715112997578 -0.0239224359821185 17.1593902623862995 S
atom 2.0526714798593679 5.0177775954582593 17.1698405458942602 S
atom 7.8264258481669930 4.9778358407284280 17.8073879238164565 S
atom -0.0499458527942037 2.1515513591474047 12.1661207540238898 S
atom 4.9531267412347262 2.8841843484192120 12.8013407452201786 S
atom -0.0885732902056565 7.9258843798596192 12.8117910287281394 S
atom 4.9185814295290653 7.1200786414706894 12.1661207540238898 S
atom -0.0458949329637163 2.1472150910381025 17.8126130655703925 S
atom 4.9558633437468371 2.8792694279053417 17.1646154041402674 S
atom -0.0858366876935616 7.9209694593457280 17.1750656876482140 S
atom 4.9226323493595379 7.1157423733613907 17.8126130655703889 S
atom 0.2593448483913685 -0.1551771214851229 19.9908467467467297 Ba
atom 5.1602907783669627 -0.2959312229499271 19.9856216049927475 Ba
atom 0.1185907469265632 4.7457688084904648 19.9960718885007083 Ba
atom 5.2278721307146432 4.8133501608381453 19.9908467467467297 Ba
atom -0.3065333022902413 0.2023655753839962 24.9996935974357086 Ba
atom 4.8027480814978274 0.2699469277316813 24.9944684556816981 Ba
atom -0.2389519499425564 5.3116469591720774 25.0049187391896268 Ba
atom 4.6619939800330386 5.1708928577072699 24.9996935974357086 Ba
atom 2.4606694142122021 2.5078578681110746 22.4952701720912138 Zr
atom 7.4657830710940134 2.4712714935525155 22.4900450303372423 Zr
atom 2.4240830396536364 7.5129715249928992 22.5004953138452137 Zr
atom 7.4291966965354392 7.4763851504343455 22.4952701720912138 Zr
atom 2.4675293066509512 2.5020755964483690 27.5070869288085689 Zr
atom 7.4715653427567261 2.4644116011137616 27.5018617870545938 Zr
atom 2.4298653113163513 7.5061116325541706 27.5123120705625404 Zr
atom 7.4360565889742061 7.4706028787716381 27.5070869288085618 Zr
atom 2.7257725847860681 2.8438954760482726 19.9910856849244141 S
atom 7.1297454631568487 2.2061683229786397 19.9858605431704497 S
atom 2.0880454317164312 7.2478683544190101 19.9963108266783962 S
atom 7.6942998671093399 7.8124227583715484 19.9910856849244176 S
atom 2.1955662436383259 2.1718202601738721 24.9994546592580136 S
atom 7.8018206790312128 2.7363746641263860 24.9942295175040599 S
atom 2.7601206475908371 7.7780746955667901 25.0046798010120099 S
atom 7.1640935259615937 7.1403475424971514 24.9994546592580136 S
atom 2.8626279896469700 0.0042903111385055 22.1700288211663583 S
atom 7.1004108702178206 -0.0302746063567519 22.8100612395081086 S
atom 2.0587108387774262 5.0114254250836519 22.8205115230160516 S
atom 7.8311552719702293 4.9728175934617704 22.1700288211663583 S
atom 2.8686673485650269 -0.0020618592361282 27.8206997982881923 S
atom 7.1051402940210577 -0.0352928536234028 27.1727021368580388 S
atom 2.0634402625806674 5.0064071778169925 27.1831524203660031 S
atom 7.8371946308882983 4.9664654230871523 27.8206997982881923 S
atom -0.0408766856970652 2.1424856672348573 22.1752539629202943 S
atom 4.9622155141214348 2.8732300689872821 22.8152863812621334 S
atom -0.0794845173189281 7.9149301004276875 22.8257366647700621 S
atom 4.9276505966262132 7.1110129495581331 22.1752539629202907 S
atom -0.0345245153224323 2.1364463083168035 27.8259249400421318 S
atom 4.9672337613881270 2.8685006451840454 27.1779272786120174 S
atom -0.0744662700522770 7.9102006766244228 27.1883775621199710 S
atom 4.9340027670008269 7.1049735906400739 27.8259249400421318 S
atom 0.2691532429005210 -0.1660850834626471 30.0047862571299717 Ba
atom 5.1711987403444724 -0.3057396174590807 29.9995611153759825 Ba
atom 0.1294987089040874 4.7359604139813118 30.0100113988839183 Ba
atom 5.2376805252237810 4.8024421988606250 30.0047862571299717 Ba
atom -0.2945422843061548 0.1934832234687187 35.0083574007368625 Ba
atom 4.8116304334131161 0.2579559097475955 35.0031322589828733 Ba
atom -0.2300695980272782 5.2996559411879858 35.0135825424908518 Ba
atom 4.6739849980171035 5.1620105057919998 35.0083574007368625 Ba
atom 2.4662055430126140 2.4992980564712810 32.5204052420081524 Zr
atom 7.4743428827338256 2.4657353647520992 32.5151801002542626 Zr
atom 2.4326428512934215 7.5074353961924869 32.5256303837621772 Zr
atom 7.4347328253358631 7.4678253387945475 32.5204052420081524 Zr
atom 2.4871685084464250 2.4864713209908675 37.5365980991307637 Zr
atom 7.4871696182142387 2.4447723993182846 37.5313729573768384 Zr
atom 2.4454695867738447 7.4864724307586750 37.5418232408846748 Zr
atom 7.4556957907696928 7.4549986033141398 37.5365980991307637 Zr
atom 2.7353425174646220 2.8323594443827229 30.0083353716894479 S
atom 7.1412814948223646 2.1965983903000974 30.0031102299354586 S
atom 2.0995814633819978 7.2382984217404882 30.0135605134434051 S
atom 7.7038697997878884 7.8008867267060022 30.0083353716894479 S
atom 2.2096210536248950 2.1656630211895469 35.0171755820139055 S
atom 7.8079779180155438 2.7223198541398226 35.0119504402598665 S
atom 2.7662778865751538 7.7640198855802227 35.0224007237677881 S
atom 7.1781483359481442 7.1341903035128205 35.0171755820139055 S
atom 2.8735822690789057 -0.0047984617482232 32.1839744572082793 S
atom 7.1094765621303591 -0.0393437734538906 32.8191944484044882 S
atom 2.0677765306899745 5.0023562579865057 32.8296447319124596 S
atom 7.8421095514021779 4.9637288205750476 32.1839744572082793 S
atom 2.8811372060468341 -0.0149915590324121 37.8227944872474424 S
atom 7.1073515572988439 -0.0478092397244620 37.1953050563686176 S
atom 2.0656515258584522 4.9938907917159225 37.2057553398765535 S
atom 7.8496644883700908 4.9535357232908659 37.8227944872474424 S
atom -0.0317879128103373 2.1315313878029341 32.1891995989622330 S
atom 4.9712846812185898 2.8641643770747387 32.8244195901584490 S
atom -0.0704153502217885 7.9058644085151109 32.8348698736664701 S
atom 4.9367393695129262 7.1000586701261952 32.1891995989622330 S
atom -0.0215948155261486 2.1239764508349896 37.8280196290014317 S
atom 4.9797501474891703 2.8662893819062552 37.2005301981225571 S
atom -0.0619498839512189 7.9079894133466491 37.2109804816305072 S
atom 4.9469324667971231 7.0925037331582699 37.8280196290014388 S
atom 0.2624796317222378 -0.1853233001633549 39.9798644130436571 Ba
atom 5.1904369570451774 -0.2990660062807985 39.9746392712897105 Ba
atom 0.1487369256047942 4.7426340251595942 39.9850895547977032 Ba
atom 5.2310069140455138 4.7832039821599039 39.9798644130436642 Ba
atom -0.1328981798050415 0.1723857876076178 44.7723739051642013 Ba
atom 4.8327278692742075 0.0963118052464821 44.7671487634101481 Ba
atom -0.2089721621661787 5.1380118366868706 44.7775990469181124 Ba
atom 4.8356291025182108 5.1409130699309040 44.7723739051642013 Ba
atom 2.4655132931995989 2.4956464622902015 42.5909715361239165 Zr
atom 7.4779944769149083 2.4664276145651125 42.5857463943698917 Zr
atom 2.4362944454745095 7.5081276460054962 42.5961966778778347 Zr
atom 7.4340405755228653 7.4641737446134684 42.5909715361239165 Zr
atom 2.7310391187557030 2.7934782157895182 40.0295162924937173 S
atom 7.1801627234155863 2.2009017890090039 40.0242911507397565 S
atom 2.1384626919751941 7.2426018204493943 40.0347414342476782 S
atom 7.6995664010789815 7.7620054981127922 40.0295162924937173 S
atom 2.3087546074751062 2.2361653793532499 45.0973102835830346 S
atom 7.7374755598518243 2.6231863002896061 45.0920851418289672 S
atom 2.6957755284114588 7.6648863317299911 45.1025354253370026 S
atom 7.2772818897983598 7.2046926616765434 45.0973102835830346 S
atom 2.8299992007409691 -0.0197207685511984 42.2084426224504696 S
atom 7.2171286665964995 -0.0538176985768929 42.7544043094702033 S
atom 2.1754286351561056 4.9878823328635038 42.7648545929781463 S
atom 7.7985264830642302 4.9488065137720660 42.2084426224504696 S
atom -0.0168656060073617 2.1751144561408573 42.2136677642044091 S
atom 4.9857586063416033 2.7565122726085995 42.7596294512242068 S
atom -0.0559414250987869 7.7982123040489908 42.7700797347321569 S
atom 4.9516616763159096 7.1436417384641349 42.2136677642044091 S
atom 2.5591266240449149 2.4488882660809272 48.2080761394795019 Ba
atom 7.5247526731241692 2.3728142837197983 48.2028509977255055 Ba
atom 2.4830526416837788 7.4145143151601900 48.2133012812335124 Ba
atom 7.5276539063681769 7.4174155484042039 48.2080761394795019 Ba
atom 2.2014175362739441 2.8442660776082151 53.0005856315999679 Ba
atom 7.1293748615968839 2.7305233714907717 52.9953604898459290 Ba
atom 2.0876748301564962 7.7722234029311617 53.0058107733539643 Ba
atom 7.1699448185972177 7.8127933599314696 53.0005856315999750 Ba
atom 4.8823872987274699 5.0472997390855756 50.3894785085197228 Zr
atom 9.8948684824427833 5.0180808913604871 50.3842533667657690 Zr
atom 4.8531684510024098 10.0597809228009005 50.3947036502737902 Zr
atom 9.8509145810507555 10.0158270214088407 50.3894785085197228 Zr
atom 4.8732121574281626 5.0689549543324031 55.4438519455129466 Zr
atom 9.8732132671959558 5.0272560326598228 55.4386268037589502 Zr
atom 4.8315132357555735 10.0689560641002043 55.4490770872668648 Zr
atom 9.8417394397514482 10.0374822366556629 55.4438519455129466 Zr
atom 4.6229062157905672 4.8905410533610745 47.8831397610607397 S
atom 10.0516271681673164 5.2775619742974182 47.8779146193067291 S
atom 5.0099271367269012 10.3192620057378104 47.8883649028147218 S
atom 9.5914334981138119 9.8590683356843414 47.8831397610607397 S
atom 5.1802190522268221 5.3128255646416740 52.9509337521499575 S
atom 9.6293426568866884 4.7202491378611580 52.9457086103959540 S
atom 4.5876426254462892 9.7619491693015448 52.9561588939039538 S
atom 10.1487463345501130 10.2813528469649480 52.9509337521499575 S
atom 4.5618552925781577 2.5649208398786092 50.7667822804392657 S
atom 10.1849531404862716 2.5258450207871874 50.2103703099115464 S
atom 5.1432531090459079 7.5675450522275582 50.2208205934194538 S
atom 9.5303825749014184 7.5334481222018974 50.7667822804392657 S
atom 4.5107172872722927 2.5601916303598249 55.1524304156422787 S
atom 10.2947302497839299 2.5198365619347549 55.7694695630131392 S
atom 5.2530302183435706 7.5615365933751484 55.7799198465211035 S
atom 9.4792445695955667 7.5287189126830993 55.1524304156422787 S
atom 2.3670200678861000 5.4117856466269449 50.7720074221932265 S
atom 7.3746231693008024 4.7572150810420792 50.2155954516654432 S
atom 2.3329231378603970 9.7989151124824669 50.2260457351734502 S
atom 7.3355473502093576 10.3803129289502056 50.7720074221932265 S
atom 2.3717492774048909 5.4629236519328090 55.1576555573961755 S
atom 7.3806316281532194 4.6474379717444316 55.7746947047671426 S
atom 2.3389315967128250 9.6891380031848122 55.7851449882751140 S
atom 7.3402765597281405 10.4314509342560751 55.1576555573961755 S
atom 2.5802240599060196 2.2872441615798134 57.9720926439068123 Ba
atom 7.6863967776252782 2.3517168478586958 57.9668675021528941 Ba
atom 2.6446967461848940 7.3934168792990977 57.9773177856607660 Ba
atom 7.5487513422292558 7.2557714439030949 57.9720926439068123 Ba
atom 2.2206557529746527 2.8509396887864948 62.9756637875137031 Ba
atom 7.1227012504186069 2.7112851547900640 62.9704386457597778 Ba
atom 2.0810012189782192 7.7529851862304406 62.9808889292677634 Ba
atom 7.1891830352979404 7.8194669711097555 62.9756637875137031 Ba
atom 4.8860388929085650 5.0479919888985769 60.4600448026354869 Zr
atom 9.8941762326297642 5.0144292971794027 60.4548196608815473 Zr
atom 4.8524762011894040 10.0561293286197824 60.4652699443894122 Zr
atom 9.8545661752318363 10.0165192712218492 60.4600448026354869 Zr
atom 4.8888164328856609 5.0493157525369208 65.4733631158350846 Zr
atom 9.8928524689914514 5.0116517572023174 65.4681379740811593 Zr
atom 4.8511524375510549 10.0533517886426988 65.4785882575890810 Zr
atom 9.8573437152089127 10.0178430348602010 65.4733631158350704 Zr
atom 4.5524038576268273 4.7914074995108633 57.9632744626298617 S
atom 10.1507607220174592 5.3480643324611306 57.9580493208758512 S
atom 5.1090606905771097 10.3897643639015520 57.9684996043837941 S
atom 9.5209311399501093 9.7599347818341400 57.9632744626298617 S
atom 5.2191002808200135 5.3171289633505907 62.9721146729542269 S
atom 9.6250392581777593 4.6813679092679568 62.9668895312002235 S
atom 4.5833392267373867 9.7230679407083453 62.9773398147081451 S
atom 10.1876275631432680 10.2856562456738914 62.9721146729542269 S
atom 4.5182722242402171 2.5499985330756445 60.7912504456813707 S
atom 10.2926052449523837 2.5113710956641895 60.1455801709772189 S
atom 5.2509052135120262 7.5530711271045616 60.1560304544851476 S
atom 9.4867995065634947 7.5185258153989114 60.7912504456813707 S
atom 4.5231871447540897 2.5472619305635389 65.1545251046015181 S
atom 10.2969415130617143 2.5073201758336960 65.7920724825237215 S
atom 5.2552414816213311 7.5490202072740971 65.8025227660315863 S
atom 9.4917144270773353 7.5157892128868014 65.1545251046015181 S
atom 2.3819423746890713 5.4553687149648731 60.7964755874353528 S
atom 7.3890970944238026 4.6495629765759565 60.1508053127312081 S
atom 2.3473970629833998 9.6912630080163478 60.1612555962391014 S
atom 7.3504696570123400 10.4238959972881524 60.7964755874353528 S
atom 2.3846789772011707 5.4504537944510156 65.1597502463555571 S
atom 7.3931480142542716 4.6452267084666454 65.7972976242776184 S
atom 2.3514479828138937 9.6869267399070420 65.8077479077858101 S
atom 7.3532062595244385 10.4189810767742710 65.1597502463555429 S
atom 2.5891064118212892 2.2752531435957333 67.9807564472078241 Ba
atom 7.6983877956093494 2.3428344959434195 67.9755313054538703 Ba
atom 2.6566877641689706 7.3845345273837948 67.9859815889617636 Ba
atom 7.5576336941445748 7.2437804259189944 67.9807564472078241 Ba
atom 2.2315637149521739 2.8411312942773459 72.9896032978969629 Ba
atom 7.1325096449277572 2.7003771928125317 72.9843781561430092 Ba
atom 2.0908096134873655 7.7420772242529248 72.9948284396509308 Ba
atom 7.2000909972754448 7.8096585766006053 72.9896032978969629 Ba
atom 4.8945987045483683 5.0424558600981655 70.4851798725525214 Zr
atom 9.8997123614301881 5.0058694855396162 70.4799547307984682 Zr
atom 4.8580123299898021 10.0475695169800154 70.4904050143063472 Zr
atom 9.8631259868716352 10.0109831424214537 70.4851798725525214 Zr
atom 4.9003809762110606 5.0355959676594333 75.4969966292697876 Zr
atom 9.9065722538689602 5.0000872138769052 75.4917714875159334 Zr
atom 4.8648722224285468 10.0417872453173143 75.5022217710237840 Zr
atom 9.8689082585343524 10.0041232499826869 75.4969966292697876 Zr
atom 4.5585610966111725 4.7773526895242853 67.9809953853858104 S
atom 10.1648155320040257 5.3419070934768031 67.9757702436317146 S
atom 5.1231155005636815 10.3836071249171944 67.9862205271398494 S
atom 9.5270883789344136 9.7458799718475877 67.9809953853858104 S
atom 5.2306363124855579 5.3075590306720537 72.9893643597191186 S
atom 9.6346091908563309 4.6698318776024212 72.9841392179652644 S
atom 4.5929091594159210 9.7115319090428134 72.9945895014731718 S
atom 10.1991635948088124 10.2760863129953215 72.9893643597191186 S
atom 4.5292265036721622 2.5409097601889092 70.8051960817234374 S
atom 10.3016709368649586 2.5023019285670483 70.1547133798735274 S
atom 5.2599709054245878 7.5440019600074297 70.1651636633815059 S
atom 9.4977537859953856 7.5094370425121868 70.8051960817234516 S
atom 4.5339559274753896 2.5358915129222575 75.1678369790732148 S
atom 10.3077102957830160 2.4959497581924124 75.8053843569953614 S
atom 5.2660102643426443 7.5376497896328045 75.8158346405034393 S
atom 9.5024832097986831 7.5044187952455186 75.1678369790732148 S
atom 2.3910311475758022 5.4444144355329556 70.8104212234775190 S
atom 7.3981662615209398 4.6404972846633950 70.1599385216274811 S
atom 2.3564662300805432 9.6821973161038013 70.1703888051355023 S
atom 7.3595584298990522 10.4129417178562029 70.8104212234775190 S
atom 2.3960493948424486 5.4396850117297042 75.1730621208272822 S
atom 7.4045184318955650 4.6344579257453420 75.8106094987493719 S
atom 2.3628184004551680 9.6761579571857474 75.8210597822572794 S
atom 7.3645766771657151 10.4082122940529480 75.1730621208272964 S
atom 2.6000143737988202 2.2654447490865808 77.9946959575913183 Ba
atom 7.7081961901185023 2.3319265339658903 77.9894708158373504 Ba
atom 2.6664961586781244 7.3736265654062887 77.9999210993452721 Ba
atom 7.5685416561220826 7.2339720314098539 77.9946959575913183 Ba
atom 2.2404460668674475 2.8291402762932583 82.9982671011981097 Ba
atom 7.1445006629118497 2.6914948408972621 82.9930419594441986 Ba
atom 2.1028006314714567 7.7331948723376440 83.0034922429520208 Ba
atom 7.2089733491907131 7.7976675586165234 82.9982671011981097 Ba
atom 4.9031585161881646 5.0369197312977638 80.5103149424694777 Zr
atom 9.9052484902305924 4.9973096738998093 80.5050898007154672 Zr
atom 4.8635484587902056 10.0390097053402183 80.5155400842233462 Zr
atom 9.8716857985114466 10.0054470136210263 80.5103149424694919 Zr
atom 4.9159852516685767 5.0159567658639457 85.5265077995920109 Zr
atom 9.9262114556643848 4.9844829384194203 85.5212826578380430 Zr
atom 4.8845114242240442 10.0261829698597946 85.5317329413459788 Zr
atom 9.8845125339918489 9.9844840481872179 85.5265077995920109 Zr
atom 4.5700971282767213 4.7677827568457483 77.9982450721506382 S
atom 10.1743854646826062 5.3303710618112632 77.9930199303965992 S
atom 5.1326854332422247 10.3720710932516642 78.0034702139044924 S
atom 9.5386244105999491 9.7363100391690427 77.9982450721506382 S
atom 5.2367935514698889 5.2935042206854748 83.0070852824749750 S
atom 9.6486640008428886 4.6636746386180921 83.0018601407209218 S
atom 4.6069639694024866 9.7053746700584682 83.0123104242288292 S
atom 10.2053208337931913 10.2620315030087212 83.0070852824749750 S
atom 4.5382921955847015 2.5318405930917631 80.8143292906196393 S
atom 10.3126252162968903 2.4932131556803139 80.1686590159155514 S
atom 5.2709251848565168 7.5349131871207033 80.1791092994236010 S
atom 9.5068194779079711 7.5003678754150540 80.8143292906196251 S
atom 4.5361671907531811 2.5233751268211946 85.1904398985836764 S
atom 10.3201801532648272 2.4830200583961286 85.8074790459547643 S
atom 5.2784801218244386 7.5247200898365243 85.8179293294627001 S
atom 9.5046944730764604 7.4919024091444761 85.1904398985836764 S
atom 2.4001003146729527 5.4353487436203913 80.8195544323737352 S
atom 7.4072550344076635 4.6295430052314632 80.1738841576696188 S
atom 2.3655550029672789 9.6712430366718589 80.1843344411775831 S
atom 7.3686275969962018 10.4038760259436653 80.8195544323737209 S
atom 2.4085657809435106 5.4374737484519189 85.1956650403376585 S
atom 7.4174481316918461 4.6219880682635379 85.8127041877087748 S
atom 2.3757481002514611 9.6636880997039221 85.8231544712167818 S
atom 7.3770930632667673 10.4060010307751742 85.1956650403376585 S
atom 2.6192525904995216 2.2721183602648609 87.9697741135050393 Ba
atom 7.7015225789402333 2.3126883172651818 87.9645489717508440 Ba
atom 2.6598225474998536 7.3543883487055668 87.9749992552588083 Ba
atom 7.5877798728228010 7.2406456425881407 87.9697741135050393 Ba
atom 2.2615435027285531 2.6674961717921413 92.7622836056255409 Ba
atom 7.3061447674129392 2.6703974050361556 92.7570584638715303 Ba
atom 2.2644447359725688 7.7120974364765438 92.7675087473793241 Ba
atom 7.2300707850518240 7.6360234541154197 92.7622836056255409 Ba
atom 4.9068101103692525 5.0376119811107714 90.5808812365851850 Zr
atom 9.9045562404175929 4.9936580797187275 90.5756560948310465 Zr
atom 4.8628562089772096 10.0353581111591144 90.5861063783389540 Zr
atom 9.8753373926925292 10.0061392634340187 90.5808812365851850 Zr
atom 4.6089783568699190 4.7720861555546659 88.0194259929549929 S
atom 10.1700820659736983 5.2914898332180620 88.0142008512010250 S
atom 5.1283820345333098 10.3331898646584612 88.0246511347089040 S
atom 9.5775056391931876 9.7406134378779310 88.0194259929549929 S
atom 5.1662911933061730 5.1943706668352654 93.0872199840441112 S
atom 9.7477975546930935 4.7341769967818106 93.0819948422900723 S
atom 4.7060975232527218 9.7758770282221796 93.0924451257980223 S
atom 10.1348184756294515 10.1628979491585376 93.0872199840441112 S
atom 4.6459443000508376 2.5173666679687630 90.7495391516853260 S
atom 10.2690421479589791 2.4782908488773474 90.1931271811575357 S
atom 5.2273421165185692 7.5199908803177253 90.2035774646656279 S
atom 9.6144715823741098 7.4858939502920467 90.7495391516853260 S
atom 2.4145742397959498 5.3276966391542571 90.7547642934393366 S
atom 7.4221773412106486 4.6731260735694056 90.1983523229115747 S
atom 2.3804773097702490 9.7148261050097879 90.2088026064195105 S
atom 7.3831015221192038 10.2962239214775302 90.7547642934393366 S
