#=======================================================
# FHI-aims file: sym_relax/sym_relax_RP_7_RxRyRz_RxRyRz.in
# Created using the Atomic Simulation Environment (ASE)
# Mon Mar 17 15:51:41 2025
#=======================================================
lattice_vector 9.9524755545575339 -0.0050412402990829 0.0003460079056611 
lattice_vector -0.0050412402990832 9.9524755545575339 -0.0003460079056612 
lattice_vector 0.0073283997477644 -0.0073283997477652 76.8085001945867987 
atom 0.0372838945874035 -0.1225829655342034 0.2003040065551797 Ba
atom 5.0988207428129835 -0.0398045147369441 0.2004770105080102 Ba
atom 0.1200623453846619 4.9389538826913659 0.2001310026023487 Ba
atom 5.0110010517166446 4.8511341915950315 0.2003040065551796 Ba
atom -0.2518652647873198 0.1877960438480652 5.0247342140384079 Ba
atom 4.7884417334307008 0.2493446446377793 5.0249072179912320 Ba
atom -0.1903166639976056 5.2281030420660928 5.0245612100855706 Ba
atom 4.7218518923419044 5.1615132009772964 5.0247342140384079 Ba
atom 2.4585360610699918 2.5107011153676488 2.4046747177020302 Zr
atom 7.4392538190403403 2.5126604759097049 2.4048477216548592 Zr
atom 2.4604954216120318 7.4914188733380227 2.4045017137491951 Zr
atom 7.4322532181991932 7.4844182724968942 2.4046747177020302 Zr
atom 2.4158453804374558 2.5226242717844101 7.5006119688209036 Zr
atom 7.4273306626235893 2.5553511565422400 7.5007849727737250 Zr
atom 2.4485722651952746 7.5341095539705458 7.5004389648680707 Zr
atom 7.3895625375666647 7.4963414289136416 7.5006119688209036 Zr
atom 2.5782942168022789 2.6923930898848933 -0.1119629257452168 S
atom 7.2575618445230887 2.3929023201774053 -0.1117899217923858 S
atom 2.2788034470947922 7.3716607176057316 -0.1121359296980473 S
atom 7.5520113739314976 7.6661102470141289 -0.1119629257452168 S
atom 2.2546678137979481 2.2983954568783558 4.9872865573422667 S
atom 7.6515594775296538 2.7165287231817339 4.9874595612950801 S
atom 2.6728010801013395 7.6952871206100593 4.9871135533894266 S
atom 7.2283849709271912 7.2721126140075771 4.9872865573422658 S
atom 2.7727825436641278 0.0328891469729696 2.2936844412866204 S
atom 7.0933669775333037 0.0332048944216245 2.7186041649327994 S
atom 2.1146085801049903 5.0119632918499377 2.7182581570271362 S
atom 7.7464997007933647 5.0066063041022080 2.2936844412866204 S
atom 2.9426238206115447 0.0398805762205995 7.7077452900463559 S
atom 6.9729137078652652 0.0380643319658061 7.3387556837455499 S
atom 1.9941553104369603 5.0168227293941090 7.3384096758398893 S
atom 7.9163409777407727 5.0135977333498278 7.7077452900463550 S
atom -0.0354097671225104 2.2034552336146391 2.2935114373337888 S
atom 4.9379916425580603 2.8565879568747006 2.7184311609799665 S
atom -0.0407667548702487 7.8353463543030148 2.7180851530743033 S
atom 4.9383073900067096 7.1771723907438529 2.2935114373337897 S
atom -0.0424011963701398 2.0336139566672204 7.7075722860935256 S
atom 4.9331322050138722 2.9770412265427257 7.3385826797927241 S
atom -0.0456261924144308 7.9557996239710436 7.3382366718870644 S
atom 4.9313159607590862 7.0073311137964529 7.7075722860935256 S
atom 0.0031656899159680 -0.0818960380548917 10.0593499880462804 Ba
atom 5.0581338153336661 -0.0056863100655088 10.0595229919990956 Ba
atom 0.0793754179053506 4.9730720873628016 10.0591769840934386 Ba
atom 4.9768828470451894 4.8918211190743381 10.0593499880462822 Ba
atom 0.0530018663042441 0.0142472418182661 15.1414810661315293 Ba
atom 4.9619905354604894 -0.0555224864537850 15.1416540700843711 Ba
atom -0.0167678619678071 4.9232359109745270 15.1413080621786964 Ba
atom 5.0267190234334747 4.9879643989475078 15.1414810661315293 Ba
atom 2.4978394429290938 2.4863737621617537 12.5890822075233082 Zr
atom 7.4635811722462426 2.4733570940506007 12.5892552114761287 Zr
atom 2.4848227748179319 7.4521154914789189 12.5889092035704628 Zr
atom 7.4715566000583200 7.4600909192909848 12.5890822075233100 Zr
atom 2.4885460390328431 2.4851711180963836 17.6861678079640754 Zr
atom 7.4647838163116216 2.4826504979468469 17.6863408119168675 Zr
atom 2.4860254188833126 7.4614088953751461 17.6859948040112158 Zr
atom 7.4622631961620858 7.4588882752256120 17.6861678079640754 Zr
atom 2.5774824298324348 2.6533101212827148 10.0547749695015121 S
atom 7.2966448131252859 2.3937141071472596 10.0549479734543379 S
atom 2.3178864156969738 7.3724725045755672 10.0546019655486827 S
atom 7.5511995869616628 7.6270272784119335 10.0547749695015121 S
atom 2.4193956581424843 2.4365389377127578 15.1409781577352049 S
atom 7.5134159966952474 2.5518008788372035 15.1411511616880521 S
atom 2.5346575992669367 7.5305592762655120 15.1408051537824058 S
atom 7.3931128152716763 7.4102560948419987 15.1409781577352032 S
atom 1.9973985846044926 -0.0001766668235224 12.5337535049329514 S
atom 7.9902207549132775 -0.0017436577034907 12.6686617507418919 S
atom 3.0114623574849548 4.9770147397248303 12.6683157428362243 S
atom 6.9711157417337253 4.9735404903057008 12.5337535049329514 S
atom 3.0054237090232436 -0.0028812537068076 17.7258219803761001 S
atom 6.9504267664707635 -0.0055349075287455 17.6468596434576135 S
atom 1.9716683690424499 4.9732234898995697 17.6465136355519867 S
atom 7.9791408661524681 4.9708359034224268 17.7258219803760930 S
atom -0.0023439533260184 2.9788391926742857 12.5335805009801113 S
atom 4.9729401946831828 1.9597341794947309 12.6684887467890519 S
atom -0.0058182027451335 6.9384925769230383 12.6681427388833914 S
atom 4.9713732038032044 7.9525563498035039 12.5335805009801096 S
atom 0.0003606335572672 1.9708140682555189 17.7256489764232796 S
atom 4.9767314445084345 2.9995281679372390 17.6466866395048037 S
atom -0.0020269529198779 7.9782865653655488 17.6463406315991307 S
atom 4.9740777906864961 6.9445312253847522 17.7256489764232725 S
atom -0.0496269453677729 -0.0176221627547360 20.2308545497965575 Ba
atom 4.9938599400335209 0.0471063252182319 20.2310275537493958 Ba
atom 0.0151015426051948 5.0258647226465518 20.2306815458437192 Ba
atom 4.9240902117614569 4.9560949943744772 20.2308545497965611 Ba
atom 0.0002092310205033 0.0785211171184219 25.3129856278818259 Ba
atom 4.8977166601603370 -0.0027298511700442 25.3131586318346500 Ba
atom -0.0810417372679627 4.9760285462582727 25.3128126239289948 Ba
atom 4.9739263881497262 5.0522382742476566 25.3129856278818259 Ba
atom 2.4792526351366115 2.4839684740310051 22.7832534084048071 Zr
atom 7.4659864603769917 2.4919439018430793 22.7834264123575956 Zr
atom 2.4872280629486854 7.4707022992713839 22.7830804044519368 Zr
atom 7.4529697922658356 7.4576856311602260 22.7832534084048035 Zr
atom 2.5612466976282504 2.4477179644083522 27.8717236471071779 Zr
atom 7.5022369699996334 2.4099498393514351 27.8718966510600232 Zr
atom 2.5234785725713396 7.3887082367797499 27.8715506431543432 Zr
atom 7.5349638547574642 7.4214351215375922 27.8717236471071779 Zr
atom 2.5576964199232122 2.5338032984800072 20.2313574581928499 S
atom 7.4161516359280091 2.4135001170564787 20.2315304621456633 S
atom 2.4373932384996824 7.3922585144847783 20.2311844542400259 S
atom 7.5314135770524420 7.5075204556092210 20.2313574581928535 S
atom 2.3996096482332705 2.3170321149100439 25.3175606464265712 S
atom 7.6329228194979564 2.5715868887464257 25.3177336503794272 S
atom 2.6541644220696470 7.5503452861747400 25.3173876424737614 S
atom 7.3733268053624910 7.2907492720392826 25.3175606464265712 S
atom 1.9656297205807423 -0.0066725035320620 22.7040198730918803 S
atom 7.9584518908895223 -0.0082394944120307 22.8389281189007889 S
atom 2.9796934934612103 4.9705189030162780 22.8385821109951266 S
atom 6.9393468777099745 4.9670446535971564 22.7040198730918803 S
atom 2.9829367676287446 -0.0464804932013594 28.0339259400882135 S
atom 7.0132266548824660 -0.0482967374561526 27.6649363337874057 S
atom 2.0344682574541464 4.9304616599721651 27.6645903258816652 S
atom 7.9566539247579593 4.9272366639278724 28.0339259400882135 S
atom 0.0041518833825211 3.0106080566980253 22.7038468691390598 S
atom 4.9794360313917050 1.9915030435184806 22.8387551149479506 S
atom 0.0006776339634063 6.9702614409467900 22.8384091070422954 S
atom 4.9778690405117487 7.9843252138272538 22.7038468691390634 S
atom 0.0439598730518180 1.9933010096500328 28.0337529361353397 S
atom 5.0194932744358383 2.9367282795255427 27.6647633298345497 S
atom 0.0407348770075288 7.9154866769538517 27.6644173219288767 S
atom 5.0176770301810389 6.9670181667792548 28.0337529361353397 S
atom 0.2552401857237913 -0.1911709647845349 30.3476014018897047 Ba
atom 5.1674087420633095 -0.2577608058733321 30.3477744058425287 Ba
atom 0.1886503446349933 4.7209975915549824 30.3474283979368380 Ba
atom 5.2289573428530245 4.7825461923446957 30.3476014018897047 Ba
atom -0.0339089736509323 0.1192080445977337 35.1720316093729508 Ba
atom 4.8570297326810294 0.0313883535013915 35.1722046133257393 Ba
atom -0.1217286647472742 5.0101467509297084 35.1718586054200841 Ba
atom 4.9398081834783056 5.0929252017269695 35.1720316093729508 Ba
atom 2.5185560169957091 2.4596411208251041 32.9676608982260504 Zr
atom 7.4903138135828957 2.4526405199839738 32.9678339021788886 Zr
atom 2.5115554161545841 7.4313989174122881 32.9674878942732192 Zr
atom 7.4922731741249500 7.4333582779543299 32.9676608982260433 Zr
atom 2.7224242642677425 2.6719467793144083 30.3850490585858672 S
atom 7.2780081550935760 2.2487722727119448 30.3852220625387019 S
atom 2.2992497576652737 7.2275306701402586 30.3848760546330254 S
atom 7.6961414213969812 7.6456639364436407 30.3850490585858637 S
atom 2.3987978612634202 2.2779491463078645 35.4842985416732972 S
atom 7.6720057881001376 2.5723986757162733 35.4844715456261568 S
atom 2.6932473906718228 7.5511570731445792 35.4841255377204519 S
atom 7.3725150183926598 7.2516663034370907 35.4842985416732972 S
atom 2.8624834979607083 -0.0416210556571775 32.6540774589009359 S
atom 7.1830679318298687 -0.0413053082085227 33.0789971825470630 S
atom 2.2043095344015757 4.9374530892197823 33.0786511746413581 S
atom 7.8362006550899324 4.9320961014720517 32.6540774589009359 S
atom 0.0391004355076366 2.1137542793180590 32.6539044549480906 S
atom 5.0125018451882157 2.7668870025781205 33.0788241785942461 S
atom 0.0337434477598980 7.7456454000064472 33.0784781706885127 S
atom 5.0128175926368659 7.0874714364472897 32.6539044549480835 S
atom 2.5278066730259061 2.3606114131565303 38.6045541038485567 Ba
atom 7.5893435212514753 2.4433898639537812 38.6047271078013878 Ba
atom 2.6105851238231588 7.4221482613820964 38.6043810998957184 Ba
atom 7.5015238301551346 7.3343285702857619 38.6045541038485567 Ba
atom 2.2386575136511744 2.6709904225388024 43.4289843113317673 Ba
atom 7.2789645118692032 2.7325390233285103 43.4291573152846055 Ba
atom 2.3002061144408836 7.7112974207568330 43.4288113073789503 Ba
atom 7.2123746707803988 7.6447075796680384 43.4289843113317673 Ba
atom 4.9490588395084725 4.9938954940583891 40.8089248149954145 Zr
atom 9.9297765974788330 4.9958548546004424 40.8090978189482172 Zr
atom 4.9510182000505241 9.9746132520287638 40.8087518110426188 Zr
atom 9.9227759966376983 9.9676126511875864 40.8089248149954145 Zr
atom 4.9063681588759440 5.0058186504751427 45.9048620661141982 Zr
atom 9.9178534410620980 5.0385455352329700 45.9050350700671643 Zr
atom 4.9390950436337695 10.0173039326612763 45.9046890621614168 Zr
atom 9.8800853160051929 9.9795358076043730 45.9048620661141982 Zr
atom 5.0688169952407751 5.1755874685756238 38.2922871715480966 S
atom 9.7480846229616205 4.8760966988681469 38.2924601755009562 S
atom 4.7693262255332822 9.8548550962964132 38.2921141675952938 S
atom 10.0425341523700489 10.1493046257048540 38.2922871715480966 S
atom 4.7451905922364421 4.7815898355690960 43.3915366546355799 S
atom 10.1420822559681447 5.1997231018724674 43.3917096585884252 S
atom 5.1633238585398420 10.1784814993007675 43.3913636506827274 S
atom 9.7189077493656626 9.7553069926982978 43.3915366546355799 S
atom 5.2633053221026262 2.5160835256637020 40.6979345385800144 S
atom 9.5838897559718017 2.5163992731123623 41.1228542622261557 S
atom 4.6051313585434723 7.4951576705406708 41.1225082543205360 S
atom 10.2370224792318627 7.4898006827929331 40.6979345385800144 S
atom 5.4331465990500396 2.5230749549113303 46.1119953873397179 S
atom 9.4634364863037828 2.5212587106565389 45.7430057810388533 S
atom 4.4846780888754587 7.5000171080848457 45.7426597731332194 S
atom 10.4068637561793018 7.4967921120405592 46.1119953873397250 S
atom 2.4551130113159831 4.6866496123053611 40.6977615346272046 S
atom 7.4285144209965441 5.3397823355654390 41.1226812582734311 S
atom 2.4497560235682481 10.3185407329937409 41.1223352503677262 S
atom 7.4288301684452014 9.6603667694345816 40.6977615346272046 S
atom 2.4481215820683584 4.5168083353579647 46.1118223833868726 S
atom 7.4236549834523737 5.4602356052334757 45.7428327770860221 S
atom 2.4448965860240639 10.4389940026617651 45.7424867691804025 S
atom 7.4218387391975815 9.4905254924871567 46.1118223833868726 S
atom 2.4936884683544656 2.4012983406358419 48.4636000853395998 Ba
atom 7.5486565937721481 2.4775080686252200 48.4637730892924665 Ba
atom 2.5698981963438414 7.4562664660535356 48.4634270813867758 Ba
atom 7.4674056254836847 7.3750154977650597 48.4636000853395998 Ba
atom 2.5435246447427375 2.4974416205089960 53.5457311634248967 Ba
atom 7.4525133138989990 2.4276718922369445 53.5459041673777065 Ba
atom 2.4737549164706949 7.4064302896652601 53.5455581594720300 Ba
atom 7.5172418018719629 7.4711587776382400 53.5457311634248967 Ba
atom 4.9883622213675851 4.9695681408524885 50.9933323048166685 Zr
atom 9.9541039506847611 4.9565514727413280 50.9935053087695280 Zr
atom 4.9753455532564246 9.9353098701696432 50.9931593008638444 Zr
atom 9.9620793784967780 9.9432852979817170 50.9933323048166685 Zr
atom 4.9790688174713482 4.9683654967871114 56.0904179052574250 Zr
atom 9.9553065947501249 4.9658448766375649 56.0905909092102917 Zr
atom 4.9765481973218071 9.9446032740658872 56.0902449013045086 Zr
atom 9.9527859746005731 9.9420826539163425 56.0904179052574250 Zr
atom 5.0680052082709333 5.1365044999734497 48.4590250667948936 S
atom 9.7871675915637883 4.8769084858379914 48.4591980707477248 S
atom 4.8084091941354705 9.8556668832663004 48.4588520628420412 S
atom 10.0417223654001635 10.1102216571026791 48.4590250667948865 S
atom 4.9099184365809858 4.9197333164034918 53.5452282550285972 S
atom 10.0039387751337312 5.0349952575279442 53.5454012589813715 S
atom 5.0251803777054107 10.0137536549562363 53.5450552510757873 S
atom 9.8836355937102081 9.8934504735327184 53.5452282550285972 S
atom 4.4879213630429931 2.4830177118672099 50.9380036022262317 S
atom 10.4807435333517667 2.4814507209872376 51.0729118480353108 S
atom 5.5019851359234559 7.4602091184155590 51.0725658401295632 S
atom 9.4616385201721958 7.4567348689964454 50.9380036022262317 S
atom 5.4959464874617501 2.4803131249839274 56.1300720776695172 S
atom 9.4409495449092589 2.4776594711619886 56.0511097407509169 S
atom 4.4621911474809393 7.4564178685903046 56.0507637328452191 S
atom 10.4696636445909803 7.4540302821131439 56.1300720776695243 S
atom 2.4881788251124766 5.4620335713650041 50.9378305982733650 S
atom 7.4634629731216720 4.4429285581854652 51.0727388440824370 S
atom 2.4847045756933586 9.4216869556137457 51.0723928361768102 S
atom 7.4618959822417157 10.4357507284942415 50.9378305982733650 S
atom 2.4908834119957630 4.4540084469462586 56.1298990737166577 S
atom 7.4672542229469165 5.4827225466279703 56.0509367367981426 S
atom 2.4884958255186151 10.4614809440562748 56.0505907288925016 S
atom 7.4646005691249950 9.4277256040754764 56.1298990737166577 S
atom 2.4408958330707184 2.4655722159360018 58.6351046470899249 Ba
atom 7.4843827184719967 2.5303007039089676 58.6352776510427844 Ba
atom 2.5056243210436921 7.5090591013372716 58.6349316431370866 Ba
atom 7.4146129901999327 7.4392893730652219 58.6351046470899249 Ba
atom 2.4907320094590020 2.5617154958091550 63.7172357251751720 Ba
atom 7.3882394385988386 2.4804645275206871 63.7174087291279747 Ba
atom 2.4094810411705341 7.4592229249489934 63.7170627212223479 Ba
atom 7.4644491665882242 7.5354326529383879 63.7172357251751720 Ba
atom 4.9697754135751184 4.9671628527217351 61.1875035056981247 Zr
atom 9.9565092388154675 4.9751382805338125 61.1876765096509772 Zr
atom 4.9777508413871923 9.9538966779621187 61.1873305017452935 Zr
atom 9.9434925707043060 9.9408800098509573 61.1875035056981176 Zr
atom 5.0517694760667426 4.9309123430990951 66.2759737444003747 Zr
atom 9.9927597484381039 4.8931442180421660 66.2761467483533551 Zr
atom 5.0140013510098340 9.8719026154704839 66.2758007404477354 Zr
atom 10.0254866331959800 9.9046295002282978 66.2759737444003747 Zr
atom 5.0482191983617026 5.0169976771707336 58.6356075554862244 S
atom 9.9066744143664831 4.8966944957472105 58.6357805594390484 S
atom 4.9279160169381733 9.8754528931755310 58.6354345515334643 S
atom 10.0219363554909204 9.9907148342999434 58.6356075554862244 S
atom 4.8901324266717614 4.8002264936007828 63.7218107437199492 S
atom 10.1234455979364846 5.0547812674371571 63.7219837476727591 S
atom 5.1446872005081339 10.0335396648654882 63.7216377397670897 S
atom 9.8638495838009916 9.7739436507299988 63.7218107437199492 S
atom 4.4561524990192529 2.4765218751586722 61.1082699703852086 S
atom 10.4489746693280239 2.4749548842786981 61.2431782161942664 S
atom 5.4702162718996927 7.4537132817070209 61.2428322082885970 S
atom 9.4298696561484530 7.4502390322878851 61.1082699703852086 S
atom 5.4734595460672457 2.4367138854893691 66.4381760373816519 S
atom 9.5037494333209320 2.4348976412345835 66.0691864310808654 S
atom 4.5249910358926444 7.4136560386628956 66.0688404231751178 S
atom 10.4471767031964564 7.4104310426186029 66.4381760373816519 S
atom 2.4946746618210125 5.4938024353887629 61.1080969664323916 S
atom 7.4699588098302057 4.4746974222092080 61.2430052122414139 S
atom 2.4912004124019074 9.4534558196374920 61.2426592043357374 S
atom 7.4683918189502361 10.4675195925180109 61.1080969664323916 S
atom 2.5344826514903169 4.4764953883407541 66.4380030334289131 S
atom 7.5100160528743256 5.4199226582162758 66.0690134271280414 S
atom 2.5312576554460251 10.3986810556446105 66.0686674192222654 S
atom 7.5081998086195521 9.4502125454699861 66.4380030334289131 S
atom 2.7457629641622900 2.2920234139061884 68.7518514991832461 Ba
atom 7.6579315205017950 2.2254335728174013 68.7520245031358996 Ba
atom 2.6791731230734945 7.2041919702457147 68.7516784952303937 Ba
atom 7.7194801212915189 7.2657405710354297 68.7518514991832461 Ba
atom 2.4566138047875632 2.6024024232884759 73.5762817066661086 Ba
atom 7.3475525111195399 2.5145827321921277 73.5764547106190037 Ba
atom 2.3687941136912256 7.4933411296204442 73.5761087027134266 Ba
atom 7.4303309619167868 7.5761195804176973 73.5762817066661086 Ba
atom 5.0090787954342195 4.9428354995158355 71.3719109955193858 Zr
atom 9.9808365920213760 4.9358348986747052 71.3720839994722809 Zr
atom 5.0020781945930777 9.9145932961029946 71.3717379915667181 Zr
atom 9.9827959525634515 9.9165526566450737 71.3719109955193858 Zr
atom 5.2129470427062188 5.1551411580051587 68.7892991558789646 S
atom 9.7685309335320838 4.7319666514026730 68.7894721598319450 S
atom 4.7897725361037775 9.7107250488309660 68.7891261519262116 S
atom 10.1866641998354712 10.1288583151343783 68.7892991558789646 S
atom 4.8893206397019284 4.7611435249985998 73.8885486389668102 S
atom 10.1625285665386365 5.0555930544069954 73.8887216429195206 S
atom 5.1837701691103284 10.0343514518353327 73.8883756350139720 S
atom 9.8630377968311169 9.7348606821278345 73.8885486389668102 S
atom 5.3530062763992019 2.4415733230335510 71.0583275561943566 S
atom 9.6735907102683729 2.4418890704822114 71.4832472798405689 S
atom 4.6948323128400506 7.4206474679105145 71.4829012719349066 S
atom 10.3267234335284499 7.4152904801627901 71.0583275561943566 S
atom 2.5296232139461390 4.5969486580087828 71.0581545522415752 S
atom 7.5030246236267191 5.2500813812688572 71.4830742758878870 S
atom 2.5242662261983848 10.2288397786971679 71.4827282679820257 S
atom 7.5033403710753630 9.5706658151380140 71.0581545522415752 S
