#=======================================================
# FHI-aims file: sym_relax/sym_relax_RP_8_RxRyMz_RxRy0.in
# Created using the Atomic Simulation Environment (ASE)
# Mon Mar 17 16:24:05 2025
#=======================================================
lattice_vector 10.0109485089918628 -0.0712217686023645 0.0000000000000000 
lattice_vector -0.0712217686023641 10.0109485089918664 0.0000000000000000 
lattice_vector -0.0000000000000000 0.0000000000000000 85.9341570741730862 
atom 0.1366181652330106 -0.1715431943009627 0.2120071101504143 Ba
atom 5.1770174487968985 -0.1722290495341936 0.2120071101504143 Ba
atom 0.1359323099997803 4.8688560892629216 0.2120071101504142 Ba
atom 5.1064815354277533 4.7983201758937808 0.2120071101504143 Ba
atom -0.2672558117863378 0.1902935894159361 5.0047584653853621 Ba
atom 4.8151806650799855 0.2316449274851548 5.0047584653853621 Ba
atom -0.2259044737171179 5.2727300662822554 5.0047584653853621 Ba
atom 4.7026075584084319 5.1601569596106787 5.0047584653853621 Ba
atom 2.5012390059130536 2.4764136037837461 2.3958161048329258 Zr
atom 7.4989240209069408 2.4330134799805241 2.3958161048329258 Zr
atom 2.4578388821098347 7.4740986187776421 2.3958161048329258 Zr
atom 7.4711023761077975 7.4462769739784971 2.3958161048329258 Zr
atom 2.4744831859938525 2.4903601354154401 7.4493222605127318 Zr
atom 7.4849774892752388 2.4597692998997052 7.4493222605127318 Zr
atom 2.4438923504781309 7.5008544386968259 7.4493222605127318 Zr
atom 7.4443465561886040 7.4602235056101831 7.4493222605127318 Zr
atom 2.6596893797618346 2.7370020925157319 -0.1109878618398523 S
atom 7.2383355321749505 2.2745631061317417 -0.1109878618398523 S
atom 2.1972503933778342 7.3156482449288358 -0.1109878618398523 S
atom 7.6295527499565825 7.7068654627104678 -0.1109878618398523 S
atom 2.2321493834647010 2.1801185884264638 4.9563464143115379 S
atom 7.7952190362642284 2.7021031024288726 4.9563464143115379 S
atom 2.7541338974670997 7.7431882412259840 4.9563464143115379 S
atom 7.2020127536594511 7.1499819586212130 4.9563464143115379 S
atom 2.7928166236778940 -0.0166090865054156 2.2228420317930144 S
atom 7.1785255570491042 -0.0492330259163374 2.7754159220912671 S
atom 2.1374404182519831 4.9918521128807791 2.7754159220912671 S
atom 7.7626799938726290 4.9532542836893345 2.2228420317930144 S
atom 2.8942136792112256 -0.0168589549852924 7.7828871627506953 S
atom 7.1229400179639919 -0.0492830223786620 7.1591288057467173 S
atom 2.0818548791668747 4.9918021164184490 7.1591288057467173 S
atom 7.8640770494059895 4.9530044152094561 7.7828871627506953 S
atom -0.0190017977957663 2.2126576308180388 2.2228420317930144 S
atom 4.9834855118098922 2.7968120676415791 2.7754159220912671 S
atom -0.0575996269872108 7.8378972064386874 2.7754159220912671 S
atom 4.9508615723989795 7.1825210010127938 2.2228420317930144 S
atom -0.0187519293158896 2.1112605752846996 7.7828871627506953 S
atom 4.9835355082722215 2.8523976067266874 7.1591288057467173 S
atom -0.0575496305248863 7.8934827455237961 7.1591288057467173 S
atom 4.9511114408788561 7.0811239454794386 7.7828871627506953 S
atom 0.2834077502129793 -0.1829380716783925 9.9772857080565576 Ba
atom 5.1884123261743369 -0.3190186345141617 9.9772857080565576 Ba
atom 0.1473271873772101 4.7220665042829504 9.9772857080565576 Ba
atom 5.2532711204077174 4.7869252985163522 9.9772857080565576 Ba
atom -0.2839289537808161 0.1815337698692218 14.9793902385768156 Ba
atom 4.8239404846267027 0.2483180694796322 14.9793902385768156 Ba
atom -0.2171446541704042 5.2894032082767382 14.9793902385768156 Ba
atom 4.6859344164139323 5.1513971400639713 14.9793902385768156 Ba
atom 2.4897264415843297 2.4829447038367620 12.4653438931533458 Zr
atom 7.4923929208539288 2.4445260443092369 12.4653438931533458 Zr
atom 2.4513077820568077 7.4856111831063394 12.4653438931533458 Zr
atom 7.4595898117790957 7.4528080740314939 12.4653438931533458 Zr
atom 2.4840502432481131 2.4851149801743007 17.4786053603679932 Zr
atom 7.4902226445163853 2.4502022426454699 17.4786053603679932 Zr
atom 2.4491375057192619 7.4912873814425742 17.4786053603679932 Zr
atom 7.4539136134428423 7.4549783503690392 17.4786053603679932 Zr
atom 2.7495676239891091 2.8143291304381308 9.9680381303232934 S
atom 7.1610084942525436 2.1846848619044530 9.9680381303232934 S
atom 2.1199233554554313 7.2257700007015773 9.9680381303232934 S
atom 7.7194309941838597 7.7841925006328809 9.9680381303232934 S
atom 2.2179819792694433 2.1520830906735093 14.9765088607374715 S
atom 7.8232545340171686 2.7162705066241175 14.9765088607374715 S
atom 2.7821693952200661 7.7573556454212422 14.9765088607374715 S
atom 7.1878453494641832 7.1219464608682559 14.9765088607374715 S
atom 2.8875831697996506 -0.0206399927908044 12.1578990018616366 S
atom 7.1244545634255099 -0.0534783754373742 12.7978289782363230 S
atom 2.0833694246283967 4.9876067633597279 12.7978289782363230 S
atom 7.8574465399943971 4.9492233774039383 12.1578990018616366 S
atom 2.8863234027930096 -0.0191106774046054 17.8037306363183738 S
atom 7.1249950441929908 -0.0519653861295676 17.1601151269907710 S
atom 2.0839099053958678 4.9891197526675404 17.1601151269907710 S
atom 7.8561867729877575 4.9507526927901351 17.8037306363183738 S
atom -0.0149708915103776 2.1178910846962822 12.1578990018616366 S
atom 4.9877308613309372 2.8508830612651677 12.7978289782363230 S
atom -0.0533542774661742 7.8919682000622782 12.7978289782363230 S
atom 4.9548924786843722 7.0877544548910372 12.1578990018616366 S
atom -0.0165002068965765 2.1191508517029241 17.8037306363183738 S
atom 4.9862178720231336 2.8503425804976881 17.1601151269907710 S
atom -0.0548672667739807 7.8914277192947919 17.1601151269907710 S
atom 4.9533631632981825 7.0890142218976662 17.8037306363183738 S
atom 0.2848455066453638 -0.1816300971071315 19.9846876916681353 Ba
atom 5.1871043516030628 -0.3204563909465469 19.9846876916681353 Ba
atom 0.1460192128059494 4.7206287478505686 19.9846876916681353 Ba
atom 5.2547088768401133 4.7882332730876200 19.9846876916681353 Ba
atom -0.2839289537808161 0.1815337698692218 24.9899851447594230 Ba
atom 4.8239404846267027 0.2483180694796322 24.9899851447594230 Ba
atom -0.2171446541704042 5.2894032082767382 24.9899851447594230 Ba
atom 4.6859344164139323 5.1513971400639713 24.9899851447594230 Ba
atom 2.4840502432481131 2.4851149801743007 22.4907700229683627 Zr
atom 7.4902226445163853 2.4502022426454699 22.4907700229683627 Zr
atom 2.4491375057192619 7.4912873814425742 22.4907700229683627 Zr
atom 7.4539136134428423 7.4549783503690392 22.4907700229683627 Zr
atom 2.4897264415843297 2.4829447038367620 27.5040314901829674 Zr
atom 7.4923929208539288 2.4445260443092369 27.5040314901829674 Zr
atom 2.4513077820568077 7.4856111831063394 27.5040314901829674 Zr
atom 7.4595898117790957 7.4528080740314939 27.5040314901829674 Zr
atom 2.7529860395807004 2.8182010842235834 19.9846876916681353 S
atom 7.1571365404671079 2.1812664463128635 19.9846876916681353 S
atom 2.1160514016699796 7.2223515851099584 19.9846876916681353 S
atom 7.7228494097754572 7.7880644544183175 19.9846876916681353 S
atom 2.2179819792694433 2.1520830906735093 24.9928665225988169 S
atom 7.8232545340171686 2.7162705066241175 24.9928665225988169 S
atom 2.7821693952200661 7.7573556454212422 24.9928665225988169 S
atom 7.1878453494641832 7.1219464608682559 24.9928665225988169 S
atom 2.8863234027930096 -0.0191106774046054 22.1656447470179536 S
atom 7.1249950441929908 -0.0519653861295676 22.8092602563455280 S
atom 2.0839099053958678 4.9891197526675404 22.8092602563455280 S
atom 7.8561867729877575 4.9507526927901351 22.1656447470179536 S
atom 2.8875831697996506 -0.0206399927908044 27.8114763814746588 S
atom 7.1244545634255099 -0.0534783754373742 27.1715464051000097 S
atom 2.0833694246283967 4.9876067633597279 27.1715464051000097 S
atom 7.8574465399943971 4.9492233774039383 27.8114763814746588 S
atom -0.0165002068965765 2.1191508517029241 22.1656447470179536 S
atom 4.9862178720231336 2.8503425804976881 22.8092602563455280 S
atom -0.0548672667739807 7.8914277192947919 22.8092602563455280 S
atom 4.9533631632981825 7.0890142218976662 22.1656447470179536 S
atom -0.0149708915103776 2.1178910846962822 27.8114763814746588 S
atom 4.9877308613309372 2.8508830612651677 27.1715464051000097 S
atom -0.0533542774661741 7.8919682000622782 27.1715464051000097 S
atom 4.9548924786843722 7.0877544548910372 27.8114763814746588 S
atom 0.2834077502129793 -0.1829380716783925 29.9920896752797823 Ba
atom 5.1884123261743369 -0.3190186345141617 29.9920896752797823 Ba
atom 0.1473271873772102 4.7220665042829504 29.9920896752797823 Ba
atom 5.2532711204077174 4.7869252985163522 29.9920896752797823 Ba
atom -0.2672558117863379 0.1902935894159361 34.9646169179509059 Ba
atom 4.8151806650799855 0.2316449274851549 34.9646169179509059 Ba
atom -0.2259044737171179 5.2727300662822554 34.9646169179509059 Ba
atom 4.7026075584084319 5.1601569596106787 34.9646169179509059 Ba
atom 2.4744831859938525 2.4903601354154401 32.5200531228234624 Zr
atom 7.4849774892752388 2.4597692998997052 32.5200531228234624 Zr
atom 2.4438923504781309 7.5008544386968259 32.5200531228234624 Zr
atom 7.4443465561886040 7.4602235056101831 32.5200531228234624 Zr
atom 2.5012390059130536 2.4764136037837461 37.5735592785032750 Zr
atom 7.4989240209069408 2.4330134799805241 37.5735592785032750 Zr
atom 2.4578388821098347 7.4740986187776421 37.5735592785032750 Zr
atom 7.4711023761077975 7.4462769739784971 37.5735592785032750 Zr
atom 2.7495676239891091 2.8143291304381308 30.0013372530130518 S
atom 7.1610084942525436 2.1846848619044530 30.0013372530130518 S
atom 2.1199233554554313 7.2257700007015773 30.0013372530130518 S
atom 7.7194309941838597 7.7841925006328809 30.0013372530130518 S
atom 2.2321493834647010 2.1801185884264638 35.0130289690246670 S
atom 7.7952190362642284 2.7021031024288726 35.0130289690246670 S
atom 2.7541338974670997 7.7431882412259840 35.0130289690246670 S
atom 7.2020127536594511 7.1499819586212130 35.0130289690246670 S
atom 2.8942136792112256 -0.0168589549852924 32.1864882205855807 S
atom 7.1229400179639919 -0.0492830223786620 32.8102465775895880 S
atom 2.0818548791668738 4.9918021164184490 32.8102465775895880 S
atom 7.8640770494059895 4.9530044152094561 32.1864882205855807 S
atom 2.7928166236778940 -0.0166090865054156 37.7465333515432491 S
atom 7.1785255570491042 -0.0492330259163374 37.1939594612451145 S
atom 2.1374404182519831 4.9918521128807791 37.1939594612451145 S
atom 7.7626799938726290 4.9532542836893345 37.7465333515432491 S
atom -0.0187519293158896 2.1112605752846996 32.1864882205855807 S
atom 4.9835355082722215 2.8523976067266874 32.8102465775895880 S
atom -0.0575496305248864 7.8934827455237961 32.8102465775895880 S
atom 4.9511114408788561 7.0811239454794386 32.1864882205855807 S
atom -0.0190017977957663 2.2126576308180388 37.7465333515432491 S
atom 4.9834855118098922 2.7968120676415791 37.1939594612451145 S
atom -0.0575996269872108 7.8378972064386874 37.1939594612451145 S
atom 4.9508615723989795 7.1825210010127938 37.7465333515432491 S
atom 0.1366181652330106 -0.1715431943009627 39.7573682731858540 Ba
atom 5.1770174487968985 -0.1722290495341936 39.7573682731858540 Ba
atom 0.1359323099997803 4.8688560892629216 39.7573682731858540 Ba
atom 5.1064815354277533 4.7983201758937808 39.7573682731858540 Ba
atom 2.6596893797618346 2.7370020925157319 40.0803632451761302 S
atom 7.2383355321749505 2.2745631061317417 40.0803632451761302 S
atom 2.1972503933778342 7.3156482449288358 40.0803632451761302 S
atom 7.6295527499565825 7.7068654627104678 40.0803632451761302 S
atom 2.6215275849363047 2.3134485709360537 43.1790684733773418 Ba
atom 7.6618890537546154 2.3127249009572743 43.1790684733773418 Ba
atom 2.6208039149575133 7.3538100397543911 43.1790684733773418 Ba
atom 7.5913909551310397 7.2833119411308029 43.1790684733773418 Ba
atom 2.2175862919716209 2.6753723071086717 47.9718168270172569 Ba
atom 7.2999653175820054 2.7166661939219385 47.9718168270172569 Ba
atom 2.2588801787848909 7.7577513327190477 47.9718168270172569 Ba
atom 7.1874496621663750 7.6452356773034218 47.9718168270172569 Ba
atom 4.9861011307573904 4.9614326520780381 45.3628767784726392 Zr
atom 9.9837683428073785 4.9180147253309290 45.3628767784726392 Zr
atom 4.9426832040102848 9.9590998641280457 45.3628767784726392 Zr
atom 9.9559645009521400 9.9312960222727540 45.3628767784726392 Zr
atom 4.9593018979058021 4.9754250146255385 50.4163578636612471 Zr
atom 9.9697759802599073 4.9448139581825039 50.4163578636612471 Zr
atom 4.9286908414627613 9.9858990969796029 50.4163578636612471 Zr
atom 9.9291652681005473 9.9452883848202926 50.4163578636612471 Zr
atom 5.1445802383193300 5.2219679041618488 42.8560775296640202 S
atom 9.7232330907235962 4.7595356177689769 42.8560775296640202 S
atom 4.6821479519264733 9.8006207565661008 42.8560775296640202 S
atom 10.1144436085140939 10.1918312743565753 42.8560775296640202 S
atom 4.7170002263882100 4.6651386955803460 47.9233915111168969 S
atom 10.2800622993050546 5.1871156297000942 47.9233915111168969 S
atom 5.2389771605079662 10.2282007684972047 47.9233915111168969 S
atom 9.6868635965829597 9.6350020657751152 47.9233915111168969 S
atom 5.2776969845106798 2.4684034846840244 45.1898987069206299 S
atom 9.6633218118736810 2.4357733538284636 45.7425088395135120 S
atom 4.6222366730765767 7.4768584926255626 45.7425088395135120 S
atom 10.2475603547054153 7.4382668548787771 45.1898987069206299 S
atom 5.3789993772802678 2.4682049374047432 50.7499148079499633 S
atom 9.6077559741803551 2.4357802063463674 50.1261538592110796 S
atom 4.5666708353832437 7.4768653451434872 50.1261538592110796 S
atom 10.3488627474750228 7.4380683075994725 50.7499148079499633 S
atom 2.4658490012095462 4.6976406401800199 45.1898987069206299 S
atom 7.4683425022598513 5.2818791830117400 45.7425088395135120 S
atom 2.4272573634627328 10.3229643218088629 45.7425088395135120 S
atom 7.4357123714042963 9.6675040103747794 45.1898987069206299 S
atom 2.4660475484888220 4.5963382474104124 50.7499148079499633 S
atom 7.4683356497419382 5.3374450207050588 50.1261538592110796 S
atom 2.4272505109448241 10.3785301595021853 50.1261538592110796 S
atom 7.4359109186835646 9.5662016176051647 50.7499148079499633 S
atom 2.7681971417289777 2.3021692947193975 52.9443060789232547 Ba
atom 7.6731683299712721 2.1660553441645893 52.9443060789232547 Ba
atom 2.6320831911741616 7.2071404829617203 52.9443060789232547 Ba
atom 7.7380605119237194 7.2720326649141418 52.9443060789232547 Ba
atom 2.2008120570839864 2.6666634831626879 57.9464332096109445 Ba
atom 7.3086741415280061 2.7334404288095655 57.9464332096109445 Ba
atom 2.2675890027308743 7.7745255676066813 57.9464332096109445 Ba
atom 7.1706754272787387 7.6365268533574406 57.9464332096109445 Ba
atom 4.9744589052566930 4.9680793643994408 55.4323656269293963 Zr
atom 9.9771216304859891 4.9296569508316148 55.4323656269293963 Zr
atom 4.9360364916888591 9.9707420896287218 55.4323656269293963 Zr
atom 9.9443222754514213 9.9379427345942020 55.4323656269293963 Zr
atom 4.9687550675954055 4.9702511634921942 60.4456450578787781 Zr
atom 9.9749498313932676 4.9353607884929138 60.4456450578787781 Zr
atom 4.9338646925961340 9.9764459272900154 60.4456450578787781 Zr
atom 9.9386184377901632 9.9401145336869199 60.4456450578787781 Zr
atom 5.2343593002653233 5.2994466889874747 52.9350639996079479 S
atom 9.6457543058979631 4.6697565558229810 52.9350639996079479 S
atom 4.6046691671008384 9.7108416946200844 52.9350639996079479 S
atom 10.2042226704600498 10.2693100591822102 52.9350639996079479 S
atom 4.7027343258230294 4.6372141892943635 57.9435387240650783 S
atom 10.3079868055910691 5.2013815302652828 57.9435387240650783 S
atom 5.2669016667939390 10.2424666690624004 57.9435387240650783 S
atom 9.6725976960177622 9.6070775594891291 57.9435387240650783 S
atom 5.3723071205119881 2.4644798098209857 55.1248934670531057 S
atom 9.6092252856816209 2.4316429497580780 55.7648768628596656 S
atom 4.5681401468845184 7.4727280885551943 55.7648768628596656 S
atom 10.3421704907067564 7.4343431800157296 55.1248934670531057 S
atom 5.3711073353371770 2.4660223856502723 60.7707447541124210 S
atom 9.6096904951781319 2.4331657542711720 60.1271677653819339 S
atom 4.5686053563810036 7.4742508930682856 60.1271677653819339 S
atom 10.3409707055318876 7.4358857558450184 60.7707447541124210 S
atom 2.4697726760725716 4.6030305041787063 55.1248934670531057 S
atom 7.4724729063302338 5.3359757092037974 55.7648768628596656 S
atom 2.4313877675331161 10.3770608480009301 55.7648768628596656 S
atom 7.4396360462673190 9.5728938743734453 55.1248934670531057 S
atom 2.4682301002432960 4.6042302893535298 60.7707447541124210 S
atom 7.4709501018171514 5.3355104997073077 60.1271677653819339 S
atom 2.4298649630200302 10.3765956385043907 60.1271677653819339 S
atom 7.4380934704380435 9.5740936595482822 60.7707447541124210 S
atom 2.7695590100797571 2.3034978211922281 62.9517662287546855 Ba
atom 7.6718398034984610 2.1646934758138161 62.9517662287546855 Ba
atom 2.6307546647013460 7.2057786146109235 62.9517662287546855 Ba
atom 7.7394223802745099 7.2733611913869858 62.9517662287546855 Ba
atom 2.2008120570839864 2.6666634831626879 67.9570992478982845 Ba
atom 7.3086741415280061 2.7334404288095655 67.9570992478982845 Ba
atom 2.2675890027308743 7.7745255676066813 67.9570992478982845 Ba
atom 7.1706754272787387 7.6365268533574406 67.9570992478982845 Ba
atom 4.9687550675954055 4.9702511634921942 65.4578873996305504 Zr
atom 9.9749498313932676 4.9353607884929138 65.4578873996305504 Zr
atom 4.9338646925961340 9.9764459272900154 65.4578873996305504 Zr
atom 9.9386184377901632 9.9401145336869199 65.4578873996305504 Zr
atom 4.9744589052566912 4.9680793643994408 70.4711668305800742 Zr
atom 9.9771216304859891 4.9296569508316148 70.4711668305800742 Zr
atom 4.9360364916888591 9.9707420896287218 70.4711668305800742 Zr
atom 9.9443222754514213 9.9379427345942020 70.4711668305800742 Zr
atom 5.2376866104243405 5.3032497098432509 62.9517662287546855 S
atom 9.6419512850421469 4.6664292456639753 62.9517662287546855 S
atom 4.6008661462450711 9.7075143844611009 62.9517662287546855 S
atom 10.2075499806190795 10.2731130800380033 62.9517662287546855 S
atom 4.7027343258230294 4.6372141892943635 67.9599937334443922 S
atom 10.3079868055910691 5.2013815302652828 67.9599937334443922 S
atom 5.2669016667939390 10.2424666690624004 67.9599937334443922 S
atom 9.6725976960177622 9.6070775594891291 67.9599937334443922 S
atom 5.3711073353371770 2.4660223856502723 65.1327877033969855 S
atom 9.6096904951781319 2.4331657542711720 65.7763646921274443 S
atom 4.5686053563810036 7.4742508930682856 65.7763646921274443 S
atom 10.3409707055318876 7.4358857558450184 65.1327877033969855 S
atom 5.3723071205119881 2.4644798098209857 70.7786389904562014 S
atom 9.6092252856816209 2.4316429497580780 70.1386555946495776 S
atom 4.5681401468845184 7.4727280885551943 70.1386555946495776 S
atom 10.3421704907067564 7.4343431800157296 70.7786389904562014 S
atom 2.4682301002432960 4.6042302893535298 65.1327877033969855 S
atom 7.4709501018171514 5.3355104997073077 65.7763646921274443 S
atom 2.4298649630200302 10.3765956385043907 65.7763646921274443 S
atom 7.4380934704380435 9.5740936595482822 65.1327877033969855 S
atom 2.4697726760725716 4.6030305041787063 70.7786389904562014 S
atom 7.4724729063302338 5.3359757092037974 70.1386555946495776 S
atom 2.4313877675331161 10.3770608480009301 70.1386555946495776 S
atom 7.4396360462673190 9.5728938743734453 70.7786389904562014 S
atom 2.7681971417289777 2.3021692947193975 72.9592263785861235 Ba
atom 7.6731683299712721 2.1660553441645893 72.9592263785861235 Ba
atom 2.6320831911741616 7.2071404829617203 72.9592263785861235 Ba
atom 7.7380605119237194 7.2720326649141418 72.9592263785861235 Ba
atom 2.2175862919716209 2.6753723071086717 77.9317156304922207 Ba
atom 7.2999653175820054 2.7166661939219385 77.9317156304922207 Ba
atom 2.2588801787848909 7.7577513327190477 77.9317156304922207 Ba
atom 7.1874496621663750 7.6452356773034218 77.9317156304922207 Ba
atom 4.9593018979058021 4.9754250146255385 75.4871745938481240 Zr
atom 9.9697759802599073 4.9448139581825039 75.4871745938481240 Zr
atom 4.9286908414627613 9.9858990969796029 75.4871745938481240 Zr
atom 9.9291652681005473 9.9452883848202926 75.4871745938481240 Zr
atom 4.9861011307573904 4.9614326520780381 80.5406556790370587 Zr
atom 9.9837683428073785 4.9180147253309290 80.5406556790370587 Zr
atom 4.9426832040102848 9.9590998641280457 80.5406556790370587 Zr
atom 9.9559645009521400 9.9312960222727540 80.5406556790370587 Zr
atom 5.2343593002653233 5.2994466889874747 72.9684684579012952 S
atom 9.6457543058979631 4.6697565558229810 72.9684684579012952 S
atom 4.6046691671008384 9.7108416946200844 72.9684684579012952 S
atom 10.2042226704600498 10.2693100591822102 72.9684684579012952 S
atom 4.7170002263882100 4.6651386955803460 77.9801409463923818 S
atom 10.2800622993050546 5.1871156297000942 77.9801409463923818 S
atom 5.2389771605079662 10.2282007684972047 77.9801409463923818 S
atom 9.6868635965829597 9.6350020657751152 77.9801409463923818 S
atom 5.3789993772802678 2.4682049374047432 75.1536176495595640 S
atom 9.6077559741803551 2.4357802063463674 75.7773785982983128 S
atom 4.5666708353832437 7.4768653451434872 75.7773785982983128 S
atom 10.3488627474750228 7.4380683075994725 75.1536176495595640 S
atom 5.2776969845106798 2.4684034846840244 80.7136337505885990 S
atom 9.6633218118736810 2.4357733538284636 80.1610236179958520 S
atom 4.6222366730765767 7.4768584926255626 80.1610236179958520 S
atom 10.2475603547054153 7.4382668548787771 80.7136337505885990 S
atom 2.4660475484888220 4.5963382474104124 75.1536176495595640 S
atom 7.4683356497419382 5.3374450207050588 75.7773785982983128 S
atom 2.4272505109448241 10.3785301595021853 75.7773785982983128 S
atom 7.4359109186835646 9.5662016176051647 75.1536176495595640 S
atom 2.4658490012095462 4.6976406401800199 80.7136337505885990 S
atom 7.4683425022598513 5.2818791830117400 80.1610236179958520 S
atom 2.4272573634627328 10.3229643218088629 80.1610236179958520 S
atom 7.4357123714042963 9.6675040103747794 80.7136337505885990 S
atom 2.6215275849363047 2.3134485709360537 82.7244639841318019 Ba
atom 7.6618890537546154 2.3127249009572743 82.7244639841318019 Ba
atom 2.6208039149575133 7.3538100397543911 82.7244639841318019 Ba
atom 7.5913909551310397 7.2833119411308029 82.7244639841318019 Ba
atom 5.1445802383193300 5.2219679041618488 83.0474549278449956 S
atom 9.7232330907235962 4.7595356177689769 83.0474549278449956 S
atom 4.6821479519264733 9.8006207565661008 83.0474549278449956 S
atom 10.1144436085140939 10.1918312743565753 83.0474549278449956 S
