#=======================================================
# FHI-aims file: sym_relax/sym_relax_RP_8_Rx0Rz_0Ry0.in
# Created using the Atomic Simulation Environment (ASE)
# Mon Mar 17 16:12:55 2025
#=======================================================
lattice_vector 9.9741474416661653 0.0000000000000000 0.0109776545711645 
lattice_vector 0.0000000000000000 10.0855053073511201 -0.0000000000000000 
lattice_vector 0.0945488125008812 -0.0000000000000001 85.6960659602121950 
atom -0.1965320171950320 -0.0000000000000000 0.1173627447623315 Ba
atom 5.0631974675922482 0.0000000000000000 0.1210179612034240 Ba
atom 0.0761237467591763 5.0427526536755565 0.1155291339178413 Ba
atom 4.7905417036380360 5.0427526536755565 0.1228515720479138 Ba
atom -0.0937236788085451 -0.0000000000000000 4.8152967415868355 Ba
atom 4.8359064646013401 -0.0000000000000000 4.7864197538023561 Ba
atom -0.1511672562317369 5.0427526536755565 4.7809309265167732 Ba
atom 4.8933500420245544 5.0427526536755565 4.8207855688724148 Ba
atom 2.4360108407777954 2.5093154054749829 2.1908620055094841 Zr
atom 7.4230845616108709 2.5334372482005749 2.1963508327950696 Zr
atom 2.4360108407777958 7.5761899018761305 2.1908620055094850 Zr
atom 7.4230845616108709 7.5520680591505505 2.1963508327950687 Zr
atom 2.4594807123554991 2.5060511106041194 7.2722756073929524 Zr
atom 7.4465544331885747 2.5367015430714388 7.2777644346785442 Zr
atom 2.4594807123554991 7.5794541967469966 7.2722756073929524 Zr
atom 7.4465544331885729 7.5488037642796728 7.2777644346785442 Zr
atom 2.4467201310081030 2.7406868987975477 -0.2969325417845361 S
atom 7.4337938518411972 2.3020657548780199 -0.2914437144989542 S
atom 2.4467201310081039 7.3448184085535733 -0.2969325417845364 S
atom 7.4337938518411972 7.7834395524731033 -0.2914437144989542 S
atom 2.4585868957712003 2.2394561623036129 4.7733404654170588 S
atom 7.4456606166042674 2.8032964913719445 4.7788292927026594 S
atom 2.4585868957712003 7.8460491450475063 4.7733404654170606 S
atom 7.4456606166042674 7.2822088159791782 4.7788292927026612 S
atom 2.4052319713902639 -0.0000000000000000 2.0318606033145139 S
atom 7.4534911538946487 -0.0000000000000000 2.5526663338215969 S
atom 2.4664174330615749 5.0427526536755565 2.5471775065360136 S
atom 7.3923056922233608 5.0427526536755565 2.0373494306000910 S
atom 2.9342442035774066 -0.0000000000000000 7.5123077818612103 S
atom 7.0285485711093454 -0.0000000000000000 7.0709832514147015 S
atom 2.0414748502762450 5.0427526536755565 7.0654944241291204 S
atom 7.9213179244104976 5.0427526536755565 7.5177966091467896 S
atom -0.0538265451381924 2.5601073421012535 2.3133720504538910 S
atom 4.9332471756948815 2.4826453115743057 2.3188608777394779 S
atom -0.0538265451381924 7.5253979652498639 2.3133720504538919 S
atom 4.9332471756948815 7.6028599957768144 2.3188608777394761 S
atom -0.0276900598744580 2.0544363159924934 7.2958698229300101 S
atom 4.9593836609586335 2.9883163376830630 7.3013586502155983 S
atom -0.0276900598744580 8.0310689913586391 7.2958698229300083 S
atom 4.9593836609586335 7.0971889696680650 7.3013586502155992 S
atom -0.0610462170114636 -0.0000000000000000 9.8112005547679928 Ba
atom 5.0808669215884823 -0.0000000000000000 9.8337832149292002 Ba
atom 0.0937932007553881 5.0427526536755565 9.8282943876436271 Ba
atom 4.9260275038216204 5.0427526536755565 9.8166893820535854 Ba
atom 0.0910770741960416 -0.0000000000000000 14.8743834315045476 Ba
atom 4.9404183147720762 -0.0000000000000000 14.8703293659093951 Ba
atom -0.0466554060609975 5.0427526536755565 14.8648405386238327 Ba
atom 5.0781507950291118 5.0427526536755565 14.8798722587901100 Ba
atom 2.5029217458886213 2.5243748307075933 12.3324133897243389 Zr
atom 7.4899954667216964 2.5183778229679716 12.3379022170099351 Zr
atom 2.5029217458886213 7.5611304766435445 12.3324133897243371 Zr
atom 7.4899954667216964 7.5671274843831506 12.3379022170099351 Zr
atom 2.5122346613632565 2.5207646207533934 17.3987268474535846 Zr
atom 7.4993083821963404 2.5219880329221658 17.4042156747391950 Zr
atom 2.5122346613632565 7.5647406865977302 17.3987268474535846 Zr
atom 7.4993083821963404 7.5635172744289507 17.4042156747391950 Zr
atom 2.4771815307719316 2.7310483258897613 9.8139221913436820 S
atom 7.4642552516050023 2.3117043277858049 9.8194110186292587 S
atom 2.4771815307719316 7.3544569814613716 9.8139221913436820 S
atom 7.4642552516050023 7.7738009795653191 9.8194110186292587 S
atom 2.4995821708714616 2.3608304278124872 14.8709913488009189 S
atom 7.4866558917045412 2.6819222258630719 14.8764801760864973 S
atom 2.4995821708714616 7.7246748795386297 14.8709913488009118 S
atom 7.4866558917045412 7.4035830814880468 14.8764801760864973 S
atom 2.0417931989419529 -0.0000000000000000 12.1994564590326995 S
atom 7.9565644185966660 -0.0000000000000000 12.5006460105998816 S
atom 2.9694906977635926 5.0427526536755565 12.4951571833143191 S
atom 7.0288669197750178 5.0427526536755565 12.2049452863182921 S
atom 2.9855185430338063 -0.0000000000000000 17.5257456459096908 S
atom 7.0268477273336138 -0.0000000000000000 17.2851359922552668 S
atom 2.0397740065005387 5.0427526536755565 17.2796471649696421 S
atom 7.9725922638668800 5.0427526536755565 17.5312344731952976 S
atom 0.0042788264109468 3.0061789182054781 12.3454180920779297 S
atom 4.9913525472440261 2.0365737354700792 12.3509069193635099 S
atom 0.0042788264109468 7.0793263891456446 12.3454180920779315 S
atom 4.9913525472440261 8.0489315718810470 12.3509069193635064 S
atom 0.0170642094270130 2.0284338906588517 17.3994718086945817 S
atom 5.0041379302600708 3.0143187630167025 17.4049606359802063 S
atom 0.0170642094270130 8.0570714166922723 17.3994718086945888 S
atom 5.0041379302600708 7.0711865443344086 17.4049606359801921 S
atom -0.0431572395012117 -0.0000000000000000 19.9244088671322750 Ba
atom 5.0742071521951573 -0.0000000000000000 19.9397152904845285 Ba
atom 0.0871334313620860 5.0427526536755565 19.9342264631989465 Ba
atom 4.9439164813318799 5.0427526536755565 19.9298976944178570 Ba
atom 0.0906315979218711 -0.0000000000000000 24.9937947917074119 Ba
atom 4.9399728384979129 -0.0000000000000000 24.9897407261122915 Ba
atom -0.0471008823351664 5.0427526536755565 24.9842518988266917 Ba
atom 5.0777053187549468 5.0427526536755565 24.9992836189929726 Ba
atom 2.5188152513306945 2.5207646207533951 22.4653973101631479 Zr
atom 7.5058889721637669 2.5219880329221649 22.4708861374487370 Zr
atom 2.5188152513306945 7.5647406865977285 22.4653973101631479 Zr
atom 7.5058889721637669 7.5635172744289489 22.4708861374487370 Zr
atom 2.5281281668053448 2.5243748307075924 27.5317107678924238 Zr
atom 7.5152018876384172 2.5183778229679707 27.5371995951780093 Zr
atom 2.5281281668053448 7.5611304766435410 27.5317107678924238 Zr
atom 7.5152018876384172 7.5671274843831489 27.5371995951780093 Zr
atom 2.5155249563469781 2.6694196134476718 19.9320620788083751 S
atom 7.5025986771800497 2.3733330402278847 19.9375509060939500 S
atom 2.5155249563469781 7.4160856939034465 19.9320620788083751 S
atom 7.5025986771800497 7.7121722671232353 19.9375509060939500 S
atom 2.5314677418224938 2.3608304278124863 24.9931328088158615 S
atom 7.5185414626555760 2.6819222258630711 24.9986216361014684 S
atom 2.5314677418224938 7.7246748795386297 24.9931328088158615 S
atom 7.5185414626555760 7.4035830814880468 24.9986216361014684 S
atom 2.0455313696601478 -0.0000000000000000 22.3383785117070843 S
atom 7.9783496270265024 -0.0000000000000000 22.5899658199327078 S
atom 2.9912759061934118 5.0427526536755565 22.5844769926471187 S
atom 7.0326050904932274 5.0427526536755565 22.3438673389927018 S
atom 2.9892567137519981 -0.0000000000000000 27.6646676985841076 S
atom 7.0486329357634450 -0.0000000000000000 27.3744558015880912 S
atom 2.0615592149303623 5.0427526536755565 27.3689669743024560 S
atom 7.9763304345850772 5.0427526536755565 27.6701565258697073 S
atom 0.0269119824338612 3.0143187630167025 22.4591635216366186 S
atom 5.0139857032669335 2.0284338906588490 22.4646523489221863 S
atom 0.0269119824338612 7.0711865443344060 22.4591635216366043 S
atom 5.0139857032669335 8.0570714166922688 22.4646523489221934 S
atom 0.0396973654499274 2.0365737354700792 27.5132172382533042 S
atom 5.0267710862830013 3.0061789182054772 27.5187060655388862 S
atom 0.0396973654499274 8.0489315718810470 27.5132172382533042 S
atom 5.0267710862830013 7.0793263891456482 27.5187060655388791 S
atom -0.0498170088945139 -0.0000000000000000 30.0303409426875483 Ba
atom 5.0920961297053955 -0.0000000000000000 30.0529236028488107 Ba
atom 0.1050224088723378 5.0427526536755565 30.0474347755632252 Ba
atom 4.9372567119385682 5.0427526536755565 30.0358297699731445 Ba
atom 0.1951434480926111 -0.0000000000000000 35.0777044038143728 Ba
atom 5.1247735915025041 -0.0000000000000000 35.0488274160301003 Ba
atom 0.1376998706694195 5.0427526536755565 35.0433385887444828 Ba
atom 5.1822171689256953 5.0427526536755565 35.0831932311000045 Ba
atom 2.5715692003384549 2.5060511106041194 32.5918485502238298 Zr
atom 7.5586429211715283 2.5367015430714370 32.5973373775094686 Zr
atom 2.5715692003384549 7.5794541967469931 32.5918485502238298 Zr
atom 7.5586429211715283 7.5488037642796746 32.5973373775094686 Zr
atom 2.5950390719161556 2.5093154054749820 37.6732621521073625 Zr
atom 7.5821127927492391 2.5334372482005731 37.6787509793929090 Zr
atom 2.5950390719161556 7.5761899018761323 37.6732621521073625 Zr
atom 7.5821127927492391 7.5520680591505487 37.6787509793929090 Zr
atom 2.5538683819220172 2.7310483258897613 30.0502019662731215 S
atom 7.5409421027550989 2.3117043277858049 30.0556907935586963 S
atom 2.5538683819220172 7.3544569814613734 30.0502019662731215 S
atom 7.5409421027550989 7.7738009795653191 30.0556907935586963 S
atom 2.5724630169227525 2.2394561623036120 35.0907836921996719 S
atom 7.5595367377558338 2.8032964913719463 35.0962725194853249 S
atom 2.5724630169227525 7.8460491450475063 35.0907836921996719 S
atom 7.5595367377558338 7.2822088159791765 35.0962725194853249 S
atom 2.0968057091165506 -0.0000000000000000 32.3518163757556110 S
atom 7.9766487832508002 -0.0000000000000000 32.8041185607732970 S
atom 2.9895750624177078 5.0427526536755565 32.7986297334876582 S
atom 7.0838794299496097 5.0427526536755565 32.3573052030411503 S
atom 2.6258179413036853 -0.0000000000000000 37.8322635543023225 S
atom 7.5517062004654658 -0.0000000000000000 37.3224354783663870 S
atom 2.5646324796323752 5.0427526536755565 37.3169466510808334 S
atom 7.6128916621367644 5.0427526536755565 37.8377523815878547 S
atom 0.0716662517353324 2.9883163376830630 32.5627655074011599 S
atom 5.0587399725684072 2.0544363159924930 32.5682543346867277 S
atom 0.0716662517353324 7.0971889696680623 32.5627655074011599 S
atom 5.0587399725684072 8.0310689913586391 32.5682543346867277 S
atom 0.0978027369990666 2.4826453115743066 37.5452632798773180 S
atom 5.0848764578321406 2.5601073421012517 37.5507521071628716 S
atom 0.0978027369990666 7.6028599957768126 37.5452632798773180 S
atom 5.0848764578321406 7.5253979652498639 37.5507521071628716 S
atom -0.0321475548983021 -0.0000000000000001 39.7431061964133079 Ba
atom 5.2275819298889878 -0.0000000000000000 39.7467614128544042 Ba
atom 0.2405082090559062 5.0427526536755565 39.7412725855687938 Ba
atom 4.9549261659347827 5.0427526536755565 39.7485950236989396 Ba
atom 2.5843297816858430 2.7406868987975472 40.1610566994013212 S
atom 7.5714035025189164 2.3020657548780199 40.1665455266868605 S
atom 2.5843297816858422 7.3448184085535697 40.1610566994013212 S
atom 7.5714035025189164 7.7834395524730997 40.1665455266868605 S
atom 2.5843720986860750 2.6787081556881471 43.2697487451124019 Ba
atom 7.5714458195191456 2.3640444979874187 43.2752375723980478 Ba
atom 2.5843720986860750 7.4067971516629898 43.2697487451124090 Ba
atom 7.5714458195191456 7.7214608093636938 43.2752375723980620 Ba
atom 2.5792458352414442 2.5018114679527987 47.9556289662641575 Ba
atom 7.5663195560745109 2.5409411857227586 47.9611177935496968 Ba
atom 2.5792458352414442 7.5836938393983271 47.9556289662641717 Ba
atom 7.5663195560745109 7.5445641216283645 47.9611177935496968 Ba
atom 5.0937304536074945 5.0427526536755565 45.3422427033974458 Zr
atom 10.0446268736980642 5.0427526536755565 45.3472466792931002 Zr
atom 5.0575531528649966 10.0855053073511129 45.3417578520074827 Zr
atom 10.0808041744405692 10.0855053073511129 45.3477315306829993 Zr
atom 5.0710295392164237 5.0427526536755565 50.3640265367817008 Zr
atom 10.0562276789367413 5.0427526536755565 50.3693078675172359 Zr
atom 5.0691539581036489 10.0855053073511129 50.3638190402316752 Zr
atom 10.0581032600494940 10.0855053073511129 50.3695153640673681 Zr
atom 4.7884203760891566 5.0427526536755565 42.8535827271629088 S
atom 10.3550842441808619 5.0427526536755565 42.8592839547275091 S
atom 5.3680105233477606 10.0855053073511129 42.8537951274418987 S
atom 9.7754940969222073 10.0855053073511129 42.8590715544485050 S
atom 5.5407748533058863 5.0427526536755565 47.8875235614158044 S
atom 9.5920161430051305 5.0427526536755565 47.8918773733696241 S
atom 4.6049424221720567 10.0855053073511129 47.8863885460840422 S
atom 10.5278485741390000 10.0855053073511129 47.8930123887013863 S
atom 5.0755652854970617 2.5213702544110848 45.4726939078221548 S
atom 10.0626390063301621 2.5213823992644779 45.4781827351077652 S
atom 5.0755652854970617 7.5641350529400428 45.4726939078221406 S
atom 10.0626390063301621 7.5641229080866452 45.4781827351077652 S
atom 5.0701001947910740 2.5213804955882515 50.3794425254468194 S
atom 10.0571739156241815 2.5213721580873050 50.3849313527322877 S
atom 5.0701001947910740 7.5641248117628663 50.3794425254467910 S
atom 10.0571739156241815 7.5641331492638173 50.3849313527322735 S
atom 2.5816073646418296 5.0427526536755565 45.7966783340533823 S
atom 7.5695258604083753 5.0427526536755565 45.0201746025181251 S
atom 2.5824521395753157 10.0855053073511129 45.0146857752325644 S
atom 7.5686810854749069 10.0855053073511129 45.8021671613389998 S
atom 2.5771140456253483 5.0427526536755565 49.8805450590912329 S
atom 7.5630940721188225 5.0427526536755565 50.8621893077243001 S
atom 2.5760203512857389 10.0855053073511129 50.8567004804387750 S
atom 7.5641877664584376 10.0855053073511129 49.8860338863767723 S
atom 2.5737627046035909 2.5235757264658272 52.8679153867588667 Ba
atom 7.5608364254366638 2.5191769272097293 52.8734042140444416 Ba
atom 2.5737627046035900 7.5619295808852893 52.8679153867588667 Ba
atom 7.5608364254366638 7.5663283801413970 52.8734042140444416 Ba
atom 2.5682955385333983 2.5186987005573500 57.8211979434068226 Ba
atom 7.5553692593664774 2.5240539531182065 57.8266867706925112 Ba
atom 2.5682955385333983 7.5668066067937669 57.8211979434068652 Ba
atom 7.5553692593664774 7.5614513542329078 57.8266867706924970 Ba
atom 5.0629665077899704 5.0427526536755565 55.3326220789342713 Zr
atom 10.0532861648095437 5.0427526536755565 55.3380119331303462 Zr
atom 5.0662124439764407 10.0855053073511129 55.3325231058448495 Zr
atom 10.0500402286230504 10.0855053073511129 55.3381109062198320 Zr
atom 5.0593581457460797 5.0427526536755565 60.2996795714470650 Zr
atom 10.0459058238056311 5.0427526536755565 60.3051061165273552 Zr
atom 5.0588321029725476 10.0855053073511129 60.2996172892418301 Zr
atom 10.0464318665791552 10.0855053073511129 60.3051683987326967 Zr
atom 4.5602234384268057 5.0427526536755565 52.8534657983401672 S
atom 10.5615028628538283 5.0427526536755565 52.8600212106529526 S
atom 5.5744291420207670 10.0855053073511129 52.8545323833673422 S
atom 9.5472971592599052 10.0855053073511129 52.8589546256257350 S
atom 5.5695887743684258 5.0427526536755565 57.8186255302583234 S
atom 9.5411816570660246 5.0427526536755565 57.8229671864470660 S
atom 4.5541079362329580 10.0855053073511129 57.8174783591614982 S
atom 10.5566624952015307 10.0855053073511129 57.8241143575439267 S
atom 5.0645641746065513 2.5213796832970563 55.3393823147324611 S
atom 10.0516378954396437 2.5213729703784931 55.3448711420180501 S
atom 5.0645641746065513 7.5641256240540660 55.3393823147324611 S
atom 10.0516378954396437 7.5641323369726230 55.3448711420180643 S
atom 5.0591036801843607 2.5213764874644147 60.3008467151295449 S
atom 10.0461774010174505 2.5213761662111427 60.3063355424151979 S
atom 5.0591036801843607 7.5641288198867063 60.3008467151295449 S
atom 10.0461774010174487 7.5641291411399774 60.3063355424151837 S
atom 2.5704824514111078 5.0427526536755565 55.8366750877987172 S
atom 7.5586538511115817 5.0427526536755565 54.8441005127947818 S
atom 2.5715801302785208 10.0855053073511129 54.8386116855091856 S
atom 7.5575561722442011 10.0855053073511129 55.8421639150843774 S
atom 2.5661115209265284 5.0427526536755565 59.7988211671844780 S
atom 7.5520841181034717 5.0427526536755565 60.8041586252539901 S
atom 2.5650103972703979 10.0855053073511129 60.7986697979685360 S
atom 7.5531852417596106 10.0855053073511129 59.8043099944700458 S
atom 2.5627993625974153 2.5234537130364210 62.7800950589144122 Ba
atom 7.5498730834304890 2.5192989406391435 62.7855838862000297 Ba
atom 2.5627993625974153 7.5620515943147053 62.7800950589144122 Ba
atom 7.5498730834304890 7.5662063667119899 62.7855838862000297 Ba
atom 2.5573031866614260 2.5186987005573500 67.7389921744222363 Ba
atom 7.5443769074945211 2.5240539531182082 67.7444810017077543 Ba
atom 2.5573031866614278 7.5668066067937660 67.7389921744222363 Ba
atom 7.5443769074945211 7.5614513542329078 67.7444810017077543 Ba
atom 5.0538403430553753 5.0427526536755565 65.2660616558724769 Zr
atom 10.0403880211149232 5.0427526536755565 65.2714882009530015 Zr
atom 5.0533143002818379 10.0855053073511129 65.2659993736676114 Zr
atom 10.0409140638884384 10.0855053073511129 65.2715504831579949 Zr
atom 5.0464600020514734 5.0427526536755565 70.2331558392696138 Zr
atom 10.0367796590710192 5.0427526536755565 70.2385456934659231 Zr
atom 5.0497059382379490 10.0855053073511129 70.2330568661801919 Zr
atom 10.0335337228845365 10.0855053073511129 70.2386446665553166 Zr
atom 4.5481824518731768 5.0427526536755565 62.7822886487454497 S
atom 10.5515637149878252 5.0427526536755565 62.7888791236546524 S
atom 5.5644899941547319 10.0855053073511129 62.7833902963690207 S
atom 9.5352561727062550 10.0855053073511129 62.7877774760310174 S
atom 5.5585645097949516 5.0427526536755565 67.7482005859532137 S
atom 9.5301573924925442 5.0427526536755565 67.7525422421419421 S
atom 4.5430836716594794 10.0855053073511129 67.7470534148561541 S
atom 10.5456382306280432 10.0855053073511129 67.7536894132387744 S
atom 5.0535687658435595 2.5213761662111418 65.2648322299848758 S
atom 10.0406424866766297 2.5213764874644156 65.2703210572705927 S
atom 5.0535687658435595 7.5641291411399774 65.2648322299848758 S
atom 10.0406424866766297 7.5641288198867080 65.2703210572705927 S
atom 5.0481082714213628 2.5213729703784939 70.2262966303819667 S
atom 10.0351819922544170 2.5213796832970572 70.2317854576675273 S
atom 5.0481082714213628 7.5641323369726212 70.2262966303819667 S
atom 10.0351819922544170 7.5641256240540651 70.2317854576675558 S
atom 2.5594872042683021 5.0427526536755565 65.7613689506443677 S
atom 7.5476620487575250 5.0427526536755565 64.7670091471460978 S
atom 2.5605883279244366 10.0855053073511129 64.7615203198604661 S
atom 7.5465609251013772 10.0855053073511129 65.7668577779299852 S
atom 2.5551162737837290 5.0427526536755565 69.7235150300302422 S
atom 7.5410923157494025 5.0427526536755565 70.7270672596053487 S
atom 2.5540185949163146 10.0855053073511129 70.7215784323199301 S
atom 7.5421899946167885 10.0855053073511129 69.7290038573157034 S
atom 2.5518360205912365 2.5235757264658272 72.6922747310699719 Ba
atom 7.5389097414243285 2.5191769272097311 72.6977635583556037 Ba
atom 2.5518360205912365 7.5619295808852911 72.6922747310699719 Ba
atom 7.5389097414243285 7.5663283801413970 72.6977635583555752 Ba
atom 2.5463528899533898 2.5018114679527987 77.6045611515647096 Ba
atom 7.5334266107864840 2.5409411857227608 77.6100499788503981 Ba
atom 2.5463528899533907 7.5836938393983253 77.6045611515647096 Ba
atom 7.5334266107864840 7.5445641216283637 77.6100499788504266 Ba
atom 5.0435184879242696 5.0427526536755565 75.2018599048827951 Zr
atom 10.0287166276445472 5.0427526536755565 75.2071412356183515 Zr
atom 5.0416429068114752 10.0855053073511129 75.2016524083328335 Zr
atom 10.0305922087573212 10.0855053073511129 75.2073487321683842 Zr
atom 5.0551192931629281 5.0427526536755565 80.2239210931069806 Zr
atom 10.0060157132534826 5.0427526536755565 80.2289250690024573 Zr
atom 5.0189419924204186 10.0855053073511129 80.2234362417169535 Zr
atom 10.0421930139960001 10.0855053073511129 80.2294099203924702 Zr
atom 4.5382433040071426 5.0427526536755565 72.7111465617471282 S
atom 10.5395227284341804 5.0427526536755565 72.7177019740596506 S
atom 5.5524490076011030 10.0855053073511129 72.7122131467739479 S
atom 9.5253170248402110 10.0855053073511129 72.7166353890329447 S
atom 5.5077300238558449 5.0427526536755565 77.6792903990305916 S
atom 9.5589713135550713 5.0427526536755565 77.6836442109843262 S
atom 4.5718975927220091 10.0855053073511129 77.6781553836987939 S
atom 10.4948037446889231 10.0855053073511129 77.6847792263161381 S
atom 5.0425722512368356 2.5213721580873059 75.1862364196680772 S
atom 10.0296459720699271 2.5213804955882533 75.1917252469535526 S
atom 5.0425722512368356 7.5641331492638226 75.1862364196680488 S
atom 10.0296459720699236 7.5641248117628681 75.1917252469535526 S
atom 5.0371071605308515 2.5213823992644770 80.0929850372922800 S
atom 10.0241808813639377 2.5213702544110839 80.0984738645780254 S
atom 5.0371071605308515 7.5641229080866434 80.0929850372922800 S
atom 10.0241808813639413 7.5641350529400428 80.0984738645780538 S
atom 2.5484846795694844 5.0427526536755565 75.6796450587377763 S
atom 7.5366520947421778 5.0427526536755565 74.7089784646759369 S
atom 2.5495783739091014 10.0855053073511129 74.7034896373902200 S
atom 7.5355584004025635 10.0855053073511129 75.6851338860232374 S
atom 2.5439913605529978 5.0427526536755565 79.7635117837755558 S
atom 7.5302203064526090 5.0427526536755565 80.5509931698821191 S
atom 2.5431465856195192 10.0855053073511129 80.5455043425966437 S
atom 7.5310650813860960 10.0855053073511129 79.7690006110611023 S
atom 2.5412266265087555 2.6787081556881480 82.2904413727167423 Ba
atom 7.5283003473418422 2.3640444979874178 82.2959302000022177 Ba
atom 2.5412266265087555 7.4067971516629916 82.2904413727167281 Ba
atom 7.5283003473418422 7.7214608093636974 82.2959302000021893 Ba
atom 4.7446619226801410 5.0427526536755565 82.7118838176724296 S
atom 10.3113257907718552 5.0427526536755565 82.7175850452372714 S
atom 5.3242520699387788 10.0855053073511129 82.7120962179516539 S
atom 9.7317356435132147 10.0855053073511129 82.7173726449580613 S
