#=======================================================
# FHI-aims file: sym_relax/sym_relax_RP_6_RxRyMz_RxRy0.in
# Created using the Atomic Simulation Environment (ASE)
# Fri Mar 14 11:10:11 2025
#=======================================================
lattice_vector 10.0154421035183177 -0.0618489679020674 0.0000000000000000 
lattice_vector -0.0618489679020671 10.0154421035183301 0.0000000000000000 
lattice_vector 0.0000000000000000 0.0000000000000000 65.8604399973736889 
atom 0.1278645945213255 -0.1700280882313538 0.2156129070087546 Ba
atom 5.1777491399905280 -0.1587890784723602 0.2156129070087547 Ba
atom 0.1391036042803196 4.8798564572378522 0.2156129070087547 Ba
atom 5.1046611623294629 4.8067684795767782 0.2156129070087546 Ba
atom -0.2621640377209552 0.1884383581317089 5.0013241958271326 Ba
atom 4.8192826936274615 0.2312395537699216 5.0013241958271326 Ba
atom -0.2193628420827428 5.2698850894801259 5.0013241958271326 Ba
atom 4.7146325300871679 5.1652349259398438 5.0013241958271326 Ba
atom 2.5031204229388644 2.4803513372518569 2.3942727146037113 Zr
atom 7.5041662823154418 2.4427516609182347 2.3942727146037113 Zr
atom 2.4655207466052529 7.4813971966284312 2.3942727146037113 Zr
atom 7.4799169907469922 7.4571479050600020 2.3942727146037113 Zr
atom 2.4796762132534798 2.4927630875629578 7.4465642150668119 Zr
atom 7.4917545320043457 2.4661958706036198 7.4465642150668119 Zr
atom 2.4531089962941470 7.5048414063138349 7.4465642150668119 Zr
atom 7.4564727810616080 7.4695596553710963 7.4465642150668119 Zr
atom 2.6639524771540377 2.7424651099490949 -0.1117364415490543 S
atom 7.2420525096181985 2.2819196067030632 -0.1117364415490544 S
atom 2.2034069739080056 7.3205651424132610 -0.1117364415490543 S
atom 7.6407490449621669 7.7192616777572480 -0.1117364415490543 S
atom 2.2344030601917333 2.1813367987736942 4.9531857173279867 S
atom 7.8031808207935986 2.7114690236653725 4.9531857173279867 S
atom 2.7645352850834062 7.7501145593755671 4.9531857173279867 S
atom 7.2111996279998660 7.1581333665818381 4.9531857173279867 S
atom 2.7858676680286645 -0.0140185645179002 2.2204649180682998 S
atom 7.1907696237541776 -0.0417801008971509 2.7731696473937246 S
atom 2.1521240880439745 4.9968654348130555 2.7731696473937246 S
atom 7.7626642358367990 4.9627780032902455 2.2204649180682998 S
atom 2.8929399850405626 -0.0157336806714558 7.7779544551025985 S
atom 7.1307949906381713 -0.0431197911318046 7.1527696798209917 S
atom 2.0921494549279815 4.9955257445784014 7.1527696798209917 S
atom 7.8697365528486758 4.9610628871366842 7.7779544551025985 S
atom -0.0169059194331332 2.2218533837305032 2.2204649180682998 S
atom 4.9876521847542392 2.7937479958131251 2.7731696473937246 S
atom -0.0509933509559519 7.8323935315233371 2.7731696473937246 S
atom 4.9598906483750085 7.1986499515386448 2.2204649180682998 S
atom -0.0151908032795776 2.1147810667186064 7.7779544551025985 S
atom 4.9889918749889066 2.8537226289291127 7.1527696798209917 S
atom -0.0496536607212981 7.8923681646393167 7.1527696798209917 S
atom 4.9616057645285512 7.0915776345267538 7.7779544551025985 S
atom 0.2804675136834628 -0.1829138822460598 9.9711271749472417 Ba
atom 5.1906349340052227 -0.3113919976344975 9.9711271749472417 Ba
atom 0.1519893982950260 4.7272535380757077 9.9711271749472417 Ba
atom 5.2572640814916047 4.7938826855620729 9.9711271749472417 Ba
atom -0.2789300093648124 0.1805589823191172 14.9682818175849235 Ba
atom 4.8271620694400497 0.2480055254137782 14.9682818175849235 Ba
atom -0.2114834662701506 5.2866510611239974 14.9682818175849235 Ba
atom 4.6978665584433088 5.1573555501272494 14.9682818175849235 Ba
atom 2.4922755599693156 2.4862626370231746 12.4614617416200915 Zr
atom 7.4982549825441316 2.4535965238877910 12.4614617416200915 Zr
atom 2.4596094468339347 7.4922420595979942 12.4614617416200915 Zr
atom 7.4690721277774408 7.4630592048313087 12.4614617416200915 Zr
atom 2.4922755599693156 2.4862626370231746 17.4751018935497662 Zr
atom 7.4982549825441316 2.4535965238877910 17.4751018935497662 Zr
atom 2.4596094468339347 7.4922420595979942 17.4751018935497662 Zr
atom 7.4690721277774408 7.4630592048313087 17.4751018935497662 Zr
atom 2.7554205815932336 2.8189666590353437 9.9621892836863903 S
atom 7.1655509605319727 2.1904515022638695 9.9621892836863903 S
atom 2.1269054248217603 7.2290970379740775 9.9621892836863903 S
atom 7.7322171494013565 7.7957632268434818 9.9621892836863903 S
atom 2.2212960703931532 2.1540454770945474 14.9682818175849235 S
atom 7.8304721424727504 2.7245760134639538 14.9682818175849235 S
atom 2.7918266067625543 7.7632215491741761 14.9682818175849235 S
atom 7.1980926382012580 7.1308420449026926 14.9682818175849235 S
atom 2.8855773170328010 -0.0187034883654519 12.1485793004161113 S
atom 7.1320313805166045 -0.0465121144994720 12.7892361324660442 S
atom 2.0933858448063978 4.9921334212107311 12.7892361324660442 S
atom 7.8623738848409408 4.9580930794426825 12.1485793004161113 S
atom 2.8855773170328010 -0.0187034883654519 17.7879843347537161 S
atom 7.1320313805166045 -0.0465121144994720 17.1473275027037602 S
atom 2.0933858448063978 4.9921334212107311 17.1473275027037602 S
atom 7.8623738848409408 4.9580930794426825 17.7879843347537161 S
atom -0.0122209955855815 2.1221437347263685 12.1485793004161113 S
atom 4.9923841983565698 2.8524862390506995 12.7892361324660442 S
atom -0.0462613373536308 7.8911317747608978 12.7892361324660442 S
atom 4.9645755722225466 7.0989403025344897 12.1485793004161113 S
atom -0.0122209955855815 2.1221437347263685 17.7879843347537161 S
atom 4.9923841983565698 2.8524862390506995 17.1473275027037602 S
atom -0.0462613373536308 7.8911317747608978 17.1473275027037602 S
atom 4.9645755722225466 7.0989403025344897 17.7879843347537161 S
atom 0.2804675136834630 -0.1829138822460598 19.9654364602225556 Ba
atom 5.1906349340052227 -0.3113919976344977 19.9654364602225556 Ba
atom 0.1519893982950261 4.7272535380757077 19.9654364602225556 Ba
atom 5.2572640814916047 4.7938826855620729 19.9654364602225556 Ba
atom -0.2621640377209552 0.1884383581317089 24.9352394393427339 Ba
atom 4.8192826936274615 0.2312395537699216 24.9352394393427339 Ba
atom -0.2193628420827428 5.2698850894801259 24.9352394393427339 Ba
atom 4.7146325300871679 5.1652349259398438 24.9352394393427339 Ba
atom 2.4796762132534798 2.4927630875629578 22.4899994201030360 Zr
atom 7.4917545320043475 2.4661958706036198 22.4899994201030360 Zr
atom 2.4531089962941470 7.5048414063138349 22.4899994201030360 Zr
atom 7.4564727810616080 7.4695596553710963 22.4899994201030360 Zr
atom 2.5031204229388644 2.4803513372518569 27.5422909205661277 Zr
atom 7.5041662823154418 2.4427516609182347 27.5422909205661277 Zr
atom 2.4655207466052529 7.4813971966284312 27.5422909205661277 Zr
atom 7.4799169907469922 7.4571479050600020 27.5422909205661277 Zr
atom 2.7554205815932336 2.8189666590353437 19.9743743514834264 S
atom 7.1655509605319727 2.1904515022638695 19.9743743514834264 S
atom 2.1269054248217603 7.2290970379740775 19.9743743514834264 S
atom 7.7322171494013565 7.7957632268434818 19.9743743514834264 S
atom 2.2344030601917333 2.1813367987736942 24.9833779178418034 S
atom 7.8031808207935986 2.7114690236653725 24.9833779178418034 S
atom 2.7645352850834062 7.7501145593755671 24.9833779178418034 S
atom 7.2111996279998660 7.1581333665818381 24.9833779178418034 S
atom 2.8929399850405626 -0.0157336806714558 22.1586091800672591 S
atom 7.1307949906381713 -0.0431197911318046 22.7837939553488411 S
atom 2.0921494549279815 4.9955257445784014 22.7837939553488411 S
atom 7.8697365528486758 4.9610628871366842 22.1586091800672591 S
atom 2.7858676680286645 -0.0140185645179002 27.7160987171015094 S
atom 7.1907696237541776 -0.0417801008971509 27.1633939877761144 S
atom 2.1521240880439745 4.9968654348130555 27.1633939877761144 S
atom 7.7626642358367990 4.9627780032902455 27.7160987171015094 S
atom -0.0151908032795777 2.1147810667186064 22.1586091800672591 S
atom 4.9889918749889066 2.8537226289291127 22.7837939553488411 S
atom -0.0496536607212981 7.8923681646393167 22.7837939553488411 S
atom 4.9616057645285512 7.0915776345267538 22.1586091800672591 S
atom -0.0169059194331332 2.2218533837305032 27.7160987171015094 S
atom 4.9876521847542392 2.7937479958131251 27.1633939877761144 S
atom -0.0509933509559519 7.8323935315233371 27.1633939877761144 S
atom 4.9598906483750085 7.1986499515386448 27.7160987171015094 S
atom 0.1278645945213255 -0.1700280882313538 29.7209507281611067 Ba
atom 5.1777491399905280 -0.1587890784723602 29.7209507281611067 Ba
atom 0.1391036042803196 4.8798564572378513 29.7209507281611067 Ba
atom 5.1046611623294629 4.8067684795767782 29.7209507281611067 Ba
atom 2.6639524771540377 2.7424651099490949 30.0483000767188670 S
atom 7.2420525096181985 2.2819196067030632 30.0483000767188670 S
atom 2.2034069739080056 7.3205651424132610 30.0483000767188670 S
atom 7.6407490449621669 7.7192616777572480 30.0483000767188670 S
atom 2.6160488237966382 2.3185914311932065 33.1458500586020008 Ba
atom 7.6659261883740957 2.3298232600604623 33.1458500586020008 Ba
atom 2.6272806526638948 7.3684687957706680 33.1458500586020008 Ba
atom 7.5928453916047633 7.2953879990013464 33.1458500586020008 Ba
atom 2.2257560194266870 2.6772934828734094 37.9315727148651547 Ba
atom 7.3072241366938808 2.7201160644304099 37.9315727148651547 Ba
atom 2.2685786009836924 7.7587616001406046 37.9315727148651547 Ba
atom 7.2025525872348206 7.6540900506815550 37.9315727148651547 Ba
atom 4.9912091555554960 4.9690617996262363 35.3245134570665869 Zr
atom 9.9922523877492040 4.9314594961097411 35.3245134570665869 Zr
atom 4.9536068520389982 9.9701050318199460 35.3245134570665869 Zr
atom 9.9680057233636425 9.9458583674343508 35.3245134570665869 Zr
atom 4.9675500704696383 4.9816779879441251 40.3767878296773048 Zr
atom 9.9796361994312726 4.9551185811955865 40.3767878296773048 Zr
atom 4.9409906637210907 9.9937641169057798 40.3767878296773048 Zr
atom 9.9443466382777821 9.9584745557522805 40.3767878296773048 Zr
atom 5.1521081589017674 5.2311380967838046 32.8184996811373395 S
atom 9.7301760905916428 4.7705604927634750 32.8184996811373395 S
atom 4.6915305548814255 9.8092060284736711 32.8184996811373395 S
atom 10.1289047267099104 10.2079346645919440 32.8184996811373395 S
atom 4.7223231696175612 4.6701462366759401 37.8834078324557737 S
atom 10.2911679506995242 5.2003454820476884 37.8834078324557737 S
atom 5.2525224149893024 10.2389910177579058 37.8834078324557737 S
atom 9.6991197374256704 9.6469428044840697 37.8834078324557737 S
atom 5.2740081941562167 2.4747027801191872 35.1506412911070782 S
atom 9.6787629991254605 2.4469548227402416 35.7034821468860315 S
atom 4.6401174634152618 7.4856003584504380 35.7034821468860315 S
atom 10.2508047619643410 7.4514993479273173 35.1506412911070782 S
atom 5.3807549730491768 2.4731812878583432 40.7081885609063363 S
atom 9.6187495938080545 2.4457906902297148 40.0829735319376965 S
atom 4.5801040580978407 7.4844362259399171 40.0829735319376965 S
atom 10.3575515408573029 7.4499778556664715 40.7081885609063363 S
atom 2.4711693037379128 4.7105094254110949 35.1506412911070782 S
atom 7.4757138289249951 5.2825511882499958 35.7034821468860315 S
atom 2.4370682932147965 10.3211967239601812 35.7034821468860315 S
atom 7.4479658715460433 9.6873059932192174 35.1506412911070782 S
atom 2.4726907959987470 4.6037626465181312 40.7081885609063363 S
atom 7.4768779614355152 5.3425645935673938 40.0829735319376965 S
atom 2.4382324257253227 10.3812101292775747 40.0829735319376965 S
atom 7.4494873638068908 9.5805592143262768 40.7081885609063363 S
atom 2.7683025308761140 2.3060285031472154 42.9013338521311027 Ba
atom 7.6784891164200753 2.1775695529809900 42.9013338521311027 Ba
atom 2.6398435807098846 7.2162150886911780 42.9013338521311027 Ba
atom 7.7450990986842605 7.2828250709553570 42.9013338521311027 Ba
atom 2.2088910428792468 2.6695092482769187 47.8985018162717608 Ba
atom 7.3150083712903839 2.7369810409778559 47.8985018162717608 Ba
atom 2.2763628355801875 7.7756265766880395 47.8985018162717608 Ba
atom 7.1856876106873804 7.6463058160850599 47.8985018162717608 Ba
atom 4.9801242275558950 4.9752145227406093 45.3916881875069222 Zr
atom 9.9860996646348141 4.9425444241093306 45.3916881875069222 Zr
atom 4.9474541289246430 9.9811899598195239 45.3916881875069222 Zr
atom 9.9569207953640504 9.9520110905487496 45.3916881875069222 Zr
atom 4.9801242275558950 4.9752145227406093 50.4053154450366705 Zr
atom 9.9860996646348141 4.9425444241093306 50.4053154450366705 Zr
atom 4.9474541289246430 9.9811899598195239 50.4053154450366705 Zr
atom 9.9569207953640504 9.9520110905487496 50.4053154450366705 Zr
atom 5.2432739540424853 5.3079110088745258 42.8924177010248684 S
atom 9.6534031785009340 4.6793946976227616 42.8924177010248684 S
atom 4.6147576427907149 9.7180402333329550 42.8924177010248684 S
atom 10.2200705218506158 10.2847075766826688 42.8924177010248684 S
atom 4.7091391363737971 4.6430004283277437 47.8985018162717608 S
atom 10.3183137590476761 5.2135295152914383 47.8985018162717608 S
atom 5.2796682233374943 10.2521750510016378 47.8985018162717608 S
atom 9.6859357041819507 9.6197969961358769 47.8985018162717608 S
atom 5.3734292863681299 2.4702525005409917 45.0788011371967485 S
atom 9.6198648876140496 2.4424385900403589 45.7194582208264251 S
atom 4.5812193519038695 7.4810841257505638 45.7194582208264251 S
atom 10.3502258541762533 7.4470490683491226 45.0788011371967485 S
atom 5.3734292863681299 2.4702525005409917 50.7182024953466097 S
atom 9.6198648876140496 2.4424385900403589 50.0775454117171108 S
atom 4.5812193519038695 7.4810841257505638 50.0775454117171108 S
atom 10.3502258541762533 7.4470490683491226 50.7182024953466097 S
atom 2.4756195833161088 4.6110883331991799 45.0788011371967485 S
atom 7.4802300616248782 5.3414492997613747 45.7194582208264251 S
atom 2.4415845259146831 10.3800948354715832 45.7194582208264251 S
atom 7.4524161511242504 9.5878849010073157 45.0788011371967485 S
atom 2.4756195833161088 4.6110883331991799 50.7182024953466097 S
atom 7.4802300616248782 5.3414492997613747 50.0775454117171108 S
atom 2.4415845259146831 10.3800948354715832 50.0775454117171108 S
atom 7.4524161511242504 9.5878849010073157 50.7182024953466097 S
atom 2.7683025308761140 2.3060285031472154 52.8956697804123550 Ba
atom 7.6784891164200753 2.1775695529809900 52.8956697804123550 Ba
atom 2.6398435807098846 7.2162150886911780 52.8956697804123550 Ba
atom 7.7450990986842605 7.2828250709553570 52.8956697804123550 Ba
atom 2.2257560194266870 2.6772934828734094 57.8654309176783386 Ba
atom 7.3072241366938808 2.7201160644304099 57.8654309176783386 Ba
atom 2.2685786009836924 7.7587616001406046 57.8654309176783386 Ba
atom 7.2025525872348206 7.6540900506815550 57.8654309176783386 Ba
atom 4.9675500704696383 4.9816779879441251 55.4202158028661742 Zr
atom 9.9796361994312726 4.9551185811955865 55.4202158028661742 Zr
atom 4.9409906637210907 9.9937641169057798 55.4202158028661742 Zr
atom 9.9443466382777821 9.9584745557522805 55.4202158028661742 Zr
atom 4.9912091555554960 4.9690617996262363 60.4724901754768283 Zr
atom 9.9922523877492040 4.9314594961097411 60.4724901754768283 Zr
atom 4.9536068520389982 9.9701050318199460 60.4724901754768283 Zr
atom 9.9680057233636425 9.9458583674343508 60.4724901754768283 Zr
atom 5.2432739540424853 5.3079110088745258 52.9045859315186107 S
atom 9.6534031785009340 4.6793946976227616 52.9045859315186107 S
atom 4.6147576427907149 9.7180402333329550 52.9045859315186107 S
atom 10.2200705218506158 10.2847075766826688 52.9045859315186107 S
atom 4.7223231696175612 4.6701462366759401 57.9135958000876556 S
atom 10.2911679506995242 5.2003454820476884 57.9135958000876556 S
atom 5.2525224149893024 10.2389910177579058 57.9135958000876556 S
atom 9.6991197374256704 9.6469428044840697 57.9135958000876556 S
atom 5.3807549730491768 2.4731812878583432 55.0888150716371356 S
atom 9.6187495938080545 2.4457906902297148 55.7140301006058536 S
atom 4.5801040580978407 7.4844362259399171 55.7140301006058536 S
atom 10.3575515408573029 7.4499778556664715 55.0888150716371356 S
atom 5.2740081941562167 2.4747027801191872 60.6463623414364292 S
atom 9.6787629991254605 2.4469548227402416 60.0935214856575328 S
atom 4.6401174634152618 7.4856003584504380 60.0935214856575328 S
atom 10.2508047619643410 7.4514993479273173 60.6463623414364292 S
atom 2.4726907959987470 4.6037626465181312 55.0888150716371356 S
atom 7.4768779614355152 5.3425645935673938 55.7140301006058536 S
atom 2.4382324257253227 10.3812101292775747 55.7140301006058536 S
atom 7.4494873638068908 9.5805592143262768 55.0888150716371356 S
atom 2.4711693037379128 4.7105094254110949 60.6463623414364292 S
atom 7.4757138289249951 5.2825511882499958 60.0935214856575328 S
atom 2.4370682932147965 10.3211967239601812 60.0935214856575328 S
atom 7.4479658715460433 9.6873059932192174 60.6463623414364292 S
atom 2.6160488237966382 2.3185914311932065 62.6511535739414143 Ba
atom 7.6659261883740957 2.3298232600604623 62.6511535739414143 Ba
atom 2.6272806526638948 7.3684687957706680 62.6511535739414143 Ba
atom 7.5928453916047633 7.2953879990013464 62.6511535739414143 Ba
atom 5.1521081589017674 5.2311380967838046 62.9785039514060969 S
atom 9.7301760905916428 4.7705604927634750 62.9785039514060969 S
atom 4.6915305548814255 9.8092060284736711 62.9785039514060969 S
atom 10.1289047267099104 10.2079346645919440 62.9785039514060969 S
