#=======================================================
# FHI-aims file: sym_relax/sym_relax_RP_5_00Rz_00Rz.in
# Created using the Atomic Simulation Environment (ASE)
# Fri Mar 14 10:47:43 2025
#=======================================================
lattice_vector 9.9029703519376735 -0.0000000406602686 -0.0000000000000000 
lattice_vector -0.0000000406602686 9.9029703519376788 -0.0000000000000000 
lattice_vector -0.0000000000000000 -0.0000000000000000 56.9199213934499895 
atom 0.0000000000000000 -0.0000000000000000 0.1641103514322742 Ba
atom 4.9514851759688385 -0.0000000203301354 0.1641103514322742 Ba
atom -0.0000000203301354 4.9514851759688394 0.1641103514322742 Ba
atom 4.9514851556387063 4.9514851556387054 0.1641103514322742 Ba
atom -0.0000000000000000 -0.0000000000000000 5.0697944674375295 Ba
atom 4.9514851759688385 -0.0000000203301354 5.0697944674375295 Ba
atom -0.0000000203301354 4.9514851759688394 5.0697944674375295 Ba
atom 4.9514851556387063 4.9514851556387054 5.0697944674375295 Ba
atom 2.4757425778193531 2.4757425778193527 2.4423417226568245 Zr
atom 7.4272277537881983 2.4757425574892156 2.4423417226568245 Zr
atom 2.4757425574892200 7.4272277537881841 2.4423417226568245 Zr
atom 7.4272277334580510 7.4272277334580510 2.4423417226568245 Zr
atom 2.4757425778193531 2.4757425778193527 7.5848193936867405 Zr
atom 7.4272277537881983 2.4757425574892156 7.5848193936867405 Zr
atom 2.4757425574892200 7.4272277537881841 7.5848193936867405 Zr
atom 7.4272277334580510 7.4272277334580510 7.5848193936867405 Zr
atom 2.4757425778193531 2.4757425778193527 -0.1019413343785896 S
atom 7.4272277537881983 2.4757425574892156 -0.1019413343785895 S
atom 2.4757425574892200 7.4272277537881841 -0.1019413343785896 S
atom 7.4272277334580510 7.4272277334580510 -0.1019413343785896 S
atom 2.4757425778193531 2.4757425778193527 5.0439982067536127 S
atom 7.4272277537881983 2.4757425574892156 5.0439982067536127 S
atom 2.4757425574892200 7.4272277537881841 5.0439982067536127 S
atom 7.4272277334580510 7.4272277334580510 5.0439982067536127 S
atom 2.0478083144513257 0.0000025765346669 2.5340404913397032 S
atom 7.8551620374863527 -0.0000026171949376 2.5340404913397032 S
atom 2.9036768411873797 4.9514825791040336 2.5340404913397032 S
atom 6.9992934700900360 4.9514877321733639 2.5340404913397032 S
atom 3.0108883187348563 -0.0000000568682775 7.6008161149555020 S
atom 6.8920820332028176 0.0000000162080072 7.6008161149555020 S
atom 1.9405968369038458 4.9514852125069808 7.6008161149555020 S
atom 7.9623734743735648 4.9514850987704211 7.6008161149555020 S
atom -0.0000025968648022 2.9036768615175150 2.5340404913397032 S
atom 4.9514877525035095 2.0478082941211886 2.5340404913397032 S
atom 0.0000025562045311 6.9992934904201620 2.5340404913397032 S
atom 4.9514825587739022 7.8551620171562133 2.5340404913397032 S
atom 0.0000000365381421 1.9405968572339793 7.6008161149555020 S
atom 4.9514851191005596 3.0108882984047183 7.6008161149555020 S
atom -0.0000000771984124 7.9623734947036899 7.6008161149555020 S
atom 4.9514851921768512 6.8920820128726765 7.6008161149555020 S
atom -0.0000000000000000 -0.0000000000000000 10.1542505024902230 Ba
atom 4.9514851759688385 -0.0000000203301354 10.1542505024902230 Ba
atom -0.0000000203301354 4.9514851759688394 10.1542505024902230 Ba
atom 4.9514851556387063 4.9514851556387054 10.1542505024902230 Ba
atom -0.0000000000000000 -0.0000000000000000 15.2564286910142464 Ba
atom 4.9514851759688385 -0.0000000203301354 15.2564286910142464 Ba
atom -0.0000000203301354 4.9514851759688394 15.2564286910142464 Ba
atom 4.9514851556387063 4.9514851556387054 15.2564286910142464 Ba
atom 2.4757425778193531 2.4757425778193527 12.7053395967522356 Zr
atom 7.4272277537881983 2.4757425574892156 12.7053395967522356 Zr
atom 2.4757425574892200 7.4272277537881841 12.7053395967522356 Zr
atom 7.4272277334580510 7.4272277334580510 12.7053395967522356 Zr
atom 2.4757425778193531 2.4757425778193527 17.8258597998177528 Zr
atom 7.4272277537881983 2.4757425574892156 17.8258597998177528 Zr
atom 2.4757425574892200 7.4272277537881841 17.8258597998177528 Zr
atom 7.4272277334580510 7.4272277334580510 17.8258597998177528 Zr
atom 2.4757425778193531 2.4757425778193527 10.1513006711644937 S
atom 7.4272277537881983 2.4757425574892156 10.1513006711644937 S
atom 2.4757425574892200 7.4272277537881841 10.1513006711644937 S
atom 7.4272277334580510 7.4272277334580510 10.1513006711644937 S
atom 2.4757425778193531 2.4757425778193527 15.2593785223399845 S
atom 7.4272277537881983 2.4757425574892156 15.2593785223399845 S
atom 2.4757425574892200 7.4272277537881841 15.2593785223399845 S
atom 7.4272277334580510 7.4272277334580510 15.2593785223399845 S
atom 1.9418009348407865 -0.0000000177489093 12.7053395967522356 S
atom 7.9611694170968947 -0.0000000229113614 12.7053395967522356 S
atom 3.0096842207979129 4.9514851733876153 12.7053395967522356 S
atom 6.8932860904794939 4.9514851378897928 12.7053395967522356 S
atom 3.0108883187348563 -0.0000000568682775 17.8098630785489611 S
atom 6.8920820332028176 0.0000000162080072 17.8098630785489611 S
atom 1.9405968369038458 4.9514852125069808 17.8098630785489611 S
atom 7.9623734743735648 4.9514850987704211 17.8098630785489611 S
atom -0.0000000025812261 3.0096842411280527 12.7053395967522356 S
atom 4.9514851582199295 1.9418009145106494 12.7053395967522356 S
atom -0.0000000380790450 6.8932861108096235 12.7053395967522356 S
atom 4.9514851530574830 7.9611693967667545 12.7053395967522356 S
atom 0.0000000365381421 1.9405968572339793 17.8098630785489611 S
atom 4.9514851191005596 3.0108882984047183 17.8098630785489611 S
atom -0.0000000771984124 7.9623734947036899 17.8098630785489611 S
atom 4.9514851921768512 6.8920820128726765 17.8098630785489611 S
atom -0.0000000000000000 -0.0000000000000000 20.3408847260669496 Ba
atom 4.9514851759688385 -0.0000000203301354 20.3408847260669496 Ba
atom -0.0000000203301354 4.9514851759688394 20.3408847260669496 Ba
atom 4.9514851556387063 4.9514851556387054 20.3408847260669496 Ba
atom -0.0000000000000000 -0.0000000000000000 25.2465688420722074 Ba
atom 4.9514851759688385 -0.0000000203301354 25.2465688420722074 Ba
atom -0.0000000203301354 4.9514851759688394 25.2465688420722074 Ba
atom 4.9514851556387063 4.9514851556387054 25.2465688420722074 Ba
atom 2.4757425778193531 2.4757425778193527 22.9683374708476435 Zr
atom 7.4272277537881983 2.4757425574892156 22.9683374708476435 Zr
atom 2.4757425574892200 7.4272277537881841 22.9683374708476435 Zr
atom 7.4272277334580510 7.4272277334580510 22.9683374708476435 Zr
atom 2.4757425778193531 2.4757425778193527 20.3666809867508789 S
atom 7.4272277537881983 2.4757425574892156 20.3666809867508789 S
atom 2.4757425574892200 7.4272277537881841 20.3666809867508789 S
atom 7.4272277334580510 7.4272277334580510 20.3666809867508789 S
atom 2.4757425778193531 2.4757425778193527 25.5126205278830831 S
atom 7.4272277537881983 2.4757425574892156 25.5126205278830831 S
atom 2.4757425574892200 7.4272277537881841 25.5126205278830831 S
atom 7.4272277334580510 7.4272277334580510 25.5126205278830831 S
atom 2.0478083144513257 0.0000025765346669 22.8766387021647652 S
atom 7.8551620374863527 -0.0000026171949376 22.8766387021647652 S
atom 2.9036768411873797 4.9514825791040336 22.8766387021647652 S
atom 6.9992934700900360 4.9514877321733639 22.8766387021647652 S
atom -0.0000025968648022 2.9036768615175150 22.8766387021647652 S
atom 4.9514877525035095 2.0478082941211886 22.8766387021647652 S
atom 0.0000025562045311 6.9992934904201620 22.8766387021647652 S
atom 4.9514825587739022 7.8551620171562133 22.8766387021647652 S
atom 2.4757425778193531 2.4757425778193527 28.6240710481573011 Ba
atom 7.4272277537881983 2.4757425574892156 28.6240710481573011 Ba
atom 2.4757425574892200 7.4272277537881841 28.6240710481573011 Ba
atom 7.4272277334580510 7.4272277334580510 28.6240710481573011 Ba
atom 2.4757425778193531 2.4757425778193527 33.5297551641625091 Ba
atom 7.4272277537881983 2.4757425574892156 33.5297551641625091 Ba
atom 2.4757425574892200 7.4272277537881841 33.5297551641625091 Ba
atom 7.4272277334580510 7.4272277334580510 33.5297551641625091 Ba
atom 4.9514851556387063 4.9514851556387054 30.9023024193818436 Zr
atom 9.9029703316075555 4.9514851353085643 30.9023024193818436 Zr
atom 4.9514851353085669 9.9029703316075341 30.9023024193818436 Zr
atom 9.9029703112774126 9.9029703112774108 30.9023024193818436 Zr
atom 4.9514851556387063 4.9514851556387054 36.0447800904117415 Zr
atom 9.9029703316075555 4.9514851353085643 36.0447800904117415 Zr
atom 4.9514851353085669 9.9029703316075341 36.0447800904117415 Zr
atom 9.9029703112774126 9.9029703112774108 36.0447800904117415 Zr
atom 4.9514851556387063 4.9514851556387054 28.3580193623464112 S
atom 9.9029703316075555 4.9514851353085643 28.3580193623464112 S
atom 4.9514851353085669 9.9029703316075341 28.3580193623464112 S
atom 9.9029703112774126 9.9029703112774108 28.3580193623464112 S
atom 4.9514851556387063 4.9514851556387054 33.5039589034785763 S
atom 9.9029703316075555 4.9514851353085643 33.5039589034785763 S
atom 4.9514851353085669 9.9029703316075341 33.5039589034785763 S
atom 9.9029703112774126 9.9029703112774108 33.5039589034785763 S
atom 4.5235508922706789 2.4757451543540179 30.9940011880647255 S
atom 10.3309046153057018 2.4757399606244124 30.9940011880647255 S
atom 5.3794194190067293 7.4272251569233854 30.9940011880647255 S
atom 9.4750360479093825 7.4272303099927202 30.9940011880647255 S
atom 5.4866308965542103 2.4757425209510724 36.0607768116805190 S
atom 9.3678246110221668 2.4757425940273583 36.0607768116805190 S
atom 4.4163394147231942 7.4272277903263308 36.0607768116805190 S
atom 10.4381160521929175 7.4272276765897738 36.0607768116805190 S
atom 2.4757399809545517 5.3794194393368615 30.9940011880647255 S
atom 7.4272303303228586 4.5235508719405404 30.9940011880647255 S
atom 2.4757451340238839 9.4750360682395183 30.9940011880647255 S
atom 7.4272251365932505 10.3309045949755589 30.9940011880647255 S
atom 2.4757426143574945 4.4163394350533274 36.0607768116805190 S
atom 7.4272276969199122 5.4866308762240692 36.0607768116805190 S
atom 2.4757425006209379 10.4381160725230391 36.0607768116805190 S
atom 7.4272277699961968 9.3678245906920381 36.0607768116805190 S
atom 2.4757425778193531 2.4757425778193527 38.6142111992152479 Ba
atom 7.4272277537881983 2.4757425574892156 38.6142111992152479 Ba
atom 2.4757425574892200 7.4272277537881841 38.6142111992152479 Ba
atom 7.4272277334580510 7.4272277334580510 38.6142111992152479 Ba
atom 2.4757425778193531 2.4757425778193527 43.7163893877392837 Ba
atom 7.4272277537881983 2.4757425574892156 43.7163893877392837 Ba
atom 2.4757425574892200 7.4272277537881841 43.7163893877392837 Ba
atom 7.4272277334580510 7.4272277334580510 43.7163893877392837 Ba
atom 4.9514851556387063 4.9514851556387054 41.1653002934772729 Zr
atom 9.9029703316075555 4.9514851353085643 41.1653002934772729 Zr
atom 4.9514851353085669 9.9029703316075341 41.1653002934772729 Zr
atom 9.9029703112774126 9.9029703112774108 41.1653002934772729 Zr
atom 4.9514851556387063 4.9514851556387054 46.2858204965427475 Zr
atom 9.9029703316075555 4.9514851353085643 46.2858204965427475 Zr
atom 4.9514851353085669 9.9029703316075341 46.2858204965427475 Zr
atom 9.9029703112774126 9.9029703112774108 46.2858204965427475 Zr
atom 4.9514851556387063 4.9514851556387054 38.6112613678894903 S
atom 9.9029703316075555 4.9514851353085643 38.6112613678894903 S
atom 4.9514851353085669 9.9029703316075341 38.6112613678894903 S
atom 9.9029703112774126 9.9029703112774108 38.6112613678894903 S
atom 4.9514851556387063 4.9514851556387054 43.7193392190650130 S
atom 9.9029703316075555 4.9514851353085643 43.7193392190650130 S
atom 4.9514851353085669 9.9029703316075341 43.7193392190650130 S
atom 9.9029703112774126 9.9029703112774108 43.7193392190650130 S
atom 4.4175435126601439 2.4757425600704432 41.1653002934772729 S
atom 10.4369119949162474 2.4757425549079879 41.1653002934772729 S
atom 5.4854267986172678 7.4272277512069644 41.1653002934772729 S
atom 9.3690286682988351 7.4272277157091402 41.1653002934772729 S
atom 5.4866308965542103 2.4757425209510724 46.2698237752739487 S
atom 9.3678246110221668 2.4757425940273583 46.2698237752739487 S
atom 4.4163394147231942 7.4272277903263308 46.2698237752739487 S
atom 10.4381160521929175 7.4272276765897738 46.2698237752739487 S
atom 2.4757425752381241 5.4854268189474027 41.1653002934772729 S
atom 7.4272277360392822 4.4175434923300001 41.1653002934772729 S
atom 2.4757425397403083 9.3690286886289744 41.1653002934772729 S
atom 7.4272277308768331 10.4369119745861063 41.1653002934772729 S
atom 2.4757426143574945 4.4163394350533274 46.2698237752739487 S
atom 7.4272276969199122 5.4866308762240692 46.2698237752739487 S
atom 2.4757425006209379 10.4381160725230391 46.2698237752739487 S
atom 7.4272277699961968 9.3678245906920381 46.2698237752739487 S
atom 2.4757425778193531 2.4757425778193527 48.8008454227919728 Ba
atom 7.4272277537881983 2.4757425574892156 48.8008454227919728 Ba
atom 2.4757425574892200 7.4272277537881841 48.8008454227919728 Ba
atom 7.4272277334580510 7.4272277334580510 48.8008454227919728 Ba
atom 2.4757425778193531 2.4757425778193527 53.7065295387971418 Ba
atom 7.4272277537881983 2.4757425574892156 53.7065295387971418 Ba
atom 2.4757425574892200 7.4272277537881841 53.7065295387971418 Ba
atom 7.4272277334580510 7.4272277334580510 53.7065295387971418 Ba
atom 4.9514851556387063 4.9514851556387054 51.4282981675726774 Zr
atom 9.9029703316075555 4.9514851353085643 51.4282981675726774 Zr
atom 4.9514851353085669 9.9029703316075341 51.4282981675726774 Zr
atom 9.9029703112774126 9.9029703112774108 51.4282981675726774 Zr
atom 4.9514851556387063 4.9514851556387054 48.8266416834758985 S
atom 9.9029703316075555 4.9514851353085643 48.8266416834758985 S
atom 4.9514851353085669 9.9029703316075341 48.8266416834758985 S
atom 9.9029703112774126 9.9029703112774108 48.8266416834758985 S
atom 4.9514851556387063 4.9514851556387054 53.9725812246080707 S
atom 9.9029703316075555 4.9514851353085643 53.9725812246080707 S
atom 4.9514851353085669 9.9029703316075341 53.9725812246080707 S
atom 9.9029703112774126 9.9029703112774108 53.9725812246080707 S
atom 4.5235508922706789 2.4757451543540179 51.3365993988897600 S
atom 10.3309046153057018 2.4757399606244124 51.3365993988897600 S
atom 5.3794194190067293 7.4272251569233854 51.3365993988897600 S
atom 9.4750360479093825 7.4272303099927202 51.3365993988897600 S
atom 2.4757399809545517 5.3794194393368615 51.3365993988897600 S
atom 7.4272303303228586 4.5235508719405404 51.3365993988897600 S
atom 2.4757451340238839 9.4750360682395183 51.3365993988897600 S
atom 7.4272251365932505 10.3309045949755589 51.3365993988897600 S
