#=======================================================
# FHI-aims file: sym_relax/sym_relax_RP_7_Rx0Rz_0Ry0.in
# Created using the Atomic Simulation Environment (ASE)
# Mon Mar 17 15:49:06 2025
#=======================================================
lattice_vector 9.9947505255386488 -0.0000000000000000 0.0141299356333259 
lattice_vector -0.0000000000000000 10.0901706306898671 0.0000000000000000 
lattice_vector 0.1072226369522534 0.0000000000000001 75.4974138391868337 
atom -0.1900459618323284 0.0000000000000000 0.1513933934106919 Ba
atom 5.0691258421652821 -0.0000000000000000 0.1564772607317078 Ba
atom 0.0717505793959399 5.0450853153449318 0.1494122929150449 Ba
atom 4.8073293009369999 5.0450853153449318 0.1584583612273547 Ba
atom -0.1106291873148437 0.0000000000000000 4.8400655508409987 Ba
atom 4.8325863436943184 0.0000000000000000 4.8134499727086064 Ba
atom -0.1647889190750104 5.0450853153449318 4.8063850048919452 Ba
atom 4.8867460754544947 5.0450853153449318 4.8471305186576563 Ba
atom 2.4339681837116034 2.5186382469681394 2.2132614857566728 Zr
atom 7.4313434464809269 2.5264470683767866 2.2203264535733367 Zr
atom 2.4339681837116034 7.5715323837217134 2.2132614857566728 Zr
atom 7.4313434464809269 7.5637235623130614 2.2203264535733358 Zr
atom 2.4551593389789428 2.5056214685172096 7.2805981015765369 Zr
atom 7.4525346017482574 2.5394638468277186 7.2876630693932025 Zr
atom 2.4551593389789428 7.5845491621726389 7.2805981015765386 Zr
atom 7.4525346017482574 7.5507067838621422 7.2876630693932025 Zr
atom 2.4424778863076879 2.8400457221447777 -0.2736994165140491 S
atom 7.4398531490770070 2.2050395932001523 -0.2666344486973864 S
atom 2.4424778863076870 7.2501249085450716 -0.2736994165140490 S
atom 7.4398531490770088 7.8851310374897041 -0.2666344486973863 S
atom 2.4527348549471211 2.1902547931186120 4.7860663151689682 S
atom 7.4501101177164646 2.8548305222263171 4.7931312829856223 S
atom 2.4527348549471211 7.8999158375712479 4.7860663151689700 S
atom 7.4501101177164646 7.2353401084635349 4.7931312829856223 S
atom 2.4384767804905239 0.0000000000000000 1.9959314735444962 S
atom 7.4212708924639621 0.0000000000000000 2.6458282685577510 S
atom 2.4238956296946288 5.0450853153449318 2.6387633007410920 S
atom 7.4358520432598612 5.0450853153449318 2.0029964413611618 S
atom 2.9007032076501718 0.0000000000000000 7.5642263589474981 S
atom 7.0712171582756813 0.0000000000000000 7.0414059474789825 S
atom 2.0738418955063547 5.0450853153449318 7.0343409796623266 S
atom 7.8980784704195042 5.0450853153449318 7.5712913267641646 S
atom -0.0623877966925775 2.5215454312765013 2.3321660003338587 S
atom 4.9349874660767536 2.5235398840684216 2.3392309681505212 S
atom -0.0623877966925775 7.5686251994133578 2.3321660003338587 S
atom 4.9349874660767536 7.5666307466214322 2.3392309681505212 S
atom -0.0353818273559985 2.0892489894552231 7.3003832282323549 S
atom 4.9619934354133308 2.9558363258897060 7.3074481960490161 S
atom -0.0353818273559985 8.0009216412346298 7.3003832282323531 S
atom 4.9619934354133308 7.1343343048001557 7.3074481960490143 S
atom -0.0692296168966436 0.0000000000000000 9.8059778830963822 Ba
atom 5.0843687396082284 0.0000000000000000 9.8436015165662489 Ba
atom 0.0869934768388877 5.0450853153449318 9.8365365487496170 Ba
atom 4.9281456458726893 5.0450853153449318 9.8130428509130319 Ba
atom 0.1009580530574337 0.0000000000000000 14.8659595133230393 Ba
atom 4.9436068087475844 0.0000000000000000 14.8620171382183219 Ba
atom -0.0537684540217475 5.0450853153449318 14.8549521704016456 Ba
atom 5.0983333158267756 5.0450853153449318 14.8730244811397299 Ba
atom 2.5086777928597002 2.5264824138183153 12.3298799468283757 Zr
atom 7.5060530556290361 2.5186029015266085 12.3369449146450219 Zr
atom 2.5086777928597002 7.5636882168715216 12.3298799468283757 Zr
atom 7.5060530556290361 7.5715677291632568 12.3369449146450219 Zr
atom 2.5233770543670904 2.5225426576724659 17.3878054074052883 Zr
atom 7.5207523171364281 2.5225426576724659 17.3948703752219487 Zr
atom 2.5233770543670904 7.5676279730173945 17.3878054074052883 Zr
atom 7.5207523171364281 7.5676279730173945 17.3948703752219487 Zr
atom 2.4803028754869665 2.7720398377098063 9.8151406924651639 S
atom 7.4776781382562971 2.2730454776351232 9.8222056602818402 S
atom 2.4803028754869665 7.3181307929800470 9.8151406924651639 S
atom 7.4776781382562971 7.8171251530547279 9.8222056602818402 S
atom 2.5105515118018915 2.3246135523226181 14.8621211326702838 S
atom 7.5079267745712386 2.7204717630223052 14.8691861004869637 S
atom 2.5105515118018906 7.7655570783672401 14.8621211326702802 S
atom 7.5079267745712377 7.3696988676675357 14.8691861004869637 S
atom 2.0644823549539773 0.0000000000000000 12.1593704911989118 S
atom 7.9589297889313366 0.0000000000000000 12.5301014937134259 S
atom 2.9615545261620175 5.0450853153449318 12.5230365258967602 S
atom 7.0618576177232999 5.0450853153449318 12.1664354590155828 S
atom 2.9815477536025985 0.0000000000000000 17.5470340685559165 S
atom 7.0625816179009311 0.0000000000000000 17.2356417140713916 S
atom 2.0652063551315987 5.0450853153449318 17.2285767462547028 S
atom 7.9789230163719234 5.0450853153449318 17.5540990363726053 S
atom 0.0055155436161980 2.9907476879347645 12.3411308484287581 S
atom 5.0028908063855253 2.0543376274101646 12.3481958162454273 S
atom 0.0055155436161980 7.0994229427550852 12.3411308484287616 S
atom 5.0028908063855253 8.0358330032797003 12.3481958162454273 S
atom 0.0246894229824266 2.0451216672230768 17.3842729234969511 S
atom 5.0220646857517552 2.9999636481218515 17.3913378913136256 S
atom 0.0246894229824266 8.0450489634667743 17.3842729234969511 S
atom 5.0220646857517552 7.0902069825680138 17.3913378913136256 S
atom -0.0515792070925802 0.0000000000000000 19.9025863336708291 Ba
atom 5.1005225627559305 0.0000000000000000 19.9206586444089488 Ba
atom 0.1031472999866007 5.0450853153449318 19.9135936765922956 Ba
atom 4.9457960556767491 5.0450853153449318 19.9096513014874752 Ba
atom 0.1186084628614973 0.0000000000000000 24.9625679638975377 Ba
atom 4.9597606318952945 0.0000000000000000 24.9390742660609668 Ba
atom -0.0376146308740335 5.0450853153449318 24.9320092982443207 Ba
atom 5.1159837256308336 5.0450853153449318 24.9696329317142158 Ba
atom 2.5380763158744868 2.5186029015266076 22.4457308679822205 Zr
atom 7.5354515786438308 2.5264824138183157 22.4527958357989093 Zr
atom 2.5380763158744868 7.5715677291632577 22.4457308679822205 Zr
atom 7.5354515786438308 7.5636882168715225 22.4527958357989093 Zr
atom 2.5915947697552499 2.5394638468277186 27.4950127132341038 Zr
atom 7.5889700325245935 2.5056214685172082 27.5020776810507286 Zr
atom 2.5915947697552499 7.5507067838621404 27.4950127132341038 Zr
atom 7.5889700325245926 7.5845491621726371 27.5020776810507286 Zr
atom 2.5362025969322910 2.7204717630223052 19.9134896821402769 S
atom 7.5335778597016088 2.3246135523226181 19.9205546499569621 S
atom 2.5362025969322910 7.3696988676675339 19.9134896821402698 S
atom 7.5335778597016088 7.7655570783672419 19.9205546499569692 S
atom 2.5664512332472187 2.2730454776351223 24.9604701223453986 S
atom 7.5638264960165591 2.7720398377098037 24.9675350901620590 S
atom 2.5664512332472187 7.8171251530547270 24.9604701223453986 S
atom 7.5638264960165591 7.3181307929800470 24.9675350901620554 S
atom 2.0851995825721725 0.0000000000000000 22.2525742889138556 S
atom 7.9796470165495537 0.0000000000000000 22.6233052914283164 S
atom 2.9822717537802159 5.0450853153449318 22.6162403236116951 S
atom 7.0825748453415089 5.0450853153449318 22.2596392567304662 S
atom 2.9729122132278332 0.0000000000000000 27.7412698351482661 S
atom 7.1434261638533343 0.0000000000000000 27.2184494236797505 S
atom 2.1460509010840099 5.0450853153449318 27.2113844558630937 S
atom 7.9702874759971856 5.0450853153449318 27.7483348029649406 S
atom 0.0438633023486551 2.9907476879347654 22.4274149985651370 S
atom 5.0412385651180012 2.0543376274101646 22.4344799663817902 S
atom 0.0438633023486551 7.0994229427550817 22.4274149985651370 S
atom 5.0412385651180012 8.0358330032797003 22.4344799663818009 S
atom 0.0847606733208524 2.0892489894552222 27.4681626187615535 S
atom 5.0821359360901868 2.9558363258897051 27.4752275865782138 S
atom 0.0847606733208524 8.0009216412346298 27.4681626187615535 S
atom 5.0821359360901868 7.1343343048001575 27.4752275865782138 S
atom 0.1600080332796974 0.0000000000000000 29.9284802961529159 Ba
atom 5.2115430278091992 0.0000000000000000 29.9692258099186546 Ba
atom 0.2141677650398635 5.0450853153449318 29.9621608421019801 Ba
atom 5.1573832960490371 5.0450853153449318 29.9355452639695621 Ba
atom 0.2394248077971821 0.0000000000000000 34.6171524535832233 Ba
atom 4.9750035293382329 0.0000000000000000 34.6261985218956312 Ba
atom -0.0223717334310866 5.0450853153449318 34.6191335540789282 Ba
atom 5.2368000705665008 5.0450853153449318 34.6242174213998410 Ba
atom 2.6127859250225862 2.5264470683767866 32.5623493290539088 Zr
atom 7.6101611877919293 2.5186382469681390 32.5694142968705762 Zr
atom 2.6127859250225862 7.5637235623130596 32.5623493290539088 Zr
atom 7.6101611877919293 7.5715323837217152 32.5694142968705762 Zr
atom 2.5940192537870654 2.8548305222263179 29.9895444996416529 S
atom 7.5913945165564041 2.1902547931186120 29.9966094674583275 S
atom 2.5940192537870654 7.2353401084635331 29.9895444996416529 S
atom 7.5913945165564041 7.8999158375712479 29.9966094674583275 S
atom 2.6042762224264995 2.2050395932001532 35.0493102313245970 S
atom 7.6016514851958377 2.8400457221447759 35.0563751991412715 S
atom 2.6042762224265004 7.8851310374897041 35.0493102313245970 S
atom 7.6016514851958377 7.2501249085450716 35.0563751991412715 S
atom 2.6228584790395568 0.0000000000000000 32.1368475140695935 S
atom 7.6056525910130022 0.0000000000000000 32.7867443090828274 S
atom 2.6082773282436662 5.0450853153449318 32.7796793412662026 S
atom 7.6202337418088861 5.0450853153449318 32.1439124818861615 S
atom 0.1117666426574308 2.5215454312765013 32.4363798466600883 S
atom 5.1091419054267675 2.5235398840684216 32.4434448144767345 S
atom 0.1117666426574308 7.5686251994133578 32.4363798466600883 S
atom 5.1091419054267675 7.5666307466214331 32.4434448144767345 S
atom 2.6010065318313411 2.6693264125534149 38.1287298397045049 Ba
atom 7.5983817946006562 2.3757589027915169 38.1357948075211723 Ba
atom 2.6010065318313411 7.4208442181364465 38.1287298397045049 Ba
atom 7.5983817946006562 7.7144117278983444 38.1357948075211723 Ba
atom 2.5942928987326725 2.5005635174754395 42.8071592756848318 Ba
atom 7.5916681615020121 2.5445217978694821 42.8142242435015490 Ba
atom 2.5942928987326725 7.5896071132144121 42.8071592756848318 Ba
atom 7.5916681615020121 7.5456488328203548 42.8142242435015490 Ba
atom 5.1081445170064681 5.0450853153449318 40.1911861930443166 Zr
atom 10.0827333147750302 5.0450853153449318 40.1990671862194446 Zr
atom 5.0853580520057164 10.0901706306898635 40.1920022184027204 Zr
atom 10.1055197797757650 10.0901706306898635 40.1982511608608917 Zr
atom 5.0908905790412664 5.0450853153449318 45.2092192598149083 Zr
atom 10.0857819554703685 5.0450853153449318 45.2166606459317464 Zr
atom 5.0884066927010219 10.0901706306898635 45.2095956781151145 Zr
atom 10.0882658418106068 10.0901706306898635 45.2162842276316042 Zr
atom 4.7554343668326284 5.0450853153449318 37.7021903645803391 S
atom 10.4423847619466112 5.0450853153449318 37.7111454113873350 S
atom 5.4450094991772735 10.0901706306898635 37.7040804435707670 S
atom 9.7528096296019733 10.0901706306898635 37.7092553323969426 S
atom 5.5669527063182516 5.0450853153449318 42.7347401788302435 S
atom 9.6166074755652193 5.0450853153449318 42.7406606855236362 S
atom 4.6192322127958825 10.0901706306898635 42.7335957177068835 S
atom 10.5643279690875840 10.0901706306898635 42.7418051466469180 S
atom 5.0965385748925804 2.5225740155385594 40.3207452609515400 S
atom 10.0939138376619191 2.5225112998063763 40.3278102287681932 S
atom 5.0965385748925804 7.5675966151512952 40.3207452609515400 S
atom 10.0939138376619191 7.5676593308834885 40.3278102287681932 S
atom 5.0896172065277385 2.5225312974666818 45.2239679325211341 S
atom 10.0869924692970674 2.5225540178782402 45.2310329003377660 S
atom 5.0896172065277403 7.5676393332231697 45.2239679325211341 S
atom 10.0869924692970674 7.5676166128116007 45.2310329003377518 S
atom 2.5974160571112623 5.0450853153449318 40.6730507825362011 S
atom 7.5958923411572181 5.0450853153449318 39.8614551716192409 S
atom 2.5985170783879026 10.0901706306898635 39.8543902038026374 S
atom 7.5947913198806036 10.0901706306898635 40.6801157503527833 S
atom 2.5915894403278217 5.0450853153449318 44.7306433556335961 S
atom 7.5876162993976557 5.0450853153449318 45.7072533706791617 S
atom 2.5902410366283237 10.0901706306898635 45.7001884028624943 S
atom 7.5889647030971625 10.0901706306898635 44.7377083234502564 S
atom 2.5874008418921712 2.5261378458749753 47.7126001779017557 Ba
atom 7.5847761046614970 2.5189474694699538 47.7196651457183521 Ba
atom 2.5874008418921721 7.5640327848148834 47.7126001779017699 Ba
atom 7.5847761046614970 7.5712231612198932 47.7196651457183378 Ba
atom 2.5804013963531207 2.5186936337211447 52.6609753202904187 Ba
atom 7.5777766591224491 2.5263916816237866 52.6680402881071785 Ba
atom 2.5804013963531207 7.5714769969687143 52.6609753202904116 Ba
atom 7.5777766591224491 7.5637789490660774 52.6680402881071856 Ba
atom 5.0810410754473398 5.0450853153449318 50.1753765598840644 Zr
atom 10.0814636107801938 5.0450853153449318 50.1825931240111274 Zr
atom 5.0840883480108552 10.0901706306898635 50.1755281561945097 Zr
atom 10.0784163382166270 10.0901706306898635 50.1824415277007319 Zr
atom 5.0756760042278914 5.0450853153449318 55.1400448109070638 Zr
atom 10.0730512669971990 5.0450853153449318 55.1471097787236744 Zr
atom 5.0756760042278914 10.0901706306898635 55.1400448109070638 Zr
atom 10.0730512669971990 10.0901706306898635 55.1471097787236744 Zr
atom 4.5783474312020962 5.0450853153449318 47.6974003473615227 S
atom 10.5912801396518930 5.0450853153449318 47.7060110674510511 S
atom 5.5939048768825366 10.0901706306898635 47.6989460996344192 S
atom 9.5757226939714535 10.0901706306898635 47.7044653151782256 S
atom 5.5875984573586548 5.0450853153449318 52.6598375174618027 S
atom 9.5679791268119612 5.0450853153449318 52.6655162683726559 S
atom 4.5706038640426545 10.0901706306898635 52.6584513005560240 S
atom 10.5849737201279961 10.0901706306898635 52.6669024852784133 S
atom 5.0825331942869862 2.5225417582701084 50.1818505417430103 S
atom 10.0799084570563249 2.5225435570748216 50.1889155095597417 S
atom 5.0825331942869862 7.5676288724197471 50.1818505417430103 S
atom 10.0799084570563249 7.5676270736150375 50.1889155095597417 S
atom 5.0756760042278914 2.5225360365815530 55.1400448109070638 S
atom 10.0730512669971990 2.5225492787633739 55.1471097787236744 S
atom 5.0756760042278914 7.5676345941083047 55.1400448109070638 S
atom 10.0730512669971990 7.5676213519264852 55.1471097787236744 S
atom 2.5831728799019378 5.0450853153449318 50.6747244036307549 S
atom 7.5819681323793588 5.0450853153449318 49.6913824604630392 S
atom 2.5845928696100318 10.0901706306898635 49.6843174926463931 S
atom 7.5805481426712626 10.0901706306898635 50.6817893714474224 S
atom 2.5776762082889246 5.0450853153449318 54.6409200701150155 S
atom 7.5736758001668658 5.0450853153449318 55.6391695516991689 S
atom 2.5763005373975183 10.0901706306898635 55.6321045838824375 S
atom 7.5750514710582424 10.0901706306898635 54.6479850379316261 S
atom 2.5735753493333213 2.5263916816237857 57.6120493337069632 Ba
atom 7.5709506121026626 2.5186936337211447 57.6191143015236449 Ba
atom 2.5735753493333204 7.5637789490660792 57.6120493337069490 Ba
atom 7.5709506121026626 7.5714769969687161 57.6191143015236378 Ba
atom 2.5665759037942628 2.5189474694699547 62.5604244760957897 Ba
atom 7.5639511665636014 2.5261378458749744 62.5674894439124003 Ba
atom 2.5665759037942628 7.5712231612198950 62.5604244760957897 Ba
atom 7.5639511665636014 7.5640327848148834 62.5674894439124145 Ba
atom 5.0703109330084324 5.0450853153449318 60.1047130619300489 Zr
atom 10.0646389232142468 5.0450853153449318 60.1116264334362853 Zr
atom 5.0672636604449348 10.0901706306898635 60.1045614656196463 Zr
atom 10.0676861957777852 10.0901706306898635 60.1117780297466595 Zr
atom 5.0604614294145094 5.0450853153449318 65.0708703619994679 Zr
atom 10.0603205785240597 5.0450853153449318 65.0775589115156521 Zr
atom 5.0629453157547548 10.0901706306898635 65.0704939436990912 Zr
atom 10.0578366921838320 10.0901706306898635 65.0779353298160430 Zr
atom 4.5637535510971325 5.0450853153449318 57.6202521043523106 S
atom 10.5781234071824759 5.0450853153449318 57.6287032890747497 S
atom 5.5807481444131231 10.0901706306898635 57.6216383212580965 S
atom 9.5611288138664552 10.0901706306898635 57.6273170721689638 S
atom 5.5730045772536592 5.0450853153449318 62.5826892744524983 S
atom 9.5548223943425512 5.0450853153449318 62.5882084899962479 S
atom 4.5574471315732268 10.0901706306898635 62.5811435221796160 S
atom 10.5703798400229978 10.0901706306898635 62.5897542422692439 S
atom 5.0688188141687789 2.5225417582701075 60.0982390800710959 S
atom 10.0661940769381211 2.5225435570748225 60.1053040478876852 S
atom 5.0688188141687789 7.5676288724197454 60.0982390800710959 S
atom 10.0661940769381211 7.5676270736150375 60.1053040478876710 S
atom 5.0617348019280444 2.5225312974666809 65.0561216892931213 S
atom 10.0591100646973839 2.5225540178782420 65.0631866571096680 S
atom 5.0617348019280444 7.5676393332231697 65.0561216892931213 S
atom 10.0591100646973839 7.5676166128116007 65.0631866571096680 S
atom 2.5693838760764116 5.0450853153449318 60.5887071613510884 S
atom 7.5681791285538438 5.0450853153449318 59.6053652181833158 S
atom 2.5708038657845078 10.0901706306898635 59.5983002503666341 S
atom 7.5667591388457414 10.0901706306898635 60.5957721291677558 S
atom 2.5637357090581214 5.0450853153449318 64.5728362511350440 S
atom 7.5597625681279590 5.0450853153449318 65.5494462661806381 S
atom 2.5623873053586217 10.0901706306898635 65.5423812983638072 S
atom 7.5611109718274436 10.0901706306898635 64.5799012189517327 S
atom 2.5596838469537611 2.5445217978694830 67.4658653783124151 Ba
atom 7.5570591097230881 2.5005635174754404 67.4729303461290897 Ba
atom 2.5596838469537611 7.5456488328203530 67.4658653783124151 Ba
atom 7.5570591097230881 7.5896071132144121 67.4729303461291181 Ba
atom 2.5529702138551058 2.3757589027915174 72.1442948142928344 Ba
atom 7.5503454766244396 2.6693264125534166 72.1513597821095658 Ba
atom 2.5529702138551058 7.7144117278983479 72.1442948142928344 Ba
atom 7.5503454766244396 7.4208442181364447 72.1513597821095658 Ba
atom 5.0432074914493077 5.0450853153449318 70.0889034287696973 Zr
atom 10.0633692192193891 5.0450853153449318 70.0951523712278544 Zr
atom 5.0659939564500620 10.0901706306898635 70.0880874034111940 Zr
atom 10.0405827542186579 10.0901706306898635 70.0959683965865423 Zr
atom 4.5843993021375287 5.0450853153449318 67.5453494429838202 S
atom 10.5294950584292284 5.0450853153449318 67.5535588719238973 S
atom 5.5321197956598862 10.0901706306898635 67.5464939041073080 S
atom 9.5817745649068513 10.0901706306898635 67.5524144108003810 S
atom 5.3959176416231340 5.0450853153449318 72.5778992572337671 S
atom 9.7037177720478436 5.0450853153449318 72.5830741460601558 S
atom 4.7063425092785174 10.0901706306898635 72.5760091782434529 S
atom 10.3932929043924602 10.0901706306898635 72.5849642250504417 S
atom 5.0548134335631971 2.5225740155385594 69.9593443608625591 S
atom 10.0521886963325233 2.5225112998063772 69.9664093286791626 S
atom 5.0548134335631971 7.5675966151512952 69.9593443608625591 S
atom 10.0521886963325233 7.5676593308834885 69.9664093286791626 S
atom 2.5554596672985355 5.0450853153449318 70.4186344501948582 S
atom 7.5539359513445001 5.0450853153449318 69.6070388392780899 S
atom 2.5565606885751837 10.0901706306898635 69.5999738714613585 S
atom 7.5528349300678661 10.0901706306898635 70.4256994180114475 S
