#=======================================================
# FHI-aims file: sym_relax/sym_relax_RP_10_RxRyMz_-Rx-Ry-Mz.in
# Created using the Atomic Simulation Environment (ASE)
# Mon Mar 17 18:42:16 2025
#=======================================================
lattice_vector 10.0059434754977286 -0.0783539469708678 -0.0000000000000000 
lattice_vector -0.0783539469708675 10.0059434754977605 -0.0000000000000000 
lattice_vector -0.0000000000000000 -0.0000000000000000 106.0644522682750903 
atom 0.1047910208898263 -0.1840034029066000 0.2141034441649974 Ba
atom 5.1869751406554725 -0.1439679943752601 0.2141034441649975 Ba
atom 0.1448264294211656 4.8981807168590592 0.2141034441649975 Ba
atom 5.0685857851532452 4.7797913613568408 0.2141034441649974 Ba
atom -0.2700789572214383 0.1874947883145945 5.0100956222060322 Ba
atom 4.8154769494342773 0.2309019837360069 5.0100956222060322 Ba
atom -0.2266717618000265 5.2730506949703218 5.0100956222060322 Ba
atom 4.6937158070419951 5.1512895525780387 5.0100956222060322 Ba
atom 2.4843319468286480 2.4701803212872355 2.4041282777385717 Zr
atom 7.4965861807250764 2.4402858439493587 2.4041282777385717 Zr
atom 2.4544374694907694 7.4824345551836728 2.4041282777385717 Zr
atom 7.4481267110920815 7.4339750855506752 2.4041282777385717 Zr
atom 2.4729558575586252 2.4864233578690351 7.4621532934894610 Zr
atom 7.4803431441432640 2.4516619332193863 7.4621532934894610 Zr
atom 2.4381944329089800 7.4938106444537009 7.4621532934894610 Zr
atom 7.4367506218220578 7.4502181221324859 7.4621532934894610 Zr
atom 2.6063637130730899 2.6894482550665990 -0.1037173051445326 S
atom 7.2773182469457112 2.3182540777049159 -0.1037173051445326 S
atom 2.2351695357114068 7.3604027889392247 -0.1037173051445326 S
atom 7.5701584773365465 7.6532430193300627 -0.1037173051445326 S
atom 2.2349560453794561 2.1870307152905446 4.9679678647344634 S
atom 7.7797357867217700 2.6896617453985510 4.9679678647344634 S
atom 2.7375870754874634 7.7318104566328651 4.9679678647344634 S
atom 7.1987508096428989 7.1508254795539727 4.9679678647344634 S
atom 2.8089666648360985 -0.0159816116676398 2.2504195226368759 S
atom 7.1744475427231382 -0.0525309956190704 2.7586650406760227 S
atom 2.1322988314888391 4.9896177156152426 2.7586650406760236 S
atom 7.7727614290995453 4.9478131525958107 2.2504195226368759 S
atom 2.8991328315997951 -0.0190076165035766 7.7920356800227504 S
atom 7.1135229833815661 -0.0554029468575863 7.1758157576117725 S
atom 2.0713742721472630 4.9867457643767148 7.1758157576117725 S
atom 7.8629275958632396 4.9447871477598744 7.7920356800227504 S
atom -0.0231953618177937 2.1940050729127738 2.2504195226368759 S
atom 4.9771487863970787 2.7923189592891733 2.7586650406760236 S
atom -0.0649999248372311 7.8344676705234990 2.7586650406760236 S
atom 4.9405994024456348 7.1577998371762188 2.2504195226368759 S
atom -0.0201693569818570 2.1038389061490790 7.7920356800227504 S
atom 4.9800207376355932 2.8532435186307481 7.1758157576117725 S
atom -0.0621279735987159 7.8953922298650649 7.1758157576117725 S
atom 4.9436254072815773 7.0676336704125271 7.7920356800227504 S
atom 0.2866099539152778 -0.1841197831084287 9.9909411959972996 Ba
atom 5.1870915208572974 -0.3257869274007122 9.9909411959972996 Ba
atom 0.1449428096229950 4.7163617838336096 9.9909411959972996 Ba
atom 5.2504047181787046 4.7796749811550212 9.9909411959972996 Ba
atom -0.2862005629380572 0.1817516647813211 14.9965025274974995 Ba
atom 4.8212200729675372 0.2470235894526244 14.9965025274974995 Ba
atom -0.2209286382667547 5.2891723006869418 14.9965025274974995 Ba
atom 4.6775942013253795 5.1455464290447708 14.9965025274974995 Ba
atom 2.4873434647574175 2.4793458771715136 12.4803476277792633 Zr
atom 7.4874206248407811 2.4372743260205851 12.4803476277792633 Zr
atom 2.4452719136064953 7.4794230372549011 12.4803476277792633 Zr
atom 7.4511382290208479 7.4431406414349626 12.4803476277792633 Zr
atom 2.4806562955231160 2.4818707637880562 17.4953452167614429 Zr
atom 7.4848957382242443 2.4439614952548867 17.4953452167614429 Zr
atom 2.4427470269899483 7.4861102064891965 17.4953452167614429 Zr
atom 7.4444510597865552 7.4456655280515109 17.4953452167614429 Zr
atom 2.7445567258409893 2.8075324141651241 9.9826790773438994 S
atom 7.1592340878471692 2.1800610649370187 9.9826790773438994 S
atom 2.1170853766128772 7.2222097761713417 9.9826790773438994 S
atom 7.7083514901044339 7.7713271784285842 9.9826790773438994 S
atom 2.2171713717380017 2.1508979607133494 14.9938035203156552 S
atom 7.8158685412989506 2.7074464190400080 14.9938035203156552 S
atom 2.7737198300646617 7.7495951302743258 14.9938035203156552 S
atom 7.1809661360014401 7.1146927249768082 14.9938035203156552 S
atom 2.8909122372318685 -0.0228889021549842 12.1755931850247343 S
atom 7.1176844892318325 -0.0595970065231630 12.8128545826704219 S
atom 2.0755357779975263 4.9825517047111569 12.8128545826704219 S
atom 7.8547070014953073 4.9409058621084618 12.1755931850247343 S
atom 2.8888372896076584 -0.0209292754653950 17.8223290718230416 S
atom 7.1179136264275193 -0.0576455778177045 17.1805909932098047 S
atom 2.0757649151932291 4.9845031334166121 17.1805909932098047 S
atom 7.8526320538710852 4.9428654887980521 17.8223290718230416 S
atom -0.0162880713304499 2.1120595005170046 12.1755931850247343 S
atom 4.9842147973011652 2.8490820127804826 12.8128545826704219 S
atom -0.0579339139331385 7.8912307240147959 12.8128545826704219 S
atom 4.9475066929329845 7.0758542647804656 12.1755931850247343 S
atom -0.0182476980200390 2.1141344481412125 17.8223290718230416 S
atom 4.9822633685956994 2.8488528755847766 17.1805909932098047 S
atom -0.0598853426385970 7.8910015868191108 17.1805909932098047 S
atom 4.9455470662433791 7.0779292124046629 17.8223290718230416 S
atom 0.2881946579773570 -0.1826632404680663 20.0049440881152165 Ba
atom 5.1856349782169335 -0.3273716314627919 20.0049440881152165 Ba
atom 0.1434862669826311 4.7147770797715260 20.0049440881152165 Ba
atom 5.2519894222407943 4.7811315237953806 20.0049440881152165 Ba
atom -0.2868710439227338 0.1810948305661128 25.0152010066686543 Ba
atom 4.8218769071827534 0.2476940704373006 25.0152010066686543 Ba
atom -0.2202718040515452 5.2898427816716280 25.0152010066686543 Ba
atom 4.6769237203406995 5.1448895948295581 25.0152010066686543 Ba
atom 2.4831839219484411 2.4809797011393990 22.5087017651182109 Zr
atom 7.4857868008729040 2.4414338688295616 22.5087017651182109 Zr
atom 2.4436380896386138 7.4835825800638842 22.5087017651182109 Zr
atom 7.4469786862118745 7.4447744654028476 22.5087017651182109 Zr
atom 2.4831839219484411 2.4809797011393990 27.5217002482190836 Zr
atom 7.4857868008729040 2.4414338688295616 27.5217002482190836 Zr
atom 2.4436380896386138 7.4835825800638842 27.5217002482190836 Zr
atom 7.4469786862118745 7.4447744654028476 27.5217002482190836 Zr
atom 2.7489500917533896 2.8127011625864085 20.0045894907694013 S
atom 7.1540653394259079 2.1756676990246229 20.0045894907694013 S
atom 2.1119166281916022 7.2178164102589406 20.0045894907694013 S
atom 7.7127448560168190 7.7764959268498570 20.0045894907694013 S
atom 2.2160946345414070 2.1494462307817921 25.0152010066686543 S
atom 7.8173202712305248 2.7085231562365961 25.0152010066686543 S
atom 2.7751715599962181 7.7506718674709099 25.0152010066686543 S
atom 7.1798893988048436 7.1132409950452482 25.0152010066686543 S
atom 2.8892084872761825 -0.0217257741315778 22.1891163214122642 S
atom 7.1184524512659060 -0.0584425460515142 22.8319222457009978 S
atom 2.0763037400315971 4.9837061651828067 22.8319222457009978 S
atom 7.8530032515396018 4.9420689901318759 22.1891163214122642 S
atom 2.8892084872761825 -0.0217257741315778 27.8412856919251084 S
atom 7.1184524512659060 -0.0584425460515142 27.1984797676363570 S
atom 2.0763037400315971 4.9837061651828067 27.1984797676363570 S
atom 7.8530032515396018 4.9420689901318759 27.8412856919251084 S
atom -0.0174511993538563 2.1137632504726933 22.1891163214122642 S
atom 4.9830603368295110 2.8483140507464082 22.8319222457009978 S
atom -0.0590883744047874 7.8904627619807277 22.8319222457009978 S
atom 4.9463435649095677 7.0775580147361516 22.1891163214122642 S
atom -0.0174511993538563 2.1137632504726933 27.8412856919251084 S
atom 4.9830603368295110 2.8483140507464082 27.1984797676363570 S
atom -0.0590883744047874 7.8904627619807277 27.1984797676363570 S
atom 4.9463435649095677 7.0775580147361516 27.8412856919251084 S
atom 0.2881946579773570 -0.1826632404680663 30.0254579252221170 Ba
atom 5.1856349782169335 -0.3273716314627919 30.0254579252221170 Ba
atom 0.1434862669826311 4.7147770797715260 30.0254579252221170 Ba
atom 5.2519894222407943 4.7811315237953806 30.0254579252221170 Ba
atom -0.2862005629380572 0.1817516647813211 35.0338994858398394 Ba
atom 4.8212200729675372 0.2470235894526244 35.0338994858398394 Ba
atom -0.2209286382667547 5.2891723006869418 35.0338994858398394 Ba
atom 4.6775942013253795 5.1455464290447708 35.0338994858398394 Ba
atom 2.4806562955231160 2.4818707637880562 32.5350567965759225 Zr
atom 7.4848957382242443 2.4439614952548867 32.5350567965759225 Zr
atom 2.4427470269899483 7.4861102064891965 32.5350567965759225 Zr
atom 7.4444510597865552 7.4456655280515109 32.5350567965759225 Zr
atom 2.4873434647574175 2.4793458771715136 37.5500543855580702 Zr
atom 7.4874206248407811 2.4372743260205851 37.5500543855580702 Zr
atom 2.4452719136064953 7.4794230372549011 37.5500543855580702 Zr
atom 7.4511382290208479 7.4431406414349626 37.5500543855580702 Zr
atom 2.7489500917533896 2.8127011625864085 30.0258125225679819 S
atom 7.1540653394259079 2.1756676990246229 30.0258125225679819 S
atom 2.1119166281916022 7.2178164102589406 30.0258125225679819 S
atom 7.7127448560168190 7.7764959268498570 30.0258125225679819 S
atom 2.2171713717380017 2.1508979607133494 35.0365984930216428 S
atom 7.8158685412989506 2.7074464190400080 35.0365984930216428 S
atom 2.7737198300646617 7.7495951302743258 35.0365984930216428 S
atom 7.1809661360014401 7.1146927249768082 35.0365984930216428 S
atom 2.8888372896076584 -0.0209292754653950 32.2080729415142955 S
atom 7.1179136264275193 -0.0576455778177045 32.8498110201274685 S
atom 2.0757649151932291 4.9845031334166121 32.8498110201274685 S
atom 7.8526320538710852 4.9428654887980521 32.2080729415142955 S
atom 2.8909122372318685 -0.0228889021549842 37.8548088283126134 S
atom 7.1176844892318325 -0.0595970065231630 37.2175474306668619 S
atom 2.0755357779975263 4.9825517047111569 37.2175474306668619 S
atom 7.8547070014953073 4.9409058621084618 37.8548088283126134 S
atom -0.0182476980200390 2.1141344481412125 32.2080729415142955 S
atom 4.9822633685956994 2.8488528755847766 32.8498110201274685 S
atom -0.0598853426385970 7.8910015868191108 32.8498110201274685 S
atom 4.9455470662433791 7.0779292124046629 32.2080729415142955 S
atom -0.0162880713304499 2.1120595005170046 37.8548088283126134 S
atom 4.9842147973011652 2.8490820127804826 37.2175474306668619 S
atom -0.0579339139331385 7.8912307240147959 37.2175474306668619 S
atom 4.9475066929329845 7.0758542647804656 37.8548088283126134 S
atom 0.2866099539152778 -0.1841197831084287 40.0394608173400286 Ba
atom 5.1870915208572974 -0.3257869274007122 40.0394608173400286 Ba
atom 0.1449428096229950 4.7163617838336096 40.0394608173400286 Ba
atom 5.2504047181787046 4.7796749811550212 40.0394608173400286 Ba
atom -0.2700789572214384 0.1874947883145945 45.0203063911313777 Ba
atom 4.8154769494342773 0.2309019837360069 45.0203063911313777 Ba
atom -0.2266717618000265 5.2730506949703218 45.0203063911313777 Ba
atom 4.6937158070419951 5.1512895525780387 45.0203063911313777 Ba
atom 2.4729558575586252 2.4864233578690351 42.5682487198478583 Zr
atom 7.4803431441432640 2.4516619332193863 42.5682487198478583 Zr
atom 2.4381944329089800 7.4938106444537009 42.5682487198478583 Zr
atom 7.4367506218220578 7.4502181221324859 42.5682487198478583 Zr
atom 2.4843319468286480 2.4701803212872355 47.6262737355987511 Zr
atom 7.4965861807250764 2.4402858439493587 47.6262737355987511 Zr
atom 2.4544374694907694 7.4824345551836728 47.6262737355987511 Zr
atom 7.4481267110920815 7.4339750855506752 47.6262737355987511 Zr
atom 2.7445567258409893 2.8075324141651241 40.0477229359934626 S
atom 7.1592340878471692 2.1800610649370187 40.0477229359934626 S
atom 2.1170853766128772 7.2222097761713417 40.0477229359934626 S
atom 7.7083514901044339 7.7713271784285842 40.0477229359934626 S
atom 2.2349560453794561 2.1870307152905446 45.0624341486029039 S
atom 7.7797357867217700 2.6896617453985510 45.0624341486029039 S
atom 2.7375870754874629 7.7318104566328651 45.0624341486029039 S
atom 7.1987508096428989 7.1508254795539727 45.0624341486029039 S
atom 2.8991328315997951 -0.0190076165035766 42.2383663333145520 S
atom 7.1135229833815661 -0.0554029468575863 42.8545862557255788 S
atom 2.0713742721472630 4.9867457643767148 42.8545862557255788 S
atom 7.8629275958632396 4.9447871477598744 42.2383663333145520 S
atom 2.8089666648360985 -0.0159816116676398 47.7799824907004194 S
atom 7.1744475427231382 -0.0525309956190704 47.2717369726612660 S
atom 2.1322988314888391 4.9896177156152426 47.2717369726612660 S
atom 7.7727614290995453 4.9478131525958107 47.7799824907004194 S
atom -0.0201693569818570 2.1038389061490790 42.2383663333145520 S
atom 4.9800207376355932 2.8532435186307481 42.8545862557255788 S
atom -0.0621279735987158 7.8953922298650649 42.8545862557255788 S
atom 4.9436254072815773 7.0676336704125271 42.2383663333145520 S
atom -0.0231953618177937 2.1940050729127738 47.7799824907004194 S
atom 4.9771487863970787 2.7923189592891733 47.2717369726612660 S
atom -0.0649999248372311 7.8344676705234990 47.2717369726612660 S
atom 4.9405994024456348 7.1577998371762188 47.7799824907004194 S
atom 0.1047910208898263 -0.1840034029065991 49.8162985691722966 Ba
atom 5.1869751406554725 -0.1439679943752606 49.8162985691722966 Ba
atom 0.1448264294211656 4.8981807168590583 49.8162985691722966 Ba
atom 5.0685857851532452 4.7797913613568417 49.8162985691722966 Ba
atom 2.6063637130730890 2.6894482550665999 50.1341193184818863 S
atom 7.2773182469457112 2.3182540777049159 50.1341193184818863 S
atom 2.2351695357114068 7.3604027889392247 50.1341193184818863 S
atom 7.5701584773365447 7.6532430193300627 50.1341193184818863 S
atom 2.6659007850383101 2.3771063612418990 53.2463295783026069 Ba
atom 7.5896601407704063 2.2587170057396899 53.2463295783026069 Ba
atom 2.5475114295361099 7.3008657169739957 53.2463295783026069 Ba
atom 7.6296955493017569 7.3409011255053525 53.2463295783026069 Ba
atom 2.2944025938171198 2.7519763393531687 58.0423217563436111 Ba
atom 7.2147901626591491 2.6302151969608865 58.0423217563436111 Ba
atom 2.1726414514248438 7.6723639081952015 58.0423217563436111 Ba
atom 7.2581973580805652 7.7157711036166106 58.0423217563436111 Ba
atom 4.9755118251079251 4.9613601995665144 55.4363544118761666 Zr
atom 9.9692010667092212 4.9129007299335195 55.4363544118761666 Zr
atom 4.9270523554749319 9.9550494411678248 55.4363544118761666 Zr
atom 9.9393065893713857 9.9251549638299643 55.4363544118761666 Zr
atom 4.9592687885261242 4.9727362888365407 60.4943794276270381 Zr
atom 9.9578249774392109 4.9291437665153293 60.4943794276270381 Zr
atom 4.9156762662049127 9.9712924777496337 60.4943794276270381 Zr
atom 9.9230635527895625 9.9365310530999960 60.4943794276270381 Zr
atom 4.7562438913285385 4.8393284333220672 52.9285088289931238 S
atom 10.0912328329536773 5.1321686637129016 52.9285088289931238 S
atom 5.0490841217193800 10.1743173749471829 52.9285088289931238 S
atom 9.7200386555919991 9.8031231975855206 52.9285088289931238 S
atom 5.2586614311046151 5.2107361010157112 58.0001939988721205 S
atom 9.7198251652600494 4.6297511239368223 58.0001939988721205 S
atom 4.6776764540257361 9.6718998351711480 58.0001939988721205 S
atom 10.2224561953680535 10.1745308652791451 58.0001939988721205 S
atom 4.6533731871059842 2.4685433599980882 55.7908911748136660 S
atom 10.2938357847166877 2.4267387969786514 55.2826456567745126 S
atom 5.2516870734823842 7.4688875082129673 55.2826456567745126 S
atom 9.6171679513694084 7.4323381242615403 55.7908911748136660 S
atom 4.5924486277644085 2.4656714087595732 60.2080418917493390 S
atom 10.3840019514803785 2.4237127921427146 60.8242618141603586 S
atom 5.3418532402460901 7.4658615033770301 60.8242618141603586 S
atom 9.5562433920278451 7.4294661730230125 60.2080418917493390 S
atom 2.4560744307799220 5.3133933149063388 55.7908911748136660 S
atom 7.4616737580627781 4.6367254815590639 55.2826456567745126 S
atom 2.4195250468284839 9.6788741927933906 55.2826456567745126 S
atom 7.4198691950433515 10.2771880791697878 55.7908911748136660 S
atom 2.4589463820184263 5.3743178742479127 60.2080418917493390 S
atom 7.4646997628987277 4.5465593147953660 60.8242618141603586 S
atom 2.4225510516644286 9.5887080260296838 60.8242618141603586 S
atom 7.4227411462818784 10.3381126385113440 60.2080418917493390 S
atom 2.6660171652401483 2.1952874282164458 63.0231673301348536 Ba
atom 7.7714790737958532 2.2586006255378615 63.0231673301348536 Ba
atom 2.7293303625615573 7.3007493367721814 63.0231673301348536 Ba
atom 7.6298119295035880 7.1590821924798966 63.0231673301348536 Ba
atom 2.3001457173503921 2.7680979450697838 68.0287286616349860 Ba
atom 7.1986685569425219 2.6244720734276106 68.0287286616349860 Ba
atom 2.1565198457082291 7.6666207846619381 68.0287286616349860 Ba
atom 7.2639404816138313 7.7318927093332324 68.0287286616349860 Ba
atom 4.9663462692236520 4.9583486816377356 65.5125737619167552 Zr
atom 9.9722125846379903 4.9220662858178112 65.5125737619167552 Zr
atom 4.9300638734037081 9.9642149970521174 65.5125737619167552 Zr
atom 9.9301410334870788 9.9221434459011828 65.5125737619167552 Zr
atom 4.9638213826071063 4.9650358508720398 70.5275713508989384 Zr
atom 9.9655254154037181 4.9245911724343507 70.5275713508989384 Zr
atom 4.9233767041694092 9.9667398836686800 70.5275713508989384 Zr
atom 9.9276161468705215 9.9288306151354924 70.5275713508989384 Zr
atom 4.6381597322300214 4.7011354205541789 63.0149052114814481 S
atom 10.2294258457215754 5.2502528228114276 63.0149052114814481 S
atom 5.1872771344872657 10.2924015340457533 63.0149052114814481 S
atom 9.6019544964934411 9.6649301848176385 63.0149052114814481 S
atom 5.2947941856818055 5.2285207746571647 68.0260296544532679 S
atom 9.7020404916185967 4.5936183693596400 68.0260296544532679 S
atom 4.6598917803842781 9.6357670805939613 68.0260296544532679 S
atom 10.2585889499452314 10.1923155389206155 68.0260296544532679 S
atom 4.5966101336146767 2.4614773490940007 65.8450807168079280 S
atom 10.3757813571124373 2.4198315064913123 65.2078193191624393 S
atom 5.3336326458781462 7.4619802177256283 65.2078193191624393 S
atom 9.5604048978781027 7.4252721133574422 65.8450807168079280 S
atom 4.5968392708103663 2.4634287777994559 70.2128171273473924 S
atom 10.3737064094882641 2.4217911331808928 70.8545552059606507 S
atom 5.3315576982539330 7.4639398444152079 70.8545552059606507 S
atom 9.5606340350738179 7.4272235420628983 70.2128171273473924 S
atom 2.4631404416840068 5.3701563683976401 65.8450807168079280 S
atom 7.4685810485501358 4.5547799091633081 65.2078193191624393 S
atom 2.4264323373158332 9.5969286203975983 65.2078193191624393 S
atom 7.4269352059474425 10.3339511326610900 65.8450807168079280 S
atom 2.4611890129785534 5.3699272312019390 70.2128171273473924 S
atom 7.4666214218605340 4.5568548567875089 70.8545552059606507 S
atom 2.4244727106262447 9.5990035680218107 70.8545552059606507 S
atom 7.4249837772419944 10.3337219954653747 70.2128171273473924 S
atom 2.6645606225997835 2.1937027241543650 73.0371702222528256 Ba
atom 7.7730637778579279 2.2600571681782231 73.0371702222528256 Ba
atom 2.7309150666236390 7.3022058794125329 73.0371702222528256 Ba
atom 7.6283553868632188 7.1574974884178193 73.0371702222528256 Ba
atom 2.3008025515656030 2.7687684260544589 78.0474271408062208 Ba
atom 7.1979980759578455 2.6238152392124081 78.0474271408062208 Ba
atom 2.1558493647235553 7.6659639504467272 78.0474271408062208 Ba
atom 7.2645973158290271 7.7325631903179168 78.0474271408062208 Ba
atom 4.9647124452557518 4.9625082244467267 75.5409278992558058 Zr
atom 9.9680530418290285 4.9237001097856830 75.5409278992558058 Zr
atom 4.9259043305947170 9.9658488210199909 75.5409278992558058 Zr
atom 9.9285072095192035 9.9263029887101570 75.5409278992558058 Zr
atom 4.9647124452557518 4.9625082244467267 80.5539263823566358 Zr
atom 9.9680530418290285 4.9237001097856830 80.5539263823566358 Zr
atom 4.9259043305947170 9.9658488210199909 80.5539263823566358 Zr
atom 9.9285072095192035 9.9263029887101570 80.5539263823566358 Zr
atom 4.6329909838087522 4.6967420546417831 73.0368156249070637 S
atom 10.2338192116339712 5.2554215712326915 73.0368156249070637 S
atom 5.1916705003996686 10.2975702824670243 73.0368156249070637 S
atom 9.5967857480721932 9.6605368189052232 73.0368156249070637 S
atom 5.2962459156133779 5.2295975118537479 78.0474271408062208 S
atom 9.7009637544220109 4.5921666394280747 78.0474271408062208 S
atom 4.6588150431877029 9.6343153506623942 78.0474271408062208 S
atom 10.2600406798768091 10.1933922761172084 78.0474271408062208 S
atom 4.5973780956487609 2.4626318095656456 75.8641483798385678 S
atom 10.3740776071567353 2.4209946345147149 75.2213424555495891 S
atom 5.3319288959224558 7.4631433457490308 75.2213424555495891 S
atom 9.5611728599121726 7.4264265738290964 75.8641483798385678 S
atom 4.5973780956487609 2.4626318095656456 80.2307059017739448 S
atom 10.3740776071567353 2.4209946345147149 80.8735118260628667 S
atom 5.3319288959224558 7.4631433457490308 80.8735118260628667 S
atom 9.5611728599121726 7.4264265738290964 80.2307059017739448 S
atom 2.4619859812123659 5.3693884063635631 75.8641483798385678 S
atom 7.4674179205267226 4.5564836591189923 75.2213424555495891 S
atom 2.4252692092924302 9.5986323703533021 75.2213424555495891 S
atom 7.4257807454757945 10.3331831706270094 75.8641483798385678 S
atom 2.4619859812123659 5.3693884063635631 80.2307059017739448 S
atom 7.4674179205267226 4.5564836591189923 80.8735118260628667 S
atom 2.4252692092924302 9.5986323703533021 80.8735118260628667 S
atom 7.4257807454757945 10.3331831706270094 80.2307059017739448 S
atom 2.6645606225997835 2.1937027241543650 83.0576840593597154 Ba
atom 7.7730637778579279 2.2600571681782231 83.0576840593597154 Ba
atom 2.7309150666236390 7.3022058794125329 83.0576840593597154 Ba
atom 7.6283553868632188 7.1574974884178193 83.0576840593597154 Ba
atom 2.3001457173503921 2.7680979450697838 88.0661256199774272 Ba
atom 7.1986685569425219 2.6244720734276106 88.0661256199774272 Ba
atom 2.1565198457082291 7.6666207846619381 88.0661256199774272 Ba
atom 7.2639404816138313 7.7318927093332324 88.0661256199774272 Ba
atom 4.9638213826071063 4.9650358508720398 85.5672829307133611 Zr
atom 9.9655254154037181 4.9245911724343507 85.5672829307133611 Zr
atom 4.9233767041694092 9.9667398836686800 85.5672829307133611 Zr
atom 9.9276161468705215 9.9288306151354924 85.5672829307133611 Zr
atom 4.9663462692236520 4.9583486816377356 90.5822805196957006 Zr
atom 9.9722125846379903 4.9220662858178112 90.5822805196957006 Zr
atom 4.9300638734037081 9.9642149970521174 90.5822805196957006 Zr
atom 9.9301410334870788 9.9221434459011828 90.5822805196957006 Zr
atom 4.6329909838087522 4.6967420546417831 83.0580386567054205 S
atom 10.2338192116339712 5.2554215712326915 83.0580386567054205 S
atom 5.1916705003996686 10.2975702824670243 83.0580386567054205 S
atom 9.5967857480721932 9.6605368189052232 83.0580386567054205 S
atom 5.2947941856818055 5.2285207746571647 88.0688246271593584 S
atom 9.7020404916185967 4.5936183693596400 88.0688246271593584 S
atom 4.6598917803842781 9.6357670805939613 88.0688246271593584 S
atom 10.2585889499452314 10.1923155389206155 88.0688246271593584 S
atom 4.5968392708103663 2.4634287777994559 85.8820371542652481 S
atom 10.3737064094882641 2.4217911331808928 85.2402990756518193 S
atom 5.3315576982539330 7.4639398444152079 85.2402990756518193 S
atom 9.5606340350738179 7.4272235420628983 85.8820371542652481 S
atom 4.5966101336146767 2.4614773490940007 90.2497735648045847 S
atom 10.3757813571124373 2.4198315064913123 90.8870349624501301 S
atom 5.3336326458781462 7.4619802177256283 90.8870349624501301 S
atom 9.5604048978781027 7.4252721133574422 90.2497735648045847 S
atom 2.4611890129785534 5.3699272312019390 85.8820371542652481 S
atom 7.4666214218605340 4.5568548567875089 85.2402990756518193 S
atom 2.4244727106262447 9.5990035680218107 85.2402990756518193 S
atom 7.4249837772419944 10.3337219954653747 85.8820371542652481 S
atom 2.4631404416840068 5.3701563683976401 90.2497735648045847 S
atom 7.4685810485501358 4.5547799091633081 90.8870349624501301 S
atom 2.4264323373158332 9.5969286203975983 90.8870349624501301 S
atom 7.4269352059474425 10.3339511326610900 90.2497735648045847 S
atom 2.6660171652401483 2.1952874282164458 93.0716869514776874 Ba
atom 7.7714790737958532 2.2586006255378615 93.0716869514776874 Ba
atom 2.7293303625615573 7.3007493367721814 93.0716869514776874 Ba
atom 7.6298119295035880 7.1590821924798966 93.0716869514776874 Ba
atom 2.2944025938171198 2.7519763393531687 98.0525325252689726 Ba
atom 7.2147901626591491 2.6302151969608865 98.0525325252689726 Ba
atom 2.1726414514248438 7.6723639081952015 98.0525325252689726 Ba
atom 7.2581973580805652 7.7157711036166106 98.0525325252689726 Ba
atom 4.9592687885261242 4.9727362888365407 95.6004748539855029 Zr
atom 9.9578249774392109 4.9291437665153293 95.6004748539855029 Zr
atom 4.9156762662049127 9.9712924777496337 95.6004748539855029 Zr
atom 9.9230635527895625 9.9365310530999960 95.6004748539855029 Zr
atom 4.9755118251079251 4.9613601995665144 100.6584998697363034 Zr
atom 9.9692010667092212 4.9129007299335195 100.6584998697363034 Zr
atom 4.9270523554749319 9.9550494411678248 100.6584998697363034 Zr
atom 9.9393065893713857 9.9251549638299643 100.6584998697363034 Zr
atom 4.6381597322300214 4.7011354205541789 93.0799490701309225 S
atom 10.2294258457215754 5.2502528228114276 93.0799490701309225 S
atom 5.1872771344872657 10.2924015340457533 93.0799490701309225 S
atom 9.6019544964934411 9.6649301848176385 93.0799490701309225 S
atom 5.2586614311046151 5.2107361010157112 98.0946602827406196 S
atom 9.7198251652600494 4.6297511239368223 98.0946602827406196 S
atom 4.6776764540257361 9.6718998351711480 98.0946602827406196 S
atom 10.2224561953680535 10.1745308652791451 98.0946602827406196 S
atom 4.5924486277644085 2.4656714087595732 95.8868123898631524 S
atom 10.3840019514803785 2.4237127921427146 95.2705924674522464 S
atom 5.3418532402460901 7.4658615033770301 95.2705924674522464 S
atom 9.5562433920278451 7.4294661730230125 95.8868123898631524 S
atom 4.6533731871059842 2.4685433599980882 100.3039631067989461 S
atom 10.2938357847166877 2.4267387969786514 100.8122086248379645 S
atom 5.2516870734823842 7.4688875082129673 100.8122086248379645 S
atom 9.6171679513694084 7.4323381242615403 100.3039631067989461 S
atom 2.4589463820184263 5.3743178742479127 95.8868123898631524 S
atom 7.4646997628987277 4.5465593147953660 95.2705924674522464 S
atom 2.4225510516644286 9.5887080260296838 95.2705924674522464 S
atom 7.4227411462818784 10.3381126385113440 95.8868123898631524 S
atom 2.4560744307799220 5.3133933149063388 100.3039631067989461 S
atom 7.4616737580627781 4.6367254815590639 100.8122086248379645 S
atom 2.4195250468284839 9.6788741927933906 100.8122086248379645 S
atom 7.4198691950433515 10.2771880791697878 100.3039631067989461 S
atom 2.6659007850383101 2.3771063612418986 102.8485247033098631 Ba
atom 7.5896601407704063 2.2587170057396908 102.8485247033098631 Ba
atom 2.5475114295361099 7.3008657169739966 102.8485247033098631 Ba
atom 7.6296955493017569 7.3409011255053516 102.8485247033098631 Ba
atom 4.7562438913285385 4.8393284333220672 103.1663454526195807 S
atom 10.0912328329536738 5.1321686637129016 103.1663454526195807 S
atom 5.0490841217193791 10.1743173749471829 103.1663454526195807 S
atom 9.7200386555919991 9.8031231975855206 103.1663454526195807 S
