#=======================================================
# FHI-aims file: sym_relax/sym_relax_RP_7_000_000.in
# Created using the Atomic Simulation Environment (ASE)
# Mon Mar 17 15:39:37 2025
#=======================================================
lattice_vector 10.0667446418958733 -0.0000000000000000 -0.0000000000000000 
lattice_vector 0.0000000000000000 10.0667446418958733 -0.0000000000000000 
lattice_vector -0.0000000000000000 -0.0000000000000001 75.8517698901541166 
atom -0.0000000000000000 -0.0000000000000000 0.2866297210678601 Ba
atom 5.0333723209479357 -0.0000000000000000 0.2866297210678602 Ba
atom -0.0000000000000000 5.0333723209479384 0.2866297210678602 Ba
atom 5.0333723209479357 5.0333723209479384 0.2866297210678602 Ba
atom -0.0000000000000000 -0.0000000000000000 5.0601244489977892 Ba
atom 5.0333723209479357 -0.0000000000000000 5.0601244489977892 Ba
atom -0.0000000000000000 5.0333723209479384 5.0601244489977892 Ba
atom 5.0333723209479357 5.0333723209479384 5.0601244489977892 Ba
atom 2.5166861604739679 2.5166861604739692 2.3099934309027912 Zr
atom 7.5500584814219014 2.5166861604739692 2.3099934309027912 Zr
atom 2.5166861604739679 7.5500584814219085 2.3099934309027912 Zr
atom 7.5500584814219014 7.5500584814219085 2.3099934309027912 Zr
atom 2.5166861604739679 2.5166861604739692 7.3886053191924681 Zr
atom 7.5500584814219014 2.5166861604739692 7.3886053191924681 Zr
atom 2.5166861604739679 7.5500584814219085 7.3886053191924681 Zr
atom 7.5500584814219014 7.5500584814219085 7.3886053191924681 Zr
atom 2.5166861604739679 2.5166861604739692 -0.1813860335185512 S
atom 7.5500584814219014 2.5166861604739692 -0.1813860335185512 S
atom 2.5166861604739679 7.5500584814219085 -0.1813860335185512 S
atom 7.5500584814219014 7.5500584814219085 -0.1813860335185512 S
atom 2.5166861604739679 2.5166861604739692 4.8980576099014463 S
atom 7.5500584814219014 2.5166861604739692 4.8980576099014463 S
atom 2.5166861604739679 7.5500584814219085 4.8980576099014463 S
atom 7.5500584814219014 7.5500584814219085 4.8980576099014463 S
atom 2.5166861604739679 -0.0000000000000000 2.4404832743666680 S
atom 7.5500584814219014 -0.0000000000000000 2.4404832743666680 S
atom 2.5166861604739679 5.0333723209479384 2.4404832743666680 S
atom 7.5500584814219014 5.0333723209479384 2.4404832743666680 S
atom 2.5166861604739679 -0.0000000000000000 7.4231949592621813 S
atom 7.5500584814219014 -0.0000000000000000 7.4231949592621813 S
atom 2.5166861604739679 5.0333723209479384 7.4231949592621813 S
atom 7.5500584814219014 5.0333723209479384 7.4231949592621813 S
atom -0.0000000000000000 2.5166861604739692 2.4404832743666680 S
atom 5.0333723209479357 2.5166861604739692 2.4404832743666680 S
atom -0.0000000000000000 7.5500584814219085 2.4404832743666680 S
atom 5.0333723209479357 7.5500584814219085 2.4404832743666680 S
atom -0.0000000000000000 2.5166861604739692 7.4231949592621813 S
atom 5.0333723209479357 2.5166861604739692 7.4231949592621813 S
atom -0.0000000000000000 7.5500584814219085 7.4231949592621813 S
atom 5.0333723209479357 7.5500584814219085 7.4231949592621813 S
atom -0.0000000000000000 -0.0000000000000000 9.9936287205499763 Ba
atom 5.0333723209479357 -0.0000000000000000 9.9936287205499763 Ba
atom -0.0000000000000000 5.0333723209479384 9.9936287205499763 Ba
atom 5.0333723209479357 5.0333723209479384 9.9936287205499763 Ba
atom -0.0000000000000000 -0.0000000000000000 14.9727592935454883 Ba
atom 5.0333723209479357 -0.0000000000000000 14.9727592935454883 Ba
atom 0.0000000000000000 5.0333723209479384 14.9727592935454883 Ba
atom 5.0333723209479357 5.0333723209479384 14.9727592935454883 Ba
atom 2.5166861604739679 2.5166861604739692 12.4296403815069603 Zr
atom 7.5500584814219014 2.5166861604739692 12.4296403815069603 Zr
atom 2.5166861604739679 7.5500584814219085 12.4296403815069603 Zr
atom 7.5500584814219014 7.5500584814219085 12.4296403815069603 Zr
atom 2.5166861604739679 2.5166861604739692 17.4658680668117512 Zr
atom 7.5500584814219014 2.5166861604739692 17.4658680668117512 Zr
atom 2.5166861604739679 7.5500584814219085 17.4658680668117512 Zr
atom 7.5500584814219014 7.5500584814219085 17.4658680668117512 Zr
atom 2.5166861604739679 2.5166861604739692 9.9252461257875524 S
atom 7.5500584814219014 2.5166861604739692 9.9252461257875524 S
atom 2.5166861604739679 7.5500584814219085 9.9252461257875524 S
atom 7.5500584814219014 7.5500584814219085 9.9252461257875524 S
atom 2.5166861604739679 2.5166861604739692 14.9521915292253151 S
atom 7.5500584814219014 2.5166861604739692 14.9521915292253151 S
atom 2.5166861604739679 7.5500584814219085 14.9521915292253151 S
atom 7.5500584814219014 7.5500584814219085 14.9521915292253151 S
atom 2.5166861604739679 -0.0000000000000000 12.4445155619805892 S
atom 7.5500584814219014 -0.0000000000000000 12.4445155619805892 S
atom 2.5166861604739679 5.0333723209479384 12.4445155619805892 S
atom 7.5500584814219014 5.0333723209479384 12.4445155619805892 S
atom 2.5166861604739679 -0.0000000000000000 17.4658680668117512 S
atom 7.5500584814219014 -0.0000000000000000 17.4658680668117512 S
atom 2.5166861604739679 5.0333723209479384 17.4658680668117512 S
atom 7.5500584814219014 5.0333723209479384 17.4658680668117512 S
atom 0.0000000000000000 2.5166861604739692 12.4445155619805892 S
atom 5.0333723209479357 2.5166861604739692 12.4445155619805892 S
atom 0.0000000000000000 7.5500584814219085 12.4445155619805892 S
atom 5.0333723209479357 7.5500584814219085 12.4445155619805892 S
atom -0.0000000000000000 2.5166861604739692 17.4658680668117512 S
atom 5.0333723209479357 2.5166861604739692 17.4658680668117512 S
atom -0.0000000000000000 7.5500584814219085 17.4658680668117512 S
atom 5.0333723209479357 7.5500584814219085 17.4658680668117512 S
atom -0.0000000000000000 -0.0000000000000000 19.9589768400780230 Ba
atom 5.0333723209479357 -0.0000000000000000 19.9589768400780230 Ba
atom -0.0000000000000000 5.0333723209479384 19.9589768400780230 Ba
atom 5.0333723209479357 5.0333723209479384 19.9589768400780230 Ba
atom -0.0000000000000000 -0.0000000000000000 24.9381074130735492 Ba
atom 5.0333723209479357 -0.0000000000000000 24.9381074130735492 Ba
atom -0.0000000000000000 5.0333723209479384 24.9381074130735492 Ba
atom 5.0333723209479357 5.0333723209479384 24.9381074130735492 Ba
atom 2.5166861604739679 2.5166861604739692 22.5020957521165563 Zr
atom 7.5500584814219014 2.5166861604739692 22.5020957521165563 Zr
atom 2.5166861604739679 7.5500584814219085 22.5020957521165563 Zr
atom 7.5500584814219014 7.5500584814219085 22.5020957521165563 Zr
atom 2.5166861604739679 2.5166861604739692 27.5431308144310485 Zr
atom 7.5500584814219014 2.5166861604739692 27.5431308144310485 Zr
atom 2.5166861604739679 7.5500584814219085 27.5431308144310485 Zr
atom 7.5500584814219014 7.5500584814219085 27.5431308144310485 Zr
atom 2.5166861604739679 2.5166861604739692 19.9795446043981926 S
atom 7.5500584814219014 2.5166861604739692 19.9795446043981926 S
atom 2.5166861604739679 7.5500584814219085 19.9795446043981926 S
atom 7.5500584814219014 7.5500584814219085 19.9795446043981926 S
atom 2.5166861604739679 2.5166861604739692 25.0064900078359713 S
atom 7.5500584814219014 2.5166861604739692 25.0064900078359713 S
atom 2.5166861604739679 7.5500584814219085 25.0064900078359713 S
atom 7.5500584814219014 7.5500584814219085 25.0064900078359713 S
atom 2.5166861604739679 -0.0000000000000000 22.4872205716429292 S
atom 7.5500584814219014 -0.0000000000000000 22.4872205716429292 S
atom 2.5166861604739679 5.0333723209479384 22.4872205716429292 S
atom 7.5500584814219014 5.0333723209479384 22.4872205716429292 S
atom 2.5166861604739679 -0.0000000000000000 27.5085411743613513 S
atom 7.5500584814219014 -0.0000000000000000 27.5085411743613513 S
atom 2.5166861604739679 5.0333723209479384 27.5085411743613513 S
atom 7.5500584814219014 5.0333723209479384 27.5085411743613513 S
atom -0.0000000000000000 2.5166861604739692 22.4872205716429292 S
atom 5.0333723209479357 2.5166861604739692 22.4872205716429292 S
atom 0.0000000000000000 7.5500584814219085 22.4872205716429292 S
atom 5.0333723209479357 7.5500584814219085 22.4872205716429292 S
atom 0.0000000000000000 2.5166861604739692 27.5085411743613513 S
atom 5.0333723209479357 2.5166861604739692 27.5085411743613513 S
atom 0.0000000000000000 7.5500584814219085 27.5085411743613513 S
atom 5.0333723209479357 7.5500584814219085 27.5085411743613513 S
atom 0.0000000000000000 -0.0000000000000000 29.8716116846257371 Ba
atom 5.0333723209479357 -0.0000000000000000 29.8716116846257371 Ba
atom -0.0000000000000000 5.0333723209479384 29.8716116846257371 Ba
atom 5.0333723209479357 5.0333723209479384 29.8716116846257371 Ba
atom -0.0000000000000000 -0.0000000000000000 34.6451064125556485 Ba
atom 5.0333723209479357 -0.0000000000000000 34.6451064125556485 Ba
atom -0.0000000000000000 5.0333723209479384 34.6451064125556485 Ba
atom 5.0333723209479357 5.0333723209479384 34.6451064125556485 Ba
atom 2.5166861604739679 2.5166861604739692 32.6217427027207378 Zr
atom 7.5500584814219014 2.5166861604739692 32.6217427027207378 Zr
atom 2.5166861604739679 7.5500584814219085 32.6217427027207378 Zr
atom 7.5500584814219014 7.5500584814219085 32.6217427027207378 Zr
atom 2.5166861604739679 2.5166861604739692 30.0336785237220951 S
atom 7.5500584814219014 2.5166861604739692 30.0336785237220951 S
atom 2.5166861604739679 7.5500584814219085 30.0336785237220951 S
atom 7.5500584814219014 7.5500584814219085 30.0336785237220951 S
atom 2.5166861604739679 2.5166861604739692 35.1131221671420874 S
atom 7.5500584814219014 2.5166861604739692 35.1131221671420874 S
atom 2.5166861604739679 7.5500584814219085 35.1131221671420874 S
atom 7.5500584814219014 7.5500584814219085 35.1131221671420874 S
atom 2.5166861604739679 -0.0000000000000000 32.4912528592568748 S
atom 7.5500584814219014 -0.0000000000000000 32.4912528592568748 S
atom 2.5166861604739679 5.0333723209479384 32.4912528592568748 S
atom 7.5500584814219014 5.0333723209479384 32.4912528592568748 S
atom -0.0000000000000000 2.5166861604739692 32.4912528592568748 S
atom 5.0333723209479357 2.5166861604739692 32.4912528592568748 S
atom -0.0000000000000000 7.5500584814219085 32.4912528592568748 S
atom 5.0333723209479357 7.5500584814219085 32.4912528592568748 S
atom 2.5166861604739679 2.5166861604739692 38.2125146661448696 Ba
atom 7.5500584814219014 2.5166861604739692 38.2125146661448696 Ba
atom 2.5166861604739679 7.5500584814219085 38.2125146661448696 Ba
atom 7.5500584814219014 7.5500584814219085 38.2125146661448696 Ba
atom 2.5166861604739679 2.5166861604739692 42.9860093940747632 Ba
atom 7.5500584814219014 2.5166861604739692 42.9860093940747632 Ba
atom 2.5166861604739679 7.5500584814219085 42.9860093940747632 Ba
atom 7.5500584814219014 7.5500584814219085 42.9860093940747632 Ba
atom 5.0333723209479357 5.0333723209479384 40.2358783759798158 Zr
atom 10.0667446418958715 5.0333723209479384 40.2358783759798158 Zr
atom 5.0333723209479357 10.0667446418958768 40.2358783759798158 Zr
atom 10.0667446418958715 10.0667446418958768 40.2358783759798158 Zr
atom 5.0333723209479357 5.0333723209479384 45.3144902642694731 Zr
atom 10.0667446418958715 5.0333723209479384 45.3144902642694731 Zr
atom 5.0333723209479357 10.0667446418958768 45.3144902642694731 Zr
atom 10.0667446418958715 10.0667446418958768 45.3144902642694731 Zr
atom 5.0333723209479357 5.0333723209479384 37.7444989115584235 S
atom 10.0667446418958715 5.0333723209479384 37.7444989115584235 S
atom 5.0333723209479357 10.0667446418958768 37.7444989115584235 S
atom 10.0667446418958715 10.0667446418958768 37.7444989115584235 S
atom 5.0333723209479357 5.0333723209479384 42.8239425549784798 S
atom 10.0667446418958715 5.0333723209479384 42.8239425549784798 S
atom 5.0333723209479357 10.0667446418958768 42.8239425549784798 S
atom 10.0667446418958715 10.0667446418958768 42.8239425549784798 S
atom 5.0333723209479357 2.5166861604739692 40.3663682194436078 S
atom 10.0667446418958715 2.5166861604739692 40.3663682194436078 S
atom 5.0333723209479357 7.5500584814219085 40.3663682194436078 S
atom 10.0667446418958715 7.5500584814219085 40.3663682194436078 S
atom 5.0333723209479357 2.5166861604739692 45.3490799043392130 S
atom 10.0667446418958715 2.5166861604739692 45.3490799043392130 S
atom 5.0333723209479357 7.5500584814219085 45.3490799043392130 S
atom 10.0667446418958715 7.5500584814219085 45.3490799043392130 S
atom 2.5166861604739679 5.0333723209479384 40.3663682194436078 S
atom 7.5500584814219014 5.0333723209479384 40.3663682194436078 S
atom 2.5166861604739679 10.0667446418958768 40.3663682194436078 S
atom 7.5500584814219014 10.0667446418958768 40.3663682194436078 S
atom 2.5166861604739679 5.0333723209479384 45.3490799043392130 S
atom 7.5500584814219014 5.0333723209479384 45.3490799043392130 S
atom 2.5166861604739679 10.0667446418958768 45.3490799043392130 S
atom 7.5500584814219014 10.0667446418958768 45.3490799043392130 S
atom 2.5166861604739679 2.5166861604739692 47.9195136656269938 Ba
atom 7.5500584814219014 2.5166861604739692 47.9195136656269938 Ba
atom 2.5166861604739679 7.5500584814219085 47.9195136656269938 Ba
atom 7.5500584814219014 7.5500584814219085 47.9195136656269938 Ba
atom 2.5166861604739679 2.5166861604739692 52.8986442386225022 Ba
atom 7.5500584814219014 2.5166861604739692 52.8986442386225022 Ba
atom 2.5166861604739679 7.5500584814219085 52.8986442386225093 Ba
atom 7.5500584814219014 7.5500584814219085 52.8986442386225093 Ba
atom 5.0333723209479357 5.0333723209479384 50.3555253265840008 Zr
atom 10.0667446418958715 5.0333723209479384 50.3555253265840008 Zr
atom 5.0333723209479357 10.0667446418958768 50.3555253265840008 Zr
atom 10.0667446418958715 10.0667446418958768 50.3555253265840008 Zr
atom 5.0333723209479357 5.0333723209479384 55.3917530118887598 Zr
atom 10.0667446418958715 5.0333723209479384 55.3917530118887598 Zr
atom 5.0333723209479357 10.0667446418958768 55.3917530118887598 Zr
atom 10.0667446418958715 10.0667446418958768 55.3917530118887598 Zr
atom 5.0333723209479357 5.0333723209479384 47.8511310708645681 S
atom 10.0667446418958715 5.0333723209479384 47.8511310708645681 S
atom 5.0333723209479357 10.0667446418958768 47.8511310708645681 S
atom 10.0667446418958715 10.0667446418958768 47.8511310708645681 S
atom 5.0333723209479357 5.0333723209479384 52.8780764743023042 S
atom 10.0667446418958715 5.0333723209479384 52.8780764743023042 S
atom 5.0333723209479357 10.0667446418958768 52.8780764743023042 S
atom 10.0667446418958715 10.0667446418958768 52.8780764743023042 S
atom 5.0333723209479357 2.5166861604739692 50.3704005070575391 S
atom 10.0667446418958715 2.5166861604739692 50.3704005070575391 S
atom 5.0333723209479357 7.5500584814219085 50.3704005070575391 S
atom 10.0667446418958715 7.5500584814219085 50.3704005070575391 S
atom 5.0333723209479357 2.5166861604739692 55.3917530118887598 S
atom 10.0667446418958715 2.5166861604739692 55.3917530118887598 S
atom 5.0333723209479357 7.5500584814219085 55.3917530118887598 S
atom 10.0667446418958715 7.5500584814219085 55.3917530118887598 S
atom 2.5166861604739679 5.0333723209479384 50.3704005070575391 S
atom 7.5500584814219014 5.0333723209479384 50.3704005070575391 S
atom 2.5166861604739679 10.0667446418958768 50.3704005070575391 S
atom 7.5500584814219014 10.0667446418958768 50.3704005070575391 S
atom 2.5166861604739679 5.0333723209479384 55.3917530118887598 S
atom 7.5500584814219014 5.0333723209479384 55.3917530118887598 S
atom 2.5166861604739679 10.0667446418958768 55.3917530118887598 S
atom 7.5500584814219014 10.0667446418958768 55.3917530118887598 S
atom 2.5166861604739679 2.5166861604739692 57.8848617851550387 Ba
atom 7.5500584814219014 2.5166861604739692 57.8848617851550387 Ba
atom 2.5166861604739679 7.5500584814219085 57.8848617851550387 Ba
atom 7.5500584814219014 7.5500584814219085 57.8848617851550458 Ba
atom 2.5166861604739679 2.5166861604739692 62.8639923581504974 Ba
atom 7.5500584814219014 2.5166861604739692 62.8639923581504974 Ba
atom 2.5166861604739679 7.5500584814219085 62.8639923581504974 Ba
atom 7.5500584814219014 7.5500584814219085 62.8639923581504974 Ba
atom 5.0333723209479357 5.0333723209479384 60.4279806971935400 Zr
atom 10.0667446418958715 5.0333723209479384 60.4279806971935400 Zr
atom 5.0333723209479357 10.0667446418958768 60.4279806971935400 Zr
atom 10.0667446418958715 10.0667446418958768 60.4279806971935400 Zr
atom 5.0333723209479357 5.0333723209479384 65.4690157595080393 Zr
atom 10.0667446418958715 5.0333723209479384 65.4690157595080393 Zr
atom 5.0333723209479357 10.0667446418958768 65.4690157595080393 Zr
atom 10.0667446418958715 10.0667446418958768 65.4690157595080393 Zr
atom 5.0333723209479357 5.0333723209479384 57.9054295494752154 S
atom 10.0667446418958715 5.0333723209479384 57.9054295494752154 S
atom 5.0333723209479357 10.0667446418958768 57.9054295494752154 S
atom 10.0667446418958715 10.0667446418958768 57.9054295494752154 S
atom 5.0333723209479357 5.0333723209479384 62.9323749529129515 S
atom 10.0667446418958715 5.0333723209479384 62.9323749529129515 S
atom 5.0333723209479357 10.0667446418958768 62.9323749529129515 S
atom 10.0667446418958715 10.0667446418958768 62.9323749529129515 S
atom 5.0333723209479357 2.5166861604739692 60.4131055167199591 S
atom 10.0667446418958715 2.5166861604739692 60.4131055167199591 S
atom 5.0333723209479357 7.5500584814219085 60.4131055167199591 S
atom 10.0667446418958715 7.5500584814219085 60.4131055167199591 S
atom 5.0333723209479357 2.5166861604739692 65.4344261194383989 S
atom 10.0667446418958715 2.5166861604739692 65.4344261194383989 S
atom 5.0333723209479357 7.5500584814219085 65.4344261194383989 S
atom 10.0667446418958715 7.5500584814219085 65.4344261194383989 S
atom 2.5166861604739679 5.0333723209479384 60.4131055167199591 S
atom 7.5500584814219014 5.0333723209479384 60.4131055167199591 S
atom 2.5166861604739679 10.0667446418958768 60.4131055167199591 S
atom 7.5500584814219014 10.0667446418958768 60.4131055167199591 S
atom 2.5166861604739679 5.0333723209479384 65.4344261194383989 S
atom 7.5500584814219014 5.0333723209479384 65.4344261194383989 S
atom 2.5166861604739679 10.0667446418958768 65.4344261194383989 S
atom 7.5500584814219014 10.0667446418958768 65.4344261194383989 S
atom 2.5166861604739679 2.5166861604739692 67.7974966297027919 Ba
atom 7.5500584814219014 2.5166861604739692 67.7974966297027919 Ba
atom 2.5166861604739679 7.5500584814219085 67.7974966297027919 Ba
atom 7.5500584814219014 7.5500584814219085 67.7974966297027919 Ba
atom 2.5166861604739679 2.5166861604739692 72.5709913576326358 Ba
atom 7.5500584814219014 2.5166861604739692 72.5709913576326358 Ba
atom 2.5166861604739679 7.5500584814219085 72.5709913576326358 Ba
atom 7.5500584814219014 7.5500584814219085 72.5709913576326358 Ba
atom 5.0333723209479357 5.0333723209479384 70.5476276477977962 Zr
atom 10.0667446418958715 5.0333723209479384 70.5476276477977962 Zr
atom 5.0333723209479357 10.0667446418958768 70.5476276477977962 Zr
atom 10.0667446418958715 10.0667446418958768 70.5476276477977962 Zr
atom 5.0333723209479357 5.0333723209479384 67.9595634687990611 S
atom 10.0667446418958715 5.0333723209479384 67.9595634687990611 S
atom 5.0333723209479357 10.0667446418958768 67.9595634687990611 S
atom 10.0667446418958715 10.0667446418958768 67.9595634687990611 S
atom 5.0333723209479357 5.0333723209479384 73.0390071122190250 S
atom 10.0667446418958715 5.0333723209479384 73.0390071122190250 S
atom 5.0333723209479357 10.0667446418958768 73.0390071122190250 S
atom 10.0667446418958715 10.0667446418958768 73.0390071122190250 S
atom 5.0333723209479357 2.5166861604739692 70.4171378043338194 S
atom 10.0667446418958715 2.5166861604739692 70.4171378043338194 S
atom 5.0333723209479357 7.5500584814219085 70.4171378043338194 S
atom 10.0667446418958715 7.5500584814219085 70.4171378043338194 S
atom 2.5166861604739679 5.0333723209479384 70.4171378043338194 S
atom 7.5500584814219014 5.0333723209479384 70.4171378043338194 S
atom 2.5166861604739679 10.0667446418958768 70.4171378043338194 S
atom 7.5500584814219014 10.0667446418958768 70.4171378043338194 S
