#=======================================================
# FHI-aims file: sym_relax/sym_relax_RP_4_RxRyMz_-Rx-RyMz.in
# Created using the Atomic Simulation Environment (ASE)
# Fri Mar 14 10:30:21 2025
#=======================================================
lattice_vector 10.0197858707368983 -0.0463590832334491 0.0000000000000000 
lattice_vector -0.0463590832334490 10.0197858707369196 0.0000000000000000 
lattice_vector 0.0000000000000000 0.0000000000000000 45.8528575302180172 
atom 0.0466994774829606 -0.1484684840364577 0.2316938456702453 Ba
atom 5.1583614194048995 -0.0698790190996854 0.2316938456702454 Ba
atom 0.1252889424197327 4.9631934578854837 0.2316938456702454 Ba
atom 5.0334128712346828 4.8382449097152707 0.2316938456702454 Ba
atom -0.2795978583083708 0.2105026894689705 5.0007951996187661 Ba
atom 4.7993902458994748 0.2564183166916472 5.0007951996187661 Ba
atom -0.2336822310856951 5.2894907936768218 5.0007951996187661 Ba
atom 4.7071155354433563 5.1972160832206944 5.0007951996187661 Ba
atom 2.4634759463795404 2.5113197114455237 2.4021989969220425 Zr
atom 7.4852866176746504 2.5000579057554546 2.4021989969220425 Zr
atom 2.4522141406894802 7.5331303827406355 2.4021989969220425 Zr
atom 7.4501893401312698 7.4980331051972424 2.4021989969220425 Zr
atom 2.4635459904686252 2.5219545678070010 7.4588094744516154 Zr
atom 7.4746517613131607 2.4999878616663769 7.4588094744516154 Zr
atom 2.4415792843279926 7.5330603386515520 7.4588094744516154 Zr
atom 7.4502593842203311 7.5086679615587366 7.4588094744516154 Zr
atom 2.5949031212066433 2.7307109167006356 -0.1027581652980320 S
atom 7.2658954124195345 2.3686307309283543 -0.1027581652980320 S
atom 2.2328229354343647 7.4017032079135303 -0.1027581652980320 S
atom 7.5816165149583599 7.7174243104523548 -0.1027581652980320 S
atom 2.2158276641084935 2.2214651774708338 4.9611319428023668 S
atom 7.7751411516493185 2.7477061880265117 4.9611319428023668 S
atom 2.7420686746641598 7.7807786650116864 4.9611319428023668 S
atom 7.2025410578602127 7.2081785712225654 4.9611319428023668 S
atom 2.7514498497964617 0.0208988855620451 2.2468735147961656 S
atom 7.1873804614256995 0.0008464142385727 2.7529991083342802 S
atom 2.1543079844405213 5.0339188912237463 2.7529991083342802 S
atom 7.7381632435481791 5.0076122793137658 2.2468735147961656 S
atom 2.8674620096456143 0.0130224308256730 7.7740532721238269 S
atom 7.1086538741975991 -0.0062071196006268 7.1589673386104131 S
atom 2.0755813972124373 5.0268653573845450 7.1589673386104131 S
atom 7.8541754033973303 4.9997358245773986 7.7740532721238269 S
atom -0.0440784271787698 2.2584430855719919 2.2468735147961656 S
atom 4.9626874378964185 2.8092258676944741 2.7529991083342802 S
atom -0.0703850390887470 7.8422983446796488 2.7529991083342802 S
atom 4.9426349665729434 7.2451564793237182 2.2468735147961656 S
atom -0.0362019724423977 2.1424309257228322 7.7740532721238269 S
atom 4.9697409717356251 2.8879524549225604 7.1589673386104131 S
atom -0.0633315052495475 7.9210249319077359 7.1589673386104131 S
atom 4.9505114213093222 7.1291443194745554 7.7740532721238269 S
atom 0.2467194998502950 -0.1566330362923630 9.9680125065691385 Ba
atom 5.1665259716608114 -0.2698990414670195 9.9680125065691385 Ba
atom 0.1334534946756383 4.7631734355181523 9.9680125065691385 Ba
atom 5.2334328936020231 4.8300803574593560 9.9680125065691385 Ba
atom -0.2795978583083708 0.2105026894689705 14.9352298135195198 Ba
atom 4.7993902458994748 0.2564183166916472 14.9352298135195198 Ba
atom -0.2336822310856951 5.2894907936768218 14.9352298135195198 Ba
atom 4.7071155354433563 5.1972160832206944 14.9352298135195198 Ba
atom 2.4635459904686252 2.5219545678070010 12.4772155386866856 Zr
atom 7.4746517613131607 2.4999878616663769 12.4772155386866856 Zr
atom 2.4415792843279926 7.5330603386515520 12.4772155386866856 Zr
atom 7.4502593842203311 7.5086679615587366 12.4772155386866856 Zr
atom 2.4634759463795404 2.5113197114455237 17.5338260162162385 Zr
atom 7.4852866176746504 2.5000579057554546 17.5338260162162385 Zr
atom 2.4522141406894802 7.5331303827406355 17.5338260162162385 Zr
atom 7.4501893401312698 7.4980331051972424 17.5338260162162385 Zr
atom 2.7311431629767156 2.8463013689781178 9.9680125065691385 S
atom 7.1503049601420416 2.2323906891582843 9.9680125065691385 S
atom 2.1172324831568861 7.2654631661434550 9.9680125065691385 S
atom 7.7178565567284405 7.8330147627298388 9.9680125065691385 S
atom 2.2158276641084935 2.2214651774708338 14.9748930703359378 S
atom 7.7751411516493185 2.7477061880265117 14.9748930703359378 S
atom 2.7420686746641598 7.7807786650116864 14.9748930703359378 S
atom 7.2025410578602127 7.2081785712225654 14.9748930703359378 S
atom 2.8674620096456143 0.0130224308256730 12.1619717410144812 S
atom 7.1086538741975991 -0.0062071196006268 12.7770576745278674 S
atom 2.0755813972124373 5.0268653573845450 12.7770576745278674 S
atom 7.8541754033973303 4.9997358245773986 12.1619717410144812 S
atom 2.7514498497964617 0.0208988855620451 17.6891514983421203 S
atom 7.1873804614256995 0.0008464142385726 17.1830259048039942 S
atom 2.1543079844405213 5.0339188912237463 17.1830259048039942 S
atom 7.7381632435481791 5.0076122793137658 17.6891514983421203 S
atom -0.0362019724423977 2.1424309257228322 12.1619717410144812 S
atom 4.9697409717356251 2.8879524549225604 12.7770576745278674 S
atom -0.0633315052495475 7.9210249319077359 12.7770576745278674 S
atom 4.9505114213093222 7.1291443194745554 12.1619717410144812 S
atom -0.0440784271787698 2.2584430855719919 17.6891514983421203 S
atom 4.9626874378964185 2.8092258676944741 17.1830259048039942 S
atom -0.0703850390887470 7.8422983446796488 17.1830259048039942 S
atom 4.9426349665729434 7.2451564793237182 17.6891514983421203 S
atom 0.0466994774829606 -0.1484684840364577 19.7043311674680339 Ba
atom 5.1583614194048995 -0.0698790190996854 19.7043311674680339 Ba
atom 0.1252889424197327 4.9631934578854837 19.7043311674680339 Ba
atom 5.0334128712346828 4.8382449097152707 19.7043311674680339 Ba
atom 2.5949031212066433 2.7307109167006356 20.0387831784363222 S
atom 7.2658954124195345 2.3686307309283543 20.0387831784363222 S
atom 2.2328229354343647 7.4017032079135303 20.0387831784363222 S
atom 7.5816165149583599 7.7174243104523548 20.0387831784363222 S
atom 2.4466572193928959 2.6418251809123197 23.1581226107792695 Ba
atom 7.3547811482078389 2.5168766327420991 23.1581226107792695 Ba
atom 2.3217086712226815 7.5499491097272733 23.1581226107792695 Ba
atom 7.4333706131446178 7.6285385746640424 23.1581226107792695 Ba
atom 2.7729545551842283 2.2828540074068902 27.9272239647278155 Ba
atom 7.7137523217132751 2.1905792969507631 27.9272239647278155 Ba
atom 2.6806798447281053 7.2236517739359458 27.9272239647278155 Ba
atom 7.7596679489359452 7.2695674011586187 27.9272239647278155 Ba
atom 5.0165941442480353 4.9687503791820777 25.3286277620310472 Zr
atom 10.0145693436897929 4.9336531016386793 25.3286277620310472 Zr
atom 4.9814968667046529 9.9667255786238762 25.3286277620310472 Zr
atom 10.0033075379997491 9.9554637729338058 25.3286277620310472 Zr
atom 5.0165241001589616 4.9581155228205782 30.3852382395606355 Zr
atom 10.0252042000513004 4.9337231457277602 30.3852382395606355 Zr
atom 4.9921317230661471 9.9667956227129544 30.3852382395606355 Zr
atom 10.0032374939106852 9.9448289165723143 30.3852382395606355 Zr
atom 4.8851669694209319 4.7493591739269636 22.8236705998110025 S
atom 10.2339605489449426 5.0650802764657801 22.8236705998110025 S
atom 5.2008880719597590 10.0981527534509521 22.8236705998110025 S
atom 9.8718803631726626 9.7360725676786846 22.8236705998110025 S
atom 5.2642424265190950 5.2586049131567414 27.8875607079113870 S
atom 9.7247148097151417 4.6860048193676311 27.8875607079113870 S
atom 4.6916423327299679 9.7190772963528111 27.8875607079113870 S
atom 10.2509558202708000 10.2453183069084961 27.8875607079113870 S
atom 5.3257621061870468 2.4461511994038396 25.6794278734433163 S
atom 9.7616927178162829 2.4260987280803659 25.1733022799051867 S
atom 4.7286202408311242 7.4591712050655445 25.1733022799051867 S
atom 10.3124754999387882 7.4328645931555712 25.6794278734433163 S
atom 5.4044886934151526 2.4532047332430422 30.0853961037194502 S
atom 9.6456805579671414 2.4339751828167380 30.7004820372328417 S
atom 4.6126080809819641 7.4670476598019109 30.7004820372328417 S
atom 10.3912020871668460 7.4399181269947618 30.0853961037194502 S
atom 2.5173826527311545 4.6708442229331171 25.6794278734433163 S
atom 7.5241485178063430 5.2216270050555957 25.1733022799051867 S
atom 2.4910760408211781 10.2546994820407598 25.1733022799051867 S
atom 7.5040960464828785 9.6575576166848318 25.6794278734433163 S
atom 2.5103291188919576 4.5921176357050131 30.0853961037194502 S
atom 7.5162720630699740 5.3376391649047523 30.7004820372328417 S
atom 2.4831995860848095 10.3707116418899332 30.7004820372328417 S
atom 7.4970425126436790 9.5788310294567562 30.0853961037194502 S
atom 2.2466371970255690 2.6499897331682258 32.8944412716781329 Ba
atom 7.3466165959519385 2.7168966551094327 32.8944412716781329 Ba
atom 2.3135441189667714 7.7499691320946109 32.8944412716781329 Ba
atom 7.2333505907772864 7.6367031269199579 32.8944412716781329 Ba
atom 2.7729545551842283 2.2828540074068902 37.8616585786285356 Ba
atom 7.7137523217132751 2.1905792969507631 37.8616585786285356 Ba
atom 2.6806798447281048 7.2236517739359458 37.8616585786285356 Ba
atom 7.7596679489359452 7.2695674011586187 37.8616585786285356 Ba
atom 5.0165241001589616 4.9581155228205782 35.4036443037957156 Zr
atom 10.0252042000513004 4.9337231457277602 35.4036443037957156 Zr
atom 4.9921317230661471 9.9667956227129544 35.4036443037957156 Zr
atom 10.0032374939106852 9.9448289165723143 35.4036443037957156 Zr
atom 5.0165941442480353 4.9687503791820777 40.4602547813252400 Zr
atom 10.0145693436897929 4.9336531016386793 40.4602547813252400 Zr
atom 4.9814968667046529 9.9667255786238762 40.4602547813252400 Zr
atom 10.0033075379997491 9.9554637729338058 40.4602547813252400 Zr
atom 4.7489269276508708 4.6337687216494698 32.8944412716781329 S
atom 10.3495510012224035 5.2013203182358474 32.8944412716781329 S
atom 5.3164785242372536 10.2343927952210461 32.8944412716781329 S
atom 9.7356403214025722 9.6204821154012041 32.8944412716781329 S
atom 5.2642424265190950 5.2586049131567414 37.9013218354449322 S
atom 9.7247148097151417 4.6860048193676311 37.9013218354449322 S
atom 4.6916423327299679 9.7190772963528111 37.9013218354449322 S
atom 10.2509558202708000 10.2453183069084961 37.9013218354449322 S
atom 5.4044886934151526 2.4532047332430422 35.7034864396367695 S
atom 9.6456805579671414 2.4339751828167380 35.0884005061234703 S
atom 4.6126080809819641 7.4670476598019109 35.0884005061234703 S
atom 10.3912020871668460 7.4399181269947618 35.7034864396367695 S
atom 5.3257621061870468 2.4461511994038396 40.1094546699130490 S
atom 9.7616927178162829 2.4260987280803659 40.6155802634511360 S
atom 4.7286202408311242 7.4591712050655445 40.6155802634511360 S
atom 10.3124754999387882 7.4328645931555712 40.1094546699130490 S
atom 2.5103291188919576 4.5921176357050131 35.7034864396367695 S
atom 7.5162720630699740 5.3376391649047523 35.0884005061234703 S
atom 2.4831995860848095 10.3707116418899332 35.0884005061234703 S
atom 7.4970425126436790 9.5788310294567562 35.7034864396367695 S
atom 2.5173826527311545 4.6708442229331171 40.1094546699130490 S
atom 7.5241485178063430 5.2216270050555957 40.6155802634511360 S
atom 2.4910760408211781 10.2546994820407598 40.6155802634511360 S
atom 7.5040960464828785 9.6575576166848318 40.1094546699130490 S
atom 2.4466572193928959 2.6418251809123197 42.6307599325769857 Ba
atom 7.3547811482078389 2.5168766327420991 42.6307599325769857 Ba
atom 2.3217086712226815 7.5499491097272733 42.6307599325769857 Ba
atom 7.4333706131446178 7.6285385746640424 42.6307599325769857 Ba
atom 4.8851669694209319 4.7493591739269636 42.9652119435453912 S
atom 10.2339605489449426 5.0650802764657801 42.9652119435453912 S
atom 5.2008880719597590 10.0981527534509521 42.9652119435453912 S
atom 9.8718803631726626 9.7360725676786846 42.9652119435453912 S
