#=======================================================
# FHI-aims file: sym_relax/sym_relax_RP_9_Rx0Mz_0-Ry0.in
# Created using the Atomic Simulation Environment (ASE)
# Mon Mar 17 16:45:14 2025
#=======================================================
lattice_vector 10.0130164120635659 0.0000000000000000 0.0037002258119736 
lattice_vector 0.0000000000000000 10.0817201333799353 -0.0000000000000000 
lattice_vector 0.0356219623582060 -0.0000000000000001 95.3721866138509142 
atom -0.1725488495945519 -0.0000000000000000 0.1735819278234602 Ba
atom 5.1383170693580036 0.0000000000000000 0.1698330642666421 Ba
atom 0.1318088633262280 5.0408600666899650 0.1679829513606554 Ba
atom 4.8339593564372265 5.0408600666899650 0.1754320407294468 Ba
atom -0.0748822555275208 -0.0000000000000000 4.8804146251193439 Ba
atom 4.8830159603002370 -0.0000000000000000 4.8142047126595751 Ba
atom -0.1234922457315522 5.0408600666899650 4.8123545997536006 Ba
atom 4.9316259505042543 5.0408600666899650 4.8822647380253201 Ba
atom 2.4777230653314031 2.5037840396644189 2.2363068687351340 Zr
atom 7.4842312713632024 2.5370760270255399 2.2381569816411191 Zr
atom 2.4777230653314031 7.5779360937154907 2.2363068687351331 Zr
atom 7.4842312713632024 7.5446441063543794 2.2381569816411209 Zr
atom 2.5212303120475084 2.5181694143881024 7.2909369234468429 Zr
atom 7.5277385180792900 2.5226906523018480 7.2927870363528289 Zr
atom 2.5212303120475084 7.5635507189918139 7.2909369234468429 Zr
atom 7.5277385180792900 7.5590294810780723 7.2927870363528307 Zr
atom 2.4841974487052765 2.7748914175171042 -0.2480766489374092 S
atom 7.4907056547370603 2.2659686491728546 -0.2462265360314222 S
atom 2.4841974487052756 7.3068287158628120 -0.2480766489374091 S
atom 7.4907056547370603 7.8157514842070777 -0.2462265360314222 S
atom 2.4966122801426871 2.1476790906171095 4.8030270758256908 S
atom 7.5031204861744598 2.8931809760728533 4.8048771887316715 S
atom 2.4966122801426862 7.9340410427628196 4.8030270758256908 S
atom 7.5031204861744598 7.1885391573070585 4.8048771887316715 S
atom 2.4879426441491583 -0.0000000000000000 2.0058479170520891 S
atom 7.4756841211036127 -0.0000000000000000 2.6416306625411958 S
atom 2.4691759150718284 5.0408600666899650 2.6397805496352067 S
atom 7.4944508501809386 5.0408600666899650 2.0076980299580751 S
atom 2.8799679529394959 -0.0000000000000000 7.6567911259507913 S
atom 7.1861142078997586 -0.0000000000000000 6.9472241270332722 S
atom 2.1796060018679833 5.0408600666899650 6.9453740141272746 S
atom 7.8864761589712771 5.0408600666899650 7.6586412388567950 S
atom -0.0225011196979566 2.5173072177333342 2.3647169952151796 S
atom 4.9840070863338122 2.5235528489566237 2.3665671081211719 S
atom -0.0225011196979566 7.5644129156465763 2.3647169952151805 S
atom 4.9840070863338122 7.5581672844232983 2.3665671081211728 S
atom 0.0153042027377077 2.1531074787043734 7.3184350890767051 S
atom 5.0218124087694846 2.8877525879855863 7.3202852019826876 S
atom 0.0153042027377077 7.9286126546755495 7.3184350890767078 S
atom 5.0218124087694846 7.1939675453943357 7.3202852019826894 S
atom 0.2151651303084327 -0.0000000000000000 9.8284860752107708 Ba
atom 5.1947589292578611 -0.0000000000000000 9.8192303932335623 Ba
atom 0.1882507232260832 5.0408600666899650 9.8173802803275692 Ba
atom 5.2216733363402028 5.0408600666899650 9.8303361881167461 Ba
atom -0.1919674209188522 -0.0000000000000000 14.8318425026062499 Ba
atom 4.8408545544918731 -0.0000000000000000 14.8313206087428018 Ba
atom -0.1656536515399040 5.0408600666899650 14.8294704958368033 Ba
atom 4.8145407851129258 5.0408600666899650 14.8336926155122395 Ba
atom 2.5186766296871470 2.5227631977391027 12.3117580628809762 Zr
atom 7.5251848357189308 2.5180968689508636 12.3136081757869658 Zr
atom 2.5186766296871470 7.5589569356408175 12.3117580628809762 Zr
atom 7.5251848357189308 7.5636232644290633 12.3136081757869658 Zr
atom 2.5126061738991030 2.5197791572675405 17.3332347943313003 Zr
atom 7.5191143799308957 2.5210809094224178 17.3350849072373059 Zr
atom 2.5126061738991030 7.5619409761123846 17.3332347943313074 Zr
atom 7.5191143799308957 7.5606392239575060 17.3350849072373059 Zr
atom 2.5099666909400833 2.8755227639290970 9.8116797191101224 S
atom 7.5164748969718751 2.1653373027608609 9.8135298320161297 S
atom 2.5099666909400824 7.2061973694508197 9.8116797191101224 S
atom 7.5164748969718751 7.9163828306190478 9.8135298320161297 S
atom 2.5192919483515093 2.1685068533394274 14.8278113891675947 S
atom 7.5258001543832806 2.8723532133505341 14.8296615020735878 S
atom 2.5192919483515093 7.9132132800404911 14.8278113891675947 S
atom 7.5258001543832806 7.2093669200293817 14.8296615020735878 S
atom 2.8765136999850895 -0.0000000000000000 11.9709818997810764 S
atom 7.1614837563812346 -0.0000000000000000 12.6787868015252077 S
atom 2.1549755503494561 5.0408600666899650 12.6769366886192412 S
atom 7.8830219060168698 5.0408600666899650 11.9728320126870766 S
atom 2.8757269036578026 -0.0000000000000000 17.6898191023243250 S
atom 7.1576815195001107 -0.0000000000000000 16.9874077693204590 S
atom 2.1511733134683388 5.0408600666899650 16.9855576564144144 S
atom 7.8822351096895718 5.0408600666899650 17.6916692152303270 S
atom 0.0134445601398586 2.1439384843857221 12.3270882575120986 S
atom 5.0199527661716488 2.8969215823042385 12.3289383704180651 S
atom 0.0134445601398586 7.9377816489941848 12.3270882575121021 S
atom 5.0199527661716488 7.1847985510756862 12.3289383704180615 S
atom 0.0098471545647182 2.1419865491565000 17.3379907338369144 S
atom 5.0163553605964815 2.8988735175334641 17.3398408467429199 S
atom 0.0098471545647182 7.9397335842234247 17.3379907338369108 S
atom 5.0163553605964815 7.1828466158464641 17.3398408467429235 S
atom 0.2144332861148182 -0.0000000000000000 19.8448406616940183 Ba
atom 5.1926040330575658 -0.0000000000000000 19.8459653149639870 Ba
atom 0.1860958270257837 5.0408600666899650 19.8441152020580276 Ba
atom 5.2209414921465962 5.0408600666899650 19.8466907746000132 Ba
atom -0.1977354912594097 -0.0000000000000000 24.8608718135484246 Ba
atom 4.8371101738614044 -0.0000000000000000 24.8634473860904599 Ba
atom -0.1693980321703749 5.0408600666899650 24.8615972731844472 Ba
atom 4.8087727147723660 5.0408600666899650 24.8627219264544124 Ba
atom 2.5116030004435972 2.5204300333449825 22.3537812940742064 Zr
atom 7.5181112064753775 2.5204300333449825 22.3556314069802085 Zr
atom 2.5116030004435972 7.5612901000349408 22.3537812940742064 Zr
atom 7.5181112064753775 7.5612901000349408 22.3556314069802085 Zr
atom 2.5105998269880758 2.5210809094224182 27.3743277938171339 Zr
atom 7.5171080330198503 2.5197791572675410 27.3761779067231430 Zr
atom 2.5105998269880758 7.5606392239575042 27.3743277938171410 Zr
atom 7.5171080330198503 7.5619409761123846 27.3761779067231501 Zr
atom 2.5075128600044034 2.8715479215551190 19.8451096753202449 S
atom 7.5140210660361708 2.1693121451348514 19.8469597882262576 S
atom 2.5075128600044034 7.2101722118248066 19.8451096753202449 S
atom 7.5140210660361717 7.9124079882450618 19.8469597882262789 S
atom 2.5156931408827852 2.1693121451348514 24.8624529128281608 S
atom 7.5222013469145566 2.8715479215551181 24.8643030257341273 S
atom 2.5156931408827852 7.9124079882450618 24.8624529128281679 S
atom 7.5222013469145583 7.2101722118248066 24.8643030257341202 S
atom 2.8754730946796010 -0.0000000000000000 22.0021668257741077 S
atom 7.1542411122393563 -0.0000000000000000 22.7072458752803001 S
atom 2.1477329062075841 5.0408600666899650 22.7053957623743408 S
atom 7.8819813007113835 5.0408600666899650 22.0040169386800990 S
atom 2.8720326874188467 -0.0000000000000000 27.7220049317339985 S
atom 7.1539873032611663 -0.0000000000000000 27.0195935987300864 S
atom 2.1474790972293905 5.0408600666899650 27.0177434858240701 S
atom 7.8785408934506416 5.0408600666899650 27.7238550446399614 S
atom 0.0083488974277049 2.1405093126579913 22.3528562376212285 S
atom 5.0148571034594704 2.9003507540319751 22.3547063505271915 S
atom 0.0083488974277049 7.9412108207219223 22.3528562376212285 S
atom 5.0148571034594704 7.1813693793479354 22.3547063505271915 S
atom 0.0068506402906908 2.1419865491564991 27.3677217414055640 S
atom 5.0133588463224665 2.8988735175334632 27.3695718543115092 S
atom 0.0068506402906908 7.9397335842234247 27.3677217414055640 S
atom 5.0133588463224665 7.1828466158464641 27.3695718543115163 S
atom 0.2086652157742613 -0.0000000000000000 29.8738699726362000 Ba
atom 5.1888596524270953 -0.0000000000000000 29.8780920923116398 Ba
atom 0.1823514463953145 5.0408600666899650 29.8762419794056377 Ba
atom 5.2151734218060355 5.0408600666899650 29.8757200855421701 Ba
atom -0.1984673354530242 -0.0000000000000000 34.8772264000316241 Ba
atom 4.8349552776611189 -0.0000000000000000 34.8901823078208437 Ba
atom -0.1715529283706734 5.0408600666899650 34.8883321949148453 Ba
atom 4.8080408705787478 5.0408600666899650 34.8790765129376794 Ba
atom 2.5045293712000456 2.5180968689508636 32.3958045252674651 Zr
atom 7.5110375772318161 2.5227631977391027 32.3976546381735204 Zr
atom 2.5045293712000456 7.5636232644290615 32.3958045252674651 Zr
atom 7.5110375772318161 7.5589569356408175 32.3976546381735204 Zr
atom 2.5019756888396794 2.5226906523018471 37.4166256647015985 Zr
atom 7.5084838948714552 2.5181694143881028 37.4184757776076253 Zr
atom 2.5019756888396794 7.5590294810780705 37.4166256647015985 Zr
atom 7.5084838948714552 7.5635507189918139 37.4184757776076253 Zr
atom 2.5039140525356740 2.8723532133505341 29.8797511989808200 S
atom 7.5104222585674538 2.1685068533394265 29.8816013118868398 S
atom 2.5039140525356740 7.2093669200293835 29.8797511989808200 S
atom 7.5104222585674538 7.9132132800404911 29.8816013118868398 S
atom 2.5132393099471053 2.1653373027608618 34.8958828690383172 S
atom 7.5197475159788798 2.8755227639290970 34.8977329819443369 S
atom 2.5132393099471053 7.9163828306190496 34.8958828690383029 S
atom 7.5197475159788798 7.2061973694508197 34.8977329819443369 S
atom 2.8682304505377343 -0.0000000000000000 32.0306258995291415 S
atom 7.1532005069338691 -0.0000000000000000 32.7384308012732319 S
atom 2.1466923009020946 5.0408600666899650 32.7365806883673542 S
atom 7.8747386565695088 5.0408600666899650 32.0324760124350618 S
atom 2.8435999990192102 -0.0000000000000000 37.7621885740210459 S
atom 7.1497462539794716 -0.0000000000000000 37.0526215751034940 S
atom 2.1432380479476918 5.0408600666899650 37.0507714621975239 S
atom 7.8501082050509883 5.0408600666899650 37.7640386869271367 S
atom 0.0032532347155513 2.1439384843857230 32.3786242177303905 S
atom 5.0097614407473321 2.8969215823042394 32.3804743306364031 S
atom 0.0032532347155513 7.9377816489941839 32.3786242177304047 S
atom 5.0097614407473321 7.1847985510756862 32.3804743306364031 S
atom 0.0013935921177022 2.1531074787043734 37.3872773861657066 S
atom 5.0079017981494722 2.8877525879855872 37.3891274990717477 S
atom 0.0013935921177022 7.9286126546755504 37.3872773861657066 S
atom 5.0079017981494722 7.1939675453943339 37.3891274990717477 S
atom 0.0915800503829294 -0.0000000000000000 39.8252978501230217 Ba
atom 5.1466982466187261 -0.0000000000000000 39.8952079883949224 Ba
atom 0.1401900405869611 5.0408600666899650 39.8933578754889595 Ba
atom 5.0980882564147043 5.0408600666899650 39.8271479630290770 Ba
atom 0.1892466444499607 -0.0000000000000000 44.5321305474190012 Ba
atom 4.8913971375609506 -0.0000000000000000 44.5395796367876784 Ba
atom -0.1151110684708185 5.0408600666899650 44.5377295238816728 Ba
atom 5.1957548504817259 5.0408600666899650 44.5339806603249926 Ba
atom 2.5454829355557775 2.5370760270255408 42.4712557194133780 Zr
atom 7.5519911415875587 2.5037840396644198 42.4731058323193480 Zr
atom 2.5454829355557775 7.5446441063543794 42.4712557194133780 Zr
atom 7.5519911415875587 7.5779360937154925 42.4731058323193480 Zr
atom 2.5265937207444997 2.8931809760728506 39.9045355123228020 S
atom 7.5331019267762684 2.1476790906171104 39.9063856252287721 S
atom 2.5265937207444997 7.1885391573070567 39.9045355123228020 S
atom 7.5331019267762684 7.9340410427628196 39.9063856252287721 S
atom 2.5390085521819095 2.2659686491728541 44.9556392370857836 S
atom 7.5455167582136911 2.7748914175171047 44.9574893499918105 S
atom 2.5390085521819095 7.8157514842070777 44.9556392370857836 S
atom 7.5455167582136911 7.3068287158628120 44.9574893499918105 S
atom 2.5540300858153602 -0.0000000000000000 42.0677820385132009 S
atom 7.5417715627698012 -0.0000000000000000 42.7035647840023387 S
atom 2.5352633567380281 5.0408600666899650 42.7017146710963473 S
atom 7.5605382918471227 5.0408600666899650 42.0696321514192206 S
atom 0.0391989145533656 2.5173072177333351 42.3409954800272956 S
atom 5.0457071205851420 2.5235528489566228 42.3428455929332728 S
atom 0.0391989145533656 7.5644129156465763 42.3409954800272885 S
atom 5.0457071205851420 7.5581672844232983 42.3428455929332657 S
atom 2.5373991008156676 2.3589041825104222 48.0660854355953262 Ba
atom 7.5439073068474416 2.6819558841795432 48.0679355485012536 Ba
atom 2.5373991008156676 7.7228159508694967 48.0660854355953262 Ba
atom 7.5439073068474416 7.3997642492003877 48.0679355485012536 Ba
atom 2.5359588360326568 2.5423839572632780 52.7474444211038218 Ba
atom 7.5424670420644286 2.4984761094266803 52.7492945340098345 Ba
atom 2.5359588360326568 7.5393361761166409 52.7474444211038289 Ba
atom 7.5424670420644286 7.5832440239532319 52.7492945340098203 Ba
atom 5.0204331632306758 5.0408600666899650 50.1288293296346765 Zr
atom 10.0659751987118522 5.0408600666899650 50.1321628004972482 Zr
atom 5.0594669926800542 10.0817201333799300 50.1303126875913065 Zr
atom 10.0269413692624383 10.0817201333799300 50.1306794425406252 Zr
atom 5.0373092264761787 5.0408600666899650 55.1489884558392163 Zr
atom 10.0456690689999739 5.0408600666899650 55.1514893678815881 Zr
atom 5.0391608629681883 10.0817201333799300 55.1496392549754688 Zr
atom 10.0438174325079430 10.0817201333799300 55.1508385687451081 Zr
atom 5.3275468543190820 5.0408600666899650 47.6443258967315586 S
atom 9.7607203110005116 5.0408600666899650 47.6474000511747988 S
atom 4.7542121049686870 10.0817201333799300 47.6455499382688572 S
atom 10.3340550603508863 10.0817201333799300 47.6461760096375784 S
atom 4.5727892339863843 5.0408600666899650 52.6746360476835136 S
atom 10.5121329421113163 5.0408600666899650 52.6771522284544886 S
atom 5.5056247360795600 10.0817201333799300 52.6753021155485541 S
atom 9.5792974400181521 10.0817201333799300 52.6764861605896400 S
atom 5.0400073200703286 2.5204965503832795 50.2636996307522637 S
atom 10.0465155261020733 2.5203635163066860 50.2655497436583047 S
atom 5.0400073200703286 7.5612235829966323 50.2636996307522637 S
atom 10.0465155261020733 7.5613566170732387 50.2655497436583047 S
atom 5.0382826373068710 2.5204130612172011 55.1667035721933630 S
atom 10.0447908433386370 2.5204470054727630 55.1685536850992975 S
atom 5.0382826373068710 7.5613070721627302 55.1667035721933630 S
atom 10.0447908433386370 7.5612731279071621 55.1685536850992833 S
atom 2.5368574322036035 5.0408600666899650 49.8153533321253335 S
atom 7.5430304259249219 5.0408600666899650 50.5810010097105689 S
atom 2.5365222198931630 10.0817201333799300 50.5791508968045989 S
atom 7.5433656382353869 10.0817201333799300 49.8172034450311898 S
atom 2.5348384780774622 5.0408600666899650 55.6366796494553242 S
atom 7.5417346658789226 5.0408600666899650 54.6785970601613869 S
atom 2.5352264598471543 10.0817201333799300 54.6767469472554808 S
atom 7.5413466841092456 10.0817201333799300 55.6385297623613369 S
atom 2.5340447937819119 2.5165884382099812 57.6548063894811520 Ba
atom 7.5405529998136931 2.5242716284799847 57.6566565023871078 Ba
atom 2.5340447937819119 7.5651316951699643 57.6548063894811520 Ba
atom 7.5405529998136931 7.5574485048999236 57.6566565023871078 Ba
atom 2.5322726818389265 2.5245150161618786 62.6042982483642092 Ba
atom 7.5387808878706988 2.5163450505280767 62.6061483612702361 Ba
atom 2.5322726818389265 7.5572051172180448 62.6042982483642163 Ba
atom 7.5387808878706988 7.5653750828518387 62.6061483612702361 Ba
atom 5.0381306847326819 5.0408600666899650 60.1146274842557986 Zr
atom 10.0412793648292205 5.0408600666899650 60.1167823112253288 Zr
atom 5.0347711587974668 10.0817201333799300 60.1149321983193659 Zr
atom 10.0446388907644693 10.0817201333799300 60.1164775971617757 Zr
atom 5.0342222549888653 5.0408600666899650 65.0782852260055336 Zr
atom 10.0414342674789800 5.0408600666899650 65.0802575758851134 Zr
atom 5.0349260614472096 10.0817201333799300 65.0784074629791007 Zr
atom 10.0407304610206563 10.0817201333799300 65.0801353389117025 Zr
atom 5.5441897430517342 5.0408600666899650 57.6386046238110410 S
atom 9.5369453395470867 5.0408600666899650 57.6402656677363225 S
atom 4.5304371335152958 10.0817201333799300 57.6384155548304378 S
atom 10.5506979490835082 10.0817201333799300 57.6404547367169897 S
atom 4.5277610774595276 5.0408600666899650 62.5987586773145637 S
atom 10.5497950384633068 5.0408600666899650 62.6010722138863827 S
atom 5.5432868324315470 10.0817201333799300 62.5992221009803131 S
atom 9.5342692834912892 10.0817201333799300 62.6006087902205834 S
atom 5.0364234037411340 2.5204214764804309 60.1226596049131246 S
atom 10.0429316097729036 2.5204385902095297 60.1245097178191159 S
atom 5.0364234037411340 7.5612986568994884 60.1226596049131246 S
atom 10.0429316097729036 7.5612815431703932 60.1245097178191159 S
atom 5.0345841982656774 2.5204241503707410 65.0804745342262123 S
atom 10.0410924042974727 2.5204359163192174 65.0823246471322534 S
atom 5.0345841982656774 7.5612959830091864 65.0804745342262123 S
atom 10.0410924042974727 7.5612842170606900 65.0823246471322250 S
atom 2.5333395286073879 5.0408600666899650 59.6307215963229282 S
atom 7.5394992481239340 5.0408600666899650 60.6154808771560241 S
atom 2.5329910420921711 10.0817201333799300 60.6136307642500967 S
atom 7.5398477346391628 10.0817201333799300 59.6325717092288130 S
atom 2.5311339007178990 5.0408600666899650 65.5724355671234207 S
atom 7.5380265026966011 5.0408600666899650 64.5893508270937673 S
atom 2.5315182966648133 10.0817201333799300 64.5875007141877546 S
atom 7.5376421067496739 10.0817201333799300 65.5742856800292486 S
atom 2.5303570294557245 2.5171812241666864 67.5601629610404473 Ba
atom 7.5368652354874976 2.5236788425232706 67.5620130739467726 Ba
atom 2.5303570294557245 7.5645389092132413 67.5601629610404331 Ba
atom 7.5368652354874994 7.5580412908566439 67.5620130739467726 Ba
atom 2.5284709337896705 2.5236788425232679 72.5195862409585033 Ba
atom 7.5349791398214476 2.5171812241666847 72.5214363538642459 Ba
atom 2.5284709337896705 7.5580412908566439 72.5195862409585317 Ba
atom 7.5349791398214476 7.5645389092132413 72.5214363538643028 Ba
atom 5.0326680846385878 5.0408600666899650 70.0407996574524816 Zr
atom 10.0391762906703654 5.0408600666899650 70.0426497703584516 Zr
atom 5.0326680846385878 10.0817201333799300 70.0407996574524816 Zr
atom 10.0391762906703654 10.0817201333799300 70.0426497703584516 Zr
atom 5.0311139142883023 5.0408600666899650 75.0033140888993017 Zr
atom 10.0369183138617437 5.0408600666899650 75.0050419648317046 Zr
atom 5.0304101078299697 10.0817201333799300 75.0031918519259051 Zr
atom 10.0376221203200693 10.0817201333799300 75.0051642018054423 Zr
atom 5.5421906119260758 5.0408600666899650 67.5604344456067736 S
atom 9.5315429487143053 5.0408600666899650 67.5619247827988687 S
atom 4.5250347426825321 10.0817201333799300 67.5600746698928134 S
atom 10.5486988179578542 10.0817201333799300 67.5622845585126726 S
atom 4.5231455573511044 5.0408600666899650 72.5211648692983744 S
atom 10.5468096326264327 5.0408600666899650 72.5233747579183188 S
atom 5.5403014265946382 10.0817201333799300 72.5215246450122777 S
atom 9.5296537633828606 10.0817201333799300 72.5230149822041170 S
atom 5.0326680846385878 2.5204301798831894 70.0407996574524816 S
atom 10.0391762906703654 2.5204298868067729 70.0426497703584516 S
atom 5.0326680846385878 7.5612899534967370 70.0407996574524816 S
atom 10.0391762906703654 7.5612902465731446 70.0426497703584516 S
atom 5.0307519710114939 2.5204241503707410 75.0011247806787225 S
atom 10.0372601770432706 2.5204359163192174 75.0029748935847067 S
atom 5.0307519710114939 7.5612959830091881 75.0011247806787225 S
atom 10.0372601770432706 7.5612842170606918 75.0029748935846783 S
atom 2.5295962798851592 5.0408600666899650 69.5465814935733846 S
atom 7.5357398893920049 5.0408600666899650 70.5350178213314791 S
atom 2.5292316833602277 10.0817201333799300 70.5331677084254665 S
atom 7.5361044859169484 10.0817201333799300 69.5484316064794967 S
atom 2.5273096665805772 5.0408600666899650 75.4922484878113949 S
atom 7.5342022685592669 5.0408600666899650 74.5091637477816846 S
atom 2.5276940625274968 10.0817201333799300 74.5073136348755440 S
atom 7.5338178726123388 10.0817201333799300 75.4940986007172654 S
atom 2.5265552814064676 2.5163450505280767 77.4754509536347200 Ba
atom 7.5330634874382394 2.5245150161618795 77.4773010665405337 Ba
atom 2.5265552814064676 7.5653750828518387 77.4754509536347484 Ba
atom 7.5330634874382394 7.5572051172180448 77.4773010665405195 Ba
atom 2.5247831694634733 2.5242716284799820 82.4249428125178412 Ba
atom 7.5312913754952646 2.5165884382099786 82.4267929254237686 Ba
atom 2.5247831694634733 7.5574485048999218 82.4249428125178412 Ba
atom 7.5312913754952646 7.5651316951699643 82.4267929254237686 Ba
atom 5.0272054845444849 5.0408600666899650 79.9669718306494133 Zr
atom 10.0370732165115015 5.0408600666899650 79.9685172294914963 Zr
atom 5.0305650104797097 10.0817201333799300 79.9666671165856258 Zr
atom 10.0337136905762385 10.0817201333799300 79.9688219435552412 Zr
atom 5.0280269428009774 5.0408600666899650 84.9326108590658606 Zr
atom 10.0326835123407285 5.0408600666899650 84.9338101728354218 Zr
atom 5.0261753063089740 10.0817201333799300 84.9319600599295512 Zr
atom 10.0345351488327470 10.0817201333799300 84.9344609719718164 Zr
atom 5.5375750918176401 5.0408600666899650 77.4828406375904848 S
atom 9.5285575428773903 5.0408600666899650 77.4842273268305206 S
atom 4.5220493368456323 10.0817201333799300 77.4823772139244653 S
atom 10.5440832978494061 10.0817201333799300 77.4846907504963696 S
atom 4.5211464262254513 5.0408600666899650 82.4429946910940288 S
atom 10.5414072417936051 5.0408600666899650 82.4450338729806163 S
atom 5.5348990357618906 10.0817201333799300 82.4431837600745467 S
atom 9.5276546322572244 10.0817201333799300 82.4448448040002546 S
atom 5.0289127655360542 2.5204214764804300 79.9589397099920376 S
atom 10.0354209715678540 2.5204385902095283 79.9607898228981355 S
atom 5.0289127655360542 7.5612986568994884 79.9589397099920660 S
atom 10.0354209715678540 7.5612815431703932 79.9607898228981355 S
atom 5.0270535319703029 2.5204130612171993 84.9148957427117210 S
atom 10.0335617380020707 2.5204470054727630 84.9167458556178190 S
atom 5.0270535319703029 7.5613070721627249 84.9148957427117210 S
atom 10.0335617380020707 7.5612731279071639 84.9167458556178474 S
atom 2.5258369211532279 5.0408600666899650 79.4661184377485768 S
atom 7.5319966406697842 5.0408600666899650 80.4508777185821771 S
atom 2.5254884346380080 10.0817201333799300 80.4490276056761360 S
atom 7.5323451271850139 10.0817201333799300 79.4679685506548026 S
atom 2.5236015033982322 5.0408600666899650 85.4030022547436403 S
atom 7.5304976911997148 5.0408600666899650 84.4449196654495040 S
atom 2.5239894851679323 10.0817201333799300 84.4430695525434913 S
atom 7.5301097094300387 10.0817201333799300 85.4048523676496103 S
atom 2.5228691272127417 2.4984761094266847 87.3323047808952140 Ba
atom 7.5293773332445282 2.5423839572632780 87.3341548938011556 Ba
atom 2.5228691272127417 7.5832440239532319 87.3323047808952140 Ba
atom 7.5293773332445282 7.5393361761166391 87.3341548938011556 Ba
atom 2.5214288624297225 2.6819558841795441 92.0136637664037806 Ba
atom 7.5279370684615223 2.3589041825104231 92.0155138793096228 Ba
atom 2.5214288624297225 7.3997642492003859 92.0136637664037949 Ba
atom 7.5279370684615223 7.7228159508694949 92.0155138793096228 Ba
atom 5.0449030060465105 5.0408600666899650 89.9527699852703648 Zr
atom 10.0123773826288858 5.0408600666899650 89.9531367402198327 Zr
atom 5.0058691765971322 10.0817201333799300 89.9512866273136211 Zr
atom 10.0514112120782730 10.0817201333799300 89.9546200981763207 Zr
atom 5.4925469352907754 5.0408600666899650 87.4069632672213714 S
atom 9.5662196392294021 5.0408600666899650 87.4081473122622299 S
atom 4.5597114331976210 10.0817201333799300 87.4062971993561035 S
atom 10.4990551413225752 10.0817201333799300 87.4088133801274978 S
atom 4.7377893149580910 5.0408600666899650 92.4372734181734472 S
atom 10.3176322703402512 5.0408600666899650 92.4378994895419908 S
atom 5.3111240643084976 10.0817201333799300 92.4360493766362197 S
atom 9.7442975209898588 10.0817201333799300 92.4391235310794741 S
atom 5.0253288492068293 2.5204965503832786 89.8178996841526640 S
atom 10.0318370552386149 2.5203635163066851 89.8197497970588756 S
atom 5.0253288492068275 7.5612235829966288 89.8178996841526498 S
atom 10.0318370552386149 7.5613566170732369 89.8197497970588756 S
atom 2.5223057433522276 5.0408600666899650 89.5005983051945009 S
atom 7.5284787370735637 5.0408600666899650 90.2662459827797079 S
atom 2.5219705310417875 10.0817201333799300 90.2643958698736668 S
atom 7.5288139493840305 10.0817201333799300 89.5024484181006414 S
