#=======================================================
# FHI-aims file: sym_relax/sym_relax_RP_1_Rx0Mz_0Ry0.in
# Created using the Atomic Simulation Environment (ASE)
# Fri Mar 14 10:20:20 2025
#=======================================================
lattice_vector 10.1083879406627872 -0.0000000000000000 -0.0002416211105338 
lattice_vector -0.0000000000000000 10.1084182862196883 -0.0000000000000000 
lattice_vector 0.0002690134767800 -0.0000000000000000 15.5284617907242044 
atom -0.1566275860087087 -0.0000000000000000 0.2395148875721776 Ba
atom 5.2108116186904114 -0.0000000000000000 0.2393624862521977 Ba
atom 0.1566176483590238 5.0542091431098433 0.2394832968074647 Ba
atom 4.8975663843226762 5.0542091431098433 0.2393940770169106 Ba
atom 0.1567116527202028 -0.0000000000000000 4.6131294220291323 Ba
atom 4.8976603886838728 -0.0000000000000000 4.6130402022385830 Ba
atom -0.1565335816475303 5.0542091431098433 4.6131610127938414 Ba
atom 5.2109056230516035 5.0542091431098433 4.6130086114738686 Ba
atom 2.5271390185214422 2.5271045715549216 2.4262617495230212 Zr
atom 7.5813329888528251 2.5271045715549216 2.4261409389677553 Zr
atom 2.5271390185214422 7.5813137146647609 2.4262617495230212 Zr
atom 7.5813329888528251 7.5813137146647609 2.4261409389677553 Zr
atom 2.5270727505617581 2.8451010140620641 -0.1070972211758677 S
atom 7.5812667208931579 2.2091081290477730 -0.1072180317311344 S
atom 2.5270727505617581 7.2633172721576065 -0.1070972211758677 S
atom 7.5812667208931579 7.8993101571719029 -0.1072180317311345 S
atom 2.5272052864811267 2.2091081290477739 4.9596207202219071 S
atom 7.5813992568125084 2.8451010140620636 4.9594999096666417 S
atom 2.5272052864811267 7.8993101571719047 4.9596207202219071 S
atom 7.5813992568125093 7.2633172721576065 4.9594999096666417 S
atom 2.5271379931170461 -0.0000000000000000 2.1154570476353878 S
atom 7.5813340142572168 -0.0000000000000000 2.7369456408553878 S
atom 2.5271400439258365 5.0542091431098433 2.7370664514106542 S
atom 7.5813319634484460 5.0542091431098433 2.1153362370801201 S
atom 0.0000420333557467 2.5270982633925931 2.4263221548006531 S
atom 5.0542360036871381 2.5271108797172501 2.4262013442453880 S
atom 0.0000420333557467 7.5813200228270938 2.4263221548006531 S
atom 5.0542360036871381 7.5813074065024368 2.4262013442453880 S
atom 2.5272139826131474 2.6837258779051356 8.0036581629152810 Ba
atom 7.5814079529445486 2.3704832652047001 8.0035373523600164 Ba
atom 2.5272139826131474 7.4246924083145522 8.0036581629152810 Ba
atom 7.5814079529445486 7.7379350210149802 8.0035373523600164 Ba
atom 2.5273330679065178 2.3704832652046997 12.3773271268549383 Ba
atom 7.5815270382379003 2.6837258779051343 12.3772063162996808 Ba
atom 2.5273330679065178 7.7379350210149820 12.3773271268549401 Ba
atom 7.5815270382379003 7.4246924083145505 12.3772063162996808 Ba
atom 5.0543705104255281 5.0542091431098433 10.1904322396074711 Zr
atom 10.1085644807569111 5.0542091431098433 10.1903114290522243 Zr
atom 5.0543705104255281 10.1084182862196865 10.1904322396074711 Zr
atom 10.1085644807569128 10.1084182862196865 10.1903114290522243 Zr
atom 4.7363275179144848 5.0542091431098433 7.6570701634200100 S
atom 10.4265243947545585 5.0542091431098433 7.6569362964622263 S
atom 5.3723304244231720 10.1084182862196865 7.6570571070174953 S
atom 9.7905214882458740 10.1084182862196865 7.6569493528647383 S
atom 5.3724135029365767 5.0542091431098433 12.7237943157949669 S
atom 9.7906045667592636 5.0542091431098433 12.7236865616422072 S
atom 4.7364105964278798 10.1084182862196865 12.7238073721974665 S
atom 10.4266074732679606 10.1084182862196865 12.7236735052396792 S
atom 5.0543705104255281 2.5271092407220781 10.1904322396074711 S
atom 10.1085644807569111 2.5270999023877598 10.1903114290522243 S
atom 5.0543705104255281 7.5813090454975995 10.1904322396074711 S
atom 10.1085644807569111 7.5813183838319231 10.1903114290522243 S
atom 2.5272770966333566 5.0542091431098433 10.5012871498941394 S
atom 7.5814639242176955 5.0542091431098433 9.8795773293208189 S
atom 2.5272699538863090 10.1084182862196865 9.8796981398760924 S
atom 7.5814710669647507 10.1084182862196865 10.5011663393388783 S
