#=======================================================
# FHI-aims file: sym_relax/sym_relax_RP_4_Rx0Mz_0RyMz.in
# Created using the Atomic Simulation Environment (ASE)
# Fri Mar 14 10:27:26 2025
#=======================================================
lattice_vector 10.0184821940579738 -0.0483449760984856 0.0000000000000000 
lattice_vector -0.0483449760984858 10.0184821940580129 0.0000000000000000 
lattice_vector 0.0000000000000000 0.0000000000000000 45.8479657895944044 
atom 0.0812813195990215 -0.1802366448568045 0.2251235955744528 Ba
atom 5.1889962052970287 -0.1058494612920013 0.2251180706471102 Ba
atom 0.1555826202187968 4.9275641237862544 0.2251180706471102 Ba
atom 5.0663499285787648 4.8048319641229664 0.2251235955744528 Ba
atom -0.2527868912370402 0.1813995126115384 4.9985240524762276 Ba
atom 4.8270484302147452 0.2278442264105915 4.9984709398325258 Ba
atom -0.2063651548634794 5.2612578114888446 4.9984709398325258 Ba
atom 4.7322817177426950 5.1664681215913166 4.9985240524762276 Ba
atom 2.4916520986690691 2.4808288169972919 2.4011603730226403 Zr
atom 7.5128984374866521 2.4686317576076102 2.4011651259993703 Zr
atom 2.4794848524084347 7.5020453426858547 2.4011651259993703 Zr
atom 7.4767207076487949 7.4658974259770750 2.4011603730226403 Zr
atom 2.4911253465213297 2.4917716168597619 7.4575550923724343 Zr
atom 7.5016726300024610 2.4689070792031824 7.4575596856828774 Zr
atom 2.4682590449242516 7.5023206642814388 7.4575596856828774 Zr
atom 7.4761939555010679 7.4768402258395366 7.4575550923724343 Zr
atom 2.6209463125562027 2.7038580087682176 -0.1048224086633410 S
atom 7.2900135945637921 2.3394696494941565 -0.1048010079113855 S
atom 2.2566000094855760 7.3728832345724369 -0.1048010079113855 S
atom 7.6060149215359250 7.6889266177479723 -0.1048224086633410 S
atom 2.2435191864278301 2.1912451471657395 4.9594794950280008 S
atom 7.8023151327700813 2.7166278938973298 4.9594992827860001 S
atom 2.7689015476918688 7.7500414789755814 4.9594992827860001 S
atom 7.2285877954075630 7.1763137561455110 4.9594794950280008 S
atom 2.7879268214818715 -0.0093801629398966 2.2438582334761752 S
atom 7.2111682528164858 -0.0304887366040767 2.7516943319905094 S
atom 2.1777546677382671 5.0029248484741800 2.7516943319905094 S
atom 7.7729954304616102 4.9756884460398751 2.2438582334761752 S
atom 2.8963163480169749 -0.0167322772423853 7.7727663812184051 S
atom 7.1353335853474036 -0.0370432504498579 7.1576480647341700 S
atom 2.1019200002691836 4.9963703346284039 7.1576480647341700 S
atom 7.8813849569967038 4.9683363317373894 7.7727663812184051 S
atom -0.0153987955349480 2.2207079591498062 2.2438845914691190 S
atom 4.9907587979545003 2.7824601595741081 2.7516401893489189 S
atom -0.0426547871237376 7.8158737446523645 2.7516401893489189 S
atom 4.9696698134447850 7.2057765681295738 2.2438845914691190 S
atom -0.0082976497832781 2.1120404152006520 7.7727558363158717 S
atom 4.9970890586232857 2.8581170637604161 7.1576505366113539 S
atom -0.0363245264549400 7.8915306488386685 7.1576505366113539 S
atom 4.9767709591964557 7.0971090241804164 7.7727558363158717 S
atom 0.2759136373417961 -0.1861725188208956 9.9669490846944377 Ba
atom 5.1945090918333579 -0.3009730706717725 9.9669490846944377 Ba
atom 0.1610955067551210 4.7324405144064814 9.9669490846944377 Ba
atom 5.2609822463215341 4.7988960901588724 9.9669490846944377 Ba
atom -0.2527868912370402 0.1813995126115384 14.9353741169126444 Ba
atom 4.8270484302147452 0.2278442264105915 14.9354272295563071 Ba
atom -0.2063651548634794 5.2612578114888446 14.9354272295563071 Ba
atom 4.7322817177426950 5.1664681215913166 14.9353741169126444 Ba
atom 2.4911253465213297 2.4917716168597619 12.4763430770164057 Zr
atom 7.5016726300024610 2.4689070792031824 12.4763384837059501 Zr
atom 2.4682590449242516 7.5023206642814388 12.4763384837059501 Zr
atom 7.4761939555010679 7.4768402258395366 12.4763430770164057 Zr
atom 2.4916520986690691 2.4808288169972919 17.5327377963661881 Zr
atom 7.5128984374866521 2.4686317576076102 17.5327330433894844 Zr
atom 2.4794848524084347 7.5020453426858547 17.5327330433894844 Zr
atom 7.4767207076487949 7.4658974259770750 17.5327377963661881 Zr
atom 2.7583841673491905 2.8157477244700102 9.9669490846944377 S
atom 7.1776946406154662 2.2015994273757991 9.9669490846944377 S
atom 2.1442810555372458 7.2350130124540470 9.9669490846944377 S
atom 7.7434527763289429 7.8008163334497809 9.9669490846944377 S
atom 2.2435191864278301 2.1912451471657395 14.9744186743608303 S
atom 7.8023151327700813 2.7166278938973298 14.9743988866028470 S
atom 2.7689015476918688 7.7500414789755814 14.9743988866028470 S
atom 7.2285877954075630 7.1763137561455110 14.9744186743608303 S
atom 2.8963163480169749 -0.0167322772423853 12.1611317881704437 S
atom 7.1353335853474036 -0.0370432504498579 12.7762501046546646 S
atom 2.1019200002691836 4.9963703346284039 12.7762501046546646 S
atom 7.8813849569967038 4.9683363317373894 12.1611317881704437 S
atom 2.7879268214818715 -0.0093801629398966 17.6900399359126759 S
atom 7.2111682528164858 -0.0304887366040767 17.1822038373983617 S
atom 2.1777546677382671 5.0029248484741800 17.1822038373983617 S
atom 7.7729954304616102 4.9756884460398751 17.6900399359126759 S
atom -0.0082976497832781 2.1120404152006520 12.1611423330729806 S
atom 4.9970890586232857 2.8581170637604161 12.7762476327775030 S
atom -0.0363245264549400 7.8915306488386685 12.7762476327775030 S
atom 4.9767709591964557 7.0971090241804164 12.1611423330729806 S
atom -0.0153987955349480 2.2207079591498062 17.6900135779197356 S
atom 4.9907587979545003 2.7824601595741081 17.1822579800398962 S
atom -0.0426547871237376 7.8158737446523645 17.1822579800398962 S
atom 4.9696698134447850 7.2057765681295738 17.6900135779197356 S
atom 0.0812813195990215 -0.1802366448568045 19.7087745738144093 Ba
atom 5.1889962052970287 -0.1058494612920013 19.7087800987417339 Ba
atom 0.1555826202187968 4.9275641237862544 19.7087800987417339 Ba
atom 5.0663499285787648 4.8048319641229664 19.7087745738144093 Ba
atom 2.6209463125562027 2.7038580087682176 20.0387205780521889 S
atom 7.2900135945637921 2.3394696494941565 20.0386991773002272 S
atom 2.2566000094855760 7.3728832345724369 20.0386991773002272 S
atom 7.6060149215359250 7.6889266177479723 20.0387205780521889 S
atom 2.6727709493466745 2.4112529848908655 23.1491064903716328 Ba
atom 7.5834523747616194 2.2886067081726003 23.1491009654443012 Ba
atom 2.5500387896833812 7.3220202932508576 23.1491009654443012 Ba
atom 7.6578395583264127 7.3963215938706357 23.1491064903716328 Ba
atom 2.3111347918783380 2.7453211957269246 27.9225069472733587 Ba
atom 7.2497586870590096 2.6505544832548757 27.9224538346297244 Ba
atom 2.2163451019807932 7.6839680683331295 27.9224538346297244 Ba
atom 7.2962034008580670 7.7303898047067001 27.9225069472733587 Ba
atom 4.9967740964723140 4.9859508148005878 25.3251432678198753 Zr
atom 9.9940397648417427 4.9497730849627350 25.3251480207965365 Zr
atom 4.9606261797635289 9.9831866700410057 25.3251480207965365 Zr
atom 9.9818427054520669 9.9710194237803496 25.3251432678198753 Zr
atom 4.9858312966098479 4.9864775669483095 30.3815379871696187 Zr
atom 9.9937644432461674 4.9609988924469048 30.3815425804800618 Zr
atom 4.9603508581679492 9.9944124775251524 30.3815425804800618 Zr
atom 9.9708999055895688 9.9715461759280775 30.3815379871696187 Zr
atom 4.7737449047014042 4.8566566009134409 22.8191604861338497 S
atom 10.1232018729551871 5.1726579278855755 22.8191818868857688 S
atom 5.0897882878769698 10.2060715129638400 22.8191818868857688 S
atom 9.7588135136811260 9.8417252098932142 22.8191604861338497 S
atom 5.2863577663038903 5.2340837270418055 27.8834623898251941 S
atom 9.7460436285520302 4.6603563896792926 27.8834821775831969 S
atom 4.7126300434738084 9.6937699747575419 27.8834821775831969 S
atom 10.2714263752836263 10.2191523360215726 27.8834623898251941 S
atom 4.6951427538955217 2.4868441155151304 25.6756230841460678 S
atom 10.2903085393980565 2.4595881239263484 25.1678674862663030 S
atom 5.2568949543197991 7.4930017090046022 25.1678674862663030 S
atom 9.6802113628752355 7.4719127244949091 25.6756230841460678 S
atom 4.6194858497092079 2.4805138548463410 30.0816334314085552 S
atom 10.3989760833471951 2.4524869781746781 30.6967387311130651 S
atom 5.3655624982689591 7.4859005632529358 30.6967387311130651 S
atom 9.6045544586889466 7.4655824638261219 30.0816334314085552 S
atom 2.4746780649954632 5.2998482457313809 25.6756772267877231 S
atom 7.4869830764095102 4.6896760919877636 25.1678411282733627 S
atom 2.4535694913312831 9.7230896770660067 25.1678411282733627 S
atom 7.4597466739752027 10.2849168547111418 25.6756772267877231 S
atom 2.4812325788412393 5.3756829132004649 30.0816309595312923 S
atom 7.4943351907119879 4.5812865654526496 30.6967492760155665 S
atom 2.4609216056337728 9.6147001505309060 30.6967492760155665 S
atom 7.4663011878209842 10.3607515221802409 30.0816309595312923 S
atom 2.6787068233107658 2.2166206671480828 32.8909319794915973 Ba
atom 7.7785759841413888 2.2830938216362777 32.8909319794915973 Ba
atom 2.7451623990631542 7.3165074067145177 32.8909319794915973 Ba
atom 7.6637754322904978 7.2016892761278619 32.8909319794915973 Ba
atom 2.3111347918783380 2.7453211957269246 37.8593570117097542 Ba
atom 7.2497586870590096 2.6505544832548757 37.8594101243534524 Ba
atom 2.2163451019807932 7.6839680683331295 37.8594101243534524 Ba
atom 7.2962034008580670 7.7303898047067001 37.8593570117097542 Ba
atom 4.9858312966098479 4.9864775669483095 35.4003259718135510 Zr
atom 9.9937644432461674 4.9609988924469048 35.4003213785031079 Zr
atom 4.9603508581679492 9.9944124775251524 35.4003213785031079 Zr
atom 9.9708999055895688 9.9715461759280775 35.4003259718135510 Zr
atom 4.9967740964723140 4.9859508148005878 40.4567206911634045 Zr
atom 9.9940397648417427 4.9497730849627350 40.4567159381866404 Zr
atom 4.9606261797635289 9.9831866700410057 40.4567159381866404 Zr
atom 9.9818427054520669 9.9710194237803496 40.4567206911634045 Zr
atom 4.6618551889996152 4.7192187461204425 32.8909319794915973 S
atom 10.2610720950735477 5.2849768818339058 32.8909319794915973 S
atom 5.2276585099953419 10.3183904669121542 32.8909319794915973 S
atom 9.6469237979793636 9.7042873551002273 32.8909319794915973 S
atom 5.2863577663038903 5.2340837270418055 37.8984015691579685 S
atom 9.7460436285520302 4.6603563896792926 37.8983817814000474 S
atom 4.7126300434738084 9.6937699747575419 37.8983817814000474 S
atom 10.2714263752836263 10.2191523360215726 37.8984015691579685 S
atom 4.6194858497092079 2.4805138548463410 35.7002305275746679 S
atom 10.3989760833471951 2.4524869781746781 35.0851252278701011 S
atom 5.3655624982689591 7.4859005632529358 35.0851252278701011 S
atom 9.6045544586889466 7.4655824638261219 35.7002305275746679 S
atom 4.6951427538955217 2.4868441155151304 40.1062408748371269 S
atom 10.2903085393980565 2.4595881239263484 40.6139964727169342 S
atom 5.2568949543197991 7.4930017090046022 40.6139964727169342 S
atom 9.6802113628752355 7.4719127244949091 40.1062408748371269 S
atom 2.4812325788412393 5.3756829132004649 35.7002329994517780 S
atom 7.4943351907119879 4.5812865654526496 35.0851146829676352 S
atom 2.4609216056337728 9.6147001505309060 35.0851146829676352 S
atom 7.4663011878209842 10.3607515221802409 35.7002329994517780 S
atom 2.4746780649954632 5.2998482457313809 40.1061867321955035 S
atom 7.4869830764095102 4.6896760919877636 40.6140228307099349 S
atom 2.4535694913312831 9.7230896770660067 40.6140228307099349 S
atom 7.4597466739752027 10.2849168547111418 40.1061867321955035 S
atom 2.6727709493466745 2.4112529848908655 42.6327574686115653 Ba
atom 7.5834523747616194 2.2886067081726003 42.6327629935388899 Ba
atom 2.5500387896833812 7.3220202932508576 42.6327629935388899 Ba
atom 7.6578395583264127 7.3963215938706357 42.6327574686115653 Ba
atom 4.7737449047014042 4.8566566009134409 42.9627034728493413 S
atom 10.1232018729551871 5.1726579278855755 42.9626820720973797 S
atom 5.0897882878769698 10.2060715129638400 42.9626820720973797 S
atom 9.7588135136811260 9.8417252098932142 42.9627034728493413 S
