#=======================================================
# FHI-aims file: sym_relax/sym_relax_RP_5_00Mz_00Mz.in
# Created using the Atomic Simulation Environment (ASE)
# Fri Mar 14 10:32:54 2025
#=======================================================
lattice_vector 9.9098561912598289 -0.0000000188572362 0.0000000000000000 
lattice_vector -0.0000000188572362 9.9098561912598520 0.0000000000000000 
lattice_vector -0.0000000000000000 0.0000000000000000 56.9122338267045720 
atom -0.0000000000000000 0.0000000000000000 0.1654436686884374 Ba
atom 4.9549280956299162 -0.0000000094286206 0.1654436686884374 Ba
atom -0.0000000094286179 4.9549280956299251 0.1654436686884374 Ba
atom 4.9549280862012957 4.9549280862013054 0.1654436686884374 Ba
atom -0.0000000000000000 0.0000000000000000 5.0674319614631251 Ba
atom 4.9549280956299162 -0.0000000094286197 5.0674319614631251 Ba
atom -0.0000000094286179 4.9549280956299260 5.0674319614631251 Ba
atom 4.9549280862012957 4.9549280862013054 5.0674319614631251 Ba
atom 2.4774640431006478 2.4774640431006527 2.4403097312378579 Zr
atom 7.4323921387305667 2.4774640336720331 2.4403097312378579 Zr
atom 2.4774640336720344 7.4323921387305782 2.4403097312378579 Zr
atom 7.4323921293019515 7.4323921293019586 2.4403097312378579 Zr
atom 2.4774640431006474 2.4774640431006527 7.5795955612323427 Zr
atom 7.4323921387305667 2.4774640336720335 7.5795955612323427 Zr
atom 2.4774640336720339 7.4323921387305782 7.5795955612323427 Zr
atom 7.4323921293019515 7.4323921293019586 7.5795955612323427 Zr
atom 2.4774640431006478 2.4774640431006527 -0.1037082712563056 S
atom 7.4323921387305667 2.4774640336720331 -0.1037082712563056 S
atom 2.4774640336720344 7.4323921387305782 -0.1037082712563056 S
atom 7.4323921293019515 7.4323921293019595 -0.1037082712563056 S
atom 2.4774640431006478 2.4774640431006527 5.0385220493763789 S
atom 7.4323921387305667 2.4774640336720331 5.0385220493763789 S
atom 2.4774640336720344 7.4323921387305782 5.0385220493763789 S
atom 7.4323921293019515 7.4323921293019586 5.0385220493763789 S
atom 2.0533187209936896 0.0000076283615363 2.5312735654815892 S
atom 7.8565374702661428 -0.0000076472187761 2.5312735654815892 S
atom 2.9016093652076074 4.9549204578397745 2.5312735654815892 S
atom 7.0082468071949933 4.9549357145628354 2.5312735654815892 S
atom 2.9973499127420307 0.0000010833463055 7.5898192280371699 S
atom 6.9125062785178066 -0.0000011022035444 7.5898192280371699 S
atom 1.9575781734592697 4.9549270028550039 7.5898192280371699 S
atom 7.9522779989433277 4.9549291695476114 7.5898192280371699 S
atom -0.0000076377901555 2.9016093746362284 2.5312735654815892 S
atom 4.9549357239914542 2.0533187115650762 2.5312735654815892 S
atom 0.0000076189329205 7.0082468166236183 2.5312735654815892 S
atom 4.9549204484111371 7.8565374608375302 2.5312735654815892 S
atom -0.0000010927749238 1.9575781828878891 7.5898192280371699 S
atom 4.9549291789762275 2.9973499033134146 7.5898192280371699 S
atom 0.0000010739176884 7.9522780083719571 7.5898192280371699 S
atom 4.9549269934263771 6.9125062690892047 7.5898192280371699 S
atom -0.0000000000000004 0.0000000000000004 10.1531469545326836 Ba
atom 4.9549280956299162 -0.0000000094286193 10.1531469545326836 Ba
atom -0.0000000094286184 4.9549280956299260 10.1531469545326836 Ba
atom 4.9549280862012957 4.9549280862013054 10.1531469545326836 Ba
atom -0.0000000000000004 0.0000000000000004 15.2541002895318147 Ba
atom 4.9549280956299162 -0.0000000094286193 15.2541002895318147 Ba
atom -0.0000000094286184 4.9549280956299260 15.2541002895318147 Ba
atom 4.9549280862012957 4.9549280862013054 15.2541002895318147 Ba
atom 2.4774640431006474 2.4774640431006527 12.7036236220322625 Zr
atom 7.4323921387305667 2.4774640336720335 12.7036236220322625 Zr
atom 2.4774640336720339 7.4323921387305782 12.7036236220322625 Zr
atom 7.4323921293019515 7.4323921293019586 12.7036236220322625 Zr
atom 2.4774640431006474 2.4774640431006527 17.8276516828321512 Zr
atom 7.4323921387305658 2.4774640336720335 17.8276516828321512 Zr
atom 2.4774640336720339 7.4323921387305791 17.8276516828321512 Zr
atom 7.4323921293019515 7.4323921293019604 17.8276516828321512 Zr
atom 2.4774640431006474 2.4774640431006527 10.1466440182157314 S
atom 7.4323921387305667 2.4774640336720335 10.1466440182157314 S
atom 2.4774640336720339 7.4323921387305782 10.1466440182157314 S
atom 7.4323921293019515 7.4323921293019586 10.1466440182157314 S
atom 2.4774640431006474 2.4774640431006527 15.2606032258487634 S
atom 7.4323921387305658 2.4774640336720335 15.2606032258487634 S
atom 2.4774640336720339 7.4323921387305791 15.2606032258487634 S
atom 7.4323921293019515 7.4323921293019604 15.2606032258487634 S
atom 2.9770294831217750 0.0000003159548938 12.7036236220322625 S
atom 6.9328267081380668 -0.0000003348121323 12.7036236220322625 S
atom 1.9778986030795260 4.9549277702464103 12.7036236220322625 S
atom 7.9319575693230684 4.9549284021561997 12.7036236220322625 S
atom 2.9973499127420298 0.0000010833463055 17.8174280160273142 S
atom 6.9125062785178066 -0.0000011022035440 17.8174280160273142 S
atom 1.9575781734592692 4.9549270028550039 17.8174280160273142 S
atom 7.9522779989433259 4.9549291695476132 17.8174280160273142 S
atom -0.0000003253835126 1.9778986125081461 12.7036236220322625 S
atom 4.9549284115848184 2.9770294736931566 12.7036236220322625 S
atom 0.0000003065262767 7.9319575787516952 12.7036236220322625 S
atom 4.9549277608177844 6.9328266987094542 12.7036236220322625 S
atom -0.0000010927749243 1.9575781828878891 17.8174280160273142 S
atom 4.9549291789762275 2.9973499033134146 17.8174280160273142 S
atom 0.0000010739176880 7.9522780083719571 17.8174280160273142 S
atom 4.9549269934263771 6.9125062690892065 17.8174280160273142 S
atom -0.0000000000000009 0.0000000000000009 20.3398152826014069 Ba
atom 4.9549280956299153 -0.0000000094286188 20.3398152826014069 Ba
atom -0.0000000094286188 4.9549280956299269 20.3398152826014069 Ba
atom 4.9549280862012948 4.9549280862013063 20.3398152826014069 Ba
atom -0.0000000000000009 0.0000000000000009 25.2418035753760606 Ba
atom 4.9549280956299153 -0.0000000094286188 25.2418035753760606 Ba
atom -0.0000000094286188 4.9549280956299269 25.2418035753760606 Ba
atom 4.9549280862012948 4.9549280862013063 25.2418035753760606 Ba
atom 2.4774640431006469 2.4774640431006527 22.9669375128266289 Zr
atom 7.4323921387305658 2.4774640336720339 22.9669375128266289 Zr
atom 2.4774640336720335 7.4323921387305791 22.9669375128266289 Zr
atom 7.4323921293019506 7.4323921293019604 22.9669375128266289 Zr
atom 2.4774640431006469 2.4774640431006527 20.3687251946881283 S
atom 7.4323921387305658 2.4774640336720335 20.3687251946881283 S
atom 2.4774640336720339 7.4323921387305791 20.3687251946881283 S
atom 7.4323921293019506 7.4323921293019604 20.3687251946881283 S
atom 2.4774640431006469 2.4774640431006527 25.5109555153207950 S
atom 7.4323921387305658 2.4774640336720339 25.5109555153207950 S
atom 2.4774640336720335 7.4323921387305791 25.5109555153207950 S
atom 7.4323921293019506 7.4323921293019604 25.5109555153207950 S
atom 2.0533187209936887 0.0000076283615371 22.8759736785828949 S
atom 7.8565374702661419 -0.0000076472187752 22.8759736785828949 S
atom 2.9016093652076065 4.9549204578397745 22.8759736785828949 S
atom 7.0082468071949915 4.9549357145628381 22.8759736785828949 S
atom -0.0000076377901564 2.9016093746362293 22.8759736785828949 S
atom 4.9549357239914542 2.0533187115650771 22.8759736785828949 S
atom 0.0000076189329196 7.0082468166236183 22.8759736785828949 S
atom 4.9549204484111371 7.8565374608375329 22.8759736785828949 S
atom 2.4774640431006469 2.4774640431006527 28.6215605820406971 Ba
atom 7.4323921387305658 2.4774640336720339 28.6215605820406971 Ba
atom 2.4774640336720335 7.4323921387305791 28.6215605820406971 Ba
atom 7.4323921293019506 7.4323921293019604 28.6215605820406971 Ba
atom 2.4774640431006469 2.4774640431006536 33.5235488748154040 Ba
atom 7.4323921387305658 2.4774640336720339 33.5235488748154040 Ba
atom 2.4774640336720335 7.4323921387305791 33.5235488748154040 Ba
atom 7.4323921293019506 7.4323921293019604 33.5235488748154040 Ba
atom 4.9549280862012948 4.9549280862013063 30.8964266445901288 Zr
atom 9.9098561818312145 4.9549280767726911 30.8964266445901288 Zr
atom 4.9549280767726804 9.9098561818312323 30.8964266445901288 Zr
atom 9.9098561724025895 9.9098561724026126 30.8964266445901288 Zr
atom 4.9549280862012948 4.9549280862013063 36.0357124745845994 Zr
atom 9.9098561818312128 4.9549280767726911 36.0357124745845994 Zr
atom 4.9549280767726804 9.9098561818312323 36.0357124745845994 Zr
atom 9.9098561724025895 9.9098561724026126 36.0357124745845994 Zr
atom 4.9549280862012948 4.9549280862013063 28.3524086420959840 S
atom 9.9098561818312145 4.9549280767726911 28.3524086420959840 S
atom 4.9549280767726804 9.9098561818312323 28.3524086420959840 S
atom 9.9098561724025913 9.9098561724026126 28.3524086420959840 S
atom 4.9549280862012948 4.9549280862013063 33.4946389627286933 S
atom 9.9098561818312145 4.9549280767726911 33.4946389627286933 S
atom 4.9549280767726804 9.9098561818312323 33.4946389627286933 S
atom 9.9098561724025895 9.9098561724026126 33.4946389627286933 S
atom 5.3790734177368718 2.4774564053104946 30.9873904788338663 S
atom 9.4857108597242537 2.4774716620335711 30.9873904788338663 S
atom 4.5307827546657284 7.4323997670921100 30.9873904788338663 S
atom 10.3340015039381790 7.4323844915118027 30.9873904788338663 S
atom 4.4350422259885365 2.4774629503257284 36.0459361413894186 S
atom 10.4297420514726014 2.4774651170183390 36.0459361413894186 S
atom 5.4748139464140584 7.4323932220768842 36.0459361413894186 S
atom 9.3899703121898366 7.4323910365270276 36.0459361413894186 S
atom 2.4774716714621858 4.5307827640943508 30.9873904788338663 S
atom 7.4323845009404153 5.3790734083082627 30.9873904788338663 S
atom 2.4774563958818745 10.3340015133668182 30.9873904788338663 S
atom 7.4323997576634824 9.4857108502956518 30.9873904788338663 S
atom 2.4774651264469543 5.4748139558426816 36.0459361413894186 S
atom 7.4323910459556402 4.4350422165599319 36.0459361413894186 S
atom 2.4774629408971074 9.3899703216184776 36.0459361413894186 S
atom 7.4323932126482530 10.4297420420439959 36.0459361413894186 S
atom 2.4774640431006465 2.4774640431006540 38.6092638678849625 Ba
atom 7.4323921387305658 2.4774640336720344 38.6092638678849625 Ba
atom 2.4774640336720331 7.4323921387305800 38.6092638678849625 Ba
atom 7.4323921293019506 7.4323921293019612 38.6092638678849625 Ba
atom 2.4774640431006465 2.4774640431006540 43.7102172028840457 Ba
atom 7.4323921387305658 2.4774640336720344 43.7102172028840457 Ba
atom 2.4774640336720331 7.4323921387305800 43.7102172028840457 Ba
atom 7.4323921293019506 7.4323921293019612 43.7102172028840457 Ba
atom 4.9549280862012948 4.9549280862013063 41.1597405353845360 Zr
atom 9.9098561818312128 4.9549280767726911 41.1597405353845360 Zr
atom 4.9549280767726804 9.9098561818312323 41.1597405353845360 Zr
atom 9.9098561724025895 9.9098561724026126 41.1597405353845360 Zr
atom 4.9549280862012939 4.9549280862013072 46.2837685961843803 Zr
atom 9.9098561818312128 4.9549280767726911 46.2837685961843803 Zr
atom 4.9549280767726804 9.9098561818312323 46.2837685961843803 Zr
atom 9.9098561724025895 9.9098561724026126 46.2837685961843803 Zr
atom 4.9549280862012948 4.9549280862013063 38.6027609315679996 S
atom 9.9098561818312128 4.9549280767726911 38.6027609315679996 S
atom 4.9549280767726804 9.9098561818312323 38.6027609315679996 S
atom 9.9098561724025895 9.9098561724026126 38.6027609315679996 S
atom 4.9549280862012939 4.9549280862013072 43.7167201392010369 S
atom 9.9098561818312128 4.9549280767726911 43.7167201392010369 S
atom 4.9549280767726804 9.9098561818312323 43.7167201392010369 S
atom 9.9098561724025895 9.9098561724026126 43.7167201392010369 S
atom 4.4553626556087913 2.4774637177171410 41.1597405353845360 S
atom 10.4094216218523474 2.4774643496269304 41.1597405353845360 S
atom 5.4544935167938053 7.4323924546854725 41.1597405353845360 S
atom 9.4102907418100976 7.4323918039184456 41.1597405353845360 S
atom 4.4350422259885365 2.4774629503257288 46.2735449293795682 S
atom 10.4297420514725996 2.4774651170183390 46.2735449293795682 S
atom 5.4748139464140575 7.4323932220768842 46.2735449293795682 S
atom 9.3899703121898366 7.4323910365270285 46.2735449293795682 S
atom 2.4774643590555439 5.4544935262224286 41.1597405353845360 S
atom 7.4323918133470555 4.4553626461801841 41.1597405353845360 S
atom 2.4774637082885183 9.4102907512387244 41.1597405353845360 S
atom 7.4323924452568439 10.4094216124237313 41.1597405353845360 S
atom 2.4774651264469538 5.4748139558426816 46.2735449293795682 S
atom 7.4323910459556402 4.4350422165599319 46.2735449293795682 S
atom 2.4774629408971069 9.3899703216184776 46.2735449293795682 S
atom 7.4323932126482530 10.4297420420439959 46.2735449293795682 S
atom 2.4774640431006461 2.4774640431006545 48.7959321959536467 Ba
atom 7.4323921387305649 2.4774640336720348 48.7959321959536467 Ba
atom 2.4774640336720326 7.4323921387305800 48.7959321959536467 Ba
atom 7.4323921293019497 7.4323921293019612 48.7959321959536467 Ba
atom 2.4774640431006461 2.4774640431006545 53.6979204887283359 Ba
atom 7.4323921387305649 2.4774640336720348 53.6979204887283359 Ba
atom 2.4774640336720326 7.4323921387305800 53.6979204887283359 Ba
atom 7.4323921293019497 7.4323921293019612 53.6979204887283359 Ba
atom 4.9549280862012939 4.9549280862013072 51.4230544261789433 Zr
atom 9.9098561818312128 4.9549280767726911 51.4230544261789433 Zr
atom 4.9549280767726795 9.9098561818312323 51.4230544261789433 Zr
atom 9.9098561724025895 9.9098561724026126 51.4230544261789433 Zr
atom 4.9549280862012939 4.9549280862013072 48.8248421080403645 S
atom 9.9098561818312128 4.9549280767726911 48.8248421080403645 S
atom 4.9549280767726795 9.9098561818312323 48.8248421080403645 S
atom 9.9098561724025895 9.9098561724026126 48.8248421080403645 S
atom 4.9549280862012939 4.9549280862013072 53.9670724286730916 S
atom 9.9098561818312128 4.9549280767726911 53.9670724286730916 S
atom 4.9549280767726795 9.9098561818312323 53.9670724286730916 S
atom 9.9098561724025895 9.9098561724026126 53.9670724286730916 S
atom 5.3790734177368709 2.4774564053104955 51.3320905919351702 S
atom 9.4857108597242519 2.4774716620335719 51.3320905919351702 S
atom 4.5307827546657276 7.4323997670921109 51.3320905919351702 S
atom 10.3340015039381790 7.4323844915118045 51.3320905919351702 S
atom 2.4774716714621849 4.5307827640943508 51.3320905919351702 S
atom 7.4323845009404153 5.3790734083082636 51.3320905919351702 S
atom 2.4774563958818736 10.3340015133668182 51.3320905919351702 S
atom 7.4323997576634824 9.4857108502956518 51.3320905919351702 S
