#=======================================================
# FHI-aims file: sym_relax/sym_relax_RP_1_00Mz_00Mz.in
# Created using the Atomic Simulation Environment (ASE)
# Fri Mar 14 10:20:07 2025
#=======================================================
lattice_vector 10.0137827556705243 0.0000000807140621 0.0000000000000000 
lattice_vector 0.0000000807140621 10.0137827556705243 -0.0000000000000000 
lattice_vector -0.0000000000000000 -0.0000000000000000 15.6661189771972182 
atom -0.0000000000000000 -0.0000000000000000 0.2276090638396245 Ba
atom 5.0068913778352631 0.0000000403570286 0.2276090638396244 Ba
atom 0.0000000403570314 5.0068913778352639 0.2276090638396236 Ba
atom 5.0068914181922954 5.0068914181922928 0.2276090638396244 Ba
atom -0.0000000000000009 0.0000000000000009 4.6680531165345043 Ba
atom 5.0068913778352622 0.0000000403570303 4.6680531165345052 Ba
atom 0.0000000403570303 5.0068913778352657 4.6680531165345043 Ba
atom 5.0068914181922946 5.0068914181922937 4.6680531165345043 Ba
atom 2.5034457090961473 2.5034457090961464 2.4478310901870648 Zr
atom 7.5103370869314094 2.5034457494531757 2.4478310901870657 Zr
atom 2.5034457494531788 7.5103370869314068 2.4478310901870648 Zr
atom 7.5103371272884401 7.5103371272884401 2.4478310901870648 Zr
atom 2.5034457090961477 2.5034457090961464 -0.1067287623159525 S
atom 7.5103370869314094 2.5034457494531752 -0.1067287623159525 S
atom 2.5034457494531792 7.5103370869314068 -0.1067287623159534 S
atom 7.5103371272884401 7.5103371272884409 -0.1067287623159525 S
atom 2.5034457090961468 2.5034457090961464 5.0023909426900799 S
atom 7.5103370869314086 2.5034457494531757 5.0023909426900817 S
atom 2.5034457494531788 7.5103370869314077 5.0023909426900799 S
atom 7.5103371272884392 7.5103371272884418 5.0023909426900799 S
atom 2.5034554097277537 0.0000003245154114 2.4478310901870666 S
atom 7.5103273459427742 -0.0000002438013516 2.4478310901870657 S
atom 2.5034360084645404 5.0068910936768818 2.4478310901870648 S
atom 7.5103468279200483 5.0068917427077011 2.4478310901870666 S
atom -0.0000002841583810 2.5034359681075116 2.4478310901870648 S
atom 5.0068917023506767 2.5034554500847812 2.4478310901870648 S
atom 0.0000003648724435 7.5103467875630141 2.4478310901870648 S
atom 5.0068911340339106 7.5103273862998030 2.4478310901870648 S
atom 2.5034457090961468 2.5034457090961464 8.0606685524382300 Ba
atom 7.5103370869314086 2.5034457494531761 8.0606685524382318 Ba
atom 2.5034457494531783 7.5103370869314077 8.0606685524382300 Ba
atom 7.5103371272884392 7.5103371272884418 8.0606685524382300 Ba
atom 2.5034457090961459 2.5034457090961482 12.5011126051331161 Ba
atom 7.5103370869314077 2.5034457494531770 12.5011126051331161 Ba
atom 2.5034457494531774 7.5103370869314086 12.5011126051331143 Ba
atom 7.5103371272884383 7.5103371272884427 12.5011126051331161 Ba
atom 5.0068914181922946 5.0068914181922937 10.2808905787856730 Zr
atom 10.0137827960275541 5.0068914585493216 10.2808905787856730 Zr
atom 5.0068914585493234 10.0137827960275558 10.2808905787856730 Zr
atom 10.0137828363845891 10.0137828363845873 10.2808905787856730 Zr
atom 5.0068914181922946 5.0068914181922937 7.7263307262826570 S
atom 10.0137827960275558 5.0068914585493216 7.7263307262826588 S
atom 5.0068914585493234 10.0137827960275558 7.7263307262826570 S
atom 10.0137828363845909 10.0137828363845873 7.7263307262826570 S
atom 5.0068914181922937 5.0068914181922946 12.8354504312886952 S
atom 10.0137827960275541 5.0068914585493216 12.8354504312886952 S
atom 5.0068914585493225 10.0137827960275558 12.8354504312886935 S
atom 10.0137828363845891 10.0137828363845873 12.8354504312886952 S
atom 5.0068816772036557 2.5034454249377665 10.2808905787856730 S
atom 10.0137924966591640 2.5034460739685880 10.2808905787856748 S
atom 5.0069011591809263 7.5103374114468240 10.2808905787856748 S
atom 10.0137730953959583 7.5103368431300570 10.2808905787856730 S
atom 2.5034460336115578 5.0069011188239019 10.2808905787856730 S
atom 7.5103368027730291 5.0068817175606863 10.2808905787856730 S
atom 2.5034454652947957 10.0137730550389250 10.2808905787856730 S
atom 7.5103374518038555 10.0137925370161902 10.2808905787856730 S
