#=======================================================
# FHI-aims file: sym_relax/sym_relax_RP_7_RxRyRz_RxRy0.in
# Created using the Atomic Simulation Environment (ASE)
# Mon Mar 17 15:57:29 2025
#=======================================================
lattice_vector 9.9838983591010724 -0.0379430714802793 -0.0031662547551249 
lattice_vector -0.0379430714802800 9.9838983591010724 0.0031662547551249 
lattice_vector -0.0233113051403281 0.0233113051403273 76.3617541136250111 
atom 0.0260815827067124 -0.1135416537522243 0.1491498154246103 Ba
atom 5.1054908333027793 -0.0450531184468526 0.1475666880470480 Ba
atom 0.0945701180120851 4.9658675968438191 0.1507329428021733 Ba
atom 4.9990592265171188 4.8594359900581745 0.1491498154246102 Ba
atom -0.2881133509601249 0.2125526325021266 4.9553189196855412 Ba
atom 4.7793965470484094 0.2691418152199839 4.9537357923079863 Ba
atom -0.2315241682422672 5.2800625305106470 4.9569020470631102 Ba
atom 4.6848642928502819 5.1855302763125293 4.9553189196855403 Ba
atom 2.4394417134660960 2.5267485113715740 2.3374580558877112 Zr
atom 7.4381783119893674 2.5145643946041574 2.3358749285101505 Zr
atom 2.4272575966986873 7.5254851098948334 2.3390411832652744 Zr
atom 7.4124193572765060 7.4997261551819694 2.3374580558877125 Zr
atom 2.3975139634641671 2.5385006937008616 7.4207444767047370 Zr
atom 7.4264261296601060 2.5564921446060915 7.4191613493271751 Zr
atom 2.4155054143693935 7.5674128598967556 7.4223276040823052 Zr
atom 7.3704916072745661 7.5114783375112619 7.4207444767047370 Zr
atom 2.5548907297649768 2.7214526986211052 -0.1725421659633250 S
atom 7.2434741247398584 2.3991153783052948 -0.1741252933408871 S
atom 2.2325534094491517 7.4100360935959602 -0.1709590385857623 S
atom 7.5278683735753722 7.6944303424315104 -0.1725421659633250 S
atom 2.2294944064780688 2.2994396860005817 4.9141121474790612 S
atom 7.6654871373603592 2.7245117015922018 4.9125290201015117 S
atom 2.6545664220696850 7.7354324168828503 4.9156952748566267 S
atom 7.2024720502884749 7.2724173298109784 4.9141121474790612 S
atom 2.7490967984055841 0.0433097962780244 2.2179908119517679 S
atom 7.1149193240412956 0.0264992678350271 2.6608194579342865 S
atom 2.1039986087506208 5.0374199831257078 2.6639857126894144 S
atom 7.7220744422160026 5.0162874400884236 2.2179908119517679 S
atom 2.9199221450947346 0.0474867071169350 7.6409176997877628 S
atom 6.9949497283035145 0.0288286258912179 7.2424837519962937 S
atom 1.9840290130128189 5.0397493411818930 7.2456500067514078 S
atom 7.8928997889051518 5.0204643509273179 7.6409176997877628 S
atom -0.0622813320181645 2.2428523811449459 2.2195739393293326 S
atom 4.9275068402352398 2.8500074993196427 2.6624025853118525 S
atom -0.0834138750554476 7.8609282146103219 2.6655688400669759 S
atom 4.9106963117922371 7.2158300249553333 2.2195739393293321 S
atom -0.0664582428570748 2.0720270344558083 7.6425008271653239 S
atom 4.9251774821790564 2.9699770950574473 7.2440668793738423 S
atom -0.0857432331116382 7.9808978103481172 7.2472331341289697 S
atom 4.9065194009533313 7.0450046782662037 7.6425008271653256 S
atom 0.0042641729728812 -0.0760576881494019 9.9732084894675062 Ba
atom 5.0680068676999444 -0.0232357087130213 9.9716253620899682 Ba
atom 0.0570861524092623 4.9876850065776379 9.9747916168451010 Ba
atom 4.9772418167832884 4.8969199556610050 9.9732084894675062 Ba
atom 0.0544623593396881 0.0141492822065750 15.0432275064806777 Ba
atom 4.9777998973439654 -0.0734338950798280 15.0416443791031327 Ba
atom -0.0331208179467150 4.9374868202108564 15.0448106338582619 Ba
atom 5.0274400031500877 4.9871269260169813 15.0432275064806760 Ba
atom 2.4933412990748671 2.4920734937748628 12.4970028121846202 Zr
atom 7.4728533295860968 2.4606648089953960 12.4954196848070502 Zr
atom 2.4619326142953999 7.4715855242860671 12.4985859395621599 Zr
atom 7.4663189428852750 7.4650511375852693 12.4970028121846202 Zr
atom 2.4811210871689440 2.4918565566414572 17.5832986445847759 Zr
atom 7.4730702667194988 2.4728850209013209 17.5817155172072006 Zr
atom 2.4621495514288023 7.4838057361919974 17.5848817719623653 Zr
atom 7.4540987309793492 7.4648342004518637 17.5832986445847759 Zr
atom 2.5707877342409651 2.6776470841889113 9.9680868197709405 S
atom 7.2872797391720354 2.3832183738293020 9.9665036923933883 S
atom 2.2763590238813518 7.3941390891199905 9.9696699471485122 S
atom 7.5437653780513738 7.6506247279993049 9.9680868197709405 S
atom 2.4080255699810054 2.4470224084117973 15.0432200888204495 S
atom 7.5179044149491645 2.5459805380892528 15.0416369614428884 S
atom 2.5069836996584733 7.5569012533799276 15.0448032161980372 S
atom 7.3810032137914137 7.4200000522221972 15.0432200888204495 S
atom 2.0138455988261650 -0.0012718678959896 12.4366296302206294 S
atom 7.9980327276494769 -0.0185449224791343 12.5779931387000889 S
atom 2.9871120123587871 4.9923757928115364 12.5811593934552270 S
atom 6.9868232426365759 4.9717057759144110 12.4366296302206347 S
atom 2.9968540339119842 -0.0037564207709221 17.6183897306800716 S
atom 6.9763088557166011 -0.0234511812368385 17.5450413037343012 S
atom 1.9653881404259055 4.9874695340538420 17.5482075584895085 S
atom 7.9698316777223894 4.9692212230394768 17.6183897306800681 S
atom -0.0176996678441501 2.9781035807243668 12.4382127575982029 S
atom 4.9725510305494076 1.9668940957114762 12.5795762660776482 S
atom -0.0383696847412862 6.9778148110021441 12.5827425208327934 S
atom 4.9552779759662453 7.9510812245347715 12.4382127575982011 S
atom -0.0152151149692173 1.9950951456385571 17.6199728580576327 S
atom 4.9774572893071110 2.9886179676443563 17.5466244311119368 S
atom -0.0334634259835817 7.9995386829350208 17.5497906858670589 S
atom 4.9577625288411742 6.9680727894489678 17.6199728580576327 S
atom -0.0651978288122080 -0.0034138127340556 20.1233697826888758 Ba
atom 4.9953629922846128 0.0462262930720675 20.1217866553112685 Ba
atom -0.0155577230060841 5.0571470083627377 20.1249529100664297 Ba
atom 4.9077798149982090 4.9695638310763339 20.1233697826888722 Ba
atom -0.0149996424454010 0.0867931576219211 25.1933887997020527 Ba
atom 4.9051560219286374 -0.0039718932947392 25.1918056723244845 Ba
atom -0.1057646933620611 5.0069488219959446 25.1949719270796457 Ba
atom 4.9579780013650110 5.0597708014323075 25.1933887997020562 Ba
atom 2.4689008752630173 2.4916396195080530 22.6695944769848978 Zr
atom 7.4732872038529017 2.4851052328072369 22.6680113496073687 Zr
atom 2.4623664885622105 7.4960259480979285 22.6711776043625335 Zr
atom 7.4418785190734242 7.4646172633184502 22.6695944769848943 Zr
atom 2.5647282108737279 2.4452124195820528 27.7458528124648254 Zr
atom 7.5197144037789014 2.3892778971965405 27.7442696850872430 Zr
atom 2.5087936884882072 7.4001986124872214 27.7474359398424077 Zr
atom 7.5377058546841065 7.4181900633924567 27.7458528124648254 Zr
atom 2.5542166043568866 2.5366907048711163 20.1233772003490650 S
atom 7.4282361184898216 2.3997895037133850 20.1217940729715252 S
atom 2.4173154031991384 7.4107102190040512 20.1249603277266296 S
atom 7.5271942481672953 7.5096683486815108 20.1233772003490650 S
atom 2.3914544400969220 2.3060660290939947 25.1985104693986131 S
atom 7.6588607942669444 2.5625516679733393 25.1969273420210378 S
atom 2.6479400789762639 7.5734723832640132 25.2000935967762132 S
atom 7.3644320839073405 7.2790436729043959 25.1985104693986166 S
atom 1.9751301619791046 -0.0086626795286257 22.5854378957143922 S
atom 7.9593172908023986 -0.0259357341117708 22.7268014041937896 S
atom 2.9483965755117172 4.9849849811789007 22.7299676589489081 S
atom 6.9481078057895189 4.9643149642817788 22.5854378957143922 S
atom 2.9782131613250717 -0.0560362278989787 27.9209472824181901 S
atom 7.0532407445338423 -0.0746943091246957 27.5225133346267157 S
atom 2.0423200292431600 4.9362264061659724 27.5256795893818165 S
atom 7.9511908051354885 4.9169414159114142 27.9209472824181830 S
atom -0.0103088562115138 3.0168190175714416 22.5870210230919071 S
atom 4.9799418421820576 2.0056095325585446 22.7283845315713648 S
atom -0.0309788731086497 7.0165302478492189 22.7315507863264621 S
atom 4.9626687875988935 7.9897966613818472 22.5870210230919071 S
atom 0.0370646921588382 2.0137360182254707 27.9225304097957547 S
atom 5.0287004171949574 2.9116860788271071 27.5240964620042270 S
atom 0.0177797019042756 7.9226067941177583 27.5272627167593598 S
atom 5.0100423359692394 6.9867136620358723 27.9225304097957583 S
atom 0.2773778814876054 -0.2018171630296067 30.2112783694840452 Ba
atom 5.1937663425801688 -0.2963494172277443 30.2096952421064522 Ba
atom 0.1828456272894677 4.7145712980629275 30.2128614968615992 Ba
atom 5.2503555252980272 4.7711604807807788 30.2112783694840452 Ba
atom -0.0368170521792324 0.1242771232247439 35.0174474737450012 Ba
atom 4.8676720563258051 0.0178455164390923 35.0158643463674082 Ba
atom -0.1432486589648840 5.0287662317297714 35.0190306011225161 Ba
atom 4.9361605916311628 5.0972547670351416 35.0174474737450012 Ba
atom 2.5228004608717973 2.4569646019113422 32.8291392332817082 Zr
atom 7.5079622214495991 2.4312056471984698 32.8275561059042147 Zr
atom 2.4970415061589240 7.4421263624891498 32.8307223606592871 Zr
atom 7.4957781046822101 7.4299422457217403 32.8291392332817082 Zr
atom 2.7327477678598262 2.6842734272823328 30.2524851416905030 S
atom 7.2806533960786242 2.2212583402104449 30.2509020143129383 S
atom 2.2697326807879343 7.2321790555011303 30.2540682690680214 S
atom 7.7057254116702252 7.6572510710927224 30.2524851416905030 S
atom 2.4073514445729209 2.2622604146618031 35.3391394551328872 S
atom 7.7026664086991516 2.5466546634973408 35.3375563277552800 S
atom 2.6917456934084476 7.5575753787880187 35.3407225825103879 S
atom 7.3803290883833323 7.2352380584721958 35.3391394551328872 S
atom 2.8582435655872636 -0.0537068698427869 32.5026115764801702 S
atom 7.2240660912229862 -0.0705173982857853 32.9454402224627003 S
atom 2.2131453759323012 4.9404033170048898 32.9486064772177869 S
atom 7.8312212093976790 4.9192707739676012 32.5026115764801702 S
atom 0.0347353341026477 2.1337056139632660 32.5041947038577277 S
atom 5.0245235063560685 2.7408607321379703 32.9470233498402862 S
atom 0.0136027910653644 7.7517814474286437 32.9501896045953941 S
atom 5.0077129779130578 7.1066832577736605 32.5041947038577277 S
atom 2.5491807106374647 2.3365361599712373 38.4596996432205458 Ba
atom 7.6283906633897081 2.4048253974327864 38.4581165158429883 Ba
atom 2.6174699480990267 7.4157461127234647 38.4612827705981601 Ba
atom 7.5221583544478623 7.3095138037816234 38.4596996432205458 Ba
atom 2.2111921028081567 2.6910316296100745 43.2591973045351637 Ba
atom 7.2738951937508638 2.7428140052621073 43.2576141771575564 Ba
atom 2.2629744784601864 7.7537347205527816 43.2607804319127780 Ba
atom 7.1841697466185730 7.6640092734204739 43.2591973045351779 Ba
atom 4.9514867955878596 4.9864817098125576 40.6501483762312432 Zr
atom 9.9514227573588006 4.9754969562928020 40.6485652488537283 Zr
atom 4.9405020420680898 9.9864176715834603 40.6517315036088291 Zr
atom 9.9244644393982764 9.9594593536229699 40.6501483762312432 Zr
atom 4.9441208410608510 4.9979294014217484 45.7154394241298121 Zr
atom 9.9399750657495893 4.9828629108198079 45.7138562967523114 Zr
atom 4.9290543504589124 9.9937836261104778 45.7170225515073767 Zr
atom 9.9170984848712891 9.9709070452321651 45.7154394241298192 Zr
atom 5.0823044985773400 5.1977194166591154 38.1394811634624915 S
atom 9.7401850505122649 4.8446792533033269 38.1378980360848843 S
atom 4.7292643352215347 9.8555999685939710 38.1410642908400632 S
atom 10.0552821423877390 10.1706970604695055 38.1394811634624702 S
atom 4.7032059790824832 4.7060399756801461 43.2170997855876422 S
atom 10.2318644914911996 5.2237777727981847 43.2155166582100918 S
atom 5.2209437762005191 10.2346984880888261 43.2186829129652921 S
atom 9.6761836228928910 9.6790176194905246 43.2170997855876422 S
atom 5.2574052290074054 2.5041799250999661 40.4983716479864597 S
atom 9.6230371958994052 2.4883779268155766 40.9991317472489811 S
atom 4.6121164806087309 7.4992986421062433 41.0022980020041743 S
atom 10.2303828728178345 7.4771575689103615 40.4983716479864881 S
atom 5.3631126160263332 2.4975405391054024 46.0383608330091008 S
atom 9.5598081008164044 2.4824820688936824 45.4294152898835577 S
atom 4.5488873855257141 7.4934027841843651 45.4325815446387224 S
atom 10.3360902598367392 7.4705181829157974 46.0383608330091079 S
atom 2.4498261829703001 4.7075215943535378 40.4999547753640243 S
atom 7.4386058250651104 5.3148672712719405 41.0007148746265457 S
atom 2.4276851097744068 10.3257879865626432 41.0038811293816323 S
atom 7.4228038267807062 9.6804992381639199 40.4999547753640101 S
atom 2.4564655689648669 4.6018142073346038 46.0399439603866298 S
atom 7.4445016829869823 5.3780963663549510 45.4309984172611152 S
atom 2.4335809676963009 10.3890170816456457 45.4341646720162444 S
atom 7.4294432127752827 9.5747918511450045 46.0399439603866298 S
atom 2.7383430529221542 2.3261455480514242 48.2463521946786642 Ba
atom 7.6387812753095190 2.2156630551481120 48.2447690673011778 Ba
atom 2.6278605600188332 7.2265837704387863 48.2479353220562857 Ba
atom 7.7113206967325674 7.2991231918618142 48.2463521946786784 Ba
atom 2.1963335506612256 2.6833270581419733 53.2581132081508954 Ba
atom 7.2815997652189894 2.7576725574090397 53.2565300807733166 Ba
atom 2.2706790499282921 7.7685932726997251 53.2596963355283819 Ba
atom 7.1693111944716543 7.6563047019523616 53.2581132081508812 Ba
atom 4.9579628253572148 4.9901487626801755 50.7411293092892635 Zr
atom 9.9477557044911649 4.9690209265234655 50.7395461819116704 Zr
atom 4.9368349892004755 9.9799416418141256 50.7427124366668281 Zr
atom 9.9309404691676377 9.9631264064905345 50.7411293092892706 Zr
atom 4.9559542565039880 4.9900010311168108 55.7641757013974058 Zr
atom 9.9479034360545064 4.9710294953766772 55.7625925740199690 Zr
atom 4.9369827207638508 9.9819502106673372 55.7657588287749917 Zr
atom 9.9289319003143994 9.9629786749271894 55.7641757013974058 Zr
atom 5.2170881824625379 5.3115071043052451 48.2381707953595296 S
atom 9.6263973628660793 4.7098955694181210 48.2365876679819792 S
atom 4.6154766475754103 9.7208162847087713 48.2397539227371013 S
atom 10.1900658262729653 10.2844847481156663 48.2381707953595438 S
atom 4.6882619308673457 4.6677732894724242 53.2555696416432696 S
atom 10.2701311776989179 5.2387218210133009 53.2539865142656552 S
atom 5.2592104624082188 10.2496425363039609 53.2571527690207844 S
atom 9.6612395746777775 9.6407509332828294 53.2555696416432696 S
atom 5.3551923985057188 2.4929757798838117 50.4364648676118250 S
atom 9.5652064129350567 2.4772132273628693 51.0640392972011554 S
atom 4.5542856976443691 7.4881339426535636 51.0672055519563486 S
atom 10.3281700423161009 7.4659534236942076 50.4364648676118250 S
atom 5.3554564625281849 2.4922284630593450 56.0795080692021060 S
atom 9.5673727657704895 2.4768528838836148 55.4456770788376900 S
atom 4.5564520504797841 7.4877735991742851 55.4488433335928192 S
atom 10.3284341063385838 7.4652061068697453 56.0795080692021060 S
atom 2.4610303281864518 4.6097344248552119 50.4380479949893754 S
atom 7.4497705245177803 5.3726980542363014 51.0656224245787627 S
atom 2.4388498092271123 10.3836187695269704 51.0687886793338492 S
atom 7.4340079719968601 9.5827120686655984 50.4380479949893754 S
atom 2.4617776450109137 4.6094703608327592 56.0810911965796279 S
atom 7.4501308679970535 5.3705317014008758 55.4472602062152475 S
atom 2.4392101527063668 10.3814524166915607 55.4504264609704833 S
atom 7.4347552888213180 9.5824480046431582 56.0810911965796208 S
atom 2.7425973185363306 2.3236973602812716 58.2702381946440511 Ba
atom 7.6412294630796680 2.2114087895339223 58.2686550672665078 Ba
atom 2.6303087477889942 7.2223295048245859 58.2718213220216654 Ba
atom 7.7155749623467349 7.2966750040916608 58.2702381946440511 Ba
atom 2.2005878162754096 2.6808788703718145 63.2819992081162326 Ba
atom 7.2840479529891402 2.7534182917948500 63.2804160807386324 Ba
atom 2.2731272376984450 7.7643390070855238 63.2835823354937403 Ba
atom 7.1735654600858147 7.6538565141822081 63.2819992081162326 Ba
atom 4.9539456876507577 4.9898532995534577 60.7872220935056475 Zr
atom 9.9480511676179049 4.9730380642299021 60.7856389661280758 Zr
atom 4.9371304523272181 9.9839587795205524 60.7888052208832121 Zr
atom 9.9269233314611522 9.9628309433638584 60.7872220935056120 Zr
atom 4.9677876719471188 4.9820726608118937 65.8129119786654542 Zr
atom 9.9558318063594857 4.9591960799335357 65.8113288512876409 Zr
atom 4.9449110910687679 9.9701167952242269 65.8144951060427985 Zr
atom 9.9407653157575311 9.9550503046222687 65.8129119786654542 Zr
atom 5.2236465821406100 5.3122287727612045 58.2727817611516414 S
atom 9.6256756944101234 4.7033371697400641 58.2711986337741408 S
atom 4.6147549791194669 9.7142578850307562 58.2743648885291989 S
atom 10.1966242259509965 10.2852064165716257 58.2727817611516556 S
atom 4.6948203305454204 4.6684949579283908 63.2901806074354027 S
atom 10.2694095092430047 5.2321634213352342 63.2885974800578879 S
atom 5.2584887939522797 10.2430841366259262 63.2917637348129887 S
atom 9.6677979743558282 9.6414726017387427 63.2901806074353956 S
atom 5.3576228153636114 2.4918681195800945 60.4611458508385766 S
atom 9.5676368297929724 2.4761055670591574 61.0887202804279710 S
atom 4.5567161145022501 7.4870262823498175 61.0918865351831002 S
atom 10.3306004591740237 7.4648457633904650 60.4611458508385766 S
atom 5.3630211274822441 2.4865992780492769 66.0957698581562170 S
atom 9.5597166122723038 2.4715408078375649 65.4868243150306739 S
atom 4.5487958969816420 7.4824615231282401 65.4899905697856326 S
atom 10.3359987712927097 7.4595769218596679 66.0957698581562028 S
atom 2.4621379884901722 4.6073040079973371 60.4627289782161910 S
atom 7.4508781848215264 5.3702676373784266 61.0903034078055924 S
atom 2.4399574695308313 10.3811883526690956 61.0934696625607074 S
atom 7.4351156323005840 9.5802816518077325 60.4627289782161910 S
atom 2.4674068300209884 4.6019056958786866 66.0973529855339308 S
atom 7.4554429440431118 5.3781878548990276 65.4884074424081888 S
atom 2.4445222287524189 10.3891085701897072 65.4915736971633180 S
atom 7.4403844738314104 9.5748833396890856 66.0973529855339308 S
atom 2.7277387663893999 2.3159927888131659 68.2691540982598184 Ba
atom 7.6489340345477776 2.2262673416808516 68.2675709708822325 Ba
atom 2.6380133192570909 7.2371880569715188 68.2707372256373048 Ba
atom 7.7007164101998251 7.2889704326235547 68.2691540982598184 Ba
atom 2.3897501585600867 2.6704882584520129 73.0686517595745073 Ba
atom 7.2944385649089405 2.5642559495101711 73.0670686321968219 Ba
atom 2.2835178496182587 7.5751766648008489 73.0702348869521501 Ba
atom 7.3627278023705092 7.6434659022624034 73.0686517595744931 Ba
atom 4.9604217174201244 4.9935203524210694 70.8782030265634830 Zr
atom 9.9443841147502745 4.9665620344605497 70.8766198991860534 Zr
atom 4.9334633994595842 9.9774827497512515 70.8797861539412821 Zr
atom 9.9333993612304976 9.9664979962314728 70.8782030265634972 Zr
atom 5.2087025339254929 5.2739620865534889 68.3112516172072901 S
atom 9.6639423806178453 4.7182812179551661 68.3096684898298463 S
atom 4.6530216653271701 9.7292019332458555 68.3128347445848902 S
atom 10.1816801777358918 10.2469397303639074 68.3112516172073043 S
atom 4.8296040144306343 4.7822826455745222 73.3888702393322774 S
atom 10.1556218215967906 5.0973797374500318 73.3872871119548336 S
atom 5.1447011063061403 10.1083004527406857 73.3904533667099628 S
atom 9.8025816582410652 9.7552602893848963 73.3888702393322774 S
atom 5.2997920323992576 2.4807034201273845 70.5260534007906585 S
atom 9.6654239992912476 2.4649014218429990 71.0268135000533363 S
atom 4.6545032840005724 7.4758221371336750 71.0299797548084086 S
atom 10.2727696762096770 7.4536810639377711 70.5260534007906585 S
atom 2.4733026879428790 4.6651347909616936 70.5276365281683297 S
atom 7.4620823300376795 5.2724804678801087 71.0283966274307659 S
atom 2.4511616147469835 10.2834011831707883 71.0315628821858951 S
atom 7.4462803317532895 9.6381124347720544 70.5276365281683297 S
