#=======================================================
# FHI-aims file: sym_relax/sym_relax_RP_9_RxRyMz_RxRyMz.in
# Created using the Atomic Simulation Environment (ASE)
# Mon Mar 17 16:47:30 2025
#=======================================================
lattice_vector 10.0072309612604720 -0.0758742749469099 -0.0073708323151767 
lattice_vector -0.0758742749469101 10.0072309612604560 0.0073708323151767 
lattice_vector -0.0709775593475780 0.0709775593475779 96.0432846082467080 
atom 0.0650576126188326 -0.1479778874650264 0.2219317095384098 Ba
atom 5.1515933680952548 -0.1029947500922895 0.2182462933808216 Ba
atom 0.1100407499915698 4.9385578680113786 0.2256171256959982 Ba
atom 5.0307359557756230 4.8177004556917309 0.2219317095384098 Ba
atom -0.2984462367063864 0.2174984086870710 5.0140016736793314 Ba
atom 4.7861170719431572 0.2605090992329289 5.0103162575217421 Ba
atom -0.2554355461605284 5.3020617173365974 5.0176870898369161 Ba
atom 4.6672321064503963 5.1831767518438490 5.0140016736793314 Ba
atom 2.4528564747470791 2.5036264752709152 2.4064130119740641 Zr
atom 7.4656673485160940 2.4748847309362390 2.4027275958164771 Zr
atom 2.4241147304123913 7.5164373490399132 2.4100984281316506 Zr
atom 7.4185348179038559 7.4693048184276840 2.4064130119740641 Zr
atom 2.4455895357461461 2.5157938262245514 7.4646726834159054 Zr
atom 7.4534999975624521 2.4821516699371609 7.4609872672583242 Zr
atom 2.4119473794587596 7.5237042880408369 7.4683580995734919 Zr
atom 7.4112678789029234 7.4814721693813109 7.4646726834159054 Zr
atom 2.5752543145839759 2.7213713838948808 -0.1003097198468355 S
atom 7.2479224398921218 2.3524868910993342 -0.1039951360044236 S
atom 2.2063698217884267 7.3940395092030036 -0.0966243036892468 S
atom 7.5409326577407496 7.6870497270516447 -0.1003097198468354 S
atom 2.2055584994128532 2.2182204796482119 4.9707462587227260 S
atom 7.7510733441387902 2.7221827062704653 4.9670608425651386 S
atom 2.7095207260351044 7.7637353243741432 4.9744316748803161 S
atom 7.1712368425696313 7.1838988228049683 4.9707462587227260 S
atom 2.7687817877605632 0.0173848879685087 2.2524660252336290 S
atom 7.1475019637550572 -0.0182207471307419 2.7562093708265074 S
atom 2.1059493456513700 5.0233318709729291 2.7635802031416850 S
atom 7.7344601309173528 4.9830632311252705 2.2524660252336290 S
atom 2.8705735696126582 0.0096703235529421 7.7923165506456771 S
atom 7.0868245116312023 -0.0249238885330344 7.1728903494585392 S
atom 2.0452718935275049 5.0166287295706420 7.1802611817737185 S
atom 7.8362519127694545 4.9753486667097091 7.7923165506456771 S
atom -0.0553220254419649 2.2348336928696577 2.2561514413912156 S
atom 4.9459619528140486 2.8217918600319396 2.7598947869841002 S
atom -0.0955906652896263 7.8633444781356028 2.7672656192992768 S
atom 4.9103563177148191 7.2005120360264119 2.2561514413912160 S
atom -0.0476074610263982 2.1330419110175680 7.7960019668032725 S
atom 4.9526650942163730 2.8824693121558074 7.1765757656161293 S
atom -0.0888875238873337 7.9240219302594879 7.1839465979313122 S
atom 4.9180708821303663 7.0987202541743306 7.7960019668032725 S
atom 0.2591743192316596 -0.1573740222576594 9.9928741100266851 Ba
atom 5.1609895028878912 -0.2971114567051161 9.9891886938691190 Ba
atom 0.1194368847842032 4.7444411613985569 9.9965595261842992 Ba
atom 5.2248526623884288 4.8083043208991061 9.9928741100266834 Ba
atom -0.3080909903746434 0.2043796826059500 14.9982756182391430 Ba
atom 4.7992357980242666 0.2701538529011857 14.9945902020815467 Ba
atom -0.2423168200794077 5.3117064710048334 15.0019610343967340 Ba
atom 4.6575873527821452 5.1700580257627093 14.9982756182391430 Ba
atom 2.4634916655883301 2.5049952062095509 12.4824592719890521 Zr
atom 7.4642986175774544 2.4642495400949840 12.4787738558314540 Zr
atom 2.4227459994737526 7.5058021581986516 12.4861446881466396 Zr
atom 7.4291700087451158 7.4706735493663272 12.4824592719890521 Zr
atom 2.4609233384312548 2.5037139328132811 17.4970496536684266 Zr
atom 7.4655798909737303 2.4668178672520553 17.4933642375108498 Zr
atom 2.4240272728700347 7.5083704853557265 17.5007350698260282 Zr
atom 7.4266016815880294 7.4693922759700362 17.4970496536684266 Zr
atom 2.7194258353291105 2.8355565069257280 9.9848386535315630 S
atom 7.1337373168612803 2.2083153703542000 9.9811532373739738 S
atom 2.0921846987575843 7.2498679884578721 9.9885240696891326 S
atom 7.6851041784859051 7.8012348500824924 9.9848386535315630 S
atom 2.1947622075882895 2.1741161490187695 14.9951551363619906 S
atom 7.7951776747682429 2.7329789980950223 14.9914697202043961 S
atom 2.7536250566645486 7.7745316161986917 14.9988405525195905 S
atom 7.1604405507450650 7.1397944921755458 14.9951551363619870 S
atom 2.8652469831006435 0.0026547398749079 12.1748799189882941 S
atom 7.0951057490360547 -0.0331845880335192 12.8094770349373732 S
atom 2.0535531309323596 5.0083680300701703 12.8168478672525588 S
atom 7.8309253262574172 4.9683330830316690 12.1748799189882959 S
atom 2.8674558439652649 0.0003038803845090 17.8210896649716055 S
atom 7.0987535653489520 -0.0346072231534419 17.1757838145123536 S
atom 2.0572009472452608 5.0069453949502334 17.1831546468275214 S
atom 7.8331341871220239 4.9659822235412774 17.8210896649716055 S
atom -0.0405918773483639 2.1383684975295827 12.1785653351458976 S
atom 4.9609257937168367 2.8741880747509376 12.8131624510949695 S
atom -0.0806268243868495 7.9157406928546203 12.8205332834101373 S
atom 4.9250864658084197 7.1040468406863502 12.1785653351458958 S
atom -0.0382410178579652 2.1361596366649556 17.8247750811291823 S
atom 4.9623484288367816 2.8705402584380466 17.1794692306699481 S
atom -0.0792041892669267 7.9120928765417107 17.1868400629851195 S
atom 4.9274373252988104 7.1018379798217302 17.8247750811291823 S
atom 0.2680548477414967 -0.1632911054321903 20.0051745333013216 Ba
atom 5.1669065860624164 -0.3059919852149529 20.0014891171437412 Ba
atom 0.1253539679587334 4.7355606328887134 20.0088599494589232 Ba
atom 5.2337331908982874 4.8023872377245658 20.0051745333013251 Ba
atom -0.3013255786856746 0.1965618363763663 25.0151151268143686 Ba
atom 4.8070536442538589 0.2633884412122179 25.0114297106567740 Ba
atom -0.2344989738498226 5.3049410593159010 25.0188005429719560 Ba
atom 4.6643527644710971 5.1622401795331267 25.0151151268143686 Ba
atom 2.4662038061063019 2.4994745370504692 22.5101448300578539 Zr
atom 7.4698192867365263 2.4615373995770078 22.5064594139002665 Zr
atom 2.4282666686328502 7.5030900176806856 22.5138302462154201 Zr
atom 7.4318821492630711 7.4651528802072322 22.5101448300578539 Zr
atom 2.4714842737813432 2.4952351412876532 27.5232400064472849 Zr
atom 7.4740586824993391 2.4562569319019665 27.5195545902896654 Zr
atom 2.4325060643956529 7.4978095500056554 27.5269254226048155 Zr
atom 7.4371626169381102 7.4609134844444336 27.5232400064472849 Zr
atom 2.7311676030675729 2.8333618618767509 20.0052909478976382 S
atom 7.1359319619102415 2.1965736026157368 20.0016055317400969 S
atom 2.0943793438065597 7.2381262207193986 20.0089763640552505 S
atom 7.6968459462243555 7.7990402050335144 20.0052909478976382 S
atom 2.2012400091450148 2.1655872122241888 25.0149987122180342 S
atom 7.8037066115628306 2.7265011965382993 25.0113132960604823 S
atom 2.7621539934591262 7.7680538146419709 25.0186841283756394 S
atom 7.1669183523018054 7.1312655553809439 25.0149987122180377 S
atom 2.8709166502806984 -0.0033735837248037 22.1864737490881296 S
atom 7.1030435800355765 -0.0392299602779311 22.8264450787124389 S
atom 2.0614909619319075 5.0023226578257400 22.8338159110275818 S
atom 7.8365949934374912 4.9623047594319596 22.1864737490881296 S
atom 2.8752066649673393 -0.0079963208492939 27.8371350132881794 S
atom 7.1065043863510278 -0.0429074243872439 27.1918291628289133 S
atom 2.0649517682473304 4.9986451937164205 27.1991999951440881 S
atom 7.8408850081241068 4.9576820223074760 27.8371350132881723 S
atom -0.0345635537486524 2.1326988303495309 22.1901591652456922 S
atom 4.9669711659612545 2.8662502437514075 22.8301304948699482 S
atom -0.0745814521424375 7.9078028618550897 22.8375013271851870 S
atom 4.9311147894081255 7.0983771735062904 22.1901591652456922 S
atom -0.0299408166241634 2.1284088156628909 27.8408204294457562 S
atom 4.9706486300705750 2.8627894374359792 27.1955145789865185 S
atom -0.0709039880331247 7.9043420555396411 27.2028854113017076 S
atom 4.9357375265326002 7.0940871588196659 27.8408204294457562 S
atom 0.2748202594304676 -0.1711089516617738 30.0220140418765418 Ba
atom 5.1747244322920194 -0.3127573969039216 30.0183286257189508 Ba
atom 0.1331718141883185 4.7287952211997659 30.0256994580341399 Ba
atom 5.2404986025872349 4.7945693914949974 30.0220140418765382 Ba
atom -0.2924450501758378 0.1906447532018360 35.0274155500889606 Ba
atom 4.8129707274283886 0.2545079127023810 35.0237301339314513 Ba
atom -0.2285818906752925 5.2960605308060549 35.0311009662465764 Ba
atom 4.6732332929809530 5.1563230963585918 35.0274155500889606 Ba
atom 2.4689159466242643 2.4939538678913831 32.5378303881266291 Zr
atom 7.4753399558956213 2.4588252590590400 32.5341449719690701 Zr
atom 2.4337873377919359 7.5003778771627205 32.5415158042843089 Zr
atom 7.4345942897810424 7.4596322110481568 32.5378303881266291 Zr
atom 2.4868180764664523 2.4831552478763879 37.5556169766997527 Zr
atom 7.4861385759106094 2.4409231292168587 37.5519315605422079 Zr
atom 2.4445859578069244 7.4824757473205405 37.5593023928573686 Zr
atom 7.4524964196232348 7.4488335910331571 37.5556169766997527 Zr
atom 2.7376454046243013 2.8248329250821649 30.0251345237536640 S
atom 7.1444608987048381 2.1900958010590084 30.0214491075960872 S
atom 2.1029082806011519 7.2316484191626840 30.0288199399112550 S
atom 7.7033237477810825 7.7905112682389390 30.0251345237536640 S
atom 2.2129817768834901 2.1633925671752148 35.0354510065842248 S
atom 7.8059012566117962 2.7147594287998289 35.0317655904265948 S
atom 2.7643486385081082 7.7563120469035054 35.0391364227418052 S
atom 7.1786601200402780 7.1290709103319720 35.0354510065842248 S
atom 2.8788544812802277 -0.0094189559692166 32.2034417928630745 S
atom 7.1087132472156558 -0.0452582838776427 32.8380389088122655 S
atom 2.0671606291119580 4.9962943342260360 32.8454097411274617 S
atom 7.8445328244370076 4.9562593871875462 32.2034417928630745 S
atom 2.8871357186850921 -0.0176796554697009 37.8400284783419991 S
atom 7.1033866607036211 -0.0522738675556768 37.2206022771548035 S
atom 2.0618340425999402 4.9892787505480021 37.2279731094699784 S
atom 7.8528140618418627 4.9479986876870656 37.8400284783419991 S
atom -0.0285181815042408 2.1247609993499976 32.2071272090207117 S
atom 4.9729994895609675 2.8605805765713592 32.8417243249699169 S
atom -0.0685531285427258 7.9021331946750362 32.8490951572850776 S
atom 4.9371601616525380 7.0904393425067580 32.2071272090207117 S
atom -0.0202574820037564 2.1164797619451363 37.8437138944995439 S
atom 4.9800150732390014 2.8659071630833703 37.2242876933123981 S
atom -0.0615375448646916 7.9074597811870593 37.2316585256275374 S
atom 4.9454208611530142 7.0821581051018914 37.8437138944995368 S
atom 0.2651755057622087 -0.1842276777428954 40.0062879864363765 Ba
atom 5.1878431583731262 -0.3031126432356634 40.0026025702787180 Ba
atom 0.1462905402694387 4.7384399748680170 40.0099734025939995 Ba
atom 5.2308538489189891 4.7814506654138684 40.0062879864363694 Ba
atom -0.0983283435630113 0.1812486184092026 44.7983579505772909 Ba
atom 4.8223668622210329 0.0603912060895542 44.7946725344197247 Ba
atom -0.2191857558826602 5.1019438241932376 44.8020433667348996 Ba
atom 4.8673499995937730 5.1469269615659643 44.7983579505772909 Ba
atom 2.4795511374655232 2.4953225988300201 42.6138766481414777 Zr
atom 7.4739712249569807 2.4481900682177899 42.6101912319840181 Zr
atom 2.4324186068532914 7.4897426863214704 42.6175620642991149 Zr
atom 7.4452294806222996 7.4610009419867840 42.6138766481414777 Zr
atom 2.7268491127997447 2.7807285944527314 40.0495434013929668 S
atom 7.1885652293342712 2.2008920928835618 40.0458579852354148 S
atom 2.1470126112305912 7.2424447109872450 40.0532288175505613 S
atom 7.6925274559565455 7.7464069376094749 40.0495434013929668 S
atom 2.3571532976286202 2.2775776902060638 45.1205993799625489 S
atom 7.6917161335809698 2.5705879080546907 45.1169139638049046 S
atom 2.6501635154772512 7.6121405261583570 45.1242847961201718 S
atom 7.3228316407854175 7.2432560333628171 45.1205993799625489 S
atom 2.8264582665612252 -0.0243827968719934 42.2567094569740291 S
atom 7.2051784425557210 -0.0599884319712436 42.7604528025668884 S
atom 2.1636258244520361 4.9815641861324318 42.7678236348820846 S
atom 7.7921366097180069 4.9412955462847474 42.2567094569740291 S
atom -0.0135543406014638 2.1771572140689974 42.2603948731315668 S
atom 4.9877296376545690 2.7641153812312762 42.7641382187244403 S
atom -0.0538229804491248 7.8056679993349558 42.7715090510396507 S
atom 4.9521240025553315 7.1428355572257729 42.2603948731315668 S
atom 2.5124080045234409 2.3703500637871393 48.2435740136618847 Ba
atom 7.5989437599998633 2.4153332011598843 48.2398885975042830 Ba
atom 2.5573911418961703 7.4568858192635501 48.2472594298194366 Ba
atom 7.4780863476802306 7.3360284069439059 48.2435740136618847 Ba
atom 2.1489041551982133 2.7358263599392387 53.0356439778027564 Ba
atom 7.2334674638477496 2.7788370504850981 53.0319585616452187 Ba
atom 2.1919148457440718 7.8203896685887733 53.0393293939603154 Ba
atom 7.1145824983549906 7.7015047030960107 53.0356439778027493 Ba
atom 4.9002068666516783 5.0219544265230835 50.4280553160975984 Zr
atom 9.9130177404206776 4.9932126821883998 50.4243698999399612 Zr
atom 4.8714651223170096 10.0347653002920847 50.4317407322551290 Zr
atom 9.8658852098084431 9.9876327696798750 50.4280553160975984 Zr
atom 4.8929399276507475 5.0341217774767246 55.4863149875394583 Zr
atom 9.9008503894670614 5.0004796211893376 55.4826295713818496 Zr
atom 4.8592977713633596 10.0420322392929933 55.4900004036969747 Zr
atom 9.8586182708075185 9.9998001206335019 55.4863149875394583 Zr
atom 5.0226047064885666 5.2396993351470522 47.9213325842765769 S
atom 9.6952728317967534 4.8708148423515123 47.9176471681189753 S
atom 4.6537202136930294 9.9123674604552026 47.9250180004341573 S
atom 9.9882830496453554 10.2053776783038135 47.9213325842765769 S
atom 4.6529088913174474 4.7365484309003945 52.9923885628461377 S
atom 10.1984237360434271 5.2405106575226377 52.9887031466885858 S
atom 5.1568711179396978 10.2820632756262782 52.9960739790037323 S
atom 9.6185872344742549 9.7022267740571433 52.9923885628461377 S
atom 5.2161321796651725 2.5357128392206811 50.2741083293571549 S
atom 9.5948523556597038 2.5001072041214250 50.7778516749499644 S
atom 4.5532997375559781 7.5416598222251006 50.7852225072650896 S
atom 10.1818105228219640 7.5013911823774411 50.2741083293571549 S
atom 5.3179239615172555 2.5279982748051073 55.8139588547691403 S
atom 9.5341749035358010 2.4934040627191334 55.1945326535820087 S
atom 4.4926222854321107 7.5349566808227904 55.2019034858971622 S
atom 10.2836023046740337 7.4936766179618841 55.8139588547691403 S
atom 2.3920283664626396 4.7531616441218318 50.2777937455146784 S
atom 7.3933123447186526 5.3401198112841053 50.7815370911075448 S
atom 2.3517597266149752 10.3816724293877751 50.7889079234226699 S
atom 7.3577067096194027 9.7188399872785673 50.2777937455146784 S
atom 2.3997429308782032 4.6513698622697248 55.8176442709267278 S
atom 7.4000154861209477 5.4007972634079850 55.1982180697395250 S
atom 2.3584628680172655 10.4423498815116371 55.2055889020547781 S
atom 7.3654212740349747 9.6170482054265101 55.8176442709267278 S
atom 2.7065247111362587 2.3609539289945083 58.0145164141500871 Ba
atom 7.6083398947924898 2.2212164945470532 58.0108309979924570 Ba
atom 2.5667872766888085 7.2627691126507363 58.0182018303076887 Ba
atom 7.6722030542930284 7.3266322721512775 58.0145164141500871 Ba
atom 2.1392594015299555 2.7227076338581195 63.0199179223626587 Ba
atom 7.2465861899289026 2.7884818041533559 63.0162325062050996 Ba
atom 2.2050335718251830 7.8300344222570235 63.0236033385202745 Ba
atom 7.1049377446867492 7.6883859770148852 63.0199179223626658 Ba
atom 4.9108420574929275 5.0233231574617232 60.5041015761124967 Zr
atom 9.9116490094820566 4.9825774913471577 60.5004161599549448 Zr
atom 4.8700963913783619 10.0241301094508284 60.5077869922701268 Zr
atom 9.8765204006496994 9.9890015006184942 60.5041015761124967 Zr
atom 4.9082737303358623 5.0220418840654473 65.5186919577918729 Zr
atom 9.9129302828783175 4.9851458185042281 65.5150065416344916 Zr
atom 4.8713776647746299 10.0266984366079228 65.5223773739495812 Zr
atom 9.8739520734926085 9.9877202272222014 65.5186919577918729 Zr
atom 5.1667762272337150 5.3538844581779070 58.0064809576549010 S
atom 9.5810877087658941 4.7266433216063621 58.0027955414973704 S
atom 4.5395350906621745 9.7681959397100382 58.0101663738125097 S
atom 10.1324545703905109 10.3195628013346496 58.0064809576548939 S
atom 4.6421125994929087 4.6924441002709303 63.0167974404853695 S
atom 10.2425280666728007 5.2513069493471951 63.0131120243277962 S
atom 5.2009754485691504 10.2928595674508632 63.0204828566430209 S
atom 9.6077909426496841 9.6581224434277271 63.0167974404853695 S
atom 5.3125973750052520 2.5209826911270796 60.1965222231116783 S
atom 9.5424561409406383 2.4851433632186439 60.8311193390608906 S
atom 4.5009035228369534 7.5266959813223409 60.8384901713760300 S
atom 10.2782757181620141 7.4866610342838324 60.1965222231116783 S
atom 5.3148062358698649 2.5186318316366756 65.8427319690951123 S
atom 9.5461039572535515 2.4837207280987248 65.1974261186357609 S
atom 4.5045513391498719 7.5252733462024013 65.2047969509508505 S
atom 10.2804845790266590 7.4843101747934400 65.8427319690951123 S
atom 2.4067585145562345 4.6566964487817541 60.2002076392692018 S
atom 7.4082761856214407 5.3925160260031157 60.8348047552184639 S
atom 2.3667235675177496 10.4340686441067838 60.8421755875336672 S
atom 7.3724368577130122 9.6223747919385083 60.2002076392692018 S
atom 2.4091093740466381 4.6544875879171412 65.8464173852524937 S
atom 7.4096988207413625 5.3888682096902158 65.2011115347932417 S
atom 2.3681462026376696 10.4304208277938972 65.2084823671083456 S
atom 7.3747877172034082 9.6201659310738759 65.8464173852524937 S
atom 2.7154052396461026 2.3550368458199764 68.0268168374248745 Ba
atom 7.6142569779670151 2.2123359660372199 68.0231314212672942 Ba
atom 2.5727043598633337 7.2538885841408778 68.0305022535823696 Ba
atom 7.6810835828028825 7.3207151889767363 68.0268168374248603 Ba
atom 2.1460248132189301 2.7148897876285378 73.0367574309377972 Ba
atom 7.2544040361584647 2.7817163924643902 73.0330720147802310 Ba
atom 2.2128514180547674 7.8232690105680547 73.0404428470953349 Ba
atom 7.1117031563756861 7.6805681307852973 73.0367574309377972 Ba
atom 4.9135541980108934 5.0178024883026380 70.5317871341812861 Zr
atom 9.9171696786411285 4.9798653508291943 70.5281017180236773 Zr
atom 4.8756170605374480 10.0214179689328571 70.5354725503389233 Zr
atom 9.8792325411676725 9.9834808314593797 70.5317871341812861 Zr
atom 4.9188346656859432 5.0135630925398340 75.5448823105705571 Zr
atom 9.9214090744039343 4.9745848831541348 75.5411968944130336 Zr
atom 4.8798564563002529 10.0161375012577984 75.5485677267281517 Zr
atom 9.8845130088427613 9.9792414356965917 75.5448823105705571 Zr
atom 5.1785179949721778 5.3516898131289166 68.0269332520210526 S
atom 9.5832823538148908 4.7149015538679047 68.0232478358634154 S
atom 4.5417297357111694 9.7564541719715763 68.0306186681786755 S
atom 10.1441963381289710 10.3173681562856707 68.0269332520210526 S
atom 4.6485904010496188 4.6839151634763612 73.0366410163415338 S
atom 10.2510570034674195 5.2448291477904636 73.0329556001839961 S
atom 5.2095043853637346 10.2863817658941485 73.0403264324991426 S
atom 9.6142687442063846 9.6495935066331402 73.0366410163415338 S
atom 5.3182670421853171 2.5149543675273711 70.2081160532115547 S
atom 9.5503939719401849 2.4790979909742283 70.8480873828357431 S
atom 4.5088413538365018 7.5206506090779035 70.8554582151509322 S
atom 10.2839453853421023 7.4806327106841266 70.2081160532115547 S
atom 5.3225570568719425 2.5103316304028778 75.8587773174117928 S
atom 9.5538547782556122 2.4754205268649287 75.2134714669523703 S
atom 4.5123021601519451 7.5169731449686017 75.2208422992675452 S
atom 10.2882354000287410 7.4760099735596421 75.8587773174117928 S
atom 2.4127868381559341 4.6510267816016970 70.2118014693691350 S
atom 7.4143215578658452 5.3845781950035994 70.8517727989935082 S
atom 2.3727689397621710 10.4261308131072514 70.8591436313085836 S
atom 7.3784651813127304 9.6167051247584450 70.2118014693691350 S
atom 2.4174095752804350 4.6467367669150654 75.8624627335693873 S
atom 7.4179990219751577 5.3811173886881400 75.2171568831099506 S
atom 2.3764464038714666 10.4226700067918312 75.2245277154251113 S
atom 7.3830879184372149 9.6124151100718205 75.8624627335693873 S
atom 2.7221706513350736 2.3472189995903947 78.0436563459999633 Ba
atom 7.6220748241966101 2.2055705543482476 78.0399709298424682 Ba
atom 2.5805222060929194 7.2471231724519356 78.0473417621576999 Ba
atom 7.6878489944918362 7.3128973427471706 78.0436563459999633 Ba
atom 2.1549053417287687 2.7089727044540095 83.0490578542123643 Ba
atom 7.2603211193329997 2.7728358639545498 83.0453724380548266 Ba
atom 2.2187685012293064 7.8143884820582157 83.0527432703699446 Ba
atom 7.1205836848855508 7.6746510476107632 83.0490578542123643 Ba
atom 4.9162663385288798 5.0122818191435545 80.5594726922501110 Zr
atom 9.9226903478002058 4.9771532103112106 80.5557872760923459 Zr
atom 4.8811377296965270 10.0187058284148822 80.5631581084076771 Zr
atom 9.8819446816856633 9.9779601623003167 80.5594726922501110 Zr
atom 4.9341684683710589 5.0014831991285567 85.5772592808234407 Zr
atom 9.9334889678152134 4.9592510804690360 85.5735738646657325 Zr
atom 4.8919363497115294 10.0008036985727102 85.5809446969807794 Zr
atom 9.8998468115278442 9.9671615422853108 85.5772592808234407 Zr
atom 5.1849957965289164 5.3431608763343341 78.0467768278771103 S
atom 9.5918112906094439 4.7084237523111874 78.0430914117196011 S
atom 4.5502586725057457 9.7499763704148474 78.0504622440346623 S
atom 10.1506741396856732 10.3088392194910838 78.0467768278771103 S
atom 4.6603321687880843 4.6817205184273769 83.0570933107075007 S
atom 10.2532516485163878 5.2330873800519946 83.0534078945497924 S
atom 5.2116990304127091 10.2746399981557008 83.0607787268648963 S
atom 9.6260105119448429 9.6473988615841577 83.0570933107075007 S
atom 5.3262048731848290 2.5089089952829533 80.2250840969866061 S
atom 9.5560636391202234 2.4730696673745269 80.8596812129356692 S
atom 4.5145110210165669 7.5146222854782021 80.8670520452508299 S
atom 10.2918832163416027 7.4745873384397159 80.2250840969866061 S
atom 5.3344861105896966 2.5006482957824665 85.8616707824653531 S
atom 9.5507370526082482 2.4660540836965006 85.2422445812781859 S
atom 4.5091844345045384 7.5076067018001655 85.2496154135933892 S
atom 10.3001644537464649 7.4663266389392309 85.8616707824653531 S
atom 2.4188322104003506 4.6430889506021531 80.2287695131443570 S
atom 7.4203498814655564 5.3789085278235227 80.8633666290933064 S
atom 2.3787972633618719 10.4204611459271934 80.8707374614083818 S
atom 7.3845105535571536 9.6087672937589250 80.2287695131443570 S
atom 2.4270929099008423 4.6348077131973051 85.8653561986229619 S
atom 7.4273654651436107 5.3842351143355467 85.2459299974358515 S
atom 2.3858128470399032 10.4257877324392219 85.2533008297510690 S
atom 7.3927712530576173 9.6004860563540717 85.8653561986229619 S
atom 2.7125258976668110 2.3341002735092813 88.0279302905598797 Ba
atom 7.6351935502777266 2.2152153080165058 88.0242448744021146 Ba
atom 2.5936409321740430 7.2567679261201903 88.0316157067174174 Ba
atom 7.6782042408235913 7.2997786166660381 88.0279302905598797 Ba
atom 2.3490220483415860 2.6995765696613723 92.8200002547006022 Ba
atom 7.2697172541256245 2.5787191573417290 92.8163148385429935 Ba
atom 2.2281646360219391 7.6202717754454001 92.8236856708581826 Ba
atom 7.3147003914983584 7.6652549128181340 92.8200002547006022 Ba
atom 4.9269015293701335 5.0136505500822004 90.6355189522650306 Zr
atom 9.9213216168616043 4.9665180194699730 90.6318335361074929 Zr
atom 4.8797689987578989 10.0080706375736437 90.6392043684225825 Zr
atom 9.8925798725268965 9.9793288932389270 90.6355189522650306 Zr
atom 5.1741995047043519 5.2990565457048930 88.0711857055163705 S
atom 9.6359156212388779 4.7192200441357564 88.0675002893587191 S
atom 4.5943630031351992 9.7607726622394271 88.0748711216739082 S
atom 10.1398778478611220 10.2647348888616765 88.0711857055163705 S
atom 4.8045036895332194 4.7959056414582300 93.1422416840861018 S
atom 10.1390665254855339 5.0889158593068569 93.1385562679284220 S
atom 5.0975139073818534 10.1304684774105294 93.1459271002436822 S
atom 9.7701820326899984 9.7615839846149992 93.1422416840861018 S
atom 5.2738086584658239 2.4939451543801816 90.2783517610975821 S
atom 9.6525288344603162 2.4583395192809303 90.7820951066903774 S
atom 4.6109762163566277 7.4998921373845979 90.7894659390055239 S
atom 10.2394870016225870 7.4596234975369260 90.2783517610975821 S
atom 2.4337960513031307 4.6954851653211769 90.2820371772550914 S
atom 7.4350800295591597 5.2824433324834450 90.7857805228479862 S
atom 2.3935274114554694 10.3239959505871379 90.7931513551630758 S
atom 7.3994743944599239 9.6611635084779426 90.2820371772550914 S
