#=======================================================
# FHI-aims file: sym_relax/sym_relax_RP_3_Rx1Ry20_-Rx2-Ry10.in
# Created using the Atomic Simulation Environment (ASE)
# Fri Mar 14 10:23:02 2025
#=======================================================
lattice_vector 10.1029668584253187 0.0000028134960032 0.0000000000000000 
lattice_vector 0.0000028134960032 10.1029668584253436 0.0000000000000000 
lattice_vector 0.0000000000000000 0.0000000000000000 35.2420692824199122 
atom -0.1572528251981921 -0.0000052275805130 0.2857296374090061 Ba
atom 5.2087362544108595 0.0000066343285144 0.2857296374090061 Ba
atom 0.1572542319461934 5.0514886567931852 0.2857296374090061 Ba
atom 4.8942320107624600 5.0514796083801716 0.2857296374090061 Ba
atom 0.0302045475487163 -0.0000191672375106 4.9297026993763220 Ba
atom 5.0212788816639371 0.0000205739855120 4.9297026993763220 Ba
atom -0.0302031408007149 5.0515025964501863 4.9297026993763220 Ba
atom 5.0816893835093850 5.0514656687231740 4.9297026993763220 Ba
atom 2.5257404937669166 2.5117062920548827 2.3306026834063367 Zr
atom 7.5772277714064096 2.5397799506537915 2.3306026834063367 Zr
atom 2.5257457489417470 7.5912619731184670 2.3306026834063367 Zr
atom 7.5772253297275576 7.5631911280155659 2.3306026834063367 Zr
atom 2.5257424179803305 2.5257424179803385 7.3420977671708121 Zr
atom 7.5772258471929916 2.5257438247283379 7.3420977671708121 Zr
atom 2.5257438247283241 7.5772258471930130 7.3420977671708121 Zr
atom 7.5772272539409906 7.5772272539410181 7.3420977671708121 Zr
atom 2.5257446787938012 2.8840015880151126 -0.1508016491422254 S
atom 7.5772235863795210 2.1674846546935664 -0.1508016491422254 S
atom 2.5257415639148570 7.2189666771582450 -0.1508016491422254 S
atom 7.5772295147544622 7.9354864239757852 -0.1508016491422254 S
atom 2.5257462202418948 2.0518294952401464 4.8654205029432873 S
atom 7.5772220449314309 2.9996567474685345 4.8654205029432873 S
atom 2.5257400224667665 8.0511387699332140 4.8654205029432873 S
atom 7.5772310562025531 7.1033143312008278 4.8654205029432873 S
atom 2.5257417146063283 0.0000007033740007 2.0083767918111688 S
atom 7.5772251438189944 0.0000021101220022 2.7993271625342047 S
atom 2.5257431213543327 5.0514841325866797 2.7993271625342047 S
atom 7.5772265505669871 5.0514855393346805 2.0083767918111688 S
atom 2.5257417146063283 0.0000007033740007 7.7937889780165568 S
atom 7.5772251438189944 0.0000021101220022 6.8904065563250549 S
atom 2.5257431213543327 5.0514841325866797 6.8904065563250549 S
atom 7.5772265505669871 5.0514855393346805 7.7937889780165568 S
atom 0.0000007033740007 2.5257417146063394 2.4579585864474893 S
atom 5.0514841325866628 2.5257431213543402 2.4579652856733332 S
atom 0.0000021101220021 7.5772251438190210 2.4579652856733332 S
atom 5.0514855393346538 7.5772265505670156 2.4579585864474893 S
atom 0.0000007033740007 2.5257417146063394 7.3420671825097168 S
atom 5.0514841325866628 2.5257431213543402 7.3421283518319047 S
atom 0.0000021101220021 7.5772251438190210 7.3421283518319047 S
atom 5.0514855393346538 7.5772265505670156 7.3420671825097168 S
atom -0.0302045475487163 0.0000191672375106 9.7544928349653048 Ba
atom 5.0816879767613736 -0.0000177604895092 9.7544928349653048 Ba
atom 0.0302059542967178 5.0514642619751653 9.7544928349653048 Ba
atom 5.0212802884119370 5.0515040031981906 9.7544928349653048 Ba
atom 0.1572528251981921 0.0000052275805130 14.3984658969326311 Ba
atom 4.8942306040144556 -0.0000038208325115 14.3984658969326311 Ba
atom -0.1572514184501906 5.0514782016321664 14.3984658969326311 Ba
atom 5.2087376611588558 5.0514900635411957 14.3984658969326311 Ba
atom 2.5257443421937462 2.5397785439057938 12.3535928509352928 Zr
atom 7.5772239229795577 2.5117076988028848 12.3535928509352928 Zr
atom 2.5257419005149138 7.5631897212675643 12.3535928509352928 Zr
atom 7.5772291781544059 7.5912633798664739 12.3535928509352928 Zr
atom 2.5257386157187689 2.9996553407205306 9.8187750313983440 S
atom 7.5772296494545426 2.0518309019881480 9.8187750313983440 S
atom 2.5257476269898915 7.1033129244528226 9.8187750313983440 S
atom 7.5772234516794246 8.0511401766812210 9.8187750313983440 S
atom 2.5257401571668585 2.1674832479455688 14.8349971834838570 S
atom 7.5772281080064534 2.8840029947631134 14.8349971834838570 S
atom 2.5257460855418024 7.9354850172277898 14.8349971834838570 S
atom 7.5772249931275191 7.2189680839062467 14.8349971834838570 S
atom 2.5257417146063283 0.0000007033740007 11.8848683718074302 S
atom 7.5772251438189944 0.0000021101220022 12.6758187425304580 S
atom 2.5257431213543327 5.0514841325866797 12.6758187425304580 S
atom 7.5772265505669871 5.0514855393346805 11.8848683718074302 S
atom 0.0000007033740007 2.5257417146063394 12.2262302486682870 S
atom 5.0514841325866628 2.5257431213543402 12.2262369478941242 S
atom 0.0000021101220021 7.5772251438190210 12.2262369478941242 S
atom 5.0514855393346538 7.5772265505670156 12.2262302486682870 S
atom 2.5257476455608461 2.6829952431785311 17.9067642786189651 Ba
atom 7.5772206196124774 2.3684909995301520 17.9067642786189651 Ba
atom 2.5257385971478170 7.4199730219948234 17.9067642786189651 Ba
atom 7.5772324815215075 7.7344800791392085 17.9067642786189651 Ba
atom 2.5257615852178437 2.4955378704316251 22.5507373405862914 Ba
atom 7.5772066799554798 2.5559483722770540 22.5507373405862914 Ba
atom 2.5257246574908176 7.6074303947417361 22.5507373405862914 Ba
atom 7.5772464211785016 7.5470227063922977 22.5507373405862914 Ba
atom 5.0655209618861168 5.0514867601740985 19.9516373246162964 Zr
atom 10.0889321392478468 5.0514843184952536 19.9516373246162964 Zr
atom 5.0374501167832095 10.1029663409599291 19.9516373246162964 Zr
atom 10.1170057978467813 10.1029715961347737 19.9516373246162964 Zr
atom 5.0514848359606610 5.0514848359606770 24.9631324083807691 Zr
atom 10.1029682651733257 5.0514862427086804 24.9631324083807691 Zr
atom 5.0514862427086653 10.1029682651733594 24.9631324083807691 Zr
atom 10.1029696719213220 10.1029696719213540 24.9631324083807691 Zr
atom 4.6932256659258851 5.0514825751472108 17.4702329920677322 S
atom 10.4612274352080821 5.0514885035221511 17.4702329920677322 S
atom 5.4097454127434297 10.1029705259868283 17.4702329920677322 S
atom 9.7447105018865408 10.1029674111078815 17.4702329920677322 S
atom 5.5253977587008425 5.0514810336991172 22.4864551441532079 S
atom 9.6290553424331282 5.0514900449702420 22.4864551441532079 S
atom 4.5775733199684705 10.1029720674349157 22.4864551441532079 S
atom 10.5768825946615141 10.1029658696597835 22.4864551441532079 S
atom 5.0514841325866628 2.5257431213543402 20.0789999268833093 S
atom 10.1029675617993213 2.5257445281023432 20.0789932276574348 S
atom 5.0514855393346538 7.5772265505670156 20.0789932276574348 S
atom 10.1029689685473247 7.5772279573150163 20.0789999268833093 S
atom 5.0514841325866628 2.5257431213543402 24.9631629930418377 S
atom 10.1029675617993213 2.5257445281023432 24.9631018237196969 S
atom 5.0514855393346538 7.5772265505670156 24.9631018237196969 S
atom 10.1029689685473247 7.5772279573150163 24.9631629930418377 S
atom 2.5257431213543327 5.0514841325866797 20.4203618037441572 S
atom 7.5772265505669871 5.0514855393346805 19.6294114330211578 S
atom 2.5257445281023343 10.1029675617993462 19.6294114330211578 S
atom 7.5772279573149968 10.1029689685473532 20.4203618037441572 S
atom 2.5257431213543327 5.0514841325866797 24.5114411975349995 S
atom 7.5772265505669871 5.0514855393346805 25.4148236192265315 S
atom 2.5257445281023343 10.1029675617993462 25.4148236192265315 S
atom 7.5772279573149968 10.1029689685473532 24.5114411975349995 S
atom 2.5257232507428200 2.5559469655290554 27.3755274761752361 Ba
atom 7.5772450144305052 2.4955392771796263 27.3755274761752361 Ba
atom 2.5257629919658440 7.5470212996442960 27.3755274761752361 Ba
atom 7.5772080867034806 7.6074318014897360 27.3755274761752361 Ba
atom 2.5257371903998158 2.3684895927821454 32.0195005381425659 Ba
atom 7.5772310747735014 2.6829966499265305 32.0195005381425659 Ba
atom 2.5257490523088451 7.7344786723912113 32.0195005381425659 Ba
atom 7.5772220263604710 7.4199744287428233 32.0195005381425659 Ba
atom 5.0374487100351999 5.0514829117472582 29.9746274921452596 Zr
atom 10.1170043910987744 5.0514881669221037 29.9746274921452596 Zr
atom 5.0655223686341113 10.1029701893867738 29.9746274921452596 Zr
atom 10.0889335459958733 10.1029677477079396 29.9746274921452596 Zr
atom 4.5775719132204671 5.0514886382222404 27.4398096726082876 S
atom 10.5768811879135196 5.0514824404471215 27.4398096726082876 S
atom 5.5253991654488477 10.1029644629117890 27.4398096726082876 S
atom 9.6290567491811334 10.1029734741829262 27.4398096726082876 S
atom 5.4097440059954360 5.0514870967741539 32.4560318246938593 S
atom 9.7447090951385533 5.0514839818952098 32.4560318246938593 S
atom 4.6932270726738947 10.1029660043598852 32.4560318246938593 S
atom 10.4612288419560837 10.1029719327348282 32.4560318246938593 S
atom 5.0514841325866628 2.5257431213543402 29.8472715891040892 S
atom 10.1029675617993213 2.5257445281023432 29.8472648898782360 S
atom 5.0514855393346538 7.5772265505670156 29.8472648898782360 S
atom 10.1029689685473247 7.5772279573150163 29.8472715891040892 S
atom 2.5257431213543327 5.0514841325866797 30.2968533837404124 S
atom 7.5772265505669871 5.0514855393346805 29.5059030130173916 S
atom 2.5257445281023343 10.1029675617993462 29.5059030130173916 S
atom 7.5772279573149968 10.1029689685473532 30.2968533837404124 S
