#=======================================================
# FHI-aims file: sym_relax/sym_relax_RP_3_RxRyRz_-Rx-RyRz.in
# Created using the Atomic Simulation Environment (ASE)
# Fri Mar 14 10:24:51 2025
#=======================================================
lattice_vector 10.0405607476819494 -0.0038631886534178 0.0000000000000000 
lattice_vector -0.0038631886534177 10.0405607476819441 0.0000000000000000 
lattice_vector 0.0000000000000000 0.0000000000000000 35.6782586812302256 
atom 0.0652405479660679 -0.1514224063424544 0.2341136294171579 Ba
atom 5.1717027801834279 -0.0671721422927767 0.2341136294171580 Ba
atom 0.1494908120157454 4.9550398258749011 0.2341136294171580 Ba
atom 5.0835893274803281 4.8669263731718075 0.2341136294171579 Ba
atom -0.2329675196399108 0.1821138781059109 4.9712487026265144 Ba
atom 4.8381664957350567 0.2310359253132016 4.9712487026265144 Ba
atom -0.1840454724326199 5.2532478934808768 4.9712487026265144 Ba
atom 4.7853812598743461 5.2004626576201733 4.9712487026265144 Ba
atom 2.5074025617858218 2.5103886951466294 2.3841531983072120 Zr
atom 7.5282404582085967 2.5090146234017281 2.3841531983072120 Zr
atom 2.5060284900409235 7.5312265915694159 2.3841531983072120 Zr
atom 7.5257513413000767 7.5287374746608879 2.3841531983072120 Zr
atom 2.5091743897571344 2.5091743897571339 7.4329705585896209 Zr
atom 7.5294547635980971 2.5072427954304239 7.4329705585896209 Zr
atom 2.5072427954304195 7.5294547635981024 7.4329705585896209 Zr
atom 7.5275231692713955 7.5275231692713920 7.4329705585896209 Zr
atom 2.6837963827999367 2.7756685884264525 -0.1180734526020885 S
atom 7.2629605649287772 2.3326208023876158 -0.1180734526020885 S
atom 2.2407485967610987 7.3548327705552934 -0.1180734526020885 S
atom 7.7021451623141939 7.7940173679407181 -0.1180734526020885 S
atom 2.2469087519984283 2.1995403034845484 4.9339941098290447 S
atom 7.8390888498706701 2.7695084331891229 4.9339941098290447 S
atom 2.8168768817030014 7.7917204013567982 4.9339941098290447 S
atom 7.2652575315126962 7.2178890829988180 4.9339941098290447 S
atom 2.7322105525622749 0.0078672695262549 2.2059761310074899 S
atom 7.2626395858895840 0.0097066523180777 2.7516848128899194 S
atom 2.2404276177219105 5.0319186204857589 2.7516848128899194 S
atom 7.7505593320765387 5.0262160490405190 2.2059761310074899 S
atom 2.8808624801054186 -0.0038429844563842 7.7379534331598085 S
atom 7.1596982675765233 -0.0000202041970340 7.1279876840194270 S
atom 2.1374862994088395 5.0221917639706488 7.1279876840194270 S
atom 7.8992112596196726 5.0145057950578744 7.7379534331598085 S
atom -0.0097988638529639 2.2880698212786896 2.2059761310074899 S
atom 5.0067105328694694 2.7759895674656345 2.7516848128899194 S
atom -0.0155014352982048 7.7982015356333187 2.7516848128899194 S
atom 5.0085499156612974 7.3064186007929584 2.2059761310074899 S
atom 0.0019113901296752 2.1394178937355512 7.7379534331598085 S
atom 5.0164373893845795 2.8789308857787055 7.1279876840194270 S
atom -0.0057745787830933 7.9011428539463866 7.1279876840194270 S
atom 5.0202601696439473 7.1577666732498164 7.7379534331598085 S
atom 0.2329675196399108 -0.1821138781059109 9.8946924145527255 Ba
atom 5.2023942519468802 -0.2348991139666198 9.8946924145527255 Ba
atom 0.1801822837792020 4.7873128542010601 9.8946924145527255 Ba
atom 5.2513162991541673 4.8362349014083552 9.8946924145527255 Ba
atom -0.0652405479660678 0.1514224063424543 14.6318274877620969 Ba
atom 4.8688579674985171 0.0633089536393587 14.6318274877620969 Ba
atom -0.1533540006691637 5.0855209218070305 14.6318274877620969 Ba
atom 4.9531082315481951 5.1697711858567121 14.6318274877620969 Ba
atom 2.5109462177284403 2.5079600843676308 12.4817879188720369 Zr
atom 7.5306690689875992 2.5054709674591105 12.4817879188720369 Zr
atom 2.5084571008199208 7.5276829356267934 12.4817879188720369 Zr
atom 7.5292949972427055 7.5263088638818996 12.4817879188720369 Zr
atom 2.7714400275158306 2.8188084760297150 9.9319470073501872 S
atom 7.2198206773255151 2.2449771576717219 9.9319470073501872 S
atom 2.1976087091578331 7.2671891258394039 9.9319470073501872 S
atom 7.7897888070300798 7.8371572555439650 9.9319470073501872 S
atom 2.3345523967143227 2.2426801910878105 14.9840145697813369 S
atom 7.7959489622674223 2.6818647884732254 14.9840145697813369 S
atom 2.7737369940997443 7.7040767566409079 14.9840145697813369 S
atom 7.3529011762285830 7.2610289706020739 14.9840145697813369 S
atom 2.7779211617923472 -0.0135698409714953 12.1142563042893094 S
atom 7.3083501951196608 -0.0117304581796739 12.6599649861717438 S
atom 2.2861382269519810 5.0104815099880069 12.6599649861717438 S
atom 7.7962699413066119 5.0047789385427652 12.1142563042893094 S
atom 0.0116382466447867 2.2423592120486271 12.1142563042893094 S
atom 5.0281476433672152 2.7302789582355711 12.6599649861717438 S
atom 0.0059356751995467 7.7524909264032500 12.6599649861717438 S
atom 5.0299870261590547 7.2607079915628763 12.1142563042893094 S
atom 2.4439338417910634 2.6605967960995849 18.0732429700322967 Ba
atom 7.3780323572556501 2.5724833433964891 18.0732429700322967 Ba
atom 2.3558203890879628 7.5946953115641715 18.0732429700322967 Ba
atom 7.4622826213053237 7.6789455756138452 18.0732429700322967 Ba
atom 2.7421419093970414 2.3270605116512182 22.8103780432416379 Ba
atom 7.7115686417040088 2.2742752757905107 22.8103780432416379 Ba
atom 2.6893566735363366 7.2964872439581834 22.8103780432416379 Ba
atom 7.7604906889112977 7.3454092911654802 22.8103780432416379 Ba
atom 5.0201206074855751 5.0171344741247630 20.2232825389223123 Zr
atom 10.0398434587447305 5.0146453572162466 20.2232825389223123 Zr
atom 5.0176314905770409 10.0368573253839202 20.2232825389223123 Zr
atom 10.0384693869998234 10.0354832536390237 20.2232825389223123 Zr
atom 5.0183487795142687 5.0183487795142678 25.2720998992047150 Zr
atom 10.0386291533552345 5.0164171851875565 25.2720998992047150 Zr
atom 5.0164171851875503 10.0386291533552523 25.2720998992047150 Zr
atom 10.0366975590285374 10.0366975590285357 25.2720998992047150 Zr
atom 4.8437267864714535 4.7518545808449408 17.7210558880130087 S
atom 10.3051233520245429 5.1910391782303575 17.7210558880130087 S
atom 5.2829113838568773 10.2132511463980453 17.7210558880130087 S
atom 9.8620755659857178 9.7702033603592042 17.7210558880130087 S
atom 5.2806144172729468 5.3279828657868382 22.7731234504441566 S
atom 9.7289950670826446 4.7541515474288598 22.7731234504441566 S
atom 4.7067830989149808 9.7763635155965289 22.7731234504441566 S
atom 10.2989631967872182 10.3463316453011167 22.7731234504441566 S
atom 5.2870955515494726 2.4956045487856309 20.5908141535049936 S
atom 9.8175245848767840 2.4974439315774561 20.0451054716225627 S
atom 4.7953126167091016 7.5196558997451399 20.0451054716225627 S
atom 10.3054443310637307 7.5139533282998876 20.5908141535049936 S
atom 5.3900368698625405 2.5053314053007418 24.9671170246345255 S
atom 9.6688726573336563 2.5091541855600972 25.5770827737749435 S
atom 4.6466606891659730 7.5313661537277792 25.5770827737749435 S
atom 10.4083856493768074 7.5236801848149994 24.9671170246345255 S
atom 2.5208126364019159 4.7515336018057512 20.5908141535049936 S
atom 7.5373220331243491 5.2394533479927006 20.0451054716225627 S
atom 2.5151100649566716 10.2616653161603839 20.0451054716225627 S
atom 7.5391614159161726 9.7698823813200129 20.5908141535049936 S
atom 2.5110857798868067 4.6485922834926869 24.9671170246345255 S
atom 7.5256117791417081 5.3881052755358345 25.5770827737749435 S
atom 2.5033998109740367 10.4103172437035258 25.5770827737749435 S
atom 7.5294345594010750 9.6669410630069379 24.9671170246345255 S
atom 2.2762068701172140 2.6912882678630416 27.7338217551678419 Ba
atom 7.3473408854921844 2.7402103150703367 27.7338217551678419 Ba
atom 2.3251289173245064 7.7624222832380108 27.7338217551678419 Ba
atom 7.2945556496314810 7.7096370473773046 27.7338217551678419 Ba
atom 2.5744149377232000 2.3577519834146727 32.4709568283772612 Ba
atom 7.6808771699405529 2.4420022474643583 32.4709568283772612 Ba
atom 2.6586652017728758 7.4642142156320297 32.4709568283772612 Ba
atom 7.5927637172374549 7.3761007629289361 32.4709568283772612 Ba
atom 5.0165769515429544 5.0195630849037594 30.3209172594871497 Zr
atom 10.0374148479657350 5.0181890131588585 30.3209172594871497 Zr
atom 5.0152028797980517 10.0404009813265453 30.3209172594871497 Zr
atom 10.0349257310571911 10.0379118644180227 30.3209172594871497 Zr
atom 4.7560831417555693 4.7087146932416877 27.7710763479652840 S
atom 10.3482632396278067 5.2786828229462470 27.7710763479652840 S
atom 5.3260512714601189 10.3008947911139330 27.7710763479652840 S
atom 9.7744319212698070 9.7270634727559351 27.7710763479652840 S
atom 5.1929707725570617 5.2848429781835842 32.8231439103963680 S
atom 9.7721349546858978 4.8417951921447475 32.8231439103963680 S
atom 4.7499229865182189 9.8640071603124433 32.8231439103963680 S
atom 10.2113195520713269 10.3031917576978458 32.8231439103963680 S
atom 5.2413849423194039 2.5170416592833873 30.4990943267868921 S
atom 9.7718139756467135 2.5188810420752104 29.9533856449044364 S
atom 4.7496020074790408 7.5410930102428901 29.9533856449044364 S
atom 10.2597337218336744 7.5353904387976449 30.4990943267868921 S
atom 2.4993755259041608 4.7972442110358298 30.4990943267868921 S
atom 7.5158849226265962 5.2851639572227711 29.9533856449044364 S
atom 2.4936729544589218 10.3073759253904473 29.9533856449044364 S
atom 7.5177243054184313 9.8155929905500727 30.4990943267868921 S
