#=======================================================
# FHI-aims file: sym_relax/sym_relax_RP_3_Rx0Rz_0RyRz.in
# Created using the Atomic Simulation Environment (ASE)
# Fri Mar 14 10:23:20 2025
#=======================================================
lattice_vector 10.1029712733755250 -0.0002015045293260 0.0003597840549566 
lattice_vector -0.0002015045293260 10.1029712733755321 -0.0003597840549566 
lattice_vector -0.0014817644637751 0.0014817644637750 35.2420461640732015 
atom -0.1572992585548779 0.0000763199141497 0.2857120404801129 Ba
atom 5.2087189204846416 -0.0001485453902538 0.2859160889121381 Ba
atom 0.1571325315322229 5.0514378435621721 0.2855563048571818 Ba
atom 4.8940856258682182 5.0514612043372509 0.2857120404801129 Ba
atom 0.0300230614257787 0.0002123294443871 4.9296805836593940 Ba
atom 5.0211154693520008 0.0000724139014445 4.9298882310059291 Ba
atom -0.0304709196004239 5.0516588028538658 4.9295284469509637 Ba
atom 5.0814079458488814 5.0515972138674794 4.9296805836593949 Ba
atom 2.5255817058089414 2.5117370328731874 2.3306090510364657 Zr
atom 7.5770560705481058 2.5397205954190420 2.3307841843988886 Zr
atom 2.5254696815956779 7.5913069843714620 2.3304244003439334 Zr
atom 7.5769665902320504 7.5631219172962583 2.3306090510364648 Zr
atom 2.5253837412815932 2.5260011431414973 7.3420929508485795 Zr
atom 7.5768693779693583 2.5259003908768376 7.3422728428760529 Zr
atom 2.5252829890169330 7.5774867798292611 7.3419130588211052 Zr
atom 7.5767686257046964 7.5773860275645992 7.3420929508485795 Zr
atom 2.5255190047743996 2.8839656941934657 -0.1508045677829884 S
atom 7.5773438951791183 2.1673522017037259 -0.1506064297771108 S
atom 2.5257575062267041 7.2189385906561450 -0.1509662138320676 S
atom 7.5769038891975198 7.9353505786165668 -0.1508045677829885 S
atom 2.5256811982522445 2.0519808712463279 4.8654362487835110 S
atom 7.5767696050753424 2.9997099272645320 4.8655774091322845 S
atom 2.5251832161229104 8.0512963162169626 4.8652176250773271 S
atom 7.5770660826753593 7.1033657556694223 4.8654362487835092 S
atom 2.5256384870827300 0.0000351671280187 2.0084360752992803 S
atom 7.5770945275436468 -0.0000386047686119 2.7996049969805576 S
atom 2.5255081385912108 5.0515477841838088 2.7992452129256016 S
atom 7.5770233715058186 5.0514200515511156 2.0084360752992803 S
atom 2.5252981603741498 0.0002774865620919 7.7938497072722646 S
atom 7.5770557111414547 0.0001384107684891 6.8906959784798465 S
atom 2.5254693221890503 5.0517247997209189 6.8903361944248980 S
atom 7.5766830447972540 5.0516623709851958 7.7938497072722646 S
atom -0.0001716241981632 2.5258316597739028 2.4580474715012990 S
atom 5.0513173923471806 2.5257474368812369 2.4578992572586800 S
atom -0.0002689966052610 7.5773338258336560 2.4575394732037279 S
atom 5.0512132602249435 7.5772165441970021 2.4580474715012994 S
atom -0.0003605866884799 2.5261837056050571 7.3418010218436622 S
atom 5.0511280692516829 2.5258185806779436 7.3423848798534843 S
atom -0.0004583197007525 7.5774049696303711 7.3420250957985305 S
atom 5.0510242977346147 7.5775685900281626 7.3418010218436622 S
atom -0.0306404632856853 0.0004050724155196 9.7545053180377526 Ba
atom 5.0812384021636214 0.0003434834291368 9.7546574547462015 Ba
atom 0.0296520132111914 5.0519298723815647 9.7542976706912565 Ba
atom 5.0207444211374002 5.0517899568386220 9.7545053180377543 Ba
atom 0.1566818566949716 0.0005410819457565 14.3984738612170435 Ba
atom 4.8936349510309691 0.0005644427208342 14.3986295968399638 Ba
atom -0.1579514379214551 5.0521508316732611 14.3982698127850117 Ba
atom 5.2080667411180777 5.0519259663688523 14.3984738612170453 Ba
atom 2.5251857767542503 2.5402652534098187 12.3535768506606800 Zr
atom 7.5766826853905878 2.5120801863346367 12.3537615013532154 Zr
atom 2.5250962964381856 7.5636665752870691 12.3534017172982633 Zr
atom 7.5765706611773389 7.5916501378329366 12.3535768506606800 Zr
atom 2.5250862843109387 3.0000214150366795 9.8187496529136471 S
atom 7.5769691508633619 2.0520908544891419 9.8189682766198132 S
atom 2.5253827619109601 7.1036772434415623 9.8186084925648665 S
atom 7.5764711687340389 8.0514062994598046 9.8187496529136489 S
atom 2.5252484777887951 2.1680365920895346 14.8349904694801342 S
atom 7.5763948607596046 2.8844485800499444 14.8351521155292456 S
atom 2.5248084718071699 7.9360349690023666 14.8347923314742722 S
atom 7.5766333622118811 7.2194214765126343 14.8349904694801342 S
atom 2.5252593439719861 0.0004545020991934 11.8849406887715361 S
atom 7.5767153844329078 0.0003807302025616 12.6761096104528352 S
atom 2.5251289954804754 5.0519671191549866 12.6757498263978849 S
atom 7.5766442283950806 5.0518393865222881 11.8849406887715361 S
atom -0.0005499097839716 2.5262548494017727 12.2262866444384510 S
atom 5.0509391067613523 2.5261706265090997 12.2261384301958547 S
atom -0.0006472821910696 7.5777570154615201 12.2257786461409061 S
atom 5.0508349746391259 7.5776397338248698 12.2262866444384510 S
atom 2.5248752400655130 2.6837325829983150 17.9067351225167215 Ba
atom 7.5764849897930135 2.3690992883818858 17.9069391709487178 Ba
atom 2.5248986008405900 7.4206856773343128 17.9065793868937568 Ba
atom 7.5762601244886092 7.7351174674214187 17.9067351225167215 Ba
atom 2.5247392305352765 2.4964102630176579 22.5507036656960125 Ba
atom 7.5762640305013180 2.5567027395145328 22.5509113130425085 Ba
atom 2.5246776415488972 7.6082891284669465 22.5505515289875582 Ba
atom 7.5761241149583762 7.5477951474407501 22.5507036656960160 Ba
atom 5.0645994115295858 5.0522365030575864 19.9516321330730761 Zr
atom 10.0880007334068296 5.0521470227415142 19.9518072664354982 Zr
atom 5.0364143444544043 10.1037334116939217 19.9514474823805088 Zr
atom 10.1159842959527051 10.1036213874806808 19.9516321330730726 Zr
atom 5.0503353012612573 5.0524344675849413 24.9631160328851891 Zr
atom 10.1018209379490056 5.0523337153202768 24.9632959249126536 Zr
atom 5.0502345489966052 10.1039201042727012 24.9629361408576820 Zr
atom 10.1017201856843695 10.1038193520080402 24.9631160328851891 Zr
atom 4.6923707502093066 5.0522992040921277 17.4702185142536308 S
atom 10.4603691271221262 5.0518591981105248 17.4704166522594875 S
atom 5.4087827381697071 10.1034455870629412 17.4700568682045407 S
atom 9.7437556346323966 10.1036840885152195 17.4702185142536308 S
atom 5.5243555731564431 5.0521370106142811 22.4864593308200931 S
atom 9.6280114015613378 5.0524334882142998 22.4866004911688968 S
atom 4.5764250126088939 10.1040198771667153 22.4862407071139039 S
atom 10.5757404575795455 10.1035218950373888 22.4864593308200966 S
atom 5.0505890075215207 2.5265008165193685 20.0789223392952465 S
atom 10.1020911735812824 2.5264034441122729 20.0794303375928678 S
atom 5.0505047846288607 7.5779898330646907 20.0790705535379210 S
atom 10.1019738919446453 7.5778857009424696 20.0789223392952465 S
atom 5.0505178637248127 2.5266901396148707 24.9634079618900699 S
atom 10.1017391277501272 2.5265924066025898 24.9631838879352372 S
atom 5.0501527387977028 7.5781787955550124 24.9628241038802585 S
atom 10.1019027481479213 7.5780750240379557 24.9634079618900699 S
atom 2.5247886602189444 5.0523100702753156 20.4202682949621988 S
atom 7.5763012772747453 5.0521797217838085 19.6294591573358872 S
atom 2.5247148883223165 10.1037661107362222 19.6290993732808943 S
atom 7.5761735446420539 10.1036949546984420 20.4202682949621988 S
atom 2.5246116446818512 5.0523488866774899 24.5113592764614907 S
atom 7.5760589578406554 5.0525200484923767 25.4148727893088520 S
atom 2.5244725688882443 10.1041064374448144 25.4145130052538910 S
atom 7.5759965291049616 10.1037337711005861 24.5113592764614907 S
atom 2.5245464875641472 2.5570737877291214 27.3755284000743409 Ba
atom 7.5759929609736263 2.4965798067029157 27.3756805367827525 Ba
atom 2.5244065720212041 7.5481661956553490 27.3753207527278271 Ba
atom 7.5759313719872390 7.6084586721522198 27.3755284000743409 Ba
atom 2.5244104780338996 2.3697514677484675 32.0194969432536354 Ba
atom 7.5757720016819290 2.6841832578355675 32.0196526788765965 Ba
atom 2.5241856127295015 7.7357696467879871 32.0192928948215965 Ba
atom 7.5757953624570042 7.4211363521715636 32.0194969432536354 Ba
atom 5.0360711909929288 5.0526324321122784 29.9745999326972594 Zr
atom 10.1156411424911958 5.0525204078990269 29.9747845833898019 Zr
atom 5.0640547535387972 10.1041067968514717 29.9744247993348836 Zr
atom 10.0874560754160179 10.1040173165353995 29.9745999326972594 Zr
atom 4.5763150293660750 5.0527319245555926 27.4397727349502496 S
atom 10.5756304743367266 5.0522339424262652 27.4399913586564033 S
atom 5.5240440853842827 10.1038203313786532 27.4396315746014530 S
atom 9.6276999137891686 10.1041168089786542 27.4397727349502496 S
atom 5.4082998523132231 5.0525697310777380 32.4560135515167687 S
atom 9.7432727487759152 5.0528082325300323 32.4561751975657771 S
atom 4.6916863598234881 10.1043946214824683 32.4558154135108694 S
atom 10.4596847367363370 10.1039546155008590 32.4560135515167687 S
atom 5.0501658178936646 2.5268791021051817 29.8471615122324287 S
atom 10.1016679839534138 2.5267817296980821 29.8476695105300500 S
atom 5.0500815950009876 7.5783681186505092 29.8473097264750926 S
atom 10.1015507023167679 7.5782639865282828 29.8471615122324216 S
atom 2.5243693252477817 5.0526892133860617 30.2967729084344732 S
atom 7.5758819423035808 5.0525588648945492 29.5059637708081297 S
atom 2.5242955533511413 10.1041452538469390 29.5056039867531865 S
atom 7.5757542096708681 10.1040740978091570 30.2967729084344732 S
