#=======================================================
# FHI-aims file: sym_relax/sym_relax_RP_9_Rx0Rz_0-RyRz.in
# Created using the Atomic Simulation Environment (ASE)
# Mon Mar 17 16:41:22 2025
#=======================================================
lattice_vector 9.8975613965947211 -0.0000716889037550 -0.0003596177528538 
lattice_vector -0.0000716889037550 9.8975613965947851 -0.0003596177528538 
lattice_vector 0.0032969751279239 0.0032969751279261 97.8544777341807475 
atom 0.0035001193077015 -0.0023741045517170 0.1595806144434440 Ba
atom 4.9510309537574217 -0.0039779357147803 0.1594164541478598 Ba
atom 0.0022144110081935 4.9448386070345327 0.1594164541478598 Ba
atom 4.9522449731531690 4.9463707492938260 0.1592209966905899 Ba
atom -0.0013349664925448 -0.0010341212743366 5.0704821792340411 Ba
atom 4.9498461105945530 0.0017966933223592 5.0703132491584642 Ba
atom 0.0010295678453185 4.9506132360716437 5.0703132491584624 Ba
atom 4.9474098873529346 4.9477107325712231 5.0701225614811873 Ba
atom 2.4751724235290280 2.4732901046958968 2.4383681641804458 Zr
atom 7.4243586886911812 2.4736439633777216 2.4381830488432885 Zr
atom 2.4755421459419700 7.4224605061270230 2.4381830488432894 Zr
atom 7.4239172773744988 7.4220349585414347 2.4380085464275933 Zr
atom 2.4748363345479176 2.4747133319305892 7.5805318248784008 Zr
atom 7.4234326274209561 2.4745055010488319 7.5803503037758730 Zr
atom 2.4746160846717342 7.4233220437981089 7.5803503037758748 Zr
atom 7.4235811883933742 7.4234581857761368 7.5801722071255311 Zr
atom 2.4715045378940985 2.4716065812621943 -0.1050763691207987 S
atom 7.4264187211015269 2.4769254670489951 -0.1052590816426781 S
atom 2.4776021783522877 7.4257420097983058 -0.1052590816426781 S
atom 7.4202493917395858 7.4203514351077446 -0.1054359868736526 S
atom 2.4783449097381554 2.4767318899652553 5.0440349213023499 S
atom 7.4206484072451184 2.4713661670979965 5.0438595404214963 S
atom 2.4718318644959019 7.4201827098473023 5.0438595404214954 S
atom 7.4270897635836333 7.4254767438108074 5.0436753035494810 S
atom 2.0432967712554655 -0.0006070981043807 2.5363171008495544 S
atom 7.8551468528112220 -0.0006373384054888 2.5301478631116137 S
atom 2.9063303100620024 4.9481792043438020 2.5301478631116128 S
atom 6.9920416251009172 4.9481377557411719 2.5359574830967038 S
atom 3.0116310717217494 0.0001450203716152 7.6035421625168738 S
atom 6.8863012570528079 0.0001043995224086 7.6064462731500235 S
atom 1.9374847143035747 4.9489209422717195 7.6064462731500226 S
atom 7.9603759255672308 4.9488898742171559 7.6031825447640102 S
atom 0.0007315712193321 2.9056181882083818 2.5367519585650009 S
atom 4.9495158639106771 2.0425119595941084 2.5297495330689368 S
atom 0.0006993211614402 6.9913285023433893 2.5297495330689381 S
atom 4.9494764250648018 7.8543630420539392 2.5363923408121489 S
atom 0.0004469354977116 1.9377652286759173 7.6030860117328558 S
atom 4.9492274416038606 3.0118655369114937 7.6068699563345756 S
atom 0.0004108988546307 7.9606820796607956 7.6068699563345756 S
atom 4.9491917893431845 6.8865100825214789 7.6027263939799994 S
atom 0.0005550269489288 0.0018756767844657 10.1597175296318039 Ba
atom 4.9480735901361879 0.0001958276988988 10.1595489804402881 Ba
atom -0.0007429526130419 4.9490123704481981 10.1595489804402881 Ba
atom 4.9492998807944026 4.9506205306300179 10.1593579118789901 Ba
atom 0.0001582975920998 0.0006195958507534 15.2684661546630203 Ba
atom 4.9493505666254638 0.0013415877866522 15.2683069176391513 Ba
atom 0.0005340238762477 4.9501581305359439 15.2683069176391477 Ba
atom 4.9489031514375856 4.9493644496962927 15.2681065369101461 Ba
atom 2.4747421336470392 2.4750508395592630 12.6995079064244099 Zr
atom 7.4235882367699251 2.4750351495541523 12.6993265622957505 Zr
atom 2.4747716940206912 7.4238516923034492 12.6993265622957541 Zr
atom 7.4234869874925309 7.4237956934047880 12.6991482886715463 Zr
atom 2.4749728436115279 2.4751734988257543 17.8175168766363221 Zr
atom 7.4237177441630600 2.4751132752694072 17.8173335509970947 Zr
atom 2.4749012014138505 7.4239298180186921 17.8173335509970876 Zr
atom 7.4237176974570112 7.4239183526712917 17.8171572588834550 Zr
atom 2.4733870700628917 2.4733496845813954 10.1545349529050490 S
atom 7.4254791032901064 2.4756528066419574 10.1543530928106343 S
atom 2.4766625605408872 7.4244693493912557 10.1543530928106360 S
atom 7.4221319239083785 7.4220945384269257 10.1541753351521749 S
atom 2.4757164208616138 2.4753870020958093 15.2662831878826992 S
atom 7.4230814307053565 2.4743849324445577 15.2661002162924468 S
atom 2.4742648879561235 7.4232014751938369 15.2661002162924433 S
atom 7.4244612747070731 7.4241318559413445 15.2659235701298481 S
atom 1.9386653146295942 0.0005642405023515 12.7165008188479085 S
atom 7.9597162885746657 0.0005289102035753 12.7150785766587049 S
atom 3.0108997458254168 4.9493454529528735 12.7150785766587031 S
atom 6.8874101684750606 4.9493090943478926 12.7161412010950734 S
atom 3.0113637273028369 0.0007295508866449 17.8242028747086501 S
atom 6.8872924682981962 0.0006919625699927 17.8245749627213783 S
atom 1.9384759255489608 4.9495085053192929 17.8245749627213712 S
atom 7.9601085811482939 4.9494744047321957 17.8238432569557617 S
atom 0.0004727494139318 3.0112475259319513 12.7167596483620642 S
atom 4.9492521865472989 1.9389732307031780 12.7148575271443107 S
atom 0.0004356437980783 6.8877897734524662 12.7148575271443107 S
atom 4.9492176032594148 7.9599923797774617 12.7164000306092024 S
atom 0.0005877092339999 1.9387960913378675 17.8241521356953498 S
atom 4.9493705119392537 3.0116259908623753 17.8246146943287940 S
atom 0.0005539691900345 7.9604425336116620 17.8246146943287940 S
atom 4.9493325630794764 6.8875409451834244 17.8237925179424970 S
atom 0.0007442057409629 0.0010884380601210 20.3788132687840395 Ba
atom 4.9492758239263646 0.0005917818467810 20.3786424251508009 Ba
atom 0.0004592811771382 4.9494083245960914 20.3786424251508009 Ba
atom 4.9494890595864254 4.9498332919056649 20.3784536510311298 Ba
atom 0.0008012513502516 0.0004570190310945 25.4904731691132369 Ba
atom 4.9498310297595491 0.0008819863406794 25.4902843949935729 Ba
atom 0.0010144870103206 4.9496985290899680 25.4902843949935836 Ba
atom 4.9495461051957284 4.9492018728766505 25.4901135513603911 Ba
atom 2.4751451554683381 2.4751451554683781 22.9344634100722260 Zr
atom 7.4239258537657156 2.4751093110164950 22.9342836011957090 Zr
atom 2.4751093110164724 7.4239258537658115 22.9342836011957090 Zr
atom 7.4238900093138032 7.4238900093139195 22.9341037923192985 Zr
atom 2.4753174673251759 2.4751168121110170 28.0514099435080411 Zr
atom 7.4241339633683152 2.4751053467636002 28.0512336513944440 Zr
atom 2.4753174206190787 7.4239218895128953 28.0512336513944440 Zr
atom 7.4240623211706236 7.4238616659565659 28.0510503257551740 Zr
atom 2.4747769972856180 2.4748508361505692 20.3784233191356314 S
atom 7.4241885844083244 2.4752879458168899 20.3782417152202235 S
atom 2.4753720416590954 7.4241044885661971 20.3782417152202235 S
atom 7.4235218511310714 7.4235956899961106 20.3780637013827928 S
atom 2.4755133136510818 2.4754394747861830 25.4905035010087779 S
atom 7.4236631231230827 2.4749306762161081 25.4903254871712939 S
atom 2.4748465803738426 7.4237472189653975 25.4903254871712939 S
atom 7.4242581674965740 7.4241843286317382 25.4901438832558824 S
atom 1.9383954109956318 0.0007537690568682 22.9347056349788723 S
atom 7.9607114426902887 0.0007199991305913 22.9342211851654803 S
atom 3.0118948999410571 4.9495365418799073 22.9342211851654945 S
atom 6.8871402648411193 4.9494986229024027 22.9343460172259945 S
atom 3.0118143853877339 0.0007818056174673 28.0443518574229884 S
atom 6.8877431263830733 0.0007442173008155 28.0447239454357558 S
atom 1.9389265836338581 4.9495607600501028 28.0447239454357629 S
atom 7.9605592392331950 4.9495266594630252 28.0439922396701000 S
atom 0.0007559473792506 3.0119358777917986 22.9347245154844579 S
atom 4.9495343635574240 1.9383544331449585 22.9342023046599017 S
atom 0.0007178208082085 6.8871709758942492 22.9342023046599017 S
atom 4.9495008012247332 7.9606807316373436 22.9343648977315944 S
atom 0.0009197989974240 1.9386643200743920 28.0443121258155763 S
atom 4.9497026017026915 3.0114942195988821 28.0447746844490169 S
atom 0.0008860589534587 7.9603107623481879 28.0447746844490204 S
atom 4.9496646528429187 6.8874091739199645 28.0439525080627163 S
atom 0.0013871594991148 0.0009258612404620 30.6008202832342064 Ba
atom 4.9497562870604437 0.0001321804008079 30.6006199025051977 Ba
atom 0.0009397443112114 4.9489487231501004 30.6006199025052013 Ba
atom 4.9501320133445912 4.9496707150860031 30.6004606654812790 Ba
atom 0.0009904301422859 -0.0003302196932504 35.7095689082654673 Ba
atom 4.9510332635497054 0.0012779404885614 35.7093778397040751 Ba
atom 0.0022167208005009 4.9500944832378497 35.7093778397040751 Ba
atom 4.9497352839877760 4.9484146341522868 35.7092092905125753 Ba
atom 2.4755481772896375 2.4752394713775048 33.1694189137200155 Zr
atom 7.4242634707614519 2.4751834724788493 33.1692406400958220 Zr
atom 2.4754469280122402 7.4240000152281516 33.1692406400958220 Zr
atom 7.4242930311351056 7.4239843252230528 33.1690592959671733 Zr
atom 2.4754539763887831 2.4755769790061768 38.2883949952660672 Zr
atom 7.4244190801104404 2.4757131209841701 38.2882168986157225 Zr
atom 2.4756025373612034 7.4245296637335079 38.2882168986157225 Zr
atom 7.4241988302342588 7.4243218328517298 38.2880353775132463 Zr
atom 2.4745738900750793 2.4749033088409429 30.6026436322617101 S
atom 7.4247702768260284 2.4758336895884456 30.6024669860990599 S
atom 2.4759537340767994 7.4246502323377559 30.6024669860990564 S
atom 7.4233187439205626 7.4236481626864830 30.6022840145088360 S
atom 2.4769032408737872 2.4769406263553733 35.7143918672393639 S
atom 7.4223726042412954 2.4745658153910517 35.7142141095809151 S
atom 2.4735560614920589 7.4233823581403628 35.7142141095809151 S
atom 7.4256480947192678 7.4256854802009222 35.7140322494864009 S
atom 1.9393905651112728 0.0009448579838848 33.1538482434856618 S
atom 7.9604415390563288 0.0009095276851088 33.1524260012965968 S
atom 3.0116249963070865 4.9497260704343988 33.1524260012965755 S
atom 6.8881354189567299 4.9496897118294214 33.1534886257327415 S
atom 3.0128055966331200 0.0013693686650513 38.2624805469943468 S
atom 6.8874757819641639 0.0013287478158451 38.2653846576275498 S
atom 1.9386592392149398 4.9501452905651506 38.2653846576275498 S
atom 7.9615504504785726 4.9501142225105816 38.2621209292414832 S
atom 0.0010381243893807 3.0113170802335811 33.1540692930000418 S
atom 4.9498175615227700 1.9390427850048146 33.1521671717823168 S
atom 0.0010010187735275 6.8878593277541400 33.1521671717823310 S
atom 4.9497829782348521 7.9600619340791301 33.1537096752471427 S
atom 0.0010628693328293 1.9384247740252631 38.2620568638097467 S
atom 4.9498433754389737 3.0125250822608360 38.2658408084114541 S
atom 0.0010268326897472 7.9613416250101228 38.2658408084114541 S
atom 4.9498077231783002 6.8871696278708079 38.2616972460569116 S
atom 0.0028804235837596 0.0025795783655517 40.7988042586629831 Ba
atom 4.9492607430913784 -0.0003229251348993 40.7986135709859639 Ba
atom 0.0004442003421408 4.9484936176144085 40.7986135709859639 Ba
atom 4.9516252774292369 4.9513244322111118 40.7984446409102333 Ba
atom -0.0019546622164864 0.0039195616429326 45.7097058234536320 Ba
atom 4.9480758999284786 0.0054517039022404 45.7095103659964579 Ba
atom -0.0007406428207344 4.9542682466515231 45.7095103659964579 Ba
atom 4.9467901916289714 4.9526644154884600 45.7093462057008395 Ba
atom 2.4751178874076643 2.4770002062408611 43.4305586559638499 Zr
atom 7.4234930188402002 2.4765746586552799 43.4303841535481823 Zr
atom 2.4746764760909619 7.4253912014045884 43.4303841535481823 Zr
atom 7.4238627412531217 7.4257450600864079 43.4301990382110858 Zr
atom 2.4719454011985458 2.4735584209714987 40.8248918988419618 S
atom 7.4272033002862585 2.4788524549350033 40.8247076619698603 S
atom 2.4783867575370233 7.4276689976843153 40.8247076619698603 S
atom 7.4206902550440068 7.4223032748170290 40.8245322810891196 S
atom 2.4787857730425791 2.4786837296745574 45.9740031892652325 S
atom 7.4214329864298758 2.4732931549840163 45.9738262840342315 S
atom 2.4726164436806419 7.4221096977332914 45.9738262840342315 S
atom 7.4275306268880366 7.4274285835200997 45.9736435715123548 S
atom 2.0439600008746894 0.0021111065929500 43.3387789570326163 S
atom 7.8558100824304438 0.0020808662918410 43.3326097192949291 S
atom 2.9069935396812330 4.9508974090411240 43.3326097192949291 S
atom 6.9927048547201593 4.9508559604385098 43.3384193392799517 S
atom 0.0007744470260184 2.9077783513426607 43.3391772870755148 S
atom 4.9495587397173431 2.0446721227283775 43.3321748615794959 S
atom 0.0007421969681266 6.9934886654776678 43.3321748615794959 S
atom 4.9495193008714899 7.8565232051882052 43.3388176693226868 S
atom 2.4736468099349764 2.4795210337944313 49.0866396726573981 Ba
atom 7.4208595215211526 2.4782353254949228 49.0864755123618650 Ba
atom 2.4720429787719209 7.4270518682442370 49.0864755123618650 Ba
atom 7.4223916637804468 7.4282658876399932 49.0862800549046554 Ba
atom 2.4749867932123646 2.4746859479941974 53.9975412374481039 Ba
atom 7.4266341505582600 2.4770504823320532 53.9973723073723093 Ba
atom 2.4778176078090666 7.4258670250813603 53.9973723073723093 Ba
atom 7.4237316470578296 7.4234308018397313 53.9971816196952403 Ba
atom 4.9493110191825496 4.9511933380158073 51.3654272223943593 Zr
atom 9.8984814206136313 4.9515630604287351 51.3652421070572203 Zr
atom 4.9496648778644081 9.9003796031780364 51.3652421070572203 Zr
atom 9.8980558730280936 9.8999381918613487 51.3650676046414389 Zr
atom 4.9507342464172686 4.9508572490346792 56.5075908830922629 Zr
atom 9.8993429582847501 4.9506369991585002 56.5074093619896800 Zr
atom 4.9505264155354727 9.8994535419078264 56.5074093619896800 Zr
atom 9.8994791002627167 9.8996021028802126 56.5072312653394349 Zr
atom 4.9476274957488728 4.9475254523808809 48.8219826890930904 S
atom 9.9017629242848155 4.9536230928390426 48.8217999765711426 S
atom 4.9529463815356634 9.9024396355883262 48.8217999765711426 S
atom 9.8963723495943441 9.8962703062264374 48.8216230713402055 S
atom 4.9527528044519142 4.9543658242249169 53.9710939795163895 S
atom 9.8962036243339266 4.9478527789826598 53.9709185986355564 S
atom 4.9473870815846395 9.8966693217319968 53.9709185986355564 S
atom 9.9014976582973890 9.9031106780704654 53.9707343617634336 S
atom 5.3816391026950514 2.4767524857060690 51.4638110167788483 S
atom 9.4673494168299683 2.4767202356481750 51.4568085912828437 S
atom 4.5185328740807682 7.4255367783974702 51.4568085912828366 S
atom 10.3303839565405173 7.4254973395516242 51.4634513990260274 S
atom 4.4137861431626018 2.4764678499844455 56.5301450699468688 S
atom 10.4367029941474261 2.4764318133413670 56.5339290145486544 S
atom 5.4878864513981416 7.4252483560906661 56.5339290145486473 S
atom 9.3625309970080846 7.4252127038299882 56.5297854521939200 S
atom 2.4754138163823112 4.5193176857422106 51.4633761590634151 S
atom 7.4242001188304414 5.3823512245487670 51.4572069213255858 S
atom 2.4753835760812133 10.3311677672980817 51.4572069213255858 S
atom 7.4241586702277962 9.4680625395877573 51.4630165413104592 S
atom 2.4761659348583107 5.4876519862085384 56.5306012207308726 S
atom 7.4249418567583474 4.4135056287903431 56.5335053313640188 S
atom 2.4761253140091020 9.3623221715396259 56.5335053313640188 S
atom 7.4249107887037757 10.4363968400540639 56.5302416029779380 S
atom 2.4778965912711719 2.4765759414356654 59.0867765878457618 Ba
atom 7.4250332849348428 2.4752779618736902 59.0866080386541412 Ba
atom 2.4762167421855965 7.4240945046230120 59.0866080386541412 Ba
atom 7.4266414451166263 7.4253207952811966 59.0864169700929480 Ba
atom 2.4766405103374480 2.4761792120788311 64.1955252128770297 Ba
atom 7.4261790450225913 2.4765549383629848 64.1953659758528801 Ba
atom 2.4773625022733623 7.4253714811122897 64.1953659758528801 Ba
atom 7.4253853641829295 7.4249240659243751 64.1951655951240809 Ba
atom 4.9510717540459162 4.9507630481338198 61.6265669646382719 Zr
atom 9.8998726067900886 4.9507926085074727 61.6263856205097227 Zr
atom 4.9510560640408103 9.8996091512567652 61.6263856205097227 Zr
atom 9.8998166078913918 9.8995079019793408 61.6262073468854297 Zr
atom 4.9511944133124057 4.9509937580982903 66.7445759348501184 Zr
atom 9.8999507325053049 4.9509221159006254 66.7443926092110900 Zr
atom 4.9511341897560790 9.8997386586499108 66.7443926092110615 Zr
atom 9.8999392671578619 9.8997386119438122 66.7442163170973117 Zr
atom 4.9493705990680610 4.9494079845496781 59.0815940111189732 S
atom 9.9004902638778773 4.9526834750276389 59.0814121510245585 S
atom 4.9516737211285937 9.9015000177769767 59.0814121510245656 S
atom 9.8981154529135278 9.8981528383952178 59.0812343933661452 S
atom 4.9514079165824549 4.9517373353483771 64.1933422460965915 S
atom 9.8992223896804976 4.9502858024429033 64.1931592745064847 S
atom 4.9504058469312264 9.8991023451922331 64.1931592745064847 S
atom 9.9001527704279475 9.9004821891939550 64.1929826283437279 S
atom 5.4872684404185774 2.4764936639006625 61.6438187065759990 S
atom 9.3638106879390737 2.4764565582848186 61.6419165853583380 S
atom 4.4149941451898780 7.4252731010341311 61.6419165853583380 S
atom 10.4360132942640593 7.4252385177462221 61.6434590888230929 S
atom 4.4148170058245517 2.4766086237207317 66.7512111939096116 S
atom 10.4364634480982499 2.4765748836767627 66.7516737525425725 S
atom 5.4876469053490062 7.4253914264260592 66.7516737525425725 S
atom 9.3635618596699945 7.4253534775663050 66.7508515761565775 S
atom 2.4765851549890314 4.4146862291163522 61.6435598770617119 S
atom 7.4253663674395076 5.4869206603122045 61.6421376348725829 S
atom 2.4765498246902720 10.4357372030614837 61.6421376348725900 S
atom 7.4253300088345320 9.3634310829619096 61.6432002593088910 S
atom 2.4767504653733381 5.4873846417895953 66.7512619329223185 S
atom 7.4255294198059234 4.4144968400357092 66.7516340209354411 S
atom 2.4767128770566975 9.3633133827850763 66.7516340209354553 S
atom 7.4254953192188298 10.4361294956351500 66.7509023151696397 S
atom 2.4771093525468215 2.4767651202276944 69.3058723269979993 Ba
atom 7.4254292390827139 2.4764801956638758 69.3057014833647713 Ba
atom 2.4766126963334725 7.4252967384131789 69.3057014833647713 Ba
atom 7.4258542063922954 7.4255099740732557 69.3055127092451215 Ba
atom 2.4764779335177849 2.4768221658369938 74.4175322273269444 Ba
atom 7.4257194435765950 2.4770354014970568 74.4173434532074651 Ba
atom 2.4769029008273833 7.4258519442463449 74.4173434532074651 Ba
atom 7.4252227873632615 7.4255670196825321 74.4171726095742514 Ba
atom 4.9511660699550450 4.9511660699551197 71.8615224682860969 Zr
atom 9.8999467682524092 4.9511302255032410 71.8613426594096296 Zr
atom 4.9511302255031477 9.8999467682525495 71.8613426594096296 Zr
atom 9.8999109238005207 9.8999109238006611 71.8611628505332760 Zr
atom 4.9511377265976568 4.9513383818119374 76.9784690017219901 Zr
atom 9.8999428039994566 4.9513383351058424 76.9782927096081835 Zr
atom 4.9511262612502556 9.9001548778551385 76.9782927096081835 Zr
atom 9.8998825804431050 9.9000832356574975 76.9781093839691266 Zr
atom 4.9508717506372646 4.9507979117723702 69.3054823773495343 S
atom 9.9001254030527672 4.9513929561458481 69.3053007734339559 S
atom 4.9513088603035484 9.9002094988951743 69.3053007734339559 S
atom 9.8996166044827358 9.8995427656178965 69.3051227595965287 S
atom 4.9514603892728326 4.9515342281378585 74.4175625592227306 S
atom 9.8997681334520564 4.9508674948606091 74.4173845453852749 S
atom 4.9509515907027843 9.8996840376099655 74.4173845453852749 S
atom 9.9002052431182967 9.9002790819833830 74.4172029414698386 S
atom 5.4879567922784513 2.4767768618659809 71.8617835736985029 S
atom 9.3631918903808948 2.4767387352949468 71.8612613628739325 S
atom 4.4143753476316521 7.4255552780442526 71.8612613628739325 S
atom 10.4367016461239448 7.4255217157115272 71.8614239559455257 S
atom 4.4146852345610741 2.4769407134841699 76.9713711840296639 S
atom 10.4363316768347190 2.4769069734401996 76.9718337426627670 S
atom 5.4875151340855508 7.4257235161894952 76.9718337426627670 S
atom 9.3634300884065382 7.4256855673297073 76.9710115662765730 S
atom 2.4767746835435784 4.4144163254823887 71.8617646931927680 S
atom 7.4255574563665290 5.4879158144278284 71.8612802433794400 S
atom 2.4767409136172875 10.4367323571771031 71.8612802433794258 S
atom 7.4255195373890430 9.3631611793279550 71.8614050754401603 S
atom 2.4768027201041716 5.4878352998745079 76.9714109156368238 S
atom 7.4255816745367156 4.4149474981206298 76.9717830036499890 S
atom 2.4767651317875159 9.3637640408699063 76.9717830036499748 S
atom 7.4255475739496433 10.4365801537200511 76.9710512978840455 S
atom 2.4769467757271655 2.4774080739858526 79.5278793414481129 Ba
atom 7.4249696376367238 2.4769606587979509 79.5276789607192853 Ba
atom 2.4761530948875099 7.4257772015472501 79.5276789607192853 Ba
atom 7.4256916295726469 7.4261529278313896 79.5275197236955904 Ba
atom 2.4756906947934447 2.4770113446290227 84.6366279664790824 Ba
atom 7.4261153977244918 2.4782376352872384 84.6364368979181307 Ba
atom 2.4772988549752486 7.4270541780365331 84.6364368979181307 Ba
atom 7.4244355486389297 7.4257561984745832 84.6362683487264320 Ba
atom 4.9512603858641464 4.9515690917763857 82.0964779719338082 Zr
atom 9.9000209297147386 4.9514678424990013 82.0962996983094229 Zr
atom 4.9512043869655136 9.9002843852483249 82.0962996983094229 Zr
atom 9.9000052397095892 9.9003139456219529 82.0961183541808452 Zr
atom 4.9515978934928331 4.9514748908755557 87.2154540534799025 Zr
atom 9.9005505782201055 4.9516234518479809 87.2152759568294158 Zr
atom 4.9517340354708415 9.9004399945972921 87.2152759568294158 Zr
atom 9.9003427473383141 9.9002197447211113 87.2150944357268685 Zr
atom 4.9509242233276138 4.9505948045618586 79.5297026904756166 S
atom 9.9006711468243189 4.9519746485635645 79.5295260443131014 S
atom 4.9518546040750930 9.9007911913128677 79.5295260443131014 S
atom 9.8996690771730762 9.8993396584073921 79.5293430727227530 S
atom 4.9529615408420593 4.9529241553605488 84.6414509254530003 S
atom 9.8994032726269303 4.9495769759788351 84.6412731677947932 S
atom 4.9505867298777071 9.8983935187281205 84.6412731677948074 S
atom 9.9017063946874817 9.9016690092060777 84.6410913077001084 S
atom 5.4873379947202290 2.4770590388761193 82.0811283512136072 S
atom 9.3638802422407608 2.4770219332602639 82.0792262299963937 S
atom 4.4150636994914887 7.4258384760095604 82.0792262299963937 S
atom 10.4360828485656771 7.4258038927216621 82.0807687334608289 S
atom 4.4144456885119281 2.4770837838195603 87.1891159220238734 S
atom 10.4373625394966645 2.4770477471764809 87.1928998666254955 S
atom 5.4885459967474999 7.4258642899257907 87.1928998666255097 S
atom 9.3631905423573869 7.4258286376651066 87.1887563042709104 S
atom 2.4769657724705838 4.4154114795980268 82.0809073016995825 S
atom 7.4257469849210382 5.4876459107938853 82.0794850595104606 S
atom 2.4769304421718119 10.4364624535431307 82.0794850595104464 S
atom 7.4257106263160519 9.3641563334435833 82.0805476839467190 S
atom 2.4773902831517653 5.4888265111198704 87.1895396052082532 S
atom 7.4261662050517794 4.4146801537016946 87.1924437158415486 S
atom 2.4773496623025477 9.3634966964509712 87.1924437158415486 S
atom 7.4261351369972033 10.4375713649654323 87.1891799874554039 S
atom 2.4786004928522436 2.4789013380704921 89.7258633168772377 Ba
atom 7.4245145321010320 2.4764651148288865 89.7256726291999769 Ba
atom 2.4756979893517967 7.4252816575781742 89.7256726291999769 Ba
atom 7.4273453466977362 7.4276461919160370 89.7255036991245731 Ba
atom 2.4799404761296309 2.4740662522702483 94.6367648816679150 Ba
atom 7.4302891611381803 2.4752802716659974 94.6365694242104354 Ba
atom 2.4814726183889357 7.4240968144153250 94.6365694242104354 Ba
atom 7.4286853299750915 7.4228111061157804 94.6364052639147815 Ba
atom 4.9530211207275086 4.9511388018944107 92.3576177141777919 Zr
atom 9.9014121158911852 4.9506973905777407 92.3574432117621882 Zr
atom 4.9525955731419335 9.8995139333270412 92.3574432117621882 Zr
atom 9.9017659745730544 9.8998836557400125 92.3572580964249852 Zr
atom 4.9495793354581563 4.9479663156853064 89.7519509570557830 S
atom 9.9036899121708863 4.9544076720238062 89.7517667201839231 S
atom 4.9548733694216915 9.9032242147730756 89.7517667201839231 S
atom 9.8983241893036222 9.8967111695308905 89.7515913393030331 S
atom 4.9547046441612119 4.9548066875293415 94.9010622474790893 S
atom 9.8981306122199086 4.9486373581674252 94.9008853422479604 S
atom 4.9493140694706748 9.8974539009167444 94.9008853422479604 S
atom 9.9034494980067169 9.9035515413748882 94.9007026297260268 S
atom 5.3837992658292988 2.4767953615127571 92.2662363452893146 S
atom 9.4695095799643116 2.4767631114548583 92.2592339197932745 S
atom 4.5206930372150103 7.4255796542041521 92.2592339197932745 S
atom 10.3325441196748002 7.4255402153582564 92.2658767275365648 S
atom 2.4781320210796487 4.5199809153614678 92.2658380152469704 S
atom 7.4269183235277572 5.3830144541680047 92.2596687775086650 S
atom 2.4781017807785406 10.3318309969173203 92.2596687775086650 S
atom 7.4268768749251333 9.4687257692069995 92.2654783974939079 S
