#=======================================================
# FHI-aims file: sym_relax/sym_relax_RP_2_RxRy0_RxRy0.in
# Created using the Atomic Simulation Environment (ASE)
# Fri Mar 14 10:20:50 2025
#=======================================================
lattice_vector 10.0883656552583076 0.1463593571627694 0.0000000000000000 
lattice_vector 0.1463593571627694 10.0883656552583023 -0.0000000000000000 
lattice_vector 0.0000000000000000 -0.0000000000000000 25.4319249837291572 
atom -0.0908964100938523 -0.0908964100938522 0.2763003493465048 Ba
atom 5.1350792377230041 0.1640760886752357 0.2763003493465048 Ba
atom 0.1640760886752366 5.1350792377230032 0.2763003493465048 Ba
atom 5.0264660961166783 5.0264660961166809 0.2763003493465048 Ba
atom 0.0274908804451371 0.0274908804451366 4.8907548045632980 Ba
atom 5.0166919471840101 0.0456887981362474 4.8907548045632980 Ba
atom 0.0456887981362482 5.0166919471840119 4.8907548045632980 Ba
atom 5.1448533866556723 5.1448533866556767 4.8907548045632980 Ba
atom 2.5545576010784106 2.5545576010784115 2.3530448962107422 Zr
atom 7.6069877327612847 2.6359845837135070 2.3530448962107422 Zr
atom 2.6359845837135083 7.6069877327612767 2.3530448962107422 Zr
atom 7.6719201072889431 7.6719201072889467 2.3530448962107422 Zr
atom 2.5545576010784106 2.5545576010784115 7.4284647129158623 Zr
atom 7.6069877327612847 2.6359845837135070 7.4284647129158623 Zr
atom 2.6359845837135083 7.6069877327612767 7.4284647129158623 Zr
atom 7.6719201072889431 7.6719201072889467 7.4284647129158623 Zr
atom 2.7924549734878128 2.7924549734878106 -0.1389244042479195 S
atom 7.3690903603518763 2.3980872113041047 -0.1389244042479195 S
atom 2.3980872113041038 7.3690903603518709 -0.1389244042479195 S
atom 7.9098174796983489 7.9098174796983471 -0.1389244042479195 S
atom 2.2828441694657875 2.2828441694657839 4.8907548045632980 S
atom 7.8787011643739078 2.9076980153261349 4.8907548045632980 S
atom 2.9076980153261354 7.8787011643739007 4.8907548045632980 S
atom 7.4002066756763272 7.4002066756763210 4.8907548045632980 S
atom 2.5220914138145787 0.0365898392906918 2.1965454379349789 S
atom 7.5662742414437236 0.1097695178720754 2.7014596516233524 S
atom 2.5952710923959614 5.0807726669198399 2.7014596516233524 S
atom 7.6394539200251090 5.1539523455012279 2.1965454379349789 S
atom 2.5220914138145787 0.0365898392906918 7.5849641711916185 S
atom 7.5662742414437236 0.1097695178720754 7.0800499575032445 S
atom 2.5952710923959614 5.0807726669198399 7.0800499575032445 S
atom 7.6394539200251090 5.1539523455012279 7.5849641711916185 S
atom 0.0365898392906922 2.5220914138145751 2.1965454379349789 S
atom 5.0807726669198416 2.5952710923959574 2.7014596516233524 S
atom 0.1097695178720758 7.5662742414437263 2.7014596516233524 S
atom 5.1539523455012262 7.6394539200251126 2.1965454379349789 S
atom 0.0365898392906922 2.5220914138145751 7.5849641711916185 S
atom 5.0807726669198416 2.5952710923959574 7.0800499575032445 S
atom 0.1097695178720758 7.5662742414437263 7.0800499575032445 S
atom 5.1539523455012262 7.6394539200251126 7.5849641711916185 S
atom -0.0908964100938523 -0.0908964100938522 9.5052092597800968 Ba
atom 5.1350792377230041 0.1640760886752357 9.5052092597800968 Ba
atom 0.1640760886752366 5.1350792377230032 9.5052092597800968 Ba
atom 5.0264660961166783 5.0264660961166809 9.5052092597800968 Ba
atom 2.7924549734878137 2.7924549734878106 9.9204340133745266 S
atom 7.3690903603518771 2.3980872113041056 9.9204340133745266 S
atom 2.3980872113041047 7.3690903603518709 9.9204340133745266 S
atom 7.9098174796983507 7.9098174796983471 9.9204340133745266 S
atom 2.4677848430114135 2.4677848430114149 12.9922628412110690 Ba
atom 7.6937604908282724 2.7227573417805035 12.9922628412110690 Ba
atom 2.7227573417805049 7.6937604908282733 12.9922628412110690 Ba
atom 7.5851473492219519 7.5851473492219483 12.9922628412110690 Ba
atom 2.5861721335504044 2.5861721335504040 17.6067172964278775 Ba
atom 7.5753732002892740 2.6043700512415127 17.6067172964278775 Ba
atom 2.6043700512415158 7.5753732002892802 17.6067172964278775 Ba
atom 7.7035346397609405 7.7035346397609370 17.6067172964278775 Ba
atom 5.1132388541836766 5.1132388541836793 15.0690073880753115 Zr
atom 10.1656689858665388 5.1946658368187775 15.0690073880753115 Zr
atom 5.1946658368187810 10.1656689858665423 15.0690073880753115 Zr
atom 10.2306013603942105 10.2306013603942052 15.0690073880753115 Zr
atom 5.1132388541836766 5.1132388541836793 20.1444272047804347 Zr
atom 10.1656689858665388 5.1946658368187775 20.1444272047804347 Zr
atom 5.1946658368187810 10.1656689858665423 20.1444272047804347 Zr
atom 10.2306013603942105 10.2306013603942052 20.1444272047804347 Zr
atom 5.3511362265930869 5.3511362265930824 12.5770380876166410 S
atom 9.9277716134571552 4.9567684644093681 12.5770380876166410 S
atom 4.9567684644093708 9.9277716134571392 12.5770380876166410 S
atom 10.4684987328036154 10.4684987328036119 12.5770380876166410 S
atom 4.8415254225710518 4.8415254225710562 17.6067172964278775 S
atom 10.4373824174791654 5.4663792684313970 17.6067172964278775 S
atom 5.4663792684313952 10.4373824174791707 17.6067172964278775 S
atom 9.9588879287815981 9.9588879287815857 17.6067172964278775 S
atom 5.0807726669198416 2.5952710923959574 14.9125079297995349 S
atom 10.1249554945489937 2.6684507709773402 15.4174221434879168 S
atom 5.1539523455012262 7.6394539200251126 15.4174221434879168 S
atom 10.1981351731303853 7.7126335986064927 14.9125079297995349 S
atom 5.0807726669198416 2.5952710923959574 20.3009266630561989 S
atom 10.1249554945489937 2.6684507709773402 19.7960124493678187 S
atom 5.1539523455012262 7.6394539200251126 19.7960124493678187 S
atom 10.1981351731303853 7.7126335986064927 20.3009266630561989 S
atom 2.5952710923959614 5.0807726669198399 14.9125079297995349 S
atom 7.6394539200251090 5.1539523455012279 15.4174221434879168 S
atom 2.6684507709773442 10.1249554945489901 15.4174221434879168 S
atom 7.7126335986064944 10.1981351731303711 14.9125079297995349 S
atom 2.5952710923959614 5.0807726669198399 20.3009266630561989 S
atom 7.6394539200251090 5.1539523455012279 19.7960124493678187 S
atom 2.6684507709773442 10.1249554945489901 19.7960124493678187 S
atom 7.7126335986064944 10.1981351731303711 20.3009266630561989 S
atom 2.4677848430114135 2.4677848430114149 22.2211717516446789 Ba
atom 7.6937604908282724 2.7227573417805035 22.2211717516446754 Ba
atom 2.7227573417805044 7.6937604908282733 22.2211717516446789 Ba
atom 7.5851473492219519 7.5851473492219483 22.2211717516446789 Ba
atom 5.3511362265930877 5.3511362265930833 22.6363965052390910 S
atom 9.9277716134571552 4.9567684644093690 22.6363965052390910 S
atom 4.9567684644093717 9.9277716134571392 22.6363965052390910 S
atom 10.4684987328036154 10.4684987328036119 22.6363965052390910 S
