#=======================================================
# FHI-aims file: sym_relax/sym_relax_RP_5_Rx0Rz_0-Ry0.in
# Created using the Atomic Simulation Environment (ASE)
# Fri Mar 14 10:54:19 2025
#=======================================================
lattice_vector 10.0802712947203705 -0.0000000000000000 0.0086553633505800 
lattice_vector -0.0000000000000000 10.0854750415517849 0.0000000000000000 
lattice_vector 0.0009080468765475 0.0000000000000003 55.1971339193217005 
atom -0.1827947473957681 0.0000000000000000 0.2874532785431949 Ba
atom 5.1946597945880120 0.0000000000000000 0.2901565951076869 Ba
atom 0.1545241472278245 5.0427375207758969 0.2858289134323971 Ba
atom 4.8573408999644130 5.0427375207758969 0.2917809602184838 Ba
atom -0.0149430636446755 0.0000000000000000 4.9649998915029538 Ba
atom 4.9724731784462897 0.0000000000000000 4.9488290954087892 Ba
atom -0.0676624689138984 5.0427375207758969 4.9445014137335077 Ba
atom 5.0251925837155076 5.0427375207758969 4.9693275731782567 Ba
atom 2.5022618686515159 2.4994962921399018 2.3388994430552907 Zr
atom 7.5423975160117038 2.5432412286360022 2.3432271247305807 Zr
atom 2.5022618686515159 7.5859787494119040 2.3388994430552930 Zr
atom 7.5423975160117056 7.5422338129157946 2.3432271247305798 Zr
atom 2.5038730800759201 2.5204954460489715 7.3567076049452735 Zr
atom 7.5440087274361183 2.5222420747269245 7.3610352866205560 Zr
atom 2.5038730800759201 7.5649795955028223 7.3567076049452753 Zr
atom 7.5440087274361165 7.5632329668248683 7.3610352866205524 Zr
atom 2.5066029012822821 2.8066323683849936 -0.1402096245500279 S
atom 7.5467385486424767 2.2361051523909090 -0.1358819428747382 S
atom 2.5066029012822821 7.2788426731668228 -0.1402096245500279 S
atom 7.5467385486424767 7.8493698891608839 -0.1358819428747382 S
atom 2.5064756965952739 2.0614173482383706 4.8839179970643301 S
atom 7.5466113439554752 2.9813201725375253 4.8882456787396187 S
atom 2.5064756965952739 8.0240576933134431 4.8839179970643318 S
atom 7.5466113439554761 7.1041548690142768 4.8882456787396205 S
atom 2.5065637345560714 0.0000000000000000 2.0436204904059037 S
atom 7.5392155615680956 0.0000000000000000 2.7815794282018258 S
atom 2.4990799142079250 5.0427375207758969 2.7772517465265372 S
atom 7.5466993819162473 5.0427375207758969 2.0479481720811923 S
atom 2.6131605059318463 0.0000000000000000 7.8219072542748576 S
atom 7.4616089125628990 0.0000000000000000 6.9095179154902580 S
atom 2.4214732652027062 5.0427375207758969 6.9051902338149880 S
atom 7.6532961532920094 5.0427375207758969 7.8262349359501364 S
atom -0.0167114773358113 2.5204575218391247 2.4736268204008645 S
atom 5.0234241700243745 2.5222799989367841 2.4779545020761642 S
atom -0.0167114773358113 7.5650175197126810 2.4736268204008649 S
atom 5.0234241700243745 7.5631950426150159 2.4779545020761606 S
atom -0.0107773545998912 2.4090095297894987 7.3690292667462716 S
atom 5.0293582927602962 2.6337279909863920 7.3733569484215362 S
atom -0.0107773545998912 7.6764655117623031 7.3690292667462671 S
atom 5.0293582927602962 7.4517470505653938 7.3733569484215451 S
atom -0.0150761098755030 0.0000000000000000 9.8022513763156951 Ba
atom 5.0440864469422095 0.0000000000000000 9.9070523843868816 Ba
atom 0.0039507995820370 5.0427375207758969 9.9027247027115912 Ba
atom 5.0250595374846796 5.0427375207758969 9.8065790579909695 Ba
atom 0.0154814879453903 0.0000000000000001 14.8393262662386132 Ba
atom 5.0365902258480304 0.0000000000000001 14.7431806215180270 Ba
atom -0.0035454215121495 5.0427375207758969 14.7388529398427117 Ba
atom 5.0556171353055621 5.0427375207758969 14.8436539479139373 Ba
atom 2.5202705127150371 2.5213687603879484 12.3229526621147940 Zr
atom 7.5604061600752166 2.5213687603879484 12.3272803437900951 Zr
atom 2.5202705127150371 7.5641062811638458 12.3229526621147940 Zr
atom 7.5604061600752166 7.5641062811638458 12.3272803437900951 Zr
atom 2.5366679453541492 2.5222420747269263 17.2891977192842958 Zr
atom 7.5768035927143291 2.5204954460489732 17.2935254009595489 Zr
atom 2.5366679453541492 7.5632329668248692 17.2891977192842887 Zr
atom 7.5768035927143274 7.5649795955028205 17.2935254009595418 Zr
atom 2.5159603926258010 3.0194116372381923 9.8441397538239102 S
atom 7.5560960399859951 2.0233258835377148 9.8484674354991757 S
atom 2.5159603926258010 7.0660634043136206 9.8441397538239013 S
atom 7.5560960399859916 8.0621491580140923 9.8484674354991881 S
atom 2.5245806328042759 2.0233258835377148 14.8017655704056956 S
atom 7.5647162801644408 3.0194116372381914 14.8060932520810091 S
atom 2.5245806328042764 8.0621491580140958 14.8017655704057081 S
atom 7.5647162801644372 7.0660634043136206 14.8060932520810020 S
atom 2.4227828497245381 0.0000000000000001 11.8536970993406534 S
atom 7.6578938230657254 0.0000000000000001 12.7965359065642357 S
atom 2.6177581757055393 5.0427375207758969 12.7922082248889595 S
atom 7.4629184970847131 5.0427375207758969 11.8580247810159420 S
atom 2.6190677602273618 0.0000000000000001 17.7407150904146320 S
atom 7.4675161668583980 0.0000000000000001 16.8283257516300360 S
atom 2.4273805194982199 5.0427375207758969 16.8239980699547012 S
atom 7.6592034075875430 5.0427375207758969 17.7450427720899171 S
atom 0.0002026890349438 2.6400511157018318 12.3207888212771479 S
atom 5.0403383363951368 2.4026864050740673 12.3251165029524561 S
atom 0.0002026890349438 7.4454239258499690 12.3207888212771479 S
atom 5.0403383363951368 7.6827886364777314 12.3251165029524561 S
atom 0.0111827326697787 2.4090095297894996 17.2725483758080252 S
atom 5.0513183800299659 2.6337279909863929 17.2768760574833458 S
atom 0.0111827326697787 7.6764655117623013 17.2725483758080109 S
atom 5.0513183800299659 7.4517470505653938 17.2768760574833564 S
atom 0.0153484417145630 0.0000000000000001 19.6765777510512976 Ba
atom 5.1082034943439645 0.0000000000000001 19.7014039104961007 Ba
atom 0.0680678469837858 5.0427375207758969 19.6970762288208192 Ba
atom 5.0554840890747350 5.0427375207758969 19.6809054327266217 Ba
atom 0.1832001254656565 0.0000000000000001 24.3541243640110956 Ba
atom 4.8860168782022386 0.0000000000000001 24.3600764107972232 Ba
atom -0.1541187691579369 5.0427375207758969 24.3557487291219203 Ba
atom 5.2233357728258465 5.0427375207758969 24.3584520456863878 Ba
atom 2.5382791567785450 2.5432412286360022 22.3070058811743159 Zr
atom 7.5784148041387294 2.4994962921399027 22.3113335628495477 Zr
atom 2.5382791567785450 7.5422338129157938 22.3070058811743159 Zr
atom 7.5784148041387294 7.5859787494119022 22.3113335628495477 Zr
atom 2.5340653288347950 2.9813201725375245 19.7619873271653255 S
atom 7.5742009761949696 2.0614173482383706 19.7663150088405857 S
atom 2.5340653288347950 7.1041548690142786 19.7619873271653255 S
atom 7.5742009761949696 8.0240576933134431 19.7663150088405786 S
atom 2.5339381241477934 2.2361051523909081 24.7861149487796233 S
atom 7.5740737715079698 2.8066323683849950 24.7904426304549403 S
atom 2.5339381241477934 7.8493698891608839 24.7861149487796233 S
atom 7.5740737715079698 7.2788426731668245 24.7904426304549403 S
atom 2.5414611112221372 0.0000000000000001 21.8686535777031139 S
atom 7.5741129382341628 0.0000000000000001 22.6066125154989841 S
atom 2.5339772908739859 5.0427375207758969 22.6022848338236138 S
atom 7.5815967585823305 5.0427375207758969 21.8729812593783883 S
atom 0.0171168554056988 2.5204575218391239 22.1679508221534185 S
atom 5.0572525027658628 2.5222799989367850 22.1722785038287427 S
atom 0.0171168554056988 7.5650175197126845 22.1679508221534185 S
atom 5.0572525027658628 7.5631950426150159 22.1722785038287427 S
atom 2.5310093422398334 2.3521763704290506 27.8971616210895093 Ba
atom 7.5711449895999952 2.6905611503468427 27.9014893027648085 Ba
atom 2.5310093422398334 7.7332986711227605 27.8971616210895164 Ba
atom 7.5711449895999969 7.3949138912049497 27.9014893027648156 Ba
atom 2.5270910507402560 2.5483164631147659 32.5673127603603945 Ba
atom 7.5672266981004332 2.4944210576611296 32.5716404420357364 Ba
atom 2.5270910507402560 7.5371585784370287 32.5673127603603945 Ba
atom 7.5672266981004341 7.5910539838906583 32.5716404420357506 Ba
atom 5.0274301213260886 5.0427375207758969 29.9484824194133665 Zr
atom 10.1113830582411897 5.0427375207758969 29.9533157168305308 Zr
atom 5.0712474108809777 10.0854750415517938 29.9489880351552458 Zr
atom 10.0675657686862490 10.0854750415517938 29.9528101010886658 Zr
atom 5.0445938839833806 5.0427375207758969 34.9632792152756409 Zr
atom 10.0856469079054332 5.0427375207758969 34.9677772045929061 Zr
atom 5.0455112605452372 10.0854750415517938 34.9634495229175855 Zr
atom 10.0847295313435215 10.0854750415517938 34.9676068969509615 Zr
atom 5.3388935775456323 5.0427375207758969 27.4699038032012979 S
atom 9.8041839078853243 5.0427375207758969 27.4742367678789350 S
atom 4.7640482605251258 10.0854750415517938 27.4699090862036641 S
atom 10.3790292249058442 10.0854750415517938 27.4742314848765368 S
atom 4.5805651063763335 5.0427375207758969 32.4919413130734682 S
atom 10.5539927703683940 5.0427375207758969 32.4971699653204382 S
atom 5.5138571230082114 10.0854750415517938 32.4928422836451034 S
atom 9.6207007537365143 10.0854750415517938 32.4962689947488812 S
atom 5.0492446149659092 2.5213899194569400 30.0867295667825942 S
atom 10.0893802623260900 2.5213476013189635 30.0910572484579291 S
atom 5.0492446149659074 7.5640851220948573 30.0867295667825871 S
atom 10.0893802623260900 7.5641274402328387 30.0910572484579220 S
atom 5.0450378876833719 2.5213625006366875 34.9803756553574630 S
atom 10.0851735350435874 2.5213750201392124 34.9847033370327125 S
atom 5.0450378876833719 7.5641125409151089 34.9803756553574914 S
atom 10.0851735350435874 7.5641000214125826 34.9847033370327125 S
atom 2.5295454632080636 5.0427375207758969 29.6458473555104511 S
atom 7.5690201069442136 5.0427375207758969 30.3927517019122746 S
atom 2.5288844595840310 10.0854750415517938 30.3884240202369966 S
atom 7.5696811105682524 10.0854750415517938 29.6501750371857007 S
atom 2.5245771481347643 5.0427375207758969 35.4347769479980386 S
atom 7.5655362726169058 5.0427375207758969 34.5047720820870509 S
atom 2.5254006252567183 10.0854750415517938 34.5004444004117943 S
atom 7.5647127954949447 10.0854750415517938 35.4391046296732242 S
atom 2.5228095454930610 2.5130064666163281 37.4578690648046475 Ba
atom 7.5629451928532365 2.5297310541595626 37.4621967464799468 Ba
atom 2.5228095454930610 7.5724685749354697 37.4578690648046404 Ba
atom 7.5629451928532365 7.5557439873922361 37.4621967464799326 Ba
atom 2.5186395268135566 2.5297310541595643 42.3851701787466553 Ba
atom 7.5587751741737552 2.5130064666163281 42.3894978604219546 Ba
atom 2.5186395268135566 7.5557439873922361 42.3851701787466837 Ba
atom 7.5587751741737534 7.5724685749354723 42.3894978604219688 Ba
atom 5.0407923598333895 5.0427375207758969 39.9236834626132691 Zr
atom 10.0809280071935685 5.0427375207758969 39.9280111442886536 Zr
atom 5.0407923598333895 10.0854750415517938 39.9236834626132691 Zr
atom 10.0809280071935667 10.0854750415517938 39.9280111442886536 Zr
atom 5.0369908356834125 5.0427375207758969 44.8840877099509044 Zr
atom 10.0762091064817199 5.0427375207758969 44.8882450839842519 Zr
atom 5.0360734591215506 10.0854750415517938 44.8839174023089740 Zr
atom 10.0771264830436174 10.0854750415517938 44.8884153916261468 Zr
atom 5.5505718792485048 5.0427375207758969 37.4483977251826872 S
atom 9.5753555835589239 5.0427375207758969 37.4518861366161815 S
atom 4.5352199361987102 10.0854750415517938 37.4475584549409035 S
atom 10.5907075266087016 10.0854750415517938 37.4527254068580149 S
atom 4.5310128404182732 5.0427375207758969 42.3989692000438723 S
atom 10.5865004308282451 5.0427375207758969 42.4041361519609978 S
atom 5.5463647834680794 10.0854750415517938 42.3998084702856843 S
atom 9.5711484877784603 10.0854750415517938 42.4032968817191929 S
atom 5.0407923598333895 2.5213640339680570 39.9236834626132691 S
atom 10.0809280071935685 2.5213734868078332 39.9280111442886536 S
atom 5.0407923598333895 7.5641110075837155 39.9236834626132691 S
atom 10.0809280071935685 7.5641015547439689 39.9280111442886536 S
atom 5.0365468319834186 2.5213625006366849 44.8669912698691462 S
atom 10.0766824793435532 2.5213750201392116 44.8713189515443460 S
atom 5.0365468319834203 7.5641125409151080 44.8669912698691320 S
atom 10.0766824793435497 7.5641000214125835 44.8713189515443460 S
atom 2.5211287688054398 5.0427375207758969 39.4432267232458429 S
atom 7.5604559508613578 5.0427375207758969 40.4041402019807663 S
atom 2.5203203035011708 10.0854750415517938 40.3998125203054244 S
atom 7.5612644161656233 10.0854750415517938 39.4475544049211280 S
atom 2.5160484470499003 5.0427375207758969 45.3425948431394588 S
atom 7.5570075715320240 5.0427375207758969 44.4125899772286274 S
atom 2.5168719241718449 10.0854750415517938 44.4082622955532713 S
atom 7.5561840944100815 10.0854750415517938 45.3469225248147723 S
atom 2.5143580215663537 2.4944210576611288 47.2757264831909367 Ba
atom 7.5544936689265425 2.5483164631147677 47.2800541648661863 Ba
atom 2.5143580215663532 7.5910539838906583 47.2757264831909296 Ba
atom 7.5544936689265425 7.5371585784370314 47.2800541648662005 Ba
atom 2.5104397300667824 2.6905611503468445 51.9458776224616869 Ba
atom 7.5505753774269637 2.3521763704290501 51.9502053041369862 Ba
atom 2.5104397300667824 7.3949138912049515 51.9458776224617012 Ba
atom 7.5505753774269637 7.7332986711227623 51.9502053041369720 Ba
atom 5.0541545983406921 5.0427375207758969 49.8988845058132355 Zr
atom 10.0504729561459953 5.0427375207758969 49.9027065717465277 Zr
atom 5.0103373087858083 10.0854750415517938 49.8983788900712000 Zr
atom 10.0942902457008667 10.0854750415517938 49.9032121874885206 Zr
atom 5.5010196132904747 5.0427375207758969 47.3554256121530273 S
atom 9.6078632440187768 5.0427375207758969 47.3588523232567198 S
atom 4.5677275966585853 10.0854750415517938 47.3545246415814347 S
atom 10.5411552606506405 10.0854750415517938 47.3597532938283194 S
atom 4.7426911421211484 5.0427375207758969 52.3774631220251905 S
atom 10.3576721065018535 5.0427375207758969 52.3817855206981804 S
atom 5.3175364591416727 10.0854750415517938 52.3774578390228953 S
atom 9.7828267894813283 10.0854750415517938 52.3817908037005040 S
atom 5.0323401047008893 2.5213899194569418 49.7606373584438799 S
atom 10.0724757520610826 2.5213476013189631 49.7649650401191792 S
atom 5.0323401047008893 7.5640851220948599 49.7606373584438941 S
atom 10.0724757520610826 7.5641274402328413 49.7649650401192076 S
atom 2.5125646127225862 5.0427375207758969 49.4546152233142067 S
atom 7.5520392564587349 5.0427375207758969 50.2015195697161190 S
atom 2.5119036090985487 10.0854750415517938 50.1971918880408197 S
atom 7.5527002600827524 10.0854750415517938 49.4589429049896196 S
