#=======================================================
# FHI-aims file: sym_relax/sym_relax_RP_10_RxRy0_RxRy0.in
# Created using the Atomic Simulation Environment (ASE)
# Mon Mar 17 17:10:01 2025
#=======================================================
lattice_vector 10.0657506036842435 0.0956121951307787 -0.0000000000000000 
lattice_vector 0.0956121951307787 10.0657506036842292 0.0000000000000004 
lattice_vector -0.0000000000000000 0.0000000000000039 104.8564268406623086 
atom -0.0829279440702637 -0.0829279440702637 0.2664914955693702 Ba
atom 5.1158032459123906 0.1307340416356539 0.2664914955693702 Ba
atom 0.1307340416356537 5.1158032459123781 0.2664914955693704 Ba
atom 4.9977534553372474 4.9977534553372420 0.2664914955693704 Ba
atom -0.0080212539334926 -0.0080212539334923 4.9417404162437881 Ba
atom 5.0408965557756176 0.0558273514988833 4.9417404162437872 Ba
atom 0.0558273514988822 5.0408965557755998 4.9417404162437872 Ba
atom 5.0726601454740248 5.0726601454739990 4.9417404162437881 Ba
atom 2.5341015018278359 2.5341015018278226 2.3302851576509318 Zr
atom 7.5794551994218136 2.5943859951450663 2.3302851576509318 Zr
atom 2.5943859951450703 7.5794551994217958 2.3302851576509318 Zr
atom 7.6147829012353414 7.6147829012353192 2.3302851576509318 Zr
atom 2.5419231558670861 2.5419231558670727 7.3540365950209106 Zr
atom 7.5716335453825474 2.5865643411058139 7.3540365950209106 Zr
atom 2.5865643411058166 7.5716335453825279 7.3540365950209123 Zr
atom 7.6226045552746022 7.6226045552745791 7.3540365950209106 Zr
atom 2.7720765665402998 2.7720765665402931 -0.1562840157980943 S
atom 7.3414801347093412 2.3564109304325953 -0.1562840157980943 S
atom 2.3564109304325993 7.3414801347093137 -0.1562840157980941 S
atom 7.8527579659478262 7.8527579659477933 -0.1562840157980941 S
atom 2.2272812395522466 2.2272812395522417 4.8776164558207311 S
atom 7.8862754616973891 2.9012062574206463 4.8776164558207329 S
atom 2.9012062574206592 7.8862754616973634 4.8776164558207329 S
atom 7.3079626389597623 7.3079626389597356 4.8776164558207311 S
atom 2.5164376509210613 0.0239030487826949 2.1644317862799869 S
atom 7.5493129527631941 0.0717091463480847 2.7077403573577170 S
atom 2.5642437484864522 5.0567783506248025 2.7077403573577170 S
atom 7.5971190503285762 5.1045844481901916 2.1644317862799869 S
atom 2.5164376509210613 0.0239030487826951 7.7098065763926416 S
atom 7.5493129527631941 0.0717091463480849 7.0187472271418319 S
atom 2.5642437484864522 5.0567783506248025 7.0187472271418319 S
atom 7.5971190503285762 5.1045844481901916 7.7098065763926416 S
atom 0.0239030487826948 2.5164376509210555 2.1644317862799869 S
atom 5.0567783506248212 2.5642437484864438 2.7077403573577170 S
atom 0.0717091463480844 7.5493129527631666 2.7077403573577170 S
atom 5.1045844481902041 7.5971190503285477 2.1644317862799869 S
atom 0.0239030487826948 2.5164376509210555 7.7098065763926416 S
atom 5.0567783506248212 2.5642437484864438 7.0187472271418319 S
atom 0.0717091463480844 7.5493129527631666 7.0187472271418319 S
atom 5.1045844481902041 7.5971190503285477 7.7098065763926416 S
atom 0.0344989743441889 0.0344989743441891 9.8524386790217449 Ba
atom 4.9983763274979331 0.0133071232212021 9.8524386790217395 Ba
atom 0.0133071232212006 4.9983763274979180 9.8524386790217466 Ba
atom 5.1151803737517003 5.1151803737516888 9.8524386790217449 Ba
atom -0.0357398157788563 -0.0357398157788556 14.8096015130057346 Ba
atom 5.0686151176209870 0.0835459133442473 14.8096015130057310 Ba
atom 0.0835459133442460 5.0686151176209604 14.8096015130057310 Ba
atom 5.0449415836286571 5.0449415836286446 14.8096015130057346 Ba
atom 2.5409537842603176 2.5409537842603114 12.3215765664064740 Zr
atom 7.5726029169893225 2.5875337127125770 12.3215765664064740 Zr
atom 2.5875337127125846 7.5726029169892950 12.3215765664064740 Zr
atom 7.6216351836678333 7.6216351836678147 12.3215765664064740 Zr
atom 2.5401179874596105 2.5401179874595976 17.2857236142450006 Zr
atom 7.5734387137900381 2.5883695095132895 17.2857236142450112 Zr
atom 2.5883695095132979 7.5734387137900194 17.2857236142450112 Zr
atom 7.6207993868671160 7.6207993868670929 17.2857236142450006 Zr
atom 2.8902192220800926 2.8902192220800886 9.8445553728769788 S
atom 7.2233374791695386 2.2382682748927993 9.8445553728769770 S
atom 2.2382682748928113 7.2233374791695093 9.8445553728769770 S
atom 7.9709006214876119 7.9709006214875853 9.8445553728769788 S
atom 2.1864506468678244 2.1864506468678164 14.8061369128038347 S
atom 7.9271060543818210 2.9420368501050707 14.8061369128038329 S
atom 2.9420368501050835 7.9271060543817935 14.8061369128038329 S
atom 7.2671320462753348 7.2671320462753064 14.8061369128038347 S
atom 2.5164376509210613 0.0239030487826953 11.9647434206357737 S
atom 7.5493129527631941 0.0717091463480851 12.6925960227367849 S
atom 2.5642437484864522 5.0567783506248025 12.6925960227367884 S
atom 7.5971190503285762 5.1045844481901916 11.9647434206357737 S
atom 2.5164376509210613 0.0239030487826955 17.6537757630824181 S
atom 7.5493129527631941 0.0717091463480852 16.9228181193932805 S
atom 2.5642437484864522 5.0567783506248025 16.9228181193932805 S
atom 7.5971190503285762 5.1045844481901916 17.6537757630824110 S
atom 0.0239030487826948 2.5164376509210555 11.9647434206357737 S
atom 5.0567783506248212 2.5642437484864438 12.6925960227367884 S
atom 0.0717091463480844 7.5493129527631666 12.6925960227367884 S
atom 5.1045844481902041 7.5971190503285477 11.9647434206357737 S
atom 0.0239030487826948 2.5164376509210564 17.6537757630824110 S
atom 5.0567783506248212 2.5642437484864447 16.9228181193932805 S
atom 0.0717091463480844 7.5493129527631666 16.9228181193932805 S
atom 5.1045844481902041 7.5971190503285477 17.6537757630824181 S
atom 0.0363121269595188 0.0363121269595193 19.7686600393481910 Ba
atom 4.9965631748826054 0.0114939706058726 19.7686600393481982 Ba
atom 0.0114939706058708 4.9965631748825867 19.7686600393481982 Ba
atom 5.1169935263670467 5.1169935263670263 19.7686600393481910 Ba
atom -0.0364644087114947 -0.0364644087114928 24.7302893492128320 Ba
atom 5.0693397105536375 0.0842705062768853 24.7302893492128320 Ba
atom 0.0842705062768843 5.0693397105536073 24.7302893492128320 Ba
atom 5.0442169906960066 5.0442169906960013 24.7302893492128320 Ba
atom 2.5403889139420301 2.5403889139420186 22.2488625960719624 Zr
atom 7.5731677873076126 2.5880985830308703 22.2488625960719730 Zr
atom 2.5880985830308796 7.5731677873075798 22.2488625960719730 Zr
atom 7.6210703133495379 7.6210703133495263 22.2488625960719624 Zr
atom 2.5403889139420301 2.5403889139420186 27.2117161023536482 Zr
atom 7.5731677873076126 2.5880985830308703 27.2117161023536518 Zr
atom 2.5880985830308796 7.5731677873075807 27.2117161023536518 Zr
atom 7.6210703133495379 7.6210703133495272 27.2117161023536482 Zr
atom 2.8949083387376993 2.8949083387376917 19.7683017428923833 S
atom 7.2186483625119395 2.2335791582351985 19.7683017428923975 S
atom 2.2335791582352011 7.2186483625119147 19.7683017428923975 S
atom 7.9755897381452128 7.9755897381451915 19.7683017428923833 S
atom 2.1855717610251775 2.1855717610251704 24.7302893492128320 S
atom 7.9279849402244649 2.9429157359477194 24.7302893492128320 S
atom 2.9429157359477256 7.9279849402244409 24.7302893492128320 S
atom 7.2662531604326892 7.2662531604326706 24.7302893492128320 S
atom 2.5164376509210613 0.0239030487826956 21.8834530281473683 S
atom 7.5493129527631941 0.0717091463480854 22.6156356259340328 S
atom 2.5642437484864522 5.0567783506248025 22.6156356259340328 S
atom 7.5971190503285762 5.1045844481901916 21.8834530281473683 S
atom 2.5164376509210613 0.0239030487826958 27.5771256702782850 S
atom 7.5493129527631941 0.0717091463480856 26.8449430724915992 S
atom 2.5642437484864522 5.0567783506248025 26.8449430724915992 S
atom 7.5971190503285762 5.1045844481901925 27.5771256702782850 S
atom 0.0239030487826948 2.5164376509210564 21.8834530281473683 S
atom 5.0567783506248212 2.5642437484864447 22.6156356259340328 S
atom 0.0717091463480844 7.5493129527631666 22.6156356259340328 S
atom 5.1045844481902041 7.5971190503285477 21.8834530281473683 S
atom 0.0239030487826948 2.5164376509210564 27.5771256702782850 S
atom 5.0567783506248212 2.5642437484864447 26.8449430724915992 S
atom 0.0717091463480844 7.5493129527631666 26.8449430724915992 S
atom 5.1045844481902041 7.5971190503285486 27.5771256702782850 S
atom 0.0363121269595188 0.0363121269595197 29.6919186590774231 Ba
atom 4.9965631748826054 0.0114939706058730 29.6919186590774267 Ba
atom 0.0114939706058709 4.9965631748825885 29.6919186590774267 Ba
atom 5.1169935263670467 5.1169935263670281 29.6919186590774231 Ba
atom -0.0357398157788563 -0.0357398157788549 34.6509771854198760 Ba
atom 5.0686151176209870 0.0835459133442480 34.6509771854198902 Ba
atom 0.0835459133442460 5.0686151176209622 34.6509771854198831 Ba
atom 5.0449415836286571 5.0449415836286464 34.6509771854198760 Ba
atom 2.5401179874596105 2.5401179874595976 32.1748550841806207 Zr
atom 7.5734387137900381 2.5883695095132895 32.1748550841806349 Zr
atom 2.5883695095132979 7.5734387137900203 32.1748550841806349 Zr
atom 7.6207993868671160 7.6207993868670938 32.1748550841806207 Zr
atom 2.5409537842603176 2.5409537842603118 37.1390021320190939 Zr
atom 7.5726029169893225 2.5875337127125775 37.1390021320190939 Zr
atom 2.5875337127125846 7.5726029169892959 37.1390021320190939 Zr
atom 7.6216351836678333 7.6216351836678156 37.1390021320190939 Zr
atom 2.8949083387376993 2.8949083387376917 29.6922769555332344 S
atom 7.2186483625119395 2.2335791582351985 29.6922769555332451 S
atom 2.2335791582352016 7.2186483625119164 29.6922769555332451 S
atom 7.9755897381452128 7.9755897381451932 29.6922769555332344 S
atom 2.1864506468678244 2.1864506468678160 34.6544417856217919 S
atom 7.9271060543818210 2.9420368501050707 34.6544417856217990 S
atom 2.9420368501050835 7.9271060543817953 34.6544417856217990 S
atom 7.2671320462753348 7.2671320462753100 34.6544417856217919 S
atom 2.5164376509210613 0.0239030487826960 31.8068029353432173 S
atom 7.5493129527631941 0.0717091463480858 32.5377605790323514 S
atom 2.5642437484864522 5.0567783506248043 32.5377605790323514 S
atom 7.5971190503285762 5.1045844481901934 31.8068029353432173 S
atom 2.5164376509210613 0.0239030487826962 37.4958352777898085 S
atom 7.5493129527631941 0.0717091463480860 36.7679826756889128 S
atom 2.5642437484864522 5.0567783506248043 36.7679826756889128 S
atom 7.5971190503285762 5.1045844481901934 37.4958352777898085 S
atom 0.0239030487826948 2.5164376509210564 31.8068029353432244 S
atom 5.0567783506248212 2.5642437484864447 32.5377605790323514 S
atom 0.0717091463480844 7.5493129527631684 32.5377605790323514 S
atom 5.1045844481902041 7.5971190503285495 31.8068029353432173 S
atom 0.0239030487826948 2.5164376509210564 37.4958352777898085 S
atom 5.0567783506248212 2.5642437484864447 36.7679826756889128 S
atom 0.0717091463480844 7.5493129527631684 36.7679826756889128 S
atom 5.1045844481902041 7.5971190503285495 37.4958352777898085 S
atom 0.0344989743441889 0.0344989743441902 39.6081400194038622 Ba
atom 4.9983763274979331 0.0133071232212032 39.6081400194038693 Ba
atom 0.0133071232212006 4.9983763274979198 39.6081400194038693 Ba
atom 5.1151803737517003 5.1151803737516905 39.6081400194038622 Ba
atom -0.0080212539334926 -0.0080212539334909 44.5188382821818891 Ba
atom 5.0408965557756176 0.0558273514988848 44.5188382821818962 Ba
atom 0.0558273514988821 5.0408965557756016 44.5188382821818962 Ba
atom 5.0726601454740248 5.0726601454740008 44.5188382821818891 Ba
atom 2.5419231558670861 2.5419231558670741 42.1065421034046921 Zr
atom 7.5716335453825474 2.5865643411058152 42.1065421034046992 Zr
atom 2.5865643411058166 7.5716335453825305 42.1065421034046992 Zr
atom 7.6226045552746022 7.6226045552745818 42.1065421034046921 Zr
atom 2.5341015018278359 2.5341015018278243 47.1302935407746943 Zr
atom 7.5794551994218136 2.5943859951450681 47.1302935407746943 Zr
atom 2.5943859951450703 7.5794551994217967 47.1302935407746943 Zr
atom 7.6147829012353414 7.6147829012353201 47.1302935407746943 Zr
atom 2.8902192220800926 2.8902192220800895 39.6160233255486460 S
atom 7.2233374791695395 2.2382682748927998 39.6160233255486318 S
atom 2.2382682748928113 7.2233374791695102 39.6160233255486247 S
atom 7.9709006214876119 7.9709006214875862 39.6160233255486460 S
atom 2.2272812395522466 2.2272812395522434 44.5829622426048573 S
atom 7.8862754616973891 2.9012062574206481 44.5829622426048573 S
atom 2.9012062574206592 7.8862754616973652 44.5829622426048573 S
atom 7.3079626389597623 7.3079626389597374 44.5829622426048573 S
atom 2.5164376509210613 0.0239030487826964 41.7507721220330197 S
atom 7.5493129527631941 0.0717091463480862 42.4418314712837486 S
atom 2.5642437484864522 5.0567783506248043 42.4418314712837486 S
atom 7.5971190503285762 5.1045844481901934 41.7507721220330197 S
atom 2.5164376509210613 0.0239030487826966 47.2961469121456943 S
atom 7.5493129527631941 0.0717091463480863 46.7528383410678856 S
atom 2.5642437484864522 5.0567783506248043 46.7528383410678856 S
atom 7.5971190503285762 5.1045844481901934 47.2961469121456943 S
atom 0.0239030487826948 2.5164376509210569 41.7507721220330197 S
atom 5.0567783506248212 2.5642437484864451 42.4418314712837486 S
atom 0.0717091463480844 7.5493129527631684 42.4418314712837486 S
atom 5.1045844481902041 7.5971190503285495 41.7507721220330197 S
atom 0.0239030487826948 2.5164376509210573 47.2961469121456943 S
atom 5.0567783506248212 2.5642437484864455 46.7528383410678856 S
atom 0.0717091463480844 7.5493129527631684 46.7528383410678856 S
atom 5.1045844481902041 7.5971190503285495 47.2961469121456943 S
atom -0.0829279440702637 -0.0829279440702610 49.1940872028562026 Ba
atom 5.1158032459123906 0.1307340416356562 49.1940872028562026 Ba
atom 0.1307340416356536 5.1158032459123799 49.1940872028562026 Ba
atom 4.9977534553372474 4.9977534553372447 49.1940872028562026 Ba
atom 2.7720765665402998 2.7720765665402949 49.6168627142237284 S
atom 7.3414801347093404 2.3564109304325966 49.6168627142237284 S
atom 2.3564109304325984 7.3414801347093164 49.6168627142237284 S
atom 7.8527579659478262 7.8527579659477960 49.6168627142237284 S
atom 2.4574127556334924 2.4574127556334857 52.6947049159005516 Ba
atom 7.6561439456161429 2.6710747413394071 52.6947049159005516 Ba
atom 2.6710747413394125 7.6561439456161198 52.6947049159005516 Ba
atom 7.5380941550410085 7.5380941550409899 52.6947049159005516 Ba
atom 2.5323194457702587 2.5323194457702574 57.3699538365748865 Ba
atom 7.5812372554793743 2.5961680512026390 57.3699538365748865 Ba
atom 2.5961680512026377 7.5812372554793566 57.3699538365748865 Ba
atom 7.6130008451777735 7.6130008451777522 57.3699538365748865 Ba
atom 5.0744422015315847 5.0744422015315749 54.7584985779820883 Zr
atom 10.1197958991255721 5.1347266948488128 54.7584985779820883 Zr
atom 5.1347266948488377 10.1197958991255383 54.7584985779820883 Zr
atom 10.1551236009391115 10.1551236009390617 54.7584985779820883 Zr
atom 5.0822638555708579 5.0822638555708357 59.7822500153521403 Zr
atom 10.1119742450863175 5.1269050408095591 59.7822500153521403 Zr
atom 5.1269050408095698 10.1119742450862713 59.7822500153521403 Zr
atom 10.1629452549783608 10.1629452549783288 59.7822500153521403 Zr
atom 5.3124172662440703 5.3124172662440508 52.2719294045330827 S
atom 9.8818208344130927 4.8967516301363458 52.2719294045330827 S
atom 4.8967516301363601 9.8818208344130500 52.2719294045330827 S
atom 10.3930986656516033 10.3930986656515376 52.2719294045330827 S
atom 4.7676219392560153 4.7676219392559931 57.3058298761518827 S
atom 10.4266161614011619 5.4415469571243973 57.3058298761518827 S
atom 5.4415469571244168 10.4266161614011263 57.3058298761518827 S
atom 9.8483033386634968 9.8483033386634879 57.3058298761518827 S
atom 5.0567783506248194 2.5642437484864455 54.5926452066111239 S
atom 10.0896536524669482 2.6120498460518351 55.1359537776889113 S
atom 5.1045844481902041 7.5971190503285486 55.1359537776889113 S
atom 10.1374597500323187 7.6449251478939457 54.5926452066111239 S
atom 5.0567783506248194 2.5642437484864460 60.1380199967237772 S
atom 10.0896536524669482 2.6120498460518355 59.4469606474729844 S
atom 5.1045844481902041 7.5971190503285486 59.4469606474729844 S
atom 10.1374597500323187 7.6449251478939457 60.1380199967237772 S
atom 2.5642437484864522 5.0567783506248043 54.5926452066111239 S
atom 7.5971190503285770 5.1045844481901934 55.1359537776889113 S
atom 2.6120498460518431 10.0896536524669127 55.1359537776889113 S
atom 7.6449251478939679 10.1374597500323045 54.5926452066111239 S
atom 2.5642437484864522 5.0567783506248043 60.1380199967237772 S
atom 7.5971190503285770 5.1045844481901934 59.4469606474729844 S
atom 2.6120498460518431 10.0896536524669145 59.4469606474729844 S
atom 7.6449251478939679 10.1374597500323063 60.1380199967237772 S
atom 2.5748396740479453 2.5748396740479360 62.2806520993529276 Ba
atom 7.5387170272016935 2.5536478229249551 62.2806520993529276 Ba
atom 2.5536478229249542 7.5387170272016739 62.2806520993529276 Ba
atom 7.6555210734554615 7.6555210734554366 62.2806520993529276 Ba
atom 2.5046008839249008 2.5046008839248937 67.2378149333369066 Ba
atom 7.6089558173247411 2.6238866130479961 67.2378149333369066 Ba
atom 2.6238866130480050 7.6089558173247127 67.2378149333369066 Ba
atom 7.5852822833324103 7.5852822833323978 67.2378149333369066 Ba
atom 5.0812944839640757 5.0812944839640668 64.7497899867376390 Zr
atom 10.1129436166930677 5.1278744124163236 64.7497899867376390 Zr
atom 5.1278744124163325 10.1129436166930304 64.7497899867376390 Zr
atom 10.1619758833716070 10.1619758833715697 64.7497899867376390 Zr
atom 5.0804586871633601 5.0804586871633433 69.7139370345761478 Zr
atom 10.1137794134937948 5.1287102092170489 69.7139370345761478 Zr
atom 5.1287102092170676 10.1137794134937700 69.7139370345761478 Zr
atom 10.1611400865708603 10.1611400865708355 69.7139370345761478 Zr
atom 5.4305599217838525 5.4305599217838481 62.2727687932081579 S
atom 9.7636781788733060 4.7786089745965459 62.2727687932081508 S
atom 4.7786089745965574 9.7636781788732758 62.2727687932081508 S
atom 10.5112413211913758 10.5112413211913438 62.2727687932081579 S
atom 4.7267913465715736 4.7267913465715612 67.2343503331350121 S
atom 10.4674467540855805 5.4823775498088283 67.2343503331350121 S
atom 5.4823775498088345 10.4674467540855396 67.2343503331350121 S
atom 9.8074727459790889 9.8074727459790658 67.2343503331350121 S
atom 5.0567783506248194 2.5642437484864460 64.3929568409669457 S
atom 10.0896536524669482 2.6120498460518355 65.1208094430679836 S
atom 5.1045844481902041 7.5971190503285486 65.1208094430679836 S
atom 10.1374597500323187 7.6449251478939457 64.3929568409669457 S
atom 5.0567783506248194 2.5642437484864464 70.0819891834136826 S
atom 10.0896536524669482 2.6120498460518360 69.3510315397243886 S
atom 5.1045844481902041 7.5971190503285486 69.3510315397243886 S
atom 10.1374597500323187 7.6449251478939457 70.0819891834136826 S
atom 2.5642437484864522 5.0567783506248043 64.3929568409669599 S
atom 7.5971190503285770 5.1045844481901934 65.1208094430679836 S
atom 2.6120498460518431 10.0896536524669145 65.1208094430679836 S
atom 7.6449251478939679 10.1374597500323063 64.3929568409669457 S
atom 2.5642437484864522 5.0567783506248043 70.0819891834136826 S
atom 7.5971190503285770 5.1045844481901934 69.3510315397243886 S
atom 2.6120498460518431 10.0896536524669145 69.3510315397243886 S
atom 7.6449251478939679 10.1374597500323063 70.0819891834136826 S
atom 2.5766528266632740 2.5766528266632682 72.1968734596792672 Ba
atom 7.5369038745863577 2.5518346703096269 72.1968734596792672 Ba
atom 2.5518346703096326 7.5369038745863284 72.1968734596792672 Ba
atom 7.6573342260707866 7.6573342260707724 72.1968734596792672 Ba
atom 2.5038762909922609 2.5038762909922609 77.1585027695440289 Ba
atom 7.6096804102573792 2.6246112059806328 77.1585027695440289 Ba
atom 2.6246112059806448 7.6096804102573552 77.1585027695440289 Ba
atom 7.5845576903997776 7.5845576903997589 77.1585027695440289 Ba
atom 5.0807296136457900 5.0807296136457758 74.6770760164030349 Zr
atom 10.1135084870113605 5.1284392827346137 74.6770760164030349 Zr
atom 5.1284392827346297 10.1135084870113250 74.6770760164030349 Zr
atom 10.1614110130533071 10.1614110130532787 74.6770760164030349 Zr
atom 5.0807296136457900 5.0807296136457758 79.6399295226847812 Zr
atom 10.1135084870113605 5.1284392827346137 79.6399295226847812 Zr
atom 5.1284392827346297 10.1135084870113250 79.6399295226847812 Zr
atom 10.1614110130533071 10.1614110130532787 79.6399295226847812 Zr
atom 5.4352490384414569 5.4352490384414489 72.1965151632235802 S
atom 9.7589890622156918 4.7739198579389450 72.1965151632235518 S
atom 4.7739198579389575 9.7589890622156581 72.1965151632235518 S
atom 10.5159304378490113 10.5159304378489544 72.1965151632235802 S
atom 4.7259124607289378 4.7259124607289245 77.1585027695440289 S
atom 10.4683256399282190 5.4832564356514668 77.1585027695440289 S
atom 5.4832564356514846 10.4683256399281959 77.1585027695440289 S
atom 9.8065938601364380 9.8065938601364078 77.1585027695440289 S
atom 5.0567783506248194 2.5642437484864469 74.3116664484784764 S
atom 10.0896536524669482 2.6120498460518364 75.0438490462651515 S
atom 5.1045844481902041 7.5971190503285486 75.0438490462651515 S
atom 10.1374597500323187 7.6449251478939457 74.3116664484784764 S
atom 5.0567783506248194 2.5642437484864469 80.0053390906093114 S
atom 10.0896536524669482 2.6120498460518364 79.2731564928226788 S
atom 5.1045844481902041 7.5971190503285486 79.2731564928226788 S
atom 10.1374597500323187 7.6449251478939457 80.0053390906093114 S
atom 2.5642437484864522 5.0567783506248043 74.3116664484784764 S
atom 7.5971190503285770 5.1045844481901934 75.0438490462651515 S
atom 2.6120498460518431 10.0896536524669145 75.0438490462651515 S
atom 7.6449251478939679 10.1374597500323063 74.3116664484784764 S
atom 2.5642437484864522 5.0567783506248043 80.0053390906093114 S
atom 7.5971190503285770 5.1045844481901934 79.2731564928226788 S
atom 2.6120498460518431 10.0896536524669145 79.2731564928226788 S
atom 7.6449251478939679 10.1374597500323063 80.0053390906093114 S
atom 2.5766528266632736 2.5766528266632687 82.1201320794086769 Ba
atom 7.5369038745863577 2.5518346703096277 82.1201320794087053 Ba
atom 2.5518346703096326 7.5369038745863293 82.1201320794087053 Ba
atom 7.6573342260707866 7.6573342260707733 82.1201320794086769 Ba
atom 2.5046008839249008 2.5046008839248945 87.0791906057511653 Ba
atom 7.6089558173247411 2.6238866130479970 87.0791906057511653 Ba
atom 2.6238866130480050 7.6089558173247145 87.0791906057511653 Ba
atom 7.5852822833324103 7.5852822833323996 87.0791906057511653 Ba
atom 5.0804586871633601 5.0804586871633433 84.6030685045118247 Zr
atom 10.1137794134937948 5.1287102092170489 84.6030685045118105 Zr
atom 5.1287102092170676 10.1137794134937700 84.6030685045118105 Zr
atom 10.1611400865708568 10.1611400865708355 84.6030685045118247 Zr
atom 5.0812944839640757 5.0812944839640677 89.5672155523502340 Zr
atom 10.1129436166930677 5.1278744124163245 89.5672155523502340 Zr
atom 5.1278744124163325 10.1129436166930304 89.5672155523502340 Zr
atom 10.1619758833716070 10.1619758833715697 89.5672155523502340 Zr
atom 5.4352490384414569 5.4352490384414498 82.1204903758644633 S
atom 9.7589890622156918 4.7739198579389459 82.1204903758644349 S
atom 4.7739198579389575 9.7589890622156581 82.1204903758644349 S
atom 10.5159304378490113 10.5159304378489544 82.1204903758644633 S
atom 4.7267913465715736 4.7267913465715630 87.0826552059529746 S
atom 10.4674467540855805 5.4823775498088301 87.0826552059529746 S
atom 5.4823775498088345 10.4674467540855378 87.0826552059529746 S
atom 9.8074727459790889 9.8074727459790640 87.0826552059529746 S
atom 5.0567783506248194 2.5642437484864469 84.2350163556744178 S
atom 10.0896536524669482 2.6120498460518364 84.9659739993634560 S
atom 5.1045844481902041 7.5971190503285495 84.9659739993634560 S
atom 10.1374597500323187 7.6449251478939466 84.2350163556744178 S
atom 5.0567783506248194 2.5642437484864469 89.9240486981210552 S
atom 10.0896536524669482 2.6120498460518364 89.1961960960198184 S
atom 5.1045844481902041 7.5971190503285504 89.1961960960198184 S
atom 10.1374597500323187 7.6449251478939475 89.9240486981210836 S
atom 2.5642437484864522 5.0567783506248052 84.2350163556744178 S
atom 7.5971190503285770 5.1045844481901943 84.9659739993634560 S
atom 2.6120498460518431 10.0896536524669145 84.9659739993634560 S
atom 7.6449251478939679 10.1374597500323063 84.2350163556744178 S
atom 2.5642437484864522 5.0567783506248061 89.9240486981210836 S
atom 7.5971190503285770 5.1045844481901952 89.1961960960198184 S
atom 2.6120498460518431 10.0896536524669145 89.1961960960198184 S
atom 7.6449251478939679 10.1374597500323063 89.9240486981210836 S
atom 2.5748396740479453 2.5748396740479369 92.0363534397349810 Ba
atom 7.5387170272016935 2.5536478229249560 92.0363534397349952 Ba
atom 2.5536478229249542 7.5387170272016757 92.0363534397349952 Ba
atom 7.6555210734554615 7.6555210734554384 92.0363534397349810 Ba
atom 2.5323194457702587 2.5323194457702587 96.9470517025130079 Ba
atom 7.5812372554793743 2.5961680512026404 96.9470517025130079 Ba
atom 2.5961680512026377 7.5812372554793583 96.9470517025130079 Ba
atom 7.6130008451777735 7.6130008451777540 96.9470517025130079 Ba
atom 5.0822638555708579 5.0822638555708384 94.5347555237360524 Zr
atom 10.1119742450863175 5.1269050408095618 94.5347555237360524 Zr
atom 5.1269050408095698 10.1119742450862713 94.5347555237360524 Zr
atom 10.1629452549783608 10.1629452549783288 94.5347555237360524 Zr
atom 5.0744422015315847 5.0744422015315758 99.5585069611058344 Zr
atom 10.1197958991255721 5.1347266948488137 99.5585069611058344 Zr
atom 5.1347266948488377 10.1197958991255401 99.5585069611058344 Zr
atom 10.1551236009391115 10.1551236009390617 99.5585069611058344 Zr
atom 5.4305599217838534 5.4305599217838489 92.0442367458798429 S
atom 9.7636781788733060 4.7786089745965468 92.0442367458798572 S
atom 4.7786089745965574 9.7636781788732758 92.0442367458798572 S
atom 10.5112413211913758 10.5112413211913438 92.0442367458798429 S
atom 4.7676219392560153 4.7676219392559949 97.0111756629360826 S
atom 10.4266161614011619 5.4415469571243991 97.0111756629360826 S
atom 5.4415469571244168 10.4266161614011281 97.0111756629360826 S
atom 9.8483033386634968 9.8483033386634897 97.0111756629360826 S
atom 5.0567783506248194 2.5642437484864469 94.1789855423641740 S
atom 10.0896536524669482 2.6120498460518369 94.8700448916149099 S
atom 5.1045844481902041 7.5971190503285504 94.8700448916149099 S
atom 10.1374597500323187 7.6449251478939475 94.1789855423641740 S
atom 5.0567783506248194 2.5642437484864473 99.7243603324768202 S
atom 10.0896536524669482 2.6120498460518369 99.1810517613990896 S
atom 5.1045844481902041 7.5971190503285504 99.1810517613990896 S
atom 10.1374597500323187 7.6449251478939475 99.7243603324768202 S
atom 2.5642437484864522 5.0567783506248061 94.1789855423641740 S
atom 7.5971190503285770 5.1045844481901952 94.8700448916149099 S
atom 2.6120498460518431 10.0896536524669145 94.8700448916149099 S
atom 7.6449251478939679 10.1374597500323063 94.1789855423641740 S
atom 2.5642437484864522 5.0567783506248061 99.7243603324768202 S
atom 7.5971190503285770 5.1045844481901952 99.1810517613990896 S
atom 2.6120498460518431 10.0896536524669145 99.1810517613990896 S
atom 7.6449251478939679 10.1374597500323063 99.7243603324768202 S
atom 2.4574127556334924 2.4574127556334888 101.6223006231874280 Ba
atom 7.6561439456161429 2.6710747413394098 101.6223006231874280 Ba
atom 2.6710747413394125 7.6561439456161207 101.6223006231874280 Ba
atom 7.5380941550410085 7.5380941550409926 101.6223006231874280 Ba
atom 5.3124172662440703 5.3124172662440534 102.0450761345549751 S
atom 9.8818208344130927 4.8967516301363485 102.0450761345549751 S
atom 4.8967516301363601 9.8818208344130554 102.0450761345549751 S
atom 10.3930986656516033 10.3930986656515412 102.0450761345549751 S
