#=======================================================
# FHI-aims file: sym_relax/sym_relax_RP_7_00Mz_00Mz.in
# Created using the Atomic Simulation Environment (ASE)
# Mon Mar 17 15:39:54 2025
#=======================================================
lattice_vector 9.9090697676224533 0.0000000081760010 -0.0000000000000000 
lattice_vector 0.0000000081760010 9.9090697676224195 0.0000000000000000 
lattice_vector 0.0000000000000000 0.0000000000000000 77.3782672968914795 
atom 0.0000000000000000 0.0000000000000000 0.1630709632089491 Ba
atom 4.9545348838112266 0.0000000040880011 0.1630709632089490 Ba
atom 0.0000000040880007 4.9545348838112124 0.1630709632089490 Ba
atom 4.9545348878992268 4.9545348878992073 0.1630709632089490 Ba
atom -0.0000000000000000 0.0000000000000000 5.0660072495194308 Ba
atom 4.9545348838112258 0.0000000040880007 5.0660072495194308 Ba
atom 0.0000000040880007 4.9545348838112124 5.0660072495194308 Ba
atom 4.9545348878992268 4.9545348878992064 5.0660072495194308 Ba
atom 2.4772674439496134 2.4772674439496041 2.4366410911224450 Zr
atom 7.4318023277608400 2.4772674480376082 2.4366410911224450 Zr
atom 2.4772674480376113 7.4318023277608178 2.4366410911224450 Zr
atom 7.4318023318488375 7.4318023318488162 2.4366410911224450 Zr
atom 2.4772674439496134 2.4772674439496041 7.5750415867049323 Zr
atom 7.4318023277608400 2.4772674480376082 7.5750415867049323 Zr
atom 2.4772674480376113 7.4318023277608178 7.5750415867049323 Zr
atom 7.4318023318488375 7.4318023318488162 7.5750415867049323 Zr
atom 2.4772674439496134 2.4772674439496036 -0.1064661591480557 S
atom 7.4318023277608400 2.4772674480376082 -0.1064661591480557 S
atom 2.4772674480376113 7.4318023277608170 -0.1064661591480557 S
atom 7.4318023318488375 7.4318023318488153 -0.1064661591480558 S
atom 2.4772674439496134 2.4772674439496041 5.0367690645287881 S
atom 7.4318023277608400 2.4772674480376082 5.0367690645287881 S
atom 2.4772674480376113 7.4318023277608178 5.0367690645287881 S
atom 7.4318023318488375 7.4318023318488162 5.0367690645287881 S
atom 2.0528483709215419 0.0000032504236426 2.5296096187337400 S
atom 7.8562213967009127 -0.0000032422476417 2.5296096187337400 S
atom 2.9016865169776835 4.9545316374755641 2.5296096187337400 S
atom 7.0073832588207718 4.9545381383228495 2.5296096187337400 S
atom 2.9977459266961870 -0.0000005070938260 7.5898645913687783 S
atom 6.9113238409262632 0.0000005152698273 7.5898645913687783 S
atom 1.9567889612030411 4.9545353949930364 7.5898645913687783 S
atom 7.9522808145954116 4.9545343808053879 7.5898645913687783 S
atom -0.0000032463356424 2.9016865128896749 2.5296096187337400 S
atom 4.9545381342348644 2.0528483750095359 2.5296096187337400 S
atom 0.0000032545116437 7.0073832547327424 2.5296096187337400 S
atom 4.9545316415635838 7.8562214007888844 2.5296096187337400 S
atom 0.0000005111818262 1.9567889571150339 7.5898645913687783 S
atom 4.9545343767174037 2.9977459307841756 7.5898645913687783 S
atom -0.0000005030058253 7.9522808105073857 7.5898645913687783 S
atom 4.9545353990810508 6.9113238450142465 7.5898645913687783 S
atom -0.0000000000000000 0.0000000000000000 10.1543301530509158 Ba
atom 4.9545348838112258 0.0000000040880007 10.1543301530509158 Ba
atom 0.0000000040880007 4.9545348838112124 10.1543301530509158 Ba
atom 4.9545348878992268 4.9545348878992064 10.1543301530509158 Ba
atom 0.0000000000000000 0.0000000000000000 15.2623115615978300 Ba
atom 4.9545348838112258 0.0000000040880007 15.2623115615978300 Ba
atom 0.0000000040880007 4.9545348838112124 15.2623115615978300 Ba
atom 4.9545348878992268 4.9545348878992064 15.2623115615978300 Ba
atom 2.4772674439496134 2.4772674439496041 12.6972983194714786 Zr
atom 7.4318023277608400 2.4772674480376082 12.6972983194714786 Zr
atom 2.4772674480376113 7.4318023277608178 12.6972983194714786 Zr
atom 7.4318023318488375 7.4318023318488162 12.6972983194714786 Zr
atom 2.4772674439496134 2.4772674439496041 17.8173641802052778 Zr
atom 7.4318023277608400 2.4772674480376082 17.8173641802052778 Zr
atom 2.4772674480376113 7.4318023277608178 17.8173641802052778 Zr
atom 7.4318023318488375 7.4318023318488162 17.8173641802052778 Zr
atom 2.4772674439496134 2.4772674439496041 10.1458092539539031 S
atom 7.4318023277608400 2.4772674480376082 10.1458092539539031 S
atom 2.4772674480376113 7.4318023277608178 10.1458092539539031 S
atom 7.4318023318488375 7.4318023318488162 10.1458092539539031 S
atom 2.4772674439496134 2.4772674439496041 15.2603005277673560 S
atom 7.4318023277608400 2.4772674480376082 15.2603005277673560 S
atom 2.4772674480376113 7.4318023277608178 15.2603005277673560 S
atom 7.4318023318488375 7.4318023318488162 15.2603005277673560 S
atom 2.9797936750032865 -0.0000000522820137 12.7078906625067702 S
atom 6.9292760926191717 0.0000000604580151 12.7078906625067702 S
atom 1.9747412128959418 4.9545349401812242 12.7078906625067702 S
atom 7.9343285629025058 4.9545348356171939 12.7078906625067702 S
atom 2.9814113104641651 0.0000000229916129 17.8173641802052778 S
atom 6.9276584571582873 -0.0000000148156111 17.8173641802052778 S
atom 1.9731235774350597 4.9545348649075986 17.8173641802052778 S
atom 7.9359461983633910 4.9545349108908221 17.8173641802052778 S
atom 0.0000000563700140 1.9747412088079379 12.7078906625067702 S
atom 4.9545348315292088 2.9797936790912769 12.7078906625067702 S
atom -0.0000000481940131 7.9343285588144754 12.7078906625067702 S
atom 4.9545349442692395 6.9292760967071478 12.7078906625067702 S
atom -0.0000000189036127 1.9731235733470551 17.8173641802052778 S
atom 4.9545349068028344 2.9814113145521559 17.8173641802052778 S
atom 0.0000000270796136 7.9359461942753597 17.8173641802052778 S
atom 4.9545348689956121 6.9276584612462671 17.8173641802052778 S
atom 0.0000000000000000 0.0000000000000000 20.3724167988127292 Ba
atom 4.9545348838112258 0.0000000040880007 20.3724167988127292 Ba
atom 0.0000000040880007 4.9545348838112133 20.3724167988127292 Ba
atom 4.9545348878992268 4.9545348878992082 20.3724167988127292 Ba
atom 0.0000000000000000 0.0000000000000000 25.4803982073596416 Ba
atom 4.9545348838112258 0.0000000040880007 25.4803982073596416 Ba
atom 0.0000000040880007 4.9545348838112133 25.4803982073596416 Ba
atom 4.9545348878992268 4.9545348878992082 25.4803982073596416 Ba
atom 2.4772674439496134 2.4772674439496041 22.9374300409390770 Zr
atom 7.4318023277608400 2.4772674480376082 22.9374300409390770 Zr
atom 2.4772674480376113 7.4318023277608187 22.9374300409390770 Zr
atom 7.4318023318488375 7.4318023318488144 22.9374300409390770 Zr
atom 2.4772674439496134 2.4772674439496041 28.0596867737056250 Zr
atom 7.4318023277608400 2.4772674480376082 28.0596867737056250 Zr
atom 2.4772674480376113 7.4318023277608187 28.0596867737056250 Zr
atom 7.4318023318488375 7.4318023318488144 28.0596867737056250 Zr
atom 2.4772674439496134 2.4772674439496041 20.3744278326432067 S
atom 7.4318023277608400 2.4772674480376082 20.3744278326432067 S
atom 2.4772674480376113 7.4318023277608187 20.3744278326432067 S
atom 7.4318023318488375 7.4318023318488144 20.3744278326432067 S
atom 2.4772674439496134 2.4772674439496041 25.4889191064566134 S
atom 7.4318023277608400 2.4772674480376082 25.4889191064566134 S
atom 2.4772674480376113 7.4318023277608187 25.4889191064566134 S
atom 7.4318023318488375 7.4318023318488144 25.4889191064566134 S
atom 2.9797936750032865 -0.0000000522820129 22.9268376979037924 S
atom 6.9292760926191717 0.0000000604580155 22.9268376979037924 S
atom 1.9747412128959418 4.9545349401812260 22.9268376979037924 S
atom 7.9343285629025058 4.9545348356171930 22.9268376979037924 S
atom 2.9977459266961870 -0.0000005070938251 28.0448637690417755 S
atom 6.9113238409262632 0.0000005152698278 28.0448637690417755 S
atom 1.9567889612030411 4.9545353949930382 28.0448637690417755 S
atom 7.9522808145954116 4.9545343808053870 28.0448637690417755 S
atom 0.0000000563700140 1.9747412088079388 22.9268376979037924 S
atom 4.9545348315292088 2.9797936790912778 22.9268376979037924 S
atom -0.0000000481940131 7.9343285588144736 22.9268376979037924 S
atom 4.9545349442692395 6.9292760967071469 22.9268376979037924 S
atom 0.0000005111818262 1.9567889571150348 28.0448637690417755 S
atom 4.9545343767174037 2.9977459307841765 28.0448637690417755 S
atom -0.0000005030058253 7.9522808105073857 28.0448637690417755 S
atom 4.9545353990810508 6.9113238450142456 28.0448637690417755 S
atom 0.0000000000000000 0.0000000000000000 30.5687211108911114 Ba
atom 4.9545348838112258 0.0000000040880007 30.5687211108911114 Ba
atom 0.0000000040880007 4.9545348838112133 30.5687211108911114 Ba
atom 4.9545348878992268 4.9545348878992082 30.5687211108911114 Ba
atom 0.0000000000000000 0.0000000000000000 35.4716573972015823 Ba
atom 4.9545348838112258 0.0000000040880007 35.4716573972015823 Ba
atom 0.0000000040880007 4.9545348838112133 35.4716573972015823 Ba
atom 4.9545348878992268 4.9545348878992082 35.4716573972015823 Ba
atom 2.4772674439496134 2.4772674439496041 33.1980872692881306 Zr
atom 7.4318023277608400 2.4772674480376082 33.1980872692881306 Zr
atom 2.4772674480376113 7.4318023277608187 33.1980872692881306 Zr
atom 7.4318023318488375 7.4318023318488144 33.1980872692881306 Zr
atom 2.4772674439496134 2.4772674439496041 30.5979592958817719 S
atom 7.4318023277608400 2.4772674480376082 30.5979592958817719 S
atom 2.4772674480376113 7.4318023277608187 30.5979592958817719 S
atom 7.4318023318488375 7.4318023318488144 30.5979592958817719 S
atom 2.4772674439496134 2.4772674439496041 35.7411945195586114 S
atom 7.4318023277608400 2.4772674480376082 35.7411945195586114 S
atom 2.4772674480376113 7.4318023277608187 35.7411945195586114 S
atom 7.4318023318488375 7.4318023318488144 35.7411945195586114 S
atom 2.0528483709215419 0.0000032504236444 33.1051187416768258 S
atom 7.8562213967009127 -0.0000032422476413 33.1051187416768258 S
atom 2.9016865169776835 4.9545316374755659 33.1051187416768258 S
atom 7.0073832588207718 4.9545381383228495 33.1051187416768258 S
atom -0.0000032463356424 2.9016865128896758 33.1051187416768258 S
atom 4.9545381342348644 2.0528483750095368 33.1051187416768258 S
atom 0.0000032545116437 7.0073832547327406 33.1051187416768258 S
atom 4.9545316415635838 7.8562214007888835 33.1051187416768258 S
atom 2.4772674439496134 2.4772674439496050 38.8522046116546989 Ba
atom 7.4318023277608400 2.4772674480376082 38.8522046116546989 Ba
atom 2.4772674480376113 7.4318023277608187 38.8522046116546989 Ba
atom 7.4318023318488375 7.4318023318488153 38.8522046116546989 Ba
atom 2.4772674439496134 2.4772674439496041 43.7551408979651555 Ba
atom 7.4318023277608400 2.4772674480376082 43.7551408979651555 Ba
atom 2.4772674480376113 7.4318023277608170 43.7551408979651555 Ba
atom 7.4318023318488375 7.4318023318488153 43.7551408979651555 Ba
atom 4.9545348878992268 4.9545348878992082 41.1257747395681719 Zr
atom 9.9090697717104526 4.9545348919872128 41.1257747395681719 Zr
atom 4.9545348919872270 9.9090697717104277 41.1257747395681719 Zr
atom 9.9090697757984536 9.9090697757984145 41.1257747395681719 Zr
atom 4.9545348878992268 4.9545348878992082 46.2641752351506952 Zr
atom 9.9090697717104526 4.9545348919872128 46.2641752351506952 Zr
atom 4.9545348919872270 9.9090697717104277 46.2641752351506952 Zr
atom 9.9090697757984536 9.9090697757984145 46.2641752351506952 Zr
atom 4.9545348878992268 4.9545348878992082 38.5826674892976911 S
atom 9.9090697717104526 4.9545348919872119 38.5826674892976911 S
atom 4.9545348919872270 9.9090697717104259 38.5826674892976911 S
atom 9.9090697757984536 9.9090697757984145 38.5826674892976911 S
atom 4.9545348878992268 4.9545348878992082 43.7259027129745448 S
atom 9.9090697717104526 4.9545348919872128 43.7259027129745448 S
atom 4.9545348919872270 9.9090697717104277 43.7259027129745448 S
atom 9.9090697757984536 9.9090697757984145 43.7259027129745448 S
atom 5.3789539568392986 2.4772641976139607 41.2187432671794980 S
atom 9.4846506986823886 2.4772706984612500 41.2187432671794980 S
atom 4.5301158189591613 7.4318055781844583 41.2187432671794980 S
atom 10.3334888447385165 7.4317990855131777 41.2187432671794980 S
atom 4.4340564010646526 2.4772679551314334 46.2789982398145128 S
atom 10.4295482544570106 2.4772669409437795 46.2789982398145128 S
atom 5.4750133747338010 7.4318018206669914 46.2789982398145128 S
atom 9.3885912889638714 7.4318028430306393 46.2789982398145128 S
atom 2.4772706943732574 4.5301158148711407 41.2187432671794980 S
atom 7.4317990814251944 5.3789539609272756 41.2187432671794980 S
atom 2.4772642017019701 10.3334888406504906 41.2187432671794980 S
atom 7.4318055822724833 9.4846507027703399 41.2187432671794980 S
atom 2.4772669368557865 5.4750133706457822 46.2789982398145128 S
atom 7.4318028389426596 4.4340564051526412 46.2789982398145128 S
atom 2.4772679592194402 9.3885912848758597 46.2789982398145128 S
atom 7.4318018247550128 10.4295482585449903 46.2789982398145128 S
atom 2.4772674439496134 2.4772674439496041 48.8434638014966467 Ba
atom 7.4318023277608400 2.4772674480376082 48.8434638014966467 Ba
atom 2.4772674480376113 7.4318023277608170 48.8434638014966467 Ba
atom 7.4318023318488375 7.4318023318488153 48.8434638014966467 Ba
atom 2.4772674439496134 2.4772674439496041 53.9514452100435307 Ba
atom 7.4318023277608400 2.4772674480376082 53.9514452100435307 Ba
atom 2.4772674480376113 7.4318023277608170 53.9514452100435307 Ba
atom 7.4318023318488375 7.4318023318488153 53.9514452100435307 Ba
atom 4.9545348878992268 4.9545348878992082 51.3864319679172112 Zr
atom 9.9090697717104526 4.9545348919872128 51.3864319679172112 Zr
atom 4.9545348919872270 9.9090697717104277 51.3864319679172112 Zr
atom 9.9090697757984536 9.9090697757984145 51.3864319679172112 Zr
atom 4.9545348878992268 4.9545348878992082 56.5064978286509927 Zr
atom 9.9090697717104526 4.9545348919872128 56.5064978286509927 Zr
atom 4.9545348919872270 9.9090697717104277 56.5064978286509927 Zr
atom 9.9090697757984536 9.9090697757984145 56.5064978286509927 Zr
atom 4.9545348878992268 4.9545348878992082 48.8349429023996464 S
atom 9.9090697717104526 4.9545348919872128 48.8349429023996464 S
atom 4.9545348919872270 9.9090697717104277 48.8349429023996464 S
atom 9.9090697757984536 9.9090697757984145 48.8349429023996464 S
atom 4.9545348878992268 4.9545348878992082 53.9494341762131455 S
atom 9.9090697717104526 4.9545348919872128 53.9494341762131455 S
atom 4.9545348919872270 9.9090697717104277 53.9494341762131455 S
atom 9.9090697757984536 9.9090697757984145 53.9494341762131455 S
atom 4.4520086527575575 2.4772675003196167 51.3970243109524958 S
atom 10.4115960027641243 2.4772673957555966 51.3970243109524958 S
atom 5.4570611230408907 7.4318022754787929 51.3970243109524958 S
atom 9.4065435406567843 7.4318023882188289 51.3970243109524958 S
atom 4.4503910172966776 2.4772674250459916 56.5064978286509927 S
atom 10.4132136382249989 2.4772674710292231 56.5064978286509927 S
atom 5.4586787585017778 7.4318023507524256 56.5064978286509927 S
atom 9.4049259051959151 7.4318023129452042 56.5064978286509927 S
atom 2.4772673916675987 5.4570611189528728 51.3970243109524958 S
atom 7.4318023841308589 4.4520086568455532 51.3970243109524958 S
atom 2.4772675044076240 9.4065435365687424 51.3970243109524958 S
atom 7.4318022795668179 10.4115960068520952 51.3970243109524958 S
atom 2.4772674669412273 5.4586787544137518 56.5064978286509927 S
atom 7.4318023088572227 4.4503910213846636 56.5064978286509927 S
atom 2.4772674291339976 9.4049259011078590 56.5064978286509927 S
atom 7.4318023548404462 10.4132136423129715 56.5064978286509927 S
atom 2.4772674439496134 2.4772674439496041 59.0615504472584547 Ba
atom 7.4318023277608400 2.4772674480376082 59.0615504472584547 Ba
atom 2.4772674480376113 7.4318023277608187 59.0615504472584547 Ba
atom 7.4318023318488375 7.4318023318488162 59.0615504472584547 Ba
atom 2.4772674439496134 2.4772674439496041 64.1695318558053742 Ba
atom 7.4318023277608400 2.4772674480376082 64.1695318558053742 Ba
atom 2.4772674480376113 7.4318023277608187 64.1695318558053742 Ba
atom 7.4318023318488375 7.4318023318488162 64.1695318558053742 Ba
atom 4.9545348878992268 4.9545348878992082 61.6265636893848310 Zr
atom 9.9090697717104526 4.9545348919872128 61.6265636893848310 Zr
atom 4.9545348919872270 9.9090697717104277 61.6265636893848310 Zr
atom 9.9090697757984536 9.9090697757984163 61.6265636893848310 Zr
atom 4.9545348878992268 4.9545348878992082 66.7488204221514536 Zr
atom 9.9090697717104526 4.9545348919872128 66.7488204221514536 Zr
atom 4.9545348919872270 9.9090697717104277 66.7488204221514536 Zr
atom 9.9090697757984536 9.9090697757984163 66.7488204221514536 Zr
atom 4.9545348878992268 4.9545348878992082 59.0635614810888967 S
atom 9.9090697717104526 4.9545348919872128 59.0635614810888967 S
atom 4.9545348919872270 9.9090697717104277 59.0635614810888967 S
atom 9.9090697757984536 9.9090697757984163 59.0635614810888967 S
atom 4.9545348878992268 4.9545348878992082 64.1780527549024100 S
atom 9.9090697717104526 4.9545348919872128 64.1780527549024100 S
atom 4.9545348919872270 9.9090697717104277 64.1780527549024100 S
atom 9.9090697757984536 9.9090697757984163 64.1780527549024100 S
atom 4.4520086527575575 2.4772675003196172 61.6159713463494967 S
atom 10.4115960027641243 2.4772673957555975 61.6159713463494967 S
atom 5.4570611230408907 7.4318022754787938 61.6159713463494967 S
atom 9.4065435406567843 7.4318023882188307 61.6159713463494967 S
atom 4.4340564010646526 2.4772679551314338 66.7339974174876005 S
atom 10.4295482544570106 2.4772669409437804 66.7339974174876005 S
atom 5.4750133747338010 7.4318018206669922 66.7339974174876005 S
atom 9.3885912889638714 7.4318028430306411 66.7339974174876005 S
atom 2.4772673916675987 5.4570611189528737 61.6159713463494967 S
atom 7.4318023841308589 4.4520086568455532 61.6159713463494967 S
atom 2.4772675044076240 9.4065435365687442 61.6159713463494967 S
atom 7.4318022795668179 10.4115960068520952 61.6159713463494967 S
atom 2.4772669368557865 5.4750133706457840 66.7339974174876005 S
atom 7.4318028389426596 4.4340564051526421 66.7339974174876005 S
atom 2.4772679592194402 9.3885912848758615 66.7339974174876005 S
atom 7.4318018247550128 10.4295482585449921 66.7339974174876005 S
atom 2.4772674439496134 2.4772674439496041 69.2578547593368796 Ba
atom 7.4318023277608400 2.4772674480376082 69.2578547593368796 Ba
atom 2.4772674480376113 7.4318023277608187 69.2578547593368796 Ba
atom 7.4318023318488375 7.4318023318488162 69.2578547593368796 Ba
atom 2.4772674439496134 2.4772674439496041 74.1607910456472581 Ba
atom 7.4318023277608400 2.4772674480376082 74.1607910456472581 Ba
atom 2.4772674480376113 7.4318023277608187 74.1607910456472581 Ba
atom 7.4318023318488375 7.4318023318488162 74.1607910456472581 Ba
atom 4.9545348878992268 4.9545348878992082 71.8872209177339414 Zr
atom 9.9090697717104526 4.9545348919872128 71.8872209177339414 Zr
atom 4.9545348919872270 9.9090697717104277 71.8872209177339414 Zr
atom 9.9090697757984536 9.9090697757984163 71.8872209177339414 Zr
atom 4.9545348878992268 4.9545348878992082 69.2870929443275259 S
atom 9.9090697717104526 4.9545348919872128 69.2870929443275259 S
atom 4.9545348919872270 9.9090697717104277 69.2870929443275259 S
atom 9.9090697757984536 9.9090697757984163 69.2870929443275259 S
atom 4.9545348878992268 4.9545348878992082 74.4303281680041522 S
atom 9.9090697717104526 4.9545348919872128 74.4303281680041522 S
atom 4.9545348919872270 9.9090697717104277 74.4303281680041522 S
atom 9.9090697757984536 9.9090697757984163 74.4303281680041522 S
atom 5.3789539568392986 2.4772641976139611 71.7942523901226082 S
atom 9.4846506986823886 2.4772706984612518 71.7942523901226082 S
atom 4.5301158189591613 7.4318055781844601 71.7942523901226082 S
atom 10.3334888447385165 7.4317990855131795 71.7942523901226082 S
atom 2.4772706943732574 4.5301158148711407 71.7942523901226082 S
atom 7.4317990814251944 5.3789539609272756 71.7942523901226082 S
atom 2.4772642017019701 10.3334888406504923 71.7942523901226082 S
atom 7.4318055822724833 9.4846507027703399 71.7942523901226082 S
