#=======================================================
# FHI-aims file: sym_relax/sym_relax_RP_10_Rx1Ry20_-Rx2-Ry10.in
# Created using the Atomic Simulation Environment (ASE)
# Mon Mar 17 17:13:33 2025
#=======================================================
lattice_vector 10.0734630660777036 0.0408630326644728 0.0000000000000000 
lattice_vector 0.0408630326644728 10.0734630660776876 0.0000000000000000 
lattice_vector 0.0000000000000000 0.0000000000000000 104.8144445582769038 
atom -0.1624280351564504 -0.0204816032126915 0.2836765864106349 Ba
atom 5.1991595681953031 0.0409131195449277 0.2836765864106349 Ba
atom 0.1828595514886865 5.0572131362515451 0.2836765864106349 Ba
atom 4.8947350142146373 5.0366814461583918 0.2836765864106349 Ba
atom 0.0237985320627190 -0.0312311627662331 4.9543667210242273 Ba
atom 5.0129330009761377 0.0516626790984693 4.9543667210242273 Ba
atom -0.0033670157304828 5.0679626958050781 4.9543667210242273 Ba
atom 5.0809615814338080 5.0259318866048499 4.9543667210242273 Ba
atom 2.5228459604839126 2.5078590093277642 2.3407021723773878 Zr
atom 7.5710486219260407 2.5697355563755546 2.3407021723773878 Zr
atom 2.5547486052194128 7.5860355730821682 2.3407021723773878 Zr
atom 7.5800090098549981 7.5650220586988457 2.3407021723773878 Zr
atom 2.5333188685301304 2.5280893768163244 7.3590978038109700 Zr
atom 7.5605757138798237 2.5495051888869980 7.3590978038109700 Zr
atom 2.5442756971731959 7.5658052055935991 7.3590978038109700 Zr
atom 7.5904819179012035 7.5852524261874077 7.3590978038109700 Zr
atom 2.5807376870102297 2.8071355716322564 -0.1400514659205525 S
atom 7.5131568953997148 2.2704589940710598 -0.1400514659205525 S
atom 2.4968568786930994 7.2867590107776676 -0.1400514659205525 S
atom 7.6379007363813241 7.8642986210033499 -0.1400514659205525 S
atom 2.4196057680612979 2.0791645588556844 4.8862889340877551 S
atom 7.6742888143486416 2.9984300068476317 4.8862889340877551 S
atom 2.6579887976420280 8.0147300235542520 4.8862889340877551 S
atom 7.4767688174324061 7.1363276082267717 4.8862889340877551 S
atom 2.5183657665194281 0.0102157581661181 2.0539153027094237 S
atom 7.5550972995582777 0.0306472744983544 2.7744500674387100 S
atom 2.5387972828516672 5.0469472912049662 2.7744500674387100 S
atom 7.5755288158905154 5.0673788075372013 2.0539153027094237 S
atom 2.5183657665194281 0.0102157581661181 7.8207104703229042 S
atom 7.5550972995582777 0.0306472744983544 6.9130286888254613 S
atom 2.5387972828516672 5.0469472912049662 6.9130286888254613 S
atom 7.5755288158905154 5.0673788075372013 7.8207104703229042 S
atom 0.0102157581661181 2.5183657665194215 2.3869390575961722 S
atom 5.0469472912049822 2.5387972828516587 2.5589954280528739 S
atom 0.0306472744983543 7.5550972995582715 2.5589954280528739 S
atom 5.0673788075372155 7.5755288158905092 2.3869390575961722 S
atom 0.0102157581661181 2.5183657665194215 7.5283977249652905 S
atom 5.0469472912049822 2.5387972828516587 7.2172830549340361 S
atom 0.0306472744983543 7.5550972995582715 7.2172830549340361 S
atom 5.0673788075372155 7.5755288158905092 7.5283977249652905 S
atom -0.0038517356144304 0.0642077828830323 9.8561820222877454 Ba
atom 5.0405832686532852 -0.0437762665507961 9.8561820222877454 Ba
atom 0.0242832519466667 4.9725237501558173 9.8561820222877454 Ba
atom 5.0533113137566730 5.1213708322541152 9.8561820222877454 Ba
atom 0.0022419753738176 -0.0716996232988582 14.8062634843433383 Ba
atom 5.0344895576650384 0.0921311396310944 14.8062634843433383 Ba
atom 0.0181895409584186 5.1084311563377094 14.8062634843433383 Ba
atom 5.0594050247449101 4.9854634260722239 14.8062634843433383 Ba
atom 2.5267205895403215 2.5299827667194128 12.3216743073891450 Zr
atom 7.5671739928696278 2.5476117989839060 12.3216743073891450 Zr
atom 2.5508739761630075 7.5639118156905125 12.3216743073891450 Zr
atom 7.5838836389114190 7.5871458160904943 12.3216743073891450 Zr
atom 2.5293178005189785 2.5282753914464249 17.2817717742215571 Zr
atom 7.5645767818909722 2.5493191742568961 17.2817717742215571 Zr
atom 2.5482767651843488 7.5656191909635124 17.2817717742215571 Zr
atom 7.5864808498900587 7.5854384408174989 17.2817717742215571 Zr
atom 2.6869039793156455 3.0115348387477461 9.8465770798244439 S
atom 7.4069906030942896 2.0660597269555789 9.8465770798244439 S
atom 2.3906905863876813 7.0823597436621855 9.8465770798244439 S
atom 7.7440670286867386 8.0686978881188374 9.8465770798244439 S
atom 2.3438403257521219 2.0526540321626294 14.8037053637359666 S
atom 7.7500542566578225 3.0249405335406925 14.8037053637359666 S
atom 2.7337542399512009 8.0412405502473021 14.8037053637359666 S
atom 7.4010033751232118 7.1098170815336967 14.8037053637359666 S
atom 2.5183657665194281 0.0102157581661181 11.8675621197389649 S
atom 7.5550972995582777 0.0306472744983544 12.7903108110860604 S
atom 2.5387972828516672 5.0469472912049662 12.7903108110860604 S
atom 7.5755288158905154 5.0673788075372013 11.8675621197389649 S
atom 2.5183657665194281 0.0102157581661181 17.7416502910890870 S
atom 7.5550972995582777 0.0306472744983544 16.8268217309694101 S
atom 2.5387972828516672 5.0469472912049662 16.8268217309694101 S
atom 7.5755288158905154 5.0673788075372013 17.7416502910890870 S
atom 0.0102157581661181 2.5183657665194215 12.1259214832393312 S
atom 5.0469472912049822 2.5387972828516587 12.5269670958551202 S
atom 0.0306472744983543 7.5550972995582715 12.5269670958551202 S
atom 5.0673788075372155 7.5755288158905092 12.1259214832393312 S
atom 0.0102157581661181 2.5183657665194215 17.5023099102629232 S
atom 5.0469472912049822 2.5387972828516587 17.0626076222433838 S
atom 0.0306472744983543 7.5550972995582715 17.0626076222433838 S
atom 5.0673788075372155 7.5755288158905092 17.5023099102629232 S
atom -0.0004843120702284 0.0735172732321726 19.7618557600429803 Ba
atom 5.0372158451090785 -0.0530857568999364 19.7618557600429803 Ba
atom 0.0209158284024646 4.9632142598066711 19.7618557600429803 Ba
atom 5.0566787373008744 5.1306803226032622 19.7618557600429803 Ba
atom 0.0000009328256831 -0.0738828430760940 24.7203878675181556 Ba
atom 5.0367306002131791 0.0943143594083304 24.7203878675181556 Ba
atom 0.0204305835065530 5.1106143761149454 24.7203878675181556 Ba
atom 5.0571639821967693 4.9832802062949906 24.7203878675181556 Ba
atom 2.5283829667591942 2.5286351602094652 22.2409296420031737 Zr
atom 7.5655116156507551 2.5489594054938598 22.2409296420031737 Zr
atom 2.5492115989441295 7.5652594222004605 22.2409296420031737 Zr
atom 7.5855460161302775 7.5857982095805543 22.2409296420031737 Zr
atom 2.5283829667591942 2.5286351602094652 27.1998460930330488 Zr
atom 7.5655116156507551 2.5489594054938598 27.1998460930330488 Zr
atom 2.5492115989441295 7.5652594222004605 27.1998460930330488 Zr
atom 7.5855460161302775 7.5857982095805543 27.1998460930330488 Zr
atom 2.7246111804930324 3.0002731098815314 19.7620289020236832 S
atom 7.3692834019168982 2.0773214558217856 19.7620289020236832 S
atom 2.3529833852103006 7.0936214725283886 19.7620289020236832 S
atom 7.7817742298641281 8.0574361592526174 19.7620289020236832 S
atom 2.3295207283677395 2.0580546603735184 24.7203878675181556 S
atom 7.7643738540421996 3.0195399053298009 24.7203878675181556 S
atom 2.7480738373355882 8.0358399220364038 24.7203878675181556 S
atom 7.3866837777388348 7.1152177097446092 24.7203878675181556 S
atom 2.5183657665194281 0.0102157581661181 21.7856322379945304 S
atom 7.5550972995582777 0.0306472744983544 22.6973939115997396 S
atom 2.5387972828516672 5.0469472912049662 22.6973939115997396 S
atom 7.5755288158905154 5.0673788075372013 21.7856322379945304 S
atom 2.5183657665194281 0.0102157581661181 27.6551434970417418 S
atom 7.5550972995582777 0.0306472744983544 26.7433818234364722 S
atom 2.5387972828516672 5.0469472912049662 26.7433818234364722 S
atom 7.5755288158905154 5.0673788075372013 27.6551434970417418 S
atom 0.0102157581661181 2.5183657665194215 22.0140361292546487 S
atom 5.0469472912049822 2.5387972828516587 22.4680414979134930 S
atom 0.0306472744983543 7.5550972995582715 22.4680414979134930 S
atom 5.0673788075372155 7.5755288158905092 22.0140361292546487 S
atom 0.0102157581661181 2.5183657665194215 27.4267396057815844 S
atom 5.0469472912049822 2.5387972828516587 26.9727342371227827 S
atom 0.0306472744983543 7.5550972995582715 26.9727342371227827 S
atom 5.0673788075372155 7.5755288158905092 27.4267396057815844 S
atom -0.0004843120702284 0.0735172732321726 29.6789199749933097 Ba
atom 5.0372158451090785 -0.0530857568999364 29.6789199749933097 Ba
atom 0.0209158284024646 4.9632142598066711 29.6789199749933097 Ba
atom 5.0566787373008744 5.1306803226032622 29.6789199749933097 Ba
atom 0.0022419753738176 -0.0716996232988582 34.6345122506929854 Ba
atom 5.0344895576650384 0.0921311396310944 34.6345122506929854 Ba
atom 0.0181895409584186 5.1084311563377094 34.6345122506929854 Ba
atom 5.0594050247449101 4.9854634260722239 34.6345122506929854 Ba
atom 2.5293178005189785 2.5282753914464249 32.1590039608147293 Zr
atom 7.5645767818909722 2.5493191742568961 32.1590039608147293 Zr
atom 2.5482767651843488 7.5656191909635124 32.1590039608147293 Zr
atom 7.5864808498900587 7.5854384408174989 32.1590039608147293 Zr
atom 2.5267205895403215 2.5299827667194128 37.1191014276471307 Zr
atom 7.5671739928696278 2.5476117989839060 37.1191014276471307 Zr
atom 2.5508739761630075 7.5639118156905125 37.1191014276471307 Zr
atom 7.5838836389114190 7.5871458160904943 37.1191014276471307 Zr
atom 2.7246111804930324 3.0002731098815314 29.6787468330125570 S
atom 7.3692834019168982 2.0773214558217856 29.6787468330125570 S
atom 2.3529833852103006 7.0936214725283886 29.6787468330125570 S
atom 7.7817742298641281 8.0574361592526174 29.6787468330125570 S
atom 2.3438403257521219 2.0526540321626294 34.6370703713002754 S
atom 7.7500542566578225 3.0249405335406925 34.6370703713002754 S
atom 2.7337542399512009 8.0412405502473021 34.6370703713002754 S
atom 7.4010033751232118 7.1098170815336967 34.6370703713002754 S
atom 2.5183657665194281 0.0102157581661181 31.6991254439471604 S
atom 7.5550972995582777 0.0306472744983544 32.6139540040668550 S
atom 2.5387972828516672 5.0469472912049662 32.6139540040668550 S
atom 7.5755288158905154 5.0673788075372013 31.6991254439471604 S
atom 2.5183657665194281 0.0102157581661181 37.5732136152972913 S
atom 7.5550972995582777 0.0306472744983544 36.6504649239501106 S
atom 2.5387972828516672 5.0469472912049662 36.6504649239501106 S
atom 7.5755288158905154 5.0673788075372013 37.5732136152972913 S
atom 0.0102157581661181 2.5183657665194215 31.9384658247734130 S
atom 5.0469472912049822 2.5387972828516587 32.3781681127927854 S
atom 0.0306472744983543 7.5550972995582715 32.3781681127927854 S
atom 5.0673788075372155 7.5755288158905092 31.9384658247734130 S
atom 0.0102157581661181 2.5183657665194215 37.3148542517969020 S
atom 5.0469472912049822 2.5387972828516587 36.9138086391811839 S
atom 0.0306472744983543 7.5550972995582715 36.9138086391811839 S
atom 5.0673788075372155 7.5755288158905092 37.3148542517969020 S
atom -0.0038517356144304 0.0642077828830323 39.5845937127484788 Ba
atom 5.0405832686532852 -0.0437762665507961 39.5845937127484788 Ba
atom 0.0242832519466667 4.9725237501558173 39.5845937127484788 Ba
atom 5.0533113137566730 5.1213708322541152 39.5845937127484788 Ba
atom 0.0237985320627190 -0.0312311627662331 44.4864090140120183 Ba
atom 5.0129330009761377 0.0516626790984694 44.4864090140120183 Ba
atom -0.0033670157304828 5.0679626958050781 44.4864090140120183 Ba
atom 5.0809615814338080 5.0259318866048499 44.4864090140120183 Ba
atom 2.5333188685301304 2.5280893768163244 42.0816779312252365 Zr
atom 7.5605757138798237 2.5495051888869980 42.0816779312252365 Zr
atom 2.5442756971731959 7.5658052055935991 42.0816779312252365 Zr
atom 7.5904819179012035 7.5852524261874077 42.0816779312252365 Zr
atom 2.5228459604839126 2.5078590093277642 47.1000735626588352 Zr
atom 7.5710486219260407 2.5697355563755546 47.1000735626588352 Zr
atom 2.5547486052194128 7.5860355730821682 47.1000735626588352 Zr
atom 7.5800090098549981 7.5650220586988457 47.1000735626588352 Zr
atom 2.6869039793156455 3.0115348387477461 39.5941986552117910 S
atom 7.4069906030942896 2.0660597269555789 39.5941986552117910 S
atom 2.3906905863876813 7.0823597436621855 39.5941986552117910 S
atom 7.7440670286867386 8.0686978881188374 39.5941986552117910 S
atom 2.4196057680612979 2.0791645588556844 44.5544868009484034 S
atom 7.6742888143486416 2.9984300068476317 44.5544868009484034 S
atom 2.6579887976420280 8.0147300235542520 44.5544868009484034 S
atom 7.4767688174324061 7.1363276082267717 44.5544868009484034 S
atom 2.5183657665194281 0.0102157581661181 41.6200652647133680 S
atom 7.5550972995582777 0.0306472744983544 42.5277470462107843 S
atom 2.5387972828516672 5.0469472912049662 42.5277470462107843 S
atom 7.5755288158905154 5.0673788075372013 41.6200652647133680 S
atom 2.5183657665194281 0.0102157581661181 47.3868604323268272 S
atom 7.5550972995582777 0.0306472744983544 46.6663256675975546 S
atom 2.5387972828516672 5.0469472912049662 46.6663256675975546 S
atom 7.5755288158905154 5.0673788075372013 47.3868604323268272 S
atom 0.0102157581661181 2.5183657665194215 41.9123780100709737 S
atom 5.0469472912049822 2.5387972828516587 42.2234926801021899 S
atom 0.0306472744983543 7.5550972995582715 42.2234926801021899 S
atom 5.0673788075372155 7.5755288158905092 41.9123780100709737 S
atom 0.0102157581661181 2.5183657665194215 47.0538366774401240 S
atom 5.0469472912049822 2.5387972828516587 46.8817803069832522 S
atom 0.0306472744983543 7.5550972995582715 46.8817803069832522 S
atom 5.0673788075372155 7.5755288158905092 47.0538366774401240 S
atom -0.1624280351564504 -0.0204816032126915 49.1570991486256403 Ba
atom 5.1991595681953031 0.0409131195449277 49.1570991486256403 Ba
atom 0.1828595514886865 5.0572131362515451 49.1570991486256403 Ba
atom 4.8947350142146373 5.0366814461583918 49.1570991486256403 Ba
atom 2.5807376870102297 2.8071355716322564 49.5808272009568540 S
atom 7.5131568953997148 2.2704589940710598 49.5808272009568540 S
atom 2.4968568786930994 7.2867590107776676 49.5808272009568540 S
atom 7.6379007363813241 7.8642986210033499 49.5808272009568540 S
atom 2.5490631278982310 2.6910095598419925 52.6908988655490091 Ba
atom 7.5448314545117139 2.3865850058613245 52.6908988655490091 Ba
atom 2.5285314378050914 7.4028850225679363 52.6908988655490091 Ba
atom 7.6062261772693232 7.7481726092130740 52.6908988655490091 Ba
atom 2.5598126874517773 2.5047829926228249 57.3615890001626454 Ba
atom 7.5340818949581649 2.5728115730804988 57.3615890001626454 Ba
atom 2.5177818782515464 7.5891115897871062 57.3615890001626454 Ba
atom 7.6169757368228650 7.5619460419939131 57.3615890001626454 Ba
atom 5.0778855647288728 5.0628986135727132 54.7479244515158072 Zr
atom 10.0731720670521536 5.0718590015016805 54.7479244515158072 Zr
atom 5.0568720503455564 10.0881590182082981 54.7479244515158072 Zr
atom 10.1350486140999863 10.1200616629438080 54.7479244515158072 Zr
atom 5.0576551972403028 5.0524257055264998 59.7663200829493633 Zr
atom 10.0934024345407458 5.0823319095479027 59.7663200829493633 Zr
atom 5.0771024178341175 10.0986319262545177 59.7663200829493633 Zr
atom 10.1148182466114118 10.1095887548975991 59.7663200829493633 Zr
atom 4.7786090024243677 5.0050068870464131 52.2671708132178594 S
atom 10.3724486293566720 5.1297507280279939 52.2671708132178594 S
atom 5.3561486126500446 10.1460507447346178 52.2671708132178594 S
atom 9.8357720517954448 10.0621699364174795 52.2671708132178594 S
atom 5.5065800152009450 5.1661388059953133 57.2935112132262390 S
atom 9.6444776165801009 4.9686188090790822 57.2935112132262390 S
atom 4.6281775998734656 9.9849188257856945 57.2935112132262390 S
atom 10.5637430645720212 10.2233018553663975 57.2935112132262390 S
atom 5.0469472912049822 2.5387972828516587 54.9662177071913263 S
atom 10.0836788242438313 2.5592287991838987 54.7941613367345184 S
atom 5.0673788075372155 7.5755288158905092 54.7941613367345184 S
atom 10.1041103405760708 7.5959603322227425 54.9662177071913263 S
atom 5.0469472912049822 2.5387972828516587 59.6245053340724525 S
atom 10.0836788242438313 2.5592287991838987 59.9356200041038107 S
atom 5.0673788075372155 7.5755288158905092 59.9356200041038107 S
atom 10.1041103405760708 7.5959603322227425 59.6245053340724525 S
atom 2.5387972828516672 5.0469472912049662 55.1816723465770949 S
atom 7.5755288158905154 5.0673788075372013 54.4611375818479289 S
atom 2.5592287991839058 10.0836788242438278 54.4611375818479289 S
atom 7.5959603322227620 10.1041103405760477 55.1816723465770949 S
atom 2.5387972828516672 5.0469472912049662 59.3202509679638652 S
atom 7.5755288158905154 5.0673788075372013 60.2279327494612815 S
atom 2.5592287991839058 10.0836788242438278 60.2279327494612815 S
atom 7.5959603322227620 10.1041103405760477 59.3202509679638652 S
atom 2.4643737418025076 2.5324332602999711 62.2634043014262062 Ba
atom 7.6295208406074382 2.5451613054033477 62.2634043014262062 Ba
atom 2.6132208239008121 7.5614613221099622 62.2634043014262062 Ba
atom 7.5215367911736024 7.5895963096710526 62.2634043014262062 Ba
atom 2.6002811479843984 2.5263395493117287 67.2134857634817138 Ba
atom 7.4936134344255318 2.5512550163915950 67.2134857634817138 Ba
atom 2.4773134177189262 7.5675550330982100 67.2134857634817138 Ba
atom 7.6574441973554928 7.5835025986828031 67.2134857634817138 Ba
atom 5.0557618073372170 5.0590239845163119 64.7288965865275543 Zr
atom 10.0952958244438005 5.0757336305580960 64.7288965865275543 Zr
atom 5.0789958077371926 10.0920336472646870 64.7288965865275543 Zr
atom 10.1129248567083163 10.1161870338873978 64.7288965865275543 Zr
atom 5.0574691826102143 5.0564267735376509 69.6889940533601191 Zr
atom 10.0935884491708130 5.0783308415367570 69.6889940533601191 Zr
atom 5.0772884324642042 10.0946308582433737 69.6889940533601191 Zr
atom 10.1146322319813269 10.1135898229087253 69.6889940533601191 Zr
atom 4.5742097353088784 4.8988405947409861 62.2537993589628371 S
atom 10.5768478964721382 5.2359170203334129 62.2537993589628371 S
atom 5.5605478797655392 10.2522170370400421 62.2537993589628371 S
atom 9.6313727846799821 9.9560036441120658 62.2537993589628371 S
atom 5.5330905418940111 5.2419042483045075 67.2109276428743243 S
atom 9.6179670898870420 4.8928533667699012 67.2109276428743243 S
atom 4.6016670731803959 9.9091533834765002 67.2109276428743243 S
atom 10.5902535912650784 10.2990672976755793 67.2109276428743243 S
atom 5.0469472912049822 2.5387972828516587 64.9341893749935934 S
atom 10.0836788242438313 2.5592287991838987 64.5331437623779038 S
atom 5.0673788075372155 7.5755288158905092 64.5331437623779038 S
atom 10.1041103405760708 7.5959603322227425 64.9341893749935934 S
atom 5.0469472912049822 2.5387972828516587 69.4698299013818996 S
atom 10.0836788242438313 2.5592287991838987 69.9095321894013750 S
atom 5.0673788075372155 7.5755288158905092 69.9095321894013750 S
atom 10.1041103405760708 7.5959603322227425 69.4698299013818996 S
atom 2.5387972828516672 5.0469472912049662 65.1975330902244252 S
atom 7.5755288158905154 5.0673788075372013 64.2747843988774150 S
atom 2.5592287991839058 10.0836788242438278 64.2747843988774150 S
atom 7.5959603322227620 10.1041103405760477 65.1975330902244252 S
atom 2.5387972828516672 5.0469472912049662 69.2340440101078798 S
atom 7.5755288158905154 5.0673788075372013 70.1488725702274820 S
atom 2.5592287991839058 10.0836788242438278 70.1488725702274820 S
atom 7.5959603322227620 10.1041103405760477 69.2340440101078798 S
atom 2.4550642514533774 2.5290658367557710 72.1690780391813576 Ba
atom 7.6388303309565737 2.5485287289475504 72.1690780391813576 Ba
atom 2.6225303142499516 7.5648287456541752 72.1690780391813576 Ba
atom 7.5122273008244589 7.5862288861268352 72.1690780391813576 Ba
atom 2.6024643677616401 2.5285805918598574 77.1276101466565365 Ba
atom 7.4914302146483012 2.5490139738434618 77.1276101466565365 Ba
atom 2.4751301979416911 7.5653139905500684 77.1276101466565365 Ba
atom 7.6596274171327297 7.5857436412309500 77.1276101466565365 Ba
atom 5.0571094138471544 5.0573616072974410 74.6481519211416895 Zr
atom 10.0939482179338285 5.0773960077769686 74.6481519211416895 Zr
atom 5.0776482012272597 10.0936960244835685 74.6481519211416895 Zr
atom 10.1142724632182919 10.1145246566685234 74.6481519211416895 Zr
atom 5.0571094138471544 5.0573616072974410 79.6070683721714687 Zr
atom 10.0939482179338285 5.0773960077769686 79.6070683721714687 Zr
atom 5.0776482012272597 10.0936960244835685 79.6070683721714687 Zr
atom 10.1142724632182919 10.1145246566685234 79.6070683721714687 Zr
atom 4.5854714641750922 4.8611333935635974 72.1692511811622239 S
atom 10.5655861676059324 5.2736242215107971 72.1692511811622239 S
atom 5.5492861508993290 10.2899242382174254 72.1692511811622239 S
atom 9.6426345135461968 9.9182964429346807 72.1692511811622239 S
atom 5.5276899136831092 5.2562238456888828 77.1276101466565365 S
atom 9.6233677180979473 4.8785337693855224 77.1276101466565365 S
atom 4.6070677013913128 9.8948337860921249 77.1276101466565365 S
atom 10.5848529630541890 10.3133868950599723 77.1276101466565365 S
atom 5.0469472912049822 2.5387972828516587 74.8752637770519556 S
atom 10.0836788242438313 2.5592287991838987 74.4212584083930579 S
atom 5.0673788075372155 7.5755288158905092 74.4212584083930579 S
atom 10.1041103405760708 7.5959603322227425 74.8752637770519556 S
atom 5.0469472912049822 2.5387972828516587 79.3799565162612595 S
atom 10.0836788242438313 2.5592287991838987 79.8339618849200292 S
atom 5.0673788075372155 7.5755288158905092 79.8339618849200292 S
atom 10.1041103405760708 7.5959603322227425 79.3799565162612595 S
atom 2.5387972828516672 5.0469472912049662 75.1046161907381844 S
atom 7.5755288158905154 5.0673788075372013 74.1928545171330001 S
atom 2.5592287991839058 10.0836788242438278 74.1928545171330001 S
atom 7.5959603322227620 10.1041103405760477 75.1046161907381844 S
atom 2.5387972828516672 5.0469472912049662 79.1506041025747464 S
atom 7.5755288158905154 5.0673788075372013 80.0623657761801439 S
atom 2.5592287991839058 10.0836788242438278 80.0623657761801439 S
atom 7.5959603322227620 10.1041103405760477 79.1506041025747464 S
atom 2.4550642514533774 2.5290658367557710 82.0861422541317438 Ba
atom 7.6388303309565737 2.5485287289475504 82.0861422541317438 Ba
atom 2.6225303142499516 7.5648287456541752 82.0861422541317438 Ba
atom 7.5122273008244589 7.5862288861268352 82.0861422541317438 Ba
atom 2.6002811479843984 2.5263395493117287 87.0417345298313592 Ba
atom 7.4936134344255318 2.5512550163915950 87.0417345298313592 Ba
atom 2.4773134177189262 7.5675550330982100 87.0417345298313592 Ba
atom 7.6574441973554928 7.5835025986828031 87.0417345298313592 Ba
atom 5.0574691826102143 5.0564267735376509 84.5662262399529965 Zr
atom 10.0935884491708130 5.0783308415367570 84.5662262399529965 Zr
atom 5.0772884324642042 10.0946308582433737 84.5662262399529965 Zr
atom 10.1146322319813269 10.1135898229087253 84.5662262399529965 Zr
atom 5.0557618073372170 5.0590239845163119 89.5263237067855187 Zr
atom 10.0952958244438005 5.0757336305580960 89.5263237067855187 Zr
atom 5.0789958077371926 10.0920336472646870 89.5263237067855187 Zr
atom 10.1129248567083163 10.1161870338873978 89.5263237067855187 Zr
atom 4.5854714641750922 4.8611333935635974 82.0859691121509059 S
atom 10.5655861676059324 5.2736242215107971 82.0859691121509059 S
atom 5.5492861508993290 10.2899242382174254 82.0859691121509059 S
atom 9.6426345135461968 9.9182964429346807 82.0859691121509059 S
atom 5.5330905418940111 5.2419042483045075 87.0442926504386065 S
atom 9.6179670898870420 4.8928533667699012 87.0442926504386065 S
atom 4.6016670731803959 9.9091533834765002 87.0442926504386065 S
atom 10.5902535912650784 10.2990672976755793 87.0442926504386065 S
atom 5.0469472912049822 2.5387972828516587 84.7853903919312586 S
atom 10.0836788242438313 2.5592287991838987 84.3456881039116695 S
atom 5.0673788075372155 7.5755288158905092 84.3456881039116695 S
atom 10.1041103405760708 7.5959603322227425 84.7853903919312586 S
atom 5.0469472912049822 2.5387972828516587 89.3210309183194511 S
atom 10.0836788242438313 2.5592287991838987 89.7220765309352828 S
atom 5.0673788075372155 7.5755288158905092 89.7220765309352828 S
atom 10.1041103405760708 7.5959603322227425 89.3210309183194511 S
atom 2.5387972828516672 5.0469472912049662 85.0211762832053211 S
atom 7.5755288158905154 5.0673788075372013 84.1063477230856478 S
atom 2.5592287991839058 10.0836788242438278 84.1063477230856478 S
atom 7.5959603322227620 10.1041103405760477 85.0211762832053211 S
atom 2.5387972828516672 5.0469472912049662 89.0576872030886761 S
atom 7.5755288158905154 5.0673788075372013 89.9804358944357858 S
atom 2.5592287991839058 10.0836788242438278 89.9804358944357858 S
atom 7.5959603322227620 10.1041103405760477 89.0576872030886761 S
atom 2.4643737418025076 2.5324332602999711 91.9918159918869236 Ba
atom 7.6295208406074382 2.5451613054033477 91.9918159918869236 Ba
atom 2.6132208239008121 7.5614613221099622 91.9918159918869236 Ba
atom 7.5215367911736024 7.5895963096710526 91.9918159918869236 Ba
atom 2.5598126874517773 2.5047829926228249 96.8936312931504204 Ba
atom 7.5340818949581649 2.5728115730804988 96.8936312931504204 Ba
atom 2.5177818782515464 7.5891115897871062 96.8936312931504204 Ba
atom 7.6169757368228650 7.5619460419939131 96.8936312931504204 Ba
atom 5.0576551972403028 5.0524257055264998 94.4889002103637381 Zr
atom 10.0934024345407458 5.0823319095479027 94.4889002103637381 Zr
atom 5.0771024178341175 10.0986319262545177 94.4889002103637381 Zr
atom 10.1148182466114118 10.1095887548975991 94.4889002103637381 Zr
atom 5.0778855647288728 5.0628986135727132 99.5072958417971734 Zr
atom 10.0731720670521536 5.0718590015016805 99.5072958417971734 Zr
atom 5.0568720503455564 10.0881590182082981 99.5072958417971734 Zr
atom 10.1350486140999863 10.1200616629438080 99.5072958417971734 Zr
atom 4.5742097353088784 4.8988405947409861 92.0014209343502358 S
atom 10.5768478964721382 5.2359170203334129 92.0014209343502358 S
atom 5.5605478797655392 10.2522170370400421 92.0014209343502358 S
atom 9.6313727846799821 9.9560036441120658 92.0014209343502358 S
atom 5.5065800152009450 5.1661388059953133 96.9617090800870329 S
atom 9.6444776165801009 4.9686188090790822 96.9617090800870329 S
atom 4.6281775998734656 9.9849188257856945 96.9617090800870329 S
atom 10.5637430645720212 10.2233018553663975 96.9617090800870329 S
atom 5.0469472912049822 2.5387972828516587 94.6307149592404926 S
atom 10.0836788242438313 2.5592287991838987 94.3196002892093048 S
atom 5.0673788075372155 7.5755288158905092 94.3196002892093048 S
atom 10.1041103405760708 7.5959603322227425 94.6307149592404926 S
atom 5.0469472912049822 2.5387972828516587 99.2890025861218390 S
atom 10.0836788242438313 2.5592287991838987 99.4610589565784693 S
atom 5.0673788075372155 7.5755288158905092 99.4610589565784693 S
atom 10.1041103405760708 7.5959603322227425 99.2890025861218390 S
atom 2.5387972828516672 5.0469472912049662 94.9349693253493996 S
atom 7.5755288158905154 5.0673788075372013 94.0272875438518412 S
atom 2.5592287991839058 10.0836788242438278 94.0272875438518412 S
atom 7.5959603322227620 10.1041103405760477 94.9349693253493996 S
atom 2.5387972828516672 5.0469472912049662 99.0735479467358431 S
atom 7.5755288158905154 5.0673788075372013 99.7940827114653359 S
atom 2.5592287991839058 10.0836788242438278 99.7940827114653359 S
atom 7.5959603322227620 10.1041103405760477 99.0735479467358431 S
atom 2.5490631278982310 2.6910095598419925 101.5643214277640567 Ba
atom 7.5448314545117139 2.3865850058613245 101.5643214277640567 Ba
atom 2.5285314378050914 7.4028850225679363 101.5643214277640567 Ba
atom 7.6062261772693232 7.7481726092130740 101.5643214277640567 Ba
atom 4.7786090024243677 5.0050068870464131 101.9880494800951567 S
atom 10.3724486293566720 5.1297507280279939 101.9880494800951567 S
atom 5.3561486126500446 10.1460507447346178 101.9880494800951567 S
atom 9.8357720517954448 10.0621699364174795 101.9880494800951567 S
