#=======================================================
# FHI-aims file: sym_relax/sym_relax_RP_3_RxRyRz_RxRyRz.in
# Created using the Atomic Simulation Environment (ASE)
# Fri Mar 14 10:24:28 2025
#=======================================================
lattice_vector 10.0297139486039200 -0.0218809603342656 -0.0093713130901121 
lattice_vector -0.0218809603342657 10.0297139486039288 0.0093713130901121 
lattice_vector -0.0362908653365582 0.0362908653365582 35.7907071864166682 
atom 0.0355953617404077 -0.1522725529982475 0.2373637600639158 Ba
atom 5.1671295273002169 -0.0465358419075397 0.2326781035188601 Ba
atom 0.1413320728311150 4.9792616125615581 0.2420494166089720 Ba
atom 5.0395118558752374 4.8516439411365946 0.2373637600639158 Ba
atom -0.2508626399234401 0.1926309706932847 4.9875908353151512 Ba
atom 4.8222260036086846 0.2399221597563082 4.9829051787700971 Ba
atom -0.2035714508604169 5.2657196142254055 4.9922764918602072 Ba
atom 4.7530538542113900 5.1965474648281225 4.9875908353151512 Ba
atom 2.4796685948544019 2.5100955506676312 2.3997396390410533 Zr
atom 7.5086779177691758 2.5133074191133016 2.3950539824959955 Zr
atom 2.4828804633000714 7.5391048735824002 2.4044252955861087 Zr
atom 7.4835850889892344 7.5140120448024694 2.3997396390410533 Zr
atom 2.4943976501223002 2.5095188440125331 7.4563973305034663 Zr
atom 7.5092546244242611 2.4985783638454011 7.4517116739584068 Zr
atom 2.4834571699551700 7.5243758183145060 7.4610829870485142 Zr
atom 7.4983141442571393 7.5134353381473700 7.4563973305034663 Zr
atom 2.6149202662109539 2.7325955833135187 -0.1041635946517667 S
atom 7.2861778851232906 2.3780557477567514 -0.1088492511968226 S
atom 2.2603804306541901 7.4038532022258439 -0.0994779381067106 S
atom 7.6188367603457863 7.7365120774483467 -0.1041635946517667 S
atom 2.2399761067655186 2.2159620866552281 4.9540828010274600 S
atom 7.8028113817815772 2.7529999072021765 4.9493971444824103 S
atom 2.7770139273124772 7.7787973616712849 4.9587684575725239 S
atom 7.2438926009003524 7.2198785807900556 4.9540828010274591 S
atom 2.7441871115313123 0.0162413755755294 2.2388623411302402 S
atom 7.2287173723845592 0.0081615686872249 2.7356461495479651 S
atom 2.2029199179154455 5.0339590231563305 2.7450174626380766 S
atom 7.7481036056661461 5.0201578697103670 2.2388623411302397 S
atom 2.8847102824406634 -0.0006637146637075 7.7505098511536712 S
atom 7.1298824722730387 -0.0060960517803252 7.1529134967631327 S
atom 2.1040850178039459 5.0197014026887841 7.1622848098532446 S
atom 7.8886267765754932 5.0032527794711150 7.7505098511536712 S
atom -0.0271818557426614 2.2706698627706512 2.2435479976752934 S
atom 4.9848144452804828 2.7900560960522567 2.7403318060930224 S
atom -0.0409830091886230 7.8158535505213527 2.7497031191831307 S
atom 4.9767346383921760 7.2745863569054858 2.2435479976752934 S
atom -0.0102767655034242 2.1301466918613077 7.7551955076987289 S
atom 4.9990720657480212 2.8888909961637621 7.1575991533081904 S
atom -0.0267253887210721 7.9146884506328608 7.1669704663983076 S
atom 4.9936397286314120 7.1340631859961379 7.7551955076987289 S
atom 0.2357414460332085 -0.1775097768030512 9.9252038256917725 Ba
atom 5.1923667511050242 -0.2466819262003408 9.9205181691467139 Ba
atom 0.1665692966359190 4.7791155282687576 9.9298894822368293 Ba
atom 5.2396579401680317 4.8264067173317882 9.9252038256917707 Ba
atom -0.0507165556306395 0.1673937468884811 14.6754309009430060 Ba
atom 4.8474632274134821 0.0397760754635075 14.6707452443979616 Ba
atom -0.1783342270556127 5.0655735299326032 14.6801165574880663 Ba
atom 4.9531999385041976 5.1713102410233081 14.6754309009430060 Ba
atom 2.5091267053902016 2.5089421373574377 12.5130550219658634 Zr
atom 7.5098313310793712 2.4838493085774989 12.5083693654208012 Zr
atom 2.4840338766102694 7.5096467630466046 12.5177406785109113 Zr
atom 7.5130431995250300 7.5128586314922750 12.5130550219658634 Zr
atom 2.7488191934790818 2.8030756013698457 9.9587118599794540 S
atom 7.2156978670669698 2.2441568204886209 9.9540262034343865 S
atom 2.1899004125978601 7.2699542749577200 9.9633975165245001 S
atom 7.7527356876139226 7.8069920955046701 9.9587118599794540 S
atom 2.3738750340336470 2.2864421047115560 15.0169582556586949 S
atom 7.7323313637252520 2.6191009799340472 15.0122725991136381 S
atom 2.7065339092561449 7.6448984344031592 15.0216439122037553 S
atom 7.3777915281684843 7.2903585988463888 15.0169582556586949 S
atom 2.7858753823291549 -0.0149213351312576 12.1677771983688388 S
atom 7.2704056431823822 -0.0230011420195620 12.6645610067865650 S
atom 2.2446081887132925 5.0027963124495312 12.6739323198766680 S
atom 7.7897918764639886 4.9889951590035739 12.1677771983688388 S
atom 0.0039808549641254 2.2289815919728140 12.1724628549138991 S
atom 5.0159771559872750 2.7483678252544137 12.6692466633316254 S
atom -0.0098202984818362 7.7741652797235128 12.6786179764217390 S
atom 5.0078973490989593 7.2328980861076539 12.1724628549138991 S
atom 2.5194081761395495 2.3678311267374470 18.1327173532722554 Ba
atom 7.6509423416993378 2.4735678378281527 18.1280316967271631 Ba
atom 2.6251448872302570 7.4993652922972593 18.1374030098172803 Ba
atom 7.5233246702743752 7.3717476208722834 18.1327173532722554 Ba
atom 2.2329501744756985 2.7127346504289802 22.8829444285234587 Ba
atom 7.3060388180078126 2.7600258394920041 22.8782587719783947 Ba
atom 2.2802413635387198 7.7858232939611023 22.8876300850685048 Ba
atom 7.2368666686105394 7.7166511445638193 22.8829444285234587 Ba
atom 4.9634814092535411 5.0301992304033307 20.2950932322493394 Zr
atom 9.9924907321683012 5.0334110988489913 20.2904075757042968 Zr
atom 4.9666932776992079 10.0592085533181042 20.2997788887944033 Zr
atom 9.9673979033883651 10.0341157245381769 20.2950932322493394 Zr
atom 4.9782104645214318 5.0296225237482295 25.3517509237117480 Zr
atom 9.9930674388234149 5.0186820435811033 25.3470652671667196 Zr
atom 4.9672699843543118 10.0444794980501975 25.3564365802568297 Zr
atom 9.9821269586562753 10.0335390178830739 25.3517509237117480 Zr
atom 5.0987330806100974 5.2526992630492124 17.7911899985565256 S
atom 9.7699906995224381 4.8981594274924429 17.7865043420114795 S
atom 4.7441932450533324 9.9239568819615407 17.7958756551016215 S
atom 10.1026495747449463 10.2566157571840293 17.7911899985565292 S
atom 4.7237889211646529 4.7360657663909249 22.8494363942357879 S
atom 10.2866241961807141 5.2731035869378786 22.8447507376907204 S
atom 5.2608267417116208 10.2989010414069639 22.8541220507808269 S
atom 9.7277054152994804 9.7399822605257604 22.8494363942357879 S
atom 5.2279999259304475 2.5363450553112239 20.1342159343385596 S
atom 9.7125301867836686 2.5282652484229184 20.6309997427562593 S
atom 4.6867327323145931 7.5540627028920246 20.6403710558463835 S
atom 10.2319164200652999 7.5402615494460576 20.1342159343385596 S
atom 5.3685230968397892 2.5194399650719932 25.6458634443619857 S
atom 9.6136952866721970 2.5140076279553689 25.0482670899714357 S
atom 4.5878978322030788 7.5398050824244685 25.0576384030615671 S
atom 10.3724395909746221 7.5233564592068225 25.6458634443619857 S
atom 2.4566309586564778 4.7907735425063454 20.1389015908836271 S
atom 7.4686272596795957 5.3101597757879579 20.6356853993012983 S
atom 2.4428298052105157 10.3359572302570548 20.6450567123914439 S
atom 7.4605474527913129 9.7946900366411747 20.1389015908836271 S
atom 2.4735360488957125 4.6502503715970072 25.6505491009070425 S
atom 7.4828848801471572 5.4089946758994678 25.0529527465165032 S
atom 2.4570874256780688 10.4347921303685354 25.0623240596066026 S
atom 7.4774525430305516 9.6541668657318631 25.6505491009070425 S
atom 2.7195542604323459 2.3425939029326495 27.8205574189000444 Ba
atom 7.6761795655041558 2.2734217535353571 27.8158717623549983 Ba
atom 2.6503821110350554 7.2992192080044704 27.8252430754451474 Ba
atom 7.7234707545671757 7.3465103970674805 27.8205574189000444 Ba
atom 2.4330962587684968 2.6874974266241809 32.5707844941513187 Ba
atom 7.3312760418126244 2.5598797551992054 32.5660988376062974 Ba
atom 2.3054785873435244 7.5856772096683036 32.5754701506963968 Ba
atom 7.4370127529033363 7.6914139207590102 32.5707844941513187 Ba
atom 4.9929395197893411 5.0290458170931274 30.4084086151741957 Zr
atom 9.9936441454785108 5.0039529883131992 30.4037229586291282 Zr
atom 4.9678466910094095 10.0297504427823139 30.4130942717192312 Zr
atom 9.9968560139241838 10.0329623112279638 30.4084086151741957 Zr
atom 5.2326320078782222 5.3231792811055474 27.8540654531877649 S
atom 9.6995106814660907 4.7642605002243146 27.8493797966427330 S
atom 4.6737132269969806 9.7900579546934061 27.8587511097328324 S
atom 10.2365485020130578 10.3270957752403785 27.8540654531877649 S
atom 4.8576878484327919 4.8065457844472519 32.9123118488669988 S
atom 10.2161441781243809 5.1392046596697583 32.9076261923219491 S
atom 5.1903467236552885 10.1650021141388436 32.9169975054120272 S
atom 9.8616043425676327 9.8104622785820776 32.9123118488669988 S
atom 5.2696881967282936 2.5051823446044374 30.0631307915771337 S
atom 9.7542184575815192 2.4971025377161364 30.5599145999948618 S
atom 4.7284210031124365 7.5228999921852333 30.5692859130849790 S
atom 10.2736046908631415 7.5090988387392725 30.0631307915771373 S
atom 2.4877936693632616 4.7490852717085099 30.0678164481221835 S
atom 7.4997899703864013 5.2684715049901074 30.5646002565399115 S
atom 2.4739925159173035 10.2942689594592078 30.5739715696300216 S
atom 7.4917101634981158 9.7530017658433419 30.0678164481221835 S
