#=======================================================
# FHI-aims file: sym_relax/sym_relax_RP_7_RxRyRz_-Rx-RyRz.in
# Created using the Atomic Simulation Environment (ASE)
# Mon Mar 17 15:53:57 2025
#=======================================================
lattice_vector 9.9601982243911706 -0.0002298510192338 0.0000000000000000 
lattice_vector -0.0002298510192335 9.9601982243911475 0.0000000000000000 
lattice_vector 0.0000000000000000 0.0000000000000000 76.6771724238136017 
atom 0.0605747549041316 -0.1101972238244756 0.1972943087036867 Ba
atom 5.0902963360200717 -0.0606896804137489 0.1972943087036867 Ba
atom 0.1100822983148586 4.9195243572914507 0.1972943087036867 Ba
atom 5.0405589415900964 4.8697869628614887 0.1972943087036867 Ba
atom -0.2623549850363075 0.2018473546038922 5.0120975787988042 Ba
atom 4.7782517575916978 0.2622400595266899 5.0120975787988042 Ba
atom -0.2019622801135096 5.2424540972318932 5.0120975787988042 Ba
atom 4.7176292016496522 5.1818315412898528 5.0120975787988042 Ba
atom 2.4660585477783665 2.5233528738956164 2.3913257054396837 Zr
atom 7.4367304249859334 2.5138107133979890 2.3913257054396837 Zr
atom 2.4565163872807356 7.4940247511031766 2.3913257054396837 Zr
atom 7.4460427344643323 7.5033370605815684 2.3913257054396837 Zr
atom 2.4107690083657092 2.5327885059412232 7.4788277545094983 Zr
atom 7.4272947929403479 2.5691002528106406 7.4788277545094983 Zr
atom 2.4470807552351252 7.5493142905158415 7.4788277545094983 Zr
atom 7.3907531950516834 7.5127726926271832 7.4788277545094983 Zr
atom 2.6234816525005620 2.7514682794113643 -0.1226725839500592 S
atom 7.2086150194702059 2.3563876086757949 -0.1226725839500592 S
atom 2.2284009817649881 7.3366016463809949 -0.1226725839500592 S
atom 7.6034658391865229 7.7314524660973110 -0.1226725839500592 S
atom 2.2358331946038366 2.2879501141708030 4.9689217340470400 S
atom 7.6721331847107566 2.7440360665725132 4.9689217340470400 S
atom 2.6919191470055512 7.7242501042777185 4.9689217340470400 S
atom 7.2158173812897974 7.2679343008567647 4.9689217340470400 S
atom 2.7429970171938245 0.0393187220681506 2.2520481750819434 S
atom 7.0993883393382342 0.0424629798262911 2.7382057271282321 S
atom 2.1191743016330284 5.0226770175314908 2.7382057271282321 S
atom 7.7229812038798018 5.0193029087541170 2.2520481750819434 S
atom 2.9269938727266327 0.0476060541481831 7.6995683135250514 S
atom 6.9820689245349952 0.0486509186793052 7.3034108886072637 S
atom 2.0018548868297841 5.0288649563844920 7.3034108886072637 S
atom 7.9069780594125989 5.0275902408341473 7.6995683135250514 S
atom -0.0394336475777679 2.2371020950017582 2.2520481750819434 S
atom 4.9374062813500696 2.8606949595433200 2.7382057271282321 S
atom -0.0428077563551424 7.8409089972485111 2.7382057271282321 S
atom 4.9405505391081928 7.2170862816877239 2.2520481750819434 S
atom -0.0477209796578001 2.0531052394689517 7.6995683135250514 S
atom 4.9312183424970613 2.9780143743465652 7.3034108886072637 S
atom -0.0489956952081561 7.9582284120517581 7.3034108886072637 S
atom 4.9322632070281660 7.0330894261549100 7.6995683135250514 S
atom -0.0009945275794390 -0.0783494591191604 10.0352888107520553 Ba
atom 5.0584485713147522 0.0008796020698220 10.0352888107520553 Ba
atom 0.0782345336095436 4.9810936397750085 10.0352888107520553 Ba
atom 4.9789896591065332 4.9016347275668029 10.0352888107520553 Ba
atom 0.0561409673390165 0.0184710257230888 15.1127184098256002 Ba
atom 4.9616280864725084 -0.0562558928486335 15.1127184098256002 Ba
atom -0.0185859512327057 4.9239581448565666 15.1127184098256002 Ba
atom 5.0361251540249672 4.9984552124090511 15.1127184098256002 Ba
atom 2.4990986258354857 2.4925852417443375 12.5623080405016907 Zr
atom 7.4674980571372256 2.4807706353408667 12.5623080405016907 Zr
atom 2.4872840194320149 7.4609846730460507 12.5623080405016907 Zr
atom 7.4790828125214670 7.4725694284302948 12.5623080405016907 Zr
atom 2.4899920933429853 2.4899920933429818 17.6559278607465622 Zr
atom 7.4700912055385729 2.4898771678333689 17.6559278607465622 Zr
atom 2.4898771678333675 7.4700912055385666 17.6559278607465622 Zr
atom 7.4699762800289511 7.4699762800289466 17.6559278607465622 Zr
atom 2.5861051952453895 2.6722395102187742 10.0301382166921087 S
atom 7.2878437886627685 2.3937640659309607 10.0301382166921087 S
atom 2.3076297509575698 7.3739781036361594 10.0301382166921087 S
atom 7.5660893819313637 7.6522236969047439 10.0301382166921087 S
atom 2.4119834032587981 2.4349056309395327 15.1123845533023342 S
atom 7.5251776679420237 2.5678858579175512 15.1123845533023342 S
atom 2.5449636302368166 7.5480998956227472 15.1123845533023342 S
atom 7.3919675899447608 7.4148898176254949 15.1123845533023342 S
atom 2.0034976990837592 0.0037020351020219 12.4990366843149214 S
atom 7.9900058777556842 0.0045096412000382 12.6496099688966481 S
atom 3.0097918400504748 4.9847236789052314 12.6496099688966481 S
atom 6.9834818857697192 4.9836862217879849 12.4990366843149214 S
atom 3.0022949087478090 -0.0000436913428288 17.7011344820996968 S
atom 6.9579033156433718 -0.0001861596764054 17.6107212393933885 S
atom 1.9776892779381594 4.9800278780287979 17.6107212393933885 S
atom 7.9822790954337819 4.9799404953431283 17.7011344820996968 S
atom -0.0038169606116389 2.9766014131118266 12.4990366843149214 S
atom 4.9753596199763113 1.9700774211258800 12.6496099688966481 S
atom -0.0048544177288893 6.9502914588310736 12.6496099688966481 S
atom 4.9761672260743302 7.9565855997977870 12.4990366843149214 S
atom -0.0000712341667882 1.9778042034477747 17.7011344820996968 S
atom 4.9800554208527528 3.0021799832381872 17.6107212393933885 S
atom -0.0001586168524456 7.9823940209433770 17.6107212393933885 S
atom 4.9799129525191876 6.9577883901337367 17.7011344820996968 S
atom -0.0561409673390165 -0.0184710257230888 20.1991373116674886 Ba
atom 4.9985701379186729 0.0560260418293992 20.1991373116674886 Ba
atom 0.0183561002134719 5.0362400795345934 20.1991373116674886 Ba
atom 4.9238432193469528 4.9615131609628742 20.1991373116674886 Ba
atom 0.0009945275794390 0.0783494591191603 25.2765669107410993 Ba
atom 4.9017496530764326 -0.0011094530890562 25.2765669107410993 Ba
atom -0.0784643846287775 4.9791045846161470 25.2765669107410993 Ba
atom 4.9809787142653894 5.0583336458051305 25.2765669107410993 Ba
atom 2.4808855608504863 2.4873989449416274 22.7495476809914265 Zr
atom 7.4726843539399237 2.4989837003258661 22.7495476809914265 Zr
atom 2.4924703162347264 7.4791977380310755 22.7495476809914265 Zr
atom 7.4608697475364458 7.4673831316275940 22.7495476809914265 Zr
atom 2.5692151783202606 2.4471956807447408 27.8330279669835861 Zr
atom 7.5128876181368138 2.4106540828560865 27.8330279669835861 Zr
atom 2.5326735804316054 7.3908681205612741 27.8330279669835861 Zr
atom 7.5491993650062419 7.4271798674307066 27.8330279669835861 Zr
atom 2.5680007834271747 2.5450785557464330 20.1994711681907368 S
atom 7.4150047431351291 2.4118684777491781 20.1994711681907368 S
atom 2.4347907054299220 7.3920825154543710 20.1994711681907368 S
atom 7.5479849701131485 7.5250627424323984 20.1994711681907368 S
atom 2.3938789914405834 2.3077446764671889 25.2817175048010085 S
atom 7.6523386224143710 2.5859902697357682 25.2817175048010085 S
atom 2.6721245847091675 7.5662043074409651 25.2817175048010085 S
atom 7.3738631781265518 7.2877288631531529 25.2817175048010085 S
atom 1.9701923466354940 -0.0047394922192720 22.6622457525964549 S
atom 7.9567005253074257 -0.0039318861212570 22.8128190371781692 S
atom 2.9764864876022141 4.9762821515839422 22.8128190371781692 S
atom 6.9501765333214660 4.9752446944666966 22.6622457525964549 S
atom 2.9781292998561919 -0.0488807696985394 28.0084448328858500 S
atom 7.0332043516645397 -0.0478359051674172 27.6122874079680578 S
atom 2.0529903139593331 4.9323781325377851 27.6122874079680578 S
atom 7.9581134865421648 4.9311034169874333 28.0084448328858500 S
atom 0.0046245667096554 3.0099067655600789 22.6622457525964549 S
atom 4.9838011472976200 2.0033827735741374 22.8128190371781692 S
atom 0.0035871095924059 6.9835968112793303 22.8128190371781692 S
atom 4.9846087533956185 7.9898909522460642 22.6622457525964549 S
atom 0.0487658441889220 2.0019698123393979 28.0084448328858500 S
atom 5.0277051663437700 2.9268789472170140 27.6122874079680578 S
atom 0.0474911286385663 7.9070929849222118 27.6122874079680578 S
atom 5.0287500308748916 6.9819539990253681 28.0084448328858500 S
atom 0.2623549850363075 -0.2018473546038922 30.2997581426943654 Ba
atom 5.1819464667994790 -0.2624699105459244 30.2997581426943654 Ba
atom 0.2017324290942758 4.7177441271592757 30.2997581426943654 Ba
atom 5.2423391717222874 4.7781368320820743 30.2997581426943654 Ba
atom -0.0605747549041316 0.1101972238244756 35.1145614127894561 Ba
atom 4.8699018883711096 0.0604598293945146 35.1145614127894561 Ba
atom -0.1103121493340927 5.0406738670997049 35.1145614127894561 Ba
atom 4.9194094317818440 5.0901814105104437 35.1145614127894561 Ba
atom 2.5139256389076068 2.4566313127903490 32.9205300160535117 Zr
atom 7.5034519860912035 2.4659436222687443 32.9205300160535117 Zr
atom 2.5232379483859990 7.4461576599739505 32.9205300160535117 Zr
atom 7.4939098255935832 7.4366154994763107 32.9205300160535117 Zr
atom 2.7441509920821425 2.6920340725151588 30.3429339874460773 S
atom 7.2680492263664043 2.2357182690942143 30.3429339874460773 S
atom 2.2878351886611905 7.2159323067994050 30.3429339874460773 S
atom 7.7241351787681154 7.6720182592011286 30.3429339874460773 S
atom 2.3565025341854118 2.2285159072746006 35.4345283054431377 S
atom 7.7315673916069478 2.6233667269909362 35.4345283054431377 S
atom 2.7513533539017443 7.6035807646961313 35.4345283054431377 S
atom 7.3364867208713846 7.2085000939605761 35.4345283054431377 S
atom 2.8608098850529529 -0.0426928308455250 32.5736499943648923 S
atom 7.2172012071973564 -0.0395485730873858 33.0598075464111858 S
atom 2.2369871694921466 4.9406654646178065 33.0598075464111858 S
atom 7.8407940717389053 4.9372913558404488 32.5736499943648923 S
atom 0.0425779053359084 2.1192892271426444 32.5736499943648923 S
atom 5.0194178342637441 2.7428820916842089 33.0598075464111858 S
atom 0.0392037965585350 7.7230961293893943 33.0598075464111858 S
atom 5.0225620920218699 7.0992734138286098 32.5736499943648923 S
atom 2.4294173384388569 2.6001893171674575 38.5358805206105259 Ba
atom 7.3598939817141078 2.5504519227374924 38.5358805206105259 Ba
atom 2.3796799440088949 7.5306659604426942 38.5358805206105259 Ba
atom 7.4094015251248271 7.5801735038534277 38.5358805206105259 Ba
atom 2.7523470783792972 2.2881447387390903 43.3506837907055314 Ba
atom 7.6719385601424657 2.2275221827970562 43.3506837907055314 Ba
atom 2.6917245224372661 7.2077362205022508 43.3506837907055314 Ba
atom 7.7323312650652687 7.2681289254250530 43.3506837907055314 Ba
atom 5.0039177322505868 4.9466234061333259 40.7299119173465201 Zr
atom 9.9934440794342105 4.9559357156117256 40.7299119173465201 Zr
atom 5.0132300417289821 9.9361497533169363 40.7299119173465201 Zr
atom 9.9839019189365494 9.9266075928192912 40.7299119173465201 Zr
atom 5.0592072716632499 4.9371877740877235 45.8174139664163320 Zr
atom 10.0028797114798262 4.9006461761990616 45.8174139664163320 Zr
atom 5.0226656737745907 9.8808602139042616 45.8174139664163320 Zr
atom 10.0391914583492241 9.9171719607736719 45.8174139664163320 Zr
atom 4.8464946275284033 4.7185080006175983 38.2159136279568727 S
atom 10.2215594849499141 5.1133588203339224 38.2159136279568727 S
atom 5.2413454472447292 10.0935728580391384 38.2159136279568727 S
atom 9.8264788142143722 9.6984921873035521 38.2159136279568727 S
atom 5.2341430854251358 5.1820261658581499 43.3075079459539225 S
atom 9.7580413197093847 4.7257103624371890 43.3075079459539225 S
atom 4.7778272820041758 9.7059244001424005 43.3075079459539225 S
atom 10.2141272721110798 10.1620103525440886 43.3075079459539225 S
atom 5.3508019783959240 2.4472992624974599 41.0767919390350471 S
atom 9.7071933005403270 2.4504435202556034 40.5906343869887962 S
atom 4.7269792628351288 7.4306575579607816 40.5906343869887962 S
atom 10.3307861650819142 7.4272834491834283 41.0767919390350471 S
atom 5.4681213931991701 2.4411113236444475 45.6419971005141392 S
atom 9.5231964450075299 2.4421561881755580 46.0381545254317999 S
atom 4.5429824073023211 7.4223702258807585 46.0381545254317999 S
atom 10.4481055798851301 7.4210955103304048 45.6419971005141392 S
atom 2.5325699986788899 4.6092813204856133 41.0767919390350471 S
atom 7.5094099276067432 5.2328741850271836 40.5906343869887962 S
atom 2.5291958899015188 10.2130882227323614 40.5906343869887962 S
atom 7.5125541853648627 9.5892655071715929 41.0767919390350471 S
atom 2.5387579375319071 4.4919619056823876 45.6419971005141392 S
atom 7.5176972596867708 5.4168710405599860 46.0381545254317999 S
atom 2.5374832219815562 10.3970850782651976 46.0381545254317999 S
atom 7.5187421242178702 9.4719460923683325 45.6419971005141392 S
atom 2.4909866209224218 2.5683415524621420 48.3738750226588650 Ba
atom 7.3917417464193926 2.4888826402539275 48.3738750226588650 Ba
atom 2.4115277087142122 7.4690966779591301 48.3738750226588650 Ba
atom 7.4709708076083947 7.5483257391481109 48.3738750226588650 Ba
atom 2.4338511260039621 2.4715210676198960 53.4513046217323833 Ba
atom 7.4885622312616595 2.5460181351723810 53.4513046217323833 Ba
atom 2.5083481935564556 7.5262321728775756 53.4513046217323833 Ba
atom 7.4138353126899421 7.4515052543058538 53.4513046217323833 Ba
atom 4.9708776541934538 4.9773910382846189 50.9008942524085697 Zr
atom 9.9626764472829450 4.9889757936688532 50.9008942524085697 Zr
atom 4.9824624095777015 9.9691898313740417 50.9008942524085697 Zr
atom 9.9508618408794618 9.9573752249705620 50.9008942524085697 Zr
atom 4.9799841866859706 4.9799841866859635 55.9945140726534376 Zr
atom 9.9600832988815569 4.9798692611763355 55.9945140726534376 Zr
atom 4.9798692611763524 9.9600832988815373 55.9945140726534376 Zr
atom 9.9599683733719413 9.9599683733719271 55.9945140726534376 Zr
atom 4.8838710847835625 4.7977367698101663 48.3687244285989095 S
atom 10.1423307157573390 5.0759823630787428 48.3687244285989095 S
atom 5.1621166780521399 10.0561964007839393 48.3687244285989095 S
atom 9.8638552714695376 9.7777209564961520 48.3687244285989095 S
atom 5.0579928767701503 5.0350706490894117 53.4509707652090853 S
atom 9.9049968364781176 4.9018605710921568 53.4509707652090853 S
atom 4.9247827987729114 9.8820746087973710 53.4509707652090853 S
atom 10.0379770634561165 10.0150548357753735 53.4509707652090853 S
atom 4.4601844399784776 2.4852526011237037 50.9881961808034418 S
atom 10.4466926186504221 2.4860602072217253 50.8376228962217311 S
atom 5.4664785809452017 7.4662742449269244 50.8376228962217311 S
atom 9.4401686266644411 7.4652367878096735 50.9881961808034418 S
atom 5.4922870020907872 2.4899484020001563 55.9493074513001858 S
atom 9.4478954089863461 2.4898059336665743 56.0397206940066113 S
atom 4.4676813712811514 7.4700199713717801 56.0397206940066113 S
atom 10.4722711887767801 7.4699325886861150 55.9493074513001858 S
atom 2.4946166600526403 5.4998988589030677 50.9881961808034418 S
atom 7.4737932406405934 4.4933748669171196 50.8376228962217311 S
atom 2.4935792029353929 9.4735889046223125 50.8376228962217311 S
atom 7.4746008467386131 10.4798830455890375 50.9881961808034418 S
atom 2.4899208591761957 4.4677962967907670 55.9493074513001858 S
atom 7.4700475141957465 5.4921720765811637 56.0397206940066113 S
atom 2.4898334764905430 10.4723861142863708 56.0397206940066113 S
atom 7.4699050458621672 9.4477804834767092 55.9493074513001858 S
atom 2.5461330606820010 2.5084631190660671 58.5377235235743711 Ba
atom 7.4516201798154862 2.4337362004943475 58.5377235235743711 Ba
atom 2.4714061421102822 7.4139502381995399 58.5377235235743711 Ba
atom 7.5261172473679663 7.4884473057520244 58.5377235235743711 Ba
atom 2.4889975657635461 2.4116426342238211 63.6151531226478895 Ba
atom 7.5484406646577176 2.4908716954128036 63.6151531226478895 Ba
atom 2.5682266269525336 7.4710857331179916 63.6151531226478895 Ba
atom 7.4689817524495261 7.3916268209097860 63.6151531226478895 Ba
atom 4.9890907191784857 4.9825773350873082 61.0881338928982061 Zr
atom 9.9574901504802096 4.9707627286838409 61.0881338928982061 Zr
atom 4.9772761127750131 9.9509767663890525 61.0881338928982061 Zr
atom 9.9690749058644386 9.9625615217732886 61.0881338928982061 Zr
atom 4.9007611017086825 5.0227805992842027 66.1716141788905077 Zr
atom 9.9172868862833106 5.0590923461536335 66.1716141788905077 Zr
atom 4.9370728485781212 10.0393063838588255 66.1716141788905077 Zr
atom 9.8807452883946407 10.0027647859701840 66.1716141788905077 Zr
atom 4.9019754966017874 4.9248977242825003 58.5380573800975981 S
atom 10.0151697612850121 5.0578779512605436 58.5380573800975981 S
atom 5.0349557235798041 10.0380919889657303 58.5380573800975981 S
atom 9.8819596832877501 9.9048819109684647 58.5380573800975981 S
atom 5.0760972885883762 5.1622316035617599 63.6203037167078733 S
atom 9.7778358820057836 4.8837561592739460 63.6203037167078733 S
atom 4.7976218443005676 9.8639701969791602 63.6203037167078733 S
atom 10.0560814752743344 10.1422157902477128 63.6203037167078733 S
atom 4.4934897924267396 2.4936941284450045 61.1514052490850801 S
atom 10.4799979710986531 2.4945017345430198 61.0008319645033552 S
atom 5.4997839333934690 7.4747157722482180 61.0008319645033552 S
atom 9.4734739791127129 7.4736783151309600 61.1514052490850801 S
atom 5.4169859660696043 2.5375981474911677 65.9508736198749546 S
atom 9.4720610178779765 2.5386430120222827 66.3470310447927716 S
atom 4.4918469801727756 7.5188570497274805 66.3470310447927716 S
atom 10.3969701527556069 7.5175823341771331 65.9508736198749546 S
atom 2.4861751327313470 5.4665935064548155 61.1514052490850801 S
atom 7.4653517133193033 4.4600695144688549 61.0008319645033552 S
atom 2.4851376756140975 9.4402835521740638 61.0008319645033552 S
atom 7.4661593194173017 10.4465776931407781 61.1514052490850801 S
atom 2.4422711136851860 4.5430973328119197 65.9508736198749546 S
atom 7.4212104358400337 5.4680064676895359 66.3470310447927716 S
atom 2.4409963981348315 10.4482205053947386 66.3470310447927716 S
atom 7.4222553003711598 9.5230815194978931 65.9508736198749546 S
atom 2.2276371083066757 2.6918394479468741 68.6383443546009460 Ba
atom 7.2682438509346827 2.7522321528696718 68.6383443546009460 Ba
atom 2.2880298132294765 7.7324461905748736 68.6383443546009460 Ba
atom 7.2076212949926477 7.6718236346328323 68.6383443546009460 Ba
atom 2.5505668482471204 2.3797948695185096 73.4531476246962711 Ba
atom 7.5802884293630575 2.4293024129292324 73.4531476246962711 Ba
atom 2.6000743916578450 7.4095164506344284 73.4531476246962711 Ba
atom 7.5305510349330751 7.3597790562044745 73.4531476246962711 Ba
atom 4.9560506411213421 5.0133449672385959 71.2591162279603054 Zr
atom 9.9267225183289103 5.0038028067409668 71.2591162279603054 Zr
atom 4.9465084806237298 9.9840168444461614 71.2591162279603054 Zr
atom 9.9360348278073118 9.9933291539245541 71.2591162279603054 Zr
atom 4.7258252879468161 4.7779422075137878 68.6815201993531019 S
atom 10.1621252780537485 5.2340281599155043 68.6815201993531019 S
atom 5.1819112403485406 10.2142421976206759 68.6815201993531019 S
atom 9.7058094746327974 9.7579263941997443 68.6815201993531019 S
atom 5.1134737458435442 5.2414603727543234 73.7731145173499812 S
atom 9.6986071128132068 4.8463797020187789 73.7731145173499812 S
atom 4.7183930751079846 9.8265937397239647 73.7731145173499812 S
atom 10.0934579325295086 10.2214445594403056 73.7731145173499812 S
atom 5.2329891105368072 2.5293108154111277 71.3983937583180790 S
atom 9.5893804326812084 2.5324550731692734 70.9122362062717286 S
atom 4.6091663949760227 7.5126691108744748 70.9122362062717286 S
atom 10.2129732972228044 7.5092950020970939 71.3983937583180790 S
atom 2.4505584457652216 4.7270941883447408 71.3983937583180790 S
atom 7.4273983746930519 5.3506870528863013 70.9122362062717286 S
atom 2.4471843369878501 10.3309010905915066 70.9122362062717286 S
atom 7.4305426324511759 9.7070783750307132 71.3983937583180790 S
