#=======================================================
# FHI-aims file: sym_relax/sym_relax_RP_10_Rx00_0-Ry0.in
# Created using the Atomic Simulation Environment (ASE)
# Mon Mar 17 17:11:46 2025
#=======================================================
lattice_vector 10.0769629339529345 -0.0000000000000004 0.0000000000000000 
lattice_vector -0.0000000000000004 10.0769629339529345 0.0000000000000000 
lattice_vector 0.0000000000000000 0.0000000000000000 104.7519227792552670 
atom -0.1678599613191543 0.0000000000000000 0.2875606101789532 Ba
atom 5.2063414282956222 -0.0000000000000000 0.2875606101789532 Ba
atom 0.1678599613191542 5.0384814669764664 0.2875606101789532 Ba
atom 4.8706215056573141 5.0384814669764664 0.2875606101789532 Ba
atom 0.0261118490509465 -0.0000000000000000 4.9612434443520268 Ba
atom 5.0123696179255273 0.0000000000000000 4.9612434443520268 Ba
atom -0.0261118490509465 5.0384814669764664 4.9612434443520268 Ba
atom 5.0645933160274108 5.0384814669764664 4.9612434443520268 Ba
atom 2.5192407334882332 2.4975535150199444 2.3381828010775791 Zr
atom 7.5577222004647036 2.5409279519565278 2.3381828010775791 Zr
atom 2.5192407334882332 7.5794094189329950 2.3381828010775791 Zr
atom 7.5577222004647036 7.5360349819964068 2.3381828010775791 Zr
atom 2.5192407334882332 2.5183729928451255 7.3538799557465957 Zr
atom 7.5577222004647036 2.5201084741313440 7.3538799557465957 Zr
atom 2.5192407334882332 7.5585899411078126 7.3538799557465957 Zr
atom 7.5577222004647036 7.5568544598215892 7.3538799557465957 Zr
atom 2.5192407334882332 2.8046074778744252 -0.1410174858440184 S
atom 7.5577222004647036 2.2338739891020443 -0.1410174858440184 S
atom 2.5192407334882332 7.2723554560785200 -0.1410174858440184 S
atom 7.5577222004647036 7.8430889448508898 -0.1410174858440184 S
atom 2.5192407334882332 2.0541346893925700 4.8836578621497653 S
atom 7.5577222004647036 2.9843467775839030 4.8836578621497653 S
atom 2.5192407334882332 8.0228282445603707 4.8836578621497653 S
atom 7.5577222004647036 7.0926161563690338 4.8836578621497653 S
atom 2.5192407334882332 0.0000000000000000 2.0401182057789184 S
atom 7.5577222004647036 0.0000000000000000 2.7802065584027318 S
atom 2.5192407334882332 5.0384814669764664 2.7802065584027318 S
atom 7.5577222004647036 5.0384814669764664 2.0401182057789184 S
atom 2.5192407334882332 0.0000000000000000 7.8312274888590450 S
atom 7.5577222004647036 0.0000000000000000 6.8957715602773213 S
atom 2.5192407334882332 5.0384814669764664 6.8957715602773213 S
atom 7.5577222004647036 5.0384814669764664 7.8312274888590450 S
atom 0.0000000000000000 2.5192407334882332 2.4771685312050162 S
atom 5.0384814669764664 2.5192407334882332 2.4771685312050162 S
atom -0.0000000000000000 7.5577222004647036 2.4771685312050162 S
atom 5.0384814669764664 7.5577222004647036 2.4771685312050162 S
atom -0.0000000000000000 2.5192407334882332 7.3738981296144548 S
atom 5.0384814669764664 2.5192407334882332 7.3738981296144548 S
atom 0.0000000000000000 7.5577222004647036 7.3738981296144548 S
atom 5.0384814669764664 7.5577222004647036 7.3738981296144548 S
atom -0.0067201917871032 0.0000000000000000 9.8596651895916150 Ba
atom 5.0452016587635766 0.0000000000000000 9.8596651895916150 Ba
atom 0.0067201917871032 5.0384814669764664 9.8596651895916150 Ba
atom 5.0317612751893623 5.0384814669764664 9.8596651895916150 Ba
atom 0.0065936561074133 0.0000000000000000 14.8021168665057878 Ba
atom 5.0318878108690583 0.0000000000000000 14.8021168665057878 Ba
atom -0.0065936561074133 5.0384814669764664 14.8021168665057878 Ba
atom 5.0450751230838868 5.0384814669764664 14.8021168665057878 Ba
atom 2.5192407334882332 2.5209568663330124 12.3138821576191013 Zr
atom 7.5577222004647036 2.5175246006434566 12.3138821576191013 Zr
atom 2.5192407334882332 7.5560060676199212 12.3138821576191013 Zr
atom 7.5577222004647036 7.5594383333094850 12.3138821576191013 Zr
atom 2.5192407334882332 2.5188335111448610 17.2714514065409723 Zr
atom 7.5577222004647036 2.5196479558316121 17.2714514065409723 Zr
atom 2.5192407334882332 7.5581294228080846 17.2714514065409723 Zr
atom 7.5577222004647036 7.5573149781213269 17.2714514065409723 Zr
atom 2.5192407334882332 3.0264675660020357 9.8412535450382741 S
atom 7.5577222004647036 2.0120139009744329 9.8412535450382741 S
atom 2.5192407334882332 7.0504953679509104 9.8412535450382741 S
atom 7.5577222004647036 8.0649490329785021 9.8412535450382741 S
atom 2.5192407334882332 2.0106627256322840 14.7955461575361689 S
atom 7.5577222004647036 3.0278187413441837 14.7955461575361689 S
atom 2.5192407334882332 8.0663002083206532 14.7955461575361689 S
atom 7.5577222004647036 7.0491441926087592 14.7955461575361689 S
atom 2.5192407334882332 0.0000000000000000 11.8425905587385358 S
atom 7.5577222004647036 0.0000000000000000 12.8028568800208795 S
atom 2.5192407334882332 5.0384814669764664 12.8028568800208795 S
atom 7.5577222004647036 5.0384814669764664 11.8425905587385358 S
atom 2.5192407334882332 0.0000000000000000 17.7557993301571955 S
atom 7.5577222004647036 0.0000000000000000 16.7931183282205403 S
atom 2.5192407334882332 5.0384814669764664 16.7931183282205403 S
atom 7.5577222004647036 5.0384814669764664 17.7557993301571955 S
atom -0.0000000000000000 2.5192407334882332 12.3229491867930481 S
atom 5.0384814669764664 2.5192407334882332 12.3229491867930481 S
atom 0.0000000000000000 7.5577222004647036 12.3229491867930481 S
atom 5.0384814669764664 7.5577222004647036 12.3229491867930481 S
atom 0.0000000000000000 2.5192407334882332 17.2743577443533383 S
atom 5.0384814669764664 2.5192407334882332 17.2743577443533383 S
atom 0.0000000000000000 7.5577222004647036 17.2743577443533383 S
atom 5.0384814669764664 7.5577222004647036 17.2743577443533383 S
atom -0.0056739039742440 0.0000000000000000 19.7517700836928292 Ba
atom 5.0441553709507136 0.0000000000000000 19.7517700836928292 Ba
atom 0.0056739039742440 5.0384814669764664 19.7517700836928292 Ba
atom 5.0328075630022271 5.0384814669764664 19.7517700836928292 Ba
atom 0.0054213568392837 0.0000000000000000 24.7056421649186895 Ba
atom 5.0330601101371801 0.0000000000000000 24.7056421649186895 Ba
atom -0.0054213568392837 5.0384814669764664 24.7056421649186895 Ba
atom 5.0439028238157553 5.0384814669764664 24.7056421649186895 Ba
atom 2.5192407334882332 2.5193102838903534 22.2277233586410432 Zr
atom 7.5577222004647036 2.5191711830861170 22.2277233586410432 Zr
atom 2.5192407334882332 7.5576526500625887 22.2277233586410432 Zr
atom 7.5577222004647036 7.5577917508668175 22.2277233586410432 Zr
atom 2.5192407334882332 2.5193102838903534 27.1835609711963286 Zr
atom 7.5577222004647036 2.5191711830861170 27.1835609711963286 Zr
atom 2.5192407334882332 7.5576526500625887 27.1835609711963286 Zr
atom 7.5577222004647036 7.5577917508668175 27.1835609711963286 Zr
atom 2.5192407334882332 3.0287716664245785 19.7506750171458592 S
atom 7.5577222004647036 2.0097098005518910 19.7506750171458592 S
atom 2.5192407334882332 7.0481912675283551 19.7506750171458592 S
atom 7.5577222004647036 8.0672531334010493 19.7506750171458592 S
atom 2.5192407334882332 2.0092340635693575 24.7056421649186895 S
atom 7.5577222004647036 3.0292474034071128 24.7056421649186895 S
atom 2.5192407334882332 8.0677288703835970 24.7056421649186895 S
atom 7.5577222004647036 7.0477155305458323 24.7056421649186895 S
atom 2.5192407334882332 0.0000000000000000 21.7459669553090329 S
atom 7.5577222004647036 0.0000000000000000 22.7107413206272959 S
atom 2.5192407334882332 5.0384814669764664 22.7107413206272959 S
atom 7.5577222004647036 5.0384814669764664 21.7459669553090329 S
atom 2.5192407334882332 0.0000000000000000 27.6653173745283674 S
atom 7.5577222004647036 0.0000000000000000 26.7005430092100866 S
atom 2.5192407334882332 5.0384814669764664 26.7005430092100866 S
atom 7.5577222004647036 5.0384814669764664 27.6653173745283674 S
atom 0.0000000000000000 2.5192407334882332 22.2286277271693606 S
atom 5.0384814669764664 2.5192407334882332 22.2286277271693606 S
atom -0.0000000000000000 7.5577222004647036 22.2286277271693606 S
atom 5.0384814669764664 7.5577222004647036 22.2286277271693606 S
atom 0.0000000000000000 2.5192407334882332 27.1826566026680503 S
atom 5.0384814669764664 2.5192407334882332 27.1826566026680503 S
atom -0.0000000000000000 7.5577222004647036 27.1826566026680503 S
atom 5.0384814669764664 7.5577222004647036 27.1826566026680503 S
atom -0.0056739039742440 0.0000000000000000 29.6595142461445498 Ba
atom 5.0441553709507136 0.0000000000000000 29.6595142461445498 Ba
atom 0.0056739039742440 5.0384814669764664 29.6595142461445498 Ba
atom 5.0328075630022271 5.0384814669764664 29.6595142461445498 Ba
atom 0.0065936561074133 0.0000000000000000 34.6091674633316373 Ba
atom 5.0318878108690583 0.0000000000000000 34.6091674633316373 Ba
atom -0.0065936561074133 5.0384814669764664 34.6091674633316373 Ba
atom 5.0450751230838868 5.0384814669764664 34.6091674633316373 Ba
atom 2.5192407334882332 2.5188335111448610 32.1398329232964812 Zr
atom 7.5577222004647036 2.5196479558316121 32.1398329232964812 Zr
atom 2.5192407334882332 7.5581294228080846 32.1398329232964812 Zr
atom 7.5577222004647036 7.5573149781213269 32.1398329232964812 Zr
atom 2.5192407334882332 2.5209568663330124 37.0974021722182528 Zr
atom 7.5577222004647036 2.5175246006434566 37.0974021722182528 Zr
atom 2.5192407334882332 7.5560060676199212 37.0974021722182528 Zr
atom 7.5577222004647036 7.5594383333094850 37.0974021722182528 Zr
atom 2.5192407334882332 3.0287716664245785 29.6606093126915376 S
atom 7.5577222004647036 2.0097098005518910 29.6606093126915376 S
atom 2.5192407334882332 7.0481912675283551 29.6606093126915376 S
atom 7.5577222004647036 8.0672531334010493 29.6606093126915376 S
atom 2.5192407334882332 2.0106627256322840 34.6157381723012065 S
atom 7.5577222004647036 3.0278187413441837 34.6157381723012065 S
atom 2.5192407334882332 8.0663002083206532 34.6157381723012065 S
atom 7.5577222004647036 7.0491441926087592 34.6157381723012065 S
atom 2.5192407334882332 0.0000000000000000 31.6554849996802012 S
atom 7.5577222004647036 0.0000000000000000 32.6181660016168706 S
atom 2.5192407334882332 5.0384814669764664 32.6181660016168706 S
atom 7.5577222004647036 5.0384814669764664 31.6554849996802012 S
atom 2.5192407334882332 0.0000000000000000 37.5686937710988786 S
atom 7.5577222004647036 0.0000000000000000 36.6084274498165314 S
atom 2.5192407334882332 5.0384814669764664 36.6084274498165314 S
atom 7.5577222004647036 5.0384814669764664 37.5686937710988786 S
atom 0.0000000000000000 2.5192407334882332 32.1369265854840265 S
atom 5.0384814669764664 2.5192407334882332 32.1369265854840265 S
atom 0.0000000000000000 7.5577222004647036 32.1369265854840265 S
atom 5.0384814669764664 7.5577222004647036 32.1369265854840265 S
atom 0.0000000000000000 2.5192407334882332 37.0883351430443255 S
atom 5.0384814669764664 2.5192407334882332 37.0883351430443255 S
atom 0.0000000000000000 7.5577222004647036 37.0883351430443255 S
atom 5.0384814669764664 7.5577222004647036 37.0883351430443255 S
atom -0.0067201917871032 0.0000000000000000 39.5516191402457480 Ba
atom 5.0452016587635766 0.0000000000000000 39.5516191402457480 Ba
atom 0.0067201917871032 5.0384814669764664 39.5516191402457480 Ba
atom 5.0317612751893623 5.0384814669764664 39.5516191402457480 Ba
atom 0.0261118490509465 0.0000000000000000 44.4500408854853291 Ba
atom 5.0123696179255273 0.0000000000000000 44.4500408854853291 Ba
atom -0.0261118490509465 5.0384814669764664 44.4500408854853291 Ba
atom 5.0645933160274108 5.0384814669764664 44.4500408854853291 Ba
atom 2.5192407334882332 2.5183729928451255 42.0574043740907868 Zr
atom 7.5577222004647036 2.5201084741313440 42.0574043740907868 Zr
atom 2.5192407334882332 7.5585899411078126 42.0574043740907868 Zr
atom 7.5577222004647036 7.5568544598215892 42.0574043740907868 Zr
atom 2.5192407334882332 2.4975535150199444 47.0731015287598069 Zr
atom 7.5577222004647036 2.5409279519565278 47.0731015287598069 Zr
atom 2.5192407334882332 7.5794094189329950 47.0731015287598069 Zr
atom 7.5577222004647036 7.5360349819964068 47.0731015287598069 Zr
atom 2.5192407334882332 3.0264675660020357 39.5700307847991297 S
atom 7.5577222004647036 2.0120139009744329 39.5700307847991297 S
atom 2.5192407334882332 7.0504953679509104 39.5700307847991297 S
atom 7.5577222004647036 8.0649490329785021 39.5700307847991297 S
atom 2.5192407334882332 2.0541346893925700 44.5276264676875968 S
atom 7.5577222004647036 2.9843467775839030 44.5276264676875968 S
atom 2.5192407334882332 8.0228282445603707 44.5276264676875968 S
atom 7.5577222004647036 7.0926161563690338 44.5276264676875968 S
atom 2.5192407334882332 0.0000000000000000 41.5800568409783082 S
atom 7.5577222004647036 0.0000000000000000 42.5155127695600470 S
atom 2.5192407334882332 5.0384814669764664 42.5155127695600470 S
atom 7.5577222004647036 5.0384814669764664 41.5800568409783082 S
atom 2.5192407334882332 0.0000000000000000 47.3711661240584334 S
atom 7.5577222004647036 0.0000000000000000 46.6310777714346614 S
atom 2.5192407334882332 5.0384814669764664 46.6310777714346614 S
atom 7.5577222004647036 5.0384814669764664 47.3711661240584334 S
atom 0.0000000000000000 2.5192407334882332 42.0373862002229117 S
atom 5.0384814669764664 2.5192407334882332 42.0373862002229117 S
atom 0.0000000000000000 7.5577222004647036 42.0373862002229117 S
atom 5.0384814669764664 7.5577222004647036 42.0373862002229117 S
atom 0.0000000000000000 2.5192407334882332 46.9341157986323481 S
atom 5.0384814669764664 2.5192407334882332 46.9341157986323481 S
atom -0.0000000000000000 7.5577222004647036 46.9341157986323481 S
atom 5.0384814669764664 7.5577222004647036 46.9341157986323481 S
atom -0.1678599613191543 0.0000000000000000 49.1237237196584076 Ba
atom 5.2063414282956222 -0.0000000000000000 49.1237237196584076 Ba
atom 0.1678599613191542 5.0384814669764664 49.1237237196584076 Ba
atom 4.8706215056573141 5.0384814669764664 49.1237237196584076 Ba
atom 2.5192407334882332 2.8046074778744252 49.5523018156813606 S
atom 7.5577222004647036 2.2338739891020443 49.5523018156813606 S
atom 2.5192407334882332 7.2723554560785200 49.5523018156813606 S
atom 7.5577222004647036 7.8430889448508898 49.5523018156813606 S
atom 2.5192407334882332 2.6871006948073917 52.6635219998066120 Ba
atom 7.5577222004647036 2.3513807721690818 52.6635219998066120 Ba
atom 2.5192407334882332 7.3898622391455557 52.6635219998066120 Ba
atom 7.5577222004647036 7.7255821617838585 52.6635219998066120 Ba
atom 2.5192407334882332 2.4931288844372848 57.3372048339796194 Ba
atom 7.5577222004647036 2.5453525825391816 57.3372048339796194 Ba
atom 2.5192407334882332 7.5838340495156489 57.3372048339796194 Ba
atom 7.5577222004647036 7.5316103514137565 57.3372048339796194 Ba
atom 5.0601686854447685 5.0384814669764664 54.7141441907052268 Zr
atom 10.0552757154846351 5.0384814669764664 54.7141441907052268 Zr
atom 5.0167942485081731 10.0769629339529327 54.7141441907052268 Zr
atom 10.0986501524212215 10.0769629339529327 54.7141441907052268 Zr
atom 5.0393492076195834 5.0384814669764664 59.7298413453742398 Zr
atom 10.0760951933098237 5.0384814669764664 59.7298413453742398 Zr
atom 5.0376137263333520 10.0769629339529327 59.7298413453742398 Zr
atom 10.0778306745960524 10.0769629339529327 59.7298413453742398 Zr
atom 4.7531147225902846 5.0384814669764664 52.2349439037836021 S
atom 10.3623296783391243 5.0384814669764664 52.2349439037836021 S
atom 5.3238482113626571 10.0769629339529327 52.2349439037836021 S
atom 9.7915961895667483 10.0769629339529327 52.2349439037836021 S
atom 5.5035875110721451 5.0384814669764664 57.2596192517774156 S
atom 9.6118568898572683 5.0384814669764664 57.2596192517774156 S
atom 4.5733754228807975 10.0769629339529327 57.2596192517774156 S
atom 10.5420689780486097 10.0769629339529327 57.2596192517774156 S
atom 5.0384814669764664 2.5192407334882332 54.8531299208326288 S
atom 10.0769629339529327 2.5192407334882332 54.8531299208326288 S
atom 5.0384814669764664 7.5577222004647036 54.8531299208326288 S
atom 10.0769629339529327 7.5577222004647036 54.8531299208326288 S
atom 5.0384814669764664 2.5192407334882332 59.7498595192420865 S
atom 10.0769629339529327 2.5192407334882332 59.7498595192420865 S
atom 5.0384814669764664 7.5577222004647036 59.7498595192420865 S
atom 10.0769629339529327 7.5577222004647036 59.7498595192420865 S
atom 2.5192407334882332 5.0384814669764664 55.1561679480303511 S
atom 7.5577222004647036 5.0384814669764664 54.4160795954066003 S
atom 2.5192407334882332 10.0769629339529327 54.4160795954066003 S
atom 7.5577222004647036 10.0769629339529327 55.1561679480303511 S
atom 2.5192407334882332 5.0384814669764664 59.2717329499049654 S
atom 7.5577222004647036 5.0384814669764664 60.2071888784866829 S
atom 2.5192407334882332 10.0769629339529327 60.2071888784866829 S
atom 7.5577222004647036 10.0769629339529327 59.2717329499049654 S
atom 2.5192407334882332 2.5259609252753381 62.2356265792192147 Ba
atom 7.5577222004647036 2.5125205417011314 62.2356265792192147 Ba
atom 2.5192407334882332 7.5510020086775986 62.2356265792192147 Ba
atom 7.5577222004647036 7.5644423922518103 62.2356265792192147 Ba
atom 2.5192407334882332 2.5126470773808194 67.1780782561334320 Ba
atom 7.5577222004647036 2.5258343895956479 67.1780782561334320 Ba
atom 2.5192407334882332 7.5643158565721142 67.1780782561334320 Ba
atom 7.5577222004647036 7.5511285443572875 67.1780782561334320 Ba
atom 5.0367653341316805 5.0384814669764664 64.6898435472468236 Zr
atom 10.0786790667977044 5.0384814669764664 64.6898435472468236 Zr
atom 5.0401975998212460 10.0769629339529327 64.6898435472468236 Zr
atom 10.0752468011081771 10.0769629339529327 64.6898435472468236 Zr
atom 5.0388886893198492 5.0384814669764664 69.6474127961686236 Zr
atom 10.0765557116095597 5.0384814669764664 69.6474127961686236 Zr
atom 5.0380742446330933 10.0769629339529327 69.6474127961686236 Zr
atom 10.0773701562963023 10.0769629339529327 69.6474127961686236 Zr
atom 4.5312546344626758 5.0384814669764664 62.2172149346659111 S
atom 10.5841897664667446 5.0384814669764664 62.2172149346659111 S
atom 5.5457082994902702 10.0769629339529327 62.2172149346659111 S
atom 9.5697361014391404 10.0769629339529327 62.2172149346659111 S
atom 5.5470594748324196 5.0384814669764664 67.1715075471638698 S
atom 9.5683849260969911 5.0384814669764664 67.1715075471638698 S
atom 4.5299034591205194 10.0769629339529327 67.1715075471638698 S
atom 10.5855409418089028 10.0769629339529327 67.1715075471638698 S
atom 5.0384814669764664 2.5192407334882332 64.6989105764205732 S
atom 10.0769629339529327 2.5192407334882332 64.6989105764205732 S
atom 5.0384814669764664 7.5577222004647036 64.6989105764205732 S
atom 10.0769629339529327 7.5577222004647036 64.6989105764205732 S
atom 5.0384814669764664 2.5192407334882332 69.6503191339809717 S
atom 10.0769629339529327 2.5192407334882332 69.6503191339809717 S
atom 5.0384814669764664 7.5577222004647036 69.6503191339809717 S
atom 10.0769629339529327 7.5577222004647036 69.6503191339809717 S
atom 2.5192407334882332 5.0384814669764664 65.1788182696485592 S
atom 7.5577222004647036 5.0384814669764664 64.2185519483660556 S
atom 2.5192407334882332 10.0769629339529327 64.2185519483660556 S
atom 7.5577222004647036 10.0769629339529327 65.1788182696485592 S
atom 2.5192407334882332 5.0384814669764664 69.1690797178480494 S
atom 7.5577222004647036 5.0384814669764664 70.1317607197847366 S
atom 2.5192407334882332 10.0769629339529327 70.1317607197847366 S
atom 7.5577222004647036 10.0769629339529327 69.1690797178480494 S
atom 2.5192407334882332 2.5249146374624805 72.1277314733205230 Ba
atom 7.5577222004647036 2.5135668295139939 72.1277314733205230 Ba
atom 2.5192407334882332 7.5520482964904634 72.1277314733205230 Ba
atom 7.5577222004647036 7.5633961044389482 72.1277314733205230 Ba
atom 2.5192407334882332 2.5138193766489509 77.0816035545463336 Ba
atom 7.5577222004647036 2.5246620903275154 77.0816035545463336 Ba
atom 2.5192407334882332 7.5631435573039845 77.0816035545463336 Ba
atom 7.5577222004647036 7.5523008436254209 77.0816035545463336 Ba
atom 5.0384119165743551 5.0384814669764664 74.6036847482684777 Zr
atom 10.0770324843550707 5.0384814669764664 74.6036847482684777 Zr
atom 5.0385510173785848 10.0769629339529327 74.6036847482684777 Zr
atom 10.0768933835508214 10.0769629339529327 74.6036847482684777 Zr
atom 5.0384119165743551 5.0384814669764664 79.5595223608241042 Zr
atom 10.0770324843550707 5.0384814669764664 79.5595223608241042 Zr
atom 5.0385510173785848 10.0769629339529327 79.5595223608241042 Zr
atom 10.0768933835508214 10.0769629339529327 79.5595223608241042 Zr
atom 4.5289505340401188 5.0384814669764664 72.1266364067734003 S
atom 10.5864938668892794 5.0384814669764664 72.1266364067734003 S
atom 5.5480123999128219 10.0769629339529327 72.1266364067734003 S
atom 9.5674320010165985 10.0769629339529327 72.1266364067734003 S
atom 5.5484881368953474 5.0384814669764664 77.0816035545463336 S
atom 9.5669562640340509 5.0384814669764664 77.0816035545463336 S
atom 4.5284747970575943 10.0769629339529327 77.0816035545463336 S
atom 10.5869696038718359 10.0769629339529327 77.0816035545463336 S
atom 5.0384814669764664 2.5192407334882332 74.6045891167969302 S
atom 10.0769629339529327 2.5192407334882332 74.6045891167969302 S
atom 5.0384814669764664 7.5577222004647036 74.6045891167969302 S
atom 10.0769629339529327 7.5577222004647036 74.6045891167969302 S
atom 5.0384814669764664 2.5192407334882332 79.5586179922955665 S
atom 10.0769629339529327 2.5192407334882332 79.5586179922955665 S
atom 5.0384814669764664 7.5577222004647036 79.5586179922955665 S
atom 10.0769629339529327 7.5577222004647036 79.5586179922955665 S
atom 2.5192407334882332 5.0384814669764664 75.0867027102549116 S
atom 7.5577222004647036 5.0384814669764664 74.1219283449367055 S
atom 2.5192407334882332 10.0769629339529327 74.1219283449367055 S
atom 7.5577222004647036 10.0769629339529327 75.0867027102549116 S
atom 2.5192407334882332 5.0384814669764664 79.0765043988376988 S
atom 7.5577222004647036 5.0384814669764664 80.0412787641559760 S
atom 2.5192407334882332 10.0769629339529327 80.0412787641559760 S
atom 7.5577222004647036 10.0769629339529327 79.0765043988376988 S
atom 2.5192407334882332 2.5249146374624805 82.0354756357721442 Ba
atom 7.5577222004647036 2.5135668295139939 82.0354756357721442 Ba
atom 2.5192407334882332 7.5520482964904634 82.0354756357721442 Ba
atom 7.5577222004647036 7.5633961044389482 82.0354756357721442 Ba
atom 2.5192407334882332 2.5126470773808194 86.9851288529591358 Ba
atom 7.5577222004647036 2.5258343895956479 86.9851288529591358 Ba
atom 2.5192407334882332 7.5643158565721142 86.9851288529591358 Ba
atom 7.5577222004647036 7.5511285443572875 86.9851288529591358 Ba
atom 5.0388886893198492 5.0384814669764664 84.5157943129239868 Zr
atom 10.0765557116095597 5.0384814669764664 84.5157943129239584 Zr
atom 5.0380742446330933 10.0769629339529327 84.5157943129239442 Zr
atom 10.0773701562963023 10.0769629339529327 84.5157943129239584 Zr
atom 5.0367653341316805 5.0384814669764664 89.4733635618458720 Zr
atom 10.0786790667977044 5.0384814669764664 89.4733635618458720 Zr
atom 5.0401975998212460 10.0769629339529327 89.4733635618458720 Zr
atom 10.0752468011081771 10.0769629339529327 89.4733635618458720 Zr
atom 4.5289505340401188 5.0384814669764664 82.0365707023192243 S
atom 10.5864938668892794 5.0384814669764664 82.0365707023192243 S
atom 5.5480123999128219 10.0769629339529327 82.0365707023192243 S
atom 9.5674320010165985 10.0769629339529327 82.0365707023192243 S
atom 5.5470594748324196 5.0384814669764664 86.9916995619288116 S
atom 9.5683849260969911 5.0384814669764664 86.9916995619288116 S
atom 4.5299034591205194 10.0769629339529327 86.9916995619288116 S
atom 10.5855409418089028 10.0769629339529327 86.9916995619288116 S
atom 5.0384814669764664 2.5192407334882332 84.5128879751116386 S
atom 10.0769629339529327 2.5192407334882332 84.5128879751116386 S
atom 5.0384814669764664 7.5577222004647036 84.5128879751116386 S
atom 10.0769629339529327 7.5577222004647036 84.5128879751116386 S
atom 5.0384814669764664 2.5192407334882332 89.4642965326720656 S
atom 10.0769629339529327 2.5192407334882332 89.4642965326720656 S
atom 5.0384814669764664 7.5577222004647036 89.4642965326720656 S
atom 10.0769629339529327 7.5577222004647036 89.4642965326720656 S
atom 2.5192407334882332 5.0384814669764664 84.9941273912444331 S
atom 7.5577222004647036 5.0384814669764664 84.0314463893079022 S
atom 2.5192407334882332 10.0769629339529327 84.0314463893079022 S
atom 7.5577222004647036 10.0769629339529327 84.9941273912444331 S
atom 2.5192407334882332 5.0384814669764664 88.9843888394441223 S
atom 7.5577222004647036 5.0384814669764664 89.9446551607264837 S
atom 2.5192407334882332 10.0769629339529327 89.9446551607264837 S
atom 7.5577222004647036 10.0769629339529327 88.9843888394441223 S
atom 2.5192407334882332 2.5259609252753381 91.9275805298733815 Ba
atom 7.5577222004647036 2.5125205417011314 91.9275805298733815 Ba
atom 2.5192407334882332 7.5510020086775986 91.9275805298733815 Ba
atom 7.5577222004647036 7.5644423922518103 91.9275805298733815 Ba
atom 2.5192407334882332 2.4931288844372848 96.8260022751129554 Ba
atom 7.5577222004647036 2.5453525825391816 96.8260022751129554 Ba
atom 2.5192407334882332 7.5838340495156489 96.8260022751129554 Ba
atom 7.5577222004647036 7.5316103514137565 96.8260022751129554 Ba
atom 5.0393492076195834 5.0384814669764664 94.4333657637183137 Zr
atom 10.0760951933098237 5.0384814669764664 94.4333657637183137 Zr
atom 5.0376137263333520 10.0769629339529327 94.4333657637183137 Zr
atom 10.0778306745960524 10.0769629339529327 94.4333657637183137 Zr
atom 5.0601686854447685 5.0384814669764664 99.4490629183874262 Zr
atom 10.0552757154846351 5.0384814669764664 99.4490629183874262 Zr
atom 5.0167942485081731 10.0769629339529327 99.4490629183874262 Zr
atom 10.0986501524212215 10.0769629339529327 99.4490629183874262 Zr
atom 4.5312546344626758 5.0384814669764664 91.9459921744267348 S
atom 10.5841897664667446 5.0384814669764664 91.9459921744267348 S
atom 5.5457082994902702 10.0769629339529327 91.9459921744267348 S
atom 9.5697361014391404 10.0769629339529327 91.9459921744267348 S
atom 5.5035875110721451 5.0384814669764664 96.9035878573152019 S
atom 9.6118568898572683 5.0384814669764664 96.9035878573152019 S
atom 4.5733754228807975 10.0769629339529327 96.9035878573152019 S
atom 10.5420689780486097 10.0769629339529327 96.9035878573152019 S
atom 5.0384814669764664 2.5192407334882332 94.4133475898505310 S
atom 10.0769629339529327 2.5192407334882332 94.4133475898505310 S
atom 5.0384814669764664 7.5577222004647036 94.4133475898505310 S
atom 10.0769629339529327 7.5577222004647036 94.4133475898505310 S
atom 5.0384814669764664 2.5192407334882332 99.3100771882601094 S
atom 10.0769629339529327 2.5192407334882332 99.3100771882601094 S
atom 5.0384814669764664 7.5577222004647036 99.3100771882601094 S
atom 10.0769629339529327 7.5577222004647036 99.3100771882601094 S
atom 2.5192407334882332 5.0384814669764664 94.8914741591877373 S
atom 7.5577222004647036 5.0384814669764664 93.9560182306059488 S
atom 2.5192407334882332 10.0769629339529327 93.9560182306059488 S
atom 7.5577222004647036 10.0769629339529327 94.8914741591877373 S
atom 2.5192407334882332 5.0384814669764664 99.0070391610622096 S
atom 7.5577222004647036 5.0384814669764664 99.7471275136860527 S
atom 2.5192407334882332 10.0769629339529327 99.7471275136860527 S
atom 7.5577222004647036 10.0769629339529327 99.0070391610622096 S
atom 2.5192407334882332 2.6871006948073917 101.4996851092860766 Ba
atom 7.5577222004647036 2.3513807721690818 101.4996851092860766 Ba
atom 2.5192407334882332 7.3898622391455557 101.4996851092860766 Ba
atom 7.5577222004647036 7.7255821617838585 101.4996851092860766 Ba
atom 4.7531147225902846 5.0384814669764664 101.9282632053090651 S
atom 10.3623296783391243 5.0384814669764664 101.9282632053090651 S
atom 5.3238482113626571 10.0769629339529327 101.9282632053090651 S
atom 9.7915961895667483 10.0769629339529327 101.9282632053090651 S
