#=======================================================
# FHI-aims file: sym_relax/sym_relax_RP_5_RxRyMz_-Rx-RyMz.in
# Created using the Atomic Simulation Environment (ASE)
# Fri Mar 14 10:55:54 2025
#=======================================================
lattice_vector 10.0194178652076911 -0.0534296143725949 0.0000000000000000 
lattice_vector -0.0534296143725949 10.0194178652076928 0.0000000000000000 
lattice_vector 0.0000000000000000 0.0000000000000000 55.8171761214997773 
atom 0.1185292162971850 -0.1671429094700718 0.2187052385536205 Ba
atom 5.1768518420739094 -0.1452440234834821 0.2187052385536205 Ba
atom 0.1404281022837743 4.8911797163066639 0.2187052385536206 Ba
atom 5.1015233417147394 4.8158512159474762 0.2187052385536206 Ba
atom -0.2590030619738735 0.1883530029633935 4.9979061578727624 Ba
atom 4.8213559296404549 0.2322882547875761 4.9979061578727624 Ba
atom -0.2150678101496919 5.2687119945777203 4.9979061578727624 Ba
atom 4.7239910634436768 5.1713471283809431 4.9979061578727624 Ba
atom 2.5032632079718660 2.4853633296442226 2.3929087858661542 Zr
atom 7.5073397283771754 2.4530161102593881 2.3929087858661542 Zr
atom 2.4709159885870258 7.4894398500495276 2.3929087858661542 Zr
atom 7.4862573333894114 7.4683574550617715 2.3929087858661542 Zr
atom 2.4830320695180323 2.4963564989820806 7.4443634101559075 Zr
atom 7.4963465590393144 2.4732472487132213 7.4443634101559075 Zr
atom 2.4599228192491696 7.5096709885033741 7.4443634101559075 Zr
atom 7.4660261949355711 7.4793506243996317 7.4443634101559075 Zr
atom 2.6662295911934768 2.7486055587320135 -0.1125113467477728 S
atom 7.2440974992893876 2.2900497270377729 -0.1125113467477728 S
atom 2.2076737594992450 7.3264734668279115 -0.1125113467477728 S
atom 7.6492237166110408 7.7315996841495647 -0.1125113467477728 S
atom 2.2349910788178695 2.1841679740737692 4.9502234649707209 S
atom 7.8085350839476169 2.7212882394133819 4.9502234649707209 S
atom 2.7721113441574849 7.7577119792035187 4.9502234649707209 S
atom 7.2179852042354202 7.1671620994913221 4.9502234649707209 S
atom 2.7780119489434192 -0.0102002150003865 2.2182049721386452 S
atom 7.2003867557264769 -0.0336103572775502 2.7708385884079574 S
atom 2.1639630159363392 5.0028133825125947 2.7708385884079574 S
atom 7.7610060743609681 4.9727939104171606 2.2182049721386452 S
atom 2.8897938365728080 -0.0131436365715889 7.7727496688259450 S
atom 7.1361631177698568 -0.0360160385186495 7.1470512477057273 S
atom 2.0997393779797155 5.0004077012715031 7.1470512477057273 S
atom 7.8727879619903627 4.9698504888459611 7.7727496688259450 S
atom -0.0165145921859111 2.2316969836604263 2.2182049721386452 S
atom 4.9898896755088114 2.7923163022949118 2.7708385884079574 S
atom -0.0465340642813427 7.8287400420850553 2.7708385884079574 S
atom 4.9664795332316372 7.2146911090779673 2.2182049721386452 S
atom -0.0135711706147087 2.1199150960310389 7.7727496688259450 S
atom 4.9922953567498887 2.8565399402515372 7.1470512477057273 S
atom -0.0441283830402435 7.8929636800416842 7.1470512477057273 S
atom 4.9694229548028419 7.1029092214485878 7.7727496688259450 S
atom 0.2757155868491022 -0.1815785490289792 9.9634778687436079 Ba
atom 5.1912874816328323 -0.3024303940354001 9.9634778687436079 Ba
atom 0.1548637418426818 4.7339933457547501 9.9634778687436079 Ba
atom 5.2587097122666480 4.8014155763885586 9.9634778687436079 Ba
atom -0.2757155868491021 0.1815785490289792 14.9549043283544929 Ba
atom 4.8281303835748641 0.2490007796628049 14.9549043283544929 Ba
atom -0.2082933562152773 5.2854245194529508 14.9549043283544929 Ba
atom 4.7072785385684588 5.1645726744465286 14.9549043283544929 Ba
atom 2.4914970627087749 2.4914970627087767 12.4591910985490291 Zr
atom 7.5012059953126169 2.4647822555224739 12.4591910985490291 Zr
atom 2.4647822555224796 7.5012059953126196 12.4591910985490291 Zr
atom 7.4744911881263327 7.4744911881263185 12.4591910985490291 Zr
atom 2.4999620558995228 2.4866376264354666 17.4740187869421746 Zr
atom 7.5060654315859336 2.4563172623317286 17.4740187869421746 Zr
atom 2.4696416917957857 7.4927410021218659 17.4740187869421746 Zr
atom 7.4829561813170775 7.4696317518530142 17.4740187869421746 Zr
atom 2.7584304938499038 2.8239052977812875 9.9571297431226569 S
atom 7.1687977602401087 2.1978488243813494 9.9571297431226569 S
atom 2.1323740204499679 7.2342725641714960 9.9571297431226569 S
atom 7.7414246192674447 7.8068994231988338 9.9571297431226569 S
atom 2.2245636315676500 2.1590888276362645 14.9612524539754492 S
atom 7.8336142303851481 2.7317156866636028 14.9612524539754492 S
atom 2.7971904905949914 7.7681394264537422 14.9612524539754492 S
atom 7.2075577569852038 7.1420829530538068 14.9612524539754492 S
atom 2.8830477864768431 -0.0150725858020385 12.1398690130441267 S
atom 7.1363700787308497 -0.0383570285705569 12.7785131840539474 S
atom 2.0999463389407138 4.9980667112195842 12.7785131840539474 S
atom 7.8660419118944045 4.9679215396155136 12.1398690130441267 S
atom 2.8832547474378423 -0.0174135758539458 17.7713309493923752 S
atom 7.1296240286348844 -0.0402859778010064 17.1456325282721735 S
atom 2.0932002888447414 4.9961377619891350 17.1456325282721735 S
atom 7.8662488728554028 4.9655805495635921 17.7713309493923752 S
atom -0.0116422213842591 2.1266611461270055 12.1398690130441267 S
atom 4.9946363468018058 2.8563329792905394 12.7785131840539474 S
atom -0.0417873929883361 7.8927567190806895 12.7785131840539474 S
atom 4.9713519040332841 7.1096552715445380 12.1398690130441267 S
atom -0.0093012313323523 2.1264541851660090 17.7713309493923752 S
atom 4.9965652960322622 2.8630790293865083 17.1456325282721735 S
atom -0.0398584437578865 7.8995027691766557 17.1456325282721735 S
atom 4.9736928940851994 7.1094483105835504 17.7713309493923752 S
atom 0.2590030619738738 -0.1883530029633936 19.9204760392252886 Ba
atom 5.1980619355672468 -0.2857178691601709 19.9204760392252886 Ba
atom 0.1616381957770963 4.7507058706299672 19.9204760392252886 Ba
atom 5.2419971873914264 4.7946411224541521 19.9204760392252886 Ba
atom -0.1185292162971850 0.1671429094700718 24.6996769585444831 Ba
atom 4.8425660231337817 0.0918144091108867 24.6996769585444831 Ba
atom -0.1938577166563697 5.1282381489010351 24.6996769585444831 Ba
atom 4.8644649091203691 5.1501370348876172 24.6996769585444831 Ba
atom 2.4797309174456781 2.4976307957733193 22.5254734112319248 Zr
atom 7.4950722622480708 2.4765484007855663 22.5254734112319248 Zr
atom 2.4586485224579322 7.5129721405757124 22.5254734112319248 Zr
atom 7.4627250428632381 7.4806249211908682 22.5254734112319248 Zr
atom 2.7480030465996821 2.7988261513437793 19.9681587321273533 S
atom 7.1938769066776178 2.2082762716315725 19.9681587321273533 S
atom 2.1574531668874708 7.2447000114217150 19.9681587321273533 S
atom 7.7309971720172284 7.7818202767613185 19.9681587321273533 S
atom 2.3167645342240686 2.2343885666855359 25.0308935438458597 S
atom 7.7583144913358622 2.6395147840071806 25.0308935438458597 S
atom 2.7218907515457200 7.6759385237973294 25.0308935438458597 S
atom 7.2997586596416131 7.2173826921030786 25.0308935438458597 S
atom 2.8190311094812111 -0.0198192570950451 22.1475436086901318 S
atom 7.2414059162642701 -0.0432293993722087 22.7001772249594254 S
atom 2.2049821764741266 4.9931943404179293 22.7001772249594254 S
atom 7.8020252348987764 4.9631748683224979 22.1475436086901318 S
atom -0.0068955500912530 2.1906778231226340 22.1475436086901318 S
atom 4.9995087176034616 2.7512971417571226 22.7001772249594254 S
atom -0.0369150221866842 7.7877208815472665 22.7001772249594254 S
atom 4.9760985753262936 7.1736719485401794 22.1475436086901318 S
atom 2.3729678464115924 2.6586399721788454 28.1272932993034814 Ba
atom 7.3340630858425566 2.5833114718196573 28.1272932993034814 Ba
atom 2.2976393460524043 7.6197352116098021 28.1272932993034814 Ba
atom 7.3559619718291502 7.6416340975963868 28.1272932993034814 Ba
atom 2.7505001246826510 2.3031440597453803 32.9064942186226119 Ba
atom 7.6895589982760164 2.2057791935486000 32.9064942186226119 Ba
atom 2.6531352584858729 7.2422029333387448 32.9064942186226119 Ba
atom 7.7334942501002146 7.2861381851629270 32.9064942186226119 Ba
atom 4.9712279801544597 4.9891278584820951 30.3014968466160219 Zr
atom 9.9865693249568501 4.9680454634943390 30.3014968466160219 Zr
atom 4.9501455851667036 10.0044692032845113 30.3014968466160219 Zr
atom 9.9542221055719917 9.9721219838996351 30.3014968466160219 Zr
atom 4.9914591186083053 4.9781346891442375 35.3529514709057509 Zr
atom 9.9975624942947192 4.9478143250405076 35.3529514709057509 Zr
atom 4.9611387545045602 9.9842380648306470 35.3529514709057509 Zr
atom 9.9744532440258400 9.9611288145617838 35.3529514709057509 Zr
atom 4.8082615969328444 4.7258856293943117 27.7960767140020657 S
atom 10.2498115540446459 5.1310118467159516 27.7960767140020657 S
atom 5.2133878142544940 10.1674355865060981 27.7960767140020657 S
atom 9.7912557223504049 9.7088797548118624 27.7960767140020657 S
atom 5.2395001093084632 5.2903232140525560 32.8588115257205970 S
atom 9.6853739693863883 4.6997733343403434 32.8588115257205970 S
atom 4.6489502295962488 9.7361970741304980 32.8588115257205970 S
atom 10.2224942347259748 10.2733173394700916 32.8588115257205970 S
atom 5.3105281721899891 2.4716778056137350 30.6794266491578504 S
atom 9.7329029789730566 2.4482676633365679 30.1267930328885107 S
atom 4.6964792391828993 7.4846914031267033 30.1267930328885107 S
atom 10.2935222976075291 7.4546719310312701 30.6794266491578504 S
atom 5.3747518101466127 2.4740834868548327 35.0556393084555609 S
atom 9.6211210913436691 2.4512110849077686 35.6813377295758301 S
atom 4.5846973515535110 7.4876348246979072 35.6813377295758301 S
atom 10.3577459355641537 7.4570776122723617 35.0556393084555609 S
atom 2.4846015126175147 4.6821748858314072 30.6794266491578504 S
atom 7.4910057803122321 5.2427942044658984 30.1267930328885107 S
atom 2.4545820405220917 10.2792179442560343 30.1267930328885107 S
atom 7.4675956380350792 9.6651690112489668 30.6794266491578504 S
atom 2.4821958313764143 4.6179512478747800 35.0556393084555609 S
atom 7.4880623587410318 5.3545760920952805 35.6813377295758301 S
atom 2.4516386189508910 10.3909998318854324 35.6813377295758301 S
atom 7.4651899567939743 9.6009453732923404 35.0556393084555609 S
atom 2.2157814758596750 2.6730756117377563 37.8720659294934805 Ba
atom 7.3196274462836364 2.7404978423715760 37.8720659294934805 Ba
atom 2.2832037064935000 7.7769215821617195 37.8720659294934805 Ba
atom 7.1987756012772275 7.6560697371553079 37.8720659294934805 Ba
atom 2.7672126495578779 2.3099185136797931 42.8634923891042874 Ba
atom 7.6827845443416001 2.1890666686733700 42.8634923891042874 Ba
atom 2.6463608045514588 7.2254904084635143 42.8634923891042874 Ba
atom 7.7502067749754309 7.2929126390973433 42.8634923891042874 Ba
atom 4.9829941254175498 4.9829941254175534 40.3677791592988768 Zr
atom 9.9927030580214122 4.9562793182312550 40.3677791592988768 Zr
atom 4.9562793182312586 9.9927030580214069 40.3677791592988768 Zr
atom 9.9659882508350996 9.9659882508351068 40.3677791592988768 Zr
atom 4.9745291322267953 4.9878535616908595 45.3826068476920454 Zr
atom 9.9878436217480946 4.9647443114219980 45.3826068476920454 Zr
atom 4.9514198819579498 10.0011680512121206 45.3826068476920454 Zr
atom 9.9575232576443717 9.9708476871084049 45.3826068476920454 Zr
atom 4.7160606942764334 4.6505858903450310 37.8657178038725419 S
atom 10.3251112930939151 5.2232127493723741 37.8657178038725419 S
atom 5.2886875533037809 10.2596364891625065 37.8657178038725419 S
atom 9.6990548196939734 9.6335800157625791 37.8657178038725419 S
atom 5.2499275565586707 5.3154023604900686 42.8698405147252402 S
atom 9.6602948229488739 4.6893458870901306 42.8698405147252402 S
atom 4.6238710831587335 9.7257696268802789 42.8698405147252402 S
atom 10.2329216819761939 10.2983964859075936 42.8698405147252402 S
atom 5.3745448491856234 2.4764244769067334 40.6871012448039124 S
atom 9.6278671414396335 2.4531400341382161 40.0484570737939478 S
atom 4.5914434016494790 7.4895637739283565 40.0484570737939478 S
atom 10.3575389746031536 7.4594186023242868 40.6871012448039124 S
atom 5.3812908992815869 2.4783534261371845 45.0542205890220089 S
atom 9.6276601804786210 2.4554810241901190 45.6799190101422639 S
atom 4.5912364406884816 7.4919047639802754 45.6799190101422639 S
atom 10.3642850246991269 7.4613475515547334 45.0542205890220089 S
atom 2.4798548413245158 4.6181582088357720 40.6871012448039124 S
atom 7.4861334095105914 5.3478300419993223 40.0484570737939478 S
atom 2.4497096697204390 10.3842537817894431 40.0484570737939478 S
atom 7.4628489667420661 9.6011523342533227 40.6871012448039124 S
atom 2.4779258920940648 4.6114121587398067 45.0542205890220089 S
atom 7.4837924194586725 5.3480370029603135 45.6799190101422639 S
atom 2.4473686796685374 10.3844607427504485 45.6799190101422639 S
atom 7.4609200175116204 9.5944062841573672 45.0542205890220089 S
atom 2.2324940007349015 2.6798500656721678 47.8290640999751631 Ba
atom 7.3128529923492334 2.7237853174963491 47.8290640999751631 Ba
atom 2.2764292525590819 7.7602090572864917 47.8290640999751631 Ba
atom 7.2154881261524473 7.6628441910897145 47.8290640999751631 Ba
atom 2.6100262790059525 2.3243541532386995 52.6082650192943930 Ba
atom 7.6683489047826914 2.3462530392252905 52.6082650192943930 Ba
atom 2.6319251649925537 7.3826767790154335 52.6082650192943930 Ba
atom 7.5930204044235037 7.3073482786562547 52.6082650192943930 Ba
atom 4.9947602706806427 4.9768603923529957 50.4340614719817495 Zr
atom 9.9988367910859512 4.9445131729681613 50.4340614719817495 Zr
atom 4.9624130512957985 9.9809369127582883 50.4340614719817495 Zr
atom 9.9777543960981951 9.9598545177705571 50.4340614719817495 Zr
atom 4.7264881415266551 4.6756650367825499 47.8767467928772774 S
atom 10.3000321466564149 5.2127853021221515 47.8767467928772774 S
atom 5.2636084068662639 10.2492090419122821 47.8767467928772774 S
atom 9.7094822669441978 9.6586591622001023 47.8767467928772774 S
atom 5.1577266539022597 5.2401026214407880 52.9394816045957555 S
atom 9.7355945619981572 4.7815467897465460 52.9394816045957555 S
atom 4.6991708222080062 9.8179705295367050 52.9394816045957555 S
atom 10.1407207793197909 10.2230967468583298 52.9394816045957555 S
atom 5.2695090116521932 2.4812968477083825 50.6087652857093886 S
atom 9.6918838184352740 2.4578867054312150 50.0561316694399778 S
atom 4.6554600786450946 7.4943104452213625 50.0561316694399778 S
atom 10.2525031370697288 7.4642909731259346 50.6087652857093886 S
atom 2.4749824705228689 4.7231940463691959 50.6087652857093886 S
atom 7.4813867382175792 5.2838133650036871 50.0561316694399778 S
atom 2.4449629984274375 10.3202371047938080 50.0561316694399778 S
atom 7.4579765959404165 9.7061881717867458 50.6087652857093886 S
