#=======================================================
# FHI-aims file: sym_relax/sym_relax_RP_8_00Mz_000.in
# Created using the Atomic Simulation Environment (ASE)
# Mon Mar 17 15:59:28 2025
#=======================================================
lattice_vector 10.0063454138212720 -0.0000000000000004 0.0000000000000000 
lattice_vector -0.0000000000000004 10.0063454138212720 -0.0000000000000000 
lattice_vector -0.0000000000000000 -0.0000000000000000 86.5187316295310040 
atom 0.0000000000000000 -0.0000000000000000 0.1532496323618612 Ba
atom 5.0031727069106333 -0.0000000000000000 0.1532496323618612 Ba
atom -0.0000000000000000 5.0031727069106333 0.1532496323618612 Ba
atom 5.0031727069106333 5.0031727069106333 0.1532496323618612 Ba
atom -0.0000000000000000 -0.0000000000000000 4.9151878535236406 Ba
atom 5.0031727069106333 -0.0000000000000000 4.9151878535236406 Ba
atom -0.0000000000000000 5.0031727069106333 4.9151878535236406 Ba
atom 5.0031727069106333 5.0031727069106333 4.9151878535236406 Ba
atom 2.5015863534553167 2.5015863534553167 2.2893878307027631 Zr
atom 7.5047590603659495 2.5015863534553167 2.2893878307027631 Zr
atom 2.5015863534553167 7.5047590603659495 2.2893878307027631 Zr
atom 7.5047590603659495 7.5047590603659495 2.2893878307027631 Zr
atom 2.5015863534553167 2.5015863534553167 7.4029356801721651 Zr
atom 7.5047590603659495 2.5015863534553167 7.4029356801721651 Zr
atom 2.5015863534553167 7.5047590603659495 7.4029356801721651 Zr
atom 7.5047590603659495 7.5047590603659495 7.4029356801721651 Zr
atom 2.5015863534553167 2.5015863534553167 -0.2204822254882237 S
atom 7.5047590603659495 2.5015863534553167 -0.2204822254882237 S
atom 2.5015863534553167 7.5047590603659495 -0.2204822254882237 S
atom 7.5047590603659495 7.5047590603659495 -0.2204822254882237 S
atom 2.5015863534553167 2.5015863534553167 4.8912279332303079 S
atom 7.5047590603659495 2.5015863534553167 4.8912279332303079 S
atom 2.5015863534553167 7.5047590603659495 4.8912279332303079 S
atom 7.5047590603659495 7.5047590603659495 4.8912279332303079 S
atom 2.2236839551516536 0.0000000000000005 2.4144556264789663 S
atom 7.7826614586696090 -0.0000000000000000 2.4144556264789663 S
atom 2.7794887517589806 5.0031727069106333 2.4144556264789663 S
atom 7.2268566620622918 5.0031727069106333 2.4144556264789663 S
atom 2.9944858305108748 0.0000000000000005 7.4251022903526493 S
atom 7.0118595833103878 -0.0000000000000000 7.4251022903526511 S
atom 2.0086868763997590 5.0031727069106333 7.4251022903526511 S
atom 7.9976585374215015 5.0031727069106333 7.4251022903526493 S
atom -0.0000000000000000 2.7794887517589810 2.4144556264789663 S
atom 5.0031727069106333 2.2236839551516536 2.4144556264789663 S
atom 0.0000000000000000 7.2268566620622918 2.4144556264789663 S
atom 5.0031727069106333 7.7826614586696117 2.4144556264789663 S
atom -0.0000000000000000 2.0086868763997581 7.4251022903526529 S
atom 5.0031727069106333 2.9944858305108784 7.4251022903526493 S
atom 0.0000000000000000 7.9976585374215023 7.4251022903526493 S
atom 5.0031727069106333 7.0118595833103878 7.4251022903526529 S
atom -0.0000000000000000 -0.0000000000000000 9.9745273021504470 Ba
atom 5.0031727069106333 -0.0000000000000000 9.9745273021504470 Ba
atom -0.0000000000000000 5.0031727069106333 9.9745273021504470 Ba
atom 5.0031727069106333 5.0031727069106333 9.9745273021504470 Ba
atom 0.0000000000000000 -0.0000000000000000 15.0444546304588158 Ba
atom 5.0031727069106333 -0.0000000000000000 15.0444546304588158 Ba
atom -0.0000000000000000 5.0031727069106333 15.0444546304588158 Ba
atom 5.0031727069106333 5.0031727069106333 15.0444546304588158 Ba
atom 2.5015863534553167 2.5015863534553167 12.4918398673669611 Zr
atom 7.5047590603659495 2.5015863534553167 12.4918398673669611 Zr
atom 2.5015863534553167 7.5047590603659495 12.4918398673669611 Zr
atom 7.5047590603659495 7.5047590603659495 12.4918398673669611 Zr
atom 2.5015863534553167 2.5015863534553167 17.5780458523243617 Zr
atom 7.5047590603659495 2.5015863534553167 17.5780458523243617 Zr
atom 2.5015863534553167 7.5047590603659495 17.5780458523243617 Zr
atom 7.5047590603659495 7.5047590603659495 17.5780458523243617 Zr
atom 2.5015863534553167 2.5015863534553167 9.9622607876837392 S
atom 7.5047590603659495 2.5015863534553167 9.9622607876837392 S
atom 2.5015863534553167 7.5047590603659495 9.9622607876837392 S
atom 7.5047590603659495 7.5047590603659495 9.9622607876837392 S
atom 2.5015863534553167 2.5015863534553167 15.0416943080744279 S
atom 7.5047590603659495 2.5015863534553167 15.0416943080744279 S
atom 2.5015863534553167 7.5047590603659495 15.0416943080744314 S
atom 7.5047590603659495 7.5047590603659495 15.0416943080744314 S
atom 2.9653027605866611 0.0000000000000005 12.5101872137126833 S
atom 7.0410426532346131 -0.0000000000000000 12.5101872137126833 S
atom 2.0378699463239691 5.0031727069106333 12.5101872137126833 S
atom 7.9684754674972895 5.0031727069106333 12.5101872137126833 S
atom 2.9694204434701437 0.0000000000000005 17.5824976658568843 S
atom 7.0369249703511176 -0.0000000000000000 17.5824976658568843 S
atom 2.0337522634404883 5.0031727069106333 17.5824976658568843 S
atom 7.9725931503807814 5.0031727069106333 17.5824976658568843 S
atom -0.0000000000000000 2.0378699463239691 12.5101872137126904 S
atom 5.0031727069106333 2.9653027605866638 12.5101872137126904 S
atom 0.0000000000000000 7.9684754674972904 12.5101872137126904 S
atom 5.0031727069106333 7.0410426532346122 12.5101872137126904 S
atom -0.0000000000000000 2.0337522634404874 17.5824976658568843 S
atom 5.0031727069106333 2.9694204434701446 17.5824976658568843 S
atom 0.0000000000000000 7.9725931503807814 17.5824976658568843 S
atom 5.0031727069106333 7.0369249703511167 17.5824976658568843 S
atom -0.0000000000000000 -0.0000000000000000 20.1206352626816454 Ba
atom 5.0031727069106333 -0.0000000000000000 20.1206352626816454 Ba
atom -0.0000000000000000 5.0031727069106333 20.1206352626816454 Ba
atom 5.0031727069106333 5.0031727069106333 20.1206352626816454 Ba
atom -0.0000000000000000 -0.0000000000000000 25.1968158949044785 Ba
atom 5.0031727069106333 -0.0000000000000000 25.1968158949044785 Ba
atom -0.0000000000000000 5.0031727069106333 25.1968158949044785 Ba
atom 5.0031727069106333 5.0031727069106333 25.1968158949044785 Ba
atom 2.5015863534553167 2.5015863534553167 22.6632246730389078 Zr
atom 7.5047590603659495 2.5015863534553167 22.6632246730389078 Zr
atom 2.5015863534553167 7.5047590603659495 22.6632246730389078 Zr
atom 7.5047590603659495 7.5047590603659495 22.6632246730389078 Zr
atom 2.5015863534553167 2.5015863534553167 27.7494306579963137 Zr
atom 7.5047590603659495 2.5015863534553167 27.7494306579963137 Zr
atom 2.5015863534553167 7.5047590603659495 27.7494306579963137 Zr
atom 7.5047590603659495 7.5047590603659495 27.7494306579963137 Zr
atom 2.5015863534553167 2.5015863534553167 20.1206352626816454 S
atom 7.5047590603659495 2.5015863534553167 20.1206352626816454 S
atom 2.5015863534553167 7.5047590603659495 20.1206352626816454 S
atom 7.5047590603659495 7.5047590603659495 20.1206352626816454 S
atom 2.5015863534553167 2.5015863534553167 25.1995762172888753 S
atom 7.5047590603659495 2.5015863534553167 25.1995762172888753 S
atom 2.5015863534553167 7.5047590603659495 25.1995762172888753 S
atom 7.5047590603659495 7.5047590603659495 25.1995762172888753 S
atom 2.9694204434701437 0.0000000000000005 22.6587728595063851 S
atom 7.0369249703511176 -0.0000000000000000 22.6587728595063851 S
atom 2.0337522634404883 5.0031727069106333 22.6587728595063851 S
atom 7.9725931503807814 5.0031727069106333 22.6587728595063851 S
atom 2.9653027605866611 0.0000000000000005 27.7310833116506039 S
atom 7.0410426532346131 -0.0000000000000000 27.7310833116506039 S
atom 2.0378699463239691 5.0031727069106333 27.7310833116506039 S
atom 7.9684754674972895 5.0031727069106333 27.7310833116506039 S
atom -0.0000000000000000 2.0337522634404874 22.6587728595063851 S
atom 5.0031727069106333 2.9694204434701446 22.6587728595063851 S
atom 0.0000000000000000 7.9725931503807814 22.6587728595063851 S
atom 5.0031727069106333 7.0369249703511167 22.6587728595063851 S
atom -0.0000000000000000 2.0378699463239691 27.7310833116506039 S
atom 5.0031727069106333 2.9653027605866638 27.7310833116506039 S
atom 0.0000000000000000 7.9684754674972904 27.7310833116506039 S
atom 5.0031727069106333 7.0410426532346104 27.7310833116506039 S
atom -0.0000000000000000 -0.0000000000000000 30.2667432232128384 Ba
atom 5.0031727069106333 -0.0000000000000000 30.2667432232128384 Ba
atom -0.0000000000000000 5.0031727069106333 30.2667432232128384 Ba
atom 5.0031727069106333 5.0031727069106333 30.2667432232128384 Ba
atom -0.0000000000000000 -0.0000000000000000 35.3260826718395649 Ba
atom 5.0031727069106333 -0.0000000000000000 35.3260826718395649 Ba
atom -0.0000000000000000 5.0031727069106333 35.3260826718395649 Ba
atom 5.0031727069106333 5.0031727069106333 35.3260826718395649 Ba
atom 2.5015863534553167 2.5015863534553167 32.8383348451911559 Zr
atom 7.5047590603659495 2.5015863534553167 32.8383348451911559 Zr
atom 2.5015863534553167 7.5047590603659495 32.8383348451911559 Zr
atom 7.5047590603659495 7.5047590603659495 32.8383348451911559 Zr
atom 2.5015863534553167 2.5015863534553167 37.9518826946605259 Zr
atom 7.5047590603659495 2.5015863534553167 37.9518826946605259 Zr
atom 2.5015863534553167 7.5047590603659495 37.9518826946605259 Zr
atom 7.5047590603659495 7.5047590603659495 37.9518826946605259 Zr
atom 2.5015863534553167 2.5015863534553167 30.2790097376795444 S
atom 7.5047590603659495 2.5015863534553167 30.2790097376795444 S
atom 2.5015863534553167 7.5047590603659495 30.2790097376795444 S
atom 7.5047590603659495 7.5047590603659495 30.2790097376795444 S
atom 2.5015863534553167 2.5015863534553167 35.3500425921329011 S
atom 7.5047590603659495 2.5015863534553167 35.3500425921329011 S
atom 2.5015863534553167 7.5047590603659495 35.3500425921329011 S
atom 7.5047590603659495 7.5047590603659495 35.3500425921329011 S
atom 2.9944858305108748 0.0000000000000004 32.8161682350106361 S
atom 7.0118595833103878 -0.0000000000000000 32.8161682350106503 S
atom 2.0086868763997590 5.0031727069106333 32.8161682350106503 S
atom 7.9976585374215015 5.0031727069106333 32.8161682350106361 S
atom 2.2236839551516536 0.0000000000000005 37.8268148988843578 S
atom 7.7826614586696090 -0.0000000000000001 37.8268148988843578 S
atom 2.7794887517589806 5.0031727069106333 37.8268148988843578 S
atom 7.2268566620622918 5.0031727069106333 37.8268148988843578 S
atom -0.0000000000000000 2.0086868763997581 32.8161682350106361 S
atom 5.0031727069106333 2.9944858305108784 32.8161682350106503 S
atom 0.0000000000000000 7.9976585374215023 32.8161682350106503 S
atom 5.0031727069106333 7.0118595833103878 32.8161682350106361 S
atom -0.0000000000000000 2.7794887517589810 37.8268148988843578 S
atom 5.0031727069106333 2.2236839551516536 37.8268148988843578 S
atom 0.0000000000000000 7.2268566620622918 37.8268148988843578 S
atom 5.0031727069106333 7.7826614586696117 37.8268148988843578 S
atom -0.0000000000000000 -0.0000000000000000 40.0880208930014703 Ba
atom 5.0031727069106333 -0.0000000000000000 40.0880208930014703 Ba
atom -0.0000000000000000 5.0031727069106333 40.0880208930014703 Ba
atom 5.0031727069106333 5.0031727069106333 40.0880208930014703 Ba
atom 2.5015863534553167 2.5015863534553167 40.4617527508516019 S
atom 7.5047590603659495 2.5015863534553167 40.4617527508516019 S
atom 2.5015863534553167 7.5047590603659495 40.4617527508516019 S
atom 7.5047590603659495 7.5047590603659495 40.4617527508516019 S
atom 2.5015863534553167 2.5015863534553167 43.5938800183209452 Ba
atom 7.5047590603659495 2.5015863534553167 43.5938800183209452 Ba
atom 2.5015863534553167 7.5047590603659495 43.5938800183209452 Ba
atom 7.5047590603659495 7.5047590603659495 43.5938800183209452 Ba
atom 2.5015863534553167 2.5015863534553167 48.4031106329964018 Ba
atom 7.5047590603659495 2.5015863534553167 48.4031106329964018 Ba
atom 2.5015863534553167 7.5047590603659495 48.4031106329964018 Ba
atom 7.5047590603659495 7.5047590603659495 48.4031106329964018 Ba
atom 5.0031727069106333 5.0031727069106333 45.6619230426346405 Zr
atom 10.0063454138212666 5.0031727069106333 45.6619230426346405 Zr
atom 5.0031727069106333 10.0063454138212666 45.6619230426346405 Zr
atom 10.0063454138212666 10.0063454138212666 45.6619230426346405 Zr
atom 5.0031727069106333 5.0031727069106333 50.7509252622369900 Zr
atom 10.0063454138212666 5.0031727069106333 50.7509252622369900 Zr
atom 5.0031727069106333 10.0063454138212666 50.7509252622369900 Zr
atom 10.0063454138212666 10.0063454138212666 50.7509252622369900 Zr
atom 5.0031727069106333 5.0031727069106333 43.1567092031889814 S
atom 10.0063454138212666 5.0031727069106333 43.1567092031889814 S
atom 5.0031727069106333 10.0063454138212666 43.1567092031889814 S
atom 10.0063454138212666 10.0063454138212666 43.1567092031889814 S
atom 5.0031727069106333 5.0031727069106333 48.2473197574768733 S
atom 10.0063454138212666 5.0031727069106333 48.2473197574768733 S
atom 5.0031727069106333 10.0063454138212666 48.2473197574768733 S
atom 10.0063454138212666 10.0063454138212666 48.2473197574768733 S
atom 5.0031727069106333 2.5015846586255610 45.7725556005764460 S
atom 10.0063454138212666 2.5015880482850710 45.7725556005764460 S
atom 5.0031727069106333 7.5047607551956936 45.7725556005764460 S
atom 10.0063454138212666 7.5047573655361992 45.7725556005764460 S
atom 5.0031727069106333 2.5015858614721069 50.7780943746285516 S
atom 10.0063454138212666 2.5015868454385251 50.7780943746285516 S
atom 5.0031727069106333 7.5047595523491646 50.7780943746285516 S
atom 10.0063454138212666 7.5047585683827363 50.7780943746285516 S
atom 2.5015880482850736 5.0031727069106333 45.7725556005764460 S
atom 7.5047573655361983 5.0031727069106333 45.7725556005764460 S
atom 2.5015846586255601 10.0063454138212666 45.7725556005764460 S
atom 7.5047607551956936 10.0063454138212666 45.7725556005764460 S
atom 2.5015868454385233 5.0031727069106333 50.7780943746285516 S
atom 7.5047585683827354 5.0031727069106333 50.7780943746285516 S
atom 2.5015858614721060 10.0063454138212666 50.7780943746285516 S
atom 7.5047595523491655 10.0063454138212666 50.7780943746285516 S
atom 2.5015863534553167 2.5015863534553167 53.3585613436552109 Ba
atom 7.5047590603659495 2.5015863534553167 53.3585613436552109 Ba
atom 2.5015863534553167 7.5047590603659495 53.3585613436552109 Ba
atom 7.5047590603659495 7.5047590603659495 53.3585613436552109 Ba
atom 2.5015863534553167 2.5015863534553167 58.3626455012078438 Ba
atom 7.5047590603659495 2.5015863534553167 58.3626455012078438 Ba
atom 2.5015863534553167 7.5047590603659495 58.3626455012078438 Ba
atom 7.5047590603659495 7.5047590603659495 58.3626455012078438 Ba
atom 5.0031727069106333 5.0031727069106333 55.8058190598567023 Zr
atom 10.0063454138212666 5.0031727069106333 55.8058190598567023 Zr
atom 5.0031727069106333 10.0063454138212666 55.8058190598567023 Zr
atom 10.0063454138212666 10.0063454138212666 55.8058190598567023 Zr
atom 5.0031727069106333 5.0031727069106333 60.8557525583240846 Zr
atom 10.0063454138212666 5.0031727069106333 60.8557525583240846 Zr
atom 5.0031727069106333 10.0063454138212666 60.8557525583240846 Zr
atom 10.0063454138212666 10.0063454138212666 60.8557525583240846 Zr
atom 5.0031727069106333 5.0031727069106333 53.2913810814144853 S
atom 10.0063454138212666 5.0031727069106333 53.2913810814144853 S
atom 5.0031727069106333 10.0063454138212666 53.2913810814144853 S
atom 10.0063454138212666 10.0063454138212666 53.2913810814144853 S
atom 5.0031727069106333 5.0031727069106333 58.3353731735389047 S
atom 10.0063454138212666 5.0031727069106333 58.3353731735389047 S
atom 5.0031727069106333 10.0063454138212666 58.3353731735389047 S
atom 10.0063454138212666 10.0063454138212666 58.3353731735389047 S
atom 5.0031727069106333 2.5015864403294126 55.8178687090151868 S
atom 10.0063454138212666 2.5015862665812154 55.8178687090151868 S
atom 5.0031727069106333 7.5047589734918549 55.8178687090151868 S
atom 10.0063454138212666 7.5047591472400468 55.8178687090151868 S
atom 5.0031727069106333 2.5015863494912076 60.8584613590338890 S
atom 10.0063454138212666 2.5015863574194279 60.8584613590338890 S
atom 5.0031727069106333 7.5047590643300683 60.8584613590338890 S
atom 10.0063454138212666 7.5047590564018334 60.8584613590338890 S
atom 2.5015862665812163 5.0031727069106333 55.8178687090151868 S
atom 7.5047591472400468 5.0031727069106333 55.8178687090151868 S
atom 2.5015864403294144 10.0063454138212666 55.8178687090151868 S
atom 7.5047589734918532 10.0063454138212666 55.8178687090151868 S
atom 2.5015863574194279 5.0031727069106333 60.8584613590338890 S
atom 7.5047590564018325 5.0031727069106333 60.8584613590338890 S
atom 2.5015863494912067 10.0063454138212666 60.8584613590338890 S
atom 7.5047590643300683 10.0063454138212666 60.8584613590338890 S
atom 2.5015863534553167 2.5015863534553167 63.3800010774471545 Ba
atom 7.5047590603659495 2.5015863534553167 63.3800010774471545 Ba
atom 2.5015863534553167 7.5047590603659495 63.3800010774471545 Ba
atom 7.5047590603659495 7.5047590603659495 63.3800010774471545 Ba
atom 2.5015863534553167 2.5015863534553167 68.3973566536865860 Ba
atom 7.5047590603659495 2.5015863534553167 68.3973566536865860 Ba
atom 2.5015863534553167 7.5047590603659495 68.3973566536865860 Ba
atom 7.5047590603659495 7.5047590603659495 68.3973566536865860 Ba
atom 5.0031727069106333 5.0031727069106333 65.9042495965702386 Zr
atom 10.0063454138212666 5.0031727069106333 65.9042495965702386 Zr
atom 5.0031727069106333 10.0063454138212666 65.9042495965702386 Zr
atom 10.0063454138212666 10.0063454138212666 65.9042495965702386 Zr
atom 5.0031727069106333 5.0031727069106333 70.9541830950376493 Zr
atom 10.0063454138212666 5.0031727069106333 70.9541830950376493 Zr
atom 5.0031727069106333 10.0063454138212666 70.9541830950376493 Zr
atom 10.0063454138212666 10.0063454138212666 70.9541830950376493 Zr
atom 5.0031727069106333 5.0031727069106333 63.3800010774471545 S
atom 10.0063454138212666 5.0031727069106333 63.3800010774471545 S
atom 5.0031727069106333 10.0063454138212666 63.3800010774471545 S
atom 10.0063454138212666 10.0063454138212666 63.3800010774471545 S
atom 5.0031727069106333 5.0031727069106333 68.4246289813552693 S
atom 10.0063454138212666 5.0031727069106333 68.4246289813552693 S
atom 5.0031727069106333 10.0063454138212666 68.4246289813552693 S
atom 10.0063454138212666 10.0063454138212666 68.4246289813552693 S
atom 5.0031727069106333 2.5015863494912089 65.9015407958604129 S
atom 10.0063454138212666 2.5015863574194293 65.9015407958604129 S
atom 5.0031727069106333 7.5047590643300657 65.9015407958604129 S
atom 10.0063454138212666 7.5047590564018307 65.9015407958604129 S
atom 5.0031727069106333 2.5015864403294144 70.9421334458791506 S
atom 10.0063454138212666 2.5015862665812172 70.9421334458791506 S
atom 5.0031727069106333 7.5047589734918523 70.9421334458791506 S
atom 10.0063454138212666 7.5047591472400441 70.9421334458791506 S
atom 2.5015863574194288 5.0031727069106333 65.9015407958604129 S
atom 7.5047590564018298 5.0031727069106333 65.9015407958604129 S
atom 2.5015863494912085 10.0063454138212666 65.9015407958604129 S
atom 7.5047590643300692 10.0063454138212666 65.9015407958604129 S
atom 2.5015862665812163 5.0031727069106333 70.9421334458791506 S
atom 7.5047591472400477 5.0031727069106333 70.9421334458791506 S
atom 2.5015864403294135 10.0063454138212666 70.9421334458791506 S
atom 7.5047589734918514 10.0063454138212666 70.9421334458791506 S
atom 2.5015863534553167 2.5015863534553167 73.4014408112390981 Ba
atom 7.5047590603659495 2.5015863534553167 73.4014408112390981 Ba
atom 2.5015863534553167 7.5047590603659495 73.4014408112390981 Ba
atom 7.5047590603659495 7.5047590603659495 73.4014408112390981 Ba
atom 2.5015863534553167 2.5015863534553167 78.3568915218978788 Ba
atom 7.5047590603659495 2.5015863534553167 78.3568915218978788 Ba
atom 2.5015863534553167 7.5047590603659495 78.3568915218978788 Ba
atom 7.5047590603659495 7.5047590603659495 78.3568915218978788 Ba
atom 5.0031727069106333 5.0031727069106333 76.0090768926574185 Zr
atom 10.0063454138212666 5.0031727069106333 76.0090768926574185 Zr
atom 5.0031727069106333 10.0063454138212666 76.0090768926574185 Zr
atom 10.0063454138212666 10.0063454138212666 76.0090768926574185 Zr
atom 5.0031727069106333 5.0031727069106333 81.0980791122596258 Zr
atom 10.0063454138212666 5.0031727069106333 81.0980791122596258 Zr
atom 5.0031727069106333 10.0063454138212666 81.0980791122596258 Zr
atom 10.0063454138212666 10.0063454138212666 81.0980791122596258 Zr
atom 5.0031727069106333 5.0031727069106333 73.4686210734799516 S
atom 10.0063454138212666 5.0031727069106333 73.4686210734799516 S
atom 5.0031727069106333 10.0063454138212666 73.4686210734799516 S
atom 10.0063454138212666 10.0063454138212666 73.4686210734799516 S
atom 5.0031727069106333 5.0031727069106333 78.5126823974175210 S
atom 10.0063454138212666 5.0031727069106333 78.5126823974175210 S
atom 5.0031727069106333 10.0063454138212666 78.5126823974175210 S
atom 10.0063454138212666 10.0063454138212666 78.5126823974175210 S
atom 5.0031727069106333 2.5015858614721060 75.9819077802656864 S
atom 10.0063454138212666 2.5015868454385242 75.9819077802656864 S
atom 5.0031727069106333 7.5047595523491655 75.9819077802656864 S
atom 10.0063454138212666 7.5047585683827371 75.9819077802656864 S
atom 5.0031727069106333 2.5015846586255628 80.9874465543178701 S
atom 10.0063454138212666 2.5015880482850736 80.9874465543178701 S
atom 5.0031727069106333 7.5047607551956954 80.9874465543178701 S
atom 10.0063454138212666 7.5047573655362010 80.9874465543178701 S
atom 2.5015868454385233 5.0031727069106333 75.9819077802656864 S
atom 7.5047585683827345 5.0031727069106333 75.9819077802656864 S
atom 2.5015858614721069 10.0063454138212666 75.9819077802656864 S
atom 7.5047595523491664 10.0063454138212666 75.9819077802656864 S
atom 2.5015880482850728 5.0031727069106333 80.9874465543178701 S
atom 7.5047573655361983 5.0031727069106333 80.9874465543178701 S
atom 2.5015846586255601 10.0063454138212666 80.9874465543178701 S
atom 7.5047607551956936 10.0063454138212666 80.9874465543178701 S
atom 2.5015863534553167 2.5015863534553167 83.1661221365733923 Ba
atom 7.5047590603659495 2.5015863534553167 83.1661221365733923 Ba
atom 2.5015863534553167 7.5047590603659495 83.1661221365733923 Ba
atom 7.5047590603659495 7.5047590603659495 83.1661221365733923 Ba
atom 5.0031727069106333 5.0031727069106333 83.6032929517053702 S
atom 10.0063454138212666 5.0031727069106333 83.6032929517053702 S
atom 5.0031727069106333 10.0063454138212666 83.6032929517053702 S
atom 10.0063454138212666 10.0063454138212666 83.6032929517053702 S
