#=======================================================
# FHI-aims file: sym_relax/sym_relax_RP_3_00Mz_000.in
# Created using the Atomic Simulation Environment (ASE)
# Fri Mar 14 10:22:25 2025
#=======================================================
lattice_vector 10.0216973353034629 -0.0000000000000004 -0.0000000000000000 
lattice_vector -0.0000000000000004 10.0216973353034629 -0.0000000000000000 
lattice_vector 0.0000000000000000 -0.0000000000000000 35.8364232453239921 
atom -0.0000000000000000 -0.0000000000000000 0.2188796574749043 Ba
atom 5.0108486676517305 -0.0000000000000000 0.2188796574749043 Ba
atom -0.0000000000000000 5.0108486676517305 0.2188796574749043 Ba
atom 5.0108486676517305 5.0108486676517305 0.2188796574749043 Ba
atom 0.0000000000000000 -0.0000000000000000 4.9491139860561901 Ba
atom 5.0108486676517305 -0.0000000000000000 4.9491139860561901 Ba
atom -0.0000000000000000 5.0108486676517305 4.9491139860561901 Ba
atom 5.0108486676517305 5.0108486676517305 4.9491139860561901 Ba
atom 2.5054243338258653 2.5054243338258653 2.3514327595808258 Zr
atom 7.5162730014775940 2.5054243338258653 2.3514327595808258 Zr
atom 2.5054243338258653 7.5162730014775940 2.3514327595808258 Zr
atom 7.5162730014775940 7.5162730014775940 2.3514327595808258 Zr
atom 2.5054243338258653 2.5054243338258653 7.4659215094424951 Zr
atom 7.5162730014775940 2.5054243338258653 7.4659215094424951 Zr
atom 2.5054243338258653 7.5162730014775940 7.4659215094424951 Zr
atom 7.5162730014775940 7.5162730014775940 7.4659215094424951 Zr
atom 2.5054243338258653 2.5054243338258653 -0.1626111786181224 S
atom 7.5162730014775940 2.5054243338258653 -0.1626111786181224 S
atom 2.5054243338258653 7.5162730014775940 -0.1626111786181224 S
atom 7.5162730014775940 7.5162730014775940 -0.1626111786181224 S
atom 2.5054243338258653 2.5054243338258653 4.9388160656247120 S
atom 7.5162730014775940 2.5054243338258653 4.9388160656247120 S
atom 2.5054243338258653 7.5162730014775940 4.9388160656247120 S
atom 7.5162730014775940 7.5162730014775940 4.9388160656247120 S
atom 2.2593816966986062 0.0000000000000005 2.4570568277043536 S
atom 7.7623156386048491 -0.0000000000000000 2.4570568277043536 S
atom 2.7514669709531199 5.0108486676517305 2.4570568277043536 S
atom 7.2702303643503301 5.0108486676517305 2.4570568277043536 S
atom 3.0171515644481985 0.0000000000000005 7.4659215094424951 S
atom 7.0045457708552608 -0.0000000000000000 7.4659215094424951 S
atom 1.9936971032035289 5.0108486676517305 7.4659215094424951 S
atom 8.0280002320999255 5.0108486676517305 7.4659215094424951 S
atom -0.0000000000000000 2.7514669709531190 2.4570568277043536 S
atom 5.0108486676517305 2.2593816966986089 2.4570568277043536 S
atom 0.0000000000000000 7.2702303643503301 2.4570568277043536 S
atom 5.0108486676517305 7.7623156386048500 2.4570568277043536 S
atom -0.0000000000000000 1.9936971032035298 7.4659215094424951 S
atom 5.0108486676517305 3.0171515644481994 7.4659215094424951 S
atom 0.0000000000000000 8.0280002320999255 7.4659215094424951 S
atom 5.0108486676517305 7.0045457708552608 7.4659215094424951 S
atom 0.0000000000000000 -0.0000000000000000 9.9827290328287930 Ba
atom 5.0108486676517305 -0.0000000000000000 9.9827290328287930 Ba
atom -0.0000000000000000 5.0108486676517305 9.9827290328287930 Ba
atom 5.0108486676517305 5.0108486676517305 9.9827290328287930 Ba
atom 0.0000000000000000 -0.0000000000000000 14.7129633614100772 Ba
atom 5.0108486676517305 -0.0000000000000000 14.7129633614100772 Ba
atom -0.0000000000000000 5.0108486676517305 14.7129633614100772 Ba
atom 5.0108486676517305 5.0108486676517305 14.7129633614100772 Ba
atom 2.5054243338258653 2.5054243338258653 12.5804102593041556 Zr
atom 7.5162730014775940 2.5054243338258653 12.5804102593041556 Zr
atom 2.5054243338258653 7.5162730014775940 12.5804102593041556 Zr
atom 7.5162730014775940 7.5162730014775940 12.5804102593041556 Zr
atom 2.5054243338258653 2.5054243338258653 9.9930269532602765 S
atom 7.5162730014775940 2.5054243338258653 9.9930269532602765 S
atom 2.5054243338258653 7.5162730014775940 9.9930269532602765 S
atom 7.5162730014775940 7.5162730014775940 9.9930269532602765 S
atom 2.5054243338258653 2.5054243338258653 15.0944541975031044 S
atom 7.5162730014775940 2.5054243338258653 15.0944541975031044 S
atom 2.5054243338258653 7.5162730014775940 15.0944541975031044 S
atom 7.5162730014775940 7.5162730014775940 15.0944541975031044 S
atom 2.2593816966986062 0.0000000000000005 12.4747861911806410 S
atom 7.7623156386048491 -0.0000000000000000 12.4747861911806410 S
atom 2.7514669709531199 5.0108486676517305 12.4747861911806410 S
atom 7.2702303643503301 5.0108486676517305 12.4747861911806410 S
atom -0.0000000000000000 2.7514669709531190 12.4747861911806410 S
atom 5.0108486676517305 2.2593816966986089 12.4747861911806410 S
atom 0.0000000000000000 7.2702303643503301 12.4747861911806410 S
atom 5.0108486676517305 7.7623156386048500 12.4747861911806410 S
atom 2.5054243338258653 2.5054243338258653 18.2113885563036710 Ba
atom 7.5162730014775940 2.5054243338258653 18.2113885563036639 Ba
atom 2.5054243338258653 7.5162730014775940 18.2113885563036639 Ba
atom 7.5162730014775940 7.5162730014775940 18.2113885563036639 Ba
atom 2.5054243338258653 2.5054243338258653 22.9643031405756766 Ba
atom 7.5162730014775940 2.5054243338258653 22.9643031405756766 Ba
atom 2.5054243338258653 7.5162730014775940 22.9643031405756766 Ba
atom 7.5162730014775940 7.5162730014775940 22.9643031405756766 Ba
atom 5.0108486676517305 5.0108486676517305 20.2910038265797574 Zr
atom 10.0216973353034611 5.0108486676517305 20.2910038265797574 Zr
atom 5.0108486676517305 10.0216973353034611 20.2910038265797574 Zr
atom 10.0216973353034611 10.0216973353034611 20.2910038265797574 Zr
atom 5.0108486676517305 5.0108486676517305 25.3841331321045161 Zr
atom 10.0216973353034611 5.0108486676517305 25.3841331321045161 Zr
atom 5.0108486676517305 10.0216973353034611 25.3841331321045161 Zr
atom 10.0216973353034611 10.0216973353034611 25.3841331321045161 Zr
atom 5.0108486676517305 5.0108486676517305 17.7856588985856732 S
atom 10.0216973353034611 5.0108486676517305 17.7856588985856732 S
atom 5.0108486676517305 10.0216973353034611 17.7856588985856732 S
atom 10.0216973353034611 10.0216973353034611 17.7856588985856732 S
atom 5.0108486676517305 5.0108486676517305 22.8676579107061180 S
atom 10.0216973353034611 5.0108486676517305 22.8676579107061180 S
atom 5.0108486676517305 10.0216973353034611 22.8676579107061180 S
atom 10.0216973353034611 10.0216973353034611 22.8676579107061180 S
atom 5.0108486676517305 2.5054278350545376 20.3960339933345125 S
atom 10.0216973353034611 2.5054208325971912 20.3960339933345125 S
atom 5.0108486676517305 7.5162695002489164 20.3960339933345125 S
atom 10.0216973353034611 7.5162765027062655 20.3960339933345125 S
atom 5.0108486676517305 2.5054227012692891 25.3841331321045161 S
atom 10.0216973353034611 2.5054259663824427 25.3841331321045161 S
atom 5.0108486676517305 7.5162746340341711 25.3841331321045161 S
atom 10.0216973353034611 7.5162713689210108 25.3841331321045161 S
atom 2.5054208325971921 5.0108486676517305 20.3960339933345125 S
atom 7.5162765027062646 5.0108486676517305 20.3960339933345125 S
atom 2.5054278350545385 10.0216973353034611 20.3960339933345125 S
atom 7.5162695002489164 10.0216973353034611 20.3960339933345125 S
atom 2.5054259663824419 5.0108486676517305 25.3841331321045161 S
atom 7.5162713689210099 5.0108486676517305 25.3841331321045161 S
atom 2.5054227012692891 10.0216973353034611 25.3841331321045161 S
atom 7.5162746340341720 10.0216973353034611 25.3841331321045161 S
atom 2.5054243338258653 2.5054243338258653 27.8039631236332880 Ba
atom 7.5162730014775940 2.5054243338258653 27.8039631236332880 Ba
atom 2.5054243338258653 7.5162730014775940 27.8039631236332880 Ba
atom 7.5162730014775940 7.5162730014775940 27.8039631236332880 Ba
atom 2.5054243338258653 2.5054243338258653 32.5568777079052936 Ba
atom 7.5162730014775940 2.5054243338258653 32.5568777079052936 Ba
atom 2.5054243338258653 7.5162730014775940 32.5568777079052936 Ba
atom 7.5162730014775940 7.5162730014775940 32.5568777079052936 Ba
atom 5.0108486676517305 5.0108486676517305 30.4772624376292214 Zr
atom 10.0216973353034611 5.0108486676517305 30.4772624376292214 Zr
atom 5.0108486676517305 10.0216973353034611 30.4772624376292214 Zr
atom 10.0216973353034611 10.0216973353034611 30.4772624376292214 Zr
atom 5.0108486676517305 5.0108486676517305 27.9006083535028750 S
atom 10.0216973353034611 5.0108486676517305 27.9006083535028750 S
atom 5.0108486676517305 10.0216973353034611 27.9006083535028750 S
atom 10.0216973353034611 10.0216973353034611 27.9006083535028750 S
atom 5.0108486676517305 5.0108486676517305 32.9826073656233589 S
atom 10.0216973353034611 5.0108486676517305 32.9826073656233589 S
atom 5.0108486676517305 10.0216973353034611 32.9826073656233589 S
atom 10.0216973353034611 10.0216973353034611 32.9826073656233589 S
atom 5.0108486676517305 2.5054278350545376 30.3722322708744841 S
atom 10.0216973353034611 2.5054208325971912 30.3722322708744841 S
atom 5.0108486676517305 7.5162695002489164 30.3722322708744841 S
atom 10.0216973353034611 7.5162765027062655 30.3722322708744841 S
atom 2.5054208325971921 5.0108486676517305 30.3722322708744841 S
atom 7.5162765027062646 5.0108486676517305 30.3722322708744841 S
atom 2.5054278350545385 10.0216973353034611 30.3722322708744841 S
atom 7.5162695002489164 10.0216973353034611 30.3722322708744841 S
