#=======================================================
# FHI-aims file: sym_relax/sym_relax_RP_4_Rx0Mz_0-Ry0.in
# Created using the Atomic Simulation Environment (ASE)
# Fri Mar 14 10:29:07 2025
#=======================================================
lattice_vector 10.0954473104379652 0.0000000000000000 0.0000000000000000 
lattice_vector 0.0000000000000000 10.0954337244963561 0.0000000000000000 
lattice_vector 0.0000000000000000 0.0000000000000000 45.1498786534446452 
atom -0.1559007633586804 -0.0000000000000000 0.2851826650097431 Ba
atom 5.2035920032416740 -0.0000000000000000 0.2851752663723184 Ba
atom 0.1558683480226915 5.0477168622481781 0.2851752663723187 Ba
atom 4.8918228918602971 5.0477168622481781 0.2851826650097431 Ba
atom 0.0298097790296258 -0.0000000000000000 4.9407275707131797 Ba
atom 5.0176799664426026 -0.0000000000000000 4.9405820748928075 Ba
atom -0.0300436887763880 5.0477168622481781 4.9405820748928075 Ba
atom 5.0775334342486129 5.0477168622481781 4.9407275707131797 Ba
atom 2.5238300386666359 2.5107464910642845 2.3243845274543746 Zr
atom 7.5715536938856101 2.5369703711838998 2.3243845274543746 Zr
atom 2.5238300386666359 7.5846872334320752 2.3243845274543746 Zr
atom 7.5715536938856101 7.5584633533124634 2.3243845274543746 Zr
atom 2.5239064567221208 2.5241922388391038 7.3350873950571369 Zr
atom 7.5716301119410980 2.5235246234090738 7.3350873950571369 Zr
atom 2.5239064567221208 7.5712414856572687 7.3350873950571369 Zr
atom 7.5716301119410980 7.5719091010872788 7.3350873950571369 Zr
atom 2.5238450111596262 2.8807684872000840 -0.1562070288174543 S
atom 7.5715686663786066 2.1669483750480985 -0.1562070288174543 S
atom 2.5238450111596262 7.2146652372962796 -0.1562070288174543 S
atom 7.5715686663786066 7.9284853494482590 -0.1562070288174543 S
atom 2.5238459035897032 2.0493331562572834 4.8635039543493317 S
atom 7.5715695588086849 2.9983837059908947 4.8635039543493317 S
atom 2.5238459035897032 8.0461005682390887 4.8635039543493317 S
atom 7.5715695588086849 7.0970500185054632 4.8635039543493317 S
atom 2.5238557102336117 0.0000000000000000 2.0069237611145017 S
atom 7.5715192785447467 0.0000000000000000 2.7991375898170912 S
atom 2.5237956233257659 5.0477168622481781 2.7991375898170912 S
atom 7.5715793654525987 5.0477168622481781 2.0069237611145017 S
atom 2.5242655493663477 -0.0000000000000000 7.8023905544063261 S
atom 7.5712137022819572 -0.0000000000000000 6.8735101417530675 S
atom 2.5234900470629835 5.0477168622481781 6.8735101417530675 S
atom 7.5719892045853232 5.0477168622481781 7.8023905544063261 S
atom -0.0000298436343854 2.5238463051958973 2.4579845444655071 S
atom 5.0476938115845957 2.5238705570522790 2.4579845444655071 S
atom -0.0000298436343854 7.5715874193004611 2.4579845444655071 S
atom 5.0476938115845957 7.5715631674440731 2.4579845444655071 S
atom 0.0000260385798495 2.5234300285004574 7.3446185169127034 S
atom 5.0477496937988269 2.5242868337477233 7.3446185169127034 S
atom 0.0000260385798495 7.5720036959958987 7.3446185169127034 S
atom 5.0477496937988269 7.5711468907486408 7.3446185169127034 S
atom -0.0099132675700830 0.0000000000000000 9.8151910116183849 Ba
atom 5.0580124057028337 0.0000000000000000 9.8151910116183849 Ba
atom 0.0102887504838640 5.0477168622481781 9.8151910116183849 Ba
atom 5.0378103876488982 5.0477168622481781 9.8151910116183849 Ba
atom 0.0298097790296258 -0.0000000000000000 14.6896544525236372 Ba
atom 5.0176799664426026 -0.0000000000000000 14.6897999483439587 Ba
atom -0.0300436887763880 5.0477168622481781 14.6897999483439587 Ba
atom 5.0775334342486129 5.0477168622481781 14.6896544525236372 Ba
atom 2.5239064567221208 2.5241922388391038 12.2952946281796685 Zr
atom 7.5716301119410980 2.5235246234090738 12.2952946281796685 Zr
atom 2.5239064567221208 7.5712414856572687 12.2952946281796685 Zr
atom 7.5716301119410980 7.5719091010872788 12.2952946281796685 Zr
atom 2.5238300386666359 2.5107464910642845 17.3059974957823890 Zr
atom 7.5715536938856101 2.5369703711838998 17.3059974957823890 Zr
atom 2.5238300386666359 7.5846872334320752 17.3059974957823890 Zr
atom 7.5715536938856101 7.5584633533124634 17.3059974957823890 Zr
atom 2.5238716750558501 3.0311924121522433 9.8151910116183849 S
atom 7.5715953302748353 2.0165244500959445 9.8151910116183849 S
atom 2.5238716750558501 7.0642413123441239 9.8151910116183849 S
atom 7.5715953302748353 8.0789092744004201 9.8151910116183849 S
atom 2.5238459035897032 2.0493331562572834 14.7668780688874648 S
atom 7.5715695588086849 2.9983837059908947 14.7668780688874648 S
atom 2.5238459035897032 8.0461005682390887 14.7668780688874648 S
atom 7.5715695588086849 7.0970500185054632 14.7668780688874648 S
atom 2.5242655493663477 0.0000000000000000 11.8279914688304917 S
atom 7.5712137022819572 0.0000000000000000 12.7568718814837272 S
atom 2.5234900470629835 5.0477168622481781 12.7568718814837272 S
atom 7.5719892045853232 5.0477168622481781 11.8279914688304917 S
atom 2.5238557102336117 -0.0000000000000000 17.6234582621223055 S
atom 7.5715192785447467 -0.0000000000000000 16.8312444334197551 S
atom 2.5237956233257659 5.0477168622481781 16.8312444334197551 S
atom 7.5715793654525987 5.0477168622481781 17.6234582621223055 S
atom 0.0000260385798495 2.5234300285004574 12.2857635063240878 S
atom 5.0477496937988269 2.5242868337477233 12.2857635063240878 S
atom 0.0000260385798495 7.5720036959958987 12.2857635063240878 S
atom 5.0477496937988269 7.5711468907486408 12.2857635063240878 S
atom -0.0000298436343854 2.5238463051958973 17.1723974787712770 S
atom 5.0476938115845957 2.5238705570522790 17.1723974787712770 S
atom -0.0000298436343854 7.5715874193004611 17.1723974787712770 S
atom 5.0476938115845957 7.5715631674440731 17.1723974787712770 S
atom -0.1559007633586804 0.0000000000000000 19.3451993582270276 Ba
atom 5.2035920032416740 0.0000000000000000 19.3452067568644743 Ba
atom 0.1558683480226915 5.0477168622481781 19.3452067568644779 Ba
atom 4.8918228918602971 5.0477168622481781 19.3451993582270276 Ba
atom 2.5238450111596262 2.8807684872000840 19.7865890520542393 S
atom 7.5715686663786066 2.1669483750480985 19.7865890520542393 S
atom 2.5238450111596262 7.2146652372962796 19.7865890520542393 S
atom 7.5715686663786066 7.9284853494482590 19.7865890520542393 S
atom 2.5238734867940273 2.3679749015749971 22.8601661436758725 Ba
atom 7.5715971420130090 2.6797419606731876 22.8601661436758725 Ba
atom 2.5238734867940273 7.7274588229213759 22.8601661436758725 Ba
atom 7.5715971420130090 7.4156917638231601 22.8601661436758725 Ba
atom 2.5238771216149658 2.5538197633652509 27.5156243182806541 Ba
atom 7.5716007768339448 2.4938970988829281 27.5156243182806541 Ba
atom 2.5238771216149658 7.5416139611310982 27.5156243182806541 Ba
atom 7.5716007768339448 7.6015366256134413 27.5156243182806541 Ba
atom 5.0346467883882315 5.0477168622481781 24.8993566321025277 Zr
atom 10.1085768230571400 5.0477168622481781 24.8993576984355300 Zr
atom 5.0608531678381388 10.0954337244963561 24.8993576984355300 Zr
atom 10.0823704436072088 10.0954337244963561 24.8993566321025277 Zr
atom 5.0480817861328946 5.0477168622481781 29.9100399455843515 Zr
atom 10.0951102221171993 5.0477168622481781 29.9100461256283303 Zr
atom 5.0473865668982230 10.0954337244963561 29.9100461256283303 Zr
atom 10.0958054413518781 10.0954337244963561 29.9100399455843515 Zr
atom 5.4046589229533089 5.0477168622481781 22.4187665942954162 S
atom 9.7385299763590680 5.0477168622481781 22.4187705624325382 S
atom 4.6908063211400819 10.0954337244963561 22.4187705624325382 S
atom 10.4523825781722817 10.0954337244963561 22.4187665942954162 S
atom 4.5732116155886873 5.0477168622481781 27.4384649444942852 S
atom 10.5699555581973605 5.0477168622481781 27.4384700919242803 S
atom 5.5222319029783948 10.0954337244963561 27.4384700919242803 S
atom 9.6209352708076565 10.0954337244963561 27.4384649444942852 S
atom 5.0477365521691677 2.5238663720623462 25.0329712647195706 S
atom 10.0954602073881432 2.5238504901858354 25.0329712647195706 S
atom 5.0477365521691677 7.5715673524340152 25.0329712647195706 S
atom 10.0954602073881432 7.5715832343105189 25.0329712647195706 S
atom 5.0477070642807087 2.5238607971064027 29.9195898815277062 S
atom 10.0954307194996815 2.5238560651417830 29.9195898815277062 S
atom 5.0477070642807087 7.5715729273899539 29.9195898815277062 S
atom 10.0954307194996815 7.5715776593545847 29.9195898815277062 S
atom 2.5238731690522784 5.0477168622481781 24.5819227157312952 S
atom 7.5716077133177322 5.0477168622481781 25.3741016361860510 S
atom 2.5238840580987514 10.0954337244963561 25.3741016361860510 S
atom 7.5715968242712490 10.0954337244963561 24.5819227157312952 S
atom 2.5238582268554666 5.0477168622481781 30.3773064705386489 S
atom 7.5715873330807089 5.0477168622481781 29.4484467465819364 S
atom 2.5238636778617338 10.0954337244963561 29.4484467465819364 S
atom 7.5715818820744571 10.0954337244963561 30.3773064705386489 S
atom 2.5238508007988769 2.5137686505566883 32.3901303383406756 Ba
atom 7.5715744560178608 2.5339482116914942 32.3901303383406756 Ba
atom 2.5238508007988769 7.5816650739396652 32.3901303383406756 Ba
atom 7.5715744560178608 7.5614855128048637 32.3901303383406756 Ba
atom 2.5238771216149658 2.5538197633652509 37.2646363584007716 Ba
atom 7.5716007768339448 2.4938970988829281 37.2646363584007716 Ba
atom 2.5238771216149658 7.5416139611310982 37.2646363584007716 Ba
atom 7.5716007768339448 7.6015366256134413 37.2646363584007716 Ba
atom 5.0480817861328946 5.0477168622481781 34.8702207310970920 Zr
atom 10.0951102221171993 5.0477168622481781 34.8702145510531096 Zr
atom 5.0473865668982230 10.0954337244963561 34.8702145510531096 Zr
atom 10.0958054413518781 10.0954337244963561 34.8702207310970920 Zr
atom 5.0346467883882315 5.0477168622481781 39.8809040445788128 Zr
atom 10.1085768230571400 5.0477168622481781 39.8809029782458211 Zr
atom 5.0608531678381388 10.0954337244963561 39.8809029782458211 Zr
atom 10.0823704436072088 10.0954337244963561 39.8809040445788128 Zr
atom 5.5550772973827165 5.0477168622481781 32.3901303383406756 S
atom 9.5880964364417913 5.0477168622481781 32.3901303383406756 S
atom 4.5403727812228079 10.0954337244963561 32.3901303383406756 S
atom 10.6028009526017168 10.0954337244963561 32.3901303383406756 S
atom 4.5732116155886873 5.0477168622481781 37.3417957321871299 S
atom 10.5699555581973605 5.0477168622481781 37.3417905847571134 S
atom 5.5222319029783948 10.0954337244963561 37.3417905847571134 S
atom 9.6209352708076565 10.0954337244963561 37.3417957321871299 S
atom 5.0477070642807087 2.5238607971064027 34.8606707951537231 S
atom 10.0954307194996815 2.5238560651417830 34.8606707951537231 S
atom 5.0477070642807087 7.5715729273899539 34.8606707951537231 S
atom 10.0954307194996815 7.5715776593545847 34.8606707951537231 S
atom 5.0477365521691677 2.5238663720623462 39.7472894119619582 S
atom 10.0954602073881432 2.5238504901858354 39.7472894119619582 S
atom 5.0477365521691677 7.5715673524340152 39.7472894119619582 S
atom 10.0954602073881432 7.5715832343105189 39.7472894119619582 S
atom 2.5238582268554666 5.0477168622481781 34.4029542061428799 S
atom 7.5715873330807089 5.0477168622481781 35.3318139300994218 S
atom 2.5238636778617338 10.0954337244963561 35.3318139300994218 S
atom 7.5715818820744571 10.0954337244963561 34.4029542061428799 S
atom 2.5238731690522784 5.0477168622481781 40.1983379609500631 S
atom 7.5716077133177322 5.0477168622481781 39.4061590404953677 S
atom 2.5238840580987514 10.0954337244963561 39.4061590404953677 S
atom 7.5715968242712490 10.0954337244963561 40.1983379609500631 S
atom 2.5238734867940273 2.3679749015749971 41.9200945330055532 Ba
atom 7.5715971420130090 2.6797419606731876 41.9200945330055532 Ba
atom 2.5238734867940273 7.7274588229213759 41.9200945330055532 Ba
atom 7.5715971420130090 7.4156917638231601 41.9200945330055532 Ba
atom 5.4046589229533089 5.0477168622481781 42.3614940823859598 S
atom 9.7385299763590680 5.0477168622481781 42.3614901142488733 S
atom 4.6908063211400819 10.0954337244963561 42.3614901142488733 S
atom 10.4523825781722817 10.0954337244963561 42.3614940823859598 S
