#=======================================================
# FHI-aims file: sym_relax/sym_relax_RP_9_RxRyMz_RxRy-Mz.in
# Created using the Atomic Simulation Environment (ASE)
# Mon Mar 17 16:49:41 2025
#=======================================================
lattice_vector 10.0066329305940869 -0.0765471891644400 0.0000000000000000 
lattice_vector -0.0765471891644403 10.0066329305940283 0.0000000000000000 
lattice_vector 0.0000000000000000 0.0000000000000000 96.0334647264008083 
atom 0.1017638217107641 -0.1821078190836422 0.2148268884081413 Ba
atom 5.1854242843806828 -0.1400374162929836 0.2148268884081413 Ba
atom 0.1438342245014234 4.9015526435862471 0.2148268884081413 Ba
atom 5.0668066924255992 4.7829350516311484 0.2148268884081413 Ba
atom -0.2707475031033111 0.1887590526989305 5.0096528250496224 Ba
atom 4.8145574125981137 0.2324739085210891 5.0096528250496224 Ba
atom -0.2270326472811517 5.2740639684003225 5.0096528250496224 Ba
atom 4.6942953676115007 5.1538019234137149 5.0096528250496224 Ba
atom 2.4831429869493920 2.4724712508908864 2.4039318733756785 Zr
atom 7.4958880851209635 2.4436262891831997 2.4039318733756785 Zr
atom 2.4542980252417057 7.4852163490624282 2.4039318733756785 Zr
atom 7.4481858576642068 7.4375141216056715 2.4039318733756785 Zr
atom 2.4722819543914683 2.4884294100964941 7.4617428812967388 Zr
atom 7.4799299259153491 2.4544873217411167 7.4617428812967388 Zr
atom 2.4383398660360860 7.4960773816203394 7.4617428812967388 Zr
atom 7.4373248251062911 7.4534722808112868 7.4617428812967388 Zr
atom 2.6055723551786723 2.6920104966887282 -0.1037357823368557 S
atom 7.2763488393231333 2.3211969209539189 -0.1037357823368556 S
atom 2.2347587794438533 7.3627869808331381 -0.1037357823368556 S
atom 7.5706152258934871 7.6570533674035071 -0.1037357823368556 S
atom 2.2337775918645506 2.1888435695971959 4.9675566514044220 S
atom 7.7795157664146553 2.6929916842680321 4.9675566514044220 S
atom 2.7379257065353926 7.7345817441472633 4.9675566514044220 S
atom 7.1988204625793744 7.1538864403119780 4.9675566514044220 S
atom 2.8061126743176978 -0.0139111941688234 2.2501250295872892 S
atom 7.1748870198205639 -0.0495266332061308 2.7584233821107849 S
atom 2.1332969599412901 4.9920634266730985 2.7584233821107849 S
atom 7.7711555450325216 4.9511316765459616 2.2501250295872892 S
atom 2.8974253425755987 -0.0172239600776926 7.7914027407035436 S
atom 7.1131820279141564 -0.0526435113953137 7.1748852232453606 S
atom 2.0715919680348973 4.9889465484839093 7.1748852232453606 S
atom 7.8624682132904251 4.9478189106370856 7.7914027407035436 S
atom -0.0243624004133961 2.1972037909793358 2.2501250295872892 S
atom 4.9762959093387291 2.7934723161912922 2.7584233821107849 S
atom -0.0652941505405306 7.8350623760705194 2.7584233821107849 S
atom 4.9406804703014267 7.1622466616941232 2.2501250295872892 S
atom -0.0210496345045269 2.1058911227214319 7.7914027407035436 S
atom 4.9794127875279193 2.8551773080976868 7.1748852232453606 S
atom -0.0621772723513477 7.8967673679769153 7.1748852232453606 S
atom 4.9439932362102992 7.0709339934362090 7.7914027407035436 S
atom 0.2846364959557494 -0.1826461289657942 9.9900992159787361 Ba
atom 5.1859625942628336 -0.3229100905379671 9.9900992159787361 Ba
atom 0.1443725343835760 4.7186799693412489 9.9900992159787361 Ba
atom 5.2496793666705752 4.7823967417489897 9.9900992159787361 Ba
atom -0.2866103166838482 0.1827104391375408 14.9951444424814042 Ba
atom 4.8206060261594974 0.2483367221016258 14.9951444424814042 Ba
atom -0.2209840337197626 5.2899267819808466 14.9951444424814042 Ba
atom 4.6784325540309712 5.1477533098523311 14.9951444424814042 Ba
atom 2.4865749087101805 2.4812444926682309 12.4796820907001500 Zr
atom 7.4871148433436172 2.4401943674224085 12.4796820907001500 Zr
atom 2.4455247834643581 7.4817844273016352 12.4796820907001500 Zr
atom 7.4516177794250069 7.4462873633830160 12.4796820907001500 Zr
atom 2.4806439101434461 2.4833644390814871 17.4944986989617952 Zr
atom 7.4849948969303508 2.4461253659891447 17.4944986989617952 Zr
atom 2.4434048370510943 7.4877154258683731 17.4944986989617952 Zr
atom 7.4456867808582583 7.4484073097962789 17.4944986989617952 Zr
atom 2.7442253020897862 2.8098373854358165 9.9818173861483146 S
atom 7.1585219505760280 2.1825439740427943 9.9818173861483146 S
atom 2.1169318906967578 7.2241340339220192 9.9818173861483146 S
atom 7.7092681728046175 7.7748802561505981 9.9818173861483146 S
atom 2.2163736092601836 2.1523069820448404 14.9924883452240643 S
atom 7.8160523539670015 2.7103956668724023 14.9924883452240643 S
atom 2.7744622940877441 7.7519857267516254 14.9924883452240643 S
atom 7.1814164799750051 7.1173498527596291 14.9924883452240643 S
atom 2.8891157819146045 -0.0211795930790062 12.1741689154429871 S
atom 7.1175991814656188 -0.0569308372292059 12.8117187636908660 S
atom 2.0760091215863592 4.9846592226500137 12.8117187636908660 S
atom 7.8541586526294269 4.9438632776357752 12.1741689154429871 S
atom 2.8875844684554637 -0.0196541753084014 17.8205208140625793 S
atom 7.1180768164625912 -0.0553886346086740 17.1785472900174518 S
atom 2.0764867565833320 4.9862014252705409 17.1785472900174518 S
atom 7.8526273391702928 4.9453886954063915 17.8205208140625793 S
atom -0.0170940015032133 2.1142006833824247 12.1741689154429871 S
atom 4.9837001133618122 2.8507601545462240 12.8117187636908660 S
atom -0.0578899465174554 7.8923502144254458 12.8117187636908660 S
atom 4.9479488692116034 7.0792435540972098 12.1741689154429871 S
atom -0.0186194192738181 2.1157319968415624 17.8205208140625793 S
atom 4.9821579107412726 2.8502825195492481 17.1785472900174518 S
atom -0.0594321491379873 7.8918725794284761 17.1785472900174518 S
atom 4.9464234514409950 7.0807748675563413 17.8205208140625793 S
atom 0.2866149755275240 -0.1817216916135586 20.0030860567256177 Ba
atom 5.1850381569105997 -0.3248885701097423 20.0030860567256177 Ba
atom 0.1434480970313398 4.7167014897694752 20.0030860567256177 Ba
atom 5.2516578462423551 4.7833211791012351 20.0030860567256177 Ba
atom -0.2866149755275241 0.1817216916135587 25.0126005337747586 Ba
atom 4.8215947736834819 0.2483413809453018 25.0126005337747586 Ba
atom -0.2199952861957807 5.2899314408245335 25.0126005337747586 Ba
atom 4.6784278951872897 5.1467645623283378 25.0126005337747586 Ba
atom 2.4825214353574161 2.4825214353573908 22.5078432952501863 Zr
atom 7.4858379006544569 2.4442478407751729 22.5078432952501863 Zr
atom 2.4442478407751942 7.4858379006543974 22.5078432952501863 Zr
atom 7.4475643060722341 7.4475643060721817 22.5078432952501863 Zr
atom 2.4843989605713843 2.4816784316332958 27.5211878915385491 Zr
atom 7.4866809043785549 2.4423703155612029 27.5211878915385491 Zr
atom 2.4450908444992852 7.4839603754404189 27.5211878915385491 Zr
atom 7.4494418312862170 7.4467213023480747 27.5211878915385491 Zr
atom 2.7489919085510404 2.8144240050623419 20.0027982746027000 S
atom 7.1539353309495155 2.1777773675815504 20.0027982746027000 S
atom 2.1123452710702373 7.2193674274607664 20.0027982746027000 S
atom 7.7140347792658712 7.7794668757771248 20.0027982746027000 S
atom 2.2160509621637869 2.1506188656524401 25.0128883158976230 S
atom 7.8177404703594204 2.7107183139687927 25.0128883158976230 S
atom 2.7761504104801400 7.7523083738480292 25.0128883158976230 S
atom 7.1810938328786103 7.1156617363672323 25.0128883158976230 S
atom 2.8879401555820361 -0.0203876192798510 22.1864663077174136 S
atom 7.1186927750120610 -0.0561595698845894 22.8292202827829307 S
atom 2.0771027151327854 4.9854304899946351 22.8292202827829307 S
atom 7.8529830262968758 4.9446552514349307 22.1864663077174136 S
atom 2.8885561141314975 -0.0211585545557664 27.8371393004829244 S
atom 7.1190484621386156 -0.0568930138560390 27.1951657764377472 S
atom 2.0774584022593579 4.9846970460231805 27.1951657764377472 S
atom 7.8535989848463190 4.9438843161590240 27.8371393004829244 S
atom -0.0178859753023685 2.1153763097149914 22.1864663077174136 S
atom 4.9829288460171881 2.8496665609997915 22.8292202827829307 S
atom -0.0586612138620717 7.8912566208790276 22.8292202827829307 S
atom 4.9471568954124612 7.0804191804297751 22.1864663077174136 S
atom -0.0171150400264539 2.1147603511655357 27.8371393004829244 S
atom 4.9836622899886498 2.8493108738732205 27.1951657764377472 S
atom -0.0579277698906221 7.8909009337524534 27.1951657764377472 S
atom 4.9479278306883696 7.0798032218803231 27.8371393004829244 S
atom 0.2866103166838483 -0.1827104391375409 30.0205421480189116 Ba
atom 5.1860269044345859 -0.3248839112660657 30.0205421480189116 Ba
atom 0.1444368445553223 4.7167061486131638 30.0205421480189116 Ba
atom 5.2516531873986869 4.7823324315772426 30.0205421480189116 Ba
atom -0.2846364959557494 0.1826461289657942 35.0255873745216064 Ba
atom 4.8206703363312498 0.2463629013735270 35.0255873745216064 Ba
atom -0.2209197235480163 5.2879529612527474 35.0255873745216064 Ba
atom 4.6804063747590829 5.1476889996805735 35.0255873745216064 Ba
atom 2.4784679620046495 2.4837983780465502 32.5360044998001570 Zr
atom 7.4845609579653098 2.4483013141279328 32.5360044998001570 Zr
atom 2.4429708980860303 7.4898913740071578 32.5360044998001570 Zr
atom 7.4435108327194728 7.4488412487613260 32.5360044998001570 Zr
atom 2.4927609163233608 2.4766134606182875 37.5539437092037147 Zr
atom 7.4917458753935717 2.4340083598092295 37.5539437092037147 Zr
atom 2.4501558155142975 7.4755984196884526 37.5539437092037147 Zr
atom 7.4578037870381761 7.4416563313330713 37.5539437092037147 Zr
atom 2.7486692614546491 2.8127358886699385 30.0231982452762587 S
atom 7.1556234473419087 2.1781000146779395 30.0231982452762587 S
atom 2.1140333874626469 7.2196900745571559 30.0231982452762587 S
atom 7.7137121321694675 7.7777787593847227 30.0231982452762587 S
atom 2.2208175686250309 2.1552054852789668 35.0338692043520439 S
atom 7.8131538507328893 2.7059517075075430 35.0338692043520439 S
atom 2.7715637908536257 7.7475417673867764 35.0338692043520439 S
atom 7.1858604393398569 7.1202483559937537 35.0338692043520439 S
atom 2.8890337491284677 -0.0196163519352345 32.2039678268094605 S
atom 7.1175171486794824 -0.0553675960854343 32.8415176750573536 S
atom 2.0759270888002197 4.9862224637937933 32.8415176750573536 S
atom 7.8540766198432941 4.9454265187795565 32.2039678268094605 S
atom 2.8934509026799322 -0.0239036777691268 37.8408013672549970 S
atom 7.1092075880184789 -0.0593232290867478 37.2242838497968265 S
atom 2.0676175281392291 4.9822668307924767 37.2242838497968265 S
atom 7.8584937733947644 4.9411391929456547 37.8408013672549970 S
atom -0.0186572426469859 2.1142827161685633 32.2039678268094605 S
atom 4.9821368722180379 2.8508421873323568 32.8415176750573536 S
atom -0.0594531876612269 7.8924322472115875 32.8415176750573536 S
atom 4.9463856280678380 7.0793255868833471 32.2039678268094605 S
atom -0.0143699168130936 2.1098655626171028 37.8408013672549970 S
atom 4.9860925052193430 2.8591517479933537 37.2242838497968265 S
atom -0.0554975546599132 7.9007418078725857 37.2242838497968265 S
atom 4.9506729539017265 7.0749084333318786 37.8408013672549970 S
atom 0.2707475031033111 -0.1887590526989305 40.0060337654506384 Ba
atom 5.1920755179959723 -0.3090210976855294 40.0060337654506384 Ba
atom 0.1504854581167116 4.7325689621936879 40.0060337654506384 Ba
atom 5.2357903738181388 4.7762838180158518 40.0060337654506384 Ba
atom -0.1017638217107641 0.1821078190836422 44.8008597020922466 Ba
atom 4.8212086462133996 0.0634902271285432 44.8008597020922466 Ba
atom -0.2203814136658639 5.1050802870077634 44.8008597020922466 Ba
atom 4.8632790490040607 5.1471506897984245 44.8008597020922466 Ba
atom 2.4818998837654336 2.4925716198238983 42.6117547171246684 Zr
atom 7.4757877161879502 2.4448693923671434 42.6117547171246684 Zr
atom 2.4341976563086836 7.4864594522463737 42.6117547171246684 Zr
atom 7.4469427544802702 7.4576144905386883 42.6117547171246684 Zr
atom 2.7312652788502727 2.7761993011175901 40.0481299390959222 S
atom 7.1921600348942603 2.1955039972823158 40.0481299390959222 S
atom 2.1505699750149918 7.2370940571615359 40.0481299390959222 S
atom 7.6963081495650947 7.7412421718323809 40.0481299390959222 S
atom 2.3594705155361591 2.2730323740260552 45.1194223728372492 S
atom 7.6953269619857938 2.5672987605964233 45.1194223728372492 S
atom 2.6537369021065338 7.6088888204756460 45.1194223728372492 S
atom 7.3245133862509739 7.2380752447408314 45.1194223728372492 S
atom 2.8317459107735385 -0.0270205559583096 42.2572632083896096 S
atom 7.2005202562763921 -0.0626359949956170 42.7655615609129782 S
atom 2.1589301963971264 4.9789540648836104 42.7655615609129782 S
atom 7.7967887814883632 4.9380223147564815 42.2572632083896096 S
atom -0.0112530386239107 2.1715705545234911 42.2572632083896096 S
atom 4.9894052711282288 2.7678390797354466 42.7655615609129782 S
atom -0.0521847887510441 7.8094291396146716 42.7655615609129782 S
atom 4.9537898320909033 7.1366134252382771 42.2572632083896096 S
atom 2.3004136162737665 2.5842852570681520 48.2315592516085232 Ba
atom 7.3840740789436978 2.6263556598588109 48.2315592516085232 Ba
atom 2.3424840190644254 7.6679457197380421 48.2315592516085232 Ba
atom 7.2654564869885947 7.5493281277829345 48.2315592516085232 Ba
atom 2.6712804880563481 2.2117739322540810 53.0263851882500106 Ba
atom 7.7565854037577679 2.2554887880762426 53.0263851882500106 Ba
atom 2.7149953438784977 7.2970788479554614 53.0263851882500106 Ba
atom 7.6363233587711745 7.1768168029688590 53.0263851882500106 Ba
atom 4.9549926862483185 4.9656644223067561 50.4206642365760587 Zr
atom 9.9677377844198904 4.9368194605990698 50.4206642365760587 Zr
atom 4.9261477245406367 9.9784095204782783 50.4206642365760587 Zr
atom 9.9200355569631657 9.9307072930215234 50.4206642365760587 Zr
atom 4.9709508454539337 4.9548033897488404 55.4784752444970479 Zr
atom 9.9785988169778221 4.9208613013934519 55.4784752444970479 Zr
atom 4.9370087570985381 9.9624513612726791 55.4784752444970479 Zr
atom 9.9359937161687650 9.9198462604636131 55.4784752444970479 Zr
atom 5.1745319320461522 5.0880937905360293 47.9129965808634637 S
atom 9.8453084161906261 4.7172802148012263 47.9129965808634637 S
atom 4.8037183563113643 9.7588702746804561 47.9129965808634637 S
atom 10.1395748027609844 10.0531366612508215 47.9129965808634637 S
atom 4.6713650049546338 4.7162990272219245 52.9842890146047694 S
atom 10.2171031795047202 5.2204471418927616 52.9842890146047694 S
atom 5.1755131196254718 10.2620372017719870 52.9842890146047694 S
atom 9.6364078756694713 9.6813418979367007 52.9842890146047694 S
atom 4.6797252263367550 2.4581590349440003 50.2668573927876778 S
atom 10.3175838114279941 2.4172272848168599 50.7751557453111388 S
atom 5.2759937515487287 7.4588173446960919 50.7751557453111388 S
atom 9.6447680970515766 7.4232019056587752 50.2668573927876778 S
atom 4.5884125580788542 2.4614718008528613 55.8081351039038864 S
atom 10.3792888033343740 2.4203441630060492 55.1916175864457088 S
atom 5.3376987434551229 7.4619342228852723 55.1916175864457088 S
atom 9.5534554287937006 7.4265146715676496 55.8081351039038864 S
atom 2.4686102411885908 5.2886341096750673 50.2668573927876778 S
atom 7.4745848620305386 4.6158183952986676 50.7751557453111388 S
atom 2.4329948021512799 9.6574084551779134 50.7751557453111388 S
atom 7.4336531119034124 10.2536769803898444 50.2668573927876778 S
atom 2.4652974752797201 5.3799467779329744 55.8081351039038864 S
atom 7.4714679838413689 4.5541134033922690 55.1916175864457088 S
atom 2.4298779239620987 9.5957034632714979 55.1916175864457088 S
atom 7.4303403459945425 10.3449896486477257 55.8081351039038864 S
atom 2.2998753063916104 2.7671579313131356 58.0068315791791349 Ba
atom 7.2012014046987032 2.6268939697409737 58.0068315791791349 Ba
atom 2.1596113448194489 7.6684840296201875 58.0068315791791349 Ba
atom 7.2649181771064386 7.7322008020279247 58.0068315791791349 Ba
atom 2.6652318744949572 2.1959111186735454 63.0118768056818013 Ba
atom 7.7724482173383018 2.2615374016376348 63.0118768056818013 Ba
atom 2.7308581574590378 7.3031274615168531 63.0118768056818013 Ba
atom 7.6302747452097863 7.1609539893883225 63.0118768056818013 Ba
atom 4.9637659280256647 4.9690963440675429 60.4964144539004636 Zr
atom 9.9643058626591134 4.9280462188217138 60.4964144539004636 Zr
atom 4.9227158027798437 9.9696362787009392 60.4964144539004636 Zr
atom 9.9288087987404978 9.9341392147823182 60.4964144539004636 Zr
atom 4.9658858744389249 4.9631653455008244 65.5112310621622669 Zr
atom 9.9702368612258585 4.9259262724084634 65.5112310621622669 Zr
atom 4.9286468013465869 9.9675163322876994 65.5112310621622669 Zr
atom 9.9309287451537553 9.9282082162155927 65.5112310621622669 Zr
atom 5.2923588207932637 5.2267467374471659 57.9985497493487046 S
atom 9.7066554692794913 4.5994533260541353 57.9985497493487046 S
atom 4.6650654094002180 9.6410433859333722 57.9985497493487046 S
atom 10.2574016915080701 10.1917896081619404 57.9985497493487046 S
atom 4.6348284174022876 4.6988950446175419 63.0092207084245288 S
atom 10.2345071621090806 5.2569837294451123 63.0092207084245288 S
atom 5.1929171022298419 10.2985737893243492 63.0092207084245288 S
atom 9.5998712881170860 9.6639379153323599 63.0092207084245288 S
atom 4.5967221187398479 2.4654274338541744 60.1909012786433664 S
atom 10.3748716497829268 2.4246314888399372 60.8284511268912880 S
atom 5.3332815899036579 7.4662215487191661 60.8284511268912880 S
atom 9.5617649894547032 7.4304703045689582 60.1909012786433664 S
atom 4.5982534321989919 2.4639020160835794 65.8372531772630651 S
atom 10.3743940147859561 2.4230892862194042 65.1952796532178525 S
atom 5.3328039549066837 7.4646793460986327 65.1952796532178525 S
atom 9.5632963029138374 7.4289448867983552 65.8372531772630651 S
atom 2.4613418422784110 5.3716372172719726 60.1909012786433664 S
atom 7.4671806580074769 4.5585305569437287 60.8284511268912880 S
atom 2.4255905981282035 9.6001206168229469 60.8284511268912880 S
atom 7.4263847129932277 10.3366800879867302 60.1909012786433664 S
atom 2.4628672600490131 5.3701059038128403 65.8372531772630651 S
atom 7.4687228606279970 4.5590081919407028 65.1952796532178525 S
atom 2.4271328007487405 9.6005982518199140 65.1952796532178525 S
atom 7.4279101307638440 10.3351487745276280 65.8372531772630651 S
atom 2.3007997437438537 2.7691364108849110 68.0198184199259117 Ba
atom 7.1992229251269286 2.6259695323887322 68.0198184199259117 Ba
atom 2.1576328652476615 7.6675595922679483 68.0198184199259117 Ba
atom 7.2658426144586956 7.7341792815997126 68.0198184199259117 Ba
atom 2.6642431269709719 2.1959064598298697 73.0293328969750917 Ba
atom 7.7724528761819833 2.2625261491616149 73.0293328969750917 Ba
atom 2.7308628163027158 7.3041162090408385 73.0293328969750917 Ba
atom 7.6292859976857983 7.1609493305446472 73.0293328969750917 Ba
atom 4.9650428707148322 4.9650428707147816 70.5245756584505301 Zr
atom 9.9683593360118490 4.9267692761325659 70.5245756584505301 Zr
atom 4.9267692761325996 9.9683593360117833 70.5245756584505301 Zr
atom 9.9300857414296644 9.9300857414295631 70.5245756584505301 Zr
atom 4.9641998669907359 4.9669203959287538 75.5379202547388502 Zr
atom 9.9664818107979070 4.9276122798566639 75.5379202547388502 Zr
atom 4.9248917509186363 9.9692023397358636 75.5379202547388502 Zr
atom 9.9292427377055734 9.9319632666435478 75.5379202547388502 Zr
atom 5.2969454404197709 5.2315133439084116 68.0195306378030295 S
atom 9.7018888628182474 4.5948667064276183 68.0195306378030295 S
atom 4.6602988029389723 9.6364567663068268 68.0195306378030295 S
atom 10.2619883111345960 10.1965562146231878 68.0195306378030295 S
atom 4.6331403010098819 4.6985723975211533 73.0296206790980023 S
atom 10.2348298092055092 5.2586718458375143 73.0296206790980023 S
atom 5.1932397493262368 10.3002619057167255 73.0296206790980023 S
atom 9.5981831717247061 9.6636152682359437 73.0296206790980023 S
atom 4.5978977450724230 2.4646354600550211 70.2031986709178568 S
atom 10.3737780562365192 2.4238602214953207 70.8459526459832460 S
atom 5.3321879963572405 7.4654502813745438 70.8459526459832460 S
atom 9.5629406157872445 7.4296783307698169 70.2031986709178568 S
atom 4.5972817865229718 2.4654063953309397 75.8538716636833499 S
atom 10.3734223691099210 2.4245936654667704 75.2118981396380804 S
atom 5.3318323092306610 7.4661837253459895 75.2118981396380804 S
atom 9.5623246572377756 7.4304492660457218 75.8538716636833499 S
atom 2.4621338160775594 5.3704615909394064 70.2031986709178568 S
atom 7.4679519253520921 4.5596241504901522 70.8459526459832460 S
atom 2.4263618654728205 9.6012142103693829 70.8459526459832460 S
atom 7.4271766867923770 10.3355044616541853 70.2031986709178568 S
atom 2.4613628808016443 5.3710775494888603 75.8538716636833499 S
atom 7.4672184813806428 4.5599798376167291 75.2118981396380804 S
atom 2.4256284215013784 9.6015698974959527 75.2118981396380804 S
atom 7.4264057515164801 10.3361204202036578 75.8538716636833499 S
atom 2.2998109962198710 2.7691317520412375 78.0372745112193371 Ba
atom 7.1992275839706075 2.6269582799127091 78.0372745112193371 Ba
atom 2.1576375240913483 7.6685483397919336 78.0372745112193371 Ba
atom 7.2648538669346969 7.7341746227560177 78.0372745112193371 Ba
atom 2.6651675643232191 2.1978849394016469 83.0423197377218969 Ba
atom 7.7704743966102168 2.2616017118093739 83.0423197377218969 Ba
atom 2.7288843367309417 7.3031917716885921 83.0423197377218969 Ba
atom 7.6302104350380286 7.1629278101164218 83.0423197377218969 Ba
atom 4.9663198134039810 4.9609893973620247 80.5527368630006890 Zr
atom 9.9724128093646360 4.9254923334434144 80.5527368630006890 Zr
atom 4.9308227494853778 9.9670823933226149 80.5527368630006890 Zr
atom 9.9313626841188043 9.9260322680768063 80.5527368630006890 Zr
atom 4.9591348959757209 4.9752823516807263 85.5706760724039270 Zr
atom 9.9581198550459202 4.9326772508716736 85.5706760724039270 Zr
atom 4.9165297951666629 9.9742673107508821 85.5706760724039270 Zr
atom 9.9241777666905513 9.9403252223955132 85.5706760724039270 Zr
atom 5.2952573240273688 5.2311906968120230 78.0399306084765811 S
atom 9.7022115099146458 4.5965548228200230 78.0399306084765811 S
atom 4.6606214500353564 9.6381448826992298 78.0399306084765811 S
atom 10.2603001947422001 10.1962335675267823 78.0399306084765811 S
atom 4.6377269206363865 4.7033390039824114 83.0506015675523628 S
atom 10.2300632027442457 5.2540852262109921 83.0506015675523628 S
atom 5.1884731428649733 10.2956752860902139 83.0506015675523628 S
atom 9.6027697913512320 9.6683818746971983 83.0506015675523628 S
atom 4.5968041515259914 2.4638641927104050 80.2207001900099925 S
atom 10.3749536825690427 2.4230682476961674 80.8582500382577365 S
atom 5.3333636226897987 7.4646583075753972 80.8582500382577365 S
atom 9.5618470222408067 7.4289070634251884 80.2207001900099925 S
atom 4.5923869979745220 2.4681515185442979 85.8575337304553869 S
atom 10.3832632432300453 2.4270238806974826 85.2410162129971525 S
atom 5.3416731833507889 7.4686139405767049 85.2410162129971525 S
atom 9.5574298686893489 7.4331943892590875 85.8575337304553869 S
atom 2.4629050834221777 5.3715551844858274 80.2207001900099925 S
atom 7.4687438991512556 4.5584485241576029 80.8582500382577365 S
atom 2.4271538392719760 9.6000385840368292 80.8582500382577365 S
atom 7.4279479541370099 10.3365980552006302 80.2207001900099925 S
atom 2.4586177575882875 5.3759723380372995 85.8575337304553869 S
atom 7.4647882661499390 4.5501389634965994 85.2410162129971525 S
atom 2.4231982062706643 9.5917290233758337 85.2410162129971525 S
atom 7.4236606283031223 10.3410152087520757 85.8575337304553869 S
atom 2.2937623826584805 2.7532689384607010 88.0227661286510141 Ba
atom 7.2150903975511387 2.6330068934741040 88.0227661286510141 Ba
atom 2.1735003376718809 7.6745969533533289 88.0227661286510141 Ba
atom 7.2588052533733203 7.7183118091754910 88.0227661286510141 Ba
atom 2.6646292544410506 2.3807576136466313 92.8175920652926720 Ba
atom 7.5876017223652150 2.2621400216915335 92.8175920652926720 Ba
atom 2.5460116624859541 7.3037300815707535 92.8175920652926720 Ba
atom 7.6296721251558797 7.3458004843614093 92.8175920652926720 Ba
atom 4.9750930551813308 4.9644213191228141 90.6284870803251295 Zr
atom 9.9689808876038573 4.9167190916660655 90.6284870803251295 Zr
atom 4.9273908277245724 9.9583091515452900 90.6284870803251295 Zr
atom 9.9401359258961506 9.9294641898376081 90.6284870803251295 Zr
atom 5.2587207364750270 5.2137867142076457 88.0648623022961914 S
atom 9.7196154925189955 4.6330914103723737 88.0648623022961914 S
atom 4.6780254326397452 9.6746814702515866 88.0648623022961914 S
atom 10.2237636071898521 10.1788295849224415 88.0648623022961914 S
atom 4.7555538093835104 4.8419919508935294 93.1361547360375255 S
atom 10.0914102558331162 5.1362583374638930 93.1361547360375255 S
atom 5.0498201959538616 10.1778483973431282 93.1361547360375255 S
atom 9.7205966800982893 9.8070348216083243 93.1361547360375255 S
atom 4.6540919898809268 2.4712683967334805 90.2739955715898930 S
atom 10.2919505749721569 2.4303366466063472 90.7822939241134321 S
atom 5.2503605150928827 7.4719267064855801 90.7822939241134321 S
atom 9.6191348605957661 7.4363112674482608 90.2739955715898930 S
atom 2.4555008793991053 5.3142673461308982 90.2739955715898930 S
atom 7.4614755002410575 4.6414516317545083 90.7822939241134321 S
atom 2.4198854403617949 9.6830416916337505 90.7822939241134321 S
atom 7.4205437501139340 10.2793102168456816 90.2739955715898930 S
