#=======================================================
# FHI-aims file: sym_relax/sym_relax_RP_2_Rx0Rz_0RyRz.in
# Created using the Atomic Simulation Environment (ASE)
# Fri Mar 14 10:21:07 2025
#=======================================================
lattice_vector 10.0975461516487997 -0.0000274615201172 0.0003721810021385 
lattice_vector -0.0000274615201172 10.0975461516488050 -0.0003721810021385 
lattice_vector -0.0009632875172202 0.0009632875172202 25.4732682262571011 
atom -0.1651854693772027 0.0000248049554459 0.2875156062970169 Ba
atom 5.2139548181508646 0.0000063034325070 0.2877153021558095 Ba
atom 0.1651680115664004 5.0487931100169625 0.2873431211536706 Ba
atom 4.8835738756871416 5.0487841500197828 0.2875156062970169 Ba
atom 0.0438352969245282 0.0001638197224297 4.8987251584615894 Ba
atom 5.0045672837009549 0.0001929447164429 4.8988717882921993 Ba
atom -0.0442195228835174 5.0489797513008980 4.8984996072900495 Ba
atom 5.0925946419888595 5.0489231647867685 4.8987251584615894 Ba
atom 2.5242912590089088 2.5044089701680616 2.3639488428782114 Zr
atom 7.5730713617405163 2.5444993181093714 2.3641457565547355 Zr
atom 2.5242845551560658 7.5932861246938312 2.3637735755525955 Zr
atom 7.5730506040732566 7.5531683152324147 2.3639488428782123 Zr
atom 2.5240905639492981 2.5046167913938455 7.4334511901990563 Zr
atom 7.5728706666808989 2.5447071393351490 7.4336481038755631 Zr
atom 2.5240838600964492 7.5934939459196045 7.4332759228734355 Zr
atom 7.5728499090136392 7.5533761364581862 7.4334511901990563 Zr
atom 2.5243752098930239 2.8072843021491711 -0.1225421139123649 S
atom 7.5731454068018360 2.2414678025713974 -0.1223295650097073 S
atom 2.5243586002173801 7.2902546091558449 -0.1227017460118459 S
atom 7.5731345549573765 7.8560436472134940 -0.1225421139123649 S
atom 2.5241803170922923 2.1095279426257698 4.8987170614149242 S
atom 7.5729816085975230 2.9395881668774435 4.8988798853388618 S
atom 2.5241948020130649 7.9883749734618990 4.8985077043367236 S
atom 7.5729396621566334 7.1582872876901140 4.8987170614149251 S
atom 2.5243199028045651 0.0000700653275162 2.0835024180645441 S
atom 7.5730497912747978 0.0000824984247579 2.7787144667005448 S
atom 2.5242629846903233 5.0488693050092195 2.7783422856984075 S
atom 7.5730792478689022 5.0488294103918463 2.0835024180645441 S
atom 2.5240826778209047 0.0002866991113567 7.7140945286892428 S
atom 7.5728989409994858 0.0002468044939976 7.0192546610553741 S
atom 2.5241121344150295 5.0490336110784524 7.0188824800532315 S
atom 7.5728420228852702 5.0490460441756895 7.7140945286892428 S
atom -0.0000992313456811 2.5244884221741932 2.4787204086062355 S
atom 5.0486728585330010 2.5244698877467613 2.4789003413587136 S
atom -0.0001139480514668 7.5732566943312269 2.4785281603565741 S
atom 5.0486601137186522 7.5732477672385361 2.4787204086062342 S
atom -0.0002849946133084 2.5246551488491327 7.3185043571454136 S
atom 5.0484890671568188 2.5246462217564480 7.3186966053950675 S
atom -0.0002977394276395 7.5734330283409008 7.3183244243929302 S
atom 5.0484743504510252 7.5734144939134715 7.3185043571454118 S
atom -0.1655522375253898 0.0003504610063656 9.5098816445979644 Ba
atom 5.2135880500026852 0.0003319594834269 9.5100813404567663 Ba
atom 0.1648012434182135 5.0491187660678820 9.5097091594546121 Ba
atom 4.8832071075389498 5.0491098060707049 9.5098816445979644 Ba
atom 2.5240165188879793 2.8076483069318146 9.9199265117634674 S
atom 7.5727867157967950 2.2418318073540426 9.9201390606661413 S
atom 2.5239999092123311 7.2906186139384959 9.9197668796640155 S
atom 7.5727758639523195 7.8564076519961672 9.9199265117634674 S
atom 2.5238732238181112 2.6900467856679873 13.0241497194255427 Ba
atom 7.5726510704053931 2.3596658432042616 13.0243494152843571 Ba
atom 2.5238642638209394 7.4084526497887122 13.0239772342822153 Ba
atom 7.5726325688824669 7.7388061307323150 13.0241497194255427 Ba
atom 2.5237342090511334 2.4810260193662534 17.6353592715901222 Ba
atom 7.5724644291214727 2.5690533776541837 17.6355059014207498 Ba
atom 2.5236776225370043 7.6178401842386245 17.6351337204185974 Ba
atom 7.5724935541154830 7.5297853644305901 17.6353592715901222 Ba
atom 5.0682484036698341 5.0493294023462143 15.1005829560067504 Zr
atom 10.0769174007928974 5.0493086446789439 15.1007798696832491 Zr
atom 5.0281305942084336 10.0980954512633865 15.1004076886811216 Zr
atom 10.1170077487342081 10.0980887474105465 15.1005829560067504 Zr
atom 5.0680405824440591 5.0495300974058379 20.1700853033275536 Zr
atom 10.0767095795670940 5.0495093397385631 20.1702822170041074 Zr
atom 5.0279227729826399 10.0982961463230065 20.1699100360019798 Zr
atom 10.1167999275083993 10.0982894424701843 20.1700853033275536 Zr
atom 4.7653730716887424 5.0492454514620970 12.6140919992161873 S
atom 10.3799489163308696 5.0492345996176207 12.6143045481188345 S
atom 5.3311621097463977 10.0980214062020721 12.6139323671166874 S
atom 9.8141324167530843 10.0980047965264301 12.6140919992161873 S
atom 5.4631294312121437 5.0494403442628295 17.6353511745434446 S
atom 9.6818285520247880 5.0493983978219354 17.6355139984673706 S
atom 4.6330417454403472 10.0981852044064073 17.6351418174652466 S
atom 10.5118887762764999 10.0981996893271564 17.6353511745434446 S
atom 5.0481874860911455 2.5249478028221350 15.2155344544872371 S
atom 10.0969557582481659 2.5249330861163393 15.2157267027368999 S
atom 5.0481689516637012 7.5737198927007983 15.2153545217347563 S
atom 10.0969468311555062 7.5737071478864690 15.2155344544872371 S
atom 5.0480111520814566 2.5251315941983012 20.0553307185235781 S
atom 10.0967890315732358 2.5251188493839711 20.0555106512760943 S
atom 5.0480022249887693 7.5739056559684306 20.0551384702739597 S
atom 10.0967704971458154 7.5738909392626406 20.0553307185235781 S
atom 2.5237880688286878 5.0493576766648038 15.5149763988269420 S
atom 7.5725873085103927 5.0493007585505643 14.8201365311930822 S
atom 2.5238005019259266 10.0980875651350228 14.8197643501909404 S
atom 7.5725474138930222 10.0981170217291325 15.5149763988269420 S
atom 2.5236237627594509 5.0495085269400972 19.7555165931817776 S
atom 7.5723706747265522 5.0495379835342087 20.4507286418177650 S
atom 2.5235838681420879 10.0983247901186495 20.4503564608156623 S
atom 7.5723831078237929 10.0982678720044383 19.7555165931817776 S
atom 2.5235475677671944 2.6904135538161724 22.2465157577265238 Ba
atom 7.5723254143544727 2.3600326113524490 22.2467154535853062 Ba
atom 2.5235386077700190 7.4088194179368996 22.2463432725831609 Ba
atom 7.5723069128315528 7.7391728988805069 22.2465157577265238 Ba
atom 4.7650090669060843 5.0496041424671487 22.6565606248920375 S
atom 10.3795849115482088 5.0495932906226688 22.6567731737946971 S
atom 5.3307981049637432 10.0983800972071283 22.6564009927925554 S
atom 9.8137684119704272 10.0983634875314916 22.6565606248920375 S
