#=======================================================
# FHI-aims file: sym_relax/sym_relax_RP_10_RxRyRz_-Rx-Ry-Rz.in
# Created using the Atomic Simulation Environment (ASE)
# Mon Mar 17 18:43:56 2025
#=======================================================
lattice_vector 9.9307133857078078 -0.0073142302913886 -0.0014939094821262 
lattice_vector -0.0073142302913882 9.9307133857077741 0.0014939094821262 
lattice_vector -0.0066142275109499 0.0066142275109526 107.5888198894238599 
atom 0.0414442968625328 -0.1152733566963443 0.1875048805384353 Ba
atom 5.0806300495502548 -0.0451014120082274 0.1867579257973718 Ba
atom 0.1116162415506492 4.9239123959913522 0.1882518352794980 Ba
atom 5.0031438745707533 4.8464262210118561 0.1875048805384353 Ba
atom -0.2540583161127313 0.1883120039083434 5.0357597603758952 Ba
atom 4.7770446889455682 0.2504012009670354 5.0350128056348291 Ba
atom -0.1919691190540381 5.2194150089666334 5.0365067151169542 Ba
atom 4.7076412615954970 5.1500115816165302 5.0357597603758952 Ba
atom 2.4503983667404361 2.5084995281308773 2.4111828491184149 Zr
atom 7.4185567424312318 2.5076440958220876 2.4104358943773536 Zr
atom 2.4495429344316366 7.4766579038216712 2.4119298038594801 Zr
atom 7.4120979444486368 7.4701991058390842 2.4111828491184157 Zr
atom 2.4065421843143460 2.5201766835626604 7.5165442257854655 Zr
atom 7.4068795869994553 2.5515002782481710 7.5157972710444021 Zr
atom 2.4378657789998588 7.5205140862477711 7.5172911805265237 Zr
atom 7.3682417620225520 7.4818762612708598 7.5165442257854647 Zr
atom 2.5646310327317248 2.6794274977409729 -0.1107163240027776 S
atom 7.2476287728211419 2.3934114298307856 -0.1114632787438409 S
atom 2.2786149648215486 7.3624252378303829 -0.1099693692617146 S
atom 7.5263306104399357 7.6411270754491678 -0.1107163240027775 S
atom 2.2537943422435531 2.3095910920450975 4.9994462391023866 S
atom 7.6174651785170049 2.7042481203189683 4.9986992843613196 S
atom 2.6484513705174191 7.6732619283185555 5.0001931938434421 S
atom 7.2154939199517800 7.2712906697533075 4.9994462391023875 S
atom 2.7879718805056570 0.0356191777564962 2.3074027011147757 S
atom 7.0486323339262293 0.0345495208790854 2.7139654021506994 S
atom 2.0796185259266311 5.0035633288786681 2.7154593116328214 S
atom 7.7496714582138786 4.9973187554646916 2.3074027011147766 S
atom 2.9445916703468686 0.0438937113510434 7.7158335896159329 S
atom 6.9410744015413579 0.0407059385778427 7.3668512189590434 S
atom 1.9720605935417508 5.0097197465774315 7.3683451284411694 S
atom 7.9062912480550809 5.0055932890592389 7.7158335896159311 S
atom -0.0392762929021915 2.1773848123482447 2.3081496558558432 S
atom 4.9234929416834596 2.8784239366358748 2.7147123568917619 S
atom -0.0455208663161692 7.8474377446354504 2.7162062663738800 S
atom 4.9224232848060234 7.1390843900564604 2.3081496558558441 S
atom -0.0475508264967379 2.0207650225070406 7.7165805443569973 S
atom 4.9173365239846900 2.9859818690207693 7.3675981737001015 S
atom -0.0516772840149271 7.9549956770203396 7.3690920831822311 S
atom 4.9141487512114743 6.9824646002152404 7.7165805443569990 S
atom 0.0006242550606332 -0.0755290068799783 10.0817896422571174 Ba
atom 5.0408856997338960 -0.0042813702063275 10.0810426875160388 Ba
atom 0.0718718917342833 4.9647324377932645 10.0825365969981888 Ba
atom 4.9623238327688481 4.8861705708282184 10.0817896422571174 Ba
atom 0.0419757390439656 0.0087445397355766 15.1746008358818099 Ba
atom 4.9566121531183285 -0.0456328541896592 15.1738538811407579 Ba
atom -0.0124016548812705 4.9233809538099260 15.1753477906228671 Ba
atom 5.0036753167521866 4.9704441174437681 15.1746008358818099 Ba
atom 2.4855689674420258 2.4865152235820829 12.6136526951481489 Zr
atom 7.4405410469800293 2.4724734951204885 12.6129057404071006 Zr
atom 2.4715272389804217 7.4414873031200885 12.6143996498892346 Zr
atom 7.4472685451502256 7.4482148012902902 12.6136526951481471 Zr
atom 2.4798979189698009 2.4817851864939984 17.7179624201722028 Zr
atom 7.4452710840681471 2.4781445435927112 17.7172154654311740 Zr
atom 2.4762572760685186 7.4471583515922912 17.7187093749132956 Zr
atom 7.4415974966780203 7.4434847642021884 17.7179624201722028 Zr
atom 2.5545543778854101 2.6405391472366642 10.0781324904386445 S
atom 7.2865171233254289 2.4034880846771074 10.0773855356975783 S
atom 2.3175033153258577 7.3725018926766959 10.0788794451796999 S
atom 7.5162539555936112 7.6022387249448888 10.0781324904386462 S
atom 2.4220746910320932 2.4561909952560206 15.1738500238080647 S
atom 7.4708652753061084 2.5359677715304305 15.1731030690670039 S
atom 2.5018514673064858 7.5049815795300097 15.1745969785491450 S
atom 7.3837742687403063 7.4178905729642226 15.1738500238080629 S
atom 1.9747082860444578 0.0056778056983465 12.5742313963278267 S
atom 7.9777875947175012 0.0031004313766458 12.6848293285166243 S
atom 3.0087737867179118 4.9721142393762348 12.6863232379987618 S
atom 6.9364078637526720 4.9673773834065491 12.5742313963278285 S
atom 3.0054169455690549 0.0030904223534032 17.7463251814164877 S
atom 6.9207734611180216 -0.0007991261458218 17.7043253458682948 S
atom 1.9517596531184269 4.9682146818537776 17.7058192553504199 S
atom 7.9671165232772649 4.9647900000616172 17.7463251814164842 S
atom -0.0093349208440405 2.9906484068094472 12.5749783510689159 S
atom 4.9549420311858752 1.9492686758446156 12.6855762832576922 S
atom -0.0140717768137294 6.9182824838442203 12.6870701927398262 S
atom 4.9523646568641695 7.9523479845176217 12.5749783510689142 S
atom -0.0067475374990973 1.9599397472848392 17.7470721361575947 S
atom 4.9588415887083324 3.0062828094440777 17.7050723006093911 S
atom -0.0101722192912615 7.9752966174436626 17.7065662100914842 S
atom 4.9549520402091165 6.9216393249930412 17.7470721361575947 S
atom -0.0078824688978564 -0.0110944969257440 20.2741141712373079 Ba
atom 4.9764511897796515 0.0042253537521626 20.2733672164962648 Ba
atom 0.0074373817800503 4.9732391617517528 20.2748611259783864 Ba
atom 4.9538171088103633 4.9506050807824646 20.2741141712373008 Ba
atom 0.0056336245385103 0.0087535431757531 25.3747216720338393 Ba
atom 4.9566031496781600 -0.0092907396842037 25.3739747172928247 Ba
atom -0.0124106583214465 4.9597230683153892 25.3754686267749143 Ba
atom 4.9673332022467003 4.9704531208839615 25.3747216720338393 Ba
atom 2.4791129755590511 2.4828994343365602 22.8225414620097133 Zr
atom 7.4441568362255781 2.4789294870034655 22.8217945072686028 Zr
atom 2.4751430282259634 7.4479432950030393 22.8232884167507386 Zr
atom 7.4408125532672758 7.4445990120447609 22.8225414620097133 Zr
atom 2.4797795156993176 2.4822328941962888 27.9269018820580683 Zr
atom 7.4448233763658251 2.4782629468631883 27.9261549273169543 Zr
atom 2.4758095683662136 7.4472767548627905 27.9276488367990687 Zr
atom 7.4414790934075112 7.4439324719045059 27.9269018820580683 Zr
atom 2.4931381444429639 2.5064311441915019 20.2739916056746985 S
atom 7.4206251263706182 2.4649043181195465 20.2732446509336519 S
atom 2.4516113183710204 7.4339181261191252 20.2747385604157344 S
atom 7.4548377221511712 7.4681307218996977 20.2739916056746985 S
atom 2.4653125220317356 2.4684324406689635 25.3747216720338393 S
atom 7.4586238298931535 2.4927299405307886 25.3739747172928247 S
atom 2.4896100218935526 7.4617437485303890 25.3754686267749179 S
atom 7.4270120997399243 7.4301320183771811 25.3747216720338393 S
atom 1.9554529240283345 0.0006750690051920 22.8126514602059736 S
atom 7.9718118516958700 -0.0028196492261939 22.8359312265796035 S
atom 3.0027980436962638 4.9661941587734155 22.8374251360617286 S
atom 6.9171525017365436 4.9623746467134087 22.8126514602059665 S
atom 3.0067838501883251 -0.0012122655136431 27.9360449291207473 S
atom 6.9211383082286115 -0.0050317775736470 27.9112712532649390 S
atom 1.9521245002290168 4.9639820304259556 27.9127651627470534 S
atom 7.9684834278965386 4.9604873121945454 27.9360449291207402 S
atom -0.0043321841508858 3.0099037688255663 22.8133984149469953 S
atom 4.9608621117887068 1.9552444188662570 22.8366781813206075 S
atom -0.0081516962108899 6.9242582268658355 22.8381720908027646 S
atom 4.9573673935573224 7.9716033465337803 22.8133984149469953 S
atom -0.0024448496320508 1.9585728426655717 27.9367918838618259 S
atom 4.9630742401361738 3.0059179623334931 27.9120182080060708 S
atom -0.0059395678634359 7.9749317703330709 27.9135121174881924 S
atom 4.9592547280761705 6.9202724203737809 27.9367918838618259 S
atom -0.0142144155629877 -0.0047625502606135 30.4753291728304099 Ba
atom 4.9701192431145058 0.0105573004172934 30.4745822180893562 Ba
atom 0.0011054351149199 4.9795711084168932 30.4760761275714955 Ba
atom 4.9474851621452256 4.9569370274475926 30.4753291728304099 Ba
atom 0.0056246210983339 0.0450956576812081 35.5748425081858954 Ba
atom 4.9202610351726861 -0.0092817362440272 35.5740955534448133 Ba
atom -0.0487527728269011 4.9597320717555782 35.5755894629269847 Ba
atom 4.9673241988065557 5.0067952353894034 35.5748425081858954 Ba
atom 2.4786652678567571 2.4830178376070413 33.0314809238955291 Zr
atom 7.4440384329550637 2.4793771947057519 33.0307339691545252 Zr
atom 2.4750246249554677 7.4483910027053488 33.0322278786365899 Zr
atom 7.4403648455649565 7.4447174153152522 33.0314809238955291 Zr
atom 2.4833953049448469 2.4886888860792657 38.1357906489196026 Zr
atom 7.4383673844828699 2.4746471576176670 38.1350436941785347 Zr
atom 2.4693535764832522 7.4436609656172585 38.1365376036606705 Zr
atom 7.4450948826530530 7.4503884637874664 38.1357906489195955 Zr
atom 2.5033112255542598 2.4962580630802127 30.4754517383930335 S
atom 7.4307982074819163 2.4547312370082555 30.4747047836519620 S
atom 2.4617843994823141 7.4237450450078510 30.4761986931341013 S
atom 7.4650108032624694 7.4579576407884094 30.4754517383930370 S
atom 2.4530710766187878 2.4251946096693282 35.5755933202595855 S
atom 7.5018616608927884 2.5049713859437248 35.5748463655185816 S
atom 2.5328478528931879 7.4739851939433208 35.5763402750006037 S
atom 7.4147706543269836 7.3868941873775347 35.5755933202595713 S
atom 1.9568198286475991 -0.0036276188618533 33.0023712079101514 S
atom 7.9721766988064635 -0.0070523006540188 33.0428771339762406 S
atom 3.0031628908068511 4.9619615073455607 33.0443710434584190 S
atom 6.9185194063558200 4.9580719588463316 33.0023712079101443 S
atom 2.9875284881721962 -0.0062150022067972 38.1744649929988071 S
atom 6.9151625652069839 -0.0109518581764862 38.0623731513280887 S
atom 1.9461487572073748 4.9580619498231107 38.0638670608101961 S
atom 7.9492280658804351 4.9554845755014014 38.1744649929988071 S
atom -0.0000294962838401 3.0085368642062993 33.0031181626511341 S
atom 4.9650947632165385 1.9548795717556644 33.0436240887172659 S
atom -0.0039190447830645 6.9238933797552713 33.0451179981994301 S
atom 4.9616700814243817 7.9702364419145022 33.0031181626511341 S
atom 0.0025578870611038 1.9778282046817020 38.1752119477398892 S
atom 4.9689943207390135 3.0118937053551385 38.0631201060690501 S
atom -0.0000194872605955 7.9809075133547243 38.0646140155512640 S
atom 4.9642574647693056 6.9395277823899031 38.1752119477398821 S
atom -0.0786489255172210 0.0037441736978769 40.6676537018106501 Ba
atom 4.9616125191560370 0.0749918103715272 40.6669067470696604 Ba
atom -0.0074012888435698 5.0440056183711244 40.6684006565516682 Ba
atom 4.8830506521909971 4.9654437514060739 40.6676537018106501 Ba
atom 0.1851920852711021 -0.2509383974754863 45.7136835836919388 Ba
atom 5.2162950903293881 -0.1888492004167940 45.7129366289508354 Ba
atom 0.2472812823297951 4.7801646075828055 45.7144305384329641 Ba
atom 5.1468916629793036 4.7107611802327289 45.7136835836919388 Ba
atom 2.5170567649254281 2.4096621029515828 43.2328991182822122 Zr
atom 7.5173941676105525 2.4409856976370934 43.2321521635412012 Zr
atom 2.5483803596109342 7.4099995056366659 43.2336460730233583 Zr
atom 7.4787563426336465 7.3713616806597795 43.2328991182822122 Zr
atom 2.5053796094936525 2.4535182853776716 48.3382604949494024 Zr
atom 7.4735379851844499 2.4526628530688681 48.3375135402083345 Zr
atom 2.5045241771848428 7.4216766610684610 48.3390074496903850 Zr
atom 7.4670791872018585 7.4152178630858723 48.3382604949494095 Zr
atom 2.6374192285994278 2.5576742965226478 40.6713108536291585 S
atom 7.3693819740394870 2.3206232339630870 40.6705638988881262 S
atom 2.4003681660398750 7.2896370419626679 40.6720578083702549 S
atom 7.5991188063076649 7.5193738742308343 40.6713108536291585 S
atom 2.3064711734078642 2.2569142608807820 45.7499971049654164 S
atom 7.6701420096813164 2.6515712891546457 45.7492501502243627 S
atom 2.7011282016817222 7.6205850971542359 45.7507440597064701 S
atom 7.2681707511160782 7.2186138385889995 45.7499971049654164 S
atom 2.0176451038698033 -0.0444309078594945 43.0328627997106494 S
atom 7.9518757583831174 -0.0485573653776834 43.3803512608855399 S
atom 2.9828619503835307 4.9204564426219184 43.3818451703676047 S
atom 6.9793446815780138 4.9172686698487142 43.0328627997106565 S
atom 2.1742648937110078 -0.0361563742649469 48.4412936882118430 S
atom 7.8443178259982442 -0.0424009476789258 48.0332370776938689 S
atom 2.8753040179986464 4.9266128603206774 48.0347309871760331 S
atom 7.1359644714192241 4.9255432034432607 48.4412936882118430 S
atom 0.0407737927138015 2.9477115889841019 43.0336097544518097 S
atom 5.0065998279401862 1.9751805121789794 43.3810982156264657 S
atom 0.0375860199406012 6.9441943201785916 43.3825921251087436 S
atom 5.0024733704220052 7.9094111666923084 43.0336097544518097 S
atom 0.0324992591192549 2.7910917991428925 48.4420406429528470 S
atom 5.0004434102414406 2.0827384445638768 48.0339840324349154 S
atom 0.0314296022418445 7.0517522525634542 48.0354779419170299 S
atom 4.9941988368274641 7.7527913768510910 48.4420406429528470 S
atom -0.1183932753335861 0.0445642154997775 50.5619384635293798 Ba
atom 4.9207924773541345 0.1147361601878936 50.5611915087882480 Ba
atom -0.0482213306454694 5.0837499681874858 50.5626854182704122 Ba
atom 4.8433063023746277 5.0062637932079790 50.5619384635293798 Ba
atom 2.6763075791037290 2.5677509513689709 50.8601596680706436 S
atom 7.3593053191931492 2.2817348834587845 50.8594127133295757 S
atom 2.3902915111935581 7.2507486914583863 50.8609066228116902 S
atom 7.6380071568119492 7.5294505290771658 50.8601596680706507 S
atom 2.5928160317949711 2.4427126057470518 53.9819148252501648 Ba
atom 7.4843436648150679 2.3652264307675450 53.9811678705092035 Ba
atom 2.5153298568154789 7.3342402387671335 53.9826617799912611 Ba
atom 7.5545156095031967 7.4044121834552401 53.9819148252501648 Ba
atom 2.2892306711902881 2.7382152187223059 58.8301697050876413 Ba
atom 7.1888410518398125 2.6688117913722258 58.8294227503466871 Ba
atom 2.2198272438402014 7.6378255993718156 58.8309166598287661 Ba
atom 7.2509302488984924 7.6999147964305035 58.8301697050876413 Ba
atom 4.9307427246759641 4.9954581135773486 56.2055927938301707 Zr
atom 9.8932977346929594 4.9889993155947616 56.2048458390891881 Zr
atom 4.9242839266933833 9.9580131235943785 56.2063397485712812 Zr
atom 9.8924423023841523 9.9571576912855644 56.2055927938301707 Zr
atom 4.9190655692441840 5.0393142960034387 61.3109541704973324 Zr
atom 9.8494415522668941 5.0006764710265426 61.3102072157562432 Zr
atom 4.8804277442672701 9.9696902790261337 61.3117011252384287 Zr
atom 9.8807651469524131 10.0010138737116296 61.3109541704973395 Zr
atom 4.7598147550658636 4.8812254475860701 53.6836936207089934 S
atom 10.0075304006842227 5.1599272852048577 53.6829466659679113 S
atom 5.0385165926846653 10.1289410932044586 53.6844405754500542 S
atom 9.7215143327740812 9.8429250252942797 53.6836936207089934 S
atom 5.1296511607617452 5.1920621380742240 58.7938561838141780 S
atom 9.6966937101960902 4.7900908795089885 58.7931092290731101 S
atom 4.7276799021964822 9.7591046875085699 58.7946031385553027 S
atom 10.0913507384699326 10.1537617157824425 58.7938561838141780 S
atom 4.5608183161709555 2.5223635386343606 56.5091223016036466 S
atom 10.2308712484581505 2.5161189652203824 56.1010656910855516 S
atom 5.2618574404585843 7.4851327732199735 56.1025596005676945 S
atom 9.5225178938791295 7.4840631163425506 56.5091223016036466 S
atom 4.4532603837860805 2.5285199563331173 61.1620081184119115 S
atom 10.3874910382994265 2.5243934988149306 61.5094965795867026 S
atom 5.4184772302997892 7.4934073068145182 61.5109904890688313 S
atom 9.4149599614942918 7.4902195340413105 61.1620081184119186 S
atom 2.4356789239281538 5.3662379543911598 56.5098692563446292 S
atom 7.4036230750503611 4.6578845998121290 56.1018126458267261 S
atom 2.4346092670507486 9.6268984078117352 56.1033065553088477 S
atom 7.3973785016363793 10.3279375320993658 56.5098692563446363 S
atom 2.4295225062293966 5.4737958867760286 61.1627550731529297 S
atom 7.3953485414558164 4.5012648099709098 61.5102435343277207 S
atom 2.4263347334561960 9.4702786179705072 61.5117374438098707 S
atom 7.3912220839376177 10.4354954644842444 61.1627550731529297 S
atom 2.5530716819786203 2.4835326475489445 63.8761995869689727 Ba
atom 7.4435236230131716 2.4049707805839002 63.8754526322278480 Ba
atom 2.4745098150135711 7.3739845885834914 63.8769465417100264 Ba
atom 7.5147712596868086 7.4452322252571586 63.8761995869689727 Ba
atom 2.4687981353630506 2.4421811635656132 68.9690107805935781 Ba
atom 7.4848751069964941 2.4892443271994691 68.9682638258525884 Ba
atom 2.5158612989968985 7.4582581351990456 68.9697577353347953 Ba
atom 7.4304977130712855 7.4038807412738068 68.9690107805935781 Ba
atom 4.9527270292247563 4.9602875128757562 66.4080626398599776 Zr
atom 9.9284683353945677 4.9670150110459774 66.4073156851188884 Zr
atom 4.9594545273949642 9.9360288190455464 66.4088095946010952 Zr
atom 9.9144266069329703 9.9219870905839649 66.4080626398599776 Zr
atom 4.9574570663128634 4.9659585613479571 71.5123723648839018 Zr
atom 9.9227972869223091 4.9622849739578818 71.5116254101429689 Zr
atom 4.9537834789227455 9.9312987819574641 71.5131193196248915 Zr
atom 9.9191566440210241 9.9276581390562022 71.5123723648839018 Zr
atom 4.7987031055701612 4.8913021024324017 63.8725424351504429 S
atom 9.9974537458379515 5.1210389347005627 63.8717954804093679 S
atom 5.0284399378383240 10.0900527427001236 63.8732893898914753 S
atom 9.7604026832784125 9.8530016801405882 63.8725424351504429 S
atom 4.9830512575508239 5.0237817892856951 68.9682599685197459 S
atom 9.8649740589846342 4.9366907827199018 68.9675130137787562 S
atom 4.8959602509850386 9.9057045907195143 68.9690069232609204 S
atom 9.9447508352590326 9.9854813669938878 68.9682599685197459 S
atom 5.4899735769622362 2.4909144491319184 66.4799862279694054 S
atom 9.4176076539969813 2.4861775931622327 66.3678943862986870 S
atom 4.4485938459974053 7.4551914011618221 66.3693882957808796 S
atom 10.4516731546704218 7.4526140268401102 66.4799862279694054 S
atom 4.4329594433627681 2.4870148916094483 71.4994822453211754 S
atom 10.4483163135216017 2.4835902098172893 71.5399881713873214 S
atom 5.4793025055220017 7.4526040178168911 71.5414820808694714 S
atom 9.3946590210709573 7.4487144693176504 71.4994822453211754 S
atom 2.4671280134306057 4.4370826935998924 66.4807331827104946 S
atom 7.4335644471085009 5.4711481942733169 66.3686413410396199 S
atom 2.4645506391088974 10.4401620022729524 66.3701352505217983 S
atom 7.4288275911388180 9.3987822713080789 66.4807331827104946 S
atom 2.4710275709530616 5.4940968271993560 71.5002292000620088 S
atom 7.4361518304534364 4.4404395347487231 71.5407351261285527 S
atom 2.4671380224538422 9.4094533427483373 71.5422290356104469 S
atom 7.4327271486612787 10.4557964049075558 71.5002292000620088 S
atom 2.4886371720243772 2.4920393715074383 74.0685241159490886 Ba
atom 7.4350168990546761 2.4694052905381363 74.0677771612080136 Ba
atom 2.4660030910550867 7.4384190985377305 74.0692710706902488 Ba
atom 7.4503367497325872 7.4537389492156345 74.0685241159490886 Ba
atom 2.4687891319228736 2.4785232780710564 79.1691316167458012 Ba
atom 7.4485329924910531 2.4892533306396429 79.1683846620045983 Ba
atom 2.4795191844914548 7.4582671386392363 79.1698785714868620 Ba
atom 7.4304887096310894 7.4402228557792611 79.1691316167458012 Ba
atom 4.9563428184702758 4.9667435047587354 76.6169514067214692 Zr
atom 9.9220123435116196 4.9633992218004375 76.6162044519804084 Zr
atom 4.9529985355119770 9.9324130298000401 76.6176983614625726 Zr
atom 9.9180423961784907 9.9284430824669219 76.6169514067214550 Zr
atom 4.9570093586105415 4.9660769646184617 81.7213118267700054 Zr
atom 9.9226788836518605 4.9627326816601709 81.7205648720289446 Zr
atom 4.9536650756522649 9.9317464896597354 81.7220587815110235 Zr
atom 9.9187089363187670 9.9277765423266562 81.7213118267700196 Zr
atom 4.9328111086153514 4.9527183358748088 74.0684015503866391 S
atom 9.9360375123955045 4.9869309316553840 74.0676545956457062 S
atom 4.9670237043959062 9.9559447396549707 74.0691485051276572 S
atom 9.8945106863235459 9.9144179135830228 74.0684015503866391 S
atom 4.9708098121378610 4.9805439582860531 79.1691316167458012 S
atom 9.9082118899842886 4.9489322281328638 79.1683846620045983 S
atom 4.9391980819846708 9.9179460361324168 79.1698785714868620 S
atom 9.9325093898460981 9.9422435359942440 79.1691316167458012 S
atom 5.4839978339405953 2.4849943685290712 76.6310881260324379 S
atom 9.3983522919808760 2.4811748564690816 76.6063144501768392 S
atom 4.4293384839812679 7.4501886644686746 76.6078083596590318 S
atom 10.4456974116487586 7.4466939462372821 76.6310881260324379 S
atom 4.4333242904733572 2.4827822401816255 81.7064281527177059 S
atom 10.4496832181408763 2.4792875219502406 81.7297079190914815 S
atom 5.4806694101412701 7.4483013299498300 81.7312018285736315 S
atom 9.3950238681815268 7.4444818178898151 81.7064281527177201 S
atom 2.4730480940334401 4.4430584366215324 76.6318350807733282 S
atom 7.4385671838016494 5.4904035562894489 76.6070614049180278 S
atom 2.4695533758020574 10.4594173642890240 76.6085553143999363 S
atom 7.4347476717416567 9.4047580143297420 76.6318350807733424 S
atom 2.4752602223808933 5.4937319800887758 81.7071751074589372 S
atom 7.4404545183204887 4.4390726301294592 81.7304548738324996 S
atom 2.4714407103208877 9.4080864381290663 81.7319487833146354 S
atom 7.4369598000891042 10.4554315577969579 81.7071751074589230 S
atom 2.4823052253592528 2.4983713181725644 84.2697391175423576 Ba
atom 7.4286849523895517 2.4757372372032589 84.2689921628012399 Ba
atom 2.4596711443899490 7.4447510452028620 84.2704860722832905 Ba
atom 7.4440048030674575 7.4600708958807678 84.2697391175423576 Ba
atom 2.4324470174174389 2.4785322815112396 89.3692524528979391 Ba
atom 7.4485239890508677 2.5255954451450893 89.3685054981565941 Ba
atom 2.4795101810512770 7.4946092531446737 89.3699994076389146 Ba
atom 7.3941465951256449 7.4402318592194607 89.3692524528979391 Ba
atom 4.9562244151997863 4.9671912124610396 86.8258908686075159 Zr
atom 9.9215646358092791 4.9635176250709288 86.8251439138663699 Zr
atom 4.9525508278096915 9.9325314330705208 86.8266378233485625 Zr
atom 9.9179239929080261 9.9288907901692269 86.8258908686075159 Zr
atom 4.9505533667275747 4.9624611753729493 91.9302005936314117 Zr
atom 9.9262946728974004 4.9691886735431456 91.9294536388903936 Zr
atom 4.9572808648977986 9.9382024815427492 91.9309475483724867 Zr
atom 9.9122529444357941 9.9241607530811624 91.9302005936314117 Zr
atom 4.9429841897266371 4.9425452547635169 84.2698616831048355 S
atom 9.9462105935068177 4.9767578505440868 84.2691147283637747 S
atom 4.9771967855072008 9.9457716585436984 84.2706086378457542 S
atom 9.9046837674348165 9.9042448324717238 84.2698616831048355 S
atom 5.0140476431375101 4.9927854036990116 89.3700032649715581 S
atom 9.8959704445713186 4.9056943971332174 89.3692563102304121 S
atom 4.9269566365717186 9.8747082051328210 89.3707502197125621 S
atom 9.9757472208457152 9.9544849814072176 89.3700032649715581 S
atom 5.4843626810511763 2.4807617171012599 86.8380340334293521 S
atom 9.3997191966001683 2.4768721686020307 86.7960341978807719 S
atom 4.4307053886005310 7.4458859766016152 86.7975281073628224 S
atom 10.4460622587594063 7.4424612948094406 86.8380340334293521 S
atom 4.4273485474517074 2.4768621595787903 91.8575300507809089 S
atom 10.4304278561247461 2.4742847852570820 91.9681279829694773 S
atom 5.4614140481251532 7.4432985932566753 91.9696218924516131 S
atom 9.3890481251599063 7.4385617372870021 91.8575300507809089 S
atom 2.4772807454612642 4.4426935895109407 86.8387809881702850 S
atom 7.4428698716686998 5.4890366516701876 86.7967811526218469 S
atom 2.4738560636690972 10.4580504596697637 86.7982750621040537 S
atom 7.4389803231694920 9.4043931672191352 86.8387809881702850 S
atom 2.4811803029837347 5.4997077231104070 91.8582770055217992 S
atom 7.4454572550136371 4.4583279921455743 91.9688749377106518 S
atom 2.4764434470140402 9.4273418001451663 91.9703688471927165 S
atom 7.4428798806919385 10.4614073008185997 91.8582770055217992 S
atom 2.4737985014007600 2.5628058281268005 94.4620636465223811 Ba
atom 7.3642504424353170 2.4842439611617619 94.4613166917813629 Ba
atom 2.3952366344357103 7.4532577691613424 94.4628106012635129 Ba
atom 7.4354980791089895 7.5245054058349972 94.4620636465223811 Ba
atom 2.7284810725741240 2.2989648173384798 99.5080935284036485 Ba
atom 7.6280914532236572 2.2295613899883961 99.5073465736626872 Ba
atom 2.6590776452240323 7.1985751979880002 99.5088404831448656 Ba
atom 7.6901806502823291 7.2606643950466863 99.5080935284036485 Ba
atom 5.0295801498552501 4.9287997153923504 97.0273090629940782 Zr
atom 9.9599561328779682 4.8901618904154667 97.0265621082530174 Zr
atom 4.9909423248783584 9.8591756984150685 97.0280560177353237 Zr
atom 9.9912797275634624 9.8904992931005715 97.0273090629940782 Zr
atom 4.9857239674291636 4.9404768708241606 102.1326704396612115 Zr
atom 9.9482789774462006 4.9340180728415453 102.1319234849200086 Zr
atom 4.9792651694465979 9.9030318808411408 102.1334173944021160 Zr
atom 9.9474235451374184 9.9021764485322983 102.1326704396612115 Zr
atom 4.8815679562842131 4.8084372517183480 94.4657207983410387 S
atom 10.0803185965519511 5.0381740839865197 94.4649738435997079 S
atom 5.1113047885523892 10.0071878919861099 94.4664677530819148 S
atom 9.8432675339924085 9.7701368294265531 94.4657207983410387 S
atom 5.1823279919260532 5.1393853069099116 99.5444070496769768 S
atom 9.7493705413604133 4.7374140483446769 99.5436600949360582 S
atom 4.7803567333607990 9.7064278563442485 99.5451540044181655 S
atom 10.1440275696342841 10.1010848846181105 99.5444070496769768 S
atom 5.4640617406278489 2.4392566523775896 97.1755081603380688 S
atom 9.4605444718223470 2.4360688796043912 96.8265257896812841 S
atom 4.4915306638227381 7.4050826876039917 96.8280196991634057 S
atom 10.4257613183360363 7.4009562300857965 97.1755081603380688 S
atom 5.3565038082429703 2.4454130700763486 101.8283939771468454 S
atom 9.6171642616635467 2.4443434131989323 102.2349566781828401 S
atom 4.6481504536639680 7.4133572211985381 102.2364505876648764 S
atom 10.3182033859511701 7.4071126477845555 101.8283939771468454 S
atom 2.5187858101849243 4.4629945299342655 97.1762551150792007 S
atom 7.4836731606663385 5.4282113764479893 96.8272727444224302 S
atom 2.5146593526667371 10.3972251844475618 96.8287666539043528 S
atom 7.4804853878931556 9.4246941076424839 97.1762551150792007 S
atom 2.5126293924861742 4.5705524623191440 101.8291409318877641 S
atom 7.4753986270717911 5.2715915866067764 102.2357036329238582 S
atom 2.5063848190721933 10.2406053946063711 102.2371975424060366 S
atom 7.4743289701943736 9.5322520400273572 101.8291409318877641 S
atom 2.4329784595988619 2.6025501779431566 104.3563484082410753 Ba
atom 7.3245060926189547 2.5250640029636631 104.3556014535002134 Ba
atom 2.3554922846193556 7.4940778109632395 104.3570953629821645 Ba
atom 7.3946780373070675 7.5642497556513790 104.3563484082410753 Ba
atom 4.8714913014378842 4.7695489012140539 104.6545696127822396 S
atom 10.1192069470562469 5.0482507388328530 104.6538226580412356 S
atom 5.1501931390566744 10.0172645468324326 104.6553165675233430 S
atom 9.8331908791461302 9.7312484789222342 104.6545696127822396 S
