#=======================================================
# FHI-aims file: sym_relax/sym_relax_RP_8_00Mz_00Mz.in
# Created using the Atomic Simulation Environment (ASE)
# Mon Mar 17 15:58:56 2025
#=======================================================
lattice_vector 9.9088354931095264 0.0000000231804613 0.0000000000000000 
lattice_vector 0.0000000231804613 9.9088354931095495 -0.0000000000000000 
lattice_vector 0.0000000000000000 -0.0000000000000000 87.6115862767526608 
atom -0.0000000000000000 -0.0000000000000000 0.1622379461293284 Ba
atom 4.9544177465547667 0.0000000115902312 0.1622379461293284 Ba
atom 0.0000000115902308 4.9544177465547774 0.1622379461293283 Ba
atom 4.9544177581449977 4.9544177581450048 0.1622379461293283 Ba
atom 0.0000000000000000 -0.0000000000000000 5.0654481105322198 Ba
atom 4.9544177465547659 0.0000000115902308 5.0654481105322198 Ba
atom 0.0000000115902308 4.9544177465547774 5.0654481105322198 Ba
atom 4.9544177581449977 4.9544177581450040 5.0654481105322198 Ba
atom 2.4772088790724989 2.4772088790725029 2.4355822996430563 Zr
atom 7.4316266256272661 2.4772088906627334 2.4355822996430563 Zr
atom 2.4772088906627312 7.4316266256272820 2.4355822996430563 Zr
atom 7.4316266372174988 7.4316266372175130 2.4355822996430563 Zr
atom 2.4772088790724989 2.4772088790725029 7.5737966153543388 Zr
atom 7.4316266256272661 2.4772088906627334 7.5737966153543388 Zr
atom 2.4772088906627312 7.4316266256272820 7.5737966153543388 Zr
atom 7.4316266372174988 7.4316266372175130 7.5737966153543388 Zr
atom 2.4772088790724989 2.4772088790725024 -0.1073208144139235 S
atom 7.4316266256272661 2.4772088906627334 -0.1073208144139235 S
atom 2.4772088906627312 7.4316266256272812 -0.1073208144139235 S
atom 7.4316266372174988 7.4316266372175122 -0.1073208144139235 S
atom 2.4772088790724989 2.4772088790725029 5.0361668955505419 S
atom 7.4316266256272661 2.4772088906627334 5.0361668955505419 S
atom 2.4772088906627312 7.4316266256272820 5.0361668955505419 S
atom 7.4316266372174988 7.4316266372175130 5.0361668955505419 S
atom 2.0526628284915889 0.0000043085122477 2.5290124356680241 S
atom 7.8561726646179428 -0.0000042853317866 2.5290124356680241 S
atom 2.9017549296534098 4.9544134496327565 2.5290124356680241 S
atom 7.0070805866365902 4.9544220666572567 2.5290124356680241 S
atom 2.9977723673387993 0.0000005921671882 7.5897184482085134 S
atom 6.9110631257707427 -0.0000005689867266 7.5897184482085134 S
atom 1.9566453908062011 4.9544171659778184 7.5897184482085134 S
atom 7.9521901254837850 4.9544183503121983 7.5897184482085134 S
atom -0.0000042969220174 2.9017549180631792 2.5290124356680250 S
atom 4.9544220550670204 2.0526628400818288 2.5290124356680241 S
atom 0.0000043201024790 7.0070805750463769 2.5290124356680241 S
atom 4.9544134612229840 7.8561726762081880 2.5290124356680241 S
atom -0.0000005805769579 1.9566453792159764 7.5897184482085134 S
atom 4.9544183387219531 2.9977723789290325 7.5897184482085134 S
atom 0.0000006037574190 7.9521901138935815 7.5897184482085134 S
atom 4.9544171775680379 6.9110631373609879 7.5897184482085134 S
atom -0.0000000000000000 -0.0000000000000000 10.1541133858944583 Ba
atom 4.9544177465547659 0.0000000115902308 10.1541133858944583 Ba
atom 0.0000000115902308 4.9544177465547774 10.1541133858944583 Ba
atom 4.9544177581449977 4.9544177581450040 10.1541133858944583 Ba
atom 0.0000000000000000 -0.0000000000000000 15.2624450113651839 Ba
atom 4.9544177465547659 0.0000000115902308 15.2624450113651839 Ba
atom 0.0000000115902308 4.9544177465547774 15.2624450113651839 Ba
atom 4.9544177581449977 4.9544177581450040 15.2624450113651839 Ba
atom 2.4772088790724989 2.4772088790725029 12.6957562277400680 Zr
atom 7.4316266256272661 2.4772088906627334 12.6957562277400680 Zr
atom 2.4772088906627312 7.4316266256272820 12.6957562277400680 Zr
atom 7.4316266372174988 7.4316266372175130 12.6957562277400680 Zr
atom 2.4772088790724989 2.4772088790725029 17.8153217666504382 Zr
atom 7.4316266256272661 2.4772088906627334 17.8153217666504382 Zr
atom 2.4772088906627312 7.4316266256272820 17.8153217666504382 Zr
atom 7.4316266372174988 7.4316266372175130 17.8153217666504382 Zr
atom 2.4772088790724989 2.4772088790725029 10.1454926268758818 S
atom 7.4316266256272661 2.4772088906627334 10.1454926268758818 S
atom 2.4772088906627312 7.4316266256272820 10.1454926268758818 S
atom 7.4316266372174988 7.4316266372175130 10.1454926268758818 S
atom 2.4772088790724989 2.4772088790725029 15.2603505795958689 S
atom 7.4316266256272661 2.4772088906627334 15.2603505795958689 S
atom 2.4772088906627312 7.4316266256272820 15.2603505795958689 S
atom 7.4316266372174988 7.4316266372175130 15.2603505795958689 S
atom 2.9797740503097314 0.0000000436384545 12.7082917591867961 S
atom 6.9290614427998047 -0.0000000204579929 12.7082917591867961 S
atom 1.9746437078352679 4.9544177145065520 12.7082917591867961 S
atom 7.9341918084547283 4.9544178017834586 12.7082917591867961 S
atom 2.9819700649856298 -0.0000000063665025 17.8185566667952884 S
atom 6.9268654281239073 0.0000000295469645 17.8185566667952884 S
atom 1.9724476931593689 4.9544177645115157 17.8185566667952884 S
atom 7.9363878231306257 4.9544177517784984 17.8185566667952884 S
atom -0.0000000320482242 1.9746436962450409 12.7082917591867961 S
atom 4.9544177901932240 2.9797740618999673 12.7082917591867961 S
atom 0.0000000552286853 7.9341917968645133 12.7082917591867961 S
atom 4.9544177260967732 6.9290614543900544 12.7082917591867961 S
atom 0.0000000179567328 1.9724476815691447 17.8185566667952884 S
atom 4.9544177401882497 2.9819700765758639 17.8185566667952884 S
atom 0.0000000052237283 7.9363878115404152 17.8185566667952884 S
atom 4.9544177761017352 6.9268654397141551 17.8185566667952884 S
atom -0.0000000000000000 -0.0000000000000000 20.3747875062215726 Ba
atom 4.9544177465547659 0.0000000115902308 20.3747875062215726 Ba
atom 0.0000000115902308 4.9544177465547774 20.3747875062215726 Ba
atom 4.9544177581449977 4.9544177581450040 20.3747875062215726 Ba
atom 0.0000000000000000 -0.0000000000000000 25.4871300010779613 Ba
atom 4.9544177465547659 0.0000000115902308 25.4871300010779613 Ba
atom 0.0000000115902308 4.9544177465547783 25.4871300010779613 Ba
atom 4.9544177581449977 4.9544177581450057 25.4871300010779613 Ba
atom 2.4772088790724989 2.4772088790725029 22.9342532457926609 Zr
atom 7.4316266256272661 2.4772088906627339 22.9342532457926609 Zr
atom 2.4772088906627312 7.4316266256272829 22.9342532457926609 Zr
atom 7.4316266372174988 7.4316266372175113 22.9342532457926609 Zr
atom 2.4772088790724989 2.4772088790725029 28.0538187847030080 Zr
atom 7.4316266256272661 2.4772088906627339 28.0538187847030080 Zr
atom 2.4772088906627312 7.4316266256272829 28.0538187847030080 Zr
atom 7.4316266372174988 7.4316266372175113 28.0538187847030080 Zr
atom 2.4772088790724989 2.4772088790725029 20.3747875062215726 S
atom 7.4316266256272661 2.4772088906627334 20.3747875062215726 S
atom 2.4772088906627312 7.4316266256272820 20.3747875062215726 S
atom 7.4316266372174988 7.4316266372175130 20.3747875062215726 S
atom 2.4772088790724989 2.4772088790725029 25.4892244328472550 S
atom 7.4316266256272661 2.4772088906627339 25.4892244328472550 S
atom 2.4772088906627312 7.4316266256272829 25.4892244328472550 S
atom 7.4316266372174988 7.4316266372175113 25.4892244328472550 S
atom 2.9819700649856298 -0.0000000063665016 22.9310183456478214 S
atom 6.9268654281239073 0.0000000295469645 22.9310183456478214 S
atom 1.9724476931593689 4.9544177645115166 22.9310183456478214 S
atom 7.9363878231306257 4.9544177517784975 22.9310183456478214 S
atom 2.9797740503097314 0.0000000436384554 28.0412832532563066 S
atom 6.9290614427998047 -0.0000000204579925 28.0412832532563066 S
atom 1.9746437078352679 4.9544177145065538 28.0412832532563066 S
atom 7.9341918084547283 4.9544178017834577 28.0412832532563066 S
atom 0.0000000179567328 1.9724476815691456 22.9310183456478214 S
atom 4.9544177401882497 2.9819700765758648 22.9310183456478214 S
atom 0.0000000052237283 7.9363878115404134 22.9310183456478214 S
atom 4.9544177761017352 6.9268654397141542 22.9310183456478214 S
atom -0.0000000320482242 1.9746436962450427 28.0412832532563066 S
atom 4.9544177901932240 2.9797740618999686 28.0412832532563066 S
atom 0.0000000552286853 7.9341917968645115 28.0412832532563066 S
atom 4.9544177260967732 6.9290614543900535 28.0412832532563066 S
atom 0.0000000000000000 -0.0000000000000000 30.5954616265486514 Ba
atom 4.9544177465547659 0.0000000115902308 30.5954616265486514 Ba
atom 0.0000000115902308 4.9544177465547783 30.5954616265486514 Ba
atom 4.9544177581449977 4.9544177581450057 30.5954616265486514 Ba
atom 0.0000000000000000 -0.0000000000000000 35.6841269019109149 Ba
atom 4.9544177465547659 0.0000000115902308 35.6841269019109149 Ba
atom 0.0000000115902308 4.9544177465547783 35.6841269019109149 Ba
atom 4.9544177581449977 4.9544177581450057 35.6841269019109149 Ba
atom 2.4772088790724989 2.4772088790725029 33.1757783970887417 Zr
atom 7.4316266256272661 2.4772088906627339 33.1757783970887417 Zr
atom 2.4772088906627312 7.4316266256272829 33.1757783970887417 Zr
atom 7.4316266372174988 7.4316266372175113 33.1757783970887417 Zr
atom 2.4772088790724989 2.4772088790725029 38.3139927128001005 Zr
atom 7.4316266256272661 2.4772088906627339 38.3139927128001005 Zr
atom 2.4772088906627312 7.4316266256272829 38.3139927128001005 Zr
atom 7.4316266372174988 7.4316266372175113 38.3139927128001005 Zr
atom 2.4772088790724989 2.4772088790725029 30.6040823855672173 S
atom 7.4316266256272661 2.4772088906627339 30.6040823855672173 S
atom 2.4772088906627312 7.4316266256272829 30.6040823855672173 S
atom 7.4316266372174988 7.4316266372175113 30.6040823855672173 S
atom 2.4772088790724989 2.4772088790725029 35.7134081168925590 S
atom 7.4316266256272661 2.4772088906627339 35.7134081168925590 S
atom 2.4772088906627312 7.4316266256272829 35.7134081168925590 S
atom 7.4316266372174988 7.4316266372175113 35.7134081168925590 S
atom 2.9977723673387993 0.0000005921671891 33.1598565642345520 S
atom 6.9110631257707427 -0.0000005689867262 33.1598565642345520 S
atom 1.9566453908062011 4.9544171659778202 33.1598565642345520 S
atom 7.9521901254837850 4.9544183503121975 33.1598565642345520 S
atom 2.0526628284915889 0.0000043085122495 38.2205625767751229 S
atom 7.8561726646179428 -0.0000042853317861 38.2205625767751229 S
atom 2.9017549296534098 4.9544134496327583 38.2205625767751229 S
atom 7.0070805866365902 4.9544220666572567 38.2205625767751229 S
atom -0.0000005805769579 1.9566453792159773 33.1598565642345520 S
atom 4.9544183387219531 2.9977723789290343 33.1598565642345520 S
atom 0.0000006037574190 7.9521901138935815 33.1598565642345520 S
atom 4.9544171775680379 6.9110631373609861 33.1598565642345520 S
atom -0.0000042969220174 2.9017549180631801 38.2205625767751229 S
atom 4.9544220550670204 2.0526628400818296 38.2205625767751229 S
atom 0.0000043201024790 7.0070805750463752 38.2205625767751229 S
atom 4.9544134612229840 7.8561726762081880 38.2205625767751229 S
atom 0.0000000000000000 -0.0000000000000000 40.5873370663137294 Ba
atom 4.9544177465547659 0.0000000115902308 40.5873370663137294 Ba
atom 0.0000000115902308 4.9544177465547783 40.5873370663137294 Ba
atom 4.9544177581449977 4.9544177581450057 40.5873370663137294 Ba
atom 2.4772088790724989 2.4772088790725029 40.8568958268570839 S
atom 7.4316266256272661 2.4772088906627339 40.8568958268570839 S
atom 2.4772088906627312 7.4316266256272829 40.8568958268570839 S
atom 7.4316266372174988 7.4316266372175113 40.8568958268570839 S
atom 2.4772088790724989 2.4772088790725038 43.9680310845056752 Ba
atom 7.4316266256272661 2.4772088906627339 43.9680310845056752 Ba
atom 2.4772088906627312 7.4316266256272829 43.9680310845056752 Ba
atom 7.4316266372174988 7.4316266372175122 43.9680310845056752 Ba
atom 2.4772088790724989 2.4772088790725029 48.8712412489084471 Ba
atom 7.4316266256272661 2.4772088906627339 48.8712412489084471 Ba
atom 2.4772088906627312 7.4316266256272812 48.8712412489084471 Ba
atom 7.4316266372174988 7.4316266372175122 48.8712412489084471 Ba
atom 4.9544177581449977 4.9544177581450057 46.2413754380194177 Zr
atom 9.9088355046997485 4.9544177697352421 46.2413754380194177 Zr
atom 4.9544177697352225 9.9088355046997947 46.2413754380194177 Zr
atom 9.9088355162899955 9.9088355162900097 46.2413754380194177 Zr
atom 4.9544177581449977 4.9544177581450057 51.3795897537306132 Zr
atom 9.9088355046997485 4.9544177697352421 51.3795897537306132 Zr
atom 4.9544177697352225 9.9088355046997947 51.3795897537306132 Zr
atom 9.9088355162899955 9.9088355162900097 51.3795897537306132 Zr
atom 4.9544177581449977 4.9544177581450057 43.6984723239623989 S
atom 9.9088355046997485 4.9544177697352412 43.6984723239623989 S
atom 4.9544177697352225 9.9088355046997929 43.6984723239623989 S
atom 9.9088355162899955 9.9088355162900097 43.6984723239623989 S
atom 4.9544177581449977 4.9544177581450057 48.8419600339268882 S
atom 9.9088355046997485 4.9544177697352421 48.8419600339268882 S
atom 4.9544177697352225 9.9088355046997947 48.8419600339268882 S
atom 9.9088355162899955 9.9088355162900097 48.8419600339268882 S
atom 5.3789637971356701 2.4772045821504882 46.3348055740443527 S
atom 9.4842894541188567 2.4772131991749822 46.3348055740443527 S
atom 4.5298717191543183 7.4316309341395259 46.3348055740443527 S
atom 10.3333815552806794 7.4316223402954957 46.3348055740443527 S
atom 4.4338542582884726 2.4772082984955461 51.3955115865848953 S
atom 10.4293989929660693 2.4772094828299260 51.3955115865848953 S
atom 5.4749812580015185 7.4316272177944711 51.3955115865848953 S
atom 9.3882720164334845 7.4316260566405559 51.3955115865848953 S
atom 2.4772131875847476 4.5298717075641006 46.3348055740443527 S
atom 7.4316223287052541 5.3789638087259135 46.3348055740443527 S
atom 2.4772045937407103 10.3333815436904715 46.3348055740443527 S
atom 7.4316309457297445 9.4842894657091019 46.3348055740443527 S
atom 2.4772094712396879 5.4749812464113017 51.3955115865848953 S
atom 7.4316260450503071 4.4338542698787089 51.3955115865848953 S
atom 2.4772083100857660 9.3882720048432660 51.3955115865848953 S
atom 7.4316272293846870 10.4293990045563039 51.3955115865848953 S
atom 2.4772088790724989 2.4772088790725029 53.9599065242707780 Ba
atom 7.4316266256272661 2.4772088906627339 53.9599065242707780 Ba
atom 2.4772088906627312 7.4316266256272812 53.9599065242707780 Ba
atom 7.4316266372174988 7.4316266372175122 53.9599065242707780 Ba
atom 2.4772088790724989 2.4772088790725029 59.0682381497414823 Ba
atom 7.4316266256272661 2.4772088906627339 59.0682381497414823 Ba
atom 2.4772088906627312 7.4316266256272812 59.0682381497414823 Ba
atom 7.4316266372174988 7.4316266372175122 59.0682381497414823 Ba
atom 4.9544177581449977 4.9544177581450057 56.5015493661164143 Zr
atom 9.9088355046997485 4.9544177697352421 56.5015493661164143 Zr
atom 4.9544177697352225 9.9088355046997947 56.5015493661164143 Zr
atom 9.9088355162899955 9.9088355162900097 56.5015493661164143 Zr
atom 4.9544177581449977 4.9544177581450057 61.6211149050267792 Zr
atom 9.9088355046997485 4.9544177697352421 61.6211149050267792 Zr
atom 4.9544177697352225 9.9088355046997947 61.6211149050267792 Zr
atom 9.9088355162899955 9.9088355162900097 61.6211149050267792 Zr
atom 4.9544177581449977 4.9544177581450057 53.9512857652522015 S
atom 9.9088355046997485 4.9544177697352421 53.9512857652522015 S
atom 4.9544177697352225 9.9088355046997947 53.9512857652522015 S
atom 9.9088355162899955 9.9088355162900097 53.9512857652522015 S
atom 4.9544177581449977 4.9544177581450057 59.0661437179722242 S
atom 9.9088355046997485 4.9544177697352421 59.0661437179722242 S
atom 4.9544177697352225 9.9088355046997947 59.0661437179722242 S
atom 9.9088355162899955 9.9088355162900097 59.0661437179722242 S
atom 4.4518525753175355 2.4772088470242801 56.5140848975631016 S
atom 10.4114006759369957 2.4772089343011912 56.5140848975631016 S
atom 5.4569829409724564 7.4316266692657322 56.5140848975631016 S
atom 9.4062703334625475 7.4316266051692921 56.5140848975631016 S
atom 4.4496565606416381 2.4772088970292372 61.6243498051716614 S
atom 10.4135966906129056 2.4772088842962310 61.6243498051716614 S
atom 5.4591789556483539 7.4316266192607712 61.6243498051716614 S
atom 9.4040743187866447 7.4316266551742585 61.6243498051716614 S
atom 2.4772089227109548 5.4569829293822369 56.5140848975631016 S
atom 7.4316265935790424 4.4518525869077799 56.5140848975631016 S
atom 2.4772088586145080 9.4062703218723236 56.5140848975631016 S
atom 7.4316266808559455 10.4114006875272427 56.5140848975631016 S
atom 2.4772088727059969 5.4591789440581371 61.6243498051716614 S
atom 7.4316266435840088 4.4496565722318850 61.6243498051716614 S
atom 2.4772089086194633 9.4040743071964261 61.6243498051716614 S
atom 7.4316266308509951 10.4135967022031473 61.6243498051716614 S
atom 2.4772088790724989 2.4772088790725029 64.1805806445978817 Ba
atom 7.4316266256272661 2.4772088906627339 64.1805806445978817 Ba
atom 2.4772088906627312 7.4316266256272812 64.1805806445978817 Ba
atom 7.4316266372174988 7.4316266372175122 64.1805806445978817 Ba
atom 2.4772088790724989 2.4772088790725029 69.2929231394542455 Ba
atom 7.4316266256272661 2.4772088906627339 69.2929231394542455 Ba
atom 2.4772088906627312 7.4316266256272829 69.2929231394542455 Ba
atom 7.4316266372174988 7.4316266372175130 69.2929231394542455 Ba
atom 4.9544177581449977 4.9544177581450057 66.7400463841688918 Zr
atom 9.9088355046997485 4.9544177697352421 66.7400463841688918 Zr
atom 4.9544177697352225 9.9088355046997947 66.7400463841688918 Zr
atom 9.9088355162899955 9.9088355162900115 66.7400463841688918 Zr
atom 4.9544177581449977 4.9544177581450057 71.8596119230794415 Zr
atom 9.9088355046997485 4.9544177697352421 71.8596119230794415 Zr
atom 4.9544177697352225 9.9088355046997947 71.8596119230794415 Zr
atom 9.9088355162899955 9.9088355162900115 71.8596119230794415 Zr
atom 4.9544177581449977 4.9544177581450057 64.1805806445978817 S
atom 9.9088355046997485 4.9544177697352421 64.1805806445978817 S
atom 4.9544177697352225 9.9088355046997947 64.1805806445978817 S
atom 9.9088355162899955 9.9088355162900097 64.1805806445978817 S
atom 4.9544177581449977 4.9544177581450057 69.2950175712235961 S
atom 9.9088355046997485 4.9544177697352421 69.2950175712235961 S
atom 4.9544177697352225 9.9088355046997947 69.2950175712235961 S
atom 9.9088355162899955 9.9088355162900115 69.2950175712235961 S
atom 4.4496565606416381 2.4772088970292372 66.7368114840241162 S
atom 10.4135966906129056 2.4772088842962319 66.7368114840241162 S
atom 5.4591789556483539 7.4316266192607721 66.7368114840241162 S
atom 9.4040743187866447 7.4316266551742594 66.7368114840241162 S
atom 4.4518525753175355 2.4772088470242801 71.8470763916326689 S
atom 10.4114006759369957 2.4772089343011920 71.8470763916326689 S
atom 5.4569829409724564 7.4316266692657331 71.8470763916326689 S
atom 9.4062703334625475 7.4316266051692939 71.8470763916326689 S
atom 2.4772088727059969 5.4591789440581380 66.7368114840241162 S
atom 7.4316266435840088 4.4496565722318859 66.7368114840241162 S
atom 2.4772089086194633 9.4040743071964279 66.7368114840241162 S
atom 7.4316266308509951 10.4135967022031473 66.7368114840241162 S
atom 2.4772089227109548 5.4569829293822369 71.8470763916326689 S
atom 7.4316265935790424 4.4518525869077816 71.8470763916326689 S
atom 2.4772088586145080 9.4062703218723254 71.8470763916326689 S
atom 7.4316266808559455 10.4114006875272427 71.8470763916326689 S
atom 2.4772088790724989 2.4772088790725029 74.4012547649248432 Ba
atom 7.4316266256272661 2.4772088906627339 74.4012547649248432 Ba
atom 2.4772088906627312 7.4316266256272829 74.4012547649248432 Ba
atom 7.4316266372174988 7.4316266372175130 74.4012547649248432 Ba
atom 2.4772088790724989 2.4772088790725029 79.4899200402872594 Ba
atom 7.4316266256272661 2.4772088906627339 79.4899200402872594 Ba
atom 2.4772088906627312 7.4316266256272829 79.4899200402872594 Ba
atom 7.4316266372174988 7.4316266372175130 79.4899200402872594 Ba
atom 4.9544177581449977 4.9544177581450057 76.9815715354649370 Zr
atom 9.9088355046997485 4.9544177697352421 76.9815715354649370 Zr
atom 4.9544177697352225 9.9088355046997947 76.9815715354649370 Zr
atom 9.9088355162899955 9.9088355162900115 76.9815715354649370 Zr
atom 4.9544177581449977 4.9544177581450057 82.1197858511764736 Zr
atom 9.9088355046997485 4.9544177697352421 82.1197858511764736 Zr
atom 4.9544177697352225 9.9088355046997947 82.1197858511764736 Zr
atom 9.9088355162899955 9.9088355162900115 82.1197858511764736 Zr
atom 4.9544177581449977 4.9544177581450057 74.4098755239435548 S
atom 9.9088355046997485 4.9544177697352421 74.4098755239435548 S
atom 4.9544177697352225 9.9088355046997947 74.4098755239435548 S
atom 9.9088355162899955 9.9088355162900115 74.4098755239435548 S
atom 4.9544177581449977 4.9544177581450057 79.5192012552688965 S
atom 9.9088355046997485 4.9544177697352421 79.5192012552688965 S
atom 4.9544177697352225 9.9088355046997947 79.5192012552688965 S
atom 9.9088355162899955 9.9088355162900115 79.5192012552688965 S
atom 4.4338542582884726 2.4772082984955466 76.9656497026108752 S
atom 10.4293989929660693 2.4772094828299269 76.9656497026108752 S
atom 5.4749812580015185 7.4316272177944720 76.9656497026108752 S
atom 9.3882720164334845 7.4316260566405576 76.9656497026108752 S
atom 5.3789637971356701 2.4772045821504887 82.0263557151515101 S
atom 9.4842894541188567 2.4772131991749839 82.0263557151515101 S
atom 4.5298717191543192 7.4316309341395277 82.0263557151515101 S
atom 10.3333815552806794 7.4316223402954975 82.0263557151515101 S
atom 2.4772094712396879 5.4749812464113035 76.9656497026108752 S
atom 7.4316260450503071 4.4338542698787107 76.9656497026108752 S
atom 2.4772083100857660 9.3882720048432677 76.9656497026108752 S
atom 7.4316272293846870 10.4293990045563056 76.9656497026108752 S
atom 2.4772131875847476 4.5298717075641006 82.0263557151515101 S
atom 7.4316223287052541 5.3789638087259144 82.0263557151515101 S
atom 2.4772045937407103 10.3333815436904715 82.0263557151515101 S
atom 7.4316309457297445 9.4842894657091019 82.0263557151515101 S
atom 2.4772088790724989 2.4772088790725029 84.3931302046901806 Ba
atom 7.4316266256272661 2.4772088906627339 84.3931302046901806 Ba
atom 2.4772088906627312 7.4316266256272829 84.3931302046901806 Ba
atom 7.4316266372174988 7.4316266372175130 84.3931302046901806 Ba
atom 4.9544177581449977 4.9544177581450057 84.6626889652333006 S
atom 9.9088355046997485 4.9544177697352421 84.6626889652333006 S
atom 4.9544177697352225 9.9088355046997947 84.6626889652333006 S
atom 9.9088355162899955 9.9088355162900115 84.6626889652333006 S
