#=======================================================
# FHI-aims file: sym_relax/sym_relax_RP_1_Rx0Rz_0-Ry0.in
# Created using the Atomic Simulation Environment (ASE)
# Fri Mar 14 10:20:23 2025
#=======================================================
lattice_vector 10.1083930123313710 -0.0000000000000000 0.0001835265168384 
lattice_vector -0.0000000000000000 10.1084024447040868 0.0000000000000000 
lattice_vector -0.0002908397635925 0.0000000000000000 15.5284620784447132 
atom 0.1566122133046195 0.0000000000000000 0.2394967888756797 Ba
atom 4.8975433000300876 0.0000000000000000 0.2395919507304503 Ba
atom -0.1566532061355956 5.0542012223520452 0.2395001874720311 Ba
atom 5.2108087194703208 5.0542012223520452 0.2395885521340990 Ba
atom -0.1567031007307420 0.0000000000000000 4.6131476106382898 Ba
atom 5.2107588248751702 0.0000000000000000 4.6132359753003609 Ba
atom 0.1565623187094728 5.0542012223520452 4.6131442120419415 Ba
atom 4.8974934054349504 5.0542012223520452 4.6132393738967084 Ba
atom 2.5270528093697835 2.5271006111760226 2.4263680813861992 Zr
atom 7.5812493155354712 2.5271006111760226 2.4264598446446155 Zr
atom 2.5270528093697835 7.5813018335280722 2.4263680813861992 Zr
atom 7.5812493155354712 7.5813018335280722 2.4264598446446155 Zr
atom 2.5270952021719220 2.2091157242285235 -0.1069960074735256 S
atom 7.5812917083376110 2.8450854981235230 -0.1069042442151065 S
atom 2.5270952021719220 7.8992867204755663 -0.1069960074735256 S
atom 7.5812917083376110 7.2633169465805762 -0.1069042442151064 S
atom 2.5270104165676446 2.8450854981235230 4.9597321702459194 S
atom 7.5812069227333341 2.2091157242285235 4.9598239335043433 S
atom 2.5270104165676446 7.2633169465805762 4.9597321702459194 S
atom 7.5812069227333341 7.8992867204755663 4.9598239335043433 S
atom 2.5270486252641962 0.0000000000000000 2.7371683210445461 S
atom 7.5812534996410657 0.0000000000000000 2.1156596049862690 S
atom 2.5270569934753762 5.0542012223520452 2.1155678417278478 S
atom 7.5812451314298821 5.0542012223520452 2.7372600843029673 S
atom -0.0000454437130615 2.5270997071610739 2.4263221997569904 S
atom 5.0541510624526333 2.5271015151909690 2.4264139630154054 S
atom -0.0000454437130615 7.5813027375430098 2.4263221997569904 S
atom 5.0541510624526333 7.5813009295131284 2.4264139630154054 S
atom 2.5269515671845646 2.3704710895362093 8.0037665180761586 Ba
atom 7.5811480733502616 2.6837301328158389 8.0038582813345833 Ba
atom 2.5269515671845642 7.7379313551678788 8.0037665180761621 Ba
atom 7.5811480733502616 7.4246723118882585 8.0038582813345851 Ba
atom 2.5268632117914080 2.6837301328158398 12.3774317231409636 Ba
atom 7.5810597179570935 2.3704710895362102 12.3775234863994044 Ba
atom 2.5268632117914076 7.4246723118882585 12.3774317231409672 Ba
atom 7.5810597179570944 7.7379313551678788 12.3775234863994044 Ba
atom 5.0540056425708340 5.0542012223520452 10.1906450022377673 Zr
atom 10.1082021487365150 5.0542012223520452 10.1907367654962009 Zr
atom 5.0540056425708340 10.1084024447040903 10.1906450022377673 Zr
atom 10.1082021487365168 10.1084024447040903 10.1907367654962009 Zr
atom 5.3720253757701313 5.0542012223520452 7.6572831696597108 S
atom 9.7902596032759828 5.0542012223520452 7.6573588026793526 S
atom 4.7360630971102893 10.1084024447040903 7.6572670394209350 S
atom 10.4262218819358363 10.1084024447040903 7.6573749329181311 S
atom 4.7359859093715340 5.0542012223520452 12.7240068348158424 S
atom 10.4261446941970473 5.0542012223520452 12.7241147283130367 S
atom 5.3719481880313733 10.1084024447040903 12.7240229650546208 S
atom 9.7901824155372079 10.1084024447040903 12.7240985980742618 S
atom 5.0540056425708340 2.5271013876006694 10.1906450022377673 S
atom 10.1082021487365150 2.5270998347513793 10.1907367654962009 S
atom 5.0540056425708340 7.5813010571034303 10.1906450022377673 S
atom 10.1082021487365150 7.5813026099527168 10.1907367654962009 S
atom 2.5269123854852058 5.0542012223520452 9.8798002790542014 S
atom 7.5810988996564559 5.0542012223520452 10.5014897254213473 S
atom 2.5269023934907660 10.1084024447040903 10.5013979621629243 S
atom 7.5811088916509020 10.1084024447040903 9.8798920423126155 S
