#=======================================================
# FHI-aims file: sym_relax/sym_relax_RP_5_Rx0Rz_0Ry0.in
# Created using the Atomic Simulation Environment (ASE)
# Fri Mar 14 10:53:05 2025
#=======================================================
lattice_vector 10.0872848182781940 -0.0000000000000000 0.0035339806547888 
lattice_vector -0.0000000000000000 10.0904040037175697 0.0000000000000001 
lattice_vector 0.0168322536577529 0.0000000000000003 55.0815069030729418 
atom -0.1641711502492878 0.0000000000000000 0.2796907087651044 Ba
atom 5.1878460728679556 0.0000000000000000 0.2806038666064156 Ba
atom 0.1442036637288518 5.0452020018587804 0.2788368762790212 Ba
atom 4.8794712588898079 5.0452020018587804 0.2814576990924982 Ba
atom 0.0015319202628924 0.0000000000000000 4.9463361236646186 Ba
atom 4.9885361632788845 0.0000000000000000 4.9370745731668615 Ba
atom -0.0551062458602088 5.0452020018587804 4.9353075828394743 Ba
atom 5.0451743294019940 5.0452020018587804 4.9481031139920111 Ba
atom 2.5098144075496602 2.5099078483586710 2.3204331478634619 Zr
atom 7.5534568166887750 2.5352941535000975 2.3222001381908637 Zr
atom 2.5098144075496593 7.5804961553588779 2.3204331478634641 Zr
atom 7.5534568166887768 7.5551098502174359 2.3222001381908637 Zr
atom 2.5112939838290904 2.5214792530276111 7.3329638513112974 Zr
atom 7.5549363929681927 2.5237227488311542 7.3347308416386907 Zr
atom 2.5112939838290900 7.5689247506899342 7.3329638513112938 Zr
atom 7.5549363929681927 7.5666812548863867 7.3347308416386889 Zr
atom 2.5121276656055729 2.8774415270643274 -0.1605063767678852 S
atom 7.5557700747446574 2.1677604747944459 -0.1587393864404909 S
atom 2.5121276656055729 7.2129624766532219 -0.1605063767678852 S
atom 7.5557700747446557 7.9226435289231025 -0.1587393864404907 S
atom 2.5134862504821389 2.0516631393005245 4.8617238355002170 S
atom 7.5571286596212408 2.9935388625582502 4.8634908258276166 S
atom 2.5134862504821398 8.0387408644170328 4.8617238355002188 S
atom 7.5571286596212390 7.0968651411592942 4.8634908258276166 S
atom 2.5126054815262622 0.0000000000000000 2.0062873250268662 S
atom 7.5504658876294135 0.0000000000000000 2.7976193216323413 S
atom 2.5068234784903205 5.0452020018587804 2.7958523313049444 S
atom 7.5562478906653645 5.0452020018587804 2.0080543153542671 S
atom 2.5876886291071322 0.0000000000000000 7.8037278680333975 S
atom 7.5014178788200025 0.0000000000000000 6.8817330517178323 S
atom 2.4577754696809060 5.0452020018587804 6.8799660613904310 S
atom 7.6313310382462252 5.0452020018587804 7.8054948583607953 S
atom -0.0113034754533935 2.5215821680834187 2.4535188463560327 S
atom 5.0323389336857103 2.5236198337753537 2.4552858366834167 S
atom -0.0113034754533935 7.5688218356341235 2.4535188463560318 S
atom 5.0323389336857103 7.5667841699421929 2.4552858366834163 S
atom -0.0059907995026861 2.4451476881084795 7.3452555837153088 S
atom 5.0376516096363977 2.6000543137502978 7.3470225740426889 S
atom -0.0059907995026861 7.6452563156090658 7.3452555837153106 S
atom 5.0376516096363977 7.4903496899672621 7.3470225740426880 S
atom -0.0167234379474199 0.0000000000000000 9.7859506213629448 Ba
atom 5.0464816403738917 0.0000000000000000 9.8730677216560689 Ba
atom 0.0028392312347729 5.0452020018587804 9.8713007313287005 Ba
atom 5.0269189711916669 5.0452020018587804 9.7877176116903311 Ba
atom 0.0242378369017737 0.0000000000000001 14.8040078175088965 Ba
atom 5.0483175768586701 0.0000000000000001 14.7204246978705591 Ba
atom 0.0046751677195814 5.0452020018587804 14.7186577075431586 Ba
atom 5.0678802460408807 5.0452020018587804 14.8057748078362952 Ba
atom 2.5255784040467226 2.5226010009293902 12.2958627145996058 Zr
atom 7.5692208131858241 2.5226010009293902 12.2976297049269974 Zr
atom 2.5255784040467226 7.5678030027881507 12.2958627145996058 Zr
atom 7.5692208131858241 7.5678030027881507 12.2976297049269974 Zr
atom 2.5398628242643606 2.5237227488311542 17.2587615778879062 Zr
atom 7.5835052334034438 2.5214792530276111 17.2605285682152925 Zr
atom 2.5398628242643606 7.5666812548863849 17.2587615778878991 Zr
atom 7.5835052334034438 7.5689247506899324 17.2605285682152925 Zr
atom 2.5214547689708260 3.0244747429624037 9.8186445184938780 S
atom 7.5650971781099203 2.0207272588963709 9.8204115088212642 S
atom 2.5214547689708251 7.0659292607551381 9.8186445184938744 S
atom 7.5650971781099203 8.0696767448211908 9.8204115088212696 S
atom 2.5297020391226224 2.0207272588963701 14.7730809107053602 S
atom 7.5733444482617305 3.0244747429624019 14.7748479010327358 S
atom 2.5297020391226224 8.0696767448211908 14.7730809107053673 S
atom 7.5733444482617269 7.0659292607551381 14.7748479010327287 S
atom 2.4348134369080943 0.0000000000000001 11.8249746310364383 S
atom 7.6599857803244520 0.0000000000000001 12.7685177884901702 S
atom 2.6163433711853572 5.0452020018587804 12.7667507981627999 S
atom 7.4784558460471882 5.0452020018587804 11.8267416213638406 S
atom 2.5933813384125428 0.0000000000000001 17.7117593678087069 S
atom 7.5071105881254265 0.0000000000000001 16.7897645514932350 S
atom 2.4634681789863273 5.0452020018587804 16.7879975611658452 S
atom 7.6370237475516429 5.0452020018587804 17.7135263581361144 S
atom 0.0037571994771772 2.6317856617463917 12.2949792194359020 S
atom 5.0473996086162742 2.4134163401123732 12.2967462097633042 S
atom 0.0037571994771772 7.4586183419711469 12.2949792194359020 S
atom 5.0473996086162742 7.6769876636051686 12.2967462097633042 S
atom 0.0135051984570404 2.4451476881084799 17.2447028551565325 S
atom 5.0571476075961410 2.6000543137502961 17.2464698454839365 S
atom 0.0135051984570404 7.6452563156090658 17.2447028551565325 S
atom 5.0571476075961410 7.4903496899672621 17.2464698454839365 S
atom 0.0059824786914612 0.0000000000000001 19.6436223152071854 Ba
atom 5.1062630539536613 0.0000000000000001 19.6564178463597408 Ba
atom 0.0626206448145630 5.0452020018587804 19.6546508560323936 Ba
atom 5.0496248878305572 5.0452020018587804 19.6453893055346072 Ba
atom 0.1716855492036416 0.0000000000000001 24.3102677301066699 Ba
atom 4.9069531443645991 0.0000000000000001 24.3128885529201497 Ba
atom -0.1366892647744974 5.0452020018587804 24.3111215625927706 Ba
atom 5.2153279583427423 5.0452020018587804 24.3120347204340881 Ba
atom 2.5413424005437895 2.5352941535000957 22.2712922813357572 Zr
atom 7.5849848096828838 2.5099078483586728 22.2730592716631328 Zr
atom 2.5413424005437903 7.5551098502174368 22.2712922813357572 Zr
atom 7.5849848096828838 7.5804961553588806 22.2730592716631328 Zr
atom 2.5376705576113179 2.9935388625582502 19.7300015936989865 S
atom 7.5813129667504064 2.0516631393005254 19.7317685840263657 S
atom 2.5376705576113188 7.0968651411592925 19.7300015936989901 S
atom 7.5813129667504064 8.0387408644170293 19.7317685840263586 S
atom 2.5390291424878786 2.1677604747944459 24.7522318059670781 S
atom 7.5826715516269667 2.8774415270643274 24.7539987962944785 S
atom 2.5390291424878773 7.9226435289231016 24.7522318059670781 S
atom 7.5826715516269649 7.2129624766532219 24.7539987962944785 S
atom 2.5443333296031354 0.0000000000000001 21.7958730978943009 S
atom 7.5821937357062881 0.0000000000000001 22.5872050944997547 S
atom 2.5385513265671902 5.0452020018587804 22.5854381041723258 S
atom 7.5879757387422329 5.0452020018587804 21.7976400882216801 S
atom 0.0188178744077476 2.5215821680834161 22.1364395925158064 S
atom 5.0624602835468488 2.5236198337753546 22.1382065828432104 S
atom 0.0188178744077475 7.5688218356341217 22.1364395925158064 S
atom 5.0624602835468488 7.5667841699421929 22.1382065828432069 S
atom 2.5382405596112565 2.6770827312214167 27.8267697743180449 Ba
atom 7.5818829687503673 2.3681192706373544 27.8285367646454134 Ba
atom 2.5382405596112565 7.4133212724961268 27.8267697743180449 Ba
atom 7.5818829687503673 7.7222847330801789 27.8285367646454134 Ba
atom 2.5365813715436887 2.4941049964805053 32.4894895182170629 Ba
atom 7.5802237806827808 2.5510970053782631 32.4912565085444598 Ba
atom 2.5365813715436887 7.5962990072370262 32.4894895182170629 Ba
atom 7.5802237806827808 7.5393069983392778 32.4912565085444740 Ba
atom 5.0720823474726062 5.0452020018587804 29.8674757701913052 Zr
atom 10.0902057628062956 5.0452020018587804 29.8694852068558312 Zr
atom 5.0465633536671790 10.0904040037175609 29.8677182165284307 Zr
atom 10.1157247566117157 10.0904040037175609 29.8692427605187021 Zr
atom 5.0584891860857741 5.0452020018587804 34.8784118619781580 Zr
atom 10.1003941949832576 5.0452020018587804 34.8802671012834224 Zr
atom 5.0567517858441686 10.0904040037175609 34.8785001109559758 Zr
atom 10.1021315952248987 10.0904040037175609 34.8801788523054270 Zr
atom 4.7047348950665588 5.0452020018587804 27.3865358644898045 S
atom 10.4593186093863011 5.0452020018587804 27.3888257757050155 S
atom 5.4156762002472121 10.0904040037175609 27.3870587853776328 S
atom 9.7483773042056630 10.0904040037175609 27.3883028548172085 S
atom 5.5326903717609284 5.0452020018587804 32.4083864233803709 S
atom 9.6278459985732674 5.0452020018587804 32.4098739592676424 S
atom 4.5842035894341810 10.0904040037175609 32.4081069689401531 S
atom 10.5763327809000138 10.0904040037175609 32.4101534137076968 S
atom 5.0593061417317005 2.5226124255586710 30.0021237569841759 S
atom 10.1029485508707815 2.5225895763001005 30.0038907473115337 S
atom 5.0593061417317022 7.5677915781588725 30.0021237569841617 S
atom 10.1029485508707779 7.5678144274174546 30.0038907473115408 S
atom 5.0575885103405378 2.5225982743405257 34.8937355262891629 S
atom 10.1012309194796419 2.5226037275182507 34.8955025166165314 S
atom 5.0575885103405360 7.5678057293770147 34.8937355262891344 S
atom 10.1012309194796419 7.5678002761993035 34.8955025166165242 S
atom 2.5373702970249967 5.0452020018587804 30.3436299415041297 S
atom 7.5812674897660166 5.0452020018587804 29.5516869448252741 S
atom 2.5376250806269218 10.0904040037175609 29.5499199544978559 S
atom 7.5810127061641071 10.0904040037175609 30.3453969318315373 S
atom 2.5359275981965999 5.0452020018587804 34.4195492375736762 S
atom 7.5792528981944010 5.0452020018587804 35.3549078972255657 S
atom 2.5356104890553088 10.0904040037175609 35.3531409068980906 S
atom 7.5795700073357040 10.0904040037175609 34.4213162279010874 S
atom 2.5348989075500050 2.5318098299621457 37.3748084306946922 Ba
atom 7.5785413166891109 2.5133921718966272 37.3765754210220322 Ba
atom 2.5348989075500050 7.5585941737554005 37.3748084306946780 Ba
atom 7.5785413166891109 7.5770118318209159 37.3765754210220251 Ba
atom 2.5330901542011870 2.5133921718966254 42.2984239015775145 Ba
atom 7.5767325633402889 2.5318098299621448 42.3001908919048546 Ba
atom 2.5330901542011870 7.5770118318209141 42.2984239015775003 Ba
atom 7.5767325633402889 7.5585941737553988 42.3001908919048688 Ba
atom 5.0558157354451616 5.0452020018587804 39.8374996612997876 Zr
atom 10.0994581445842506 5.0452020018587804 39.8392666516271703 Zr
atom 5.0558157354451616 10.0904040037175609 39.8374996612997876 Zr
atom 10.0994581445842488 10.0904040037175609 39.8392666516271703 Zr
atom 5.0531422848045260 5.0452020018587804 44.7965874606214314 Zr
atom 10.0985220941852560 5.0452020018587804 44.7982662019708968 Zr
atom 5.0548796850461439 10.0904040037175609 44.7964992116435212 Zr
atom 10.0967846939436185 10.0904040037175609 44.7983544509487928 Zr
atom 4.5486944257107460 5.0452020018587804 37.3622138165721793 S
atom 10.6083689040717140 5.0452020018587804 37.3643623243661906 S
atom 5.5647264949326054 10.0904040037175609 37.3625953340387937 S
atom 9.5923368348498315 10.0904040037175609 37.3639808068995265 S
atom 5.5629370451795701 5.0452020018587804 42.3127855060273532 S
atom 9.5905473850967766 5.0452020018587804 42.3141709788881570 S
atom 4.5469049759576965 10.0904040037175609 42.3124039885607104 S
atom 10.6065794543186644 10.0904040037175609 42.3145524963547714 S
atom 5.0558157354451616 2.5226008881634945 39.8374996612997876 S
atom 10.0994581445842506 2.5226011136952780 39.8392666516271703 S
atom 5.0558157354451616 7.5678031155540584 39.8374996612997876 S
atom 10.0994581445842506 7.5678028900222643 39.8392666516271703 S
atom 5.0540429605497703 2.5225982743405249 44.7812637963104336 S
atom 10.0976853696888522 2.5226037275182516 44.7830307866377595 S
atom 5.0540429605497703 7.5678057293770147 44.7812637963104336 S
atom 10.0976853696888522 7.5678002761993053 44.7830307866377595 S
atom 2.5338184067384502 5.0452020018587804 40.3134591464038508 S
atom 7.5778130641518633 5.0452020018587804 39.3615401761957102 S
atom 2.5341706550127654 10.0904040037175609 39.3597731858682920 S
atom 7.5774608158775436 10.0904040037175609 40.3152261367312192 S
atom 2.5323785726959005 5.0452020018587804 44.3200914253740450 S
atom 7.5757038726937012 5.0452020018587804 45.2554500850259345 S
atom 2.5320614635546104 10.0904040037175609 45.2536830946985376 S
atom 7.5760209818350042 10.0904040037175609 44.3218584157013993 S
atom 2.5314076902075122 2.5510970053782649 47.1837428140550941 Ba
atom 7.5750500993466119 2.4941049964805062 47.1855098043824484 Ba
atom 2.5314076902075122 7.5393069983392795 47.1837428140551012 Ba
atom 7.5750500993466119 7.5962990072370262 47.1855098043824626 Ba
atom 2.5297485021399497 2.3681192706373544 51.8464625579541973 Ba
atom 7.5733909112790316 2.6770827312214167 51.8482295482816156 Ba
atom 2.5297485021399497 7.7222847330801807 51.8464625579542115 Ba
atom 7.5733909112790316 7.4133212724961250 51.8482295482816156 Ba
atom 5.0395491234176966 5.0452020018587804 49.8075235524082558 Zr
atom 10.1087105263622146 5.0452020018587804 49.8090480963984490 Zr
atom 5.0650681172230989 10.0904040037175609 49.8072811060711729 Zr
atom 10.0831915325567962 10.0904040037175609 49.8092905427356101 Zr
atom 4.5789410991293575 5.0452020018587804 47.2666128992192327 S
atom 10.5710702905952534 5.0452020018587804 47.2686593439866982 S
atom 5.5274278814561164 10.0904040037175609 47.2668923536593297 S
atom 9.6225835082684537 10.0904040037175609 47.2683798895467149 S
atom 5.4068965758237404 5.0452020018587804 52.2884634581097600 S
atom 9.7395976797821735 5.0452020018587804 52.2897075275493322 S
atom 4.6959552706430872 10.0904040037175609 52.2879405372219210 S
atom 10.4505389849628312 10.0904040037175609 52.2902304484371072 S
atom 5.0523253291585934 2.5226124255586724 49.6728755656152643 S
atom 10.0959677382977198 2.5225895763001014 49.6746425559426683 S
atom 5.0523253291585934 7.5677915781588725 49.6728755656152643 S
atom 10.0959677382977162 7.5678144274174546 49.6746425559426754 S
atom 2.5303639811242871 5.0452020018587804 50.1233123777741909 S
atom 7.5742611738653070 5.0452020018587804 49.3313693810953566 S
atom 2.5306187647262095 10.0904040037175609 49.3296023907679171 S
atom 7.5740063902633903 10.0904040037175609 50.1250793681016020 S
