#=======================================================
# FHI-aims file: sym_relax/sym_relax_RP_4_RxRyRz_RxRy-Rz.in
# Created using the Atomic Simulation Environment (ASE)
# Fri Mar 14 10:30:07 2025
#=======================================================
lattice_vector 10.0385381722959437 0.0322007890787541 -0.0000000000000000 
lattice_vector 0.0322007890787542 10.0385381722959366 0.0000000000000000 
lattice_vector -0.0000000000000000 0.0000000000000000 45.6474513556656518 
atom -0.0056033987541924 -0.0984397014592006 0.2414217485052391 Ba
atom 5.1177087876071718 0.0217037932935694 0.2414217485052392 Ba
atom 0.1145400959985784 5.0248724849021720 0.2414217485052392 Ba
atom 5.0297660819331558 4.9369297792281586 0.2414217485052392 Ba
atom -0.2471685445607316 0.2092555764422172 4.9747344639435083 Ba
atom 4.8100135097057608 0.2632689391001086 4.9747344639435083 Ba
atom -0.1931551819028395 5.2664376307087171 4.9747344639435083 Ba
atom 4.7882009361266160 5.2446250571295669 4.9747344639435083 Ba
atom 2.4748609030967335 2.5605995233098384 2.3682328819028364 Zr
atom 7.4940390435254871 2.5766089721300007 2.3682328819028364 Zr
atom 2.4908703519168984 7.5797776637386223 2.3682328819028364 Zr
atom 7.5102303837840587 7.5959690039972019 2.3682328819028364 Zr
atom 2.4441104555544815 2.5780871281410582 7.4159270280745293 Zr
atom 7.4765514386942469 2.6073594196722416 7.4159270280745293 Zr
atom 2.4733827470856702 7.6105281112808454 7.4159270280745293 Zr
atom 7.4794799362418454 7.6134566088284288 7.4159270280745293 Zr
atom 2.6596774653357169 2.8206927790631928 -0.1300331919926219 S
atom 7.2339457877721367 2.3917924098910150 -0.1300331919926219 S
atom 2.2307770961635431 7.3949611014996233 -0.1300331919926219 S
atom 7.6950469460230728 7.8560622597505487 -0.1300331919926219 S
atom 2.2224291312386590 2.2549127664480029 4.9213223638595256 S
atom 7.7997258003873320 2.8290407439880751 4.9213223638595256 S
atom 2.7965571087787282 7.8322094355966838 4.9213223638595256 S
atom 7.2577986119260078 7.2902822471353605 4.9213223638595256 S
atom 2.6608217251684576 0.0568962428639351 2.2034406886127345 S
atom 7.2491033763870245 0.0768138460893771 2.7405263417548378 S
atom 2.2459346847784354 5.0799825376979824 2.7405263417548378 S
atom 7.6961912058558113 5.0922657235512974 2.2034406886127345 S
atom 2.7879447075566222 0.0537611447973346 7.6966802794090281 S
atom 7.1392634340803651 0.0744394985583585 7.1442490375424477 S
atom 2.1360947424717600 5.0776081901669690 7.1442490375424477 S
atom 7.8233141882439750 5.0891306254846951 7.6966802794090281 S
atom -0.0407958483245573 2.3584473609795213 2.2034406886127345 S
atom 4.9746560291373481 2.8055351904482948 2.7405263417548378 S
atom -0.0285126624712471 7.8087038820569168 2.7405263417548378 S
atom 4.9945736323627905 7.3938168416668795 2.2034406886127345 S
atom -0.0376607502579575 2.2313243785913555 7.6966802794090281 S
atom 4.9770303766683526 2.9153751327549742 7.1442490375424477 S
atom -0.0261383149402278 7.9185438243635753 7.1442490375424477 S
atom 4.9977087304293946 7.2666938592787211 7.6966802794090281 S
atom -0.0090745756282531 -0.0090745756282531 9.9233589903621056 Ba
atom 5.0283436617762343 0.0251749701676300 9.9233589903621056 Ba
atom 0.0251749701676304 5.0283436617762440 9.9233589903621056 Ba
atom 5.0262949050590837 5.0262949050591077 9.9233589903621056 Ba
atom 0.2092555764422167 -0.2471685445607320 14.8719835167807002 Ba
atom 5.2664376307087029 -0.1931551819028403 14.8719835167807002 Ba
atom 0.2632689391001089 4.8100135097057750 14.8719835167807002 Ba
atom 5.2446250571295572 4.7882009361266267 14.8719835167807002 Ba
atom 2.5780871281410507 2.4441104555544926 12.4307909526496640 Zr
atom 7.6105281112808258 2.4733827470856777 12.4307909526496640 Zr
atom 2.6073594196722389 7.4765514386942842 12.4307909526496640 Zr
atom 7.6134566088284013 7.4794799362418596 12.4307909526496640 Zr
atom 2.5605995233098255 2.4748609030967361 17.4784850988213627 Zr
atom 7.5797776637386018 2.4908703519169033 17.4784850988213627 Zr
atom 2.5766089721299954 7.4940390435255040 17.4784850988213627 Zr
atom 7.5959690039971841 7.5102303837840854 17.4784850988213627 Zr
atom 2.7866080004560385 2.7866080004560514 9.9233589903621056 S
atom 7.2680305663792701 2.2648618747706886 9.9233589903621056 S
atom 2.2648618747706850 7.2680305663792870 9.9233589903621056 S
atom 7.8219774811434135 7.8219774811434215 9.9233589903621056 S
atom 2.2549127664479975 2.2224291312386635 14.9253956168646678 S
atom 7.8322094355966616 2.7965571087787331 14.9253956168646678 S
atom 2.8290407439880645 7.7997258003873480 14.9253956168646678 S
atom 7.2902822471353419 7.2577986119260256 14.9253956168646678 S
atom 2.2313243785913501 -0.0376607502579577 12.1500377013151937 S
atom 7.9185438243635460 -0.0261383149402283 12.7024689431817599 S
atom 2.9153751327549613 4.9770303766683828 12.7024689431817599 S
atom 7.2666938592786989 4.9977087304294061 12.1500377013151937 S
atom 2.3584473609795138 -0.0407958483245583 17.6432772921114811 S
atom 7.8087038820568839 -0.0285126624712470 17.1061916389693174 S
atom 2.8055351904482899 4.9746560291373605 17.1061916389693174 S
atom 7.3938168416668670 4.9945736323628029 17.6432772921114811 S
atom 0.0537611447973349 2.7879447075566253 12.1500377013151937 S
atom 5.0776081901669574 2.1360947424717680 12.7024689431817599 S
atom 0.0744394985583590 7.1392634340803776 12.7024689431817599 S
atom 5.0891306254846791 7.8233141882439936 12.1500377013151937 S
atom 0.0568962428639356 2.6608217251684625 17.6432772921114811 S
atom 5.0799825376979628 2.2459346847784447 17.1061916389693174 S
atom 0.0768138460893774 7.2491033763870458 17.1061916389693174 S
atom 5.0922657235512752 7.6961912058558299 17.6432772921114811 S
atom -0.0984397014592015 -0.0056033987541928 19.6052962322189686 Ba
atom 5.0248724849021711 0.1145400959985774 19.6052962322189686 Ba
atom 0.0217037932935696 5.1177087876071852 19.6052962322189721 Ba
atom 4.9369297792281461 5.0297660819331691 19.6052962322189686 Ba
atom 2.8206927790631799 2.6596774653357254 19.9767511727168205 S
atom 7.3949611014996028 2.2307770961635471 19.9767511727168205 S
atom 2.3917924098910062 7.2339457877721554 19.9767511727168205 S
atom 7.8560622597505345 7.6950469460230790 19.9767511727168205 S
atom 2.4192450388844748 2.5120813415894880 23.0651474263380543 Ba
atom 7.5425572252458366 2.6322248363422585 23.0651474263380543 Ba
atom 2.5393885336372435 7.6353935279508631 23.0651474263380578 Ba
atom 7.4546145195718188 7.5474508222768542 23.0651474263380578 Ba
atom 2.7269403167858934 2.2705161957829509 27.7984601417763528 Ba
atom 7.7841223710523764 2.3245295584408376 27.7984601417763528 Ba
atom 2.7809536794437788 7.3276982500494547 27.7984601417763528 Ba
atom 7.7623097974732298 7.3058856764703144 27.7984601417763528 Ba
atom 5.0782842636535079 4.9925456434404101 25.1919585597356352 Zr
atom 10.0974624040822807 5.0085550922605790 25.1919585597356352 Zr
atom 5.0942937124736734 10.0117237838691899 25.1919585597356352 Zr
atom 10.1136537443408621 10.0279151241277731 25.1919585597356352 Zr
atom 5.0957718684847357 4.9617951958981790 30.2396527059073819 Zr
atom 10.1282128516244931 4.9910674874293566 30.2396527059073819 Zr
atom 5.1250441600159053 9.9942361790379586 30.2396527059073819 Zr
atom 10.1311413491720828 9.9971646765855411 30.2396527059073819 Zr
atom 5.3383775194068548 5.1773622056794046 22.6936924858401952 S
atom 9.9126458418432506 4.7484618365072233 22.6936924858401952 S
atom 4.9094771502346735 9.7516305281158395 22.6936924858401952 S
atom 10.3737470000941965 10.2127316863667765 22.6936924858401952 S
atom 4.7725975067916639 4.7401138715823494 27.7450480416923391 S
atom 10.3498941759403156 5.3142418491224284 27.7450480416923391 S
atom 5.3467254843317393 10.3174105407310215 27.7450480416923391 S
atom 9.8079669874790181 9.7754833522697115 27.7450480416923391 S
atom 4.8761321013231811 2.4768888920191219 25.0271663664455488 S
atom 10.3263886224005592 2.4891720778724351 25.5642520195876877 S
atom 5.3232199307919652 7.4923407694810411 25.5642520195876877 S
atom 9.9115015820105423 7.5122583727064871 25.0271663664455488 S
atom 4.7490091189350228 2.4800239900857237 30.5204059572418558 S
atom 10.4362285647072408 2.4915464254034534 29.9679747153752949 S
atom 5.4330598730986281 7.4947151170120563 29.9679747153752949 S
atom 9.7843785996223716 7.5153934707730921 30.5204059572418558 S
atom 2.5745809832076039 5.1785064655121467 25.0271663664455488 S
atom 7.5976672780416479 4.7636194251221147 25.5642520195876877 S
atom 2.5944985864330490 9.7667881167307300 25.5642520195876877 S
atom 7.6099504638949593 10.2138759461995150 25.0271663664455488 S
atom 2.5714458851410114 5.3056294479003023 30.5204059572418558 S
atom 7.5952929305106194 4.6537794828154500 29.9679747153752949 S
atom 2.5921242389020325 9.6569481744240537 29.9679747153752949 S
atom 7.6068153658283526 10.3409989285876787 30.5204059572418558 S
atom 2.5086101647154209 2.5086101647154262 32.7470846681949368 Ba
atom 7.5460284021199122 2.5428597105113084 32.7470846681949368 Ba
atom 2.5428597105113031 7.5460284021199184 32.7470846681949368 Ba
atom 7.5439796454027652 7.5439796454027892 32.7470846681949368 Ba
atom 2.2705161957829394 2.7269403167858992 37.6957091946135279 Ba
atom 7.3276982500494441 2.7809536794437881 37.6957091946135279 Ba
atom 2.3245295584408341 7.7841223710523915 37.6957091946135279 Ba
atom 7.3058856764702984 7.7623097974732538 37.6957091946135279 Ba
atom 4.9617951958981594 5.0957718684847437 35.2545166304824207 Zr
atom 9.9942361790379408 5.1250441600159187 35.2545166304824207 Zr
atom 4.9910674874293468 10.1282128516245269 35.2545166304824207 Zr
atom 9.9971646765855127 10.1311413491721005 35.2545166304824207 Zr
atom 4.9925456434403994 5.0782842636535213 40.3022107766541851 Zr
atom 10.0117237838691473 5.0942937124736938 40.3022107766541851 Zr
atom 5.0085550922605702 10.0974624040822931 40.3022107766541851 Zr
atom 10.0279151241277305 10.1136537443408745 40.3022107766541851 Zr
atom 5.3042927407997205 5.3042927407997400 32.7470846681949368 S
atom 9.7857153067229579 4.7825466151143665 32.7470846681949368 S
atom 4.7825466151143479 9.7857153067229827 32.7470846681949368 S
atom 10.3396622214870746 10.3396622214870888 32.7470846681949368 S
atom 4.7401138715823405 4.7725975067916826 37.7491212946975239 S
atom 10.3174105407310144 5.3467254843317518 37.7491212946975239 S
atom 5.3142418491224106 10.3498941759403547 37.7491212946975239 S
atom 9.7754833522696920 9.8079669874790500 37.7491212946975239 S
atom 5.3056294479003006 2.5714458851410149 34.9737633791479752 S
atom 9.6569481744240413 2.5921242389020374 35.5261946210146462 S
atom 4.6537794828154349 7.5952929305106460 35.5261946210146462 S
atom 10.3409989285876538 7.6068153658283775 34.9737633791479752 S
atom 5.1785064655121404 2.5745809832076172 40.4670029699443248 S
atom 9.7667881167307087 2.5944985864330605 39.9299173168022392 S
atom 4.7636194251221013 7.5976672780416621 39.9299173168022392 S
atom 10.2138759461994635 7.6099504638949780 40.4670029699443248 S
atom 2.4800239900857153 4.7490091189350414 34.9737633791479752 S
atom 7.4947151170120403 5.4330598730986566 35.5261946210146462 S
atom 2.4915464254034467 10.4362285647072586 35.5261946210146462 S
atom 7.5153934707730601 9.7843785996224018 34.9737633791479752 S
atom 2.4768888920191166 4.8761321013231900 40.4670029699443248 S
atom 7.4923407694810233 5.3232199307919803 39.9299173168022392 S
atom 2.4891720778724262 10.3263886224005947 39.9299173168022392 S
atom 7.5122583727064569 9.9115015820105796 40.4670029699443248 S
atom 2.5120813415894796 2.4192450388844779 42.4290219100517660 Ba
atom 7.6353935279508471 2.5393885336372493 42.4290219100517660 Ba
atom 2.6322248363422598 7.5425572252458561 42.4290219100517660 Ba
atom 7.5474508222768284 7.4546145195718436 42.4290219100517660 Ba
atom 5.1773622056793931 5.3383775194068708 42.8004768505496358 S
atom 9.7516305281158111 4.9094771502346966 42.8004768505496358 S
atom 4.7484618365072162 9.9126458418433057 42.8004768505496358 S
atom 10.2127316863667463 10.3737470000942213 42.8004768505496358 S
