#=======================================================
# FHI-aims file: sym_relax/sym_relax_RP_1_Rx00_0Ry0.in
# Created using the Atomic Simulation Environment (ASE)
# Fri Mar 14 10:20:10 2025
#=======================================================
lattice_vector 10.0712891700399254 -0.0000000000000004 0.0000000000000000 
lattice_vector -0.0000000000000004 10.0712891700399254 -0.0000000000000000 
lattice_vector -0.0000000000000000 -0.0000000000000000 15.6175305266480393 
atom -0.1383451561943171 0.0000000000000000 0.2385691658785080 Ba
atom 5.1739897412142799 -0.0000000000000000 0.2385691658785080 Ba
atom 0.1383451561943170 5.0356445850199627 0.2385691658785080 Ba
atom 4.8972994288256437 5.0356445850199627 0.2385691658785080 Ba
atom 0.1383451561943170 -0.0000000000000000 4.6419091236990004 Ba
atom 4.8972994288256437 0.0000000000000000 4.6419091236990004 Ba
atom -0.1383451561943170 5.0356445850199627 4.6419091236990004 Ba
atom 5.1739897412142799 5.0356445850199627 4.6419091236990004 Ba
atom 2.5178222925099814 2.5178222925099814 2.4402391447887553 Zr
atom 7.5534668775299432 2.5178222925099814 2.4402391447887553 Zr
atom 2.5178222925099814 7.5534668775299441 2.4402391447887553 Zr
atom 7.5534668775299432 7.5534668775299441 2.4402391447887553 Zr
atom 2.5178222925099814 2.7383824076602221 -0.0978603397273841 S
atom 7.5534668775299432 2.2972621773597397 -0.0978603397273840 S
atom 2.5178222925099814 7.3329067623797002 -0.0978603397273840 S
atom 7.5534668775299432 7.7740269926801817 -0.0978603397273840 S
atom 2.5178222925099814 2.2972621773597393 4.9783386293048952 S
atom 7.5534668775299432 2.7383824076602217 4.9783386293048952 S
atom 2.5178222925099814 7.7740269926801817 4.9783386293048952 S
atom 7.5534668775299432 7.3329067623797002 4.9783386293048952 S
atom 2.5178222925099814 -0.0000000000000000 2.2110214340497381 S
atom 7.5534668775299432 -0.0000000000000000 2.6694568555277742 S
atom 2.5178222925099814 5.0356445850199627 2.6694568555277742 S
atom 7.5534668775299432 5.0356445850199627 2.2110214340497381 S
atom 0.0000000000000000 2.5178222925099814 2.4402391447887553 S
atom 5.0356445850199627 2.5178222925099814 2.4402391447887553 S
atom -0.0000000000000000 7.5534668775299432 2.4402391447887553 S
atom 5.0356445850199627 7.5534668775299441 2.4402391447887553 S
atom 2.5178222925099814 2.3794771363156642 8.0473344292025253 Ba
atom 7.5534668775299432 2.6561674487042968 8.0473344292025253 Ba
atom 2.5178222925099814 7.6918120337242595 8.0473344292025253 Ba
atom 7.5534668775299432 7.4151217213356277 8.0473344292025253 Ba
atom 2.5178222925099814 2.6561674487042968 12.4506743870230121 Ba
atom 7.5534668775299432 2.3794771363156642 12.4506743870230121 Ba
atom 2.5178222925099814 7.4151217213356277 12.4506743870230121 Ba
atom 7.5534668775299432 7.6918120337242595 12.4506743870230121 Ba
atom 5.0356445850199627 5.0356445850199627 10.2490044081127731 Zr
atom 10.0712891700399254 5.0356445850199627 10.2490044081127731 Zr
atom 5.0356445850199627 10.0712891700399254 10.2490044081127731 Zr
atom 10.0712891700399254 10.0712891700399254 10.2490044081127731 Zr
atom 5.2562047001702039 5.0356445850199627 7.7109049235966296 S
atom 9.8507290548896815 5.0356445850199618 7.7109049235966296 S
atom 4.8150844698697242 10.0712891700399254 7.7109049235966296 S
atom 10.2918492851901693 10.0712891700399254 7.7109049235966296 S
atom 4.8150844698697242 5.0356445850199627 12.7871038926289113 S
atom 10.2918492851901693 5.0356445850199627 12.7871038926289113 S
atom 5.2562047001702039 10.0712891700399254 12.7871038926289113 S
atom 9.8507290548896815 10.0712891700399254 12.7871038926289113 S
atom 5.0356445850199627 2.5178222925099814 10.2490044081127731 S
atom 10.0712891700399254 2.5178222925099814 10.2490044081127731 S
atom 5.0356445850199627 7.5534668775299441 10.2490044081127731 S
atom 10.0712891700399254 7.5534668775299441 10.2490044081127731 S
atom 2.5178222925099814 5.0356445850199627 10.0197866973737479 S
atom 7.5534668775299432 5.0356445850199627 10.4782221188517948 S
atom 2.5178222925099814 10.0712891700399254 10.4782221188517948 S
atom 7.5534668775299432 10.0712891700399254 10.0197866973737479 S
