#=======================================================
# FHI-aims file: sym_relax/sym_relax_RP_4_00Rz_000.in
# Created using the Atomic Simulation Environment (ASE)
# Fri Mar 14 10:26:16 2025
#=======================================================
lattice_vector 10.0140645781078348 -0.0000000000000004 -0.0000000000000000 
lattice_vector -0.0000000000000004 10.0140645781078348 0.0000000000000000 
lattice_vector 0.0000000000000000 0.0000000000000000 45.9739561832213042 
atom -0.0000000000000000 0.0000000000000000 0.2033664833929327 Ba
atom 5.0070322890539165 0.0000000000000000 0.2033664833929327 Ba
atom -0.0000000000000000 5.0070322890539165 0.2033664833929327 Ba
atom 5.0070322890539165 5.0070322890539165 0.2033664833929327 Ba
atom 0.0000000000000000 0.0000000000000000 4.9468028234451245 Ba
atom 5.0070322890539165 0.0000000000000000 4.9468028234451245 Ba
atom 0.0000000000000000 5.0070322890539165 4.9468028234451245 Ba
atom 5.0070322890539165 5.0070322890539165 4.9468028234451245 Ba
atom 2.5035161445269583 2.5035161445269583 2.3351692970771554 Zr
atom 7.5105484335808752 2.5035161445269583 2.3351692970771554 Zr
atom 2.5035161445269583 7.5105484335808752 2.3351692970771554 Zr
atom 7.5105484335808752 7.5105484335808752 2.3351692970771554 Zr
atom 2.5035161445269583 2.5035161445269583 7.4507915926975148 Zr
atom 7.5105484335808752 2.5035161445269583 7.4507915926975148 Zr
atom 2.5035161445269583 7.5105484335808752 7.4507915926975148 Zr
atom 7.5105484335808752 7.5105484335808752 7.4507915926975148 Zr
atom 2.5035161445269583 2.5035161445269583 -0.1763400780368805 S
atom 7.5105484335808752 2.5035161445269583 -0.1763400780368805 S
atom 2.5035161445269583 7.5105484335808752 -0.1763400780368805 S
atom 7.5105484335808752 7.5105484335808752 -0.1763400780368805 S
atom 2.5035161445269583 2.5035161445269583 4.9308233520194200 S
atom 7.5105484335808752 2.5035161445269583 4.9308233520194200 S
atom 2.5035161445269583 7.5105484335808752 4.9308233520194200 S
atom 7.5105484335808752 7.5105484335808752 4.9308233520194200 S
atom 2.2433068529886224 -0.0000000000000000 2.4522489008590780 S
atom 7.7707577251192133 0.0000000000000000 2.4522489008590780 S
atom 2.7637254360652941 5.0070322890539165 2.4522489008590780 S
atom 7.2503391420425327 5.0070322890539165 2.4522489008590780 S
atom 3.0084885282310352 0.0000000000000000 7.4578472283666040 S
atom 7.0055760498768045 -0.0000000000000000 7.4578472283666040 S
atom 1.9985437608228840 5.0070322890539165 7.4578472283666040 S
atom 8.0155208172849388 5.0070322890539165 7.4578472283666040 S
atom 0.0000000000000000 2.7637254360652959 2.4522489008590780 S
atom 5.0070322890539165 2.2433068529886224 2.4522489008590780 S
atom -0.0000000000000000 7.2503391420425363 2.4522489008590780 S
atom 5.0070322890539165 7.7707577251192124 2.4522489008590780 S
atom -0.0000000000000000 1.9985437608228853 7.4578472283666040 S
atom 5.0070322890539165 3.0084885282310352 7.4578472283666040 S
atom 0.0000000000000000 8.0155208172849388 7.4578472283666040 S
atom 5.0070322890539165 7.0055760498768045 7.4578472283666040 S
atom 0.0000000000000000 0.0000000000000000 9.9943383007002726 Ba
atom 5.0070322890539165 0.0000000000000000 9.9943383007002726 Ba
atom 0.0000000000000000 5.0070322890539165 9.9943383007002726 Ba
atom 5.0070322890539165 5.0070322890539165 9.9943383007002726 Ba
atom -0.0000000000000000 0.0000000000000000 15.0418737779554359 Ba
atom 5.0070322890539165 0.0000000000000000 15.0418737779554359 Ba
atom 0.0000000000000000 5.0070322890539165 15.0418737779554359 Ba
atom 5.0070322890539165 5.0070322890539165 15.0418737779554359 Ba
atom 2.5035161445269583 2.5035161445269583 12.5378850087030607 Zr
atom 7.5105484335808752 2.5035161445269583 12.5378850087030607 Zr
atom 2.5035161445269583 7.5105484335808752 12.5378850087030607 Zr
atom 7.5105484335808752 7.5105484335808752 12.5378850087030607 Zr
atom 2.5035161445269583 2.5035161445269583 17.6535073043234156 Zr
atom 7.5105484335808752 2.5035161445269583 17.6535073043234156 Zr
atom 2.5035161445269583 7.5105484335808752 17.6535073043234156 Zr
atom 7.5105484335808752 7.5105484335808752 17.6535073043234156 Zr
atom 2.5035161445269583 2.5035161445269583 9.9943383007002726 S
atom 7.5105484335808752 2.5035161445269583 9.9943383007002726 S
atom 2.5035161445269583 7.5105484335808752 9.9943383007002726 S
atom 7.5105484335808752 7.5105484335808752 9.9943383007002726 S
atom 2.5035161445269583 2.5035161445269583 15.0578532493811448 S
atom 7.5105484335808752 2.5035161445269583 15.0578532493811448 S
atom 2.5035161445269583 7.5105484335808752 15.0578532493811448 S
atom 7.5105484335808752 7.5105484335808752 15.0578532493811448 S
atom 1.9985437608228840 -0.0000000000000000 12.5308293730339706 S
atom 8.0155208172849388 0.0000000000000000 12.5308293730339706 S
atom 3.0084885282310343 5.0070322890539165 12.5308293730339706 S
atom 7.0055760498768045 5.0070322890539165 12.5308293730339706 S
atom 2.7637254360652941 0.0000000000000000 17.5364277005414770 S
atom 7.2503391420425345 -0.0000000000000000 17.5364277005414770 S
atom 2.2433068529886224 5.0070322890539165 17.5364277005414770 S
atom 7.7707577251192133 5.0070322890539165 17.5364277005414770 S
atom 0.0000000000000000 3.0084885282310352 12.5308293730339706 S
atom 5.0070322890539165 1.9985437608228844 12.5308293730339706 S
atom -0.0000000000000000 7.0055760498768045 12.5308293730339706 S
atom 5.0070322890539165 8.0155208172849388 12.5308293730339706 S
atom -0.0000000000000000 2.2433068529886224 17.5364277005414770 S
atom 5.0070322890539165 2.7637254360652959 17.5364277005414770 S
atom 0.0000000000000000 7.7707577251192124 17.5364277005414770 S
atom 5.0070322890539165 7.2503391420425363 17.5364277005414770 S
atom -0.0000000000000000 0.0000000000000000 19.7853101180076258 Ba
atom 5.0070322890539165 0.0000000000000000 19.7853101180076258 Ba
atom 0.0000000000000000 5.0070322890539165 19.7853101180076258 Ba
atom 5.0070322890539165 5.0070322890539165 19.7853101180076258 Ba
atom 2.5035161445269583 2.5035161445269583 20.1650166794374357 S
atom 7.5105484335808752 2.5035161445269583 20.1650166794374357 S
atom 2.5035161445269583 7.5105484335808752 20.1650166794374357 S
atom 7.5105484335808752 7.5105484335808752 20.1650166794374357 S
atom 2.5035161445269583 2.5035161445269583 23.2898377255002984 Ba
atom 7.5105484335808752 2.5035161445269583 23.2898377255002984 Ba
atom 2.5035161445269583 7.5105484335808752 23.2898377255002984 Ba
atom 7.5105484335808752 7.5105484335808752 23.2898377255002984 Ba
atom 2.5035161445269583 2.5035161445269583 28.0730788428065345 Ba
atom 7.5105484335808752 2.5035161445269583 28.0730788428065345 Ba
atom 2.5035161445269583 7.5105484335808752 28.0730788428065345 Ba
atom 7.5105484335808752 7.5105484335808752 28.0730788428065345 Ba
atom 5.0070322890539165 5.0070322890539165 25.3607396349461283 Zr
atom 10.0140645781078330 5.0070322890539165 25.3607396349461283 Zr
atom 5.0070322890539165 10.0140645781078330 25.3607396349461283 Zr
atom 10.0140645781078330 10.0140645781078330 25.3607396349461283 Zr
atom 5.0070322890539165 5.0070322890539165 30.4510413645795595 Zr
atom 10.0140645781078330 5.0070322890539165 30.4510413645795595 Zr
atom 5.0070322890539165 10.0140645781078330 30.4510413645795595 Zr
atom 10.0140645781078330 10.0140645781078330 30.4510413645795595 Zr
atom 5.0070322890539165 5.0070322890539165 22.8563012214196846 S
atom 10.0140645781078330 5.0070322890539165 22.8563012214196846 S
atom 5.0070322890539165 10.0140645781078330 22.8563012214196846 S
atom 10.0140645781078330 10.0140645781078330 22.8563012214196846 S
atom 5.0070322890539165 5.0070322890539165 27.9433286465938515 S
atom 10.0140645781078330 5.0070322890539165 27.9433286465938515 S
atom 5.0070322890539165 10.0140645781078330 27.9433286465938515 S
atom 10.0140645781078330 10.0140645781078330 27.9433286465938515 S
atom 5.0070322890539165 2.5035167616757148 25.4710181751180755 S
atom 10.0140645781078330 2.5035155273782026 25.4710181751180755 S
atom 5.0070322890539165 7.5105478164321191 25.4710181751180755 S
atom 10.0140645781078330 7.5105490507296269 25.4710181751180755 S
atom 5.0070322890539165 2.5035159586727183 30.4668098365206355 S
atom 10.0140645781078330 2.5035163303811965 30.4668098365206355 S
atom 5.0070322890539165 7.5105486194351183 30.4668098365206355 S
atom 10.0140645781078330 7.5105482477266401 30.4668098365206355 S
atom 2.5035155273782026 5.0070322890539165 25.4710181751180755 S
atom 7.5105490507296260 5.0070322890539165 25.4710181751180755 S
atom 2.5035167616757144 10.0140645781078330 25.4710181751180755 S
atom 7.5105478164321209 10.0140645781078330 25.4710181751180755 S
atom 2.5035163303811974 5.0070322890539165 30.4668098365206355 S
atom 7.5105482477266410 5.0070322890539165 30.4668098365206355 S
atom 2.5035159586727174 10.0140645781078330 30.4668098365206355 S
atom 7.5105486194351201 10.0140645781078330 30.4668098365206355 S
atom 2.5035161445269583 2.5035161445269583 32.9813163923109798 Ba
atom 7.5105484335808752 2.5035161445269583 32.9813163923109798 Ba
atom 2.5035161445269583 7.5105484335808752 32.9813163923109798 Ba
atom 7.5105484335808752 7.5105484335808752 32.9813163923109798 Ba
atom 2.5035161445269583 2.5035161445269583 37.8895539418153220 Ba
atom 7.5105484335808752 2.5035161445269583 37.8895539418153220 Ba
atom 2.5035161445269583 7.5105484335808752 37.8895539418153220 Ba
atom 7.5105484335808752 7.5105484335808752 37.8895539418153220 Ba
atom 5.0070322890539165 5.0070322890539165 35.5115914200423219 Zr
atom 10.0140645781078330 5.0070322890539165 35.5115914200423219 Zr
atom 5.0070322890539165 10.0140645781078330 35.5115914200423219 Zr
atom 10.0140645781078330 10.0140645781078330 35.5115914200423219 Zr
atom 5.0070322890539165 5.0070322890539165 40.6018931496757816 Zr
atom 10.0140645781078330 5.0070322890539165 40.6018931496757816 Zr
atom 5.0070322890539165 10.0140645781078330 40.6018931496757816 Zr
atom 10.0140645781078330 10.0140645781078330 40.6018931496757816 Zr
atom 5.0070322890539165 5.0070322890539165 32.9813163923109798 S
atom 10.0140645781078330 5.0070322890539165 32.9813163923109798 S
atom 5.0070322890539165 10.0140645781078330 32.9813163923109798 S
atom 10.0140645781078330 10.0140645781078330 32.9813163923109798 S
atom 5.0070322890539165 5.0070322890539165 38.0193041380279766 S
atom 10.0140645781078330 5.0070322890539165 38.0193041380279766 S
atom 5.0070322890539165 10.0140645781078330 38.0193041380279766 S
atom 10.0140645781078330 10.0140645781078330 38.0193041380279766 S
atom 5.0070322890539165 2.5035163303811965 35.4958229481012424 S
atom 10.0140645781078330 2.5035159586727183 35.4958229481012424 S
atom 5.0070322890539165 7.5105482477266401 35.4958229481012424 S
atom 10.0140645781078330 7.5105486194351183 35.4958229481012424 S
atom 5.0070322890539165 2.5035155273782026 40.4916146095038201 S
atom 10.0140645781078330 2.5035167616757148 40.4916146095038201 S
atom 5.0070322890539165 7.5105490507296269 40.4916146095038201 S
atom 10.0140645781078330 7.5105478164321191 40.4916146095038201 S
atom 2.5035159586727174 5.0070322890539165 35.4958229481012424 S
atom 7.5105486194351201 5.0070322890539165 35.4958229481012424 S
atom 2.5035163303811974 10.0140645781078330 35.4958229481012424 S
atom 7.5105482477266410 10.0140645781078330 35.4958229481012424 S
atom 2.5035167616757144 5.0070322890539165 40.4916146095038201 S
atom 7.5105478164321209 5.0070322890539165 40.4916146095038201 S
atom 2.5035155273782026 10.0140645781078330 40.4916146095038201 S
atom 7.5105490507296260 10.0140645781078330 40.4916146095038201 S
atom 2.5035161445269583 2.5035161445269583 42.6727950591215617 Ba
atom 7.5105484335808752 2.5035161445269583 42.6727950591215617 Ba
atom 2.5035161445269583 7.5105484335808752 42.6727950591215617 Ba
atom 7.5105484335808752 7.5105484335808752 42.6727950591215617 Ba
atom 5.0070322890539165 5.0070322890539165 43.1063315632021684 S
atom 10.0140645781078330 5.0070322890539165 43.1063315632021684 S
atom 5.0070322890539165 10.0140645781078330 43.1063315632021684 S
atom 10.0140645781078330 10.0140645781078330 43.1063315632021684 S
