#=======================================================
# FHI-aims file: sym_relax/sym_relax_RP_9_RxRyMz_-Rx-RyMz.in
# Created using the Atomic Simulation Environment (ASE)
# Mon Mar 17 16:51:51 2025
#=======================================================
lattice_vector 10.0095667897571818 -0.0740379734221965 0.0000000000000000 
lattice_vector -0.0740379734221967 10.0095667897571126 0.0000000000000000 
lattice_vector 0.0000000000000000 0.0000000000000000 95.9673783253935540 
atom 0.1383333688564188 -0.1711066758859335 0.2108557906681312 Ba
atom 5.1758900707645230 -0.1753523555675162 0.2108557906681312 Ba
atom 0.1340876891748363 4.8664500260221377 0.2108557906681312 Ba
atom 5.1060977770239129 4.7966577322815187 0.2108557906681312 Ba
atom -0.2694925261920355 0.1916598905212495 5.0056229606487808 Ba
atom 4.8131235043573497 0.2324735394809351 5.0056229606487808 Ba
atom -0.2286788772323493 5.2742759210705943 5.0056229606487808 Ba
atom 4.6982718819754483 5.1594242986887027 5.0056229606487808 Ba
atom 2.4997972848660290 2.4760804103041183 2.3962465159134889 Zr
atom 7.4964673927419403 2.4309481365903598 2.3962465159134889 Zr
atom 2.4546650111522590 7.4727505181800087 2.3962465159134889 Zr
atom 7.4675616930335273 7.4438448184715842 2.3962465159134889 Zr
atom 2.4723119088623999 2.4903048973832518 7.4501678802877231 Zr
atom 7.4822429056628117 2.4584335125939774 7.4501678802877231 Zr
atom 2.4404405240731228 7.5002358941836302 7.4501678802877231 Zr
atom 7.4400763170298960 7.4580693055507181 7.4501678802877231 Zr
atom 2.6575392796647890 2.7361296362890077 -0.1108316418032207 S
atom 7.2364181667570548 2.2732061417915910 -0.1108316418032207 S
atom 2.1946157851673735 7.3150085233812403 -0.1108316418032207 S
atom 7.6253036878322895 7.7038940444564803 -0.1108316418032207 S
atom 2.2307621205902999 2.1805467793997009 4.9571891867125331 S
atom 7.7920010236463710 2.6999833008660699 4.9571891867125331 S
atom 2.7501986420566751 7.7417856824557214 4.9571891867125331 S
atom 7.1985265287577986 7.1483111875671659 4.9571891867125331 S
atom 2.7939936042320168 -0.0165401584152786 2.2234789634122647 S
atom 7.1740289719995189 -0.0506413686558112 2.7759267393037144 S
atom 2.1322265904098185 4.9911610129338371 2.7759267393037144 S
atom 7.7617580123995120 4.9512242497521903 2.2234789634122647 S
atom 2.8939345890618466 -0.0165169081387307 7.7841078517860911 S
atom 7.1197777703932825 -0.0504520105397533 7.1608622174552838 S
atom 2.0779753888036052 4.9913503710499043 7.1608622174552838 S
atom 7.8616989972293325 4.9512475000287228 7.7841078517860911 S
atom -0.0204788282958199 2.2107897906465612 2.2234789634122647 S
atom 4.9813867901122091 2.7985188310465570 2.7759267393037144 S
atom -0.0604155914774842 7.8403212126361961 2.7759267393037144 S
atom 4.9472855798716635 7.1785541988140213 2.2234789634122647 S
atom -0.0205020785723678 2.1108488058167367 7.7841078517860911 S
atom 4.9811974319961569 2.8527700326527694 7.1608622174552838 S
atom -0.0606049495935421 7.8945724142424369 7.1608622174552838 S
atom 4.9472623295951266 7.0786132139842080 7.7841078517860911 S
atom 0.2836044317953031 -0.1823218289991426 9.9788756210481804 Ba
atom 5.1871052238777340 -0.3206234185064001 9.9788756210481804 Ba
atom 0.1453028422880454 4.7211789630832586 9.9788756210481804 Ba
atom 5.2513688399628036 4.7854425791683317 9.9788756210481804 Ba
atom -0.2856855253012053 0.1824197251930477 14.9818696278916743 Ba
atom 4.8223636696855330 0.2486665385901054 14.9818696278916743 Ba
atom -0.2194387119041478 5.2904689201797641 14.9818696278916743 Ba
atom 4.6820788828662971 5.1501841333605114 14.9818696278916743 Ba
atom 2.4882004049355064 2.4825905483965354 12.4666257904240219 Zr
atom 7.4899572546495339 2.4425450165208709 12.4666257904240219 Zr
atom 2.4481548730598410 7.4843473981105229 12.4666257904240219 Zr
atom 7.4559648131030052 7.4503549565639915 12.4666257904240219 Zr
atom 2.4818917767060982 2.4847741413437663 17.4802150087569537 Zr
atom 7.4877736617023158 2.4488536447502822 17.4802150087569537 Zr
atom 2.4459712801126172 7.4906560263399342 17.4802150087569537 Zr
atom 7.4496561848735920 7.4525385495112113 17.4802150087569537 Zr
atom 2.7471376649301966 2.8134803111800224 9.9696428428995318 S
atom 7.1590674918660451 2.1836077565261847 9.9696428428995318 S
atom 2.1172651102763584 7.2254101381158522 9.9696428428995318 S
atom 7.7149020730976812 7.7812447193474741 9.9696428428995318 S
atom 2.2168103165012738 2.1522682674322708 14.9789117440758055 S
atom 7.8202795356137980 2.7139351049551039 14.9789117440758055 S
atom 2.7784771540241060 7.7557374865447608 14.9789117440758055 S
atom 7.1845747246687726 7.1200326755997327 14.9789117440758055 S
atom 2.8875877927993079 -0.0206341406892553 12.1605021654171850 S
atom 7.1217340594314678 -0.0549856628456279 12.7999181115987177 S
atom 2.0799316778417856 4.9868167187440324 12.7999181115987177 S
atom 7.8553522009667853 4.9471302674782169 12.1605021654171850 S
atom 2.8865009910304606 -0.0190610054823634 17.8070564354186232 S
atom 7.1221393539318250 -0.0534166036243815 17.1637332585385636 S
atom 2.0803369723421290 4.9883857779652701 17.1637332585385636 S
atom 7.8542653991979483 4.9487034026850960 17.8070564354186232 S
atom -0.0163848460218433 2.1171956020792724 12.1605021654171850 S
atom 4.9857310843020164 2.8508137436145926 12.7999181115987177 S
atom -0.0560712972876674 7.8926161252042588 12.7999181115987177 S
atom 4.9513795621456511 7.0849600102467427 12.1605021654171850 S
atom -0.0179579812287351 2.1182824038481174 17.8070564354186232 S
atom 4.9841620250807814 2.8504084491142412 17.1637332585385636 S
atom -0.0576403565089138 7.8922108307038972 17.1637332585385636 S
atom 4.9498064269387578 7.0860468120155815 17.8070564354186232 S
atom 0.2856778395540827 -0.1813661387229956 19.9882950938699615 Ba
atom 5.1861495336015837 -0.3226968262651796 19.9882950938699615 Ba
atom 0.1443471520118983 4.7191055553244778 19.9882950938699615 Ba
atom 5.2534422477215701 4.7863982694444669 19.9882950938699615 Ba
atom -0.2856778395540827 0.1813661387229956 24.9964134961582438 Ba
atom 4.8234172561555972 0.2486588528429827 24.9964134961582438 Ba
atom -0.2183851254340952 5.2904612344326303 24.9964134961582438 Ba
atom 4.6820865686134221 5.1491305468904507 24.9964134961582438 Ba
atom 2.4838822040837498 2.4838822040837294 22.4923542950140707 Zr
atom 7.4886655989623367 2.4468632173726306 22.4923542950140707 Zr
atom 2.4468632173726483 7.4886655989622852 22.4923542950140707 Zr
atom 7.4516466122512348 7.4516466122511842 22.4923542950140707 Zr
atom 2.4858726314613953 2.4829902668236996 27.5044935812712410 Zr
atom 7.4895575362223656 2.4448727899949807 27.5044935812712410 Zr
atom 2.4477551546326830 7.4866751715846425 27.5044935812712410 Zr
atom 7.4536370396288802 7.4507546749911580 27.5044935812712410 Zr
atom 2.7511989948237643 2.8171114170456768 19.9879399581611210 S
atom 7.1554363860003880 2.1795464266326161 19.9879399581611210 S
atom 2.1136340044106974 7.2213488082222685 19.9879399581611210 S
atom 7.7189634029912515 7.7848758252131320 19.9879399581611210 S
atom 2.2165654133437283 2.1506529911217851 24.9967686318670772 S
atom 7.8218948119242757 2.7141800081126481 24.9967686318670772 S
atom 2.7800924303345953 7.7559823897023072 24.9967686318670772 S
atom 7.1843298215112235 7.1184173992892470 24.9967686318670772 S
atom 2.8867889180194326 -0.0198252754793447 22.1703096000594790 S
atom 7.1227778717377470 -0.0542126979428522 22.8143989899686765 S
atom 2.0809754901480626 4.9875896836468021 22.8143989899686765 S
atom 7.8545533261869176 4.9479391326881181 22.1703096000594790 S
atom 2.8874274358253600 -0.0206213697978153 27.8209753314896489 S
atom 7.1230657987267332 -0.0549769679398336 27.1776521546095502 S
atom 2.0812634171370323 4.9868254136498340 27.1776521546095502 S
atom 7.8551918439928494 4.9471430383696520 27.8209753314896489 S
atom -0.0171937112317538 2.1179944768591428 22.1703096000594790 S
atom 4.9849581193992574 2.8497699313083138 22.8143989899686765 S
atom -0.0568442621904432 7.8915723128979689 22.8143989899686765 S
atom 4.9505706969357393 7.0857588850266042 22.1703096000594790 S
atom -0.0163976169132835 2.1173559590532207 27.8209753314896489 S
atom 4.9857223893962210 2.8494820043193410 27.1776521546095502 S
atom -0.0560799921934617 7.8912843859089836 27.1776521546095502 S
atom 4.9513667912542108 7.0851203672206946 27.8209753314896489 S
atom 0.2856855253012054 -0.1824197251930476 30.0028389621364902 Ba
atom 5.1872031200716435 -0.3227045120123028 30.0028389621364902 Ba
atom 0.1454007384819507 4.7190978695773520 30.0028389621364902 Ba
atom 5.2534499334687021 4.7853446829744053 30.0028389621364902 Ba
atom -0.2836044317953031 0.1823218289991426 35.0058329689800374 Ba
atom 4.8224615658794594 0.2465854450842038 35.0058329689800374 Ba
atom -0.2193408157102425 5.2883878266738717 35.0058329689800374 Ba
atom 4.6841599763721717 5.1500862371665939 35.0058329689800374 Ba
atom 2.4795640032319843 2.4851738597709230 32.5180827996041799 Zr
atom 7.4873739432751325 2.4511814182243921 32.5180827996041799 Zr
atom 2.4455715616854539 7.4929837998140583 32.5180827996041799 Zr
atom 7.4473284113994742 7.4529382679383902 32.5180827996041799 Zr
atom 2.4954524993050904 2.4774595107842061 37.5345407097404546 Zr
atom 7.4950882922618627 2.4352929221512860 37.5345407097404546 Zr
atom 2.4532859106721667 7.4770953037409349 37.5345407097404546 Zr
atom 7.4632169074725789 7.4452239189516671 37.5345407097404546 Zr
atom 2.7509540916662187 2.8154961407351915 30.0057968459524034 S
atom 7.1570516623108755 2.1797913297901581 30.0057968459524034 S
atom 2.1152492807211871 7.2215937113798194 30.0057968459524034 S
atom 7.7187184998337068 7.7832605489026525 30.0057968459524034 S
atom 2.2206267432373004 2.1542840969874417 35.0150657471286166 S
atom 7.8182637060586346 2.7101186782190787 35.0150657471286166 S
atom 2.7764613244689413 7.7519210598087271 35.0150657471286166 S
atom 7.1883911514047885 7.1220485051549050 35.0150657471286166 S
atom 2.8878327303257119 -0.0190523105765690 32.1847904784295409 S
atom 7.1219789969578802 -0.0534038327329417 32.8242064246110488 S
atom 2.0801766153681869 4.9883985488567122 32.8242064246110488 S
atom 7.8555971384932120 4.9487120975908905 32.1847904784295409 S
atom 2.8897890193638895 -0.0235859628824436 37.8238463725729588 S
atom 7.1156322006953436 -0.0575210652834663 37.2006007382420734 S
atom 2.0738298191056539 4.9842813163061948 37.2006007382420734 S
atom 7.8575534275313839 4.9441784452850204 37.8238463725729588 S
atom -0.0179666761345299 2.1169506645528631 32.1847904784295409 S
atom 4.9841492541893402 2.8505688060881900 32.8242064246110488 S
atom -0.0576531274003536 7.8923711876778304 32.8242064246110488 S
atom 4.9497977320329722 7.0847150727203179 32.1847904784295409 S
atom -0.0134330238286553 2.1149943755146885 37.8238463725729588 S
atom 4.9882664867398594 2.8569156023507261 37.2006007382420734 S
atom -0.0535358948498291 7.8987179839403776 37.2006007382420734 S
atom 4.9543313843388299 7.0827587836821442 37.8238463725729588 S
atom 0.2694925261920355 -0.1916598905212495 39.9790856293793908 Ba
atom 5.1964432853998321 -0.3065115129031325 39.9790856293793908 Ba
atom 0.1546409038101525 4.7352908686865298 39.9790856293793908 Ba
atom 5.2372569343595297 4.7761045176462193 39.9790856293793908 Ba
atom -0.1383333688564187 0.1711066758859335 44.7738527993600854 Ba
atom 4.8336767189926650 0.1013143821453195 44.7738527993600854 Ba
atom -0.2081256625970335 5.1431167637349846 44.7738527993600854 Ba
atom 4.8294310393110598 5.1388710840533962 44.7738527993600854 Ba
atom 2.4679671233014737 2.4916839978633418 42.5884620741147089 Zr
atom 7.4808638051827261 2.4627782981549076 42.5884620741147089 Zr
atom 2.4390614235930377 7.5045806797445795 42.5884620741147089 Zr
atom 7.4357315314689556 7.4594484060308019 42.5884620741147089 Zr
atom 2.7370022875771927 2.7872176287677615 40.0275194033155586 S
atom 7.1853301742782989 2.1937431338791904 40.0275194033155586 S
atom 2.1435277926886172 7.2355455154688570 40.0275194033155586 S
atom 7.7047666957446737 7.7549820369352185 40.0275194033155586 S
atom 2.3102251285027049 2.2316347718784546 45.0955402318314000 S
atom 7.7409130311676311 2.6205202929536764 45.0955402318314000 S
atom 2.6991106495779214 7.6623226745433310 45.0955402318314000 S
atom 7.2779895366702103 7.1993991800459014 45.0955402318314000 S
atom 2.8355378177576727 -0.0233966047663858 42.2087818507243639 S
atom 7.2155731855251677 -0.0574978150069184 42.7612296266158936 S
atom 2.1737708039354775 4.9843045665827352 42.7612296266158936 S
atom 7.8033022259251545 4.9443678034010787 42.2087818507243639 S
atom -0.0136223819447131 2.1692455771209054 42.2087818507243639 S
atom 4.9882432364633136 2.7569746175208945 42.7612296266158936 S
atom -0.0535591451263770 7.7987769991105536 42.7612296266158936 S
atom 4.9541420262227680 7.1370099852883717 42.2087818507243639 S
atom 2.3455488352273268 2.6549888799696606 48.1945449533647903 Ba
atom 7.3175589230764055 2.5851965862290460 48.1945449533647903 Ba
atom 2.2757565414867149 7.6269989678187056 48.1945449533647903 Ba
atom 7.3133132433948189 7.6227532881371207 48.1945449533647903 Ba
atom 2.7533747302757781 2.2922223135624820 52.9893121233454494 Ba
atom 7.6803254894835744 2.1773706911805957 52.9893121233454494 Ba
atom 2.6385231078939024 7.2191730727702508 52.9893121233454494 Ba
atom 7.7211391384432719 7.2599867217299536 52.9893121233454494 Ba
atom 4.9518493273852151 4.9755662019470650 50.3799356786102024 Zr
atom 9.9647460092664737 4.9466605022386441 50.3799356786102024 Zr
atom 4.9229436276767915 9.9884628838282890 50.3799356786102024 Zr
atom 9.9196137355527263 9.9433306101145291 50.3799356786102024 Zr
atom 4.9793347033888384 4.9613417148679346 55.4338570429845063 Zr
atom 9.9789704963456245 4.9191751262350145 55.4338570429845063 Zr
atom 4.9371681147559121 9.9609775078246710 55.4338570429845063 Zr
atom 9.9470991115563017 9.9291061230353996 55.4338570429845063 Zr
atom 4.7941073325864503 4.7155169759621725 47.8728575208934259 S
atom 10.2247952352513671 5.1044024970374098 47.8728575208934259 S
atom 5.1829928536616876 10.1462048786270600 47.8728575208934259 S
atom 9.7618717407539517 9.6832813841296375 47.8728575208934259 S
atom 5.2208844916609278 5.2710998328514966 52.9408783494093456 S
atom 9.6692123783620527 4.6776253379629225 52.9408783494093456 S
atom 4.6274099967723554 9.7194277195525665 52.9408783494093456 S
atom 10.1886488998284275 10.2388642410189519 52.9408783494093456 S
atom 5.3194200218414123 2.4604855993173436 50.7596159020004691 S
atom 9.6994553896089020 2.4263843890768069 50.2071681261090319 S
atom 4.6576530080192180 7.4681867706664633 50.2071681261090319 S
atom 10.2871844300089172 7.4282500074848130 50.7596159020004691 S
atom 5.3736712234476389 2.4602962412012901 55.1445513801519880 S
atom 9.5995144047790699 2.4263611388002619 55.7677970144828592 S
atom 4.5577120231894011 7.4681635203899281 55.7677970144828592 S
atom 10.3414356316151181 7.4280606493687502 55.1445513801519880 S
atom 2.4702598221390351 4.6531277812046490 50.7596159020004691 S
atom 7.4721254405470567 5.2408568216046252 50.2071681261090319 S
atom 2.4303230589573710 10.2826592031942816 50.2071681261090319 S
atom 7.4380242303065387 9.6208921893720998 50.7596159020004691 S
atom 2.4704491802550903 4.5988765795984152 55.1445513801519880 S
atom 7.4721486908236070 5.3407978064344466 55.7677970144828592 S
atom 2.4303463092339190 10.3826001880240959 55.7677970144828592 S
atom 7.4382135884225775 9.5666409877658829 55.1445513801519880 S
atom 2.2002777722884401 2.6662040330828751 57.9625647837448810 Ba
atom 7.3063437699632034 2.7304676491679341 57.9625647837448810 Ba
atom 2.2645413883735017 7.7722700307575883 57.9625647837448810 Ba
atom 7.1680421804559336 7.6339684412503317 57.9625647837448810 Ba
atom 2.7695677293849479 2.3014624788906812 62.9655587905884531 Ba
atom 7.6710853241553929 2.1611776920714245 62.9655587905884531 Ba
atom 2.6292829425656978 7.2029800736610881 62.9655587905884531 Ba
atom 7.7373321375524506 7.2692268870581467 62.9655587905884531 Ba
atom 4.9634462073157390 4.9690560638546604 60.4503149531207171 Zr
atom 9.9712561473588845 4.9350636223081246 60.4503149531207171 Zr
atom 4.9294537657692041 9.9768660038977810 60.4503149531207171 Zr
atom 9.9312106154832183 9.9368204720221183 60.4503149531207171 Zr
atom 4.9697548355451300 4.9668724709074388 65.4639041714535637 Zr
atom 9.9734397403061177 4.9287549940787150 65.4639041714535637 Zr
atom 4.9316373587164195 9.9705573756683705 65.4639041714535637 Zr
atom 9.9375192437126323 9.9346368790748745 65.4639041714535637 Zr
atom 4.7045089473210497 4.6381663010711769 57.9533320055962591 S
atom 10.3021459101423716 5.1940008823028041 57.9533320055962591 S
atom 5.2603435285526876 10.2358032638924499 57.9533320055962591 S
atom 9.6722733554885298 9.6059307092386366 57.9533320055962591 S
atom 5.2348362957499601 5.2993783448189253 62.9626009067725505 S
atom 9.6409338663946329 4.6636735338738928 62.9626009067725505 S
atom 4.5991314848049285 9.7054759154635448 62.9626009067725505 S
atom 10.2026007039174331 10.2671427529863966 62.9626009067725505 S
atom 5.3717149344094475 2.4648298935071615 60.7836072742953633 S
atom 9.6058612010416287 2.4304783713507860 60.1441913281138412 S
atom 4.5640588194519340 7.4722807529404438 60.1441913281138412 S
atom 10.3394793425769240 7.4325943016746256 60.7836072742953633 S
atom 5.3713096399091080 2.4632608342859155 65.1474224212351913 S
atom 9.6069480028104781 2.4289052361438945 65.7907455981153078 S
atom 4.5651456212207746 7.4707076177335558 65.7907455981153078 S
atom 10.3390740480765899 7.4310252424533800 65.1474224212351913 S
atom 2.4659155279492184 4.6008328686365969 60.7836072742953633 S
atom 7.4680314582730940 5.3344510101719127 60.1441913281138412 S
atom 2.4262290766833963 10.3762533917615816 60.1441913281138412 S
atom 7.4336799361167119 9.5685972768040664 60.7836072742953633 S
atom 2.4674845871704636 4.6012381631369532 65.1474224212351913 S
atom 7.4696045934799695 5.3333642084030677 65.7907455981153078 S
atom 2.4278022118902851 10.3751665899927126 65.7907455981153078 S
atom 7.4352489953379539 9.5690025713044236 65.1474224212351913 S
atom 2.1982043645296634 2.6652483428067293 67.9719842565668699 Ba
atom 7.3072994602393422 2.7325410569267112 67.9719842565668699 Ba
atom 2.2654970786496498 7.7743434385163637 67.9719842565668699 Ba
atom 7.1659687726971697 7.6330127509741841 67.9719842565668699 Ba
atom 2.7695600436378291 2.3025160653607353 72.9801026588548041 Ba
atom 7.6700317376853269 2.1611853778185464 72.9801026588548041 Ba
atom 2.6282293560956411 7.2029877594082050 72.9801026588548041 Ba
atom 7.7373244518053177 7.2702804735281958 72.9801026588548041 Ba
atom 4.9677644081674996 4.9677644081674588 70.4760434577108583 Zr
atom 9.9725478030460906 4.9307454214563622 70.4760434577108583 Zr
atom 4.9307454214563986 9.9725478030460124 70.4760434577108583 Zr
atom 9.9355288163349993 9.9355288163349176 70.4760434577108583 Zr
atom 4.9657739807898515 4.9686563454274921 75.4881827439681103 Zr
atom 9.9716558657860208 4.9327358488340067 75.4881827439681103 Zr
atom 4.9298534841963662 9.9745382304236774 75.4881827439681103 Zr
atom 9.9335383889573396 9.9364207535949607 75.4881827439681103 Zr
atom 4.7004476174274661 4.6345351952055180 67.9716291208577417 S
atom 10.3057770160080384 5.1980622121963815 67.9716291208577417 S
atom 5.2639746344183473 10.2398645937860238 67.9716291208577417 S
atom 9.6682120255949595 9.6022996033729608 67.9716291208577417 S
atom 5.2350811989075163 5.3009936211294004 72.9804577945639750 S
atom 9.6393185900841161 4.6634286307163437 72.9804577945639750 S
atom 4.5975162084944454 9.7052310123060028 72.9804577945639750 S
atom 10.2028456070750018 10.2687580292968743 72.9804577945639750 S
atom 5.3706711221031886 2.4640569286043856 70.7980881526652581 S
atom 9.6066600758214786 2.4296695061408777 70.1539987627563022 S
atom 4.5648576942318035 7.4714718877305311 70.1539987627563022 S
atom 10.3384355302706865 7.4318213367718533 70.7980881526652581 S
atom 5.3703831951142069 2.4648211986013675 75.1613413173062241 S
atom 9.6060215580155788 2.4304656004593501 75.8046644941862553 S
atom 4.5642191764258815 7.4722679820489999 75.8046644941862553 S
atom 10.3381476032816941 7.4325856067688303 75.1613413173062241 S
atom 2.4666884928519925 4.6018766809428691 70.7980881526652581 S
atom 7.4688403234830014 5.3336521353920494 70.1539987627563022 S
atom 2.4270379418933055 10.3754545169817192 70.1539987627563022 S
atom 7.4344529010194789 9.5696410891103216 70.7980881526652581 S
atom 2.4659242228550098 4.6021646079318517 75.1613413173062241 S
atom 7.4680442291645210 5.3342906531979670 75.8046644941862553 S
atom 2.4262418475748304 10.3760930347876172 75.8046644941862553 S
atom 7.4336886310225037 9.5699290160993193 75.1613413173062241 S
atom 2.1981966787825380 2.6663019292767798 77.9865281248330859 Ba
atom 7.3062458737692824 2.7325487426738371 77.9865281248330859 Ba
atom 2.2644434921796002 7.7743511242634975 77.9865281248330859 Ba
atom 7.1659610869500288 7.6340663374442439 77.9865281248330859 Ba
atom 2.7674866358790484 2.3015603750845908 82.9895221316766367 Ba
atom 7.6709874279614745 2.1632587855773293 82.9895221316766367 Ba
atom 2.6291850463717896 7.2050611671669786 82.9895221316766367 Ba
atom 7.7352510440465432 7.2693247832520589 82.9895221316766367 Ba
atom 4.9720826090192531 4.9664727524802661 80.5017719623009498 Zr
atom 9.9738394587332824 4.9264272206045945 80.5017719623009498 Zr
atom 4.9320370771435895 9.9682296021942474 80.5017719623009498 Zr
atom 9.9398470171867466 9.9342371606477098 80.5017719623009498 Zr
atom 4.9561941129461484 4.9741871014669892 85.5182298724372885 Zr
atom 9.9661251097465779 4.9423157166777143 85.5182298724372885 Zr
atom 4.9243227281568664 9.9841180982673627 85.5182298724372885 Zr
atom 9.9239585211136543 9.9419515096344480 85.5182298724372885 Zr
atom 4.7006925205850223 4.6361504715159958 77.9894860086490667 S
atom 10.3041617396975358 5.1978173090388351 77.9894860086490667 S
atom 5.2623593581078545 10.2396196906284889 77.9894860086490667 S
atom 9.6684569287525335 9.6039148796834670 77.9894860086490667 S
atom 5.2310198690139327 5.2973625152637451 82.9987549098253936 S
atom 9.6429496959497989 4.6674899606099292 82.9987549098253936 S
atom 4.6011473143601060 9.7092923421995714 82.9987549098253936 S
atom 10.1987842771814172 10.2651269234312092 82.9987549098253936 S
atom 5.3714699968830439 2.4632480633944742 80.8078955873076268 S
atom 9.6056162635152198 2.4288965412381009 80.1684796411261686 S
atom 4.5638138819255278 7.4706989228277578 80.1684796411261686 S
atom 10.3392344050505525 7.4310124715619343 80.8078955873076268 S
atom 5.3778167931455787 2.4673652959450054 85.1842899009387082 S
atom 9.6036599744770452 2.4334301935439755 85.8075355352696079 S
atom 4.5618575928873497 7.4752325751336226 85.8075355352696079 S
atom 10.3455812013130970 7.4351297041124571 85.1842899009387082 S
atom 2.4674973580619017 4.6010778061630084 80.8078955873076268 S
atom 7.4696132883857711 5.3346959476983233 80.1684796411261686 S
atom 2.4278109067960809 10.3764983292879585 80.1684796411261686 S
atom 7.4352617662293969 9.5688422143304663 80.8078955873076268 S
atom 2.4633801255113799 4.5947310099004728 85.1842899009387082 S
atom 7.4650796360799001 5.3366522367365095 85.8075355352696079 S
atom 2.4232772544902010 10.3784546183261508 85.8075355352696079 S
atom 7.4311445336788715 9.5624954180679200 85.1842899009387082 S
atom 2.2143896778917096 2.6755420946049813 87.9627747920760754 Ba
atom 7.2970057084411009 2.7163557435646686 87.9627747920760754 Ba
atom 2.2552033268513916 7.7581581251543232 87.9627747920760754 Ba
atom 7.1821540860592039 7.6433065027724334 87.9627747920760754 Ba
atom 2.6222155729401622 2.3127755281978013 92.7575419620567061 Ba
atom 7.6597722748482733 2.3085298485162196 92.7575419620567061 Ba
atom 2.6179698932585764 7.3503322301058684 92.7575419620567061 Ba
atom 7.5899799811076640 7.2805399363652574 92.7575419620567061 Ba
atom 4.9836794889497700 4.9599626143878552 90.5721512368112940 Zr
atom 9.9803495968256950 4.9148303406740776 90.5721512368112940 Zr
atom 4.9385472152359959 9.9566327222637696 90.5721512368112940 Zr
atom 9.9514438971172403 9.9277270225553256 90.5721512368112940 Zr
atom 4.7146443246740599 4.6644289834834280 88.0112085660124421 S
atom 10.2758832277301071 5.1838655049497939 88.0112085660124421 S
atom 5.2340808461404276 10.2256678865394672 88.0112085660124421 S
atom 9.6824087328415462 9.6321933916508975 88.0112085660124421 S
atom 5.1414214837485472 5.2200118403727496 93.0792293945280278 S
atom 9.7203003708408051 4.7570883458753208 93.0792293945280278 S
atom 4.6784979892511052 9.7988907274649737 93.0792293945280278 S
atom 10.1091858919160078 10.1877762485402048 93.0792293945280278 S
atom 5.2778758083157680 2.4673420456684498 90.7449187893126492 S
atom 9.6579111760832621 2.4332408354279185 90.1924710134210557 S
atom 4.6161087944935781 7.4750432170175740 90.1924710134210557 S
atom 10.2456402164832596 7.4351064538359131 90.7449187893126492 S
atom 2.4634033757879266 4.6946719947302942 90.7449187893126492 S
atom 7.4652689941959505 5.2824010351302810 90.1924710134210557 S
atom 2.4234666126062661 10.3242034167199357 90.1924710134210557 S
atom 7.4311677839554156 9.6624364028977503 90.7449187893126492 S
