#=======================================================
# FHI-aims file: sym_relax/sym_relax_RP_8_Rx0Mz_0-RyMz.in
# Created using the Atomic Simulation Environment (ASE)
# Mon Mar 17 16:09:35 2025
#=======================================================
lattice_vector 10.0109589500748513 0.0712144224145782 0.0000000000000000 
lattice_vector 0.0712144224145781 10.0109589500748548 -0.0000000000000000 
lattice_vector 0.0000000000000000 -0.0000000000000000 85.9341741038009133 
atom 0.1365769192668807 0.1714861444694424 0.2120023372794739 Ba
atom 5.1769905626966963 0.1721752790734310 0.2119841064958385 Ba
atom 0.2071182988665538 5.1420475429035823 0.2119841064958385 Ba
atom 5.1776636055116176 5.2125728307141683 0.2120023372794739 Ba
atom -0.2673887027400356 -0.1903125501492366 5.0047706383368924 Ba
atom 4.8150321525404527 -0.2316400177333955 5.0047096610508008 Ba
atom -0.1548401112896792 4.7382322460967377 5.0047096610508008 Ba
atom 4.7736979835046780 4.8507741360954864 5.0047706383368924 Ba
atom 2.5290069054547044 2.5367891603431794 2.3957996718586982 Zr
atom 7.5422787647826448 2.5646048981239549 2.3958047284983466 Zr
atom 2.5724065009525172 7.5344771619540953 2.3958047284983466 Zr
atom 7.5700935916993988 7.5778758465879061 2.3957996718586982 Zr
atom 2.5149302056819449 2.5101734652081791 7.4492956434820243 Zr
atom 7.5154131170242078 2.5507814780346969 7.4492997125304328 Zr
atom 2.5455408531940682 7.5206537418648480 7.4492997125304328 Zr
atom 7.5560168919266877 7.5512601514528974 7.4492956434820243 Zr
atom 2.2684347416686719 2.6952608718715099 -0.1109996317373967 S
atom 7.7007661607888220 2.3040365852015219 -0.1109931907312806 S
atom 2.7308938969586758 7.2739088490316703 -0.1109931907312806 S
atom 7.3095214279133858 7.7363475581162247 -0.1109996317373967 S
atom 2.8252385484459657 2.2677715359550583 4.9563279922627643 S
atom 7.2731330497027553 2.8609908194387743 4.9563133754117246 S
atom 2.3032607858726117 7.8308630832689179 4.9563133754117246 S
atom 7.8663252346906827 7.3088582221997864 4.9563279922627643 S
atom 2.7928064263095451 0.0165545077583126 2.2228107131018331 S
atom 7.1784660111854848 0.0491783745689251 2.7754132268463110 S
atom 2.2085937473553399 5.0190506383990767 2.7754132268463110 S
atom 7.8338931125542546 5.0576411940030397 2.2228107131018331 S
atom 2.8939896211603391 0.0169209155781633 7.7828548806223194 S
atom 7.1227981114394252 0.0493370400938489 7.1590786445691661 S
atom 2.1529258476092807 5.0192093039239882 7.1590786445691661 S
atom 7.9350763074050663 5.0580076018228821 7.7828548806223194 S
atom 0.0135679732217781 2.1729659405704340 2.7754227812458416 S
atom 5.0220314200410279 2.8283681374771024 2.2228241537937516 S
atom 0.0521591562108922 7.7982404013072522 2.2228241537937516 S
atom 5.0546546594665189 7.2140526268151550 2.7754227812458416 S
atom 0.0134877745377821 2.1175435875454580 7.1590746201200410 S
atom 5.0221496616683776 2.9298550753539176 7.7828589708332299 S
atom 0.0522773978382426 7.8997273391840706 7.7828589708332299 S
atom 5.0545744607824945 7.1586302737901679 7.1590746201200410 S
atom 0.2831512678763475 0.1830254606461136 9.9772176027711055 Ba
atom 5.1881332912142470 0.3191311459531154 9.9772506798578782 Ba
atom 0.2182610273841073 5.2890034097832643 9.9772506798578782 Ba
atom 5.3242379541210454 5.2241121468908300 9.9772176027711055 Ba
atom -0.2842838492999680 -0.1813604698130877 14.9793573717808997 Ba
atom 4.8236054099924006 -0.2481424771827105 14.9793536868197101 Ba
atom -0.1462668538377465 4.7217297866474350 14.9793536868197101 Ba
atom 4.7568028369447566 4.8597262164316462 14.9793573717808997 Ba
atom 2.5221900849095742 2.5254873410764693 12.4653025646174083 Zr
atom 7.5304846509515393 2.5582962037515449 12.4653015134368488 Zr
atom 2.5606123871213886 7.5281684675817031 12.4653015134368488 Zr
atom 7.5632767711542987 7.5665740273212041 12.4653025646174083 Zr
atom 2.5200161870759747 2.5198396814856658 17.4785816122127109 Zr
atom 7.5247846677489800 2.5561656706556564 17.4785841262947308 Zr
atom 2.5549124039188595 7.5260379344857924 17.4785841262947308 Zr
atom 7.5611028733206975 7.5609263677303966 17.4785816122127109 Zr
atom 2.1908549801018773 2.7853266214522745 9.9679852835400755 S
atom 7.7904223488763460 2.2268315149764635 9.9680103500222987 S
atom 2.8205500850461989 7.1967037788066008 9.9680103500222987 S
atom 7.2319416663466001 7.8264133076970070 9.9679852835400755 S
atom 2.8530349161713273 2.2537632931922125 14.9764709882789333 S
atom 7.2587557320814593 2.8891667569220534 14.9764725413582376 S
atom 2.2888834682513215 7.8590390207521885 14.9764725413582340 S
atom 7.8941216024160612 7.2948499794369273 14.9764709882789333 S
atom 2.8872250730370581 0.0207826407471592 12.1578040521671333 S
atom 7.1241443949511059 0.0536145772400177 12.7977998390383174 S
atom 2.1542721311209609 5.0234868410701576 12.7977998390383174 S
atom 7.9283117592817716 5.0618693269918866 12.1578040521671369 S
atom 2.8859996905124374 0.0192844292658349 17.8037073098372289 S
atom 7.1246287167115776 0.0521358732471430 17.1601057808400057 S
atom 2.1547564528814429 5.0220081370772816 17.1601057808400057 S
atom 7.9270863767571580 5.0603711155105700 17.8037073098372289 S
atom 0.0175335925433036 2.1191595854612233 12.7978052513473539 S
atom 5.0257906842875606 2.9232917643991119 12.1578398205739600 S
atom 0.0559184204574262 7.8931640282292559 12.1578398205739600 S
atom 5.0586202787880108 7.1602462717059501 12.7978052513473539 S
atom 0.0160025810845799 2.1196759295152927 17.1600997801000936 S
atom 5.0242391968895399 2.9221418109321249 17.8036751147889731 S
atom 0.0543669330593955 7.8920140747622707 17.8036751147889731 S
atom 5.0570892673293013 7.1607626157600075 17.1600997801000936 S
atom 0.2844837608437079 0.1817892883289632 19.9846916520467417 Ba
atom 5.1867658395557932 0.3206300057180791 19.9846916520467417 Ba
atom 0.2168935757256650 5.2905022695482327 19.9846916520467417 Ba
atom 5.3255704470884337 5.2228759745736983 19.9846916520467417 Ba
atom -0.2842838492999680 -0.1813604698130877 24.9900259323125695 Ba
atom 4.8236054099924006 -0.2481424771827105 24.9900296172737804 Ba
atom -0.1462668538377465 4.7217297866474350 24.9900296172737804 Ba
atom 4.7568028369447566 4.8597262164316462 24.9900259323125695 Ba
atom 2.5200161870759747 2.5198396814856658 22.4908016918807867 Zr
atom 7.5247846677489800 2.5561656706556564 22.4907991777987455 Zr
atom 2.5549124039188595 7.5260379344857924 22.4907991777987455 Zr
atom 7.5611028733206975 7.5609263677303966 22.4908016918807867 Zr
atom 2.5221900849095742 2.5254873410764693 27.5040807394760236 Zr
atom 7.5304846509515393 2.5582962037515449 27.5040817906566453 Zr
atom 2.5606123871213886 7.5281684675817031 27.5040817906566453 Zr
atom 7.5632767711542987 7.5665740273212041 27.5040807394760236 Zr
atom 2.1869902248747075 2.7887453340839428 19.9846916520467417 S
atom 7.7937184945445042 2.2230888959428476 19.9846916520467417 S
atom 2.8238462307143655 7.1929611597729828 19.9846916520467417 S
atom 7.2280769111194152 7.8298320203286504 19.9846916520467417 S
atom 2.8530349161713273 2.2537632931922125 24.9929123158145785 S
atom 7.2587557320814593 2.8891667569220534 24.9929107627352742 S
atom 2.2888834682513215 7.8590390207521885 24.9929107627352742 S
atom 7.8941216024160612 7.2948499794369273 24.9929123158145785 S
atom 2.8859996905124374 0.0192844292658349 22.1656759942562793 S
atom 7.1246287167115776 0.0521358732471430 22.8092775232534670 S
atom 2.1547564528814429 5.0220081370772816 22.8092775232534670 S
atom 7.9270863767571580 5.0603711155105700 22.1656759942562793 S
atom 2.8872250730370581 0.0207826407471592 27.8115792519263216 S
atom 7.1241443949511059 0.0536145772400177 27.1715834650551535 S
atom 2.1542721311209609 5.0234868410701576 27.1715834650551535 S
atom 7.9283117592817716 5.0618693269918866 27.8115792519263216 S
atom 0.0160025810845799 2.1196759295152927 22.8092835239933436 S
atom 5.0242391968895399 2.9221418109321249 22.1657081893044676 S
atom 0.0543669330593955 7.8920140747622707 22.1657081893044676 S
atom 5.0570892673293013 7.1607626157600075 22.8092835239933436 S
atom 0.0175335925433036 2.1191595854612233 27.1715780527461774 S
atom 5.0257906842875606 2.9232917643991119 27.8115434835195003 S
atom 0.0559184204574262 7.8931640282292559 27.8115434835195003 S
atom 5.0586202787880108 7.1602462717059501 27.1715780527461774 S
atom 0.2831512678763474 0.1830254606461136 29.9921657013224205 Ba
atom 5.1881332912142470 0.3191311459531154 29.9921326242356301 Ba
atom 0.2182610273841073 5.2890034097832643 29.9921326242356301 Ba
atom 5.3242379541210454 5.2241121468908300 29.9921657013224205 Ba
atom -0.2673887027400356 -0.1903125501492366 34.9646126657566043 Ba
atom 4.8150321525404527 -0.2316400177333955 34.9646736430426586 Ba
atom -0.1548401112896792 4.7382322460967377 34.9646736430426586 Ba
atom 4.7736979835046780 4.8507741360954864 34.9646126657566043 Ba
atom 2.5149302056819449 2.5101734652081791 32.5200876606114520 Zr
atom 7.5154131170242078 2.5507814780346969 32.5200835915631075 Zr
atom 2.5455408531940682 7.5206537418648480 32.5200835915631075 Zr
atom 7.5560168919266877 7.5512601514528974 32.5200876606114520 Zr
atom 2.5290069054547044 2.5367891603431794 37.5735836322347367 Zr
atom 7.5422787647826448 2.5646048981239549 37.5735785755951994 Zr
atom 2.5724065009525172 7.5344771619540953 37.5735785755951994 Zr
atom 7.5700935916993988 7.5778758465879061 37.5735836322347367 Zr
atom 2.1908549801018773 2.7853266214522745 30.0013980205534097 S
atom 7.7904223488763460 2.2268315149764635 30.0013729540712113 S
atom 2.8205500850461989 7.1967037788066008 30.0013729540712113 S
atom 7.2319416663466001 7.8264133076970070 30.0013980205534097 S
atom 2.8252385484459657 2.2677715359550583 35.0130553118307830 S
atom 7.2731330497027553 2.8609908194387743 35.0130699286818086 S
atom 2.3032607858726117 7.8308630832689179 35.0130699286818086 S
atom 7.8663252346906827 7.3088582221997864 35.0130553118307830 S
atom 2.8939896211603391 0.0169209155781633 32.1865284234711453 S
atom 7.1227981114394252 0.0493370400938489 32.8103046595243697 S
atom 2.1529258476092807 5.0192093039239882 32.8103046595243697 S
atom 7.9350763074050663 5.0580076018228821 32.1865284234711453 S
atom 2.7928064263095451 0.0165545077583126 37.7465725909916969 S
atom 7.1784660111854848 0.0491783745689251 37.1939700772472577 S
atom 2.2085937473553399 5.0190506383990767 37.1939700772472577 S
atom 7.8338931125542546 5.0576411940030397 37.7465725909916969 S
atom 0.0134877745377821 2.1175435875454580 32.8103086839734956 S
atom 5.0221496616683776 2.9298550753539176 32.1865243332602518 S
atom 0.0522773978382426 7.8997273391840706 32.1865243332602518 S
atom 5.0545744607824945 7.1586302737901679 32.8103086839734956 S
atom 0.0135679732217781 2.1729659405704340 37.1939605228477532 S
atom 5.0220314200410279 2.8283681374771024 37.7465591502996105 S
atom 0.0521591562108922 7.7982404013072522 37.7465591502996105 S
atom 5.0546546594665189 7.2140526268151550 37.1939605228477532 S
atom 0.1365769192668807 0.1714861444694424 39.7573809668140186 Ba
atom 5.1769905626966963 0.1721752790734310 39.7573991975976995 Ba
atom 0.2071182988665538 5.1420475429035823 39.7573991975976995 Ba
atom 5.1776636055116176 5.2125728307141683 39.7573809668140186 Ba
atom 2.2684347416686719 2.6952608718715099 40.0803829358308619 S
atom 7.7007661607888220 2.3040365852015219 40.0803764948247476 S
atom 2.7308938969586758 7.2739088490316703 40.0803764948247476 S
atom 7.3095214279133858 7.7363475581162247 40.0803829358308619 S
atom 2.6920294875918027 2.6571202623892418 43.1790893891799357 Ba
atom 7.6625908860259413 2.7276616419889153 43.1790711583963400 Ba
atom 2.6927186221957928 7.6975339058190579 43.1790711583963400 Ba
atom 7.7331161738365228 7.6982069486339766 43.1790893891799357 Ba
atom 2.3302307929731279 2.2531546403823319 47.9718576902374423 Ba
atom 7.2587755892191064 2.3657032318326801 47.9717967129513312 Ba
atom 2.2889033253889632 7.3355754956628205 47.9717967129513312 Ba
atom 7.3713174792178426 7.2942413266270529 47.9718576902374423 Ba
atom 5.0573325034655410 5.0495502485770709 45.3628867237592743 Zr
atom 10.0550205050764685 5.0929498440748837 45.3628917803987974 Zr
atom 5.0851482412463040 10.0628221079050437 45.3628917803987974 Zr
atom 10.0984191897102296 10.0906369348217950 45.3628867237592743 Zr
atom 5.0307168083305376 5.0354735488043030 50.4163826953825591 Zr
atom 10.0411970849872141 5.0660841963164094 50.4163867644309605 Zr
atom 5.0713248211570674 10.0359564601465774 50.4163867644309605 Zr
atom 10.0718034945752617 10.0765602350490209 50.4163826953825591 Zr
atom 5.2158042149938657 4.7889780847910206 42.8560874201631492 S
atom 9.7944521921540044 5.2514372400810529 42.8560938611691924 S
atom 4.8245799283238657 10.2213095039111881 42.8560938611691924 S
atom 10.2568909012385667 9.8300647710357651 42.8560874201631492 S
atom 4.7883148790774177 5.3457818915683299 47.9234150441632138 S
atom 10.3514064263912644 4.8238041289949773 47.9234004273121670 S
atom 5.3815341625611302 9.7936763928251125 47.9234004273121670 S
atom 9.8294015653221116 10.3868685778130470 47.9234150441632138 S
atom 4.6935092836927943 2.5341113163441396 45.7425098331462934 S
atom 10.3187837444296058 2.5727024993332552 45.1899112056942656 S
atom 5.3489114805994733 7.5425747631633966 45.1899112056942656 S
atom 9.7345959699375193 7.5751980025888699 45.7425098331462934 S
atom 4.6380869306678107 2.5340311176601431 50.1261616720205012 S
atom 10.4202706823064624 2.5728207409606085 50.7499460227337877 S
atom 5.4503984184762926 7.5426930047907437 50.7499460227337877 S
atom 9.6791736169125535 7.5751178039048606 50.1261616720205012 S
atom 2.5370978508806794 5.3133497694319098 45.1898977650022857 S
atom 7.5395939815214295 4.7291370904776979 45.7425002787468173 S
atom 2.5697217176912859 9.6990093543078739 45.7425002787468173 S
atom 7.5781845371254031 10.3544364556766713 45.1898977650022857 S
atom 2.5374642587005254 5.4145329642826985 50.7499419325228871 S
atom 7.5397526470463623 4.6734691907316535 50.1261656964697906 S
atom 2.5698803832162067 9.6433414545617993 50.1261656964697906 S
atom 7.5785509449452464 10.4556196505274173 50.7499419325228871 S
atom 2.7035688037684666 2.8036946109987033 52.9443046546716545 Ba
atom 7.8095467529056268 2.7388043705064749 52.9443377317584378 Ba
atom 2.8396744890754797 7.7086766343366229 52.9443377317584378 Ba
atom 7.7446554900131899 7.8447812972434319 52.9443046546716545 Ba
atom 2.3391828733092748 2.2362594938223990 57.9464444236814558 Ba
atom 7.2422731297697869 2.3742764892846115 57.9464407387202769 Ba
atom 2.2724008659396442 7.3441487531147613 57.9464407387202769 Ba
atom 7.3802695595539971 7.2773461800671102 57.9464444236814558 Ba
atom 5.0460306841988434 5.0427334280319309 55.4323896165180372 Zr
atom 10.0487118107040558 5.0811557302437524 55.4323885653372983 Zr
atom 5.0788395468739305 10.0510279940738947 55.4323885653372983 Zr
atom 10.0871173704435222 10.0838201142766568 55.4323896165180372 Zr
atom 5.0403830246080306 5.0405595301983226 60.4456686641132421 Zr
atom 10.0465812776081194 5.0754557470412047 60.4456711781952620 Zr
atom 5.0767090137780126 10.0453280108713550 60.4456711781952620 Zr
atom 10.0814697108527334 10.0816462164430796 60.4456686641132421 Zr
atom 5.3058699645746437 4.7113983232242429 52.9350723354406085 S
atom 9.7172471219289775 5.3410934281685707 52.9350974019227962 S
atom 4.7473748580988113 10.3109656919987192 52.9350974019227962 S
atom 10.3469566508193598 9.7524850094689697 52.9350723354406085 S
atom 4.7743066363145736 5.3735782592936951 57.9435580401794823 S
atom 10.3795823638745404 4.8094268113736840 57.9435595932587546 S
atom 5.4097101000443946 9.7792990752038520 57.9435595932587546 S
atom 9.8153933225592827 10.4146649455384264 57.9435580401794823 S
atom 4.6397029285835831 2.5380769356656621 55.7648923032478123 S
atom 10.4137073713516184 2.5764617635797968 55.1249268724745320 S
atom 5.4438351075214655 7.5463340274099258 55.1249268724745320 S
atom 9.6807896148283312 7.5791636219103866 55.7648923032478123 S
atom 4.6402192726376557 2.5365459242069437 60.1271868320006178 S
atom 10.4125574178846279 2.5749102761817602 60.7707621666894511 S
atom 5.4426851540544847 7.5447825400118944 60.7707621666894511 S
atom 9.6813059588823762 7.5776326104516682 60.1271868320006178 S
atom 2.5413259838695215 5.4077684161594037 55.1248911040676148 S
atom 7.5440301841925343 4.6748154742433314 55.7648868909388753 S
atom 2.5741579203623726 9.6446877380734666 55.7648868909388753 S
atom 7.5824126701142376 10.4488551024041421 55.1248911040676148 S
atom 2.5398277723881963 5.4065430336347990 60.7707943617376500 S
atom 7.5425514801996378 4.6752997960037916 60.1271928327404765 S
atom 2.5726792163695062 9.6451720598339339 60.1271928327404765 S
atom 7.5809144586329325 10.4476297198795258 60.7707943617376500 S
atom 2.7023326314513225 2.8050271039660690 62.9517787039472765 Ba
atom 7.8110456126705738 2.7374369188480250 62.9517787039472765 Ba
atom 2.8411733488404400 7.7073091826781601 62.9517787039472765 Ba
atom 7.7434193176960715 7.8461137902107998 62.9517787039472765 Ba
atom 2.3391828733092748 2.2362594938223990 67.9571129842129693 Ba
atom 7.2422731297697887 2.3742764892846115 67.9571166691741979 Ba
atom 2.2724008659396442 7.3441487531147613 67.9571166691741979 Ba
atom 7.3802695595539971 7.2773461800671102 67.9571129842129693 Ba
atom 5.0403830246080306 5.0405595301983226 65.4578887437814387 Zr
atom 10.0465812776081194 5.0754557470412047 65.4578862296990138 Zr
atom 5.0767090137780126 10.0453280108713550 65.4578862296990138 Zr
atom 10.0814697108527334 10.0816462164430796 65.4578887437814387 Zr
atom 5.0460306841988434 5.0427334280319309 70.4711677913764731 Zr
atom 10.0487118107040558 5.0811557302437524 70.4711688425570486 Zr
atom 5.0788395468739305 10.0510279940738947 70.4711688425570486 Zr
atom 10.0871173704435222 10.0838201142766568 70.4711677913764731 Zr
atom 5.3092886772062933 4.7075335679970589 62.9517787039472765 S
atom 9.7135045028953897 5.3443895738367173 62.9517787039472765 S
atom 4.7436322390652119 10.3142618376668604 62.9517787039472765 S
atom 10.3503753634510058 9.7486202542417999 62.9517787039472765 S
atom 4.7743066363145736 5.3735782592936951 67.9599993677151843 S
atom 10.3795823638745404 4.8094268113736840 67.9599978146357131 S
atom 5.4097101000443946 9.7792990752038520 67.9599978146357131 S
atom 9.8153933225592827 10.4146649455384264 67.9599993677151843 S
atom 4.6402192726376557 2.5365459242069437 65.7763705758938215 S
atom 10.4125574178846279 2.5749102761817602 65.1327952412048603 S
atom 5.4426851540544847 7.5447825400118944 65.1327952412048603 S
atom 9.6813059588823762 7.5776326104516682 65.7763705758938215 S
atom 4.6397029285835831 2.5380769356656621 70.1386651046467762 S
atom 10.4137073713516184 2.5764617635797968 70.7786305354201062 S
atom 5.4438351075214655 7.5463340274099258 70.7786305354201062 S
atom 9.6807896148283312 7.5791636219103866 70.1386651046467762 S
atom 2.5398277723881963 5.4065430336347990 65.1327630461566400 S
atom 7.5425514801996378 4.6752997960037916 65.7763645751539912 S
atom 2.5726792163695062 9.6451720598339339 65.7763645751539912 S
atom 7.5809144586329325 10.4476297198795258 65.1327630461566400 S
atom 2.5413259838695215 5.4077684161594037 70.7786663038268671 S
atom 7.5440301841925343 4.6748154742433314 70.1386705169555853 S
atom 2.5741579203623726 9.6446877380734666 70.1386705169555853 S
atom 7.5824126701142376 10.4488551024041421 70.7786663038268671 S
atom 2.7035688037684666 2.8036946109987033 72.9592527532228559 Ba
atom 7.8095467529056268 2.7388043705064749 72.9592196761361294 Ba
atom 2.8396744890754797 7.7086766343366229 72.9592196761361294 Ba
atom 7.7446554900131899 7.8447812972434319 72.9592527532228559 Ba
atom 2.3302307929731279 2.2531546403823319 77.9316997176571249 Ba
atom 7.2587755892191064 2.3657032318326801 77.9317606949432786 Ba
atom 2.2889033253889632 7.3355754956628205 77.9317606949432786 Ba
atom 7.3713174792178426 7.2942413266270529 77.9316997176571249 Ba
atom 5.0307168083305376 5.0354735488043030 75.4871747125119441 Zr
atom 10.0411970849872141 5.0660841963164094 75.4871706434636707 Zr
atom 5.0713248211570674 10.0359564601465774 75.4871706434636707 Zr
atom 10.0718034945752617 10.0765602350490209 75.4871747125119441 Zr
atom 5.0573325034655410 5.0495502485770709 80.5406706841352644 Zr
atom 10.0550205050764685 5.0929498440748837 80.5406656274956703 Zr
atom 5.0851482412463040 10.0628221079050437 80.5406656274956703 Zr
atom 10.0984191897102296 10.0906369348217950 80.5406706841352644 Zr
atom 5.3058699645746437 4.7113983232242429 72.9684850724538592 S
atom 9.7172471219289775 5.3410934281685707 72.9684600059717781 S
atom 4.7473748580988113 10.3109656919987192 72.9684600059717781 S
atom 10.3469566508193598 9.7524850094689697 72.9684850724538592 S
atom 4.7883148790774177 5.3457818915683299 77.9801423637312894 S
atom 10.3514064263912644 4.8238041289949773 77.9801569805822652 S
atom 5.3815341625611302 9.7936763928251125 77.9801569805822652 S
atom 9.8294015653221116 10.3868685778130470 77.9801423637312894 S
atom 4.6380869306678107 2.5340311176601431 75.7773957358738954 S
atom 10.4202706823064624 2.5728207409606085 75.1536113851608008 S
atom 5.4503984184762908 7.5426930047907437 75.1536113851608008 S
atom 9.6791736169125535 7.5751178039048606 75.7773957358738954 S
atom 4.6935092836927943 2.5341113163441396 80.1610475747481530 S
atom 10.3187837444296058 2.5727024993332552 80.7136462022003371 S
atom 5.3489114805994733 7.5425747631633966 80.7136462022003371 S
atom 9.7345959699375193 7.5751980025888699 80.1610475747481530 S
atom 2.5374642587005254 5.4145329642826985 75.1536154753715238 S
atom 7.5397526470463623 4.6734691907316535 75.7773917114246416 S
atom 2.5698803832162067 9.6433414545617993 75.7773917114246416 S
atom 7.5785509449452464 10.4556196505274173 75.1536154753715238 S
atom 2.5370978508806794 5.3133497694319098 80.7136596428921251 S
atom 7.5395939815214295 4.7291370904776979 80.1610571291477783 S
atom 2.5697217176912859 9.6990093543078739 80.1610571291477783 S
atom 7.5781845371254031 10.3544364556766713 80.7136596428921251 S
atom 2.6920294875918027 2.6571202623892418 82.7244680187146457 Ba
atom 7.6625908860259413 2.7276616419889153 82.7244862494980850 Ba
atom 2.6927186221957928 7.6975339058190579 82.7244862494980850 Ba
atom 7.7331161738365228 7.6982069486339766 82.7244680187146457 Ba
atom 5.2158042149938657 4.7889780847910206 83.0474699877315032 S
atom 9.7944521921540044 5.2514372400810529 83.0474635467251687 S
atom 4.8245799283238657 10.2213095039111881 83.0474635467251687 S
atom 10.2568909012385667 9.8300647710357651 83.0474699877315032 S
