#=======================================================
# FHI-aims file: sym_relax/sym_relax_RP_5_Rx1Ry20_Rx2Ry10.in
# Created using the Atomic Simulation Environment (ASE)
# Fri Mar 14 10:49:20 2025
#=======================================================
lattice_vector 10.0839546395218349 0.0212828447390565 0.0000000000000000 
lattice_vector 0.0212828447390565 10.0839546395218385 0.0000000000000000 
lattice_vector 0.0000000000000000 0.0000000000000000 55.1858211631170832 
atom -0.0117244652471362 -0.1676068616959006 0.2910309438153228 Ba
atom 5.0537017850080694 0.1782482840654285 0.2910309438153228 Ba
atom 0.0223658876166643 5.2095841814568198 0.2910309438153228 Ba
atom 5.0408942768833205 4.8850118804345541 0.2910309438153228 Ba
atom -0.0247256153878987 0.0262872581316477 4.9588856768373306 Ba
atom 5.0667029351488306 -0.0156458357621195 4.9588856768373306 Ba
atom 0.0353670377574267 5.0156900616292770 4.9588856768373306 Ba
atom 5.0278931267425575 5.0789060002621014 4.9588856768373306 Ba
atom 2.5045869881319049 2.5221902533590010 2.3421837740835896 Zr
atom 7.5900090737594876 2.5410699111409798 2.3421837740835896 Zr
atom 2.5586731763680799 7.5724058085323680 2.3421837740835896 Zr
atom 7.5572057302623588 7.5748089954894615 2.3421837740835896 Zr
atom 2.5259791647289673 2.5297055127020531 7.3575517872257885 Zr
atom 7.5686168971624248 2.5335546517979277 7.3575517872257885 Zr
atom 2.5372809997710193 7.5648905491893181 7.3575517872257885 Zr
atom 7.5785979068594145 7.5823242548325123 7.3575517872257885 Zr
atom 2.8110240424532345 2.5581219487821718 -0.1368846907884951 S
atom 7.2835720194381590 2.5051382157178046 -0.1368846907884951 S
atom 2.2522361220467531 7.5364741131091959 -0.1368846907884951 S
atom 7.8636427845836891 7.6107406909126309 -0.1368846907884951 S
atom 2.0659530731577238 2.4556766042287013 4.8859317412666430 S
atom 8.0286429887336705 2.6075835602712796 4.8859317412666430 S
atom 2.9973070913422593 7.6389194576626762 4.8859317412666430 S
atom 7.1185718152881705 7.5082953463591489 4.8859317412666430 S
atom 2.5209886598804583 0.0053207111847640 2.4223857403663507 S
atom 7.5629659796414002 0.0159621335542921 2.5331144790057807 S
atom 2.5316300822499938 5.0472980309456874 2.5331144790057807 S
atom 7.5736074020109294 5.0579394533152131 2.4223857403663507 S
atom 2.5209886598804583 0.0053207111847640 7.4756568309455300 S
atom 7.5629659796414002 0.0159621335542921 7.2691963686752263 S
atom 2.5316300822499938 5.0472980309456874 7.2691963686752263 S
atom 7.5736074020109294 5.0579394533152131 7.4756568309455300 S
atom 0.0053207111847640 2.5209886598804601 2.0470006065678161 S
atom 5.0472980309456927 2.5316300822499911 2.7800794651560468 S
atom 0.0159621335542921 7.5629659796413859 2.7800794651560468 S
atom 5.0579394533152238 7.5736074020109072 2.0470006065678161 S
atom 0.0053207111847640 2.5209886598804601 7.8245322945949356 S
atom 5.0472980309456927 2.5316300822499911 6.9020492798340092 S
atom 0.0159621335542921 7.5629659796413859 6.9020492798340092 S
atom 5.0579394533152238 7.5736074020109072 7.8245322945949356 S
atom 0.0503811523807665 -0.0076172156492088 9.8515388323780346 Ba
atom 4.9915961673801581 0.0182586380187369 9.8515388323780346 Ba
atom -0.0397397300112383 5.0495945354101366 9.8515388323780346 Ba
atom 5.1029998945112292 5.0450015264812444 9.8515388323780346 Ba
atom -0.0503811523807665 0.0076172156492088 14.7849884725849119 Ba
atom 5.0923584721417035 0.0030242067203193 14.7849884725849119 Ba
atom 0.0610225747502944 5.0343601041117161 14.7849884725849119 Ba
atom 5.0022375897496838 5.0602359577796623 14.7849884725849119 Ba
atom 2.5263093710652278 2.5263093710652260 12.3182636524814804 Zr
atom 7.5682866908261559 2.5369507934347535 12.3182636524814804 Zr
atom 2.5369507934347557 7.5682866908261461 12.3182636524814804 Zr
atom 7.5789281131956807 7.5789281131956772 12.3182636524814804 Zr
atom 2.5266395774014976 2.5229132294283985 17.2789755177371731 Zr
atom 7.5679564844898897 2.5403469350715806 17.2789755177371731 Zr
atom 2.5366205870984899 7.5716828324629795 17.2789755177371731 Zr
atom 7.5792583195319567 7.5755319715588501 17.2789755177371731 Zr
atom 3.0253438369526355 2.6273897377562867 9.8422301891522714 S
atom 7.0692522249387570 2.4358704267436941 9.8422301891522714 S
atom 2.0379163275473537 7.4672063241350894 9.8422301891522714 S
atom 8.0779625790831009 7.6800084798867365 9.8422301891522714 S
atom 2.0272749051778227 2.4252290043741653 14.7942971158106840 S
atom 8.0673211567135716 2.6380311601258124 14.7942971158106840 S
atom 3.0359852593221626 7.6693670575172090 14.7942971158106840 S
atom 7.0798936473082872 7.4778477465046196 14.7942971158106840 S
atom 2.5209886598804583 0.0053207111847640 12.1937264328054678 S
atom 7.5629659796414002 0.0159621335542921 12.4428008721574876 S
atom 2.5316300822499938 5.0472980309456874 12.4428008721574876 S
atom 7.5736074020109294 5.0579394533152131 12.1937264328054678 S
atom 2.5209886598804583 0.0053207111847640 17.3673309362877575 S
atom 7.5629659796414002 0.0159621335542921 17.1608704740174396 S
atom 2.5316300822499938 5.0472980309456874 17.1608704740174396 S
atom 7.5736074020109294 5.0579394533152131 17.3673309362877575 S
atom 0.0053207111847640 2.5209886598804601 11.8458863278550677 S
atom 5.0472980309456927 2.5316300822499911 12.7906409771079108 S
atom 0.0159621335542921 7.5629659796413859 12.7906409771079108 S
atom 5.0579394533152238 7.5736074020109072 11.8458863278550677 S
atom 0.0053207111847640 2.5209886598804601 17.7344780251289613 S
atom 5.0472980309456927 2.5316300822499911 16.8119950103680083 S
atom 0.0159621335542921 7.5629659796413859 16.8119950103680083 S
atom 5.0579394533152238 7.5736074020109072 17.7344780251289613 S
atom 0.0247256153878987 -0.0262872581316477 19.6776416281256381 Ba
atom 5.0172517043730238 0.0369286805011757 19.6776416281256381 Ba
atom -0.0140841930183706 5.0682645778925721 19.6776416281256381 Ba
atom 5.0773443575183563 5.0263314839988036 19.6776416281256381 Ba
atom 0.0117244652471362 0.1676068616959006 24.3454963611476352 Ba
atom 5.0302528545137868 -0.1569654393263726 24.3454963611476352 Ba
atom -0.0010830428776081 4.8743704580650284 24.3454963611476352 Ba
atom 5.0643432073775907 5.2202256038263517 24.3454963611476352 Ba
atom 2.5480317539985484 2.5304284887714483 22.2943435308793525 Zr
atom 7.5465643078928331 2.5328316757285307 22.2943435308793525 Zr
atom 2.5152284105014386 7.5641675731199367 22.2943435308793525 Zr
atom 7.6006504961290160 7.5830472309018946 22.2943435308793525 Zr
atom 2.9866656689727349 2.5969421379017517 19.7505955636963080 S
atom 7.1079303929186439 2.4663180265982274 19.7505955636963080 S
atom 2.0765944955272566 7.4976539239896249 19.7505955636963080 S
atom 8.0392844111031874 7.6495608800322046 19.7505955636963080 S
atom 2.2415946996772265 2.4944967933482736 24.7734119957514523 S
atom 7.8530013622141599 2.5687633711517015 24.7734119957514523 S
atom 2.8216654648227601 7.6000992685430990 24.7734119957514523 S
atom 7.2942134418076829 7.5471155354787296 24.7734119957514523 S
atom 2.5209886598804583 0.0053207111847640 22.1034128259571432 S
atom 7.5629659796414002 0.0159621335542921 22.2141415645966092 S
atom 2.5316300822499938 5.0472980309456874 22.2141415645966092 S
atom 7.5736074020109294 5.0579394533152131 22.1034128259571432 S
atom 0.0053207111847640 2.5209886598804601 21.8564478398068864 S
atom 5.0472980309456927 2.5316300822499911 22.5895266983951508 S
atom 0.0159621335542921 7.5629659796413859 22.5895266983951508 S
atom 5.0579394533152238 7.5736074020109072 21.8564478398068864 S
atom 2.3587025093693224 2.5145849058180914 27.8839415253738494 Ba
atom 7.7358935525220529 2.5486752586818873 27.8839415253738494 Ba
atom 2.7045576551306594 7.5800111560732839 27.8839415253738494 Ba
atom 7.4113212514997855 7.5672036479485438 27.8839415253738494 Ba
atom 2.5525966291968745 2.5015837556773288 32.5517962583958607 Ba
atom 7.5419994326945092 2.5616764088226525 32.5517962583958607 Ba
atom 2.5106635353031077 7.5930123062140522 32.5517962583958607 Ba
atom 7.6052153713273443 7.5542024978077773 32.5517962583958607 Ba
atom 5.0484996244242408 5.0308963591971247 29.9350943556421250 Zr
atom 10.0987151795976366 5.0849825474333068 29.9350943556421250 Zr
atom 5.0673792822062094 10.1163184448246870 29.9350943556421250 Zr
atom 10.1011183665546671 10.0835151013275954 29.9350943556421250 Zr
atom 5.0560148837672925 5.0522885357941796 34.9504623687843008 Zr
atom 10.0911999202545566 5.0635903708362449 34.9504623687843008 Zr
atom 5.0598640228631604 10.0949262682276384 34.9504623687843008 Zr
atom 10.1086336258977578 10.1049072779246298 34.9504623687843008 Zr
atom 5.0844313198474040 5.3373334135184551 27.4560258907700323 S
atom 10.0627834841744423 4.7785454931119720 27.4560258907700323 S
atom 5.0314475867830364 9.8098813905033566 27.4560258907700323 S
atom 10.1370500619778738 10.3899521556489187 27.4560258907700323 S
atom 4.9819859752939335 4.5922624442229472 32.4788423228251943 S
atom 10.1652288287279244 5.5236164624074879 32.4788423228251943 S
atom 5.1338929313365149 10.5549523597988912 32.4788423228251943 S
atom 10.0346047174243864 9.6448811863533717 32.4788423228251943 S
atom 5.0472980309456927 2.5316300822499911 29.6399111881263373 S
atom 10.0892753507066377 2.5422715046195190 30.3729900467146123 S
atom 5.0579394533152238 7.5736074020109072 30.3729900467146123 S
atom 10.0999167730761457 7.5842488243804418 29.6399111881263373 S
atom 5.0472980309456927 2.5316300822499911 35.4174428761534159 S
atom 10.0892753507066377 2.5422715046195190 34.4949598613925517 S
atom 5.0579394533152238 7.5736074020109072 34.4949598613925517 S
atom 10.0999167730761457 7.5842488243804418 35.4174428761534159 S
atom 2.5316300822499938 5.0472980309456874 30.0152963219248861 S
atom 7.5736074020109294 5.0579394533152131 30.1260250605642845 S
atom 2.5422715046195181 10.0892753507066111 30.1260250605642845 S
atom 7.5842488243804418 10.0999167730761474 30.0152963219248861 S
atom 2.5316300822499938 5.0472980309456874 35.0685674125040876 S
atom 7.5736074020109294 5.0579394533152131 34.8621069502336880 S
atom 2.5422715046195181 10.0892753507066111 34.8621069502336880 S
atom 7.5842488243804418 10.0999167730761474 35.0685674125040876 S
atom 2.5186921554160220 2.5766905234459880 37.4444494139365673 Ba
atom 7.5759039064753733 2.4865696410539910 37.4444494139365673 Ba
atom 2.5445680090839686 7.5179055384453726 37.4444494139365673 Ba
atom 7.5713108975464749 7.6293092655764472 37.4444494139365673 Ba
atom 2.5339265867144367 2.4759282186844649 42.3778990541434837 Ba
atom 7.5606694751769510 2.5873319458155177 42.3778990541434837 Ba
atom 2.5293335777855552 7.6186678432069170 42.3778990541434837 Ba
atom 7.5865453288448919 7.5285469608149009 42.3778990541434837 Ba
atom 5.0526187421304556 5.0526187421304520 39.9111742340400610 Zr
atom 10.0945960618913855 5.0632601644999822 39.9111742340400610 Zr
atom 5.0632601644999875 10.0945960618913748 39.9111742340400610 Zr
atom 10.1052374842609112 10.1052374842609041 39.9111742340400610 Zr
atom 5.0492226004936231 5.0529489484667156 44.8718860992956863 Zr
atom 10.0979922035282321 5.0629299581637071 44.8718860992956863 Zr
atom 5.0666563061368164 10.0942658555551077 44.8718860992956863 Zr
atom 10.1018413426240965 10.1055676905971819 44.8718860992956863 Zr
atom 5.1536991088215203 5.5516532080178616 37.4351407707107739 S
atom 9.9935156952003261 4.5642256986125762 37.4351407707107739 S
atom 4.9621797978089290 9.5955615960039538 37.4351407707107739 S
atom 10.2063178509519830 10.6042719501483163 37.4351407707107739 S
atom 4.9515383754394033 4.5535842762430550 42.3872076973692700 S
atom 10.1956764285824413 5.5622946303873819 42.3872076973692700 S
atom 5.1643405311910371 10.5936305277787977 42.3872076973692700 S
atom 10.0041571175698714 9.6062030183734919 42.3872076973692700 S
atom 5.0472980309456927 2.5316300822499911 39.4387969094135613 S
atom 10.0892753507066377 2.5422715046195190 40.3835515586664400 S
atom 5.0579394533152238 7.5736074020109072 40.3835515586664400 S
atom 10.0999167730761457 7.5842488243804418 39.4387969094135613 S
atom 5.0472980309456927 2.5316300822499911 45.3273886066874354 S
atom 10.0892753507066377 2.5422715046195190 44.4049055919265712 S
atom 5.0579394533152238 7.5736074020109072 44.4049055919265712 S
atom 10.0999167730761457 7.5842488243804418 45.3273886066874354 S
atom 2.5316300822499938 5.0472980309456874 39.7866370143639543 S
atom 7.5736074020109294 5.0579394533152131 40.0357114537159759 S
atom 2.5422715046195181 10.0892753507066111 40.0357114537159759 S
atom 7.5842488243804418 10.0999167730761474 39.7866370143639543 S
atom 2.5316300822499938 5.0472980309456874 44.9602415178462564 S
atom 7.5736074020109294 5.0579394533152131 44.7537810555759208 S
atom 2.5422715046195181 10.0892753507066111 44.7537810555759208 S
atom 7.5842488243804418 10.0999167730761474 44.9602415178462564 S
atom 2.5000221129335789 2.5510349864531237 47.2705522096841335 Ba
atom 7.5945739489578088 2.5122251780468550 47.2705522096841335 Ba
atom 2.5632380515664077 7.5435610754382454 47.2705522096841335 Ba
atom 7.5526408550640367 7.6036537285835797 47.2705522096841335 Ba
atom 2.6939162327611337 2.5380338363123593 51.9384069427061519 Ba
atom 7.4006798291302687 2.5252263281876179 51.9384069427061519 Ba
atom 2.3693439317388560 7.5565622255790075 51.9384069427061519 Ba
atom 7.7465349748915875 7.5906525784428123 51.9384069427061519 Ba
atom 5.0567378598366730 5.0743411250637784 49.8872541124379083 Zr
atom 10.0904769441851538 5.0415377815666522 49.8872541124379083 Zr
atom 5.0591410467937701 10.0728736789580626 49.8872541124379083 Zr
atom 10.1093566019671464 10.1269598671942198 49.8872541124379083 Zr
atom 5.1232515089669874 5.5129750400379613 47.3435061452548851 S
atom 10.0239632950548607 4.6029038665924702 47.3435061452548851 S
atom 4.9926273976634592 9.6342397639838513 47.3435061452548851 S
atom 10.1758702510974519 10.5655937821684152 47.3435061452548851 S
atom 5.0208061644135134 4.7679040707424516 52.3663225773099796 S
atom 10.1264086396083375 5.3479748358879808 52.3663225773099796 S
atom 5.0950727422169351 10.3793107332793895 52.3663225773099796 S
atom 10.0734249065439627 9.8205228128729001 52.3663225773099796 S
atom 5.0472980309456927 2.5316300822499911 49.4493584213654671 S
atom 10.0892753507066377 2.5422715046195190 50.1824372799536818 S
atom 5.0579394533152238 7.5736074020109072 50.1824372799536818 S
atom 10.0999167730761457 7.5842488243804418 49.4493584213654671 S
atom 2.5316300822499938 5.0472980309456874 49.6963234075155924 S
atom 7.5736074020109294 5.0579394533152131 49.8070521461551010 S
atom 2.5422715046195181 10.0892753507066111 49.8070521461551010 S
atom 7.5842488243804418 10.0999167730761474 49.6963234075155924 S
