#=======================================================
# FHI-aims file: sym_relax/sym_relax_RP_3_RxRyMz_-Rx-Ry0.in
# Created using the Atomic Simulation Environment (ASE)
# Fri Mar 14 10:25:22 2025
#=======================================================
lattice_vector 10.0405561590185375 -0.0038184790308655 -0.0000281118005064 
lattice_vector -0.0038184790308655 10.0405561590185251 0.0000281118005064 
lattice_vector 0.0001940111983547 -0.0001940111983547 35.6782286045338495 
atom 0.0652104733211423 -0.1513964672352142 0.2341297203661009 Ba
atom 5.1716745467444651 -0.0671197128365746 0.2341156644658477 Ba
atom 0.1494872277197828 4.9550676061881118 0.2341437762663540 Ba
atom 5.0835793133149787 4.8669723727586192 0.2341297203661008 Ba
atom -0.2329083294602450 0.1820690593772728 4.9712189279264605 Ba
atom 4.8382090201319885 0.2309990899448114 4.9712048720262150 Ba
atom -0.1839782988927063 5.2531864089695004 4.9712329838267104 Ba
atom 4.7854605105335830 5.2004378993711002 4.9712189279264596 Ba
atom 2.5074180345012067 2.5103976049159642 2.3841431701019618 Zr
atom 7.5282493145871294 2.5090415659771961 2.3841291142017087 Zr
atom 2.5060619955624315 7.5312288850018776 2.3841572260022161 Zr
atom 7.5257868744950294 7.5287664449097944 2.3841431701019618 Zr
atom 2.5092248389965732 2.5091440009972472 7.4329642926112136 Zr
atom 7.5295029185058535 2.5072347614818216 7.4329502367109566 Zr
atom 2.5073155994811400 7.5294220805064977 7.4329783485114689 Zr
atom 7.5275936789904137 7.5275128409910721 7.4329642926112136 Zr
atom 2.6838225960559199 2.7757041787007517 -0.1180778189298374 S
atom 7.2629427408023455 2.3326370044224753 -0.1180918748300904 S
atom 2.2407554217776404 7.3548243234471622 -0.1180637630295839 S
atom 7.7021914360497563 7.7940730186945721 -0.1180778189298373 S
atom 2.2469445477236101 2.1994987842311722 4.9339844438310294 S
atom 7.8391481352719321 2.7695150527547963 4.9339703879307812 S
atom 2.8169608162472239 7.7917023717794773 4.9339984997312945 S
atom 7.2653133877174421 7.2178676242249944 4.9339844438310294 S
atom 2.7321846052006338 0.0078641875158385 2.2059646520385150 S
atom 7.2627204279454167 0.0097218047976175 2.7516399158328833 S
atom 2.2405331089207059 5.0319091238223024 2.7516680276333911 S
atom 7.7505534451944689 5.0262330275096589 2.2059646520385150 S
atom 2.8808814088934085 -0.0038741099141690 7.7379489224553657 S
atom 7.1597555881244208 -0.0000252071160113 7.1279515509665581 S
atom 2.1375682690997415 5.0221621119086688 7.1279796627670686 S
atom 7.8992502488872747 5.0144947300796456 7.7379489224553630 S
atom -0.0097734270312707 2.2880934743086261 2.2059787079387689 S
atom 5.0067377956807668 2.7759264915576813 2.7516539717331385 S
atom -0.0154495233439163 7.7981138105823629 2.7516820835336420 S
atom 5.0085954129625554 7.3064623143024541 2.2059787079387689 S
atom 0.0019648703987368 2.1393966706158456 7.7379629783556174 S
atom 5.0164848075944075 2.8788913313786555 7.1279656068668107 S
atom -0.0057025114302874 7.9010786504033499 7.1279937186673248 S
atom 5.0203337103925847 7.1577655106096572 7.7379629783556156 S
atom 0.2329891674595602 -0.1821498973765878 9.8947096572959410 Ba
atom 5.2024279768858577 -0.2348984069749921 9.8946956013957124 Ba
atom 0.1802406578611558 4.7872889120496831 9.8947237131962176 Ba
atom 5.2513580074533897 4.8362189426172275 9.8947096572959410 Ba
atom -0.0651296353218280 0.1513156292359000 14.6317988648563109 Ba
atom 4.8689624502733810 0.0632203958063948 14.6317848089560716 Ba
atom -0.1532248687513329 5.0854077148310735 14.6318129207565750 Ba
atom 4.9532392046720073 5.1696844692297095 14.6317988648563109 Ba
atom 2.5110316434919495 2.5078903970785422 12.4817854151204877 Zr
atom 7.5307565224245634 2.5054279569864404 12.4817713592202395 Zr
atom 2.5085692033998566 7.5276152760111259 12.4817994710207341 Zr
atom 7.5294004834857873 7.5262592370723578 12.4817854151204877 Zr
atom 2.7715051302695484 2.8187892177633302 9.9319441413913960 S
atom 7.2198577017397660 2.2449544702088469 9.9319300854911603 S
atom 2.1976703827150637 7.2671417892335439 9.9319581972916655 S
atom 7.7898739702633817 7.8371580577571427 9.9319441413913978 S
atom 2.3346270819372346 2.2425838232937494 14.9840064041522574 S
atom 7.7960630962093429 2.6818325185411611 14.9839923482520092 S
atom 2.7738757771846529 7.7040198375658457 14.9840204600525162 S
atom 7.3529959219310799 7.2609526632875685 14.9840064041522574 S
atom 2.7779165690724388 -0.0136211218277981 12.1142605575890503 S
atom 7.3084523918172071 -0.0117635045460188 12.6599358213834154 S
atom 2.2862650727925091 5.0104238144786555 12.6599639331839118 S
atom 7.7962854090662805 5.0047477181660227 12.1142605575890503 S
atom 0.0117118823123649 2.2423615104368246 12.1142746134892931 S
atom 5.0282231050244190 2.7301945276858781 12.6599498772836760 S
atom 0.0060357859997202 7.7523818467105636 12.6599779890841866 S
atom 5.0300807223062050 7.2607303504306513 12.1142746134892931 S
atom 2.4440902542165017 2.6604659758504376 18.0732262034749063 Ba
atom 7.3781809436526533 2.5723693462618846 18.0732121475746617 Ba
atom 2.3559936246279514 7.5945566652865741 18.0732402593751544 Ba
atom 7.4624590942103373 7.6788348158442536 18.0732262034749063 Ba
atom 2.7422604422259118 2.3269537500725423 22.8103511258217395 Ba
atom 7.7116931694305695 2.2741991582524914 22.8103370699215127 Ba
atom 2.6895058504058578 7.2963864772771760 22.8103651817220090 Ba
atom 7.7606292822197487 7.3453225900663481 22.8103511258217395 Ba
atom 5.0202813264505926 5.0170116631971222 20.2232447765144165 Zr
atom 10.0400040962998052 5.0145471140216147 20.2232307206141613 Zr
atom 5.0178167772750966 10.0367344330463126 20.2232588324146718 Zr
atom 10.0386501664444250 10.0353805031909591 20.2232447765144165 Zr
atom 5.0185062645926788 5.0182314153949790 25.2720785948781632 Zr
atom 10.0387843441019697 5.0163221758795515 25.2720645389778937 Zr
atom 5.0165970250772354 10.0385094949042362 25.2720926507784043 Zr
atom 10.0368751045865174 10.0366002553888105 25.2720785948781632 Zr
atom 4.8438689813271250 4.7517546081878503 17.7210166260392334 S
atom 10.3052611513090575 5.1909594591450885 17.7210025701389746 S
atom 5.2830738322843809 10.2131467781697989 17.7210306819395136 S
atom 9.8622378213209601 9.7701234481816854 17.7210166260392334 S
atom 5.2807663932541598 5.3278298832279152 22.7730919625682979 S
atom 9.7291858762690282 4.7540620472180573 22.7730779066680036 S
atom 4.7069985572442903 9.7762493662427357 22.7731060184685070 S
atom 10.2991352332479948 10.3461987232217325 22.7730919625682873 S
atom 5.2872113742858611 2.4954863628531441 20.5907578359686525 S
atom 9.8177050256156697 2.4973521983291387 20.0450562191261952 S
atom 4.7955177065909531 7.5195395173538229 20.0450843309267235 S
atom 10.3055802142796828 7.5138552028469627 20.5907578359686525 S
atom 5.3901794025388998 2.5052147313759137 24.9671135750083621 S
atom 9.6690204456711584 2.5090607803893761 25.5770155029474395 S
atom 4.6468331266464515 7.5312480994140376 25.5770436147479074 S
atom 10.4085482425327420 7.5235835713697305 24.9671135750083621 S
atom 2.5209732376252596 4.7514355452172365 20.5907718918688971 S
atom 7.5374762421430974 5.2393107338812550 20.0450702750264753 S
atom 2.5152889231183888 10.2614980529059316 20.0450983868269539 S
atom 7.5393420776190982 9.7698043852110636 20.5907718918688936 S
atom 2.5112448691024833 4.6484675169641951 24.9671276309086103 S
atom 7.5257676600828596 5.3879953138257699 25.5770295588477055 S
atom 2.5035803410581616 10.4101826328504394 25.5770576706481840 S
atom 7.5296137090963056 9.6668363569580276 24.9671276309086103 S
atom 2.2763832469655934 2.6911402407236156 27.7338060639345727 Ba
atom 7.3475066787794763 2.7400763535127988 27.7337920080342855 Ba
atom 2.3253193597547814 7.7622636725374798 27.7338201198347889 Ba
atom 7.2947520869594396 7.7095090807174342 27.7338060639345798 Ba
atom 2.5745534349750057 2.3576280149457163 32.4709309862813882 Ba
atom 7.6810189045573871 2.4419061655033931 32.4709169303810086 Ba
atom 2.6588315855326830 7.4640934845280826 32.4709450421815902 Ba
atom 7.5929222749688288 7.3759968549395376 32.4709309862813811 Ba
atom 5.0167312027347535 5.0194511675928357 30.3209124132418459 Zr
atom 10.0375645919040526 5.0180972377374617 30.3208983573415907 Zr
atom 5.0153772728793644 10.0402845567621650 30.3209264691420941 Zr
atom 10.0351000427285904 10.0378200075866779 30.3209124132418459 Zr
atom 4.7562461359311774 4.7086329475620650 27.7710652271880143 S
atom 10.3483828119348793 5.2785823045410485 27.7710511712877626 S
atom 5.3261954929101805 10.3007696235657065 27.7710792830882696 S
atom 9.7746149759250098 9.7270017875558743 27.7710652271880214 S
atom 5.1931435478582273 5.2847082226021147 32.8231405637169331 S
atom 9.7723075368948304 4.8416848926139995 32.8231265078166956 S
atom 4.7501202178701103 9.8638722116386806 32.8231546196171848 S
atom 10.2115123878520659 10.3030770625959249 32.8231405637169402 S
atom 5.2414948225943769 2.5169233134361462 30.4990728588295532 S
atom 9.7719884739241998 2.5187891489121403 29.9533712419871279 S
atom 4.7498011548994938 7.5409764679368312 29.9533993537876704 S
atom 10.2598636625882218 7.5352921534299702 30.4990728588295603 S
atom 2.4995362870422491 4.7971520969087154 30.4990869147298014 S
atom 7.5160392915600829 5.2850272855727267 29.9533852978873654 S
atom 2.4938519725353876 10.3072146045974335 29.9534134096879221 S
atom 7.5179051270360793 9.8155209369025123 30.4990869147298014 S
