#=======================================================
# FHI-aims file: sym_relax/sym_relax_RP_5_Rx0Mz_0-RyMz.in
# Created using the Atomic Simulation Environment (ASE)
# Fri Mar 14 10:51:36 2025
#=======================================================
lattice_vector 10.0135181014605568 -0.0600773287922133 -0.0000229970042503 
lattice_vector -0.0600773287922130 10.0135181014605479 -0.0000229970042504 
lattice_vector -0.0001846150165060 -0.0001846150165065 55.8950588721760582 
atom 0.0887408675567156 -0.1794817219229437 0.2209470569995825 Ba
atom 5.1862820141158288 -0.1187732963674928 0.2209482707057183 Ba
atom 0.1494842989894533 4.9180244187588791 0.2209482707057183 Ba
atom 5.0654612538908728 4.7972386644112177 0.2209240599953322 Ba
atom -0.2621679051008256 0.1864287650656282 5.0046356897665527 Ba
atom 4.8203848659918815 0.2321361542603373 5.0045891133093692 Ba
atom -0.2164128491344974 5.2689338693867098 5.0045891133093692 Ba
atom 4.7145524812333353 5.1631491513997894 5.0046126927622980 Ba
atom 2.4868129672977632 2.4790851221279189 2.4024831084823197 Zr
atom 7.5044204553538574 2.4599200078903847 2.4024538081126701 Zr
atom 2.4676227402274895 7.4967177230167517 2.4024538081126701 Zr
atom 7.4635333536319139 7.4558055084620936 2.4024601114780713 Zr
atom 2.4810080570418900 2.4928343090672023 7.4588975031211273 Zr
atom 7.4906800788643171 2.4657157295295620 7.4588862187452953 Zr
atom 2.4538823637379492 7.5025134446559232 7.4588862187452953 Zr
atom 7.4577284433760527 7.4695546954013627 7.4588745061168797 Zr
atom 2.6132260568043417 2.7009577351910292 -0.1040799780445218 S
atom 7.2825330712084178 2.3335362690718680 -0.1041038229297126 S
atom 2.2457353560820366 7.3703339841982443 -0.1041038229297126 S
atom 7.5899464431385013 7.6776781215251821 -0.1041029750487722 S
atom 2.2374771136353830 2.1916352286318697 4.9629787610019598 S
atom 7.7918293130109157 2.7092125802578373 4.9629678309765151 S
atom 2.7550315978845563 7.7460102953841821 4.9629678309765133 S
atom 7.2141974999695302 7.1683556149660239 4.9629557639977149 S
atom 2.7946649965093262 -0.0094312331146193 2.2465297470208174 S
atom 7.1938696804093851 -0.0365328237424235 2.7552105704705019 S
atom 2.1570719652830133 5.0002648913839449 2.7552105704705006 S
atom 7.7713853828434782 4.9672891532195429 2.2465067500165707 S
atom 2.8945958772573799 -0.0147274852332810 7.7827638963332255 S
atom 7.1251378975336488 -0.0413241826286295 7.1650295467625673 S
atom 2.0883401824072849 4.9954735324977531 7.1650295467625682 S
atom 7.8713162635915328 4.9619929011008859 7.7827408993289682 S
atom -0.0205552515264770 2.2121902909841307 2.2465383046691607 S
atom 4.9832677797368694 2.7897032950460989 2.7552425285537470 S
atom -0.0535299353894947 7.8265010101724632 2.7552425285537470 S
atom 4.9561651348076792 7.1889106773182831 2.2465153076649100 S
atom -0.0153015451520758 2.1121618534648583 7.7827551943456426 S
atom 4.9880122195455092 2.8583527336177421 7.1650151330914200 S
atom -0.0487854955808634 7.8951504487441104 7.1650151330914218 S
atom 4.9614188411820841 7.0888822397990010 7.7827321973413959 S
atom 0.2782057232067855 -0.1824219276700851 9.9787700035575284 Ba
atom 5.1891461138116055 -0.3082824353129784 9.9787794149576055 Ba
atom 0.1523483986852386 4.7285152798133803 9.9787794149575948 Ba
atom 5.2549261095409481 4.7942984586640707 9.9787470065532666 Ba
atom -0.2782881406248688 0.1823395102520011 14.9743812786639090 Ba
atom 4.8242895702308477 0.2481226891026799 14.9743488702595631 Ba
atom -0.2125081448955343 5.2849204042290649 14.9743488702595666 Ba
atom 4.6984322457092880 5.1590598965861698 14.9743582816596543 Ba
atom 2.4883189844580405 2.4883189844580356 12.4765641426085931 Zr
atom 7.4950780351883122 2.4582803200619332 12.4765526441064676 Zr
atom 2.4582803200619368 7.4950780351882909 12.4765526441064658 Zr
atom 7.4650393707922067 7.4650393707921863 12.4765411456043420 Zr
atom 2.4956299118741754 2.4838036598488653 17.4942307820959932 Zr
atom 7.4994759915122948 2.4508449105942955 17.4942190694676185 Zr
atom 2.4626782763859092 7.4876426257206727 17.4942190694676150 Zr
atom 7.4723502982083447 7.4605240461830311 17.4942077850917386 Zr
atom 2.7525453520213263 2.8169238883949221 9.9730834121284690 S
atom 7.1664823631522561 2.1941193799435363 9.9730615549933912 S
atom 2.1296846480258824 7.2309170950699109 9.9730615549933948 S
atom 7.7292657383554921 7.7936442747290853 9.9730604151242019 S
atom 2.2240926168947537 2.1597140805211539 14.9800448730887226 S
atom 7.8236737072243514 2.7224412601803269 14.9800437332195369 S
atom 2.7868759920979826 7.7592389753066815 14.9800437332195422 S
atom 7.2008130032289142 7.1364344668553139 14.9800218760844626 S
atom 2.8860542544570023 -0.0166202659345652 12.1592051300591404 S
atom 7.1273814295854443 -0.0435394802757312 12.7939231551580264 S
atom 2.0905837144590604 4.9932582348506447 12.7939231551580281 S
atom 7.8627746407911765 4.9601001203995763 12.1591821330548804 S
atom 2.8882977865087969 -0.0188355635816670 17.7880987384546465 S
atom 7.1188398067850693 -0.0454322609770161 17.1703643888839608 S
atom 2.0820420916586975 4.9913654541493617 17.1703643888839608 S
atom 7.8650181728429667 4.9578848227524821 17.7880757414503776 S
atom -0.0135001447325752 2.1206357587293119 12.1591929612860525 S
atom 4.9901381136486593 2.8560022101867584 12.7939353239311036 S
atom -0.0466596014777207 7.8927999253131205 12.7939353239311036 S
atom 4.9632202416015723 7.0973561450634870 12.1591699642818138 S
atom -0.0113742506294326 2.1182852352983299 17.7881131521257565 S
atom 4.9919395140681582 2.8644761154512119 17.1703730908714824 S
atom -0.0448582010582207 7.9012738305776029 17.1703730908714824 S
atom 4.9653461357047313 7.0950056216324882 17.7880901551215018 S
atom 0.2620854876827423 -0.1865111824837116 19.9485155924548785 Ba
atom 5.1930508180505699 -0.2922959004706336 19.9485391719077647 Ba
atom 0.1562531029242010 4.7445018146557389 19.9485391719077576 Ba
atom 5.2388058740168999 4.7902092038504396 19.9484925954505918 Ba
atom -0.0888232849747988 0.1793993045048600 24.7322042252218246 Ba
atom 4.8271536699266120 0.0586135501571965 24.7321800145114423 Ba
atom -0.2096440451997495 5.0954112652835652 24.7321800145114423 Ba
atom 4.8878971013593659 5.1561196908390068 24.7321812282175948 Ba
atom 2.4898250016183101 2.4975528467881465 22.5506451767348146 Zr
atom 7.4857356150227616 2.4566406322334711 22.5506514801002531 Zr
atom 2.4489378998963707 7.4934383473598469 22.5506514801002460 Zr
atom 7.4665453879524772 7.4742732331223021 22.5506221797305813 Zr
atom 2.7391608552806948 2.7850027402842095 19.9901495242151732 S
atom 7.1983267573656775 2.2073480598660296 19.9901374572364006 S
atom 2.1615290422393079 7.2441457749924032 19.9901374572364006 S
atom 7.7158812416148610 7.7617231266183708 19.9901265272109931 S
atom 2.3634119121117325 2.2756802337250459 25.0572082632616997 S
atom 7.7076229991682128 2.5830243710519900 25.0572091111426403 S
atom 2.6708252840418236 7.6198220861783623 25.0572091111426403 S
atom 7.3401322984458952 7.2524006200592046 25.0571852662574521 S
atom 2.8195660036330614 -0.0236269224678735 22.1979177147467119 S
atom 7.2187706875331292 -0.0507285130956772 22.7065985381963458 S
atom 2.1819729724067671 4.9860692020306914 22.7065985381963458 S
atom 7.7962863899672090 4.9530934638662760 22.1978947177424715 S
atom -0.0066298108208016 2.1869346738699700 22.1978857566634353 S
atom 4.9971932204425507 2.7644476779319445 22.7065899805480349 S
atom -0.0396044946838189 7.8012453930583110 22.7065899805480349 S
atom 4.9700905755133640 7.1636550602041318 22.1978627596591700 S
atom 2.3087861637358746 2.5770087532155403 28.1684649945854879 Ba
atom 7.4062923044176987 2.6377521846482757 28.1684662082916084 Ba
atom 2.3694945892913251 7.6745498997746484 28.1684662082916084 Ba
atom 7.2855065500700551 7.5537291395497048 28.1684419975812546 Ba
atom 2.6746966507244472 2.2260999805579993 32.9521536273523381 Ba
atom 7.7572017550455259 2.2718550365243275 32.9521070508952789 Ba
atom 2.7204040399191634 7.3086527516507021 32.9521070508952789 Ba
atom 7.6514170370586179 7.2028203668921567 32.9521306303482291 Ba
atom 4.9673530077867811 4.9750808529565864 30.3500010460682255 Zr
atom 9.9849856086755580 4.9558906258863109 30.3499717456985181 Zr
atom 4.9481878935492167 9.9926883410126539 30.3499717456985287 Zr
atom 9.9440733941208990 9.9518012392907682 30.3499780490639743 Zr
atom 4.9811021947260130 4.9692759427006985 35.4064154407070362 Zr
atom 9.9907813303147766 4.9421502493967697 35.4064041563311847 Zr
atom 4.9539836151883847 9.9789479645231633 35.4064041563311847 Zr
atom 9.9578225810602152 9.9459963290348696 35.4063924437027850 Zr
atom 5.1892256208498519 5.1014939424631587 27.8434379595413617 S
atom 9.8586018698570861 4.7340032417408606 27.8434141146561807 S
atom 4.8218041547306791 9.7708009568672178 27.8434141146561807 S
atom 10.1659460071839991 10.0782143287972872 27.8434149625370644 S
atom 4.6799031142906857 4.7257449992942080 32.9104966985878704 S
atom 10.2342781810430381 5.2432994835433853 32.9104857685623386 S
atom 5.1974804659166436 10.2800971986697771 32.9104857685623386 S
atom 9.6566235006248764 9.7024653856283791 32.9104737015835624 S
atom 4.7004581766429601 2.4677126341323508 30.1940562422550407 S
atom 10.3147688958313068 2.4347379502693292 30.7027604661396438 S
atom 5.2779711807049337 7.4715356653956890 30.7027604661396438 S
atom 9.6771785629770939 7.4444330204665059 30.1940332452507789 S
atom 4.6004297391236797 2.4729663405067481 35.7302731319315470 S
atom 10.3834183344029025 2.4394823900779574 35.1125330706772871 S
atom 5.3466206192765870 7.4762801052043315 35.1125330706772871 S
atom 9.5771501254578517 7.4496867268408975 35.7302501349273456 S
atom 2.4788366525442092 5.2829328821681463 30.1940476846067050 S
atom 7.4885327770427805 4.6453398509418378 30.7027285080563352 S
atom 2.4517350619164047 9.6821375660681692 30.7027285080563352 S
atom 7.4555570388783590 10.2596532685022783 30.1940246876024538 S
atom 2.4735404004255410 5.3828637629161999 35.7302818339191575 S
atom 7.4837414181565771 4.5766080680661076 35.1125474843484398 S
atom 2.4469437030301995 9.6134057831924729 35.1125474843484469 S
atom 7.4502607867597064 10.3595841492503329 35.7302588369148069 S
atom 2.3058459579887423 2.7664736088656117 37.9262879411434426 Ba
atom 7.2167831654722034 2.6406162843440648 37.9262973525434361 Ba
atom 2.1799854503458502 7.6774139994704269 37.9262973525434361 Ba
atom 7.2825663443229054 7.7431939951997801 37.9262649441390920 Ba
atom 2.6706073959108276 2.2099797450339582 42.9218992162498409 Ba
atom 7.7731882898878704 2.2757597407632928 42.9218668078454897 Ba
atom 2.7363905747615056 7.3125574558896682 42.9218668078454897 Ba
atom 7.6473277822449841 7.1867001313681049 42.9218762192455188 Ba
atom 4.9765868701168765 4.9765868701168632 40.4240820801944523 Zr
atom 9.9833459208471265 4.9465482057207595 40.4240705816923622 Zr
atom 4.9465482057207533 9.9833459208471265 40.4240705816923622 Zr
atom 9.9533072564510086 9.9533072564510015 40.4240590831902153 Zr
atom 4.9720715455077107 4.9838977975330137 45.4417487196819110 Zr
atom 9.9759105113794728 4.9509461620447404 45.4417370070535043 Zr
atom 4.9391127962531192 9.9877438771711233 45.4417370070535043 Zr
atom 9.9487919318418339 9.9606181838671670 45.4417257226776385 Zr
atom 5.3051917740537409 5.2408132376801513 37.9206013497143104 S
atom 9.7191849807287092 4.6179525336846989 37.9205794925792716 S
atom 4.6823872656023493 9.6547502488110446 37.9205794925792716 S
atom 10.2819121603879307 10.2175336240143135 37.9205783527100593 S
atom 4.6479819661800015 4.7123605025535955 42.9275628106745586 S
atom 10.2475068609655562 5.2751438777568183 42.9275616708053818 S
atom 5.2107091458391510 10.3119415928831941 42.9275616708053818 S
atom 9.6247023525141220 9.6890808888877409 42.9275398136703572 S
atom 4.6089036443881497 2.4747677409262510 40.1067108988719383 S
atom 10.3810678109719507 2.4416082841811040 40.7414532615169875 S
atom 5.3442700958455820 7.4784059993074896 40.7414532615169875 S
atom 9.5856240307223040 7.4514881272603848 40.1066879018676090 S
atom 4.6065531209571580 2.4768936350293962 45.7356310897116458 S
atom 10.3895417162364279 2.4434096846006037 45.1178910284573504 S
atom 5.3527440011100564 7.4802073997269858 45.1178910284573504 S
atom 9.5832735072913344 7.4536140213635473 45.7356080927074160 S
atom 2.4716476197242625 5.3743221401158356 40.1067230676450421 S
atom 7.4815261205094643 4.5788516001178836 40.7414410927438624 S
atom 2.4447284053830987 9.6156493152443012 40.7414410927438624 S
atom 7.4483680060584083 10.3510425264499801 40.1067000706408621 S
atom 2.4694323220771550 5.3765656721676338 45.7356166760404719 S
atom 7.4796333398081707 4.5703099773175238 45.1178823264698394 S
atom 2.4428356246818104 9.6071076924438970 45.1178823264698394 S
atom 7.4461527084113115 10.3532860585017854 45.7355936790361781 S
atom 2.3017567031751227 2.7503533733415657 47.8960335300406825 Ba
atom 7.2327697003145719 2.6445209885830203 47.8960571094935688 Ba
atom 2.1959719851881934 7.6813187037093957 47.8960571094935688 Ba
atom 7.2784770895092947 7.7270737596757204 47.8960105330365451 Ba
atom 2.6676671901636864 2.3994446006840247 52.6797221628076926 Ba
atom 7.5836791509423929 2.2786238404590695 52.6796979520973707 Ba
atom 2.5468814358160170 7.3154215555854449 52.6796979520973707 Ba
atom 7.6443875764978300 7.3761649870181731 52.6796991658034486 Ba
atom 4.9858207324469639 4.9780928872771399 50.4981631143207892 Zr
atom 9.9817062330187110 4.9372057855551965 50.4981694176861495 Zr
atom 4.9449085178923005 9.9740035006815866 50.4981694176861495 Zr
atom 9.9625411187810791 9.9548132736112667 50.4981401173165452 Zr
atom 5.2732706259430282 5.2274287409395184 47.9376674618010554 S
atom 9.7324136606512237 4.6497969278981222 47.9376553948223503 S
atom 4.6956159455248656 9.6865946430244811 47.9376553948223503 S
atom 10.2499910122772029 10.2041491272736735 47.9376444647968327 S
atom 4.7639481193838842 4.8516797977705641 53.0047262008475357 S
atom 10.1080899718371864 5.1590931697006575 53.0047270487284550 S
atom 5.0712922567108114 10.1958908848270244 53.0047270487284550 S
atom 9.7406685057180553 9.8284001841047601 53.0047032038433343 S
atom 4.6752025595288043 2.4816380748380182 50.1454036942493602 S
atom 10.2895132787171502 2.4486633909750015 50.6541079181339455 S
atom 5.2527155635907814 7.4854611061013676 50.6541079181339455 S
atom 9.6519229458629585 7.4583584611721880 50.1453806972450806 S
atom 2.4646409631909587 5.3078338892918859 50.1454356523324520 S
atom 7.4743370876895101 4.6702408580655819 50.6541164757822173 S
atom 2.4375393725631422 9.7070385731919533 50.6541164757822173 S
atom 7.4413613495251081 10.2845542756260535 50.1454126553281725 S
