#=======================================================
# FHI-aims file: sym_relax/sym_relax_RP_4_RxRyMz_-Rx-Ry0.in
# Created using the Atomic Simulation Environment (ASE)
# Fri Mar 14 10:31:29 2025
#=======================================================
lattice_vector 10.0184654927480725 -0.0483139723305514 -0.0000000000000000 
lattice_vector -0.0483139723305512 10.0184654927480725 -0.0000000000000000 
lattice_vector 0.0000000000000000 -0.0000000000000000 45.8482135655480008 
atom 0.0817184948262268 -0.1802576630751624 0.2251045823148062 Ba
atom 5.1894904094491903 -0.1058754809915030 0.2251045823148063 Ba
atom 0.1561006769098873 4.9275142515477945 0.2251045823148063 Ba
atom 5.0667942550349911 4.8048180971335857 0.2251045823148063 Ba
atom -0.2520027470479012 0.1814111292337010 4.9985251737426575 Ba
atom 4.8278216171403239 0.2278457608826254 4.9985251737426575 Ba
atom -0.2055681153989768 5.2612354934219256 4.9985251737426575 Ba
atom 4.7330730131608592 5.1664868894424361 4.9985251737426575 Ba
atom 2.4922613031593999 2.4808138391631576 2.4011812024946186 Zr
atom 7.5134946674196277 2.4686574708840792 2.4011812024946186 Zr
atom 2.4801049348803250 7.5020472034233805 2.4011812024946186 Zr
atom 7.4773370633681582 7.4658895993719074 2.4011812024946186 Zr
atom 2.4919615424321817 2.4918100474773341 7.4575922972096400 Zr
atom 7.5024984591054471 2.4689572316112844 7.4575922972096400 Zr
atom 2.4691087265661440 7.5023469641505836 7.4575922972096400 Zr
atom 7.4770373026409462 7.4768858076860907 7.4575922972096400 Zr
atom 2.6214259745959518 2.7038151942359518 -0.1048007126185305 S
atom 7.2904933123468156 2.3394927994475272 -0.1048007126185305 S
atom 2.2571035798075227 7.3728825319868232 -0.1048007126185305 S
atom 7.6065017348047155 7.6888909544447088 -0.1048007126185305 S
atom 2.2442617358358188 2.1912616801146299 4.9595183783795029 S
atom 7.8030468264681554 2.7166570382076669 4.9595183783795029 S
atom 2.7696570939288550 7.7500467707469785 4.9595183783795029 S
atom 7.2293374960445647 7.1763374403233753 4.9595183783795029 S
atom 2.7885223740695699 -0.0093811340077697 2.2438873760206337 S
atom 7.2118565236243235 -0.0304675670729689 2.7516668465019412 S
atom 2.1784667910850186 5.0029221654663347 2.7516668465019412 S
atom 7.7735981342783251 4.9756946262009825 2.2438873760206337 S
atom 2.8971562535429722 -0.0166899490748292 7.7727836997036732 S
atom 7.1361472845125951 -0.0369857847532634 7.1576882766617507 S
atom 2.1027575519732857 4.9964039477860371 7.1576882766617507 S
atom 7.8822320137517226 4.9683858111339170 7.7727836997036732 S
atom -0.0147758521575058 2.2207103723044672 2.2438873760206337 S
atom 4.9913863411164634 2.7824519829584538 2.7516668465019412 S
atom -0.0420033914228590 7.8158417154977480 2.7516668465019412 S
atom 4.9702999080512447 7.2057861325132082 2.2438873760206337 S
atom -0.0074670370904462 2.1120764928310671 7.7727836997036732 S
atom 4.9979045587967352 2.8581612220701862 7.1576882766617507 S
atom -0.0354851737425645 7.8915509546095004 7.1576882766617507 S
atom 4.9776087231183039 7.0971522530398135 7.7727836997036732 S
atom 0.2767374578316744 -0.1860965504281780 9.9670029490321870 Ba
atom 5.1953292968022087 -0.3008944439969498 9.9670029490321870 Ba
atom 0.1619395642629023 4.7324952885423475 9.9670029490321870 Ba
atom 5.2618132180404240 4.7989792097805797 9.9670029490321870 Ba
atom -0.2520027470479012 0.1814111292337011 14.9354807243217156 Ba
atom 4.8278216171403239 0.2278457608826254 14.9354807243217156 Ba
atom -0.2055681153989767 5.2612354934219256 14.9354807243217156 Ba
atom 4.7330730131608592 5.1664868894424361 14.9354807243217156 Ba
atom 2.4919615424321817 2.4918100474773341 12.4764136008547180 Zr
atom 7.5024984591054471 2.4689572316112844 12.4764136008547180 Zr
atom 2.4691087265661440 7.5023469641505836 12.4764136008547180 Zr
atom 7.4770373026409462 7.4768858076860907 12.4764136008547180 Zr
atom 2.4922613031593999 2.4808138391631576 17.5328246955697686 Zr
atom 7.5134946674196277 2.4686574708840792 17.5328246955697686 Zr
atom 2.4801049348803250 7.5020472034233805 17.5328246955697686 Zr
atom 7.4773370633681582 7.4658895993719074 17.5328246955697686 Zr
atom 2.7592179426767638 2.8157912454162166 9.9670029490321870 S
atom 7.1785172611665740 2.2017008313667148 9.9670029490321870 S
atom 2.1451275286272660 7.2350905639060166 9.9670029490321870 S
atom 7.7442937028854999 7.8008670056249656 9.9670029490321870 S
atom 2.2442617358358188 2.1912616801146299 14.9744875196848692 S
atom 7.8030468264681554 2.7166570382076669 14.9744875196848692 S
atom 2.7696570939288550 7.7500467707469785 14.9744875196848692 S
atom 7.2293374960445647 7.1763374403233753 14.9744875196848692 S
atom 2.8971562535429722 -0.0166899490748292 12.1612221983606901 S
atom 7.1361472845125951 -0.0369857847532634 12.7763176214026117 S
atom 2.1027575519732857 4.9964039477860371 12.7763176214026117 S
atom 7.8822320137517226 4.9683858111339170 12.1612221983606901 S
atom 2.7885223740695699 -0.0093811340077697 17.6901185220437362 S
atom 7.2118565236243235 -0.0304675670729689 17.1823390515624403 S
atom 2.1784667910850186 5.0029221654663347 17.1823390515624403 S
atom 7.7735981342783251 4.9756946262009825 17.6901185220437362 S
atom -0.0074670370904462 2.1120764928310671 12.1612221983606901 S
atom 4.9979045587967352 2.8581612220701862 12.7763176214026117 S
atom -0.0354851737425645 7.8915509546095004 12.7763176214026117 S
atom 4.9776087231183039 7.0971522530398135 12.1612221983606901 S
atom -0.0147758521575058 2.2207103723044672 17.6901185220437362 S
atom 4.9913863411164634 2.7824519829584538 17.1823390515624403 S
atom -0.0420033914228590 7.8158417154977480 17.1823390515624403 S
atom 4.9702999080512447 7.2057861325132082 17.6901185220437362 S
atom 0.0817184948262268 -0.1802576630751624 19.7089013157495749 Ba
atom 5.1894904094491903 -0.1058754809915031 19.7089013157495749 Ba
atom 0.1561006769098873 4.9275142515477954 19.7089013157495749 Ba
atom 5.0667942550349911 4.8048180971335857 19.7089013157495749 Ba
atom 2.6214259745959518 2.7038151942359518 20.0388066106829150 S
atom 7.2904933123468156 2.3394927994475272 20.0388066106829150 S
atom 2.2571035798075227 7.3728825319868232 20.0388066106829150 S
atom 7.6065017348047155 7.6888909544447088 20.0388066106829150 S
atom 2.6723052766615560 2.4112262149449695 23.1492253789078077 Ba
atom 7.5830822916378251 2.2886134973819292 23.1492253789078077 Ba
atom 2.5496925590985100 7.3220032299212345 23.1492253789078077 Ba
atom 7.6573810368703059 7.3963019751537260 23.1492253789078077 Ba
atom 2.3103640832493335 2.7453361216228225 27.9226773633440715 Ba
atom 7.2489723849599379 2.6505546907941406 27.9226773633440715 Ba
atom 2.2155826524206463 7.6839444233334415 27.9226773633440715 Ba
atom 7.2954398434580936 7.7304118818315875 27.9226773633440715 Ba
atom 4.9961965852300798 4.9859338226231937 25.3252956819397319 Zr
atom 9.9934504441683529 4.9497979490221589 25.3252956819397319 Zr
atom 4.9600607116290512 9.9831876815614571 25.3252956819397319 Zr
atom 9.9812723454388372 9.9710095828319325 25.3252956819397319 Zr
atom 4.9849929200882865 4.9864757613936703 30.3817070603487096 Zr
atom 9.9929085053978657 4.9610016141639361 30.3817070603487096 Zr
atom 4.9595187728585550 9.9943913467032566 30.3817070603487096 Zr
atom 9.9700686802970324 9.9715515216024446 30.3817070603487096 Zr
atom 4.7733031954023915 4.8566119089987705 22.8193119715727946 S
atom 10.1227723577927815 5.1726913388498348 22.8193119715727946 S
atom 5.0893826252534557 10.2060810713891339 22.8193119715727946 S
atom 9.7583789556111427 9.8416876692075093 22.8193119715727946 S
atom 5.2856211213583864 5.2340982029427918 27.8836365121184748 S
atom 9.7452860638487664 4.6603734128938461 27.8836365121184748 S
atom 4.7118963313094371 9.6937631454331559 27.8836365121184748 S
atom 10.2706968815671544 10.2191739631515297 27.8836365121184748 S
atom 4.6943788947956344 2.4868539995704002 25.6758365869895755 S
atom 10.2897543972332244 2.4596047216982857 25.1679905522553540 S
atom 5.2563646646938906 7.4929944542375999 25.1679905522553540 S
atom 9.6794546550043936 7.4719297597791545 25.6758365869895755 S
atom 4.6186666183553422 2.4805133448777070 30.0818239984631930 S
atom 10.3980785196499568 2.4524984060774915 30.6969160045521079 S
atom 5.3646887871106737 7.4858881386167839 30.6969160045521079 S
atom 9.6037423785640890 7.4655891050864538 30.0818239984631930 S
atom 2.4740647744730753 5.2999296117871415 25.6758365869895755 S
atom 7.4863898125539379 4.6896298695583392 25.1679905522553540 S
atom 2.4530000800146357 9.7230196020976400 25.1679905522553540 S
atom 7.4591405346818247 10.2850053719959007 25.6758365869895755 S
atom 2.4804054291657698 5.3756418882274302 30.0818239984631930 S
atom 7.4934961281747441 4.5813057471415739 30.6969160045521079 S
atom 2.4601063956354348 9.6146954796808899 30.6969160045521079 S
atom 7.4654811893745094 10.3607176484362018 30.0818239984631930 S
atom 2.6778229685349855 2.2166304874346410 32.8911097318061820 Ba
atom 7.7776780191481469 2.2830958055084913 32.8911097318061820 Ba
atom 2.7442882866088398 7.3164855380477940 32.8911097318061820 Ba
atom 7.6628987287437411 7.2017062476433882 32.8911097318061820 Ba
atom 2.3103640832493335 2.7453361216228225 37.8595421002683352 Ba
atom 7.2489723849599379 2.6505546907941406 37.8595421002683352 Ba
atom 2.2155826524206463 7.6839444233334415 37.8595421002683352 Ba
atom 7.2954398434580936 7.7304118818315875 37.8595421002683352 Ba
atom 4.9849929200882865 4.9864757613936703 35.4005124032636189 Zr
atom 9.9929085053978657 4.9610016141639361 35.4005124032636189 Zr
atom 4.9595187728585550 9.9943913467032566 35.4005124032636189 Zr
atom 9.9700686802970324 9.9715515216024446 35.4005124032636189 Zr
atom 4.9961965852300798 4.9859338226231937 40.4569237816726783 Zr
atom 9.9934504441683529 4.9497979490221589 40.4569237816726783 Zr
atom 4.9600607116290512 9.9831876815614571 40.4569237816726783 Zr
atom 9.9812723454388372 9.9710095828319325 40.4569237816726783 Zr
atom 4.6610169913226214 4.7192105664943318 32.8911097318061820 S
atom 10.2601737002972033 5.2849775429295933 32.8911097318061820 S
atom 5.2267839677579016 10.3183672754689137 32.8911097318061820 S
atom 9.6460927515313593 9.7042863267030963 32.8911097318061820 S
atom 5.2856211213583864 5.2340982029427918 37.8985829514939070 S
atom 9.7452860638487664 4.6603734128938461 37.8985829514939070 S
atom 4.7118963313094371 9.6937631454331559 37.8985829514939070 S
atom 10.2706968815671544 10.2191739631515297 37.8985829514939070 S
atom 4.6186666183553422 2.4805133448777070 35.7003954651492350 S
atom 10.3980785196499568 2.4524984060774915 35.0853034590601993 S
atom 5.3646887871106737 7.4858881386167839 35.0853034590601993 S
atom 9.6037423785640890 7.4655891050864538 35.7003954651492350 S
atom 4.6943788947956344 2.4868539995704002 40.1063828766229520 S
atom 10.2897543972332244 2.4596047216982857 40.6142289113570598 S
atom 5.2563646646938906 7.4929944542375999 40.6142289113570598 S
atom 9.6794546550043936 7.4719297597791545 40.1063828766229520 S
atom 2.4804054291657698 5.3756418882274302 35.7003954651492350 S
atom 7.4934961281747441 4.5813057471415739 35.0853034590601993 S
atom 2.4601063956354348 9.6146954796808899 35.0853034590601993 S
atom 7.4654811893745094 10.3607176484362018 35.7003954651492350 S
atom 2.4740647744730753 5.2999296117871415 40.1063828766229520 S
atom 7.4863898125539379 4.6896298695583392 40.6142289113570598 S
atom 2.4530000800146357 9.7230196020976400 40.6142289113570598 S
atom 7.4591405346818247 10.2850053719959007 40.1063828766229520 S
atom 2.6723052766615560 2.4112262149449695 42.6329940847046487 Ba
atom 7.5830822916378251 2.2886134973819292 42.6329940847046487 Ba
atom 2.5496925590985100 7.3220032299212345 42.6329940847046487 Ba
atom 7.6573810368703059 7.3963019751537260 42.6329940847046487 Ba
atom 4.7733031954023915 4.8566119089987687 42.9629074920396548 S
atom 10.1227723577927815 5.1726913388498348 42.9629074920396548 S
atom 5.0893826252534557 10.2060810713891339 42.9629074920396548 S
atom 9.7583789556111427 9.8416876692075093 42.9629074920396548 S
