#=======================================================
# FHI-aims file: sym_relax/sym_relax_RP_9_Rx1Ry20_-Rx2-Ry10.in
# Created using the Atomic Simulation Environment (ASE)
# Mon Mar 17 16:34:46 2025
#=======================================================
lattice_vector 10.0772883439338905 0.0398090598008134 0.0000000000000000 
lattice_vector 0.0398090598008134 10.0772883439339225 0.0000000000000000 
lattice_vector 0.0000000000000000 0.0000000000000000 94.7894450876557073 
atom -0.1483464701209260 -0.0118268550502810 0.2733516453078553 Ba
atom 5.1869906420878760 0.0317313849506875 0.2733516453078553 Ba
atom 0.1682510000213325 5.0504710270172266 0.2733516453078553 Ba
atom 4.9102022317464149 5.0467218468170705 0.2733516453078553 Ba
atom 0.0253385998458606 -0.0310498156152124 4.9381245558540545 Ba
atom 5.0133055721210704 0.0509543455156190 4.9381245558540545 Ba
atom -0.0054340699454541 5.0696939875821609 4.9381245558540545 Ba
atom 5.0838873017132276 5.0274988862521308 4.9381245558540545 Ba
atom 2.5254466004492708 2.5174224137659982 2.3226169694566283 Zr
atom 7.5717462733850196 2.5610308180017647 2.3226169694566283 Zr
atom 2.5530066313184907 7.5797704600682998 2.3226169694566283 Zr
atom 7.5839953023166169 7.5759711156333536 2.3226169694566283 Zr
atom 2.5340042849127835 2.5283637607418261 7.3374700253576179 Zr
atom 7.5631885889215065 2.5500894710259279 7.3374700253576179 Zr
atom 2.5444489468549758 7.5688291130924750 7.3374700253576179 Zr
atom 7.5925529867801318 7.5869124626091757 7.3374700253576179 Zr
atom 2.5883852353878112 2.8752091564094835 -0.1603499252727313 S
atom 7.5088076384464841 2.2032440753582749 -0.1603499252727313 S
atom 2.4900679963799468 7.2219837174248172 -0.1603499252727312 S
atom 7.6469339372551559 7.9337578582768309 -0.1603499252727312 S
atom 2.4238015988798929 2.0710028643655427 4.8651736964293102 S
atom 7.6733912749544064 3.0074503674022171 4.8651736964293102 S
atom 2.6546516328878629 8.0261900094687562 4.8651736964293102 S
atom 7.4823503007472496 7.1295515662328981 4.8651736964293102 S
atom 2.5193220859834731 0.0099522649502033 2.0171613996857198 S
atom 7.5579662579504099 0.0298567948506097 2.7915677418114853 S
atom 2.5392266158838739 5.0485964369171450 2.7915677418114853 S
atom 7.5778707878508245 5.0685009668175498 2.0171613996857198 S
atom 2.5193220859834731 0.0099522649502033 7.8022141029255545 S
atom 7.5579662579504099 0.0298567948506097 6.8921293086052353 S
atom 2.5392266158838739 5.0485964369171450 6.8921293086052353 S
atom 7.5778707878508245 5.0685009668175498 7.8022141029255545 S
atom 0.0099522649502033 2.5193220859834731 2.3674413869750319 S
atom 5.0485964369171539 2.5392266158838805 2.5373884111181102 S
atom 0.0298567948506097 7.5579662579504188 2.5373884111181102 S
atom 5.0685009668175516 7.5778707878508209 2.3674413869750319 S
atom 0.0099522649502033 2.5193220859834731 7.5010947450453429 S
atom 5.0485964369171539 2.5392266158838805 7.1982660885738508 S
atom 0.0298567948506097 7.5579662579504188 7.1982660885738508 S
atom 5.0685009668175516 7.5778707878508209 7.5010947450453429 S
atom -0.0046534515839798 0.0638535542432360 9.8352164596326013 Ba
atom 5.0432976235509237 -0.0439490243428296 9.8352164596326013 Ba
atom 0.0245579814843863 4.9747906177237162 9.8352164596326013 Ba
atom 5.0538952502833743 5.1224022561105835 9.8352164596326013 Ba
atom 0.0027091553259860 -0.0717028672546590 14.7832877269343204 Ba
atom 5.0359350166409662 0.0916073971550656 14.7832877269343204 Ba
atom 0.0171953745744205 5.1103470392216002 14.7832877269343204 Ba
atom 5.0612578571933282 4.9868458346126889 14.7832877269343204 Ba
atom 2.5273784767035865 2.5306177161310868 12.2990716695859135 Zr
atom 7.5698143971307177 2.5478355156366748 12.2990716695859135 Zr
atom 2.5510747550641759 7.5665751577032134 12.2990716695859135 Zr
atom 7.5859271785709375 7.5891664179984284 12.2990716695859135 Zr
atom 2.5299816927135024 2.5290175065039691 17.2581765959283615 Zr
atom 7.5672111811207934 2.5494357252637840 17.2581765959283615 Zr
atom 2.5484715390542552 7.5681753673303218 17.2581765959283615 Zr
atom 7.5885303945808573 7.5875662083713262 17.2581765959283615 Zr
atom 2.6844123156762025 3.0137086075616248 9.8243167557313154 S
atom 7.4127805581580892 2.0647446242061367 9.8243167557313154 S
atom 2.3940409160915519 7.0834842662726762 9.8243167557313154 S
atom 7.7429610175435668 8.0722573094289878 9.8243167557313154 S
atom 2.3473958399170822 2.0514575805568063 14.7804773170145118 S
atom 7.7497970339172104 3.0269956512109548 14.7804773170145118 S
atom 2.7310573918506718 8.0457352932774810 14.7804773170145118 S
atom 7.4059445417844332 7.1100062824241563 14.7804773170145118 S
atom 2.5193220859834731 0.0099522649502033 11.8447279384248603 S
atom 7.5579662579504099 0.0298567948506097 12.7681158205945451 S
atom 2.5392266158838739 5.0485964369171450 12.7681158205945451 S
atom 7.5778707878508245 5.0685009668175498 11.8447279384248603 S
atom 2.5193220859834731 0.0099522649502033 17.7186784561257156 S
atom 7.5579662579504099 0.0298567948506097 16.8019133980179269 S
atom 2.5392266158838739 5.0485964369171450 16.8019133980179269 S
atom 7.5778707878508245 5.0685009668175498 17.7186784561257156 S
atom 0.0099522649502033 2.5193220859834731 12.1064155902018928 S
atom 5.0485964369171539 2.5392266158838805 12.5007786836028991 S
atom 0.0298567948506097 7.5579662579504188 12.5007786836028991 S
atom 5.0685009668175516 7.5778707878508209 12.1064155902018928 S
atom 0.0099522649502033 2.5193220859834731 17.4752019981454367 S
atom 5.0485964369171539 2.5392266158838805 17.0421851751397710 S
atom 0.0298567948506097 7.5579662579504188 17.0421851751397710 S
atom 5.0685009668175516 7.5778707878508209 17.4752019981454367 S
atom -0.0010540218071909 0.0736309272049985 19.7376556385734396 Ba
atom 5.0396981937741350 -0.0537263973045919 19.7376556385734396 Ba
atom 0.0209585517075974 4.9650132447619404 19.7376556385734396 Ba
atom 5.0574946800601577 5.1321796290723585 19.7376556385734396 Ba
atom 0.0010540218071909 -0.0736309272049985 24.6948967462651261 Ba
atom 5.0375901501597520 0.0935354571054049 24.6948967462651261 Ba
atom 0.0188505080932156 5.1122750991719546 24.6948967462651261 Ba
atom 5.0596027236745424 4.9849177746623470 24.6948967462651261 Ba
atom 2.5292743509336746 2.5292743509336777 22.2162761924192793 Zr
atom 7.5679185229006194 2.5491788808340829 22.2162761924192793 Zr
atom 2.5491788808340825 7.5679185229006185 22.2162761924192793 Zr
atom 7.5878230528010109 7.5878230528010295 22.2162761924192793 Zr
atom 2.5285670091538521 2.5295311953633846 27.1743757889102469 Zr
atom 7.5686258646804463 2.5489220364043770 27.1743757889102469 Zr
atom 2.5498862226139094 7.5676616784709214 27.1743757889102469 Zr
atom 7.5871157110212000 7.5880798972307346 27.1743757889102469 Zr
atom 2.7216202085306067 3.0035738693277083 19.7376942286077330 S
atom 7.3755726653036753 2.0748793624400546 19.7376942286077330 S
atom 2.3568330232371451 7.0936190045065803 19.7376942286077330 S
atom 7.7801689103979710 8.0621225711950490 19.7376942286077330 S
atom 2.3369284933367371 2.0549748325396462 24.6948581562308185 S
atom 7.7602643804975546 3.0234783992281096 24.6948581562308185 S
atom 2.7415247384310191 8.0422180412946407 24.6948581562308185 S
atom 7.3954771952040792 7.1135235344069887 24.6948581562308185 S
atom 2.5193220859834731 0.0099522649502033 21.7587881621184636 S
atom 7.5579662579504099 0.0298567948506097 22.6737642227200880 S
atom 2.5392266158838739 5.0485964369171450 22.6737642227200880 S
atom 7.5778707878508245 5.0685009668175498 21.7587881621184636 S
atom 2.5193220859834731 0.0099522649502033 27.6306389868206246 S
atom 7.5579662579504099 0.0298567948506097 26.7138739287128644 S
atom 2.5392266158838739 5.0485964369171450 26.7138739287128644 S
atom 7.5778707878508245 5.0685009668175498 27.6306389868206246 S
atom 0.0099522649502033 2.5193220859834731 21.9944351166739445 S
atom 5.0485964369171539 2.5392266158838805 22.4381172681645822 S
atom 0.0298567948506097 7.5579662579504188 22.4381172681645822 S
atom 5.0685009668175516 7.5778707878508209 21.9944351166739445 S
atom 0.0099522649502033 2.5193220859834731 27.3903672096987876 S
atom 5.0485964369171539 2.5392266158838805 26.9573503866931041 S
atom 0.0298567948506097 7.5579662579504188 26.9573503866931041 S
atom 5.0685009668175516 7.5778707878508209 27.3903672096987876 S
atom -0.0027091553259860 0.0717028672546590 29.6492646579042471 Ba
atom 5.0413533272929154 -0.0517983373542526 29.6492646579042471 Ba
atom 0.0226136852263925 4.9669413047122895 29.6492646579042471 Ba
atom 5.0558395465413604 5.1302515691220139 29.6492646579042471 Ba
atom 0.0046534515839798 -0.0638535542432360 34.5973359252058970 Ba
atom 5.0339907203829766 0.0837580841436427 34.5973359252058970 Ba
atom 0.0152510783164267 5.1024977262101814 34.5973359252058970 Ba
atom 5.0632021534513294 4.9946951476241157 34.5973359252058970 Ba
atom 2.5311702251637644 2.5279309857362691 32.1334807152526309 Zr
atom 7.5660226486705264 2.5505222460314916 32.1334807152526309 Zr
atom 2.5472830066039855 7.5692618880980298 32.1334807152526309 Zr
atom 7.5897189270311252 7.5864796876036200 32.1334807152526309 Zr
atom 2.5245444169545652 2.5301849411255271 37.0950823594809833 Zr
atom 7.5726484568797279 2.5482682906422358 37.0950823594809833 Zr
atom 2.5539088148131888 7.5670079327087709 37.0950823594809833 Zr
atom 7.5830931188219122 7.5887336429928842 37.0950823594809833 Zr
atom 2.7111528619502607 3.0070911213105482 29.6520750678240752 S
atom 7.3860400118840230 2.0713621104572120 29.6520750678240752 S
atom 2.3673003698174915 7.0901017525237515 29.6520750678240752 S
atom 7.7697015638176152 8.0656398231778894 29.6520750678240752 S
atom 2.3741363861911475 2.0448400943057248 34.6082356291072486 S
atom 7.7230564876431567 3.0336131374620336 34.6082356291072486 S
atom 2.7043168455766144 8.0523527795285972 34.6082356291072486 S
atom 7.4326850880584994 7.1033887961730828 34.6082356291072486 S
atom 2.5193220859834731 0.0099522649502033 31.6644365642439993 S
atom 7.5579662579504099 0.0298567948506097 32.5878244464137339 S
atom 2.5392266158838739 5.0485964369171450 32.5878244464137339 S
atom 7.5778707878508245 5.0685009668175498 31.6644365642439993 S
atom 2.5193220859834731 0.0099522649502033 37.5404230762332674 S
atom 7.5579662579504099 0.0298567948506097 36.6303382819129837 S
atom 2.5392266158838739 5.0485964369171450 36.6303382819129837 S
atom 7.5778707878508245 5.0685009668175498 37.5404230762332674 S
atom 0.0099522649502033 2.5193220859834731 31.9317737012356488 S
atom 5.0485964369171539 2.5392266158838805 32.3261367946366391 S
atom 0.0298567948506097 7.5579662579504188 32.3261367946366391 S
atom 5.0685009668175516 7.5778707878508209 31.9317737012356488 S
atom 0.0099522649502033 2.5193220859834731 37.2342862962646706 S
atom 5.0485964369171539 2.5392266158838805 36.9314576397932015 S
atom 0.0298567948506097 7.5579662579504188 36.9314576397932015 S
atom 5.0685009668175516 7.5778707878508209 37.2342862962646706 S
atom -0.0253385998458606 0.0310498156152125 39.4944278289845130 Ba
atom 5.0639827718128085 -0.0111452857148060 39.4944278289845130 Ba
atom 0.0452431297462670 5.0075943563517287 39.4944278289845130 Ba
atom 5.0332101020214912 5.0895985174825720 39.4944278289845130 Ba
atom 0.1483464701209261 0.0118268550502810 44.1592007395306823 Ba
atom 4.8902977018460199 0.0080776748501255 44.1592007395306823 Ba
atom -0.1284419402205198 5.0268173169166612 44.1592007395306823 Ba
atom 5.2068951719882808 5.0703755569176270 44.1592007395306823 Ba
atom 2.5331021014180846 2.5411262881013577 42.1099354153819405 Zr
atom 7.5640907724162076 2.5373269436664017 42.1099354153819405 Zr
atom 2.5453511303496730 7.5560665857329363 42.1099354153819405 Zr
atom 7.5916508032854351 7.5996749899687082 42.1099354153819405 Zr
atom 2.6347471029874576 2.9875458375018069 39.5673786884091783 S
atom 7.4624457708468386 2.0909073942659528 39.5673786884091783 S
atom 2.4437061287803008 7.1096470363324888 39.5673786884091783 S
atom 7.6932958048548157 8.0460945393691539 39.5673786884091783 S
atom 2.4701634664795402 2.1833395454578683 44.5929023101112776 S
atom 7.6270294073547547 2.8951136863098919 44.5929023101112776 S
atom 2.6082897652882218 7.9138533283764261 44.5929023101112776 S
atom 7.5287121683468889 7.2418882473252220 44.5929023101112776 S
atom 2.5193220859834731 0.0099522649502033 41.6409846430270534 S
atom 7.5579662579504099 0.0298567948506097 42.4153909851528326 S
atom 2.5392266158838739 5.0485964369171450 42.4153909851528326 S
atom 7.5778707878508245 5.0685009668175498 41.6409846430270534 S
atom 0.0099522649502033 2.5193220859834731 41.8951639737204076 S
atom 5.0485964369171539 2.5392266158838805 42.0651109978634992 S
atom 0.0298567948506097 7.5579662579504188 42.0651109978634992 S
atom 5.0685009668175516 7.5778707878508209 41.8951639737204076 S
atom 2.5411012059839551 2.6776208210546026 47.6680741891356448 Ba
atom 7.5560916678503336 2.4008324107131593 47.6680741891356448 Ba
atom 2.5373520257838038 7.4195720527796922 47.6680741891356448 Ba
atom 7.5996499078513073 7.7361695229219603 47.6680741891356448 Ba
atom 2.5603241665488845 2.5039357510878135 52.3328470996818496 Ba
atom 7.5368687072854028 2.5745174806799471 52.3328470996818496 Ba
atom 2.5181290652188699 7.5932571227464916 52.3328470996818496 Ba
atom 7.6188728684162434 7.5624844529551600 52.3328470996818496 Ba
atom 5.0704006390350278 5.0623764523517663 49.7173395132844362 Zr
atom 10.0853409366666327 5.0746254812833449 49.7173395132844362 Zr
atom 5.0666012946000789 10.0933651233498676 49.7173395132844362 Zr
atom 10.1289493409023716 10.1209251542191190 49.7173395132844362 Zr
atom 5.0594592920592065 5.0538187678882451 54.7321925691854005 Zr
atom 10.0962822836424433 5.0831831657468607 54.7321925691854005 Zr
atom 5.0775426415758949 10.1019228078133967 54.7321925691854005 Zr
atom 10.1180079939265415 10.1123674697556041 54.7321925691854005 Zr
atom 4.7126138963915345 4.9994378174132130 47.2343726185550778 S
atom 10.4431276793101073 5.1375641162218999 47.2343726185550778 S
atom 5.4243880372435509 10.1563037582884235 47.2343726185550778 S
atom 9.7711625982588917 10.0579865192805631 47.2343726185550778 S
atom 5.5168201884354815 5.1640214539211433 52.2598962402571132 S
atom 9.6389213872661337 4.9729804797139741 52.2598962402571132 S
atom 4.6201817451996323 9.9917201217805136 52.2598962402571132 S
atom 10.5753688903028333 10.2225701557884943 52.2598962402571132 S
atom 5.0485964369171539 2.5392266158838805 49.9321109549458981 S
atom 10.0872406088840663 2.5591311457842871 49.7621639308027923 S
atom 5.0685009668175516 7.5778707878508209 49.7621639308027923 S
atom 10.1071451387844924 7.5977753177512355 49.9321109549458981 S
atom 5.0485964369171539 2.5392266158838805 54.5929886324015712 S
atom 10.0872406088840663 2.5591311457842871 54.8958172888731681 S
atom 5.0685009668175516 7.5778707878508209 54.8958172888731681 S
atom 10.1071451387844924 7.5977753177512355 54.5929886324015712 S
atom 2.5392266158838739 5.0485964369171450 50.1862902856392665 S
atom 7.5778707878508245 5.0685009668175498 49.4118839435134589 S
atom 2.5591311457842845 10.0872406088840929 49.4118839435134589 S
atom 7.5977753177512355 10.1071451387845013 50.1862902856392665 S
atom 2.5392266158838739 5.0485964369171450 54.2868518524330810 S
atom 7.5778707878508245 5.0685009668175498 55.1969366467533149 S
atom 2.5591311457842845 10.0872406088840929 55.1969366467533149 S
atom 7.5977753177512355 10.1071451387845013 54.2868518524330810 S
atom 2.4654207966904336 2.5339278025176561 57.2299390034603590 Ba
atom 7.6317720771438537 2.5445254292501014 57.2299390034603590 Ba
atom 2.6130324350773133 7.5632650713166409 57.2299390034603590 Ba
atom 7.5239694985578014 7.5924765043850133 57.2299390034603590 Ba
atom 2.6009772181883299 2.5265651956076898 62.1780102707621367 Ba
atom 7.4962156556459520 2.5518880361600655 62.1780102707621367 Ba
atom 2.4774760135794240 7.5706276782266002 62.1780102707621367 Ba
atom 7.6595259200556844 7.5851138974750514 62.1780102707621367 Ba
atom 5.0572053366699423 5.0604445760974448 59.6937942134136605 Zr
atom 10.0985362390317022 5.0765573575376672 59.6937942134136605 Zr
atom 5.0797965969651635 10.0952969996041997 59.6937942134136605 Zr
atom 10.1157540385372897 10.1189932779648082 59.6937942134136605 Zr
atom 5.0588055462970543 5.0578413600875223 64.6528991397561157 Zr
atom 10.0969360294045849 5.0791605735475880 64.6528991397561157 Zr
atom 5.0781963873380525 10.0979002156141089 64.6528991397561157 Zr
atom 10.1173542481644123 10.1163900619548919 64.6528991397561157 Zr
atom 4.5741144452393963 4.9034107371248217 57.2190392995591068 S
atom 10.5816271304622678 5.2335911965102921 57.2190392995591068 S
atom 5.5628874883957051 10.2523308385768335 57.2190392995591068 S
atom 9.6326631471067454 9.9619594389921726 57.2190392995591068 S
atom 5.5363654722442188 5.2404272128839455 62.1751998608423051 S
atom 9.6193761034574194 4.8965747207511612 62.1751998608423051 S
atom 4.6006364613908968 9.9153143628177176 62.1751998608423051 S
atom 10.5949141741115689 10.2989759147512761 62.1751998608423051 S
atom 5.0485964369171539 2.5392266158838805 59.8955012274306284 S
atom 10.0872406088840663 2.5591311457842871 59.5011381340296808 S
atom 5.0685009668175516 7.5778707878508209 59.5011381340296808 S
atom 10.1071451387844924 7.5977753177512355 59.8955012274306284 S
atom 5.0485964369171539 2.5392266158838805 64.4369077189676318 S
atom 10.0872406088840663 2.5591311457842871 64.8699245419731767 S
atom 5.0685009668175516 7.5778707878508209 64.8699245419731767 S
atom 10.1071451387844924 7.5977753177512355 64.4369077189676318 S
atom 2.5392266158838739 5.0485964369171450 60.1628383644223206 S
atom 7.5778707878508245 5.0685009668175498 59.2394504822525789 S
atom 2.5591311457842845 10.0872406088840929 59.2394504822525789 S
atom 7.5977753177512355 10.1071451387845013 60.1628383644223206 S
atom 2.5392266158838739 5.0485964369171450 64.1966359418457984 S
atom 7.5778707878508245 5.0685009668175498 65.1134009999534982 S
atom 2.5591311457842845 10.0872406088840929 65.1134009999534982 S
atom 7.5977753177512355 10.1071451387845013 64.1966359418457984 S
atom 2.4556434237286822 2.5303283727408648 67.1323781824011263 Ba
atom 7.6415494501056287 2.5481248590268906 67.1323781824011263 Ba
atom 2.6228098080390780 7.5668645010934252 67.1323781824011263 Ba
atom 7.5141921255960211 7.5888770746082228 67.1323781824011263 Ba
atom 2.6029052781386683 2.5282203291264875 72.0896192900928270 Ba
atom 7.4942875956956154 2.5502329026412718 72.0896192900928270 Ba
atom 2.4755479536290830 7.5689725447078073 72.0896192900928270 Ba
atom 7.6614539800060282 7.5867690309938336 72.0896192900928270 Ba
atom 5.0585487018673492 5.0585487018673554 69.6109987362470264 Zr
atom 10.0971928738343077 5.0784532317677611 69.6109987362470264 Zr
atom 5.0784532317677478 10.0971928738342900 69.6109987362470264 Zr
atom 10.1170974037346983 10.1170974037347108 69.6109987362470264 Zr
atom 5.0582918574376485 5.0592560436471770 74.5690983327379513 Zr
atom 10.0974497182640093 5.0777458899879315 74.5690983327379513 Zr
atom 5.0787100761974591 10.0964855320544800 74.5690983327379513 Zr
atom 10.1168405593049737 10.1178047455145155 74.5690983327379513 Zr
atom 4.5842491834733066 4.8662028442704104 67.1324167724356045 S
atom 10.5714923922283237 5.2707990893646954 67.1324167724356045 S
atom 5.5527527501617939 10.2895387314312234 67.1324167724356045 S
atom 9.6427978853406717 9.9247515461377844 67.1324167724356045 S
atom 5.5328482202613918 5.2508945594642897 72.0895807000586331 S
atom 9.6228933554402740 4.8861073741708161 72.0895807000586331 S
atom 4.6041537133737247 9.9048470162373743 72.0895807000586331 S
atom 10.5913969221287143 10.3094432613316265 72.0895807000586331 S
atom 5.0485964369171539 2.5392266158838805 69.8328398119924145 S
atom 10.0872406088840663 2.5591311457842871 69.3891576605016382 S
atom 5.0685009668175516 7.5778707878508209 69.3891576605016382 S
atom 10.1071451387844924 7.5977753177512355 69.8328398119924145 S
atom 5.0485964369171539 2.5392266158838805 74.3520729305208050 S
atom 10.0872406088840663 2.5591311457842871 74.7850897535265489 S
atom 5.0685009668175516 7.5778707878508209 74.7850897535265489 S
atom 10.1071451387844924 7.5977753177512355 74.3520729305208050 S
atom 2.5392266158838739 5.0485964369171450 70.0684867665478635 S
atom 7.5778707878508245 5.0685009668175498 69.1535107059462177 S
atom 2.5591311457842845 10.0872406088840929 69.1535107059462177 S
atom 7.5977753177512355 10.1071451387845013 70.0684867665478635 S
atom 2.5392266158838739 5.0485964369171450 74.1085964725406825 S
atom 7.5778707878508245 5.0685009668175498 75.0253615306484960 S
atom 2.5591311457842845 10.0872406088840929 75.0253615306484960 S
atom 7.5977753177512355 10.1071451387845013 74.1085964725406825 S
atom 2.4575714836790183 2.5319835062596567 77.0439872017320795 Ba
atom 7.6396213901552770 2.5464697255080933 77.0439872017320795 Ba
atom 2.6208817480887365 7.5652093675746395 77.0439872017320795 Ba
atom 7.5161201855463720 7.5905322081270006 77.0439872017320795 Ba
atom 2.5931279051769138 2.5246208993496948 81.9920584690338359 Ba
atom 7.5040649686573913 2.5538323324180658 81.9920584690338359 Ba
atom 2.4853253265908464 7.5725719744845952 81.9920584690338359 Ba
atom 7.6516766070442559 7.5831696012170564 81.9920584690338359 Ba
atom 5.0598920670647596 5.0566528276372589 79.5282032590803425 Zr
atom 10.0958495086368600 5.0803491059978541 79.5282032590803425 Zr
atom 5.0771098665703578 10.0990887480643856 79.5282032590803425 Zr
atom 10.1184407689321105 10.1152015295046187 79.5282032590803425 Zr
atom 5.0576381116754847 5.0632786358464630 84.4898049033087659 Zr
atom 10.0981034640261456 5.0737232977886535 84.4898049033087659 Zr
atom 5.0793638219596096 10.0924629398551886 84.4898049033087659 Zr
atom 10.1161868135428605 10.1218273377138228 84.4898049033087659 Zr
atom 4.5807319314904715 4.8766701908507519 77.0467976116518685 S
atom 10.5750096442111587 5.2603317427843468 77.0467976116518685 S
atom 5.5562700021446201 10.2790713848508748 77.0467976116518685 S
atom 9.6392806333578225 9.9352188927181313 77.0467976116518685 S
atom 5.5429829584953056 5.2136866666098793 82.0029581729351662 S
atom 9.6127586172063531 4.9233152670252203 82.0029581729351662 S
atom 4.5940189751398073 9.9420549090917696 82.0029581729351662 S
atom 10.6015316603626619 10.2722353684772472 82.0029581729351662 S
atom 5.0485964369171539 2.5392266158838805 79.7208593384643791 S
atom 10.0872406088840663 2.5591311457842871 79.3264962450634528 S
atom 5.0685009668175516 7.5778707878508209 79.3264962450634528 S
atom 10.1071451387844924 7.5977753177512355 79.7208593384643791 S
atom 5.0485964369171539 2.5392266158838805 84.3261801836210338 S
atom 10.0872406088840663 2.5591311457842871 84.6290088400924390 S
atom 5.0685009668175516 7.5778707878508209 84.6290088400924390 S
atom 10.1071451387844924 7.5977753177512355 84.3261801836210338 S
atom 2.5392266158838739 5.0485964369171450 79.9825469902414596 S
atom 7.5778707878508245 5.0685009668175498 79.0591591080717819 S
atom 2.5591311457842845 10.0872406088840929 79.0591591080717819 S
atom 7.5977753177512355 10.1071451387845013 79.9825469902414596 S
atom 2.5392266158838739 5.0485964369171450 84.0250608257407521 S
atom 7.5778707878508245 5.0685009668175498 84.9351456200610073 S
atom 2.5591311457842845 10.0872406088840929 84.9351456200610073 S
atom 7.5977753177512355 10.1071451387845013 84.0250608257407521 S
atom 2.4982245353184642 2.5546129507795383 86.8891503728121535 Ba
atom 7.5989683385158422 2.5238402809882192 86.8891503728121535 Ba
atom 2.5802286964492924 7.5425799230547508 86.8891503728121535 Ba
atom 7.5567732371858005 7.6131616526468990 86.8891503728121535 Ba
atom 2.5174474958833999 2.3809278808127510 91.5539232833583867 Ba
atom 7.5797453779508972 2.6975253509550048 91.5539232833583867 Ba
atom 2.5610057358843545 7.7162649930215457 91.5539232833583867 Ba
atom 7.5759961977507491 7.4394765826800962 91.5539232833583867 Ba
atom 5.0466967646996617 5.0547209513829383 89.5046579592097231 Zr
atom 10.1090448110019633 5.0822809822521728 89.5046579592097231 Zr
atom 5.0903051689354308 10.1010206243187000 89.5046579592097231 Zr
atom 10.1052454665670375 10.1132696532502955 89.5046579592097231 Zr
atom 4.6002772152992151 4.9530759498135639 86.9621012322370319 S
atom 10.5554643604024445 5.1839259838215437 86.9621012322370319 S
atom 5.5367247183358854 10.2026656258880859 86.9621012322370319 S
atom 9.6588259171665563 10.0116246516809166 86.9621012322370319 S
atom 5.4044835073431576 5.1176595863214835 91.9876248539391526 S
atom 9.7512580683584869 5.0193423473136232 91.9876248539391526 S
atom 4.7325184262919437 10.0380819893801743 91.9876248539391526 S
atom 10.4630322092104961 10.1762082881888389 91.9876248539391526 S
atom 5.0485964369171539 2.5392266158838805 89.4598335416914097 S
atom 10.0872406088840663 2.5591311457842871 89.2898865175482399 S
atom 5.0685009668175516 7.5778707878508209 89.2898865175482399 S
atom 10.1071451387844924 7.5977753177512355 89.4598335416914097 S
atom 2.5392266158838739 5.0485964369171450 89.8101135289807218 S
atom 7.5778707878508245 5.0685009668175498 89.0357071868549781 S
atom 2.5591311457842845 10.0872406088840929 89.0357071868549781 S
atom 7.5977753177512355 10.1071451387845013 89.8101135289807218 S
