#=======================================================
# FHI-aims file: sym_relax/sym_relax_RP_7_00Mz_000.in
# Created using the Atomic Simulation Environment (ASE)
# Mon Mar 17 15:40:17 2025
#=======================================================
lattice_vector 10.0077698707090992 -0.0000000000000004 0.0000000000000000 
lattice_vector -0.0000000000000004 10.0077698707090992 0.0000000000000000 
lattice_vector 0.0000000000000000 0.0000000000000000 76.3833881299544828 
atom 0.0000000000000000 0.0000000000000000 0.1645618387231710 Ba
atom 5.0038849353545460 0.0000000000000000 0.1645618387231710 Ba
atom -0.0000000000000000 5.0038849353545460 0.1645618387231711 Ba
atom 5.0038849353545460 5.0038849353545460 0.1645618387231710 Ba
atom -0.0000000000000000 0.0000000000000000 4.9244001061540423 Ba
atom 5.0038849353545460 0.0000000000000000 4.9244001061540423 Ba
atom -0.0000000000000000 5.0038849353545460 4.9244001061540423 Ba
atom 5.0038849353545460 5.0038849353545460 4.9244001061540423 Ba
atom 2.5019424676772730 2.5019424676772730 2.2994943148891536 Zr
atom 7.5058274030318186 2.5019424676772730 2.2994943148891536 Zr
atom 2.5019424676772730 7.5058274030318186 2.2994943148891536 Zr
atom 7.5058274030318186 7.5058274030318186 2.2994943148891536 Zr
atom 2.5019424676772730 2.5019424676772730 7.4128330817722556 Zr
atom 7.5058274030318186 2.5019424676772730 7.4128330817722556 Zr
atom 2.5019424676772730 7.5058274030318186 7.4128330817722556 Zr
atom 7.5058274030318186 7.5058274030318186 7.4128330817722556 Zr
atom 2.5019424676772730 2.5019424676772730 -0.2104590506094823 S
atom 7.5058274030318186 2.5019424676772730 -0.2104590506094823 S
atom 2.5019424676772730 7.5058274030318186 -0.2104590506094823 S
atom 7.5058274030318186 7.5058274030318186 -0.2104590506094823 S
atom 2.5019424676772730 2.5019424676772730 4.9004534353445255 S
atom 7.5058274030318186 2.5019424676772730 4.9004534353445255 S
atom 2.5019424676772730 7.5058274030318186 4.9004534353445255 S
atom 7.5058274030318186 7.5058274030318186 4.9004534353445255 S
atom 2.2266507855663655 0.0000000000000005 2.4237900969870685 S
atom 7.7811190851427297 -0.0000000000000000 2.4237900969870685 S
atom 2.7772341497881778 5.0038849353545460 2.4237900969870685 S
atom 7.2305357209209076 5.0038849353545460 2.4237900969870685 S
atom 2.9943270487715470 0.0000000000000005 7.4334656112975592 S
atom 7.0134428219375522 -0.0000000000000000 7.4334656112975592 S
atom 2.0095578865830013 5.0038849353545460 7.4334656112975592 S
atom 7.9982119841260948 5.0038849353545460 7.4334656112975592 S
atom -0.0000000000000000 2.7772341497881774 2.4237900969870685 S
atom 5.0038849353545460 2.2266507855663655 2.4237900969870685 S
atom 0.0000000000000000 7.2305357209209076 2.4237900969870685 S
atom 5.0038849353545460 7.7811190851427297 2.4237900969870685 S
atom -0.0000000000000000 2.0095578865830022 7.4334656112975592 S
atom 5.0038849353545460 2.9943270487715470 7.4334656112975592 S
atom 0.0000000000000000 7.9982119841260930 7.4334656112975592 S
atom 5.0038849353545460 7.0134428219375540 7.4334656112975592 S
atom 0.0000000000000000 0.0000000000000000 9.9829479350247752 Ba
atom 5.0038849353545460 0.0000000000000000 9.9829479350247752 Ba
atom -0.0000000000000000 5.0038849353545460 9.9829479350247752 Ba
atom 5.0038849353545460 5.0038849353545460 9.9829479350247752 Ba
atom -0.0000000000000000 0.0000000000000000 15.0519857808279429 Ba
atom 5.0038849353545460 0.0000000000000000 15.0519857808279429 Ba
atom -0.0000000000000000 5.0038849353545460 15.0519857808279429 Ba
atom 5.0038849353545460 5.0038849353545460 15.0519857808279429 Ba
atom 2.5019424676772730 2.5019424676772730 12.5017335145116526 Zr
atom 7.5058274030318186 2.5019424676772730 12.5017335145116526 Zr
atom 2.5019424676772730 7.5058274030318186 12.5017335145116526 Zr
atom 7.5058274030318186 7.5058274030318186 12.5017335145116526 Zr
atom 2.5019424676772730 2.5019424676772730 17.5882801615026523 Zr
atom 7.5058274030318186 2.5019424676772730 17.5882801615026523 Zr
atom 2.5019424676772730 7.5058274030318186 17.5882801615026523 Zr
atom 7.5058274030318186 7.5058274030318186 17.5882801615026523 Zr
atom 2.5019424676772730 2.5019424676772730 9.9707205373019665 S
atom 7.5058274030318186 2.5019424676772730 9.9707205373019665 S
atom 2.5019424676772730 7.5058274030318186 9.9707205373019665 S
atom 7.5058274030318186 7.5058274030318186 9.9707205373019665 S
atom 2.5019424676772730 2.5019424676772730 15.0492713831124476 S
atom 7.5058274030318186 2.5019424676772730 15.0492713831124476 S
atom 2.5019424676772730 7.5058274030318186 15.0492713831124476 S
atom 7.5058274030318186 7.5058274030318186 15.0492713831124476 S
atom 2.9652474556449895 0.0000000000000005 12.5174196338826142 S
atom 7.0425224150641093 -0.0000000000000000 12.5174196338826107 S
atom 2.0386374797095574 5.0038849353545460 12.5174196338826107 S
atom 7.9691323909995297 5.0038849353545460 12.5174196338826142 S
atom 2.9685224361761273 0.0000000000000005 17.5882801615026523 S
atom 7.0392474345329559 -0.0000000000000000 17.5882801615026523 S
atom 2.0353624991784183 5.0038849353545460 17.5882801615026523 S
atom 7.9724073715306707 5.0038849353545460 17.5882801615026523 S
atom -0.0000000000000000 2.0386374797095601 12.5174196338826107 S
atom 5.0038849353545460 2.9652474556449899 12.5174196338826142 S
atom 0.0000000000000000 7.9691323909995280 12.5174196338826142 S
atom 5.0038849353545460 7.0425224150641110 12.5174196338826107 S
atom -0.0000000000000000 2.0353624991784192 17.5882801615026523 S
atom 5.0038849353545460 2.9685224361761269 17.5882801615026523 S
atom 0.0000000000000000 7.9724073715306689 17.5882801615026523 S
atom 5.0038849353545460 7.0392474345329576 17.5882801615026523 S
atom 0.0000000000000000 0.0000000000000000 20.1245745421773634 Ba
atom 5.0038849353545460 0.0000000000000000 20.1245745421773634 Ba
atom -0.0000000000000000 5.0038849353545460 20.1245745421773634 Ba
atom 5.0038849353545460 5.0038849353545460 20.1245745421773634 Ba
atom 0.0000000000000000 0.0000000000000000 25.1936123879805365 Ba
atom 5.0038849353545460 0.0000000000000000 25.1936123879805365 Ba
atom -0.0000000000000000 5.0038849353545460 25.1936123879805365 Ba
atom 5.0038849353545460 5.0038849353545460 25.1936123879805365 Ba
atom 2.5019424676772730 2.5019424676772730 22.6748268084936733 Zr
atom 7.5058274030318186 2.5019424676772730 22.6748268084936733 Zr
atom 2.5019424676772730 7.5058274030318186 22.6748268084936733 Zr
atom 7.5058274030318186 7.5058274030318186 22.6748268084936733 Zr
atom 2.5019424676772730 2.5019424676772730 27.7637272412330951 Zr
atom 7.5058274030318186 2.5019424676772730 27.7637272412330951 Zr
atom 2.5019424676772730 7.5058274030318186 27.7637272412330951 Zr
atom 7.5058274030318186 7.5058274030318186 27.7637272412330951 Zr
atom 2.5019424676772730 2.5019424676772730 20.1272889398928712 S
atom 7.5058274030318186 2.5019424676772730 20.1272889398928712 S
atom 2.5019424676772730 7.5058274030318186 20.1272889398928712 S
atom 7.5058274030318186 7.5058274030318186 20.1272889398928712 S
atom 2.5019424676772730 2.5019424676772730 25.2058397857033540 S
atom 7.5058274030318186 2.5019424676772730 25.2058397857033540 S
atom 2.5019424676772730 7.5058274030318186 25.2058397857033540 S
atom 7.5058274030318186 7.5058274030318186 25.2058397857033540 S
atom 2.9652474556449895 0.0000000000000005 22.6591406891227081 S
atom 7.0425224150641093 -0.0000000000000000 22.6591406891227081 S
atom 2.0386374797095574 5.0038849353545460 22.6591406891227081 S
atom 7.9691323909995297 5.0038849353545460 22.6591406891227081 S
atom 2.9943270487715470 0.0000000000000005 27.7430947117077835 S
atom 7.0134428219375522 -0.0000000000000000 27.7430947117077835 S
atom 2.0095578865830013 5.0038849353545460 27.7430947117077835 S
atom 7.9982119841260948 5.0038849353545460 27.7430947117077835 S
atom -0.0000000000000000 2.0386374797095601 22.6591406891227081 S
atom 5.0038849353545460 2.9652474556449899 22.6591406891227081 S
atom 0.0000000000000000 7.9691323909995280 22.6591406891227081 S
atom 5.0038849353545460 7.0425224150641110 22.6591406891227081 S
atom -0.0000000000000000 2.0095578865830013 27.7430947117077835 S
atom 5.0038849353545460 2.9943270487715470 27.7430947117077835 S
atom 0.0000000000000000 7.9982119841260930 27.7430947117077835 S
atom 5.0038849353545460 7.0134428219375522 27.7430947117077835 S
atom 0.0000000000000000 0.0000000000000000 30.2521602168512374 Ba
atom 5.0038849353545460 0.0000000000000000 30.2521602168512374 Ba
atom -0.0000000000000000 5.0038849353545460 30.2521602168512374 Ba
atom 5.0038849353545460 5.0038849353545460 30.2521602168512374 Ba
atom 0.0000000000000000 0.0000000000000000 35.0119984842821523 Ba
atom 5.0038849353545460 0.0000000000000000 35.0119984842821523 Ba
atom -0.0000000000000000 5.0038849353545460 35.0119984842821523 Ba
atom 5.0038849353545460 5.0038849353545460 35.0119984842821523 Ba
atom 2.5019424676772730 2.5019424676772730 32.8770660081161310 Zr
atom 7.5058274030318186 2.5019424676772730 32.8770660081161310 Zr
atom 2.5019424676772730 7.5058274030318186 32.8770660081161310 Zr
atom 7.5058274030318186 7.5058274030318186 32.8770660081161310 Zr
atom 2.5019424676772730 2.5019424676772730 30.2761068876607879 S
atom 7.5058274030318186 2.5019424676772730 30.2761068876607879 S
atom 2.5019424676772730 7.5058274030318186 30.2761068876607879 S
atom 7.5058274030318186 7.5058274030318186 30.2761068876607879 S
atom 2.5019424676772730 2.5019424676772730 35.3870193736148266 S
atom 7.5058274030318186 2.5019424676772730 35.3870193736148266 S
atom 2.5019424676772730 7.5058274030318186 35.3870193736148266 S
atom 7.5058274030318186 7.5058274030318186 35.3870193736148266 S
atom 2.2266507855663655 0.0000000000000005 32.7527702260182068 S
atom 7.7811190851427297 -0.0000000000000000 32.7527702260182068 S
atom 2.7772341497881778 5.0038849353545460 32.7527702260182068 S
atom 7.2305357209209076 5.0038849353545460 32.7527702260182068 S
atom -0.0000000000000000 2.7772341497881774 32.7527702260182068 S
atom 5.0038849353545460 2.2266507855663655 32.7527702260182068 S
atom 0.0000000000000000 7.2305357209209076 32.7527702260182068 S
atom 5.0038849353545460 7.7811190851427297 32.7527702260182068 S
atom 2.5019424676772730 2.5019424676772730 38.5183224460716787 Ba
atom 7.5058274030318186 2.5019424676772730 38.5183224460716787 Ba
atom 2.5019424676772730 7.5058274030318186 38.5183224460716787 Ba
atom 7.5058274030318186 7.5058274030318186 38.5183224460716787 Ba
atom 2.5019424676772730 2.5019424676772730 43.3258399112351711 Ba
atom 7.5058274030318186 2.5019424676772730 43.3258399112351711 Ba
atom 2.5019424676772730 7.5058274030318186 43.3258399112351711 Ba
atom 7.5058274030318186 7.5058274030318186 43.3258399112351711 Ba
atom 5.0038849353545460 5.0038849353545460 40.5859070958534645 Zr
atom 10.0077698707090921 5.0038849353545460 40.5859070958534645 Zr
atom 5.0038849353545460 10.0077698707090921 40.5859070958534645 Zr
atom 10.0077698707090921 10.0077698707090921 40.5859070958534645 Zr
atom 5.0038849353545460 5.0038849353545460 45.6746827887863915 Zr
atom 10.0077698707090921 5.0038849353545460 45.6746827887863915 Zr
atom 5.0038849353545460 10.0077698707090921 45.6746827887863915 Zr
atom 10.0077698707090921 10.0077698707090921 45.6746827887863915 Zr
atom 5.0038849353545460 5.0038849353545460 38.0810895565395739 S
atom 10.0077698707090921 5.0038849353545460 38.0810895565395739 S
atom 5.0038849353545460 10.0077698707090921 38.0810895565395739 S
atom 10.0077698707090921 10.0077698707090921 38.0810895565395739 S
atom 5.0038849353545460 5.0038849353545460 43.1713816300483089 S
atom 10.0077698707090921 5.0038849353545460 43.1713816300483089 S
atom 5.0038849353545460 10.0077698707090921 43.1713816300483089 S
atom 10.0077698707090921 10.0077698707090921 43.1713816300483089 S
atom 5.0038849353545460 2.5019467473971271 40.6970111438951179 S
atom 10.0077698707090921 2.5019381879574190 40.6970111438951321 S
atom 5.0038849353545460 7.5058231233119637 40.6970111438951321 S
atom 10.0077698707090921 7.5058316827516691 40.6970111438951179 S
atom 5.0038849353545460 2.5019422442893755 45.7020154741233000 S
atom 10.0077698707090921 2.5019426910651736 45.7020154741233000 S
atom 5.0038849353545460 7.5058276264197197 45.7020154741233000 S
atom 10.0077698707090921 7.5058271796439211 45.7020154741233000 S
atom 2.5019381879574190 5.0038849353545460 40.6970111438951321 S
atom 7.5058316827516682 5.0038849353545460 40.6970111438951321 S
atom 2.5019467473971280 10.0077698707090921 40.6970111438951321 S
atom 7.5058231233119610 10.0077698707090921 40.6970111438951321 S
atom 2.5019426910651728 5.0038849353545460 45.7020154741233000 S
atom 7.5058271796439193 5.0038849353545460 45.7020154741233000 S
atom 2.5019422442893773 10.0077698707090921 45.7020154741233000 S
atom 7.5058276264197179 10.0077698707090921 45.7020154741233000 S
atom 2.5019424676772730 2.5019424676772730 48.2783075395946213 Ba
atom 7.5058274030318186 2.5019424676772730 48.2783075395946213 Ba
atom 2.5019424676772730 7.5058274030318186 48.2783075395946213 Ba
atom 7.5058274030318186 7.5058274030318186 48.2783075395946213 Ba
atom 2.5019424676772730 2.5019424676772730 53.2769964245284058 Ba
atom 7.5058274030318186 2.5019424676772730 53.2769964245284058 Ba
atom 2.5019424676772730 7.5058274030318186 53.2769964245284058 Ba
atom 7.5058274030318186 7.5058274030318186 53.2769964245284058 Ba
atom 5.0038849353545460 5.0038849353545460 50.7294984913245486 Zr
atom 10.0077698707090921 5.0038849353545460 50.7294984913245486 Zr
atom 5.0038849353545460 10.0077698707090921 50.7294984913245486 Zr
atom 10.0077698707090921 10.0077698707090921 50.7294984913245486 Zr
atom 5.0038849353545460 5.0038849353545460 55.7799742264798653 Zr
atom 10.0077698707090921 5.0038849353545460 55.7799742264798653 Zr
atom 5.0038849353545460 10.0077698707090921 55.7799742264798653 Zr
atom 10.0077698707090921 10.0077698707090921 55.7799742264798653 Zr
atom 5.0038849353545460 5.0038849353545460 48.2149065294440078 S
atom 10.0077698707090921 5.0038849353545460 48.2149065294440078 S
atom 5.0038849353545460 10.0077698707090921 48.2149065294440078 S
atom 10.0077698707090921 10.0077698707090921 48.2149065294440078 S
atom 5.0038849353545460 5.0038849353545460 53.2581700786545156 S
atom 10.0077698707090921 5.0038849353545460 53.2581700786545156 S
atom 5.0038849353545460 10.0077698707090921 53.2581700786545156 S
atom 10.0077698707090921 10.0077698707090921 53.2581700786545156 S
atom 5.0038849353545460 2.5019423973776438 50.7409840108176979 S
atom 10.0077698707090921 2.5019425379769027 50.7409840108176979 S
atom 5.0038849353545460 7.5058274733314470 50.7409840108176979 S
atom 10.0077698707090921 7.5058273327321920 50.7409840108176979 S
atom 5.0038849353545460 2.5019424771123964 55.7799742264798653 S
atom 10.0077698707090921 2.5019424582421506 55.7799742264798653 S
atom 5.0038849353545460 7.5058273935966957 55.7799742264798653 S
atom 10.0077698707090921 7.5058274124669442 55.7799742264798653 S
atom 2.5019425379769031 5.0038849353545460 50.7409840108176979 S
atom 7.5058273327321920 5.0038849353545460 50.7409840108176979 S
atom 2.5019423973776425 10.0077698707090921 50.7409840108176979 S
atom 7.5058274733314461 10.0077698707090921 50.7409840108176979 S
atom 2.5019424582421514 5.0038849353545460 55.7799742264798653 S
atom 7.5058274124669433 5.0038849353545460 55.7799742264798653 S
atom 2.5019424771123968 10.0077698707090921 55.7799742264798653 S
atom 7.5058273935966957 10.0077698707090921 55.7799742264798653 S
atom 2.5019424676772730 2.5019424676772730 58.2829520284312821 Ba
atom 7.5058274030318186 2.5019424676772730 58.2829520284312821 Ba
atom 2.5019424676772730 7.5058274030318186 58.2829520284312821 Ba
atom 7.5058274030318186 7.5058274030318186 58.2829520284312821 Ba
atom 2.5019424676772730 2.5019424676772730 63.2816409133650382 Ba
atom 7.5058274030318186 2.5019424676772730 63.2816409133650382 Ba
atom 2.5019424676772730 7.5058274030318186 63.2816409133650382 Ba
atom 7.5058274030318186 7.5058274030318186 63.2816409133650382 Ba
atom 5.0038849353545460 5.0038849353545460 60.8304499616351748 Zr
atom 10.0077698707090921 5.0038849353545460 60.8304499616351748 Zr
atom 5.0038849353545460 10.0077698707090921 60.8304499616351748 Zr
atom 10.0077698707090921 10.0077698707090921 60.8304499616351748 Zr
atom 5.0038849353545460 5.0038849353545460 65.8852656641733461 Zr
atom 10.0077698707090921 5.0038849353545460 65.8852656641733461 Zr
atom 5.0038849353545460 10.0077698707090921 65.8852656641733461 Zr
atom 10.0077698707090921 10.0077698707090921 65.8852656641733461 Zr
atom 5.0038849353545460 5.0038849353545460 58.3017783743052505 S
atom 10.0077698707090921 5.0038849353545460 58.3017783743052505 S
atom 5.0038849353545460 10.0077698707090921 58.3017783743052505 S
atom 10.0077698707090921 10.0077698707090921 58.3017783743052505 S
atom 5.0038849353545460 5.0038849353545460 63.3450419235156446 S
atom 10.0077698707090921 5.0038849353545460 63.3450419235156446 S
atom 5.0038849353545460 10.0077698707090921 63.3450419235156446 S
atom 10.0077698707090921 10.0077698707090921 63.3450419235156446 S
atom 5.0038849353545460 2.5019423973776429 60.8189644421420184 S
atom 10.0077698707090921 2.5019425379769022 60.8189644421420184 S
atom 5.0038849353545460 7.5058274733314425 60.8189644421420184 S
atom 10.0077698707090921 7.5058273327321876 60.8189644421420184 S
atom 5.0038849353545460 2.5019422442893751 65.8579329788363736 S
atom 10.0077698707090921 2.5019426910651732 65.8579329788363736 S
atom 5.0038849353545460 7.5058276264197170 65.8579329788363736 S
atom 10.0077698707090921 7.5058271796439184 65.8579329788363736 S
atom 2.5019425379769036 5.0038849353545460 60.8189644421420184 S
atom 7.5058273327321894 5.0038849353545460 60.8189644421420184 S
atom 2.5019423973776429 10.0077698707090921 60.8189644421420184 S
atom 7.5058274733314443 10.0077698707090921 60.8189644421420184 S
atom 2.5019426910651719 5.0038849353545460 65.8579329788363736 S
atom 7.5058271796439193 5.0038849353545460 65.8579329788363736 S
atom 2.5019422442893764 10.0077698707090921 65.8579329788363736 S
atom 7.5058276264197188 10.0077698707090921 65.8579329788363736 S
atom 2.5019424676772730 2.5019424676772730 68.2341085417245665 Ba
atom 7.5058274030318186 2.5019424676772730 68.2341085417245665 Ba
atom 2.5019424676772730 7.5058274030318186 68.2341085417245665 Ba
atom 7.5058274030318186 7.5058274030318186 68.2341085417245665 Ba
atom 2.5019424676772730 2.5019424676772730 73.0416260068880092 Ba
atom 7.5058274030318186 2.5019424676772730 73.0416260068880092 Ba
atom 2.5019424676772730 7.5058274030318186 73.0416260068880092 Ba
atom 7.5058274030318186 7.5058274030318186 73.0416260068880092 Ba
atom 5.0038849353545460 5.0038849353545460 70.9740413571063300 Zr
atom 10.0077698707090921 5.0038849353545460 70.9740413571063300 Zr
atom 5.0038849353545460 10.0077698707090921 70.9740413571063300 Zr
atom 10.0077698707090921 10.0077698707090921 70.9740413571063300 Zr
atom 5.0038849353545460 5.0038849353545460 68.3885668229113861 S
atom 10.0077698707090921 5.0038849353545460 68.3885668229113861 S
atom 5.0038849353545460 10.0077698707090921 68.3885668229113861 S
atom 10.0077698707090921 10.0077698707090921 68.3885668229113861 S
atom 5.0038849353545460 5.0038849353545460 73.4788588964201210 S
atom 10.0077698707090921 5.0038849353545460 73.4788588964201210 S
atom 5.0038849353545460 10.0077698707090921 73.4788588964201210 S
atom 10.0077698707090921 10.0077698707090921 73.4788588964201210 S
atom 5.0038849353545460 2.5019467473971280 70.8629373090645487 S
atom 10.0077698707090921 2.5019381879574198 70.8629373090645487 S
atom 5.0038849353545460 7.5058231233119637 70.8629373090645487 S
atom 10.0077698707090921 7.5058316827516691 70.8629373090645487 S
atom 2.5019381879574190 5.0038849353545460 70.8629373090645487 S
atom 7.5058316827516682 5.0038849353545460 70.8629373090645487 S
atom 2.5019467473971280 10.0077698707090921 70.8629373090645487 S
atom 7.5058231233119619 10.0077698707090921 70.8629373090645487 S
