#=======================================================
# FHI-aims file: sym_relax/sym_relax_RP_3_Rx0Rz_0-RyRz.in
# Created using the Atomic Simulation Environment (ASE)
# Fri Mar 14 10:23:38 2025
#=======================================================
lattice_vector 10.0930032277629493 0.0000881662236993 0.0020785420172101 
lattice_vector 0.0000881662236992 10.0930032277629511 0.0020785420172101 
lattice_vector 0.0052175103169868 0.0052175103169869 35.3596631261371570 
atom -0.1746177025379672 0.0024504639952179 0.2942485013715425 Ba
atom 5.2129925231715495 0.0025345246543399 0.2932357908009919 Ba
atom 0.1665349924019323 5.0489920554239411 0.2932357908009918 Ba
atom 4.8719279944553646 5.0489961609885450 0.2963270433887531 Ba
atom 0.0062878944858276 0.0016877732765538 4.9580980383523752 Ba
atom 4.9975295390834127 0.0016215101677833 4.9360953962929548 Ba
atom -0.0489279916862190 5.0480790409373988 4.9360953962929583 Ba
atom 5.0528335914791542 5.0482334702698601 4.9601765803695779 Ba
atom 2.5172501067357040 2.5024485975403636 2.3500173558953938 Zr
atom 7.5637312222977418 2.5482812715341621 2.3515067629443527 Zr
atom 2.5172736915281262 7.5947388023037723 2.3515067629443536 Zr
atom 7.5637958037290254 7.5489942945336734 2.3520958979126059 Zr
atom 2.5243598298127008 2.5243598298126986 7.3676357556205092 Zr
atom 7.5708614436941746 2.5244039129245435 7.3686750266291181 Zr
atom 2.5244039129245510 7.5708614436941586 7.3686750266291181 Zr
atom 7.5709055268060208 7.5709055268060022 7.3697142976377181 Zr
atom 2.5196234136081763 2.8141234686583885 -0.1299517767657592 S
atom 7.5660244057998591 2.2376467396238664 -0.1285602445263705 S
atom 2.5195668750302267 7.2841042703934722 -0.1285602445263704 S
atom 7.5661691106014972 7.8606691656517045 -0.1278732347485492 S
atom 2.5207758819348398 2.0621542807333211 4.8888522385255797 S
atom 7.5672330897440512 2.9876962317300584 4.8901380320740433 S
atom 2.5207755589744272 8.0341537624996757 4.8901380320740415 S
atom 7.5673215789281665 7.1086999777266344 4.8909307805427948 S
atom 2.5202780493705927 0.0021801189282659 2.0460985778261946 S
atom 7.5636697553301886 0.0020638632482267 2.7835841670224606 S
atom 2.5172122245605677 5.0485213940178486 2.7835841670224588 S
atom 7.5668237463639292 5.0487258159215740 2.0481771198434049 S
atom 2.5931397619464081 0.0009980963226184 7.8154443782957914 S
atom 7.5020374284486078 0.0012640325331584 6.9198271329452377 S
atom 2.4555798976789931 5.0477215633027601 6.9198271329452377 S
atom 7.6396854589397405 5.0475437933159402 7.8175229203129941 S
atom -0.0048975445141704 2.5257889878177582 2.4795438586077947 S
atom 5.0415701940001911 2.5249424341506286 2.4805634307380897 S
atom -0.0048873367694394 7.5713999649202517 2.4805634307380906 S
atom 5.0416481524791523 7.5723346848110635 2.4816224006250018 S
atom 0.0010946195062849 2.4471622740931696 7.3670913949442847 S
atom 5.0476250401191090 2.6015573855322214 7.3681801162967320 S
atom 0.0011675093494922 7.6480149163018494 7.3681801162967329 S
atom 5.0476403164996064 7.4937079710864731 7.3691699369614971 S
atom -0.0041139318537489 0.0004861893555246 9.7750949308714379 Ba
atom 5.0976476513116040 0.0006406186879939 9.7991761149480379 Ba
atom 0.0511901205419957 5.0470981494575984 9.7991761149480379 Ba
atom 5.0424317651395754 5.0470318863488410 9.7771734728886361 Ba
atom 0.1767916651700449 -0.0002765013631397 14.4389444678522647 Ba
atom 4.8821846672234512 -0.0002723957985631 14.4420357204400389 Ba
atom -0.1642728635461552 5.0461851349710516 14.4420357204400389 Ba
atom 5.2233373621633588 5.0462691956301677 14.4410230098694878 Ba
atom 2.5314695528896940 2.5462710620850295 12.3852541553456437 Zr
atom 7.5779916650906003 2.5005265543149275 12.3858432903138809 Zr
atom 2.5315341343209692 7.5469840850845475 12.3858432903138809 Zr
atom 7.5780152498830269 7.5928167590783540 12.3873326973628561 Zr
atom 2.5279437776905613 2.9865653788920676 9.8464192727154387 S
atom 7.5744897976442971 2.0611115941190330 9.8472120211841609 S
atom 2.5280322668746673 7.1075691248886388 9.8472120211841592 S
atom 7.5744894746838796 8.0331110758853956 9.8484978147326423 S
atom 2.5290962460172262 2.2345961909669985 14.8652232880067832 S
atom 7.5756984815884776 2.8111610862252245 14.8659102977846072 S
atom 2.5292409508188682 7.8576186169948299 14.8659102977846072 S
atom 7.5756419430105462 7.2811418879603114 14.8673018300239814 S
atom 2.5315074350648357 0.0001982656075504 11.9516873442185521 S
atom 7.5748991410244244 0.0000820099275110 12.6891729334148362 S
atom 2.5284416102548009 5.0465395406971165 12.6891729334148362 S
atom 7.5780531320581597 5.0467439626008623 11.9537658862357574 S
atom 0.0071494656252164 2.5237772254747610 12.2547080805029331 S
atom 5.0536172041395595 2.5229306718076288 12.2557276526332455 S
atom 0.0071596733699473 7.5693882025772368 12.2557276526332473 S
atom 5.0536951626185420 7.5703229224680575 12.2567866225201509 S
atom 2.5283320676503718 2.3512639011171790 17.9751193354487206 Ba
atom 7.5748736590791177 2.6924165960570847 17.9741066248781749 Ba
atom 2.5284161283094955 7.7388741268266870 17.9741066248781749 Ba
atom 7.5748777646437100 7.3978095981105003 17.9771978774659225 Ba
atom 2.5275693769317118 2.5321694981409797 22.6389688724295866 Ba
atom 7.5739606445925656 2.4769536119689310 22.6169662303701600 Ba
atom 2.5275031138229402 7.5234111427385582 22.6169662303701600 Ba
atom 7.5741150739250305 7.5787151951342961 22.6410474144467635 Ba
atom 5.0283302011955051 5.0431317103908420 20.0308881899726003 Zr
atom 10.1206204059589382 5.0431552951832748 20.0323775970215330 Zr
atom 5.0741628751893195 10.0896128259528766 20.0323775970215330 Zr
atom 10.0748758981888393 10.0896774073841602 20.0329667319897951 Zr
atom 5.0502414334678631 5.0502414334678409 25.0485065896977019 Zr
atom 10.0967430473493298 5.0502855165796809 25.0495458607063277 Zr
atom 5.0502855165796934 10.0967430473493049 25.0495458607063277 Zr
atom 10.0967871304611645 10.0967871304611414 25.0505851317149109 Zr
atom 5.3400050723135530 5.0455050172633253 17.5509190573114715 S
atom 9.8099858740486567 5.0454484786853788 17.5523105895507960 S
atom 4.7635283432790292 10.0919060094549824 17.5523105895507960 S
atom 10.3865507693069166 10.0920507142566240 17.5529975993286804 S
atom 4.5880358843884714 5.0466574855899857 22.5697230726027911 S
atom 10.5600353661548318 5.0466571626295709 22.5710088661512387 S
atom 5.5135778353852194 10.0931146933991869 22.5710088661512387 S
atom 9.6345815813818021 10.0932031825833111 22.5718016146200071 S
atom 5.0516705914729254 2.5209840591409809 20.1604146926850056 S
atom 10.0972815685754238 2.5209942668857082 20.1614342648152594 S
atom 5.0508240378057874 7.5674517976553179 20.1614342648152594 S
atom 10.0982162884662650 7.5675297561342978 20.1624932347021790 S
atom 4.9730438777483261 2.5269762231614390 25.0479622290214614 S
atom 10.1738965199569886 2.5270491130046446 25.0490509503738963 S
atom 5.1274389891873824 7.5735066437742447 25.0490509503738963 S
atom 10.0195895747416639 7.5735219201547537 25.0500407710386632 S
atom 2.5280617225834212 5.0461596530257431 19.7269694119034291 S
atom 7.5744029976730101 5.0430938282156932 20.4644550010996333 S
atom 2.5279454669033816 10.0895513589853216 20.4644550010996369 S
atom 7.5746074195767408 10.0927053500190560 19.7290479539206558 S
atom 2.5268796999777736 5.1190213656015695 25.4963152123729628 S
atom 7.5736031669579322 4.9814615013341266 24.6006979670224588 S
atom 2.5271456361883149 10.0279190321037408 24.6006979670224588 S
atom 7.5734253969711087 10.1655670625948868 25.4983937543901504 S
atom 2.5263677930106692 2.5217676718013964 27.4559657649486724 Ba
atom 7.5729797531127696 2.5770717241971388 27.4800469490252155 Ba
atom 2.5265222223431492 7.6235292549667619 27.4800469490252155 Ba
atom 7.5729134900040078 7.5683133687947146 27.4580443069658457 Ba
atom 2.5256051022920181 2.7026732688251949 32.1198153019294210 Ba
atom 7.5720667386262219 2.3616087401089900 32.1229065545172858 Ba
atom 2.5256092078565904 7.4080662708786029 32.1229065545172858 Ba
atom 7.5721507992853265 7.7492189658185087 32.1218938439467223 Ba
atom 5.0721526657401963 5.0573511565448497 30.0661249894228142 Zr
atom 10.0728656887397179 5.0574157379761129 30.0667141243910869 Zr
atom 5.0264081579700957 10.1038732687457458 30.0667141243910905 Zr
atom 10.1186983627335128 10.1038968535381528 30.0682035314399769 Zr
atom 5.5124469825472451 5.0538253813457015 27.5272901067926270 S
atom 9.6334507285438224 5.0539138705298114 27.5280828552613741 S
atom 4.5869931977741789 10.1003714012994283 27.5280828552613741 S
atom 10.5589926795405677 10.1003710783390019 27.5293686488097826 S
atom 4.7604777946221635 5.0549778496723698 32.5460941220840354 S
atom 10.3835002206500207 5.0551225544740017 32.5467811318617777 S
atom 5.3370426898803869 10.1015800852436488 32.5467811318617777 S
atom 9.8070234916154533 10.1015235466656730 32.5481726641011946 S
atom 5.0496588291299149 2.5330310692803701 29.9355789145801268 S
atom 10.0952698062323893 2.5330412770250939 29.9365984867104196 S
atom 5.0488122754627875 7.5794988077947130 29.9365984867104196 S
atom 10.0962045261232358 7.5795767662736768 29.9376574565973499 S
atom 2.5260798692627047 5.0573890387199931 29.6325581782957670 S
atom 7.5724211443522931 5.0543232139099405 30.3700437674920067 S
atom 2.5259636135826691 10.1007807446795645 30.3700437674920067 S
atom 7.5726255662560362 10.1039347357132936 29.6346367203129724 S
