#=======================================================
# FHI-aims file: sym_relax/sym_relax_RP_4_RxRy0_RxRy0.in
# Created using the Atomic Simulation Environment (ASE)
# Fri Mar 14 10:26:37 2025
#=======================================================
lattice_vector 10.0766640554687150 0.1152507822699455 -0.0000000000000000 
lattice_vector 0.1152507822699456 10.0766640554687026 0.0000000000000000 
lattice_vector -0.0000000000000000 0.0000000000000000 45.2727469661706010 
atom -0.0866990372428505 -0.0866990372428504 0.2744652089338490 Ba
atom 5.1250310649772119 0.1443244283778230 0.2744652089338489 Ba
atom 0.1443244283778233 5.1250310649771977 0.2744652089338490 Ba
atom 5.0092583816264806 5.0092583816264762 0.2744652089338490 Ba
atom -0.0049099378354517 -0.0049099378354516 4.9413353230332291 Ba
atom 5.0432419655698064 0.0625353289704238 4.9413353230332291 Ba
atom 0.0625353289704247 5.0432419655698100 4.9413353230332291 Ba
atom 5.0910474810338799 5.0910474810338666 4.9413353230332291 Ba
atom 2.5414304420254883 2.5414304420254830 2.3350474652355637 Zr
atom 7.5928590045781945 2.6121523679788119 2.3350474652355637 Zr
atom 2.6121523679788137 7.5928590045781892 2.3350474652355637 Zr
atom 7.6373878608948216 7.6373878608948100 2.3350474652355637 Zr
atom 2.5501615130177133 2.5501615130177080 7.3571772127374997 Zr
atom 7.5841279335859753 2.6034212969865895 7.3571772127374997 Zr
atom 2.6034212969865922 7.5841279335859637 7.3571772127374997 Zr
atom 7.6461189318870417 7.6461189318870302 7.3571772127374997 Zr
atom 2.7839773221138184 2.7839773221138175 -0.1507395542852022 S
atom 7.3503121244898644 2.3696054878904804 -0.1507395542852022 S
atom 2.3696054878904862 7.3503121244898573 -0.1507395542852022 S
atom 7.8799347409831491 7.8799347409831375 -0.1507395542852022 S
atom 2.2322943534832471 2.2322943534832405 4.8793323748448785 S
atom 7.9019950931204406 2.9212884565210513 4.8793323748448785 S
atom 2.9212884565210611 7.9019950931204361 4.8793323748448785 S
atom 7.3282517723525755 7.3282517723525604 4.8793323748448785 S
atom 2.5191660138671805 0.0288126955674865 2.1660083204434719 S
atom 7.5574980416015345 0.0864380867024587 2.7120075519272362 S
atom 2.5767914050021541 5.0671447233018396 2.7120075519272362 S
atom 7.6151234327365040 5.1247701144368110 2.1660083204434719 S
atom 2.5191660138671805 0.0288126955674865 7.7040235770957342 S
atom 7.5574980416015345 0.0864380867024587 7.0168436684982778 S
atom 2.5767914050021541 5.0671447233018396 7.0168436684982796 S
atom 7.6151234327365040 5.1247701144368110 7.7040235770957342 S
atom 0.0288126955674865 2.5191660138671743 2.1660083204434719 S
atom 5.0671447233018396 2.5767914050021488 2.7120075519272362 S
atom 0.0864380867024596 7.5574980416015274 2.7120075519272362 S
atom 5.1247701144368154 7.6151234327365005 2.1660083204434719 S
atom 0.0288126955674865 2.5191660138671743 7.7040235770957342 S
atom 5.0671447233018396 2.5767914050021488 7.0168436684982778 S
atom 0.0864380867024596 7.5574980416015274 7.0168436684982778 S
atom 5.1247701144368154 7.6151234327365005 7.7040235770957342 S
atom 0.0305036908393091 0.0305036908393089 9.8419015143849098 Ba
atom 5.0078283368950487 0.0271217002956632 9.8419015143849098 Ba
atom 0.0271217002956639 5.0078283368950416 9.8419015143849098 Ba
atom 5.1264611097086430 5.1264611097086359 9.8419015143849098 Ba
atom -0.0049099378354517 -0.0049099378354516 14.7424677057365923 Ba
atom 5.0432419655698064 0.0625353289704237 14.7424677057365923 Ba
atom 0.0625353289704247 5.0432419655698100 14.7424677057365923 Ba
atom 5.0910474810338799 5.0910474810338666 14.7424677057365923 Ba
atom 2.5501615130177133 2.5501615130177080 12.3266258160323137 Zr
atom 7.5841279335859753 2.6034212969865895 12.3266258160323137 Zr
atom 2.6034212969865922 7.5841279335859637 12.3266258160323137 Zr
atom 7.6461189318870417 7.6461189318870302 12.3266258160323137 Zr
atom 2.5414304420254883 2.5414304420254830 17.3487555635342510 Zr
atom 7.5928590045781945 2.6121523679788119 17.3487555635342510 Zr
atom 2.6121523679788137 7.5928590045781892 17.3487555635342510 Zr
atom 7.6373878608948216 7.6373878608948100 17.3487555635342510 Zr
atom 2.8961150497546342 2.8961150497546311 9.8419015143849098 S
atom 7.2381743968490522 2.2574677602496678 9.8419015143849098 S
atom 2.2574677602496691 7.2381743968490433 9.8419015143849098 S
atom 7.9920724686239595 7.9920724686239550 9.8419015143849098 S
atom 2.2322943534832471 2.2322943534832405 14.8044706539249589 S
atom 7.9019950931204406 2.9212884565210513 14.8044706539249589 S
atom 2.9212884565210611 7.9019950931204361 14.8044706539249589 S
atom 7.3282517723525755 7.3282517723525604 14.8044706539249589 S
atom 2.5191660138671805 0.0288126955674865 11.9797794516740872 S
atom 7.5574980416015345 0.0864380867024587 12.6669593602715516 S
atom 2.5767914050021541 5.0671447233018396 12.6669593602715516 S
atom 7.6151234327365040 5.1247701144368110 11.9797794516740872 S
atom 2.5191660138671805 0.0288126955674865 17.5177947083263703 S
atom 7.5574980416015345 0.0864380867024587 16.9717954768425692 S
atom 2.5767914050021541 5.0671447233018396 16.9717954768425692 S
atom 7.6151234327365040 5.1247701144368110 17.5177947083263703 S
atom 0.0288126955674865 2.5191660138671743 11.9797794516740872 S
atom 5.0671447233018396 2.5767914050021488 12.6669593602715516 S
atom 0.0864380867024596 7.5574980416015274 12.6669593602715516 S
atom 5.1247701144368154 7.6151234327365005 11.9797794516740872 S
atom 0.0288126955674865 2.5191660138671743 17.5177947083263703 S
atom 5.0671447233018396 2.5767914050021488 16.9717954768425692 S
atom 0.0864380867024596 7.5574980416015274 16.9717954768425692 S
atom 5.1247701144368154 7.6151234327365005 17.5177947083263703 S
atom -0.0866990372428505 -0.0866990372428505 19.4093378198359936 Ba
atom 5.1250310649772119 0.1443244283778225 19.4093378198359936 Ba
atom 0.1443244283778233 5.1250310649771977 19.4093378198359936 Ba
atom 5.0092583816264806 5.0092583816264762 19.4093378198359936 Ba
atom 2.7839773221138184 2.7839773221138175 19.8345425830550290 S
atom 7.3503121244898644 2.3696054878904809 19.8345425830550290 S
atom 2.3696054878904862 7.3503121244898590 19.8345425830550290 S
atom 7.8799347409831491 7.8799347409831375 19.8345425830550290 S
atom 2.4612796721918122 2.4612796721918149 22.9108386920191407 Ba
atom 7.6730097744118764 2.6923031378124840 22.9108386920191407 Ba
atom 2.6923031378124875 7.6730097744118630 22.9108386920191407 Ba
atom 7.5572370910611442 7.5572370910611362 22.9108386920191407 Ba
atom 2.5430687715992102 2.5430687715992075 27.5777088061185438 Ba
atom 7.5912206750044806 2.6105140384050869 27.5777088061185403 Ba
atom 2.6105140384050891 7.5912206750044664 27.5777088061185438 Ba
atom 7.6390261904685319 7.6390261904685284 27.5777088061185403 Ba
atom 5.0894091514601554 5.0894091514601456 24.9714209483208904 Zr
atom 10.1408377140128696 5.1601310774134745 24.9714209483208904 Zr
atom 5.1601310774134781 10.1408377140128483 24.9714209483208904 Zr
atom 10.1853665703294887 10.1853665703294727 24.9714209483208904 Zr
atom 5.0981402224523791 5.0981402224523702 29.9935506958228153 Zr
atom 10.1321066430206450 5.1514000064212482 29.9935506958228153 Zr
atom 5.1514000064212571 10.1321066430206308 29.9935506958228153 Zr
atom 10.1940976413217061 10.1940976413216919 29.9935506958228153 Zr
atom 5.3319560315484882 5.3319560315484793 22.4856339288001301 S
atom 9.8982908339245377 4.9175841973251400 22.4856339288001301 S
atom 4.9175841973251444 9.8982908339245199 22.4856339288001301 S
atom 10.4279134504178064 10.4279134504177868 22.4856339288001301 S
atom 4.7802730629179022 4.7802730629179093 27.5157058579301719 S
atom 10.4499738025550943 5.4692671659557153 27.5157058579301719 S
atom 5.4692671659557277 10.4499738025551014 27.5157058579301719 S
atom 9.8762304817872497 9.8762304817872231 27.5157058579301719 S
atom 5.0671447233018387 2.5767914050021488 24.8023818035287533 S
atom 10.1054767510362016 2.6344167961371197 25.3483810350125225 S
atom 5.1247701144368154 7.6151234327364996 25.3483810350125225 S
atom 10.1631021421711765 7.6727488238714736 24.8023818035287533 S
atom 5.0671447233018387 2.5767914050021488 30.3403970601810471 S
atom 10.1054767510362016 2.6344167961371197 29.6532171515835863 S
atom 5.1247701144368154 7.6151234327364996 29.6532171515835863 S
atom 10.1631021421711765 7.6727488238714736 30.3403970601810471 S
atom 2.5767914050021541 5.0671447233018396 24.8023818035287533 S
atom 7.6151234327365049 5.1247701144368110 25.3483810350125225 S
atom 2.6344167961371250 10.1054767510361820 25.3483810350125225 S
atom 7.6727488238714789 10.1631021421711623 24.8023818035287533 S
atom 2.5767914050021541 5.0671447233018396 30.3403970601810471 S
atom 7.6151234327365049 5.1247701144368110 29.6532171515835863 S
atom 2.6344167961371250 10.1054767510361820 29.6532171515835863 S
atom 7.6727488238714789 10.1631021421711623 30.3403970601810471 S
atom 2.5784824002739755 2.5784824002739697 32.4782749974702369 Ba
atom 7.5558070463297105 2.5751004097303256 32.4782749974702369 Ba
atom 2.5751004097303301 7.5558070463296989 32.4782749974702369 Ba
atom 7.6744398191433048 7.6744398191432959 32.4782749974702369 Ba
atom 2.5430687715992102 2.5430687715992075 37.3788411888219159 Ba
atom 7.5912206750044806 2.6105140384050869 37.3788411888219159 Ba
atom 2.6105140384050891 7.5912206750044664 37.3788411888219159 Ba
atom 7.6390261904685319 7.6390261904685284 37.3788411888219159 Ba
atom 5.0981402224523791 5.0981402224523702 34.9629992991176550 Zr
atom 10.1321066430206450 5.1514000064212482 34.9629992991176550 Zr
atom 5.1514000064212571 10.1321066430206308 34.9629992991176550 Zr
atom 10.1940976413217061 10.1940976413216919 34.9629992991176550 Zr
atom 5.0894091514601554 5.0894091514601456 39.9851290466195550 Zr
atom 10.1408377140128696 5.1601310774134745 39.9851290466195550 Zr
atom 5.1601310774134781 10.1408377140128483 39.9851290466195550 Zr
atom 10.1853665703294887 10.1853665703294727 39.9851290466195550 Zr
atom 5.4440937591892986 5.4440937591892906 32.4782749974702369 S
atom 9.7861531062837148 4.8054464696843313 32.4782749974702369 S
atom 4.8054464696843375 9.7861531062837130 32.4782749974702369 S
atom 10.5400511780586239 10.5400511780586168 32.4782749974702369 S
atom 4.7802730629179022 4.7802730629179093 37.4408441370102096 S
atom 10.4499738025550943 5.4692671659557153 37.4408441370102096 S
atom 5.4692671659557277 10.4499738025551014 37.4408441370102096 S
atom 9.8762304817872497 9.8762304817872231 37.4408441370102096 S
atom 5.0671447233018387 2.5767914050021488 34.6161529347593344 S
atom 10.1054767510362016 2.6344167961371197 35.3033328433567846 S
atom 5.1247701144368154 7.6151234327364996 35.3033328433567846 S
atom 10.1631021421711765 7.6727488238714736 34.6161529347593344 S
atom 5.0671447233018387 2.5767914050021488 40.1541681914116424 S
atom 10.1054767510362016 2.6344167961371197 39.6081689599278945 S
atom 5.1247701144368154 7.6151234327364996 39.6081689599278945 S
atom 10.1631021421711765 7.6727488238714736 40.1541681914116424 S
atom 2.5767914050021541 5.0671447233018396 34.6161529347593344 S
atom 7.6151234327365049 5.1247701144368110 35.3033328433567846 S
atom 2.6344167961371250 10.1054767510361820 35.3033328433567846 S
atom 7.6727488238714789 10.1631021421711623 34.6161529347593344 S
atom 2.5767914050021541 5.0671447233018396 40.1541681914116424 S
atom 7.6151234327365049 5.1247701144368110 39.6081689599278945 S
atom 2.6344167961371250 10.1054767510361820 39.6081689599278945 S
atom 7.6727488238714789 10.1631021421711623 40.1541681914116424 S
atom 2.4612796721918122 2.4612796721918149 42.0457113029212550 Ba
atom 7.6730097744118764 2.6923031378124835 42.0457113029212550 Ba
atom 2.6923031378124875 7.6730097744118622 42.0457113029212550 Ba
atom 7.5572370910611442 7.5572370910611362 42.0457113029212550 Ba
atom 5.3319560315484882 5.3319560315484793 42.4709160661403757 S
atom 9.8982908339245377 4.9175841973251400 42.4709160661403757 S
atom 4.9175841973251444 9.8982908339245199 42.4709160661403757 S
atom 10.4279134504178064 10.4279134504177868 42.4709160661403757 S
