#=======================================================
# FHI-aims file: sym_relax/sym_relax_RP_3_00Rz1_00Rz2.in
# Created using the Atomic Simulation Environment (ASE)
# Fri Mar 14 10:22:39 2025
#=======================================================
lattice_vector 9.9102542019520978 0.0000000000004296 0.0000000000000000 
lattice_vector 0.0000000000004296 9.9102542019520961 0.0000000000000000 
lattice_vector 0.0000000000000000 0.0000000000000000 36.4536063044611964 
atom 0.0000000000000000 0.0000000000000000 0.1681523265079823 Ba
atom 4.9551271009760480 0.0000000000002146 0.1681523265079823 Ba
atom 0.0000000000002146 4.9551271009760463 0.1681523265079823 Ba
atom 4.9551271009762656 4.9551271009762621 0.1681523265079822 Ba
atom 0.0000000000000000 0.0000000000000000 5.0644003069344707 Ba
atom 4.9551271009760480 0.0000000000002146 5.0644003069344707 Ba
atom 0.0000000000002146 4.9551271009760463 5.0644003069344707 Ba
atom 4.9551271009762656 4.9551271009762621 5.0644003069344707 Ba
atom 2.4775635504881328 2.4775635504881310 2.4502730311071890 Zr
atom 7.4326906514641777 2.4775635504883451 2.4502730311071890 Zr
atom 2.4775635504883460 7.4326906514641848 2.4502730311071890 Zr
atom 7.4326906514643944 7.4326906514643936 2.4502730311071890 Zr
atom 2.4775635504881328 2.4775635504881310 7.5945013134294079 Zr
atom 7.4326906514641777 2.4775635504883451 7.5945013134294079 Zr
atom 2.4775635504883460 7.4326906514641848 7.5945013134294079 Zr
atom 7.4326906514643944 7.4326906514643936 7.5945013134294079 Zr
atom 2.4775635504881328 2.4775635504881310 -0.0969219215067356 S
atom 7.4326906514641777 2.4775635504883451 -0.0969219215067356 S
atom 2.4775635504883460 7.4326906514641848 -0.0969219215067356 S
atom 7.4326906514643944 7.4326906514643936 -0.0969219215067356 S
atom 2.4775635504881328 2.4775635504881310 5.0437092245452728 S
atom 7.4326906514641777 2.4775635504883451 5.0437092245452728 S
atom 2.4775635504883460 7.4326906514641848 5.0437092245452728 S
atom 7.4326906514643944 7.4326906514643936 5.0437092245452728 S
atom 2.0542860094692630 0.0000000000002252 2.5328499778690441 S
atom 7.8559681924828304 0.0000000000002049 2.5328499778690441 S
atom 2.9008410915069986 4.9551271009760391 2.5328499778690441 S
atom 7.0094131104455242 4.9551271009764930 2.5328499778690441 S
atom 3.0118302494598868 0.0000000000002203 7.5945013134294079 S
atom 6.8984239524922044 0.0000000000002089 7.5945013134294079 S
atom 1.9432968515163749 4.9551271009760418 7.5945013134294079 S
atom 7.9669573504361573 4.9551271009764797 7.5945013134294079 S
atom -0.0000000000000101 2.9008410915067873 2.5328499778690441 S
atom 4.9551271009762745 2.0542860094694766 2.5328499778690441 S
atom 0.0000000000004391 7.0094131104453030 2.5328499778690441 S
atom 4.9551271009762505 7.8559681924830533 2.5328499778690441 S
atom -0.0000000000000057 1.9432968515161597 7.5945013134294079 S
atom 4.9551271009762674 3.0118302494600999 7.5945013134294079 S
atom 0.0000000000004349 7.9669573504359406 7.5945013134294079 S
atom 4.9551271009762567 6.8984239524924185 7.5945013134294079 S
atom 0.0000000000000000 0.0000000000000000 10.1246023199243460 Ba
atom 4.9551271009760480 0.0000000000002146 10.1246023199243460 Ba
atom 0.0000000000002146 4.9551271009760463 10.1246023199243460 Ba
atom 4.9551271009762656 4.9551271009762621 10.1246023199243460 Ba
atom 0.0000000000000000 0.0000000000000000 15.0208503003508138 Ba
atom 4.9551271009760480 0.0000000000002146 15.0208503003508138 Ba
atom 0.0000000000002146 4.9551271009760463 15.0208503003508138 Ba
atom 4.9551271009762656 4.9551271009762621 15.0208503003508138 Ba
atom 2.4775635504881328 2.4775635504881310 12.7387295957516287 Zr
atom 7.4326906514641777 2.4775635504883451 12.7387295957516287 Zr
atom 2.4775635504883460 7.4326906514641848 12.7387295957516287 Zr
atom 7.4326906514643944 7.4326906514643936 12.7387295957516287 Zr
atom 2.4775635504881328 2.4775635504881310 10.1452934023135217 S
atom 7.4326906514641777 2.4775635504883451 10.1452934023135217 S
atom 2.4775635504883460 7.4326906514641848 10.1452934023135217 S
atom 7.4326906514643944 7.4326906514643936 10.1452934023135217 S
atom 2.4775635504881328 2.4775635504881310 15.2859245483655570 S
atom 7.4326906514641777 2.4775635504883451 15.2859245483655570 S
atom 2.4775635504883460 7.4326906514641848 15.2859245483655570 S
atom 7.4326906514643944 7.4326906514643936 15.2859245483655570 S
atom 2.0542860094692630 0.0000000000002252 12.6561526489897727 S
atom 7.8559681924828304 0.0000000000002049 12.6561526489897727 S
atom 2.9008410915069986 4.9551271009760391 12.6561526489897727 S
atom 7.0094131104455242 4.9551271009764930 12.6561526489897727 S
atom -0.0000000000000101 2.9008410915067873 12.6561526489897727 S
atom 4.9551271009762745 2.0542860094694766 12.6561526489897727 S
atom 0.0000000000004391 7.0094131104453030 12.6561526489897727 S
atom 4.9551271009762505 7.8559681924830533 12.6561526489897727 S
atom 2.4775635504881328 2.4775635504881310 18.3949644240371057 Ba
atom 7.4326906514641777 2.4775635504883451 18.3949644240371057 Ba
atom 2.4775635504883460 7.4326906514641848 18.3949644240371057 Ba
atom 7.4326906514643944 7.4326906514643936 18.3949644240371057 Ba
atom 2.4775635504881328 2.4775635504881310 23.2912120124150803 Ba
atom 7.4326906514641777 2.4775635504883451 23.2912120124150803 Ba
atom 2.4775635504883460 7.4326906514641848 23.2912120124150803 Ba
atom 7.4326906514643944 7.4326906514643936 23.2912120124150803 Ba
atom 4.9551271009762656 4.9551271009762621 20.6770738065118884 Zr
atom 9.9102542019523092 4.9551271009764788 20.6770738065118884 Zr
atom 4.9551271009764735 9.9102542019523145 20.6770738065118884 Zr
atom 9.9102542019525313 9.9102542019525242 20.6770738065118884 Zr
atom 4.9551271009762656 4.9551271009762621 25.8213044656599990 Zr
atom 9.9102542019523092 4.9551271009764788 25.8213044656599990 Zr
atom 4.9551271009764735 9.9102542019523145 25.8213044656599990 Zr
atom 9.9102542019525313 9.9102542019525242 25.8213044656599990 Zr
atom 4.9551271009762656 4.9551271009762621 18.1298831296125762 S
atom 9.9102542019523092 4.9551271009764788 18.1298831296125762 S
atom 4.9551271009764735 9.9102542019523145 18.1298831296125762 S
atom 9.9102542019525313 9.9102542019525242 18.1298831296125762 S
atom 4.9551271009762656 4.9551271009762621 23.2705162172610578 S
atom 9.9102542019523092 4.9551271009764788 23.2705162172610578 S
atom 4.9551271009764735 9.9102542019523145 23.2705162172610578 S
atom 9.9102542019525313 9.9102542019525242 23.2705162172610578 S
atom 4.5318695206109725 2.4775635504881244 20.7596552422476570 S
atom 10.3335117823173750 2.4775635504885685 20.7596552422476570 S
atom 5.3783846813415490 7.4326906514643909 20.7596552422476570 S
atom 9.4869966215872239 7.4326906514644007 20.7596552422476570 S
atom 5.4894124800405448 2.4775635504881981 25.8213044656599990 S
atom 9.3759688228877973 2.4775635504884921 25.8213044656599990 S
atom 4.4208417219119749 7.4326906514643305 25.8213044656599990 S
atom 10.4445395810168069 7.4326906514644611 25.8213044656599990 S
atom 2.4775635504883513 5.3783846813413350 20.7596552422476570 S
atom 7.4326906514641804 4.5318695206111910 20.7596552422476570 S
atom 2.4775635504883380 9.4869966215870161 20.7596552422476570 S
atom 7.4326906514646023 10.3335117823175988 20.7596552422476570 S
atom 2.4775635504882794 4.4208417219117617 25.8213044656599990 S
atom 7.4326906514642497 5.4894124800407633 25.8213044656599990 S
atom 2.4775635504884126 10.4445395810165991 25.8213044656599990 S
atom 7.4326906514645428 9.3759688228880194 25.8213044656599990 S
atom 2.4775635504881328 2.4775635504881310 28.3513969189048964 Ba
atom 7.4326906514641777 2.4775635504883451 28.3513969189048964 Ba
atom 2.4775635504883460 7.4326906514641848 28.3513969189048964 Ba
atom 7.4326906514643944 7.4326906514643936 28.3513969189048964 Ba
atom 2.4775635504881328 2.4775635504881310 33.2476445072829421 Ba
atom 7.4326906514641777 2.4775635504883451 33.2476445072829421 Ba
atom 2.4775635504883460 7.4326906514641848 33.2476445072829421 Ba
atom 7.4326906514643944 7.4326906514643936 33.2476445072829421 Ba
atom 4.9551271009762656 4.9551271009762621 30.9655351248080990 Zr
atom 9.9102542019523092 4.9551271009764788 30.9655351248080990 Zr
atom 4.9551271009764735 9.9102542019523145 30.9655351248080990 Zr
atom 9.9102542019525313 9.9102542019525242 30.9655351248080990 Zr
atom 4.9551271009762656 4.9551271009762621 28.3720927140589190 S
atom 9.9102542019523092 4.9551271009764788 28.3720927140589190 S
atom 4.9551271009764735 9.9102542019523145 28.3720927140589190 S
atom 9.9102542019525313 9.9102542019525242 28.3720927140589190 S
atom 4.9551271009762656 4.9551271009762621 33.5127258017074183 S
atom 9.9102542019523092 4.9551271009764788 33.5127258017074183 S
atom 4.9551271009764735 9.9102542019523145 33.5127258017074183 S
atom 9.9102542019525313 9.9102542019525242 33.5127258017074183 S
atom 4.5318695206109725 2.4775635504881244 30.8829536890722842 S
atom 10.3335117823173750 2.4775635504885685 30.8829536890722842 S
atom 5.3783846813415490 7.4326906514643909 30.8829536890722842 S
atom 9.4869966215872239 7.4326906514644007 30.8829536890722842 S
atom 2.4775635504883513 5.3783846813413350 30.8829536890722842 S
atom 7.4326906514641804 4.5318695206111910 30.8829536890722842 S
atom 2.4775635504883380 9.4869966215870161 30.8829536890722842 S
atom 7.4326906514646023 10.3335117823175988 30.8829536890722842 S
