#=======================================================
# FHI-aims file: sym_relax/sym_relax_RP_9_RxRyRz_RxRyRz.in
# Created using the Atomic Simulation Environment (ASE)
# Mon Mar 17 16:48:51 2025
#=======================================================
lattice_vector 9.9360795143173632 -0.0071546951146491 -0.0011090650585192 
lattice_vector -0.0071546951146494 9.9360795143173650 0.0011090650585191 
lattice_vector -0.0028853008416079 0.0028853008416055 97.3358786513638847 
atom 0.0407197805450799 -0.1171481971420572 0.1906226873215414 Ba
atom 5.0851879543007463 -0.0442971281024068 0.1900681547922822 Ba
atom 0.1135708495847306 4.9273199766136058 0.1911772198508012 Ba
atom 5.0051821901464288 4.8473142124592963 0.1906226873215412 Ba
atom -0.2539540503814059 0.1884492968196567 5.0330978334068215 Ba
atom 4.7795904603390422 0.2503767028240795 5.0325433008775589 Ba
atom -0.1920266443769830 5.2219938075400831 5.0336523659360859 Ba
atom 4.7105083592199453 5.1529117064210110 5.0330978334068206 Ba
atom 2.4522517420662240 2.5090347084043461 2.4096453243747886 Zr
atom 7.4234674583556863 2.5086333199778053 2.4090907918455335 Zr
atom 2.4518503536396827 7.4802504246938089 2.4101998569040548 Zr
atom 7.4167141516675725 7.4734971180057119 2.4096453243747886 Zr
atom 2.4086015155188378 2.5207629254485329 7.5126096381144079 Zr
atom 7.4117392413115128 2.5522835465251976 7.5120551055851443 Zr
atom 2.4401221365954999 7.5239006512411981 7.5131641706436652 Zr
atom 7.3730639251201824 7.4852253350498774 7.5126096381144079 Zr
atom 2.5678180034564848 2.6827147204432684 -0.1109417086342764 S
atom 7.2497874463167813 2.3930670585875427 -0.1114962411635357 S
atom 2.2781703416007630 7.3646841633035454 -0.1103871761050168 S
atom 7.5322804130578422 7.6471771300446214 -0.1109417086342765 S
atom 2.2537112920649309 2.3067420861637857 4.9965202290224786 S
atom 7.6257600805962564 2.7071737699790877 4.9959656964932204 S
atom 2.6541429758802368 7.6787908746950881 4.9970747615517519 S
atom 7.2181737016662764 7.2712044957651401 4.9965202290224786 S
atom 2.7843936449169777 0.0349501736919167 2.3039724725056585 S
atom 7.0592591608933688 0.0340149872010210 2.7153413294107418 S
atom 2.0876420561773612 5.0056320919170236 2.7164503944692600 S
atom 7.7488560545183516 4.9994125832932683 2.3039724725056585 S
atom 2.9440822249780036 0.0429263733413601 7.7139940209433586 S
atom 6.9487926408879810 0.0398655647991841 7.3598910931044363 S
atom 1.9771755361719801 5.0114826695151926 7.3610001581629474 S
atom 7.9085446345793695 5.0073887829427122 7.7139940209433577 S
atom -0.0385275212492435 2.1836461122416910 2.3045270050349154 S
atom 4.9268700748430128 2.8732430058666689 2.7158958619399995 S
atom -0.0447470298729982 7.8448601105826867 2.7170049269985190 S
atom 4.9259348883521090 7.1481085218430369 2.3045270050349154 S
atom -0.0465037208986858 2.0239575321806678 7.7145485534726195 S
atom 4.9210194972448322 2.9837095258720430 7.3604456256336936 S
atom -0.0505976074711612 7.9553266305880577 7.3615546906922082 S
atom 4.9179586887026794 6.9884199417820296 7.7145485534726195 S
atom 0.0014848067289449 -0.0772018662663259 10.0763405106879897 Ba
atom 5.0452416234249977 -0.0050621542862716 10.0757859781587538 Ba
atom 0.0736245187089992 4.9665549504297406 10.0768950432172755 Ba
atom 4.9659472163303162 4.8872605433350120 10.0763405106879897 Ba
atom 0.0450215945689713 0.0089663582184760 15.1665914371071580 Ba
atom 4.9590733989402125 -0.0485989421262982 15.1660369045779131 Ba
atom -0.0125437057758030 4.9230181625897043 15.1671459696364188 Ba
atom 5.0094840041703295 4.9734287678198204 15.1665914371071580 Ba
atom 2.4886229696912241 2.4862935752457185 12.6075759170546124 Zr
atom 7.4462085915143428 2.4722620923528051 12.6070213845253676 Zr
atom 2.4745914867983210 7.4438791970688056 12.6081304495838928 Zr
atom 7.4530853792925891 7.4507559848470528 12.6075759170546124 Zr
atom 2.4828053716984528 2.4817239541575233 17.7100714589093577 Zr
atom 7.4507782126025219 2.4780796903455733 17.7095169263801147 Zr
atom 2.4791611078864992 7.4496967950615662 17.7106259914386293 Zr
atom 7.4472677812998018 7.4461863637588825 17.7100714589093542 Zr
atom 2.5598346014022622 2.6436565517154080 10.0724800362713882 S
atom 7.2888456150446377 2.4010504606417746 10.0719255037421060 S
atom 2.3172285103286150 7.3726675653577782 10.0730345688006135 S
atom 7.5242970110036316 7.6081189613167526 10.0724800362713864 S
atom 2.4215787174202479 2.4525584830275613 15.1659282800768516 S
atom 7.4799436837324844 2.5393063446237800 15.1653737475475818 S
atom 2.5083265790164679 7.5109234493397841 15.1664828126061089 S
atom 7.3860411270216062 7.4170208926289103 15.1659282800768516 S
atom 1.9802661570784283 0.0041635866093785 12.5647166322233126 S
atom 7.9810759343613613 0.0016558247604023 12.6807378502263006 S
atom 3.0094588296453617 4.9732729294764031 12.6818469152848312 S
atom 6.9447285666797827 4.9686259962107178 12.5647166322233126 S
atom 3.0062400491916237 0.0014459442422971 17.7402356851651781 S
atom 6.9282906930281918 -0.0023454521112927 17.6918243874459336 S
atom 1.9566735883121900 4.9692716526047169 17.6929334525044268 S
atom 7.9707024587930082 4.9659083538436404 17.7402356851651781 S
atom -0.0077409341667058 2.9877736000802599 12.5652711647525983 S
atom 4.9592292372836333 1.9514262323986695 12.6812923827555633 S
atom -0.0123878674323796 6.9230433371146924 12.6824014478140885 S
atom 4.9567214754346578 7.9522360096816120 12.5652711647525983 S
atom -0.0050232917996232 1.9617997079670675 17.7407902176944603 S
atom 4.9632305141553292 3.0042114737318375 17.6923789199751411 S
atom -0.0083865905606850 7.9758285784478371 17.6934879850336984 S
atom 4.9594391178017210 6.9262621175684291 17.7407902176944532 S
atom -0.0103615949590801 -0.0140995339030438 20.2639001458574306 Ba
atom 4.9821392910617286 0.0067842474017530 20.2633456133281307 Ba
atom 0.0105221863457169 4.9784013521177535 20.2644546783866240 Ba
atom 4.9541008146422705 4.9503628756983034 20.2639001458574306 Ba
atom 0.0090091101895753 0.0154520186725457 25.3622929719694454 Ba
atom 4.9525877384861197 -0.0125864577469020 25.3617384394401171 Ba
atom -0.0190293662298720 4.9590306469690990 25.3628475044986530 Ba
atom 4.9734715197909294 4.9799144282739007 25.3622929719694454 Ba
atom 2.4815549624159212 2.4829074471854296 22.8130965589133865 Zr
atom 7.4495947195746091 2.4793300996281014 22.8125420263841328 Zr
atom 2.4779776148586032 7.4509472043441001 22.8136510914426331 Zr
atom 7.4460173720172866 7.4473698567867732 22.8130965589133865 Zr
atom 2.4803045531333940 2.4840909402133318 27.9161216589174543 Zr
atom 7.4484112265467068 2.4805805089106268 27.9155671263882041 Zr
atom 2.4767941218306984 7.4521976136266295 27.9166761914467436 Zr
atom 7.4447669627347697 7.4485533498146843 27.9161216589174579 Zr
atom 2.5023956118254076 2.5106469983134954 20.2638712167984991 S
atom 7.4218551684465366 2.4584894502186225 20.2633166842692027 S
atom 2.4502380637305348 7.4301065549346115 20.2644257493277316 S
atom 7.4668580214267752 7.4751094079148395 20.2638712167985027 S
atom 2.4607143130064406 2.4551678960573651 25.3623219010283307 S
atom 7.4773342707026762 2.5001707490375806 25.3617673684990592 S
atom 2.5057171659866659 7.4717878537536038 25.3628764335575845 S
atom 7.4251767226078051 7.4196303056587176 25.3623219010283272 S
atom 1.9598535716958969 -0.0011827290744050 22.7949640986634314 S
atom 7.9748734578519676 -0.0046194812707439 22.8301199541048589 S
atom 3.0032563531359640 4.9669976234452653 22.8312290191633984 S
atom 6.9243159812972426 4.9632796805269352 22.7949640986634314 S
atom 3.0064363365196534 -0.0034567582338566 27.9332596653223924 S
atom 6.9284869803562605 -0.0072481545874458 27.8848483676030483 S
atom 1.9568698756402423 4.9643689501285602 27.8859574326615913 S
atom 7.9708987461210441 4.9610056513675165 27.9332596653223924 S
atom -0.0023946184829216 3.0081861854627863 22.7955186311926568 S
atom 4.9655045433147791 1.9576287089080768 22.8306744866341802 S
atom -0.0061125614012345 6.9292458136240676 22.8317835516926415 S
atom 4.9620677911184359 7.9726485950641486 22.7955186311926639 S
atom -0.0001205893234710 1.9616034206390152 27.9338141978516497 S
atom 4.9681332166314869 3.0040151864037998 27.8854029001323198 S
atom -0.0034838880845326 7.9756322911197843 27.8865119651908522 S
atom 4.9643418202778840 6.9260658302403622 27.9338141978516425 S
atom -0.0463740793384759 -0.0076138734489743 30.4596016807195795 Ba
atom 4.9756536306076722 0.0427967317811492 30.4590471481903151 Ba
atom 0.0040365258916477 5.0144138364971438 30.4601562132488475 Ba
atom 4.9180883302628802 4.9568485361523811 30.4596016807195795 Ba
atom -0.0028372914984497 0.0785543510358278 35.5498526071388596 Ba
atom 4.8894854061228505 -0.0007400560588773 35.5492980746094887 Ba
atom -0.0821316985931544 4.9708770486571261 35.5504071396680175 Ba
atom 4.9616251181029147 5.0430167606371814 35.5498526071388596 Ba
atom 2.4744869551406268 2.4795213191251420 33.0186172007722334 Zr
atom 7.4529808476348887 2.4863981069034047 33.0180626682429548 Zr
atom 2.4813637429188837 7.4580152116193918 33.0191717333014623 Zr
atom 7.4389493647419886 7.4439837287265052 33.0186172007722405 Zr
atom 2.5545084093130308 2.4450519689223160 38.1135834797123465 Zr
atom 7.4874501978377053 2.4063766527310020 38.1130289471831532 Zr
atom 2.5158330931217017 7.3779937574469985 38.1141380122416464 Zr
atom 7.5189708189143776 7.4095143785236797 38.1135834797123465 Zr
atom 2.5415312074116039 2.5132564113432880 30.4602648377499605 S
atom 7.4192457554167266 2.4193538546324191 30.4597103052207387 S
atom 2.4476286507007314 7.3909709593484179 30.4608193702792427 S
atom 7.5059936170129742 7.4777188209446477 30.4602648377499641 S
atom 2.4032753234295909 2.3221583426554493 35.5537130815553581 S
atom 7.6103438241045787 2.5576097386144330 35.5531585490261364 S
atom 2.6387267193885826 7.5292268433304415 35.5542676140846581 S
atom 7.3677377330309533 7.2866207522567947 35.5537130815553581 S
atom 1.9536510951864974 -0.0074580351055512 32.9443462025419791 S
atom 7.9544608724694443 -0.0099657969545275 33.0603674205449920 S
atom 2.9828437677534336 4.9616513077614863 33.0614764856034569 S
atom 6.9181135047878719 4.9570043744958046 32.9443462025419791 S
atom 2.9859343886598704 -0.0456677751443328 38.2651929596638780 S
atom 6.9906448045698646 -0.0487285836865087 37.9110900318248980 S
atom 2.0190276998538446 4.9228885210294981 37.9121990968834339 S
atom 7.9503967982612362 4.9187946344570213 38.2651929596638851 S
atom 0.0038806875482244 3.0143886619721894 32.9449007350712364 S
atom 4.9708508589985465 1.9780412942905983 33.0609219530742564 S
atom -0.0007662457174503 6.9496583990065979 33.0620310181327497 S
atom 4.9683430971495719 7.9788510715735317 32.9449007350712293 S
atom 0.0420904275870049 1.9821053684987979 38.2657474921931922 S
atom 5.0096136457305365 2.9418573621901727 37.9116445643541837 S
atom 0.0379965410145300 7.9134744669062007 37.9127536294126770 S
atom 5.0065528371883685 6.9465677781001531 38.2657474921931922 S
atom 0.2526015656119007 -0.1870968120501547 40.5930952844199524 Ba
atom 5.1551365692088407 -0.2561789131692279 40.5925407518907235 Ba
atom 0.1835194644928280 4.7154381915467702 40.5936498169491813 Ba
atom 5.2170639752132759 4.7773655975511957 40.5930952844199524 Ba
atom -0.0420722653145849 0.1185006819115583 45.4355704305052299 Ba
atom 4.8495390752471232 0.0384949177572576 45.4350158979759016 Ba
atom -0.1220780294688863 5.0101120224732698 45.4361249630344659 Ba
atom 4.9223901442867692 5.0829630915129265 45.4355704305052299 Ba
atom 2.5108581827656331 2.4567801859665002 43.2165477934520155 Zr
atom 7.4757219807935380 2.4500268792783966 43.2159932609227511 Zr
atom 2.5041048760775171 7.4216439839944073 43.2171023259812941 Zr
atom 7.4753205923669750 7.4212425955678718 43.2165477934520155 Zr
atom 2.7093986327669120 2.6590728082070645 40.6296728888043290 S
atom 7.2734293585529590 2.2514864292771195 40.6291183562750788 S
atom 2.3018122538369612 7.2231035339931182 40.6302274213336574 S
atom 7.6738610423682596 7.6235352178084410 40.6296728888043290 S
atom 2.3952919213753643 2.2831001739275876 45.7371348264610802 S
atom 7.6494019928324430 2.5655931406686618 45.7365802939317803 S
atom 2.6777848881164341 7.5372102453846637 45.7376893589903304 S
atom 7.3597543309767159 7.2475625835289490 45.7371348264610802 S
atom 2.8754678686544950 -0.0398171975461699 42.9097427233575317 S
atom 7.1503333846308674 -0.0407523840370654 43.3211115802627020 S
atom 2.1787162799148745 4.9308647206789509 43.3222206453211029 S
atom 7.8399302782558600 4.9246452120551831 42.9097427233575317 S
atom 0.0362398499888430 2.0925718885041888 42.9102972558868032 S
atom 5.0016374460810988 2.7821687821291619 43.3216661127918954 S
atom 0.0300203413650876 7.7537858868451766 43.3227751778504171 S
atom 5.0007022595901969 7.0570342981055214 42.9102972558868032 S
atom 2.5215083349249499 2.3665256580794241 48.8585620130035991 Ba
atom 7.5659765086806106 2.4393767271190780 48.8580074804742353 Ba
atom 2.5943594039646101 7.4109938318350714 48.8591165455327996 Ba
atom 7.4859707445263322 7.3309880676807690 48.8585620130035991 Ba
atom 2.2268345039984667 2.6721231520411379 53.7010371590886706 Ba
atom 7.2603790147189011 2.7340505580455612 53.7004826265594559 Ba
atom 2.2887619100028895 7.7056676627615568 53.7015916916180061 Ba
atom 7.1912969135998352 7.6365855616424829 53.7010371590886706 Ba
atom 4.9330402964461042 4.9927085636258317 51.0775846500567212 Zr
atom 9.9042560127355461 4.9923071751992856 51.0770301175273502 Zr
atom 4.9326389080195554 9.9639242799152612 51.0781391825859856 Zr
atom 9.8975027060474670 9.9571709732271767 51.0775846500567212 Zr
atom 4.8893900698987043 5.0044367806700105 56.1805489637963618 Zr
atom 9.8925277956913948 5.0359574017466722 56.1799944312670974 Zr
atom 4.9209106909753686 10.0075745064626869 56.1811034963256830 Zr
atom 9.8538524795000608 9.9688991902713671 56.1805489637963618 Zr
atom 5.0486065578363704 5.1663885756647394 48.5569976170476849 S
atom 9.7305760006966100 4.8767409138090221 48.5564430845184347 S
atom 4.7589588959806237 9.8483580185250350 48.5575521495769777 S
atom 10.0130689674377304 10.1308509852661057 48.5569976170476920 S
atom 4.7344998464448009 4.7904159413852625 53.6644595547043792 S
atom 10.1065486349761411 5.1908476252005729 53.6639050221751503 S
atom 5.1349315302601370 10.1624647299165858 53.6650140872336578 S
atom 9.6989622560461406 9.7548783509866119 53.6644595547043792 S
atom 5.2651821992968753 2.5186240289134005 50.9719117981875769 S
atom 9.5400477152732233 2.5176888424224995 51.3832806550927330 S
atom 4.5684306105572308 7.4893059471385088 51.3843897201512405 S
atom 10.2296446088982282 7.4830864385147429 50.9719117981875769 S
atom 5.4248707793578914 2.5266002285628453 56.3819333466252601 S
atom 9.4295811952679127 2.5235394200206609 56.0278304187863796 S
atom 4.4579640905518518 7.4951565247366734 56.0289394838448374 S
atom 10.3893331889592471 7.4910626381641894 56.3819333466252601 S
atom 2.4422610331306291 4.6673199674631567 50.9724663307168555 S
atom 7.4076586292228885 5.3569168610881723 51.3838351876219406 S
atom 2.4360415245068716 10.3285339658041622 51.3849442526804836 S
atom 7.4067234427319919 9.6317823770644999 50.9724663307168555 S
atom 2.4342848334811844 4.5076313874021539 56.3824878791545530 S
atom 7.4018080516247222 5.4673833810935299 56.0283849513155729 S
atom 2.4301909469087204 10.4390004858094798 56.0294940163741302 S
atom 7.3987472430825507 9.4720937970035077 56.3824878791545530 S
atom 2.4822733611088195 2.4064719889551549 58.7442798363700902 Ba
atom 7.5260301778048886 2.4786117009352164 58.7437253038406766 Ba
atom 2.5544130730888779 7.4502288056512223 58.7448343688991557 Ba
atom 7.4467357707101822 7.3709343985565008 58.7442798363700902 Ba
atom 2.5258101489488447 2.4926402134399535 63.8345307627891003 Ba
atom 7.4398619533200838 2.4350749130951805 63.8339762302598572 Ba
atom 2.4682448486040656 7.4066920178111983 63.8350852953184216 Ba
atom 7.4902725585501919 7.4571026230413251 63.8345307627891003 Ba
atom 4.9694115240711012 4.9699674304671841 61.2755152427365175 Zr
atom 9.9269971458941946 4.9559359475742868 61.2749607102073668 Zr
atom 4.9553800411781950 9.9275530522903033 61.2760697752658459 Zr
atom 9.9338739336724551 9.9344298400685851 61.2755152427365175 Zr
atom 4.9635939260783299 4.9653978093789917 66.3780107845911687 Zr
atom 9.9315667669823799 4.9617535455670509 66.3774562520619185 Zr
atom 4.9599496622664088 9.9333706502830772 66.3785653171204331 Zr
atom 9.9280563356796954 9.9298602189803375 66.3780107845911687 Zr
atom 5.0406231557821277 5.1273304069368892 58.7404193619533004 S
atom 9.7696341694244921 4.8847243158632399 58.7398648294240999 S
atom 4.7980170647085147 9.8563414205792661 58.7409738944825790 S
atom 10.0050855653834354 10.0917928165382520 58.7404193619533004 S
atom 4.9023672718001201 4.9362323382490363 63.8338676057587477 S
atom 9.9607322381123300 5.0229801998452626 63.8333130732294549 S
atom 4.9891151333963490 9.9945973045612817 63.8344221382879127 S
atom 9.8668296814014784 9.9006947478503928 63.8338676057587477 S
atom 4.4610547114582850 2.4878374418308629 61.2326559579052159 S
atom 10.4618644887412451 2.4853296799818838 61.3486771759081364 S
atom 5.4902473840252313 7.4569467846978776 61.3497862409668002 S
atom 9.4255171210596398 7.4522998514322003 61.2326559579052159 S
atom 5.4870286035714892 2.4851197994637819 66.4081750108471738 S
atom 9.4090792474080835 2.4813284031101825 66.3597637131278049 S
atom 4.4374621426920591 7.4529455078261844 66.3608727781863905 S
atom 10.4514910131728627 7.4495822090651416 66.4081750108471738 S
atom 2.4730476202131757 5.4714474553017274 61.2332104904344305 S
atom 7.4400177916635206 4.4351000876201558 61.3492317084375145 S
atom 2.4684006869474953 9.4067171923361510 61.3503407734960291 S
atom 7.4375100298145354 10.4359098649030759 61.2332104904344234 S
atom 2.4757652625802580 4.4454735631885463 66.4087295433763671 S
atom 7.4440190685351997 5.4878853289533307 66.3603182456570835 S
atom 2.4724019638191908 10.4595024336693072 66.3614273107156833 S
atom 7.4402276721815985 9.4099359727898992 66.4087295433763671 S
atom 2.4704269594207964 2.4695743213184325 68.9318394715392770 Ba
atom 7.4629278454416044 2.4904581026232289 68.9312849390101974 Ba
atom 2.4913107407255946 7.4620752073392342 68.9323940040687120 Ba
atom 7.4348893690221489 7.4340367309197832 68.9318394715392770 Ba
atom 2.4897976645694566 2.4991258738940285 74.0302322976512528 Ba
atom 7.4333762928660052 2.4710873974745802 74.0296777651220879 Ba
atom 2.4617591881500038 7.4427045021905824 74.0307868301805598 Ba
atom 7.4542600741708167 7.4635882834953868 74.0302322976512528 Ba
atom 4.9623435167957926 4.9665813024069099 71.4810358845953147 Zr
atom 9.9303832739544813 4.9630039548495848 71.4804813520660645 Zr
atom 4.9587661692384790 9.9346210595656093 71.4815904171246501 Zr
atom 9.9268059263971633 9.9310437120082522 71.4810358845953147 Zr
atom 4.9610931075132791 4.9677647954348227 76.5840609845994038 Zr
atom 9.9291997809265666 4.9642543641321009 76.5835064520702815 Zr
atom 4.9575826762105599 9.9358714688481271 76.5846155171287251 Zr
atom 9.9255555171146295 9.9322272050361704 76.5840609845994038 Zr
atom 4.9831841662052998 4.9943208535349610 68.9318105424802638 S
atom 9.9026437228263759 4.9421633054400917 68.9312560099509852 S
atom 4.9310266181104181 9.9137804101560949 68.9323650750096419 S
atom 9.9476465758066279 9.9587832631363540 68.9318105424802496 S
atom 4.9415028673863075 4.9388417512788463 74.0302612267105360 S
atom 9.9581228250825902 4.9838446042590707 74.0297066941809874 S
atom 4.9865057203665479 9.9554617089750952 74.0308157592396299 S
atom 9.9059652769876703 9.9033041608801753 74.0302612267105502 S
atom 4.4406421260757662 2.4824911261470737 71.4629034243453702 S
atom 10.4556620122318282 2.4790543739507318 71.4980592797867587 S
atom 5.4840449075158366 7.4506714786667354 71.4991683448452164 S
atom 9.4051045356771379 7.4469535357484293 71.4629034243453702 S
atom 5.4872248908995367 2.4802170969876247 76.6011989910041819 S
atom 9.4092755347361017 2.4764257006340333 76.5527876932851541 S
atom 4.4376584300201172 7.4480428053500409 76.5538967583436545 S
atom 10.4516873005008701 7.4446795065889884 76.6011989910041819 S
atom 2.4783939358969547 5.4918600406842568 71.4634579568746204 S
atom 7.4462930976946415 4.4413025641295398 71.4986138123160373 S
atom 2.4746759929786344 9.4129196688455679 71.4997228773746940 S
atom 7.4428563454983205 10.4563224502856080 71.4634579568746062 S
atom 2.4806679650563987 4.4452772758604846 76.6017535235335600 S
atom 7.4489217710113405 5.4876890416252699 76.5533422258141343 S
atom 2.4773046662953400 10.4593061463412802 76.5544512908728620 S
atom 7.4451303746577517 9.4097396854618616 76.6017535235335600 S
atom 2.4344144750413927 2.4760599817725120 79.1275410064017564 Ba
atom 7.4564421849875329 2.5264705870026316 79.1269864738724351 Ba
atom 2.4848250802715204 7.4980876917186210 79.1280955389310066 Ba
atom 7.3988768846427790 7.4405223913738565 79.1275410064017564 Ba
atom 2.4779512628814229 2.5622282062573132 84.2177919328204894 Ba
atom 7.3702739605027290 2.4829337991626024 84.2172374002915092 Ba
atom 2.3986568557867129 7.4545509038786077 84.2183464653498959 Ba
atom 7.4424136724827701 7.5266906158586693 84.2177919328204894 Ba
atom 4.9552755095205070 4.9631951743466303 81.6865565264541686 Zr
atom 9.9337694020147929 4.9700719621248828 81.6860019939248616 Zr
atom 4.9621522972987444 9.9416890668408726 81.6871110589833336 Zr
atom 9.9197379191218520 9.9276575839479460 81.6865565264541686 Zr
atom 5.0352969636928933 4.9287258241438066 86.7815228053944452 Zr
atom 9.9682387522176032 4.8900505079525010 86.7809682728652518 Zr
atom 4.9966216475015734 9.8616676126684677 86.7820773379238233 Zr
atom 9.9997593732942818 9.8931882337451480 86.7815228053944452 Zr
atom 5.0223197617914845 4.9969302665647861 79.1282041634319171 S
atom 9.9000343097966041 4.9030277098539026 79.1276496309026669 S
atom 4.9284172050806037 9.8746448145699262 79.1287586959612241 S
atom 9.9867821713928251 9.9613926761661080 79.1282041634319171 S
atom 4.8840638778094636 4.8058321978769278 84.2216524072374142 S
atom 10.0911323784844900 5.0412835938359164 84.2210978747079935 S
atom 5.1195152737684673 10.0129006985519116 84.2222069397665933 S
atom 9.8485262874108255 9.7702946074782719 84.2216524072374284 S
atom 4.4344396495663689 2.4762158201159266 81.6122855282240636 S
atom 10.4352494268493334 2.4737080582669519 81.7283067462268065 S
atom 5.4636323221333063 7.4453251629829627 81.7294158112853495 S
atom 9.3989020591677424 7.4406782297172951 81.6122855282240636 S
atom 5.4667229430397750 2.4380060800771486 86.9331322853456498 S
atom 9.4714333589497475 2.4349452715349682 86.5790293575066414 S
atom 4.4998162542337177 7.4065623762509754 86.5801384225651987 S
atom 10.4311853526411014 7.4024684896784896 86.9331322853456498 S
atom 2.4846692419281013 5.4980625171936497 81.6128400607532143 S
atom 7.4516394133784178 4.4617151495120773 81.7288612787561703 S
atom 2.4800223086624316 9.4333322542281053 81.7299703438145286 S
atom 7.4491316515294548 10.4625249267949982 81.6128400607532143 S
atom 2.5228789819668838 4.4657792237202818 86.9336868178749143 S
atom 7.4904022001104149 5.4255312174116712 86.5795838900359058 S
atom 2.5187850953944046 10.3971483221276770 86.5806929550944346 S
atom 7.4873413915682194 9.4302416333216659 86.9336868178749143 S
atom 2.7333901199917747 2.2965770431713293 89.2610346101019303 Ba
atom 7.6359251235887138 2.2274949420522510 89.2604800775727085 Ba
atom 2.6643080188726991 7.1991120467682537 89.2615891426310242 Ba
atom 7.6978525295931330 7.2610394527726800 89.2610346101019303 Ba
atom 2.4387162890652934 2.6021745371330383 94.1035097561871510 Ba
atom 7.3303276296269972 2.5221687729787328 94.1029552236578155 Ba
atom 2.3587105249109879 7.4937858776947390 94.1040642887165575 Ba
atom 7.4031786986666566 7.5666369467343895 94.1035097561871510 Ba
atom 4.9916467371455049 4.9404540411879809 91.8844871191341497 Zr
atom 9.9565105351734609 4.9337007344998813 91.8839325866047858 Zr
atom 4.9848934304574062 9.9053178392158685 91.8850416516633999 Zr
atom 9.9561091467468490 9.9049164507893330 91.8844871191341497 Zr
atom 5.1901871871467744 5.1427466634285688 89.2976122144863780 S
atom 9.7542179129328375 4.7351602844986056 89.2970576819572699 S
atom 4.7826008082168379 9.7067773892146061 89.2981667470157134 S
atom 10.1546495967482038 10.1072090730298854 89.2976122144863780 S
atom 4.8760804757552272 4.7667740291490723 94.4050741521428876 S
atom 10.1301905472123064 5.0492669958901493 94.4045196196137226 S
atom 5.1585734424963032 10.0208841006061782 94.4056286846723367 S
atom 9.8405428853566104 9.7312364387503969 94.4050741521428876 S
atom 5.3562564230343606 2.4438566576753082 91.5776820490393533 S
atom 9.6311219390107219 2.4429214711844072 91.9890509059445804 S
atom 4.6595048342947294 7.4145385759004192 91.9901599710031235 S
atom 10.3207188326357233 7.4083190672766728 91.5776820490393533 S
atom 2.5170284043687210 4.5762457437256607 91.5782365815686603 S
atom 7.4824260004609675 5.2658426373506568 91.9896054384739443 S
atom 2.5108088957449648 10.2374597420666280 91.9907145035324447 S
atom 7.4814908139700700 9.5407081533270137 91.5782365815686603 S
