#=======================================================
# FHI-aims file: sym_relax/sym_relax_RP_3_00Mz_00Mz.in
# Created using the Atomic Simulation Environment (ASE)
# Fri Mar 14 10:22:21 2025
#=======================================================
lattice_vector 9.9102514221498268 0.0000014603365982 0.0000000000000000 
lattice_vector 0.0000014603365982 9.9102514221498321 -0.0000000000000000 
lattice_vector 0.0000000000000000 -0.0000000000000000 36.4535894262301454 
atom 0.0000000000000000 -0.0000000000000000 0.1681474961045647 Ba
atom 4.9551257110749161 0.0000007301682997 0.1681474961045646 Ba
atom 0.0000007301682993 4.9551257110749161 0.1681474961045645 Ba
atom 4.9551264412432134 4.9551264412432179 0.1681474961045646 Ba
atom 0.0000000000000000 -0.0000000000000000 5.0644093882437051 Ba
atom 4.9551257110749161 0.0000007301682993 5.0644093882437051 Ba
atom 0.0000007301682993 4.9551257110749161 5.0644093882437051 Ba
atom 4.9551264412432134 4.9551264412432170 5.0644093882437051 Ba
atom 2.4775632206216067 2.4775632206216094 2.4502760413316418 Zr
atom 7.4326889316965188 2.4775639507899072 2.4502760413316418 Zr
atom 2.4775639507899059 7.4326889316965241 2.4502760413316418 Zr
atom 7.4326896618648179 7.4326896618648277 2.4502760413316418 Zr
atom 2.4775632206216067 2.4775632206216094 7.5944977971312841 Zr
atom 7.4326889316965188 2.4775639507899072 7.5944977971312841 Zr
atom 2.4775639507899059 7.4326889316965241 7.5944977971312841 Zr
atom 7.4326896618648179 7.4326896618648277 7.5944977971312841 Zr
atom 2.4775632206216067 2.4775632206216089 -0.0969194890396103 S
atom 7.4326889316965188 2.4775639507899072 -0.0969194890396103 S
atom 2.4775639507899059 7.4326889316965232 -0.0969194890396103 S
atom 7.4326896618648179 7.4326896618648268 -0.0969194890396105 S
atom 2.4775632206216067 2.4775632206216094 5.0437111085761757 S
atom 7.4326889316965188 2.4775639507899072 5.0437111085761757 S
atom 2.4775639507899059 7.4326889316965241 5.0437111085761757 S
atom 7.4326896618648179 7.4326896618648277 5.0437111085761757 S
atom 2.0542813436734062 0.0000024075151900 2.5328504942206753 S
atom 7.8559700784764237 -0.0000009471785919 2.5328504942206753 S
atom 2.9008450975698099 4.9551240337280227 2.5328504942206753 S
atom 7.0094077849166148 4.9551288487584113 2.5328504942206753 S
atom 3.0118364784191374 -0.0000003622395399 7.5944977971312841 S
atom 6.8984149437306854 0.0000018225761389 7.5944977971312841 S
atom 1.9432899628240714 4.9551268034827523 7.5944977971312841 S
atom 7.9669629196623530 4.9551260790036791 7.5944977971312841 S
atom -0.0000016773468912 2.9008443674015130 2.5328504942206753 S
atom 4.9551281185901122 2.0542820738417049 2.5328504942206753 S
atom 0.0000031376834898 7.0094070547483227 2.5328504942206753 S
atom 4.9551247638963245 7.8559708086447282 2.5328504942206753 S
atom 0.0000010924078396 1.9432892326557751 7.5944977971312841 S
atom 4.9551253488353790 3.0118372085874410 7.5944977971312841 S
atom 0.0000003679287589 7.9669621894940672 7.5944977971312841 S
atom 4.9551275336510523 6.8984156738989908 7.5944977971312841 S
atom 0.0000000000000000 -0.0000000000000000 10.1245862060188543 Ba
atom 4.9551257110749161 0.0000007301682993 10.1245862060188543 Ba
atom 0.0000007301682993 4.9551257110749169 10.1245862060188543 Ba
atom 4.9551264412432134 4.9551264412432188 10.1245862060188543 Ba
atom 0.0000000000000000 -0.0000000000000000 15.0208480981579999 Ba
atom 4.9551257110749161 0.0000007301682993 15.0208480981579999 Ba
atom 0.0000007301682993 4.9551257110749169 15.0208480981579999 Ba
atom 4.9551264412432134 4.9551264412432188 15.0208480981579999 Ba
atom 2.4775632206216067 2.4775632206216094 12.7387195529309185 Zr
atom 7.4326889316965188 2.4775639507899077 12.7387195529309185 Zr
atom 2.4775639507899059 7.4326889316965250 12.7387195529309185 Zr
atom 7.4326896618648179 7.4326896618648259 12.7387195529309185 Zr
atom 2.4775632206216067 2.4775632206216094 10.1452844856863820 S
atom 7.4326889316965188 2.4775639507899077 10.1452844856863820 S
atom 2.4775639507899059 7.4326889316965250 10.1452844856863820 S
atom 7.4326896618648179 7.4326896618648259 10.1452844856863820 S
atom 2.4775632206216067 2.4775632206216094 15.2859150833021822 S
atom 7.4326889316965188 2.4775639507899077 15.2859150833021822 S
atom 2.4775639507899059 7.4326889316965250 15.2859150833021822 S
atom 7.4326896618648179 7.4326896618648259 15.2859150833021822 S
atom 2.0542813436734062 0.0000024075151918 12.6561451000418934 S
atom 7.8559700784764237 -0.0000009471785915 12.6561451000418934 S
atom 2.9008450975698099 4.9551240337280245 12.6561451000418934 S
atom 7.0094077849166148 4.9551288487584113 12.6561451000418934 S
atom -0.0000016773468912 2.9008443674015139 12.6561451000418934 S
atom 4.9551281185901122 2.0542820738417058 12.6561451000418934 S
atom 0.0000031376834898 7.0094070547483209 12.6561451000418934 S
atom 4.9551247638963245 7.8559708086447273 12.6561451000418934 S
atom 2.4775632206216067 2.4775632206216103 18.3949422092196464 Ba
atom 7.4326889316965188 2.4775639507899077 18.3949422092196464 Ba
atom 2.4775639507899059 7.4326889316965250 18.3949422092196464 Ba
atom 7.4326896618648179 7.4326896618648268 18.3949422092196464 Ba
atom 2.4775632206216067 2.4775632206216094 23.2912041013587654 Ba
atom 7.4326889316965188 2.4775639507899077 23.2912041013587654 Ba
atom 2.4775639507899059 7.4326889316965232 23.2912041013587654 Ba
atom 7.4326896618648179 7.4326896618648268 23.2912041013587654 Ba
atom 4.9551264412432134 4.9551264412432188 20.6770707544467314 Zr
atom 9.9102521523181242 4.9551271714115179 20.6770707544467314 Zr
atom 4.9551271714115197 9.9102521523181295 20.6770707544467314 Zr
atom 9.9102528824864269 9.9102528824864358 20.6770707544467314 Zr
atom 4.9551264412432134 4.9551264412432188 25.8212925102463586 Zr
atom 9.9102521523181242 4.9551271714115179 25.8212925102463586 Zr
atom 4.9551271714115197 9.9102521523181295 25.8212925102463586 Zr
atom 9.9102528824864269 9.9102528824864358 25.8212925102463586 Zr
atom 4.9551264412432134 4.9551264412432188 18.1298752240754730 S
atom 9.9102521523181242 4.9551271714115170 18.1298752240754730 S
atom 4.9551271714115197 9.9102521523181277 18.1298752240754730 S
atom 9.9102528824864269 9.9102528824864358 18.1298752240754730 S
atom 4.9551264412432134 4.9551264412432188 23.2705058216912661 S
atom 9.9102521523181242 4.9551271714115179 23.2705058216912661 S
atom 4.9551271714115197 9.9102521523181295 23.2705058216912661 S
atom 9.9102528824864269 9.9102528824864358 23.2705058216912661 S
atom 5.3784075880231130 2.4775615432747187 20.7596452073357547 S
atom 9.4869702753699254 2.4775663583050989 20.7596452073357547 S
atom 4.5318452944633183 7.4326913392117193 20.7596452073357547 S
atom 10.3335340292663265 7.4326879845179263 20.7596452073357547 S
atom 4.4208524532773845 2.4775643130294474 25.8212925102463586 S
atom 10.4445254101156610 2.4775635885503693 25.8212925102463586 S
atom 5.4894004292090477 7.4326885694569915 25.8212925102463586 S
atom 9.3759788945205802 7.4326907542726639 25.8212925102463586 S
atom 2.4775656281367948 4.5318445642950156 20.7596452073357547 S
atom 7.4326872543496236 5.3784083181914175 20.7596452073357547 S
atom 2.4775622734430165 10.3335332990980415 20.7596452073357547 S
atom 7.4326920693800060 9.4869710055382335 20.7596452073357547 S
atom 2.4775628583820675 5.4893996990407503 25.8212925102463586 S
atom 7.4326900241043594 4.4208531834456775 25.8212925102463586 S
atom 2.4775650431977456 9.3759781643523112 25.8212925102463586 S
atom 7.4326892996252765 10.4445261402839655 25.8212925102463586 S
atom 2.4775632206216067 2.4775632206216094 28.3513809191339305 Ba
atom 7.4326889316965188 2.4775639507899077 28.3513809191339305 Ba
atom 2.4775639507899059 7.4326889316965250 28.3513809191339305 Ba
atom 7.4326896618648179 7.4326896618648277 28.3513809191339305 Ba
atom 2.4775632206216067 2.4775632206216094 33.2476428112730673 Ba
atom 7.4326889316965188 2.4775639507899077 33.2476428112730673 Ba
atom 2.4775639507899059 7.4326889316965250 33.2476428112730673 Ba
atom 7.4326896618648179 7.4326896618648277 33.2476428112730673 Ba
atom 4.9551264412432134 4.9551264412432188 30.9655142660460072 Zr
atom 9.9102521523181242 4.9551271714115179 30.9655142660460072 Zr
atom 4.9551271714115197 9.9102521523181295 30.9655142660460072 Zr
atom 9.9102528824864269 9.9102528824864375 30.9655142660460072 Zr
atom 4.9551264412432134 4.9551264412432188 28.3720791988014582 S
atom 9.9102521523181242 4.9551271714115179 28.3720791988014582 S
atom 4.9551271714115197 9.9102521523181295 28.3720791988014582 S
atom 9.9102528824864269 9.9102528824864375 28.3720791988014582 S
atom 4.9551264412432134 4.9551264412432188 33.5127097964172407 S
atom 9.9102521523181242 4.9551271714115179 33.5127097964172407 S
atom 4.9551271714115197 9.9102521523181295 33.5127097964172407 S
atom 9.9102528824864269 9.9102528824864375 33.5127097964172407 S
atom 5.3784075880231130 2.4775615432747191 30.8829398131569981 S
atom 9.4869702753699254 2.4775663583051002 30.8829398131569981 S
atom 4.5318452944633183 7.4326913392117211 30.8829398131569981 S
atom 10.3335340292663265 7.4326879845179281 30.8829398131569981 S
atom 2.4775656281367948 4.5318445642950156 30.8829398131569981 S
atom 7.4326872543496236 5.3784083181914184 30.8829398131569981 S
atom 2.4775622734430165 10.3335332990980433 30.8829398131569981 S
atom 7.4326920693800060 9.4869710055382335 30.8829398131569981 S
