#=======================================================
# FHI-aims file: sym_relax/sym_relax_RP_7_RxRyRz_-Rx-Ry-Rz.in
# Created using the Atomic Simulation Environment (ASE)
# Mon Mar 17 15:55:14 2025
#=======================================================
lattice_vector 9.9609561402086157 0.0004607252639087 -0.0013027642465866 
lattice_vector 0.0004607252639083 9.9609561402086388 0.0013027642465866 
lattice_vector -0.0055089408113955 0.0055089408113937 76.6821719456758899 
atom 0.0527395215285812 -0.1068215863119320 0.2020727077423267 Ba
atom 5.0872996564162687 -0.0525091588966263 0.2014213256190334 Ba
atom 0.1070519489438853 4.9277385485757543 0.2027240898656203 Ba
atom 5.0334479542648545 4.8738868464243570 0.2020727077423266 Ba
atom -0.2647603640560487 0.2048887933041176 5.0145374892720893 Ba
atom 4.7755892768001980 0.2649907266880017 5.0138861071488110 Ba
atom -0.2046584306721641 5.2452384341603802 5.0151888713953934 Ba
atom 4.7159480686802215 5.1855972260403984 5.0145374892720893 Ba
atom 2.4628326913184964 2.5270639293948873 2.3929095760125603 Zr
atom 7.4341225734457179 2.5181061040497328 2.3922581938892589 Zr
atom 2.4538748659733502 7.4983538115221080 2.3935609581358488 Zr
atom 7.4435411240547911 7.5077723621311678 2.3929095760125603 Zr
atom 2.4083519247386072 2.5359804814119968 7.4805458819631356 Zr
atom 7.4252060214286182 2.5725868706296318 7.4798944998398422 Zr
atom 2.4449583139562341 7.5528345781019999 7.4811972640864282 Zr
atom 7.3890603574748717 7.5166889141482791 7.4805458819631365 Zr
atom 2.6211597057666953 2.7542225529995155 -0.1205520917834146 S
atom 7.2069639498410831 2.3597790896015369 -0.1212034739067076 S
atom 2.2267162423687217 7.3400267970739295 -0.1199007096601214 S
atom 7.6018681385029518 7.7349309857358053 -0.1205520917834148 S
atom 2.2331023623977933 2.2913231548995472 4.9708470061913399 S
atom 7.6698633479410514 2.7478364329704483 4.9701956240680483 S
atom 2.6896156404686895 7.7280841404428351 4.9714983883146315 S
atom 7.2138107951340560 7.2720315876358201 4.9708470061913399 S
atom 2.7360757962256304 0.0431349299574069 2.2543092766639470 S
atom 7.0981639138456751 0.0466261954942420 2.7393581600562373 S
atom 2.1179162063733226 5.0268739029666074 2.7406609243028295 S
atom 7.7167842289619095 5.0238433626936905 2.2543092766639470 S
atom 2.9239625455368015 0.0504806041015133 7.7011309919303983 S
atom 6.9802975933380518 0.0519547452586815 7.3041393092039897 S
atom 2.0000498858656783 5.0322024527310596 7.3054420734505712 S
atom 7.9046709782730726 5.0311890368377892 7.7011309919303956 S
atom -0.0429045673254520 2.2444022738786908 2.2549606587872422 S
atom 4.9343125998740085 2.8630225889949230 2.7400095421795299 S
atom -0.0459351075983798 7.8432702964673036 2.7413123064261198 S
atom 4.9378038654108245 7.2251107066149780 2.2549606587872426 S
atom -0.0502502414695596 2.0565155245675215 7.7017823740536917 S
atom 4.9289840501095545 2.9808889095025504 7.3047906913272787 S
atom -0.0512636573628196 7.9611366169749340 7.3060934555738681 S
atom 4.9304581912667214 7.0372239573038042 7.7017823740536953 S
atom -0.0037533938249574 -0.0758128503840109 10.0369558367474596 Ba
atom 5.0562909204883377 0.0039837564569105 10.0363044546241778 Ba
atom 0.0760432130159646 4.9842314639292926 10.0376072188707433 Ba
atom 4.9769550389113153 4.9048955823522755 10.0369558367474561 Ba
atom 0.0546850865118962 0.0204229350130718 15.1139872336402394 Ba
atom 4.9600551350912614 -0.0544547238799424 15.1133358515169345 Ba
atom -0.0201925723811179 4.9257929835924434 15.1146386157635195 Ba
atom 5.0353935192481618 5.0011313677493670 15.1139872336402430 Ba
atom 2.4974092372774508 2.4949800534611124 12.5637116978166166 Zr
atom 7.4662064493794880 2.4835295580907917 12.5630603156933205 Zr
atom 2.4859587419071270 7.4637772655631576 12.5643630799399055 Zr
atom 7.4781176700137371 7.4756884861973960 12.5637116978166148 Zr
atom 2.4890857102602428 2.4916227224760275 17.6570790664385413 Zr
atom 7.4695637803645711 2.4918530851079845 17.6564276843152825 Zr
atom 2.4893160728921981 7.4721007925803562 17.6577304485618356 Zr
atom 7.4697941429965145 7.4723311552123066 17.6570790664385378 Zr
atom 2.5845469793445450 2.6753773076875031 10.0317368140081928 S
atom 7.2858091951530879 2.3963918160236788 10.0310854318848808 S
atom 2.3055614876807233 7.3766395234960598 10.0323881961314854 S
atom 7.5652554120808286 7.6560857404237863 10.0317368140081928 S
atom 2.4100600139420409 2.4362950385155187 15.1136747490929721 S
atom 7.5248914643250755 2.5708787814261882 15.1130233669696636 S
atom 2.5446437568527149 7.5511264888985767 15.1143261312162807 S
atom 7.3907684466783161 7.4170034712517987 15.1136747490929721 S
atom 2.0020168449760734 0.0059377212889657 12.4997257942930240 S
atom 7.9880912539723834 0.0070463223555913 12.6505190256840052 S
atom 3.0078435465000237 4.9872940298279662 12.6518217899306080 S
atom 6.9827252777123450 4.9866461540252551 12.4997257942930240 S
atom 3.0009699666997722 0.0013871828859342 17.7024353882836536 S
atom 6.9574491612930789 0.0016105545937470 17.6104199803468759 S
atom 1.9772014538207223 4.9818582620661154 17.6117227445934468 S
atom 7.9816783994360598 4.9820956156222378 17.7024353882836571 S
atom -0.0057073586570117 2.9784612251282607 12.5003771764163005 S
atom 4.9738924730126293 1.9730952488682065 12.6511704078072977 S
atom -0.0063552344597297 6.9533429563405926 12.6524731720538881 S
atom 4.9750010740792732 7.9591696578645399 12.5003771764163005 S
atom -0.0011568202539802 1.9795081034045463 17.7030867704069266 S
atom 4.9793282407744917 3.0037373415475113 17.6110713624702342 S
atom -0.0009194666978847 7.9839850490198936 17.6123741267167446 S
atom 4.9795516124822878 6.9602165361408295 17.7030867704069337 S
atom -0.0572220987276691 -0.0178859227972985 20.2001708992369160 Ba
atom 4.9983639929016217 0.0574524613596235 20.1995195171136039 Ba
atom 0.0181162854292524 5.0377001688319938 20.2008222813602245 Ba
atom 4.9234863340086141 4.9628225099389907 20.2001708992369160 Ba
atom 0.0012163816091841 0.0783498625997841 25.2772022961296940 Ba
atom 4.9021282075045356 -0.0009860189772298 25.2765509140063820 Ba
atom -0.0781194999678299 4.9792616884951535 25.2778536782529670 Ba
atom 4.9819248143454500 5.0590582953360750 25.2772022961296940 Ba
atom 2.4807621832430522 2.4882653914909509 22.7504464350604749 Zr
atom 7.4729211113496383 2.5001766121251809 22.7497950529371771 Zr
atom 2.4926734038772884 7.4804243195975628 22.7510978171837905 Zr
atom 7.4614706159793336 7.4689738242272341 22.7504464350604749 Zr
atom 2.5698194957818945 2.4472649635400674 27.8336122509139727 Zr
atom 7.5139215393005534 2.4111192995863342 27.8329608687906322 Zr
atom 2.5336738318281706 7.3913670070587143 27.8342636330372493 Zr
atom 7.5505279285181786 7.4279733962763528 27.8336122509139727 Zr
atom 2.5681114065784616 2.5469504064365416 20.2004833837841780 S
atom 7.4142360964040721 2.4128273887897720 20.1998320016608588 S
atom 2.4339883889316916 7.3930750962621534 20.2011347659074438 S
atom 7.5488198393147252 7.5276588391728270 20.2004833837841780 S
atom 2.3936244411759469 2.3078681372645593 25.2824213188689590 S
atom 7.6533183655760348 2.5873143541922814 25.2817699367456576 S
atom 2.6730706581036858 7.5675620616646562 25.2830727009922249 S
atom 7.3743328739122278 7.2885765700008349 25.2824213188689590 S
atom 1.9703278740204708 -0.0040485848759100 22.6623363429465101 S
atom 7.9564022830168017 -0.0029399838092840 22.8131295743375269 S
atom 2.9761545755444252 4.9773077236630954 22.8144323385841226 S
atom 6.9510363067567376 4.9766598478603736 22.6623363429465101 S
atom 2.9781215346548171 -0.0489570077790007 28.0087160594265328 S
atom 7.0344565824560634 -0.0474828666218320 27.6117243767001384 S
atom 2.0542088749836895 4.9327648408505436 27.6130271409467483 S
atom 7.9588299673910603 4.9317514249572882 28.0087160594265328 S
atom 0.0042789475078644 3.0101501960838597 22.6629877250698115 S
atom 4.9838787791775108 2.0047842198238013 22.8137809564608141 S
atom 0.0036310717051462 6.9850319272961787 22.8150837207073813 S
atom 4.9849873802441378 7.9908586288201304 22.6629877250698151 S
atom 0.0491873704109543 2.0023565354494957 28.0093674415498732 S
atom 5.0284216619900564 2.9267299203845405 27.6123757588234042 S
atom 0.0481739545176943 7.9069776278569153 27.6136785230700035 S
atom 5.0298958031472187 6.9830649681857810 28.0093674415498732 S
atom 0.2622233518402752 -0.2023517810883453 30.2996206436050457 Ba
atom 5.1828298511926656 -0.2619929892083217 30.2989692614817088 Ba
atom 0.2025821437202983 4.7182547182640535 30.3002720257282974 Ba
atom 5.2429317845765571 4.7783566516479352 30.2996206436050493 Ba
atom -0.0552765337443543 0.1093585985277050 35.1120854251347154 Ba
atom 4.8711194715766135 0.0555068963763087 35.1114340430115419 Ba
atom -0.1091282358957510 5.0357546038486811 35.1127368072581092 Ba
atom 4.9254318989919126 5.0900670312639917 35.1120854251347154 Ba
atom 2.5153387292019973 2.4561815155571738 32.9212485568645619 Zr
atom 7.5050049872834270 2.4656000661662354 32.9205971747413102 Zr
atom 2.5247572798110545 7.4458477736386222 32.9218999389878846 Zr
atom 7.4960471619382707 7.4368899482934614 32.9212485568645619 Zr
atom 2.7450690581227217 2.6919222900525099 30.3433111266857800 S
atom 7.2692642127880722 2.2358697372455207 30.3426597445624964 S
atom 2.2890165053157174 7.2161174447179031 30.3439625088091027 S
atom 7.7257774908589942 7.6726307227887993 30.3433111266857800 S
atom 2.3570117147537957 2.2290228919525523 35.4347102246606411 S
atom 7.7321636108880467 2.6239270806144317 35.4340588425372758 S
atom 2.7519159034156919 7.6041747880867963 35.4353616067839070 S
atom 7.3377201474900975 7.2097313246888222 35.4347102246606411 S
atom 2.8602552141471791 -0.0436284580145605 32.5734972085743451 S
atom 7.2223433317672399 -0.0401371924777255 33.0585460919665692 S
atom 2.2420956242948713 4.9401105149946485 33.0598488562132644 S
atom 7.8409636468834583 4.9370799747217324 32.5734972085743451 S
atom 0.0438588206465150 2.1202228559571403 32.5741485906976109 S
atom 5.0210759878459541 2.7388431710733649 33.0591974740898280 S
atom 0.0408282803735875 7.7190908785457468 33.0605002383365374 S
atom 5.0245672533827879 7.1009312886934115 32.5741485906976109 S
atom 2.5944213322743765 2.4403691652452588 38.5431586805804045 Ba
atom 7.5208173375953393 2.3865174630938690 38.5425072984571386 Ba
atom 2.5405696301229774 7.3667651705662385 38.5438100627036206 Ba
atom 7.5751297650106491 7.4210775979815429 38.5431586805804045 Ba
atom 2.2827109526583227 2.7578690508298935 43.3556234621100884 Ba
atom 7.2033174520107099 2.6982278427099127 43.3549720799867799 Ba
atom 2.2230697445383396 7.6784755501822843 43.3562748442333543 Ba
atom 7.2634193853946059 7.7385774835661660 43.3556234621100884 Ba
atom 4.9412442493038320 5.0109844281916054 40.7339955488505439 Zr
atom 9.9309105073852795 5.0204029788006741 40.7333441667272282 Zr
atom 4.9506627999129158 10.0006506862730511 40.7346469309739163 Zr
atom 9.9219526820400876 9.9916928609279427 40.7339955488505439 Zr
atom 4.9323276972867278 5.0654651947715168 45.8216318548011330 Zr
atom 9.8764297408053459 5.0293195308177934 45.8209804726778600 Zr
atom 4.8961820333329964 10.0095672382901668 45.8222832369244060 Zr
atom 9.9130361300229950 10.0461736275078017 45.8216318548011330 Zr
atom 4.7140856256992052 4.8526574137434437 38.2205338810546280 S
atom 10.0892375218334465 5.2475616024053195 38.2198824989312271 S
atom 5.1089898143610846 10.2278093098777010 38.2211852631777802 S
atom 9.6947940584354821 9.8333658464797420 38.2205338810546280 S
atom 5.1769850237991832 5.2407147571123351 43.3119329790293364 S
atom 9.7011801784645471 4.7846622043053486 43.3112815969060279 S
atom 4.7209324709921860 9.7649099117777212 43.3125843611526875 S
atom 10.1576934565354478 10.2214231898486041 43.3119329790293364 S
atom 4.6052855897037981 2.5395045196361301 41.0810955150174664 S
atom 10.2041536122923677 2.5364739793632043 40.5947438673786394 S
atom 5.2239059048200120 7.5167216868355826 40.5960466316252422 S
atom 9.5859940224400955 7.5202129523724066 41.0810955150174664 S
atom 4.4874192691961641 2.5448330694005716 45.6458766641652929 S
atom 10.3920403616035451 2.5438196535073083 46.0415655826450774 S
atom 5.4117926541311938 7.5240673609796804 46.0428683468916589 S
atom 9.4681277019324206 7.5255415021368517 45.6458766641652929 S
atom 2.4414342757321026 5.3559009131368072 41.0817468971408033 S
atom 7.4251732487413147 4.7377413232844825 40.5953952495019053 S
atom 2.4449255412689421 9.7179890307568826 40.5966980137485720 S
atom 7.4221427084683986 10.3366093458730948 41.0817468971408033 S
atom 2.4361057259676620 5.4737672336444421 45.6465280462885588 S
atom 7.4178275745972053 4.5498545739733158 46.0422169647684285 S
atom 2.4375798671248292 9.5301022814456999 46.0435197290150029 S
atom 7.4168141587039411 10.4544756663807377 45.6465280462885588 S
atom 2.5634125963464474 2.4968620805987980 48.3780418095855254 Ba
atom 7.4643244222418126 2.4175261990217871 48.3773904274621174 Ba
atom 2.4840767147694360 7.3977739064941623 48.3786931917087486 Ba
atom 7.5441210290827216 7.4775705133350838 48.3780418095855254 Ba
atom 2.4671768109493644 2.4384236002619453 53.4550732064782892 Ba
atom 7.5227629025786644 2.5137619844188732 53.4544218243550304 Ba
atom 2.5425151951062883 7.4940096918912520 53.4557245886015480 Ba
atom 7.4478852436856471 7.4191320329982320 53.4550732064782892 Ba
atom 4.9733281252376162 4.9764078822326763 50.9047976706546450 Zr
atom 9.9654870533442228 4.9883191028669067 50.9041462885314004 Zr
atom 4.9852393458718502 9.9685668103392846 50.9054490527778967 Zr
atom 9.9540365579738790 9.9571163149689674 50.9047976706546450 Zr
atom 4.9766854562226825 4.9847314092498767 55.9981650392765928 Zr
atom 9.9571635263270011 4.9849617718818244 55.9975136571532985 Zr
atom 4.9769158188546445 9.9652094793542130 55.9988164213999013 Zr
atom 9.9573938889589488 9.9654398419861714 55.9981650392765928 Zr
atom 4.7929308710112091 4.8892701401655794 48.3728227868461929 S
atom 10.0526247954113312 5.1687163570933032 48.3721714047229128 S
atom 5.0723770879389445 10.1489640645656625 48.3734741689695156 S
atom 9.7736393037475207 9.8699785729018412 48.3728227868461929 S
atom 5.0320131401831816 5.0637571055680750 53.4547607219309597 S
atom 9.8781378300088107 4.9296340879213236 53.4541093398076725 S
atom 4.8978901225364257 9.9098817953936749 53.4554121040542469 S
atom 10.0127215729194763 10.0444655383043671 53.4547607219309597 S
atom 5.4952129298305179 2.4999246464974738 50.9922563806453439 S
atom 9.4700946610428325 2.4992767706947543 50.8401603850077279 S
atom 4.4898469535704599 7.4795244781671393 50.8414631492543450 S
atom 10.4759213625667851 7.4806330792337716 50.9922563806453439 S
atom 4.4645708371512089 2.4944888787356301 55.9521573353082502 S
atom 10.4690477827665251 2.4947262322917338 56.0428699789983042 S
atom 5.4888000752941783 7.4749739397641024 56.0441727432449213 S
atom 9.4452792698875019 7.4751973114719092 55.9521573353082502 S
atom 2.4810141488707584 4.4659735730100847 50.9929077627685743 S
atom 7.4623704574097474 5.4718002745340408 50.8408117671310364 S
atom 2.4821227499373881 10.4520479820064196 50.8421145313775966 S
atom 7.4617225816070301 9.4466820057463856 50.9929077627685743 S
atom 2.4864499166325991 5.4966156656893910 55.9528087174315516 S
atom 7.4669209958127682 4.4728471528103366 56.0435213611215914 S
atom 2.4866732883404135 9.4530948602827554 56.0448241253681800 S
atom 7.4671583493688898 10.4773240984257061 55.9528087174315516 S
atom 2.5054856687597398 2.5503307855015152 58.5412568720748823 Ba
atom 7.4108557173390901 2.4754531266084885 58.5406054899515169 Ba
atom 2.4306080098667238 7.4557008340808846 58.5419082541981268 Ba
atom 7.4861941014960101 7.5310392182377948 58.5412568720748752 Ba
atom 2.4092498833626568 2.4918923051646571 63.6182882689676319 Ba
atom 7.4692941976759455 2.5716889120055844 63.6176368868443589 Ba
atom 2.4890464902035800 7.5519366194779476 63.6189396510909546 Ba
atom 7.3899583160989453 7.4726007379009491 63.6182882689676319 Ba
atom 4.9800427872077648 4.9930549362670655 61.0915324078984696 Zr
atom 9.9488399993098078 4.9816044408967475 61.0908810257751611 Zr
atom 4.9685922918374406 9.9618521483691200 61.0921837900217852 Zr
atom 9.9607512199440276 9.9737633690033789 61.0915324078984696 Zr
atom 5.0210432151586630 4.9039976237282108 66.1746982237521308 Zr
atom 10.0378973118486581 4.9406040129458679 66.1740468416288365 Zr
atom 5.0576496043762846 9.9208517204182378 66.1753496058752688 Zr
atom 10.0017516478949275 9.8847060564645162 66.1746982237521308 Zr
atom 4.9213577722621826 4.9057057129316739 58.5415693566221620 S
atom 10.0361892226452269 5.0402894558423279 58.5409179744989245 S
atom 5.0559415151728544 10.0205371633147315 58.5422207387454847 S
atom 9.9020662049984445 9.8864141456679668 58.5415693566221620 S
atom 5.1604400414341560 5.0801926783341704 63.6235072917069502 S
atom 9.8617022572426976 4.8012071866703483 63.6228559095836204 S
atom 4.8814545497703570 9.7814548941427297 63.6241586738303084 S
atom 10.1411484741704339 10.0609011110704500 63.6235072917069502 S
atom 5.4635239588749220 2.4899383403326087 61.1548669292988123 S
atom 9.4384056900872420 2.4892904645298826 61.0027709336613597 S
atom 4.4581579826148614 7.4695381720022525 61.0040736979078346 S
atom 10.4442323916112123 7.4706467730688848 61.1548669292988123 S
atom 4.5415782583141828 2.4453954575200552 65.9534617316614629 S
atom 10.4461993507215709 2.4443820416267923 66.3491506501412971 S
atom 5.4659516432492117 7.4246297490991839 66.3504534143878146 S
atom 9.5222866910504411 7.4261038902563383 65.9534617316614629 S
atom 2.4910004550356337 4.4976625439656956 61.1555183114220782 S
atom 7.4723567635746191 5.5034892454896589 61.0034223157845616 S
atom 2.4921090561022545 10.4837369529620155 61.0047250800311645 S
atom 7.4717088877718956 9.4783709767019459 61.1555183114220782 S
atom 2.5355433378481846 5.4196082445264118 65.9541131137847145 S
atom 7.5172651864777089 4.4956955848552997 66.3498020322645061 S
atom 2.5370174790053555 9.4759432923277007 66.3511047965111516 S
atom 7.5162517705844527 10.4003166772627225 65.9541131137847145 S
atom 2.6899515270507832 2.2308853349335664 68.6407066164429693 Ba
atom 7.7303011679070375 2.2909872683174579 68.6400552343197603 Ba
atom 2.7500534604346680 7.2712349757898336 68.6413579985663205 Ba
atom 7.6706599597870468 7.2115937676698492 68.6407066164429693 Ba
atom 2.3782411474347382 2.5483852205181932 73.4531713979729659 Ba
atom 7.4128012823224081 2.6026976479335007 73.4525200158495863 Ba
atom 2.4325535748500409 7.5829453554058892 73.4538227800962318 Ba
atom 7.3589495801710028 7.5290936532544839 73.4531713979729659 Ba
atom 5.0121266631415411 4.9584783903081346 71.2623345297024713 Zr
atom 9.9834165452687689 4.9495205649629597 71.2616831475791344 Zr
atom 5.0031688377963892 9.9297682724353376 71.2629859118259219 Zr
atom 9.9928350958778154 9.9391868230443770 71.2623345297024713 Zr
atom 4.7763858886461970 4.7287480613873933 68.6843970995238067 S
atom 10.2131468741894835 5.1852613394583233 68.6837457174006261 S
atom 5.2328991667171039 10.1655090469306923 68.6850484816471294 S
atom 9.7570943213824624 9.7094564941237245 68.6843970995238067 S
atom 5.2392852867461883 5.1168054047563061 73.7757961974984937 S
atom 9.8250895308205894 4.7223619413583577 73.7751448153753131 S
atom 4.8448418233482098 9.7026096488307303 73.7764475796219301 S
atom 10.2199937194824315 10.0975138374925990 73.7757961974984937 S
atom 4.7294650076253522 2.4527411316641601 71.4002834469279151 S
atom 10.3283330302139458 2.4497105913912316 70.9139317992889744 S
atom 5.3480853227415750 7.4299582988636264 70.9152345635353640 S
atom 9.7101734403616149 7.4334495644004468 71.4002834469279151 S
atom 2.5281976637040788 5.2317214952152451 71.4009348290510815 S
atom 7.5119366367132692 4.6135619053629311 70.9145831814122403 S
atom 2.5316889292409064 9.5938096128353187 70.9158859456587152 S
atom 7.5089060964403496 10.2124299279515203 71.4009348290510815 S
