#=======================================================
# FHI-aims file: sym_relax/sym_relax_RP_6_Rx0Rz_0-Ry0.in
# Created using the Atomic Simulation Environment (ASE)
# Fri Mar 14 11:06:06 2025
#=======================================================
lattice_vector 10.0135223607180297 -0.0000000000000000 0.0169974280550809 
lattice_vector -0.0000000000000000 10.0925687831625837 0.0000000000000000 
lattice_vector 0.1119218711242557 0.0000000000000000 65.4052484904312763 
atom -0.1976854253395232 0.0000000000000000 0.1889691166563458 Ba
atom 5.0800165287002077 -0.0000000000000000 0.1958725298607955 Ba
atom 0.0732553483411767 5.0462843915812892 0.1873738158332551 Ba
atom 4.8090757550194905 5.0462843915812892 0.1974678306838860 Ba
atom -0.1178828996823125 0.0000000000000000 4.8748826717426770 Ba
atom 4.8365841573632302 0.0000000000000000 4.8509215882992818 Ba
atom -0.1701770229957831 5.0462843915812892 4.8424228742717412 Ba
atom 4.8888782806767095 5.0462843915812892 4.8833813857702113 Ba
atom 2.4339133258651193 2.5178259735364681 2.2475460761681272 Zr
atom 7.4406745062241306 2.5284584180448189 2.2560447901956655 Zr
atom 2.4339133258651193 7.5747428096261045 2.2475460761681272 Zr
atom 7.4406745062241306 7.5641103651177692 2.2560447901956655 Zr
atom 2.4527570945708090 2.5074767043462551 7.3068582472744135 Zr
atom 7.4595182749298354 2.5388076872350260 7.3153569613019513 Zr
atom 2.4527570945708090 7.5850920788163103 7.3068582472744135 Zr
atom 7.4595182749298354 7.5537610959275492 7.3153569613019513 Zr
atom 2.4432174191704656 2.8485708451512544 -0.2382297832101989 S
atom 7.4499785995294880 2.1977135464300370 -0.2297310691826587 S
atom 2.4432174191704656 7.2439979380113266 -0.2382297832101989 S
atom 7.4499785995294880 7.8948552367325266 -0.2297310691826587 S
atom 2.4522301424263051 2.1696544969768521 4.8150089170961206 S
atom 7.4589913227853177 2.8766298946044366 4.8235076311236513 S
atom 2.4522301424263042 7.9229142861857156 4.8150089170961206 S
atom 7.4589913227853177 7.2159388885581404 4.8235076311236513 S
atom 2.4422592662138802 0.0000000000000000 2.0141224446643125 S
atom 7.4255561604428282 0.0000000000000000 2.6917882823493819 S
atom 2.4187949800838187 5.0462843915812892 2.6832895683218432 S
atom 7.4490204465728924 5.0462843915812892 2.0226211586918561 S
atom 2.8709830361727859 0.0000000000000000 7.6184091574834492 S
atom 7.1059876713556385 0.0000000000000000 7.0405206536656166 S
atom 2.0992264909966258 5.0462843915812892 7.0320219396380814 S
atom 7.8777442165318030 5.0462843915812892 7.6269078715109826 S
atom -0.0671882192049673 2.5176352031384370 2.3663653975292411 S
atom 4.9395729611540427 2.5286491884428486 2.3748641115567755 S
atom -0.0671882192049673 7.5749335800241493 2.3663653975292407 S
atom 4.9395729611540427 7.5639195947197111 2.3748641115567755 S
atom -0.0401836727014617 2.1172288138232114 7.3227845483495733 S
atom 4.9665775076575542 2.9290555777580791 7.3312832623771147 S
atom -0.0401836727014617 7.9753399693393625 7.3227845483495733 S
atom 4.9665775076575542 7.1635132054045059 7.3312832623771138 S
atom -0.0764716775300199 0.0000000000000000 9.8191802866813660 Ba
atom 5.0790239661862433 0.0000000000000000 9.8733332761450630 Ba
atom 0.0722627858272440 5.0462843915812892 9.8648345621175295 Ba
atom 4.9302895028289901 5.0462843915812892 9.8276790007089048 Ba
atom 0.1055479492172699 0.0000000000000000 14.8730355095068951 Ba
atom 4.9520868089254915 0.0000000000000000 14.8651216092621290 Ba
atom -0.0546743714335179 5.0462843915812892 14.8566228952345689 Ba
atom 5.1123091295763121 5.0462843915812892 14.8815342235344374 Ba
atom 2.5144620336936190 2.5263943908281337 12.3457639112695432 Zr
atom 7.5212232140526218 2.5198900007531519 12.3542626252970962 Zr
atom 2.5144620336936190 7.5661743923344407 12.3457639112695432 Zr
atom 7.5212232140526218 7.5726787824094188 12.3542626252970962 Zr
atom 2.5431727244491489 2.5263943908281337 17.3923932074994809 Zr
atom 7.5499339048081877 2.5198900007531528 17.4008919215270268 Zr
atom 2.5431727244491489 7.5661743923344407 17.3923932074994809 Zr
atom 7.5499339048081877 7.5726787824094188 17.4008919215270268 Zr
atom 2.4866482001251362 2.8105974687141346 9.8341921076666274 S
atom 7.4934093804841559 2.2356869228671576 9.8426908216941875 S
atom 2.4866482001251362 7.2819713144484464 9.8341921076666274 S
atom 7.4934093804841559 7.8568818602954273 9.8426908216941875 S
atom 2.5288173790713824 2.2694618350777915 14.8690785593845085 S
atom 7.5355785594304034 2.7768225565034932 14.8775772734120597 S
atom 2.5288173790713824 7.8231069480847886 14.8690785593845085 S
atom 7.5355785594304034 7.3157462266590905 14.8775772734120597 S
atom 2.0953443134230545 0.0000000000000000 12.1269855638376125 S
atom 7.9473139580160908 0.0000000000000000 12.5859096457628858 S
atom 2.9405527776570866 5.0462843915812892 12.5774109317353560 S
atom 7.1021054937820596 5.0462843915812892 12.1354842778651477 S
atom 2.9622904447197178 0.0000000000000000 17.6111715549314241 S
atom 7.1238431608447117 0.0000000000000000 17.1692449010611803 S
atom 2.1170819804856840 5.0462843915812892 17.1607461870336593 S
atom 7.9690516250787331 5.0462843915812892 17.6196702689589699 S
atom 0.0089495576700208 2.9657896441779346 12.3541706924408334 S
atom 5.0157107380290444 2.0804947474033453 12.3626694064683793 S
atom 0.0089495576700208 7.1267791389846353 12.3541706924408334 S
atom 5.0157107380290444 8.0120740357592073 12.3626694064683793 S
atom 0.0419240201137309 2.0804947474033453 17.3754877123006573 S
atom 5.0486852004727476 2.9657896441779354 17.3839864263281605 S
atom 0.0419240201137309 8.0120740357592073 17.3754877123006573 S
atom 5.0486852004727476 7.1267791389846353 17.3839864263281605 S
atom -0.0213892080434929 0.0000000000000000 19.8648238426240020 Ba
atom 5.1341064356727948 0.0000000000000000 19.9189768320876119 Ba
atom 0.1273452553137715 5.0462843915812892 19.9104781180600767 Ba
atom 4.9853719723155328 5.0462843915812892 19.8733225566515124 Ba
atom 0.2210506007795353 0.0000000000000000 24.8872355304697237 Ba
atom 5.1755176578250950 0.0000000000000000 24.8632744470263702 Ba
atom 0.1687564774660643 5.0462843915812892 24.8547757329988244 Ba
atom 5.2278117811385520 5.0462843915812892 24.8957342444973015 Ba
atom 2.6048776635719708 2.5074767043462538 22.4312988714945938 Zr
atom 7.6116388439309866 2.5388076872350260 22.4397975855221361 Zr
atom 2.6048776635719708 7.5850920788163103 22.4312988714945938 Zr
atom 7.6116388439309866 7.5537610959275492 22.4397975855221361 Zr
atom 2.6237214322776539 2.5178259735364672 27.4906110426009178 Zr
atom 7.6304826126366878 2.5284584180448180 27.4991097566284566 Zr
atom 2.6237214322776539 7.5747428096261045 27.4906110426009214 Zr
atom 7.6304826126366878 7.5641103651177657 27.4991097566284566 Zr
atom 2.5709865580176396 2.8105974687141346 19.9039650111024109 S
atom 7.5777477383766589 2.2356869228671576 19.9124637251299887 S
atom 2.5709865580176396 7.2819713144484464 19.9039650111024109 S
atom 7.5777477383766589 7.8568818602954273 19.9124637251299887 S
atom 2.6054046157164663 2.1696544969768521 24.9231482016728947 S
atom 7.6121657960755105 2.8766298946044384 24.9316469157004228 S
atom 2.6054046157164663 7.9229142861857156 24.9231482016728947 S
atom 7.6121657960755105 7.2159388885581404 24.9316469157004228 S
atom 2.1866517219699948 0.0000000000000000 22.1197479612855474 S
atom 7.9651694475051693 0.0000000000000000 22.7146338931584744 S
atom 2.9584082671461487 5.0462843915812892 22.7061351791309392 S
atom 7.1934129023290332 5.0462843915812892 22.1282466753131253 S
atom 2.6153754919288961 0.0000000000000000 27.7240346741047361 S
atom 7.6456009584179982 0.0000000000000000 27.0633662644747268 S
atom 2.6388397780589599 5.0462843915812892 27.0548675504471916 S
atom 7.6221366722879313 5.0462843915812892 27.7325333881322607 S
atom 0.0910572504852137 2.9290555777580791 22.4068738563919148 S
atom 5.0978184308442467 2.1172288138232114 22.4153725704194358 S
atom 0.0910572504852137 7.1635132054045041 22.4068738563919148 S
atom 5.0978184308442467 7.9753399693393625 22.4153725704194393 S
atom 0.1180617969887200 2.5286491884428486 27.3632930072121994 S
atom 5.1248229773477476 2.5176352031384361 27.3717917212397523 S
atom 0.1180617969887200 7.5639195947197146 27.3632930072121994 S
atom 5.1248229773477476 7.5749335800241493 27.3717917212397523 S
atom -0.0223817705574244 0.0000000000000000 29.5422845889082488 Ba
atom 5.2553201834823051 0.0000000000000000 29.5491880021127002 Ba
atom 0.2485590031232756 5.0462843915812892 29.5406892880851260 Ba
atom 4.9843794098016030 5.0462843915812892 29.5507833029358018 Ba
atom 2.6144173389723124 2.8485708451512544 29.9763869019792146 S
atom 7.6211785193313242 2.1977135464300379 29.9848856160067498 S
atom 2.6144173389723124 7.2439979380113266 29.9763869019792146 S
atom 7.6211785193313242 7.8948552367325266 29.9848856160067498 S
atom 2.6097800963418600 2.3745260237299202 33.0547402143392901 Ba
atom 7.6165412767008753 2.6717583678513672 33.0632389283668644 Ba
atom 2.6097800963418600 7.7180427594326702 33.0547402143392901 Ba
atom 7.6165412767008753 7.4208104153111965 33.0632389283668644 Ba
atom 2.6017083545513269 2.5464683829525550 37.7293725183845510 Ba
atom 7.6084695349103564 2.4998160086287369 37.7378712324120968 Ba
atom 2.6017083545513269 7.5461004002100251 37.7293725183845510 Ba
atom 7.6084695349103564 7.5927527745338494 37.7378712324120968 Ba
atom 5.0979067146333046 5.0462843915812892 35.1142695191151333 Zr
atom 10.1280534136899192 5.0462843915812892 35.1220289165094570 Zr
atom 5.1212922333309168 10.0925687831625783 35.1135302024819040 Zr
atom 10.1046678949923052 10.0925687831625783 35.1227682331426294 Zr
atom 5.0998578064297293 5.0462843915812892 40.1300565486390681 Zr
atom 10.1089802821670940 5.0462843915812892 40.1381653674272627 Zr
atom 5.1022191018080596 10.0925687831625783 40.1296666533996884 Zr
atom 10.1066189867887530 10.0925687831625783 40.1385552626665643 Zr
atom 5.4611801350884432 5.0462843915812892 32.6281522112780138 S
atom 9.7731296879323200 5.0462843915812892 32.6346361561022249 S
atom 4.7663685075733202 10.0925687831625783 32.6261374420746932 S
atom 10.4679413154474830 10.0925687831625783 32.6366509253055881 S
atom 4.6307775055804790 5.0462843915812892 37.6550814780163208 S
atom 10.5864126929534947 5.0462843915812892 37.6649976506421069 S
atom 5.5796515125944559 10.0925687831625783 37.6564989366145539 S
atom 9.6375386859395018 10.0925687831625783 37.6635801920437459 S
atom 5.1093545067247277 2.5231050039731384 35.2441409629326330 S
atom 10.1161156870837683 2.5231793876081463 35.2526396769603494 S
atom 5.1093545067247277 7.5694637791894346 35.2441409629326330 S
atom 10.1161156870837683 7.5693893955544391 35.2526396769603423 S
atom 5.1009965283275802 2.5231489613672471 40.1443217366069618 S
atom 10.1077577086866039 2.5231354302140492 40.1528204506344508 S
atom 5.1009965283275802 7.5694198217953410 40.1443217366069618 S
atom 10.1077577086866039 7.5694333529485185 40.1528204506344508 S
atom 2.6067583938386552 5.0462843915812892 34.7789022323041621 S
atom 7.6121944389826828 5.0462843915812892 35.6015532955544600 S
atom 2.6054332586236693 10.0925687831625783 35.5930545815269141 S
atom 7.6135195741976798 10.0925687831625783 34.7874009463317009 S
atom 2.5967893357640550 5.0462843915812892 40.6162669483337950 S
atom 7.6051770285527986 5.0462843915812892 39.6621065646094380 S
atom 2.5984158481937856 10.0925687831625783 39.6536078505819134 S
atom 7.6035505161230859 10.0925687831625783 40.6247656623612983 S
atom 2.5933153940806077 2.5183750455625931 42.6306218244187605 Ba
atom 7.6000765744396253 2.5279093460186992 42.6391205384463134 Ba
atom 2.5933153940806077 7.5741937375999848 42.6306218244187605 Ba
atom 7.6000765744396253 7.5646594371438747 42.6391205384463134 Ba
atom 2.5847783146335161 2.5287009424150941 47.5717028046001431 Ba
atom 7.5915394949925377 2.5175834491661933 47.5802015186276677 Ba
atom 2.5847783146335161 7.5638678407474824 47.5717028046001431 Ba
atom 7.5915394949925377 7.5749853339963842 47.5802015186276677 Ba
atom 5.0936685918192524 5.0462843915812892 45.0943015191533192 Zr
atom 10.0979140627840120 5.0462843915812892 45.1025333872026408 Zr
atom 5.0911528824249910 10.0925687831625783 45.0940346731750878 Zr
atom 10.1004297721782592 10.0925687831625783 45.1028002331808935 Zr
atom 5.0851649272010624 5.0462843915812892 50.0578696500527798 Zr
atom 10.0894103981658265 5.0462843915812892 50.0661015181020872 Zr
atom 5.0826492178068108 10.0925687831625783 50.0576028040745697 Zr
atom 10.0919261075600826 10.0925687831625783 50.0663683640803754 Zr
atom 5.6047727958140472 5.0462843915812892 42.6182524242679790 S
atom 9.5954561777063780 5.0462843915812892 42.6248708497700477 S
atom 4.5886949973473703 10.0925687831625783 42.6163721357425231 S
atom 10.6115339761730603 10.0925687831625783 42.6267511382956030 S
atom 4.5799069739038281 5.0462843915812892 47.5751345351684165 S
atom 10.6031720160812153 5.0462843915812892 47.5852685020869970 S
atom 5.5964108357222297 10.0925687831625783 47.5767697880593943 S
atom 9.5866681542628545 10.0925687831625783 47.5836332491959624 S
atom 5.0924266352360625 2.5231439196869290 45.0994599957750424 S
atom 10.0991878155950605 2.5231404718943571 45.1079587098025598 S
atom 5.0924266352360608 7.5694248634756445 45.0994599957750566 S
atom 10.0991878155950605 7.5694283112682168 45.1079587098025598 S
atom 5.0838911743899882 2.5231404718943571 50.0524443274528110 S
atom 10.0906523547490039 2.5231439196869299 50.0609430414803001 S
atom 5.0838911743899864 7.5694283112682168 50.0524443274527968 S
atom 10.0906523547490039 7.5694248634756445 50.0609430414803001 S
atom 2.5898959048269963 5.0462843915812892 44.6046955112399957 S
atom 7.5949703496161778 5.0462843915812892 45.5952100570529595 S
atom 2.5882091692571567 10.0925687831625783 45.5867113430254633 S
atom 7.5966570851860089 10.0925687831625783 44.6131942252675842 S
atom 2.5796607244400276 5.0462843915812892 50.5387100979601982 S
atom 7.5881086403688895 5.0462843915812892 49.5651929802023687 S
atom 2.5813474600098756 10.0925687831625783 49.5566942661748868 S
atom 7.5864219047990513 10.0925687831625783 50.5472088119878009 S
atom 2.5762412351864294 2.5183750455625935 52.5127837847815684 Ba
atom 7.5830024155454536 2.5279093460187001 52.5212824988090574 Ba
atom 2.5762412351864294 7.5741937375999848 52.5127837847815684 Ba
atom 7.5830024155454536 7.5646594371438747 52.5212824988090574 Ba
atom 2.5678482747157019 2.5464683829525558 57.4140330908157139 Ba
atom 7.5746094550747287 2.4998160086287360 57.4225318048432811 Ba
atom 2.5678482747157019 7.5461004002100251 57.4140330908157139 Ba
atom 7.5746094550747287 7.5927527745338494 57.4225318048432811 Ba
atom 5.0740987078180009 5.0462843915812892 55.0222376698281082 Zr
atom 10.0832211835553345 5.0462843915812892 55.0303464886163027 Zr
atom 5.0764600031963241 10.0925687831625783 55.0218477745887569 Zr
atom 10.0808598881770131 10.0925687831625783 55.0307363838556611 Zr
atom 5.0550255762951393 5.0462843915812892 60.0383741207459636 Zr
atom 10.0851722753517894 5.0462843915812892 60.0461335181402589 Zr
atom 5.0784110949927452 10.0925687831625783 60.0376348041127272 Zr
atom 10.0617867566541701 10.0925687831625783 60.0468728347735095 Zr
atom 5.5876228122786822 5.0462843915812892 52.5355321874852592 S
atom 9.5783061941710379 5.0462843915812892 52.5421506129873066 S
atom 4.5715450138120213 10.0925687831625783 52.5336518989597963 S
atom 10.5943839926377166 10.0925687831625783 52.5440309015128406 S
atom 4.5966662970315921 5.0462843915812892 57.4954053866132355 S
atom 10.5523014844045928 5.0462843915812892 57.5053215592391780 S
atom 5.5455403040455753 10.0925687831625783 57.4968228452116250 S
atom 9.6034274773906088 10.0925687831625783 57.5039041006407956 S
atom 5.0753212812984616 2.5231354302140501 55.0075825866208845 S
atom 10.0820824616575084 2.5231489613672462 55.0160813006484943 S
atom 5.0753212812984616 7.5694333529485185 55.0075825866208845 S
atom 10.0820824616575084 7.5694198217953410 55.0160813006484943 S
atom 5.0669633029013159 2.5231793876081450 59.9077633602951209 S
atom 10.0737244832603441 2.5231050039731375 59.9162620743226526 S
atom 5.0669633029013159 7.5693893955544409 59.9077633602951209 S
atom 10.0737244832603441 7.5694637791894346 59.9162620743226526 S
atom 2.5727672935029680 5.0462843915812892 54.5271386608665196 S
atom 7.5779019614322642 5.0462843915812892 55.4982964726459045 S
atom 2.5711407810732401 10.0925687831625783 55.4897977586183515 S
atom 7.5795284738619753 10.0925687831625783 54.5356373748940726 S
atom 2.5627982354283723 5.0462843915812892 60.3645033768961241 S
atom 7.5708845510023837 5.0462843915812892 59.5588497417008966 S
atom 2.5641233706433635 10.0925687831625783 59.5503510276732655 S
atom 7.5695594157873831 10.0925687831625783 60.3730020909236700 S
atom 2.5597765329251718 2.3745260237299202 62.0886653948610032 Ba
atom 7.5665377132841778 2.6717583678513681 62.0971641088885562 Ba
atom 2.5597765329251718 7.7180427594326702 62.0886653948610032 Ba
atom 7.5665377132841778 7.4208104153111965 62.0971641088885562 Ba
atom 5.4099493020527420 5.0462843915812892 62.5257668811531175 S
atom 9.7218988548966419 5.0462843915812892 62.5322508259772789 S
atom 4.7151376745376083 10.0925687831625783 62.5237521119497330 S
atom 10.4167104824117818 10.0925687831625783 62.5342655951805924 S
