#=======================================================
# FHI-aims file: sym_relax/sym_relax_RP_6_00Rz_000.in
# Created using the Atomic Simulation Environment (ASE)
# Fri Mar 14 10:59:53 2025
#=======================================================
lattice_vector 10.0057548958949010 -0.0000000000000004 0.0000000000000000 
lattice_vector -0.0000000000000004 10.0057548958949010 0.0000000000000000 
lattice_vector -0.0000000000000000 0.0000000000000000 66.2552760097178606 
atom -0.0000000000000000 0.0000000000000000 0.1762410272597500 Ba
atom 5.0028774479474514 0.0000000000000000 0.1762410272597500 Ba
atom 0.0000000000000000 5.0028774479474514 0.1762410272597500 Ba
atom 5.0028774479474514 5.0028774479474514 0.1762410272597500 Ba
atom -0.0000000000000000 0.0000000000000000 4.9351276000173101 Ba
atom 5.0028774479474514 0.0000000000000000 4.9351276000173101 Ba
atom -0.0000000000000000 5.0028774479474514 4.9351276000173101 Ba
atom 5.0028774479474514 5.0028774479474514 4.9351276000173101 Ba
atom 2.5014387239737257 2.5014387239737257 2.3129772099263310 Zr
atom 7.5043161719211735 2.5014387239737257 2.3129772099263310 Zr
atom 2.5014387239737257 7.5043161719211735 2.3129772099263310 Zr
atom 7.5043161719211735 7.5043161719211735 2.3129772099263310 Zr
atom 2.5014387239737257 2.5014387239737257 7.4285709529947566 Zr
atom 7.5043161719211735 2.5014387239737257 7.4285709529947566 Zr
atom 2.5014387239737257 7.5043161719211735 7.4285709529947566 Zr
atom 7.5043161719211735 7.5043161719211735 7.4285709529947566 Zr
atom 2.5014387239737257 2.5014387239737257 -0.1968654698396239 S
atom 7.5043161719211735 2.5014387239737257 -0.1968654698396239 S
atom 2.5014387239737257 7.5043161719211735 -0.1968654698396239 S
atom 7.5043161719211735 7.5043161719211735 -0.1968654698396239 S
atom 2.5014387239737257 2.5014387239737257 4.9158119797965929 S
atom 7.5043161719211735 2.5014387239737257 4.9158119797965929 S
atom 2.5014387239737257 7.5043161719211735 4.9158119797965929 S
atom 7.5043161719211735 7.5043161719211735 4.9158119797965929 S
atom 2.2247481709876213 -0.0000000000000000 2.4373983241507502 S
atom 7.7810067249072734 0.0000000000000000 2.4373983241507502 S
atom 2.7781292769598314 5.0028774479474514 2.4373983241507502 S
atom 7.2276256189350736 5.0028774479474514 2.4373983241507502 S
atom 3.0098395719782807 0.0000000000000000 7.4520559342687793 S
atom 6.9959153239166172 -0.0000000000000000 7.4520559342687793 S
atom 1.9930378759691711 5.0028774479474514 7.4520559342687793 S
atom 8.0127170199257201 5.0028774479474514 7.4520559342687793 S
atom 0.0000000000000000 2.7781292769598296 2.4373983241507502 S
atom 5.0028774479474514 2.2247481709876205 2.4373983241507502 S
atom -0.0000000000000000 7.2276256189350754 2.4373983241507502 S
atom 5.0028774479474514 7.7810067249072734 2.4373983241507502 S
atom -0.0000000000000000 1.9930378759691716 7.4520559342687793 S
atom 5.0028774479474514 3.0098395719782798 7.4520559342687793 S
atom 0.0000000000000000 8.0127170199257201 7.4520559342687793 S
atom 5.0028774479474514 6.9959153239166190 7.4520559342687793 S
atom -0.0000000000000000 0.0000000000000000 9.9909818175050837 Ba
atom 5.0028774479474514 0.0000000000000000 9.9909818175050837 Ba
atom 0.0000000000000000 5.0028774479474514 9.9909818175050837 Ba
atom 5.0028774479474514 5.0028774479474514 9.9909818175050837 Ba
atom -0.0000000000000000 0.0000000000000000 15.0580172749358994 Ba
atom 5.0028774479474514 0.0000000000000000 15.0580172749358994 Ba
atom 0.0000000000000000 5.0028774479474514 15.0580172749358994 Ba
atom 5.0028774479474514 5.0028774479474514 15.0580172749358994 Ba
atom 2.5014387239737257 2.5014387239737257 12.5146390898899984 Zr
atom 7.5043161719211735 2.5014387239737257 12.5146390898899984 Zr
atom 2.5014387239737257 7.5043161719211735 12.5146390898899984 Zr
atom 7.5043161719211735 7.5043161719211735 12.5146390898899984 Zr
atom 2.5014387239737257 2.5014387239737257 17.6013954599817950 Zr
atom 7.5043161719211735 2.5014387239737257 17.6013954599817950 Zr
atom 2.5014387239737257 7.5043161719211735 17.6013954599817950 Zr
atom 7.5043161719211735 7.5043161719211735 17.6013954599817950 Zr
atom 2.5014387239737257 2.5014387239737257 9.9842815215568805 S
atom 7.5043161719211735 2.5014387239737257 9.9842815215568805 S
atom 2.5014387239737257 7.5043161719211735 9.9842815215568805 S
atom 7.5043161719211735 7.5043161719211735 9.9842815215568805 S
atom 2.5014387239737257 2.5014387239737257 15.0580172749358994 S
atom 7.5043161719211735 2.5014387239737257 15.0580172749358994 S
atom 2.5014387239737257 7.5043161719211735 15.0580172749358994 S
atom 7.5043161719211735 7.5043161719211735 15.0580172749358994 S
atom 2.0007081650941605 -0.0000000000000000 12.5258699773613067 S
atom 8.0050467308007391 0.0000000000000000 12.5258699773613067 S
atom 3.0021692828532891 5.0028774479474514 12.5258699773613067 S
atom 7.0035856130415954 5.0028774479474514 12.5258699773613067 S
atom 3.0021692828532891 0.0000000000000000 17.5901645725104778 S
atom 7.0035856130415954 -0.0000000000000000 17.5901645725104778 S
atom 2.0007081650941605 5.0028774479474514 17.5901645725104778 S
atom 8.0050467308007391 5.0028774479474514 17.5901645725104778 S
atom 0.0000000000000000 3.0021692828532895 12.5258699773613067 S
atom 5.0028774479474514 2.0007081650941623 12.5258699773613067 S
atom -0.0000000000000000 7.0035856130415990 12.5258699773613067 S
atom 5.0028774479474514 8.0050467308007427 12.5258699773613067 S
atom -0.0000000000000000 2.0007081650941623 17.5901645725104778 S
atom 5.0028774479474514 3.0021692828532895 17.5901645725104778 S
atom 0.0000000000000000 8.0050467308007427 17.5901645725104778 S
atom 5.0028774479474514 7.0035856130415990 17.5901645725104778 S
atom 0.0000000000000000 0.0000000000000000 20.1250527323667292 Ba
atom 5.0028774479474514 0.0000000000000000 20.1250527323667292 Ba
atom 0.0000000000000000 5.0028774479474514 20.1250527323667292 Ba
atom 5.0028774479474514 5.0028774479474514 20.1250527323667292 Ba
atom 0.0000000000000000 0.0000000000000000 25.1809069498544922 Ba
atom 5.0028774479474514 0.0000000000000000 25.1809069498544922 Ba
atom 0.0000000000000000 5.0028774479474514 25.1809069498544922 Ba
atom 5.0028774479474514 5.0028774479474514 25.1809069498544922 Ba
atom 2.5014387239737257 2.5014387239737257 22.6874635968770448 Zr
atom 7.5043161719211735 2.5014387239737257 22.6874635968770448 Zr
atom 2.5014387239737257 7.5043161719211735 22.6874635968770448 Zr
atom 7.5043161719211735 7.5043161719211735 22.6874635968770448 Zr
atom 2.5014387239737257 2.5014387239737257 27.8030573399454539 Zr
atom 7.5043161719211735 2.5014387239737257 27.8030573399454539 Zr
atom 2.5014387239737257 7.5043161719211735 27.8030573399454539 Zr
atom 7.5043161719211735 7.5043161719211735 27.8030573399454539 Zr
atom 2.5014387239737257 2.5014387239737257 20.1317530283149111 S
atom 7.5043161719211735 2.5014387239737257 20.1317530283149111 S
atom 2.5014387239737257 7.5043161719211735 20.1317530283149111 S
atom 7.5043161719211735 7.5043161719211735 20.1317530283149111 S
atom 2.5014387239737257 2.5014387239737257 25.2002225700752298 S
atom 7.5043161719211735 2.5014387239737257 25.2002225700752298 S
atom 2.5014387239737257 7.5043161719211735 25.2002225700752298 S
atom 7.5043161719211735 7.5043161719211735 25.2002225700752298 S
atom 1.9930378759691703 -0.0000000000000000 22.6639786156030176 S
atom 8.0127170199257201 0.0000000000000000 22.6639786156030176 S
atom 3.0098395719782798 5.0028774479474514 22.6639786156030176 S
atom 6.9959153239166172 5.0028774479474514 22.6639786156030176 S
atom 2.7781292769598314 0.0000000000000000 27.6786362257210321 S
atom 7.2276256189350736 -0.0000000000000000 27.6786362257210321 S
atom 2.2247481709876213 5.0028774479474514 27.6786362257210321 S
atom 7.7810067249072734 5.0028774479474514 27.6786362257210321 S
atom 0.0000000000000000 3.0098395719782789 22.6639786156030176 S
atom 5.0028774479474514 1.9930378759691716 22.6639786156030176 S
atom -0.0000000000000000 6.9959153239166190 22.6639786156030176 S
atom 5.0028774479474514 8.0127170199257201 22.6639786156030176 S
atom -0.0000000000000000 2.2247481709876205 27.6786362257210321 S
atom 5.0028774479474514 2.7781292769598296 27.6786362257210321 S
atom 0.0000000000000000 7.7810067249072734 27.6786362257210321 S
atom 5.0028774479474514 7.2276256189350754 27.6786362257210321 S
atom 0.0000000000000000 0.0000000000000000 29.9397935226120424 Ba
atom 5.0028774479474514 0.0000000000000000 29.9397935226120424 Ba
atom -0.0000000000000000 5.0028774479474514 29.9397935226120424 Ba
atom 5.0028774479474514 5.0028774479474514 29.9397935226120424 Ba
atom 2.5014387239737257 2.5014387239737257 30.3129000197114209 S
atom 7.5043161719211735 2.5014387239737257 30.3129000197114209 S
atom 2.5014387239737257 7.5043161719211735 30.3129000197114209 S
atom 7.5043161719211735 7.5043161719211735 30.3129000197114209 S
atom 2.5014387239737257 2.5014387239737257 33.4446486590785597 Ba
atom 7.5043161719211735 2.5014387239737257 33.4446486590785597 Ba
atom 2.5014387239737257 7.5043161719211735 33.4446486590785597 Ba
atom 7.5043161719211735 7.5043161719211735 33.4446486590785597 Ba
atom 2.5014387239737257 2.5014387239737257 38.2503791016816876 Ba
atom 7.5043161719211735 2.5014387239737257 38.2503791016816876 Ba
atom 2.5014387239737257 7.5043161719211735 38.2503791016816876 Ba
atom 7.5043161719211735 7.5043161719211735 38.2503791016816876 Ba
atom 5.0028774479474514 5.0028774479474514 35.5135893088294807 Zr
atom 10.0057548958949027 5.0028774479474514 35.5135893088294807 Zr
atom 5.0028774479474514 10.0057548958949027 35.5135893088294807 Zr
atom 10.0057548958949027 10.0057548958949027 35.5135893088294807 Zr
atom 5.0028774479474514 5.0028774479474514 40.6030238760979501 Zr
atom 10.0057548958949027 5.0028774479474514 40.6030238760979501 Zr
atom 5.0028774479474514 10.0057548958949027 40.6030238760979501 Zr
atom 10.0057548958949027 10.0057548958949027 40.6030238760979501 Zr
atom 5.0028774479474514 5.0028774479474514 33.0083351027155700 S
atom 10.0057548958949027 5.0028774479474514 33.0083351027155700 S
atom 5.0028774479474514 10.0057548958949027 33.0083351027155700 S
atom 10.0057548958949027 10.0057548958949027 33.0083351027155700 S
atom 5.0028774479474514 5.0028774479474514 38.0989914282483255 S
atom 10.0057548958949027 5.0028774479474514 38.0989914282483255 S
atom 5.0028774479474514 10.0057548958949027 38.0989914282483255 S
atom 10.0057548958949027 10.0057548958949027 38.0989914282483255 S
atom 5.0028774479474514 2.5014484078960919 35.6242476472882714 S
atom 10.0057548958949027 2.5014290400513595 35.6242476472882714 S
atom 5.0028774479474514 7.5043064879988091 35.6242476472882714 S
atom 10.0057548958949027 7.5043258558435397 35.6242476472882714 S
atom 5.0028774479474514 2.5014369770744151 40.6295079726734087 S
atom 10.0057548958949027 2.5014404708730318 40.6295079726734087 S
atom 5.0028774479474514 7.5043179188204920 40.6295079726734087 S
atom 10.0057548958949027 7.5043144250218603 40.6295079726734087 S
atom 2.5014290400513586 5.0028774479474514 35.6242476472882714 S
atom 7.5043258558435380 5.0028774479474514 35.6242476472882714 S
atom 2.5014484078960937 10.0057548958949027 35.6242476472882714 S
atom 7.5043064879988091 10.0057548958949027 35.6242476472882714 S
atom 2.5014404708730336 5.0028774479474514 40.6295079726734087 S
atom 7.5043144250218621 5.0028774479474514 40.6295079726734087 S
atom 2.5014369770744143 10.0057548958949027 40.6295079726734087 S
atom 7.5043179188204894 10.0057548958949027 40.6295079726734087 S
atom 2.5014387239737257 2.5014387239737257 43.1979476106157705 Ba
atom 7.5043161719211735 2.5014387239737257 43.1979476106157705 Ba
atom 2.5014387239737257 7.5043161719211735 43.1979476106157705 Ba
atom 7.5043161719211735 7.5043161719211735 43.1979476106157705 Ba
atom 2.5014387239737257 2.5014387239737257 48.1856552797949078 Ba
atom 7.5043161719211735 2.5014387239737257 48.1856552797949078 Ba
atom 2.5014387239737257 7.5043161719211735 48.1856552797949078 Ba
atom 7.5043161719211735 7.5043161719211735 48.1856552797949078 Ba
atom 5.0028774479474514 5.0028774479474514 45.6590986947638982 Zr
atom 10.0057548958949027 5.0028774479474514 45.6590986947638982 Zr
atom 5.0028774479474514 10.0057548958949027 45.6590986947638982 Zr
atom 10.0057548958949027 10.0057548958949027 45.6590986947638982 Zr
atom 5.0028774479474514 5.0028774479474514 50.7122118648258535 Zr
atom 10.0057548958949027 5.0028774479474514 50.7122118648258535 Zr
atom 5.0028774479474514 10.0057548958949027 50.7122118648258535 Zr
atom 10.0057548958949027 10.0057548958949027 50.7122118648258535 Zr
atom 5.0028774479474514 5.0028774479474514 43.1426322762748811 S
atom 10.0057548958949027 5.0028774479474514 43.1426322762748811 S
atom 5.0028774479474514 10.0057548958949027 43.1426322762748811 S
atom 10.0057548958949027 10.0057548958949027 43.1426322762748811 S
atom 5.0028774479474514 5.0028774479474514 48.1856552797949078 S
atom 10.0057548958949027 5.0028774479474514 48.1856552797949078 S
atom 5.0028774479474514 10.0057548958949027 48.1856552797949078 S
atom 10.0057548958949027 10.0057548958949027 48.1856552797949078 S
atom 5.0028774479474514 2.5014388644057006 45.6678177447718809 S
atom 10.0057548958949027 2.5014385835417552 45.6678177447718809 S
atom 5.0028774479474514 7.5043160314891955 45.6678177447718809 S
atom 10.0057548958949027 7.5043163123531560 45.6678177447718809 S
atom 5.0028774479474514 2.5014385835417543 50.7034928148178423 S
atom 10.0057548958949027 2.5014388644056997 50.7034928148178423 S
atom 5.0028774479474514 7.5043163123531551 50.7034928148178423 S
atom 10.0057548958949027 7.5043160314891937 50.7034928148178423 S
atom 2.5014385835417539 5.0028774479474514 45.6678177447718809 S
atom 7.5043163123531524 5.0028774479474514 45.6678177447718809 S
atom 2.5014388644057006 10.0057548958949027 45.6678177447718809 S
atom 7.5043160314891955 10.0057548958949027 45.6678177447718809 S
atom 2.5014388644057006 5.0028774479474514 50.7034928148178423 S
atom 7.5043160314891955 5.0028774479474514 50.7034928148178423 S
atom 2.5014385835417539 10.0057548958949027 50.7034928148178423 S
atom 7.5043163123531542 10.0057548958949027 50.7034928148178423 S
atom 2.5014387239737257 2.5014387239737257 53.1733629489739030 Ba
atom 7.5043161719211735 2.5014387239737257 53.1733629489739030 Ba
atom 2.5014387239737257 7.5043161719211735 53.1733629489739030 Ba
atom 7.5043161719211735 7.5043161719211735 53.1733629489739030 Ba
atom 2.5014387239737257 2.5014387239737257 58.1209314579080853 Ba
atom 7.5043161719211735 2.5014387239737257 58.1209314579080853 Ba
atom 2.5014387239737257 7.5043161719211735 58.1209314579080853 Ba
atom 7.5043161719211735 7.5043161719211735 58.1209314579080853 Ba
atom 5.0028774479474514 5.0028774479474514 55.7682866834918158 Zr
atom 10.0057548958949027 5.0028774479474514 55.7682866834918158 Zr
atom 5.0028774479474514 10.0057548958949027 55.7682866834918158 Zr
atom 10.0057548958949027 10.0057548958949027 55.7682866834918158 Zr
atom 5.0028774479474514 5.0028774479474514 60.8577212507602070 Zr
atom 10.0057548958949027 5.0028774479474514 60.8577212507602070 Zr
atom 5.0028774479474514 10.0057548958949027 60.8577212507602070 Zr
atom 10.0057548958949027 10.0057548958949027 60.8577212507602070 Zr
atom 5.0028774479474514 5.0028774479474514 53.2286782833148990 S
atom 10.0057548958949027 5.0028774479474514 53.2286782833148990 S
atom 5.0028774479474514 10.0057548958949027 53.2286782833148990 S
atom 10.0057548958949027 10.0057548958949027 53.2286782833148990 S
atom 5.0028774479474514 5.0028774479474514 58.2723191313413906 S
atom 10.0057548958949027 5.0028774479474514 58.2723191313413906 S
atom 5.0028774479474514 10.0057548958949027 58.2723191313413906 S
atom 10.0057548958949027 10.0057548958949027 58.2723191313413906 S
atom 5.0028774479474514 2.5014404708730318 55.7418025869163500 S
atom 10.0057548958949027 2.5014369770744151 55.7418025869163500 S
atom 5.0028774479474514 7.5043144250218603 55.7418025869163500 S
atom 10.0057548958949027 7.5043179188204920 55.7418025869163500 S
atom 5.0028774479474514 2.5014290400513595 60.7470629123014305 S
atom 10.0057548958949027 2.5014484078960919 60.7470629123014305 S
atom 5.0028774479474514 7.5043258558435397 60.7470629123014305 S
atom 10.0057548958949027 7.5043064879988091 60.7470629123014305 S
atom 2.5014369770744143 5.0028774479474514 55.7418025869163500 S
atom 7.5043179188204894 5.0028774479474514 55.7418025869163500 S
atom 2.5014404708730344 10.0057548958949027 55.7418025869163500 S
atom 7.5043144250218621 10.0057548958949027 55.7418025869163500 S
atom 2.5014484078960937 5.0028774479474514 60.7470629123014305 S
atom 7.5043064879988091 5.0028774479474514 60.7470629123014305 S
atom 2.5014290400513586 10.0057548958949027 60.7470629123014305 S
atom 7.5043258558435380 10.0057548958949027 60.7470629123014305 S
atom 2.5014387239737257 2.5014387239737257 62.9266619005111210 Ba
atom 7.5043161719211735 2.5014387239737257 62.9266619005111210 Ba
atom 2.5014387239737257 7.5043161719211735 62.9266619005111210 Ba
atom 7.5043161719211735 7.5043161719211735 62.9266619005111210 Ba
atom 5.0028774479474514 5.0028774479474514 63.3629754568741745 S
atom 10.0057548958949027 5.0028774479474514 63.3629754568741745 S
atom 5.0028774479474514 10.0057548958949027 63.3629754568741745 S
atom 10.0057548958949027 10.0057548958949027 63.3629754568741745 S
