#=======================================================
# FHI-aims file: sym_relax/sym_relax_RP_8_00Rz_000.in
# Created using the Atomic Simulation Environment (ASE)
# Mon Mar 17 16:00:59 2025
#=======================================================
lattice_vector 10.0017051080294674 -0.0000000000000004 -0.0000000000000000 
lattice_vector -0.0000000000000004 10.0017051080294674 0.0000000000000000 
lattice_vector -0.0000000000000000 0.0000000000000000 86.5288174929414282 
atom 0.0000000000000000 0.0000000000000000 0.1543652913418345 Ba
atom 5.0008525540147319 0.0000000000000000 0.1543652913418344 Ba
atom -0.0000000000000000 5.0008525540147319 0.1543652913418345 Ba
atom 5.0008525540147319 5.0008525540147319 0.1543652913418345 Ba
atom -0.0000000000000000 0.0000000000000000 4.9193926409453370 Ba
atom 5.0008525540147319 0.0000000000000000 4.9193926409453370 Ba
atom 0.0000000000000000 5.0008525540147319 4.9193926409453370 Ba
atom 5.0008525540147319 5.0008525540147319 4.9193926409453370 Ba
atom 2.5004262770073660 2.5004262770073660 2.2942741309426067 Zr
atom 7.5012788310221028 2.5004262770073660 2.2942741309426067 Zr
atom 2.5004262770073660 7.5012788310221028 2.2942741309426067 Zr
atom 7.5012788310221028 7.5012788310221028 2.2942741309426067 Zr
atom 2.5004262770073660 2.5004262770073660 7.4104106135951477 Zr
atom 7.5012788310221028 2.5004262770073660 7.4104106135951477 Zr
atom 2.5004262770073660 7.5012788310221028 7.4104106135951477 Zr
atom 7.5012788310221028 7.5012788310221028 7.4104106135951477 Zr
atom 2.5004262770073660 2.5004262770073660 -0.2152498983338573 S
atom 7.5012788310221028 2.5004262770073660 -0.2152498983338573 S
atom 2.5004262770073660 7.5012788310221028 -0.2152498983338573 S
atom 7.5012788310221028 7.5012788310221028 -0.2152498983338573 S
atom 2.5004262770073660 2.5004262770073660 4.8997768839995874 S
atom 7.5012788310221028 2.5004262770073660 4.8997768839995874 S
atom 2.5004262770073660 7.5012788310221028 4.8997768839995874 S
atom 7.5012788310221028 7.5012788310221028 4.8997768839995874 S
atom 2.2164914430964990 -0.0000000000000000 2.4211048822499071 S
atom 7.7852136649329626 0.0000000000000000 2.4211048822499079 S
atom 2.7843611109182351 5.0008525540147319 2.4211048822499079 S
atom 7.2173439971112385 5.0008525540147319 2.4211048822499071 S
atom 3.0099020546224815 0.0000000000000000 7.4386518956717360 S
atom 6.9918030534069802 -0.0000000000000000 7.4386518956717342 S
atom 1.9909504993922533 5.0008525540147319 7.4386518956717342 S
atom 8.0107546086372210 5.0008525540147319 7.4386518956717360 S
atom 0.0000000000000000 2.7843611109182347 2.4211048822499079 S
atom 5.0008525540147319 2.2164914430964977 2.4211048822499071 S
atom -0.0000000000000000 7.2173439971112412 2.4211048822499071 S
atom 5.0008525540147319 7.7852136649329600 2.4211048822499079 S
atom -0.0000000000000000 1.9909504993922535 7.4386518956717342 S
atom 5.0008525540147319 3.0099020546224815 7.4386518956717360 S
atom 0.0000000000000000 8.0107546086372210 7.4386518956717360 S
atom 5.0008525540147319 6.9918030534069819 7.4386518956717342 S
atom 0.0000000000000000 0.0000000000000000 9.9774081162741606 Ba
atom 5.0008525540147319 0.0000000000000000 9.9774081162741606 Ba
atom -0.0000000000000000 5.0008525540147319 9.9774081162741606 Ba
atom 5.0008525540147319 5.0008525540147319 9.9774081162741606 Ba
atom -0.0000000000000000 0.0000000000000000 15.0491137633876662 Ba
atom 5.0008525540147319 0.0000000000000000 15.0491137633876662 Ba
atom -0.0000000000000000 5.0008525540147319 15.0491137633876662 Ba
atom 5.0008525540147319 5.0008525540147319 15.0491137633876662 Ba
atom 2.5004262770073660 2.5004262770073660 12.4962442402996015 Zr
atom 7.5012788310221028 2.5004262770073660 12.4962442402996015 Zr
atom 2.5004262770073660 7.5012788310221028 12.4962442402996015 Zr
atom 7.5012788310221028 7.5012788310221028 12.4962442402996015 Zr
atom 2.5004262770073660 2.5004262770073660 17.5811354364270471 Zr
atom 7.5012788310221028 2.5004262770073660 17.5811354364270471 Zr
atom 2.5004262770073660 7.5012788310221028 17.5811354364270471 Zr
atom 7.5012788310221028 7.5012788310221028 17.5811354364270471 Zr
atom 2.5004262770073660 2.5004262770073660 9.9705155825016814 S
atom 7.5012788310221028 2.5004262770073660 9.9705155825016814 S
atom 2.5004262770073660 7.5012788310221028 9.9705155825016814 S
atom 7.5012788310221028 7.5012788310221028 9.9705155825016814 S
atom 2.5004262770073660 2.5004262770073660 15.0465371124127998 S
atom 7.5012788310221028 2.5004262770073660 15.0465371124127998 S
atom 2.5004262770073660 7.5012788310221028 15.0465371124127998 S
atom 7.5012788310221028 7.5012788310221028 15.0465371124127998 S
atom 1.9980637742963165 -0.0000000000000000 12.5157829519331862 S
atom 8.0036413337331584 0.0000000000000000 12.5157829519331898 S
atom 3.0027887797184172 5.0008525540147319 12.5157829519331898 S
atom 6.9989163283110507 5.0008525540147319 12.5157829519331862 S
atom 3.0036314883053254 0.0000000000000000 17.5864621933016494 S
atom 6.9980736197241384 -0.0000000000000000 17.5864621933016494 S
atom 1.9972210657094094 5.0008525540147319 17.5864621933016494 S
atom 8.0044840423200530 5.0008525540147319 17.5864621933016494 S
atom 0.0000000000000000 3.0027887797184176 12.5157829519331862 S
atom 5.0008525540147319 1.9980637742963165 12.5157829519331898 S
atom -0.0000000000000000 6.9989163283110480 12.5157829519331898 S
atom 5.0008525540147319 8.0036413337331584 12.5157829519331862 S
atom -0.0000000000000000 1.9972210657094103 17.5864621933016494 S
atom 5.0008525540147319 3.0036314883053254 17.5864621933016494 S
atom 0.0000000000000000 8.0044840423200530 17.5864621933016494 S
atom 5.0008525540147319 6.9980736197241411 17.5864621933016494 S
atom -0.0000000000000000 0.0000000000000000 20.1229808123119724 Ba
atom 5.0008525540147319 0.0000000000000000 20.1229808123119724 Ba
atom -0.0000000000000000 5.0008525540147319 20.1229808123119724 Ba
atom 5.0008525540147319 5.0008525540147319 20.1229808123119724 Ba
atom -0.0000000000000000 0.0000000000000000 25.1968478612363107 Ba
atom 5.0008525540147319 0.0000000000000000 25.1968478612363107 Ba
atom -0.0000000000000000 5.0008525540147319 25.1968478612363107 Ba
atom 5.0008525540147319 5.0008525540147319 25.1968478612363107 Ba
atom 2.5004262770073660 2.5004262770073660 22.6648261881968729 Zr
atom 7.5012788310221028 2.5004262770073660 22.6648261881968729 Zr
atom 2.5004262770073660 7.5012788310221028 22.6648261881968729 Zr
atom 7.5012788310221028 7.5012788310221028 22.6648261881968729 Zr
atom 2.5004262770073660 2.5004262770073660 27.7497173843243097 Zr
atom 7.5012788310221028 2.5004262770073660 27.7497173843243097 Zr
atom 2.5004262770073660 7.5012788310221028 27.7497173843243097 Zr
atom 7.5012788310221028 7.5012788310221028 27.7497173843243097 Zr
atom 2.5004262770073660 2.5004262770073660 20.1229808123119724 S
atom 7.5012788310221028 2.5004262770073660 20.1229808123119724 S
atom 2.5004262770073660 7.5012788310221028 20.1229808123119724 S
atom 7.5012788310221028 7.5012788310221028 20.1229808123119724 S
atom 2.5004262770073660 2.5004262770073660 25.1994245122111593 S
atom 7.5012788310221028 2.5004262770073660 25.1994245122111593 S
atom 2.5004262770073660 7.5012788310221028 25.1994245122111593 S
atom 7.5012788310221028 7.5012788310221028 25.1994245122111593 S
atom 1.9972210657094094 -0.0000000000000000 22.6594994313223062 S
atom 8.0044840423200530 0.0000000000000000 22.6594994313223062 S
atom 3.0036314883053246 5.0008525540147319 22.6594994313223062 S
atom 6.9980736197241384 5.0008525540147319 22.6594994313223062 S
atom 3.0027887797184172 0.0000000000000000 27.7301786726907835 S
atom 6.9989163283110507 -0.0000000000000000 27.7301786726907906 S
atom 1.9980637742963165 5.0008525540147319 27.7301786726907906 S
atom 8.0036413337331584 5.0008525540147319 27.7301786726907835 S
atom 0.0000000000000000 3.0036314883053254 22.6594994313223062 S
atom 5.0008525540147319 1.9972210657094094 22.6594994313222990 S
atom -0.0000000000000000 6.9980736197241411 22.6594994313222990 S
atom 5.0008525540147319 8.0044840423200530 22.6594994313223062 S
atom -0.0000000000000000 1.9980637742963165 27.7301786726907835 S
atom 5.0008525540147319 3.0027887797184176 27.7301786726907835 S
atom 0.0000000000000000 8.0036413337331584 27.7301786726907835 S
atom 5.0008525540147319 6.9989163283110480 27.7301786726907835 S
atom 0.0000000000000000 0.0000000000000000 30.2685535083497967 Ba
atom 5.0008525540147319 0.0000000000000000 30.2685535083497967 Ba
atom -0.0000000000000000 5.0008525540147319 30.2685535083497967 Ba
atom 5.0008525540147319 5.0008525540147319 30.2685535083497967 Ba
atom 0.0000000000000000 0.0000000000000000 35.3265689836786336 Ba
atom 5.0008525540147319 0.0000000000000000 35.3265689836786336 Ba
atom 0.0000000000000000 5.0008525540147319 35.3265689836786336 Ba
atom 5.0008525540147319 5.0008525540147319 35.3265689836786336 Ba
atom 2.5004262770073660 2.5004262770073660 32.8355510110287554 Zr
atom 7.5012788310221028 2.5004262770073660 32.8355510110287554 Zr
atom 2.5004262770073660 7.5012788310221028 32.8355510110287554 Zr
atom 7.5012788310221028 7.5012788310221028 32.8355510110287554 Zr
atom 2.5004262770073660 2.5004262770073660 37.9516874936813480 Zr
atom 7.5012788310221028 2.5004262770073660 37.9516874936813480 Zr
atom 2.5004262770073660 7.5012788310221028 37.9516874936813480 Zr
atom 7.5012788310221028 7.5012788310221028 37.9516874936813480 Zr
atom 2.5004262770073660 2.5004262770073660 30.2754460421222298 S
atom 7.5012788310221028 2.5004262770073660 30.2754460421222298 S
atom 2.5004262770073660 7.5012788310221028 30.2754460421222298 S
atom 7.5012788310221028 7.5012788310221028 30.2754460421222298 S
atom 2.5004262770073660 2.5004262770073660 35.3461847406243734 S
atom 7.5012788310221028 2.5004262770073660 35.3461847406243734 S
atom 2.5004262770073660 7.5012788310221028 35.3461847406243734 S
atom 7.5012788310221028 7.5012788310221028 35.3461847406243734 S
atom 1.9909504993922538 -0.0000000000000000 32.8073097289521343 S
atom 8.0107546086372210 0.0000000000000000 32.8073097289521343 S
atom 3.0099020546224806 5.0008525540147319 32.8073097289521343 S
atom 6.9918030534069802 5.0008525540147319 32.8073097289521343 S
atom 2.7843611109182351 0.0000000000000000 37.8248567423740170 S
atom 7.2173439971112385 -0.0000000000000000 37.8248567423740170 S
atom 2.2164914430964990 5.0008525540147319 37.8248567423740170 S
atom 7.7852136649329626 5.0008525540147319 37.8248567423740170 S
atom 0.0000000000000000 3.0099020546224815 32.8073097289521343 S
atom 5.0008525540147319 1.9909504993922527 32.8073097289521343 S
atom -0.0000000000000000 6.9918030534069802 32.8073097289521343 S
atom 5.0008525540147319 8.0107546086372210 32.8073097289521343 S
atom -0.0000000000000000 2.2164914430964977 37.8248567423740170 S
atom 5.0008525540147319 2.7843611109182347 37.8248567423740099 S
atom 0.0000000000000000 7.7852136649329582 37.8248567423740099 S
atom 5.0008525540147319 7.2173439971112412 37.8248567423740170 S
atom -0.0000000000000000 0.0000000000000000 40.0915963332820340 Ba
atom 5.0008525540147319 0.0000000000000000 40.0915963332820340 Ba
atom 0.0000000000000000 5.0008525540147319 40.0915963332820340 Ba
atom 5.0008525540147319 5.0008525540147319 40.0915963332820340 Ba
atom 2.5004262770073660 2.5004262770073660 40.4612115229577967 S
atom 7.5012788310221028 2.5004262770073660 40.4612115229577967 S
atom 2.5004262770073660 7.5012788310221028 40.4612115229577967 S
atom 7.5012788310221028 7.5012788310221028 40.4612115229577967 S
atom 2.5004262770073660 2.5004262770073660 43.5953488052250790 Ba
atom 7.5012788310221028 2.5004262770073660 43.5953488052250790 Ba
atom 2.5004262770073660 7.5012788310221028 43.5953488052250790 Ba
atom 7.5012788310221028 7.5012788310221028 43.5953488052250790 Ba
atom 2.5004262770073660 2.5004262770073660 48.4063181159204632 Ba
atom 7.5012788310221028 2.5004262770073660 48.4063181159204632 Ba
atom 2.5004262770073660 7.5012788310221028 48.4063181159204632 Ba
atom 7.5012788310221028 7.5012788310221028 48.4063181159204632 Ba
atom 5.0008525540147319 5.0008525540147319 45.6654195867508577 Zr
atom 10.0017051080294639 5.0008525540147319 45.6654195867508577 Zr
atom 5.0008525540147319 10.0017051080294639 45.6654195867508577 Zr
atom 10.0017051080294639 10.0017051080294639 45.6654195867508577 Zr
atom 5.0008525540147319 5.0008525540147319 50.7554355409571016 Zr
atom 10.0017051080294639 5.0008525540147319 50.7554355409571016 Zr
atom 5.0008525540147319 10.0017051080294639 50.7554355409571016 Zr
atom 10.0017051080294639 10.0017051080294639 50.7554355409571016 Zr
atom 5.0008525540147319 5.0008525540147319 43.1591338459012945 S
atom 10.0017051080294639 5.0008525540147319 43.1591338459012945 S
atom 5.0008525540147319 10.0017051080294639 43.1591338459012945 S
atom 10.0017051080294639 10.0017051080294639 43.1591338459012945 S
atom 5.0008525540147319 5.0008525540147319 48.2508812798006161 S
atom 10.0017051080294639 5.0008525540147319 48.2508812798006161 S
atom 5.0008525540147319 10.0017051080294639 48.2508812798006161 S
atom 10.0017051080294639 10.0017051080294639 48.2508812798006161 S
atom 5.0008525540147319 2.5004281551349949 45.7749845639466031 S
atom 10.0017051080294639 2.5004243988797410 45.7749845639466031 S
atom 5.0008525540147319 7.5012769528944760 45.7749845639466031 S
atom 10.0017051080294639 7.5012807091497269 45.7749845639466031 S
atom 5.0008525540147319 2.5004262173923859 50.7821338693362279 S
atom 10.0017051080294639 2.5004263366223500 50.7821338693362279 S
atom 5.0008525540147319 7.5012788906370798 50.7821338693362279 S
atom 10.0017051080294639 7.5012787714071143 50.7821338693362279 S
atom 2.5004243988797388 5.0008525540147319 45.7749845639466031 S
atom 7.5012807091497269 5.0008525540147319 45.7749845639466031 S
atom 2.5004281551349958 10.0017051080294639 45.7749845639466031 S
atom 7.5012769528944743 10.0017051080294639 45.7749845639466031 S
atom 2.5004263366223496 5.0008525540147319 50.7821338693362279 S
atom 7.5012787714071143 5.0008525540147319 50.7821338693362279 S
atom 2.5004262173923850 10.0017051080294639 50.7821338693362279 S
atom 7.5012788906370815 10.0017051080294639 50.7821338693362279 S
atom 2.5004262770073660 2.5004262770073660 53.3630716302990393 Ba
atom 7.5012788310221028 2.5004262770073660 53.3630716302990393 Ba
atom 2.5004262770073660 7.5012788310221028 53.3630716302990393 Ba
atom 7.5012788310221028 7.5012788310221028 53.3630716302990393 Ba
atom 2.5004262770073660 2.5004262770073660 58.3686254598398122 Ba
atom 7.5012788310221028 2.5004262770073660 58.3686254598398122 Ba
atom 2.5004262770073660 7.5012788310221028 58.3686254598398122 Ba
atom 7.5012788310221028 7.5012788310221028 58.3686254598398122 Ba
atom 5.0008525540147319 5.0008525540147319 55.8114777907301445 Zr
atom 10.0017051080294639 5.0008525540147319 55.8114777907301445 Zr
atom 5.0008525540147319 10.0017051080294639 55.8114777907301445 Zr
atom 10.0017051080294639 10.0017051080294639 55.8114777907301445 Zr
atom 5.0008525540147319 5.0008525540147319 60.8625627324092591 Zr
atom 10.0017051080294639 5.0008525540147319 60.8625627324092591 Zr
atom 5.0008525540147319 10.0017051080294639 60.8625627324092591 Zr
atom 10.0017051080294639 10.0017051080294639 60.8625627324092591 Zr
atom 5.0008525540147319 5.0008525540147319 53.2962334589312476 S
atom 10.0017051080294639 5.0008525540147319 53.2962334589312476 S
atom 5.0008525540147319 10.0017051080294639 53.2962334589312476 S
atom 10.0017051080294639 10.0017051080294639 53.2962334589312476 S
atom 5.0008525540147319 5.0008525540147319 58.3415048592064949 S
atom 10.0017051080294639 5.0008525540147319 58.3415048592064949 S
atom 5.0008525540147319 10.0017051080294639 58.3415048592064949 S
atom 10.0017051080294639 10.0017051080294639 58.3415048592064949 S
atom 5.0008525540147319 2.5004262748900694 55.8232724229839974 S
atom 10.0017051080294639 2.5004262791246648 55.8232724229839974 S
atom 5.0008525540147319 7.5012788331393994 55.8232724229839974 S
atom 10.0017051080294639 7.5012788289048054 55.8232724229839974 S
atom 5.0008525540147319 2.5004262774235007 60.8651850804884589 S
atom 10.0017051080294639 2.5004262765912357 60.8651850804884589 S
atom 5.0008525540147319 7.5012788306059699 60.8651850804884589 S
atom 10.0017051080294639 7.5012788314382322 60.8651850804884589 S
atom 2.5004262791246643 5.0008525540147319 55.8232724229839974 S
atom 7.5012788289048080 5.0008525540147319 55.8232724229839974 S
atom 2.5004262748900694 10.0017051080294639 55.8232724229839974 S
atom 7.5012788331393985 10.0017051080294639 55.8232724229839974 S
atom 2.5004262765912353 5.0008525540147319 60.8651850804884589 S
atom 7.5012788314382339 5.0008525540147319 60.8651850804884589 S
atom 2.5004262774234998 10.0017051080294639 60.8651850804884589 S
atom 7.5012788306059717 10.0017051080294639 60.8651850804884589 S
atom 2.5004262770073660 2.5004262770073660 63.3873895587827860 Ba
atom 7.5012788310221028 2.5004262770073660 63.3873895587827860 Ba
atom 2.5004262770073660 7.5012788310221028 63.3873895587827860 Ba
atom 7.5012788310221028 7.5012788310221028 63.3873895587827860 Ba
atom 2.5004262770073660 2.5004262770073660 68.4061536577255254 Ba
atom 7.5012788310221028 2.5004262770073660 68.4061536577255254 Ba
atom 2.5004262770073660 7.5012788310221028 68.4061536577255254 Ba
atom 7.5012788310221028 7.5012788310221028 68.4061536577255254 Ba
atom 5.0008525540147319 5.0008525540147319 65.9122163851563130 Zr
atom 10.0017051080294639 5.0008525540147319 65.9122163851563130 Zr
atom 5.0008525540147319 10.0017051080294639 65.9122163851563130 Zr
atom 10.0017051080294639 10.0017051080294639 65.9122163851563130 Zr
atom 5.0008525540147319 5.0008525540147319 70.9633013268353920 Zr
atom 10.0017051080294639 5.0008525540147319 70.9633013268353920 Zr
atom 5.0008525540147319 10.0017051080294639 70.9633013268353920 Zr
atom 10.0017051080294639 10.0017051080294639 70.9633013268353920 Zr
atom 5.0008525540147319 5.0008525540147319 63.3873895587827860 S
atom 10.0017051080294639 5.0008525540147319 63.3873895587827860 S
atom 5.0008525540147319 10.0017051080294639 63.3873895587827860 S
atom 10.0017051080294639 10.0017051080294639 63.3873895587827860 S
atom 5.0008525540147319 5.0008525540147319 68.4332742583589066 S
atom 10.0017051080294639 5.0008525540147319 68.4332742583589066 S
atom 5.0008525540147319 10.0017051080294639 68.4332742583589066 S
atom 10.0017051080294639 10.0017051080294639 68.4332742583589066 S
atom 5.0008525540147319 2.5004262765912362 65.9095940370768858 S
atom 10.0017051080294639 2.5004262774235011 65.9095940370768858 S
atom 5.0008525540147319 7.5012788314382339 65.9095940370768858 S
atom 10.0017051080294639 7.5012788306059717 65.9095940370768858 S
atom 5.0008525540147319 2.5004262791246643 70.9515066945812833 S
atom 10.0017051080294639 2.5004262748900690 70.9515066945812833 S
atom 5.0008525540147319 7.5012788289048062 70.9515066945812833 S
atom 10.0017051080294639 7.5012788331394002 70.9515066945812833 S
atom 2.5004262774235011 5.0008525540147319 65.9095940370768858 S
atom 7.5012788306059708 5.0008525540147319 65.9095940370768858 S
atom 2.5004262765912353 10.0017051080294639 65.9095940370768858 S
atom 7.5012788314382322 10.0017051080294639 65.9095940370768858 S
atom 2.5004262748900681 5.0008525540147319 70.9515066945812833 S
atom 7.5012788331393994 5.0008525540147319 70.9515066945812833 S
atom 2.5004262791246643 10.0017051080294639 70.9515066945812833 S
atom 7.5012788289048062 10.0017051080294639 70.9515066945812833 S
atom 2.5004262770073660 2.5004262770073660 73.4117074872663835 Ba
atom 7.5012788310221028 2.5004262770073660 73.4117074872663835 Ba
atom 2.5004262770073660 7.5012788310221028 73.4117074872663835 Ba
atom 7.5012788310221028 7.5012788310221028 73.4117074872663835 Ba
atom 2.5004262770073660 2.5004262770073660 78.3684610016450023 Ba
atom 7.5012788310221028 2.5004262770073660 78.3684610016450023 Ba
atom 2.5004262770073660 7.5012788310221028 78.3684610016450023 Ba
atom 7.5012788310221028 7.5012788310221028 78.3684610016450023 Ba
atom 5.0008525540147319 5.0008525540147319 76.0193435766085059 Zr
atom 10.0017051080294639 5.0008525540147319 76.0193435766085059 Zr
atom 5.0008525540147319 10.0017051080294639 76.0193435766085059 Zr
atom 10.0017051080294639 10.0017051080294639 76.0193435766085059 Zr
atom 5.0008525540147319 5.0008525540147319 81.1093595308146291 Zr
atom 10.0017051080294639 5.0008525540147319 81.1093595308146291 Zr
atom 5.0008525540147319 10.0017051080294639 81.1093595308146291 Zr
atom 10.0017051080294639 10.0017051080294639 81.1093595308146291 Zr
atom 5.0008525540147319 5.0008525540147319 73.4785456586342463 S
atom 10.0017051080294639 5.0008525540147319 73.4785456586342463 S
atom 5.0008525540147319 10.0017051080294639 73.4785456586342463 S
atom 10.0017051080294639 10.0017051080294639 73.4785456586342463 S
atom 5.0008525540147319 5.0008525540147319 78.5238978377647641 S
atom 10.0017051080294639 5.0008525540147319 78.5238978377647641 S
atom 5.0008525540147319 10.0017051080294639 78.5238978377647641 S
atom 10.0017051080294639 10.0017051080294639 78.5238978377647641 S
atom 5.0008525540147319 2.5004263366223500 75.9926452482292234 S
atom 10.0017051080294639 2.5004262173923859 75.9926452482292234 S
atom 5.0008525540147319 7.5012787714071161 75.9926452482292234 S
atom 10.0017051080294639 7.5012788906370815 75.9926452482292234 S
atom 5.0008525540147319 2.5004243988797379 80.9997945536187984 S
atom 10.0017051080294639 2.5004281551349932 80.9997945536187984 S
atom 5.0008525540147319 7.5012807091497251 80.9997945536187984 S
atom 10.0017051080294639 7.5012769528944743 80.9997945536187984 S
atom 2.5004262173923841 5.0008525540147319 75.9926452482292234 S
atom 7.5012788906370815 5.0008525540147319 75.9926452482292234 S
atom 2.5004263366223514 10.0017051080294639 75.9926452482292234 S
atom 7.5012787714071143 10.0017051080294639 75.9926452482292234 S
atom 2.5004281551349941 5.0008525540147319 80.9997945536187984 S
atom 7.5012769528944743 5.0008525540147319 80.9997945536187984 S
atom 2.5004243988797388 10.0017051080294639 80.9997945536187984 S
atom 7.5012807091497269 10.0017051080294639 80.9997945536187984 S
atom 2.5004262770073660 2.5004262770073660 83.1794303123403296 Ba
atom 7.5012788310221028 2.5004262770073660 83.1794303123403296 Ba
atom 2.5004262770073660 7.5012788310221028 83.1794303123403296 Ba
atom 7.5012788310221028 7.5012788310221028 83.1794303123403296 Ba
atom 5.0008525540147319 5.0008525540147319 83.6156452716640928 S
atom 10.0017051080294639 5.0008525540147319 83.6156452716640928 S
atom 5.0008525540147319 10.0017051080294639 83.6156452716640928 S
atom 10.0017051080294639 10.0017051080294639 83.6156452716640928 S
