#=======================================================
# FHI-aims file: sym_relax/sym_relax_RP_2_Rx0Rz_0-Ry0.in
# Created using the Atomic Simulation Environment (ASE)
# Fri Mar 14 10:21:30 2025
#=======================================================
lattice_vector 10.1108493889716229 -0.0000000000000000 0.0003321176147534 
lattice_vector -0.0000000000000000 10.1108390801411634 0.0000000000000000 
lattice_vector -0.0008187066184497 0.0000000000000000 25.3660374373245538 
atom -0.1548442651920120 0.0000000000000000 0.2814175147607787 Ba
atom 5.2102733172925086 0.0000000000000000 0.2816148429818739 Ba
atom 0.1548486228067155 5.0554195400705835 0.2814487841744975 Ba
atom 4.9005804292937993 5.0554195400705835 0.2815835735681553 Ba
atom 0.0482340303279046 0.0000000000000000 4.8780933842405272 Ba
atom 5.0068757769969583 0.0000000000000000 4.8782409196916978 Ba
atom -0.0485489174888458 5.0554195400705835 4.8780748608843165 Ba
atom 5.1036587248137089 5.0554195400705835 4.8782594430478978 Ba
atom 2.5276363261173804 2.5154693869897802 2.3474008983545867 Zr
atom 7.5830610206031892 2.5399501530807966 2.3475669571619631 Zr
atom 2.5276363261173804 7.5953696931513877 2.3474008983545858 Zr
atom 7.5830610206031892 7.5708889270603645 2.3475669571619631 Zr
atom 2.5274734812074935 2.5154693869897820 7.4089334055776312 Zr
atom 7.5828981756933045 2.5399501530807975 7.4090994643850028 Zr
atom 2.5274734812074935 7.5953696931513894 7.4089334055776312 Zr
atom 7.5828981756933045 7.5708889270603645 7.4090994643850028 Zr
atom 2.5277260220265112 2.8831379676152560 -0.1399094225424633 S
atom 7.5831507165123213 2.1722815724553275 -0.1397433637350864 S
atom 2.5277260220265103 7.2277011125259163 -0.1399094225424632 S
atom 7.5831507165123213 7.9385575076858412 -0.1397433637350863 S
atom 2.5275549036624274 2.0900589177948641 4.8781671519661005 S
atom 7.5829795981482437 2.9653606222757172 4.8783332107734889 S
atom 2.5275549036624274 8.0207801623463002 4.8781671519661005 S
atom 7.5829795981482437 7.1454784578654431 4.8783332107734889 S
atom 2.5276582878004126 0.0000000000000000 2.0403278571327910 S
atom 7.5830708005166789 0.0000000000000000 2.8003514193638614 S
atom 2.5276461060308733 5.0554195400705835 2.8001853605564850 S
atom 7.5830829822862222 5.0554195400705835 2.0404939159401723 S
atom 2.5274515195244511 0.0000000000000000 7.7160064467994225 S
atom 7.5828883957798130 0.0000000000000000 6.9563150021831097 S
atom 2.5274637012939944 5.0554195400705835 6.9561489433757329 S
atom 7.5828762140102626 5.0554195400705835 7.7161725056067993 S
atom -0.0000734741565710 2.5277075704992855 2.4609365731064692 S
atom 5.0553512203292303 2.5277119695713015 2.4611026319138460 S
atom -0.0000734741565710 7.5831315096418850 2.4609365731064683 S
atom 5.0553512203292303 7.5831271105698752 2.4611026319138460 S
atom -0.0002414130043709 2.5277119695713020 7.2952316720183710 S
atom 5.0551832814814448 2.5277075704992873 7.2953977308257540 S
atom -0.0002414130043709 7.5831271105698752 7.2952316720183692 S
atom 5.0551832814814448 7.5831315096418850 7.2953977308257558 S
atom -0.1551635099676575 0.0000000000000000 9.4747194609503413 Ba
atom 5.2099540725168847 0.0000000000000000 9.4749167891714272 Ba
atom 0.1545293780310708 5.0554195400705835 9.4747507303640539 Ba
atom 4.9002611845181514 5.0554195400705835 9.4748855197577200 Ba
atom 2.5273837852983569 2.8831379676152560 9.8962437264746708 S
atom 7.5828084797841653 2.1722815724553266 9.8964097852820512 S
atom 2.5273837852983569 7.2277011125259163 9.8962437264746708 S
atom 7.5828084797841653 7.9385575076858412 9.8964097852820512 S
atom 2.5272674223267044 2.3728631468931991 12.9645289089645832 Ba
atom 7.5826921168125141 2.6825563931773835 12.9646949677719707 Ba
atom 2.5272674223267044 7.7379759332479701 12.9645289089645868 Ba
atom 7.5826921168125141 7.4282826869637839 12.9646949677719672 Ba
atom 2.5271455503532123 2.5760854654375436 17.5611858706284139 Ba
atom 7.5825702448390153 2.4793340746330363 17.5613519294357872 Ba
atom 2.5271455503532123 7.5347536147036216 17.5611858706284139 Ba
atom 7.5825702448390153 7.6315050055081217 17.5613519294357872 Ba
atom 5.0426590855331943 5.0554195400705835 15.0305043176934401 Zr
atom 10.1225795324880536 5.0554195400705835 15.0306622102079874 Zr
atom 5.0671548380022804 10.1108390801411669 15.0304961514006195 Zr
atom 10.0980837800190084 10.1108390801411669 15.0306703765008240 Zr
atom 5.0425609571899495 5.0554195400705835 20.0920416486635425 Zr
atom 10.1224814041448301 5.0554195400705835 20.0921995411781076 Zr
atom 5.0670567096590364 10.1108390801411669 20.0920334823707165 Zr
atom 10.0979856516757618 10.1108390801411669 20.0922077074709158 Zr
atom 5.4104265086919590 5.0554195400705835 12.5432000983890930 S
atom 9.7550128882861511 5.0554195400705835 12.5433421714908899 S
atom 4.6995881938003414 10.1108390801411669 12.5431761126835077 S
atom 10.4658512031777864 10.1108390801411669 12.5433661571964699 S
atom 4.6171981193247253 5.0554195400705835 17.5612593892666382 S
atom 10.5479423703533062 5.0554195400705835 17.5614444696049041 S
atom 5.4925176758675045 10.1108390801411669 17.5612784107975273 S
atom 9.6726228138105519 10.1108390801411669 17.5614254480740009 S
atom 5.0549314248615982 2.5277085965121189 15.1441318854243931 S
atom 10.1103561193474079 2.5277109435584624 15.1442979442317487 S
atom 5.0549314248615982 7.5831304836290405 15.1441318854243967 S
atom 10.1103561193474079 7.5831281365827126 15.1442979442317451 S
atom 5.0547843703306325 2.5277109435584633 19.9784059146397865 S
atom 10.1102090648164040 2.5277085965121189 19.9785719734471847 S
atom 5.0547843703306325 7.5831281365827126 19.9784059146397865 S
atom 10.1102090648164040 7.5831304836290423 19.9785719734471776 S
atom 2.5272230702508356 5.0554195400705835 14.7233447944910179 S
atom 7.5826215246344626 5.0554195400705835 15.4833484268595196 S
atom 2.5271968301486658 10.1108390801411669 15.4831823680521552 S
atom 7.5826477647366390 10.1108390801411669 14.7235108532983983 S
atom 2.5270680304555797 5.0554195400705835 20.3990269467657868 S
atom 7.5825189650435592 5.0554195400705835 19.6393554320120387 S
atom 2.5270942705577544 10.1108390801411669 19.6391893732046370 S
atom 7.5824927249413925 10.1108390801411669 20.3991930055731210 S
atom 2.5270236783797153 2.3728631468932009 22.1578428322922285 Ba
atom 7.5824483728655148 2.6825563931773826 22.1580088910996160 Ba
atom 2.5270236783797144 7.7379759332479718 22.1578428322922285 Ba
atom 7.5824483728655148 7.4282826869637839 22.1580088910996125 Ba
atom 5.4101276013918831 5.0554195400705835 22.5793616873806826 S
atom 9.7547139809860859 5.0554195400705835 22.5795037604824564 S
atom 4.6992892865002585 10.1108390801411669 22.5793377016751258 S
atom 10.4655522958777070 10.1108390801411669 22.5795277461880595 S
