#=======================================================
# FHI-aims file: sym_relax/sym_relax_RP_8_Rx0Rz_0RyRz.in
# Created using the Atomic Simulation Environment (ASE)
# Mon Mar 17 16:08:20 2025
#=======================================================
lattice_vector 9.8984636815572813 -0.0000524345026620 0.0058253196442266 
lattice_vector -0.0000524345026620 9.8984636815572724 -0.0058253196442265 
lattice_vector -0.0516635662207514 0.0516635662207525 87.6209287926724016 
atom -0.0098537594831415 -0.0060708031022134 0.1604117362167925 Ba
atom 4.9429904562481566 -0.0097121500938417 0.1633123149079817 Ba
atom -0.0062676017817784 4.9395459079361084 0.1574869952637547 Ba
atom 4.9393518640441263 4.9431348204250769 0.1604117362167925 Ba
atom 0.0007757271848498 0.0001294637120458 5.0704320200977815 Ba
atom 4.9433428169608895 0.0068076010937890 5.0733543337558720 Ba
atom -0.0059152410690724 4.9560656591237509 5.0675290141116527 Ba
atom 4.9499813507121626 4.9493350872393274 5.0704320200977833 Ba
atom 2.4699323656872987 2.4738489221230884 2.4390109940861233 Zr
atom 7.4202139515041301 2.4727789777509877 2.4419039999976304 Zr
atom 2.4709558934741760 7.4220370357809662 2.4360786803533983 Zr
atom 7.4191379892146152 7.4230545456503831 2.4390109940861233 Zr
atom 2.4699201532347130 2.4784451443383877 7.5810766969659262 Zr
atom 7.4187467632701241 2.4788054515691229 7.5839656818680226 Zr
atom 2.4694887052401544 7.4280635095990784 7.5781403622237971 Zr
atom 7.4191257767620318 7.4276507678656660 7.5810766969659262 Zr
atom 2.4666000255831828 2.4811973540394829 -0.1044369070046468 S
atom 7.4305556016774643 2.4664874611424792 -0.1015204897280236 S
atom 2.4812975436474831 7.4157455191724253 -0.1073458093722500 S
atom 7.4158056491104913 7.4304029775667617 -0.1044369070046467 S
atom 2.4773281670596083 2.4686035813964700 5.0442078832714445 S
atom 7.4118483085720364 2.4831713123985173 5.0470959485314122 S
atom 2.4625902505420778 7.4324293704284576 5.0412706288871831 S
atom 7.4265337905869035 7.4178092049237563 5.0442078832714463 S
atom 2.0410386085756840 -0.0005367201482869 2.5266907042578577 S
atom 7.8519800638019657 -0.0005453497788449 2.5463145846792390 S
atom 2.9027220057720085 4.9487127082511240 2.5404892650350122 S
atom 6.9902442321029818 4.9486689033790014 2.5266907042578595 S
atom 3.0068440671146748 0.0037764668625415 7.6107279039730731 S
atom 6.8825456196250610 0.0037441151667681 7.6044142217330810 S
atom 1.9332875615950800 4.9530021731967233 7.5985889020888600 S
atom 7.9560496906419864 4.9529820903898374 7.6107279039730802 S
atom -0.0035194699519606 2.9057657342672565 2.5400252521081228 S
atom 4.9457181831835246 2.0440044214000967 2.5271378753832217 S
atom -0.0035398748464452 6.9932624794300366 2.5213125557390028 S
atom 4.9456861535753429 7.8549713577945450 2.5400252521081246 S
atom -0.0051857421884629 1.9423061413666050 7.5991809572247790 S
atom 4.9440424597552273 3.0158213345173568 7.6100975439627128 S
atom -0.0052155982747569 7.9650793925472847 7.6042722243184855 S
atom 4.9440198813388232 6.8915117648938846 7.5991809572247773 S
atom -0.0066053793566930 0.0087751081125119 10.1591454155588927 Ba
atom 4.9460021205563542 0.0053833975037155 10.1620653594914412 Ba
atom -0.0032559374736075 4.9546414555336673 10.1562400398472068 Ba
atom 4.9426002441705803 4.9579807316398128 10.1591454155588927 Ba
atom -0.0078858817516359 0.0086474847332005 15.2673001208221351 Ba
atom 4.9398912014708944 0.0101303542771886 15.2702102995577604 Ba
atom -0.0093668565590485 4.9593884123071570 15.2643849799135296 Ba
atom 4.9413197417756578 4.9578531082604966 15.2673001208221351 Ba
atom 2.4670510529370029 2.4821544371011250 12.7000451537095849 Zr
atom 7.4164420892290916 2.4819925299741010 12.7029364523354484 Zr
atom 2.4671840311991238 7.4312505880040680 12.6971111326912354 Zr
atom 7.4162566764642985 7.4313600606284069 12.7000451537095866 Zr
atom 2.4641080189044917 2.4851479729216530 17.8182363259112044 Zr
atom 7.4133293807328160 2.4851541497296195 17.8211293270567488 Zr
atom 2.4640713227028477 7.4344122077595625 17.8153040074125535 Zr
atom 7.4133136424317856 7.4343535964489380 17.8182363259112115 Zr
atom 2.4642556612433082 2.4830151268054399 10.1541944226370315 S
atom 7.4202842824555395 2.4762020484642973 10.1571078043620115 S
atom 2.4710262244255556 7.4254601064942429 10.1512824847177558 S
atom 7.4134612847706025 7.4322207503327355 10.1541944226370298 S
atom 2.4666686883429936 2.4818651625561898 15.2654211663967310 S
atom 7.4131341169065914 2.4846157965839102 15.2683241722828971 S
atom 2.4638760588766342 7.4338738546138767 15.2624988526386698 S
atom 7.4158743118702963 7.4310707860835068 15.2654211663967327 S
atom 1.9313868247141652 0.0072810322659131 12.7141939229306917 S
atom 7.9522777646928828 0.0072579548142019 12.7211501033359866 S
atom 3.0030197066629118 4.9565160128441450 12.7153247836918091 S
atom 6.8805924482414715 4.9564866557932143 12.7141939229306917 S
atom 3.0003265416229965 0.0104725933554763 17.8250811840762076 S
atom 6.8771789998223127 0.0104437663691567 17.8257687074448086 S
atom 1.9279209417923426 4.9597018243991169 17.8199433878005244 S
atom 7.9495321651503135 4.9596782168827636 17.8250811840761969 S
atom -0.0077051095903752 3.0180793351844328 12.7146868950963103 S
atom 4.9415275937791519 1.9463898273035793 12.7148191736276726 S
atom -0.0077304642508206 6.8956478853335357 12.7089938539834879 S
atom 4.9415005139369335 7.9672849587117041 12.7146868950963174 S
atom -0.0105675263475046 1.9489702527486268 17.8205670653368919 S
atom 4.9386648768472554 3.0213246411943429 17.8244507226347331 S
atom -0.0105931811827223 7.9705826992242654 17.8186254029904916 S
atom 4.9386380971797887 6.8981758762759240 17.8205670653368884 S
atom -0.0124736960639682 0.0124930719195214 20.3769574997247389 Ba
atom 4.9376759711585532 0.0115102765132183 20.3798755287821969 Ba
atom -0.0115820868714325 4.9607683345431770 20.3740502091380193 Ba
atom 4.9367319274633461 4.9616986954468096 20.3769574997247425 Ba
atom -0.0146889263763526 0.0138729941555512 25.4866227289492393 Ba
atom 4.9330881568461802 0.0153558636995395 25.4895329076847723 Ba
atom -0.0161699011837651 4.9646139217294678 25.4837075880405592 Ba
atom 4.9345166971509498 4.9630786176828288 25.4866227289492357 Ba
atom 2.4610785178890491 2.4880548222304042 22.9357037014501550 Zr
atom 7.4102998797173916 2.4880609990383773 22.9385967025956816 Zr
atom 2.4610418216874144 7.4373190570683159 22.9327713829514650 Zr
atom 7.4102841414163665 7.4372604457576994 22.9357037014501586 Zr
atom 2.4579658093927916 2.4912164419859208 28.0538965761714643 Zr
atom 7.4073568456848831 2.4910545348588924 28.0567878747974007 Zr
atom 2.4580987876549050 7.4403125928888496 28.0509625551531023 Zr
atom 7.4071714329200988 7.4404220655131983 28.0538965761714643 Zr
atom 2.4617091147836230 2.4874880356898568 20.3769622747627253 S
atom 7.4126987838382341 2.4857209362701647 20.3798707537442603 S
atom 2.4634407258082720 7.4349789943001143 20.3740454340999761 S
atom 7.4109147383109075 7.4366936592171529 20.3769622747627253 S
atom 2.4612737817152572 2.4885931753761241 25.4885088562240938 S
atom 7.4077392102788711 2.4913438094038267 25.4914118621102403 S
atom 2.4584811522489107 7.4406018674337542 25.4855865424660628 S
atom 7.4104794052425671 7.4377987989033887 25.4885088562240902 S
atom 1.9248757334715767 0.0135307550772634 22.9317518444307282 S
atom 7.9464869568294985 0.0135071475609214 22.9368896407063971 S
atom 2.9972288987995714 4.9627652055908786 22.9310643210621059 S
atom 6.8740813569988983 4.9627363786045287 22.9317518444307211 S
atom 2.9938154503803935 0.0167223161668258 28.0426391055762601 S
atom 6.8713881919589621 0.0166929591158750 28.0415082448151765 S
atom 1.9221301339289965 4.9659510171458212 28.0356829251709421 S
atom 7.9430210739076905 4.9659279396941090 28.0426391055762636 S
atom -0.0134882565878963 3.0242911537140578 22.9304406435258272 S
atom 4.9357430217746057 1.9518843307656843 22.9323823058722098 S
atom -0.0135150362553403 6.9011423887956367 22.9265569862279470 S
atom 4.9357173669394214 7.9734967772413503 22.9304406435258237 S
atom -0.0163506733450257 1.9551820712782593 28.0363208137663520 S
atom 4.9328803048427057 3.0268191446564408 28.0420138548792650 S
atom -0.0163777531872421 7.9760772026863913 28.0361885352350768 S
atom 4.9328549501822829 6.9043876948055605 28.0363208137663520 S
atom -0.0207998454617936 0.0186199509290247 30.5947676690155212 Ba
atom 4.9318076544512790 0.0152282403202276 30.5976876129479578 Ba
atom -0.0174504035787078 4.9644862983501818 30.5918622933037057 Ba
atom 4.9284057780654988 4.9678255744563096 30.5947676690155212 Ba
atom -0.0181405418663284 0.0171957473389511 35.6834786947510736 Ba
atom 4.9244265479097393 0.0238738847206938 35.6864010084091703 Ba
atom -0.0248315101202510 4.9731319427506486 35.6805756887649110 Ba
atom 4.9310650816609751 4.9664013708662464 35.6834786947510736 Ba
atom 2.4556611353517441 2.4944035203908967 33.1728673466388955 Zr
atom 7.4044877453871516 2.4947638276216342 33.1757563315408390 Zr
atom 2.4552296873571926 7.4440218856515692 33.1699310118968000 Zr
atom 7.4048667588790336 7.4436091439181888 33.1728673466388884 Zr
atom 2.4541939471177430 2.5004299942090364 38.3149290285093045 Zr
atom 7.4044755329345788 2.4993600498369397 38.3178220344208711 Zr
atom 2.4552174749046047 7.4486181078668743 38.3119967147765976 Zr
atom 7.4033995706450391 7.4496356177363179 38.3149290285093045 Zr
atom 2.4541236161663558 2.4970069234957193 30.5997252241449686 S
atom 7.4101522373785480 2.4901938451545851 30.6026386058699060 S
atom 2.4608941793486068 7.4394519031845201 30.5968132862257178 S
atom 7.4033292396936305 7.4462125470230323 30.5997252241449686 S
atom 2.4625595900498225 2.4900376595615170 35.7097370799756177 S
atom 7.3970797315622798 2.5046053905635621 35.7126251452355206 S
atom 2.4478216735322942 7.4538634485935109 35.7067998255913892 S
atom 7.4117652135771381 7.4392432830887953 35.7097370799756177 S
atom 1.9183582079798871 0.0202268815701986 33.1461051245337899 S
atom 7.9411203370267911 0.0202067987633104 33.1582441264180403 S
atom 2.9918622789968121 4.9694648567932536 33.1524188067737313 S
atom 6.8675638315072005 4.9694325050974646 33.1461051245337899 S
atom 2.8841636665188828 0.0245400685810263 38.2301423242491296 S
atom 6.9716858928498686 0.0244962637089221 38.2163437634718335 S
atom 2.0224278348198967 4.9737543217388653 38.2105184438276666 S
atom 7.8333692900461687 4.9737456921083076 38.2301423242491296 S
atom -0.0188700407469373 3.0309552650960803 33.1518267516380121 S
atom 4.9303654388666551 1.9573876374426831 33.1467354845441022 S
atom -0.0188926191633048 6.9066456954726245 33.1409101648999922 S
atom 4.9303355827803852 7.9801608886233586 33.1518267516379979 S
atom -0.0205363129834400 2.0674956721954443 38.2109824567546355 S
atom 4.9286897154383258 2.9292045505599185 38.2296951531236857 S
atom -0.0205683425916174 7.8784626085898735 38.2238698334794975 S
atom 4.9286693105438779 7.0167012957227328 38.2109824567546355 S
atom -0.0177881811536224 0.0337154985265813 40.5935207135989629 Ba
atom 4.9350560345777250 0.0300741515349532 40.5964212922900742 Ba
atom -0.0142020234522590 4.9793322095648875 40.5905959726459002 Ba
atom 4.9314174423736965 4.9829211220538658 40.5935207135989629 Ba
atom 2.4438522969444247 2.5067215108175462 40.8583535182348569 S
atom 7.4078078730386911 2.4920116179205563 40.8612699355116007 S
atom 2.4585498150087193 7.4412696759504851 40.8554446158672988 S
atom 7.3930579204717191 7.4559271343448312 40.8583535182348569 S
atom 2.4548418317554939 2.5102883543571624 43.9708761325531157 Ba
atom 7.4076888022743770 2.5066497621531396 43.9737767112440636 Ba
atom 2.4584307442444615 7.4559078201831035 43.9679513915998683 Ba
atom 7.4040474552827975 7.4594939778844500 43.9708761325531157 Ba
atom 2.4486415649412399 2.4996588676891727 48.8808964164338846 Ba
atom 7.3911690510867691 2.5062974014404324 48.8838187300921234 Ba
atom 2.4419109930568119 7.4555554594703874 48.8779934104478002 Ba
atom 7.3978471884685284 7.4488644912164732 48.8808964164338846 Ba
atom 4.9241277300574513 4.9797078527140233 46.2494753904222478 Zr
atom 9.8744032979569027 4.9786318904245030 46.2523683963338428 Zr
atom 4.9251452399269136 9.9278899484544656 46.2465430766895835 Zr
atom 9.8733333535848029 9.9289134762412967 46.2494753904222407 Zr
atom 4.9195315078421844 4.9797200651666031 51.3915410933021946 Zr
atom 9.8683768241387515 4.9800990786585047 51.3944300782041879 Zr
atom 4.9191187661087818 9.9293571366884290 51.3886047585599712 Zr
atom 9.8687371313694214 9.9289256886939139 51.3915410933021946 Zr
atom 4.9167792981410638 4.9830401928181454 43.7060274893315466 S
atom 9.8806948145653983 4.9682902402511697 43.7089439066082335 S
atom 4.9314367565354456 9.9175482982811527 43.7031185869640240 S
atom 9.8659849216684119 9.9322458163454339 43.7060274893315466 S
atom 4.9293730707840933 4.9723120513417198 48.8546722796075841 S
atom 9.8640109633093580 4.9869975333565781 48.8575603448674940 S
atom 4.9147529052794070 9.9362555913865354 48.8517350252232063 S
atom 9.8785786943113916 9.9215176748689853 48.8546722796075841 S
atom 5.3539722307804753 2.5039220352178146 46.3376022717194402 S
atom 9.4414689759433017 2.5039016303233166 46.3563149680885331 S
atom 4.4922109179132974 7.4531596883532751 46.3504896484442881 S
atom 10.3031778543077674 7.4531276587450819 46.3376022717194402 S
atom 4.3821553176632433 2.5055977586461151 51.4205619402990521 S
atom 10.4049285688439248 2.5055679025598203 51.4154706732051707 S
atom 5.4556705108139578 7.4548259605897682 51.4096453535609115 S
atom 9.3313609411905496 7.4548033821734165 51.4205619402990521 S
atom 2.4492639439294748 4.5469182126293308 46.3509536613713919 S
atom 7.3985133723288641 5.4086016098256309 46.3371551005940177 S
atom 2.4492553142989055 10.3578596678555552 46.3313297809497726 S
atom 7.3984695674567416 9.4961238361566274 46.3509536613713848 S
atom 2.4449744789838452 5.5163526568062347 51.4090532984250927 S
atom 7.3942001853180193 4.4427961512866458 51.4211923003093787 S
atom 2.4449421272880731 9.3920542093165764 51.4153669806650271 S
atom 7.3941801025111573 10.4655582803335179 51.4090532984250927 S
atom 2.4399959205407735 2.5070399742307181 53.9696098118952108 Ba
atom 7.3925932546768660 2.5036380978449602 53.9725297558275585 Ba
atom 2.4433351966468884 7.4528961558749014 53.9667044361832993 Ba
atom 7.3892015440680829 7.4562455977580200 53.9696098118952108 Ba
atom 2.4401235439200595 2.5083204766256486 59.0777645171584425 Ba
atom 7.3878462979033719 2.5097490169304111 59.0806746958938476 Ba
atom 2.4385882398734222 7.4590070749603550 59.0748493762496310 Ba
atom 7.3893291674473600 7.4575261001529380 59.0777645171584496 Ba
atom 4.9158222150794293 4.9825891654643177 56.5105095500456969 Zr
atom 9.8651897457337832 4.9824037526995530 56.5134008486717079 Zr
atom 4.9159316877038144 9.9316618107294747 56.5075755290274557 Zr
atom 9.8650278386067356 9.9317947889916294 56.5105095500456969 Zr
atom 4.9128286792589284 4.9855321994968138 61.6287007222474088 Zr
atom 9.8620281259782256 4.9855164611958207 61.6315937233927968 Zr
atom 4.9127700679482755 9.9347745192257442 61.6257684037485305 Zr
atom 9.8620343027862241 9.9347378230241521 61.6287007222474230 Zr
atom 4.9149615253751051 4.9853845571580262 53.9646588189733123 S
atom 9.8709802272436029 4.9785615594731043 53.9675722006981928 S
atom 4.9217221692136217 9.9278196175030509 53.9617468810540402 S
atom 9.8641671489024425 9.9345901806853476 53.9646588189733123 S
atom 4.9161114896243561 4.9829715300583306 59.0758855627330277 S
atom 9.8625664791239522 4.9857117250220302 59.0787885686189469 S
atom 4.9133084210939870 9.9349697830519617 59.0729632489748084 S
atom 9.8653171131516331 9.9321771535856147 59.0758855627330206 S
atom 5.4515868248769994 2.5081126246221732 56.5252835699639178 S
atom 9.3291553750260974 2.5080872699617354 56.5309766110766603 S
atom 4.3798973169961570 7.4573453279916899 56.5251512914324650 S
atom 10.4007924484042977 7.4573182481494644 56.5252835699639178 S
atom 4.3766520109862386 2.5109753415540852 61.6349151189708806 S
atom 10.3982644574619307 2.5109496867188605 61.6368567813172419 S
atom 5.4490063994319353 7.4602077447488266 61.6310314616730039 S
atom 9.3258576345135467 7.4601809650813742 61.6349151189708735 S
atom 2.4414606393364249 4.4466205117383950 56.5257891800280206 S
atom 7.3906956199146645 5.5182533936871545 56.5246583192668552 S
atom 2.4414375618846966 10.4675114517170886 56.5188329996226670 S
atom 7.3906662628637347 9.3958261352657431 56.5257891800280348 S
atom 2.4382748277814583 5.5217192766089802 61.6304077841368496 S
atom 7.3875040588250913 4.4493136767783241 61.6355455804123409 S
atom 2.4382460007951297 9.3985717348082680 61.6297202607680106 S
atom 7.3874804513087495 10.4709249001362945 61.6304077841368425 S
atom 2.4362779567337554 2.5129082909379861 64.1874218960609113 Ba
atom 7.3864663756673732 2.5119642472427861 64.1903399251181952 Ba
atom 2.4372083176374026 7.4612223052727424 64.1845146054741633 Ba
atom 7.3854835802610657 7.4621139144652835 64.1874218960609113 Ba
atom 2.4348980344977180 2.5151235212503771 69.2970871252852874 Ba
atom 7.3826207884810549 2.5165520615551276 69.2999973040207209 Ba
atom 2.4333627304510794 7.4658101195850772 69.2941719843767601 Ba
atom 7.3841036580250456 7.4643291447776470 69.2970871252852874 Ba
atom 4.9099218299501750 4.9885617005122507 66.7461680977862386 Zr
atom 9.8591212766694731 4.9885459622112389 66.7490610989317474 Zr
atom 4.9098632186395523 9.9378040202411650 66.7432357792877013 Zr
atom 9.8591274534774733 9.9377673240395428 66.7461680977862386 Zr
atom 4.9067602101946646 4.9916744090085139 71.8643609725077113 Zr
atom 9.8561277408489758 4.9914889962437323 71.8672522711333386 Zr
atom 4.9068696828190204 9.9407470542737002 71.8614269514892783 Zr
atom 9.8559658337219922 9.9408800325358335 71.8643609725077113 Zr
atom 4.9104886164907047 4.9879311036176786 64.1874266710989048 S
atom 9.8614613394377209 4.9861470580903937 64.1903351500803439 S
atom 4.9122032814077325 9.9354051161203660 64.1845098304361272 S
atom 9.8596942400180261 9.9371367271449351 64.1874266710989048 S
atom 4.9093834768044600 4.9883664366860598 69.2989732525599038 S
atom 9.8558384663040837 4.9911066316497532 69.3018762584462706 S
atom 4.9065804082740918 9.9403646896797664 69.2960509388020256 S
atom 9.8585891003317254 9.9375720602133555 69.2989732525599180 S
atom 5.4460923214148922 2.5138971966267007 66.7428467022082543 S
atom 9.3229435564964938 2.5138704169592549 66.7467303595061310 S
atom 4.3736854984665205 7.4631284749891833 66.7409050398618859 S
atom 10.3952979449422056 7.4631028201539857 66.7428467022082827 S
atom 4.3711575075241145 2.5167599135585959 71.8524782512156293 S
atom 10.3920526389322720 2.5167328337163899 71.8526105297466984 S
atom 5.4427945809023042 7.4659908917463254 71.8467852101027376 S
atom 9.3203631310514155 7.4659655370858813 71.8524782512156293 S
atom 2.4352114465896930 4.4524113196017669 66.7415287173985092 S
atom 7.3844458971033129 5.5247644849297366 66.7422162407671351 S
atom 2.4351878390733499 10.4740225429597000 66.7363909211227480 S
atom 7.3844170701169958 9.4016169431290368 66.7415287173984808 S
atom 2.4320256350347353 5.5275100844723228 71.8461473215072317 S
atom 7.3812543360137504 4.4558247680209417 71.8531035019126563 S
atom 2.4319962779837772 9.4050828260508812 71.8472781822679991 S
atom 7.3812312585620177 10.4767157079995936 71.8461473215072317 S
atom 2.4301510777242585 2.5212344403358107 74.4052320653514698 Ba
atom 7.3827484118603417 2.5178325639500612 74.4081520092839952 Ba
atom 2.4334903538303805 7.4670906219800095 74.4023266896398496 Ba
atom 7.3793567012515613 7.4704400638630979 74.4052320653514698 Ba
atom 2.4315752813143390 2.5185751367403504 79.4939430910872886 Ba
atom 7.3741027674599042 2.5252136704915955 79.4968654047453214 Ba
atom 2.4248447094299284 7.4744717285215581 79.4910400851012469 Ba
atom 7.3807809048416217 7.4677807602676420 79.4939430910872886 Ba
atom 4.9035731317896714 4.9939790830495774 76.9833317429753237 Zr
atom 9.8524184480862615 4.9943580965414585 76.9862207278771677 Zr
atom 4.9031603900562715 9.9436161545714103 76.9803954082330932 Zr
atom 9.8527787553169812 9.9431847065768739 76.9833317429753237 Zr
atom 4.8975466579715325 4.9954462712835852 82.1253934248457256 Zr
atom 9.8478222258709458 4.9943703089940392 82.1282864307567451 Zr
atom 4.8985641678409939 9.9436283670239991 82.1224611111127984 Zr
atom 9.8467522814988708 9.9446518948108089 82.1253934248457256 Zr
atom 4.9009697286848422 4.9955166022349680 74.4101896204812903 S
atom 9.8569884305533186 4.9886936045500274 74.4131030022061708 S
atom 4.9077303725233232 9.9379516625799855 74.4072776825619684 S
atom 9.8501753522121902 9.9447222257622379 74.4101896204812903 S
atom 4.9079389926190577 4.9870806283514817 79.5202014763116836 S
atom 9.8425768851443642 5.0017661103663400 79.5230895415715224 S
atom 4.8933188271143466 9.9510241683963088 79.5172642219271353 S
atom 9.8571446161463516 9.9362862518787676 79.5202014763116694 S
atom 5.4405890147378804 2.5192747795346611 76.9571998808802675 S
atom 9.3162794451144695 2.5192522011182938 76.9681164676181737 S
atom 4.3670213870844918 7.4685102591482435 76.9622911479741134 S
atom 10.3897946382652009 7.4684804030619460 76.9571998808802675 S
atom 4.4687721016206234 2.5209505029629664 82.0401595494597444 S
atom 10.2797390380151086 2.5209184733547967 82.0272721727350671 S
atom 5.3304809799851416 7.4701765313847446 82.0214468530905947 S
atom 9.4179777251479528 7.4701561264902718 82.0401595494597302 S
atom 2.4285117953873070 4.4577779394044859 76.9628832031099677 S
atom 7.3777497706104063 5.5312820104214193 76.9565695208704028 S
atom 2.4284917125804117 10.4805400684513952 76.9507442012259162 S
atom 7.3777174189146235 9.4069835629317797 76.9628832031099677 S
atom 2.4242223304417010 5.4272123835813817 82.0209828401639243 S
atom 7.3734365835995579 4.5654765518824476 82.0406067205853731 S
atom 2.4241785255695865 9.5147346099123755 82.0347814009410854 S
atom 7.3734279539690082 10.3764180071086543 82.0209828401639243 S
atom 2.4150555301266885 2.5182227760276445 84.4039851099350784 Ba
atom 7.3679025006456254 2.5145841838236205 84.4068856886264456 Ba
atom 2.4186444426156570 7.4638422418535599 84.4010603689821295 Ba
atom 7.3642611536540059 7.4674283995549278 84.4039851099350784 Ba
atom 4.8912551413630254 5.0057879214569034 84.6688179145709370 S
atom 9.8551706577873386 4.9910379688899305 84.6717343318476168 S
atom 4.9059125997573760 9.9402960269198672 84.6659090122035138 S
atom 9.8404607648903184 9.9549935449841573 84.6688179145709370 S
