#=======================================================
# FHI-aims file: sym_relax/sym_relax_RP_9_00Rz_00Rz.in
# Created using the Atomic Simulation Environment (ASE)
# Mon Mar 17 16:29:46 2025
#=======================================================
lattice_vector 9.8975623588280950 -0.0000000515311959 0.0000000000000000 
lattice_vector -0.0000000515311959 9.8975623588280985 0.0000000000000001 
lattice_vector 0.0000000000000000 0.0000000000000014 97.8547687314328130 
atom 0.0000000000000000 0.0000000000000000 0.1595857103706237 Ba
atom 4.9487811794140484 -0.0000000257655986 0.1595857103706237 Ba
atom -0.0000000257655990 4.9487811794140484 0.1595857103706238 Ba
atom 4.9487811536484489 4.9487811536484534 0.1595857103706238 Ba
atom 0.0000000000000000 0.0000000000000001 5.0704778880292158 Ba
atom 4.9487811794140475 -0.0000000257655985 5.0704778880292158 Ba
atom -0.0000000257655986 4.9487811794140484 5.0704778880292158 Ba
atom 4.9487811536484498 4.9487811536484543 5.0704778880292158 Ba
atom 2.4743905768242245 2.4743905768242267 2.4385435871413317 Zr
atom 7.4231717562382675 2.4743905510586304 2.4385435871413317 Zr
atom 2.4743905510586255 7.4231717562382835 2.4385435871413317 Zr
atom 7.4231717304726752 7.4231717304726779 2.4385435871413317 Zr
atom 2.4743905768242245 2.4743905768242267 7.5807195964177998 Zr
atom 7.4231717562382675 2.4743905510586304 7.5807195964177998 Zr
atom 2.4743905510586255 7.4231717562382835 7.5807195964177998 Zr
atom 7.4231717304726752 7.4231717304726779 7.5807195964177998 Zr
atom 2.4743905768242245 2.4743905768242267 -0.1049068523652234 S
atom 7.4231717562382684 2.4743905510586299 -0.1049068523652234 S
atom 2.4743905510586255 7.4231717562382835 -0.1049068523652234 S
atom 7.4231717304726752 7.4231717304726779 -0.1049068523652234 S
atom 2.4743905768242245 2.4743905768242267 5.0442180863582058 S
atom 7.4231717562382675 2.4743905510586304 5.0442180863582058 S
atom 2.4743905510586255 7.4231717562382835 5.0442180863582076 S
atom 7.4231717304726752 7.4231717304726779 5.0442180863582076 S
atom 2.0428549676168508 -0.0000000641730384 2.5334143924570425 S
atom 7.8547073912112424 0.0000000126418422 2.5334143924570425 S
atom 2.9059261860315955 4.9487812178214980 2.5334143924570425 S
atom 6.9916361212653086 4.9487810894754194 2.5334143924570425 S
atom 3.0114324560541275 -0.0000000142608292 7.6051563118813768 S
atom 6.8861299027739742 -0.0000000372703673 7.6051563118813768 S
atom 1.9373486975943226 4.9487811679092735 7.6051563118813785 S
atom 7.9602136097025920 4.9487811393876324 7.6051563118813785 S
atom 0.0000000384074399 2.9059262117971949 2.5334143924570425 S
atom 4.9487811152410064 2.0428549418512585 2.5334143924570425 S
atom -0.0000000899386366 6.9916361470309116 2.5334143924570425 S
atom 4.9487811920558915 7.8547073654456518 2.5334143924570425 S
atom -0.0000000115047689 1.9373487233599243 7.6051563118813768 S
atom 4.9487811651532274 3.0114324302885334 7.6051563118813768 S
atom -0.0000000400264274 7.9602136354681878 7.6051563118813785 S
atom 4.9487811421436767 6.8861298770083801 7.6051563118813785 S
atom 0.0000000000000000 0.0000000000000001 10.1597149898922048 Ba
atom 4.9487811794140475 -0.0000000257655984 10.1597149898922048 Ba
atom -0.0000000257655986 4.9487811794140484 10.1597149898922048 Ba
atom 4.9487811536484498 4.9487811536484543 10.1597149898922048 Ba
atom 0.0000000000000000 0.0000000000000002 15.2685740539317720 Ba
atom 4.9487811794140475 -0.0000000257655984 15.2685740539317720 Ba
atom -0.0000000257655986 4.9487811794140484 15.2685740539317720 Ba
atom 4.9487811536484498 4.9487811536484543 15.2685740539317720 Ba
atom 2.4743905768242245 2.4743905768242271 12.6997151817523246 Zr
atom 7.4231717562382675 2.4743905510586308 12.6997151817523246 Zr
atom 2.4743905510586255 7.4231717562382835 12.6997151817523246 Zr
atom 7.4231717304726752 7.4231717304726779 12.6997151817523246 Zr
atom 2.4743905768242245 2.4743905768242271 17.8177514740883005 Zr
atom 7.4231717562382675 2.4743905510586308 17.8177514740883005 Zr
atom 2.4743905510586255 7.4231717562382835 17.8177514740883005 Zr
atom 7.4231717304726752 7.4231717304726779 17.8177514740883005 Zr
atom 2.4743905768242245 2.4743905768242267 10.1547300081294889 S
atom 7.4231717562382675 2.4743905510586304 10.1547300081294889 S
atom 2.4743905510586255 7.4231717562382835 10.1547300081294889 S
atom 7.4231717304726752 7.4231717304726779 10.1547300081294889 S
atom 2.4743905768242245 2.4743905768242271 15.2665085562267429 S
atom 7.4231717562382675 2.4743905510586308 15.2665085562267429 S
atom 2.4743905510586255 7.4231717562382835 15.2665085562267429 S
atom 7.4231717304726752 7.4231717304726779 15.2665085562267429 S
atom 1.9381913207290020 -0.0000000137783147 12.7160086259579597 S
atom 7.9593710380990945 -0.0000000377528816 12.7160086259579597 S
atom 3.0105898329194467 4.9487811674267714 12.7160086259579597 S
atom 6.8869724743774556 4.9487811398701425 12.7160086259579597 S
atom 3.0107723823236516 -0.0000000121767524 17.8246274394398583 S
atom 6.8867899765044438 -0.0000000393544437 17.8246274394398583 S
atom 1.9380087713247987 4.9487811658252010 17.8246274394398654 S
atom 7.9595535359721046 4.9487811414717013 17.8246274394398654 S
atom -0.0000000119872837 3.0105898586850501 12.7160086259579632 S
atom 4.9487811656357268 1.9381912949634046 12.7160086259579632 S
atom -0.0000000395439135 6.8869725001430551 12.7160086259579632 S
atom 4.9487811416611613 7.9593710123335066 12.7160086259579632 S
atom -0.0000000135888454 1.9380087970903976 17.8246274394398654 S
atom 4.9487811672372946 3.0107723565580606 17.8246274394398654 S
atom -0.0000000379423509 7.9595535617377102 17.8246274394398654 S
atom 4.9487811400595989 6.8867899507388541 17.8246274394398654 S
atom 0.0000000000000000 0.0000000000000003 20.3788543193964315 Ba
atom 4.9487811794140475 -0.0000000257655983 20.3788543193964315 Ba
atom -0.0000000257655986 4.9487811794140484 20.3788543193964315 Ba
atom 4.9487811536484498 4.9487811536484543 20.3788543193964315 Ba
atom 0.0000000000000000 0.0000000000000004 25.4905685234626773 Ba
atom 4.9487811794140475 -0.0000000257655982 25.4905685234626773 Ba
atom -0.0000000257655986 4.9487811794140493 25.4905685234626773 Ba
atom 4.9487811536484498 4.9487811536484552 25.4905685234626773 Ba
atom 2.4743905768242245 2.4743905768242271 22.9347114214295544 Zr
atom 7.4231717562382675 2.4743905510586308 22.9347114214295544 Zr
atom 2.4743905510586255 7.4231717562382835 22.9347114214295544 Zr
atom 7.4231717304726752 7.4231717304726779 22.9347114214295544 Zr
atom 2.4743905768242245 2.4743905768242271 28.0516713687708119 Zr
atom 7.4231717562382675 2.4743905510586308 28.0516713687708119 Zr
atom 2.4743905510586255 7.4231717562382844 28.0516713687708119 Zr
atom 7.4231717304726752 7.4231717304726788 28.0516713687708119 Zr
atom 2.4743905768242245 2.4743905768242271 20.3786600058742948 S
atom 7.4231717562382675 2.4743905510586308 20.3786600058742948 S
atom 2.4743905510586255 7.4231717562382835 20.3786600058742948 S
atom 7.4231717304726752 7.4231717304726779 20.3786600058742948 S
atom 2.4743905768242245 2.4743905768242271 25.4907628369847892 S
atom 7.4231717562382675 2.4743905510586308 25.4907628369847892 S
atom 2.4743905510586255 7.4231717562382844 25.4907628369847892 S
atom 7.4231717304726752 7.4231717304726788 25.4907628369847892 S
atom 1.9375813045152406 -0.0000000135948859 22.9347114214295580 S
atom 7.9599810543128671 -0.0000000379363106 22.9347114214295580 S
atom 3.0111998491332046 4.9487811672433377 22.9347114214295544 S
atom 6.8863624581636884 4.9487811400535691 22.9347114214295544 S
atom 3.0107723823236516 -0.0000000121767523 28.0447954034192577 S
atom 6.8867899765044438 -0.0000000393544436 28.0447954034192577 S
atom 1.9380087713247987 4.9487811658252019 28.0447954034192577 S
atom 7.9595535359721046 4.9487811414717022 28.0447954034192577 S
atom -0.0000000121707128 3.0111998748988142 22.9347114214295544 S
atom 4.9487811658191569 1.9375812787496440 22.9347114214295544 S
atom -0.0000000393604839 6.8863624839292976 22.9347114214295544 S
atom 4.9487811414777276 7.9599810285472605 22.9347114214295544 S
atom -0.0000000135888454 1.9380087970903974 28.0447954034192577 S
atom 4.9487811672372946 3.0107723565580606 28.0447954034192577 S
atom -0.0000000379423509 7.9595535617377111 28.0447954034192577 S
atom 4.9487811400595989 6.8867899507388550 28.0447954034192577 S
atom 0.0000000000000000 0.0000000000000005 30.6008487889273155 Ba
atom 4.9487811794140475 -0.0000000257655981 30.6008487889273155 Ba
atom -0.0000000257655986 4.9487811794140493 30.6008487889273155 Ba
atom 4.9487811536484498 4.9487811536484552 30.6008487889273155 Ba
atom 0.0000000000000000 0.0000000000000005 35.7097078529668295 Ba
atom 4.9487811794140475 -0.0000000257655981 35.7097078529668295 Ba
atom -0.0000000257655986 4.9487811794140493 35.7097078529668295 Ba
atom 4.9487811536484498 4.9487811536484552 35.7097078529668295 Ba
atom 2.4743905768242245 2.4743905768242271 33.1697076611067274 Zr
atom 7.4231717562382675 2.4743905510586308 33.1697076611067274 Zr
atom 2.4743905510586255 7.4231717562382844 33.1697076611067274 Zr
atom 7.4231717304726752 7.4231717304726788 33.1697076611067274 Zr
atom 2.4743905768242245 2.4743905768242276 38.2887032464412371 Zr
atom 7.4231717562382675 2.4743905510586313 38.2887032464412371 Zr
atom 2.4743905510586255 7.4231717562382844 38.2887032464412371 Zr
atom 7.4231717304726752 7.4231717304726788 38.2887032464412371 Zr
atom 2.4743905768242245 2.4743905768242271 30.6029142866323483 S
atom 7.4231717562382675 2.4743905510586308 30.6029142866323483 S
atom 2.4743905510586255 7.4231717562382844 30.6029142866323483 S
atom 7.4231717304726752 7.4231717304726788 30.6029142866323483 S
atom 2.4743905768242245 2.4743905768242276 35.7146928347296182 S
atom 7.4231717562382675 2.4743905510586313 35.7146928347296182 S
atom 2.4743905510586255 7.4231717562382844 35.7146928347296182 S
atom 7.4231717304726752 7.4231717304726788 35.7146928347296182 S
atom 1.9381913207290020 -0.0000000137783144 33.1534142169011830 S
atom 7.9593710380990945 -0.0000000377528813 33.1534142169011830 S
atom 3.0105898329194467 4.9487811674267723 33.1534142169011830 S
atom 6.8869724743774556 4.9487811398701433 33.1534142169011830 S
atom 3.0114324560541275 -0.0000000142608287 38.2642665309776646 S
atom 6.8861299027739742 -0.0000000372703669 38.2642665309776646 S
atom 1.9373486975943226 4.9487811679092744 38.2642665309776646 S
atom 7.9602136097025920 4.9487811393876333 38.2642665309776646 S
atom -0.0000000119872837 3.0105898586850501 33.1534142169011830 S
atom 4.9487811656357268 1.9381912949634048 33.1534142169011830 S
atom -0.0000000395439135 6.8869725001430560 33.1534142169011830 S
atom 4.9487811416611613 7.9593710123335075 33.1534142169011830 S
atom -0.0000000115047689 1.9373487233599245 38.2642665309776646 S
atom 4.9487811651532274 3.0114324302885342 38.2642665309776646 S
atom -0.0000000400264274 7.9602136354681887 38.2642665309776646 S
atom 4.9487811421436767 6.8861298770083810 38.2642665309776646 S
atom 0.0000000000000000 0.0000000000000006 40.7989449548299135 Ba
atom 4.9487811794140475 -0.0000000257655980 40.7989449548299135 Ba
atom -0.0000000257655986 4.9487811794140493 40.7989449548299135 Ba
atom 4.9487811536484498 4.9487811536484552 40.7989449548299135 Ba
atom 0.0000000000000000 0.0000000000000007 45.7098371324884738 Ba
atom 4.9487811794140475 -0.0000000257655979 45.7098371324884738 Ba
atom -0.0000000257655986 4.9487811794140493 45.7098371324884738 Ba
atom 4.9487811536484498 4.9487811536484552 45.7098371324884738 Ba
atom 2.4743905768242245 2.4743905768242271 43.4308792557177767 Zr
atom 7.4231717562382675 2.4743905510586308 43.4308792557177767 Zr
atom 2.4743905510586255 7.4231717562382844 43.4308792557177767 Zr
atom 7.4231717304726752 7.4231717304726788 43.4308792557177767 Zr
atom 2.4743905768242245 2.4743905768242276 40.8252047565008880 S
atom 7.4231717562382675 2.4743905510586313 40.8252047565008880 S
atom 2.4743905510586255 7.4231717562382844 40.8252047565008880 S
atom 7.4231717304726752 7.4231717304726788 40.8252047565008880 S
atom 2.4743905768242245 2.4743905768242271 45.9743296952243412 S
atom 7.4231717562382675 2.4743905510586308 45.9743296952243412 S
atom 2.4743905510586255 7.4231717562382844 45.9743296952243412 S
atom 7.4231717304726752 7.4231717304726788 45.9743296952243412 S
atom 2.0428549676168508 -0.0000000641730378 43.3360084504019909 S
atom 7.8547073912112424 0.0000000126418428 43.3360084504019909 S
atom 2.9059261860315955 4.9487812178214989 43.3360084504019909 S
atom 6.9916361212653086 4.9487810894754203 43.3360084504019909 S
atom 0.0000000384074399 2.9059262117971962 43.3360084504019909 S
atom 4.9487811152410064 2.0428549418512589 43.3360084504019909 S
atom -0.0000000899386366 6.9916361470309125 43.3360084504019909 S
atom 4.9487811920558915 7.8547073654456527 43.3360084504019909 S
atom 2.4743905768242245 2.4743905768242271 49.0869700760870273 Ba
atom 7.4231717562382675 2.4743905510586308 49.0869700760870273 Ba
atom 2.4743905510586255 7.4231717562382844 49.0869700760870273 Ba
atom 7.4231717304726752 7.4231717304726788 49.0869700760870273 Ba
atom 2.4743905768242245 2.4743905768242271 53.9978622537455308 Ba
atom 7.4231717562382684 2.4743905510586304 53.9978622537455308 Ba
atom 2.4743905510586255 7.4231717562382844 53.9978622537455308 Ba
atom 7.4231717304726752 7.4231717304726788 53.9978622537455308 Ba
atom 4.9487811536484489 4.9487811536484543 51.3659279528577741 Zr
atom 9.8975623330624884 4.9487811278828602 51.3659279528577741 Zr
atom 4.9487811278828424 9.8975623330625186 51.3659279528577741 Zr
atom 9.8975623072968979 9.8975623072969086 51.3659279528577741 Zr
atom 4.9487811536484489 4.9487811536484543 56.5081039621342356 Zr
atom 9.8975623330624884 4.9487811278828602 56.5081039621342356 Zr
atom 4.9487811278828424 9.8975623330625186 56.5081039621342356 Zr
atom 9.8975623072968979 9.8975623072969086 56.5081039621342356 Zr
atom 4.9487811536484498 4.9487811536484552 48.8224775133511457 S
atom 9.8975623330624902 4.9487811278828611 48.8224775133511457 S
atom 4.9487811278828433 9.8975623330625204 48.8224775133511457 S
atom 9.8975623072968979 9.8975623072969086 48.8224775133511457 S
atom 4.9487811536484489 4.9487811536484543 53.9716024520746274 S
atom 9.8975623330624884 4.9487811278828602 53.9716024520746274 S
atom 4.9487811278828424 9.8975623330625186 53.9716024520746274 S
atom 9.8975623072968979 9.8975623072969086 53.9716024520746274 S
atom 4.5172455444410833 2.4743905126511865 51.4607987581734463 S
atom 10.3290979680354553 2.4743905894660707 51.4607987581734463 S
atom 5.3803167628558120 7.4231717946457243 51.4607987581734463 S
atom 9.4660266980895305 7.4231716662996403 51.4607987581734463 S
atom 5.4858230328783515 2.4743905625633991 56.5325406775977513 S
atom 9.3605204795981809 2.4743905395538595 56.5325406775977513 S
atom 4.4117392744185464 7.4231717447335086 56.5325406775977513 S
atom 10.4346041865267907 7.4231717162118596 56.5325406775977513 S
atom 2.4743906152316666 5.3803167886214220 51.4607987581734463 S
atom 7.4231716920652326 4.5172455186754910 51.4607987581734463 S
atom 2.4743904868855835 9.4660267238551405 51.4607987581734463 S
atom 7.4231717688801151 10.3290979422698754 51.4607987581734463 S
atom 2.4743905653194500 4.4117393001841547 56.5325406775977513 S
atom 7.4231717419774501 5.4858230071127583 56.5325406775977513 S
atom 2.4743905367977965 10.4346042122924079 56.5325406775977513 S
atom 7.4231717189679003 9.3605204538326134 56.5325406775977513 S
atom 2.4743905768242245 2.4743905768242276 59.0870993556086717 Ba
atom 7.4231717562382684 2.4743905510586308 59.0870993556086717 Ba
atom 2.4743905510586255 7.4231717562382844 59.0870993556086717 Ba
atom 7.4231717304726752 7.4231717304726788 59.0870993556086717 Ba
atom 2.4743905768242245 2.4743905768242276 64.1959584196481927 Ba
atom 7.4231717562382684 2.4743905510586308 64.1959584196481927 Ba
atom 2.4743905510586255 7.4231717562382844 64.1959584196481927 Ba
atom 7.4231717304726752 7.4231717304726788 64.1959584196481927 Ba
atom 4.9487811536484489 4.9487811536484543 61.6270995474687382 Zr
atom 9.8975623330624884 4.9487811278828602 61.6270995474687382 Zr
atom 4.9487811278828424 9.8975623330625186 61.6270995474687382 Zr
atom 9.8975623072968979 9.8975623072969086 61.6270995474687382 Zr
atom 4.9487811536484489 4.9487811536484543 66.7451358398046608 Zr
atom 9.8975623330624884 4.9487811278828602 66.7451358398046608 Zr
atom 4.9487811278828424 9.8975623330625186 66.7451358398046608 Zr
atom 9.8975623072968979 9.8975623072969086 66.7451358398046608 Zr
atom 4.9487811536484489 4.9487811536484543 59.0821143738458758 S
atom 9.8975623330624884 4.9487811278828602 59.0821143738458758 S
atom 4.9487811278828424 9.8975623330625186 59.0821143738458758 S
atom 9.8975623072968979 9.8975623072969086 59.0821143738458758 S
atom 4.9487811536484489 4.9487811536484543 64.1938929219431742 S
atom 9.8975623330624884 4.9487811278828602 64.1938929219431742 S
atom 4.9487811278828424 9.8975623330625186 64.1938929219431742 S
atom 9.8975623072968979 9.8975623072969086 64.1938929219431742 S
atom 4.4125818975532249 2.4743905630459095 61.6433929916743608 S
atom 10.4337616149233234 2.4743905390713494 61.6433929916743608 S
atom 5.4849804097436712 7.4231717442510021 61.6433929916743608 S
atom 9.3613630512016552 7.4231717166943660 61.6433929916743608 S
atom 5.4851629591478730 2.4743905646474782 66.7520118051562434 S
atom 9.3611805533286745 2.4743905374697821 66.7520118051562434 S
atom 4.4123993481490205 7.4231717426494344 66.7520118051562434 S
atom 10.4339441127963113 7.4231717182959338 66.7520118051562434 S
atom 2.4743905648369426 5.4849804355092830 61.6433929916743608 S
atom 7.4231717424599548 4.4125818717876308 61.6433929916743608 S
atom 2.4743905372803088 9.3613630769672902 61.6433929916743608 S
atom 7.4231717184853911 10.4337615891577382 61.6433929916743608 S
atom 2.4743905632353762 4.4123993739146288 66.7520118051562434 S
atom 7.4231717440615217 5.4851629333822807 66.7520118051562434 S
atom 2.4743905388818770 10.4339441385619320 66.7520118051562434 S
atom 7.4231717168838234 9.3611805275631035 66.7520118051562434 S
atom 2.4743905768242245 2.4743905768242276 69.3062386851128167 Ba
atom 7.4231717562382684 2.4743905510586308 69.3062386851128167 Ba
atom 2.4743905510586255 7.4231717562382844 69.3062386851128167 Ba
atom 7.4231717304726752 7.4231717304726788 69.3062386851128167 Ba
atom 2.4743905768242245 2.4743905768242276 74.4179528891790625 Ba
atom 7.4231717562382684 2.4743905510586308 74.4179528891790625 Ba
atom 2.4743905510586255 7.4231717562382853 74.4179528891790625 Ba
atom 7.4231717304726752 7.4231717304726796 74.4179528891790625 Ba
atom 4.9487811536484489 4.9487811536484552 71.8620957871459183 Zr
atom 9.8975623330624884 4.9487811278828611 71.8620957871459183 Zr
atom 4.9487811278828424 9.8975623330625186 71.8620957871459183 Zr
atom 9.8975623072968979 9.8975623072969086 71.8620957871459183 Zr
atom 4.9487811536484489 4.9487811536484552 76.9790557344871758 Zr
atom 9.8975623330624884 4.9487811278828611 76.9790557344871758 Zr
atom 4.9487811278828424 9.8975623330625186 76.9790557344871758 Zr
atom 9.8975623072968979 9.8975623072969086 76.9790557344871758 Zr
atom 4.9487811536484489 4.9487811536484543 69.3060443715907297 S
atom 9.8975623330624884 4.9487811278828602 69.3060443715907297 S
atom 4.9487811278828424 9.8975623330625186 69.3060443715907297 S
atom 9.8975623072968979 9.8975623072969086 69.3060443715907297 S
atom 4.9487811536484489 4.9487811536484552 74.4181472027011353 S
atom 9.8975623330624884 4.9487811278828611 74.4181472027011353 S
atom 4.9487811278828424 9.8975623330625186 74.4181472027011353 S
atom 9.8975623072968979 9.8975623072969086 74.4181472027011353 S
atom 4.4119718813394604 2.4743905632293437 71.8620957871459183 S
atom 10.4343716311370738 2.4743905388879170 71.8620957871459183 S
atom 5.4855904259574340 7.4231717440675640 71.8620957871459183 S
atom 9.3607530349879013 7.4231717168778006 71.8620957871459183 S
atom 5.4851629591478730 2.4743905646474782 76.9721797691357494 S
atom 9.3611805533286745 2.4743905374697821 76.9721797691357494 S
atom 4.4123993481490205 7.4231717426494352 76.9721797691357494 S
atom 10.4339441127963113 7.4231717182959347 76.9721797691357494 S
atom 2.4743905646535120 5.4855904517230449 71.8620957871459183 S
atom 7.4231717426433885 4.4119718555738681 71.8620957871459183 S
atom 2.4743905374637385 9.3607530607535150 71.8620957871459183 S
atom 7.4231717183019583 10.4343716053714974 71.8620957871459183 S
atom 2.4743905632353762 4.4123993739146297 76.9721797691357494 S
atom 7.4231717440615217 5.4851629333822816 76.9721797691357494 S
atom 2.4743905388818770 10.4339441385619320 76.9721797691357494 S
atom 7.4231717168838234 9.3611805275631035 76.9721797691357494 S
atom 2.4743905768242245 2.4743905768242276 79.5282331546437291 Ba
atom 7.4231717562382684 2.4743905510586308 79.5282331546437291 Ba
atom 2.4743905510586255 7.4231717562382853 79.5282331546437291 Ba
atom 7.4231717304726752 7.4231717304726796 79.5282331546437291 Ba
atom 2.4743905768242245 2.4743905768242280 84.6370922186832786 Ba
atom 7.4231717562382684 2.4743905510586313 84.6370922186832786 Ba
atom 2.4743905510586255 7.4231717562382853 84.6370922186832786 Ba
atom 7.4231717304726752 7.4231717304726796 84.6370922186832786 Ba
atom 4.9487811536484489 4.9487811536484552 82.0970920268231623 Zr
atom 9.8975623330624884 4.9487811278828611 82.0970920268231623 Zr
atom 4.9487811278828424 9.8975623330625186 82.0970920268231623 Zr
atom 9.8975623072968979 9.8975623072969086 82.0970920268231623 Zr
atom 4.9487811536484489 4.9487811536484543 87.2160876121577502 Zr
atom 9.8975623330624884 4.9487811278828602 87.2160876121577502 Zr
atom 4.9487811278828424 9.8975623330625186 87.2160876121577502 Zr
atom 9.8975623072968979 9.8975623072969086 87.2160876121577502 Zr
atom 4.9487811536484489 4.9487811536484552 79.5302986523487050 S
atom 9.8975623330624884 4.9487811278828611 79.5302986523487050 S
atom 4.9487811278828424 9.8975623330625186 79.5302986523487050 S
atom 9.8975623072968979 9.8975623072969086 79.5302986523487050 S
atom 4.9487811536484489 4.9487811536484552 84.6420772004461242 S
atom 9.8975623330624884 4.9487811278828611 84.6420772004461242 S
atom 4.9487811278828424 9.8975623330625186 84.6420772004461242 S
atom 9.8975623072968979 9.8975623072969086 84.6420772004461242 S
atom 4.4125818975532249 2.4743905630459095 82.0807985826175184 S
atom 10.4337616149233234 2.4743905390713494 82.0807985826175184 S
atom 5.4849804097436712 7.4231717442510030 82.0807985826175184 S
atom 9.3613630512016552 7.4231717166943669 82.0807985826175184 S
atom 5.4858230328783515 2.4743905625634000 87.1916508966940995 S
atom 9.3605204795981809 2.4743905395538603 87.1916508966940995 S
atom 4.4117392744185464 7.4231717447335086 87.1916508966940995 S
atom 10.4346041865267907 7.4231717162118596 87.1916508966940995 S
atom 2.4743905648369426 5.4849804355092839 82.0807985826175184 S
atom 7.4231717424599548 4.4125818717876317 82.0807985826175184 S
atom 2.4743905372803088 9.3613630769672902 82.0807985826175184 S
atom 7.4231717184853911 10.4337615891577382 82.0807985826175184 S
atom 2.4743905653194500 4.4117393001841547 87.1916508966940995 S
atom 7.4231717419774501 5.4858230071127583 87.1916508966940995 S
atom 2.4743905367977965 10.4346042122924079 87.1916508966940995 S
atom 7.4231717189679003 9.3605204538326134 87.1916508966940995 S
atom 2.4743905768242245 2.4743905768242280 89.7263293205462276 Ba
atom 7.4231717562382684 2.4743905510586313 89.7263293205462276 Ba
atom 2.4743905510586255 7.4231717562382844 89.7263293205462276 Ba
atom 7.4231717304726752 7.4231717304726788 89.7263293205462276 Ba
atom 2.4743905768242245 2.4743905768242280 94.6372214982049229 Ba
atom 7.4231717562382684 2.4743905510586313 94.6372214982049229 Ba
atom 2.4743905510586255 7.4231717562382844 94.6372214982049229 Ba
atom 7.4231717304726752 7.4231717304726788 94.6372214982049229 Ba
atom 4.9487811536484489 4.9487811536484543 92.3582636214341761 Zr
atom 9.8975623330624884 4.9487811278828602 92.3582636214341761 Zr
atom 4.9487811278828424 9.8975623330625186 92.3582636214341761 Zr
atom 9.8975623072968979 9.8975623072969086 92.3582636214341761 Zr
atom 4.9487811536484489 4.9487811536484543 89.7525891222173584 S
atom 9.8975623330624884 4.9487811278828602 89.7525891222173584 S
atom 4.9487811278828424 9.8975623330625186 89.7525891222173584 S
atom 9.8975623072968979 9.8975623072969086 89.7525891222173584 S
atom 4.9487811536484489 4.9487811536484543 94.9017140609407477 S
atom 9.8975623330624884 4.9487811278828602 94.9017140609407477 S
atom 4.9487811278828424 9.8975623330625186 94.9017140609407477 S
atom 9.8975623072968979 9.8975623072969086 94.9017140609407477 S
atom 4.5172455444410833 2.4743905126511874 92.2633928161184826 S
atom 10.3290979680354553 2.4743905894660716 92.2633928161184826 S
atom 5.3803167628558120 7.4231717946457243 92.2633928161184826 S
atom 9.4660266980895305 7.4231716662996403 92.2633928161184826 S
atom 2.4743906152316666 5.3803167886214220 92.2633928161184826 S
atom 7.4231716920652326 4.5172455186754910 92.2633928161184826 S
atom 2.4743904868855835 9.4660267238551405 92.2633928161184826 S
atom 7.4231717688801151 10.3290979422698754 92.2633928161184826 S
