#=======================================================
# FHI-aims file: sym_relax/sym_relax_RP_7_Rx1Ry20_Rx2Ry10.in
# Created using the Atomic Simulation Environment (ASE)
# Mon Mar 17 15:42:52 2025
#=======================================================
lattice_vector 10.0777134200628602 0.0345080470845813 0.0000000000000000 
lattice_vector 0.0345080470845813 10.0777134200628424 0.0000000000000000 
lattice_vector 0.0000000000000000 0.0000000000000000 75.0424889163854232 
atom -0.0180446246242488 -0.1641365644541567 0.2865535222040623 Ba
atom 5.0569013346556781 0.1813905879964473 0.2865535222040623 Ba
atom 0.0352986481665393 5.2029932744855856 0.2865535222040623 Ba
atom 5.0380661089494776 4.8919741691195551 0.2865535222040623 Ba
atom -0.0308553672937026 0.0244801022620353 4.9558287489388961 Ba
atom 5.0697120773251383 -0.0072260787197449 4.9558287489388961 Ba
atom 0.0481093908359930 5.0143766077693899 4.9558287489388961 Ba
atom 5.0252553662800139 5.0805908358357410 4.9558287489388961 Ba
atom 2.5069987561629370 2.5225642930461967 2.3415112648480561 Zr
atom 7.5879686874422170 2.5508004640698090 2.3415112648480561 Zr
atom 2.5663660009530780 7.5724031505589462 2.3415112648480561 Zr
atom 7.5631094897366671 7.5786750266199254 2.3415112648480561 Zr
atom 2.5275640457875501 2.5326952399838167 7.3587030664126987 Zr
atom 7.5674033978175981 2.5406695171321942 7.3587030664126987 Zr
atom 2.5458007113284591 7.5622722036213226 7.3587030664126987 Zr
atom 7.5836747793612869 7.5888059735575411 7.3587030664126987 Zr
atom 2.8086443521857229 2.5750751181969393 -0.1385844023580369 S
atom 7.2863230914194403 2.4982896389190667 -0.1385844023580368 S
atom 2.2647204049302934 7.5198923254081951 -0.1385844023580369 S
atom 7.8647550857594402 7.6311858517706632 -0.1385844023580368 S
atom 2.0754671129972078 2.4272031686719737 4.8864636414601090 S
atom 8.0195003306079258 2.6461615884440342 4.8864636414601090 S
atom 2.9978976441188050 7.6677642749331651 4.8864636414601090 S
atom 7.1315778465709414 7.4833139022456914 4.8864636414601090 S
atom 2.5194283550157146 0.0086270117711452 2.3954909240352191 S
atom 7.5582850650471478 0.0258810353134357 2.5539045023988902 S
atom 2.5366823785579991 5.0474837218025685 2.5539045023988902 S
atom 7.5755390885894380 5.0647377453448623 2.3954909240352191 S
atom 2.5194283550157146 0.0086270117711452 7.5184863675779843 S
atom 7.5582850650471478 0.0258810353134357 7.2269173930762305 S
atom 2.5366823785579991 5.0474837218025685 7.2269173930762305 S
atom 7.5755390885894380 5.0647377453448623 7.5184863675779843 S
atom 0.0086270117711452 2.5194283550157119 2.0523514031088417 S
atom 5.0474837218025712 2.5366823785580039 2.7764466070589600 S
atom 0.0258810353134357 7.5582850650471398 2.7764466070589600 S
atom 5.0647377453448668 7.5755390885894283 2.0523514031088417 S
atom 0.0086270117711452 2.5194283550157119 7.8218900285694684 S
atom 5.0474837218025712 2.5366823785580039 6.9104001939260948 S
atom 0.0258810353134357 7.5582850650471398 6.9104001939260948 S
atom 5.0647377453448668 7.5755390885894283 7.8218900285694684 S
atom 0.0633716411507456 -0.0046976075587367 9.8556710964983925 Ba
atom 4.9754850688806895 0.0219516311010271 9.8556710964983925 Ba
atom -0.0461176176084550 5.0435543175901634 9.8556710964983925 Ba
atom 5.1194823747244653 5.0514131260149808 9.8556710964983925 Ba
atom -0.0710846026734768 0.0038396278714800 14.8038693336808418 Ba
atom 5.1099413127049136 0.0134143956708105 14.8038693336808418 Ba
atom 0.0883386262157673 5.0350170821599454 14.8038693336808418 Ba
atom 4.9850261309002439 5.0599503614451926 14.8038693336808418 Ba
atom 2.5293871167121420 2.5263613942216430 12.3201667713812508 Zr
atom 7.5655803268930022 2.5470033628943622 12.3201667713812508 Zr
atom 2.5439776404038650 7.5686060493834946 12.3201667713812508 Zr
atom 7.5854978502858641 7.5824721277953682 12.3201667713812508 Zr
atom 2.5280553667868606 2.5280553667868602 17.2795204741677111 Zr
atom 7.5669120768183005 2.5453093903291468 17.2795204741677111 Zr
atom 2.5453093903291530 7.5669120768182854 17.2795204741677111 Zr
atom 7.5841661003605783 7.5841661003605756 17.2795204741677111 Zr
atom 3.0151684742865008 2.6759158636539579 9.8453433355164623 S
atom 7.0797989693186514 2.3974488934620468 9.8453433355164623 S
atom 2.0581962828295168 7.4190515799511871 9.8453433355164623 S
atom 8.0712792078602238 7.7320265972276685 9.8453433355164623 S
atom 2.0459854928181613 2.3578680232236522 14.8010675122814099 S
atom 8.0489819507869953 2.7154967338923508 14.8010675122814099 S
atom 3.0273792642978528 7.7370994203814840 14.8010675122814099 S
atom 7.1020962263918888 7.4139787567973778 14.8010675122814099 S
atom 2.5194283550157146 0.0086270117711452 12.1366080706637565 S
atom 7.5582850650471478 0.0258810353134357 12.5126708670520035 S
atom 2.5366823785579991 5.0474837218025685 12.5126708670520035 S
atom 7.5755390885894380 5.0647377453448623 12.1366080706637565 S
atom 2.5194283550157146 0.0086270117711452 17.4795029891554137 S
atom 7.5582850650471478 0.0258810353134357 17.0795379591799943 S
atom 2.5366823785579991 5.0474837218025685 17.0795379591799943 S
atom 7.5755390885894380 5.0647377453448623 17.4795029891554137 S
atom 0.0086270117711452 2.5194283550157119 11.8622538007892224 S
atom 5.0474837218025712 2.5366823785580039 12.7908285490623879 S
atom 0.0258810353134357 7.5582850650471398 12.7908285490623879 S
atom 5.0647377453448668 7.5755390885894283 11.8622538007892224 S
atom 0.0086270117711452 2.5194283550157119 17.7417629507404762 S
atom 5.0474837218025712 2.5366823785580039 16.8172779975949247 S
atom 0.0258810353134357 7.5582850650471398 16.8172779975949247 S
atom 5.0647377453448668 7.5755390885894283 17.7417629507404762 S
atom 0.0710846026734768 -0.0038396278714800 19.7551716146545857 Ba
atom 4.9677721073579502 0.0210936514137705 19.7551716146545857 Ba
atom -0.0538305791311862 5.0426963379029095 19.7551716146545857 Ba
atom 5.1271953362472020 5.0522711057022320 19.7551716146545857 Ba
atom -0.0633716411507456 0.0046976075587367 24.7033698518370279 Ba
atom 5.1022283511821831 0.0125564159835538 24.7033698518370279 Ba
atom 0.0806256646930360 5.0341591024726924 24.7033698518370279 Ba
atom 4.9927390924229726 5.0608083411324536 24.7033698518370279 Ba
atom 2.5267236168615788 2.5297493393520751 22.2388741769541660 Zr
atom 7.5682438267435845 2.5436154177639323 22.2388741769541660 Zr
atom 2.5466411402544380 7.5652181042530762 22.2388741769541660 Zr
atom 7.5828343504353031 7.5858600729257777 22.2388741769541660 Zr
atom 2.5285466877861684 2.5234154935899000 27.2003378819227137 Zr
atom 7.5664207558189878 2.5499492635261078 27.2003378819227137 Zr
atom 2.5448180693298448 7.5715519500152437 27.2003378819227137 Zr
atom 7.5846574213598998 7.5795262271636128 27.2003378819227137 Zr
atom 3.0101252407555612 2.6982427103500601 19.7579734360540655 S
atom 7.0848422028495941 2.3751220467659473 19.7579734360540655 S
atom 2.0632395163604493 7.3967247332550858 19.7579734360540655 S
atom 8.0662359743293042 7.7543534439237822 19.7579734360540655 S
atom 2.0409422592872235 2.3801948699197566 24.7136976128189119 S
atom 8.0540251843179362 2.6931698871962513 24.7136976128189119 S
atom 3.0324224978287835 7.7147725736853880 24.7136976128189119 S
atom 7.0970529928609531 7.4363056034934765 24.7136976128189119 S
atom 2.5194283550157146 0.0086270117711452 22.0463700812834276 S
atom 7.5582850650471478 0.0258810353134357 22.4224328776716497 S
atom 2.5366823785579991 5.0474837218025685 22.4224328776716497 S
atom 7.5755390885894380 5.0647377453448623 22.0463700812834276 S
atom 2.5194283550157146 0.0086270117711452 27.3321235552591872 S
atom 7.5582850650471478 0.0258810353134357 27.0405545807574690 S
atom 2.5366823785579991 5.0474837218025685 27.0405545807574690 S
atom 7.5755390885894380 5.0647377453448623 27.3321235552591872 S
atom 0.0086270117711452 2.5194283550157119 21.7682123992729899 S
atom 5.0474837218025712 2.5366823785580039 22.6967871475461820 S
atom 0.0258810353134357 7.5582850650471398 22.6967871475461820 S
atom 5.0647377453448668 7.5755390885894283 21.7682123992729899 S
atom 0.0086270117711452 2.5194283550157119 27.6486407544092962 S
atom 5.0474837218025712 2.5366823785580039 26.7371509197659485 S
atom 0.0258810353134357 7.5582850650471398 26.7371509197659485 S
atom 5.0647377453448668 7.5755390885894283 27.6486407544092962 S
atom 0.0308553672937026 -0.0244801022620353 29.6032121993965269 Ba
atom 5.0080013427377210 0.0417341258043259 29.6032121993965269 Ba
atom -0.0136013437514119 5.0633368122934543 29.6032121993965269 Ba
atom 5.0869661008674232 5.0316306313116836 29.6032121993965269 Ba
atom 0.0180446246242488 0.1641365644541566 34.2724874261313843 Ba
atom 5.0208120854071865 -0.1468825409118664 34.2724874261313843 Ba
atom -0.0007906010819584 4.8747201455772657 34.2724874261313843 Ba
atom 5.0741553581979728 5.2202472980278785 34.2724874261313843 Ba
atom 2.5491119774107820 2.5335464405275188 32.2175296834874061 Zr
atom 7.5458554661943671 2.5398183165884864 32.2175296834874061 Zr
atom 2.5242527797052294 7.5614210030776228 32.2175296834874061 Zr
atom 7.6052227109845125 7.5896571741012364 32.2175296834874061 Zr
atom 2.9806436205765223 2.6289075649017462 29.6725773068753185 S
atom 7.1143238230286405 2.4444571922142657 29.6725773068753185 S
atom 2.0927211365395038 7.4660598787034047 29.6725773068753185 S
atom 8.0367543541502258 7.6850182984754669 29.6725773068753185 S
atom 2.2474663813879978 2.4810356153767752 34.6976253506935350 S
atom 7.8475010622171455 2.5923291417392309 34.6976253506935350 S
atom 2.8258983757280136 7.6139318282283730 34.6976253506935350 S
atom 7.3035771149617341 7.5371463489504968 34.6976253506935350 S
atom 2.5194283550157146 0.0086270117711452 32.0051364459365502 S
atom 7.5582850650471478 0.0258810353134357 32.1635500243001999 S
atom 2.5366823785579991 5.0474837218025685 32.1635500243001999 S
atom 7.5755390885894380 5.0647377453448623 32.0051364459365502 S
atom 0.0086270117711452 2.5194283550157119 31.7825943412764715 S
atom 5.0474837218025712 2.5366823785580039 32.5066895452265570 S
atom 0.0258810353134357 7.5582850650471398 32.5066895452265570 S
atom 5.0647377453448668 7.5755390885894283 31.7825943412764715 S
atom 2.3639188023327105 2.5100107421626108 37.8077979803967565 Ba
atom 7.7310486412724506 2.5633540149533967 37.8077979803967565 Ba
atom 2.7094459547833107 7.5849567014425316 37.8077979803967565 Ba
atom 7.4200295359064272 7.5661214757363240 37.8077979803967565 Ba
atom 2.5525354690488951 2.4971999994931586 42.4770732071316672 Ba
atom 7.5424319745562602 2.5761647576228461 42.4770732071316672 Ba
atom 2.5208292880671168 7.5977674441119829 42.4770732071316672 Ba
atom 7.6086462026226167 7.5533107330668638 42.4770732071316672 Ba
atom 5.0506196598330559 5.0350541229497932 39.8627557230407632 Zr
atom 10.1004585173458210 5.0944213677399306 39.8627557230407632 Zr
atom 5.0788558308566678 10.1160240542290651 39.8627557230407632 Zr
atom 10.1067303934067851 10.0911648565235144 39.8627557230407632 Zr
atom 5.0607506067706902 5.0556194125744147 44.8799475246054556 Zr
atom 10.0903275704082205 5.0738560781153144 44.8799475246054556 Zr
atom 5.0687248839190380 10.0954587646044427 44.8799475246054556 Zr
atom 10.1168613403444105 10.1117301461481404 44.8799475246054556 Zr
atom 5.1031304849838079 5.3366997189725751 37.3826600558347337 S
atom 10.0479476921950628 4.7927757717171451 37.3826600558347337 S
atom 5.0263450057059345 9.8143784582062779 37.3826600558347337 S
atom 10.1592412185575398 10.3928104525463034 37.3826600558347337 S
atom 4.9552585354588414 4.6035224797840684 42.4077080996528224 S
atom 10.1958196417200408 5.5259530109056580 42.4077080996528224 S
atom 5.1742169552309054 10.5475556973947917 42.4077080996528224 S
atom 10.0113692690325511 9.6596332133577860 42.4077080996528224 S
atom 5.0474837218025712 2.5366823785580039 39.5735958613016194 S
atom 10.0863404318340102 2.5539364021002950 40.2976910652517262 S
atom 5.0647377453448668 7.5755390885894283 40.2976910652517262 S
atom 10.1035944553762977 7.5927931121317194 39.5735958613016194 S
atom 5.0474837218025712 2.5366823785580039 45.3431344867622101 S
atom 10.0863404318340102 2.5539364021002950 44.4316446521188126 S
atom 5.0647377453448668 7.5755390885894283 44.4316446521188126 S
atom 10.1035944553762977 7.5927931121317194 45.3431344867622101 S
atom 2.5366823785579991 5.0474837218025685 39.9167353822279978 S
atom 7.5755390885894380 5.0647377453448623 40.0751489605916404 S
atom 2.5539364021002990 10.0863404318339906 40.0751489605916404 S
atom 7.5927931121317265 10.1035944553762871 39.9167353822279978 S
atom 2.5366823785579991 5.0474837218025685 45.0397308257707536 S
atom 7.5755390885894380 5.0647377453448623 44.7481618512689678 S
atom 2.5539364021002990 10.0863404318339906 44.7481618512689678 S
atom 7.5927931121317265 10.1035944553762871 45.0397308257707536 S
atom 2.5233577592281247 2.5914270079376038 47.3769155546911165 Ba
atom 7.5716096843770302 2.4819377491784049 47.3769155546911165 Ba
atom 2.5500069978878823 7.5035404356675359 47.3769155546911165 Ba
atom 7.5794684928018423 7.6475377415113197 47.3769155546911165 Ba
atom 2.5318949946583418 2.4569707641133829 52.3251137918735623 Ba
atom 7.5630724489468175 2.6163939930026232 52.3251137918735623 Ba
atom 2.5414697624576719 7.6379966794917680 52.3251137918735623 Ba
atom 7.5880057282320648 7.5130814976870992 52.3251137918735623 Ba
atom 5.0544167610085218 5.0574424834989982 49.8414112295739500 Zr
atom 10.0966614161703720 5.0720330071907158 49.8414112295739500 Zr
atom 5.0750587296812153 10.0936356936798575 49.8414112295739500 Zr
atom 10.1105274945822128 10.1135532170727238 49.8414112295739500 Zr
atom 5.0561107335737212 5.0561107335737203 54.8007649323604653 Zr
atom 10.0949674436051424 5.0733647571160079 54.8007649323604653 Zr
atom 5.0733647571159981 10.0949674436051371 54.8007649323604653 Zr
atom 10.1122214671474424 10.1122214671474406 54.8007649323604653 Zr
atom 5.2039712304408212 5.5432238410733525 47.3665877937092787 S
atom 9.9471069467380691 4.5862516496163668 47.3665877937092787 S
atom 4.9255042602489230 9.6078543361055022 47.3665877937092787 S
atom 10.2600819640145371 10.5993345746470613 47.3665877937092787 S
atom 4.8859233900105146 4.5740408596050104 52.3223119704741819 S
atom 10.2651547871683650 5.5554346310847134 52.3223119704741819 S
atom 5.2435521006792207 10.5770373175738595 52.3223119704741819 S
atom 9.9420341235842447 9.6301515931787129 52.3223119704741819 S
atom 5.0474837218025712 2.5366823785580039 49.3834982589820015 S
atom 10.0863404318340102 2.5539364021002950 50.3120730072551154 S
atom 5.0647377453448668 7.5755390885894283 50.3120730072551154 S
atom 10.1035944553762977 7.5927931121317194 49.3834982589820015 S
atom 5.0474837218025712 2.5366823785580039 55.2630074089332837 S
atom 10.0863404318340102 2.5539364021002950 54.3385224557876541 S
atom 5.0647377453448668 7.5755390885894283 54.3385224557876541 S
atom 10.1035944553762977 7.5927931121317194 55.2630074089332837 S
atom 2.5366823785579991 5.0474837218025685 49.6578525288563881 S
atom 7.5755390885894380 5.0647377453448623 50.0339153252447844 S
atom 2.5539364021002990 10.0863404318339906 50.0339153252447844 S
atom 7.5927931121317265 10.1035944553762871 49.6578525288563881 S
atom 2.5366823785579991 5.0474837218025685 55.0007474473480826 S
atom 7.5755390885894380 5.0647377453448623 54.6007824173728196 S
atom 2.5539364021002990 10.0863404318339906 54.6007824173728196 S
atom 7.5927931121317265 10.1035944553762871 55.0007474473480826 S
atom 2.5242157389153901 2.5991399694603343 57.2764160728472831 Ba
atom 7.5707517046897790 2.4742247876556767 57.2764160728472831 Ba
atom 2.5491490182006271 7.4958274741448045 57.2764160728472831 Ba
atom 7.5803264724891104 7.6552507030340537 57.2764160728472831 Ba
atom 2.5327529743455974 2.4646837256361143 62.2246143100297857 Ba
atom 7.5622144692595521 2.6086810314798941 62.2246143100297857 Ba
atom 2.5406117827704193 7.6302837179690366 62.2246143100297857 Ba
atom 7.5888637079193204 7.5207944592098324 62.2246143100297857 Ba
atom 5.0578047061389304 5.0547789836484336 59.7601186351469380 Zr
atom 10.0932734710399430 5.0746965070412973 59.7601186351469380 Zr
atom 5.0716707845508040 10.0962991935304451 59.7601186351469380 Zr
atom 10.1139154397126720 10.1108897172221575 59.7601186351469380 Zr
atom 5.0514708603767549 5.0566020545730241 64.7215823401154893 Zr
atom 10.0996073168020928 5.0728734361166996 64.7215823401154893 Zr
atom 5.0780046303129724 10.0944761226058421 64.7215823401154893 Zr
atom 10.1075815939505169 10.1127127881467338 64.7215823401154893 Zr
atom 5.2262980771369296 5.5381806075424169 57.2792178942467629 S
atom 9.9247801000419482 4.5912948831473051 57.2792178942467629 S
atom 4.9031774135528101 9.6128975696364414 57.2792178942467629 S
atom 10.2824088107106437 10.5942913411161399 57.2792178942467629 S
atom 4.9082502367066319 4.5689976260740783 62.2349420710115737 S
atom 10.2428279404722655 5.5604778646156463 62.2349420710115737 S
atom 5.2212252539831070 10.5820805511047844 62.2349420710115737 S
atom 9.9643609702803602 9.6251083596477898 62.2349420710115737 S
atom 5.0474837218025712 2.5366823785580039 59.2894568574657796 S
atom 10.0863404318340102 2.5539364021002950 60.2180316057389362 S
atom 5.0647377453448668 7.5755390885894283 60.2180316057389362 S
atom 10.1035944553762977 7.5927931121317194 59.2894568574657796 S
atom 5.0474837218025712 2.5366823785580039 65.1698852126022388 S
atom 10.0863404318340102 2.5539364021002950 64.2583953779586778 S
atom 5.0647377453448668 7.5755390885894283 64.2583953779586778 S
atom 10.1035944553762977 7.5927931121317194 65.1698852126022388 S
atom 2.5366823785579991 5.0474837218025685 59.5676145394761463 S
atom 7.5755390885894380 5.0647377453448623 59.9436773358644501 S
atom 2.5539364021002990 10.0863404318339906 59.9436773358644501 S
atom 7.5927931121317265 10.1035944553762871 59.5676145394761463 S
atom 2.5366823785579991 5.0474837218025685 64.8533680134519841 S
atom 7.5755390885894380 5.0647377453448623 64.5617990389501557 S
atom 2.5539364021002990 10.0863404318339906 64.5617990389501557 S
atom 7.5927931121317265 10.1035944553762871 64.8533680134519841 S
atom 2.5035752645248235 2.5589107340805599 67.1244566575893060 Ba
atom 7.5913921790803292 2.5144540230354511 67.1244566575893060 Ba
atom 2.5697894925911831 7.5360567095245816 67.1244566575893060 Ba
atom 7.5596859980985478 7.6150214676542820 67.1244566575893060 Ba
atom 2.6921919312410174 2.5460999914111091 71.7937318843241457 Ba
atom 7.4027755123641397 2.5272647657048974 71.7937318843241457 Ba
atom 2.3811728258749967 7.5488674521940391 71.7937318843241457 Ba
atom 7.7483026648147391 7.6022107249848245 71.7937318843241457 Ba
atom 5.0616018073143829 5.0771673441976395 69.7387741416800395 Zr
atom 10.0894763698644976 5.0523081464920816 69.7387741416800395 Zr
atom 5.0678736833753568 10.0739108329812215 69.7387741416800395 Zr
atom 10.1177125408881032 10.1332780777713722 69.7387741416800395 Zr
atom 5.1569629316886099 5.5086989873633643 67.1938217650680087 S
atom 9.9941152454902653 4.6207765033263541 67.1938217650680087 S
atom 4.9725125590011272 9.6423791898155056 67.1938217650680087 S
atom 10.2130736652623462 10.5648097209370917 67.1938217650680087 S
atom 5.0090909821636398 4.7755217481748575 72.2188698088860406 S
atom 10.1419871950152451 5.3539537425148671 72.2188698088860406 S
atom 5.1203845085260946 10.3755564290040194 72.2188698088860406 S
atom 10.0652017157373468 9.8316324817485636 72.2188698088860406 S
atom 5.0474837218025712 2.5366823785580039 69.3038387994691476 S
atom 10.0863404318340102 2.5539364021002950 70.0279340034193467 S
atom 5.0647377453448668 7.5755390885894283 70.0279340034193467 S
atom 10.1035944553762977 7.5927931121317194 69.3038387994691476 S
atom 2.5366823785579991 5.0474837218025685 69.5263809041293825 S
atom 7.5755390885894380 5.0647377453448623 69.6847944824929044 S
atom 2.5539364021002990 10.0863404318339906 69.6847944824929044 S
atom 7.5927931121317265 10.1035944553762871 69.5263809041293825 S
