#=======================================================
# FHI-aims file: sym_relax/sym_relax_RP_9_00Rz1_00Rz2.in
# Created using the Atomic Simulation Environment (ASE)
# Mon Mar 17 16:31:05 2025
#=======================================================
lattice_vector 9.8975612843485798 -0.0000000339107671 0.0000000000000000 
lattice_vector -0.0000000339107671 9.8975612843486047 0.0000000000000000 
lattice_vector 0.0000000000000000 0.0000000000000000 97.8548261980241563 
atom -0.0000000000000000 0.0000000000000000 0.1595951728042113 Ba
atom 4.9487806421742899 -0.0000000169553837 0.1595951728042113 Ba
atom -0.0000000169553837 4.9487806421743032 0.1595951728042113 Ba
atom 4.9487806252188999 4.9487806252189142 0.1595951728042112 Ba
atom 0.0000000000000000 -0.0000000000000000 5.0704793564259818 Ba
atom 4.9487806421742899 -0.0000000169553837 5.0704793564259818 Ba
atom -0.0000000169553837 4.9487806421743032 5.0704793564259818 Ba
atom 4.9487806252188999 4.9487806252189142 5.0704793564259818 Ba
atom 2.4743903126094500 2.4743903126094571 2.4385583135569178 Zr
atom 7.4231709547837390 2.4743902956540751 2.4385583135569178 Zr
atom 2.4743902956540675 7.4231709547837550 2.4385583135569178 Zr
atom 7.4231709378283579 7.4231709378283792 2.4385583135569178 Zr
atom 2.4743903126094500 2.4743903126094571 7.5807392990925431 Zr
atom 7.4231709547837390 2.4743902956540751 7.5807392990925431 Zr
atom 2.4743902956540675 7.4231709547837550 7.5807392990925431 Zr
atom 7.4231709378283579 7.4231709378283792 7.5807392990925431 Zr
atom 2.4743903126094500 2.4743903126094571 -0.1048949091781599 S
atom 7.4231709547837390 2.4743902956540751 -0.1048949091781599 S
atom 2.4743902956540675 7.4231709547837550 -0.1048949091781599 S
atom 7.4231709378283579 7.4231709378283792 -0.1048949091781599 S
atom 2.4743903126094500 2.4743903126094571 5.0442335664263309 S
atom 7.4231709547837390 2.4743902956540751 5.0442335664263309 S
atom 2.4743902956540675 7.4231709547837550 5.0442335664263309 S
atom 7.4231709378283579 7.4231709378283792 5.0442335664263309 S
atom 2.0428521582445502 0.0000001073382621 2.5334241815017089 S
atom 7.8547091261040256 -0.0000001412490287 2.5334241815017089 S
atom 2.9059284669743466 4.9487805178806576 2.5334241815017089 S
atom 6.9916327834634728 4.9487807325571769 2.5334241815017089 S
atom 3.0114592042870507 -0.0000000053029449 7.6051763459239448 S
atom 6.8861020800615309 -0.0000000286078226 7.6051763459239448 S
atom 1.9373214209318554 4.9487806305218696 7.6051763459239448 S
atom 7.9602398295059578 4.9487806199159694 7.6051763459239448 S
atom -0.0000001242936454 2.9059284839297455 2.5334241815017089 S
atom 4.9487807495125429 2.0428521412891718 2.5334241815017089 S
atom 0.0000000903828777 6.9916328004188619 2.5334241815017089 S
atom 4.9487805009252606 7.8547091091486561 2.5334241815017089 S
atom -0.0000000116524389 1.9373214378872456 7.6051763459239448 S
atom 4.9487806368713319 3.0114591873316727 7.6051763459239448 S
atom -0.0000000222583286 7.9602398464613646 7.6051763459239448 S
atom 4.9487806135664716 6.8861020631061631 7.6051763459239448 S
atom 0.0000000000000000 0.0000000000000000 10.1597324883395697 Ba
atom 4.9487806421742899 -0.0000000169553837 10.1597324883395697 Ba
atom -0.0000000169553837 4.9487806421743032 10.1597324883395697 Ba
atom 4.9487806252188999 4.9487806252189142 10.1597324883395697 Ba
atom 0.0000000000000000 0.0000000000000000 15.2685301695716760 Ba
atom 4.9487806421742899 -0.0000000169553837 15.2685301695716760 Ba
atom -0.0000000169553837 4.9487806421743032 15.2685301695716760 Ba
atom 4.9487806252188999 4.9487806252189142 15.2685301695716760 Ba
atom 2.4743903126094500 2.4743903126094571 12.6997242254803755 Zr
atom 7.4231709547837390 2.4743902956540751 12.6997242254803755 Zr
atom 2.4743902956540675 7.4231709547837550 12.6997242254803755 Zr
atom 7.4231709378283579 7.4231709378283792 12.6997242254803755 Zr
atom 2.4743903126094500 2.4743903126094571 17.8177534956914414 Zr
atom 7.4231709547837390 2.4743902956540751 17.8177534956914414 Zr
atom 2.4743902956540675 7.4231709547837550 17.8177534956914414 Zr
atom 7.4231709378283579 7.4231709378283792 17.8177534956914414 Zr
atom 2.4743903126094500 2.4743903126094571 10.1547417174133052 S
atom 7.4231709547837390 2.4743902956540751 10.1547417174133052 S
atom 2.4743902956540675 7.4231709547837550 10.1547417174133052 S
atom 7.4231709378283579 7.4231709378283792 10.1547417174133052 S
atom 2.4743903126094500 2.4743903126094571 15.2665063272108306 S
atom 7.4231709547837390 2.4743902956540751 15.2665063272108306 S
atom 2.4743902956540675 7.4231709547837550 15.2665063272108306 S
atom 7.4231709378283579 7.4231709378283792 15.2665063272108306 S
atom 1.9382426614978037 -0.0000000093635156 12.7160028881553924 S
atom 7.9593186228507804 -0.0000000245472510 12.7160028881553924 S
atom 3.0105379637210987 4.9487806345824303 12.7160028881553924 S
atom 6.8870232867167012 4.9487806158554086 12.7160028881553924 S
atom 3.0108025950012198 -0.0000000080500198 17.8246271943909598 S
atom 6.8867586893473582 -0.0000000258607477 17.8246271943909598 S
atom 1.9379780302176866 4.9487806332689379 17.8246271943909598 S
atom 7.9595832202201287 4.9487806171688984 17.8246271943909598 S
atom -0.0000000075918677 3.0105379806764927 12.7160028881553924 S
atom 4.9487806328107755 1.9382426445424259 12.7160028881553924 S
atom -0.0000000263189000 6.8870233036720991 12.7160028881553924 S
atom 4.9487806176270297 7.9593186058954215 12.7160028881553924 S
atom -0.0000000089053639 1.9379780471730719 17.8246271943909598 S
atom 4.9487806341242626 3.0108025780458467 17.8246271943909598 S
atom -0.0000000250054035 7.9595832371755311 17.8246271943909598 S
atom 4.9487806163135417 6.8867586723919949 17.8246271943909598 S
atom 0.0000000000000000 0.0000000000000000 20.3789000460737384 Ba
atom 4.9487806421742899 -0.0000000169553837 20.3789000460737384 Ba
atom -0.0000000169553837 4.9487806421743032 20.3789000460737384 Ba
atom 4.9487806252188999 4.9487806252189142 20.3789000460737384 Ba
atom 0.0000000000000000 0.0000000000000000 25.4905497342500809 Ba
atom 4.9487806421742899 -0.0000000169553837 25.4905497342500809 Ba
atom -0.0000000169553837 4.9487806421743032 25.4905497342500809 Ba
atom 4.9487806252188999 4.9487806252189142 25.4905497342500809 Ba
atom 2.4743903126094500 2.4743903126094571 22.9347248901619025 Zr
atom 7.4231709547837390 2.4743902956540751 22.9347248901619025 Zr
atom 2.4743902956540675 7.4231709547837550 22.9347248901619025 Zr
atom 7.4231709378283579 7.4231709378283792 22.9347248901619025 Zr
atom 2.4743903126094500 2.4743903126094571 28.0516962846323139 Zr
atom 7.4231709547837390 2.4743902956540751 28.0516962846323139 Zr
atom 2.4743902956540675 7.4231709547837550 28.0516962846323139 Zr
atom 7.4231709378283579 7.4231709378283792 28.0516962846323139 Zr
atom 2.4743903126094500 2.4743903126094571 20.3786780882401288 S
atom 7.4231709547837390 2.4743902956540751 20.3786780882401288 S
atom 2.4743902956540675 7.4231709547837550 20.3786780882401288 S
atom 7.4231709378283579 7.4231709378283792 20.3786780882401288 S
atom 2.4743903126094500 2.4743903126094571 25.4907716920836123 S
atom 7.4231709547837390 2.4743902956540751 25.4907716920836123 S
atom 2.4743902956540675 7.4231709547837550 25.4907716920836123 S
atom 7.4231709378283579 7.4231709378283792 25.4907716920836123 S
atom 1.9375884960277452 -0.0000000089236354 22.9347248901619025 S
atom 7.9599727883208296 -0.0000000249871312 22.9347248901619025 S
atom 3.0111921291911559 4.9487806341425511 22.9347248901619025 S
atom 6.8863691212466591 4.9487806162952896 22.9347248901619025 S
atom 3.0108025950012198 -0.0000000080500198 28.0448225859327991 S
atom 6.8867586893473582 -0.0000000258607477 28.0448225859327991 S
atom 1.9379780302176866 4.9487806332689379 28.0448225859327991 S
atom 7.9595832202201287 4.9487806171688984 28.0448225859327991 S
atom -0.0000000080317479 3.0111921461465490 22.9347248901619025 S
atom 4.9487806332506512 1.9375884790723663 22.9347248901619025 S
atom -0.0000000258790198 6.8863691382020615 22.9347248901619025 S
atom 4.9487806171871540 7.9599727713654689 22.9347248901619025 S
atom -0.0000000089053639 1.9379780471730719 28.0448225859327991 S
atom 4.9487806341242626 3.0108025780458467 28.0448225859327991 S
atom -0.0000000250054035 7.9595832371755311 28.0448225859327991 S
atom 4.9487806163135417 6.8867586723919949 28.0448225859327991 S
atom 0.0000000000000000 0.0000000000000000 30.6009196107520687 Ba
atom 4.9487806421742899 -0.0000000169553837 30.6009196107520687 Ba
atom -0.0000000169553837 4.9487806421743032 30.6009196107520687 Ba
atom 4.9487806252188999 4.9487806252189142 30.6009196107520687 Ba
atom 0.0000000000000000 0.0000000000000000 35.7097172919841910 Ba
atom 4.9487806421742899 -0.0000000169553837 35.7097172919841910 Ba
atom -0.0000000169553837 4.9487806421743032 35.7097172919841910 Ba
atom 4.9487806252188999 4.9487806252189142 35.7097172919841910 Ba
atom 2.4743903126094500 2.4743903126094571 33.1697255548433958 Zr
atom 7.4231709547837390 2.4743902956540751 33.1697255548433958 Zr
atom 2.4743902956540675 7.4231709547837550 33.1697255548433958 Zr
atom 7.4231709378283579 7.4231709378283792 33.1697255548433958 Zr
atom 2.4743903126094500 2.4743903126094571 38.2887104812312558 Zr
atom 7.4231709547837390 2.4743902956540751 38.2887104812312558 Zr
atom 2.4743902956540675 7.4231709547837550 38.2887104812312558 Zr
atom 7.4231709378283579 7.4231709378283792 38.2887104812312558 Zr
atom 2.4743903126094500 2.4743903126094571 30.6029434531129567 S
atom 7.4231709547837390 2.4743902956540751 30.6029434531129567 S
atom 2.4743902956540675 7.4231709547837550 30.6029434531129567 S
atom 7.4231709378283579 7.4231709378283792 30.6029434531129567 S
atom 2.4743903126094500 2.4743903126094571 35.7147080629104678 S
atom 7.4231709547837390 2.4743902956540751 35.7147080629104678 S
atom 2.4743902956540675 7.4231709547837550 35.7147080629104678 S
atom 7.4231709378283579 7.4231709378283792 35.7147080629104678 S
atom 1.9382426614978037 -0.0000000093635156 33.1534468921683683 S
atom 7.9593186228507804 -0.0000000245472510 33.1534468921683683 S
atom 3.0105379637210987 4.9487806345824303 33.1534468921683683 S
atom 6.8870232867167012 4.9487806158554086 33.1534468921683683 S
atom 3.0114592042870507 -0.0000000053029449 38.2642734343998683 S
atom 6.8861020800615309 -0.0000000286078226 38.2642734343998683 S
atom 1.9373214209318554 4.9487806305218696 38.2642734343998683 S
atom 7.9602398295059578 4.9487806199159694 38.2642734343998683 S
atom -0.0000000075918677 3.0105379806764927 33.1534468921683683 S
atom 4.9487806328107755 1.9382426445424259 33.1534468921683683 S
atom -0.0000000263189000 6.8870233036720991 33.1534468921683683 S
atom 4.9487806176270297 7.9593186058954215 33.1534468921683683 S
atom -0.0000000116524389 1.9373214378872456 38.2642734343998683 S
atom 4.9487806368713319 3.0114591873316727 38.2642734343998683 S
atom -0.0000000222583286 7.9602398464613646 38.2642734343998683 S
atom 4.9487806135664716 6.8861020631061631 38.2642734343998683 S
atom -0.0000000000000000 0.0000000000000000 40.7989704238978277 Ba
atom 4.9487806421742899 -0.0000000169553837 40.7989704238978277 Ba
atom -0.0000000169553837 4.9487806421743032 40.7989704238978277 Ba
atom 4.9487806252188999 4.9487806252189142 40.7989704238978277 Ba
atom -0.0000000000000000 0.0000000000000000 45.7098546075195387 Ba
atom 4.9487806421742899 -0.0000000169553837 45.7098546075195387 Ba
atom -0.0000000169553837 4.9487806421743032 45.7098546075195387 Ba
atom 4.9487806252188999 4.9487806252189142 45.7098546075195387 Ba
atom 2.4743903126094500 2.4743903126094571 43.4308914667668517 Zr
atom 7.4231709547837390 2.4743902956540751 43.4308914667668517 Zr
atom 2.4743902956540675 7.4231709547837550 43.4308914667668517 Zr
atom 7.4231709378283579 7.4231709378283792 43.4308914667668517 Zr
atom 2.4743903126094500 2.4743903126094571 40.8252162138974484 S
atom 7.4231709547837390 2.4743902956540751 40.8252162138974484 S
atom 2.4743902956540675 7.4231709547837550 40.8252162138974484 S
atom 7.4231709378283579 7.4231709378283792 40.8252162138974484 S
atom 2.4743903126094500 2.4743903126094571 45.9743446895019332 S
atom 7.4231709547837390 2.4743902956540751 45.9743446895019332 S
atom 2.4743902956540675 7.4231709547837550 45.9743446895019332 S
atom 7.4231709378283579 7.4231709378283792 45.9743446895019332 S
atom 2.0428521582445502 0.0000001073382621 43.3360255988220118 S
atom 7.8547091261040256 -0.0000001412490287 43.3360255988220118 S
atom 2.9059284669743466 4.9487805178806576 43.3360255988220118 S
atom 6.9916327834634728 4.9487807325571769 43.3360255988220118 S
atom -0.0000001242936454 2.9059284839297455 43.3360255988220118 S
atom 4.9487807495125429 2.0428521412891718 43.3360255988220118 S
atom 0.0000000903828777 6.9916328004188619 43.3360255988220118 S
atom 4.9487805009252606 7.8547091091486561 43.3360255988220118 S
atom 2.4743903126094500 2.4743903126094571 49.0870043965010865 Ba
atom 7.4231709547837390 2.4743902956540751 49.0870043965010865 Ba
atom 2.4743902956540675 7.4231709547837550 49.0870043965010865 Ba
atom 7.4231709378283579 7.4231709378283792 49.0870043965010865 Ba
atom 2.4743903126094500 2.4743903126094571 53.9979062511695744 Ba
atom 7.4231709547837390 2.4743902956540751 53.9979062511695744 Ba
atom 2.4743902956540675 7.4231709547837550 53.9979062511695744 Ba
atom 7.4231709378283579 7.4231709378283792 53.9979062511695744 Ba
atom 4.9487806252188999 4.9487806252189142 51.3659660128802003 Zr
atom 9.8975612673931934 4.9487806082635331 51.3659660128802003 Zr
atom 4.9487806082635162 9.8975612673932272 51.3659660128802003 Zr
atom 9.8975612504377999 9.8975612504378283 51.3659660128802003 Zr
atom 4.9487806252188999 4.9487806252189142 56.5081462060343114 Zr
atom 9.8975612673931934 4.9487806082635331 56.5081462060343114 Zr
atom 4.9487806082635162 9.8975612673932272 56.5081462060343114 Zr
atom 9.8975612504377999 9.8975612504378283 56.5081462060343114 Zr
atom 4.9487806252188999 4.9487806252189142 48.8225186017935329 S
atom 9.8975612673931934 4.9487806082635331 48.8225186017935329 S
atom 4.9487806082635162 9.8975612673932272 48.8225186017935329 S
atom 9.8975612504377999 9.8975612504378283 48.8225186017935329 S
atom 4.9487806252188999 4.9487806252189142 53.9716529200177533 S
atom 9.8975612673931934 4.9487806082635331 53.9716529200177533 S
atom 4.9487806082635162 9.8975612673932272 53.9716529200177533 S
atom 9.8975612504377999 9.8975612504378283 53.9716529200177533 S
atom 4.5172341886822718 2.4743904293326957 51.4608485113382059 S
atom 10.3291077208852222 2.4743901619754562 51.4608485113382059 S
atom 5.3803270617555334 7.4231708211051375 51.4608485113382059 S
atom 9.4660148139011593 7.4231710545516165 51.4608485113382059 S
atom 5.4858470785490656 2.4743903081176568 56.5326074990242944 S
atom 9.3604948310183964 2.4743902831904969 56.5326074990242944 S
atom 4.4117141718887440 7.4231709423201897 56.5326074990242944 S
atom 10.4346277037679638 7.4231709333365714 56.5326074990242944 S
atom 2.4743901789308325 5.3803270787109376 51.4608485113382059 S
atom 7.4231710715069790 4.5172341717268987 51.4608485113382059 S
atom 2.4743904123773039 9.4660148308565777 51.4608485113382059 S
atom 7.4231708041497280 10.3291077039298713 51.4608485113382059 S
atom 2.4743903001458736 4.4117141888441394 56.5326074990242944 S
atom 7.4231709502919321 5.4858470615936961 56.5326074990242944 S
atom 2.4743902911622619 10.4346277207233769 56.5326074990242944 S
atom 7.4231709253647775 9.3604948140630650 56.5326074990242944 S
atom 2.4743903126094500 2.4743903126094571 59.0871591512829752 Ba
atom 7.4231709547837390 2.4743902956540751 59.0871591512829752 Ba
atom 2.4743902956540675 7.4231709547837550 59.0871591512829752 Ba
atom 7.4231709378283579 7.4231709378283792 59.0871591512829752 Ba
atom 2.4743903126094500 2.4743903126094571 64.1959478505341394 Ba
atom 7.4231709547837390 2.4743902956540751 64.1959478505341394 Ba
atom 2.4743902956540675 7.4231709547837550 64.1959478505341394 Ba
atom 7.4231709378283579 7.4231709378283792 64.1959478505341394 Ba
atom 4.9487806252188999 4.9487806252189142 61.6271335163148279 Zr
atom 9.8975612673931934 4.9487806082635331 61.6271335163148279 Zr
atom 4.9487806082635162 9.8975612673932272 61.6271335163148279 Zr
atom 9.8975612504377999 9.8975612504378283 61.6271335163148279 Zr
atom 4.9487806252188999 4.9487806252189142 66.7451619297413572 Zr
atom 9.8975612673931934 4.9487806082635331 66.7451619297413572 Zr
atom 4.9487806082635162 9.8975612673932272 66.7451619297413572 Zr
atom 9.8975612504377999 9.8975612504378283 66.7451619297413572 Zr
atom 4.9487806252188999 4.9487806252189142 59.0821620917477048 S
atom 9.8975612673931934 4.9487806082635331 59.0821620917477048 S
atom 4.9487806082635162 9.8975612673932272 59.0821620917477048 S
atom 9.8975612504377999 9.8975612504378283 59.0821620917477048 S
atom 4.9487806252188999 4.9487806252189142 64.1939214157848710 S
atom 9.8975612673931934 4.9487806082635331 64.1939214157848710 S
atom 4.9487806082635162 9.8975612673932272 64.1939214157848710 S
atom 9.8975612504377999 9.8975612504378283 64.1939214157848710 S
atom 4.4126355062769660 2.4743903033254919 61.6434301316023507 S
atom 10.4337064032905094 2.4743902879826578 61.6434301316023507 S
atom 5.4849257441608490 7.4231709471123386 61.6434301316023507 S
atom 9.3614161314958526 7.4231709285444225 61.6434301316023507 S
atom 5.4851991055614295 2.4743903045592965 66.7520386116601401 S
atom 9.3611428040060431 2.4743902867488581 66.7520386116601401 S
atom 4.4123621448763917 7.4231709458785433 66.7520386116601401 S
atom 10.4339797307803206 7.4231709297782107 66.7520386116601401 S
atom 2.4743903049380362 5.4849257611162372 61.6434301316023507 S
atom 7.4231709454997823 4.4126354893215884 61.6434301316023507 S
atom 2.4743902863701019 9.3614161484512906 61.6434301316023507 S
atom 7.4231709301569300 10.4337063863351567 61.6434301316023507 S
atom 2.4743903037042343 4.4123621618317701 66.7520386116601401 S
atom 7.4231709467335820 5.4851990886060680 66.7520386116601401 S
atom 2.4743902876039070 10.4339797477357408 66.7520386116601401 S
atom 7.4231709289231356 9.3611427870507065 66.7520386116601401 S
atom 2.4743903126094500 2.4743903126094571 69.3062908854194006 Ba
atom 7.4231709547837390 2.4743902956540751 69.3062908854194006 Ba
atom 2.4743902956540675 7.4231709547837550 69.3062908854194006 Ba
atom 7.4231709378283579 7.4231709378283792 69.3062908854194006 Ba
atom 2.4743903126094500 2.4743903126094571 74.4179850929286317 Ba
atom 7.4231709547837390 2.4743902956540751 74.4179850929286317 Ba
atom 2.4743902956540675 7.4231709547837550 74.4179850929286317 Ba
atom 7.4231709378283579 7.4231709378283792 74.4179850929286317 Ba
atom 4.9487806252188999 4.9487806252189142 71.8621379891739309 Zr
atom 9.8975612673931934 4.9487806082635331 71.8621379891739309 Zr
atom 4.9487806082635162 9.8975612673932272 71.8621379891739309 Zr
atom 9.8975612504377999 9.8975612504378283 71.8621379891739309 Zr
atom 4.9487806252188999 4.9487806252189142 76.9791140486065046 Zr
atom 9.8975612673931934 4.9487806082635331 76.9791140486065046 Zr
atom 4.9487806082635162 9.8975612673932272 76.9791140486065046 Zr
atom 9.8975612504377999 9.8975612504378283 76.9791140486065046 Zr
atom 4.9487806252188999 4.9487806252189142 69.3060854871954035 S
atom 9.8975612673931934 4.9487806082635331 69.3060854871954035 S
atom 4.9487806082635162 9.8975612673932272 69.3060854871954035 S
atom 9.8975612504377999 9.8975612504378283 69.3060854871954035 S
atom 4.9487806252188999 4.9487806252189142 74.4181904911522167 S
atom 9.8975612673931934 4.9487806082635331 74.4181904911522167 S
atom 4.9487806082635162 9.8975612673932272 74.4181904911522167 S
atom 9.8975612504377999 9.8975612504378283 74.4181904911522167 S
atom 4.4119793091386734 2.4743903036864974 71.8621379891739309 S
atom 10.4343626004288108 2.4743902876216577 71.8621379891739309 S
atom 5.4855819412991478 7.4231709467513420 71.8621379891739309 S
atom 9.3607599343575512 7.4231709289054129 71.8621379891739309 S
atom 5.4851991055614295 2.4743903045592965 76.9722373666878212 S
atom 9.3611428040060431 2.4743902867488581 76.9722373666878212 S
atom 4.4123621448763917 7.4231709458785433 76.9722373666878212 S
atom 10.4339797307803206 7.4231709297782107 76.9722373666878212 S
atom 2.4743903045770321 5.4855819582545582 71.8621379891739309 S
atom 7.4231709458607709 4.4119792921832843 71.8621379891739309 S
atom 2.4743902867311061 9.3607599513129838 71.8621379891739309 S
atom 7.4231709297959396 10.4343625834734794 71.8621379891739309 S
atom 2.4743903037042343 4.4123621618317701 76.9722373666878212 S
atom 7.4231709467335820 5.4851990886060680 76.9722373666878212 S
atom 2.4743902876039070 10.4339797477357408 76.9722373666878212 S
atom 7.4231709289231356 9.3611427870507065 76.9722373666878212 S
atom 2.4743903126094500 2.4743903126094571 79.5283281278136656 Ba
atom 7.4231709547837390 2.4743902956540751 79.5283281278136656 Ba
atom 2.4743902956540675 7.4231709547837550 79.5283281278136656 Ba
atom 7.4231709378283579 7.4231709378283792 79.5283281278136656 Ba
atom 2.4743903126094500 2.4743903126094571 84.6371168270650855 Ba
atom 7.4231709547837390 2.4743902956540751 84.6371168270650855 Ba
atom 2.4743902956540675 7.4231709547837550 84.6371168270650855 Ba
atom 7.4231709378283579 7.4231709378283792 84.6371168270650855 Ba
atom 4.9487806252188999 4.9487806252189142 82.0971424620329771 Zr
atom 9.8975612673931934 4.9487806082635331 82.0971424620329771 Zr
atom 4.9487806082635162 9.8975612673932272 82.0971424620329771 Zr
atom 9.8975612504377999 9.8975612504378283 82.0971424620329771 Zr
atom 4.9487806252188999 4.9487806252189142 87.2161297723135931 Zr
atom 9.8975612673931934 4.9487806082635331 87.2161297723135931 Zr
atom 4.9487806082635162 9.8975612673932272 87.2161297723135931 Zr
atom 9.8975612504377999 9.8975612504378283 87.2161297723135931 Zr
atom 4.9487806252188999 4.9487806252189142 79.5303545625631187 S
atom 9.8975612673931934 4.9487806082635331 79.5303545625631187 S
atom 4.9487806082635162 9.8975612673932272 79.5303545625631187 S
atom 9.8975612504377999 9.8975612504378283 79.5303545625631187 S
atom 4.9487806252188999 4.9487806252189142 84.6421138866002281 S
atom 9.8975612673931934 4.9487806082635331 84.6421138866002281 S
atom 4.9487806082635162 9.8975612673932272 84.6421138866002281 S
atom 9.8975612504377999 9.8975612504378283 84.6421138866002281 S
atom 4.4126355062769660 2.4743903033254919 82.0808458467455750 S
atom 10.4337064032905094 2.4743902879826578 82.0808458467455750 S
atom 5.4849257441608490 7.4231709471123386 82.0808458467455750 S
atom 9.3614161314958526 7.4231709285444225 82.0808458467455750 S
atom 5.4858470785490656 2.4743903081176568 87.1916684793235675 S
atom 9.3604948310183964 2.4743902831904969 87.1916684793235675 S
atom 4.4117141718887440 7.4231709423201897 87.1916684793235675 S
atom 10.4346277037679638 7.4231709333365714 87.1916684793235675 S
atom 2.4743903049380362 5.4849257611162372 82.0808458467455750 S
atom 7.4231709454997823 4.4126354893215884 82.0808458467455750 S
atom 2.4743902863701019 9.3614161484512906 82.0808458467455750 S
atom 7.4231709301569300 10.4337063863351567 82.0808458467455750 S
atom 2.4743903001458736 4.4117141888441394 87.1916684793235675 S
atom 7.4231709502919321 5.4858470615936961 87.1916684793235675 S
atom 2.4743902911622619 10.4346277207233769 87.1916684793235675 S
atom 7.4231709253647775 9.3604948140630650 87.1916684793235675 S
atom 2.4743903126094500 2.4743903126094571 89.7263697271782377 Ba
atom 7.4231709547837390 2.4743902956540751 89.7263697271782377 Ba
atom 2.4743902956540675 7.4231709547837550 89.7263697271782377 Ba
atom 7.4231709378283579 7.4231709378283792 89.7263697271782377 Ba
atom 2.4743903126094500 2.4743903126094571 94.6372715818466759 Ba
atom 7.4231709547837390 2.4743902956540751 94.6372715818466759 Ba
atom 2.4743902956540675 7.4231709547837550 94.6372715818466759 Ba
atom 7.4231709378283579 7.4231709378283792 94.6372715818466759 Ba
atom 4.9487806252188999 4.9487806252189142 92.3583099654676118 Zr
atom 9.8975612673931934 4.9487806082635331 92.3583099654676118 Zr
atom 4.9487806082635162 9.8975612673932272 92.3583099654676118 Zr
atom 9.8975612504377999 9.8975612504378283 92.3583099654676118 Zr
atom 4.9487806252188999 4.9487806252189142 89.7526230583300588 S
atom 9.8975612673931934 4.9487806082635331 89.7526230583300588 S
atom 4.9487806082635162 9.8975612673932272 89.7526230583300588 S
atom 9.8975612504377999 9.8975612504378283 89.7526230583300588 S
atom 4.9487806252188999 4.9487806252189142 94.9017573765542153 S
atom 9.8975612673931934 4.9487806082635331 94.9017573765542153 S
atom 4.9487806082635162 9.8975612673932272 94.9017573765542153 S
atom 9.8975612504377999 9.8975612504378283 94.9017573765542153 S
atom 4.5172341886822718 2.4743904293326957 92.2634274670098335 S
atom 10.3291077208852222 2.4743901619754562 92.2634274670098335 S
atom 5.3803270617555334 7.4231708211051375 92.2634274670098335 S
atom 9.4660148139011593 7.4231710545516165 92.2634274670098335 S
atom 2.4743901789308325 5.3803270787109376 92.2634274670098335 S
atom 7.4231710715069790 4.5172341717268987 92.2634274670098335 S
atom 2.4743904123773039 9.4660148308565777 92.2634274670098335 S
atom 7.4231708041497280 10.3291077039298713 92.2634274670098335 S
