#=======================================================
# FHI-aims file: sym_relax/sym_relax_RP_1_RxRyMz_-Rx-Ry0.in
# Created using the Atomic Simulation Environment (ASE)
# Fri Mar 14 10:20:34 2025
#=======================================================
lattice_vector 10.0858336506698816 0.2044586592119574 -0.0002840026634053 
lattice_vector 0.2044586592119574 10.0858336506698816 0.0002840026634053 
lattice_vector 0.0004028692814698 -0.0004028692814698 15.5513175205741163 
atom -0.1072095582699320 -0.1072291921438799 0.2366460664279791 Ba
atom 5.1501460174788294 0.2094388878759104 0.2365040650962767 Ba
atom 0.2094585217498581 5.1501263836048903 0.2367880677596819 Ba
atom 5.0379365966709937 5.0379169627970546 0.2366460664279790 Ba
atom 0.1073354549203915 0.1071032954934205 4.6231406587514403 Ba
atom 4.9358135298415258 -0.0051061253144125 4.6229986574197399 Ba
atom -0.0048739658874416 4.9355813704145612 4.6232826600831443 Ba
atom 5.2524816098613201 5.2522494504343529 4.6231406587514403 Ba
atom 2.5726360257956871 2.5725101291452406 2.4298933625897132 Zr
atom 7.6155528511306390 2.6747394587512172 2.4297513612580093 Zr
atom 2.6748653554016641 7.6154269544801911 2.4300353639214154 Zr
atom 7.7177821807366120 7.7176562840861722 2.4298933625897132 Zr
atom 2.7865275421792397 2.7865653731967162 -0.1074760073886726 S
atom 7.4014976070791576 2.4608479423676699 -0.1076180087203753 S
atom 2.4608101113501912 7.4015354380966443 -0.1073340060569698 S
atom 7.9316736971201660 7.9317115281376331 -0.1074760073886726 S
atom 2.3587445094121442 2.3584548850937570 4.9672627325680967 S
atom 7.8296080951820946 2.8886309751347592 4.9671207312363981 S
atom 2.8889205994531437 7.8293184708637362 4.9674047338998006 S
atom 7.5038906643530678 7.5036010400347033 4.9672627325680958 S
atom 2.5215061168100172 0.0510586880728928 2.2208697908488659 S
atom 7.5644534305103166 0.1532740744886048 2.6386329316671491 S
atom 2.6237659347813662 5.0939615702175747 2.6389169343305539 S
atom 7.6666522717509435 5.1962048430138310 2.2208697908488668 S
atom 0.0511706415330862 2.5214107085249307 2.2210117921805685 S
atom 5.0941014100583049 2.6236095497655390 2.6387749329988570 S
atom 0.1534139143293313 7.5642970454945155 2.6390589356622587 S
atom 5.1963167964740045 7.6665568634658650 2.2210117921805677 S
atom 2.6799954767708756 2.6795871509711944 8.0123008578042327 Ba
atom 7.5084758293046852 2.5673800077760260 8.0121588564725332 Ba
atom 2.5677883335757170 7.5080675035050044 8.0124428591359393 Ba
atom 7.8251416317118005 7.8247333059121189 8.0123008578042327 Ba
atom 2.4656794441019705 2.4650302380378126 12.3988033879493553 Ba
atom 7.7230327422380540 2.7816960404449325 12.3986613866176398 Ba
atom 2.7823452465090965 7.7223835361739059 12.3989453892810406 Ba
atom 7.6108255990428946 7.6101763929787376 12.3988033879493535 Ba
atom 5.1454105379068817 5.1448817719749718 10.2055521228767887 Zr
atom 10.1883273632418270 5.2471111015809404 10.2054101215450892 Zr
atom 5.2476398675128584 10.1877985973099126 10.2056941242084971 Zr
atom 10.2905566928478187 10.2900279269158990 10.2055521228767887 Zr
atom 4.9313688120068901 4.9309810792884914 7.6681813019379677 S
atom 10.4022280559283189 5.4611528274809400 7.6680393006062637 S
atom 5.4615405601993361 10.4018403232099370 7.6683233032696743 S
atom 10.0765149669477978 10.0761272342294266 7.6681813019379677 S
atom 5.3594522638068831 5.3587824646614459 12.7429229438156177 S
atom 9.9744266705553493 5.0330693756809515 12.7427809424839005 S
atom 5.0337391748263833 9.9737568714099130 12.7430649451473137 S
atom 10.5045984187478094 10.5039286196023820 12.7429229438156177 S
atom 5.0943061609701665 2.6234165224753032 10.4144361535280972 S
atom 10.1372024105726020 2.7256595257456606 9.9963840895620564 S
atom 5.1965149148436209 7.6663470214746354 9.9966680922254714 S
atom 10.2394523159110769 7.7685626774162344 10.4144361535280972 S
atom 2.6239589620716104 5.0937568193057103 10.4145781548598055 S
atom 7.6668621137421704 5.1960067246442234 9.9965260908937683 S
atom 2.7261746180131996 10.1366942203731991 9.9968100935571726 S
atom 7.7691051170125283 10.2389029742466438 10.4145781548598055 S
