#=======================================================
# FHI-aims file: sym_relax/sym_relax_RP_10_Rx0Rz_0RyRz.in
# Created using the Atomic Simulation Environment (ASE)
# Mon Mar 17 17:17:31 2025
#=======================================================
lattice_vector 9.8969116750097310 0.0000471880634861 -0.0003095553806047 
lattice_vector 0.0000471880634861 9.8969116750097523 0.0003095553806047 
lattice_vector 0.0044459186066461 -0.0044459186066468 108.0876328899104806 
atom 0.0001383555406492 0.0003198994079911 0.1589514151900471 Ba
atom 4.9486217357205327 0.0006649236678830 0.1587960596004442 Ba
atom 0.0001894922473913 4.9490971671410291 0.1591056149810488 Ba
atom 4.9486177870772696 4.9487993309446123 0.1589514151900472 Ba
atom 0.0004418830740019 -0.0000491448316427 5.0704684289681285 Ba
atom 4.9488240404305026 -0.0005022284595250 5.0702884113538813 Ba
atom 0.0003917969573686 4.9479300150136369 5.0705979667344785 Ba
atom 4.9489213146106055 4.9484302867049932 5.0704684289681277 Ba
atom 2.4745754326578133 2.4742688589834358 2.4381873092119171 Zr
atom 7.4229585880502071 2.4742866224681688 2.4380393218989940 Zr
atom 2.4745263445771051 7.4227188659413121 2.4383488772795960 Zr
atom 7.4230548641944329 7.4227482905200786 2.4381873092119171 Zr
atom 2.4746936461579034 2.4739671038870377 7.5804562647917137 Zr
atom 7.4231878394840312 2.4740051050080143 7.5803072659021922 Zr
atom 2.4747555960108989 7.4224373484811581 7.5806168212827920 Zr
atom 7.4231730776945062 7.4224465354236635 7.5804562647917129 Zr
atom 2.4750115751021218 2.4742757801006356 -0.1052704997000540 S
atom 7.4223764532464873 2.4741898537664082 -0.1054218613363704 S
atom 2.4739442097733626 7.4226220972395627 -0.1051123059557658 S
atom 7.4234910066387281 7.4227552116372717 -0.1052704997000541 S
atom 2.4741246976849824 2.4740502439426582 5.0441807100826708 S
atom 7.4235758508357685 2.4742314874386984 5.0440287237114170 S
atom 2.4751436073626500 7.4226637309118555 5.0443382790920168 S
atom 7.4226041292215958 7.4225296754793062 5.0441807100826708 S
atom 2.0425338175585410 -0.0000128307505022 2.5330884930429418 S
atom 7.8549956688919123 0.0000101654839048 2.5330764635544694 S
atom 2.9065634254188266 4.9484424089570496 2.5333860189350741 S
atom 6.9910132490951611 4.9484666007861478 2.5330884930429436 S
atom 3.0119921252342037 -0.0002513884365278 7.6054152413822074 S
atom 6.8859181595638761 -0.0002272324362854 7.6051661770169519 S
atom 1.9374859160907507 4.9482050110368538 7.6054757323975517 S
atom 7.9604715567708162 4.9482280431000998 7.6054152413822038 S
atom 0.0003174261279866 2.9061416055997955 2.5327468959559103 S
atom 4.9487738020888177 2.0421592890333340 2.5337303468065704 S
atom 0.0003415586156857 6.9905915325064756 2.5340399021871725 S
atom 4.9487968576646226 7.8546210371364191 2.5327468959559112 S
atom 0.0004907408876590 1.9366354853779941 7.6057963551489856 S
atom 4.9489455410627619 3.0112119081589865 7.6051524462803499 S
atom 0.0005132975896355 7.9596441516321423 7.6054620016609471 S
atom 4.9489701724242909 6.8851149169146311 7.6057963551489873 S
atom 0.0004863602703106 -0.0005873350432906 10.1600906954099397 Ba
atom 4.9490717331822136 -0.0003748826689555 10.1598638361729208 Ba
atom 0.0006394897091034 4.9480573608041851 10.1601733915535331 Ba
atom 4.9489657918068941 4.9478920964933426 10.1600906954099379 Ba
atom 0.0007525066715583 -0.0006583875424653 15.2692733542888845 Ba
atom 4.9492802102797322 -0.0006256380577791 15.2690610686496058 Ba
atom 0.0008479668066201 4.9478066054153489 15.2693706240302252 Ba
atom 4.9492319382081726 4.9478210439941535 15.2692733542888952 Ba
atom 2.4748979122627599 2.4737365205754651 12.6994772230225657 Zr
atom 7.4233390547939235 2.4737850809271187 12.6993265152421646 Zr
atom 2.4749068113207562 7.4222173244002594 12.6996360706227414 Zr
atom 7.4233773437993769 7.4222159521120723 12.6994772230225657 Zr
atom 2.4750820885750295 2.4735475195397876 17.8174390769508797 Zr
atom 7.4235534784662986 2.4736056832290019 17.8172866937188310 Zr
atom 2.4751212349931921 7.4220379267021528 17.8175962490994912 Zr
atom 7.4235615201116261 7.4220269510764352 17.8174390769508797 Zr
atom 2.4749701495455017 2.4739746968092082 10.1550265320360857 S
atom 7.4230636946477739 2.4738715990590130 10.1548725464711502 S
atom 2.4746314511746577 7.4223038425321626 10.1551821018517465 S
atom 7.4234495810820915 7.4224541283458363 10.1550265320360840 S
atom 2.4749605303834445 2.4736633046552003 15.2671585933566458 S
atom 7.4233995598452811 2.4737538718918914 15.2670046338954357 S
atom 2.4749673163721577 7.4221861153650366 15.2673141892760338 S
atom 7.4234399619200406 7.4221427361918382 15.2671585933566387 S
atom 1.9384808399619626 -0.0004648996105768 12.7166377033842082 S
atom 7.9596211638417351 -0.0004438305518551 12.7165842304156129 S
atom 3.0111889203686033 4.9479884129213021 12.7168937857962074 S
atom 6.8869602714985829 4.9480145319260513 12.7166377033842029 S
atom 3.0117555223341523 -0.0006545649799798 17.8258318570864418 S
atom 6.8869769579229203 -0.0006306325025040 17.8257072687893157 S
atom 1.9385447144498089 4.9478016109706404 17.8260168241699617 S
atom 7.9602349538707990 4.9478248665566484 17.8258318570864489 S
atom 0.0006412469458279 3.0100758251312216 12.7167408871257344 S
atom 4.9490994553429664 1.9373953970748130 12.7166880165818501 S
atom 0.0006672118698432 6.8858276405479630 12.7169975719624802 S
atom 4.9491206784824247 7.9585552566678555 12.7167408871257326 S
atom 0.0008616862991552 1.9369087955279520 17.8259383146160886 S
atom 4.9493175245720193 3.0101980777207982 17.8259606352986744 S
atom 0.0008852810989141 7.9586303211939482 17.8262701906792813 S
atom 4.9493411178357638 6.8853882270645901 17.8259383146160850 S
atom 0.0009864870565136 -0.0007812281642075 20.3801117189657504 Ba
atom 4.9494452843587062 -0.0008731891122334 20.3799154773638591 Ba
atom 0.0010130408855844 4.9475590543609052 20.3802250327445051 Ba
atom 4.9494659185931393 4.9476982033724166 20.3801117189657575 Ba
atom 0.0010164977492859 -0.0012514199695021 25.4923828243597796 Ba
atom 4.9495364711738103 -0.0008221174169839 25.4921948931909910 Ba
atom 0.0011042277006860 4.9476101260561665 25.4925044485715731 Ba
atom 4.9494959292858800 4.9472280115671214 25.4923828243597796 Ba
atom 2.4752364031189651 2.4733289683752120 22.9341659192285867 Zr
atom 7.4237198618246296 2.4733589934556028 22.9340150293493110 Zr
atom 2.4752876183514978 7.4217912369287546 22.9343245847299251 Zr
atom 7.4237158346555585 7.4218083999118543 22.9341659192285867 Zr
atom 2.4753125386350838 2.4730469006945457 28.0505626882014276 Zr
atom 7.4237959973407479 2.4730769257749343 28.0504117983221626 Zr
atom 2.4753637538676205 7.4215091692480719 28.0507213537027447 Zr
atom 7.4237919701716697 7.4215263322311600 28.0505626882014383 Zr
atom 2.4749950122044697 2.4734015628133657 20.3797477961339943 S
atom 7.4237512092523543 2.4735744891336773 20.3795929793032222 S
atom 2.4753189657792425 7.4220067326068291 20.3799025346838256 S
atom 7.4234744437410747 7.4218809943499791 20.3797477961339943 S
atom 2.4754926571461837 2.4733009225178795 25.4923663366217887 S
atom 7.4235397433135040 2.4731049716322770 25.4922113809289357 S
atom 2.4751074998404001 7.4215372151054266 25.4925209363095924 S
atom 7.4239720886827882 7.4217803540545058 25.4923663366217887 S
atom 1.9382833937142803 -0.0008907731967890 22.9368196380348088 S
atom 7.9606317719106485 -0.0008688138964543 22.9364530260042621 S
atom 3.0121995284375256 4.9475634295767144 22.9367625813849045 S
atom 6.8867628252508855 4.9475886583398463 22.9368196380348195 S
atom 3.0122695752088191 -0.0011827641896970 28.0477580795159760 S
atom 6.8868328720221754 -0.0011575354265457 28.0478151361658483 S
atom 1.9384006285490649 4.9472747080465931 28.0481246915464553 S
atom 7.9607490067454316 4.9472966673469383 28.0477580795159867 S
atom 0.0010092778175680 3.0103238687000107 22.9369867907604075 S
atom 4.9494660583184471 1.9364365881352195 22.9365069129739432 S
atom 0.0010338148453091 6.8848688316083768 22.9368164683545821 S
atom 4.9494887093541982 7.9588033002366538 22.9369867907604217 S
atom 0.0011114476324042 1.9360348373866423 28.0479004821708813 S
atom 4.9495663421412708 3.0099693060149328 28.0480708045767351 S
atom 0.0011340986681495 7.9584015494880820 28.0483803599573456 S
atom 4.9495908791690120 6.8845142689232635 28.0479004821708955 S
atom 0.0011076845643879 -0.0012003482742527 30.6046622401868831 Ba
atom 4.9495664818665688 -0.0012923092222785 30.6044659985849670 Ba
atom 0.0011342383934585 4.9471399342508713 30.6047755539656201 Ba
atom 4.9495871161009921 4.9472790832623863 30.6046622401868831 Ba
atom 0.0012727586433519 -0.0014478993287066 35.7155166489012359 Ba
atom 4.9498004622515195 -0.0014151498440201 35.7153043632617866 Ba
atom 0.0013682187784138 4.9470170936291264 35.7156139186424681 Ba
atom 4.9497521901799661 4.9470315322079275 35.7155166489012430 Ba
atom 2.4754789219933828 2.4728002109211413 33.1672910238318650 Zr
atom 7.4239503118846901 2.4728583746103547 33.1671386405997595 Zr
atom 2.4755180684115583 7.4212906180834954 33.1674481959804339 Zr
atom 7.4239583535299900 7.4212796424577743 33.1672910238318508 Zr
atom 2.4756933456658166 2.4726208132230347 38.2852512023087783 Zr
atom 7.4241344881969455 2.4726693735746847 38.2851004945281090 Zr
atom 2.4757022447238106 7.4211016170478326 38.2854100499087266 Zr
atom 7.4241727772024282 7.4211002447596508 38.2852512023087783 Zr
atom 2.4752811912073445 2.4728314050164690 30.6049847382475484 S
atom 7.4240373882552237 2.4730043313367873 30.6048299214167798 S
atom 2.4756051447821021 7.4214365748099285 30.6051394767973228 S
atom 7.4237606227439468 7.4213108365530909 30.6049847382475448 S
atom 2.4756328406144292 2.4726520222582509 35.7175730836553598 S
atom 7.4240718700762738 2.4727425894949429 35.7174191241941159 S
atom 2.4756396266031451 7.4211748329680782 35.7177286795748401 S
atom 7.4241122721510386 7.4211314537948834 35.7175730836553598 S
atom 1.9387974465889390 -0.0014189724065067 33.1587458604643288 S
atom 7.9604876860098841 -0.0013957168204959 33.1585608933809297 S
atom 3.0120554425367674 4.9470365266526413 33.1588704487614621 S
atom 6.8872768781255420 4.9470604591301335 33.1587458604643501 S
atom 3.0120721289611225 -0.0016086377759087 38.2679400141664559 S
atom 6.8878434800910950 -0.0015825187711445 38.2676839317544477 S
atom 1.9394112366179816 4.9468497247019974 38.2679934871349730 S
atom 7.9605515604977413 4.9468707937607217 38.2679400141664630 S
atom 0.0012590391508172 3.0094499105587027 33.1589489583152570 S
atom 4.9497148758876639 1.9362078164293459 33.1586170822520074 S
atom 0.0012826324145444 6.8846400599024804 33.1589266376327600 S
atom 4.9497384706874188 7.9579293420953334 33.1589489583152570 S
atom 0.0014794785041451 1.9362828809554475 38.2681463858056929 S
atom 4.9499329451167293 3.0090104970753391 38.2678897009688797 S
atom 0.0015007016436164 7.9574427405484727 38.2681992563495115 S
atom 4.9499589100407686 6.8847623124920601 38.2681463858056929 S
atom 0.0014812357408687 -0.0016986547175302 40.8247138813777823 Ba
atom 4.9500666086527980 -0.0014862023431950 40.8244870221407297 Ba
atom 0.0016343651796615 4.9469460411299373 40.8247965775212904 Ba
atom 4.9499606672774865 4.9467807768191028 40.8247138813777823 Ba
atom 0.0017289284926035 -0.0015713089269611 45.9142893061968564 Ba
atom 4.9501110858490946 -0.0020243925548431 45.9141092885827149 Ba
atom 0.0016788423759705 4.9464078509182983 45.9144188439633041 Ba
atom 4.9502083600292295 4.9469081226096439 45.9142893061968493 Ba
atom 2.4758445609756810 2.4724007891421431 43.4042704516485003 Zr
atom 7.4243387543018011 2.4724387902631122 43.4041214527591208 Zr
atom 2.4759065108286746 7.4208710337362476 43.4044310081396247 Zr
atom 7.4243239925122735 7.4208802206787547 43.4042704516485003 Zr
atom 2.4760738124094805 2.4721192716819793 48.5465383956517726 Zr
atom 7.4244569678018832 2.4721370351667105 48.5463904083388798 Zr
atom 2.4760247243287576 7.4205692786398574 48.5466999637194405 Zr
atom 7.4245532439460655 7.4205987032186185 48.5465383956517726 Zr
atom 2.4759687058119271 2.4725342950911320 40.8297051710795103 S
atom 7.4240622509141998 2.4724311973409372 40.8295511855147097 S
atom 2.4756300074410857 7.4208634408140872 40.8298607408952563 S
atom 7.4244481373485147 7.4210137266277716 40.8297051710795103 S
atom 2.4754565496239271 2.4721744067114577 45.9405489938392009 S
atom 7.4249077027746955 2.4723556502074753 45.9403970074681567 S
atom 2.4764754593015872 7.4207878936806022 45.9407065628487530 S
atom 7.4239359811605370 7.4206538382480600 45.9405489938392009 S
atom 1.9385608436888813 -0.0018221489499583 43.3791624761685526 S
atom 7.9615464843689514 -0.0017991168867143 43.3791019851531914 S
atom 3.0131142408958227 4.9466331265864349 43.3794115405337237 S
atom 6.8870402752254902 4.9466572825866733 43.3791624761685526 S
atom 2.9080191513645506 -0.0020607066359839 48.4514892245077249 S
atom 6.9924689750409028 -0.0020365148069049 48.4511916986157019 S
atom 2.0440367315677537 4.9463957286662410 48.4515012539962910 S
atom 7.8564985829011560 4.9464187249006519 48.4514892245077249 S
atom 0.0016299845623134 3.0097232207086675 43.3790909177823849 S
atom 4.9500868593969445 1.9351939859911618 43.3794252712704989 S
atom 0.0016546159238231 6.8836262294642907 43.3797348266510951 S
atom 4.9501094160989174 7.9582026522452871 43.3790909177823991 S
atom 0.0018032993219856 2.0402171004868701 48.4521403769754855 S
atom 4.9502585983708860 2.9042466051168225 48.4508473707442704 S
atom 0.0018263548977731 7.8526788485899628 48.4511569261248098 S
atom 4.9502827308586008 6.9886965320234902 48.4521403769754855 S
atom 0.0019312332025808 -0.0027384610543691 50.8257816579502517 Ba
atom 4.9504146133824376 -0.0023934367944772 50.8256263023607104 Ba
atom 0.0019823699093229 4.9460388066786747 50.8259358577412783 Ba
atom 4.9504106647391852 4.9457409704822668 50.8257816579502517 Ba
atom 2.4766559472132164 2.4722160403837368 51.0899995788870882 S
atom 7.4240208253575855 2.4721301140495138 51.0898482172508679 S
atom 2.4755885818844590 7.4205623575226500 51.0901577726314642 S
atom 7.4251353787498102 7.4206954719203697 51.0899995788870882 S
atom 2.4761427756636207 2.4718784009243420 54.2027678601455349 Ba
atom 7.4242771829403500 2.4718744522810900 54.2026125045559795 Ba
atom 2.4758449394672204 7.4203066957542010 54.2029220599366610 Ba
atom 7.4246222072002714 7.4203578324609527 54.2027678601455349 Ba
atom 2.4765118199032705 2.4715748733909906 59.1142848739235021 Ba
atom 7.4254443350677466 2.4716721475711081 59.1141048563092824 Ba
atom 2.4770120915946316 7.4201043910442657 59.1144144116900137 Ba
atom 7.4249912514398915 7.4200543049276293 59.1142848739235021 Ba
atom 4.9506732476248025 4.9459207553437965 56.4820037541674083 Zr
atom 9.8991349156767008 4.9460170314879859 56.4818557668545438 Zr
atom 4.9507026722035583 9.8944492749611737 56.4821653222352040 Zr
atom 9.8991526791614390 9.8944001868804303 56.4820037541674083 Zr
atom 4.9509750027212336 4.9458025418437277 61.6242727097471601 Zr
atom 9.8994164331368744 4.9457877800541770 61.6241237108577309 Zr
atom 4.9509841896637248 9.8942200235273692 61.6244332662383201 Zr
atom 9.8994544342578568 9.8942819733803287 61.6242727097471601 Zr
atom 4.9506663265076218 4.9454846128994889 53.9385459452553420 S
atom 9.8992316843784476 4.9465991662917146 53.9383945836191501 S
atom 4.9507994409053193 9.8950314097648810 53.9387041389998316 S
atom 9.8991457580441971 9.8939640444361245 53.9385459452553420 S
atom 4.9508918626655749 4.9463714903166283 59.0879971550381597 S
atom 9.8991900507061565 4.9453997687024502 59.0878451686669806 S
atom 4.9507578072330327 9.8938320121756167 59.0881547240475982 S
atom 9.8993712942021901 9.8948509218532390 59.0879971550381597 S
atom 5.3827828175749062 2.4717223859127895 56.5775467917620816 S
atom 9.4672327444815902 2.4717465184004888 56.5762537855308167 S
atom 4.5188005010084478 7.4201787618736414 56.5765633409112780 S
atom 10.3312622491115214 7.4202018174494313 56.5775467917620745 S
atom 4.4137301984492741 2.4715506469388488 61.6489688912358815 S
atom 10.4367388647033206 2.4715732036408316 61.6493032447238534 S
atom 5.4883066212302403 7.4200054471139634 61.6496128001044141 S
atom 9.3622096299858537 7.4200300784754587 61.6489688912358815 S
atom 2.4764996976512057 4.5139327625827841 56.5772024638904654 S
atom 7.4249549373587165 5.3779623704430648 56.5769049379985134 S
atom 2.4765226938856135 10.3263946139162606 56.5772144933790244 S
atom 7.4249791291878289 9.4624121941194268 56.5772024638904654 S
atom 2.4767370955713961 5.4830102719108327 61.6492921773530966 S
atom 7.4251934950447698 4.4085040627673973 61.6492316863377425 S
atom 2.4767612515716557 9.3569363062405433 61.6495412417182322 S
atom 7.4252165271080264 10.4314897034474736 61.6492921773530895 S
atom 2.4770500101149180 2.4715303961946806 64.2039071403655015 Ba
atom 7.4253169892771753 2.4714244548193669 64.2036802811284986 Ba
atom 2.4768847458040795 7.4198566982925298 64.2039898365090238 Ba
atom 7.4255294416515332 7.4200098277313025 64.2039071403655015 Ba
atom 2.4771210626140920 2.4712642497934376 69.3130897992445085 Ba
atom 7.4255677446660115 2.4712159777218670 69.3128775136049597 Ba
atom 2.4771355011928895 7.4196482211950112 69.3131870689856413 Ba
atom 7.4256004941506788 7.4197436813300817 69.3130897992445085 Ba
atom 4.9512055860328266 4.9455982757388508 66.7432936679780511 Zr
atom 9.8996364572177509 4.9456365647443414 66.7431429601978721 Zr
atom 4.9512042137446315 9.8940688082174955 66.7434525155784684 Zr
atom 9.8996850175694178 9.8940777072754873 66.7432936679780511 Zr
atom 4.9513945870684575 4.9454140994265856 71.8612555219067559 Zr
atom 9.8998158549158095 4.9454221410719041 71.8611031386741246 Zr
atom 4.9513836114427292 9.8938543845450422 71.8614126940548914 Zr
atom 9.8998740186050398 9.8938935309632150 71.8612555219067701 Zr
atom 4.9509674097990599 4.9455260384561246 64.1988429769917133 S
atom 9.8995499390858317 4.9459119248904395 64.1986889914266925 S
atom 4.9511176956127265 9.8943441683635971 64.1989985468072888 S
atom 9.8994468413356493 9.8940054699927469 64.1988429769916991 S
atom 4.9512788019530554 4.9455356576181622 69.3109750383122361 S
atom 9.8996676662529719 4.9455760596929510 69.3108210788511201 S
atom 4.9512354227798463 9.8940083031661050 69.3111306342315885 S
atom 9.8997582334896723 9.8940150891548253 69.3109750383122361 S
atom 5.4875467095334249 2.4713967326586372 66.7605044615375078 S
atom 9.3632985249501566 2.4714226975826517 66.7602477767008509 S
atom 4.4148662814770416 7.4198549410557986 66.7605573320814187 S
atom 10.4360261410700836 7.4198761641952773 66.7605044615375078 S
atom 4.4147440288874549 2.4711786634295616 71.8697770802542806 S
atom 10.4364655545534308 2.4712022582293245 71.8694452041911660 S
atom 5.4880333110803017 7.4196345017024816 71.8697547595719044 S
atom 9.3632234604240665 7.4196580949662039 71.8697770802542806 S
atom 2.4769536936869665 4.4093072676329923 66.7607102307519114 S
atom 7.4254070062188156 5.4820153480396412 66.7604541483395764 S
atom 2.4769747627457006 10.4304475915128183 66.7607637037201158 S
atom 7.4254331252235755 9.3577866991696510 66.7607102307519114 S
atom 2.4771404956376117 5.4819514735518036 71.8698332691255501 S
atom 7.4255966715882158 4.4087406656674615 71.8696483020419237 S
atom 2.4771644281150866 9.3571729091405746 71.8699578574227758 S
atom 7.4256199271742336 10.4304309050884321 71.8698332691255644 S
atom 2.4772439032358253 2.4710302694084834 74.4239281639214738 Ba
atom 7.4258152957204597 2.4710509036428947 74.4237319223192628 Ba
atom 2.4773830522473399 7.4194831471160310 74.4240414777001149 Ba
atom 7.4257233347724423 7.4195097009451061 74.4239281639214596 Ba
atom 2.4777140950411307 2.4710002587157098 79.5361992693153468 Ba
atom 7.4257642240252171 2.4709597168277972 79.5360113381463520 Ba
atom 2.4773319805521052 7.4193919603009437 79.5363208935269483 Ba
atom 7.4261935265777144 7.4194796902523592 79.5361992693153468 Ba
atom 4.9516131382330251 4.9452597848826656 76.9779823641843421 Zr
atom 9.9000625446892911 4.9452557577136185 76.9778314743048497 Zr
atom 4.9516303012161282 9.8936880011867903 76.9781410296856734 Zr
atom 9.9000925697696154 9.8937392164192701 76.9779823641843421 Zr
atom 4.9518952059137051 4.9451836493665278 82.0943791331569628 Zr
atom 9.9003446123699614 4.9451796221974638 82.0942282432776551 Zr
atom 4.9519123688967843 9.8936118656706231 82.0945377986581377 Zr
atom 9.9003746374503176 9.8936630809031563 82.0943791331569628 Zr
atom 4.9515405437948958 4.9455011757971299 74.4235642410895508 S
atom 9.8998470490111732 4.9452244102858831 74.4234094242588782 S
atom 4.9514148055380707 9.8936566537590256 74.4237189796393466 S
atom 9.9000199753315030 9.8939806073337646 74.4235642410895508 S
atom 4.9516411840903745 4.9450035308554252 79.5361827815770113 S
atom 9.9003165665125170 4.9454358762246997 79.5360278258846591 S
atom 4.9518843230394456 9.8938681196978546 79.5363373812652981 S
atom 9.9001206156270314 9.8934829623920564 79.5361827815770113 S
atom 5.4885055184730280 2.4710301296831765 76.9803233579295352 S
atom 9.3630504813813378 2.4710546667109132 76.9804936803353002 S
atom 4.4146182379082264 7.4194869101840384 76.9808032357159391 S
atom 10.4369849500096112 7.4195095612197921 76.9803233579295352 S
atom 4.4149728005933246 2.4709298458603253 82.0918872495321210 S
atom 10.4373395126947521 2.4709524968960710 82.0914073717457597 S
atom 5.4889072692216052 7.4193847403692201 82.0917169271266260 S
atom 9.3634522321299070 7.4194092773969587 82.0918872495321210 S
atom 2.4773786770315684 4.4082966595640611 76.9805790263404361 S
atom 7.4258328798050242 5.4822127942873289 76.9806360829904150 S
atom 2.4774006363318986 10.4306450377605202 76.9809456383708834 S
atom 7.4258581085681641 9.3567760911007287 76.9805790263404361 S
atom 2.4776673985616608 5.4820955594525920 82.0919411365017311 S
atom 7.4261248707979339 4.4082266127927978 82.0915745244715680 S
atom 2.4776926273248097 9.3566588562659234 82.0918840798522353 S
atom 7.4261468300982632 10.4305749909891929 82.0919411365017453 S
atom 2.4776630233458747 2.4709090719006039 84.6484786851424360 Ba
atom 7.4262344158304945 2.4709297061350237 84.6482824435404950 Ba
atom 2.4778021723573884 7.4193619496081364 84.6485919989210629 Ba
atom 7.4261424548825010 7.4193885034372258 84.6484786851424360 Ba
atom 2.4779105744003322 2.4707439978216299 89.7593330938564833 Ba
atom 7.4263572564522580 2.4706957257500695 89.7591208082174319 Ba
atom 2.4779250129791333 7.4191279692232186 89.7594303635979855 Ba
atom 7.4263900059369590 7.4192234293582642 89.7593330938564833 Ba
atom 4.9521418956871051 4.9450172660082368 87.2111074687874890 Zr
atom 9.9005631635345068 4.9450253076535438 87.2109550855552840 Zr
atom 4.9521309200613919 9.8934575511267138 87.2112646409357524 Zr
atom 9.9006213272237424 9.8934966975448422 87.2111074687874890 Zr
atom 4.9523212933852001 4.9448028423357835 92.3290676472640541 Zr
atom 9.9007521645701466 4.9448411313412848 92.3289169394836620 Zr
atom 4.9523199210970166 9.8932733748144415 92.3292264948644288 Zr
atom 9.9008007249217993 9.8932822738724067 92.3290676472640541 Zr
atom 4.9521107015917618 4.9452149967942756 84.6488011832028633 S
atom 9.9004172068080987 4.9449382312829950 84.6486463663722475 S
atom 4.9519849633349367 9.8933704747561411 84.6489559217527869 S
atom 9.9005901331284161 9.8936944283308783 84.6488011832028633 S
atom 4.9522900843500022 4.9448633473871872 89.7613895286106924 S
atom 9.9006789486498903 4.9449037494619823 89.7612355691497754 S
atom 4.9522467051767691 9.8933359929351212 89.7615451245302864 S
atom 9.9007695158866014 9.8933427789238113 89.7613895286106924 S
atom 5.4887342901788854 2.4707813121139313 87.2024335272076740 S
atom 9.3639244395226875 2.4708049053776535 87.2024558478900076 S
atom 4.4154921960495441 7.4192371488508053 87.2027654032707318 S
atom 10.4372137217155352 7.4192607436505922 87.2024335272076740 S
atom 4.4159316095329419 2.4705632428848547 92.3117061459243331 S
atom 10.4370914691258765 2.4705844660243335 92.3116532753805643 S
atom 5.4886592256527926 7.4190167094974857 92.3119628307610469 S
atom 9.3644110410695252 7.4190426744215001 92.3117061459243473 S
atom 2.4779055799556042 4.4084407454648415 87.2026868937169723 S
atom 7.4263610790147467 5.4816987414126714 87.2025623054196046 S
atom 2.4779288355416194 10.4301309848858175 87.2028718608002862 S
atom 7.4263850114922016 9.3569201770014701 87.2026868937169723 S
atom 2.4780923819062690 5.4810849513836528 92.3118099320906254 S
atom 7.4265507443841337 4.4084240590404979 92.3117564591220088 S
atom 2.4781185009110227 9.3568563025136537 92.3120660145027614 S
atom 7.4265718134428624 10.4295643829203044 92.3118099320906111 S
atom 2.4781613297891525 2.4705355207241340 94.8685303263332429 Ba
atom 7.4264283089514240 2.4704295793488300 94.8683034670960978 Ba
atom 2.4779960654783060 7.4188618228219445 94.8686130224767936 Ba
atom 7.4266407613257703 7.4190149522607474 94.8685303263332429 Ba
atom 2.4780339839985821 2.4702878279723963 99.9581057511523454 Ba
atom 7.4269664991630773 2.4703851021525196 99.9579257335381186 Ba
atom 2.4785342556899512 7.4188173456256425 99.9582352889187860 Ba
atom 7.4265134155352301 7.4187672595090186 99.9581057511523454 Ba
atom 4.9525413174661086 4.9446516270259471 97.4480868966041811 Zr
atom 9.9009827478817254 4.9446368652363999 97.4479378977146382 Zr
atom 4.9525505044086096 9.8930691087095681 97.4482474530949645 Zr
atom 9.9010207490027398 9.8931310585625543 97.4480868966041811 Zr
atom 4.9528228349262653 4.9444223755921195 102.5903548406072616 Zr
atom 9.9012845029781467 4.9445186517363373 102.5902068532942337 Zr
atom 4.9528522595050166 9.8929508952095020 102.5905164086747732 Zr
atom 9.9013022664628494 9.8929018071287569 102.5903548406072616 Zr
atom 4.9524078115171193 4.9445274821896827 94.8735216160351058 S
atom 9.9009903408039079 4.9449133686239994 94.8733676304699856 S
atom 4.9525580973308054 9.8933456120971837 94.8736771858507808 S
atom 9.9008872430536830 9.8930069137263441 94.8735216160351058 S
atom 4.9527676998968015 4.9450396383776924 99.9843654387951517 S
atom 9.9010658879373690 4.9440679167635109 99.9842134524235462 S
atom 4.9526336444642602 9.8925001602366986 99.9845230078041283 S
atom 9.9012471314334043 9.8935190699142961 99.9843654387951517 S
atom 5.4897481206171088 2.4704093286046498 97.4232417162258884 S
atom 9.3636511293727018 2.4704339599661642 97.4225978073573344 S
atom 4.4152188858996153 7.4188662034393049 97.4229073627377318 S
atom 10.4382275521537089 7.4188887601412867 97.4232417162258884 S
atom 4.5206955014914332 2.4702375896307016 102.4946638156996386 S
atom 10.3331572495945334 2.4702606452064981 102.4956472665504350 S
atom 5.3847250061213510 7.4186928886796535 102.4959568219310171 S
atom 9.4691749330280182 7.4187170211673426 102.4946638156996386 S
atom 2.4783089800218292 4.4073819471057902 97.4232279854894188 S
atom 7.4267642555582096 5.4819353443127392 97.4229789211240416 S
atom 2.4783320120850751 10.4303675877858648 97.4232884765048084 S
atom 7.4267884115584364 9.3558613786424374 97.4232279854894188 S
atom 2.4785463779420231 5.3764594564338548 102.4953176989519221 S
atom 7.4270028132442194 4.5124770366370761 102.4953056694634199 S
atom 2.4785705697711040 9.4609092801101813 102.4956152248439878 S
atom 7.4270258094786268 10.3249388879705037 102.4953176989519221 S
atom 2.4792011361259987 2.4700855232624077 104.8695981029057407 Ba
atom 7.4273355434027044 2.4700815746191638 104.8694427473162136 Ba
atom 2.4789032999296023 7.4185138180922889 104.8697523026970089 Ba
atom 7.4276805676625974 7.4185649547990504 104.8695981029057407 Ba
atom 4.9527260662245096 4.9438402407884299 105.1338160238426980 S
atom 9.9012914240953265 4.9449547941806591 105.1336646622063853 S
atom 4.9528591806222160 9.8933870376538078 105.1339742175867400 S
atom 9.9012054977611310 9.8923196723250051 105.1338160238426980 S
