#=======================================================
# FHI-aims file: sym_relax/sym_relax_RP_6_RxRyRz_-RxRy0.in
# Created using the Atomic Simulation Environment (ASE)
# Fri Mar 14 11:11:52 2025
#=======================================================
lattice_vector 9.9907335433953435 -0.0155466571659250 -0.0080058888473729 
lattice_vector -0.0155466571659253 9.9907335433953488 0.0080058888473729 
lattice_vector -0.0523210287786834 0.0523210287786829 66.2200975757305628 
atom -0.0044832209497684 -0.0959258903661278 0.1782010064947417 Ba
atom 5.0912926620638084 -0.0032901076331947 0.1741980620710548 Ba
atom 0.0881525617831659 4.9998499926474276 0.1822039509184276 Ba
atom 4.9831102221649468 4.8916675527485722 0.1782010064947415 Ba
atom -0.2869639598636445 0.2206023600610145 4.9711078302947413 Ba
atom 4.7747644116366681 0.2791906312806816 4.9671048858710494 Ba
atom -0.2283756886439776 5.2823307315613217 4.9751107747184236 Ba
atom 4.7006294832510678 5.2081958031757143 4.9711078302947405 Ba
atom 2.4321459837455013 2.5475187529522976 2.3550694883068086 Zr
atom 7.4354414618600817 2.5476741307862500 2.3510665438831206 Zr
atom 2.4323013615794511 7.5508142310668882 2.3590724327304966 Zr
atom 7.4197394268602244 7.5351121960670033 2.3550694883068077 Zr
atom 2.3959752442842439 2.5553974281955294 7.4358654464000624 Zr
atom 7.4275627866168508 2.5838448702474950 7.4318625019763740 Zr
atom 2.4244226863362175 7.5869849705281176 7.4398683908237597 Zr
atom 7.3835686873989701 7.5429908713102174 7.4358654464000624 Zr
atom 2.5525188809386927 2.7459562573092104 -0.1525306215222376 S
atom 7.2370039575031662 2.4273012335930604 -0.1565335659459243 S
atom 2.2338638572225360 7.4304413338736950 -0.1485276770985511 S
atom 7.5401123240533945 7.7335497004239260 -0.1525306215222377 S
atom 2.2230068403920535 2.3135124953696518 4.9298749185404924 S
atom 7.6694477194427551 2.7568132741396925 4.9258719741168049 S
atom 2.6663076191620960 7.7599533744203217 4.9338778629641755 S
atom 7.2106002835067793 7.3011059384843451 4.9298749185404924 S
atom 2.7195046952491508 0.0616860995629816 2.2335580463226217 S
atom 7.1263409199972614 0.0562511680722035 2.6756818929410953 S
atom 2.1232008197166090 5.0593912683528321 2.6836877817884650 S
atom 7.7070981383638770 5.0492795426776862 2.2335580463226203 S
atom 2.9079853124329880 0.0610598903333798 7.6539540448977554 S
atom 6.9961378579483107 0.0544415601523426 7.2502506870585055 S
atom 1.9929977576676667 5.0575816604329820 7.2582565759058744 S
atom 7.8955787555477146 5.0486533334480796 7.6539540448977563 S
atom -0.0694594281459442 2.2758620764485253 2.2375609907463057 S
atom 4.9235689464595618 2.8566192948151441 2.6796848373647788 S
atom -0.0795711538210927 7.8597593950957689 2.6876907262121548 S
atom 4.9181340149687811 7.2634555195632107 2.2375609907463057 S
atom -0.0688332189163425 2.0873814592646900 7.6579569893214368 S
atom 4.9253785543794102 2.9868223568640757 7.2542536314821842 S
atom -0.0777615459012315 7.9899624571447196 7.2622595203295610 S
atom 4.9187602241983681 7.0749749023793944 7.6579569893214359 S
atom -0.0159619342468507 -0.0641738574866072 9.9857466043447225 Ba
atom 5.0595406291842906 0.0081886056638879 9.9817436599210243 Ba
atom 0.0564005289036451 5.0113287059445026 9.9897495487684012 Ba
atom 4.9716315088678629 4.9234195856281069 9.9857466043447225 Ba
atom 0.0365177958960643 0.0603000817045567 15.0500221763024022 Ba
atom 4.9350666899931213 -0.0442911244790271 15.0460192318787040 Ba
atom -0.0680734102875191 4.9588489758015921 15.0540251207260827 Ba
atom 5.0241112390107947 5.0478935248192647 15.0500221763024022 Ba
atom 2.4879537470214546 2.5109114192513875 12.5090262962091199 Zr
atom 7.4720487955610206 2.4918663675102888 12.5050233517854359 Zr
atom 2.4689086952803661 7.4950064677909198 12.5130292406328092 Zr
atom 7.4755471901361714 7.4985048623660813 12.5090262962091199 Zr
atom 2.4871291334428944 2.5117360328299401 17.5910180563956366 Zr
atom 7.4712241819824587 2.4926909810888485 17.5870151119719438 Zr
atom 2.4680840817017993 7.4958310813694915 17.5950210008193793 Zr
atom 7.4747225765576157 7.4993294759446476 17.5910180563956366 Zr
atom 2.5805953524515077 2.6964550276350705 9.9795056074787727 S
atom 7.2865051871773012 2.3992247620802374 9.9755026630550692 S
atom 2.2833650868966751 7.4023648623608729 9.9835085519024389 S
atom 7.5681887955662450 7.6840484707497785 9.9795056074787727 S
atom 2.3948762574212794 2.4186585432297694 15.0500221763024022 S
atom 7.5643016715826441 2.5849438571104604 15.0460192318787040 S
atom 2.5611615713019775 7.5880839573910839 15.0540251207260827 S
atom 7.3824697005360003 7.4062519863444729 15.0500221763024022 S
atom 2.0100229383012067 0.0124791330344473 12.4334969504575348 S
atom 7.9838944107330025 0.0056075037200251 12.5931506532954867 S
atom 2.9807543104523475 5.0087476040006562 12.6011565421428688 S
atom 6.9976163814159333 5.0000725761491545 12.4334969504575366 S
atom 2.9615615475879795 0.0035298241910822 17.6625444577235520 S
atom 6.9784236185515525 -0.0051452036604214 17.4948848660382481 S
atom 1.9752835182709123 4.9979948966202032 17.5028907548856196 S
atom 7.9491549907027110 4.9911232673057819 17.6625444577235449 S
atom -0.0202524616174098 2.9853438333964615 12.4374998948812117 S
atom 4.9742126108117075 1.9990658040793980 12.5971535977191724 S
atom -0.0289274894689142 7.0022059043600171 12.6051594865665404 S
atom 4.9673409814973111 7.9729372765111597 12.4374998948812134 S
atom -0.0113031527740449 2.0338052241097007 17.6665474021472697 S
atom 4.9849653181921916 3.0045365962608304 17.4988878104619339 S
atom -0.0181747820884671 8.0076766965414752 17.5068936993093374 S
atom 4.9762902903406765 7.0213986672243989 17.6665474021472768 S
atom -0.0879561432950999 0.0078203515616419 20.1142977482600962 Ba
atom 4.9875464201360540 0.0801828147121368 20.1102948038363927 Ba
atom -0.0155936801446038 5.0833229149927543 20.1183006926837926 Ba
atom 4.8996372998196183 4.9954137946763479 20.1142977482600962 Ba
atom 0.1968200742525226 -0.2631816740551512 25.1289365223100454 Ba
atom 5.2585484457528286 -0.2045934028354851 25.1249335778863383 Ba
atom 0.2554083454721895 4.7985466974451461 25.1329394667337525 Ba
atom 5.1844135173672248 4.7244117690595671 25.1289365223100454 Ba
atom 2.5316151423870412 2.4197575300927308 22.6641789062047394 Zr
atom 7.5632026847196672 2.4482049721447039 22.6601759617810323 Zr
atom 2.5600625844390219 7.4513450724253261 22.6681818506284110 Zr
atom 7.5192085855017661 7.4073509732074339 22.6641789062047394 Zr
atom 2.5237364671438143 2.4559282695539761 27.7449748642979870 Zr
atom 7.5270319452584022 2.4560836473879255 27.7409719198742870 Zr
atom 2.5238918449777650 7.4592237476685579 27.7489778087216870 Zr
atom 7.5113299102585387 7.4435217126686846 27.7449748642979870 Zr
atom 2.6726727418265921 2.6043776382599919 20.1205387451260478 S
atom 7.3785825765524020 2.3071473727051615 20.1165358007023407 S
atom 2.3754424762717523 7.3102874729857961 20.1245416895497158 S
atom 7.6602661849413343 7.5919710813746866 20.1205387451260513 S
atom 2.2897302095611702 2.2467891262005422 25.1701694340643094 S
atom 7.7361710886118615 2.6900899049705775 25.1661664896405988 S
atom 2.7330309883312118 7.6932300052512153 25.1741723784879845 S
atom 7.2773236526758689 7.2343825693152537 25.1701694340643130 S
atom 2.0635991734562102 -0.0450509331078501 22.4420873632833846 S
atom 7.9661801713362497 -0.0539792600927391 22.8377848322751866 S
atom 2.9630400710555942 4.9491608401878899 22.8457907211225937 S
atom 7.0511926165709209 4.9425425100068630 22.4420873632833846 S
atom 2.2520797906400327 -0.0456771423374519 27.8624833618584873 S
atom 7.8359771092872856 -0.0557888680125999 27.4123536263925942 S
atom 2.8328370090066524 4.9473512322680318 27.4203595152399799 S
atom 7.2396732337547656 4.9419163007772493 27.8624833618584873 S
atom 0.0372776045248878 2.9317675982414673 22.4460903077070526 S
atom 5.0337993746245075 2.0167800434761554 22.8417877766988759 S
atom 0.0306592743438502 7.0199201437567762 22.8497936655462439 S
atom 5.0248710476396088 7.9193610413561624 22.4460903077070526 S
atom 0.0379038137544894 2.7432869810576359 27.8664863062821269 S
atom 5.0356089825443560 2.1469831055250932 27.4163565708162942 S
atom 0.0324688822637114 7.1501232058057287 27.4243624596636764 S
atom 5.0254972568692065 7.7308804241723399 27.8664863062821269 S
atom -0.1197081761746208 0.0192990648587245 29.9218433461100659 Ba
atom 4.9760677068389709 0.1119348475916577 29.9178404016863340 Ba
atom -0.0270723934416862 5.1150749478722837 29.9258462905337055 Ba
atom 4.8678852669400969 5.0068925079734328 29.9218433461100659 Ba
atom 2.7221739715007218 2.5763011667471667 30.2525749741270289 S
atom 7.4066590480652330 2.2576461430310193 30.2485720297033289 S
atom 2.4035189477845806 7.2607862433116406 30.2565779185507218 S
atom 7.7097674146154693 7.5638946098618751 30.2525749741270289 S
atom 2.6519211391951369 2.4354034263135356 33.3711822463795826 Ba
atom 7.5475567884988584 2.3278989753366091 33.3671793019559431 Ba
atom 2.5444166882182078 7.3310390756172419 33.3751851908032933 Ba
atom 7.6395145823098582 7.4229968694282471 33.3711822463795897 Ba
atom 2.3095179778697008 2.7427523142170331 38.1596679142930952 Ba
atom 7.2402079005953652 2.6703021366620447 38.1556649698694414 Ba
atom 2.2370678003147182 7.6734422369426758 38.1636708587167561 Ba
atom 7.2971114209844252 7.7303457573317260 38.1596679142931094 Ba
atom 4.9871326643026119 4.9972894112871851 35.5501835393186667 Zr
atom 9.9732642466399017 4.9802808933438465 35.5461805948949703 Zr
atom 4.9701241463592734 9.9834209936244864 35.5541864837422850 Zr
atom 9.9747261074173181 9.9848828544019081 35.5501835393186667 Zr
atom 4.9816220504878634 5.0003469613273879 40.6141084278782856 Zr
atom 9.9702066965996963 4.9857915071585959 40.6101054834546318 Zr
atom 4.9670665963190652 9.9889316074392251 40.6181113723019109 Zr
atom 9.9692154936026114 9.9879404044421154 40.6141084278782714 Zr
atom 4.7728179765609662 4.8628181722568931 33.0418992439333223 S
atom 10.1077354856702115 5.1945955810854896 33.0378962995096472 S
atom 5.1045953853895627 10.1977356813661029 33.0459021883569406 S
atom 9.7604114196756750 9.8504116153716250 33.0418992439333223 S
atom 5.2708739051963391 5.2433173607962029 38.1158014511779726 S
atom 9.7272362971309043 4.6965396524501282 38.1117985067542691 S
atom 4.7240961968502422 9.6996797527307468 38.1198043956016335 S
atom 10.2584673483110489 10.2309108039109145 38.1158014511779726 S
atom 4.6717176763090356 2.5067557864748813 35.8989866470300782 S
atom 10.2583814554112873 2.4957252731597022 35.3940463745050096 S
atom 5.2552413551306190 7.4988653734403288 35.4020522633523953 S
atom 9.6593111194237462 7.4943492295895808 35.8989866470300782 S
atom 4.5968370919025938 2.4969255658916265 40.3335751171523640 S
atom 10.3879809231722255 2.4844310119832742 40.9247600777972735 S
atom 5.3848408228915776 7.4875711122639013 40.9327659666446593 S
atom 9.5844305350173276 7.4845190090063252 40.3335751171523640 S
atom 2.4730643280568785 5.3112425385033548 35.9029895914537036 S
atom 7.4716882844867660 4.7121722025158403 35.3980493189286918 S
atom 2.4685481842061185 9.7153123027964341 35.4060552077760420 S
atom 7.4606577711715820 10.2988359816180459 35.9029895914536823 S
atom 2.4828945486401190 5.3861231229097930 40.3375780615760462 S
atom 7.4829825456631909 4.5825727347548737 40.9287630222210268 S
atom 2.4798424453825576 9.5857128350354941 40.9367689110683628 S
atom 7.4704879917548466 10.3737165660244912 40.3375780615760533 S
atom 2.6706538901478680 2.2386534426037779 43.1511839792990912 Ba
atom 7.7443067722086250 2.3091662243838731 43.1471810348753806 Ba
atom 2.7411666719279739 7.3123063246645028 43.1551869237227663 Ba
atom 7.6582473332625964 7.2262468857184823 43.1511839792990912 Ba
atom 2.4470733208973328 2.5231766354844942 48.1600709641677085 Ba
atom 7.4597835793278886 2.5327467936344177 48.1560680197439623 Ba
atom 2.4566434790472438 7.5358868939150385 48.1640739085914618 Ba
atom 7.4346667640120483 7.5107700785992231 48.1600709641677085 Ba
atom 5.0081969621880669 4.9517123440198052 45.6425445883646432 Zr
atom 10.0188413139072754 4.9592165954583862 45.6385416439409397 Zr
atom 5.0157012136266479 9.9623566957390430 45.6465475327883041 Zr
atom 9.9957904053027846 9.9393057871345150 45.6425445883646432 Zr
atom 4.8756090294326375 5.0843002767752115 50.6775973399707738 Zr
atom 9.8862533811518762 5.0918045282138156 50.6735943955470205 Zr
atom 4.8831132808712363 10.0949446284944315 50.6816002843944204 Zr
atom 9.8632024725473961 10.0718937198899265 50.6775973399707738 Zr
atom 4.6836115887679926 4.7383255712469223 43.1341772334610170 S
atom 10.2322280866802018 5.2838019688784641 43.1301742890373490 S
atom 5.2290879863995281 10.2869420691590996 43.1381801778847205 S
atom 9.6712050318826908 9.7259190143616188 43.1341772334610170 S
atom 5.1955037732210085 5.2716070878081664 48.1600709641677085 S
atom 9.6989465701189452 4.7719097844254623 48.1560680197439623 S
atom 4.6958064698382804 9.7750498847060676 48.1640739085914618 S
atom 10.1830972163357245 10.2592005309228895 48.1600709641677085 S
atom 4.6400492003563816 2.4793035318045398 45.9114455043210867 S
atom 10.3864264533175206 2.4684916916564226 45.3752481227017981 S
atom 5.3832863530368833 7.4716317919370541 45.3832540115491909 S
atom 9.6276426434711571 7.4668969749192593 45.9114455043210938 S
atom 5.2668076998688083 2.5766198973143721 50.4046934795905486 S
atom 9.5111639903030554 2.5718850802965667 50.9328849723625652 S
atom 4.5080238900224270 7.5750251805771960 50.9408908612098514 S
atom 10.2544011429835500 7.5642133404290846 50.4046934795905273 S
atom 2.5005165827272031 5.3429110144559999 45.9154484487448258 S
atom 7.4989218659900398 4.5841272046095884 45.3792510671253879 S
atom 2.4957817657093968 9.5872673048901955 45.3872569559727808 S
atom 7.4881100258419231 10.3305044575706990 45.9154484487447831 S
atom 2.4032002172173774 4.7161525149435377 50.4086964240142521 S
atom 7.3955284773499042 5.4593896676240421 50.9368879167862758 S
atom 2.3923883770692611 10.4625297679046838 50.9448938056335265 S
atom 7.3907936603320916 9.7037459580582617 50.4086964240142308 S
atom 2.1625501280166119 2.7467572047350437 53.1689579490362974 Ba
atom 7.2362030100773502 2.8172699865151443 53.1649550046126222 Ba
atom 2.2330629097967032 7.8204100867957713 53.1729608934600151 Ba
atom 7.1501435711313279 7.7343506478497304 53.1689579490362974 Ba
atom 2.6666489996298672 2.3856212924568716 58.1604740140422294 Ba
atom 7.5973389223555214 2.3131711149018797 58.1564710696185827 Ba
atom 2.5941988220748731 7.3163112151825285 58.1644769584659329 Ba
atom 7.6542424427445832 7.3732147355715698 58.1604740140422294 Ba
atom 4.9242436467402309 5.0577253650750436 55.7060335004570746 Zr
atom 9.9128282928520353 5.0431699109062365 55.7020305560334847 Zr
atom 4.9096881925714380 10.0463100111868595 55.7100364448808136 Zr
atom 9.9118370898549877 10.0453188081897409 55.7060335004570888 Zr
atom 4.9211860967000352 5.0632359788897690 60.7699583890166934 Zr
atom 9.9073176790373445 5.0462274609464259 60.7659554445930823 Zr
atom 4.9041775787567072 10.0493675612270490 60.7739613334403899 Zr
atom 9.9087795398147680 10.0508294220044672 60.7699583890166934 Zr
atom 4.6622222566597582 4.7597149033551416 53.1859646948743645 S
atom 10.2108387545719594 5.3051913009866993 53.1819617504506184 S
atom 5.2076986542913088 10.3083314012673259 53.1899676392980396 S
atom 9.6498156997744786 9.7473083464698469 53.1859646948743645 S
atom 5.1672140462090512 5.3469772197834891 58.2043404771573663 S
atom 9.6235764381436102 4.8001995114374134 58.2003375327336983 S
atom 4.6204363378629703 9.8033396117180196 58.2083434215811408 S
atom 10.1548074893237619 10.3345706628981890 58.2043404771573663 S
atom 5.3100198083226351 2.5589978632272912 55.9825638667592855 S
atom 9.5096095204483539 2.5559457599697191 55.3833730172669902 S
atom 4.5064694201677096 7.5590858602503417 55.3913789061143405 S
atom 10.2976132514373671 7.5465913063419849 55.9825638667592855 S
atom 5.2351392239162022 2.5491676426440373 60.4171523368816210 S
atom 9.6392089882093135 2.5446514987932813 60.9140867205592471 S
atom 4.6360688879286931 7.5477915990739124 60.9220926094066471 S
atom 10.2227326670309200 7.5367610857587337 60.4171523368816210 S
atom 2.4208222513044584 4.6729404064897446 55.9865668111829606 S
atom 7.4114677976767558 5.4609441374787444 55.3873759616906440 S
atom 2.4083276973961012 10.4640842377593746 55.3953818505380724 S
atom 7.4084156944191921 9.6605338496044713 55.9865668111829535 S
atom 2.4306524718877114 4.7478209908961970 60.4211552813053103 S
atom 7.4227620588531851 5.3313446697177884 60.9180896649829080 S
atom 2.4196219585725398 10.3344847699984523 60.9260955538302511 S
atom 7.4182459150024220 9.7354144340108917 60.4211552813053103 S
atom 2.3593001117263803 2.7280244537823046 62.9489596819557775 Ba
atom 7.2549357610300973 2.6205200028053763 62.9449567375321024 Ba
atom 2.2517956607494383 7.6236601030859985 62.9529626263794526 Ba
atom 7.3468935548410919 7.7156178968970153 62.9489596819557846 Ba
atom 4.7867148576697414 4.8489212911481321 63.2782426844019597 S
atom 10.1216323667789734 5.1806986999767330 63.2742397399783201 S
atom 5.1184922664983254 10.1838388002573712 63.2822456288257271 S
atom 9.7743083007844422 9.8365147342628401 63.2782426844019739 S
