#=======================================================
# FHI-aims file: sym_relax/sym_relax_RP_7_Rx00_0Ry0.in
# Created using the Atomic Simulation Environment (ASE)
# Mon Mar 17 15:42:04 2025
#=======================================================
lattice_vector 10.0804801355446063 -0.0000000000000004 -0.0000000000000000 
lattice_vector -0.0000000000000004 10.0804801355446063 0.0000000000000000 
lattice_vector -0.0000000000000000 0.0000000000000000 75.0045903084352688 
atom -0.1686949001268224 0.0000000000000000 0.2899630600128028 Ba
atom 5.2089349678991343 -0.0000000000000000 0.2899630600128028 Ba
atom 0.1686949001268224 5.0402400677723032 0.2899630600128028 Ba
atom 4.8715451676454835 5.0402400677723032 0.2899630600128028 Ba
atom 0.0264774672595388 -0.0000000000000000 4.9622388748795361 Ba
atom 5.0137626005127620 0.0000000000000000 4.9622388748795361 Ba
atom -0.0264774672595388 5.0402400677723032 4.9622388748795361 Ba
atom 5.0667175350318576 5.0402400677723032 4.9622388748795361 Ba
atom 2.5201200338861516 2.4982578696892048 2.3393060698440715 Zr
atom 7.5603601016584685 2.5419821980831023 2.3393060698440715 Zr
atom 2.5201200338861516 7.5822222658554130 2.3393060698440715 Zr
atom 7.5603601016584685 7.5384979374615133 2.3393060698440715 Zr
atom 2.5201200338861516 2.5193170762692971 7.3541985062108868 Zr
atom 7.5603601016584685 2.5209229915030140 7.3541985062108868 Zr
atom 2.5201200338861516 7.5611630592753212 7.3541985062108868 Zr
atom 7.5603601016584685 7.5595571440416078 7.3541985062108868 Zr
atom 2.5201200338861516 2.8064134408725652 -0.1394655138498231 S
atom 7.5603601016584685 2.2338266268997438 -0.1394655138498231 S
atom 2.5201200338861516 7.2740666946720536 -0.1394655138498231 S
atom 7.5603601016584685 7.8466535086448683 -0.1394655138498231 S
atom 2.5201200338861516 2.0541390919095264 4.8841551185924708 S
atom 7.5603601016584685 2.9861009758627826 4.8841551185924708 S
atom 2.5201200338861516 8.0263410436350888 4.8841551185924708 S
atom 7.5603601016584685 7.0943791596818384 4.8841551185924708 S
atom 2.5201200338861516 0.0000000000000000 2.0406383112212731 S
atom 7.5603601016584685 0.0000000000000000 2.7813342779523711 S
atom 2.5201200338861516 5.0402400677723032 2.7813342779523711 S
atom 7.5603601016584685 5.0402400677723032 2.0406383112212731 S
atom 2.5201200338861516 0.0000000000000000 7.8309247755240063 S
atom 7.5603601016584685 0.0000000000000000 6.8957001344216149 S
atom 2.5201200338861516 5.0402400677723032 6.8957001344216149 S
atom 7.5603601016584685 5.0402400677723032 7.8309247755240063 S
atom -0.0000000000000000 2.5201200338861516 2.4782725881840415 S
atom 5.0402400677723032 2.5201200338861516 2.4782725881840415 S
atom -0.0000000000000000 7.5603601016584685 2.4782725881840415 S
atom 5.0402400677723032 7.5603601016584685 2.4782725881840415 S
atom 0.0000000000000000 2.5201200338861516 7.3735104179531019 S
atom 5.0402400677723032 2.5201200338861516 7.3735104179531019 S
atom -0.0000000000000000 7.5603601016584685 7.3735104179531019 S
atom 5.0402400677723032 7.5603601016584685 7.3735104179531019 S
atom -0.0070829814761520 0.0000000000000000 9.8590585020398951 Ba
atom 5.0473230492484644 -0.0000000000000000 9.8590585020398951 Ba
atom 0.0070829814761520 5.0402400677723032 9.8590585020398951 Ba
atom 5.0331570862961570 5.0402400677723032 9.8590585020398951 Ba
atom 0.0071997277693672 -0.0000000000000000 14.7992612213314043 Ba
atom 5.0330403400029446 0.0000000000000000 14.7992612213314043 Ba
atom -0.0071997277693672 5.0402400677723032 14.7992612213314043 Ba
atom 5.0474397955416697 5.0402400677723032 14.7992612213314043 Ba
atom 2.5201200338861516 2.5216947573167432 12.3134742386070819 Zr
atom 7.5603601016584685 2.5185453104555626 12.3134742386070819 Zr
atom 2.5201200338861516 7.5587853782278662 12.3134742386070819 Zr
atom 7.5603601016584685 7.5619348250890548 12.3134742386070819 Zr
atom 2.5201200338861516 2.5201200338861516 17.2707938210212824 Zr
atom 7.5603601016584685 2.5201200338861516 17.2707938210212824 Zr
atom 2.5201200338861516 7.5603601016584685 17.2707938210212824 Zr
atom 7.5603601016584685 7.5603601016584685 17.2707938210212824 Zr
atom 2.5201200338861516 3.0281138997728902 9.8406367890741642 S
atom 7.5603601016584685 2.0121261679994218 9.8406367890741642 S
atom 2.5201200338861516 7.0523662357717214 9.8406367890741642 S
atom 7.5603601016584685 8.0683539675451996 9.8406367890741642 S
atom 2.5201200338861516 2.0112455118500967 14.7937586168272315 S
atom 7.5603601016584685 3.0289945559222140 14.7937586168272315 S
atom 2.5201200338861516 8.0692346236945305 14.7937586168272315 S
atom 7.5603601016584685 7.0514855796224172 14.7937586168272315 S
atom 2.5201200338861516 0.0000000000000000 11.8413891241978071 S
atom 7.5603601016584685 0.0000000000000000 12.8009136038676985 S
atom 2.5201200338861516 5.0402400677723032 12.8009136038676985 S
atom 7.5603601016584685 5.0402400677723032 11.8413891241978071 S
atom 2.5201200338861516 0.0000000000000000 17.7506980209488816 S
atom 7.5603601016584685 0.0000000000000000 16.7908896210936405 S
atom 2.5201200338861516 5.0402400677723032 16.7908896210936405 S
atom 7.5603601016584685 5.0402400677723032 17.7506980209488816 S
atom 0.0000000000000000 2.5201200338861516 12.3210487108773545 S
atom 5.0402400677723032 2.5201200338861516 12.3210487108773545 S
atom -0.0000000000000000 7.5603601016584685 12.3210487108773545 S
atom 5.0402400677723032 7.5603601016584685 12.3210487108773545 S
atom 0.0000000000000000 2.5201200338861516 17.2707938210212824 S
atom 5.0402400677723032 2.5201200338861516 17.2707938210212824 S
atom -0.0000000000000000 7.5603601016584685 17.2707938210212824 S
atom 5.0402400677723032 7.5603601016584685 17.2707938210212824 S
atom -0.0071997277693672 0.0000000000000000 19.7423264207111551 Ba
atom 5.0474397955416697 -0.0000000000000000 19.7423264207111551 Ba
atom 0.0071997277693672 5.0402400677723032 19.7423264207111551 Ba
atom 5.0330403400029446 5.0402400677723032 19.7423264207111551 Ba
atom 0.0070829814761520 -0.0000000000000000 24.6825291400026536 Ba
atom 5.0331570862961570 0.0000000000000000 24.6825291400026536 Ba
atom -0.0070829814761520 5.0402400677723032 24.6825291400026536 Ba
atom 5.0473230492484644 5.0402400677723032 24.6825291400026536 Ba
atom 2.5201200338861516 2.5185453104555626 22.2281134034354828 Zr
atom 7.5603601016584685 2.5216947573167432 22.2281134034354828 Zr
atom 2.5201200338861516 7.5619348250890548 22.2281134034354828 Zr
atom 7.5603601016584685 7.5587853782278662 22.2281134034354828 Zr
atom 2.5201200338861516 2.5209229915030140 27.1873891358316726 Zr
atom 7.5603601016584685 2.5193170762692971 27.1873891358316726 Zr
atom 2.5201200338861516 7.5595571440416078 27.1873891358316726 Zr
atom 7.5603601016584685 7.5611630592753212 27.1873891358316726 Zr
atom 2.5201200338861516 3.0289945559222140 19.7478290252153208 S
atom 7.5603601016584685 2.0112455118500958 19.7478290252153208 S
atom 2.5201200338861516 7.0514855796224172 19.7478290252153208 S
atom 7.5603601016584685 8.0692346236945305 19.7478290252153208 S
atom 2.5201200338861516 2.0121261679994218 24.7009508529683686 S
atom 7.5603601016584685 3.0281138997728902 24.7009508529683686 S
atom 2.5201200338861516 8.0683539675451996 24.7009508529683686 S
atom 7.5603601016584685 7.0523662357717214 24.7009508529683686 S
atom 2.5201200338861516 0.0000000000000000 21.7406740381748698 S
atom 7.5603601016584685 0.0000000000000000 22.7001985178447718 S
atom 2.5201200338861516 5.0402400677723032 22.7001985178447718 S
atom 7.5603601016584685 5.0402400677723032 21.7406740381748698 S
atom 2.5201200338861516 0.0000000000000000 27.6458875076209694 S
atom 7.5603601016584685 0.0000000000000000 26.7106628665185646 S
atom 2.5201200338861516 5.0402400677723032 26.7106628665185646 S
atom 7.5603601016584685 5.0402400677723032 27.6458875076209694 S
atom -0.0000000000000000 2.5201200338861516 22.2205389311652119 S
atom 5.0402400677723032 2.5201200338861516 22.2205389311652119 S
atom -0.0000000000000000 7.5603601016584685 22.2205389311652119 S
atom 5.0402400677723032 7.5603601016584685 22.2205389311652119 S
atom 0.0000000000000000 2.5201200338861516 27.1680772240894868 S
atom 5.0402400677723032 2.5201200338861516 27.1680772240894868 S
atom -0.0000000000000000 7.5603601016584685 27.1680772240894868 S
atom 5.0402400677723032 7.5603601016584685 27.1680772240894868 S
atom -0.0264774672595389 0.0000000000000000 29.5793487671630189 Ba
atom 5.0667175350318576 -0.0000000000000000 29.5793487671630189 Ba
atom 0.0264774672595388 5.0402400677723032 29.5793487671630189 Ba
atom 5.0137626005127620 5.0402400677723032 29.5793487671630189 Ba
atom 0.1686949001268224 -0.0000000000000000 34.2516245820297698 Ba
atom 4.8715451676454835 0.0000000000000000 34.2516245820297698 Ba
atom -0.1686949001268224 5.0402400677723032 34.2516245820297698 Ba
atom 5.2089349678991343 5.0402400677723032 34.2516245820297698 Ba
atom 2.5201200338861516 2.5419821980831023 32.2022815721984870 Zr
atom 7.5603601016584685 2.4982578696892048 32.2022815721984870 Zr
atom 2.5201200338861516 7.5384979374615133 32.2022815721984870 Zr
atom 7.5603601016584685 7.5822222658554130 32.2022815721984870 Zr
atom 2.5201200338861516 2.9861009758627826 29.6574325234500833 S
atom 7.5603601016584685 2.0541390919095264 29.6574325234500833 S
atom 2.5201200338861516 7.0943791596818384 29.6574325234500833 S
atom 7.5603601016584685 8.0263410436350888 29.6574325234500833 S
atom 2.5201200338861516 2.2338266268997429 34.6810531558923927 S
atom 7.5603601016584685 2.8064134408725652 34.6810531558923927 S
atom 2.5201200338861516 7.8466535086448683 34.6810531558923927 S
atom 7.5603601016584685 7.2740666946720536 34.6810531558923927 S
atom 2.5201200338861516 0.0000000000000000 31.7602533640901861 S
atom 7.5603601016584685 0.0000000000000000 32.5009493308212498 S
atom 2.5201200338861516 5.0402400677723032 32.5009493308212498 S
atom 7.5603601016584685 5.0402400677723032 31.7602533640901861 S
atom -0.0000000000000000 2.5201200338861516 32.0633150538584744 S
atom 5.0402400677723032 2.5201200338861516 32.0633150538584744 S
atom -0.0000000000000000 7.5603601016584685 32.0633150538584744 S
atom 5.0402400677723032 7.5603601016584685 32.0633150538584744 S
atom 2.5201200338861516 2.3514251337593359 37.7922582142304506 Ba
atom 7.5603601016584685 2.6888149340129748 37.7922582142304506 Ba
atom 2.5201200338861516 7.7290550017852899 37.7922582142304506 Ba
atom 7.5603601016584685 7.3916652015316338 37.7922582142304506 Ba
atom 2.5201200338861516 2.5465975011456914 42.4645340290971589 Ba
atom 7.5603601016584685 2.4936425666266193 42.4645340290971589 Ba
atom 2.5201200338861516 7.5338826343989167 42.4645340290971589 Ba
atom 7.5603601016584685 7.5868375689180088 42.4645340290971589 Ba
atom 5.0183779035753560 5.0402400677723032 39.8416012240617547 Zr
atom 10.1023422997415633 5.0402400677723032 39.8416012240617547 Zr
atom 5.0621022319692583 10.0804801355446063 39.8416012240617547 Zr
atom 10.0586179713476689 10.0804801355446063 39.8416012240617547 Zr
atom 5.0394371101554487 5.0402400677723032 44.8564936604284981 Zr
atom 10.0812830931614723 5.0402400677723032 44.8564936604284981 Zr
atom 5.0410430253891674 10.0804801355446063 44.8564936604284981 Zr
atom 10.0796771779277741 10.0804801355446063 44.8564936604284981 Zr
atom 5.3265334747587190 5.0402400677723032 37.3628296403677922 S
atom 9.7941867285582092 5.0402400677723023 37.3628296403677922 S
atom 4.7539466607858989 10.0804801355446063 37.3628296403677922 S
atom 10.3667735425310319 10.0804801355446063 37.3628296403677922 S
atom 4.5742591257956846 5.0402400677723032 42.3864502728100447 S
atom 10.5464610775212364 5.0402400677723032 42.3864502728100447 S
atom 5.5062210097489368 10.0804801355446063 42.3864502728100447 S
atom 9.6144991935680011 10.0804801355446063 42.3864502728100447 S
atom 5.0402400677723032 2.5201200338861516 39.9805677424017247 S
atom 10.0804801355446063 2.5201200338861516 39.9805677424017247 S
atom 5.0402400677723032 7.5603601016584685 39.9805677424017247 S
atom 10.0804801355446063 7.5603601016584685 39.9805677424017247 S
atom 5.0402400677723032 2.5201200338861516 44.8758055721707478 S
atom 10.0804801355446063 2.5201200338861516 44.8758055721707478 S
atom 5.0402400677723032 7.5603601016584685 44.8758055721707478 S
atom 10.0804801355446063 7.5603601016584685 44.8758055721707478 S
atom 2.5201200338861516 5.0402400677723032 39.5429334654389351 S
atom 7.5603601016584685 5.0402400677723032 40.2836294321699526 S
atom 2.5201200338861516 10.0804801355446063 40.2836294321699526 S
atom 7.5603601016584685 10.0804801355446063 39.5429334654389351 S
atom 2.5201200338861516 5.0402400677723032 45.3332199297416096 S
atom 7.5603601016584685 5.0402400677723032 44.3979952886392368 S
atom 2.5201200338861516 10.0804801355446063 44.3979952886392368 S
atom 7.5603601016584685 10.0804801355446063 45.3332199297416096 S
atom 2.5201200338861516 2.5130370524100014 47.3613536562575490 Ba
atom 7.5603601016584685 2.5272030153623062 47.3613536562575490 Ba
atom 2.5201200338861516 7.5674430831346209 47.3613536562575490 Ba
atom 7.5603601016584685 7.5532771201823063 47.3613536562575490 Ba
atom 2.5201200338861516 2.5273197616555225 52.3015563755490334 Ba
atom 7.5603601016584685 2.5129203061167855 52.3015563755490334 Ba
atom 2.5201200338861516 7.5531603738890993 52.3015563755490334 Ba
atom 7.5603601016584685 7.5675598294278261 52.3015563755490334 Ba
atom 5.0418147912029010 5.0402400677723032 49.8157693928246630 Zr
atom 10.0789054121140289 5.0402400677723032 49.8157693928246630 Zr
atom 5.0386653443417160 10.0804801355446063 49.8157693928246630 Zr
atom 10.0820548589752175 10.0804801355446063 49.8157693928246630 Zr
atom 5.0402400677723032 5.0402400677723032 54.7730889752389203 Zr
atom 10.0804801355446063 5.0402400677723032 54.7730889752389203 Zr
atom 5.0402400677723032 10.0804801355446063 54.7730889752389203 Zr
atom 10.0804801355446063 10.0804801355446063 54.7730889752389203 Zr
atom 5.5482339336590476 5.0402400677723032 47.3429319432917595 S
atom 9.5724862696578690 5.0402400677723023 47.3429319432917595 S
atom 4.5322462018855676 10.0804801355446063 47.3429319432917595 S
atom 10.5884740014313561 10.0804801355446063 47.3429319432917595 S
atom 4.5313655457362580 5.0402400677723032 52.2960537710449103 S
atom 10.5893546575806727 5.0402400677723032 52.2960537710449103 S
atom 5.5491145898083643 10.0804801355446063 52.2960537710449103 S
atom 9.5716056135085505 10.0804801355446063 52.2960537710449103 S
atom 5.0402400677723032 2.5201200338861516 49.8233438650950262 S
atom 10.0804801355446063 2.5201200338861516 49.8233438650950262 S
atom 5.0402400677723032 7.5603601016584685 49.8233438650950262 S
atom 10.0804801355446063 7.5603601016584685 49.8233438650950262 S
atom 5.0402400677723032 2.5201200338861516 54.7730889752389203 S
atom 10.0804801355446063 2.5201200338861516 54.7730889752389203 S
atom 5.0402400677723032 7.5603601016584685 54.7730889752389203 S
atom 10.0804801355446063 7.5603601016584685 54.7730889752389203 S
atom 2.5201200338861516 5.0402400677723032 49.3436842784154095 S
atom 7.5603601016584685 5.0402400677723032 50.3032087580853471 S
atom 2.5201200338861516 10.0804801355446063 50.3032087580853471 S
atom 7.5603601016584685 10.0804801355446063 49.3436842784154095 S
atom 2.5201200338861516 5.0402400677723032 55.2529931751665018 S
atom 7.5603601016584685 5.0402400677723032 54.2931847753113033 S
atom 2.5201200338861516 10.0804801355446063 54.2931847753113033 S
atom 7.5603601016584685 10.0804801355446063 55.2529931751665018 S
atom 2.5201200338861516 2.5129203061167855 57.2446215749287788 Ba
atom 7.5603601016584685 2.5273197616555225 57.2446215749287788 Ba
atom 2.5201200338861516 7.5675598294278261 57.2446215749287788 Ba
atom 7.5603601016584685 7.5531603738890993 57.2446215749287788 Ba
atom 2.5201200338861516 2.5272030153623062 62.1848242942202774 Ba
atom 7.5603601016584685 2.5130370524100014 62.1848242942202774 Ba
atom 2.5201200338861516 7.5532771201823063 62.1848242942202774 Ba
atom 7.5603601016584685 7.5674430831346209 62.1848242942202774 Ba
atom 5.0386653443417160 5.0402400677723032 59.7304085576531634 Zr
atom 10.0820548589752175 5.0402400677723032 59.7304085576531634 Zr
atom 5.0418147912029010 10.0804801355446063 59.7304085576531634 Zr
atom 10.0789054121140289 10.0804801355446063 59.7304085576531634 Zr
atom 5.0410430253891674 5.0402400677723032 64.6896842900493567 Zr
atom 10.0796771779277741 5.0402400677723032 64.6896842900493567 Zr
atom 5.0394371101554487 10.0804801355446063 64.6896842900493567 Zr
atom 10.0812830931614723 10.0804801355446063 64.6896842900493567 Zr
atom 5.5491145898083625 5.0402400677723032 57.2501241794329729 S
atom 9.5716056135085505 5.0402400677723032 57.2501241794329729 S
atom 4.5313655457362580 10.0804801355446063 57.2501241794329729 S
atom 10.5893546575806727 10.0804801355446063 57.2501241794329729 S
atom 4.5322462018855676 5.0402400677723032 62.2032460071860172 S
atom 10.5884740014313561 5.0402400677723032 62.2032460071860172 S
atom 5.5482339336590476 10.0804801355446063 62.2032460071860172 S
atom 9.5724862696578690 10.0804801355446063 62.2032460071860172 S
atom 5.0402400677723032 2.5201200338861516 59.7228340853828072 S
atom 10.0804801355446063 2.5201200338861516 59.7228340853828072 S
atom 5.0402400677723032 7.5603601016584685 59.7228340853828072 S
atom 10.0804801355446063 7.5603601016584685 59.7228340853828072 S
atom 5.0402400677723032 2.5201200338861516 64.6703723783070643 S
atom 10.0804801355446063 2.5201200338861516 64.6703723783070643 S
atom 5.0402400677723032 7.5603601016584685 64.6703723783070643 S
atom 10.0804801355446063 7.5603601016584685 64.6703723783070643 S
atom 2.5201200338861516 5.0402400677723032 59.2429691923925148 S
atom 7.5603601016584685 5.0402400677723032 60.2024936720624027 S
atom 2.5201200338861516 10.0804801355446063 60.2024936720624027 S
atom 7.5603601016584685 10.0804801355446063 59.2429691923925148 S
atom 2.5201200338861516 5.0402400677723032 65.1481826618386179 S
atom 7.5603601016584685 5.0402400677723032 64.2129580207361812 S
atom 2.5201200338861516 10.0804801355446063 64.2129580207361812 S
atom 7.5603601016584685 10.0804801355446063 65.1481826618386179 S
atom 2.5201200338861516 2.4936425666266193 67.0816439213806888 Ba
atom 7.5603601016584685 2.5465975011456914 67.0816439213806888 Ba
atom 2.5201200338861516 7.5868375689180088 67.0816439213806888 Ba
atom 7.5603601016584685 7.5338826343989167 67.0816439213806888 Ba
atom 2.5201200338861516 2.6888149340129748 71.7539197362474397 Ba
atom 7.5603601016584685 2.3514251337593359 71.7539197362474397 Ba
atom 2.5201200338861516 7.3916652015316338 71.7539197362474397 Ba
atom 7.5603601016584685 7.7290550017852899 71.7539197362474397 Ba
atom 5.0621022319692583 5.0402400677723032 69.7045767264159792 Zr
atom 10.0586179713476689 5.0402400677723032 69.7045767264159792 Zr
atom 5.0183779035753560 10.0804801355446063 69.7045767264159792 Zr
atom 10.1023422997415633 10.0804801355446063 69.7045767264159792 Zr
atom 5.5062210097489350 5.0402400677723032 67.1597276776676608 S
atom 9.6144991935680011 5.0402400677723032 67.1597276776676608 S
atom 4.5742591257956846 10.0804801355446063 67.1597276776676608 S
atom 10.5464610775212364 10.0804801355446063 67.1597276776676608 S
atom 4.7539466607858989 5.0402400677723032 72.1833483101100057 S
atom 10.3667735425310319 5.0402400677723032 72.1833483101100057 S
atom 5.3265334747587190 10.0804801355446063 72.1833483101100057 S
atom 9.7941867285582092 10.0804801355446063 72.1833483101100057 S
atom 5.0402400677723032 2.5201200338861516 69.5656102080761087 S
atom 10.0804801355446063 2.5201200338861516 69.5656102080761087 S
atom 5.0402400677723032 7.5603601016584685 69.5656102080761087 S
atom 10.0804801355446063 7.5603601016584685 69.5656102080761087 S
atom 2.5201200338861516 5.0402400677723032 69.2625485183078951 S
atom 7.5603601016584685 5.0402400677723032 70.0032444850389197 S
atom 2.5201200338861516 10.0804801355446063 70.0032444850389197 S
atom 7.5603601016584685 10.0804801355446063 69.2625485183078951 S
