#=======================================================
# FHI-aims file: sym_relax/sym_relax_RP_1_Rx1Ry20_-Rx2-Ry10.in
# Created using the Atomic Simulation Environment (ASE)
# Fri Mar 14 10:20:14 2025
#=======================================================
lattice_vector 10.1084168178382328 -0.0003424470435809 0.0000000000000000 
lattice_vector -0.0003424470435810 10.1084168178382345 0.0000000000000000 
lattice_vector 0.0000000000000000 0.0000000000000000 15.5284515653324355 
atom -0.1566560260293226 0.0001107643300831 0.2395013433799268 Ba
atom 5.2108644349484345 -0.0002819878518737 0.2395013433799268 Ba
atom 0.1564848025075320 5.0540976445890333 0.2395013433799268 Ba
atom 4.8973811593680052 5.0541479497274109 0.2395013433799268 Ba
atom 0.1566560260293226 -0.0001107643300831 4.6131397707864545 Ba
atom 4.8975523828898000 -0.0000604591917076 4.6131397707864545 Ba
atom -0.1568272495511133 5.0543191732492048 4.6131397707864545 Ba
atom 5.2106932114266495 5.0539264210672412 4.6131397707864545 Ba
atom 2.5270185926986639 2.5270185926986639 2.4263205570831916 Zr
atom 7.5812270016177807 2.5268473691768731 2.4263205570831916 Zr
atom 2.5268473691768705 7.5812270016177807 2.4263205570831916 Zr
atom 7.5810557780959886 7.5810557780959860 2.4263205570831916 Zr
atom 2.5268118165085380 2.8450193028300088 -0.1070474136314296 S
atom 7.5814337778079040 2.2088466590455265 -0.1070474136314296 S
atom 2.5270541453669977 7.2632262914864327 -0.1070474136314296 S
atom 7.5808490019058627 7.8990564882273331 -0.1070474136314296 S
atom 2.5272253688887893 2.2090178825673150 4.9596885277978116 S
atom 7.5810202254276549 2.8448480793082167 4.9596885277978116 S
atom 2.5266405929867455 7.8992277117491279 4.9596885277978116 S
atom 7.5812625542861172 7.2630550679646433 4.9596885277978116 S
atom 2.5271042044595569 -0.0000856117608953 2.1155427372705375 S
atom 7.5813126133786755 -0.0002568352826860 2.7370983768958457 S
atom 2.5269329809377652 5.0541227971582243 2.7370983768958457 S
atom 7.5811413898568860 5.0539515736364313 2.1155427372705375 S
atom -0.0000856117608953 2.5271042044595573 2.4265063544562335 S
atom 5.0541227971582199 2.5269329809377674 2.4261347597101492 S
atom -0.0002568352826860 7.5813126133786737 2.4261347597101492 S
atom 5.0539515736364322 7.5811413898568860 2.4265063544562335 S
atom 2.5269078283685822 2.6836746187279865 8.0037271260461313 Ba
atom 7.5813377659478629 2.3701913431475505 8.0037271260461313 Ba
atom 2.5269581335069531 7.4245709755884555 8.0037271260461313 Ba
atom 7.5809450137659073 7.7377118041253166 8.0037271260461313 Ba
atom 2.5271293570287465 2.3703625666693391 12.3773655534526696 Ba
atom 7.5811162372876995 2.6835033952061957 12.3773655534526696 Ba
atom 2.5267366048467896 7.7378830276471033 12.3773655534526696 Ba
atom 7.5811665424260735 7.4243997520666678 12.3773655534526696 Ba
atom 5.0540371853973278 5.0540371853973278 10.1905463397494067 Zr
atom 10.1082455943164398 5.0538659618755348 10.1905463397494067 Zr
atom 5.0538659618755304 10.1082455943164486 10.1905463397494067 Zr
atom 10.1080743707946556 10.1080743707946556 10.1905463397494067 Zr
atom 4.7360364752659807 5.0542439615874564 7.6571783690347823 S
atom 10.4262463044477727 5.0536591856854081 7.6571783690347823 S
atom 5.3718666720068828 10.1080388181263228 7.6571783690347823 S
atom 9.7900736606633085 10.1082811469847780 7.6571783690347823 S
atom 5.3720378955286696 5.0538304092072019 12.7239143104640231 S
atom 9.7902448841850997 5.0540727380656616 12.7239143104640231 S
atom 4.7358652517441984 10.1084523705065710 12.7239143104640231 S
atom 10.4260750809259992 10.1078675946045244 12.7239143104640231 S
atom 5.0541227971582199 2.5269329809377674 10.1903605423763644 S
atom 10.1083312060773380 2.5267617574159771 10.1907321371224509 S
atom 5.0539515736364322 7.5811413898568860 10.1907321371224509 S
atom 10.1081599825555397 7.5809701663350930 10.1903605423763644 S
atom 2.5269329809377652 5.0541227971582243 10.5013241595620563 S
atom 7.5811413898568860 5.0539515736364313 9.8797685199367518 S
atom 2.5267617574159749 10.1083312060773363 9.8797685199367518 S
atom 7.5809701663350975 10.1081599825555397 10.5013241595620563 S
