#=======================================================
# FHI-aims file: sym_relax/sym_relax_RP_2_Rx0Rz_0Ry0.in
# Created using the Atomic Simulation Environment (ASE)
# Fri Mar 14 10:21:23 2025
#=======================================================
lattice_vector 10.0975056981523821 0.0000000000000000 0.0002332958003707 
lattice_vector 0.0000000000000000 10.0974959414881909 0.0000000000000000 
lattice_vector -0.0005116476401586 0.0000000000000000 25.4733341076378323 
atom -0.1650733061240413 0.0000000000000000 0.2875149034248655 Ba
atom 5.2140240108966935 0.0000000000000000 0.2876276961633256 Ba
atom 0.1652711618205041 5.0487479707440963 0.2875110482631405 Ba
atom 4.8836795429521516 5.0487479707440963 0.2876315513250501 Ba
atom 0.0439295308375599 0.0000000000000000 4.8987292381059522 Ba
atom 5.0046265306847353 0.0000000000000000 4.8988236050395493 Ba
atom -0.0441263183914661 5.0487479707440963 4.8987069571393604 Ba
atom 5.0926823799137466 5.0487479707440963 4.8988458860061304 Ba
atom 2.5243979120611240 2.5043282916009608 2.3640224841513104 Zr
atom 7.5731507611373088 2.5444196791431426 2.3641391320514988 Zr
atom 2.5243979120611240 7.5931676498872376 2.3640224841513096 Zr
atom 7.5731507611373088 7.5530762623450602 2.3641391320514988 Zr
atom 2.5241581494611598 2.5043282916009595 7.4335303589941848 Zr
atom 7.5729109985373420 2.5444196791431426 7.4336470068943692 Zr
atom 2.5241581494611598 7.5931676498872358 7.4335303589941848 Zr
atom 7.5729109985373420 7.5530762623450585 7.4336470068943692 Zr
atom 2.5244517060944429 2.8072816365192517 -0.1224632186513470 S
atom 7.5732045551706326 2.2414663342248526 -0.1223465707511617 S
atom 2.5244517060944429 7.2902143049689556 -0.1224632186513470 S
atom 7.5732045551706308 7.8560296072633493 -0.1223465707511617 S
atom 2.5242780307611428 2.1093497991480810 4.8987764215727498 S
atom 7.5730308798373320 2.9393981715960189 4.8988930694729271 S
atom 2.5242780307611428 7.9881461423401214 4.8987764215727498 S
atom 7.5730308798373320 7.1580977698921799 4.8988930694729271 S
atom 2.5244925325980088 0.0000000000000000 2.0834590351051498 S
atom 7.5730601251783680 0.0000000000000000 2.7786283317838003 S
atom 2.5243072761021783 5.0487479707440963 2.7785116838836155 S
atom 7.5732453816741971 5.0487479707440963 2.0835756830053298 S
atom 2.5240635289242750 0.0000000000000000 7.7140938080403503 S
atom 7.5730016344963040 0.0000000000000000 7.0191578071620571 S
atom 2.5242487854201032 5.0487479707440963 7.0190411592618727 S
atom 7.5728163780004625 5.0487479707440963 7.7142104559405382 S
atom 0.0000109921409433 2.5242967149082807 2.4788179635056795 S
atom 5.0487638412171254 2.5244512558358192 2.4789346114058644 S
atom 0.0000109921409433 7.5731992265799226 2.4788179635056804 S
atom 5.0487638412171254 7.5730446856523779 2.4789346114058652 S
atom -0.0002077796948502 2.5244512558358201 7.3186182317396264 S
atom 5.0485450693813423 2.5242967149082824 7.3187348796398197 S
atom -0.0002077796948502 7.5730446856523779 7.3186182317396256 S
atom 5.0485450693813423 7.5731992265799244 7.3187348796398197 S
atom -0.1654679493744112 0.0000000000000000 9.5099251469821660 Ba
atom 5.2136293676463152 0.0000000000000000 9.5100379397206378 Ba
atom 0.1648765185701352 5.0487479707440963 9.5099212918204525 Ba
atom 4.8832848997017813 5.0487479707440963 9.5100417948823441 Ba
atom 2.5241043554278444 2.8072816365192517 9.9200160617968365 S
atom 7.5728572045040314 2.2414663342248526 9.9201327096970271 S
atom 2.5241043554278444 7.2902143049689556 9.9200160617968365 S
atom 7.5728572045040314 7.8560296072633475 9.9201327096970271 S
atom 2.5240380499847346 2.6895551863349469 13.0242278006584211 Ba
atom 7.5727908990609354 2.3591927844091489 13.0243444485586100 Ba
atom 2.5240380499847346 7.4079407551532537 13.0242278006584247 Ba
atom 7.5727908990609354 7.7383031570790548 13.0243444485586100 Ba
atom 2.5240222069410603 2.4803614871783073 17.6354434753916465 Ba
atom 7.5727750560172442 2.5683864835657957 17.6355601232918353 Ba
atom 2.5240222069410603 7.6171344543098884 17.6354434753916465 Ba
atom 7.5727750560172442 7.5291094579224227 17.6355601232918353 Ba
atom 5.0684345486935412 5.0487479707440963 15.1007462863711446 Zr
atom 10.0770788180118558 5.0487479707440963 15.1008576377518082 Zr
atom 5.0283259689356523 10.0974959414881926 15.1007409898516087 Zr
atom 10.1171873977697189 10.0974959414881926 15.1008629342713121 Zr
atom 5.0684712940226619 5.0487479707440963 20.1702626088318553 Zr
atom 10.0771155633409766 5.0487479707440963 20.1703739602125616 Zr
atom 5.0283627142647855 10.0974959414881926 20.1702573123123550 Zr
atom 10.1172241430988290 10.0974959414881926 20.1703792567320583 Zr
atom 4.7655532459120966 5.0487479707440963 12.6142474528393098 S
atom 10.3800826157461490 5.0487479707440963 12.6143744092024903 S
atom 5.3313297666699402 10.0974959414881926 12.6142577613023033 S
atom 9.8143060949882805 10.0974959414881926 12.6143641007395217 S
atom 5.4634223856943374 5.0487479707440963 17.6355050068339985 S
atom 9.6821277263401413 5.0487479707440963 17.6356152397496544 S
atom 4.6333748772639645 10.0974959414881926 17.6354985918494975 S
atom 10.5121752347705435 10.0974959414881926 17.6356216547341482 S
atom 5.0483671964591901 2.5243733069477954 15.2156019947609487 S
atom 10.0971200455353749 2.5243746637963080 15.2157186426611535 S
atom 5.0483671964591901 7.5731226345404030 15.2156019947609522 S
atom 10.0971200455353749 7.5731212776918966 15.2157186426611570 S
atom 5.0484300664991171 2.5243746637963089 20.0554016039225012 S
atom 10.0971829155753099 2.5243733069477967 20.0555182518226829 S
atom 5.0484300664991171 7.5731212776918984 20.0554016039225012 S
atom 10.0971829155753099 7.5731226345404030 20.0555182518226829 S
atom 2.5240047677869426 5.0487479707440963 15.5151468732914530 S
atom 7.5727711002445366 5.0487479707440963 14.8202679481050232 S
atom 2.5240182511683522 10.0974959414881926 14.8201513002048433 S
atom 7.5727576168631243 10.0974959414881926 15.5152635211916259 S
atom 2.5240396460951793 5.0487479707440963 19.7557400774918577 S
atom 7.5727790117899572 5.0487479707440963 20.4508522984786261 S
atom 2.5240261627137763 10.0974959414881926 20.4507356505784372 S
atom 7.5727924951713641 10.0974959414881926 19.7558567253920181 S
atom 2.5240063638973846 2.6895551863349469 22.2466591501248807 Ba
atom 7.5727592129735699 2.3591927844091494 22.2467757980250767 Ba
atom 2.5240063638973846 7.4079407551532537 22.2466591501248807 Ba
atom 7.5727592129735699 7.7383031570790539 22.2467757980250767 Ba
atom 4.7654674962883741 5.0487479707440963 22.6567458373811874 S
atom 10.3799968661223971 5.0487479707440963 22.6568727937442809 S
atom 5.3312440170462159 10.0974959414881926 22.6567561458441027 S
atom 9.8142203453645642 10.0974959414881926 22.6568624852813656 S
