#=======================================================
# FHI-aims file: sym_relax/sym_relax_RP_9_Rx1Ry20_Rx2Ry10.in
# Created using the Atomic Simulation Environment (ASE)
# Mon Mar 17 16:32:55 2025
#=======================================================
lattice_vector 10.0745470280835718 0.0393273405095764 0.0000000000000000 
lattice_vector 0.0393273405095764 10.0745470280835807 0.0000000000000000 
lattice_vector 0.0000000000000000 0.0000000000000000 94.8909600560504742 
atom -0.0199352502581440 -0.1628214149597651 0.2843968428342095 Ba
atom 5.0572087642999319 0.1824850852145532 0.2843968428342095 Ba
atom 0.0395989205129321 5.2000949290015548 0.2843968428342094 Ba
atom 5.0370019340384156 4.8941157693368211 0.2843968428342094 Ba
atom -0.0312519710788307 0.0239184136260048 4.9546964108417226 Ba
atom 5.0685254851206132 -0.0042547433712168 4.9546964108417226 Ba
atom 0.0509156413336187 5.0133551004157821 4.9546964108417226 Ba
atom 5.0256852132177334 5.0808555979225893 4.9546964108417226 Ba
atom 2.5076670761603026 2.5227724515873993 2.3409257450642937 Zr
atom 7.5865436221780511 2.5538284029639731 2.3409257450642937 Zr
atom 2.5689337783910533 7.5714382467509651 2.3409257450642937 Zr
atom 7.5646042604568731 7.5797096358839813 2.3409257450642937 Zr
atom 2.5279624235295826 2.5331994069225972 7.3590140137610458 Zr
atom 7.5662482748087694 2.5434014476287747 7.3590140137610458 Zr
atom 2.5486384310217689 7.5610112914157792 7.3590140137610458 Zr
atom 7.5848996078261415 7.5901365912191654 7.3590140137610458 Zr
atom 2.8075191573385139 2.5795011100980143 -0.1396549548405314 S
atom 7.2866915409998407 2.4970997444533474 -0.1396549548405314 S
atom 2.2690816972128385 7.5147095882403567 -0.1396549548405314 S
atom 7.8644563416350790 7.6364382943945994 -0.1396549548405314 S
atom 2.0783425715824397 2.4211394365133079 4.8863603245571818 S
atom 8.0158681267559011 2.6554614180380591 4.8863603245571818 S
atom 2.9982582829689148 7.6730712618250614 4.8863603245571818 S
atom 7.1352797558790089 7.4780766208098903 4.8863603245571818 S
atom 2.5186367570208930 0.0098318351273940 2.3888045479634492 S
atom 7.5559102710626664 0.0294955053821820 2.5579648757043589 S
atom 2.5383004272756780 5.0471053491691817 2.5579648757043589 S
atom 7.5755739413174599 5.0667690194239769 2.3888045479634492 S
atom 2.5186367570208930 0.0098318351273940 7.5265262990504223 S
atom 7.5559102710626664 0.0294955053821820 7.2190753570405901 S
atom 2.5383004272756780 5.0471053491691817 7.2190753570405901 S
atom 7.5755739413174599 5.0667690194239769 7.5265262990504223 S
atom 0.0098318351273940 2.5186367570208996 2.0536265731865102 S
atom 5.0471053491691729 2.5383004272756828 2.7749577070946567 S
atom 0.0294955053821820 7.5559102710626878 2.7749577070946567 S
atom 5.0667690194239663 7.5755739413174750 2.0536265731865102 S
atom 0.0098318351273940 2.5186367570208996 7.8209790438660907 S
atom 5.0471053491691729 2.5383004272756828 6.9125770352225420 S
atom 0.0294955053821820 7.5559102710626878 6.9125770352225420 S
atom 5.0667690194239663 7.5755739413174750 7.8209790438660907 S
atom 0.0641806255882746 -0.0040389618014754 9.8560598282408058 Ba
atom 4.9730928884535137 0.0237026320562635 9.8560598282408058 Ba
atom -0.0445169553334865 5.0413124758432657 9.8560598282408058 Ba
atom 5.1211178098848551 5.0528982224951040 9.8560598282408058 Ba
atom -0.0718189957238159 0.0024662246288944 14.8057587275918614 Ba
atom 5.1090925097656008 0.0171974456258936 14.8057587275918614 Ba
atom 0.0914826659786037 5.0348072894128961 14.8057587275918614 Ba
atom 4.9851181885727600 5.0594034089254789 14.8057587275918614 Ba
atom 2.5298569938403865 2.5266031771027597 12.3213042319596706 Zr
atom 7.5643537044979556 2.5499976774486082 12.3213042319596706 Zr
atom 2.5467438607109618 7.5676075212356206 12.3213042319596706 Zr
atom 7.5867941781369703 7.5835403613993373 12.3213042319596706 Zr
atom 2.5281868334178665 2.5291456646748736 17.2811483237523689 Zr
atom 7.5660238649204867 2.5474551898764943 17.2811483237523689 Zr
atom 2.5484140211334894 7.5650650336634975 17.2811483237523689 Zr
atom 7.5851240177144295 7.5860828489714471 17.2811483237523689 Zr
atom 3.0122410381411533 2.6848730159885710 9.8463124233497261 S
atom 7.0819696601971920 2.3917278385627982 9.8463124233497261 S
atom 2.0643598164102057 7.4093376823497987 9.8463124233497261 S
atom 8.0691782224377206 7.7418102002851521 9.8463124233497261 S
atom 2.0514665372381891 2.3459682782036633 14.8031261297357855 S
atom 8.0427441611001456 2.7306325763477051 14.8031261297357855 S
atom 3.0251343173131677 7.7482424201347166 14.8031261297357855 S
atom 7.1084037215347609 7.4029054625002422 14.8031261297357855 S
atom 2.5186367570208930 0.0098318351273940 12.1275597388051501 S
atom 7.5559102710626664 0.0294955053821820 12.5244960977378348 S
atom 2.5383004272756780 5.0471053491691817 12.5244960977378348 S
atom 7.5755739413174599 5.0667690194239769 12.1275597388051501 S
atom 2.5186367570208930 0.0098318351273940 17.4989638472213613 S
atom 7.5559102710626664 0.0294955053821820 17.0645822237662266 S
atom 2.5383004272756780 5.0471053491691817 17.0645822237662266 S
atom 7.5755739413174599 5.0667690194239769 17.4989638472213613 S
atom 0.0098318351273940 2.5186367570208996 11.8665684395460982 S
atom 5.0471053491691729 2.5383004272756828 12.7903260406517276 S
atom 0.0294955053821820 7.5559102710626878 12.7903260406517276 S
atom 5.0667690194239663 7.5755739413174750 11.8665684395460982 S
atom 0.0098318351273940 2.5186367570208996 17.7415927867795915 S
atom 5.0471053491691729 2.5383004272756828 16.8251145964759026 S
atom 0.0294955053821820 7.5559102710626878 16.8251145964759026 S
atom 5.0667690194239663 7.5755739413174750 17.7415927867795915 S
atom 0.0736396467435535 -0.0009032978936354 19.7610704594913607 Ba
atom 4.9636338672982214 0.0205669681484234 19.7610704594913607 Ba
atom -0.0539759764887657 5.0381768119354282 19.7610704594913607 Ba
atom 5.1305768310401199 5.0560338864029406 19.7610704594913607 Ba
atom -0.0736396467435536 0.0009032978936353 24.7190670667823547 Ba
atom 5.1109131607853335 0.0187603723611527 24.7190670667823547 Ba
atom 0.0933033169983414 5.0363702161481569 24.7190670667823547 Ba
atom 4.9832975375530122 5.0578404821902216 24.7190670667823547 Ba
atom 2.5284685921482848 2.5284685921482888 22.2400687631368221 Zr
atom 7.5657421061900658 2.5481322624030773 22.2400687631368221 Zr
atom 2.5481322624030738 7.5657421061900862 22.2400687631368221 Zr
atom 7.5854057764448504 7.5854057764448690 22.2400687631368221 Zr
atom 2.5287503508787017 2.5277915196217049 27.1989892025212825 Zr
atom 7.5654603474596360 2.5488093349296657 27.1989892025212825 Zr
atom 2.5478505036726524 7.5664191787166644 27.1989892025212825 Zr
atom 7.5856875351752668 7.5847287039182829 27.1989892025212825 Zr
atom 3.0018444975684111 2.7211815168321065 19.7611051202404227 S
atom 7.0923662007699519 2.3554193377192654 19.7611051202404227 S
atom 2.0747563569829506 7.3730291815062650 19.7611051202404227 S
atom 8.0587816818649589 7.7781187011286921 19.7611051202404227 S
atom 2.0550926867281638 2.3357556674644746 24.7190324060332642 S
atom 8.0391180116101744 2.7408451870868973 24.7190324060332642 S
atom 3.0215081678231992 7.7584550308738942 24.7190324060332642 S
atom 7.1120298710247241 7.3926928517610584 24.7190324060332642 S
atom 2.5186367570208930 0.0098318351273940 22.0176986543047200 S
atom 7.5559102710626664 0.0294955053821820 22.4624388719689669 S
atom 2.5383004272756780 5.0471053491691817 22.4624388719689669 S
atom 7.5755739413174599 5.0667690194239769 22.0176986543047200 S
atom 2.5186367570208930 0.0098318351273940 27.4155553025074461 S
atom 7.5559102710626664 0.0294955053821820 26.9811736790523575 S
atom 2.5383004272756780 5.0471053491691817 26.9811736790523575 S
atom 7.5755739413174599 5.0667690194239769 27.4155553025074461 S
atom 0.0098318351273940 2.5186367570208996 21.7827410117840259 S
atom 5.0471053491691729 2.5383004272756828 22.6973965144896717 S
atom 0.0294955053821820 7.5559102710626878 22.6973965144896717 S
atom 5.0667690194239663 7.5755739413174750 21.7827410117840259 S
atom 0.0098318351273940 2.5186367570208996 27.6550229297978234 S
atom 5.0471053491691729 2.5383004272756828 26.7385447394940989 S
atom 0.0294955053821820 7.5559102710626878 26.7385447394940989 S
atom 5.0667690194239663 7.5755739413174750 27.6550229297978234 S
atom 0.0718189957238159 -0.0024662246288944 29.6743787986817793 Ba
atom 4.9654545183179577 0.0221298948836824 29.6743787986817793 Ba
atom -0.0521553254690279 5.0397397386706837 29.6743787986817793 Ba
atom 5.1287561800203862 5.0544709596676887 29.6743787986817793 Ba
atom -0.0641806255882745 0.0040389618014754 34.6240776980328988 Ba
atom 5.1014541396300652 0.0156247084533126 34.6240776980328988 Ba
atom 0.0838442958430625 5.0332345522403124 34.6240776980328988 Ba
atom 4.9927565587082965 5.0609761460980609 34.6240776980328988 Ba
atom 2.5270801904561786 2.5303340071938232 32.1588332943139861 Zr
atom 7.5671305078821760 2.5462668473575465 32.1588332943139861 Zr
atom 2.5495206640951795 7.5638766911445510 32.1588332943139861 Zr
atom 7.5840173747527340 7.5872711914904087 32.1588332943139861 Zr
atom 2.5289747607669870 2.5237377773739831 37.1211235125126109 Zr
atom 7.5652359375713605 2.5528630771773839 37.1211235125126109 Zr
atom 2.5476260937843707 7.5704729209643817 37.1211235125126109 Zr
atom 7.5859119450635601 7.5806749616705638 37.1211235125126109 Zr
atom 3.0054706470583747 2.7109689060929156 29.6770113965379387 S
atom 7.0887400512799736 2.3656319484584478 29.6770113965379387 S
atom 2.0711302074929732 7.3832417922454594 29.6770113965379387 S
atom 8.0624078313549479 7.7679060903895003 29.6770113965379387 S
atom 2.0446961461554163 2.3720641683080106 34.6338251029239288 S
atom 8.0495145521829379 2.7045366862433613 34.6338251029239288 S
atom 3.0319047083959383 7.7221465300303596 34.6338251029239288 S
atom 7.1016333304519739 7.4290013526045842 34.6338251029239288 S
atom 2.5186367570208930 0.0098318351273940 31.9556414285358770 S
atom 7.5559102710626664 0.0294955053821820 32.3525777874685119 S
atom 2.5383004272756780 5.0471053491691817 32.3525777874685119 S
atom 7.5755739413174599 5.0667690194239769 31.9556414285358770 S
atom 2.5186367570208930 0.0098318351273940 37.2610621692331065 S
atom 7.5559102710626664 0.0294955053821820 36.9536112272233126 S
atom 2.5383004272756780 5.0471053491691817 36.9536112272233126 S
atom 7.5755739413174599 5.0667690194239769 37.2610621692331065 S
atom 0.0098318351273940 2.5186367570208996 31.6898114856219557 S
atom 5.0471053491691729 2.5383004272756828 32.6135690867275372 S
atom 0.0294955053821820 7.5559102710626878 32.6135690867275372 S
atom 5.0667690194239663 7.5755739413174750 31.6898114856219557 S
atom 0.0098318351273940 2.5186367570208996 37.5675604910511112 S
atom 5.0471053491691729 2.5383004272756828 36.6591584824076406 S
atom 0.0294955053821820 7.5559102710626878 36.6591584824076406 S
atom 5.0667690194239663 7.5755739413174750 37.5675604910511112 S
atom 0.0312519710788307 -0.0239184136260048 39.5254411154319740 Ba
atom 5.0060215429629453 0.0435820838807928 39.5254411154319740 Ba
atom -0.0115883008240425 5.0611919276678092 39.5254411154319740 Ba
atom 5.0881891553754075 5.0330187706705658 39.5254411154319740 Ba
atom 0.0199352502581440 0.1628214149597650 44.1957406834395030 Ba
atom 5.0173382637836257 -0.1431577447049771 44.1957406834395030 Ba
atom -0.0002715800033560 4.8744520990820268 44.1957406834395030 Ba
atom 5.0768724345547271 5.2197585992563411 44.1957406834395030 Ba
atom 2.5492701081362688 2.5341647327091841 42.1392117812093545 Zr
atom 7.5449405902020912 2.5424361218421878 42.1392117812093545 Zr
atom 2.5273307464150925 7.5600459656291958 42.1392117812093545 Zr
atom 7.6062072924328392 7.5911019170057594 42.1392117812093545 Zr
atom 2.9785946127141307 2.6357977477832750 39.5937772017165273 S
atom 7.1156160856242243 2.4408031067680942 39.5937772017165273 S
atom 2.0980062418372238 7.4584129505551031 39.5937772017165273 S
atom 8.0355317970106963 7.6927349320798495 39.5937772017165273 S
atom 2.2494180269580513 2.4774360741985593 44.6197924811142670 S
atom 7.8447926713802936 2.5991647803528051 44.6197924811142670 S
atom 2.8271828275933077 7.6167746241398104 44.6197924811142670 S
atom 7.3063552112546253 7.5343732584951395 44.6197924811142670 S
atom 2.5186367570208930 0.0098318351273940 41.9221726505692871 S
atom 7.5559102710626664 0.0294955053821820 42.0913329783101702 S
atom 2.5383004272756780 5.0471053491691817 42.0913329783101702 S
atom 7.5755739413174599 5.0667690194239769 41.9221726505692871 S
atom 0.0098318351273940 2.5186367570208996 41.7051798191791079 S
atom 5.0471053491691729 2.5383004272756828 42.4265109530871669 S
atom 0.0294955053821820 7.5559102710626878 42.4265109530871669 S
atom 5.0667690194239663 7.5755739413174750 41.7051798191791079 S
atom 2.3656471771885150 2.5085333418901503 47.7298768708594565 Ba
atom 7.7285635211498249 2.5680675126612207 47.7298768708594565 Ba
atom 2.7109536773628440 7.5856773564482358 47.7298768708594565 Ba
atom 7.4225843614850939 7.5654705261867239 47.7298768708594565 Ba
atom 2.5523870057742868 2.4972166210694651 52.4001764388669713 Ba
atom 7.5418236925640478 2.5793842334819104 52.4001764388669713 Ba
atom 2.5242138487770660 7.5969940772689215 52.4001764388669713 Ba
atom 7.6093241900708630 7.5541538053660409 52.4001764388669713 Ba
atom 5.0512410437356809 5.0361356683085967 49.7864057730896121 Zr
atom 10.0999068388992583 5.0974023705393510 49.7864057730896121 Zr
atom 5.0822969951122383 10.1150122143263523 49.7864057730896121 Zr
atom 10.1081782280322301 10.0930728526051894 49.7864057730896121 Zr
atom 5.0616679990708606 5.0564310156778820 54.8044940417862989 Zr
atom 10.0894798835640316 5.0771070231700710 54.8044940417862989 Zr
atom 5.0718700397770551 10.0947168669570697 54.8044940417862989 Zr
atom 10.1186051833674444 10.1133681999744685 54.8044940417862989 Zr
atom 5.1079697022462902 5.3359877494868178 47.3058250731847210 S
atom 10.0431781803886455 4.7975502893611397 47.3058250731847210 S
atom 5.0255683366016299 9.8151601331481437 47.3058250731847210 S
atom 10.1649068865428767 10.3929249337833873 47.3058250731847210 S
atom 4.9496080286615776 4.6068111637307378 52.3318403525824607 S
atom 10.2015398539733262 5.5267268751172036 52.3318403525824607 S
atom 5.1839300101863461 10.5443367189042245 52.3318403525824607 S
atom 10.0065452129581445 9.6637483480273065 52.3318403525824607 S
atom 5.0471053491691729 2.5383004272756828 49.4991066012118281 S
atom 10.0843788632109437 2.5579640975304727 50.2204377351199085 S
atom 5.0667690194239663 7.5755739413174750 50.2204377351199085 S
atom 10.1040425334657318 7.5952376115722648 49.4991066012118281 S
atom 5.0471053491691729 2.5383004272756828 55.2664590718912478 S
atom 10.0843788632109437 2.5579640975304727 54.3580570632478270 S
atom 5.0667690194239663 7.5755739413174750 54.3580570632478270 S
atom 10.1040425334657318 7.5952376115722648 55.2664590718912478 S
atom 2.5383004272756780 5.0471053491691817 49.8342845759887467 S
atom 7.5755739413174599 5.0667690194239769 50.0034449037296511 S
atom 2.5579640975304683 10.0843788632109703 50.0034449037296511 S
atom 7.5952376115722462 10.1040425334657726 49.8342845759887467 S
atom 2.5383004272756780 5.0471053491691817 54.9720063270756683 S
atom 7.5755739413174599 5.0667690194239769 54.6645553850658956 S
atom 2.5579640975304683 10.0843788632109703 54.6645553850658956 S
atom 7.5952376115722462 10.1040425334657726 54.9720063270756683 S
atom 2.5244296303468086 2.5926492177365641 57.3015398562660465 Ba
atom 7.5697810679915527 2.4839516368148007 57.3015398562660465 Ba
atom 2.5521712242045420 7.5015614806018052 57.3015398562660465 Ba
atom 7.5813668146433644 7.6495864020331510 57.3015398562660465 Ba
atom 2.5309348167771795 2.4566495964244748 62.2512387556171731 Ba
atom 7.5632758815611592 2.6199512581268927 62.2512387556171731 Ba
atom 2.5456660377741795 7.6375611019139038 62.2512387556171731 Ba
atom 7.5878720010737508 7.5135867807210523 62.2512387556171731 Ba
atom 5.0550717692510299 5.0583255859886922 59.7667842599849166 Zr
atom 10.0960761133838925 5.0752124528592493 59.7667842599849166 Zr
atom 5.0784662695968912 10.0928222966462631 59.7667842599849166 Zr
atom 10.1120089535476030 10.1152627702852715 59.7667842599849166 Zr
atom 5.0576142568231512 5.0566554255661575 64.7266283517776913 Zr
atom 10.0935336258117587 5.0768826132817964 64.7266283517776913 Zr
atom 5.0759237820247751 10.0944924570687835 64.7266283517776913 Zr
atom 10.1145514411197173 10.1135926098627440 64.7266283517776913 Zr
atom 5.2133416081368420 5.5407096302894585 57.2917924513749810 S
atom 9.9378062744980564 4.5928284085584936 57.2917924513749810 S
atom 4.9201964307110702 9.6104382523454905 57.2917924513749810 S
atom 10.2702787924334160 10.5976468145860458 57.2917924513749810 S
atom 4.8744368703519365 4.5799351293864916 62.2486061577610599 S
atom 10.2767110122829841 5.5536029094614623 62.2486061577610599 S
atom 5.2591011684959827 10.5712127532484601 62.2486061577610599 S
atom 9.9313740546484972 9.6368723136830674 62.2486061577610599 S
atom 5.0471053491691729 2.5383004272756828 59.3120484675713797 S
atom 10.0843788632109437 2.5579640975304727 60.2358060686770145 S
atom 5.0667690194239663 7.5755739413174750 60.2358060686770145 S
atom 10.1040425334657318 7.5952376115722648 59.3120484675713797 S
atom 5.0471053491691729 2.5383004272756828 65.1870728148047078 S
atom 10.0843788632109437 2.5579640975304727 64.2705946245011859 S
atom 5.0667690194239663 7.5755739413174750 64.2705946245011859 S
atom 10.1040425334657318 7.5952376115722648 65.1870728148047078 S
atom 2.5383004272756780 5.0471053491691817 59.5730397668303979 S
atom 7.5755739413174599 5.0667690194239769 59.9699761257630826 S
atom 2.5579640975304683 10.0843788632109703 59.9699761257630826 S
atom 7.5952376115722462 10.1040425334657726 59.5730397668303979 S
atom 2.5383004272756780 5.0471053491691817 64.9444438752465061 S
atom 7.5755739413174599 5.0667690194239769 64.5100622517915525 S
atom 2.5579640975304683 10.0843788632109703 64.5100622517915525 S
atom 7.5952376115722462 10.1040425334657726 64.9444438752465061 S
atom 2.5275652942546523 2.6021082388918471 67.2065504875166937 Ba
atom 7.5666454040837072 2.4744926156595195 67.2065504875166937 Ba
atom 2.5490355602967045 7.4921024594465297 67.2065504875166937 Ba
atom 7.5845024785512107 7.6590454231884202 67.2065504875166937 Ba
atom 2.5293718900419151 2.4548289454047332 72.1645470948076735 Ba
atom 7.5648388082964191 2.6217719091466338 72.1645470948076735 Ba
atom 2.5472289645094399 7.6393817529336303 72.1645470948076735 Ba
atom 7.5863090743384882 7.5117661297013143 72.1645470948076735 Ba
atom 5.0569371842965696 5.0569371842965776 69.6855487911620060 Zr
atom 10.0942106983383457 5.0766008545513657 69.6855487911620060 Zr
atom 5.0766008545513559 10.0942106983383635 69.6855487911620060 Zr
atom 10.1138743685931392 10.1138743685931551 69.6855487911620060 Zr
atom 5.0562601117699826 5.0572189430270083 74.6444692305464486 Zr
atom 10.0948877708649274 5.0763190958209403 74.6444692305464486 Zr
atom 5.0772779270779314 10.0939289396079594 74.6444692305464486 Zr
atom 10.1131972960665344 10.1141561273235769 74.6444692305464486 Zr
atom 5.2496501089803873 5.5303130897167057 67.2065851482657592 S
atom 9.9014977736545244 4.6032249491312420 67.2065851482657592 S
atom 4.8838879298675524 9.6208347929182452 67.2065851482657592 S
atom 10.3065872932769711 10.5872502740132912 67.2065851482657592 S
atom 4.8642242596127501 4.5835612788764530 72.1645124340584516 S
atom 10.2869236230221706 5.5499767599714946 72.1645124340584516 S
atom 5.2693137792351665 10.5675866037584978 72.1645124340584516 S
atom 9.9211614439093143 9.6404984631730333 72.1645124340584516 S
atom 5.0471053491691729 2.5383004272756828 69.2282210398092275 S
atom 10.0843788632109437 2.5579640975304727 70.1428765425150686 S
atom 5.0667690194239663 7.5755739413174750 70.1428765425150686 S
atom 10.1040425334657318 7.5952376115722648 69.2282210398092275 S
atom 5.0471053491691729 2.5383004272756828 75.1005029578230392 S
atom 10.0843788632109437 2.5579640975304727 74.1840247675195172 S
atom 5.0667690194239663 7.5755739413174750 74.1840247675195172 S
atom 10.1040425334657318 7.5952376115722648 75.1005029578230392 S
atom 2.5383004272756780 5.0471053491691817 69.4631786823299819 S
atom 7.5755739413174599 5.0667690194239769 69.9079188999943000 S
atom 2.5579640975304683 10.0843788632109703 69.9079188999943000 S
atom 7.5952376115722462 10.1040425334657726 69.4631786823299819 S
atom 2.5383004272756780 5.0471053491691817 74.8610353305326868 S
atom 7.5755739413174599 5.0667690194239769 74.4266537070776479 S
atom 2.5579640975304683 10.0843788632109703 74.4266537070776479 S
atom 7.5952376115722462 10.1040425334657726 74.8610353305326868 S
atom 2.5260023675193928 2.6002875878720988 77.1198588267071017 Ba
atom 7.5682083308189556 2.4763132666792642 77.1198588267071017 Ba
atom 2.5505984870319676 7.4939231104662634 77.1198588267071017 Ba
atom 7.5829395518159588 7.6572247721686919 77.1198588267071017 Ba
atom 2.5325075539497548 2.4642879665600121 82.0695577260582354 Ba
atom 7.5617031443885931 2.6123128879913549 82.0695577260582354 Ba
atom 2.5440933006015993 7.6299227317783584 82.0695577260582354 Ba
atom 7.5894447382463328 7.5212251508565933 82.0695577260582354 Ba
atom 5.0588025993421093 5.0555487826044621 79.6043133223392516 Zr
atom 10.0923452832927971 5.0779892562434856 79.6043133223392516 Zr
atom 5.0747354395058242 10.0955991000304799 79.6043133223392516 Zr
atom 10.1157397836386771 10.1124859669010458 79.6043133223392516 Zr
atom 5.0522063695222696 5.0574433529152856 84.5666035405378267 Zr
atom 10.0989415131126794 5.0760946859326692 84.5666035405378267 Zr
atom 5.0813316693256585 10.0937045297196608 84.5666035405378267 Zr
atom 10.1091435538188250 10.1143805372118472 84.5666035405378267 Zr
atom 5.2394374982411938 5.5339392392066697 77.1224914245631794 S
atom 9.9117103843937180 4.5995987996412859 77.1224914245631794 S
atom 4.8941005406067282 9.6172086434282846 77.1224914245631794 S
atom 10.2963746825377580 10.5908764235032482 77.1224914245631794 S
atom 4.9005327604562954 4.5731647383037073 82.0793051309490806 S
atom 10.2506151221786226 5.5603733005442351 82.0793051309490806 S
atom 5.2330052783916292 10.5779831443312560 82.0793051309490806 S
atom 9.9574699447528570 9.6301019226002929 82.0793051309490806 S
atom 5.0471053491691729 2.5383004272756828 79.1352915136471751 S
atom 10.0843788632109437 2.5579640975304727 80.0590491147527388 S
atom 5.0667690194239663 7.5755739413174750 80.0590491147527388 S
atom 10.1040425334657318 7.5952376115722648 79.1352915136471751 S
atom 5.0471053491691729 2.5383004272756828 85.0130405190764122 S
atom 10.0843788632109437 2.5579640975304727 84.1046385104329346 S
atom 5.0667690194239663 7.5755739413174750 84.1046385104329346 S
atom 10.1040425334657318 7.5952376115722648 85.0130405190764122 S
atom 2.5383004272756780 5.0471053491691817 79.4011214565610715 S
atom 7.5755739413174599 5.0667690194239769 79.7980578154940190 S
atom 2.5579640975304683 10.0843788632109703 79.7980578154940190 S
atom 7.5952376115722462 10.1040425334657726 79.4011214565610715 S
atom 2.5383004272756780 5.0471053491691817 84.7065421972583437 S
atom 7.5755739413174599 5.0667690194239769 84.3990912552484929 S
atom 2.5579640975304683 10.0843788632109703 84.3990912552484929 S
atom 7.5952376115722462 10.1040425334657726 84.7065421972583437 S
atom 2.5045501785222797 2.5597205632271205 86.9709211434573746 Ba
atom 7.5896605198160714 2.5168802913242501 86.9709211434573746 Ba
atom 2.5720506760290802 7.5344901351112563 86.9709211434573746 Ba
atom 7.5614873628188404 7.6166577475237025 86.9709211434573746 Ba
atom 2.6912900071080488 2.5484038424064370 91.6412207114646975 Ba
atom 7.4029206912303067 2.5281970121449366 91.6412207114646975 Ba
atom 2.3853108474433098 7.5458068559319367 91.6412207114646975 Ba
atom 7.7482271914046175 7.6053410267030186 91.6412207114646975 Ba
atom 5.0626333248574635 5.0777387002845638 89.5846918092346698 Zr
atom 10.0885145577774455 5.0557993385633866 89.5846918092346698 Zr
atom 5.0709047139904744 10.0734091823504066 89.5846918092346698 Zr
atom 10.1195705091540358 10.1346758845811422 89.5846918092346698 Zr
atom 5.1642663399315545 5.5070632048624155 87.0392572297416791 S
atom 9.9868815427033599 4.6264748339855313 87.0392572297416791 S
atom 4.9692716989163754 9.6440846777725326 87.0392572297416791 S
atom 10.2212035242281196 10.5640003891590144 87.0392572297416791 S
atom 5.0059046663468436 4.7778866191063534 92.0652725091394473 S
atom 10.1452432162880726 5.3556514197415970 92.0652725091394473 S
atom 5.1276333725010819 10.3732612635285992 92.0652725091394473 S
atom 10.0628418506434052 9.8348238034029372 92.0652725091394473 S
atom 5.0471053491691729 2.5383004272756828 89.1506598472043947 S
atom 10.0843788632109437 2.5579640975304727 89.8719909811124609 S
atom 5.0667690194239663 7.5755739413174750 89.8719909811124609 S
atom 10.1040425334657318 7.5952376115722648 89.1506598472043947 S
atom 2.5383004272756780 5.0471053491691817 89.3676526785945384 S
atom 7.5755739413174599 5.0667690194239769 89.5368130063355778 S
atom 2.5579640975304683 10.0843788632109703 89.5368130063355778 S
atom 7.5952376115722462 10.1040425334657726 89.3676526785945384 S
