#=======================================================
# FHI-aims file: sym_relax/sym_relax_RP_5_00Mz1_00Mz2.in
# Created using the Atomic Simulation Environment (ASE)
# Fri Mar 14 10:33:19 2025
#=======================================================
lattice_vector 9.9098550814368735 -0.0000000071192319 0.0000000000000000 
lattice_vector -0.0000000071192319 9.9098550814368309 0.0000000000000000 
lattice_vector 0.0000000000000000 0.0000000000000000 56.9122488159038085 
atom -0.0000000000000000 0.0000000000000000 0.1654622545056280 Ba
atom 4.9549275407184377 -0.0000000035596161 0.1654622545056280 Ba
atom -0.0000000035596161 4.9549275407184163 0.1654622545056280 Ba
atom 4.9549275371588140 4.9549275371587953 0.1654622545056280 Ba
atom -0.0000000000000000 0.0000000000000000 5.0674587063402754 Ba
atom 4.9549275407184377 -0.0000000035596161 5.0674587063402754 Ba
atom -0.0000000035596161 4.9549275407184163 5.0674587063402754 Ba
atom 4.9549275371588140 4.9549275371587953 5.0674587063402754 Ba
atom 2.4774637685794070 2.4774637685793977 2.4403443645608243 Zr
atom 7.4323913092978575 2.4774637650197877 2.4403443645608243 Zr
atom 2.4774637650197970 7.4323913092978193 2.4403443645608243 Zr
atom 7.4323913057382365 7.4323913057382098 2.4403443645608243 Zr
atom 2.4774637685794070 2.4774637685793977 7.5796169736389309 Zr
atom 7.4323913092978575 2.4774637650197877 7.5796169736389309 Zr
atom 2.4774637650197970 7.4323913092978193 7.5796169736389309 Zr
atom 7.4323913057382365 7.4323913057382098 7.5796169736389309 Zr
atom 2.4774637685794070 2.4774637685793977 -0.1036809126121864 S
atom 7.4323913092978575 2.4774637650197877 -0.1036809126121864 S
atom 2.4774637650197970 7.4323913092978193 -0.1036809126121864 S
atom 7.4323913057382365 7.4323913057382098 -0.1036809126121864 S
atom 2.4774637685794070 2.4774637685793977 5.0385526175763182 S
atom 7.4323913092978575 2.4774637650197877 5.0385526175763182 S
atom 2.4774637650197970 7.4323913092978193 5.0385526175763182 S
atom 7.4323913057382365 7.4323913057382098 5.0385526175763182 S
atom 2.0533151453031908 0.0000042880029566 2.5313016789131284 S
atom 7.8565399361337009 -0.0000042951221889 2.5313016789131284 S
atom 2.9016123918556338 4.9549232491558444 2.5313016789131284 S
atom 7.0082426824620008 4.9549318251617667 2.5313016789131284 S
atom 2.9973288830863876 0.0000015142301309 7.5898366181702857 S
atom 6.9125261983504904 -0.0000015213493631 7.5898366181702857 S
atom 1.9575986540724346 4.9549260229286780 7.5898366181702857 S
atom 7.9522564202452033 4.9549290513889304 7.5898366181702857 S
atom -0.0000042915625728 2.9016123954152353 2.5313016789131284 S
atom 4.9549318287213984 2.0533151417435693 2.5313016789131284 S
atom 0.0000042844433405 7.0082426860216005 2.5313016789131284 S
atom 4.9549232455962411 7.8565399325740417 2.5313016789131284 S
atom -0.0000015177897470 1.9575986576320423 7.5898366181702857 S
atom 4.9549290549485683 2.9973288795267594 7.5898366181702857 S
atom 0.0000015106705148 7.9522564238047959 7.5898366181702857 S
atom 4.9549260193690783 6.9125261947908498 7.5898366181702857 S
atom 0.0000000000000000 0.0000000000000000 10.1531472951051658 Ba
atom 4.9549275407184377 -0.0000000035596161 10.1531472951051658 Ba
atom -0.0000000035596161 4.9549275407184163 10.1531472951051658 Ba
atom 4.9549275371588140 4.9549275371587953 10.1531472951051658 Ba
atom 0.0000000000000000 0.0000000000000000 15.2541066405661496 Ba
atom 4.9549275407184377 -0.0000000035596161 15.2541066405661496 Ba
atom -0.0000000035596161 4.9549275407184163 15.2541066405661496 Ba
atom 4.9549275371588140 4.9549275371587953 15.2541066405661496 Ba
atom 2.4774637685794070 2.4774637685793977 12.7036269678356621 Zr
atom 7.4323913092978575 2.4774637650197877 12.7036269678356621 Zr
atom 2.4774637650197970 7.4323913092978193 12.7036269678356621 Zr
atom 7.4323913057382365 7.4323913057382098 12.7036269678356621 Zr
atom 2.4774637685794070 2.4774637685793977 17.8276369620323933 Zr
atom 7.4323913092978575 2.4774637650197877 17.8276369620323933 Zr
atom 2.4774637650197970 7.4323913092978193 17.8276369620323933 Zr
atom 7.4323913057382365 7.4323913057382098 17.8276369620323933 Zr
atom 2.4774637685794070 2.4774637685793977 10.1466567386258930 S
atom 7.4323913092978575 2.4774637650197877 10.1466567386258930 S
atom 2.4774637650197970 7.4323913092978193 10.1466567386258930 S
atom 7.4323913057382365 7.4323913057382098 10.1466567386258930 S
atom 2.4774637685794070 2.4774637685793977 15.2605971970454384 S
atom 7.4323913092978575 2.4774637650197877 15.2605971970454384 S
atom 2.4774637650197970 7.4323913092978193 15.2605971970454384 S
atom 7.4323913057382365 7.4323913057382098 15.2605971970454384 S
atom 2.9770108857982507 0.0000001715860334 12.7036269678356621 S
atom 6.9328441956386300 -0.0000001787052657 12.7036269678356621 S
atom 1.9779166513605719 4.9549273655727699 12.7036269678356621 S
atom 7.9319384229570691 4.9549277087448376 12.7036269678356621 S
atom 2.9973288830863876 0.0000015142301309 17.8174173175010253 S
atom 6.9125261983504904 -0.0000015213493631 17.8174173175010253 S
atom 1.9575986540724346 4.9549260229286780 17.8174173175010253 S
atom 7.9522564202452033 4.9549290513889304 17.8174173175010253 S
atom -0.0000001751456495 1.9779166549201788 12.7036269678356621 S
atom 4.9549277123044586 2.9770108822386230 12.7036269678356621 S
atom 0.0000001680264173 7.9319384265166555 12.7036269678356621 S
atom 4.9549273620131746 6.9328441920789823 12.7036269678356621 S
atom -0.0000015177897470 1.9575986576320423 17.8174173175010253 S
atom 4.9549290549485683 2.9973288795267594 17.8174173175010253 S
atom 0.0000015106705148 7.9522564238047959 17.8174173175010253 S
atom 4.9549260193690783 6.9125261947908498 17.8174173175010253 S
atom 0.0000000000000000 0.0000000000000000 20.3397952293310347 Ba
atom 4.9549275407184377 -0.0000000035596161 20.3397952293310347 Ba
atom -0.0000000035596161 4.9549275407184163 20.3397952293310347 Ba
atom 4.9549275371588140 4.9549275371587953 20.3397952293310347 Ba
atom -0.0000000000000000 0.0000000000000000 25.2417916811656795 Ba
atom 4.9549275407184377 -0.0000000035596161 25.2417916811656795 Ba
atom -0.0000000035596161 4.9549275407184163 25.2417916811656831 Ba
atom 4.9549275371588140 4.9549275371587953 25.2417916811656795 Ba
atom 2.4774637685794070 2.4774637685793977 22.9669095711104916 Zr
atom 7.4323913092978575 2.4774637650197877 22.9669095711104916 Zr
atom 2.4774637650197970 7.4323913092978193 22.9669095711104916 Zr
atom 7.4323913057382365 7.4323913057382098 22.9669095711104916 Zr
atom 2.4774637685794070 2.4774637685793977 20.3687013180950167 S
atom 7.4323913092978575 2.4774637650197877 20.3687013180950167 S
atom 2.4774637650197970 7.4323913092978193 20.3687013180950167 S
atom 7.4323913057382365 7.4323913057382098 20.3687013180950167 S
atom 2.4774637685794070 2.4774637685793977 25.5109348482835152 S
atom 7.4323913092978575 2.4774637650197877 25.5109348482835152 S
atom 2.4774637650197970 7.4323913092978193 25.5109348482835152 S
atom 7.4323913057382365 7.4323913057382098 25.5109348482835152 S
atom 2.0533151453031908 0.0000042880029566 22.8759522567581755 S
atom 7.8565399361337009 -0.0000042951221889 22.8759522567581755 S
atom 2.9016123918556338 4.9549232491558444 22.8759522567581755 S
atom 7.0082426824620008 4.9549318251617667 22.8759522567581755 S
atom -0.0000042915625728 2.9016123954152353 22.8759522567581755 S
atom 4.9549318287213984 2.0533151417435693 22.8759522567581755 S
atom 0.0000042844433405 7.0082426860216005 22.8759522567581755 S
atom 4.9549232455962411 7.8565399325740417 22.8759522567581755 S
atom 2.4774637685794070 2.4774637685793977 28.6215368511442740 Ba
atom 7.4323913092978575 2.4774637650197877 28.6215368511442740 Ba
atom 2.4774637650197970 7.4323913092978193 28.6215368511442740 Ba
atom 7.4323913057382365 7.4323913057382098 28.6215368511442740 Ba
atom 2.4774637685794070 2.4774637685793977 33.5235204677705099 Ba
atom 7.4323913092978575 2.4774637650197877 33.5235204677705099 Ba
atom 2.4774637650197970 7.4323913092978193 33.5235204677705099 Ba
atom 7.4323913057382365 7.4323913057382098 33.5235204677705099 Ba
atom 4.9549275371588140 4.9549275371587953 30.8963942355453582 Zr
atom 9.9098550778772481 4.9549275335991876 30.8963942355453582 Zr
atom 4.9549275335992045 9.9098550778772232 30.8963942355453582 Zr
atom 9.9098550743176279 9.9098550743175906 30.8963942355453582 Zr
atom 4.9549275371588140 4.9549275371587953 36.0356967153314898 Zr
atom 9.9098550778772481 4.9549275335991876 36.0356967153314898 Zr
atom 4.9549275335992045 9.9098550778772232 36.0356967153314898 Zr
atom 9.9098550743176279 9.9098550743175906 36.0356967153314898 Zr
atom 4.9549275371588140 4.9549275371587953 28.3523786082053917 S
atom 9.9098550778772481 4.9549275335991876 28.3523786082053917 S
atom 4.9549275335992045 9.9098550778772232 28.3523786082053917 S
atom 9.9098550743176279 9.9098550743175906 28.3523786082053917 S
atom 4.9549275371588140 4.9549275371587953 33.4946089161504688 S
atom 9.9098550778772481 4.9549275335991876 33.4946089161504688 S
atom 4.9549275335992045 9.9098550778772232 33.4946089161504688 S
atom 9.9098550743176279 9.9098550743175906 33.4946089161504688 S
atom 4.5307777717655302 2.4774700926853646 30.9873602383270814 S
atom 10.3340048468301564 2.4774574373542055 30.9873602383270814 S
atom 5.3790773025521181 7.4323849816322411 30.9873602383270814 S
atom 9.4857053089243539 7.4323976298441705 30.9873602383270814 S
atom 5.4748095031268829 2.4774671625069073 36.0459201862160086 S
atom 9.3899731154688109 2.4774603675326667 36.0459201862160086 S
atom 4.4350455711907539 7.4323879118106984 36.0459201862160086 S
atom 10.4297370402857137 7.4323946996657089 36.0459201862160086 S
atom 2.4774574409138319 5.3790773061117036 30.9873602383270814 S
atom 7.4323976334038173 4.5307777682058905 30.9873602383270814 S
atom 2.4774700891257591 9.4857053124839545 30.9873602383270814 S
atom 7.4323849780726556 10.3340048432705007 30.9873602383270814 S
atom 2.4774603710922922 4.4350455747503625 36.0459201862160086 S
atom 7.4323947032253610 5.4748094995672467 36.0459201862160086 S
atom 2.4774671589472996 10.4297370438452734 36.0459201862160086 S
atom 7.4323879082511146 9.3899731119091641 36.0459201862160086 S
atom 2.4774637685794070 2.4774637685793977 38.6092535708344471 Ba
atom 7.4323913092978575 2.4774637650197877 38.6092535708344471 Ba
atom 2.4774637650197970 7.4323913092978193 38.6092535708344471 Ba
atom 7.4323913057382365 7.4323913057382098 38.6092535708344471 Ba
atom 2.4774637685794070 2.4774637685793977 43.7102491807406892 Ba
atom 7.4323913092978575 2.4774637650197877 43.7102491807406892 Ba
atom 2.4774637650197970 7.4323913092978193 43.7102491807406892 Ba
atom 7.4323913057382365 7.4323913057382098 43.7102491807406892 Ba
atom 4.9549275371588140 4.9549275371587953 41.1597513757875646 Zr
atom 9.9098550778772481 4.9549275335991876 41.1597513757875646 Zr
atom 4.9549275335992045 9.9098550778772232 41.1597513757875646 Zr
atom 9.9098550743176279 9.9098550743175906 41.1597513757875646 Zr
atom 4.9549275371588140 4.9549275371587953 46.2838060362436110 Zr
atom 9.9098550778772481 4.9549275335991876 46.2838060362436110 Zr
atom 4.9549275335992045 9.9098550778772232 46.2838060362436110 Zr
atom 9.9098550743176279 9.9098550743175906 46.2838060362436110 Zr
atom 4.9549275371588140 4.9549275371587953 38.6027545461049399 S
atom 9.9098550778772481 4.9549275335991876 38.6027545461049399 S
atom 4.9549275335992045 9.9098550778772232 38.6027545461049399 S
atom 9.9098550743176279 9.9098550743175906 38.6027545461049399 S
atom 4.9549275371588140 4.9549275371587953 43.7167482054701111 S
atom 9.9098550778772481 4.9549275335991876 43.7167482054701111 S
atom 4.9549275335992045 9.9098550778772232 43.7167482054701111 S
atom 9.9098550743176279 9.9098550743175906 43.7167482054701111 S
atom 5.4544776479137704 2.4774640803978101 41.1597513757875646 S
atom 9.4103049706819277 2.4774634496417645 41.1597513757875646 S
atom 4.4553774264038841 7.4323909939197961 41.1597513757875646 S
atom 10.4094051850726004 7.4323916175566147 41.1597513757875646 S
atom 5.4748095031268829 2.4774671625069073 46.2735825653590496 S
atom 9.3899731154688109 2.4774603675326667 46.2735825653590496 S
atom 4.4350455711907539 7.4323879118106984 46.2735825653590496 S
atom 10.4297370402857137 7.4323946996657089 46.2735825653590496 S
atom 2.4774634532013859 4.4553774299634821 41.1597513757875646 S
atom 7.4323916211162677 5.4544776443541254 41.1597513757875646 S
atom 2.4774640768382041 10.4094051886321637 41.1597513757875646 S
atom 7.4323909903602123 9.4103049671222809 41.1597513757875646 S
atom 2.4774603710922922 4.4350455747503625 46.2735825653590496 S
atom 7.4323947032253610 5.4748094995672467 46.2735825653590496 S
atom 2.4774671589472996 10.4297370438452734 46.2735825653590496 S
atom 7.4323879082511146 9.3899731119091641 46.2735825653590496 S
atom 2.4774637685794070 2.4774637685793977 48.7959822838046549 Ba
atom 7.4323913092978575 2.4774637650197877 48.7959822838046549 Ba
atom 2.4774637650197970 7.4323913092978193 48.7959822838046549 Ba
atom 7.4323913057382365 7.4323913057382098 48.7959822838046549 Ba
atom 2.4774637685794070 2.4774637685793977 53.6979659004308729 Ba
atom 7.4323913092978575 2.4774637650197877 53.6979659004308729 Ba
atom 2.4774637650197970 7.4323913092978193 53.6979659004308729 Ba
atom 7.4323913057382365 7.4323913057382098 53.6979659004308729 Ba
atom 4.9549275371588140 4.9549275371587953 51.4231085160297354 Zr
atom 9.9098550778772481 4.9549275335991876 51.4231085160297354 Zr
atom 4.9549275335992045 9.9098550778772232 51.4231085160297354 Zr
atom 9.9098550743176279 9.9098550743175906 51.4231085160297354 Zr
atom 4.9549275371588140 4.9549275371587953 48.8248938354247244 S
atom 9.9098550778772481 4.9549275335991876 48.8248938354247244 S
atom 4.9549275335992045 9.9098550778772232 48.8248938354247244 S
atom 9.9098550743176279 9.9098550743175906 48.8248938354247244 S
atom 4.9549275371588140 4.9549275371587953 53.9671241433697233 S
atom 9.9098550778772481 4.9549275335991876 53.9671241433697233 S
atom 4.9549275335992045 9.9098550778772232 53.9671241433697233 S
atom 9.9098550743176279 9.9098550743175906 53.9671241433697233 S
atom 4.5307777717655302 2.4774700926853646 51.3321425132480371 S
atom 10.3340048468301564 2.4774574373542055 51.3321425132480371 S
atom 5.3790773025521181 7.4323849816322411 51.3321425132480371 S
atom 9.4857053089243539 7.4323976298441705 51.3321425132480371 S
atom 2.4774574409138319 5.3790773061117036 51.3321425132480371 S
atom 7.4323976334038173 4.5307777682058905 51.3321425132480371 S
atom 2.4774700891257591 9.4857053124839545 51.3321425132480371 S
atom 7.4323849780726556 10.3340048432705007 51.3321425132480371 S
