#=======================================================
# FHI-aims file: sym_relax/sym_relax_RP_6_RxRyRz_RxRy0.in
# Created using the Atomic Simulation Environment (ASE)
# Fri Mar 14 11:11:17 2025
#=======================================================
lattice_vector 9.9986680711352012 -0.0084518055411583 -0.0104645848849027 
lattice_vector -0.0084518055411587 9.9986680711351976 0.0104645848849027 
lattice_vector -0.0688723638542525 0.0688723638542517 66.1071906712223267 
atom 0.0109259288617613 -0.0760225780999543 0.1785039596618715 Ba
atom 5.0753566136675463 -0.0151518316323407 0.1732716672194201 Ba
atom 0.0717966753293756 4.9884081067058492 0.1837362521043227 Ba
atom 5.0060340616587933 4.9190855546970731 0.1785039596618716 Ba
atom -0.2991368619245389 0.2372366074439982 4.9636036155426657 Ba
atom 4.7620974281236226 0.2949109591539601 4.9583713231002200 Ba
atom -0.2414625102145773 5.2984708974921508 4.9688359079851177 Ba
atom 4.6959712708724801 5.2323447402410173 4.9636036155426657 Ba
atom 2.4359035258343154 2.5662450682374898 2.3449123893925830 Zr
atom 7.4281971001271385 2.5549787041921315 2.3396800969501355 Zr
atom 2.4246371617889628 7.5585386425303236 2.3501446818350384 Zr
atom 7.4310116586313324 7.5613532010345201 2.3449123893925830 Zr
atom 2.3878094789015938 2.5703000395869822 7.4176905870434018 Zr
atom 7.4241421287776506 2.6030727511248584 7.4124582946009463 Zr
atom 2.4205821904394655 7.6066326894630496 7.4229228794858537 Zr
atom 7.3829176116986188 7.5654081723840161 7.4176905870434018 Zr
atom 2.5970222672755701 2.8126225935928031 -0.1606255589980429 S
atom 7.1818195747718381 2.3938599627508852 -0.1658578514404941 S
atom 2.1782596364336531 7.3974199010890702 -0.1553932665555917 S
atom 7.5921304000725849 7.8077307263898366 -0.1606255589980428 S
atom 2.2018084978363106 2.3087071598144635 4.9148343045619036 S
atom 7.6857350085501528 2.7890737321901531 4.9096020121194552 S
atom 2.6821750702119851 7.7926336705283319 4.9200665970043662 S
atom 7.1969166306333259 7.3038152926114872 4.9148343045619045 S
atom 2.6860202275921878 0.0737074367445651 2.1960321374395009 S
atom 7.1253243348656801 0.0722363765211219 2.6964805801329734 S
atom 2.1217643965275199 5.0757963148593186 2.7069451650178808 S
atom 7.6811283603891933 5.0688155695415995 2.1960321374395009 S
atom 2.8867543833282281 0.0728929571996477 7.6482989408611788 S
atom 7.0031239595302592 0.0704764517304476 7.2180951969237137 S
atom 1.9995640211920789 5.0740363900686276 7.2285597818086043 S
atom 7.8818625161252358 5.0680010899966890 7.6482989408611788 S
atom -0.0779333395151443 2.3133138079754136 2.2012644298819506 S
atom 4.9186458535053186 2.8691178334989385 2.7017128725754262 S
atom -0.0849140848328607 7.8726777718371252 2.7121774574603226 S
atom 4.9171747932818892 7.3084219407724511 2.2012644298819506 S
atom -0.0771188599702267 2.1125796522393889 7.6535312333036289 S
atom 4.9204057782959953 2.9913182088343619 7.2233274893661630 S
atom -0.0831541600421862 7.9948781471725665 7.2337920742510615 S
atom 4.9179892728268007 7.1076877850364051 7.6535312333036254 S
atom -0.0246939442769094 -0.0551413020833426 9.9654658076824685 Ba
atom 5.0544753376509544 0.0204680415063299 9.9602335152400183 Ba
atom 0.0509153993127632 5.0240279798445231 9.9706981001249222 Ba
atom 4.9704141885201301 4.9399668307136873 9.9654658076824685 Ba
atom 0.0359139608896712 0.0672195808234221 15.0243615161869002 Ba
atom 4.9321144547441849 -0.0401398636602508 15.0191292237444713 Ba
atom -0.0714454835940013 4.9634200746779387 15.0295938086293539 Ba
atom 5.0310220936866861 5.0623277136204630 15.0243615161869002 Ba
atom 2.4866955368915566 2.5206362857664670 12.4853887260646736 Zr
atom 7.4738058825981737 2.5041866931348831 12.4801564336222484 Zr
atom 2.4702459442599802 7.5077466314730819 12.4906210185071433 Zr
atom 7.4818036696885866 7.5157444185634956 12.4853887260646754 Zr
atom 2.4893306658327123 2.5180011568253184 17.5633343063091409 Zr
atom 7.4764410115393174 2.5015515641937345 17.5581020138666375 Zr
atom 2.4728810732011346 7.5051115025319186 17.5685665987515414 Zr
atom 7.4844387986297329 7.5131092896223333 17.5633343063091480 Zr
atom 2.5877697536323843 2.7190766803599442 9.9582724240886975 S
atom 7.2753654880046774 2.4031124763940652 9.9530401316462562 S
atom 2.2718055496665017 7.4066724147322542 9.9635047165311654 S
atom 7.5828778864294026 7.7141848131569857 9.9582724240886957 S
atom 2.3852498879656236 2.4165555078993770 15.0243615161869002 S
atom 7.5778866604652402 2.6056323420608209 15.0191292237444713 S
atom 2.5743267221270658 7.6091922803990002 15.0295938086293539 S
atom 7.3803580207626496 7.4116636406964167 15.0243615161869002 S
atom 2.0142593329002692 0.0196487913285311 12.4001937889680693 S
atom 7.9791158393284496 0.0161797166058000 12.5769501355695219 S
atom 2.9755559009902526 5.0197396549439848 12.5874147204544151 S
atom 7.0093674656972693 5.0147569241255692 12.4001937889680676 S
atom 2.9537690827335967 0.0074309258346403 17.6432969509633040 S
atom 6.9875806474406188 0.0024481950162122 17.4560760194769173 S
atom 1.9840207091024484 5.0060081333544018 17.4665406043618106 S
atom 7.9488772155306560 5.0025390586316645 17.6432969509633040 S
atom -0.0238746940991104 2.9850747026673439 12.4054260814105071 S
atom 4.9747025134206471 2.0153263290361969 12.5821824280119596 S
atom -0.0288574249175392 7.0188862673743939 12.5926470128968688 S
atom 4.9712334386979258 7.9801828354643760 12.4054260814105035 S
atom -0.0116568286052197 2.0455649528340141 17.6485292434057577 S
atom 4.9884340350102221 3.0068615209240024 17.4613083119193959 S
atom -0.0151259033279510 8.0104214592621776 17.4717728968043104 S
atom 4.9834513041917923 7.0406730856310515 17.6485292434057577 S
atom -0.0864469220170934 0.0066116756568414 20.0832572246912946 Ba
atom 4.9927223599107675 0.0822210192465138 20.0780249322488693 Ba
atom -0.0108375784274210 5.0857809575847028 20.0884895171338087 Ba
atom 4.9086612107799175 5.0017198084538830 20.0832572246912946 Ba
atom 0.2059309875102469 -0.2678312419907890 25.0851194168311373 Ba
atom 5.2671652775584024 -0.2101568902808268 25.0798871243887014 Ba
atom 0.2636053392202088 4.7934030480573746 25.0903517092736053 Ba
atom 5.2010391203072688 4.7272768908062401 25.0851194168311373 Ba
atom 2.5389944196532270 2.4191150988353520 22.6310324453304439 Zr
atom 7.5753270695292940 2.4518878103732176 22.6258001528879689 Zr
atom 2.5717671311910979 7.4554477487114141 22.6362647377729047 Zr
atom 7.5341025524502410 7.4142232316323771 22.6310324453304439 Zr
atom 2.5349394483037346 2.4672091457680714 27.7038106429812530 Zr
atom 7.5272330225965529 2.4559427817227211 27.6985783505388170 Zr
atom 2.5236730842583777 7.4595027200608994 27.7090429354236711 Zr
atom 7.5300475811007592 7.4623172785651031 27.7038106429812565 Zr
atom 2.6877710604261877 2.6190753735661367 20.0904506082851206 S
atom 7.3753667947984933 2.3031111696002573 20.0852183158427025 S
atom 2.3718068564603088 7.3066711079384463 20.0956829007275743 S
atom 7.6828791932232221 7.6141835063631689 20.0904506082851242 S
atom 2.2774015398807101 2.2331141177700498 25.1338887278119572 S
atom 7.7613280505945728 2.7134806901457345 25.1286564353694892 S
atom 2.7577681122563931 7.7170406284839128 25.1391210202544038 S
atom 7.2725096726777396 7.2282222505670841 25.1338887278119572 S
atom 2.0812740323056453 -0.0458132400364760 22.3951917990701617 S
atom 7.9635725272387896 -0.0518485401084352 22.8149309581228259 S
atom 2.9600125889006113 4.9517113982297580 22.8253955430077191 S
atom 7.0763821651026513 4.9492948927605500 22.3951917990701617 S
atom 2.2820081880416643 -0.0466277195813939 27.8474586024919013 S
atom 7.8413721519033706 -0.0536084648991095 27.3365455749135009 S
atom 2.8378122135651793 4.9499514734390777 27.3470101597983373 S
atom 7.2771163208386920 4.9484804132156386 27.8474586024919013 S
atom 0.0415873372658966 2.9180600032619779 22.4004240915125834 S
atom 5.0427307701348800 2.0308696411258325 22.8201632505652512 S
atom 0.0391708317966957 7.0344295794640299 22.8306278354501728 S
atom 5.0366954700629210 7.9131681360590012 22.4004240915125834 S
atom 0.0424018168108139 2.7173258475259439 27.8526908949343373 S
atom 5.0444906949255630 2.1530700164612626 27.3417778673559120 S
atom 0.0409307565873706 7.1566299547994507 27.3522424522408691 S
atom 5.0375099496078342 7.7124339803229764 27.8526908949343373 S
atom -0.1073281980337055 0.0422315487955119 29.8702190727119579 Ba
atom 4.9571024867721016 0.1031022952631258 29.8649867802694899 Ba
atom -0.0464574515660913 5.1066622336013152 29.8754513651543796 Ba
atom 4.8877799347633140 5.0373396815925435 29.8702190727119579 Ba
atom 2.7813169736590493 2.6283278872093119 30.2093485913718638 S
atom 7.3661142811552969 2.2095652563673949 30.2041162989294243 S
atom 2.3625543428171207 7.2131251947055732 30.2145808838142926 S
atom 7.7764251064560721 7.6234360200063520 30.2093485913718638 S
atom 2.5621815352126172 2.3650763593282127 33.3132594203899686 Ba
atom 7.6293658090364174 2.4287006948138297 33.3080271279475255 Ba
atom 2.6258058706982403 7.4322606331520076 33.3184917128324898 Ba
atom 7.5572896680096315 7.3601844921252484 33.3132594203899828 Ba
atom 2.2370163955123541 2.6976238976763875 38.0938288793247395 Ba
atom 7.2968182706882612 2.7538658345140972 38.0885965868823462 Ba
atom 2.2932583323500624 7.7574257728522849 38.0990611717672678 Ba
atom 7.2321245283093800 7.6927320304734108 38.0938288793247537 Ba
atom 4.9806353568277792 5.0137437442504940 35.4824879143887557 Zr
atom 9.9758065569111753 5.0053550059956837 35.4772556219463198 Zr
atom 4.9722466185729912 10.0089149443338883 35.4877202068312840 Zr
atom 9.9757434896247954 10.0088518770475154 35.4824879143887557 Zr
atom 4.9680168192110852 5.0150388689753802 40.5404997692925448 Zr
atom 9.9745114321863184 5.0179735436123831 40.5352674768501231 Zr
atom 4.9709514938481094 10.0215334819505468 40.5457320617349737 Zr
atom 9.9631249520081333 10.0101470017724061 40.5404997692925448 Zr
atom 5.1490925322092416 5.2683477097191700 32.9756718559657784 S
atom 9.7212025914425233 4.8368978306142205 32.9704395635233851 S
atom 4.7176426531043072 9.8404577689524224 32.9809041484082641 S
atom 10.1442006650063217 10.2634558425161568 32.9756718559657926 S
atom 4.7177179239044467 4.7142331958005368 38.0445413897690798 S
atom 10.2753171053611307 5.2682724389190136 38.0393090973266794 S
atom 5.2717571670229395 10.2718323772572244 38.0497736822115655 S
atom 9.7128260567015197 9.7093413285975601 38.0445413897691012 S
atom 5.2327141817819651 2.5225298386872699 35.3113042194020537 S
atom 9.6684039241271673 2.5217971879379668 35.8496525902978576 S
atom 4.6648439857889521 7.5253571262761687 35.8601171751827863 S
atom 10.2278223145790275 7.5176379714843140 35.3113042194020679 S
atom 5.3763606725516695 2.5111457727104280 40.8612089174263602 S
atom 9.5970779136023090 2.5122242959840215 40.2479647855132328 S
atom 4.5935179752641266 7.5157842343222150 40.2584293703981970 S
atom 10.3714688053486803 7.5062539055074540 40.8612089174263389 S
atom 2.4683523913391823 4.7617279865826605 35.3165365118444825 S
atom 7.4641931748855184 5.3211463770345189 35.8548848827402793 S
atom 2.4606332365473276 10.3247063153727048 35.8653494676253004 S
atom 7.4634605241362078 9.7568361193796669 35.3165365118444612 S
atom 2.4797364573160285 4.6180814958129606 40.8664412098687890 S
atom 7.4737660668394605 5.3924723875593621 40.2531970779556687 S
atom 2.4702061285012604 10.3960323258975489 40.2636616628405477 S
atom 7.4748445901130491 9.6131896286099838 40.8664412098687890 S
atom 2.7380247362873207 2.3345449022614173 43.0759199624635087 Ba
atom 7.6598972661032159 2.2528574937391213 43.0706876700210088 Ba
atom 2.6563373277650251 7.2564174320773178 43.0811522549059376 Ba
atom 7.7331328690843506 7.3296530350584481 43.0759199624635087 Ba
atom 2.4531291034299123 2.5533070872179171 48.0779568517981986 Ba
atom 7.4411350811467116 2.5377531265965381 48.0727245593556631 Ba
atom 2.4375751428085417 7.5413130649347231 48.0831891442405208 Ba
atom 7.4482372362269400 7.5484152200149470 48.0779568517981986 Ba
atom 5.0188711523805223 4.9857461287114013 45.5635289068133744 Zr
atom 10.0038041724502698 4.9671192104429425 45.5582966143709811 Zr
atom 5.0002442341120688 9.9706791487811355 45.5687611992559098 Zr
atom 10.0139792851775784 9.9808542615084299 45.5635289068133673 Zr
atom 4.8855681449233872 5.1190491361685408 50.5923847967828664 Zr
atom 9.8705011649931151 5.1004222179000891 50.5871525043403878 Zr
atom 4.8669412266549505 10.1039821562382528 50.5976170892253236 Zr
atom 9.8806762777204238 10.1141572689655561 50.5923847967828664 Zr
atom 5.2371746752058135 5.3203640281779760 43.0577967185375883 S
atom 9.6691862729836888 4.7488156876176637 43.0525644260951452 S
atom 4.6656263346455082 9.7523756259558425 43.0630290109800029 S
atom 10.2322828080028412 10.3154721609750268 43.0577967185375883 S
atom 4.6901707153422834 4.7903486991302895 48.0779568517981986 S
atom 10.1992016020313621 5.2958196474811894 48.0727245593556631 S
atom 5.1956416636931761 10.2993795858193913 48.0831891442405208 S
atom 9.6852788481392658 9.7854568319273216 48.0779568517981986 S
atom 5.3722855152735116 2.4937720097145171 45.2915823794819801 S
atom 9.6480231670168504 2.4928055924864130 45.8350551512805779 S
atom 4.6444632286786671 7.4963655308246029 45.8455197361655280 S
atom 10.3673936480705411 7.4888801425115510 45.2915823794819730 S
atom 4.5219786693031203 2.5972882040999368 50.8590990316718461 S
atom 10.2449090886950014 2.5898028157868831 50.3051616749882697 S
atom 5.2413491503568039 7.5933627541250788 50.3156262598731487 S
atom 9.5170868021001596 7.5923963368969636 50.8590990316718461 S
atom 2.4971102203119373 4.6221566530911273 45.2968146719243876 S
atom 7.4931847703370495 5.3415271341448101 45.8402874437230565 S
atom 2.4896248319988743 10.3450870724830146 45.8507520286079853 S
atom 7.4922183531089468 9.6172647858881390 45.2968146719243876 S
atom 2.3935940259265047 5.4724634990615266 50.8643313241142607 S
atom 7.3961875470365959 4.7446412124666759 50.3103939674306915 S
atom 2.3926276086984033 9.7482011508048458 50.3208585523156202 S
atom 7.3887021587235271 10.4675716318585579 50.8643313241142607 S
atom 2.2343669184734094 2.8382027200753273 53.0799937411327747 Ba
atom 7.1562394482892957 2.7565153115530352 53.0747614486902819 Ba
atom 2.1526795099511205 7.7600752498912291 53.0852260335752177 Ba
atom 7.2294750512704562 7.8333108528723612 53.0799937411327818 Ba
atom 2.5974459138883823 2.3371943793003593 58.0620848242714160 Ba
atom 7.6572477890642840 2.3934363161380574 58.0568525318289659 Ba
atom 2.6536878507260928 7.3969962544762637 58.0673171167139230 Ba
atom 7.5925540466853940 7.3323025120973808 58.0620848242713947 Ba
atom 4.9148608851873643 5.0681948029990904 55.6154139343036817 Zr
atom 9.9213554981625602 5.0711294776361093 55.6101816418612600 Zr
atom 4.9177955598243770 10.0746894159743068 55.6206462267460395 Zr
atom 9.9099690179843840 10.0633029357961039 55.6154139343036746 Zr
atom 4.9135657604624825 5.0808133406158005 60.6734257892075206 Zr
atom 9.9087369605458697 5.0724246023610027 60.6681934967650562 Zr
atom 4.9051770222076767 10.0759845406991744 60.6786580816499779 Zr
atom 9.9086738932595075 10.0759214734128122 60.6734257892075206 Zr
atom 5.2201860443899619 5.3373526589938267 53.0981169850586099 S
atom 9.6521976421678630 4.7658043184335002 53.0928846926161739 S
atom 4.6486377038296531 9.7693642567716630 53.1033492775011169 S
atom 10.2152941771869976 10.3324607917908633 53.0981169850586099 S
atom 4.6140552120125227 4.8178959076924697 58.1113723138271538 S
atom 10.1716543934691810 5.3719351508109510 58.1061400213846895 S
atom 5.1680944551310040 10.3754950891491369 58.1166046062695614 S
atom 9.6091633448095291 9.8130040404895098 58.1113723138271681 S
atom 4.5179035120249447 2.5799144411040311 55.2894724937274802 S
atom 10.2958543421095374 2.5703841122892794 55.8922520407555297 S
atom 5.2922944037713409 7.5739440506274569 55.9027166256405295 S
atom 9.5130116448219777 7.5750225739010482 55.2894724937274660 S
atom 4.6615500027946482 2.5685303751271857 60.8393771917517370 S
atom 10.2245283315846844 2.5608112203353270 60.2905642359710399 S
atom 5.2209683932465065 7.5643711586735023 60.3010288208559970 S
atom 9.6566581355916590 7.5636385079242139 60.8393771917517299 S
atom 2.4109677889224130 5.4765386563396774 55.2947047861698380 S
atom 7.4156062505341973 4.6936959590521168 55.8974843331980864 S
atom 2.4120463121960145 9.6972558973902885 55.9079489180829583 S
atom 7.4060759217194434 10.4716467891367095 55.2947047861698309 S
atom 2.4223518548992611 5.3328921655699917 60.8446094841942298 S
atom 7.4251791424881466 4.7650219695769493 60.2957965284135113 S
atom 2.4216192041499616 9.7685819079151717 60.3062611132983548 S
atom 7.4174599876962741 10.3280002983670176 60.8446094841942227 S
atom 2.2648983755402163 2.6623595190006171 62.8426542832062154 Ba
atom 7.3320826493640130 2.7259838544862407 62.8374219907637439 Ba
atom 2.3285227110258337 7.7295437928244288 62.8478865756486158 Ba
atom 7.2600065083372263 7.6574676517976563 62.8426542832062154 Ba
atom 5.1681697259311559 5.2492705159972699 63.1802418476303771 S
atom 9.7402797851643577 4.8178206368923195 63.1750095551879625 S
atom 4.7367198468262242 9.8213805752305170 63.1854741400728628 S
atom 10.1632778587281383 10.2443786487943083 63.1802418476303913 S
