#=======================================================
# FHI-aims file: sym_relax/sym_relax_RP_2_Rx1Ry20_-Rx2-Ry10.in
# Created using the Atomic Simulation Environment (ASE)
# Fri Mar 14 10:20:59 2025
#=======================================================
lattice_vector 10.0975478482311907 0.0000096660051836 0.0000000000000000 
lattice_vector 0.0000096660051836 10.0975478482311960 0.0000000000000000 
lattice_vector 0.0000000000000000 0.0000000000000000 25.4732612916393144 
atom -0.1651859326562659 0.0000023288448146 0.2875230018226439 Ba
atom 5.2139598567718615 0.0000025041577770 0.2875230018226439 Ba
atom 0.1651907656588572 5.0487715952707859 0.2875230018226439 Ba
atom 4.8835928244619087 5.0487810859630082 0.2875230018226439 Ba
atom 0.0440173910280215 -0.0000021157343998 4.8987040945460230 Ba
atom 5.0047565330875621 0.0000069487369915 4.8987040945460230 Ba
atom -0.0440125580254297 5.0487760398499946 4.8987040945460230 Ba
atom 5.0927961481462063 5.0487766413837960 4.8987040945460230 Ba
atom 2.5243888673048858 2.5043393704599728 2.3639506222297411 Zr
atom 7.5731638139288808 2.5444442196608099 2.3639506222297411 Zr
atom 2.5243947228158858 7.5932133107738196 2.3639506222297411 Zr
atom 7.5731676244230650 7.5531181275781574 2.3639506222297411 Zr
atom 2.5243888673048858 2.5043393704599728 7.4334575668623035 Zr
atom 7.5731638139288808 2.5444442196608099 7.4334575668623035 Zr
atom 2.5243947228158858 7.5932133107738196 7.4334575668623035 Zr
atom 7.5731676244230650 7.5531181275781574 7.4334575668623035 Zr
atom 2.5243928269553395 2.8073112184243496 -0.1225295020634282 S
atom 7.5731598542784324 2.2414723716964344 -0.1225295020634282 S
atom 2.5243907631654374 7.2902414628094334 -0.1225295020634282 S
atom 7.5731715840735259 7.8560899755425444 -0.1225295020634282 S
atom 2.5243836418332175 2.1093915800492731 4.8987040945460230 S
atom 7.5731690394005504 2.9393920100715105 4.8987040945460230 S
atom 2.5243999482875554 7.9881611011845211 4.8987040945460230 S
atom 7.5731623989514052 7.1581703371674648 4.8987040945460230 S
atom 2.5243869620577972 0.0000024165012958 2.0833972502290710 S
atom 7.5731608861733806 0.0000072495038875 2.7784056549891538 S
atom 2.5243917950603842 5.0487763406168913 2.7784056549891538 S
atom 7.5731657191759769 5.0487811736194903 2.0833972502290710 S
atom 2.5243869620577972 0.0000024165012958 7.7140109388629705 S
atom 7.5731608861733806 0.0000072495038875 7.0190025341028894 S
atom 2.5243917950603842 5.0487763406168913 7.0190025341028894 S
atom 7.5731657191759769 5.0487811736194903 7.7140109388629705 S
atom 0.0000024165012958 2.5243869620577994 2.4788313783504514 S
atom 5.0487763406168931 2.5243917950603914 2.4788272316350772 S
atom 0.0000072495038874 7.5731608861733983 2.4788272316350772 S
atom 5.0487811736194699 7.5731657191759920 2.4788313783504514 S
atom 0.0000024165012958 2.5243869620577994 7.3185768107415994 S
atom 5.0487763406168931 2.5243917950603914 7.3185809574569660 S
atom 0.0000072495038874 7.5731608861733983 7.3185809574569660 S
atom 5.0487811736194699 7.5731657191759920 7.3185768107415994 S
atom -0.1651859326562659 0.0000023288448146 9.5098851872693917 Ba
atom 5.2139598567718615 0.0000025041577770 9.5098851872693917 Ba
atom 0.1651907656588572 5.0487715952707859 9.5098851872693917 Ba
atom 4.8835928244619087 5.0487810859630082 9.5098851872693917 Ba
atom 2.5243928269553395 2.8073112184243505 9.9199376911554644 S
atom 7.5731598542784324 2.2414723716964344 9.9199376911554644 S
atom 2.5243907631654374 7.2902414628094334 9.9199376911554644 S
atom 7.5731715840735259 7.8560899755425444 9.9199376911554644 S
atom 2.5243870497142793 2.6895753112153629 13.0241536476423061 Ba
atom 7.5731656315194895 2.3592082789054198 13.0241536476423061 Ba
atom 2.5243965404064919 7.4079773700184290 13.0241536476423061 Ba
atom 7.5731658068324599 7.7383540683335594 13.0241536476423061 Ba
atom 2.5243914942934902 2.4803719875310741 17.6353347403656890 Ba
atom 7.5731611869402791 2.5684116025897090 17.6353347403656890 Ba
atom 2.5243920958272841 7.6171806937027178 17.6353347403656890 Ba
atom 7.5731702514116659 7.5291507446492600 17.6353347403656890 Ba
atom 5.0688287652173036 5.0487792683723933 15.1005812680493978 Zr
atom 10.0775026731346316 5.0487830788665820 15.1005812680493978 Zr
atom 5.0287335820216432 10.0975521699795863 15.1005812680493978 Zr
atom 10.1176075223354864 10.0975580254905850 15.1005812680493978 Zr
atom 5.0688287652173036 5.0487792683723933 20.1700882126819607 Zr
atom 10.0775026731346316 5.0487830788665820 20.1700882126819607 Zr
atom 5.0287335820216432 10.0975521699795863 20.1700882126819607 Zr
atom 10.1176075223354864 10.0975580254905850 20.1700882126819607 Zr
atom 4.7658569172529202 5.0487753087219422 12.6141011437562334 S
atom 10.3804745210990177 5.0487870385170321 12.6141011437562334 S
atom 5.3317054299860338 10.0975561296300391 12.6141011437562334 S
atom 9.8146356743711038 10.0975540658401286 12.6141011437562334 S
atom 5.4637765556279989 5.0487844938440629 17.6353347403656890 S
atom 9.6825548827239505 5.0487778533949168 17.6353347403656890 S
atom 4.6337857916109524 10.0975469445079273 17.6353347403656890 S
atom 10.5125553127461924 10.0975632509622564 17.6353347403656890 S
atom 5.0487763406168931 2.5243917950603914 15.2154578774547495 S
atom 10.0975502647324777 2.5243966280629833 15.2154620241701117 S
atom 5.0487811736194699 7.5731657191759920 15.2154620241701117 S
atom 10.0975550977350661 7.5731705521785848 15.2154578774547495 S
atom 5.0487763406168931 2.5243917950603914 20.0552116032766250 S
atom 10.0975502647324777 2.5243966280629833 20.0552074565612664 S
atom 5.0487811736194699 7.5731657191759920 20.0552074565612664 S
atom 10.0975550977350661 7.5731705521785848 20.0552116032766250 S
atom 2.5243917950603842 5.0487763406168913 15.5150363008088217 S
atom 7.5731657191759769 5.0487811736194903 14.8200278960487353 S
atom 2.5243966280629770 10.0975502647324991 14.8200278960487353 S
atom 7.5731705521785617 10.0975550977350910 15.5150363008088217 S
atom 2.5243917950603842 5.0487763406168913 19.7556331799225724 S
atom 7.5731657191759769 5.0487811736194903 20.4506415846826606 S
atom 2.5243966280629770 10.0975502647324991 20.4506415846826606 S
atom 7.5731705521785617 10.0975550977350910 19.7556331799225724 S
atom 2.5243870497142793 2.6895753112153629 22.2465158330890560 Ba
atom 7.5731656315194895 2.3592082789054198 22.2465158330890560 Ba
atom 2.5243965404064919 7.4079773700184290 22.2465158330890560 Ba
atom 7.5731658068324599 7.7383540683335594 22.2465158330890560 Ba
atom 4.7658569172529202 5.0487753087219422 22.6565683369751447 S
atom 10.3804745210990177 5.0487870385170321 22.6565683369751447 S
atom 5.3317054299860338 10.0975561296300391 22.6565683369751447 S
atom 9.8146356743711038 10.0975540658401286 22.6565683369751447 S
