#=======================================================
# FHI-aims file: sym_relax/sym_relax_RP_7_00Rz1_00Rz2.in
# Created using the Atomic Simulation Environment (ASE)
# Mon Mar 17 15:41:44 2025
#=======================================================
lattice_vector 9.8994752475670147 -0.0000000451756698 0.0000000000000000 
lattice_vector -0.0000000451756698 9.8994752475670218 0.0000000000000000 
lattice_vector 0.0000000000000000 0.0000000000000000 77.3883347258386891 
atom 0.0000000000000000 0.0000000000000000 0.1613152335661403 Ba
atom 4.9497376237835029 -0.0000000225878351 0.1613152335661403 Ba
atom -0.0000000225878351 4.9497376237835100 0.1613152335661403 Ba
atom 4.9497376011956646 4.9497376011956780 0.1613152335661403 Ba
atom -0.0000000000000000 0.0000000000000000 5.0704272761361704 Ba
atom 4.9497376237835029 -0.0000000225878351 5.0704272761361704 Ba
atom -0.0000000225878351 4.9497376237835100 5.0704272761361704 Ba
atom 4.9497376011956646 4.9497376011956780 5.0704272761361704 Ba
atom 2.4748688005978323 2.4748688005978390 2.4397219851414595 Zr
atom 7.4246064243813379 2.4748687780100025 2.4397219851414595 Zr
atom 2.4748687780099972 7.4246064243813539 2.4397219851414595 Zr
atom 7.4246064017935014 7.4246064017935156 2.4397219851414595 Zr
atom 2.4748688005978323 2.4748688005978390 7.5818549112511837 Zr
atom 7.4246064243813379 2.4748687780100025 7.5818549112511837 Zr
atom 2.4748687780099972 7.4246064243813539 7.5818549112511837 Zr
atom 7.4246064017935014 7.4246064017935156 7.5818549112511837 Zr
atom 2.4748688005978323 2.4748688005978390 -0.1038607818795258 S
atom 7.4246064243813379 2.4748687780100025 -0.1038607818795258 S
atom 2.4748687780099972 7.4246064243813539 -0.1038607818795258 S
atom 7.4246064017935014 7.4246064017935156 -0.1038607818795258 S
atom 2.4748688005978323 2.4748688005978390 5.0442612171859578 S
atom 7.4246064243813379 2.4748687780100025 5.0442612171859578 S
atom 2.4748687780099972 7.4246064243813539 5.0442612171859578 S
atom 7.4246064017935014 7.4246064017935156 5.0442612171859578 S
atom 2.0446715596494895 0.0000000921017196 2.5337787064662716 S
atom 7.8548036879175065 -0.0000001372773889 2.5337787064662716 S
atom 2.9050660415461795 4.9497375090939606 2.5337787064662716 S
atom 6.9944091608451702 4.9497376932973980 2.5337787064662716 S
atom 3.0113592248738383 -0.0000000515153748 7.6040329408591774 S
atom 6.8881160226931692 0.0000000063397046 7.6040329408591774 S
atom 1.9383783763218314 4.9497376527110495 7.6040329408591774 S
atom 7.9610968260695048 4.9497375496803029 7.6040329408591774 S
atom -0.0000001146895543 2.9050660641340169 2.5337787064662716 S
atom 4.9497377158852167 2.0446715370616593 2.5337787064662716 S
atom 0.0000000695138839 6.9944091834330147 2.5337787064662716 S
atom 4.9497374865061134 7.8548036653296860 2.5337787064662716 S
atom 0.0000000289275397 1.9383783989096670 7.6040329408591774 S
atom 4.9497375722681269 3.0113592022860107 7.6040329408591774 S
atom -0.0000000741032099 7.9610968486573590 7.6040329408591774 S
atom 4.9497376301232103 6.8881160001053487 7.6040329408591774 S
atom 0.0000000000000000 0.0000000000000000 10.1585296674922922 Ba
atom 4.9497376237835029 -0.0000000225878351 10.1585296674922922 Ba
atom -0.0000000225878351 4.9497376237835100 10.1585296674922922 Ba
atom 4.9497376011956646 4.9497376011956780 10.1585296674922922 Ba
atom 0.0000000000000000 0.0000000000000000 15.2659208352223708 Ba
atom 4.9497376237835029 -0.0000000225878351 15.2659208352223708 Ba
atom -0.0000000225878351 4.9497376237835100 15.2659208352223708 Ba
atom 4.9497376011956646 4.9497376011956780 15.2659208352223708 Ba
atom 2.4748688005978323 2.4748688005978390 12.7010212907692246 Zr
atom 7.4246064243813379 2.4748687780100025 12.7010212907692246 Zr
atom 2.4748687780099972 7.4246064243813539 12.7010212907692246 Zr
atom 7.4246064017935014 7.4246064017935156 12.7010212907692246 Zr
atom 2.4748688005978323 2.4748688005978390 17.8196823381865599 Zr
atom 7.4246064243813379 2.4748687780100025 17.8196823381865599 Zr
atom 2.4748687780099972 7.4246064243813539 17.8196823381865599 Zr
atom 7.4246064017935014 7.4246064017935156 17.8196823381865599 Zr
atom 2.4748688005978323 2.4748688005978390 10.1537047289582336 S
atom 7.4246064243813379 2.4748687780100025 10.1537047289582336 S
atom 2.4748687780099972 7.4246064243813539 10.1537047289582336 S
atom 7.4246064017935014 7.4246064017935156 10.1537047289582336 S
atom 2.4748688005978323 2.4748688005978390 15.2642337206182788 S
atom 7.4246064243813379 2.4748687780100025 15.2642337206182788 S
atom 2.4748687780099972 7.4246064243813539 15.2642337206182788 S
atom 7.4246064017935014 7.4246064017935156 15.2642337206182788 S
atom 1.9392660248544016 -0.0000000145569938 12.7132548490288340 S
atom 7.9602092227125976 -0.0000000306186755 12.7132548490288340 S
atom 3.0104715763412679 4.9497376157526718 12.7132548490288340 S
atom 6.8890036260500658 4.9497375866386815 12.7132548490288340 S
atom 3.0104215131675112 -0.0000000101450457 17.8196823381865599 S
atom 6.8890537343994938 -0.0000000350306245 17.8196823381865599 S
atom 1.9393160880281577 4.9497376113407183 17.8196823381865599 S
atom 7.9601591143631811 4.9497375910506349 17.8196823381865599 S
atom -0.0000000080308408 3.0104715989291067 12.7132548490288340 S
atom 4.9497376092265091 1.9392660022665695 12.7132548490288340 S
atom -0.0000000371448295 6.8890036486379147 12.7132548490288340 S
atom 4.9497375931648246 7.9602092001247833 12.7132548490288340 S
atom -0.0000000124427894 1.9393161106159957 17.8196823381865599 S
atom 4.9497376136384625 3.0104214905796858 17.8196823381865599 S
atom -0.0000000327328807 7.9601591369510292 17.8196823381865599 S
atom 4.9497375887528765 6.8890537118116768 17.8196823381865599 S
atom 0.0000000000000000 0.0000000000000000 20.3734438411507632 Ba
atom 4.9497376237835029 -0.0000000225878351 20.3734438411507632 Ba
atom -0.0000000225878351 4.9497376237835100 20.3734438411507632 Ba
atom 4.9497376011956646 4.9497376011956780 20.3734438411507632 Ba
atom 0.0000000000000000 0.0000000000000000 25.4808350088808417 Ba
atom 4.9497376237835029 -0.0000000225878351 25.4808350088808417 Ba
atom -0.0000000225878351 4.9497376237835100 25.4808350088808417 Ba
atom 4.9497376011956646 4.9497376011956780 25.4808350088808417 Ba
atom 2.4748688005978323 2.4748688005978390 22.9383433856039147 Zr
atom 7.4246064243813379 2.4748687780100025 22.9383433856039147 Zr
atom 2.4748687780099972 7.4246064243813539 22.9383433856039147 Zr
atom 7.4246064017935014 7.4246064017935156 22.9383433856039147 Zr
atom 2.4748688005978323 2.4748688005978390 28.0575097651219281 Zr
atom 7.4246064243813379 2.4748687780100025 28.0575097651219281 Zr
atom 2.4748687780099972 7.4246064243813539 28.0575097651219281 Zr
atom 7.4246064017935014 7.4246064017935156 28.0575097651219281 Zr
atom 2.4748688005978323 2.4748688005978390 20.3751309557548055 S
atom 7.4246064243813379 2.4748687780100025 20.3751309557548055 S
atom 2.4748687780099972 7.4246064243813539 20.3751309557548055 S
atom 7.4246064017935014 7.4246064017935156 20.3751309557548055 S
atom 2.4748688005978323 2.4748688005978390 25.4856599474148879 S
atom 7.4246064243813379 2.4748687780100025 25.4856599474148879 S
atom 2.4748687780099972 7.4246064243813539 25.4856599474148879 S
atom 7.4246064017935014 7.4246064017935156 25.4856599474148879 S
atom 1.9392660248544016 -0.0000000145569938 22.9261098273443089 S
atom 7.9602092227125976 -0.0000000306186755 22.9261098273443089 S
atom 3.0104715763412679 4.9497376157526718 22.9261098273443089 S
atom 6.8890036260500658 4.9497375866386815 22.9261098273443089 S
atom 3.0113592248738383 -0.0000000515153748 28.0353317355139531 S
atom 6.8881160226931692 0.0000000063397046 28.0353317355139531 S
atom 1.9383783763218314 4.9497376527110495 28.0353317355139531 S
atom 7.9610968260695048 4.9497375496803029 28.0353317355139531 S
atom -0.0000000080308408 3.0104715989291067 22.9261098273443089 S
atom 4.9497376092265091 1.9392660022665700 22.9261098273443089 S
atom -0.0000000371448295 6.8890036486379147 22.9261098273443089 S
atom 4.9497375931648246 7.9602092001247833 22.9261098273443089 S
atom 0.0000000289275397 1.9383783989096670 28.0353317355139531 S
atom 4.9497375722681269 3.0113592022860107 28.0353317355139531 S
atom -0.0000000741032099 7.9610968486573590 28.0353317355139531 S
atom 4.9497376301232103 6.8881160001053487 28.0353317355139531 S
atom 0.0000000000000000 -0.0000000000000000 30.5689374002369370 Ba
atom 4.9497376237835029 -0.0000000225878351 30.5689374002369370 Ba
atom -0.0000000225878351 4.9497376237835100 30.5689374002369370 Ba
atom 4.9497376011956646 4.9497376011956780 30.5689374002369370 Ba
atom -0.0000000000000000 0.0000000000000000 35.4780494428070199 Ba
atom 4.9497376237835029 -0.0000000225878351 35.4780494428070199 Ba
atom -0.0000000225878351 4.9497376237835100 35.4780494428070199 Ba
atom 4.9497376011956646 4.9497376011956780 35.4780494428070199 Ba
atom 2.4748688005978323 2.4748688005978390 33.1996426912316522 Zr
atom 7.4246064243813379 2.4748687780100025 33.1996426912316522 Zr
atom 2.4748687780099972 7.4246064243813539 33.1996426912316522 Zr
atom 7.4246064017935014 7.4246064017935156 33.1996426912316522 Zr
atom 2.4748688005978323 2.4748688005978390 30.5951034591871860 S
atom 7.4246064243813379 2.4748687780100025 30.5951034591871860 S
atom 2.4748687780099972 7.4246064243813539 30.5951034591871860 S
atom 7.4246064017935014 7.4246064017935156 30.5951034591871860 S
atom 2.4748688005978323 2.4748688005978390 35.7432254582526667 S
atom 7.4246064243813379 2.4748687780100025 35.7432254582526667 S
atom 2.4748687780099972 7.4246064243813539 35.7432254582526667 S
atom 7.4246064017935014 7.4246064017935156 35.7432254582526667 S
atom 2.0446715596494895 0.0000000921017196 33.1055859699068336 S
atom 7.8548036879175065 -0.0000001372773889 33.1055859699068336 S
atom 2.9050660415461795 4.9497375090939606 33.1055859699068336 S
atom 6.9944091608451702 4.9497376932973980 33.1055859699068336 S
atom -0.0000001146895543 2.9050660641340169 33.1055859699068336 S
atom 4.9497377158852167 2.0446715370616593 33.1055859699068336 S
atom 0.0000000695138839 6.9944091834330147 33.1055859699068336 S
atom 4.9497374865061134 7.8548036653296860 33.1055859699068336 S
atom 2.4748688005978323 2.4748688005978390 38.8554777037663328 Ba
atom 7.4246064243813379 2.4748687780100025 38.8554777037663328 Ba
atom 2.4748687780099972 7.4246064243813539 38.8554777037663328 Ba
atom 7.4246064017935014 7.4246064017935156 38.8554777037663328 Ba
atom 2.4748688005978323 2.4748688005978390 43.7646173010288209 Ba
atom 7.4246064243813379 2.4748687780100025 43.7646173010288209 Ba
atom 2.4748687780099972 7.4246064243813539 43.7646173010288209 Ba
atom 7.4246064017935014 7.4246064017935156 43.7646173010288209 Ba
atom 4.9497376011956646 4.9497376011956780 41.1339047634986557 Zr
atom 9.8994752249791667 4.9497375786078432 41.1339047634986557 Zr
atom 4.9497375786078388 9.8994752249791915 41.1339047634986557 Zr
atom 9.8994752023913293 9.8994752023913559 41.1339047634986557 Zr
atom 4.9497376011956646 4.9497376011956780 46.2760256197731437 Zr
atom 9.8994752249791667 4.9497375786078432 46.2760256197731437 Zr
atom 4.9497375786078388 9.8994752249791915 46.2760256197731437 Zr
atom 9.8994752023913293 9.8994752023913559 46.2760256197731437 Zr
atom 4.9497376011956646 4.9497376011956780 38.5903228490015024 S
atom 9.8994752249791667 4.9497375786078432 38.5903228490015024 S
atom 4.9497375786078388 9.8994752249791915 38.5903228490015024 S
atom 9.8994752023913293 9.8994752023913559 38.5903228490015024 S
atom 4.9497376011956646 4.9497376011956780 43.7384365705758142 S
atom 9.8994752249791667 4.9497375786078432 43.7384365705758142 S
atom 4.9497375786078388 9.8994752249791915 43.7384365705758142 S
atom 9.8994752023913293 9.8994752023913559 43.7384365705758142 S
atom 4.5194611264360658 2.4748688429765338 41.2279709135124932 S
atom 10.3297517223265967 2.4748687130434726 41.2279709135124932 S
atom 5.3800140759552644 7.4246063594148284 41.2279709135124932 S
atom 9.4691987276317260 7.4246064441722055 41.2279709135124932 S
atom 5.4862048309791076 2.4748687541958234 46.2982072569503913 S
atom 9.3630080177835620 2.4748688018241829 46.2982072569503913 S
atom 4.4132703714122270 7.4246064481955250 46.2982072569503913 S
atom 10.4359424321747927 7.4246063553915000 46.2982072569503913 S
atom 2.4748687356313073 5.3800140985431044 41.2279709135124932 S
atom 7.4246064667600251 4.5194611038482506 41.2279709135124932 S
atom 2.4748688203886906 9.4691987502195918 41.2279709135124932 S
atom 7.4246063368269750 10.3297516997387877 41.2279709135124932 S
atom 2.4748688244120132 4.4132703940000724 46.2982072569503913 S
atom 7.4246063779793188 5.4862048083912818 46.2982072569503913 S
atom 2.4748687316079865 10.4359424547626514 46.2982072569503913 S
atom 7.4246064256076751 9.3630079951957370 46.2982072569503913 S
atom 2.4748688005978323 2.4748688005978390 48.8526858210121731 Ba
atom 7.4246064243813379 2.4748687780100025 48.8526858210121731 Ba
atom 2.4748687780099972 7.4246064243813539 48.8526858210121731 Ba
atom 7.4246064017935014 7.4246064017935156 48.8526858210121731 Ba
atom 2.4748688005978323 2.4748688005978390 53.9600946165277122 Ba
atom 7.4246064243813379 2.4748687780100025 53.9600946165277122 Ba
atom 2.4748687780099972 7.4246064243813539 53.9600946165277122 Ba
atom 7.4246064017935014 7.4246064017935156 53.9600946165277122 Ba
atom 4.9497376011956646 4.9497376011956780 51.3951741059123179 Zr
atom 9.8994752249791667 4.9497375786078432 51.3951741059123179 Zr
atom 4.9497375786078388 9.8994752249791915 51.3951741059123179 Zr
atom 9.8994752023913293 9.8994752023913559 51.3951741059123179 Zr
atom 4.9497376011956646 4.9497376011956780 56.5138497011060039 Zr
atom 9.8994752249791667 4.9497375786078432 56.5138497011060039 Zr
atom 4.9497375786078388 9.8994752249791915 56.5138497011060039 Zr
atom 9.8994752023913293 9.8994752023913559 56.5138497011060039 Zr
atom 4.9497376011956646 4.9497376011956780 48.8478540100064151 S
atom 9.8994752249791667 4.9497375786078432 48.8478540100064151 S
atom 4.9497375786078388 9.8994752249791915 48.8478540100064151 S
atom 9.8994752023913293 9.8994752023913559 48.8478540100064151 S
atom 4.9497376011956646 4.9497376011956780 53.9583930802144778 S
atom 9.8994752249791667 4.9497375786078432 53.9583930802144778 S
atom 4.9497375786078388 9.8994752249791915 53.9583930802144778 S
atom 9.8994752023913293 9.8994752023913559 53.9583930802144778 S
atom 4.4141659441135284 2.4748687860875740 51.4073987302265465 S
atom 10.4350469046491430 2.4748687699324301 51.4073987302265465 S
atom 5.4853092582778054 7.4246064163037735 51.4073987302265465 S
atom 9.3639035453092134 7.4246063872832586 51.4073987302265465 S
atom 5.4852160859999106 2.4748687904182587 56.5138497011060039 S
atom 9.3639967627627758 2.4748687656017467 56.5138497011060039 S
atom 4.4142591163914284 7.4246064119731034 56.5138497011060039 S
atom 10.4349536871955788 7.4246063916139287 56.5138497011060039 S
atom 2.4748687925202622 5.4853092808656552 51.4073987302265465 S
atom 7.4246064098710791 4.4141659215256990 51.4073987302265465 S
atom 2.4748687634997331 9.3639035678970490 51.4073987302265465 S
atom 7.4246063937159335 10.4350468820613269 51.4073987302265465 S
atom 2.4748687881895775 4.4142591389792729 56.5138497011060039 S
atom 7.4246064142017483 5.4852160634120839 56.5138497011060039 S
atom 2.4748687678304182 10.4349537097834109 56.5138497011060039 S
atom 7.4246063893852527 9.3639967401749544 56.5138497011060039 S
atom 2.4748688005978323 2.4748688005978390 59.0676047856841677 Ba
atom 7.4246064243813379 2.4748687780100025 59.0676047856841677 Ba
atom 2.4748687780099972 7.4246064243813539 59.0676047856841677 Ba
atom 7.4246064017935014 7.4246064017935156 59.0676047856841677 Ba
atom 2.4748688005978323 2.4748688005978390 64.1750135811997637 Ba
atom 7.4246064243813379 2.4748687780100025 64.1750135811997637 Ba
atom 2.4748687780099972 7.4246064243813539 64.1750135811997637 Ba
atom 7.4246064017935014 7.4246064017935156 64.1750135811997637 Ba
atom 4.9497376011956646 4.9497376011956780 61.6325252962995975 Zr
atom 9.8994752249791667 4.9497375786078432 61.6325252962995975 Zr
atom 4.9497375786078388 9.8994752249791915 61.6325252962995975 Zr
atom 9.8994752023913293 9.8994752023913559 61.6325252962995975 Zr
atom 4.9497376011956646 4.9497376011956780 66.7516737824386439 Zr
atom 9.8994752249791667 4.9497375786078432 66.7516737824386439 Zr
atom 4.9497375786078388 9.8994752249791915 66.7516737824386439 Zr
atom 9.8994752023913293 9.8994752023913559 66.7516737824386439 Zr
atom 4.9497376011956646 4.9497376011956780 59.0693063219973453 S
atom 9.8994752249791667 4.9497375786078432 59.0693063219973453 S
atom 4.9497375786078388 9.8994752249791915 59.0693063219973453 S
atom 9.8994752023913293 9.8994752023913559 59.0693063219973453 S
atom 4.9497376011956646 4.9497376011956780 64.1798453922055785 S
atom 9.8994752249791667 4.9497375786078432 64.1798453922055785 S
atom 4.9497375786078388 9.8994752249791915 64.1798453922055785 S
atom 9.8994752023913293 9.8994752023913559 64.1798453922055785 S
atom 4.4141659441135284 2.4748687860875740 61.6203006719853050 S
atom 10.4350469046491430 2.4748687699324301 61.6203006719853050 S
atom 5.4853092582778054 7.4246064163037735 61.6203006719853050 S
atom 9.3639035453092134 7.4246063872832586 61.6203006719853050 S
atom 5.4862048309791076 2.4748687541958234 66.7294921452614318 S
atom 9.3630080177835620 2.4748688018241829 66.7294921452614318 S
atom 4.4132703714122270 7.4246064481955250 66.7294921452614318 S
atom 10.4359424321747927 7.4246063553915000 66.7294921452614318 S
atom 2.4748687925202622 5.4853092808656552 61.6203006719853050 S
atom 7.4246064098710791 4.4141659215256990 61.6203006719853050 S
atom 2.4748687634997331 9.3639035678970490 61.6203006719853050 S
atom 7.4246063937159335 10.4350468820613269 61.6203006719853050 S
atom 2.4748688244120132 4.4132703940000724 66.7294921452614318 S
atom 7.4246063779793188 5.4862048083912818 66.7294921452614318 S
atom 2.4748687316079865 10.4359424547626514 66.7294921452614318 S
atom 7.4246064256076751 9.3630079951957370 66.7294921452614318 S
atom 2.4748688005978323 2.4748688005978390 69.2630821011831301 Ba
atom 7.4246064243813379 2.4748687780100025 69.2630821011831301 Ba
atom 2.4748687780099972 7.4246064243813539 69.2630821011831301 Ba
atom 7.4246064017935014 7.4246064017935156 69.2630821011831301 Ba
atom 2.4748688005978323 2.4748688005978390 74.1722216984455400 Ba
atom 7.4246064243813379 2.4748687780100025 74.1722216984455400 Ba
atom 2.4748687780099972 7.4246064243813539 74.1722216984455400 Ba
atom 7.4246064017935014 7.4246064017935156 74.1722216984455400 Ba
atom 4.9497376011956646 4.9497376011956780 71.8937946387132740 Zr
atom 9.8994752249791667 4.9497375786078432 71.8937946387132740 Zr
atom 4.9497375786078388 9.8994752249791915 71.8937946387132740 Zr
atom 9.8994752023913293 9.8994752023913559 71.8937946387132740 Zr
atom 4.9497376011956646 4.9497376011956780 69.2892628316362504 S
atom 9.8994752249791667 4.9497375786078432 69.2892628316362504 S
atom 4.9497375786078388 9.8994752249791915 69.2892628316362504 S
atom 9.8994752023913293 9.8994752023913559 69.2892628316362504 S
atom 4.9497376011956646 4.9497376011956780 74.4373765532103846 S
atom 9.8994752249791667 4.9497375786078432 74.4373765532103846 S
atom 4.9497375786078388 9.8994752249791915 74.4373765532103846 S
atom 9.8994752023913293 9.8994752023913559 74.4373765532103846 S
atom 4.5194611264360658 2.4748688429765338 71.7997284886993725 S
atom 10.3297517223265967 2.4748687130434726 71.7997284886993725 S
atom 5.3800140759552644 7.4246063594148284 71.7997284886993725 S
atom 9.4691987276317260 7.4246064441722055 71.7997284886993725 S
atom 2.4748687356313073 5.3800140985431044 71.7997284886993725 S
atom 7.4246064667600251 4.5194611038482506 71.7997284886993725 S
atom 2.4748688203886906 9.4691987502195918 71.7997284886993725 S
atom 7.4246063368269750 10.3297516997387877 71.7997284886993725 S
