#=======================================================
# FHI-aims file: sym_relax/sym_relax_RP_8_RxRyRz_RxRy-Rz.in
# Created using the Atomic Simulation Environment (ASE)
# Mon Mar 17 16:19:05 2025
#=======================================================
lattice_vector 9.9499083974093114 -0.0030583683520058 0.0000000000000000 
lattice_vector -0.0030583683520056 9.9499083974092759 -0.0000000000000000 
lattice_vector -0.0000000000000000 -0.0000000000000000 86.9479159404651938 
atom 0.0683650851414562 -0.1113602783096806 0.1915102561412219 Ba
atom 5.0863144770143309 -0.0698942693174588 0.1915102561412219 Ba
atom 0.1098310941336787 4.9065891135631965 0.1915102561412219 Ba
atom 5.0417900996700968 4.8620647362189731 0.1915102561412218 Ba
atom -0.2624890554342036 0.2005754198727064 5.0172729696593228 Ba
atom 4.7743787788319452 0.2609598712582004 5.0172729696593228 Ba
atom -0.2021046040487096 5.2374432541388698 5.0172729696593228 Ba
atom 4.7109359590944377 5.1740004344013615 5.0172729696593228 Ba
atom 2.4652461114104134 2.5185700956095785 2.3946295094640639 Zr
atom 7.4298091176237318 2.5066497189422368 2.3946295094640639 Zr
atom 2.4533257347430748 7.4831331018229017 2.3946295094640639 Zr
atom 7.4386711259390674 7.4919951101382196 2.3946295094640639 Zr
atom 2.4081019248371409 2.5288149611871571 7.4863894366212378 Zr
atom 7.4195642520461433 2.5637939055155066 7.4863894366212378 Zr
atom 2.4430808691654899 7.5402772883961671 7.4863894366212378 Zr
atom 7.3815269393657923 7.5022399757158160 7.4863894366212378 Zr
atom 2.6200123594333165 2.7417163599924406 -0.1216406858648854 S
atom 7.2066628532408670 2.3518834709193341 -0.1216406858648854 S
atom 2.2301794703602065 7.3283668537999960 -0.1216406858648854 S
atom 7.5934373739619572 7.7151413745210862 -0.1216406858648854 S
atom 2.2369188812208720 2.2894572744202373 4.9748085826248136 S
atom 7.6589219388130712 2.7349769491317777 4.9748085826248136 S
atom 2.6824385559324102 7.7114603320124369 4.9748085826248136 S
atom 7.2103438957495296 7.2628822889488811 4.9748085826248136 S
atom 2.7533601007794704 0.0370155595918542 2.2578895608931662 S
atom 7.0804580582372116 0.0386707444713830 2.7380845877086775 S
atom 2.1039746753565578 5.0151541273520408 2.7380845877086775 S
atom 7.7267851153081324 5.0104405741205014 2.2578895608931662 S
atom 2.9304974313536611 0.0469003925180895 7.7042755690326556 S
atom 6.9690059806737272 0.0463422958057207 7.3166641870209101 S
atom 1.9925225977930712 5.0228256786863748 7.3166641870209101 S
atom 7.9039224458823014 5.0203254070467462 7.7042755690326556 S
atom -0.0385447437678568 2.2215940979251849 2.2578895608931662 S
atom 4.9332250858812632 2.8679211549960879 2.7380845877086775 S
atom -0.0432582969993928 7.8444045378767351 2.7380845877086775 S
atom 4.9348802707608019 7.1950191124538243 2.2578895608931662 S
atom -0.0484295766940923 2.0444567673509990 7.7042755690326556 S
atom 4.9255535345469124 2.9793732325595714 7.3166641870209101 S
atom -0.0509298483337297 7.9558566154402399 7.3166641870209101 S
atom 4.9249954378345686 7.0178817818796446 7.7042755690326556 S
atom 0.0006407281501169 -0.0782931241183542 10.0458632109184407 Ba
atom 5.0532473228230046 -0.0021699123261198 10.0458632109184407 Ba
atom 0.0767639399423518 4.9743134705545407 10.0458632109184407 Ba
atom 4.9740657426787607 4.8951318904103029 10.0458632109184407 Ba
atom 0.0533458610738838 0.0126652699122501 15.1284987106385458 Ba
atom 4.9622889287924021 -0.0548750452498867 15.1284987106385458 Ba
atom -0.0141944540882527 4.9216083376307713 15.1284987106385458 Ba
atom 5.0267708756025220 4.9860902844408947 15.1284987106385458 Ba
atom 2.4950792433850899 2.4900825673082441 12.5740853983175640 Zr
atom 7.4582966459250724 2.4768165869675545 12.5740853983175640 Zr
atom 2.4818132630444034 7.4532999698482110 12.5740853983175640 Zr
atom 7.4685042579137475 7.4635075818369039 12.5740853983175640 Zr
atom 2.4889252447806460 2.4848555736839346 17.6712914280044551 Zr
atom 7.4635236395493614 2.4829705855720001 17.6712914280044551 Zr
atom 2.4870402566687129 7.4594539684526593 17.6712914280044551 Zr
atom 7.4623502593092912 7.4582805882125918 17.6712914280044551 Zr
atom 2.5765191850376263 2.6639568414994304 10.0412841736914498 S
atom 7.2844223717338838 2.3953766453150225 10.0412841736914498 S
atom 2.3079389888532189 7.3718600281956865 10.0412841736914498 S
atom 7.5499441995662746 7.6373818560280782 10.0412841736914498 S
atom 2.4148454504198504 2.4439063177451090 15.1282242454587177 S
atom 7.5044728954881910 2.5570503799328006 15.1282242454587177 S
atom 2.5279895126075349 7.5335337628134695 15.1282242454587177 S
atom 7.3882704649484863 7.4173313322737666 15.1282242454587177 S
atom 1.9945799368635593 0.0040685188576723 12.5190281180871548 S
atom 7.9867240901863310 0.0035916050900914 12.6576720978898667 S
atom 3.0102407073056905 4.9800749879707444 12.6576720978898667 S
atom 6.9680049513922073 4.9774935333863217 12.5190281180871548 S
atom 3.0054550812319309 0.0006338652323072 17.7097166088330340 S
atom 6.9454151889179210 -0.0009875629494552 17.6407715125274613 S
atom 1.9689318060372578 4.9754958199311989 17.6407715125274613 S
atom 7.9788800957605677 4.9740588797609675 17.7097166088330340 S
atom -0.0055977030336749 2.9803742618410931 12.5190281180871548 S
atom 4.9683042252625489 1.9616551230469581 12.6576720978898667 S
atom -0.0081791576181013 6.9381385059276273 12.6576720978898667 S
atom 4.9678273114949638 7.9537992763697520 12.5190281180871548 S
atom -0.0021630494083102 1.9694991174727272 17.7097166088330340 S
atom 4.9728833933020997 3.0029640243153941 17.6407715125274613 S
atom -0.0035999895785539 7.9794474071960284 17.6407715125274613 S
atom 4.9712619651203358 6.9429241320013828 17.7097166088330340 S
atom -0.0201771730560695 -0.0201771730560694 20.2204455675499979 Ba
atom 4.9951313717607277 0.0186479888800664 20.2204455675499979 Ba
atom 0.0186479888800669 4.9951313717607375 20.2204455675499979 Ba
atom 4.9532478414725816 4.9532478414725762 20.2204455675499979 Ba
atom 0.0126652699122502 0.0533458610738836 25.3123924244615388 Ba
atom 4.9216083376307571 -0.0141944540882532 25.3123924244615388 Ba
atom -0.0548750452498864 4.9622889287924101 25.3123924244615388 Ba
atom 4.9860902844409081 5.0267708756025433 25.3123924244615388 Ba
atom 2.4848555736839302 2.4889252447806545 22.7695997070955976 Zr
atom 7.4594539684526477 2.4870402566687142 22.7695997070955976 Zr
atom 2.4829705855720023 7.4635236395493703 22.7695997070955976 Zr
atom 7.4582805882125882 7.4623502593092930 22.7695997070955976 Zr
atom 2.4900825673082361 2.4950792433850952 27.8668057367824815 Zr
atom 7.4532999698482154 2.4818132630444061 27.8668057367824815 Zr
atom 2.4768165869675518 7.4582966459250679 27.8668057367824815 Zr
atom 7.4635075818368808 7.4685042579137528 27.8668057367824815 Zr
atom 2.5269802731208402 2.5269802731208317 20.2204455675499979 S
atom 7.4213989401124714 2.4449155572318149 20.2204455675499979 S
atom 2.4449155572318175 7.4213989401124731 20.2204455675499979 S
atom 7.5004052876494764 7.5004052876494933 20.2204455675499979 S
atom 2.4439063177451144 2.4148454504198495 25.3126668896412710 S
atom 7.5335337628134695 2.5279895126075385 25.3126668896412710 S
atom 2.5570503799328033 7.5044728954881990 25.3126668896412710 S
atom 7.4173313322737657 7.3882704649484934 25.3126668896412710 S
atom 1.9694991174727237 -0.0021630494083103 22.7311745262669547 S
atom 7.9794474071960382 -0.0035999895785544 22.8001196225725806 S
atom 3.0029640243153870 4.9728833933021033 22.8001196225725806 S
atom 6.9429241320013899 4.9712619651203394 22.7311745262669547 S
atom 2.9803742618410936 -0.0055977030336753 27.9218630170128534 S
atom 6.9381385059276273 -0.0081791576181010 27.7832190372101913 S
atom 1.9616551230469557 4.9683042252625604 27.7832190372101913 S
atom 7.9537992763697440 4.9678273114949727 27.9218630170128534 S
atom 0.0006338652323076 3.0054550812319292 22.7311745262669547 S
atom 4.9754958199311998 1.9689318060372607 22.8001196225725806 S
atom -0.0009875629494556 6.9454151889179352 22.8001196225725806 S
atom 4.9740588797609622 7.9788800957605694 22.7311745262669547 S
atom 0.0040685188576724 1.9945799368635639 27.9218630170128534 S
atom 4.9800749879707444 3.0102407073056892 27.7832190372101913 S
atom 0.0035916050900917 7.9867240901863514 27.7832190372101913 S
atom 4.9774935333863350 6.9680049513922073 27.9218630170128534 S
atom -0.0782931241183545 0.0006407281501169 30.3950279241816261 Ba
atom 4.9743134705545531 0.0767639399423511 30.3950279241816261 Ba
atom -0.0021699123261194 5.0532473228230064 30.3950279241816261 Ba
atom 4.8951318904103065 4.9740657426787607 30.3950279241816261 Ba
atom 0.2005754198727073 -0.2624890554342039 35.4236181654406792 Ba
atom 5.2374432541388671 -0.2021046040487095 35.4236181654406792 Ba
atom 0.2609598712582010 4.7743787788319523 35.4236181654406792 Ba
atom 5.1740004344013499 4.7109359590944502 35.4236181654406792 Ba
atom 2.5288149611871535 2.4081019248371383 32.9545016984787509 Zr
atom 7.5402772883961866 2.4430808691654904 32.9545016984787509 Zr
atom 2.5637939055155061 7.4195642520461487 32.9545016984787509 Zr
atom 7.5022399757158169 7.3815269393657887 32.9545016984787509 Zr
atom 2.5185700956095731 2.4652461114104094 38.0462616256360064 Zr
atom 7.4831331018228795 2.4533257347430708 38.0462616256360064 Zr
atom 2.5066497189422279 7.4298091176237415 38.0462616256360064 Zr
atom 7.4919951101382116 7.4386711259390541 38.0462616256360064 Zr
atom 2.6639568414994286 2.5765191850376290 30.3996069614086153 S
atom 7.3718600281956839 2.3079389888532180 30.3996069614086153 S
atom 2.3953766453150185 7.2844223717338776 30.3996069614086153 S
atom 7.6373818560280728 7.5499441995662702 30.3996069614086224 S
atom 2.2894572744202395 2.2369188812208747 35.4660825524752212 S
atom 7.7114603320124404 2.6824385559324089 35.4660825524752212 S
atom 2.7349769491317741 7.6589219388130854 35.4660825524752212 S
atom 7.2628822889488855 7.2103438957495296 35.4660825524752212 S
atom 2.0444567673510003 -0.0484295766940924 32.7366155660673854 S
atom 7.9558566154402444 -0.0509298483337301 33.1242269480791833 S
atom 2.9793732325595705 4.9255535345469248 33.1242269480791833 S
atom 7.0178817818796499 4.9249954378345642 32.7366155660673854 S
atom 2.2215940979251818 -0.0385447437678572 38.1830015742068127 S
atom 7.8444045378767333 -0.0432582969993927 37.7028065473913756 S
atom 2.8679211549960808 4.9332250858812685 37.7028065473913756 S
atom 7.1950191124538216 4.9348802707608019 38.1830015742068127 S
atom 0.0469003925180897 2.9304974313536518 32.7366155660673854 S
atom 5.0228256786863721 1.9925225977930714 33.1242269480791833 S
atom 0.0463422958057200 6.9690059806737343 33.1242269480791833 S
atom 5.0203254070467391 7.9039224458823147 32.7366155660673854 S
atom 0.0370155595918542 2.7533601007794672 38.1830015742068127 S
atom 5.0151541273520328 2.1039746753565653 37.7028065473913756 S
atom 0.0386707444713834 7.0804580582372321 37.7028065473913756 S
atom 5.0104405741204996 7.7267851153081359 38.1830015742068127 S
atom -0.1113602783096809 0.0683650851414557 40.2493808789589167 Ba
atom 4.9065891135631992 0.1098310941336776 40.2493808789589167 Ba
atom -0.0698942693174589 5.0863144770143425 40.2493808789589167 Ba
atom 4.8620647362189748 5.0417900996701119 40.2493808789589167 Ba
atom 2.7417163599924388 2.6200123594333138 40.5625318209649279 S
atom 7.3283668537999942 2.2301794703602109 40.5625318209649279 S
atom 2.3518834709193377 7.2066628532408652 40.5625318209649279 S
atom 7.7151413745210835 7.5934373739619669 40.5625318209649279 S
atom 2.3753522289546498 2.5550775924057829 43.6654682263737115 Ba
atom 7.3933016208275193 2.5965436013980021 43.6654682263737115 Ba
atom 2.4168182379468655 7.5730269842786537 43.6654682263737115 Ba
atom 7.3487772434832879 7.5285026069344347 43.6654682263737115 Ba
atom 2.6872879271370342 2.2242234518301185 48.4912309398918566 Ba
atom 7.7241557614031953 2.2846079032156146 48.4912309398918566 Ba
atom 2.7476723785225290 7.2610912860962795 48.4912309398918566 Ba
atom 7.6607129416656896 7.1976484663587703 48.4912309398918566 Ba
atom 5.0052826028738950 4.9519586186747402 45.8685874796966289 Zr
atom 9.9698456090872281 4.9400382420074127 45.8685874796966289 Zr
atom 4.9933622262065587 9.9165216248880803 45.8685874796966289 Zr
atom 9.9787076174025469 9.9253836332033849 45.8685874796966289 Zr
atom 5.0155274684514781 4.8948144321014615 50.9603474068537849 Zr
atom 10.0269897956605014 4.9297933764298163 50.9603474068537849 Zr
atom 5.0505064127798400 9.9062767593104883 50.9603474068537849 Zr
atom 9.9889524829801015 9.8682394466301204 50.9603474068537849 Zr
atom 5.2284288672567518 5.1067248666976361 43.3523172843676221 S
atom 9.8150793610643046 4.7168919776245364 43.3523172843676221 S
atom 4.8385959781836565 9.6933753605051685 43.3523172843676221 S
atom 10.2018538817854125 10.0801498812263013 43.3523172843676221 S
atom 4.7761697816845627 4.7236313884851988 48.4487665528574425 S
atom 10.1981728392767774 5.1691510631967530 48.4487665528574425 S
atom 5.2216894563961027 10.1456344460774108 48.4487665528574425 S
atom 9.7495947962132110 9.6970564030138355 48.4487665528574425 S
atom 4.7083066051895024 2.4481677634964694 45.7318475311257089 S
atom 10.3311170451410685 2.4434542102649344 46.2120425579412100 S
atom 5.3546336622604134 7.4199375931455851 46.2120425579412100 S
atom 9.6817316197181320 7.4215927780251159 45.7318475311257089 S
atom 4.5311692746153209 2.4382829305702387 51.1782335392651575 S
atom 10.4425691227045441 2.4357826589306000 50.7906221572534378 S
atom 5.4660857398239067 7.4122660418112583 50.7906221572534378 S
atom 9.5045942891439843 7.4117079450988816 51.1782335392651575 S
atom 2.5237280668561839 5.2400726080437980 45.7318475311257089 S
atom 7.5018666346163698 4.5906871826209041 46.2120425579412100 S
atom 2.5253832517357129 9.5671705655015398 46.2120425579412100 S
atom 7.4971530813848339 10.2134976225724472 45.7318475311257089 S
atom 2.5336128997824083 5.4172099386179893 51.1782335392651575 S
atom 7.5095381859507047 4.4792351050573851 50.7906221572534378 S
atom 2.5330548030700415 9.4557184879380571 50.7906221572534378 S
atom 7.5070379143110690 10.3906349531466251 51.1782335392651575 S
atom 2.4084193831459699 2.4873532354144459 53.5198211811509807 Ba
atom 7.4610259778188688 2.5634764472066767 53.5198211811509807 Ba
atom 2.4845425949382034 7.5399598300873354 53.5198211811509807 Ba
atom 7.3818443976746204 7.4607782499430959 53.5198211811509807 Ba
atom 2.4993777771765791 2.5400583683382107 58.6024566808711072 Ba
atom 7.4083208448950897 2.4725180531760720 58.6024566808711072 Ba
atom 2.4318374620144421 7.4490014360567365 58.6024566808711072 Ba
atom 7.4728027917052104 7.5134833828668670 58.6024566808711072 Ba
atom 4.9767950745725642 4.9817917506494176 56.0480433685501325 Zr
atom 9.9400124771125444 4.9685257703087347 56.0480433685501325 Zr
atom 4.9635290942318813 9.9450091531893854 56.0480433685501325 Zr
atom 9.9502200891012329 9.9552167651780703 56.0480433685501325 Zr
atom 4.9715680809482521 4.9756377520449773 61.1452493982370413 Zr
atom 9.9461664757169892 4.9737527639330361 61.1452493982370413 Zr
atom 4.9696830928363305 9.9502361468137082 61.1452493982370413 Zr
atom 9.9449930954769155 9.9490627665736149 61.1452493982370413 Zr
atom 5.1506693487637483 5.0632316923019571 53.5152421439239632 S
atom 9.8585725354600040 4.7946514961175364 53.5152421439239632 S
atom 4.8820891525793533 9.7711348789982058 53.5152421439239632 S
atom 10.1240943632923805 10.0366567068306036 53.5152421439239632 S
atom 4.9306188250094287 4.9015579576841732 58.6021822156913004 S
atom 10.0202462700777932 5.0147020198718675 58.6021822156913004 S
atom 5.0437628871971336 9.9911854027525280 58.6021822156913004 S
atom 9.9040438395380903 9.8749829722128215 58.6021822156913004 S
atom 5.4670867691054275 2.4811148042306463 55.9929860883196611 S
atom 9.4248510131919545 2.4785333496462250 56.1316300681224121 S
atom 4.4483676303112833 7.4550167325268903 56.1316300681224121 S
atom 10.4405117836340491 7.4545398187593079 55.9929860883196611 S
atom 4.4562116247370565 2.4845494578560210 61.1836745790657233 S
atom 10.4661599144603183 2.4831125176857687 61.1147294827599907 S
atom 5.4896765315797165 7.4595959005664305 61.1147294827599907 S
atom 9.4296366392656932 7.4579744723846595 61.1836745790657233 S
atom 2.4907810261220007 4.4812924441278810 55.9929860883196611 S
atom 7.4667874952350797 5.4969532145700208 56.1316300681224121 S
atom 2.4903041123544241 10.4734365974506591 56.1316300681224121 S
atom 7.4642060406506401 9.4547174586565497 55.9929860883196611 S
atom 2.4873463724966252 5.4921675884962475 61.1836745790657233 S
atom 7.4622083271955155 4.4556443133015939 61.1147294827599907 S
atom 2.4857249443148688 9.4321276961822669 61.1147294827599907 S
atom 7.4607713870253010 10.4655926030249056 61.1836745790657233 S
atom 2.4665353342082539 2.4665353342082548 63.6944035377825415 Ba
atom 7.4818438790250514 2.5053604961443940 63.6944035377825415 Ba
atom 2.5053604961443923 7.4818438790250532 63.6944035377825415 Ba
atom 7.4399603487369088 7.4399603487369017 63.6944035377825415 Ba
atom 2.5400583683382099 2.4993777771765835 68.7863503946939403 Ba
atom 7.4490014360567383 2.4318374620144416 68.7863503946939403 Ba
atom 2.4725180531760715 7.4083208448950915 68.7863503946939403 Ba
atom 7.5134833828668626 7.4728027917052193 68.7863503946939403 Ba
atom 4.9756377520449746 4.9715680809482565 66.2435576773281554 Zr
atom 9.9502361468136904 4.9696830928363314 66.2435576773281554 Zr
atom 4.9737527639330450 9.9461664757169874 66.2435576773281554 Zr
atom 9.9490627665736291 9.9449930954769332 66.2435576773281554 Zr
atom 4.9817917506494220 4.9767950745725731 71.3407637070149150 Zr
atom 9.9450091531893907 4.9635290942318813 71.3407637070149150 Zr
atom 4.9685257703087355 9.9400124771125409 71.3407637070149150 Zr
atom 9.9552167651780898 9.9502200891012187 71.3407637070149150 Zr
atom 5.0136927803851545 5.0136927803851723 63.6944035377825415 S
atom 9.9081114473768128 4.9316280644961372 63.6944035377825415 S
atom 4.9316280644961425 9.9081114473768146 63.6944035377825415 S
atom 9.9871177949138055 9.9871177949138090 63.6944035377825415 S
atom 4.9015579576841715 4.9306188250094394 68.7866248598736405 S
atom 9.9911854027525244 5.0437628871971301 68.7866248598736405 S
atom 5.0147020198718595 10.0202462700778003 68.7866248598736405 S
atom 9.8749829722127824 9.9040438395380814 68.7866248598736405 S
atom 5.4921675884962520 2.4873463724966296 66.2051324964994734 S
atom 9.4321276961822633 2.4857249443148741 66.2740775928051136 S
atom 4.4556443133015815 7.4622083271955262 66.2740775928051136 S
atom 10.4655926030249322 7.4607713870252939 66.2051324964994734 S
atom 4.4812924441278739 2.4907810261220003 71.3958209872454290 S
atom 10.4734365974506716 2.4903041123544214 71.2571770074425928 S
atom 5.4969532145700164 7.4667874952350797 71.2571770074425928 S
atom 9.4547174586565479 7.4642060406506543 71.3958209872454290 S
atom 2.4845494578560210 4.4562116247370582 66.2051324964994734 S
atom 7.4595959005664225 5.4896765315797058 66.2740775928051136 S
atom 2.4831125176857749 10.4661599144603503 66.2740775928051136 S
atom 7.4579744723846551 9.4296366392657074 66.2051324964994734 S
atom 2.4811148042306446 5.4670867691054328 71.3958209872454290 S
atom 7.4550167325268966 4.4483676303112869 71.2571770074425928 S
atom 2.4785333496462192 9.4248510131919438 71.2571770074425928 S
atom 7.4545398187592999 10.4405117836340740 71.3958209872454290 S
atom 2.4873532354144468 2.4084193831459708 73.8689858944142088 Ba
atom 7.5399598300873301 2.4845425949382025 73.8689858944142088 Ba
atom 2.5634764472066807 7.4610259778188679 73.8689858944142088 Ba
atom 7.4607782499430906 7.3818443976746204 73.8689858944142088 Ba
atom 2.2242234518301203 2.6872879271370360 78.8975761356732903 Ba
atom 7.2610912860962609 2.7476723785225299 78.8975761356732903 Ba
atom 2.2846079032156159 7.7241557614031953 78.8975761356732903 Ba
atom 7.1976484663587659 7.6607129416656825 78.8975761356732903 Ba
atom 4.8948144321014544 5.0155274684514808 76.4284596687115112 Zr
atom 9.9062767593104635 5.0505064127798498 76.4284596687115112 Zr
atom 4.9297933764298278 10.0269897956604961 76.4284596687115112 Zr
atom 9.8682394466301204 9.9889524829801335 76.4284596687115112 Zr
atom 4.9519586186747322 5.0052826028739004 81.5202195958685962 Zr
atom 9.9165216248880501 4.9933622262065711 81.5202195958685962 Zr
atom 4.9400382420074136 9.9698456090872369 81.5202195958685962 Zr
atom 9.9253836332034044 9.9787076174025575 81.5202195958685962 Zr
atom 5.0632316923019518 5.1506693487637545 73.8735649316411838 S
atom 9.7711348789981969 4.8820891525793497 73.8735649316411838 S
atom 4.7946514961175462 9.8585725354600147 73.8735649316411838 S
atom 10.0366567068306054 10.1240943632924019 73.8735649316411838 S
atom 4.7236313884851961 4.7761697816845565 78.9400405227078039 S
atom 10.1456344460773717 5.2216894563961080 78.9400405227078039 S
atom 5.1691510631967432 10.1981728392767739 78.9400405227078039 S
atom 9.6970564030138284 9.7495947962132004 78.9400405227078039 S
atom 5.4172099386179964 2.5336128997824066 76.2105735363000178 S
atom 9.4557184879380358 2.5330548030700428 76.5981849183115173 S
atom 4.4792351050573895 7.5095381859507011 76.5981849183115173 S
atom 10.3906349531466198 7.5070379143110735 76.2105735363000178 S
atom 5.2400726080438105 2.5237280668561821 81.6569595444395304 S
atom 9.5671705655015273 2.5253832517357115 81.1767645176237806 S
atom 4.5906871826208864 7.5018666346163752 81.1767645176237806 S
atom 10.2134976225724632 7.4971530813848357 81.6569595444395304 S
atom 2.4382829305702400 4.5311692746153200 76.2105735363000178 S
atom 7.4122660418112494 5.4660857398239076 76.5981849183115173 S
atom 2.4357826589305964 10.4425691227045654 76.5981849183115173 S
atom 7.4117079450988754 9.5045942891439825 76.2105735363000178 S
atom 2.4481677634964663 4.7083066051895077 81.6569595444395304 S
atom 7.4199375931455842 5.3546336622603956 81.1767645176237806 S
atom 2.4434542102649282 10.3311170451410828 81.1767645176237806 S
atom 7.4215927780251150 9.6817316197181693 81.6569595444395304 S
atom 2.5550775924057834 2.3753522289546463 83.7233388491913786 Ba
atom 7.5730269842786537 2.4168182379468646 83.7233388491913786 Ba
atom 2.5965436013980048 7.3933016208275326 83.7233388491913786 Ba
atom 7.5285026069344312 7.3487772434833021 83.7233388491913786 Ba
atom 5.1067248666976326 5.2284288672567616 84.0364897911975532 S
atom 9.6933753605051898 4.8385959781836618 84.0364897911975532 S
atom 4.7168919776245346 9.8150793610643170 84.0364897911975532 S
atom 10.0801498812262977 10.2018538817854374 84.0364897911975532 S
