#=======================================================
# FHI-aims file: sym_relax/sym_relax_RP_6_Rx0Mz_0Ry0.in
# Created using the Atomic Simulation Environment (ASE)
# Fri Mar 14 11:04:22 2025
#=======================================================
lattice_vector 10.0440745436932399 0.0000000000000000 0.0000000000000000 
lattice_vector 0.0000000000000000 10.0840976681497771 0.0000000000000000 
lattice_vector 0.0000000000000000 0.0000000000000000 65.3033198399547956 
atom -0.1697202698834901 -0.0000000000000000 0.2445820705207582 Ba
atom 5.1713203825429543 0.0000000000000000 0.2384125680955683 Ba
atom 0.1492831106963444 5.0420488340748877 0.2384125680955683 Ba
atom 4.8523170019631197 5.0420488340748877 0.2445820705207582 Ba
atom -0.0512038436894118 -0.0000000000000000 4.9472457196697004 Ba
atom 4.9214822721422982 0.0000000000000000 4.8766282246028547 Ba
atom -0.1005549997043134 5.0420488340748877 4.8766282246028547 Ba
atom 4.9708334281571975 5.0420488340748877 4.9472457196697004 Ba
atom 2.4962196755171107 2.5023479185240802 2.3000697881112679 Zr
atom 7.5182569473637182 2.5397009155508212 2.3000697881112679 Zr
atom 2.4962196755171107 7.5817497496257120 2.3000697881112679 Zr
atom 7.5182569473637182 7.5443967525989839 2.3000697881112679 Zr
atom 2.5353993460142323 2.5189604318512067 7.3409482114904456 Zr
atom 7.5574366178608496 2.5230884022236948 7.3409482114904456 Zr
atom 2.5353993460142323 7.5651372362986029 7.3409482114904456 Zr
atom 7.5574366178608496 7.5610092659260895 7.3409482114904456 Zr
atom 2.5016746680117858 2.7893995550241426 -0.1821461149550387 S
atom 7.5237119398584014 2.2526492790507540 -0.1821461149550387 S
atom 2.5016746680117858 7.2946981131256452 -0.1821461149550387 S
atom 7.5237119398584014 7.8314483890990410 -0.1821461149550387 S
atom 2.5124446645003000 2.1137400734350944 4.8578100550686818 S
atom 7.5344819363469053 2.9283087606398004 4.8578100550686818 S
atom 2.5124446645003000 7.9703575947147085 4.8578100550686818 S
atom 7.5344819363469053 7.1557889075099901 4.8578100550686818 S
atom 2.5059974264457088 0.0000000000000000 2.0423264824860614 S
atom 7.5136807037160169 -0.0000000000000000 2.7186132509999985 S
atom 2.4916434318694010 5.0420488340748877 2.7186132509999985 S
atom 7.5280346982923092 5.0420488340748877 2.0423264824860614 S
atom 2.8285388930412396 0.0000000000000000 7.7441669883551070 S
atom 7.2770659997949947 -0.0000000000000000 6.9523696132426664 S
atom 2.2550287279483907 5.0420488340748877 6.9523696132426664 S
atom 7.8505761648878494 5.0420488340748877 7.7441669883551070 S
atom -0.0116108642767615 2.5198294622412876 2.4310833853302554 S
atom 5.0104264075698532 2.5222193718336099 2.4310833853302554 S
atom -0.0116108642767615 7.5642682059085251 2.4310833853302554 S
atom 5.0104264075698532 7.5618782963161815 2.4310833853302554 S
atom 0.0228050361291152 2.2178757711574999 7.3654596923107603 S
atom 5.0448423079757267 2.8241730629174011 7.3654596923107603 S
atom 0.0228050361291152 7.8662218969923012 7.3654596923107603 S
atom 5.0448423079757267 7.2599246052323929 7.3654596923107603 S
atom 0.1713685960446375 0.0000000000000000 9.8662672519346621 Ba
atom 5.1913198592747891 -0.0000000000000000 9.8561885066306107 Ba
atom 0.1692825874281753 5.0420488340748877 9.8561885066306107 Ba
atom 5.1934058678912605 5.0420488340748877 9.8662672519346621 Ba
atom -0.1305166528969240 0.0000000000000000 14.8416635999897153 Ba
atom 4.8906988880931115 0.0000000000000000 14.8416635999897153 Ba
atom -0.1313383837535119 5.0420488340748877 14.8416635999897153 Ba
atom 4.8915206189496825 5.0420488340748877 14.8416635999897153 Ba
atom 2.5328416389470663 2.5226182674778945 12.3410631870492544 Zr
atom 7.5548789107936738 2.5194305665970025 12.3410631870492544 Zr
atom 2.5328416389470663 7.5614794006718933 12.3410631870492544 Zr
atom 7.5548789107936738 7.5646671015528000 12.3410631870492544 Zr
atom 2.5328416389470663 2.5226182674778945 17.3422640129302330 Zr
atom 7.5548789107936738 2.5194305665970025 17.3422640129302330 Zr
atom 2.5328416389470663 7.5614794006718933 17.3422640129302330 Zr
atom 7.5548789107936738 7.5646671015528000 17.3422640129302330 Zr
atom 2.5323258246513620 2.9319345916721069 9.8479001339815841 S
atom 7.5543630964979753 2.1101142424027897 9.8479001339815841 S
atom 2.5323258246513620 7.1521630764776853 9.8479001339815841 S
atom 7.5543630964979753 7.9739834257470052 9.8479001339815841 S
atom 2.5294612361124686 2.1123801372954243 14.8416635999897153 S
atom 7.5514985079591019 2.9296686967794732 14.8416635999897153 S
atom 2.5294612361124686 7.9717175308543711 14.8416635999897153 S
atom 7.5514985079591019 7.1544289713703169 14.8416635999897153 S
atom 2.8276389831659494 0.0000000000000000 11.9498412227747863 S
atom 7.2566956955748925 -0.0000000000000000 12.7453420939964310 S
atom 2.2346584237282858 5.0420488340748877 12.7453420939964310 S
atom 7.8496762550125583 5.0420488340748877 11.9498412227747863 S
atom 2.8276389831659494 -0.0000000000000000 17.7334859772046585 S
atom 7.2566956955748925 0.0000000000000000 16.9379851059830173 S
atom 2.2346584237282858 5.0420488340748877 16.9379851059830173 S
atom 7.8496762550125583 5.0420488340748877 17.7334859772046585 S
atom 0.0208037350648100 2.2092241973487421 12.3497734668327404 S
atom 5.0428410069114245 2.8328246367261567 12.3497734668327404 S
atom 0.0208037350648100 7.8748734708010630 12.3497734668327404 S
atom 5.0428410069114245 7.2512730314236347 12.3497734668327404 S
atom 0.0208037350648100 2.2092241973487421 17.3335537331467044 S
atom 5.0428410069114245 2.8328246367261567 17.3335537331467044 S
atom 0.0208037350648100 7.8748734708010630 17.3335537331467044 S
atom 5.0428410069114245 7.2512730314236347 17.3335537331467044 S
atom 0.1713685960446375 -0.0000000000000000 19.8170599480447827 Ba
atom 5.1913198592747891 0.0000000000000000 19.8271386933488678 Ba
atom 0.1692825874281755 5.0420488340748877 19.8271386933488678 Ba
atom 5.1934058678912605 5.0420488340748877 19.8170599480447827 Ba
atom -0.0512038436894118 0.0000000000000000 24.7360814803097924 Ba
atom 4.9214822721422982 0.0000000000000000 24.8066989753766016 Ba
atom -0.1005549997043134 5.0420488340748877 24.8066989753766016 Ba
atom 4.9708334281571975 5.0420488340748877 24.7360814803097924 Ba
atom 2.5353993460142323 2.5189604318512067 22.3423789884889992 Zr
atom 7.5574366178608496 2.5230884022236948 22.3423789884889992 Zr
atom 2.5353993460142323 7.5651372362986029 22.3423789884889992 Zr
atom 7.5574366178608496 7.5610092659260895 22.3423789884889992 Zr
atom 2.4962196755171107 2.5023479185240802 27.3832574118682039 Zr
atom 7.5182569473637182 2.5397009155508212 27.3832574118682039 Zr
atom 2.4962196755171107 7.5817497496257120 27.3832574118682039 Zr
atom 7.5182569473637182 7.5443967525989839 27.3832574118682039 Zr
atom 2.5323258246513620 2.9319345916721069 19.8354270659978980 S
atom 7.5543630964979753 2.1101142424027897 19.8354270659978980 S
atom 2.5323258246513620 7.1521630764776853 19.8354270659978980 S
atom 7.5543630964979753 7.9739834257470052 19.8354270659978980 S
atom 2.5124446645003000 2.1137400734350944 24.8255171449107834 S
atom 7.5344819363469053 2.9283087606398004 24.8255171449107834 S
atom 2.5124446645003000 7.9703575947147085 24.8255171449107834 S
atom 7.5344819363469053 7.1557889075099901 24.8255171449107834 S
atom 2.8285388930412396 0.0000000000000000 21.9391602116243583 S
atom 7.2770659997949947 -0.0000000000000000 22.7309575867368032 S
atom 2.2550287279483907 5.0420488340748877 22.7309575867368032 S
atom 7.8505761648878494 5.0420488340748877 21.9391602116243583 S
atom 2.5059974264457088 -0.0000000000000000 27.6410007174933909 S
atom 7.5136807037160169 -0.0000000000000000 26.9647139489794512 S
atom 2.4916434318694010 5.0420488340748877 26.9647139489794512 S
atom 7.5280346982923092 5.0420488340748877 27.6410007174933909 S
atom 0.0228050361291152 2.2178757711574999 22.3178675076687050 S
atom 5.0448423079757267 2.8241730629174011 22.3178675076687050 S
atom 0.0228050361291152 7.8662218969923012 22.3178675076687050 S
atom 5.0448423079757267 7.2599246052323929 22.3178675076687050 S
atom -0.0116108642767615 2.5198294622412876 27.2522438146491837 S
atom 5.0104264075698532 2.5222193718336099 27.2522438146491837 S
atom -0.0116108642767615 7.5642682059085251 27.2522438146491837 S
atom 5.0104264075698532 7.5618782963161815 27.2522438146491837 S
atom -0.1697202698834901 0.0000000000000000 29.4387451294586882 Ba
atom 5.1713203825429543 -0.0000000000000000 29.4449146318838650 Ba
atom 0.1492831106963444 5.0420488340748877 29.4449146318838650 Ba
atom 4.8523170019631197 5.0420488340748877 29.4387451294586882 Ba
atom 2.5016746680117858 2.7893995550241426 29.8654733149344906 S
atom 7.5237119398584014 2.2526492790507540 29.8654733149344906 S
atom 2.5016746680117858 7.2946981131256452 29.8654733149344906 S
atom 7.5237119398584014 7.8314483890990410 29.8654733149344906 S
atom 2.5021829071450212 2.6861839944382497 32.9763747240990455 Ba
atom 7.5242201789916416 2.3558648396366491 32.9763747240990455 Ba
atom 2.5021829071450212 7.3979136737115443 32.9763747240990455 Ba
atom 7.5242201789916416 7.7282328285131419 32.9763747240990455 Ba
atom 2.5019870488831417 2.4968247135641493 37.6525913692861849 Ba
atom 7.5240243207297617 2.5452241205107500 37.6525913692861849 Ba
atom 2.5019870488831417 7.5872729545856519 37.6525913692861849 Ba
atom 7.5240243207297617 7.5388735476390387 37.6525913692861849 Ba
atom 5.0337598093652227 5.0420488340748877 35.0318693219675836 Zr
atom 10.0145843308429043 5.0420488340748877 35.0334091577790332 Zr
atom 4.9925470589962995 10.0840976681497754 35.0334091577790332 Zr
atom 10.0557970812118516 10.0840976681497754 35.0318693219675836 Zr
atom 5.0139151364651822 5.0420488340748877 40.0494114806942960 Zr
atom 10.0343811080946921 5.0420488340748877 40.0500454686191958 Zr
atom 5.0123438362480677 10.0840976681497754 40.0500454686191958 Zr
atom 10.0359524083118021 10.0840976681497754 40.0494114806942960 Zr
atom 4.7258768900138710 5.0420488340748877 32.5499735801797314 S
atom 10.3223958181736055 5.0420488340748877 32.5514821288290506 S
atom 5.3003585463270024 10.0840976681497754 32.5514821288290506 S
atom 9.7479141618604928 10.0840976681497754 32.5499735801797314 S
atom 5.4797881476627106 5.0420488340748877 37.5769142243735956 S
atom 9.5682335189337948 5.0420488340748877 37.5772599262530704 S
atom 4.5461962470871740 10.0840976681497754 37.5772599262530704 S
atom 10.5018254195092933 10.0840976681497754 37.5769142243735956 S
atom 5.0130247307707236 2.5210903513019969 35.1684911954117467 S
atom 10.0350620026173392 2.5209584827729041 35.1684911954117467 S
atom 5.0130247307707236 7.5630073168477914 35.1684911954117467 S
atom 10.0350620026173392 7.5631391853768912 35.1684911954117467 S
atom 5.0131186371150447 2.5210071874333666 40.0668859701093396 S
atom 10.0351559089616575 2.5210416466415309 40.0668859701093396 S
atom 5.0131186371150447 7.5630904807164354 40.0668859701093396 S
atom 10.0351559089616575 7.5630560215082641 40.0668859701093396 S
atom 2.5021484439972772 5.0420488340748877 35.4791133521319040 S
atom 7.5241205452606312 5.0420488340748877 34.7248796599647633 S
atom 2.5020832734140135 10.0840976681497754 34.7248796599647633 S
atom 7.5241857158438945 10.0840976681497754 35.4791133521319040 S
atom 2.5020226290555829 5.0420488340748877 39.5831823285246500 S
atom 7.5241194802707057 5.0420488340748877 40.5318146899741336 S
atom 2.5020822084240870 10.0840976681497754 40.5318146899741336 S
atom 7.5240599009021940 10.0840976681497754 39.5831823285246500 S
atom 2.5020977783101608 2.5267502145008729 42.5535555623730417 Ba
atom 7.5241350501567812 2.5152986195740219 42.5535555623730417 Ba
atom 2.5020977783101608 7.5573474536489114 42.5535555623730417 Ba
atom 7.5241350501567812 7.5687990485757739 42.5535555623730417 Ba
atom 2.5019252339151632 2.5144367720037715 47.4933235199670918 Ba
atom 7.5239625057617854 2.5276120620711238 47.4933235199670918 Ba
atom 2.5019252339151632 7.5696608961460337 47.4933235199670918 Ba
atom 7.5239625057617854 7.5564856060786640 47.4933235199670918 Ba
atom 5.0117354113874271 5.0420488340748877 45.0123300927952315 Zr
atom 10.0362915061086131 5.0420488340748877 45.0125047346046046 Zr
atom 5.0142542342619736 10.0840976681497754 45.0125047346046046 Zr
atom 10.0337726832340373 10.0840976681497754 45.0123300927952315 Zr
atom 5.0117354113874271 5.0420488340748877 49.9743169471391369 Zr
atom 10.0362915061086131 5.0420488340748877 49.9741423053296430 Zr
atom 5.0142542342619736 10.0840976681497754 49.9741423053296430 Zr
atom 10.0337726832340373 10.0840976681497754 49.9743169471391369 Zr
atom 4.5057444145755641 5.0420488340748877 42.5366395135316679 S
atom 10.5425295883532915 5.0420488340748877 42.5368118686212426 S
atom 5.5204923165066608 10.0840976681497754 42.5368118686212426 S
atom 9.5277816864221752 10.0840976681497754 42.5366395135316679 S
atom 5.5205537758404253 5.0420488340748877 47.4933235199670918 S
atom 9.5273836881315628 5.0420488340748877 47.4933235199670918 S
atom 4.5053464162849561 10.0840976681497754 47.4933235199670918 S
atom 10.5425910476870346 10.0840976681497754 47.4933235199670918 S
atom 5.0129877390969764 2.5210157715495578 45.0180734342343953 S
atom 10.0350250109436043 2.5210330625253410 45.0180734342343953 S
atom 5.0129877390969764 7.5630818966002353 45.0180734342343953 S
atom 10.0350250109436043 7.5630646056244490 45.0180734342343953 S
atom 5.0129877390969764 2.5210157715495578 49.9685736056998877 S
atom 10.0350250109436043 2.5210330625253410 49.9685736056998877 S
atom 5.0129877390969764 7.5630818966002353 49.9685736056998877 S
atom 10.0350250109436043 7.5630646056244490 49.9685736056998877 S
atom 2.5019703960475521 5.0420488340748877 45.5030359356646201 S
atom 7.5240475398955553 5.0420488340748877 44.5327645811834572 S
atom 2.5020102680489438 10.0840976681497754 44.5327645811834572 S
atom 7.5240076678941694 10.0840976681497754 45.5030359356646201 S
atom 2.5019703960475521 5.0420488340748877 49.4836111042696700 S
atom 7.5240475398955553 5.0420488340748877 50.4538824587507548 S
atom 2.5020102680489438 10.0840976681497754 50.4538824587507548 S
atom 7.5240076678941694 10.0840976681497754 49.4836111042696700 S
atom 2.5020977783101608 2.5267502145008729 52.4330914775612626 Ba
atom 7.5241350501567812 2.5152986195740219 52.4330914775612626 Ba
atom 2.5020977783101608 7.5573474536489114 52.4330914775612626 Ba
atom 7.5241350501567812 7.5687990485757739 52.4330914775612626 Ba
atom 2.5019870488831417 2.4968247135641493 57.3340556706480911 Ba
atom 7.5240243207297617 2.5452241205107500 57.3340556706480911 Ba
atom 2.5019870488831417 7.5872729545856519 57.3340556706480911 Ba
atom 7.5240243207297617 7.5388735476390387 57.3340556706480911 Ba
atom 5.0139151364651822 5.0420488340748877 54.9372355592399799 Zr
atom 10.0343811080946921 5.0420488340748877 54.9366015713150375 Zr
atom 5.0123438362480677 10.0840976681497754 54.9366015713150375 Zr
atom 10.0359524083118021 10.0840976681497754 54.9372355592399799 Zr
atom 5.0337598093652227 5.0420488340748877 59.9547777179666923 Zr
atom 10.0145843308429043 5.0420488340748877 59.9532378821552214 Zr
atom 4.9925470589962995 10.0840976681497754 59.9532378821552214 Zr
atom 10.0557970812118516 10.0840976681497754 59.9547777179666923 Zr
atom 4.5057444145755641 5.0420488340748877 52.4500075264025085 S
atom 10.5425295883532915 5.0420488340748877 52.4498351713130972 S
atom 5.5204923165066608 10.0840976681497754 52.4498351713130972 S
atom 9.5277816864221752 10.0840976681497754 52.4500075264025085 S
atom 5.4797881476627106 5.0420488340748877 57.4097328155607656 S
atom 9.5682335189337948 5.0420488340748877 57.4093871136812339 S
atom 4.5461962470871740 10.0840976681497754 57.4093871136812339 S
atom 10.5018254195092933 10.0840976681497754 57.4097328155607656 S
atom 5.0131186371150447 2.5210071874333666 54.9197610698249363 S
atom 10.0351559089616575 2.5210416466415309 54.9197610698249363 S
atom 5.0131186371150447 7.5630904807164354 54.9197610698249363 S
atom 10.0351559089616575 7.5630560215082641 54.9197610698249363 S
atom 5.0130247307707236 2.5210903513019969 59.8181558445224937 S
atom 10.0350620026173392 2.5209584827729041 59.8181558445224937 S
atom 5.0130247307707236 7.5630073168477914 59.8181558445224937 S
atom 10.0350620026173392 7.5631391853768912 59.8181558445224937 S
atom 2.5020226290555829 5.0420488340748877 55.4034647114096899 S
atom 7.5241194802707057 5.0420488340748877 54.4548323499601636 S
atom 2.5020822084240870 10.0840976681497754 54.4548323499601636 S
atom 7.5240599009021940 10.0840976681497754 55.4034647114096899 S
atom 2.5021484439972772 5.0420488340748877 59.5075336878023364 S
atom 7.5241205452606312 5.0420488340748877 60.2617673799694700 S
atom 2.5020832734140135 10.0840976681497754 60.2617673799694700 S
atom 7.5241857158438945 10.0840976681497754 59.5075336878023364 S
atom 2.5021829071450212 2.6861839944382497 62.0102723158351097 Ba
atom 7.5242201789916416 2.3558648396366491 62.0102723158351097 Ba
atom 2.5021829071450212 7.3979136737115443 62.0102723158351097 Ba
atom 7.5242201789916416 7.7282328285131419 62.0102723158351097 Ba
atom 4.7258768900138710 5.0420488340748877 62.4366734597544379 S
atom 10.3223958181736055 5.0420488340748877 62.4351649111052609 S
atom 5.3003585463270024 10.0840976681497754 62.4351649111052609 S
atom 9.7479141618604928 10.0840976681497754 62.4366734597544379 S
