#=======================================================
# FHI-aims file: sym_relax/sym_relax_RP_5_00Rz1_00Rz2.in
# Created using the Atomic Simulation Environment (ASE)
# Fri Mar 14 10:48:31 2025
#=======================================================
lattice_vector 9.9029662444631210 -0.0000000320388830 0.0000000000000000 
lattice_vector -0.0000000320388830 9.9029662444631210 0.0000000000000000 
lattice_vector 0.0000000000000000 0.0000000000000000 56.9199695477507888 
atom -0.0000000000000000 0.0000000000000000 0.1641241007872298 Ba
atom 4.9514831222315570 -0.0000000160194417 0.1641241007872298 Ba
atom -0.0000000160194417 4.9514831222315587 0.1641241007872298 Ba
atom 4.9514831062121178 4.9514831062121161 0.1641241007872298 Ba
atom 0.0000000000000000 0.0000000000000000 5.0698106854985596 Ba
atom 4.9514831222315570 -0.0000000160194417 5.0698106854985596 Ba
atom -0.0000000160194417 4.9514831222315587 5.0698106854985596 Ba
atom 4.9514831062121178 4.9514831062121161 5.0698106854985596 Ba
atom 2.4757415531060589 2.4757415531060580 2.4423498089116773 Zr
atom 7.4272246753376079 2.4757415370866176 2.4423498089116773 Zr
atom 2.4757415370866154 7.4272246753376150 2.4423498089116773 Zr
atom 7.4272246593181768 7.4272246593181732 2.4423498089116773 Zr
atom 2.4757415531060589 2.4757415531060580 7.5848318242352981 Zr
atom 7.4272246753376079 2.4757415370866176 7.5848318242352981 Zr
atom 2.4757415370866154 7.4272246753376150 7.5848318242352981 Zr
atom 7.4272246593181768 7.4272246593181732 7.5848318242352981 Zr
atom 2.4757415531060589 2.4757415531060580 -0.1019264712322822 S
atom 7.4272246753376079 2.4757415370866176 -0.1019264712322822 S
atom 2.4757415370866154 7.4272246753376150 -0.1019264712322822 S
atom 7.4272246593181768 7.4272246593181732 -0.1019264712322822 S
atom 2.4757415531060589 2.4757415531060580 5.0440048105801818 S
atom 7.4272246753376079 2.4757415370866176 5.0440048105801818 S
atom 2.4757415370866154 7.4272246753376150 5.0440048105801818 S
atom 7.4272246593181768 7.4272246593181732 5.0440048105801818 S
atom 2.0478038087761190 0.0000005918352370 2.5340550912444169 S
atom 7.8551624356869985 -0.0000006238741194 2.5340550912444169 S
atom 2.9036792974359966 4.9514825143768810 2.5340550912444169 S
atom 6.9992869149882395 4.9514836980473591 2.5340550912444169 S
atom 3.0108893924125271 0.0000000180690946 7.6008292911889477 S
atom 6.8920768520505904 -0.0000000501079779 7.6008292911889477 S
atom 1.9405937137995897 4.9514830881430214 7.6008292911889477 S
atom 7.9623724986246520 4.9514831242812125 7.6008292911889477 S
atom -0.0000006078546782 2.9036793134554393 2.5340550912444169 S
atom 4.9514837140667893 2.0478037927566795 2.5340550912444169 S
atom 0.0000005758157946 6.9992869310076760 2.5340550912444169 S
atom 4.9514824983574339 7.8551624196675514 2.5340550912444169 S
atom -0.0000000340885362 1.9405937298190319 7.6008292911889477 S
atom 4.9514831403006561 3.0108893763930840 7.6008292911889477 S
atom 0.0000000020496529 7.9623725146440858 7.6008292911889477 S
atom 4.9514830721235681 6.8920768360311557 7.6008292911889477 S
atom 0.0000000000000000 0.0000000000000000 10.1542537402379409 Ba
atom 4.9514831222315570 -0.0000000160194417 10.1542537402379409 Ba
atom -0.0000000160194417 4.9514831222315587 10.1542537402379409 Ba
atom 4.9514831062121178 4.9514831062121161 10.1542537402379409 Ba
atom 0.0000000000000000 0.0000000000000000 15.2564469507222427 Ba
atom 4.9514831222315570 -0.0000000160194417 15.2564469507222427 Ba
atom -0.0000000160194417 4.9514831222315587 15.2564469507222427 Ba
atom 4.9514831062121178 4.9514831062121161 15.2564469507222427 Ba
atom 2.4757415531060589 2.4757415531060580 12.7053503454800847 Zr
atom 7.4272246753376079 2.4757415370866176 12.7053503454800847 Zr
atom 2.4757415370866154 7.4272246753376150 12.7053503454800847 Zr
atom 7.4272246593181768 7.4272246593181732 12.7053503454800847 Zr
atom 2.4757415531060589 2.4757415531060580 17.8258688667248784 Zr
atom 7.4272246753376079 2.4757415370866176 17.8258688667248784 Zr
atom 2.4757415370866154 7.4272246753376150 17.8258688667248784 Zr
atom 7.4272246593181768 7.4272246593181732 17.8258688667248784 Zr
atom 2.4757415531060589 2.4757415531060580 10.1513073485959442 S
atom 7.4272246753376079 2.4757415370866176 10.1513073485959442 S
atom 2.4757415370866154 7.4272246753376150 10.1513073485959442 S
atom 7.4272246593181768 7.4272246593181732 10.1513073485959442 S
atom 2.4757415531060589 2.4757415531060580 15.2593933423642429 S
atom 7.4272246753376079 2.4757415370866176 15.2593933423642429 S
atom 2.4757415370866154 7.4272246753376150 15.2593933423642429 S
atom 7.4272246593181768 7.4272246593181732 15.2593933423642429 S
atom 1.9418072402809399 -0.0000000081046316 12.7053503454800847 S
atom 7.9611590041821758 -0.0000000239342508 12.7053503454800847 S
atom 3.0096758659311753 4.9514831143167450 12.7053503454800847 S
atom 6.8932903464930559 4.9514830981074880 12.7053503454800847 S
atom 3.0108893924125271 0.0000000180690946 17.8098713997712110 S
atom 6.8920768520505904 -0.0000000501079779 17.8098713997712110 S
atom 1.9405937137995897 4.9514830881430214 17.8098713997712110 S
atom 7.9623724986246520 4.9514831242812125 17.8098713997712110 S
atom -0.0000000079148096 3.0096758819506184 12.7053503454800847 S
atom 4.9514831141269307 1.9418072242614979 12.7053503454800847 S
atom -0.0000000241240740 6.8932903625124986 12.7053503454800847 S
atom 4.9514830982973006 7.9611589881627367 12.7053503454800847 S
atom -0.0000000340885362 1.9405937298190319 17.8098713997712110 S
atom 4.9514831403006561 3.0108893763930840 17.8098713997712110 S
atom 0.0000000020496529 7.9623725146440858 17.8098713997712110 S
atom 4.9514830721235681 6.8920768360311557 17.8098713997712110 S
atom -0.0000000000000000 0.0000000000000000 20.3408900054616275 Ba
atom 4.9514831222315570 -0.0000000160194417 20.3408900054616275 Ba
atom -0.0000000160194417 4.9514831222315587 20.3408900054616275 Ba
atom 4.9514831062121178 4.9514831062121161 20.3408900054616275 Ba
atom 0.0000000000000000 0.0000000000000000 25.2465765901729746 Ba
atom 4.9514831222315570 -0.0000000160194417 25.2465765901729746 Ba
atom -0.0000000160194417 4.9514831222315587 25.2465765901729746 Ba
atom 4.9514831062121178 4.9514831062121161 25.2465765901729746 Ba
atom 2.4757415531060589 2.4757415531060580 22.9683508820485116 Zr
atom 7.4272246753376079 2.4757415370866176 22.9683508820485116 Zr
atom 2.4757415370866154 7.4272246753376150 22.9683508820485116 Zr
atom 7.4272246593181768 7.4272246593181732 22.9683508820485116 Zr
atom 2.4757415531060589 2.4757415531060580 20.3666958803800107 S
atom 7.4272246753376079 2.4757415370866176 20.3666958803800107 S
atom 2.4757415370866154 7.4272246753376150 20.3666958803800107 S
atom 7.4272246593181768 7.4272246593181732 20.3666958803800107 S
atom 2.4757415531060589 2.4757415531060580 25.5126271621924516 S
atom 7.4272246753376079 2.4757415370866176 25.5126271621924516 S
atom 2.4757415370866154 7.4272246753376150 25.5126271621924516 S
atom 7.4272246593181768 7.4272246593181732 25.5126271621924516 S
atom 2.0478038087761190 0.0000005918352370 22.8766455997157472 S
atom 7.8551624356869985 -0.0000006238741194 22.8766455997157472 S
atom 2.9036792974359966 4.9514825143768810 22.8766455997157472 S
atom 6.9992869149882395 4.9514836980473591 22.8766455997157472 S
atom -0.0000006078546782 2.9036793134554393 22.8766455997157472 S
atom 4.9514837140667893 2.0478037927566795 22.8766455997157472 S
atom 0.0000005758157946 6.9992869310076760 22.8766455997157472 S
atom 4.9514824983574339 7.8551624196675514 22.8766455997157472 S
atom 2.4757415531060589 2.4757415531060580 28.6240885034210706 Ba
atom 7.4272246753376079 2.4757415370866176 28.6240885034210706 Ba
atom 2.4757415370866154 7.4272246753376150 28.6240885034210706 Ba
atom 7.4272246593181768 7.4272246593181732 28.6240885034210706 Ba
atom 2.4757415531060589 2.4757415531060580 33.5297827206632988 Ba
atom 7.4272246753376079 2.4757415370866176 33.5297827206632988 Ba
atom 2.4757415370866154 7.4272246753376150 33.5297827206632988 Ba
atom 7.4272246593181768 7.4272246593181732 33.5297827206632988 Ba
atom 4.9514831062121178 4.9514831062121161 30.9023136623392105 Zr
atom 9.9029662284436668 4.9514830901926707 30.9023136623392105 Zr
atom 4.9514830901926681 9.9029662284436704 30.9023136623392105 Zr
atom 9.9029662124242357 9.9029662124242321 30.9023136623392105 Zr
atom 4.9514831062121178 4.9514831062121161 36.0448070686231290 Zr
atom 9.9029662284436668 4.9514830901926707 36.0448070686231290 Zr
atom 4.9514830901926681 9.9029662284436704 36.0448070686231290 Zr
atom 9.9029662124242357 9.9029662124242321 36.0448070686231290 Zr
atom 4.9514831062121178 4.9514831062121161 28.3580383036433261 S
atom 9.9029662284436668 4.9514830901926707 28.3580383036433261 S
atom 4.9514830901926681 9.9029662284436704 28.3580383036433261 S
atom 9.9029662124242357 9.9029662124242321 28.3580383036433261 S
atom 4.9514831062121178 4.9514831062121161 33.5039773405551102 S
atom 9.9029662284436668 4.9514830901926707 33.5039773405551102 S
atom 4.9514830901926681 9.9029662284436704 33.5039773405551102 S
atom 9.9029662124242357 9.9029662124242321 33.5039773405551102 S
atom 4.5235333371381303 2.4757421189928586 30.9940230170006572 S
atom 10.3309160135371165 2.4757409551803766 30.9940230170006572 S
atom 5.3794328752861054 7.4272240934313745 30.9940230170006572 S
atom 9.4750164433502597 7.4272252252049720 30.9940230170006572 S
atom 5.4866204184437350 2.4757415729693113 36.0608004807899150 S
atom 9.3678289322315038 2.4757415012039248 36.0608004807899150 S
atom 4.4163457939804989 7.4272246394549271 36.0608004807899150 S
atom 10.4381035246558493 7.4272246791814229 36.0608004807899150 S
atom 2.4757409711998175 5.3794328913055436 30.9940230170006572 S
atom 7.4272252412244102 4.5235333211186886 30.9940230170006572 S
atom 2.4757421029734159 9.4750164593696873 30.9940230170006572 S
atom 7.4272240774119256 10.3309159975176641 30.9940230170006572 S
atom 2.4757415172233652 4.4163458099999406 36.0608004807899150 S
atom 7.4272246952008611 5.4866204024242844 36.0608004807899150 S
atom 2.4757415569498669 10.4381035406752947 36.0608004807899150 S
atom 7.4272246234354782 9.3678289162120620 36.0608004807899150 S
atom 2.4757415531060589 2.4757415531060580 38.6142201648997769 Ba
atom 7.4272246753376079 2.4757415370866176 38.6142201648997769 Ba
atom 2.4757415370866154 7.4272246753376150 38.6142201648997769 Ba
atom 7.4272246593181768 7.4272246593181732 38.6142201648997769 Ba
atom 2.4757415531060589 2.4757415531060580 43.7164500738113162 Ba
atom 7.4272246753376079 2.4757415370866176 43.7164500738113162 Ba
atom 2.4757415370866154 7.4272246753376150 43.7164500738113162 Ba
atom 7.4272246593181768 7.4272246593181732 43.7164500738113162 Ba
atom 4.9514831062121178 4.9514831062121161 41.1653351193555324 Zr
atom 9.9029662284436668 4.9514830901926707 41.1653351193555324 Zr
atom 4.9514830901926681 9.9029662284436704 41.1653351193555324 Zr
atom 9.9029662124242357 9.9029662124242321 41.1653351193555324 Zr
atom 4.9514831062121178 4.9514831062121161 46.2858631700878504 Zr
atom 9.9029662284436668 4.9514830901926707 46.2858631700878504 Zr
atom 4.9514830901926681 9.9029662284436704 46.2858631700878504 Zr
atom 9.9029662124242357 9.9029662124242321 46.2858631700878504 Zr
atom 4.9514831062121178 4.9514831062121161 38.6112934042746616 S
atom 9.9029662284436668 4.9514830901926707 38.6112934042746616 S
atom 4.9514830901926681 9.9029662284436704 38.6112934042746616 S
atom 9.9029662124242357 9.9029662124242321 38.6112934042746616 S
atom 4.9514831062121178 4.9514831062121161 43.7193768344364528 S
atom 9.9029662284436668 4.9514830901926707 43.7193768344364528 S
atom 4.9514830901926681 9.9029662284436704 43.7193768344364528 S
atom 9.9029662124242357 9.9029662124242321 43.7193768344364528 S
atom 4.4175134269009666 2.4757415451552451 41.1653351193555324 S
atom 10.4369359237742625 2.4757415290179901 41.1653351193555324 S
atom 5.4854527855232629 7.4272246672689839 41.1653351193555324 S
atom 9.3689965331131049 7.4272246513673590 41.1653351193555324 S
atom 5.4866204184437350 2.4757415729693113 46.2698697579210858 S
atom 9.3678289322315038 2.4757415012039248 46.2698697579210858 S
atom 4.4163457939804989 7.4272246394549271 46.2698697579210858 S
atom 10.4381035246558493 7.4272246791814229 46.2698697579210858 S
atom 2.4757415450374261 5.4854528015427011 41.1653351193555324 S
atom 7.4272246673868008 4.4175134108815355 41.1653351193555324 S
atom 2.4757415291358029 9.3689965491325360 41.1653351193555324 S
atom 7.4272246512495368 10.4369359077548118 41.1653351193555324 S
atom 2.4757415172233652 4.4163458099999406 46.2698697579210858 S
atom 7.4272246952008611 5.4866204024242844 46.2698697579210858 S
atom 2.4757415569498669 10.4381035406752947 46.2698697579210858 S
atom 7.4272246234354782 9.3678289162120620 46.2698697579210858 S
atom 2.4757415531060589 2.4757415531060580 48.8008875180476238 Ba
atom 7.4272246753376079 2.4757415370866176 48.8008875180476238 Ba
atom 2.4757415370866154 7.4272246753376150 48.8008875180476238 Ba
atom 7.4272246593181768 7.4272246593181732 48.8008875180476238 Ba
atom 2.4757415531060589 2.4757415531060580 53.7065817352899018 Ba
atom 7.4272246753376079 2.4757415370866176 53.7065817352899018 Ba
atom 2.4757415370866154 7.4272246753376150 53.7065817352899018 Ba
atom 7.4272246593181768 7.4272246593181732 53.7065817352899018 Ba
atom 4.9514831062121178 4.9514831062121161 51.4283565763717974 Zr
atom 9.9029662284436668 4.9514830901926707 51.4283565763717974 Zr
atom 4.9514830901926681 9.9029662284436704 51.4283565763717974 Zr
atom 9.9029662124242357 9.9029662124242321 51.4283565763717974 Zr
atom 4.9514831062121178 4.9514831062121161 48.8266928981559261 S
atom 9.9029662284436668 4.9514830901926707 48.8266928981559261 S
atom 4.9514830901926681 9.9029662284436704 48.8266928981559261 S
atom 9.9029662124242357 9.9029662124242321 48.8266928981559261 S
atom 4.9514831062121178 4.9514831062121161 53.9726319350676746 S
atom 9.9029662284436668 4.9514830901926707 53.9726319350676746 S
atom 4.9514830901926681 9.9029662284436704 53.9726319350676746 S
atom 9.9029662124242357 9.9029662124242321 53.9726319350676746 S
atom 4.5235333371381294 2.4757421189928586 51.3366472217103649 S
atom 10.3309160135371165 2.4757409551803766 51.3366472217103649 S
atom 5.3794328752861054 7.4272240934313745 51.3366472217103649 S
atom 9.4750164433502597 7.4272252252049720 51.3366472217103649 S
atom 2.4757409711998175 5.3794328913055436 51.3366472217103649 S
atom 7.4272252412244102 4.5235333211186886 51.3366472217103649 S
atom 2.4757421029734159 9.4750164593696873 51.3366472217103649 S
atom 7.4272240774119256 10.3309159975176641 51.3366472217103649 S
