#=======================================================
# FHI-aims file: sym_relax/sym_relax_RP_9_00Mz_000.in
# Created using the Atomic Simulation Environment (ASE)
# Mon Mar 17 16:28:39 2025
#=======================================================
lattice_vector 10.0052656978947052 -0.0000000000000004 -0.0000000000000000 
lattice_vector -0.0000000000000004 10.0052656978947052 0.0000000000000000 
lattice_vector 0.0000000000000000 0.0000000000000000 96.6534478287521495 
atom -0.0000000000000000 0.0000000000000000 0.1423920093035871 Ba
atom 5.0026328489473526 0.0000000000000000 0.1423920093035871 Ba
atom 0.0000000000000000 5.0026328489473526 0.1423920093035871 Ba
atom 5.0026328489473526 5.0026328489473526 0.1423920093035871 Ba
atom 0.0000000000000000 0.0000000000000000 4.9059027705895604 Ba
atom 5.0026328489473526 0.0000000000000000 4.9059027705895604 Ba
atom 0.0000000000000000 5.0026328489473526 4.9059027705895604 Ba
atom 5.0026328489473526 5.0026328489473526 4.9059027705895604 Ba
atom 2.5013164244736763 2.5013164244736763 2.2795019959865570 Zr
atom 7.5039492734210214 2.5013164244736763 2.2795019959865570 Zr
atom 2.5013164244736763 7.5039492734210214 2.2795019959865570 Zr
atom 7.5039492734210214 7.5039492734210214 2.2795019959865570 Zr
atom 2.5013164244736763 2.5013164244736763 7.3932369439077528 Zr
atom 7.5039492734210214 2.5013164244736763 7.3932369439077528 Zr
atom 2.5013164244736763 7.5039492734210214 7.3932369439077528 Zr
atom 7.5039492734210214 7.5039492734210214 7.3932369439077528 Zr
atom 2.5013164244736763 2.5013164244736763 -0.2303483721718317 S
atom 7.5039492734210214 2.5013164244736763 -0.2303483721718317 S
atom 2.5013164244736763 7.5039492734210214 -0.2303483721718317 S
atom 7.5039492734210214 7.5039492734210214 -0.2303483721718317 S
atom 2.5013164244736763 2.5013164244736763 4.8819171133186696 S
atom 7.5039492734210214 2.5013164244736763 4.8819171133186696 S
atom 2.5013164244736763 7.5039492734210214 4.8819171133186696 S
atom 7.5039492734210214 7.5039492734210214 4.8819171133186696 S
atom 2.2214527147639420 0.0000000000000005 2.4050791480808402 S
atom 7.7838129831307494 -0.0000000000000000 2.4050791480808411 S
atom 2.7811801341834022 5.0026328489473526 2.4050791480808411 S
atom 7.2240855637112933 5.0026328489473526 2.4050791480808402 S
atom 2.9944941772955915 0.0000000000000005 7.4163454117540244 S
atom 7.0107715205990990 -0.0000000000000000 7.4163454117540244 S
atom 2.0081386716517531 5.0026328489473526 7.4163454117540244 S
atom 7.9971270262429384 5.0026328489473526 7.4163454117540244 S
atom -0.0000000000000000 2.7811801341834008 2.4050791480808420 S
atom 5.0026328489473526 2.2214527147639438 2.4050791480808411 S
atom 0.0000000000000000 7.2240855637112951 2.4050791480808411 S
atom 5.0026328489473526 7.7838129831307494 2.4050791480808420 S
atom -0.0000000000000000 2.0081386716517557 7.4163454117540244 S
atom 5.0026328489473526 2.9944941772955942 7.4163454117540244 S
atom 0.0000000000000000 7.9971270262429384 7.4163454117540244 S
atom 5.0026328489473526 7.0107715205990990 7.4163454117540244 S
atom 0.0000000000000000 0.0000000000000000 9.9656907716132928 Ba
atom 5.0026328489473526 0.0000000000000000 9.9656907716132928 Ba
atom 0.0000000000000000 5.0026328489473526 9.9656907716132928 Ba
atom 5.0026328489473526 5.0026328489473526 9.9656907716132928 Ba
atom -0.0000000000000000 0.0000000000000000 15.0364273516616542 Ba
atom 5.0026328489473526 0.0000000000000000 15.0364273516616542 Ba
atom 0.0000000000000000 5.0026328489473526 15.0364273516616542 Ba
atom 5.0026328489473526 5.0026328489473526 15.0364273516616542 Ba
atom 2.5013164244736763 2.5013164244736763 12.4822644869150654 Zr
atom 7.5039492734210214 2.5013164244736763 12.4822644869150654 Zr
atom 2.5013164244736763 7.5039492734210214 12.4822644869150654 Zr
atom 7.5039492734210214 7.5039492734210214 12.4822644869150654 Zr
atom 2.5013164244736763 2.5013164244736763 17.5683973827898612 Zr
atom 7.5039492734210214 2.5013164244736763 17.5683973827898612 Zr
atom 2.5013164244736763 7.5039492734210214 17.5683973827898612 Zr
atom 7.5039492734210214 7.5039492734210214 17.5683973827898612 Zr
atom 2.5013164244736763 2.5013164244736763 9.9535127027656998 S
atom 7.5039492734210214 2.5013164244736763 9.9535127027656998 S
atom 2.5013164244736763 7.5039492734210214 9.9535127027656998 S
atom 7.5039492734210214 7.5039492734210214 9.9535127027656998 S
atom 2.5013164244736763 2.5013164244736763 15.0335680518690786 S
atom 7.5039492734210214 2.5013164244736763 15.0335680518690786 S
atom 2.5013164244736763 7.5039492734210214 15.0335680518690786 S
atom 7.5039492734210214 7.5039492734210214 15.0335680518690786 S
atom 2.9655559590292957 0.0000000000000005 12.5022478682970775 S
atom 7.0397097388653949 -0.0000000000000000 12.5022478682970775 S
atom 2.0370768899180502 5.0026328489473526 12.5022478682970775 S
atom 7.9681888079766434 5.0026328489473526 12.5022478682970775 S
atom 2.9695219121868526 0.0000000000000005 17.5755708053930775 S
atom 7.0357437857078455 -0.0000000000000000 17.5755708053930775 S
atom 2.0331109367604969 5.0026328489473526 17.5755708053930775 S
atom 7.9721547611341856 5.0026328489473526 17.5755708053930775 S
atom -0.0000000000000000 2.0370768899180489 12.5022478682970775 S
atom 5.0026328489473526 2.9655559590292988 12.5022478682970775 S
atom 0.0000000000000000 7.9681888079766452 12.5022478682970775 S
atom 5.0026328489473526 7.0397097388653957 12.5022478682970775 S
atom -0.0000000000000000 2.0331109367604943 17.5755708053930775 S
atom 5.0026328489473526 2.9695219121868544 17.5755708053930775 S
atom 0.0000000000000000 7.9721547611341821 17.5755708053930775 S
atom 5.0026328489473526 7.0357437857078455 17.5755708053930775 S
atom 0.0000000000000000 0.0000000000000000 20.1133557865278760 Ba
atom 5.0026328489473526 0.0000000000000000 20.1133557865278760 Ba
atom 0.0000000000000000 5.0026328489473526 20.1133557865278760 Ba
atom 5.0026328489473526 5.0026328489473526 20.1133557865278760 Ba
atom -0.0000000000000000 0.0000000000000000 25.1929478831996505 Ba
atom 5.0026328489473526 0.0000000000000000 25.1929478831996505 Ba
atom 0.0000000000000000 5.0026328489473526 25.1929478831996505 Ba
atom 5.0026328489473526 5.0026328489473526 25.1929478831996505 Ba
atom 2.5013164244736763 2.5013164244736763 22.6531518348637491 Zr
atom 7.5039492734210214 2.5013164244736763 22.6531518348637491 Zr
atom 2.5013164244736763 7.5039492734210214 22.6531518348637491 Zr
atom 7.5039492734210214 7.5039492734210214 22.6531518348637491 Zr
atom 2.5013164244736763 2.5013164244736763 27.7379062869376618 Zr
atom 7.5039492734210214 2.5013164244736763 27.7379062869376618 Zr
atom 2.5013164244736763 7.5039492734210214 27.7379062869376618 Zr
atom 7.5039492734210214 7.5039492734210214 27.7379062869376618 Zr
atom 2.5013164244736763 2.5013164244736763 20.1132768763057612 S
atom 7.5039492734210214 2.5013164244736763 20.1132768763057612 S
atom 2.5013164244736763 7.5039492734210214 20.1132768763057612 S
atom 7.5039492734210214 7.5039492734210214 20.1132768763057612 S
atom 2.5013164244736763 2.5013164244736763 25.1930267934217369 S
atom 7.5039492734210214 2.5013164244736763 25.1930267934217369 S
atom 2.5013164244736763 7.5039492734210214 25.1930267934217369 S
atom 7.5039492734210214 7.5039492734210214 25.1930267934217369 S
atom 2.9702026651074802 0.0000000000000005 22.6531518348637491 S
atom 7.0350630327872121 -0.0000000000000000 22.6531518348637491 S
atom 2.0324301838398631 5.0026328489473526 22.6531518348637491 S
atom 7.9728355140548288 5.0026328489473526 22.6531518348637491 S
atom 2.9695219121868526 0.0000000000000005 27.7307328643344668 S
atom 7.0357437857078455 -0.0000000000000000 27.7307328643344668 S
atom 2.0331109367604969 5.0026328489473526 27.7307328643344668 S
atom 7.9721547611341856 5.0026328489473526 27.7307328643344668 S
atom -0.0000000000000000 2.0324301838398613 22.6531518348637491 S
atom 5.0026328489473526 2.9702026651074798 22.6531518348637491 S
atom 0.0000000000000000 7.9728355140548279 22.6531518348637491 S
atom 5.0026328489473526 7.0350630327872130 22.6531518348637491 S
atom -0.0000000000000000 2.0331109367604943 27.7307328643344668 S
atom 5.0026328489473526 2.9695219121868544 27.7307328643344668 S
atom 0.0000000000000000 7.9721547611341821 27.7307328643344668 S
atom 5.0026328489473526 7.0357437857078455 27.7307328643344668 S
atom 0.0000000000000000 0.0000000000000000 30.2698763180658972 Ba
atom 5.0026328489473526 0.0000000000000000 30.2698763180658972 Ba
atom 0.0000000000000000 5.0026328489473526 30.2698763180658972 Ba
atom 5.0026328489473526 5.0026328489473526 30.2698763180658972 Ba
atom 0.0000000000000000 0.0000000000000000 35.3406128981142800 Ba
atom 5.0026328489473526 0.0000000000000000 35.3406128981142800 Ba
atom 0.0000000000000000 5.0026328489473526 35.3406128981142800 Ba
atom 5.0026328489473526 5.0026328489473526 35.3406128981142800 Ba
atom 2.5013164244736763 2.5013164244736763 32.8240391828124700 Zr
atom 7.5039492734210214 2.5013164244736763 32.8240391828124700 Zr
atom 2.5013164244736763 7.5039492734210214 32.8240391828124700 Zr
atom 7.5039492734210214 7.5039492734210214 32.8240391828124700 Zr
atom 2.5013164244736763 2.5013164244736763 37.9130667258198457 Zr
atom 7.5039492734210214 2.5013164244736763 37.9130667258198457 Zr
atom 2.5013164244736763 7.5039492734210214 37.9130667258198457 Zr
atom 7.5039492734210214 7.5039492734210214 37.9130667258198457 Zr
atom 2.5013164244736763 2.5013164244736763 30.2727356178585119 S
atom 7.5039492734210214 2.5013164244736763 30.2727356178585119 S
atom 2.5013164244736763 7.5039492734210214 30.2727356178585119 S
atom 7.5039492734210214 7.5039492734210214 30.2727356178585119 S
atom 2.5013164244736763 2.5013164244736763 35.3527909669618836 S
atom 7.5039492734210214 2.5013164244736763 35.3527909669618836 S
atom 2.5013164244736763 7.5039492734210214 35.3527909669618836 S
atom 7.5039492734210214 7.5039492734210214 35.3527909669618836 S
atom 2.9655559590292957 0.0000000000000005 32.8040558014304153 S
atom 7.0397097388653949 -0.0000000000000000 32.8040558014304153 S
atom 2.0370768899180502 5.0026328489473526 32.8040558014304153 S
atom 7.9681888079766434 5.0026328489473526 32.8040558014304153 S
atom 2.9944941772955915 0.0000000000000005 37.8899582579735323 S
atom 7.0107715205990990 -0.0000000000000000 37.8899582579735323 S
atom 2.0081386716517531 5.0026328489473526 37.8899582579735323 S
atom 7.9971270262429384 5.0026328489473526 37.8899582579735323 S
atom -0.0000000000000000 2.0370768899180489 32.8040558014304153 S
atom 5.0026328489473526 2.9655559590292988 32.8040558014304153 S
atom 0.0000000000000000 7.9681888079766452 32.8040558014304153 S
atom 5.0026328489473526 7.0397097388653957 32.8040558014304153 S
atom -0.0000000000000000 2.0081386716517557 37.8899582579735323 S
atom 5.0026328489473526 2.9944941772955942 37.8899582579735323 S
atom 0.0000000000000000 7.9971270262429384 37.8899582579735323 S
atom 5.0026328489473526 7.0107715205990990 37.8899582579735323 S
atom 0.0000000000000000 0.0000000000000000 40.4004008991380417 Ba
atom 5.0026328489473526 0.0000000000000000 40.4004008991380417 Ba
atom 0.0000000000000000 5.0026328489473526 40.4004008991380417 Ba
atom 5.0026328489473526 5.0026328489473526 40.4004008991380417 Ba
atom 0.0000000000000000 0.0000000000000000 45.1639116604239419 Ba
atom 5.0026328489473526 0.0000000000000000 45.1639116604239419 Ba
atom 0.0000000000000000 5.0026328489473526 45.1639116604239419 Ba
atom 5.0026328489473526 5.0026328489473526 45.1639116604239419 Ba
atom 2.5013164244736763 2.5013164244736763 43.0268016737408843 Zr
atom 7.5039492734210214 2.5013164244736763 43.0268016737408843 Zr
atom 2.5013164244736763 7.5039492734210214 43.0268016737408843 Zr
atom 7.5039492734210214 7.5039492734210214 43.0268016737408843 Zr
atom 2.5013164244736763 2.5013164244736763 40.4243865564088622 S
atom 7.5039492734210214 2.5013164244736763 40.4243865564088622 S
atom 2.5013164244736763 7.5039492734210214 40.4243865564088622 S
atom 7.5039492734210214 7.5039492734210214 40.4243865564088622 S
atom 2.5013164244736763 2.5013164244736763 45.5366520418993517 S
atom 7.5039492734210214 2.5013164244736763 45.5366520418993517 S
atom 2.5013164244736763 7.5039492734210214 45.5366520418993517 S
atom 7.5039492734210214 7.5039492734210214 45.5366520418993517 S
atom 2.2214527147639420 0.0000000000000005 42.9012245216466681 S
atom 7.7838129831307494 -0.0000000000000000 42.9012245216466681 S
atom 2.7811801341834022 5.0026328489473526 42.9012245216466681 S
atom 7.2240855637112933 5.0026328489473526 42.9012245216466681 S
atom -0.0000000000000000 2.7811801341834008 42.9012245216466681 S
atom 5.0026328489473526 2.2214527147639438 42.9012245216466681 S
atom 0.0000000000000000 7.2240855637112951 42.9012245216466681 S
atom 5.0026328489473526 7.7838129831307494 42.9012245216466681 S
atom 2.5013164244736763 2.5013164244736763 48.6693145749798148 Ba
atom 7.5039492734210214 2.5013164244736763 48.6693145749798148 Ba
atom 2.5013164244736763 7.5039492734210214 48.6693145749798148 Ba
atom 7.5039492734210214 7.5039492734210214 48.6693145749798148 Ba
atom 2.5013164244736763 2.5013164244736763 53.4795884287994383 Ba
atom 7.5039492734210214 2.5013164244736763 53.4795884287994383 Ba
atom 2.5013164244736763 7.5039492734210214 53.4795884287994383 Ba
atom 7.5039492734210214 7.5039492734210214 53.4795884287994383 Ba
atom 5.0026328489473526 5.0026328489473526 50.7378787221330256 Zr
atom 10.0052656978947052 5.0026328489473526 50.7378787221330256 Zr
atom 5.0026328489473526 10.0052656978947052 50.7378787221330256 Zr
atom 10.0052656978947052 10.0052656978947052 50.7378787221330256 Zr
atom 5.0026328489473526 5.0026328489473526 55.8271395322147725 Zr
atom 10.0052656978947052 5.0026328489473526 55.8271395322147725 Zr
atom 5.0026328489473526 10.0052656978947052 55.8271395322147725 Zr
atom 10.0052656978947052 10.0052656978947052 55.8271395322147725 Zr
atom 5.0026328489473526 5.0026328489473526 48.2323136778144530 S
atom 10.0052656978947052 5.0026328489473526 48.2323136778144530 S
atom 5.0026328489473526 10.0052656978947052 48.2323136778144530 S
atom 10.0052656978947052 10.0052656978947052 48.2323136778144530 S
atom 5.0026328489473526 5.0026328489473526 53.3231580738481554 S
atom 10.0052656978947052 5.0026328489473526 53.3231580738481554 S
atom 5.0026328489473526 10.0052656978947052 53.3231580738481554 S
atom 10.0052656978947052 10.0052656978947052 53.3231580738481554 S
atom 5.0026328489473526 2.5013179851485692 50.8480322377304645 S
atom 10.0052656978947052 2.5013148637987839 50.8480322377304645 S
atom 5.0026328489473526 7.5039477127461183 50.8480322377304645 S
atom 10.0052656978947052 7.5039508340959138 50.8480322377304645 S
atom 5.0026328489473526 2.5013157120702787 55.8538965400729239 S
atom 10.0052656978947052 2.5013171368770726 55.8538965400729239 S
atom 5.0026328489473526 7.5039499858244216 55.8538965400729239 S
atom 10.0052656978947052 7.5039485610176202 55.8538965400729239 S
atom 2.5013148637987821 5.0026328489473526 50.8480322377304645 S
atom 7.5039508340959129 5.0026328489473526 50.8480322377304645 S
atom 2.5013179851485665 10.0052656978947052 50.8480322377304645 S
atom 7.5039477127461165 10.0052656978947052 50.8480322377304645 S
atom 2.5013171368770726 5.0026328489473526 55.8538965400729239 S
atom 7.5039485610176229 5.0026328489473526 55.8538965400729239 S
atom 2.5013157120702774 10.0052656978947052 55.8538965400729239 S
atom 7.5039499858244225 10.0052656978947052 55.8538965400729239 S
atom 2.5013164244736763 2.5013164244736763 58.4365942854788045 Ba
atom 7.5039492734210214 2.5013164244736763 58.4365942854788045 Ba
atom 2.5013164244736763 7.5039492734210214 58.4365942854788045 Ba
atom 7.5039492734210214 7.5039492734210214 58.4365942854788045 Ba
atom 2.5013164244736763 2.5013164244736763 63.4433768669756120 Ba
atom 7.5039492734210214 2.5013164244736763 63.4433768669756120 Ba
atom 2.5013164244736763 7.5039492734210214 63.4433768669756120 Ba
atom 7.5039492734210214 7.5039492734210214 63.4433768669756120 Ba
atom 5.0026328489473526 5.0026328489473526 60.8822470678707148 Zr
atom 10.0052656978947052 5.0026328489473526 60.8822470678707148 Zr
atom 5.0026328489473526 10.0052656978947052 60.8822470678707148 Zr
atom 10.0052656978947052 10.0052656978947052 60.8822470678707148 Zr
atom 5.0026328489473526 5.0026328489473526 65.9321096244889873 Zr
atom 10.0052656978947052 5.0026328489473526 65.9321096244889873 Zr
atom 5.0026328489473526 10.0052656978947052 65.9321096244889873 Zr
atom 10.0052656978947052 10.0052656978947052 65.9321096244889873 Zr
atom 5.0026328489473526 5.0026328489473526 58.3675596106869179 S
atom 10.0052656978947052 5.0026328489473526 58.3675596106869179 S
atom 5.0026328489473526 10.0052656978947052 58.3675596106869179 S
atom 10.0052656978947052 10.0052656978947052 58.3675596106869179 S
atom 5.0026328489473526 5.0026328489473526 63.4119548341407295 S
atom 10.0052656978947052 5.0026328489473526 63.4119548341407295 S
atom 5.0026328489473526 10.0052656978947052 63.4119548341407295 S
atom 10.0052656978947052 10.0052656978947052 63.4119548341407295 S
atom 5.0026328489473526 2.5013165411119052 60.8940861178131030 S
atom 10.0052656978947052 2.5013163078354466 60.8940861178131030 S
atom 5.0026328489473526 7.5039491567827996 60.8940861178131030 S
atom 10.0052656978947052 7.5039493900592449 60.8940861178131030 S
atom 5.0026328489473526 2.5013164029838793 65.9353386754695094 S
atom 10.0052656978947052 2.5013164459634689 65.9353386754695094 S
atom 5.0026328489473526 7.5039492949108171 65.9353386754695094 S
atom 10.0052656978947052 7.5039492519312248 65.9353386754695094 S
atom 2.5013163078354448 5.0026328489473526 60.8940861178131030 S
atom 7.5039493900592422 5.0026328489473526 60.8940861178131030 S
atom 2.5013165411119060 10.0052656978947052 60.8940861178131030 S
atom 7.5039491567827978 10.0052656978947052 60.8940861178131030 S
atom 2.5013164459634680 5.0026328489473526 65.9353386754695094 S
atom 7.5039492519312230 5.0026328489473526 65.9353386754695094 S
atom 2.5013164029838810 10.0052656978947052 65.9353386754695094 S
atom 7.5039492949108189 10.0052656978947052 65.9353386754695094 S
atom 2.5013164244736763 2.5013164244736763 68.4657760201230872 Ba
atom 7.5039492734210214 2.5013164244736763 68.4657760201230872 Ba
atom 2.5013164244736763 7.5039492734210214 68.4657760201230872 Ba
atom 7.5039492734210214 7.5039492734210214 68.4657760201230872 Ba
atom 2.5013164244736763 2.5013164244736763 73.4939754783564894 Ba
atom 7.5039492734210214 2.5013164244736763 73.4939754783564894 Ba
atom 2.5013164244736763 7.5039492734210214 73.4939754783564894 Ba
atom 7.5039492734210214 7.5039492734210214 73.4939754783564894 Ba
atom 5.0026328489473526 5.0026328489473526 70.9798757492398096 Zr
atom 10.0052656978947052 5.0026328489473526 70.9798757492398096 Zr
atom 5.0026328489473526 10.0052656978947052 70.9798757492398096 Zr
atom 10.0052656978947052 10.0052656978947052 70.9798757492398096 Zr
atom 5.0026328489473526 5.0026328489473526 76.0276418739905893 Zr
atom 10.0052656978947052 5.0026328489473526 76.0276418739905893 Zr
atom 5.0026328489473526 10.0052656978947052 76.0276418739905893 Zr
atom 10.0052656978947052 10.0052656978947052 76.0276418739905893 Zr
atom 5.0026328489473526 5.0026328489473526 68.4571495081501382 S
atom 10.0052656978947052 5.0026328489473526 68.4571495081501382 S
atom 5.0026328489473526 10.0052656978947052 68.4571495081501382 S
atom 10.0052656978947052 10.0052656978947052 68.4571495081501382 S
atom 5.0026328489473526 5.0026328489473526 73.5026019903294952 S
atom 10.0052656978947052 5.0026328489473526 73.5026019903294952 S
atom 5.0026328489473526 10.0052656978947052 73.5026019903294952 S
atom 10.0052656978947052 10.0052656978947052 73.5026019903294952 S
atom 5.0026328489473526 2.5013164274575095 70.9798757492398096 S
atom 10.0052656978947052 2.5013164214898418 70.9798757492398096 S
atom 5.0026328489473526 7.5039492704371922 70.9798757492398096 S
atom 10.0052656978947052 7.5039492764048541 70.9798757492398096 S
atom 5.0026328489473526 2.5013164029838810 76.0244128230100529 S
atom 10.0052656978947052 2.5013164459634707 76.0244128230100529 S
atom 5.0026328489473526 7.5039492949108162 76.0244128230100529 S
atom 10.0052656978947052 7.5039492519312239 76.0244128230100529 S
atom 2.5013164214898436 5.0026328489473526 70.9798757492398096 S
atom 7.5039492764048541 5.0026328489473526 70.9798757492398096 S
atom 2.5013164274575095 10.0052656978947052 70.9798757492398096 S
atom 7.5039492704371904 10.0052656978947052 70.9798757492398096 S
atom 2.5013164459634680 5.0026328489473526 76.0244128230100529 S
atom 7.5039492519312230 5.0026328489473526 76.0244128230100529 S
atom 2.5013164029838819 10.0052656978947052 76.0244128230100529 S
atom 7.5039492949108171 10.0052656978947052 76.0244128230100529 S
atom 2.5013164244736763 2.5013164244736763 78.5163746315039646 Ba
atom 7.5039492734210214 2.5013164244736763 78.5163746315039646 Ba
atom 2.5013164244736763 7.5039492734210214 78.5163746315039646 Ba
atom 7.5039492734210214 7.5039492734210214 78.5163746315039646 Ba
atom 2.5013164244736763 2.5013164244736763 83.5231572130008573 Ba
atom 7.5039492734210214 2.5013164244736763 83.5231572130008573 Ba
atom 2.5013164244736763 7.5039492734210214 83.5231572130008573 Ba
atom 7.5039492734210214 7.5039492734210214 83.5231572130008573 Ba
atom 5.0026328489473526 5.0026328489473526 81.0775044306090820 Zr
atom 10.0052656978947052 5.0026328489473526 81.0775044306090820 Zr
atom 5.0026328489473526 10.0052656978947052 81.0775044306090820 Zr
atom 10.0052656978947052 10.0052656978947052 81.0775044306090820 Zr
atom 5.0026328489473526 5.0026328489473526 86.1326119662650598 Zr
atom 10.0052656978947052 5.0026328489473526 86.1326119662650598 Zr
atom 5.0026328489473526 10.0052656978947052 86.1326119662650598 Zr
atom 10.0052656978947052 10.0052656978947052 86.1326119662650598 Zr
atom 5.0026328489473526 5.0026328489473526 78.5477966643388896 S
atom 10.0052656978947052 5.0026328489473526 78.5477966643388896 S
atom 5.0026328489473526 10.0052656978947052 78.5477966643388896 S
atom 10.0052656978947052 10.0052656978947052 78.5477966643388896 S
atom 5.0026328489473526 5.0026328489473526 83.5921918877927084 S
atom 10.0052656978947052 5.0026328489473526 83.5921918877927084 S
atom 5.0026328489473526 10.0052656978947052 83.5921918877927084 S
atom 10.0052656978947052 10.0052656978947052 83.5921918877927084 S
atom 5.0026328489473526 2.5013165411119043 81.0656653806664877 S
atom 10.0052656978947052 2.5013163078354452 81.0656653806664877 S
atom 5.0026328489473526 7.5039491567827969 81.0656653806664877 S
atom 10.0052656978947052 7.5039493900592422 81.0656653806664877 S
atom 5.0026328489473526 2.5013157120702760 86.1058549584067663 S
atom 10.0052656978947052 2.5013171368770699 86.1058549584067663 S
atom 5.0026328489473526 7.5039499858244234 86.1058549584067663 S
atom 10.0052656978947052 7.5039485610176220 86.1058549584067663 S
atom 2.5013163078354448 5.0026328489473526 81.0656653806664877 S
atom 7.5039493900592440 5.0026328489473526 81.0656653806664877 S
atom 2.5013165411119052 10.0052656978947052 81.0656653806664877 S
atom 7.5039491567827978 10.0052656978947052 81.0656653806664877 S
atom 2.5013171368770717 5.0026328489473526 86.1058549584067663 S
atom 7.5039485610176229 5.0026328489473526 86.1058549584067663 S
atom 2.5013157120702774 10.0052656978947052 86.1058549584067663 S
atom 7.5039499858244225 10.0052656978947052 86.1058549584067663 S
atom 2.5013164244736763 2.5013164244736763 88.4801630696802448 Ba
atom 7.5039492734210214 2.5013164244736763 88.4801630696802448 Ba
atom 2.5013164244736763 7.5039492734210214 88.4801630696802448 Ba
atom 7.5039492734210214 7.5039492734210214 88.4801630696802448 Ba
atom 2.5013164244736763 2.5013164244736763 93.2904369234997546 Ba
atom 7.5039492734210214 2.5013164244736763 93.2904369234997546 Ba
atom 2.5013164244736763 7.5039492734210214 93.2904369234997546 Ba
atom 7.5039492734210214 7.5039492734210214 93.2904369234997546 Ba
atom 5.0026328489473526 5.0026328489473526 91.2218727763465296 Zr
atom 10.0052656978947052 5.0026328489473526 91.2218727763465296 Zr
atom 5.0026328489473526 10.0052656978947052 91.2218727763465296 Zr
atom 10.0052656978947052 10.0052656978947052 91.2218727763465296 Zr
atom 5.0026328489473526 5.0026328489473526 88.6365934246314566 S
atom 10.0052656978947052 5.0026328489473526 88.6365934246314566 S
atom 5.0026328489473526 10.0052656978947052 88.6365934246314566 S
atom 10.0052656978947052 10.0052656978947052 88.6365934246314566 S
atom 5.0026328489473526 5.0026328489473526 93.7274378206652443 S
atom 10.0052656978947052 5.0026328489473526 93.7274378206652443 S
atom 5.0026328489473526 10.0052656978947052 93.7274378206652443 S
atom 10.0052656978947052 10.0052656978947052 93.7274378206652443 S
atom 5.0026328489473526 2.5013179851485665 91.1117192607489699 S
atom 10.0052656978947052 2.5013148637987812 91.1117192607489699 S
atom 5.0026328489473526 7.5039477127461165 91.1117192607489699 S
atom 10.0052656978947052 7.5039508340959111 91.1117192607489699 S
atom 2.5013148637987830 5.0026328489473526 91.1117192607489699 S
atom 7.5039508340959129 5.0026328489473526 91.1117192607489699 S
atom 2.5013179851485692 10.0052656978947052 91.1117192607489699 S
atom 7.5039477127461165 10.0052656978947052 91.1117192607489699 S
