#=======================================================
# FHI-aims file: sym_relax/sym_relax_RP_5_Rx0Rz_0-RyRz.in
# Created using the Atomic Simulation Environment (ASE)
# Fri Mar 14 10:52:08 2025
#=======================================================
lattice_vector 10.0246976948136659 0.0000905370906913 0.0178065576296809 
lattice_vector 0.0000905370906913 10.0246976948136659 0.0178065576296809 
lattice_vector 0.0993011413228639 0.0993011413228641 55.7957692165683454 
atom -0.2008003888588767 0.0437904487315945 0.2682418492114436 Ba
atom 5.0996126706954312 0.0439700897151116 0.2759053293090028 Ba
atom 0.0873090918339381 5.0562736685765861 0.2759053293090027 Ba
atom 4.8115937270933040 5.0561845646837655 0.2860484068411240 Ba
atom -0.1233738043730860 0.0356695292486073 4.9626922015674868 Ba
atom 4.8472781570541867 0.0358113917632367 4.9431648830934884 Ba
atom -0.1650254218072909 5.0481149706247175 4.9431648830934911 Ba
atom 4.8890203115790944 5.0480636452007737 4.9804987591971761 Ba
atom 2.4418020690459032 2.5332446059358076 2.3482468843884572 Zr
atom 7.4541695927482383 2.5595306691156887 2.3576722307925446 Zr
atom 2.4418660138867594 7.5718342479771703 2.3576722307925460 Zr
atom 7.4541961849980964 7.5456387218879835 2.3660534420181376 Zr
atom 2.4598746104380940 2.5234530980902403 7.4169678989049457 Zr
atom 7.4722550977781390 2.5513371896839532 7.4260930268676084 Zr
atom 2.4599515189166428 7.5636407685454348 7.4260930268676075 Zr
atom 7.4722687263902801 7.5358472140424198 7.4347744565346163 Zr
atom 2.4514169192873396 2.8011036389867301 -0.1411615556903651 S
atom 7.4635103345714171 2.3004628685080042 -0.1325916698685592 S
atom 2.4512067557099151 7.3127664473694880 -0.1325916698685592 S
atom 7.4638110352395239 7.8134977549388926 -0.1233549980606845 S
atom 2.4615386672850699 2.2024645546558621 4.9177366881753812 S
atom 7.4743415665121455 2.8811993440935781 4.9279426945084897 S
atom 2.4620379876506546 7.8935029229550473 4.9279426945084897 S
atom 7.4739327832372542 7.2148586706080469 4.9355432458050652 S
atom 2.4520774011557092 0.0405982500499486 2.1219304977266176 S
atom 7.4365332151939940 0.0395112234682241 2.7509416772997151 S
atom 2.4242296363325040 5.0518148023297051 2.7509416772997142 S
atom 7.4644715171078930 5.0529923660021208 2.1397370553562935 S
atom 2.8949207728051092 0.0306420584515939 7.7188894196794715 S
atom 7.1038681778717052 0.0317513020867041 7.1375570408620463 S
atom 2.0915645990102005 5.0440548809481847 7.1375570408620446 S
atom 7.9073148887572815 5.0430361744037544 7.7366959773091590 S
atom -0.0620796968249786 2.5378801835564468 2.4643297415572953 S
atom 4.9502171822671981 2.5544869743201026 2.4736285928489306 S
atom -0.0620863965942842 7.5667905531815807 2.4736285928489306 S
atom 4.9503144191271886 7.5502742995086329 2.4821362991869824 S
atom -0.0332283335766191 2.1237545638922497 7.4282617553344830 S
atom 4.9791287045759400 2.9508805614223705 7.4381981261091195 S
atom -0.0331748742855444 7.9631841402838663 7.4381981261091195 S
atom 4.9791657823755617 7.1361486798444176 7.4460683129641660 S
atom -0.0695903730070263 0.0266011960387813 9.9253266830931377 Ba
atom 5.0883435338952649 0.0266524747243215 9.9743306124238629 Ba
atom 0.0760399550337592 5.0389560535858031 9.9743306124238718 Ba
atom 4.9428037429451557 5.0389953119909574 9.9431332407228119 Ba
atom 0.1139212396690189 0.0177296706232112 14.9834988600177361 Ba
atom 4.9806850275804173 0.0177689290283623 14.9523014883166958 Ba
atom -0.0316185512810752 5.0300725078898534 14.9523014883166958 Ba
atom 5.1263153556212036 5.0301237865753876 15.0013054176474281 Ba
atom 2.5283624913070892 2.5283624913070843 12.4633160503702740 Zr
atom 7.5407113387139280 2.5284077598524246 12.4722193291851280 Zr
atom 2.5284077598524330 7.5407113387139075 12.4722193291851280 Zr
atom 7.5407566072592846 7.5407566072592562 12.4811226079999535 Zr
atom 2.5968503721760867 2.5332718845239288 17.5096642018356619 Zr
atom 7.6091675796497089 2.5054783300209076 17.5183456315026369 Zr
atom 2.5968640007882220 7.5177819088823927 17.5183456315026262 Zr
atom 7.6092444881282475 7.5456660004760954 17.5274707594653201 Zr
atom 2.5019531225628557 2.8285693545794004 9.9451907467564542 S
atom 7.5139959997762595 2.2371568329258400 9.9530741923743253 S
atom 2.5016924209147779 7.2494604117873180 9.9530741923743236 S
atom 7.5143472385150369 7.8409634705315785 9.9629973043861444 S
atom 2.5547718600513272 2.2281556280347679 14.9814413539841187 S
atom 7.5674266776515733 2.8196586867790181 14.9913644659959129 S
atom 2.5551230987900939 7.8319622656405059 14.9913644659959182 S
atom 7.5671659760034835 7.2405497439869384 14.9992479116138018 S
atom 2.1120820690538449 0.0226326289575912 12.2060585519806235 S
atom 7.9569464924218174 0.0217887747950931 12.7205735487599156 S
atom 2.9446429135603300 5.0340923536565798 12.7205735487599156 S
atom 7.1244761850060305 5.0350267449097625 12.2238651096103261 S
atom 2.9651603836039788 0.0126701016659800 17.7890750598784884 S
atom 7.1741077886705433 0.0137793453010896 17.2077426810610881 S
atom 2.1618042098090675 5.0260829241625595 17.2077426810610881 S
atom 7.9775544995561622 5.0250642176181559 17.8068816175082212 S
atom 0.0221814835574524 2.9567051335787493 12.4595163990014530 S
atom 5.0345434990567162 2.1000198490354096 12.4671157017391110 S
atom 0.0222399201952312 7.1123234278968948 12.4671157017391110 S
atom 5.0345755995096351 7.9690992495309203 12.4773229566311308 S
atom 0.0775962780382284 2.1058444211917906 17.4884339746314126 S
atom 5.0899533161907877 2.9329704187219230 17.4983703454061121 S
atom 0.0776497373293024 7.9452739975834010 17.4983703454061121 S
atom 5.0899903939904121 7.1182385371439594 17.5062405322611099 S
atom 0.1677046710350788 0.0086613374133857 19.9461333415434154 Ba
atom 5.2217504044214751 0.0086100119894472 19.9834672176470747 Ba
atom 0.2094468255599743 5.0209135908509257 19.9834672176470711 Ba
atom 5.1800987869872621 5.0210554533655554 19.9639398991731163 Ba
atom 0.2451312555208691 0.0005404179303983 24.6405836938994298 Ba
atom 4.9694158907802413 0.0004513140375726 24.6507267714315681 Ba
atom -0.0428876880812546 5.0127548928990562 24.6507267714315681 Ba
atom 5.2575253714730463 5.0129345338825742 24.6583902515290916 Ba
atom 2.6149229135682721 2.5234803766783571 22.5783852163520962 Zr
atom 7.6272530846796158 2.4972848505891649 22.5867664275776754 Zr
atom 2.6149495058181098 7.5095884294506536 22.5867664275776754 Zr
atom 7.6273170295204498 7.5358744926305308 22.5961917739817615 Zr
atom 2.5951863153291033 2.8542604279583057 20.0088954125651952 S
atom 7.6070811109156899 2.1756161756112804 20.0164959638617326 S
atom 2.5947775320542097 7.1879197544727624 20.0164959638617326 S
atom 7.6075804312812982 7.8666545439104825 20.0267019701948783 S
atom 2.6053080633268357 2.2556213436274377 25.0677936564309150 S
atom 7.6179123428564459 2.7563526511968512 25.0770303282387701 S
atom 2.6056087639949510 7.7686562300583333 25.0770303282387701 S
atom 7.6177021792790036 7.2680154595796047 25.0856002140605945 S
atom 2.6324953462816758 0.0049101802844599 22.1756904234408552 S
atom 7.6169511603199567 0.0038231537027356 22.8047016030139211 S
atom 2.6046475814584671 5.0161267325642278 22.8047016030139176 S
atom 7.6448894622338566 5.0173042962366514 22.1934969810705205 S
atom 0.1065078003469685 2.5022380082940687 22.4530035078916512 S
atom 5.1188046794391528 2.5188447990577196 22.4623023591832336 S
atom 0.1065011005776629 7.5311483779191937 22.4623023591832336 S
atom 5.1189019162991380 7.5146321242462326 22.4708100655213023 S
atom 2.5996380773691170 2.3550472397786439 28.1750297363104920 Ba
atom 7.6121212972141148 2.6431567204714574 28.1826932164079942 Ba
atom 2.5998177183526381 7.6554602993329315 28.1826932164079942 Ba
atom 7.6120321933213022 7.3674413557308167 28.1928362939401502 Ba
atom 2.5915171578861309 2.4324738242644250 32.8694800886665988 Ba
atom 7.6039625992622595 2.3908222068302307 32.8499527701924947 Ba
atom 2.5916590204007579 7.4031257856917030 32.8499527701924947 Ba
atom 7.6039112738383183 7.4448679402166045 32.8872866462962037 Ba
atom 5.0890922345733429 4.9976496976834222 30.2550347714875087 Zr
atom 10.1276818766147318 4.9977136425242685 30.2644601178915771 Zr
atom 5.1153782977531996 10.0100172213857856 30.2644601178915771 Zr
atom 10.1014863505255015 10.0100438136355940 30.2728413291171812 Zr
atom 5.0793007267277686 5.0157222390756067 35.3237557860039999 Zr
atom 10.1194883971829928 5.0157991475541452 35.3328809139667399 Zr
atom 5.1071848183214765 10.0281027264156410 35.3328809139667399 Zr
atom 10.0916948426799546 10.0281163550277874 35.3415623436336404 Zr
atom 5.3569512676242512 5.0072645479248461 27.7656263314086971 S
atom 9.8686140760070771 5.0070543843474384 27.7741962172304504 S
atom 4.8563104971455227 10.0193579632089484 27.7741962172304504 S
atom 10.3693453835764693 10.0196586638770597 27.7834328890383517 S
atom 4.7583121832933868 5.0173862959225817 32.8245245752744594 S
atom 10.4493505515926053 5.0178856162881580 32.8347305816074950 S
atom 5.4370469727311006 10.0301891951496422 32.8347305816074950 S
atom 9.7707062992455462 10.0297804118747678 32.8423311329041283 S
atom 5.0937278121939933 2.4937679318125321 30.3711176286563180 S
atom 10.1226381818190987 2.4937612320432301 30.3804164799479537 S
atom 5.1103346029576207 7.5060648109047241 30.3804164799479572 S
atom 10.1061219281461447 7.5061620477647191 30.3889241862860402 S
atom 4.6796021925297770 2.5226192950608968 35.3350496424335105 S
atom 10.5190317689214066 2.5226727543519742 35.3449860132082563 S
atom 5.5067281900599054 7.5349763332134447 35.3449860132082563 S
atom 9.6919963084819347 7.5350134110130735 35.3528562000632860 S
atom 2.5964458786874682 5.0079250297932267 30.0287183848256625 S
atom 7.6076624309672383 4.9800772649700260 30.6577295643987568 S
atom 2.5953588521057456 9.9923808438314978 30.6577295643987568 S
atom 7.6088399946396663 10.0203191457453968 30.0465249424553384 S
atom 2.5864896870891156 5.4507684014426125 35.6256773067785346 S
atom 7.5999025095857267 4.6474122276477141 35.0443449279610988 S
atom 2.5875989307242255 9.6597158065092152 35.0443449279610988 S
atom 7.5988838030412866 10.4631625173948013 35.6434838644081680 S
atom 2.5824488246762982 2.4862572556304960 37.8321145701922177 Ba
atom 7.5948036822233291 2.6318875836712747 37.8811184995229624 Ba
atom 2.5825001033618502 7.6441911625327634 37.8811184995229695 Ba
atom 7.5948429406284896 7.4986513715826630 37.8499211278218723 Ba
atom 2.5735772992607404 2.6697688683065319 42.8902867471167326 Ba
atom 7.5859201365273803 2.5242290773564426 42.8590893754156639 Ba
atom 2.5736165576658805 7.5365326562179238 42.8590893754156639 Ba
atom 7.5859714152129119 7.6821629842587136 42.9080933047464157 Ba
atom 5.0842101199446121 5.0842101199445917 40.3701039374693451 Zr
atom 10.0965589673514486 5.0842553884899448 40.3790072162841653 Zr
atom 5.0842553884899635 10.0965589673514184 40.3790072162841653 Zr
atom 10.0966042358967840 10.0966042358967858 40.3879104950990140 Zr
atom 5.0891195131614584 5.1526980008135910 45.4164520889347401 Zr
atom 10.0736295375199241 5.1527116294257507 45.4251335186016476 Zr
atom 5.0613259586584434 10.1650152082872474 45.4251335186016476 Zr
atom 10.1015136291136542 10.1650921167657451 45.4342586465643663 Zr
atom 5.3844169832169344 5.0578007512003733 37.8519786338555022 S
atom 9.8053080404248565 5.0575400495522880 37.8598620794733947 S
atom 4.7930044615633705 10.0698436284137856 37.8598620794733947 S
atom 10.3968110991691081 10.0701948671525354 37.8697851914851071 S
atom 4.7840032566722765 5.1106194886888341 42.8882292410831596 S
atom 10.3878098942780444 5.1109707274275973 42.8981523530949005 S
atom 5.3755063154165370 10.1232743062891011 42.8981523530949005 S
atom 9.7963973726244671 10.1230136046410024 42.9060357987128640 S
atom 5.5125527622162949 2.5780291121949723 40.3663042861004442 S
atom 9.6681710565344261 2.5780875488327437 40.3739035888381395 S
atom 4.6558674776729454 7.5903911276942360 40.3739035888381395 S
atom 10.5249468781684996 7.5904232281471495 40.3841108437301699 S
atom 4.6616920498293171 2.6334439066757480 45.3952218617304126 S
atom 10.5011216262209306 2.6334973659668175 45.4051582325050660 S
atom 5.4888180473594410 7.6458009448283004 45.4051582325050731 S
atom 9.6740861657814765 7.6458380226279221 45.4130284193600744 S
atom 2.5784802575951127 4.6679296976913704 40.1128464390796680 S
atom 7.5899399822941058 5.5004905421978325 40.6273614358589725 S
atom 2.5776364034326265 10.5127941210593416 40.6273614358589867 S
atom 7.5908743735472957 9.6803238136435503 40.1306529967093581 S
atom 2.5685177303035021 5.5210080122414933 45.6958629469774991 S
atom 7.5819305528001166 4.7176518384465904 45.1145305681600988 S
atom 2.5696269739386151 9.7299554173080764 45.1145305681600988 S
atom 7.5809118462556819 10.5334021281936501 45.7136695046071821 S
atom 2.5645089660509077 2.7235522996725967 47.8529212286423586 Ba
atom 7.5767612194884553 2.7652944541974933 47.8902551047462310 Ba
atom 2.5644576406269710 7.7775980330589807 47.8902551047462310 Ba
atom 7.5769030820030929 7.7359464156247695 47.8707277862720346 Ba
atom 2.5563880465679230 2.8009788841583889 52.5473715809983943 Ba
atom 7.5686025215365991 2.5129599405562617 52.5575146585305930 Ba
atom 2.5562989426750939 7.5252635194177477 52.5575146585305930 Ba
atom 7.5687821625201019 7.8133730001105555 52.5651781386280348 Ba
atom 5.0793280053158920 5.1707705422057773 50.4851731034512170 Zr
atom 10.0654360580881370 5.1707971344556176 50.4935543146766435 Zr
atom 5.0531324792266892 10.1831007133170743 50.4935543146766435 Zr
atom 10.0917221212680754 10.1831646581579580 50.5029796610808503 Zr
atom 5.4101080565958242 5.1510339439666213 47.9156832996641739 S
atom 9.7437673831103027 5.1506251606917104 47.9232838509607788 S
atom 4.7314638042488077 10.1629287395532071 47.9232838509607788 S
atom 10.4225021725480236 10.1634280599187594 47.9334898572938926 S
atom 4.8114689722649757 5.1611556919643444 52.9745815435299718 S
atom 10.3245038586958664 5.1614563926324548 52.9838182153377915 S
atom 5.3122002798343875 10.1737599714939382 52.9838182153377915 S
atom 9.8238630882171378 10.1735498079165101 52.9923881011596336 S
atom 5.0580856369315956 2.6623554289844833 50.3597913949906655 S
atom 10.0869960065567259 2.6623487292151857 50.3690902462822336 S
atom 5.0746924276952408 7.6746523080766655 50.3690902462822336 S
atom 10.0704797528837364 7.6747495449366587 50.3775979526202988 S
atom 2.5607578089219794 5.1883429749191805 50.0824783105398623 S
atom 7.5719743612017547 5.1604952100959753 50.7114894901129745 S
atom 2.5596707823402558 10.1727987889574294 50.7114894901129745 S
atom 7.5731519248741588 10.2007370908713568 50.1002848681695738 S
