#=======================================================
# FHI-aims file: sym_relax/sym_relax_RP_6_RxRyMz_-Rx-RyMz.in
# Created using the Atomic Simulation Environment (ASE)
# Fri Mar 14 11:08:16 2025
#=======================================================
lattice_vector 10.0115748120573222 -0.0655815418719128 0.0000000000000000 
lattice_vector -0.0655815418719128 10.0115748120573489 0.0000000000000000 
lattice_vector 0.0000000000000000 0.0000000000000000 65.9415383194958196 
atom 0.0573691211411486 -0.1467491467231974 0.2255720993326668 Ba
atom 5.1525365527518732 -0.0901598920771048 0.2255720993326667 Ba
atom 0.1139583757872405 4.9484182848875244 0.2255720993326667 Ba
atom 5.0303657562338602 4.8262474883695132 0.2255720993326667 Ba
atom -0.2961791258226969 0.2189042801211071 5.0102198375438443 Ba
atom 4.7868831259075533 0.2633883548867409 5.0102198375438443 Ba
atom -0.2516950510570632 5.3019665318513667 5.0102198375438443 Ba
atom 4.6768175092700224 5.1919009152138180 5.0102198375438443 Ba
atom 2.4540362781780973 2.5088572886808018 2.4049400689977269 Zr
atom 7.4699267524405828 2.4861695859786637 2.4049400689977269 Zr
atom 2.4313485754759605 7.5247477629432913 2.4049400689977269 Zr
atom 7.4270329132708124 7.4818539237735102 2.4049400689977269 Zr
atom 2.4460322331074056 2.5234012014323728 7.4621268387049078 Zr
atom 7.4553828396890003 2.4941736310493470 7.4621268387049078 Zr
atom 2.4168046627243860 7.5327518080139866 7.4621268387049078 Zr
atom 7.4190288682001286 7.4963978365250892 7.4621268387049078 Zr
atom 2.5807757664461577 2.7262490461162088 -0.1010501754809468 S
atom 7.2525349950051714 2.3594300977106033 -0.1010501754809468 S
atom 2.2139568180405487 7.3980082746752291 -0.1010501754809468 S
atom 7.5537724015388621 7.6992456812089332 -0.1010501754809468 S
atom 2.2048480993630557 2.2227783404689641 4.9675402773248010 S
atom 7.7560057006524099 2.7353577647937075 4.9675402773248010 S
atom 2.7174275236877969 7.7739359417583378 4.9675402773248010 S
atom 7.1778447344557756 7.1957749755616858 4.9675402773248010 S
atom 2.7605917350699980 0.0211415025202024 2.2519132016352512 S
atom 7.1580955554852626 -0.0087677511104014 2.7591153825508048 S
atom 2.1195173785206336 5.0298104258542224 2.7591153825508048 S
atom 7.7335883701627068 4.9941381376129224 2.2519132016352512 S
atom 2.8640603990677311 0.0162323812483923 7.7892132702331844 S
atom 7.0897740137425043 -0.0132876207363524 7.1715670212426517 S
atom 2.0511958367778820 5.0252905562282786 7.1715670212426517 S
atom 7.8370570341604378 4.9892290163411115 7.7892132702331844 S
atom -0.0539322734561589 2.2451956709586791 2.2519132016352512 S
atom 4.9489736152671737 2.8206884856361265 2.7591153825508048 S
atom -0.0896045616974686 7.8592666626007555 2.7591153825508048 S
atom 4.9190643616365621 7.2181923060514004 2.2519132016352512 S
atom -0.0490231521843489 2.1417270069609406 7.7892132702331844 S
atom 4.9534934848930989 2.8890100273788804 7.1715670212426517 S
atom -0.0850846920715177 7.9275882043435049 7.1715670212426517 S
atom 4.9239734829083606 7.1147236420536641 7.7892132702331844 S
atom 0.2489699026412457 -0.1505378579745520 9.9869650519679709 Ba
atom 5.1563252640032289 -0.2817606735772020 9.9869650519679709 Ba
atom 0.1177470870385952 4.7568175033874311 9.9869650519679709 Ba
atom 5.2219665377339570 4.8224587771181593 9.9869650519679709 Ba
atom -0.3132174657929500 0.2139128879198978 14.9867132544308816 Ba
atom 4.7918745181087719 0.2804266948569939 14.9867132544308816 Ba
atom -0.2467036588558541 5.3190048718216225 14.9867132544308816 Ba
atom 4.6597791692997692 5.1869095230126083 14.9867132544308816 Ba
atom 2.4573325240678670 2.5172308600147173 12.4790411203911482 Zr
atom 7.4615531811066589 2.4828733400888932 12.4790411203911482 Zr
atom 2.4229750041420410 7.5214515170535234 12.4790411203911482 Zr
atom 7.4303291591605722 7.4902274951074377 12.4790411203911482 Zr
atom 2.4573325240678670 2.5172308600147173 17.4943853884706577 Zr
atom 7.4615531811066589 2.4828733400888932 17.4943853884706577 Zr
atom 2.4229750041420410 7.5214515170535234 17.4943853884706577 Zr
atom 7.4303291591605722 7.4902274951074377 17.4943853884706577 Zr
atom 2.7186371992346494 2.8471188450795077 9.9787971931330883 S
atom 7.1316651960418733 2.2215686649221098 9.9787971931330883 S
atom 2.0930870190772488 7.2601468418867414 9.9787971931330883 S
atom 7.6916338343273551 7.8201154801722241 9.9787971931330883 S
atom 2.1878451611428091 2.1870299937595306 14.9867132544308816 S
atom 7.7917540473618567 2.7523607030139536 14.9867132544308816 S
atom 2.7531758703972318 7.7909388799785706 14.9867132544308816 S
atom 7.1608417962355277 7.1600266288522381 14.9867132544308816 S
atom 2.8547048857407371 0.0133315138440665 12.1673331962700306 S
atom 7.0935445176433749 -0.0165243429129783 12.8054884422557169 S
atom 2.0549663406787415 5.0220538340516443 12.8054884422557169 S
atom 7.8277015208334433 4.9863281489367868 12.1673331962700306 S
atom 2.8547048857407371 0.0133315138440665 17.8060933125917131 S
atom 7.0935445176433749 -0.0165243429129783 17.1679380666060730 S
atom 2.0549663406787415 5.0220538340516443 17.1679380666060730 S
atom 7.8277015208334433 4.9863281489367868 17.8060933125917131 S
atom -0.0461222847800231 2.1510825202879365 12.1673331962700306 S
atom 4.9567302070697377 2.8852395234780186 12.8054884422557169 S
atom -0.0818479698948918 7.9238177004426493 12.8054884422557169 S
atom 4.9268743503126986 7.1240791553806559 12.1673331962700306 S
atom -0.0461222847800231 2.1510825202879365 17.8060933125917131 S
atom 4.9567302070697377 2.8852395234780186 17.1679380666060730 S
atom -0.0818479698948918 7.9238177004426493 17.1679380666060730 S
atom 4.9268743503126986 7.1240791553806559 17.8060933125917131 S
atom 0.2489699026412458 -0.1505378579745520 19.9864614568937853 Ba
atom 5.1563252640032289 -0.2817606735772020 19.9864614568937853 Ba
atom 0.1177470870385952 4.7568175033874311 19.9864614568937853 Ba
atom 5.2219665377339570 4.8224587771181593 19.9864614568937853 Ba
atom -0.2961791258226969 0.2189042801211071 24.9632066713179164 Ba
atom 4.7868831259075533 0.2633883548867409 24.9632066713179164 Ba
atom -0.2516950510570632 5.3019665318513667 24.9632066713179164 Ba
atom 4.6768175092700224 5.1919009152138180 24.9632066713179164 Ba
atom 2.4460322331074056 2.5234012014323728 22.5112996701568413 Zr
atom 7.4553828396890003 2.4941736310493470 22.5112996701568413 Zr
atom 2.4168046627243860 7.5327518080139866 22.5112996701568413 Zr
atom 7.4190288682001286 7.4963978365250892 22.5112996701568413 Zr
atom 2.4540362781780973 2.5088572886808018 27.5684864398640173 Zr
atom 7.4699267524405828 2.4861695859786637 27.5684864398640173 Zr
atom 2.4313485754759605 7.5247477629432913 27.5684864398640173 Zr
atom 7.4270329132708124 7.4818539237735102 27.5684864398640173 Zr
atom 2.7186371992346494 2.8471188450795077 19.9946293157286483 S
atom 7.1316651960418733 2.2215686649221098 19.9946293157286483 S
atom 2.0930870190772488 7.2601468418867414 19.9946293157286483 S
atom 7.6916338343273551 7.8201154801722241 19.9946293157286483 S
atom 2.2048480993630557 2.2227783404689641 25.0058862315369659 S
atom 7.7560057006524099 2.7353577647937075 25.0058862315369659 S
atom 2.7174275236877969 7.7739359417583378 25.0058862315369659 S
atom 7.1778447344557756 7.1957749755616858 25.0058862315369659 S
atom 2.8640603990677311 0.0162323812483923 22.1842132386285407 S
atom 7.0897740137425043 -0.0132876207363524 22.8018594876190335 S
atom 2.0511958367778820 5.0252905562282786 22.8018594876190335 S
atom 7.8370570341604378 4.9892290163411115 22.1842132386285407 S
atom 2.7605917350699980 0.0211415025202024 27.7215133072264948 S
atom 7.1580955554852626 -0.0087677511104014 27.2143111263109247 S
atom 2.1195173785206336 5.0298104258542224 27.2143111263109247 S
atom 7.7335883701627068 4.9941381376129224 27.7215133072264948 S
atom -0.0490231521843489 2.1417270069609406 22.1842132386285407 S
atom 4.9534934848930989 2.8890100273788804 22.8018594876190335 S
atom -0.0850846920715177 7.9275882043435049 22.8018594876190335 S
atom 4.9239734829083606 7.1147236420536641 22.1842132386285407 S
atom -0.0539322734561589 2.2451956709586791 27.7215133072264948 S
atom 4.9489736152671737 2.8206884856361265 27.2143111263109247 S
atom -0.0896045616974686 7.8592666626007555 27.2143111263109247 S
atom 4.9190643616365621 7.2181923060514004 27.7215133072264948 S
atom 0.0573691211411486 -0.1467491467231974 29.7478544095290900 Ba
atom 5.1525365527518732 -0.0901598920771048 29.7478544095290900 Ba
atom 0.1139583757872405 4.9484182848875244 29.7478544095290900 Ba
atom 5.0303657562338602 4.8262474883695132 29.7478544095290900 Ba
atom 2.5807757664461577 2.7262490461162088 30.0744766843427200 S
atom 7.2525349950051714 2.3594300977106033 30.0744766843427200 S
atom 2.2139568180405487 7.3980082746752291 30.0744766843427200 S
atom 7.5537724015388621 7.6992456812089332 30.0744766843427200 S
atom 2.4291291964052082 2.6332474642695569 33.1963412590805689 Ba
atom 7.3455365768518268 2.5110766677515524 33.1963412590805689 Ba
atom 2.3069583998872023 7.5496548447161800 33.1963412590805689 Ba
atom 7.4021258314979228 7.6062440993622804 33.1963412590805689 Ba
atom 2.7826774433690500 2.2675940374252526 37.9809889972916679 Ba
atom 7.7111900036961263 2.1575284207877035 37.9809889972916679 Ba
atom 2.6726118267315049 7.1961065977523422 37.9809889972916679 Ba
atom 7.7556740784617659 7.2405906725179641 37.9809889972916679 Ba
atom 5.0054586744609706 4.9506376639582790 35.3757092287456416 Zr
atom 10.0011430122558309 4.9077438247885015 35.3757092287456416 Zr
atom 4.9625648352911957 9.9463220017531491 35.3757092287456416 Zr
atom 9.9784553095536648 9.9236342990509794 35.3757092287456416 Zr
atom 5.0134627195316570 4.9360937512067036 40.4328959984527359 Zr
atom 10.0156869250073886 4.8997397797178106 40.4328959984527359 Zr
atom 4.9771087480427640 9.9383179566824520 40.4328959984527359 Zr
atom 9.9864593546243832 9.9090903862994129 40.4328959984527359 Zr
atom 4.8787191861929067 4.7332459065228667 32.8697189842669033 S
atom 10.2185347696912157 5.0344833130565627 32.8697189842669033 S
atom 5.1799565927266062 10.0730614900211783 32.8697189842669033 S
atom 9.8517158212856231 9.7062425416155786 32.8697189842669033 S
atom 5.2546468532760198 5.2367166121701079 37.9383094370727889 S
atom 9.7150640640439825 4.6585556459734567 37.9383094370727889 S
atom 4.6764858870793651 9.6971338229380670 37.9383094370727889 S
atom 10.2276434883687255 10.2097132472628385 37.9383094370727889 S
atom 5.3399775741184357 2.4296845267848433 35.7298845422987128 S
atom 9.7374813945337024 2.3997752731542454 35.2226823613831712 S
atom 4.6989032175690797 7.4383534501188757 35.2226823613831712 S
atom 10.3129742092111520 7.4026811618775730 35.7298845422987128 S
atom 5.4082991158611913 2.4342043964107960 40.1423361809905401 S
atom 9.6340127305359538 2.4046843944260505 40.7599824299810649 S
atom 4.5954345535713346 7.4432625713906786 40.7599824299810649 S
atom 10.3812957509539121 7.4072010315035115 40.1423361809905401 S
atom 2.5105213373719111 4.6388064670029578 35.7298845422987128 S
atom 7.5134272260952208 5.2142992816803879 35.2226823613831712 S
atom 2.4748490491305986 10.2528774586450080 35.2226823613831712 S
atom 7.4835179724646146 9.6118031020956671 35.7298845422987128 S
atom 2.5060014677459663 4.5704849252602022 40.1423361809905401 S
atom 7.5085181048234206 5.3177679456781304 40.7599824299810649 S
atom 2.4699399278587886 10.3563461226427744 40.7599824299810649 S
atom 7.4789981028386805 9.5434815603528911 40.1423361809905401 S
atom 2.2375284149051091 2.6370361755209122 42.9577342117158878 Ba
atom 7.3417478656004862 2.7026774492516483 42.9577342117158878 Ba
atom 2.3031696886358461 7.7412556262162777 42.9577342117158878 Ba
atom 7.2105250499978180 7.6100328106136290 42.9577342117158878 Ba
atom 2.7997157833393103 2.2725854296264614 47.9574824141787417 Ba
atom 7.7061986114949192 2.1404900808174463 47.9574824141787417 Ba
atom 2.6676204345303023 7.1790682577820881 47.9574824141787417 Ba
atom 7.7727124184320200 7.2455820647191729 47.9574824141787417 Ba
atom 5.0021624285711983 4.9422640926243542 45.4498102801390544 Zr
atom 10.0095165835897255 4.9110400706782604 45.4498102801390544 Zr
atom 4.9709384066251152 9.9496182476428991 45.4498102801390544 Zr
atom 9.9751590636639129 9.9152607277170794 45.4498102801390544 Zr
atom 5.0021624285711983 4.9422640926243542 50.4651545482185213 Zr
atom 10.0095165835897255 4.9110400706782604 50.4651545482185213 Zr
atom 4.9709384066251152 9.9496182476428991 50.4651545482185213 Zr
atom 9.9751590636639129 9.9152607277170794 50.4651545482185213 Zr
atom 4.7408577534044145 4.6123761075595606 42.9495663528809501 S
atom 10.3394045686545191 5.1723447458450611 42.9495663528809501 S
atom 5.3008263916899034 10.2109229228096900 42.9495663528809501 S
atom 9.7138543884971025 9.5853727426522628 42.9495663528809501 S
atom 5.2716497914962517 5.2724649588795538 47.9574824141787417 S
atom 9.6793157173345232 4.6415527077532097 47.9574824141787417 S
atom 4.6407375403699245 9.6801308847178298 47.9574824141787417 S
atom 10.2446464265889805 10.2454615939722569 47.9574824141787417 S
atom 5.4045286119603189 2.4374411185874205 45.7762576020036676 S
atom 9.6433682438629589 2.4075852618303775 45.1381023560180452 S
atom 4.6047900668983459 7.4461634387950069 45.1381023560180452 S
atom 10.3775252470530397 7.4104377536801378 45.7762576020036676 S
atom 5.4045286119603189 2.4374411185874205 50.1387072263538514 S
atom 9.6433682438629589 2.4075852618303775 50.7768624723396371 S
atom 4.6047900668983459 7.4461634387950069 50.7768624723396371 S
atom 10.3775252470530397 7.4104377536801378 50.1387072263538514 S
atom 2.5027647455693374 4.5742554291610587 45.7762576020036676 S
atom 7.5056172374191075 5.3084124323511306 45.1381023560180452 S
atom 2.4670390604544683 10.3469906093157640 45.1381023560180452 S
atom 7.4757613806620524 9.5472520642537724 45.7762576020036676 S
atom 2.5027647455693374 4.5742554291610587 50.1387072263538514 S
atom 7.5056172374191075 5.3084124323511306 50.7768624723396371 S
atom 2.4670390604544683 10.3469906093157640 50.7768624723396371 S
atom 7.4757613806620524 9.5472520642537724 50.1387072263538514 S
atom 2.2375284149051091 2.6370361755209122 52.9572306166417661 Ba
atom 7.3417478656004862 2.7026774492516483 52.9572306166417661 Ba
atom 2.3031696886358461 7.7412556262162777 52.9572306166417661 Ba
atom 7.2105250499978180 7.6100328106136290 52.9572306166417661 Ba
atom 2.7826774433690500 2.2675940374252526 57.9339758310658297 Ba
atom 7.7111900036961263 2.1575284207877035 57.9339758310658297 Ba
atom 2.6726118267315049 7.1961065977523422 57.9339758310658297 Ba
atom 7.7556740784617659 7.2405906725179641 57.9339758310658297 Ba
atom 5.0134627195316570 4.9360937512067036 55.4820688299047688 Zr
atom 10.0156869250073886 4.8997397797178106 55.4820688299047688 Zr
atom 4.9771087480427640 9.9383179566824520 55.4820688299047688 Zr
atom 9.9864593546243832 9.9090903862994129 55.4820688299047688 Zr
atom 5.0054586744609706 4.9506376639582790 60.5392555996119484 Zr
atom 10.0011430122558309 4.9077438247885015 60.5392555996119484 Zr
atom 4.9625648352911957 9.9463220017531491 60.5392555996119484 Zr
atom 9.9784553095536648 9.9236342990509794 60.5392555996119484 Zr
atom 4.7408577534044145 4.6123761075595606 52.9653984754765546 S
atom 10.3394045686545191 5.1723447458450611 52.9653984754765546 S
atom 5.3008263916899034 10.2109229228096900 52.9653984754765546 S
atom 9.7138543884971025 9.5853727426522628 52.9653984754765546 S
atom 5.2546468532760198 5.2367166121701079 57.9766553912848295 S
atom 9.7150640640439825 4.6585556459734567 57.9766553912848295 S
atom 4.6764858870793651 9.6971338229380670 57.9766553912848295 S
atom 10.2276434883687255 10.2097132472628385 57.9766553912848295 S
atom 5.4082991158611913 2.4342043964107960 55.7726286473670214 S
atom 9.6340127305359538 2.4046843944260505 55.1549823983765179 S
atom 4.5954345535713346 7.4432625713906786 55.1549823983765179 S
atom 10.3812957509539121 7.4072010315035115 55.7726286473670214 S
atom 5.3399775741184357 2.4296845267848433 60.1850802860588985 S
atom 9.7374813945337024 2.3997752731542454 60.6922824669743974 S
atom 4.6989032175690797 7.4383534501188757 60.6922824669743974 S
atom 10.3129742092111520 7.4026811618775730 60.1850802860588985 S
atom 2.5060014677459663 4.5704849252602022 55.7726286473670214 S
atom 7.5085181048234206 5.3177679456781304 55.1549823983765179 S
atom 2.4699399278587886 10.3563461226427744 55.1549823983765179 S
atom 7.4789981028386805 9.5434815603528911 55.7726286473670214 S
atom 2.5105213373719111 4.6388064670029578 60.1850802860588985 S
atom 7.5134272260952208 5.2142992816803879 60.6922824669743974 S
atom 2.4748490491305986 10.2528774586450080 60.6922824669743974 S
atom 7.4835179724646146 9.6118031020956671 60.1850802860588985 S
atom 2.4291291964052082 2.6332474642695569 62.7186235692770140 Ba
atom 7.3455365768518268 2.5110766677515524 62.7186235692770140 Ba
atom 2.3069583998872023 7.5496548447161800 62.7186235692770140 Ba
atom 7.4021258314979228 7.6062440993622804 62.7186235692770140 Ba
atom 4.8787191861929067 4.7332459065228667 63.0452458440906298 S
atom 10.2185347696912157 5.0344833130565627 63.0452458440906298 S
atom 5.1799565927266062 10.0730614900211783 63.0452458440906298 S
atom 9.8517158212856231 9.7062425416155786 63.0452458440906298 S
