#=======================================================
# FHI-aims file: sym_relax/sym_relax_RP_7_Rx0Mz_0RyMz.in
# Created using the Atomic Simulation Environment (ASE)
# Mon Mar 17 15:44:47 2025
#=======================================================
lattice_vector 10.0127604032587971 0.0673844968799821 -0.0000237114038755 
lattice_vector 0.0673844968799820 10.0127604032588380 0.0000237114038755 
lattice_vector -0.0001916163607670 0.0001916163607669 75.8986001909042756 
atom 0.1325428497314743 0.1704818817484869 0.2134983711150476 Ba
atom 5.1767852623746071 0.1662545233702286 0.2134989239852652 Ba
atom 0.2040973091852061 5.1389424765596496 0.2135226353891413 Ba
atom 5.1726152998008628 5.2105543318178844 0.2134983711150476 Ba
atom -0.2657469920786481 -0.1900248554258507 5.0033341025908200 Ba
atom 4.8162746632946867 -0.2320056036189199 5.0033291056808427 Ba
atom -0.1564132898947194 4.7406823495705011 5.0033528170847257 Ba
atom 4.7743254579907468 4.8500475946435460 5.0033341025908182 Ba
atom 2.5278321983364687 2.5352309151864882 2.3951554961822650 Zr
atom 7.5415364847256949 2.5615800795800996 2.3951348416446954 Zr
atom 2.5688485315362848 7.5342680327695302 2.3951585530485739 Zr
atom 7.5679046484058565 7.5753033652559028 2.3951554961822636 Zr
atom 2.5144385827224638 2.5097864059306034 7.4480930626615924 Zr
atom 7.5160585578061028 2.5482389053119814 7.4480873951834852 Zr
atom 2.5433706046166895 7.5209268585013946 7.4481111065873629 Zr
atom 7.5545110327918419 7.5498588560000153 7.4480930626615915 Zr
atom 2.2666471459397459 2.6946724409754692 -0.1112943363747730 S
atom 7.7009718953957842 2.3003885762987712 -0.1113167316238913 S
atom 2.7282839422063705 7.2730765294881934 -0.1112930202200159 S
atom 7.3067195960091551 7.7347448910448637 -0.1112943363747730 S
atom 2.8252403657323852 2.2662593502186370 4.9550279301541105 S
atom 7.2725600277261169 2.8589934213534560 4.9550119029577546 S
atom 2.2998720745366943 7.8316813745428746 4.9550356143616243 S
atom 7.8653128158017767 7.3063318002880440 4.9550279301541069 S
atom 2.7894557806884861 0.0150850581518394 2.2218654939754541 S
atom 7.1829322284391877 0.0457136206495295 2.7745137666982016 S
atom 2.2102442752497882 5.0184015738389309 2.7745374781020731 S
atom 7.8295282307578606 5.0551575082212423 2.2218654939754545 S
atom 2.8931068212958686 0.0158984564738085 7.7808970964425228 S
atom 7.1255634183274736 0.0462610820667199 7.1564791866511772 S
atom 2.1528754651380613 5.0189490352561554 7.1565028980550522 S
atom 7.9331792713652485 5.0559709065432248 7.7808970964425219 S
atom 0.0119480661055651 2.1766496004680520 2.7745296151548913 S
atom 5.0213918422116324 2.8232401266014411 2.2218668324519126 S
atom 0.0487038890222146 7.7959280797908601 2.2218905438557872 S
atom 5.0520205161749523 7.2167220505374567 2.7745296151548908 S
atom 0.0124770391610935 2.1192589709693070 7.1564867768386451 S
atom 5.0221908198945640 2.9268890268608323 7.7809017912909919 S
atom 0.0495028667051640 7.8995769800502540 7.7809255026948749 S
atom 5.0525494892304748 7.1593314210387007 7.1564867768386460 S
atom 0.2816619395794611 0.1824139461037180 9.9747827222401462 Ba
atom 5.1886691742383979 0.3154825053598378 9.9747948968987004 Ba
atom 0.2159812210489927 5.2881704585492386 9.9748186083025683 Ba
atom 5.3217343896488458 5.2224863961731138 9.9747827222401479 Ba
atom -0.2826424779617552 -0.1815074698032758 14.9755445978193524 Ba
atom 4.8247427264623779 -0.2488134074189103 14.9755652024892925 Ba
atom -0.1479452267270311 4.7238745457705056 14.9755889138931853 Ba
atom 4.7574299721076239 4.8585649802661379 14.9755445978193578 Ba
atom 2.5215243828436757 2.5240898556470892 12.4635451071113277 Zr
atom 7.5303441026802451 2.5553378987559556 12.4635357048361222 Zr
atom 2.5576561494908563 7.5280258519453866 12.4635594162399794 Zr
atom 7.5615968329130672 7.5641623057164802 12.4635451071113383 Zr
atom 2.5199921028463641 2.5200803472230353 17.4766513597477591 Zr
atom 7.5263723044757622 2.5537725956630313 17.4766395040458065 Zr
atom 2.5536843512863494 7.5264605488524579 17.4766632154496691 Zr
atom 7.5600645529157422 7.5601527972924405 17.4766513597477591 Zr
atom 2.1894949334888585 2.7852214985989869 9.9655971543331532 S
atom 7.7914825936387970 2.2232912541303094 9.9655919671186322 S
atom 2.8187946404494042 7.1959792073197404 9.9656156785225267 S
atom 7.2295673835582219 7.8252939486683912 9.9655971543331514 S
atom 2.8531798914318909 2.2523579643429641 14.9729760266545551 S
atom 7.2585983433975496 2.8869504342422689 14.9729693939458031 S
atom 2.2859103902081546 7.8596383874316897 14.9729931053496799 S
atom 7.8932523415012783 7.2924304144123706 14.9729760266545551 S
atom 2.8861239822934222 0.0193780639969127 12.1540137326199176 S
atom 7.1267915868651253 0.0501545105875719 12.7944736236195915 S
atom 2.1541036336757102 5.0228424637770024 12.7944973350234630 S
atom 7.9261964323627891 5.0594505140663095 12.1540137326199176 S
atom 2.8851069626855175 0.0183411951632591 17.7982804925459703 S
atom 7.1275651961965858 0.0491315460933932 17.1549985155456284 S
atom 2.1548772430071970 5.0218194992828202 17.1550222269495194 S
atom 7.9251794127549173 5.0584136452326645 17.7982804925459668 S
atom 0.0163316359304525 2.1205660355505875 12.7945067010767666 S
atom 5.0256241575550886 2.9199655901352819 12.1539799671970812 S
atom 0.0529362043656949 7.8926535433247249 12.1540036786009384 S
atom 5.0564040859998389 7.1606384856200007 12.7945067010767666 S
atom 0.0153500475646221 2.1212832906809935 17.1550067643521515 S
atom 5.0246341581280944 2.9188774037650802 17.7982959551433524 S
atom 0.0519462049386912 7.8915653569545112 17.7983196665472150 S
atom 5.0554224976339963 7.1613557407504080 17.1550067643521444 S
atom 0.2825542335850863 0.1815957141799450 19.9777581216760751 Ba
atom 5.1879294324197467 0.3162861486755626 19.9777138056023027 Ba
atom 0.2152414792303437 5.2889741018649836 19.9777375170061973 Ba
atom 5.3226266836544598 5.2216681642493521 19.9777581216760787 Ba
atom -0.2817501839561301 -0.1823257017270487 24.9785199972553684 Ba
atom 4.8240029846437320 -0.2480097641031864 24.9784841111929481 Ba
atom -0.1486849685456797 4.7246781890862373 24.9785078225968000 Ba
atom 4.7583222661132503 4.8577467483423495 24.9785199972553649 Ba
atom 2.5184598228490356 2.5160708387989899 22.4897576123841176 Zr
atom 7.5224005062712482 2.5522072925700954 22.4897433032554943 Zr
atom 2.5497125530818483 7.5248952457595255 22.4897670146593818 Zr
atom 7.5585322729184448 7.5561432888683839 22.4897576123841176 Zr
atom 2.5255456229702449 2.5303742885154712 27.5052096568338307 Zr
atom 7.5366860511453968 2.5593062860140821 27.5051916129082095 Zr
atom 2.5639980979560009 7.5319942392035024 27.5052153243119939 Zr
atom 7.5656180730396372 7.5704467385848719 27.5052096568338271 Zr
atom 2.1868043142608169 2.7878027301031123 19.9803266928409400 S
atom 7.7941462655539473 2.2205947570837798 19.9803096141457495 S
atom 2.8214583123645460 7.1932827102732055 19.9803333255496227 S
atom 7.2268767643302034 7.8278751801725166 19.9803266928409542 S
atom 2.8504892722038684 2.2549391958470824 24.9877055651623152 S
atom 7.2612620153127034 2.8842539371957407 24.9876870409729435 S
atom 2.2885740621232977 7.8569418903851611 24.9877107523768096 S
atom 7.8905617222732580 7.2950116459164889 24.9877055651623117 S
atom 2.8858805720170069 0.0173182306690804 22.1588053844720392 S
atom 7.1265481765886936 0.0480946772597379 22.7992652754716616 S
atom 2.1538602233993038 5.0207826304491503 22.7992889868755739 S
atom 7.9259530220863992 5.0573906807384796 22.1588053844720463 S
atom 2.8871087405546487 0.0212116591899319 27.7967998214404304 S
atom 7.1195653375862369 0.0515742847828422 27.1723819116491008 S
atom 2.1468773843968565 5.0242622379722590 27.1724056230530024 S
atom 7.9271811906240384 5.0612841092593328 27.7967998214404304 S
atom 0.0143600481376182 2.1201951043107878 22.7993227522984192 S
atom 5.0236525697622527 2.9195946588954889 22.1587960184187374 S
atom 0.0509646165728597 7.8922826120848990 22.1588197298226177 S
atom 5.0544324982070146 7.1602675543801926 22.7993227522984263 S
atom 0.0177933857981486 2.1132716675852499 27.1724009282044889 S
atom 5.0275071665316196 2.9209017234767565 27.7968159426567780 S
atom 0.0548192133422193 7.8935896766661804 27.7968396540606442 S
atom 5.0578658358675392 7.1533441176546511 27.1724009282044889 S
atom 0.2656587477019788 0.1901130998025201 29.9499686169046697 Ba
atom 5.1963974955874370 0.2994783448755715 29.9499499024107614 Ba
atom 0.2237095423980320 5.2721662980649908 29.9499736138145956 Ba
atom 5.3057311977713679 5.2301855498719130 29.9499686169046662 Ba
atom -0.1326310941081433 -0.1703936373718183 34.7398043483804173 Ba
atom 4.8358868965075015 -0.0987817821135776 34.7397800841063003 Ba
atom -0.1368010566818937 4.8739061710758502 34.7398037955101984 Ba
atom 4.9074413559612458 4.8696788126975887 34.7398043483804173 Ba
atom 2.5121520073562391 2.5049297792595815 32.5581472233132416 Zr
atom 7.5112081242258109 2.5459651117459492 32.5581441664469153 Zr
atom 2.5385201710364145 7.5186530649353793 32.5581678778508561 Zr
atom 7.5522244574256270 7.5450022293289880 32.5581472233132416 Zr
atom 2.2147438399603301 2.7739013442274354 29.9982747893413624 S
atom 7.7801845812254191 2.2485517699726056 29.9982671051338201 S
atom 2.8074966280360054 7.2212397231620180 29.9982908165377751 S
atom 7.2548162900296997 7.8139737942968397 29.9982747893413695 S
atom 2.7733370597529605 2.3454882534706041 35.0645970558703581 S
atom 7.3517727135557305 2.8071566150272869 35.0645957397154575 S
atom 2.3790847603663212 7.7798445682167063 35.0646194511194622 S
atom 7.8134095098223488 7.3855607035400137 35.0645970558703581 S
atom 2.8297399304429232 0.0217591206071224 32.1787652413934708 S
atom 7.2232163781936460 0.0523876831048117 32.7314135141162055 S
atom 2.2505284250042417 5.0250756362942406 32.7314372255200894 S
atom 7.8698123805123057 5.0618315706765227 32.1787652413934708 S
atom 0.0185923634810989 2.2169205678446309 32.7314358870436095 S
atom 5.0280361395871465 2.8635110939780195 32.1787731043405643 S
atom 0.0553481863977477 7.8361990471674599 32.1787968157445192 S
atom 5.0586648135504841 7.2569930179140414 32.7314358870436095 S
atom 2.3494585351058221 2.3875891834836080 38.1627984665673381 Ba
atom 7.3937583435534631 2.3834192209098592 38.1627990194375428 Ba
atom 2.4210703903640582 7.3561071740992805 38.1628227308414694 Ba
atom 7.3895309851752229 7.4276616335530177 38.1627984665673381 Ba
atom 2.7099652722801593 2.7858790252937329 42.9526341980430928 Ba
atom 7.7920184705426117 2.7439298199897926 42.9526292011331421 Ba
atom 2.8193305173532006 7.7166177731792125 42.9526529125369905 Ba
atom 7.7500377223495365 7.8259514753631452 42.9526341980430928 Ba
atom 5.0247819517372116 5.0323722849479999 40.3444555916344854 Zr
atom 10.0385052374129948 5.0587404486281820 40.3444349370969206 Zr
atom 5.0658172842235851 10.0314284018176263 40.3444586485007832 Zr
atom 10.0648544018066222 10.0724447350174184 40.3444555916344854 Zr
atom 5.0502264609931133 5.0457659005620092 45.3973931581138643 Zr
atom 10.0518464116810993 5.0842183755477564 45.3973874906356230 Zr
atom 5.0791584584917144 10.0569063287371687 45.3974112020394713 Zr
atom 10.0902989110624528 10.0858383506314002 45.3973931581138643 Zr
atom 4.8653404259482391 5.2935573373447120 37.8380057590773973 S
atom 10.2996967406943423 4.8993050379580678 37.8379833638283500 S
atom 5.3270087875049104 9.8719929911475166 37.8380070752322482 S
atom 9.9054128760176336 10.3336297874141305 37.8380057590773973 S
atom 5.2937535167050642 4.7349641175520922 42.9043280256063824 S
atom 9.7410918956396504 5.3277169056277627 42.9043119984100088 S
atom 4.7684039424502309 10.3004048588171742 42.9043357098138571 S
atom 10.3338259667744303 9.7750365676215054 42.9043280256063682 S
atom 4.7367727403222748 2.5388126410728451 40.1711669279041743 S
atom 10.3560512196450372 2.5755684639894985 40.7238059992033783 S
atom 5.3833632664556337 7.5482564171789210 40.7238297106071556 S
atom 9.7768451903916844 7.5788850911422507 40.1711669279041743 S
atom 4.6331238400628889 2.5380136633899046 45.7302018867433588 S
atom 10.4134418491437764 2.5750394909339729 45.1057631608870579 S
atom 5.4407538959544057 7.5477274441233959 45.1057868722908850 S
atom 9.6731962901322763 7.5780861134592978 45.7302018867433588 S
atom 2.5416112930847659 5.3499602080346875 40.7238375735542704 S
atom 7.5449278087718588 4.7707487025960065 40.1711655894276802 S
atom 2.5722398555824486 9.7434366557854233 40.1711893008315357 S
atom 7.5816837431541444 10.3900326581041202 40.7238375735542704 S
atom 2.5410638316675662 5.4073290181464193 45.1058029935072824 S
atom 7.5441144104498807 4.6670976619886044 45.7301971918947601 S
atom 2.5714264572604888 9.6397856151780115 45.7302209032986511 S
atom 7.5811362817369483 10.4474014682158369 45.1058029935072824 S
atom 2.3375264707505830 2.2384700936356254 47.9240828176923657 Ba
atom 7.2445303615638652 2.3715353090460769 47.9240949923509518 Ba
atom 2.2718424083744519 7.3442232622354977 47.9241187037548002 Ba
atom 7.3775989208199917 7.2785425437050248 47.9240828176923799 Ba
atom 2.7014478866575855 2.8027745111768372 52.9248446932716021 Ba
atom 7.8088262743425982 2.7354617568220938 52.9248652979415084 Ba
atom 2.8361383211531956 7.7081497100115133 52.9248890093454136 Ba
atom 7.7415203367269703 7.8428469612462575 52.9248446932716021 Ba
atom 5.0359230112766307 5.0386801004407973 50.4128452025636165 Zr
atom 10.0447474182371259 5.0699328306736069 50.4128358002883985 Zr
atom 5.0720594650477206 10.0426207838629971 50.4128595116922753 Zr
atom 10.0759954613459897 10.0787525505102096 50.4128452025636236 Zr
atom 5.0399325197006650 5.0402123804381214 55.4259514551999928 Zr
atom 10.0463127213300574 5.0739046288781093 55.4259395994980437 Zr
atom 5.0736247681406512 10.0465925820675341 55.4259633109019134 Zr
atom 10.0800049697700622 10.0802848305075212 55.4259514551999928 Zr
atom 4.7747913683247170 5.3707095497956230 47.9148972497853691 S
atom 10.3767940628627660 4.8087943397150639 47.9148920625708428 S
atom 5.4041061096733705 9.7814822929044851 47.9149157739747480 S
atom 9.8148638183940911 10.4107819998650459 47.9148972497853762 S
atom 5.3076549025807331 4.7070245918525826 52.9222761221068225 S
atom 9.7131348827507917 5.3416785899563193 52.9222694893980403 S
atom 4.7404469295614016 10.3143665431457006 52.9222932008019455 S
atom 10.3477273526501730 9.7470970419219594 52.9222761221068083 S
atom 4.6400472767884207 2.5345803257293631 50.1032800626493753 S
atom 10.4121347845625092 2.5711848941646140 50.7437830851250169 S
atom 5.4394468313731021 7.5438728473540264 50.7438067965289719 S
atom 9.6801197268578267 7.5746527757987838 50.1032800626493753 S
atom 4.6411354631586370 2.5355703251563781 55.7475960505956039 S
atom 10.4114175294320965 2.5721664825304473 55.1042831484005404 S
atom 5.4387295762427081 7.5448544357198735 55.1043068598044030 S
atom 9.6812079132279880 7.5756427752257745 55.7475960505956039 S
atom 2.5371704031467175 5.4061008496087659 50.7437974304757873 S
atom 7.5406348029267702 4.6740805009910709 50.1033138280722099 S
atom 2.5679468497373841 9.6467684541804690 50.1033375394759517 S
atom 7.5772428532161067 10.4461732996781880 50.7437974304757873 S
atom 2.5381933676408988 5.4053272402772921 55.1043223224017069 S
atom 7.5416716717604393 4.6750975205989596 55.7475805879981863 S
atom 2.5689837185710362 9.6477854737883906 55.7476042994021839 S
atom 7.5782658177102817 10.4453996903466866 55.1043223224016927 S
atom 2.3383447026743651 2.2375777996300008 57.9270582171283763 Ba
atom 7.2437267182481309 2.3722750508647232 57.9270139010545222 Ba
atom 2.2710387650587256 7.3449630040541471 57.9270376124584701 Ba
atom 7.3784171527437525 7.2776502496993949 57.9270582171283834 Ba
atom 2.7022661185813579 2.8018822171712157 62.9278200927075559 Ba
atom 7.8080226310268639 2.7362014986407446 62.9277842066451285 Ba
atom 2.8353346778374768 7.7088894518301601 62.9278079180490053 Ba
atom 7.7423385686507444 7.8419546672406133 62.9278200927075630 Ba
atom 5.0439420281247127 5.0417446604354375 60.4390577078363620 Zr
atom 10.0478780244229533 5.0778764270826207 60.4390433987076818 Zr
atom 5.0751900712335898 10.0505643802720286 60.4390671101115302 Zr
atom 10.0840144781941152 10.0818171105048435 60.4390577078363904 Zr
atom 5.0296385784082451 5.0346588603142237 65.4545097522861283 Zr
atom 10.0407790309790279 5.0635908822084668 65.4544917083602940 Zr
atom 5.0680910777895951 10.0362788353978800 65.4545154197640926 Zr
atom 10.0697110284776112 10.0747313103836440 65.4545097522861283 Zr
atom 4.7722101368205951 5.3734001690236539 57.9296267882931346 S
atom 10.3794905599093390 4.8061306677999038 57.9296097095980613 S
atom 5.4068026067199133 9.7788186209893517 57.9296334210018671 S
atom 9.8122825868900048 10.4134726190930564 57.9296267882931488 S
atom 5.3050736710766175 4.7097152110806046 62.9370056606145596 S
atom 9.7158313797973399 5.3390149180411672 62.9369871364251736 S
atom 4.7431434266079453 10.3117028712305689 62.9370108478290646 S
atom 10.3451461211459783 9.7497876611500320 62.9370056606145525 S
atom 4.6404182080282306 2.5365519135222017 60.1080961138710208 S
atom 10.4125057158022880 2.5731564819574495 60.7485991363467477 S
atom 5.4398177626129174 7.5458444351468650 60.7486228477506387 S
atom 9.6804906580976215 7.5766243635916179 60.1080961138710208 S
atom 4.6391111434469430 2.5326973167528481 65.7461160381091076 S
atom 10.4194291525278580 2.5697231442969106 65.1216773122527854 S
atom 5.4467411993384482 7.5424110974863501 65.1217010236567830 S
atom 9.6791835935163579 7.5727697668222502 65.7461160381091076 S
atom 2.5392302364745514 5.4063442598851870 60.7485890823278751 S
atom 7.5426946362546197 4.6743239112674635 60.1081054799242196 S
atom 2.5700066830652113 9.6470118644568981 60.1081291913280111 S
atom 7.5793026865439330 10.4464167099545868 60.7485890823278751 S
atom 2.5357506289514427 5.4133270988876268 65.1217057185052539 S
atom 7.5388012077337851 4.6730957427298252 65.7460999168925611 S
atom 2.5661132545443626 9.6457836959192296 65.7461236282965160 S
atom 7.5758230790208447 10.4533995489570355 65.1217057185052539 S
atom 2.3298273170517896 2.2544732855131073 67.8992687123568146 Ba
atom 7.2605345220481210 2.3638069876970342 67.8992499978629525 Ba
atom 2.2878465688587228 7.3364949408864559 67.8992737092670637 Ba
atom 7.3698997671211872 7.2945457355825116 67.8992687123568146 Ba
atom 2.6903340542261263 2.6527631273232322 72.6891044438325764 Ba
atom 7.6587946490372749 2.7243175867769573 72.6890801795585872 Ba
atom 2.6861066958478617 7.6970055399663933 72.6891038909626133 Ba
atom 7.7304065042955266 7.6928355773926205 72.6891044438325764 Ba
atom 5.0550830876641344 5.0480524759282197 70.5074473187653723 Zr
atom 10.0541202052471164 5.0890688091280536 70.5074442618990957 Zr
atom 5.0814322520577289 10.0617567623174722 70.5074679733030933 Zr
atom 10.0951555377334827 10.0881249259976027 70.5074473187653723 Zr
atom 4.7861115226962827 5.3454606433241452 67.9475748847936956 S
atom 10.3515335470204590 4.8200923521284533 67.9475672005861213 S
atom 5.3788455938310902 9.7927803053179030 67.9475909119899484 S
atom 9.8261839727656870 10.3855330933935388 67.9475748847936956 S
atom 5.2145246134531007 4.7868674235315334 73.0138971513225101 S
atom 9.7929287019657973 5.2485042197981580 73.0138958351674319 S
atom 4.8202407487763947 10.2211921729875304 73.0139195465716142 S
atom 10.2545970635225014 9.8269398736008906 73.0138971513225101 S
atom 4.6965017729457008 2.5321683436973195 70.1280731997928513 S
atom 10.3157802522684676 2.5689241666139742 70.6807122710920339 S
atom 5.3430922990790508 7.5416121198034016 70.6807359824958468 S
atom 9.7365742230150847 7.5722407937667278 70.1280731997928513 S
atom 2.5349372306294833 5.3096760582802300 70.6807373209723266 S
atom 7.5382537463165802 4.7304645528415508 70.1280653368454807 S
atom 2.5655657931271687 9.7031525060309658 70.1280890482496204 S
atom 7.5750096806988667 10.3497485083496681 70.6807373209723266 S
