#=======================================================
# FHI-aims file: sym_relax/sym_relax_RP_6_RxRyRz_RxRyRz.in
# Created using the Atomic Simulation Environment (ASE)
# Fri Mar 14 11:06:57 2025
#=======================================================
lattice_vector 9.9746817295625636 0.0053613384035330 0.0002271454694328 
lattice_vector 0.0053613384035326 9.9746817295625885 -0.0002271454694327 
lattice_vector 0.0042234724017576 -0.0042234724017592 66.4039154173166111 
atom 0.0467755023639439 -0.1099435329438529 0.2097674693381623 Ba
atom 5.0972843977251259 -0.0440948331621779 0.2098810420728784 Ba
atom 0.1126242021456192 4.9405653624173347 0.2096538966034453 Ba
atom 5.0367970363469849 4.8800780010392160 0.2097674693381624 Ba
atom -0.2590569107031534 0.2015529362331621 5.0075456574716268 Ba
atom 4.7857879285481193 0.2617375799049210 5.0076592302063441 Ba
atom -0.1988722670313946 5.2463977754844553 5.0074320847369194 Ba
atom 4.7309646232798848 5.1915744702162288 5.0075456574716268 Ba
atom 2.4688660224770378 2.5289165453369615 2.3883577199285715 Zr
atom 7.4484458534273701 2.5238361807077889 2.3884712926632892 Zr
atom 2.4637856578478643 7.5084963762873107 2.3882441471938547 Zr
atom 7.4588875564600654 7.5189380793200238 2.3883577199285715 Zr
atom 2.4161324579794008 2.5376359423830648 7.4705844946456210 Zr
atom 7.4397264563812628 2.5765697452054113 7.4706980673803356 Zr
atom 2.4550662608017610 7.5612299407849379 7.4704709219109082 Zr
atom 7.4061539919624417 7.5276574763661257 7.4705844946456210 Zr
atom 2.6311487818941623 2.7616613164348691 -0.1222268682988042 S
atom 7.2157010823294625 2.3615534212906626 -0.1221132955640881 S
atom 2.2310408867499478 7.3462136168702008 -0.1223404410335208 S
atom 7.6211703158771940 7.7516828504179340 -0.1222268682988042 S
atom 2.2368616306679838 2.2854152891498889 4.9627816856155960 S
atom 7.6919471096144356 2.7558405725168362 4.9628952583503168 S
atom 2.7072869140349276 7.7405007680963704 4.9626681128808885 S
atom 7.2268831646510092 7.2754368231329565 4.9627816856155977 S
atom 2.7267006415676600 0.0415867441465311 2.2471281997655916 S
atom 7.1288452196477259 0.0477098330851559 2.7395655019575273 S
atom 2.1441850240682330 5.0323700286646744 2.7393383564880924 S
atom 7.7167221755506832 5.0316082781296023 2.2471281997655925 S
atom 2.9231256268125803 0.0475859026498955 7.6944420856498876 S
atom 7.0021069052147418 0.0517112026464814 7.2878145178717224 S
atom 2.0174467096352404 5.0363713982260050 7.2875873724022950 S
atom 7.9131471607956279 5.0376074366329542 7.6944420856498867 S
atom -0.0389060749447653 2.2606402232136311 2.2470146270308757 S
atom 4.9449923700996408 2.8485171791165960 2.7394519292228128 S
atom -0.0396678254798566 7.8331773746961293 2.7392247837533805 S
atom 4.9511154590382702 7.2506617571967018 2.2470146270308748 S
atom -0.0449052334481296 2.0642152379686993 7.6943285129151748 S
atom 4.9409910005383217 2.9752554935495787 7.2877009451369963 S
atom -0.0436691950411822 7.9599156891291134 7.2874737996675680 S
atom 4.9451163005349184 7.0542367719517634 7.6943285129151748 S
atom -0.0045466930335355 -0.0784879039874691 10.0229059155480886 Ba
atom 5.0658287687687515 0.0072273622353021 10.0230194882828112 Ba
atom 0.0811685731892351 4.9918875578148283 10.0227923428133696 Ba
atom 4.9854748409495064 4.9115336299955912 10.0229059155480851 Ba
atom 0.0508770322476453 0.0489572720650272 15.0917989584810517 Ba
atom 4.9383835927162503 -0.0481963630458792 15.0919125312157565 Ba
atom -0.0462766028632607 4.9364638325336516 15.0916853857463309 Ba
atom 5.0408985662306627 5.0389788060480951 15.0917989584810517 Ba
atom 2.5029263319062216 2.4986181423466394 12.5482860654040440 Zr
atom 7.4787442564176745 2.4897758712785900 12.5483996381387595 Zr
atom 2.4940840608381811 7.4744360668581287 12.5481724926693214 Zr
atom 7.4929478658892803 7.4886396763296981 12.5482860654040422 Zr
atom 2.5005379025292322 2.5010065717236207 17.6353118515580753 Zr
atom 7.4763558270407131 2.4921643006555789 17.6354254242928548 Zr
atom 2.4916956314611962 7.4768244962351185 17.6351982788233954 Zr
atom 7.4905594365122736 7.4910281057066852 17.6353118515580753 Zr
atom 2.6020407489710706 2.6821191560646755 10.0165826958976574 S
atom 7.2952432426996552 2.3906614542137445 10.0166962686323728 S
atom 2.3105830471201458 7.3753216497932685 10.0164691231629295 S
atom 7.5920622829541076 7.6721406900477396 10.0165826958976591 S
atom 2.4065227389428943 2.4046029787602854 15.0917989584810517 S
atom 7.5727594200040338 2.5861794642419200 15.0919125312157565 S
atom 2.5880992244245329 7.5708396598214467 15.0916853857463309 S
atom 7.3965442729259294 7.3946245127433681 15.0917989584810517 S
atom 2.0157642130911917 0.0034183300203316 12.4718768572929033 S
atom 7.9910303506572760 0.0067680609795813 12.6414256420607423 S
atom 3.0063701550777617 4.9914282565591117 12.6411984965913060 S
atom 7.0057857470742215 4.9934398640034026 12.4718768572929033 S
atom 2.9734964118726990 -0.0026574210011835 17.7118346324039422 S
atom 6.9729120038691814 -0.0006458135569006 17.5425129931055466 S
atom 1.9882518082896590 4.9840143820226279 17.5422858476360979 S
atom 7.9635179458557293 4.9873641129818909 17.7118346324039386 S
atom -0.0007376608185662 2.9715766516900994 12.4717632845581896 S
atom 4.9859341422052283 1.9863320481070530 12.6413120693260286 S
atom 0.0012739466257175 6.9709922436865961 12.6410849238565977 S
atom 4.9892838731644691 7.9615981856731644 12.4717632845581896 S
atom 0.0053380902029488 2.0138444529085793 17.7117210596692267 S
atom 4.9933480167417033 3.0044503948951617 17.5423994203708098 S
atom 0.0086878211621992 7.9891105904746897 17.5421722749013931 S
atom 4.9953596241859826 7.0038659868916406 17.7117210596692267 S
atom -0.0765681438048505 -0.0064664532161540 20.1606920014140378 Ba
atom 4.9938073179974181 0.0792488130066172 20.1608055741487711 Ba
atom 0.0091471224179201 5.0639090085861440 20.1605784286793224 Ba
atom 4.9134533901781898 4.9835550807669069 20.1606920014140378 Ba
atom 0.2034726964157790 -0.2609766708857727 25.1760522594904721 Ba
atom 5.2483175356670442 -0.2007920272140140 25.1761658322251911 Ba
atom 0.2636573400875378 4.7838681683655135 25.1759386867557495 Ba
atom 5.1934942303988105 4.7290448630972817 25.1760522594904721 Ba
atom 2.5395557025656683 2.4142126977967937 22.7130134223164859 Zr
atom 7.5631497009675241 2.4531465006191548 22.7131269950511943 Zr
atom 2.5784895053880232 7.4378066961986882 22.7128998495817918 Zr
atom 7.5295772365487013 7.4042342317798626 22.7130134223164859 Zr
atom 2.5308363055195615 2.4669462622944347 27.7952401970335217 Zr
atom 7.5104161364698863 2.4618658976652465 27.7953537697682691 Zr
atom 2.5257559408903836 7.4465260932447865 27.7951266242988417 Zr
atom 7.5208578395026020 7.4569677962774925 27.7952401970335217 Zr
atom 2.6840389162472720 2.6001209887884662 20.1670152210644460 S
atom 7.3772414099758485 2.3086632869375436 20.1671287937991721 S
atom 2.3925812143963499 7.2933234825170672 20.1669016483297270 S
atom 7.6740604502302983 7.5901425227715356 20.1670152210644424 S
atom 2.2873350493324920 2.2349418704853758 25.2208162313465394 S
atom 7.7424205282789327 2.7053671538523250 25.2209298040812477 S
atom 2.7577603326994415 7.6900273494318618 25.2207026586117848 S
atom 7.2773565833155391 7.2249634044684310 25.2208162313465394 S
atom 2.0661349981512944 -0.0468249936307474 22.4892694040469436 S
atom 7.9618354493116845 -0.0455889552237998 22.8961241172945122 S
atom 2.9771752537321770 4.9390712403557249 22.8958969718250991 S
atom 7.0561565321343505 4.9431965403522975 22.4892694040469436 S
atom 2.2625599833962298 -0.0408258351273830 27.9365832899312032 S
atom 7.8350971348786960 -0.0415875856624752 27.4443731332087246 S
atom 2.8504369392991915 4.9430726099170608 27.4441459877393044 S
atom 7.2525815173792836 4.9491956988556716 27.9365832899312032 S
atom 0.0495056628325126 2.9212058666299821 22.4891558313122246 S
atom 5.0382911584085974 2.0155269494526324 22.8960105445597861 S
atom 0.0536309628290981 7.0001871450321618 22.8957833990903481 S
atom 5.0395271968155493 7.9112274006130443 22.4891558313122246 S
atom 0.0435065043291481 2.7247808813850538 27.9364697171964984 S
atom 5.0342897888472775 2.1422652638856206 27.4442595604740482 S
atom 0.0496295932677724 7.1269254594651539 27.4440324150045925 S
atom 5.0335280383121868 7.7148024153681103 27.9364697171964949 S
atom -0.1080237727612353 0.0448557421813264 29.9738304476239072 Ba
atom 4.9424851225999360 0.1107044419630012 29.9739440203586689 Ba
atom -0.0421750729795604 5.0953646375425317 29.9737168748892095 Ba
atom 4.8819977612217897 5.0348772761643961 29.9738304476239072 Ba
atom 2.7635810766174682 2.6292290217115508 30.3058247852609028 S
atom 7.3481333770527799 2.2291211265673394 30.3059383579956467 S
atom 2.3634731814732630 7.2137813221468754 30.3057112125262158 S
atom 7.7536026106005096 7.6192505556946148 30.3058247852608993 S
atom 2.5438980055563434 2.3829554978468006 33.4117251779964093 Ba
atom 7.5944069009175266 2.4488041976284753 33.4118387507311354 Ba
atom 2.6097467053380123 7.4334643932079993 33.4116116052617187 Ba
atom 7.5339195395393874 7.3729770318298620 33.4117251779964093 Ba
atom 2.2380655924892450 2.6944519670238227 38.2095033661298871 Ba
atom 7.2829104317405235 2.7546366106955702 38.2096169388645990 Ba
atom 2.2982502361609973 7.7392968062751084 38.2093897933952107 Ba
atom 7.2280871264722899 7.6844735010068757 38.2095033661298871 Ba
atom 4.9659885256694389 5.0218155761276124 35.5903154285869334 Zr
atom 9.9455683566197610 5.0167352114984407 35.5904290013216738 Zr
atom 4.9609081610402583 10.0013954070779487 35.5902018558521789 Zr
atom 9.9560100596524741 10.0118371101106778 35.5903154285869334 Zr
atom 4.9132549611718108 5.0305349731737170 40.6725422033039621 Zr
atom 9.9368489595736627 5.0694687759960804 40.6726557760387593 Zr
atom 4.9521887639941546 10.0541289715755866 40.6724286305692360 Zr
atom 9.9032764951548540 10.0205565071567744 40.6725422033039621 Zr
atom 5.1282712850865559 5.2545603472255280 33.0797308403595380 S
atom 9.7128235855218392 4.8544524520813175 33.0798444130942073 S
atom 4.7281633899423570 9.8391126476608601 33.0796172676247622 S
atom 10.1182928190695982 10.2445818812085925 33.0797308403595380 S
atom 4.7339841338603872 4.7783143199405345 38.1647393942738660 S
atom 10.1890696128068594 5.2487396033074996 38.1648529670086134 S
atom 5.2044094172273203 10.2333997988869925 38.1646258215391541 S
atom 9.7240056678434073 9.7683358539235954 38.1647393942738660 S
atom 5.2238231447600505 2.5344857749371883 35.4490859084239602 S
atom 9.6259677228401213 2.5406088638758071 35.9415232106157987 S
atom 4.6413075272606337 7.5252690594553338 35.9412960651463891 S
atom 10.2138446787430794 7.5245073089202492 35.4490859084239531 S
atom 5.4202481300049801 2.5404849334405473 40.8963997943081452 S
atom 9.4992294084071247 2.5446102334371332 40.4897722265300004 S
atom 4.5145692128276496 7.5292704290166617 40.4895450810606334 S
atom 10.4102696639880392 7.5305064674236180 40.8963997943081381 S
atom 2.4582164282476331 4.7535392540042842 35.4489723356891560 S
atom 7.4421148732920503 5.3414162099072486 35.9414096378810797 S
atom 2.4574546777125441 10.3260764054867895 35.9411824924116843 S
atom 7.4482379622306647 9.7435607879873452 35.4489723356891560 S
atom 2.4522172697442599 4.5571142687593582 40.8962862215734617 S
atom 7.4381135037307242 5.4681545243402390 40.4896586537953169 S
atom 2.4534533081512144 10.4528147199197647 40.4894315083259357 S
atom 7.4422388037273022 9.5471358027424298 40.8962862215734617 S
atom 2.4925758101588680 2.4144111268031789 43.2248636242064279 Ba
atom 7.5629512719611389 2.5001263930259570 43.2249771969411469 Ba
atom 2.5782910763816314 7.4847865886054876 43.2247500514716805 Ba
atom 7.4825973441418947 7.4044326607862514 43.2248636242064279 Ba
atom 2.5479995354400464 2.5418563028556758 48.2937566671393057 Ba
atom 7.4355060959086288 2.4447026677447727 48.2938702398740105 Ba
atom 2.4508459003291385 7.4293628633243154 48.2936430944046080 Ba
atom 7.5380210694230803 7.5318778368387402 48.2937566671393057 Ba
atom 5.0000488350986307 4.9915171731372894 45.7502437740623620 Zr
atom 9.9758667596100672 4.9826749020692445 45.7503573467970099 Zr
atom 4.9912065640305743 9.9673350976487747 45.7501302013276501 Zr
atom 9.9900703690816712 9.9815387071203645 45.7502437740623620 Zr
atom 4.9976604057216356 4.9939056025142721 50.8372695602163702 Zr
atom 9.9734783302331138 4.9850633314462272 50.8373831329511532 Zr
atom 4.9888181346535951 9.9697235270257583 50.8371559874816157 Zr
atom 9.9876819397046788 9.9839271364973445 50.8372695602163702 Zr
atom 5.0991632521634598 5.1750181868553229 43.2185404045560304 S
atom 9.7923657458920470 4.8835604850044048 43.2186539772907850 S
atom 4.8077055503125470 9.8682206805839368 43.2184268318213327 S
atom 10.0891847861464932 10.1650397208383954 43.2185404045560304 S
atom 4.9036452421352905 4.8975020095509469 48.2937566671393057 S
atom 10.0698819231964549 5.0790784950325811 48.2938702398740105 S
atom 5.0852217276169167 10.0637386906121016 48.2936430944046080 S
atom 9.8936667761183390 9.8875235435340123 48.2937566671393057 S
atom 4.5128867162835897 2.4963173608109783 45.6738345659512319 S
atom 10.4881528538496553 2.4996670917702315 45.8433833507189163 S
atom 5.5034926582701500 7.4843272873497684 45.8431562052495067 S
atom 9.5029082502666391 7.4863388947940424 45.6738345659512319 S
atom 5.4706189150650975 2.4902416097894697 50.9137923410622193 S
atom 9.4700345070615786 2.4922532172337584 50.7444707017638734 S
atom 4.4853743114820546 7.4769134128132757 50.7442435562944283 S
atom 10.4606404490481175 7.4802631437725369 50.9137923410622193 S
atom 2.4963848423738315 5.4644756824807468 45.6737209932165200 S
atom 7.4830566453976122 4.4792310788977092 45.8432697779842755 S
atom 2.4983964498181170 9.4638912744772519 45.8430426325148801 S
atom 7.4864063763568804 10.4544972164638033 45.6737209932165200 S
atom 2.5024605933953441 4.5067434836992328 50.9136787683275571 S
atom 7.4904705199341075 5.4973494256858038 50.7443571290291118 S
atom 2.5058103243545955 10.4820096212653535 50.7441299835597164 S
atom 7.4924821273783850 9.4967650176823248 50.9136787683275571 S
atom 2.4205543593875425 2.4864325775745004 53.3626497100723682 Ba
atom 7.4909298211898134 2.5721478437972718 53.3627632828070517 Ba
atom 2.5062696256103201 7.5568080393768078 53.3625361373376066 Ba
atom 7.4105758933705888 7.4764541115575600 53.3626497100723682 Ba
atom 2.7005951996081810 2.2319223599048792 58.3780099681488949 Ba
atom 7.7454400388594387 2.2921070035766355 58.3781235408835997 Ba
atom 2.7607798432799293 7.2767671991561702 58.3778963954140693 Ba
atom 7.6906167335912157 7.2219438938879339 58.3780099681488878 Ba
atom 5.0366782057580748 4.9071117285874521 55.9149711309747843 Zr
atom 10.0602722041599186 4.9460455314097924 55.9150847037094465 Zr
atom 5.0756120085804248 9.9307057269893573 55.9148575582400724 Zr
atom 10.0266997397410833 9.8971332625705184 55.9149711309747843 Zr
atom 5.0279588087119569 4.9598452930850838 60.9971979056917988 Zr
atom 10.0075386396622790 4.9547649284559085 60.9973114784264965 Zr
atom 5.0228784440827825 9.9394251240354325 60.9970843329571508 Zr
atom 10.0179803426950045 9.9498668270681616 60.9971979056917988 Zr
atom 5.1811614194396514 5.0930200195791251 53.3689729297226734 S
atom 9.8743639131682581 4.8015623177281990 53.3690865024574137 S
atom 4.8897037175887625 9.7862225133077185 53.3688593569879828 S
atom 10.1711829534227025 10.0830415535621754 53.3689729297226734 S
atom 4.7844575525249020 4.7278409012760161 58.4227739400048236 S
atom 10.2395430314713014 5.1982661846429767 58.4228875127395568 S
atom 5.2548828358918467 10.1829263802225221 58.4226603672700833 S
atom 9.7744790865078883 9.7178624352591267 58.4227739400048236 S
atom 4.5632575013437195 2.4460740371599012 55.6912271127053060 S
atom 10.4589579525040790 2.4473100755668526 56.0980818259528675 S
atom 5.4742977569245808 7.4319702711463815 56.0978546804833798 S
atom 9.5532790353267316 7.4360955711429586 55.6912271127053060 S
atom 4.7596824865886420 2.4520731956632638 61.1385409985895549 S
atom 10.3322196380710931 2.4513114451281788 60.6463308418670906 S
atom 5.3475594424915949 7.4359716407077157 60.6461036963976525 S
atom 9.7497040205716772 7.4420947296463424 61.1385409985895549 S
atom 2.5466281660249082 5.4141048974206401 55.6911135399705870 S
atom 7.5354136616009937 4.5084259802432820 56.0979682532180988 S
atom 2.5507534660214937 9.4930861758228087 56.0977411077486323 S
atom 7.5366497000079411 10.4041264314036894 55.6911135399705870 S
atom 2.5406290075215523 5.2176799121757060 61.1384274258548857 S
atom 7.5314122920396729 4.6351642946762750 60.6462172691323786 S
atom 2.5467520964601658 9.6198244902557732 60.6459901236629406 S
atom 7.5306505415045715 10.2077014461587581 61.1384274258548857 S
atom 2.3890987304311673 2.5377547729719798 63.1757881562823371 Ba
atom 7.4396076257923269 2.6036034727536510 63.1759017290170064 Ba
atom 2.4549474302128349 7.5882636683331794 63.1756745835475684 Ba
atom 7.3791202644142073 7.5277763069550412 63.1757881562823371 Ba
atom 5.2607035798098671 5.1221280525022124 63.5077824939192226 S
atom 9.8452558802451851 4.7220201573580018 63.5078960666539558 S
atom 4.8605956846656611 9.7066803529375161 63.5076689211844965 S
atom 10.2507251137928925 10.1121495864852733 63.5077824939192226 S
