#=======================================================
# FHI-aims file: sym_relax/sym_relax_RP_1_RxRyRz_RxRy0.in
# Created using the Atomic Simulation Environment (ASE)
# Fri Mar 14 10:20:35 2025
#=======================================================
lattice_vector 10.0578028637719203 0.1251372972819062 0.0001780208878591 
lattice_vector 0.1251372972819062 10.0578028637719150 -0.0001780208878591 
lattice_vector -0.0004760094053592 0.0004760094053592 15.6289979902174405 
atom -0.0908407365009653 -0.0908098239715539 0.2364349899847104 Ba
atom 5.1197112558575046 0.1534093851419185 0.2365240004286402 Ba
atom 0.1533784726125070 5.1197421683869306 0.2363459795407809 Ba
atom 5.0006293440259491 5.0006602565553591 0.2364349899847104 Ba
atom 0.0906919835617907 0.0909585769107284 4.6476268819582351 Ba
atom 4.9379428549752280 -0.0281233349208380 4.6477158924021671 Ba
atom -0.0283899282697756 4.9382094483241685 4.6475378715143121 Ba
atom 5.1821620640886961 5.1824286574376384 4.6476268819582351 Ba
atom 2.5456606637938695 2.5458094167330452 2.4420309359714758 Zr
atom 7.5745620956798154 2.6083780653739947 2.4421199464154038 Zr
atom 2.6082293124348181 7.5747108486190058 2.4419419255275461 Zr
atom 7.6371307443207712 7.6372794972599625 2.4420309359714762 Zr
atom 2.6909169319030375 2.6910197337442687 -0.0990233641397096 S
atom 7.4293517786685985 2.4631217972648285 -0.0989343536957797 S
atom 2.4630189954235915 7.4294545805098346 -0.0991123745836389 S
atom 7.7823870124299432 7.7824898142711847 -0.0990233641397095 S
atom 2.4004043956846979 2.4005990997218163 4.9830852360826654 S
atom 7.7197724126910519 2.7536343334831641 4.9831742465266000 S
atom 2.7534396294460426 7.7199671167281734 4.9829962256387370 S
atom 7.4918744762116019 7.4920691802487296 4.9830852360826654 S
atom 2.5144075463041737 0.0313543102857329 2.2905259361764223 S
atom 7.5432465645285696 0.0939317399353478 2.5937139566543888 S
atom 2.5769137812835581 5.0602645231803622 2.5935359357665360 S
atom 7.6058776268310773 5.1228243908126379 2.2905259361764223 S
atom 0.0312143383552195 2.5144938855817793 2.2904369257324939 S
atom 5.0601069892325112 2.5771249478843039 2.5936249462104621 S
atom 0.0937742059875107 7.5434577311293198 2.5934469253226022 S
atom 5.1226844188821223 7.6059639661087042 2.2904369257324939 S
atom 2.4546647185774493 2.4552149685650586 8.0509175636013630 Ba
atom 7.6651565438478073 2.6993740105904140 8.0510065740452870 Ba
atom 2.6988237606028029 7.6657067938354224 8.0508285531574337 Ba
atom 7.5461347991043528 7.5466850490919750 8.0509175636013630 Ba
atom 2.6361805996049226 2.6368798743063868 12.4621422985590531 Ba
atom 7.4834916381064707 2.5178581295629421 12.4622313090029788 Ba
atom 2.5171588548614765 7.4841909128079456 12.4620532881151345 Ba
atom 7.7276506801318323 7.7283499548333010 12.4621422985590549 Ba
atom 5.0911576993546506 5.0917824616991698 10.2565299310802072 Zr
atom 10.1200591312406125 5.1543511103401274 10.2566189415241364 Zr
atom 5.1537263479955921 10.1206838935851398 10.2564409206362814 Zr
atom 10.1826277798815514 10.1832525422260947 10.2565299310802072 Zr
atom 5.2364113831893109 5.2368704295418143 7.7154624501983484 S
atom 9.9749711633979707 5.0090974265054706 7.7155514606422706 S
atom 5.0086383801529593 9.9754302097504617 7.7153734397544209 S
atom 10.3278814637162117 10.3283405100687329 7.7154624501983466 S
atom 4.9459040155199689 4.9466944938565431 12.7975974119620410 S
atom 10.2651470990832188 5.2996047941747992 12.7976864224059756 S
atom 5.2988143158382339 10.2659375774198089 12.7975084015181171 S
atom 10.0373740960468858 10.0381645743834458 12.7975974119620410 S
atom 5.0598001766926064 2.5773264159815574 10.1051072034254101 S
atom 10.0888480052616707 2.6399057241717885 10.4081306796228485 S
atom 5.1225152220166770 7.6062385074167986 10.4079526587349829 S
atom 10.1512702572195064 7.6687964965084729 10.1051072034254119 S
atom 2.5767123131863072 5.0605713357202502 10.1050181929814880 S
atom 7.6056030855229837 5.1229935876781028 10.4080416691789228 S
atom 2.6392703022779753 10.0893263709231000 10.4078636482910749 S
atom 7.6681823937132165 10.1520414162471830 10.1050181929814862 S
