#=======================================================
# FHI-aims file: sym_relax/sym_relax_RP_4_RxRyMz_-Rx-Ry-Mz.in
# Created using the Atomic Simulation Environment (ASE)
# Fri Mar 14 10:30:46 2025
#=======================================================
lattice_vector 10.0184568619758316 -0.0483306480382913 0.0000000000000000 
lattice_vector -0.0483306480382911 10.0184568619758458 0.0000000000000000 
lattice_vector 0.0000000000000000 0.0000000000000000 45.8482305655643572 
atom 0.0815043977417910 -0.1800268208403873 0.2251047513602873 Ba
atom 5.1892552518282837 -0.1056697217609382 0.2251047513602874 Ba
atom 0.1558614968212407 4.9277240332461343 0.2251047513602873 Ba
atom 5.0665675047105543 4.8050362861284039 0.2251047513602873 Ba
atom -0.2524034311640458 0.1817873734712441 4.9985357332176266 Ba
atom 4.8274410575166629 0.2282381071449011 4.9985357332176266 Ba
atom -0.2059526974903889 5.2616318621519698 4.9985357332176266 Ba
atom 4.7326596758047117 5.1668504804400266 4.9985357332176266 Ba
atom 2.4919360250705727 2.4811302973761360 2.4011873135282058 Zr
atom 7.5131612405805415 2.4689617578790504 2.4011873135282058 Zr
atom 2.4797674855734879 7.5023555128861279 2.4011873135282058 Zr
atom 7.4769991320393245 7.4661934043449172 2.4011873135282058 Zr
atom 2.4915558603380981 2.4921910451391560 7.4576041268997910 Zr
atom 7.5021004928175259 2.4693419226115210 7.4576041268997910 Zr
atom 2.4687067378104675 7.5027356776186007 7.4576041268997910 Zr
atom 7.4766189673068562 7.4772541521079363 7.4576041268997910 Zr
atom 2.6212073211755405 2.7040633925717841 -0.1047973146361973 S
atom 7.2902281453848872 2.3396904617740799 -0.1047973146361973 S
atom 2.2568343903778416 7.3730842167811508 -0.1047973146361973 S
atom 7.6062704281443034 7.6891264995405697 -0.1047973146361972 S
atom 2.2439129677395422 2.1915955461073979 4.9595236614244183 S
atom 7.8026959918492826 2.7169848152100817 4.9595236614244183 S
atom 2.7693022368422278 7.7503785702171530 4.9595236614244183 S
atom 7.2289760747083029 7.1766586530761769 4.9595236614244183 S
atom 2.7882513913670608 -0.0090682146973826 2.2438621196224360 S
atom 7.2114442415212956 -0.0301585927817258 2.7517039722043624 S
atom 2.1780504865142434 5.0032351622253426 2.7517039722043624 S
atom 7.7733144983358198 4.9759948922714052 2.2438621196224360 S
atom 2.8967574456035181 -0.0162964620566209 7.7727978625240670 S
atom 7.1357232179381684 -0.0366061722454391 7.1577183381686442 S
atom 2.1023294629311189 4.9967875827616295 7.1577183381686442 S
atom 7.8818205525722735 4.9687666449121553 7.7727978625240670 S
atom -0.0150971093217641 2.2209770396208488 2.2438621196224360 S
atom 4.9910563757313371 2.7828472964353819 2.7517039722043624 S
atom -0.0423373792757137 7.8162410514424598 2.7517039722043624 S
atom 4.9699659976469945 7.2060401465896335 2.2438621196224360 S
atom -0.0078688619625253 2.1124709853843937 7.7727978625240670 S
atom 4.9975039551950520 2.8585683200185064 7.1577183381686442 S
atom -0.0358897998120004 7.8919620750255826 7.1577183381686442 S
atom 4.9771942450062383 7.0975340923531762 7.7727978625240670 S
atom 0.2762929425845748 -0.1857035740843861 9.9670066446879133 Ba
atom 5.1949320050722854 -0.3004582666037230 9.9670066446879133 Ba
atom 0.1615382500652395 4.7329354884033501 9.9670066446879133 Ba
atom 5.2613560495533394 4.7993595328843934 9.9670066446879133 Ba
atom -0.2524034311640458 0.1817873734712441 14.9354775561581832 Ba
atom 4.8274410575166629 0.2282381071449011 14.9354775561581832 Ba
atom -0.2059526974903889 5.2616318621519698 14.9354775561581832 Ba
atom 4.7326596758047117 5.1668504804400266 14.9354775561581832 Ba
atom 2.4915558603380981 2.4921910451391560 12.4764091624760152 Zr
atom 7.5021004928175259 2.4693419226115210 12.4764091624760152 Zr
atom 2.4687067378104675 7.5027356776186007 12.4764091624760152 Zr
atom 7.4766189673068562 7.4772541521079363 12.4764091624760152 Zr
atom 2.4919360250705727 2.4811302973761360 17.5328259758476328 Zr
atom 7.5131612405805415 2.4689617578790504 17.5328259758476328 Zr
atom 2.4797674855734879 7.5023555128861279 17.5328259758476328 Zr
atom 7.4769991320393245 7.4661934043449172 17.5328259758476328 Zr
atom 2.7587823686821591 2.8161849359072795 9.9670066446879133 S
atom 7.1781066020493993 2.2021154142674639 9.9670066446879133 S
atom 2.1447128470423471 7.2355091692745326 9.9670066446879133 S
atom 7.7438454756509172 7.8012480428760602 9.9670066446879133 S
atom 2.2439129677395422 2.1915955461073979 14.9744896279513942 S
atom 7.8026959918492826 2.7169848152100817 14.9744896279513942 S
atom 2.7693022368422278 7.7503785702171530 14.9744896279513977 S
atom 7.2289760747083029 7.1766586530761769 14.9744896279513942 S
atom 2.8967574456035181 -0.0162964620566209 12.1612154268517578 S
atom 7.1357232179381684 -0.0366061722454391 12.7762949512071788 S
atom 2.1023294629311189 4.9967875827616295 12.7762949512071788 S
atom 7.8818205525722735 4.9687666449121553 12.1612154268517578 S
atom 2.7882513913670608 -0.0090682146973826 17.6901511697533884 S
atom 7.2114442415212956 -0.0301585927817258 17.1823093171714270 S
atom 2.1780504865142434 5.0032351622253426 17.1823093171714270 S
atom 7.7733144983358198 4.9759948922714052 17.6901511697533884 S
atom -0.0078688619625253 2.1124709853843937 12.1612154268517578 S
atom 4.9975039551950520 2.8585683200185064 12.7762949512071788 S
atom -0.0358897998120004 7.8919620750255826 12.7762949512071788 S
atom 4.9771942450062383 7.0975340923531762 12.1612154268517578 S
atom -0.0150971093217641 2.2209770396208488 17.6901511697533884 S
atom 4.9910563757313371 2.7828472964353819 17.1823093171714270 S
atom -0.0423373792757137 7.8162410514424598 17.1823093171714270 S
atom 4.9699659976469945 7.2060401465896335 17.6901511697533884 S
atom 0.0815043977417915 -0.1800268208403868 19.7089085380155424 Ba
atom 5.1892552518282820 -0.1056697217609378 19.7089085380155424 Ba
atom 0.1558614968212403 4.9277240332461334 19.7089085380155424 Ba
atom 5.0665675047105543 4.8050362861284039 19.7089085380155424 Ba
atom 2.6212073211755413 2.7040633925717832 20.0388106040119851 S
atom 7.2902281453848863 2.3396904617740808 20.0388106040119851 S
atom 2.2568343903778407 7.3730842167811517 20.0388106040119851 S
atom 7.6062704281443034 7.6891264995405679 20.0388106040119851 S
atom 2.6725583743247707 2.4110271557425964 23.1492200341424663 Ba
atom 7.5832643822140753 2.2883394086248559 23.1492200341424663 Ba
atom 2.5498706272070195 7.3217331636319321 23.1492200341424663 Ba
atom 7.6576214812935213 7.3960902627113878 23.1492200341424663 Ba
atom 2.3107441800131343 2.7449349846484337 27.9226510159998185 Ba
atom 7.2493565533082354 2.6501536029364887 27.9226510159998185 Ba
atom 2.2159627983011916 7.6835473579435565 27.9226510159998185 Ba
atom 7.2958072869818960 7.7299980916172242 27.9226510159998185 Ba
atom 4.9964643630770107 4.9856586353825865 25.3253025963103973 Zr
atom 9.9936960095428571 4.9494965268413775 25.3253025963103973 Zr
atom 4.9603022545358151 9.9828902818484284 25.3253025963103973 Zr
atom 9.9815274700457923 9.9707217423513601 25.3253025963103973 Zr
atom 4.9854036153140040 4.9860388001150637 30.3817194096819811 Zr
atom 9.9933158448103718 4.9605572746043984 30.3817194096819811 Zr
atom 4.9599220898033298 9.9939510296114769 30.3817194096819811 Zr
atom 9.9704667222827599 9.9711019070838454 30.3817194096819811 Zr
atom 4.7735312678813600 4.8563873392776191 22.8193179681460059 S
atom 10.1229673056478227 5.1724296220370274 22.8193179681460059 S
atom 5.0895735506407718 10.2058233770441067 22.8193179681460059 S
atom 9.7585943748501229 9.8414504462463857 22.8193179681460059 S
atom 5.2859991143457634 5.2336816927136178 27.8836389442066270 S
atom 9.7456729522118302 4.6599617755726443 27.8836389442066270 S
atom 4.7122791972047793 9.6933555305797157 27.8836389442066270 S
atom 10.2710622213145104 10.2187447996824101 27.8836389442066270 S
atom 4.6947473640177675 2.4865382847218114 25.6758192549865463 S
atom 10.2900113758393665 2.4592980147678589 25.1679774024046168 S
atom 5.2566176208323006 7.4926917697749396 25.1679774024046168 S
atom 9.6798104709865349 7.4716013916905917 25.6758192549865463 S
atom 4.6190263404346421 2.4800907052580992 30.0818336209508068 S
atom 10.3985174300758150 2.4520697674086236 30.6969131453062367 S
atom 5.3651236750687463 7.4854635224156905 30.6969131453062367 S
atom 9.6040894474033998 7.4651538122268759 30.0818336209508068 S
atom 2.4743594982278081 5.2995441739389220 25.6758192549865463 S
atom 7.4866628751505129 4.6893432690860903 25.1679774024046168 S
atom 2.4532691201434691 9.7227370240931599 25.1679774024046168 S
atom 7.4594226051965720 10.2846072809077018 25.6758192549865463 S
atom 2.4808070776915261 5.3752651975220394 30.0818336209508068 S
atom 7.4938911225097646 4.5808372148496392 30.6969131453062367 S
atom 2.4604973675027089 9.6142309698567043 30.6969131453062367 S
atom 7.4658701846602789 10.3603283044908352 30.0818336209508068 S
atom 2.6782351275687657 2.2162386108998140 32.8911219274700741 Ba
atom 7.7780529270568604 2.2826626553808560 32.8911219274700741 Ba
atom 2.7446591720498064 7.3160564103879357 32.8911219274700741 Ba
atom 7.6632982345375229 7.2013017178685930 32.8911219274700741 Ba
atom 2.3107441800131343 2.7449349846484337 37.8595928389403937 Ba
atom 7.2493565533082354 2.6501536029364887 37.8595928389403937 Ba
atom 2.2159627983011916 7.6835473579435565 37.8595928389403937 Ba
atom 7.2958072869818960 7.7299980916172242 37.8595928389403937 Ba
atom 4.9854036153140040 4.9860388001150637 35.4005244452582772 Zr
atom 9.9933158448103718 4.9605572746043984 35.4005244452582772 Zr
atom 4.9599220898033298 9.9939510296114769 35.4005244452582772 Zr
atom 9.9704667222827599 9.9711019070838454 35.4005244452582772 Zr
atom 4.9964643630770107 4.9856586353825865 40.4569412586298114 Zr
atom 9.9936960095428571 4.9494965268413775 40.4569412586298114 Zr
atom 4.9603022545358151 9.9828902818484284 40.4569412586298114 Zr
atom 9.9815274700457923 9.9707217423513601 40.4569412586298114 Zr
atom 4.6614097245458739 4.7188122917710071 32.8911219274700741 S
atom 10.2605423531544258 5.2845511653725232 32.8911219274700741 S
atom 5.2271485981473882 10.3179449203796185 32.8911219274700741 S
atom 9.6464728315146289 9.7038753987397985 32.8911219274700741 S
atom 5.2859991143457634 5.2336816927136178 37.8986049107335461 S
atom 9.7456729522118302 4.6599617755726443 37.8986049107335461 S
atom 4.7122791972047793 9.6933555305797157 37.8986049107335461 S
atom 10.2710622213145104 10.2187447996824101 37.8986049107335461 S
atom 4.6190263404346421 2.4800907052580992 35.7004102339893237 S
atom 10.3985174300758150 2.4520697674086236 35.0853307096339577 S
atom 5.3651236750687463 7.4854635224156905 35.0853307096339577 S
atom 9.6040894474033998 7.4651538122268759 35.7004102339893237 S
atom 4.6947473640177675 2.4865382847218114 40.1064245999536979 S
atom 10.2900113758393665 2.4592980147678589 40.6142664525355030 S
atom 5.2566176208323006 7.4926917697749396 40.6142664525355030 S
atom 9.6798104709865349 7.4716013916905917 40.1064245999536979 S
atom 2.4808070776915261 5.3752651975220394 35.7004102339893237 S
atom 7.4938911225097646 4.5808372148496392 35.0853307096339577 S
atom 2.4604973675027089 9.6142309698567043 35.0853307096339577 S
atom 7.4658701846602789 10.3603283044908352 35.7004102339893237 S
atom 2.4743594982278081 5.2995441739389220 40.1064245999536979 S
atom 7.4866628751505129 4.6893432690860903 40.6142664525355030 S
atom 2.4532691201434691 9.7227370240931599 40.6142664525355030 S
atom 7.4594226051965720 10.2846072809077018 40.1064245999536979 S
atom 2.6725583743247703 2.4110271557425973 42.6330238207977175 Ba
atom 7.5832643822140762 2.2883394086248563 42.6330238207977175 Ba
atom 2.5498706272070204 7.3217331636319321 42.6330238207977175 Ba
atom 7.6576214812935213 7.3960902627113887 42.6330238207977175 Ba
atom 4.7735312678813600 4.8563873392776200 42.9629258867942170 S
atom 10.1229673056478227 5.1724296220370274 42.9629258867942170 S
atom 5.0895735506407735 10.2058233770441049 42.9629258867942170 S
atom 9.7585943748501212 9.8414504462463857 42.9629258867942170 S
