#=======================================================
# FHI-aims file: sym_relax/sym_relax_RP_3_00Rz_000.in
# Created using the Atomic Simulation Environment (ASE)
# Fri Mar 14 10:22:35 2025
#=======================================================
lattice_vector 10.0216957831512694 -0.0000000000000004 -0.0000000000000000 
lattice_vector -0.0000000000000004 10.0216957831512694 -0.0000000000000000 
lattice_vector 0.0000000000000000 -0.0000000000000000 35.8364673860245802 
atom 0.0000000000000000 -0.0000000000000000 0.2189123967775709 Ba
atom 5.0108478915756365 -0.0000000000000000 0.2189123967775709 Ba
atom 0.0000000000000000 5.0108478915756365 0.2189123967775709 Ba
atom 5.0108478915756365 5.0108478915756365 0.2189123967775709 Ba
atom 0.0000000000000000 -0.0000000000000000 4.9491371788063612 Ba
atom 5.0108478915756365 -0.0000000000000000 4.9491371788063612 Ba
atom 0.0000000000000000 5.0108478915756365 4.9491371788063612 Ba
atom 5.0108478915756365 5.0108478915756365 4.9491371788063612 Ba
atom 2.5054239457878182 2.5054239457878182 2.3514626953714592 Zr
atom 7.5162718373634601 2.5054239457878182 2.3514626953714592 Zr
atom 2.5054239457878182 7.5162718373634601 2.3514626953714592 Zr
atom 7.5162718373634601 7.5162718373634601 2.3514626953714592 Zr
atom 2.5054239457878182 2.5054239457878182 7.4659307054217878 Zr
atom 7.5162718373634601 2.5054239457878182 7.4659307054217878 Zr
atom 2.5054239457878182 7.5162718373634601 7.4659307054217878 Zr
atom 7.5162718373634601 7.5162718373634601 7.4659307054217878 Zr
atom 2.5054239457878182 2.5054239457878182 -0.1625786233501770 S
atom 7.5162718373634601 2.5054239457878182 -0.1625786233501770 S
atom 2.5054239457878182 7.5162718373634601 -0.1625786233501770 S
atom 7.5162718373634601 7.5162718373634601 -0.1625786233501770 S
atom 2.5054239457878182 2.5054239457878182 4.9388344640930990 S
atom 7.5162718373634601 2.5054239457878182 4.9388344640930990 S
atom 2.5054239457878182 7.5162718373634601 4.9388344640930990 S
atom 7.5162718373634601 7.5162718373634601 4.9388344640930990 S
atom 2.2593983393717498 -0.0000000000000000 2.4570872603951233 S
atom 7.7622974437795218 0.0000000000000000 2.4570872603951233 S
atom 2.7514495522038880 5.0108478915756365 2.4570872603951233 S
atom 7.2702462309473876 5.0108478915756365 2.4570872603951233 S
atom 3.0171269922901427 0.0000000000000005 7.4659307054217878 S
atom 7.0045687908611320 -0.0000000000000000 7.4659307054217878 S
atom 1.9937208992854949 5.0108478915756365 7.4659307054217878 S
atom 8.0279748838657721 5.0108478915756365 7.4659307054217878 S
atom 0.0000000000000000 2.7514495522038871 2.4570872603951233 S
atom 5.0108478915756365 2.2593983393717494 2.4570872603951233 S
atom -0.0000000000000000 7.2702462309473894 2.4570872603951233 S
atom 5.0108478915756365 7.7622974437795245 2.4570872603951233 S
atom -0.0000000000000000 1.9937208992854953 7.4659307054217878 S
atom 5.0108478915756365 3.0171269922901440 7.4659307054217878 S
atom 0.0000000000000000 8.0279748838657721 7.4659307054217878 S
atom 5.0108478915756365 7.0045687908611320 7.4659307054217878 S
atom -0.0000000000000000 -0.0000000000000000 9.9827242320371994 Ba
atom 5.0108478915756365 -0.0000000000000000 9.9827242320371994 Ba
atom 0.0000000000000000 5.0108478915756365 9.9827242320371994 Ba
atom 5.0108478915756365 5.0108478915756365 9.9827242320371994 Ba
atom -0.0000000000000000 -0.0000000000000000 14.7129490140659964 Ba
atom 5.0108478915756365 -0.0000000000000000 14.7129490140659964 Ba
atom 0.0000000000000000 5.0108478915756365 14.7129490140659964 Ba
atom 5.0108478915756365 5.0108478915756365 14.7129490140659964 Ba
atom 2.5054239457878182 2.5054239457878182 12.5803987154721124 Zr
atom 7.5162718373634601 2.5054239457878182 12.5803987154721124 Zr
atom 2.5054239457878182 7.5162718373634601 12.5803987154721124 Zr
atom 7.5162718373634601 7.5162718373634601 12.5803987154721124 Zr
atom 2.5054239457878182 2.5054239457878182 9.9930269467504775 S
atom 7.5162718373634601 2.5054239457878182 9.9930269467504775 S
atom 2.5054239457878182 7.5162718373634601 9.9930269467504775 S
atom 7.5162718373634601 7.5162718373634601 9.9930269467504775 S
atom 2.5054239457878182 2.5054239457878182 15.0944400341937506 S
atom 7.5162718373634601 2.5054239457878182 15.0944400341937506 S
atom 2.5054239457878182 7.5162718373634601 15.0944400341937506 S
atom 7.5162718373634601 7.5162718373634601 15.0944400341937506 S
atom 2.2593983393717498 -0.0000000000000000 12.4747741504484431 S
atom 7.7622974437795218 0.0000000000000000 12.4747741504484431 S
atom 2.7514495522038880 5.0108478915756365 12.4747741504484431 S
atom 7.2702462309473876 5.0108478915756365 12.4747741504484431 S
atom 0.0000000000000000 2.7514495522038871 12.4747741504484431 S
atom 5.0108478915756365 2.2593983393717494 12.4747741504484431 S
atom -0.0000000000000000 7.2702462309473876 12.4747741504484431 S
atom 5.0108478915756365 7.7622974437795227 12.4747741504484431 S
atom 2.5054239457878182 2.5054239457878182 18.2113761038178126 Ba
atom 7.5162718373634601 2.5054239457878182 18.2113761038178126 Ba
atom 2.5054239457878182 7.5162718373634601 18.2113761038178126 Ba
atom 7.5162718373634601 7.5162718373634601 18.2113761038178126 Ba
atom 2.5054239457878182 2.5054239457878182 22.9643183760271761 Ba
atom 7.5162718373634601 2.5054239457878182 22.9643183760271761 Ba
atom 2.5054239457878182 7.5162718373634601 22.9643183760271761 Ba
atom 7.5162718373634601 7.5162718373634601 22.9643183760271761 Ba
atom 5.0108478915756365 5.0108478915756365 20.2910067946874335 Zr
atom 10.0216957831512730 5.0108478915756365 20.2910067946874335 Zr
atom 5.0108478915756365 10.0216957831512730 20.2910067946874335 Zr
atom 10.0216957831512730 10.0216957831512730 20.2910067946874335 Zr
atom 5.0108478915756365 5.0108478915756365 25.3841643984340948 Zr
atom 10.0216957831512730 5.0108478915756365 25.3841643984340948 Zr
atom 5.0108478915756365 10.0216957831512730 25.3841643984340948 Zr
atom 10.0216957831512730 10.0216957831512730 25.3841643984340948 Zr
atom 5.0108478915756365 5.0108478915756365 17.7856568120693872 S
atom 10.0216957831512730 5.0108478915756365 17.7856568120693872 S
atom 5.0108478915756365 10.0216957831512730 17.7856568120693872 S
atom 10.0216957831512730 10.0216957831512730 17.7856568120693872 S
atom 5.0108478915756365 5.0108478915756365 22.8676778085391810 S
atom 10.0216957831512730 5.0108478915756365 22.8676778085391810 S
atom 5.0108478915756365 10.0216957831512730 22.8676778085391810 S
atom 10.0216957831512730 10.0216957831512730 22.8676778085391810 S
atom 5.0108478915756365 2.5054276072409571 20.3960333080901925 S
atom 10.0216957831512730 2.5054202843346829 20.3960333080901925 S
atom 5.0108478915756365 7.5162681759103211 20.3960333080901925 S
atom 10.0216957831512730 7.5162754988166007 20.3960333080901925 S
atom 5.0108478915756365 2.5054229082109591 25.3841643984340948 S
atom 10.0216957831512730 2.5054249833646778 25.3841643984340948 S
atom 5.0108478915756365 7.5162728749403191 25.3841643984340948 S
atom 10.0216957831512730 7.5162707997866045 25.3841643984340948 S
atom 2.5054202843346829 5.0108478915756365 20.3960333080901925 S
atom 7.5162754988166007 5.0108478915756365 20.3960333080901925 S
atom 2.5054276072409571 10.0216957831512730 20.3960333080901925 S
atom 7.5162681759103203 10.0216957831512730 20.3960333080901925 S
atom 2.5054249833646778 5.0108478915756365 25.3841643984340948 S
atom 7.5162707997866036 5.0108478915756365 25.3841643984340948 S
atom 2.5054229082109591 10.0216957831512730 25.3841643984340948 S
atom 7.5162728749403191 10.0216957831512730 25.3841643984340948 S
atom 2.5054239457878182 2.5054239457878182 27.8040104208410064 Ba
atom 7.5162718373634601 2.5054239457878182 27.8040104208410064 Ba
atom 2.5054239457878182 7.5162718373634601 27.8040104208410064 Ba
atom 7.5162718373634601 7.5162718373634601 27.8040104208410064 Ba
atom 2.5054239457878182 2.5054239457878182 32.5569526930503983 Ba
atom 7.5162718373634601 2.5054239457878182 32.5569526930503983 Ba
atom 2.5054239457878182 7.5162718373634601 32.5569526930503983 Ba
atom 7.5162718373634601 7.5162718373634601 32.5569526930503983 Ba
atom 5.0108478915756365 5.0108478915756365 30.4773220021807418 Zr
atom 10.0216957831512730 5.0108478915756365 30.4773220021807418 Zr
atom 5.0108478915756365 10.0216957831512730 30.4773220021807418 Zr
atom 10.0216957831512730 10.0216957831512730 30.4773220021807418 Zr
atom 5.0108478915756365 5.0108478915756365 27.9006509883289802 S
atom 10.0216957831512730 5.0108478915756365 27.9006509883289802 S
atom 5.0108478915756365 10.0216957831512730 27.9006509883289802 S
atom 10.0216957831512730 10.0216957831512730 27.9006509883289802 S
atom 5.0108478915756365 5.0108478915756365 32.9826719847988130 S
atom 10.0216957831512730 5.0108478915756365 32.9826719847988130 S
atom 5.0108478915756365 10.0216957831512730 32.9826719847988130 S
atom 10.0216957831512730 10.0216957831512730 32.9826719847988130 S
atom 5.0108478915756365 2.5054276072409571 30.3722954887779828 S
atom 10.0216957831512730 2.5054202843346829 30.3722954887779828 S
atom 5.0108478915756365 7.5162681759103211 30.3722954887779828 S
atom 10.0216957831512730 7.5162754988166007 30.3722954887779828 S
atom 2.5054202843346829 5.0108478915756365 30.3722954887779828 S
atom 7.5162754988166007 5.0108478915756365 30.3722954887779828 S
atom 2.5054276072409571 10.0216957831512730 30.3722954887779828 S
atom 7.5162681759103203 10.0216957831512730 30.3722954887779828 S
