#=======================================================
# FHI-aims file: sym_relax/sym_relax_RP_7_Rx1Ry20_-Rx2-Ry10.in
# Created using the Atomic Simulation Environment (ASE)
# Mon Mar 17 15:43:59 2025
#=======================================================
lattice_vector 10.0812919723884793 0.0349837426367386 0.0000000000000000 
lattice_vector 0.0349837426367386 10.0812919723884793 0.0000000000000000 
lattice_vector 0.0000000000000000 0.0000000000000000 74.9393632908800100 
atom -0.1497348815888035 -0.0104847015262317 0.2759871960774555 Ba
atom 5.1903808677830536 0.0279765728446008 0.2759871960774555 Ba
atom 0.1672267529071727 5.0511306877204758 0.2759871960774555 Ba
atom 4.9084029759238152 5.0476531559863833 0.2759871960774555 Ba
atom 0.0259273756539214 -0.0305270603927837 4.9392216024021645 Ba
atom 5.0147186105403234 0.0480189317111528 4.9392216024021645 Ba
atom -0.0084355043355523 5.0711730465870284 4.9392216024021645 Ba
atom 5.0840652331665428 5.0276107971198298 4.9392216024021645 Ba
atom 2.5253190673732999 2.5169925563350080 2.3231138743031265 Zr
atom 7.5734647763335570 2.5586371724959749 2.3231138743031265 Zr
atom 2.5503106614576834 7.5817912873718436 2.3231138743031265 Zr
atom 7.5834569248859118 7.5751304138476163 2.3231138743031265 Zr
atom 2.5337211533865762 2.5281665662104622 7.3368546330085778 Zr
atom 7.5650626903202927 2.5474631626205171 7.3368546330085778 Zr
atom 2.5419085754444151 7.5706172774963907 7.3368546330085778 Zr
atom 7.5918590108991850 7.5863044237230772 7.3368546330085778 Zr
atom 2.5833526090594447 2.8769947371266089 -0.1592611729111129 S
atom 7.5154312346474050 2.1986349917043699 -0.1592611729111129 S
atom 2.4922771197715363 7.2217891065802489 -0.1592611729111129 S
atom 7.6414904665720709 7.9351325946392182 -0.1592611729111129 S
atom 2.4303195882018040 2.0681546954086838 4.8651026696918702 S
atom 7.6684642555050608 3.0074750334222955 4.8651026696918702 S
atom 2.6453101406291801 8.0306291482981731 4.8651026696918702 S
atom 7.4884574457144302 7.1262925529212966 4.8651026696918702 S
atom 2.5203229930971189 0.0087459356591846 2.0158816610555603 S
atom 7.5609689792913750 0.0262378069775538 2.7931343412221916 S
atom 2.5378148644154894 5.0493919218534300 2.7931343412221916 S
atom 7.5784608506097371 5.0668837931717992 2.0158816610555603 S
atom 2.5203229930971189 0.0087459356591846 7.8028821665470849 S
atom 7.5609689792913750 0.0262378069775538 6.8897757960150949 S
atom 2.5378148644154894 5.0493919218534300 6.8897757960150949 S
atom 7.5784608506097371 5.0668837931717992 7.8028821665470849 S
atom 0.0087459356591846 2.5203229930971220 2.3744562127525093 S
atom 5.0493919218534220 2.5378148644154916 2.5327274902717587 S
atom 0.0262378069775537 7.5609689792913715 2.5327274902717587 S
atom 5.0668837931718089 7.5784608506097317 2.3744562127525093 S
atom 0.0087459356591846 2.5203229930971220 7.4924330039556208 S
atom 5.0493919218534220 2.5378148644154916 7.2061167869893925 S
atom 0.0262378069775537 7.5609689792913715 7.2061167869893925 S
atom 5.0668837931718089 7.5784608506097317 7.4924330039556208 S
atom -0.0053719962323482 0.0629629504895797 9.8345092774067542 Ba
atom 5.0460179824266032 -0.0454710791712105 9.8345092774067542 Ba
atom 0.0228638675507174 4.9776830357046640 9.8345092774067542 Ba
atom 5.0527658612802631 5.1211008080021942 9.8345092774067542 Ba
atom 0.0041090444383017 -0.0708805001078313 14.7807955437585719 Ba
atom 5.0365369417559416 0.0883723714262004 14.7807955437585719 Ba
atom 0.0133828268800674 5.1115264863020737 14.7807955437585719 Ba
atom 5.0622469019509246 4.9872573574047827 14.7807955437585719 Ba
atom 2.5273445449580239 2.5303619885595645 12.2973964951969226 Zr
atom 7.5714392987488415 2.5452677402714174 12.2973964951969226 Zr
atom 2.5482851838729625 7.5684218551472870 12.2973964951969226 Zr
atom 7.5854824024706371 7.5884998460721809 12.2973964951969226 Zr
atom 2.5290689287563115 2.5290689287563080 17.2557744419789536 Zr
atom 7.5697149149505485 2.5465608000746749 17.2557744419789536 Zr
atom 2.5465608000746744 7.5697149149505538 17.2557744419789536 Zr
atom 7.5872067862689265 7.5872067862689248 17.2557744419789536 Zr
atom 2.6753591090323323 3.0171058439690781 9.8229559374711801 S
atom 7.4234247346745414 2.0585238848619065 9.8229559374711801 S
atom 2.4002706197986581 7.0816779997377850 9.8229559374711801 S
atom 7.7334969665449371 8.0752437014816749 9.8229559374711801 S
atom 2.3598982771293846 2.0459196351790587 14.7778036548786798 S
atom 7.7388855665774763 3.0297100936519179 14.7778036548786798 S
atom 2.7157314517016049 8.0528642085277973 14.7778036548786798 S
atom 7.4180361346420050 7.1040574926916777 14.7778036548786798 S
atom 2.5203229930971189 0.0087459356591846 11.8399340223149956 S
atom 7.5609689792913750 0.0262378069775538 12.7681720581292364 S
atom 2.5378148644154894 5.0493919218534300 12.7681720581292364 S
atom 7.5784608506097371 5.0668837931717992 11.8399340223149956 S
atom 2.5203229930971189 0.0087459356591846 17.7181489524951914 S
atom 7.5609689792913750 0.0262378069775538 16.7933999314627016 S
atom 2.5378148644154894 5.0493919218534300 16.7933999314627016 S
atom 7.5784608506097371 5.0668837931717992 17.7181489524951914 S
atom 0.0087459356591846 2.5203229930971220 12.1154267155913438 S
atom 5.0493919218534220 2.5378148644154916 12.4880472943853000 S
atom 0.0262378069775537 7.5609689792913715 12.4880472943853000 S
atom 5.0668837931718089 7.5784608506097317 12.1154267155913438 S
atom 0.0087459356591846 2.5203229930971220 17.4544870599454569 S
atom 5.0493919218534220 2.5378148644154916 17.0570618240123899 S
atom 0.0262378069775537 7.5609689792913715 17.0570618240123899 S
atom 5.0668837931718089 7.5784608506097317 17.4544870599454569 S
atom -0.0041090444383017 0.0708805001078313 19.7307533401993354 Ba
atom 5.0447550306325422 -0.0533886287894623 19.7307533401993354 Ba
atom 0.0216009157566708 4.9697654860864189 19.7307533401993354 Ba
atom 5.0540288130743116 5.1290183576204456 19.7307533401993354 Ba
atom 0.0053719962323482 -0.0629629504895797 24.6770396065511264 Ba
atom 5.0352739899618975 0.0804548218079488 24.6770396065511264 Ba
atom 0.0121198750860209 5.1036089366838242 24.6770396065511264 Ba
atom 5.0635098537449679 4.9951749070230358 24.6770396065511264 Ba
atom 2.5307933125545863 2.5277758689530496 22.2141523887609829 Zr
atom 7.5679905311522626 2.5478538598779346 22.2141523887609829 Zr
atom 2.5448364162763948 7.5710079747538082 22.2141523887609829 Zr
atom 7.5889311700672115 7.5859137264656615 22.2141523887609829 Zr
atom 2.5244167041260406 2.5299712913021470 27.1746942509493365 Zr
atom 7.5743671395808079 2.5456584375288327 27.1746942509493365 Zr
atom 2.5512130247049414 7.5688125524047116 27.1746942509493365 Zr
atom 7.5825545616386565 7.5881091488147625 27.1746942509493365 Zr
atom 2.6982395803832318 3.0122182223335501 19.7337452290792328 S
atom 7.4005442633236287 2.0634115064974283 19.7337452290792328 S
atom 2.3773901484477520 7.0865656213733059 19.7337452290792328 S
atom 7.7563774378958463 8.0703560798461513 19.7337452290792328 S
atom 2.3827787484802858 2.0410320135435365 24.6885929464867395 S
atom 7.7160050952265733 3.0345977152874410 24.6885929464867395 S
atom 2.6928509803506966 8.0577518301633066 24.6885929464867395 S
atom 7.4409166059929008 7.0991698710561542 24.6885929464867395 S
atom 2.5203229930971189 0.0087459356591846 21.7433768258287365 S
atom 7.5609689792913750 0.0262378069775538 22.6716148616429400 S
atom 2.5378148644154894 5.0493919218534300 22.6716148616429400 S
atom 7.5784608506097371 5.0668837931717992 21.7433768258287365 S
atom 2.5203229930971189 0.0087459356591846 27.6217730879428061 S
atom 7.5609689792913750 0.0262378069775538 26.7086667174108428 S
atom 2.5378148644154894 5.0493919218534300 26.7086667174108428 S
atom 7.5784608506097371 5.0668837931717992 27.6217730879428061 S
atom 0.0087459356591846 2.5203229930971220 22.0235015895725859 S
atom 5.0493919218534220 2.5378148644154916 22.3961221683665919 S
atom 0.0262378069775537 7.5609689792913715 22.3961221683665919 S
atom 5.0668837931718089 7.5784608506097317 22.0235015895725859 S
atom 0.0087459356591846 2.5203229930971220 27.3054320969685378 S
atom 5.0493919218534220 2.5378148644154916 27.0191158800023210 S
atom 0.0262378069775537 7.5609689792913715 27.0191158800023210 S
atom 5.0668837931718089 7.5784608506097317 27.3054320969685378 S
atom -0.0259273756539214 0.0305270603927837 29.5723272815557081 Ba
atom 5.0665733618481621 -0.0130351890744146 29.5723272815557081 Ba
atom 0.0434192469722905 5.0101189258014625 29.5723272815557081 Ba
atom 5.0322104818586881 5.0886649179053922 29.5723272815557081 Ba
atom 0.1497348815888035 0.0104847015262316 34.2355616878804412 Ba
atom 4.8909111046054310 0.0070071697921375 34.2355616878804412 Ba
atom -0.1322430102704343 5.0301612846680133 34.2355616878804412 Ba
atom 5.2078727391014201 5.0686225590388423 34.2355616878804412 Ba
atom 2.5328187901393164 2.5411453011776075 32.1884350096548744 Zr
atom 7.5659650535675542 2.5344844276533784 32.1884350096548744 Zr
atom 2.5428109386916682 7.5576385425292489 32.1884350096548744 Zr
atom 7.5909566476519359 7.5992831586902199 32.1884350096548744 Zr
atom 2.6278182693108110 2.9899831621039299 29.6464462142660423 S
atom 7.4709655743960521 2.0856465667270498 29.6464462142660423 S
atom 2.4478114595201785 7.1088006816029194 29.6464462142660423 S
atom 7.6859561268234247 8.0481210196165556 29.6464462142660423 S
atom 2.4747852484531676 2.1811431203860043 34.6708100568689801 S
atom 7.6239985952537008 2.8944866084449785 34.6708100568689801 S
atom 2.6008444803778117 7.9176407233208570 34.6708100568689801 S
atom 7.5329231059657715 7.2392809778986225 34.6708100568689801 S
atom 2.5203229930971189 0.0087459356591846 31.7184145427357258 S
atom 7.5609689792913750 0.0262378069775538 32.4956672229023837 S
atom 2.5378148644154894 5.0493919218534300 32.4956672229023837 S
atom 7.5784608506097371 5.0668837931717992 31.7184145427357258 S
atom 0.0087459356591846 2.5203229930971220 31.9788213936861538 S
atom 5.0493919218534220 2.5378148644154916 32.1370926712053162 S
atom 0.0262378069775537 7.5609689792913715 32.1370926712053162 S
atom 5.0668837931718089 7.5784608506097317 31.9788213936861538 S
atom 2.5395536302825339 2.6788038103451148 37.7456688415174995 Ba
atom 7.5592302134243230 2.3968259184858733 37.7456688415174995 Ba
atom 2.5360760985484498 7.4199800333617461 37.7456688415174995 Ba
atom 7.5976914877951538 7.7369416678577219 37.7456688415174995 Ba
atom 2.5595959891490905 2.5031415531023860 42.4089032478421188 Ba
atom 7.5391878545577660 2.5724881757285960 42.4089032478421188 Ba
atom 2.5160337396818901 7.5956422906044745 42.4089032478421188 Ba
atom 7.6177338466617144 7.5612794106150014 42.4089032478421188 Ba
atom 5.0702142299339164 5.0618877188956217 39.7927955197431373 Zr
atom 10.0867074712855658 5.0718798674479793 39.7927955197431373 Zr
atom 5.0635533564096793 10.0950339823238231 39.7927955197431373 Zr
atom 10.1283520874465207 10.1200255764082403 39.7927955197431373 Zr
atom 5.0590402200584581 5.0534856328823494 44.8065362784486183 Zr
atom 10.0978814811610338 5.0802819534612524 44.8065362784486183 Zr
atom 5.0747273662851518 10.1034360683371194 44.8065362784486183 Zr
atom 10.1171780775710651 10.1116234903949618 44.8065362784486183 Zr
atom 4.7102120491423065 5.0038541772094662 37.3104204725289037 S
atom 10.4467096520771658 5.1299134091341321 37.3104204725289037 S
atom 5.4235555372012936 10.1530675240099928 37.3104204725289037 S
atom 9.7683499066549366 10.0619920347221008 37.3104204725289037 S
atom 5.5190520908602405 5.1568871980671176 42.3347843151319623 S
atom 9.6378696103592372 4.9768803882764754 42.3347843151319623 S
atom 4.6147154954833542 10.0000345031523175 42.3347843151319623 S
atom 10.5771899483728564 10.2150250555797530 42.3347843151319623 S
atom 5.0493919218534220 2.5378148644154916 40.0024091357117229 S
atom 10.0900379080476696 2.5553067357338612 39.8441378581925605 S
atom 5.0668837931718089 7.5784608506097317 39.8441378581925605 S
atom 10.1075297793660592 7.5959527219281089 40.0024091357117229 S
atom 5.0493919218534220 2.5378148644154916 44.6757984324293957 S
atom 10.0900379080476696 2.5553067357338612 44.9621146493956445 S
atom 5.0668837931718089 7.5784608506097317 44.9621146493956445 S
atom 10.1075297793660592 7.5959527219281089 44.6757984324293957 S
atom 2.5378148644154894 5.0493919218534300 40.2628159866622184 S
atom 7.5784608506097371 5.0668837931717992 39.4855633064955640 S
atom 2.5553067357338635 10.0900379080476768 39.4855633064955640 S
atom 7.5959527219281036 10.1075297793660326 40.2628159866622184 S
atom 2.5378148644154894 5.0493919218534300 44.3594574414551772 S
atom 7.5784608506097371 5.0668837931717992 45.2725638119871263 S
atom 2.5553067357338635 10.0900379080476768 45.2725638119871263 S
atom 7.5959527219281036 10.1075297793660326 44.3594574414551772 S
atom 2.4661059782667305 2.5344409249886546 47.3041909228468214 Ba
atom 7.6326778654401215 2.5411888038423256 47.3041909228468214 Ba
atom 2.6095237505642546 7.5643429187181983 47.3041909228468214 Ba
atom 7.5242438357793517 7.5925787825012652 47.3041909228468214 Ba
atom 2.5999494288641367 2.5249598843180081 52.2504771891986195 Ba
atom 7.4988344148427277 2.5506698445129770 52.2504771891986195 Ba
atom 2.4756802999668475 7.5738239593888466 52.2504771891986195 Ba
atom 7.6580872863767517 7.5830977418306169 52.2504771891986195 Ba
atom 5.0568447977093536 5.0598622413109036 49.7670781406369471 Zr
atom 10.1000769035100983 5.0739053450326894 49.7670781406369471 Zr
atom 5.0769227886342465 10.0970594599085786 49.7670781406369471 Zr
atom 10.1149826552219881 10.1180000988235044 49.7670781406369471 Zr
atom 5.0581378575126230 5.0581378575126159 54.7254560874189622 Zr
atom 10.0987838437068440 5.0756297288309833 54.7254560874189622 Zr
atom 5.0756297288309788 10.0987838437068600 54.7254560874189622 Zr
atom 10.1162757150252460 10.1162757150252318 54.7254560874189622 Zr
atom 4.5701009422998453 4.9118476772365876 47.2926375829111336 S
atom 10.5868207589196199 5.2219199091069957 47.2926375829111336 S
atom 5.5636666440437477 10.2450740239828963 47.2926375829111336 S
atom 9.6282387998124701 9.9699855347491972 47.2926375829111336 S
atom 5.5412871510898718 5.2273085091395366 52.2474853003187221 S
atom 9.6156345501296201 4.9064590772040528 52.2474853003187221 S
atom 4.5924804352537443 9.9296131920799358 52.2474853003187221 S
atom 10.5994250086024735 10.2854463666521383 52.2474853003187221 S
atom 5.0493919218534220 2.5378148644154916 49.9577289398253441 S
atom 10.0900379080476696 2.5553067357338612 49.5851083610314021 S
atom 5.0668837931718089 7.5784608506097317 49.5851083610314021 S
atom 10.1075297793660592 7.5959527219281089 49.9577289398253441 S
atom 5.0493919218534220 2.5378148644154916 54.5267434694524482 S
atom 10.0900379080476696 2.5553067357338612 54.9241687053854761 S
atom 5.0668837931718089 7.5784608506097317 54.9241687053854761 S
atom 10.1075297793660592 7.5959527219281089 54.5267434694524482 S
atom 2.5378148644154894 5.0493919218534300 50.2378537035691863 S
atom 7.5784608506097371 5.0668837931717992 49.3096156677550468 S
atom 2.5553067357338635 10.0900379080476768 49.3096156677550468 S
atom 7.5959527219281036 10.1075297793660326 50.2378537035691863 S
atom 2.5378148644154894 5.0493919218534300 54.2630815769027564 S
atom 7.5784608506097371 5.0668837931717992 55.1878305979352390 S
atom 2.5553067357338635 10.0900379080476768 55.1878305979352390 S
atom 7.5959527219281036 10.1075297793660326 54.2630815769027564 S
atom 2.4581884286484752 2.5331779731946082 57.2004349856392835 Ba
atom 7.6405954150583764 2.5424517556363733 57.2004349856392835 Ba
atom 2.6174413001825103 7.5656058705122495 57.2004349856392835 Ba
atom 7.5163262861610969 7.5913158307072219 57.2004349856392835 Ba
atom 2.5920318792458876 2.5236969325239622 62.1467212519911385 Ba
atom 7.5067519644609817 2.5519327963070211 62.1467212519911385 Ba
atom 2.4835978495850961 7.5750869111829013 62.1467212519911385 Ba
atom 7.6501697367585049 7.5818347900365657 62.1467212519911385 Ba
atom 5.0594309173158774 5.0564134737143229 59.6838340342010270 Zr
atom 10.0974907839036092 5.0773541126292692 59.6838340342010270 Zr
atom 5.0743366690277156 10.1005082275051254 59.6838340342010270 Zr
atom 10.1175687748284862 10.1145513312269664 59.6838340342010270 Zr
atom 5.0572354949667764 5.0627900821428824 64.6443758963893060 Zr
atom 10.0996862062526898 5.0709775042007159 64.6443758963893060 Zr
atom 5.0765320913768361 10.0941316190766006 64.6443758963893060 Zr
atom 10.1153733524794092 10.1209279396554912 64.6443758963893060 Zr
atom 4.5749885639353707 4.8889672058856872 57.2034268745191810 S
atom 10.5819331372840946 5.2448003804579120 57.2034268745191810 S
atom 5.5587790224082285 10.2679544953337736 57.2034268745191810 S
atom 9.6331264214479955 9.9471050633983076 57.2034268745191810 S
atom 5.5461747727253945 5.2044280377886318 62.1582745919267836 S
atom 9.6107469284940805 4.9293395485549638 62.1582745919267836 S
atom 4.5875928136182216 9.9524936634308325 62.1582745919267836 S
atom 10.6043126302380006 10.2625658953012522 62.1582745919267836 S
atom 5.0493919218534220 2.5378148644154916 59.8658038138065649 S
atom 10.0900379080476696 2.5553067357338612 59.4931832350126015 S
atom 5.0668837931718089 7.5784608506097317 59.4931832350126015 S
atom 10.1075297793660592 7.5959527219281089 59.8658038138065649 S
atom 5.0493919218534220 2.5378148644154916 64.4887975254422656 S
atom 10.0900379080476696 2.5553067357338612 64.7751137424086068 S
atom 5.0668837931718089 7.5784608506097317 64.7751137424086068 S
atom 10.1075297793660592 7.5959527219281089 64.4887975254422656 S
atom 2.5378148644154894 5.0493919218534300 60.1412965070829415 S
atom 7.5784608506097371 5.0668837931717992 59.2130584712687309 S
atom 2.5553067357338635 10.0900379080476768 59.2130584712687309 S
atom 7.5959527219281036 10.1075297793660326 60.1412965070829415 S
atom 2.5378148644154894 5.0493919218534300 64.1783483628508549 S
atom 7.5784608506097371 5.0668837931717992 65.0914547333828892 S
atom 2.5553067357338635 10.0900379080476768 65.0914547333828892 S
atom 7.5959527219281036 10.1075297793660326 64.1783483628508549 S
atom 2.4985418683635250 2.5549963044102286 67.0420089269958055 Ba
atom 7.6002419753433355 2.5206334244207533 67.0420089269958055 Ba
atom 2.5770878604674587 7.5437875392966314 67.0420089269958055 Ba
atom 7.5566797258761484 7.6131341619228392 67.0420089269958055 Ba
atom 2.5185842272300771 2.3793340471675006 71.7052433333204249 Ba
atom 7.5801996164767855 2.6962956816634769 71.7052433333204249 Ba
atom 2.5570455016009110 7.7194497965393509 71.7052433333204249 Ba
atom 7.5767220847426868 7.4374719046801143 71.7052433333204249 Ba
atom 5.0460614850913155 5.0543879961296048 69.6581166550950002 Zr
atom 10.1108602161281542 5.0793795902139864 69.6581166550950002 Zr
atom 5.0877061012522891 10.1025337050898809 69.6581166550950002 Zr
atom 10.1041993426039554 10.1125258536422162 69.6581166550950002 Zr
atom 4.5972236241649966 4.9593885169581027 67.1161278597061397 S
atom 10.5596980770544917 5.1743790693854788 67.1161278597061397 S
atom 5.5365439621786079 10.1975331842613812 67.1161278597061397 S
atom 9.6553614816776019 10.0175263744706982 67.1161278597061397 S
atom 5.4060636658829218 5.1124215378157567 72.1404917023090348 S
atom 9.7508580353365506 5.0213460485278283 72.1404917023090348 S
atom 4.7277039204606828 10.0445001634037290 72.1404917023090348 S
atom 10.4642015233955306 10.1705593953283575 72.1404917023090348 S
atom 5.0493919218534220 2.5378148644154916 69.6067743166453425 S
atom 10.0900379080476696 2.5553067357338612 69.4485030391261375 S
atom 5.0668837931718089 7.5784608506097317 69.4485030391261375 S
atom 10.1075297793660592 7.5959527219281089 69.6067743166453425 S
atom 2.5378148644154894 5.0493919218534300 69.9653488683424172 S
atom 7.5784608506097371 5.0668837931717992 69.1880961881756917 S
atom 2.5553067357338635 10.0900379080476768 69.1880961881756917 S
atom 7.5959527219281036 10.1075297793660326 69.9653488683424172 S
