#=======================================================
# FHI-aims file: sym_relax/sym_relax_RP_3_RxRyMz_RxRyMz.in
# Created using the Atomic Simulation Environment (ASE)
# Fri Mar 14 10:24:21 2025
#=======================================================
lattice_vector 10.0297119439236315 -0.0218315515239529 -0.0098147950475751 
lattice_vector -0.0218315515239528 10.0297119439236297 0.0098147950475751 
lattice_vector -0.0349160656624052 0.0349160656624051 35.7907170359336533 
atom 0.0355784131894589 -0.1522749721713662 0.2373537271423108 Ba
atom 5.1671309441331834 -0.0464941889514343 0.2324463296185233 Ba
atom 0.1413591964093907 4.9792775587723490 0.2422611246660986 Ba
atom 5.0395186093892930 4.8516652240284586 0.2373537271423109 Ba
atom -0.2506648624239685 0.1924356704493892 4.9876104730759918 Ba
atom 4.8224203015124267 0.2397490866619927 4.9827030755522044 Ba
atom -0.2033514462113652 5.2655208343857645 4.9925178705997766 Ba
atom 4.7532753337758651 5.1963758666492259 4.9876104730759918 Ba
atom 2.4797671433509696 2.5100186628926058 2.3997418812424938 Zr
atom 7.5087775052690331 2.5132572770868871 2.3948344837187046 Zr
atom 2.4830057575452429 7.5390290248106728 2.4046492787662794 Zr
atom 7.4837073395508078 7.5139588590924387 2.3997418812424933 Zr
atom 2.4946959177535861 2.5092442784462485 7.4563993824861994 Zr
atom 7.5095518897153974 2.4983285026842732 7.4514919849624111 Zr
atom 2.4837801419916117 7.5241002504080443 7.4613067800099877 Zr
atom 7.4986361139534141 7.5131844746460796 7.4563993824861994 Zr
atom 2.6149219714443812 2.7326320165256797 -0.1041570717592632 S
atom 7.2861641516359565 2.3781024489934763 -0.1090644692830507 S
atom 2.2603924039121721 7.4038741967172541 -0.0992496742354756 S
atom 7.6188621676442096 7.7365722127255170 -0.1041570717592632 S
atom 2.2401712396903952 2.2157759389615097 4.9540823643680056 S
atom 7.8030202292001425 2.7528531807474632 4.9491749668442235 S
atom 2.7772484814763527 7.7786249284712410 4.9589897618917931 S
atom 7.2441114358902379 7.2197161351613302 4.9540823643680065 S
atom 2.7442608226594447 0.0161740956303098 2.2387345365126792 S
atom 7.2288074323072342 0.0081001323876856 2.7353284200803523 S
atom 2.2030356845834458 5.0338718801114748 2.7451432151279263 S
atom 7.7482010188592723 5.0201142918301320 2.2387345365126796 S
atom 2.8849988037471528 -0.0009499860692157 7.7503838764066337 S
atom 7.1301647794837972 -0.0063332047620679 7.1526000935181839 S
atom 2.1043930317600079 5.0194385429617085 7.1624148885657632 S
atom 7.8889389999469826 5.0029902101306192 7.7503838764066346 S
atom -0.0270898713922852 2.2705951493023657 2.2436419340364653 S
atom 4.9849242880501663 2.7899887358544087 2.7402358176041415 S
atom -0.0408474596736149 7.8157604835781909 2.7500506126517150 S
atom 4.9768503248075504 7.2745353455021995 2.2436419340364648 S
atom -0.0099657896927596 2.1298571682146576 7.7552912739304096 S
atom 4.9993576251999379 2.8886313886778421 7.1575074910419776 S
atom -0.0264141225238601 7.9144031364016305 7.1673222860895525 S
atom 4.9939744065070801 7.1337973644144892 7.7552912739304114 S
atom 0.2361165017313011 -0.1778873097567194 9.9251882918964007 Ba
atom 5.1927432817185348 -0.2470322774932759 9.9202808943726062 Ba
atom 0.1669715339947440 4.7787394702305113 9.9300956894201828 Ba
atom 5.2400566979311405 4.8260528864431045 9.9251882918964007 Ba
atom -0.0501267738821270 0.1668233328640357 14.6754450378300856 Ba
atom 4.8480326390977666 0.0392109981201513 14.6705376403062857 Ba
atom -0.1777391086260118 5.0649827458439356 14.6803524353538695 Ba
atom 4.9538134223176939 5.1707635290638709 14.6754450378300856 Ba
atom 2.5096246921561951 2.5084698939998926 12.5130568837299077 Zr
atom 7.5103262741617591 2.4833997282816580 12.5081494862061202 Zr
atom 2.4845545264379658 7.5091714760054407 12.5179642812536933 Zr
atom 7.5135648883560249 7.5124100901997206 12.5130568837299077 Zr
atom 2.7492205958167664 2.8027126179309922 9.9587164006043913 S
atom 7.2160835502306480 2.2438038246210952 9.9538090030805986 S
atom 2.1903118025068631 7.2695755723448761 9.9636237981281610 S
atom 7.7531607920166055 7.8066528141308087 9.9587164006043896 S
atom 2.3744698640627897 2.2858565403668192 15.0169558367316522 S
atom 7.7329396277948232 2.6185545563750683 15.0120484392078772 S
atom 2.7071678800710428 7.6443263040988434 15.0218632342554361 S
atom 7.3784100602626292 7.2897967365666343 15.0169558367316522 S
atom 2.7863561509237149 -0.0153833232189697 12.1676555498444809 S
atom 7.2709027605715120 -0.0234572864615934 12.6642494334121398 S
atom 2.2451310128477222 5.0023144612621904 12.6740642284597289 S
atom 7.7902963471235589 4.9885568729808520 12.1676555498444809 S
atom 0.0044675474569935 2.2284998210380906 12.1725629473682684 S
atom 5.0164817068994569 2.7478934075901376 12.6691568309359397 S
atom -0.0092900408243346 7.7736651553139122 12.6789716259835092 S
atom 5.0084077436568348 7.2324400172379182 12.1725629473682684 S
atom 2.5200904784581710 2.3671531587597521 18.1327122451091824 Ba
atom 7.6516430094018881 2.4729339419796861 18.1278048475853808 Ba
atom 2.6258712616781019 7.4987056897034670 18.1376196426329770 Ba
atom 7.5240306746580163 7.3710933549595765 18.1327122451091824 Ba
atom 2.2338472028447480 2.7118638013805056 22.8829689910428833 Ba
atom 7.3069323667811350 2.7591772175931011 22.8780615935190816 Ba
atom 2.2811606190573488 7.7849489653168851 22.8878763885666814 Ba
atom 7.2377873990445813 7.7158039975803314 22.8829689910428833 Ba
atom 4.9642792086196863 5.0294467938237215 20.2951003992093426 Zr
atom 9.9932895705377582 5.0326854080180032 20.2901930016855623 Zr
atom 4.9675178228139618 10.0584571557417704 20.3000077967331300 Zr
atom 9.9682194048195161 10.0333869900235513 20.2951003992093426 Zr
atom 4.9792079830223024 5.0286724093773651 25.3517579004530766 Zr
atom 9.9940639549841030 5.0177566336153951 25.3468505029292714 Zr
atom 4.9682922072603128 10.0435283813391738 25.3566652979768534 Zr
atom 9.9831481792221179 10.0326126055771923 25.3517579004530766 Zr
atom 5.0994340367130881 5.2520601474567989 17.7912014462076016 S
atom 9.7706762169046755 4.8975305799245907 17.7862940486838355 S
atom 4.7449044691808799 9.9233023276483721 17.7961088437313890 S
atom 10.1033742329129304 10.2560003436566269 17.7912014462076016 S
atom 4.7246833049591173 4.7352040698926272 22.8494408823349140 S
atom 10.2875322944688445 5.2722813116785643 22.8445334848111266 S
atom 5.2617605467450659 10.2980530594023580 22.8543482798586908 S
atom 9.7286235011589728 9.7391442660924330 22.8494408823349140 S
atom 5.2287728879281534 2.5356022265614260 20.1340930544795746 S
atom 9.7133194975759558 2.5275282633187990 20.6306869380472442 S
atom 4.6875477498521638 7.5533000110425874 20.6405017330947835 S
atom 10.2327130841279956 7.5395424227612562 20.1340930544795711 S
atom 5.3695108690158637 2.5184781448619025 25.6457423943734995 S
atom 9.6146768447525233 2.5130949261690461 25.0479586114850505 S
atom 4.5889050970287313 7.5388666738928256 25.0577734065326396 S
atom 10.3734510652156953 7.5224183410617318 25.6457423943734959 S
atom 2.4574221938764307 4.7900232802334797 20.1390004520033479 S
atom 7.4694363533188808 5.3094168667855257 20.6355943355710032 S
atom 2.4436646055950995 10.3351886145093097 20.6454091306185781 S
atom 7.4613623900762729 9.7939634764333086 20.1390004520033479 S
atom 2.4745462755759542 4.6492852991457791 25.6506497918972762 S
atom 7.4838696904686426 5.4080595196089574 25.0528660090088344 S
atom 2.4580979427448573 10.4338312673327263 25.0626808040564164 S
atom 7.4784864717757911 9.6532254953456125 25.6506497918972798 S
atom 2.7206285670000168 2.3415408211743993 27.8205468098632380 Ba
atom 7.6772553469872511 2.2723958534378408 27.8156394123394719 Ba
atom 2.6514835992634542 7.2981676011616363 27.8254542073870361 Ba
atom 7.7245687631998443 7.3454810173742260 27.8205468098632380 Ba
atom 2.4343852913865947 2.6862514637951529 32.5708035557969851 Ba
atom 7.3325447043664740 2.5586391290512651 32.5658961582731905 Ba
atom 2.3067729566427055 7.5844108767750571 32.5757109533207654 Ba
atom 7.4383254875864120 7.6901916599949907 32.5708035557969851 Ba
atom 4.9941367574249158 5.0278980249310079 30.4084154016967965 Zr
atom 9.9948383394304852 5.0028278592127764 30.4035080041729806 Zr
atom 4.9690665917066754 10.0285996069365488 30.4133227992205661 Zr
atom 9.9980769536247571 10.0318382211308332 30.4084154016967965 Zr
atom 5.2337326610854760 5.3221407488621031 27.8540749185712428 S
atom 9.7005956154993509 4.7632319555522038 27.8491675210474483 S
atom 4.6748238677755865 9.7890037032759913 27.8589823160950232 S
atom 10.2376728572853164 10.3260809450619337 27.8540749185712428 S
atom 4.8589819293314997 4.8052846712979322 32.9123143546985446 S
atom 10.2174516930635537 5.1379826873061756 32.9074069571747145 S
atom 5.1916799453397608 10.1637544350299773 32.9172217522223320 S
atom 9.8629221255313535 9.8092248674977682 32.9123143546985446 S
atom 5.2708682161924427 2.5040448077121469 30.0630140678113307 S
atom 9.7554148258402460 2.4959708444695226 30.5596079513790180 S
atom 4.7296430781164487 7.5217425921933136 30.5694227464265822 S
atom 10.2748084123922574 7.5079850039119664 30.0630140678113307 S
atom 2.4889796127257116 4.7479279519692046 30.0679214653351430 S
atom 7.5009937721681679 5.2673215385212453 30.5645153489027983 S
atom 2.4752220244443772 10.2930932862450319 30.5743301439503377 S
atom 7.4929198089255422 9.7518681481690450 30.0679214653351430 S
