#=======================================================
# FHI-aims file: sym_relax/sym_relax_RP_1_RxRyMz_RxRyMz.in
# Created using the Atomic Simulation Environment (ASE)
# Fri Mar 14 10:20:24 2025
#=======================================================
lattice_vector 10.0578289284965638 0.1251261033433535 -0.0008559304852032 
lattice_vector 0.1251261033433536 10.0578289284965585 0.0008559304852032 
lattice_vector 0.0011051351079613 -0.0011051351079614 15.6288677534684251 
atom 0.0908304120718319 0.0908158180941749 0.2364409785267015 Ba
atom 4.9380986461541028 -0.0282673604001563 0.2360130132841003 Ba
atom -0.0282527664224993 4.9380840521764418 0.2368689437693035 Ba
atom 5.1823079279917863 5.1822933340141306 0.2364409785267017 Ba
atom -0.0904850573505944 -0.0911611728154126 4.6475801944321731 Ba
atom 5.1200756370636933 0.1530481090222699 4.6471522291895662 Ba
atom 0.1537242244870883 5.1193995215988775 4.6480081596747729 Ba
atom 5.0009924585693639 5.0003163431045383 4.6475801944321731 Ba
atom 2.5459114353205936 2.5455660805993592 2.4420105864794355 Zr
atom 7.5748258995688724 2.6081291322710340 2.4415826212368357 Zr
atom 2.6084744869922725 7.5744805448476393 2.4424385517220388 Zr
atom 7.6373889512405544 7.6370435965193124 2.4420105864794359 Zr
atom 2.4004960074997617 2.4005692791140731 -0.0990408192885526 S
atom 7.7198227010541478 2.7535445600918678 -0.0994687845311539 S
atom 2.7534712884775514 7.7198959726684704 -0.0986128540459508 S
atom 7.4919735234197171 7.4920467950340335 -0.0990408192885525 S
atom 2.6913268631414300 2.6905628820846408 4.9830619922474231 S
atom 7.4298290980835997 2.4627137044501990 4.9826340270048251 S
atom 2.4634776855069909 7.4290651170268038 4.9834899574900255 S
atom 7.7828043790613899 7.7820403980045842 4.9830619922474231 S
atom 2.5146009107041443 0.0311002880859908 2.5933093995361651 S
atom 7.5435733725136540 0.0936804605361221 2.2898558429375031 S
atom 2.5772219599370505 5.0600318731127256 2.2907117734227089 S
atom 7.6060784266240926 5.1225778040059495 2.5933093995361656 S
atom 0.0314627635856852 2.5143135535441323 2.5937373647787676 S
atom 5.0603601070555060 2.5768186076545820 2.2902838081801038 S
atom 0.0940086944789049 7.5431700202311829 2.2911397386653101 S
atom 5.1229402795056336 7.6057910694640931 2.5937373647787676 S
atom 2.6371217375857920 2.6360020085001747 8.0508748552609006 Ba
atom 7.4843899716680600 2.5169188300058423 8.0504468900182964 Ba
atom 2.5180385590914591 7.4832702425824413 8.0513028205034924 Ba
atom 7.7285992535057515 7.7274795244201284 8.0508748552609006 Ba
atom 2.4558062681633652 2.4540250175905829 12.4620140711663758 Ba
atom 7.6663669625776469 2.6982342994282669 12.4615861059237680 Ba
atom 2.7000155500010470 7.6645857120048762 12.4624420364089783 Ba
atom 7.5472837840833114 7.5455025335105388 12.4620140711663758 Ba
atom 5.0922027608345575 5.0907522710053525 10.2564444632136365 Zr
atom 10.1211172250828287 5.1533153226770336 10.2560164979710251 Zr
atom 5.1547658125062297 10.1196667352536345 10.2568724284562265 Zr
atom 10.1836802767545098 10.1822297869253067 10.2564444632136365 Zr
atom 4.9467873330137175 4.9457554695200781 7.7153930574456471 S
atom 10.2661140265681379 5.2987307504978665 7.7149650922030402 S
atom 5.2997626139915086 10.2650821630744780 7.7158210226882531 S
atom 10.0382648489336468 10.0372329854400242 7.7153930574456471 S
atom 5.2376181886553885 5.2357490724906315 12.7974958689816187 S
atom 9.9761204235975391 5.0078998948561928 12.7970679037390145 S
atom 5.0097690110209498 9.9742513074327892 12.7979238342242176 S
atom 10.3290957045753444 10.3272265884105927 12.7974958689816170 S
atom 5.0608922362181019 2.5762864784919879 10.4077432762703577 S
atom 10.0898646980275988 2.6388666509421186 10.1042897196716961 S
atom 5.1235132854510050 7.6052180635187199 10.1051456501569046 S
atom 10.1523697521380480 7.6677639944119420 10.4077432762703577 S
atom 2.5777540890996393 5.0594997439501359 10.4081712415129743 S
atom 7.6066514325694659 5.1220047980605790 10.1047176849143003 S
atom 2.6403000199928628 10.0883562106371940 10.1055736153995159 S
atom 7.6692316050195943 10.1509772598700767 10.4081712415129743 S
