#=======================================================
# FHI-aims file: sym_relax/sym_relax_RP_8_RxRyMz_-Rx-RyMz.in
# Created using the Atomic Simulation Environment (ASE)
# Mon Mar 17 16:19:55 2025
#=======================================================
lattice_vector 10.0082421533353756 -0.0734500141242093 0.0000000000000000 
lattice_vector -0.0734500141242095 10.0082421533353347 0.0000000000000000 
lattice_vector 0.0000000000000000 0.0000000000000000 86.0109718241782559 
atom 0.0614355621567167 -0.1458856810292812 0.2229236997777390 Ba
atom 5.1500067576969872 -0.0981605692188205 0.2229236997777390 Ba
atom 0.1091606739671769 4.9426855145109529 0.2229236997777390 Ba
atom 5.0288316317623032 4.8215103885762742 0.2229236997777389 Ba
atom -0.3024367520935922 0.2222997888596328 5.0128770795153264 Ba
atom 4.7818212878080590 0.2657117450314841 5.0128770795153264 Ba
atom -0.2590247959217398 5.3065578287612496 5.0128770795153264 Ba
atom 4.6649593175120039 5.1896958584651935 5.0128770795153264 Ba
atom 2.4500789503361657 2.5079029996841187 2.4060362747128763 Zr
atom 7.4636141465891628 2.4805921122073031 2.4060362747128763 Zr
atom 2.4227680628593502 7.5214381959370762 2.4060362747128763 Zr
atom 7.4174750199417616 7.4752990692896732 2.4060362747128763 Zr
atom 2.4397708144284400 2.5234682696421422 7.4639786585801069 Zr
atom 7.4480488766311330 2.4909002481150266 7.4639786585801069 Zr
atom 2.4072027929013271 7.5317463318447890 7.4639786585801069 Zr
atom 7.4071668840340426 7.4908643392476879 7.4639786585801069 Zr
atom 2.5749219121404012 2.7241805038404014 -0.1005386894354686 S
atom 7.2473366424328720 2.3557491504030663 -0.1005386894354686 S
atom 2.2064905587030648 7.3965952341328478 -0.1005386894354686 S
atom 7.5423179817459927 7.6915765734459560 -0.1005386894354686 S
atom 2.2009160993275620 2.2237357346501332 4.9700283341529747 S
atom 7.7477814116231265 2.7297549632159006 4.9700283341529747 S
atom 2.7069353278933335 7.7706010469456706 4.9700283341529747 S
atom 7.1683121689331584 7.1911318042556989 4.9700283341529747 S
atom 2.7639527618606552 0.0212257098582134 2.2539184262375138 S
atom 7.1467183987436744 -0.0127551200348556 2.7609713622508618 S
atom 2.1058723150138690 5.0280909636949263 2.7609713622508618 S
atom 7.7313488314662475 4.9886217794637711 2.2539184262375147 S
atom 2.8629617083905154 0.0172750295308150 7.7933197094288165 S
atom 7.0818111799656851 -0.0164634260244892 7.1766554078022011 S
atom 2.0409650962358841 5.0243826577052797 7.1766554078022011 S
atom 7.8303577779961113 4.9846710991363734 7.7933197094288165 S
atom -0.0579507169203186 2.2401683148070326 2.2539184262375147 S
atom 4.9434261825783379 2.8247987475295990 2.7609713622508618 S
atom -0.0974199011514600 7.8656448312593641 2.7609713622508618 S
atom 4.9094453526852684 7.2075643844125850 2.2539184262375138 S
atom -0.0540000365929201 2.1411593682771630 7.7933197094288165 S
atom 4.9471344885679853 2.8897059663075764 7.1766554078022011 S
atom -0.0937115951618260 7.9305520500373508 7.1766554078022011 S
atom 4.9133960330126820 7.1085554378827203 7.7933197094288165 S
atom 0.2495142880533657 -0.1484513559187632 9.9918383148821786 Ba
atom 5.1525724325864681 -0.2862392951154684 9.9918383148821786 Ba
atom 0.1117263488566594 4.7546067886142946 9.9918383148821786 Ba
atom 5.2169103576589544 4.8189447136867889 9.9918383148821786 Ba
atom -0.3195299217772858 0.2165734975381178 14.9958360737441598 Ba
atom 4.7875475791295692 0.2828049147151776 14.9958360737441598 Ba
atom -0.2532985046002248 5.3236509984449407 14.9958360737441598 Ba
atom 4.6478661478283083 5.1839695671436798 14.9958360737441598 Ba
atom 2.4535142660308598 2.5164689267245763 12.4814713974764100 Zr
atom 7.4550482195486962 2.4771567965126136 12.4814713974764100 Zr
atom 2.4142021358188903 7.5180028802423733 12.4814713974764100 Zr
atom 7.4209103356364476 7.4838649963301220 12.4814713974764100 Zr
atom 2.4481167623803675 2.5186038461001670 17.4959045872574173 Zr
atom 7.4529133001731056 2.4825543001630987 17.4959045872574173 Zr
atom 2.4120672164433032 7.5234003838928585 17.4959045872574173 Zr
atom 7.4155128319859687 7.4859999157057295 17.4959045872574173 Zr
atom 2.7120049625921814 2.8456038353975752 9.9834132756699638 S
atom 7.1259133108756876 2.2186660999512915 9.9834132756699638 S
atom 2.0850672271458861 7.2595121836810650 9.9834132756699638 S
atom 7.6794010321977675 7.8129999050031351 9.9834132756699638 S
atom 2.1828607847119854 2.1869263867151867 14.9931952745692012 S
atom 7.7845907595580774 2.7478102778314710 14.9931952745692012 S
atom 2.7437446758282724 7.7886563615612427 14.9931952745692012 S
atom 7.1502568543175871 7.1543224563207435 14.9931952745692012 S
atom 2.8542270717721374 0.0136257012788492 12.1747657729845447 S
atom 7.0858904046774152 -0.0204551535434444 12.8128461737625816 S
atom 2.0450443209476177 5.0203909301863225 12.8128461737625816 S
atom 7.8216231413777280 4.9810217708844053 12.1747657729845447 S
atom 2.8526703700045553 0.0151127720110459 17.8203218966198449 S
atom 7.0864586320313370 -0.0189656926752581 17.1779930657531779 S
atom 2.0456125483015395 5.0218803910545082 17.1779930657531779 S
atom 7.8200664396101516 4.9825088416165979 17.8203218966198449 S
atom -0.0503507083409543 2.1498940048955442 12.1747657729845447 S
atom 4.9511262160869354 2.8856267415958450 12.8128461737625816 S
atom -0.0897198676428710 7.9264728253256109 12.8128461737625816 S
atom 4.9170453612646368 7.1172900745011036 12.1747657729845447 S
atom -0.0518377790731509 2.1514507066631259 17.8203218966198449 S
atom 4.9496367552187523 2.8850585142419174 17.1779930657531779 S
atom -0.0912093285110572 7.9259045979716802 17.1779930657531779 S
atom 4.9155582905324522 7.1188467762686845 17.8203218966198449 S
atom 0.2509573393629985 -0.1472218579950701 20.0025515870181749 Ba
atom 5.1513429346627611 -0.2876823464251024 20.0025515870181749 Ba
atom 0.1104968509329663 4.7531637373046633 20.0025515870181749 Ba
atom 5.2183534089685981 4.8201742116104942 20.0025515870181749 Ba
atom -0.3195299217772859 0.2165734975381178 25.0092671002922060 Ba
atom 4.7875475791295692 0.2828049147151776 25.0092671002922060 Ba
atom -0.2532985046002248 5.3236509984449407 25.0092671002922060 Ba
atom 4.6478661478283083 5.1839695671436798 25.0092671002922060 Ba
atom 2.4481167623803675 2.5186038461001670 22.5091985867789575 Zr
atom 7.4529133001731056 2.4825543001630987 22.5091985867789575 Zr
atom 2.4120672164433032 7.5234003838928585 22.5091985867789575 Zr
atom 7.4155128319859687 7.4859999157057295 22.5091985867789575 Zr
atom 2.4535142660308598 2.5164689267245763 27.5236317765599452 Zr
atom 7.4550482195486962 2.4771567965126136 27.5236317765599452 Zr
atom 2.4142021358188903 7.5180028802423733 27.5236317765599452 Zr
atom 7.4209103356364476 7.4838649963301220 27.5236317765599452 Zr
atom 2.7162511620467327 2.8504220874382740 20.0025515870181749 S
atom 7.1210950588349986 2.2144199004967349 20.0025515870181749 S
atom 2.0802489751051967 7.2552659842265079 20.0025515870181749 S
atom 7.6836472316523192 7.8178181570438374 20.0025515870181749 S
atom 2.1828607847119854 2.1869263867151867 25.0119078994671646 S
atom 7.7845907595580774 2.7478102778314710 25.0119078994671646 S
atom 2.7437446758282724 7.7886563615612427 25.0119078994671646 S
atom 7.1502568543175871 7.1543224563207435 25.0119078994671646 S
atom 2.8526703700045553 0.0151127720110459 22.1847812774165334 S
atom 7.0864586320313370 -0.0189656926752581 22.8271101082831720 S
atom 2.0456125483015395 5.0218803910545082 22.8271101082831720 S
atom 7.8200664396101525 4.9825088416165979 22.1847812774165334 S
atom 2.8542270717721379 0.0136257012788492 27.8303374010518496 S
atom 7.0858904046774152 -0.0204551535434444 27.1922570002738127 S
atom 2.0450443209476177 5.0203909301863225 27.1922570002738127 S
atom 7.8216231413777280 4.9810217708844053 27.8303374010518496 S
atom -0.0518377790731509 2.1514507066631259 22.1847812774165334 S
atom 4.9496367552187523 2.8850585142419174 22.8271101082831720 S
atom -0.0912093285110572 7.9259045979716802 22.8271101082831720 S
atom 4.9155582905324522 7.1188467762686845 22.1847812774165334 S
atom -0.0503507083409543 2.1498940048955433 27.8303374010518496 S
atom 4.9511262160869354 2.8856267415958450 27.1922570002738127 S
atom -0.0897198676428710 7.9264728253256109 27.1922570002738127 S
atom 4.9170453612646368 7.1172900745011036 27.8303374010518496 S
atom 0.2495142880533657 -0.1484513559187632 30.0132648591542477 Ba
atom 5.1525724325864681 -0.2862392951154684 30.0132648591542477 Ba
atom 0.1117263488566594 4.7546067886142946 30.0132648591542477 Ba
atom 5.2169103576589544 4.8189447136867889 30.0132648591542477 Ba
atom -0.3024367520935923 0.2222997888596328 34.9922260945210297 Ba
atom 4.7818212878080590 0.2657117450314842 34.9922260945210297 Ba
atom -0.2590247959217398 5.3065578287612496 34.9922260945210297 Ba
atom 4.6649593175120039 5.1896958584651935 34.9922260945210297 Ba
atom 2.4397708144284400 2.5234682696421422 32.5411245154563744 Zr
atom 7.4480488766311330 2.4909002481150266 32.5411245154563744 Zr
atom 2.4072027929013271 7.5317463318447890 32.5411245154563744 Zr
atom 7.4071668840340426 7.4908643392476879 32.5411245154563744 Zr
atom 2.4500789503361657 2.5079029996841187 37.5990668993235388 Zr
atom 7.4636141465891628 2.4805921122073031 37.5990668993235388 Zr
atom 2.4227680628593502 7.5214381959370762 37.5990668993235388 Zr
atom 7.4174750199417616 7.4752990692896732 37.5990668993235388 Zr
atom 2.7120049625921814 2.8456038353975752 30.0216898983664073 S
atom 7.1259133108756876 2.2186660999512915 30.0216898983664073 S
atom 2.0850672271458861 7.2595121836810650 30.0216898983664073 S
atom 7.6794010321977675 7.8129999050031351 30.0216898983664073 S
atom 2.2009160993275620 2.2237357346501332 35.0350748398834426 S
atom 7.7477814116231265 2.7297549632159006 35.0350748398834426 S
atom 2.7069353278933335 7.7706010469456706 35.0350748398834426 S
atom 7.1683121689331584 7.1911318042556989 35.0350748398834426 S
atom 2.8629617083905154 0.0172750295308150 32.2117834646076133 S
atom 7.0818111799656851 -0.0164634260244892 32.8284477662341700 S
atom 2.0409650962358841 5.0243826577052797 32.8284477662341700 S
atom 7.8303577779961113 4.9846710991363734 32.2117834646076133 S
atom 2.7639527618606552 0.0212257098582134 37.7511847477987885 S
atom 7.1467183987436744 -0.0127551200348556 37.2441318117855076 S
atom 2.1058723150138690 5.0280909636949263 37.2441318117855076 S
atom 7.7313488314662475 4.9886217794637711 37.7511847477987885 S
atom -0.0540000365929201 2.1411593682771630 32.2117834646076133 S
atom 4.9471344885679853 2.8897059663075764 32.8284477662341700 S
atom -0.0937115951618260 7.9305520500373508 32.8284477662341700 S
atom 4.9133960330126820 7.1085554378827203 32.2117834646076133 S
atom -0.0579507169203186 2.2401683148070326 37.7511847477987885 S
atom 4.9434261825783379 2.8247987475295990 37.2441318117855076 S
atom -0.0974199011514600 7.8656448312593641 37.2441318117855076 S
atom 4.9094453526852684 7.2075643844125850 37.7511847477987885 S
atom 0.0614355621567167 -0.1458856810292812 39.7821794742586903 Ba
atom 5.1500067576969872 -0.0981605692188205 39.7821794742586903 Ba
atom 0.1091606739671769 4.9426855145109529 39.7821794742586903 Ba
atom 5.0288316317623032 4.8215103885762742 39.7821794742586903 Ba
atom 2.5749219121404012 2.7241805038404014 40.1056418634718455 S
atom 7.2473366424328720 2.3557491504030663 40.1056418634718455 S
atom 2.2064905587030648 7.3965952341328478 40.1056418634718455 S
atom 7.5423179817459927 7.6915765734459560 40.1056418634718455 S
atom 2.4222624726460782 2.6295837158320663 43.2284096118667946 Ba
atom 7.3419334304412143 2.5084085898973898 43.2284096118667946 Ba
atom 2.3010873467114075 7.5492546736271544 43.2284096118667946 Ba
atom 7.3896585422516790 7.5969797854376164 43.2284096118667946 Ba
atom 2.7861347868963904 2.2613982459431443 48.0183629916044268 Ba
atom 7.7101189003301309 2.1445362756470865 48.0183629916044268 Ba
atom 2.6692728166003263 7.1853823593768578 48.0183629916044268 Ba
atom 7.7535308565019854 7.2287943155487007 48.0183629916044268 Ba
atom 5.0010151540722223 4.9431911047242272 45.4115221868019177 Zr
atom 9.9957221111546364 4.8970519780768242 45.4115221868019177 Zr
atom 4.9548760274248327 9.9378980618065853 45.4115221868019177 Zr
atom 9.9684112236778351 9.9105871743297733 45.4115221868019177 Zr
atom 5.0113232899799476 4.9276258347662010 50.4694645706692384 Zr
atom 10.0112873811126732 4.8867438421691114 50.4694645706692384 Zr
atom 4.9704412973828438 9.9275899258988680 50.4694645706692384 Zr
atom 9.9787193595855435 9.8950219043717436 50.4694645706692384 Zr
atom 4.8761721922679904 4.7269136005679346 42.9049472226536395 S
atom 10.2119996153109227 5.0218949398810588 42.9049472226536395 S
atom 5.1711535315811101 10.0627410236108208 42.9049472226536395 S
atom 9.8435682618736138 9.6943096701734799 42.9049472226536395 S
atom 5.2501780050808362 5.2273583697582033 47.9755142462420991 S
atom 9.7115548461206522 4.6478891270682281 47.9755142462420991 S
atom 4.6707087623908565 9.6887352107979936 47.9755142462420991 S
atom 10.2175740746864339 10.1947544393637433 47.9755142462420991 S
atom 5.3452217893945226 2.4230031407134298 45.7664572743399987 S
atom 9.7279874262775206 2.3890223108203585 45.2594043383266609 S
atom 4.6871413425477320 7.4298683945501223 45.2594043383266609 S
atom 10.3126178590000936 7.3903992103189831 45.7664572743399987 S
atom 5.4101290081725102 2.4267114467030604 50.1821413198912651 S
atom 9.6289784797476710 2.3929729911477522 50.7988056215178716 S
atom 4.5881323960178602 7.4338190748775288 50.7988056215178716 S
atom 10.3775250777780990 7.3941075163086145 50.1821413198912651 S
atom 2.5076679218300417 4.6262953568787415 45.7664572743399987 S
atom 7.5090448213287111 5.2109257896013128 45.2594043383266609 S
atom 2.4681987375989016 10.2517718733310694 45.2594043383266609 S
atom 7.4750639914356496 9.5936914264842983 45.7664572743399987 S
atom 2.5039596158404112 4.5613881381007602 50.1821413198912651 S
atom 7.5050941410013126 5.3099347361311731 50.7988056215178716 S
atom 2.4642480572715009 10.3507808198609386 50.7988056215178716 S
atom 7.4713556854460101 9.5287842077063161 50.1821413198912651 S
atom 2.2341837467494359 2.6321493907215432 52.9973242269712657 Ba
atom 7.3393677555517316 2.6964873157940374 52.9973242269712657 Ba
atom 2.2985216718219319 7.7373333995238029 52.9973242269712657 Ba
atom 7.2015798163550224 7.5995454603271027 52.9973242269712657 Ba
atom 2.8032279565800757 2.2671245372646629 58.0013219858331937 Ba
atom 7.7043926090086225 2.1274431059633914 58.0013219858331937 Ba
atom 2.6635465252788126 7.1682891896931578 58.0013219858331937 Ba
atom 7.7706240261856721 7.2345206068702117 58.0013219858331937 Ba
atom 4.9975798383775301 4.9346251776837713 55.4869573095655539 Zr
atom 10.0042880381950869 4.9004872937715254 55.4869573095655539 Zr
atom 4.9634419544652824 9.9413333775012767 55.4869573095655539 Zr
atom 9.9649759079831064 9.9020212472892997 55.4869573095655539 Zr
atom 5.0029773420280064 4.9324902583081673 60.5013904993464777 Zr
atom 10.0064229575706669 4.8950897901210348 60.5013904993464777 Zr
atom 4.9655768738408872 9.9359358738508021 60.5013904993464777 Zr
atom 9.9703734116336094 9.8998863279137588 60.5013904993464777 Zr
atom 4.7390891418162200 4.6054902690107538 52.9888991877591025 S
atom 10.3334229468680689 5.1589779903328354 52.9888991877591025 S
atom 5.2925768631382937 10.1998240740626080 52.9888991877591025 S
atom 9.7064852114218123 9.5728863386163301 52.9888991877591025 S
atom 5.2682333196963960 5.2641677176931587 57.9986811866582457 S
atom 9.6747454981857057 4.6298338124526541 57.9986811866582457 S
atom 4.6338994144558985 9.6706798961824258 57.9986811866582457 S
atom 10.2356293893020140 10.2315637872986933 57.9986811866582457 S
atom 5.4060497834607721 2.4307031742220131 55.8183320858516794 S
atom 9.6377131163660508 2.3966223193997176 55.1802516850735856 S
atom 4.5968670326362489 7.4374684031294986 55.1802516850735856 S
atom 10.3734458530663627 7.3980992438275690 55.8183320858516794 S
atom 5.4054815561068379 2.4292137133538296 60.1834789778422774 S
atom 9.6392698181336396 2.3951352486675277 60.8258078087090013 S
atom 4.5984237344038359 7.4359813323973025 60.8258078087090013 S
atom 10.3728776257124444 7.3966097829593842 60.1834789778422774 S
atom 2.4999678883214616 4.5654673628124938 55.8183320858516794 S
atom 7.5014448127493418 5.3012000995127986 55.1802516850735856 S
atom 2.4605987290195417 10.3420461832425552 55.1802516850735856 S
atom 7.4673639579270548 9.5328634324180754 55.8183320858516794 S
atom 2.5014573491896450 4.5660355901664280 60.1834789778422774 S
atom 7.5029318834815397 5.2996433977452142 60.8258078087090013 S
atom 2.4620857997517351 10.3404894814749770 60.8258078087090013 S
atom 7.4688534187952396 9.5334316597719830 60.1834789778422774 S
atom 2.2327406954398001 2.6309198927978463 63.0080374991072958 Ba
atom 7.3405972534754307 2.6979303671036745 63.0080374991072958 Ba
atom 2.2997511697456154 7.7387764508334449 63.0080374991072958 Ba
atom 7.2001367650453938 7.5983159624034045 63.0080374991072958 Ba
atom 2.8032279565800757 2.2671245372646638 68.0147530123813482 Ba
atom 7.7043926090086225 2.1274431059633914 68.0147530123813482 Ba
atom 2.6635465252788126 7.1682891896931578 68.0147530123813482 Ba
atom 7.7706240261856721 7.2345206068702117 68.0147530123813482 Ba
atom 5.0029773420280064 4.9324902583081673 65.5146844988680925 Zr
atom 10.0064229575706669 4.8950897901210348 65.5146844988680925 Zr
atom 4.9655768738408872 9.9359358738508021 65.5146844988680925 Zr
atom 9.9703734116336094 9.8998863279137588 65.5146844988680925 Zr
atom 4.9975798383775301 4.9346251776837713 70.5291176886489382 Zr
atom 10.0042880381950869 4.9004872937715254 70.5291176886489382 Zr
atom 4.9634419544652824 9.9413333775012767 70.5291176886489382 Zr
atom 9.9649759079831064 9.9020212472892997 70.5291176886489382 Zr
atom 4.7348429423616532 4.6006720169700603 63.0080374991072958 S
atom 10.3382411989087988 5.1632241897873907 63.0080374991072958 S
atom 5.2973951151789880 10.2040702735171909 63.0080374991072958 S
atom 9.7022390119672508 9.5680680865756500 63.0080374991072958 S
atom 5.2682333196963960 5.2641677176931587 68.0173938115562748 S
atom 9.6747454981857057 4.6298338124526541 68.0173938115562748 S
atom 4.6338994144558985 9.6706798961824258 68.0173938115562748 S
atom 10.2356293893020140 10.2315637872986933 68.0173938115562748 S
atom 5.4054815561068379 2.4292137133538296 65.8325960203722786 S
atom 9.6392698181336396 2.3951352486675277 65.1902671895056329 S
atom 4.5984237344038359 7.4359813323973025 65.1902671895056329 S
atom 10.3728776257124444 7.3966097829593842 65.8325960203722786 S
atom 5.4060497834607721 2.4307031742220131 70.1977429123629690 S
atom 9.6377131163660508 2.3966223193997176 70.8358233131408923 S
atom 4.5968670326362489 7.4374684031294986 70.8358233131408923 S
atom 10.3734458530663627 7.3980992438275690 70.1977429123629690 S
atom 2.5014573491896450 4.5660355901664280 65.8325960203722786 S
atom 7.5029318834815397 5.2996433977452142 65.1902671895056329 S
atom 2.4620857997517351 10.3404894814749770 65.1902671895056329 S
atom 7.4688534187952396 9.5334316597719830 65.8325960203722786 S
atom 2.4999678883214616 4.5654673628124938 70.1977429123629690 S
atom 7.5014448127493418 5.3012000995127986 70.8358233131408923 S
atom 2.4605987290195417 10.3420461832425552 70.8358233131408923 S
atom 7.4673639579270548 9.5328634324180754 70.1977429123629690 S
atom 2.2341837467494359 2.6321493907215432 73.0187507712433188 Ba
atom 7.3393677555517316 2.6964873157940374 73.0187507712433188 Ba
atom 2.2985216718219319 7.7373333995238029 73.0187507712433188 Ba
atom 7.2015798163550224 7.5995454603271027 73.0187507712433188 Ba
atom 2.7861347868963904 2.2613982459431443 77.9977120066102145 Ba
atom 7.7101189003301309 2.1445362756470865 77.9977120066102145 Ba
atom 2.6692728166003263 7.1853823593768578 77.9977120066102145 Ba
atom 7.7535308565019854 7.2287943155487007 77.9977120066102145 Ba
atom 5.0113232899799476 4.9276258347662010 75.5466104275453461 Zr
atom 10.0112873811126732 4.8867438421691114 75.5466104275453461 Zr
atom 4.9704412973828438 9.9275899258988680 75.5466104275453461 Zr
atom 9.9787193595855435 9.8950219043717436 75.5466104275453461 Zr
atom 5.0010151540722223 4.9431911047242272 80.6045528114124608 Zr
atom 9.9957221111546364 4.8970519780768242 80.6045528114124608 Zr
atom 4.9548760274248327 9.9378980618065853 80.6045528114124608 Zr
atom 9.9684112236778351 9.9105871743297733 80.6045528114124608 Zr
atom 4.7390891418162200 4.6054902690107538 73.0271758104554607 S
atom 10.3334229468680689 5.1589779903328354 73.0271758104554607 S
atom 5.2925768631382937 10.1998240740626080 73.0271758104554607 S
atom 9.7064852114218123 9.5728863386163301 73.0271758104554607 S
atom 5.2501780050808362 5.2273583697582033 78.0405607519724356 S
atom 9.7115548461206522 4.6478891270682281 78.0405607519724356 S
atom 4.6707087623908565 9.6887352107979936 78.0405607519724356 S
atom 10.2175740746864339 10.1947544393637433 78.0405607519724356 S
atom 5.4101290081725102 2.4267114467030604 75.8339336783231204 S
atom 9.6289784797476710 2.3929729911477517 75.2172693766965921 S
atom 4.5881323960178602 7.4338190748775288 75.2172693766965921 S
atom 10.3775250777780990 7.3941075163086145 75.8339336783231204 S
atom 5.3452217893945226 2.4230031407134298 80.2496177238746213 S
atom 9.7279874262775206 2.3890223108203585 80.7566706598880018 S
atom 4.6871413425477320 7.4298683945501223 80.7566706598880018 S
atom 10.3126178590000936 7.3903992103189831 80.2496177238746213 S
atom 2.5039596158404112 4.5613881381007602 75.8339336783231204 S
atom 7.5050941410013126 5.3099347361311731 75.2172693766965921 S
atom 2.4642480572715009 10.3507808198609386 75.2172693766965921 S
atom 7.4713556854460101 9.5287842077063143 75.8339336783231204 S
atom 2.5076679218300417 4.6262953568787415 80.2496177238746213 S
atom 7.5090448213287111 5.2109257896013128 80.7566706598880018 S
atom 2.4681987375989016 10.2517718733310694 80.7566706598880018 S
atom 7.4750639914356496 9.5936914264842983 80.2496177238746213 S
atom 2.4222624726460782 2.6295837158320663 82.7876653863478538 Ba
atom 7.3419334304412143 2.5084085898973898 82.7876653863478538 Ba
atom 2.3010873467114075 7.5492546736271544 82.7876653863478538 Ba
atom 7.3896585422516790 7.5969797854376164 82.7876653863478538 Ba
atom 4.8761721922679904 4.7269136005679346 83.1111277755608313 S
atom 10.2119996153109227 5.0218949398810588 83.1111277755608313 S
atom 5.1711535315811101 10.0627410236108208 83.1111277755608313 S
atom 9.8435682618736138 9.6943096701734799 83.1111277755608313 S
