#=======================================================
# FHI-aims file: sym_relax/sym_relax_RP_9_RxRyMz_RxRy0.in
# Created using the Atomic Simulation Environment (ASE)
# Mon Mar 17 16:58:38 2025
#=======================================================
lattice_vector 10.0066367044736264 -0.0765563062382499 0.0000004896517782 
lattice_vector -0.0765563062382503 10.0066367044735998 -0.0000004896517782 
lattice_vector 0.0000510559527359 -0.0000510559527359 96.0332404478317443 
atom 0.1025541941923404 -0.1828661248721297 0.2148181540830653 Ba
atom 5.1861844771089647 -0.1408323473114650 0.2148183989089543 Ba
atom 0.1445879717530062 4.9007641580444705 0.2148179092571764 Ba
atom 5.0675943933100234 4.7821740742455461 0.2148181540830653 Ba
atom -0.2700221951248158 0.1880684101066629 5.0096518671450676 Ba
atom 4.8152499421301549 0.2317440420056905 5.0096521119709525 Ba
atom -0.2263465632257876 5.2733405473616122 5.0096516223191632 Ba
atom 4.6950180039928533 5.1531086092243417 5.0096518671450667 Ba
atom 2.4838798514690605 2.4717372469516179 2.4039402374352017 Zr
atom 7.4966213044028898 2.4428821945295103 2.4039404822610932 Zr
atom 2.4550247990469392 7.4844786998854245 2.4039399926093115 Zr
atom 7.4489200505867421 7.4367774460692884 2.4039402374352004 Zr
atom 2.4729549710966512 2.4877682893463033 7.4617020530692679 Zr
atom 7.4805902620082225 2.4538070749019152 7.4617022978951644 Zr
atom 2.4389937566522604 7.4954035802578352 7.4617018082433857 Zr
atom 7.4379951702143581 7.4528084884639645 7.4617020530692679 Zr
atom 2.6063289901378095 2.6913012130507625 -0.1037275538913422 S
atom 7.2770573383037389 2.3204330558607600 -0.1037273090654530 S
atom 2.2354608329477945 7.3620295612166826 -0.1037277987172311 S
atom 7.5713691892555017 7.6563414121684552 -0.1037275538913422 S
atom 2.2344580323867111 2.1881188745611286 4.9675255406089738 S
atom 7.7802396767933812 2.6923040136118543 4.9675257854348667 S
atom 2.7386431714374266 7.7339005189677863 4.9675252957830862 S
atom 7.1994982315043945 7.1531590736787996 4.9675255406089702 S
atom 2.8068732184916536 -0.0146500272748848 2.2501060759704039 S
atom 7.1755866519826146 -0.0502644339823306 2.7584464599550560 S
atom 2.1339901466266946 4.9913320713735896 2.7584459703032822 S
atom 7.7719134176093441 4.9503901718427921 2.2501060759704017 S
atom 2.8979331756104143 -0.0178661149736935 7.7913565799488049 S
atom 7.1139717360225339 -0.0533009970401146 7.1748178085952947 S
atom 2.0723752306665988 4.9882955083158160 7.1748173189435080 S
atom 7.8629733747281048 4.9471740841439855 7.7913565799488049 S
atom -0.0236281258442386 2.1964451337451592 2.2501058311445119 S
atom 4.9770264799809052 2.7927718993718749 2.7584462151291720 S
atom -0.0645700253750436 7.8343684047277913 2.7584457254773915 S
atom 4.9414120732734723 7.1614853328628296 2.2501058311445128 S
atom -0.0204120381454299 2.1053851766264011 7.7913563351229218 S
atom 4.9800630430386921 2.8543868153319547 7.1748175637694080 S
atom -0.0615334623172597 7.8959833206879031 7.1748170741176294 S
atom 4.9446281609722664 7.0704253757440707 7.7913563351229200 S
atom 0.2851814254811929 -0.1831754694053019 9.9900093963011791 Ba
atom 5.1864938216421281 -0.3234595786003169 9.9900096411270596 Ba
atom 0.1448973162861787 4.7181369267556024 9.9900091514752827 Ba
atom 5.2502216245988942 4.7818647297123720 9.9900093963011756 Ba
atom -0.2862609606389120 0.1823576302350909 14.9950872340235311 Ba
atom 4.8209607220017192 0.2479828075197870 14.9950874788494311 Ba
atom -0.2206357833542160 5.2895793128756994 14.9950869891976364 Ba
atom 4.6787792384787936 5.1473978293527551 14.9950872340235311 Ba
atom 2.4870349056365946 2.4807820313600661 12.4796211852924284 Zr
atom 7.4875765199944562 2.4397271403619660 12.4796214301183195 Zr
atom 2.4459800146384931 7.4813236457178824 12.4796209404665408 Zr
atom 7.4520751047542966 7.4458222304777415 12.4796211852924248 Zr
atom 2.4809061438068514 2.4831047199552905 17.4944386652269337 Zr
atom 7.4852538313992190 2.4458559021917128 17.4944389100528710 Zr
atom 2.4436573260432670 7.4874524075476243 17.4944384204010710 Zr
atom 7.4459463429245618 7.4481449190729689 17.4944386652269337 Zr
atom 2.7447654454090045 2.8093095992314177 9.9817615987992117 S
atom 7.1590489521230900 2.1819966005895686 9.9817618436250832 S
atom 2.1174524467671509 7.2235931059454987 9.9817613539733188 S
atom 7.7098056445266892 7.7743497983490881 9.9817615987992117 S
atom 2.2167280276425410 2.1519543672130617 14.9924204605312070 S
atom 7.8164041841414456 2.7100340183560205 14.9924207053570591 S
atom 2.7748076787855029 7.7516305237119507 14.9924202157053177 S
atom 7.1817682267602310 7.1169945663307423 14.9924204605311964 S
atom 2.8896270774706685 -0.0216384794743801 12.1740851112895552 S
atom 7.1179736554405926 -0.0573867656808573 12.8116400054016193 S
atom 2.0763771500846633 4.9842097396750651 12.8116395157498477 S
atom 7.8546672765883656 4.9434017196432940 12.1740851112895587 S
atom 2.8877968893734351 -0.0199074475870683 17.8204362733162966 S
atom 7.1183833033105310 -0.0556555166019695 17.1784937136046452 S
atom 2.0767867979545920 4.9859409887539581 17.1784932239529127 S
atom 7.8528370884911300 4.9451327515306298 17.8204362733162895 S
atom -0.0166396736447431 2.1136912747661341 12.1740848664636747 S
atom 4.9841488116794359 2.8503848959139053 12.8116397605757335 S
atom -0.0574476936765168 7.8919814012698195 12.8116392709239513 S
atom 4.9484005254729517 7.0787314738838116 12.1740848664636800 S
atom -0.0183707055320550 2.1155214628633687 17.8204360284903842 S
atom 4.9824175626005536 2.8499752480439704 17.1784934687787718 S
atom -0.0591789427554047 7.8915717533998944 17.1784929791270002 S
atom 4.9466694935856426 7.0805616619810428 17.8204360284903913 S
atom 0.2867777413848891 -0.1818525199691042 20.0030005973140987 Ba
atom 5.1851708722059238 -0.3250558945040138 20.0030008421399970 Ba
atom 0.1435743668499810 4.7165406108519052 20.0030003524882254 Ba
atom 5.2518179405025931 4.7831876791485728 20.0030005973141023 Ba
atom -0.2867538089070450 0.1818285874912593 25.0125808626069706 Ba
atom 4.8214897647455608 0.2484756557879202 25.0125811074328368 Ba
atom -0.2201067406103848 5.2900721611438444 25.0125806177810652 Ba
atom 4.6782863902106291 5.1468687866089420 25.0125808626069741 Ba
atom 2.4825320657977716 2.4825081333199113 22.5077907299605293 Zr
atom 7.4858504180345813 2.4442299802007872 22.5077909747864204 Zr
atom 2.4442539126786484 7.4858264855567125 22.5077904851346453 Zr
atom 7.4475722649154728 7.4475483324375880 22.5077907299605293 Zr
atom 2.4841579877886817 2.4819115466845405 27.5211427946940823 Zr
atom 7.4864470046699809 2.4426040582098749 27.5211430395199486 Zr
atom 2.4448504993140165 7.4842005635657971 27.5211425498681592 Zr
atom 7.4491981869063562 7.4469517458022167 27.5211427946940823 Zr
atom 2.7491314041194417 2.8142830064382016 20.0027381827330970 S
atom 7.1540755449163065 2.1776306418791287 20.0027384275589881 S
atom 2.1124790395603608 7.2192271472350500 20.0027379379072201 S
atom 7.7141716032371255 7.7793232055558814 20.0027381827330899 S
atom 2.2159327274760985 2.1507332602016342 25.0128432771879794 S
atom 7.8176252911528659 2.7108293185224488 25.0128435220138563 S
atom 2.7760287857969237 7.7524258238783750 25.0128430323620421 S
atom 7.1809729265937978 7.1157734593193025 25.0128432771879723 S
atom 2.8880148189392751 -0.0204155077520744 22.1863777635407047 S
atom 7.1186458180122107 -0.0561647309640198 22.8292041860321611 S
atom 2.0770493126562601 4.9854317743919063 22.8292036963803753 S
atom 7.8530550180569705 4.9446246913656084 22.1863777635407047 S
atom 2.8882773336409429 -0.0209247221141250 27.8370882359681957 S
atom 7.1188637475780592 -0.0566727911290259 27.1951456762565726 S
atom 2.0772672422221090 4.9849237142269054 27.1951451866048011 S
atom 7.8533175327586502 4.9441154770035478 27.8370882359681957 S
atom -0.0178626453670489 2.1153035332975305 22.1863775187148313 S
atom 4.9829267769625893 2.8497127333422898 22.8292039412062415 S
atom -0.0586697283933549 7.8913092386982155 22.8292034515544664 S
atom 4.9471775537506568 7.0803437324152014 22.1863775187148207 S
atom -0.0173534310050001 2.1150410185958588 27.8370879911422797 S
atom 4.9834348371275938 2.8494948037764631 27.1951454314306744 S
atom -0.0581616682283489 7.8910913091323875 27.1951449417789100 S
atom 4.9476867681126810 7.0800812177135359 27.8370879911422833 S
atom 0.2862848931167566 -0.1823815627129359 30.0204942258975649 Ba
atom 5.1856999149497636 -0.3245630462358811 30.0204944707234667 Ba
atom 0.1441034095938122 4.7170334591200520 30.0204939810716773 Ba
atom 5.2513250922344454 4.7826586364047321 30.0204942258975649 Ba
atom -0.2851574930033479 0.1831515369274571 35.0255720636199186 Ba
atom 4.8201668153093546 0.2468793398842228 35.0255723084457813 Ba
atom -0.2214296900465826 5.2884758452401366 35.0255718187940488 Ba
atom 4.6798827061143342 5.1481917360451366 35.0255720636199115 Ba
atom 2.4780292259589438 2.4842342352797657 32.5359602746286143 Zr
atom 7.4841243160747304 2.4487328200396088 32.5359605194545125 Zr
atom 2.4425278107187940 7.4903293253955310 32.5359600298027516 Zr
atom 7.4430694250766356 7.4492744343974495 32.5359602746286143 Zr
atom 2.4921091604988983 2.4772479772935334 37.5538794068517348 Zr
atom 7.4911105740609676 2.4346528854996716 37.5538796516776827 Zr
atom 2.4495140687050379 7.4762493908555854 37.5538791620258365 Zr
atom 7.4571493596166061 7.4422881764112168 37.5538794068517348 Zr
atom 2.7483361039530028 2.8130618994267644 30.0231609993898090 S
atom 7.1552966519277375 2.1784259420455618 30.0231612442157605 S
atom 2.1137001465717873 7.2200224474014831 30.0231607545640280 S
atom 7.7133763030706994 7.7781020985444274 30.0231609993898090 S
atom 2.2202986861865357 2.1557066674084187 35.0338198611219127 S
atom 7.8126518839460859 2.7064633598120125 35.0338201059477825 S
atom 2.7710553785901442 7.7480598651679324 35.0338196162960074 S
atom 7.1853388853042448 7.1207468665260860 35.0338198611219127 S
atom 2.8886869815108827 -0.0191934730352372 32.2039419441711203 S
atom 7.1170335594808005 -0.0549417592417139 32.8414968382833621 S
atom 2.0754370541248677 4.9866547461142172 32.8414963486316651 S
atom 7.8537271806285709 4.9458467260824488 32.2039419441711132 S
atom 2.8926889009289392 -0.0232792416759800 37.8407641409776190 S
atom 7.1087274613410720 -0.0587141237424006 37.2242253696241079 S
atom 2.0671309559851307 4.9828823816135150 37.2242248799722688 S
atom 7.8577291000466332 4.9417609574416907 37.8407641409776190 S
atom -0.0190846800838879 2.1146313707259288 32.2039416993452861 S
atom 4.9817038052402696 2.8513249918736916 32.8414965934574639 S
atom -0.0598927001156608 7.8929214972296178 32.8414961038056958 S
atom 4.9459555190337889 7.0796715698436072 32.2039416993452718 S
atom -0.0149989114431451 2.1106294513078714 37.8407638961516426 S
atom 4.9854761697409682 2.8596310900134303 37.2242251247982381 S
atom -0.0561203356149740 7.9012275953693489 37.2242246351464132 S
atom 4.9500412876745674 7.0756696504255316 37.8407638961516497 S
atom 0.2700461276026621 -0.1880923425845079 40.0059295927759564 Ba
atom 5.1914106948213297 -0.3083242807217851 40.0059298376018759 Ba
atom 0.1498141894653838 4.7332722246341481 40.0059293479501292 Ba
atom 5.2350863267203662 4.7769478565331704 40.0059295927759564 Ba
atom -0.1025302617144957 0.1828421923942850 44.8007633058380392 Ba
atom 4.8204761598425270 0.0642521085953704 44.8007635506638877 Ba
atom -0.2211203455134103 5.1058486139512942 44.8007630610121268 Ba
atom 4.8625099374032006 5.1478823915119687 44.8007633058380392 Ba
atom 2.4811842801264872 2.4932790196882051 42.6116412224859005 Zr
atom 7.4750795316662684 2.4455777658720756 42.6116414673117987 Zr
atom 2.4334830263103511 7.4871742712280067 42.6116409776600520 Zr
atom 7.4462244792441714 7.4583192188059053 42.6116412224859005 Zr
atom 2.7306060992088281 2.7768973920786930 40.0480559193120556 S
atom 7.1914611592758027 2.1961559467897267 40.0480561641378969 S
atom 2.1498646539198667 7.2377524521456449 40.0480556744861715 S
atom 7.6956462983265288 7.7419375911963852 40.0480559193120627 S
atom 2.3587351414577378 2.2737150535890618 45.1193090138123907 S
atom 7.6946434977654423 2.5680269045408215 45.1193092586382392 S
atom 2.6530469924094904 7.6096234098967432 45.1193087689864853 S
atom 7.3237753405754402 7.2387552527067269 45.1193090138123907 S
atom 2.8310739849688531 -0.0263158047337639 42.2571354896178306 S
atom 7.1997874184598354 -0.0619302114412092 42.7654758736023908 S
atom 2.1581909131038866 4.9796662939147138 42.7654753839506085 S
atom 7.7961141840865515 4.9387243943839065 42.2571354896178306 S
atom -0.0119623483853612 2.1722443672679543 42.2571352447918969 S
atom 4.9886922574397774 2.7685711328946674 42.7654756287764926 S
atom -0.0529042479161653 7.8101676382505811 42.7654751391247743 S
atom 4.9530778507323321 7.1372845663856310 42.2571352447918969 S
atom 2.2996714506348144 2.5850768503575150 48.2314293285436761 Ba
atom 7.3832817009969807 2.6270905953637484 48.2314295733695104 Ba
atom 2.3416851956410478 7.6686871007196604 48.2314290837176998 Ba
atom 7.2647116497525079 7.5501170494751912 48.2314293285436690 Ba
atom 2.6705748469132242 2.2124876014009534 53.0262939207150978 Ba
atom 7.7558709499535556 2.2561871990853311 53.0262941655410671 Ba
atom 2.7142744445976139 7.2977837044412510 53.0262936758892138 Ba
atom 7.6356150460309298 7.1775278005186269 53.0262939207150978 Ba
atom 4.9542414308995060 4.9664244377428517 50.4205593662554890 Zr
atom 9.9669743127293096 4.9375608142167442 50.4205596110813374 Zr
atom 4.9253778073733834 9.9791573195726890 50.4205591214296618 Zr
atom 9.9192816300172080 9.9314646368605430 50.4205593662554961 Zr
atom 4.9702742315419632 4.9554782483969904 55.4783631299763158 Zr
atom 9.9779205020752215 4.9215280135742709 55.4783633748021927 Zr
atom 4.9363239967192456 9.9631245189302202 55.4783628851504034 Zr
atom 9.9353144306596484 9.9205184475146755 55.4783631299763300 Zr
atom 5.1737870574584761 5.0888416598682138 47.9128909464989405 S
atom 9.8445570906039563 4.7180151876577714 47.9128911913248743 S
atom 4.8029605852480346 9.7596116930137011 47.9128907016731063 S
atom 10.1388272565761461 10.0538818589858749 47.9128909464989405 S
atom 4.6706743433919558 4.7170021325795775 52.9841741005948919 S
atom 10.2163966178926007 5.2211279017242802 52.9841743454208043 S
atom 5.1748001125366621 10.2627244070802437 52.9841738557690363 S
atom 9.6357145425096586 9.6820423316972324 52.9841741005948919 S
atom 4.6789271226383242 2.4588939658022015 50.2667557977832757 S
atom 10.3169160809618106 2.4179554960835223 50.7750375955033633 S
atom 5.2753195756058604 7.4595520014394570 50.7750371058516237 S
atom 9.6439673217560120 7.4239341649198716 50.2667557977832615 S
atom 4.5878320312595404 2.4621185936714340 55.8080035259735538 S
atom 10.3785557342124228 2.4209932305559869 55.1915196334649281 S
atom 5.3369592288564762 7.4625897359119149 55.1915191438132240 S
atom 9.5528722303772273 7.4271587927891121 55.8080035259735325 S
atom 2.4678680801963653 5.2894314287162016 50.2667555529574841 S
atom 7.4738467490327265 4.6164826695103534 50.7750373506775432 S
atom 2.4322502436767857 9.6580791748662840 50.7750368610256189 S
atom 7.4329082793140335 10.2544716278338885 50.2667555529574841 S
atom 2.4646434523271266 5.3805265200949570 55.8080032811476627 S
atom 7.4708090145602597 4.5548430162597429 55.1915193886391009 S
atom 2.4292125092043229 9.5964395216156824 55.1915188989873116 S
atom 7.4296836514448019 10.3455667192126217 55.8080032811476769 S
atom 2.2993190452801109 2.7676927595737411 58.0067062891270524 Ba
atom 7.2006657917807475 2.6274430007184471 58.0067065339529719 Ba
atom 2.1590692864248000 7.6690395060743670 58.0067060443012181 Ba
atom 7.2643592443977925 7.7327329586914288 58.0067062891270666 Ba
atom 2.6648801265998401 2.1962766755569212 63.0117966414859794 Ba
atom 7.7720818757975794 2.2618819193987147 63.0117968863118136 Ba
atom 2.7304853704416425 7.3034784247546147 63.0117963966599959 Ba
atom 7.6299203257175687 7.1613168746745801 63.0117966414859652 Ba
atom 4.9632881938365534 4.9695565440776983 60.4963089489787436 Zr
atom 9.9638422063944958 4.9285140512797065 60.4963091938046347 Zr
atom 4.9222457010385465 9.9701105566356247 60.4963087041529235 Zr
atom 9.9283283929542154 9.9345967431953905 60.4963089489787436 Zr
atom 4.9656452835062881 4.9633876005371986 65.5111006286591646 Zr
atom 9.9700111499349866 4.9261569616099656 65.5111008734848923 Zr
atom 4.9284146445790524 9.9677534669659149 65.5111003838331101 Zr
atom 9.9306854826239874 9.9284277996548553 65.5111006286591646 Zr
atom 5.2917950750025193 5.2272654343379443 57.9984420346346994 S
atom 9.7061333161342276 4.6000071701137406 57.9984422794605052 S
atom 4.6645368107783058 9.6416036754696623 57.9984417898087372 S
atom 10.2568352741202293 10.1923056334556215 57.9984420346346994 S
atom 4.6344613045770853 4.6992520249724263 63.0091043196948277 S
atom 10.2341467254997713 5.2573409405391729 63.0091045645206762 S
atom 5.1925502201438229 10.2989374458951044 63.0091040748689011 S
atom 9.5995015036948033 9.6642922240900866 63.0091043196948419 S
atom 4.5961901772519234 2.4658882509082471 60.1908045479359401 S
atom 10.3744866389380270 2.4250797352939530 60.8283445583371503 S
atom 5.3328901335820804 7.4666762406498730 60.8283440686853680 S
atom 9.5612303763696147 7.4309284500259185 60.1908045479359401 S
atom 4.5980700568773676 2.4641339215517046 65.8371070344869906 S
atom 10.3740636141204092 2.4233265025113240 65.1951629861067090 S
atom 5.3324671087644679 7.4649230078672622 65.1951624964549126 S
atom 9.5631102559950705 7.4291741206693676 65.8371070344869906 S
atom 2.4608737950903130 5.3721683741025776 60.1908043031100135 S
atom 7.4667225098222882 4.5589121115341573 60.8283443135112378 S
atom 2.4251260044663514 9.6005086168901048 60.8283438238594627 S
atom 7.4259139942080115 10.3372085732202468 60.1908043031100135 S
atom 2.4626281244468644 5.3702884944771032 65.8371067896610640 S
atom 7.4684757426049382 4.5593351363517796 65.1951627412808534 S
atom 2.4268792372489836 9.6009316417076942 65.1951622516290570 S
atom 7.4276683235645633 10.3353286935947892 65.8371067896610498 S
atom 2.3006965940804243 2.7692596270328891 68.0196527419518588 Ba
atom 7.1990989243216132 2.6260654519181381 68.0196529867778139 Ba
atom 2.1575024189656729 7.6676619572740616 68.0196524971259890 Ba
atom 7.2657367931981351 7.7342998261505711 68.0196527419518588 Ba
atom 2.6644185934678490 2.1957055836542083 73.0291691658008091 Ba
atom 7.7726529677003109 2.2623434525307076 73.0291694106266220 Ba
atom 2.7310564623443598 7.3039399578866320 73.0291689209750103 Ba
atom 7.6294587925855435 7.1607457827718619 73.0291691658007238 Ba
atom 4.9650776933329857 4.9650027049023775 70.5244109538761847 Zr
atom 9.9683960455697900 4.9267245517832663 70.5244111987021967 Zr
atom 4.9267995402138478 9.9683210571391623 70.5244107090504571 Zr
atom 9.9301178924506832 9.9300429040200342 70.5244109538761847 Zr
atom 4.9645101031597054 4.9666178092675670 75.5377212790937591 Zr
atom 9.9667809412046271 4.9272921419565492 75.5377215239194868 Zr
atom 4.9251844358487009 9.9688886473124789 75.5377210342676477 Zr
atom 9.9295503022773932 9.9316580083852628 75.5377212790937591 Zr
atom 5.2968453125726960 5.2316344893414328 68.0193847990591536 S
atom 9.7017642611307160 4.5949569325435649 68.0193850438850802 S
atom 4.6601677557748094 9.6365534378994777 68.0193845542332838 S
atom 10.2618855116903980 10.1966746884591259 68.0193847990591109 S
atom 4.6333100740932736 4.6983709204633293 73.0294371086935570 S
atom 10.2350278300088338 5.2584921710229677 73.0294373535195405 S
atom 5.1934313246529156 10.3000886763788717 73.0294368638674882 S
atom 9.5983502732109773 9.6634111195809833 73.0294371086935143 S
atom 4.5978695648914343 2.4646068729754607 70.2030083556818312 S
atom 10.3738823271304579 2.4238020314733864 70.8458140417227185 S
atom 5.3322858217745148 7.4653985368293059 70.8458135520708083 S
atom 9.5629097640091398 7.4296470720931387 70.2030083556818312 S
atom 4.5976882779015043 2.4650824019375213 75.8536594112979401 S
atom 10.3736818351445521 2.4242749828971455 75.2117153629175021 S
atom 5.3320853297885851 7.4658714882530717 75.2117148732657199 S
atom 9.5627284770191991 7.4301226010551931 75.8536594112979117 S
atom 2.4621551730230875 5.3704889864630445 70.2030081108558903 S
atom 7.4680002136428660 4.5595164233417194 70.8458137968968771 S
atom 2.4264037082869372 9.6011129286976118 70.8458133072449243 S
atom 7.4271953721407966 10.3355291855807394 70.2030081108559187 S
atom 2.4616796440610402 5.3706702734529843 75.8536591664717577 S
atom 7.4675272622190922 4.5597169153276731 75.2117151180917176 S
atom 2.4259307568631665 9.6013134206835815 75.2117146284398075 S
atom 7.4267198431787298 10.3357104725706819 75.8536591664717577 S
atom 2.3002350609484243 2.7686885351301744 78.0370252662666815 Ba
atom 7.1996700162243146 2.6265269850501252 78.0370255110926649 Ba
atom 2.1580735108683839 7.6681234904060567 78.0370250214407690 Ba
atom 7.2652752600661161 7.7337287342478600 78.0370252662667099 Ba
atom 2.6657961422681704 2.1972724511133528 83.0421156186256724 Ba
atom 7.7710861002411491 2.2609659037303964 83.0421158634514427 Ba
atom 2.7294895948852118 7.3025624090863124 83.0421153737997031 Ba
atom 7.6308363413858551 7.1623126502310450 83.0421156186256439 Ba
atom 4.9668671928294321 4.9604488657270709 80.5525129587740594 Zr
atom 9.9729498847451463 4.9249350522868216 80.5525132035998155 Zr
atom 4.9313533793891695 9.9665315576427336 80.5525127139481043 Zr
atom 9.9319073919471581 9.9254890648447027 80.5525129587740452 Zr
atom 4.9598811551240036 4.9745271614077904 85.5704587777761390 Zr
atom 9.9588715890643886 4.9319210899922474 85.5704590226021367 Zr
atom 4.9172750837084687 9.9735175953481701 85.5704585329501981 Zr
atom 9.9249213542417181 9.9395673605254480 85.5704587777761247 Zr
atom 5.2956940820888958 5.2307533848323366 78.0397175880580249 S
atom 9.7026453656398353 4.5961081630273366 78.0397178328836958 S
atom 4.6610488602839100 9.6377046683832841 78.0397173432318709 S
atom 10.2607342812065685 10.1957935839500138 78.0397175880580249 S
atom 4.6383603116634502 4.7027399754668240 83.0503798731177909 S
atom 10.2306587750053737 5.2534419334527929 83.0503801179436749 S
atom 5.1890622696494120 10.2950384388086977 83.0503796282919922 S
atom 9.6034005107811513 9.6677801745844967 83.0503798731178051 S
atom 4.5972652530838758 2.4633291691548913 80.2204778390673710 S
atom 10.3755617147700026 2.4225206535406012 80.8580178494685242 S
atom 5.3339652094140373 7.4641171588965323 80.8580173598168415 S
atom 9.5623054522016080 7.4283693682725787 80.2204778390673710 S
atom 4.5931961578095004 2.4674156738928663 85.8573027639395860 S
atom 10.3839198607624077 2.4262903107774041 85.2408188714309460 S
atom 5.3423233554064344 7.4678868161333289 85.2408183817792775 S
atom 9.5582363569272033 7.4324558730105412 85.8573027639395860 S
atom 2.4634328768436720 5.3710932982706145 80.2204775942414443 S
atom 7.4692815915756610 4.5578370357022040 80.8580176046426828 S
atom 2.4276850862197090 9.5994335410581275 80.8580171149908296 S
atom 7.4284730759613753 10.3361334973882535 80.2204775942414585 S
atom 2.4593463721057005 5.3751623935450432 85.8573025191137020 S
atom 7.4655119343388652 4.5494788897098042 85.2408186266050194 S
atom 2.4239154289829021 9.5910753950657259 85.2408181369531945 S
atom 7.4243865712233870 10.3402025926626688 85.8573025191137020 S
atom 2.2945403406350469 2.7524776092861445 88.0225279870376767 Ba
atom 7.2158809420683427 2.6322217053635106 88.0225282318635180 Ba
atom 2.1742844367124174 7.6738182107194310 88.0225277422115369 Ba
atom 7.2595805397527204 7.7175178084038318 88.0225279870376767 Ba
atom 2.6654437369134669 2.3798883603295740 92.8173925792091410 Ba
atom 7.5884701910249142 2.2613183090851061 92.8173928240348545 Ba
atom 2.5468736856689822 7.3029148144410279 92.8173923343832286 Ba
atom 7.6304839360311325 7.3449285594472755 92.8173925792091126 Ba
atom 4.9759139557664680 4.9635809720619015 90.6282625414969800 Zr
atom 9.9698177784103024 4.9158882893497733 90.6282627863228498 Zr
atom 4.9282212730543433 9.9574847947056924 90.6282622966712239 Zr
atom 9.9409541548841300 9.9286211711795893 90.6282625414969658 Zr
atom 5.2594810432740049 5.2130032772251997 88.0646478071577974 S
atom 9.7203954732469686 4.6323212018422399 88.0646480519837098 S
atom 4.6787989678910433 9.6739177071981413 88.0646475623319134 S
atom 10.2245212423917220 10.1780434763428893 88.0646478071577974 S
atom 4.7563683292074845 4.8411637499365545 93.1359309612537629 S
atom 10.0922350005356183 5.1354339159087647 93.1359312060796896 S
atom 5.0506384951796948 10.1770304212646625 93.1359307164278363 S
atom 9.7214085283251972 9.8062039490542343 93.1359309612537629 S
atom 4.6548358110601029 2.4704534083653269 90.2737848019012574 S
atom 10.2928247693836461 2.4295149386466464 90.7820665996209755 S
atom 5.2512282640276746 7.4711114440025659 90.7820661099692074 S
atom 9.6198760101777658 7.4354936074830036 90.2737848019012432 S
atom 2.4563086376332408 5.3135227402944087 90.2737845570751318 S
atom 7.4622873064696176 4.6405739810885782 90.7820663547951341 S
atom 2.4206908011136603 9.6821704864444751 90.7820658651431529 S
atom 7.4213488367509397 10.2785629394120885 90.2737845570751318 S
