#=======================================================
# FHI-aims file: sym_relax/sym_relax_RP_2_Rx1Ry20_Rx2Ry10.in
# Created using the Atomic Simulation Environment (ASE)
# Fri Mar 14 10:20:53 2025
#=======================================================
lattice_vector 10.1108486521974061 0.0000006787922086 0.0000000000000000 
lattice_vector 0.0000006787922085 10.1108486521974168 0.0000000000000000 
lattice_vector 0.0000000000000000 0.0000000000000000 25.3660382767214934 
atom -0.0000020498529763 -0.1548482160829628 0.2814261127118338 Ba
atom 5.0554263759516820 0.1548485554790668 0.2814261127118338 Ba
atom 0.0000023892490803 5.2102725421816780 0.2814261127118338 Ba
atom 5.0554226156418292 4.9005764494118500 0.2814261127118338 Ba
atom -0.0000029483564161 0.0484198565350135 4.8780842839849052 Ba
atom 5.0554272744551270 -0.0484195171389094 4.8780842839849052 Ba
atom 0.0000032877525202 5.0070044695637002 4.8780842839849052 Ba
atom 5.0554217171383922 5.1038445220298350 4.8780842839849052 Ba
atom 2.5154703030935348 2.5277112986435730 2.3473178680561535 Zr
atom 7.5953786884999852 2.5277137062473467 2.3473178680561535 Zr
atom 2.5399547017973867 7.5831376929499568 2.3473178680561535 Zr
atom 7.5708949685883340 7.5831359641383829 2.3473178680561535 Zr
atom 2.5154703030935348 2.5277112986435730 7.4088506999136490 Zr
atom 7.5953786884999852 2.5277137062473467 7.4088506999136490 Zr
atom 2.5399547017973867 7.5831376929499568 7.4088506999136490 Zr
atom 7.5708949685883340 7.5831359641383829 7.4088506999136490 Zr
atom 2.8831251678350478 2.5277074440877718 -0.1399947735361927 S
atom 7.2277238237584891 2.5277175608031479 -0.1399947735361927 S
atom 2.1722998370558715 7.5831415475057549 -0.1399947735361927 S
atom 7.9385498333298514 7.5831321095825865 -0.1399947735361927 S
atom 2.0900348696598972 2.5277100704594089 4.8780842839849052 S
atom 8.0208141219336255 2.5277149344315095 4.8780842839849052 S
atom 2.9653901352310190 7.5831389211341245 4.8780842839849052 S
atom 7.1454595351547168 7.5831347359542187 4.8780842839849052 S
atom 2.5277121630493529 0.0000001696980521 2.4609314074583160 S
atom 7.5831364891480604 0.0000005090941562 2.4609294628441942 S
atom 2.5277125024454583 5.0554244957967711 2.4609294628441942 S
atom 7.5831368285441565 5.0554248351928672 2.4609314074583160 S
atom 2.5277121630493529 0.0000001696980521 7.2952371605114932 S
atom 7.5831364891480604 0.0000005090941562 7.2952391051256038 S
atom 2.5277125024454583 5.0554244957967711 7.2952391051256038 S
atom 7.5831368285441565 5.0554248351928672 7.2952371605114932 S
atom 0.0000001696980520 2.5277121630493555 2.0402504399646091 S
atom 5.0554244957967480 2.5277125024454583 2.8001060026812699 S
atom 0.0000005090941561 7.5831364891480666 2.8001060026812699 S
atom 5.0554248351928663 7.5831368285441760 2.0402504399646091 S
atom 0.0000001696980520 2.5277121630493555 7.7159181280051987 S
atom 5.0554244957967480 2.5277125024454583 6.9560625652885388 S
atom 0.0000005090941561 7.5831364891480666 6.9560625652885388 S
atom 5.0554248351928663 7.5831368285441760 7.7159181280051987 S
atom -0.0000020498529763 -0.1548482160829628 9.4747424552579709 Ba
atom 5.0554263759516820 0.1548485554790667 9.4747424552579709 Ba
atom 0.0000023892490803 5.2102725421816780 9.4747424552579709 Ba
atom 5.0554226156418292 4.9005764494118500 9.4747424552579709 Ba
atom 2.8831251678350478 2.5277074440877718 9.8961633415059929 S
atom 7.2277238237584891 2.5277175608031479 9.8961633415059929 S
atom 2.1722998370558715 7.5831415475057549 9.8961633415059929 S
atom 7.9385498333298514 7.5831321095825865 9.8961633415059929 S
atom 2.3728641166644420 2.5277102828944322 12.9644452510725881 Ba
atom 7.7379848749290785 2.5277147219964848 12.9644452510725881 Ba
atom 2.6825608882264738 7.5831387086991002 12.9644452510725881 Ba
atom 7.4282887821592567 7.5831349483892474 12.9644452510725881 Ba
atom 2.5761321892824220 2.5277093843909939 17.5611034223456670 Ba
atom 7.5347168023111006 2.5277156204999258 17.5611034223456670 Ba
atom 2.4792928156084981 7.5831396072025408 17.5611034223456670 Ba
atom 7.6315568547772346 7.5831340498857989 17.5611034223456670 Ba
atom 5.0554236313909806 5.0431826358409477 15.0303370064169162 Zr
atom 10.1108500256973493 5.0676670345447947 15.0303370064169162 Zr
atom 5.0554260389947565 10.1230910212474061 15.0303370064169162 Zr
atom 10.1108482968857860 10.0986073013357469 15.0303370064169162 Zr
atom 5.0554236313909806 5.0431826358409477 20.0918698382743806 Zr
atom 10.1108500256973493 5.0676670345447947 20.0918698382743806 Zr
atom 5.0554260389947565 10.1230910212474061 20.0918698382743806 Zr
atom 10.1108482968857860 10.0986073013357469 20.0918698382743806 Zr
atom 5.0554197768351745 5.4108375005824518 12.5430243648245554 S
atom 10.1108538802531527 4.7000121698032862 12.5430243648245554 S
atom 5.0554298935505555 9.7554361565058780 12.5430243648245554 S
atom 10.1108444423299861 10.4662621660772803 12.5430243648245554 S
atom 5.0554224032068049 4.6177472024073012 17.5611034223456670 S
atom 10.1108512538815187 5.4931024679784324 17.5611034223456670 S
atom 5.0554272671789207 10.5485264546810420 17.5611034223456670 S
atom 10.1108470687016094 9.6731718679021057 17.5611034223456670 S
atom 5.0554244957967480 2.5277125024454583 14.7232695783253735 S
atom 10.1108488218954697 2.5277128418415669 15.4831251410420219 S
atom 5.0554248351928663 7.5831368285441760 15.4831251410420219 S
atom 10.1108491612915685 7.5831371679402766 14.7232695783253735 S
atom 5.0554244957967480 2.5277125024454583 20.3989372663659694 S
atom 10.1108488218954697 2.5277128418415669 19.6390817036492926 S
atom 5.0554248351928663 7.5831368285441760 19.6390817036492926 S
atom 10.1108491612915685 7.5831371679402766 20.3989372663659694 S
atom 2.5277125024454583 5.0554244957967711 15.1439505458190666 S
atom 7.5831368285441565 5.0554248351928672 15.1439486012049453 S
atom 2.5277128418415651 10.1108488218954715 15.1439486012049453 S
atom 7.5831371679402713 10.1108491612915703 15.1439505458190666 S
atom 2.5277125024454583 5.0554244957967711 19.9782562988722070 S
atom 7.5831368285441565 5.0554248351928672 19.9782582434863585 S
atom 2.5277128418415651 10.1108488218954715 19.9782582434863585 S
atom 7.5831371679402713 10.1108491612915703 19.9782562988722070 S
atom 2.3728641166644420 2.5277102828944322 22.1577615936187442 Ba
atom 7.7379848749290785 2.5277147219964848 22.1577615936187442 Ba
atom 2.6825608882264738 7.5831387086991002 22.1577615936187442 Ba
atom 7.4282887821592567 7.5831349483892474 22.1577615936187442 Ba
atom 5.0554197768351745 5.4108375005824518 22.5791824798667378 S
atom 10.1108538802531527 4.7000121698032862 22.5791824798667378 S
atom 5.0554298935505555 9.7554361565058780 22.5791824798667378 S
atom 10.1108444423299861 10.4662621660772803 22.5791824798667378 S
