#=======================================================
# FHI-aims file: sym_relax/sym_relax_RP_3_Rx0Mz_0Ry0.in
# Created using the Atomic Simulation Environment (ASE)
# Fri Mar 14 10:23:47 2025
#=======================================================
lattice_vector 10.1029584496923679 -0.0000000000000000 0.0000204724034951 
lattice_vector -0.0000000000000000 10.1029906216730900 0.0000000000000000 
lattice_vector 0.0001868980337208 0.0000000000000000 35.2421759293145698 
atom -0.1572213181371508 0.0000000000000000 0.2857203971644290 Ba
atom 5.2087952833487448 0.0000000000000000 0.2857364651518894 Ba
atom 0.1573160585025672 5.0514953108365459 0.2857262289501420 Ba
atom 4.8942579067090213 5.0514953108365459 0.2857306333661773 Ba
atom 0.0303779370659981 0.0000000000000000 4.9296711413541772 Ba
atom 5.0214487787758912 0.0000000000000000 4.9297620622943157 Ba
atom -0.0300304460702839 5.0514953108365459 4.9297518260925655 Ba
atom 5.0818571619121702 5.0514953108365459 4.9296813775559460 Ba
atom 2.5258189859095230 2.5117092708968660 2.3306212909972346 Zr
atom 7.5772982107556963 2.5397860399396714 2.3306315271989826 Zr
atom 2.5258189859095221 7.5912813507762147 2.3306212909972364 Zr
atom 7.5772982107556963 7.5632045817334248 2.3306315271989817 Zr
atom 2.5257785495134417 2.5257476554182730 7.3421251033747401 Zr
atom 7.5772577743596186 2.5257476554182730 7.3421353395764886 Zr
atom 2.5257785495134417 7.5772429662548157 7.3421251033747401 Zr
atom 7.5772577743596186 7.5772429662548157 7.3421353395764886 Zr
atom 2.5258078251284868 2.8840172280747285 -0.1507844991393913 S
atom 7.5772870499746627 2.1674780827618156 -0.1507742629376441 S
atom 2.5258078251284868 7.2189733935983522 -0.1507844991393913 S
atom 7.5772870499746618 7.9355125389112837 -0.1507742629376441 S
atom 2.5258164333801667 2.0518462388461973 4.8654423683129906 S
atom 7.5772956582263316 2.9996490719903437 4.8654526045147453 S
atom 2.5258164333801667 8.0511443828268963 4.8654423683129906 S
atom 7.5772956582263316 7.1033415496827574 4.8654526045147470 S
atom 2.5257776727627856 0.0000000000000000 2.0083836965167032 S
atom 7.5773595044502802 0.0000000000000000 2.7993676617861212 S
atom 2.5258802796041073 5.0514953108365459 2.7993574255843785 S
atom 7.5772568976089731 5.0514953108365459 2.0083939327184548 S
atom 2.5254451841324306 0.0000000000000000 7.7938051373711401 S
atom 7.5775911397406315 0.0000000000000000 6.8904553055800815 S
atom 2.5261119148944560 5.0514953108365459 6.8904450693783419 S
atom 7.5769244089786163 5.0514953108365459 7.7938153735728841 S
atom 0.0000851217215955 2.5257757569086943 2.4579603448400156 S
atom 5.0515643465677682 2.5257195539278579 2.4579705810417627 S
atom 0.0000851217215955 7.5772148647643958 2.4579603448400129 S
atom 5.0515643465677682 7.5772710677452366 2.4579705810417627 S
atom 0.0000389370903580 2.5261007233132462 7.3421199852738726 S
atom 5.0515181619365261 2.5253945875232993 7.3421302214756139 S
atom 0.0000389370903580 7.5768898983598429 7.3421199852738726 S
atom 5.0515181619365261 7.5775960341497894 7.3421302214756139 S
atom -0.0303000628852807 0.0000000000000000 9.7545688291935342 Ba
atom 5.0815875450971770 0.0000000000000000 9.7544983806569174 Ba
atom 0.0301083202509999 5.0514953108365459 9.7544881444551610 Ba
atom 5.0211791619608848 5.0514953108365459 9.7545790653952924 Ba
atom 0.1572991923178681 0.0000000000000000 14.3985195733832896 Ba
atom 4.8942410405243173 0.0000000000000000 14.3985239777993570 Ba
atom -0.1572381843218503 5.0514953108365459 14.3985137415975863 Ba
atom 5.2087784171640434 5.0514953108365459 14.3985298095850425 Ba
atom 2.5257381131173715 2.5397860399396697 12.3536289157522496 Zr
atom 7.5772173379635372 2.5117092708968660 12.3536391519539901 Zr
atom 2.5257381131173720 7.5632045817334248 12.3536289157522496 Zr
atom 7.5772173379635372 7.5912813507762147 12.3536391519539901 Zr
atom 2.5257406656467203 2.9996490719903437 9.8188078384364772 S
atom 7.5772198904929118 2.0518462388461973 9.8188180746382248 S
atom 2.5257406656467203 7.1033415496827566 9.8188078384364808 S
atom 7.5772198904929118 8.0511443828268998 9.8188180746382248 S
atom 2.5257492738984184 2.1674780827618156 14.8350347058888765 S
atom 7.5772284987445726 2.8840172280747285 14.8350449420906436 S
atom 2.5257492738984184 7.9355125389112855 14.8350347058888765 S
atom 7.5772284987445726 7.2189733935983522 14.8350449420906436 S
atom 2.5256768194227863 0.0000000000000000 11.8848927811651102 S
atom 7.5772586511102622 0.0000000000000000 12.6758767464345148 S
atom 2.5257794262640996 5.0514953108365459 12.6758665102327708 S
atom 7.5771560442689649 5.0514953108365459 11.8849030173668524 S
atom -0.0000072475408794 2.5257757569086943 12.2262796257076882 S
atom 5.0514719773053089 2.5257195539278579 12.2262898619094447 S
atom -0.0000072475408794 7.5772148647643958 12.2262796257076882 S
atom 5.0514719773053089 7.5772710677452366 12.2262898619094447 S
atom 2.5258282949386026 2.6829942011362995 17.9068089156314194 Ba
atom 7.5773075197847835 2.3685011097002406 17.9068191518331759 Ba
atom 2.5258282949386026 7.4199964205367950 17.9068089156314194 Ba
atom 7.5773075197847835 7.7344895119728498 17.9068191518331759 Ba
atom 2.5258220405213674 2.4955415305006530 22.5508115319701048 Ba
atom 7.5773012653675407 2.5559537803358925 22.5508217681718328 Ba
atom 2.5258220405213674 7.6074490911724348 22.5508115319701083 Ba
atom 7.5773012653675407 7.5470368413371949 22.5508217681718293 Ba
atom 5.0655837154962047 5.0514953108365459 19.9517196733731694 Zr
atom 10.0890076175572752 5.0514953108365459 19.9517131045582126 Zr
atom 5.0375283927110770 10.1029906216730918 19.9517028683564774 Zr
atom 10.1170629403424126 10.1029906216730918 19.9517299095749259 Zr
atom 5.0516116109533939 5.0514953108365459 24.9632181861328917 Zr
atom 10.1030908357995717 5.0514953108365459 24.9632284223346517 Zr
atom 5.0516116109533939 10.1029906216730918 24.9632181861328917 Zr
atom 10.1030908357995735 10.1029906216730918 24.9632284223346517 Zr
atom 4.6933059242703408 5.0514953108365459 17.4703069089784826 S
atom 10.4613317347378292 5.0514953108365459 17.4703037352005737 S
atom 5.4098525098916355 10.1029906216730918 17.4702934989988279 S
atom 9.7447851491165309 10.1029906216730918 17.4703171451802319 S
atom 5.5254754117073803 5.0514953108365459 22.4865332129955000 S
atom 9.6291649613589261 5.0514953108365459 22.4865451272427208 S
atom 4.5776857365127626 10.1029906216730918 22.4865348910409502 S
atom 10.5769546365535678 10.1029906216730918 22.4865434491972707 S
atom 5.0515852911845576 2.5257492163000559 20.0790473653386563 S
atom 10.1030645160307149 2.5257460945364909 20.0790576015404305 S
atom 5.0515852911845576 7.5772414053730310 20.0790473653386563 S
atom 10.1030645160307149 7.5772445271365916 20.0790576015404305 S
atom 5.0516116109533939 2.5257519763662257 24.9632181861328917 S
atom 10.1030908357995717 2.5257433344703228 24.9632284223346517 S
atom 5.0516116109533939 7.5772386453068679 24.9632181861328917 S
atom 10.1030908357995717 7.5772472872027725 24.9632284223346517 S
atom 2.5258248363864833 5.0514953108365459 20.4204677258549694 S
atom 7.5773108254552852 5.0514953108365459 19.6294852841907641 S
atom 2.5258316006091106 10.1029906216730918 19.6294750479890325 S
atom 7.5773040612326534 10.1029906216730918 20.4204779620567329 S
atom 2.5258703156444695 5.0514953108365459 24.5115428446140413 S
atom 7.5773529062623233 5.0514953108365459 25.4148935276517491 S
atom 2.5258736814161424 10.1029906216730918 25.4148832914500176 S
atom 7.5773495404906566 10.1029906216730918 24.5115530808157835 S
atom 2.5259219565392383 2.5559537803358929 27.3756146040939292 Ba
atom 7.5774011813854454 2.4955415305006539 27.3756248402957141 Ba
atom 2.5259219565392392 7.5470368413371940 27.3756146040939257 Ba
atom 7.5774011813854454 7.6074490911724340 27.3756248402957176 Ba
atom 2.5259157021220169 2.3685011097002415 32.0196172204325933 Ba
atom 7.5773949269681875 2.6829942011362995 32.0196274566343249 Ba
atom 2.5259157021220169 7.7344895119728463 32.0196172204325933 Ba
atom 7.5773949269681875 7.4199964205367932 32.0196274566343249 Ba
atom 5.0376395064105663 5.0514953108365459 29.9747166988926921 Zr
atom 10.1171740540418753 5.0514953108365459 29.9747437401111121 Zr
atom 5.0656948291957136 10.1029906216730918 29.9747335039093556 Zr
atom 10.0891187312567379 10.1029906216730918 29.9747269350944165 Zr
atom 4.5777478101994236 5.0514953108365459 27.4399031592702407 S
atom 10.5770167102401800 5.0514953108365459 27.4399117174266145 S
atom 5.5255374853940316 10.1029906216730918 27.4399014812248474 S
atom 9.6292270350455986 10.1029906216730918 27.4399133954720185 S
atom 5.4099172976364409 5.0514953108365459 32.4561294632873611 S
atom 9.7448499368613248 5.0514953108365459 32.4561531094687368 S
atom 4.6933707120151595 10.1029906216730918 32.4561428732669270 S
atom 10.4613965224826142 10.1029906216730918 32.4561396994890785 S
atom 5.0516379307222312 2.5257492163000550 29.8473890069271235 S
atom 10.1031171555683930 2.5257460945364918 29.8473992431288906 S
atom 5.0516379307222312 7.5772414053730310 29.8473890069271235 S
atom 10.1031171555683930 7.5772445271365916 29.8473992431288906 S
atom 2.5259123964515040 5.0514953108365459 30.2969510880750192 S
atom 7.5773983855203122 5.0514953108365459 29.5059686464108673 S
atom 2.5259191606741362 10.1029906216730918 29.5059584102090895 S
atom 7.5773916212976902 10.1029906216730918 30.2969613242767757 S
