#=======================================================
# FHI-aims file: sym_relax/sym_relax_RP_7_RxRyMz_RxRy-Mz.in
# Created using the Atomic Simulation Environment (ASE)
# Mon Mar 17 15:52:10 2025
#=======================================================
lattice_vector 10.0088482671849199 -0.0711202229615938 -0.0000000000000000 
lattice_vector -0.0711202229615937 10.0088482671849466 -0.0000000000000000 
lattice_vector -0.0000000000000000 -0.0000000000000000 75.9688272123168531 
atom 0.0977552035043675 -0.1814462560378100 0.2169031133858109 Ba
atom 5.1858703896302734 -0.1333153149851651 0.2169031133858109 Ba
atom 0.1458861445570122 4.9066689300881059 0.2169031133858109 Ba
atom 5.0666192256160230 4.7874177660738502 0.2169031133858109 Ba
atom -0.2678277917699299 0.1877509063754570 5.0082282026050331 Ba
atom 4.8166732272170014 0.2322676802891340 5.0082282026050331 Ba
atom -0.2233110178562538 5.2722519253623972 5.0082282026050331 Ba
atom 4.7010362303417432 5.1566149284871274 5.0082282026050331 Ba
atom 2.4845543107627077 2.4744385170671217 2.4034382374039764 Zr
atom 7.4988496386369858 2.4487495998681550 2.4034382374039764 Zr
atom 2.4588653935637406 7.4887338449414296 2.4034382374039764 Zr
atom 7.4534183328743735 7.4433025391788021 2.4034382374039764 Zr
atom 2.4751700712852904 2.4897322973362681 7.4606667366945043 Zr
atom 7.4835558583678559 2.4581338393455807 7.4606667366945043 Zr
atom 2.4435716132945982 7.4981180844188389 7.4606667366945043 Zr
atom 7.4440340933969464 7.4585963194479374 7.4606667366945043 Zr
atom 2.6082710022549436 2.6948055896553944 -0.1037841171114660 S
atom 7.2784825660487247 2.3250329083759231 -0.1037841171114660 S
atom 2.2384983209754750 7.3650171534491964 -0.1037841171114660 S
atom 7.5771350243665925 7.6636696117670633 -0.1037841171114660 S
atom 2.2350898076659256 2.1894977980393171 4.9661836479531818 S
atom 7.7837903576648104 2.6982141029649482 4.9661836479531818 S
atom 2.7438061125915434 7.7381983480382184 4.9661836479531818 S
atom 7.2039538297775811 7.1583618201509891 4.9661836479531818 S
atom 2.8026204214785038 -0.0126373865944836 2.2490797726117688 S
atom 7.1811330609360429 -0.0454398216012401 2.7575828580876078 S
atom 2.1411488158627732 4.9945444234720284 2.7575828580876078 S
atom 7.7714844435901593 4.9562266355171847 2.2490797726117688 S
atom 2.8967101729806841 -0.0165636126581973 7.7890925391890216 S
atom 7.1173136552269822 -0.0490679603876856 7.1718111643704221 S
atom 2.0773294101537334 4.9909162846855857 7.1718111643704221 S
atom 7.8655741950923561 4.9523004094534686 7.7890925391890216 S
atom -0.0229227248863126 2.2018037121139575 2.2490797726117688 S
atom 4.9787437322321084 2.7921550947681015 2.7575828580876078 S
atom -0.0612405128411515 7.8321393398413441 2.7575828580876078 S
atom 4.9459412972253505 7.1706677342256278 2.2490797726117688 S
atom -0.0189964988225989 2.1077139606117790 7.7890925391890216 S
atom 4.9823718710185441 2.8559745004771355 7.1718111643704221 S
atom -0.0576123740547059 7.8959587455503959 7.1718111643704221 S
atom 4.9498675232890479 7.0765779827234523 7.7890925391890216 S
atom 0.2829345069275392 -0.1825977721302536 9.9872734828246834 Ba
atom 5.1870219057227001 -0.3184946184083370 9.9872734828246834 Ba
atom 0.1470376606494561 4.7214896266649227 9.9872734828246834 Ba
atom 5.2517985290392071 4.7862662499814208 9.9872734828246834 Ba
atom -0.2840579153303356 0.1821403177482229 14.9906502094763727 Ba
atom 4.8222838158442327 0.2484978038495390 14.9906502094763727 Ba
atom -0.2177004292290192 5.2884820489227939 14.9906502094763727 Ba
atom 4.6848061067813234 5.1510043398599032 14.9906502094763727 Ba
atom 2.4880217659833264 2.4830472268100241 12.4780499805926315 Zr
atom 7.4902409288941039 2.4452821446475412 12.4780499805926315 Zr
atom 2.4502566838208435 7.4852663897208114 12.4780499805926315 Zr
atom 7.4568857880949828 7.4519112489216921 12.4780499805926315 Zr
atom 2.4844320110558300 2.4844320110558344 17.4928220554677054 Zr
atom 7.4888561446482811 2.4488718995750389 17.4928220554677054 Zr
atom 2.4488718995750345 7.4888561446483086 17.4928220554677054 Zr
atom 7.4532960331674891 7.4532960331675016 17.4928220554677054 Zr
atom 2.7474514528272747 2.8123812152369845 9.9790420680735252 S
atom 7.1609069404671297 2.1858524578035921 9.9790420680735252 S
atom 2.1209226953938822 7.2258367028768609 9.9790420680735252 S
atom 7.7163154749389342 7.7812452373486707 9.9790420680735252 S
atom 2.2178631260339485 2.1531938484351318 14.9882902724894596 S
atom 7.8200943072689970 2.7154407845969195 14.9882902724894596 S
atom 2.7801100621957393 7.7554250296701825 14.9882902724894596 S
atom 7.1867271481456072 7.1220578705467927 14.9882902724894596 S
atom 2.8879943492058375 -0.0199992307667051 12.1694261653103819 S
atom 7.1211716061175059 -0.0528442015263005 12.8075899411256664 S
atom 2.0811873610442597 4.9871400435469688 12.8075899411256664 S
atom 7.8568583713174949 4.9488647913449677 12.1694261653103819 S
atom 2.8868005922714621 -0.0191462297007313 17.8135770417303050 S
atom 7.1220476749134551 -0.0519739932608629 17.1720670692050916 S
atom 2.0820634298402032 4.9880102518124056 17.1720670692050916 S
atom 7.8556646143831204 4.9497177924109330 17.8135770417303050 S
atom -0.0155608807140912 2.1164297843866260 12.1694261653103819 S
atom 4.9861481121571503 2.8521165495866088 12.8075899411256664 S
atom -0.0538361329160911 7.8921007946598776 12.8075899411256664 S
atom 4.9533031413975692 7.0852938064983011 12.1694261653103819 S
atom -0.0164138817800650 2.1176235413210049 17.8135770417303050 S
atom 4.9852779038917134 2.8512404807906671 17.1720670692050916 S
atom -0.0547063411815286 7.8912247258639354 17.1720670692050916 S
atom 4.9524501403315941 7.0864875634326800 17.8135770417303050 S
atom 0.2840579153303355 -0.1821403177482228 19.9949939014590008 Ba
atom 5.1865644513406828 -0.3196180268111330 19.9949939014590008 Ba
atom 0.1465802062674252 4.7203662182621384 19.9949939014590008 Ba
atom 5.2529219374419940 4.7867237043634452 19.9949939014590008 Ba
atom -0.2829345069275389 0.1825977721302536 24.9983706281107452 Ba
atom 4.8218263614622101 0.2473743954467425 24.9983706281107452 Ba
atom -0.2181578836110502 5.2873586405200204 24.9983706281107452 Ba
atom 4.6859295151841112 5.1514617942419179 24.9983706281107452 Ba
atom 2.4808422561283354 2.4858167953016470 22.5075941303427811 Zr
atom 7.4874713604024707 2.4524616545025362 22.5075941303427811 Zr
atom 2.4474871153292157 7.4924458995757943 22.5075941303427811 Zr
atom 7.4497062782399972 7.4546808174133332 22.5075941303427811 Zr
atom 2.4936939508263665 2.4791317247754048 27.5249773742408834 Zr
atom 7.4941564309287179 2.4396099598044989 27.5249773742408834 Zr
atom 2.4541721858554610 7.4795942048777588 27.5249773742408834 Zr
atom 7.4625579729380211 7.4479957468870817 27.5249773742408834 Zr
atom 2.7510008960777159 2.8156701736765419 19.9973538384459175 S
atom 7.1576179820275865 2.1823030145531574 19.9973538384459175 S
atom 2.1176337369543305 7.2222872596264338 19.9973538384459175 S
atom 7.7198649181893684 7.7845341957882246 19.9973538384459175 S
atom 2.2214125692843809 2.1564828068746822 25.0066020428618643 S
atom 7.8168053488294484 2.7118913413464898 25.0066020428618643 S
atom 2.7768211037561867 7.7518755864197484 25.0066020428618643 S
atom 7.1902765913960494 7.1253468289863564 25.0066020428618643 S
atom 2.8876766610673976 -0.0182760214352936 22.1780541698097728 S
atom 7.1208539179790744 -0.0511209921948890 22.8162179456250129 S
atom 2.0808696729058163 4.9888632528783727 22.8162179456250129 S
atom 7.8565406831790696 4.9505880006763805 22.1780541698097728 S
atom 2.8915346119579239 -0.0220522625739085 27.8138329465649612 S
atom 7.1121380942042256 -0.0545566103033968 27.1965515717463546 S
atom 2.0721538491309754 4.9854276347698709 27.1965515717463546 S
atom 7.8603986340695799 4.9468117595377530 27.8138329465649612 S
atom -0.0172840900455036 2.1167474725250663 22.1780541698097728 S
atom 4.9844249028257472 2.8524342377250500 22.8162179456250129 S
atom -0.0555593422475023 7.8924184827983082 22.8162179456250129 S
atom 4.9515799320661520 7.0856114946367281 22.1780541698097728 S
atom -0.0135078489068887 2.1128895216345334 27.8138329465649612 S
atom 4.9878605209342570 2.8611500614998944 27.1965515717463546 S
atom -0.0521237241389947 7.9011343065731667 27.1965515717463546 S
atom 4.9553561732047786 7.0817535437462071 27.8138329465649612 S
atom 0.2678277917699299 -0.1877509063754571 29.9774159083303076 Ba
atom 5.1921750399679123 -0.3033879032507280 29.9774159083303076 Ba
atom 0.1521907948946594 4.7365963418225379 29.9774159083303076 Ba
atom 5.2366918138815848 4.7811131157362183 29.9774159083303076 Ba
atom -0.0977552035043675 0.1814462560378099 34.7687409975495427 Ba
atom 4.8229778775546492 0.0621950920235710 34.7687409975495427 Ba
atom -0.2170063675186061 5.1021793370968380 34.7687409975495427 Ba
atom 4.8711088186072891 5.1503102781494849 34.7687409975495427 Ba
atom 2.4843097113489501 2.4944255050445485 32.5822058735314499 Zr
atom 7.4788626506595817 2.4489941992819184 32.5822058735314499 Zr
atom 2.4388784055863217 7.4889784443551717 32.5822058735314499 Zr
atom 7.4531737334606110 7.4632895271562196 32.5822058735314499 Zr
atom 2.7337742144457327 2.7793662240723500 30.0194604629822024 S
atom 7.1939219316317704 2.1995296961851292 30.0194604629822024 S
atom 2.1539376865585189 7.2395139412583918 30.0194604629822024 S
atom 7.7026382365574015 7.7482302461840220 30.0194604629822024 S
atom 2.3605930198567187 2.2740584324562789 35.0894282280468630 S
atom 7.6992297232478499 2.5727108907741525 35.0894282280468630 S
atom 2.6592454781745904 7.6126951358474129 35.0894282280468630 S
atom 7.3294570419683858 7.2429224545679487 35.0894282280468630 S
atom 2.8277152062488833 -0.0256804013603541 32.2280612528478301 S
atom 7.2062278457064144 -0.0584828363671106 32.7365643383236389 S
atom 2.1662436006331540 4.9815014087061487 32.7365643383236389 S
atom 7.7965792283605309 4.9431836207513173 32.2280612528478301 S
atom -0.0098797101204431 2.1767089273435740 32.2280612528478301 S
atom 4.9917867469979624 2.7670603099977185 32.7365643383236389 S
atom -0.0481974980752809 7.8070445550709859 32.7365643383236389 S
atom 4.9589843119912063 7.1455729494552527 32.2280612528478301 S
atom 2.3029857550180171 2.5821872145602036 38.2013167195442520 Ba
atom 7.3911009411439155 2.6303181556128497 38.2013167195442520 Ba
atom 2.3511166960706666 7.6703024006861176 38.2013167195442520 Ba
atom 7.2718497771296704 7.5510512366718689 38.2013167195442520 Ba
atom 2.6721829174312886 2.2166042192859043 42.9926418087635440 Ba
atom 7.7566839364182094 2.2611209931995777 42.9926418087635440 Ba
atom 2.7166996913449615 7.3011052382728536 42.9926418087635440 Ba
atom 7.6410469395429415 7.1854682413975803 42.9926418087635440 Ba
atom 4.9588705281229499 4.9689863218185453 40.3878518435624159 Zr
atom 9.9731658559972569 4.9432974046195834 40.3878518435624159 Zr
atom 4.9331816109239917 9.9832816496928398 40.3878518435624159 Zr
atom 9.9277345502345966 9.9378503439302204 40.3878518435624159 Zr
atom 4.9741643083920817 4.9596020823411271 45.4450803428529255 Zr
atom 9.9825500954746573 4.9280036243504410 45.4450803428529255 Zr
atom 4.9425658504013938 9.9679878694237143 45.4450803428529255 Zr
atom 9.9430283305037559 9.9284661044528022 45.4450803428529255 Zr
atom 5.1792376007112200 5.0927030133107785 37.8806294890470028 S
atom 9.8494491645049980 4.7229303320313125 37.8806294890470028 S
atom 4.8094649194317558 9.7629145771045760 37.8806294890470028 S
atom 10.1481016228228764 10.0615670354224562 37.8806294890470028 S
atom 4.6739298090951458 4.7195218187217582 42.9505972541115852 S
atom 10.2226303590940173 5.2282381236473929 42.9505972541115852 S
atom 5.1826461140207716 10.2682223687206502 42.9505972541115852 S
atom 9.6427938312068182 9.6883858408334316 42.9505972541115852 S
atom 4.6862357231697818 2.4615092861695191 40.2334933787701914 S
atom 10.3165713508971670 2.4231914982146829 40.7419964642459931 S
atom 5.2765871058238965 7.4631757432879464 40.7419964642459931 S
atom 9.6550997452814205 7.4303733082811982 40.2334933787701914 S
atom 4.5921459716675948 2.4654355122332343 45.7735061453474330 S
atom 10.3803907566062072 2.4268196370011341 45.1562247705289010 S
atom 5.3404065115329482 7.4668038820743901 45.1562247705289010 S
atom 9.5610099937792583 7.4342995343449072 45.7735061453474330 S
atom 2.4717946244613467 5.2870524325343409 40.2334933787701914 S
atom 7.4789764345278451 4.6255808269186245 40.7419964642459931 S
atom 2.4389921894545914 9.6655650719918924 40.7419964642459931 S
atom 7.4406586465730005 10.2559164546460142 40.2334933787701914 S
atom 2.4678683983976297 5.3811421840365297 45.7735061453474330 S
atom 7.4753482957414041 4.5617614212095789 45.1562247705289010 S
atom 2.4353640506681442 9.6017456662828469 45.1562247705289010 S
atom 7.4367324205092844 10.3500062061481835 45.7735061453474330 S
atom 2.3018342389255753 2.7673665179833775 47.9716870889831739 Ba
atom 7.2059216377207385 2.6314696717052963 47.9716870889831739 Ba
atom 2.1659373926474954 7.6714539167785425 47.9716870889831739 Ba
atom 7.2706982610372464 7.7362305400950548 47.9716870889831739 Ba
atom 2.6665723288040568 2.2003740957255005 52.9750638156347833 Ba
atom 7.7729140599786133 2.2667315818268126 52.9750638156347833 Ba
atom 2.7329298149053662 7.3067158269000823 52.9750638156347833 Ba
atom 7.6354363509157199 7.1692381178371773 52.9750638156347833 Ba
atom 4.9674792378658328 4.9724537770391652 50.4624635867510420 Zr
atom 9.9696984007766325 4.9346886948766926 50.4624635867510420 Zr
atom 4.9297141557033681 9.9746729399499525 50.4624635867510420 Zr
atom 9.9363432599774946 9.9413177991508306 50.4624635867510420 Zr
atom 4.9688640221116600 4.9688640221116689 55.4772356616261035 Zr
atom 9.9732881557041200 4.9333039106308778 55.4772356616261035 Zr
atom 4.9333039106308592 9.9732881557041395 55.4772356616261035 Zr
atom 9.9377280442233200 9.9377280442233378 55.4772356616261035 Zr
atom 5.2968132262928203 5.2318834638831166 47.9634556742319589 S
atom 9.7102687139326704 4.6053547064497122 47.9634556742319589 S
atom 4.6702844688594096 9.6453389515229837 47.9634556742319589 S
atom 10.2656772484044687 10.2007474859947873 47.9634556742319589 S
atom 4.6376258594909539 4.7022951370897914 52.9727038786478985 S
atom 10.2398570407259939 5.2645420732515866 52.9727038786478985 S
atom 5.1998727956527446 10.3045263183248323 52.9727038786478985 S
atom 9.6064898816026343 9.6711591592014532 52.9727038786478985 S
atom 4.6008617954424578 2.4688711303417432 50.1538397714687676 S
atom 10.3765328057156765 2.4305958781397456 50.7920035472840681 S
atom 5.3365485606424352 7.4705801232130122 50.7920035472840681 S
atom 9.5697258175541133 7.4377351524534152 50.1538397714687676 S
atom 4.6020555523768216 2.4680181292757664 55.7979906478887031 S
atom 10.3756567369197441 2.4297256698743106 55.1564806753635395 S
atom 5.3356724918464895 7.4697099149475683 55.1564806753635395 S
atom 9.5709195744884923 7.4368821513874419 55.7979906478887031 S
atom 2.4644327802891213 5.3724263602616738 50.1538397714687676 S
atom 7.4715720546027820 4.5656193721000990 50.7920035472840681 S
atom 2.4315878095295278 9.6056036171733901 50.7920035472840681 S
atom 7.4332968024007791 10.3412903823733497 50.1538397714687676 S
atom 2.4652857813550968 5.3712326033273028 55.7979906478887031 S
atom 7.4724422628682303 4.5664954408960368 55.1564806753635395 S
atom 2.4324580177949628 9.6064796859693100 55.1564806753635395 S
atom 7.4341498034667444 10.3400966254389637 55.7979906478887031 S
atom 2.3022916933076005 2.7684899263861742 57.9794075076174380 Ba
atom 7.2047982293179533 2.6310122173232626 57.9794075076174380 Ba
atom 2.1648139842447001 7.6709964623965279 57.9794075076174380 Ba
atom 7.2711557154192583 7.7373539484978444 57.9794075076174380 Ba
atom 2.6670297831860794 2.2014975041282980 62.9827842342690758 Ba
atom 7.7717906515758344 2.2662741274447833 62.9827842342690758 Ba
atom 2.7318064065025727 7.3062583725180605 62.9827842342690758 Ba
atom 7.6358938052977390 7.1703615262399616 62.9827842342690758 Ba
atom 4.9702488063574686 4.9652742671841725 60.4920077365011863 Zr
atom 9.9768779106316128 4.9319191263850586 60.4920077365011863 Zr
atom 4.9368936655583546 9.9719033714583052 60.4920077365011863 Zr
atom 9.9391128284691561 9.9341382892958467 60.4920077365011863 Zr
atom 4.9635637358312241 4.9781259618822160 65.5093909803993029 Zr
atom 9.9640262159335933 4.9386041969113013 65.5093909803993029 Zr
atom 4.9240419708603165 9.9785884419845807 65.5093909803993029 Zr
atom 9.9324277579428895 9.9469899839938734 65.5093909803993029 Zr
atom 5.3001021847323670 5.2354329071335499 57.9817674446043370 S
atom 9.7067192706822301 4.6020657480101654 57.9817674446043370 S
atom 4.6667350256089790 9.6420499930834449 57.9817674446043370 S
atom 10.2689662068440164 10.2042969292452259 57.9817674446043370 S
atom 4.6409148179305069 4.7058445803402353 62.9910156490202624 S
atom 10.2363075974755695 5.2612531148120354 62.9910156490202624 S
atom 5.1963233524023114 10.3012373598853024 62.9910156490202624 S
atom 9.6097788400421518 9.6747086024518989 62.9910156490202624 S
atom 4.6011794835808910 2.4671479210103340 60.1624677759680893 S
atom 10.3768504938541071 2.4288726688083333 60.8006315517834182 S
atom 5.3368662487808622 7.4688569138815932 60.8006315517834182 S
atom 9.5700435056925492 7.4360119431220069 60.1624677759680893 S
atom 4.5973215326903603 2.4709241621489473 65.7982465527233131 S
atom 10.3855663176289745 2.4323082869168418 65.1809651779050228 S
atom 5.3455820725557164 7.4722925319901048 65.1809651779050228 S
atom 9.5661855548020220 7.4397881842606362 65.7982465527233131 S
atom 2.4661559896205367 5.3721086721232467 60.1624677759680893 S
atom 7.4732952639341992 4.5653016839616676 60.8006315517834182 S
atom 2.4333110188609419 9.6052859290349364 60.8006315517834182 S
atom 7.4350200117321936 10.3409726942348996 60.1624677759680893 S
atom 2.4623797484819274 5.3759666230137668 65.7982465527233131 S
atom 7.4698596458256885 4.5565858601868179 65.1809651779050228 S
atom 2.4298754007524290 9.5965701052600849 65.1809651779050228 S
atom 7.4312437705935706 10.3448306451254428 65.7982465527233131 S
atom 2.2966811046803675 2.7522598028257677 67.9618295144886986 Ba
atom 7.2210283528783616 2.6366228059504988 67.9618295144886986 Ba
atom 2.1810441078051026 7.6766070510237627 67.9618295144886986 Ba
atom 7.2655451267920395 7.7211238249374405 67.9618295144886986 Ba
atom 2.6658782670936390 2.3866768075514675 72.7531546037079693 Ba
atom 7.5866113481526618 2.2674256435372273 72.7531546037079693 Ba
atom 2.5466271030794001 7.3074098886104872 72.7531546037079693 Ba
atom 7.6347422892053105 7.3555408296631466 72.7531546037079693 Ba
atom 4.9788575161003727 4.9687417224048014 70.5666194796897912 Zr
atom 9.9734104554109937 4.9233104166421624 70.5666194796897912 Zr
atom 4.9334262103377373 9.9632946617154214 70.5666194796897912 Zr
atom 9.9477215382120256 9.9376057445164712 70.5666194796897912 Zr
atom 5.2637982351281734 5.2182062255015822 68.0038740691407355 S
atom 9.7239459523141818 4.6383696976143574 68.0038740691407355 S
atom 4.6839617072409387 9.6783539426876377 68.0038740691407355 S
atom 10.2326622572398200 10.1870702476132653 68.0038740691407355 S
atom 4.7584904435120947 4.8450250309125593 73.0738418342052967 S
atom 10.0971271469032349 5.1436774892304316 73.0738418342052967 S
atom 5.0571429018299643 10.1836617343036977 73.0738418342052967 S
atom 9.7273544656237405 9.8138890530242335 73.0738418342052967 S
atom 4.6611409383994058 2.4745523009353949 70.2124748590061074 S
atom 10.2914765661268000 2.4362345129805534 70.7209779444821720 S
atom 5.2514923210535365 7.4762187580538217 70.7209779444821720 S
atom 9.6300049605110818 7.4434163230470665 70.2124748590061074 S
atom 2.4587516096954700 5.3121472173047168 70.2124748590061074 S
atom 7.4659334197619645 4.6506756116889960 70.7209779444821720 S
atom 2.4259491746887236 9.6906598567622648 70.7209779444821720 S
atom 7.4276156318071278 10.2810112394163937 70.2124748590061074 S
