#=======================================================
# FHI-aims file: sym_relax/sym_relax_RP_3_Rx1Ry20_Rx2Ry10.in
# Created using the Atomic Simulation Environment (ASE)
# Fri Mar 14 10:22:50 2025
#=======================================================
lattice_vector 10.0942763659883230 -0.0000023706235179 0.0000000000000000 
lattice_vector -0.0000023706235179 10.0942763659883390 0.0000000000000000 
lattice_vector 0.0000000000000000 0.0000000000000000 35.3517138093261281 
atom -0.0000002725457353 -0.1711033079964252 0.2938548141062700 Ba
atom 5.0471384555398977 0.1711021226846662 0.2938548141062700 Ba
atom -0.0000009127660238 5.2182414909905868 0.2938548141062700 Ba
atom 5.0471367251366743 4.8760336896859755 0.2938548141062700 Ba
atom -0.0000034748398397 0.0278207793914637 4.9475401126192873 Ba
atom 5.0471416578340058 -0.0278219647032228 4.9475401126192873 Ba
atom 0.0000022895280806 5.0193174036027006 4.9475401126192873 Ba
atom 5.0471335228425627 5.0749577770738608 4.9475401126192873 Ba
atom 2.5004535543440647 2.5235650658912134 2.3490317495101829 Zr
atom 7.5938216263325105 2.5235707464794292 2.3490317495101829 Zr
atom 2.5466822580265775 7.5707101147853457 2.3490317495101829 Zr
atom 7.5475905520264686 7.5707020635736075 2.3490317495101829 Zr
atom 2.5235684988411995 2.5235684988411990 7.3649403769429451 Zr
atom 7.5707066818353619 2.5235673135294405 7.3649403769429451 Zr
atom 2.5235673135294419 7.5707066818353557 7.3649403769429451 Zr
atom 7.5707054965236074 7.5707054965235994 7.3649403769429451 Zr
atom 2.8125978365996365 2.5235516851948234 -0.1306325619931148 S
atom 7.2816773440769307 2.5235841271758157 -0.1306325619931148 S
atom 2.2345379757710080 7.5707234954817375 -0.1306325619931148 S
atom 7.8597348342820448 7.5706886828772255 -0.1306325619931148 S
atom 2.0578092494984404 2.5235350302445103 4.8871708657789830 S
atom 8.0364659311781370 2.5236007821261310 4.8871708657789830 S
atom 2.9893265628722050 7.5707401504320462 4.8871708657789830 S
atom 7.1049462471808384 7.5706720279269124 4.8871708657789830 S
atom 2.5235690914970790 -0.0000005926558796 2.4796266221946972 S
atom 7.5707072744912471 -0.0000017779676387 2.4796879061419816 S
atom 2.5235679061853222 5.0471375903382754 2.4796879061419816 S
atom 7.5707060891794864 5.0471364050265191 2.4796266221946972 S
atom 2.5235690914970790 -0.0000005926558796 7.3649631400870907 S
atom 7.5707072744912471 -0.0000017779676387 7.3649176137988031 S
atom 2.5235679061853222 5.0471375903382754 7.3649176137988031 S
atom 7.5707060891794864 5.0471364050265191 7.3649631400870907 S
atom -0.0000005926558796 2.5235690914970808 2.0438766240303905 S
atom 5.0471375903382834 2.5235679061853205 2.7829848631667784 S
atom -0.0000017779676387 7.5707072744912418 2.7829848631667784 S
atom 5.0471364050265306 7.5707060891794837 2.0438766240303905 S
atom -0.0000005926558796 2.5235690914970808 7.8162018729630587 S
atom 5.0471375903382834 2.5235679061853205 6.9136788809228262 S
atom -0.0000017779676387 7.5707072744912418 6.9136788809228262 S
atom 5.0471364050265306 7.5707060891794837 7.8162018729630587 S
atom 0.0000034748398397 -0.0278207793914637 9.7823406412666021 Ba
atom 5.0471347081543225 0.0278195940797045 9.7823406412666021 Ba
atom -0.0000046601515988 5.0749589623856179 9.7823406412666021 Ba
atom 5.0471404725222415 5.0193162182909425 9.7823406412666021 Ba
atom 0.0000002725457353 0.1711033079964252 14.4360259397796113 Ba
atom 5.0471379104484333 -0.1711044933081844 14.4360259397796113 Ba
atom -0.0000014578574945 4.8760348749977354 14.4360259397796113 Ba
atom 5.0471372702281343 5.2182403056788269 14.4360259397796113 Ba
atom 2.5466834433383383 2.5235719317911856 12.3808490043757047 Zr
atom 7.5475917373382355 2.5235638805794536 12.3808490043757047 Zr
atom 2.5004523690323057 7.5707032488853692 12.3808490043757047 Zr
atom 7.5938204410207444 7.5707089294735939 12.3808490043757047 Zr
atom 2.9893277481839631 2.5236019674378940 9.8427098881068957 S
atom 7.1049474324925983 2.5235338449327496 9.8427098881068957 S
atom 2.0578080641866787 7.5706732132386803 9.8427098881068957 S
atom 8.0364647458663772 7.5707389651202899 9.8427098881068957 S
atom 2.2345391610827701 2.5235853124875764 14.8605133158789933 S
atom 7.8597360195937975 2.5235504998830676 14.8605133158789933 S
atom 2.8125966512878779 7.5706898681889818 14.8605133158789933 S
atom 7.2816761587651682 7.5707223101699777 14.8605133158789933 S
atom 2.5235690914970790 -0.0000005926558796 12.2501928477439002 S
atom 7.5707072744912471 -0.0000017779676387 12.2502541316911966 S
atom 2.5235679061853222 5.0471375903382754 12.2502541316911966 S
atom 7.5707060891794864 5.0471364050265191 12.2501928477439002 S
atom -0.0000005926558796 2.5235690914970808 11.9468958907190981 S
atom 5.0471375903382834 2.5235679061853205 12.6860041298554869 S
atom -0.0000017779676387 7.5707072744912418 12.6860041298554869 S
atom 5.0471364050265306 7.5707060891794837 11.9468958907190981 S
atom 2.3524651908447738 2.5235682262954628 17.9697117187693394 Ba
atom 7.7418099898317951 2.5235675860751781 17.9697117187693394 Ba
atom 2.6946706215258711 7.5707069543810901 17.9697117187693394 Ba
atom 7.3996021885271821 7.5707052239778747 17.9697117187693394 Ba
atom 2.5513892782326675 2.5235650240013596 22.6233970172823504 Ba
atom 7.5428859024439063 2.5235707883692817 22.6233970172823504 Ba
atom 2.4957465341379774 7.5707101566751991 22.6233970172823504 Ba
atom 7.5985262759150638 7.5707020216837568 22.6233970172823504 Ba
atom 5.0471335647324107 5.0240220531852664 20.0248886541732496 Zr
atom 10.0942786136265550 5.0702507568677744 20.0248886541732496 Zr
atom 5.0471392453206327 10.1173901251736922 20.0248886541732496 Zr
atom 10.0942705624148275 10.0711590508676672 20.0248886541732496 Zr
atom 5.0471369976823990 5.0471369976823981 25.0407972816060003 Zr
atom 10.0942751806765667 5.0471358123706409 25.0407972816060003 Zr
atom 5.0471358123706445 10.0942751806765507 25.0407972816060003 Zr
atom 10.0942739953647980 10.0942739953647962 25.0407972816060003 Zr
atom 5.0471201840360242 5.3361663354408364 17.5452243426699539 S
atom 10.0942919943229583 4.7581064746122061 17.5452243426699539 S
atom 5.0471526260170210 9.8052458429181240 17.5452243426699539 S
atom 10.0942571817184295 10.3833033331232425 17.5452243426699539 S
atom 5.0471035290857191 4.5813777483396398 22.5630277704420550 S
atom 10.0943086492732554 5.5128950617134080 22.5630277704420550 S
atom 5.0471692809673403 10.5600344300193303 22.5630277704420550 S
atom 10.0942405267681217 9.6285147460220397 22.5630277704420550 S
atom 5.0471375903382834 2.5235679061853205 19.7197335286934639 S
atom 10.0942757733324537 2.5235667208735619 20.4588417678298704 S
atom 5.0471364050265306 7.5707060891794837 20.4588417678298704 S
atom 10.0942745880206814 7.5707049038677194 19.7197335286934639 S
atom 5.0471375903382834 2.5235679061853205 25.4920587776261236 S
atom 10.0942757733324537 2.5235667208735619 24.5895357855858947 S
atom 5.0471364050265306 7.5707060891794837 24.5895357855858947 S
atom 10.0942745880206814 7.5707049038677194 25.4920587776261236 S
atom 2.5235679061853222 5.0471375903382754 20.1554835268577754 S
atom 7.5707060891794864 5.0471364050265191 20.1555448108050861 S
atom 2.5235667208735659 10.0942757733324395 20.1555448108050861 S
atom 7.5707049038677328 10.0942745880206797 20.1554835268577754 S
atom 2.5235679061853222 5.0471375903382754 25.0408200447501308 S
atom 7.5707060891794864 5.0471364050265191 25.0407745184618555 S
atom 2.5235667208735659 10.0942757733324395 25.0407745184618555 S
atom 7.5707049038677328 10.0942745880206797 25.0408200447501308 S
atom 2.4957477194497368 2.5235719736810394 27.4581975459296714 Ba
atom 7.5985274612268263 2.5235638386896007 27.4581975459296714 Ba
atom 2.5513880929209112 7.5707032069955185 27.4581975459296714 Ba
atom 7.5428847171321527 7.5707089713634428 27.4581975459296714 Ba
atom 2.6946718068376301 2.5235687713869344 32.1118828444426825 Ba
atom 7.3996033738389402 2.5235670409837052 32.1118828444426825 Ba
atom 2.3524640055330166 7.5707064092896266 32.1118828444426825 Ba
atom 7.7418088045200335 7.5707057690693338 32.1118828444426825 Ba
atom 5.0471404306323908 5.0702519421795333 30.0567059090387581 Zr
atom 10.0942717477265909 5.0240208678735057 30.0567059090387581 Zr
atom 5.0471323794206517 10.0711602361794270 30.0567059090387581 Zr
atom 10.0942774283147809 10.1173889398619323 30.0567059090387581 Zr
atom 5.0471704662790957 5.5128962470251652 27.5185667927699598 S
atom 10.0942417120798780 4.5813765630278738 27.5185667927699598 S
atom 5.0471023437739584 9.6285159313337889 27.5185667927699598 S
atom 10.0943074639614903 10.5600332447075527 27.5185667927699598 S
atom 5.0471538113287755 4.7581076599239651 32.5363702205420253 S
atom 10.0942583670301911 5.3361651501290792 32.5363702205420253 S
atom 5.0471189987242697 10.3833045184350006 32.5363702205420253 S
atom 10.0942908090111896 9.8052446576063694 32.5363702205420253 S
atom 5.0471375903382834 2.5235679061853205 29.6227527953821728 S
atom 10.0942757733324537 2.5235667208735619 30.3618610345185580 S
atom 5.0471364050265306 7.5707060891794837 30.3618610345185580 S
atom 10.0942745880206814 7.5707049038677194 29.6227527953821728 S
atom 2.5235679061853222 5.0471375903382754 29.9260497524069642 S
atom 7.5707060891794864 5.0471364050265191 29.9261110363542571 S
atom 2.5235667208735659 10.0942757733324395 29.9261110363542571 S
atom 7.5707049038677328 10.0942745880206797 29.9260497524069642 S
