#=======================================================
# FHI-aims file: sym_relax/sym_relax_RP_10_RxRyMz_-Rx-Ry0.in
# Created using the Atomic Simulation Environment (ASE)
# Mon Mar 17 18:47:06 2025
#=======================================================
lattice_vector 10.0059143757376923 -0.0783534029580497 0.0000000000000000 
lattice_vector -0.0783534029580501 10.0059143757376923 0.0000000000000000 
lattice_vector -0.0000000000000000 0.0000000000000000 106.0641786720862285 
atom 0.1048061243888646 -0.1839965902828973 0.2140718518327463 Ba
atom 5.1869537781517261 -0.1439828258678900 0.2140718518327463 Ba
atom 0.1448198888038717 4.8981510634799834 0.2140718518327463 Ba
atom 5.0685866107786772 4.7797838961069310 0.2140718518327463 Ba
atom -0.2701269822484649 0.1875708369431198 5.0100538922635849 Ba
atom 4.8153863509257331 0.2309502807694387 5.0100538922635849 Ba
atom -0.2267475384221453 5.2730841701173139 5.0100538922635849 Ba
atom 4.6936535041413476 5.1513513233329382 5.0100538922635849 Ba
atom 2.4843015975295146 2.4702035391676871 2.4040913742875727 Zr
atom 7.4965341350909780 2.4403021873812754 2.4040913742875727 Zr
atom 2.4544002457430953 7.4824360767291402 2.4040913742875727 Zr
atom 7.4480820839193269 7.4339840255575025 2.4040913742875727 Zr
atom 2.4729059353006964 2.4864763392258937 7.4620996878555603 Zr
atom 7.4802613350327576 2.4516978496100998 7.4620996878555603 Zr
atom 2.4381274456848914 7.4938317389579661 7.4620996878555603 Zr
atom 7.4366864216905002 7.4502568256157122 7.4620996878555603 Zr
atom 2.6063322941529643 2.6894645701605384 -0.1037587747887057 S
atom 7.2772731040981089 2.3182714907578226 -0.1037587747887057 S
atom 2.2351392147502462 7.3604053801056901 -0.1037587747887057 S
atom 7.5701127805427699 7.6532450565503449 -0.1037587747887057 S
atom 2.2349307871835076 2.1870978625988218 4.9679165512114443 S
atom 7.7796398116598366 2.6896729977272802 4.9679165512114443 S
atom 2.7375059223119749 7.7318068870751482 4.9679165512114443 S
atom 7.1987112735733145 7.1508783489886509 4.9679165512114443 S
atom 2.8089620405582370 -0.0159560318154651 2.2503797741784748 S
atom 7.1743678617564051 -0.0525017476312843 2.7586372239644783 S
atom 2.1322339724085246 4.9896321417165961 2.7586372239644783 S
atom 7.7727425269480639 4.9478244545743468 2.2503797741784748 S
atom 2.8990775675388503 -0.0189362567790911 7.7919414836420362 S
atom 7.1133969987498080 -0.0553384637659504 7.1757740231192972 S
atom 2.0712631094019409 4.9867954255819171 7.1757740231192972 S
atom 7.8628580539286812 4.9448442296107284 7.7919414836420362 S
atom -0.0232206696635595 2.1939951473105963 2.2503797741784748 S
atom 4.9771055325420743 2.7923698125022685 2.7586372239644783 S
atom -0.0650283568057925 7.8345037018501289 2.7586372239644783 S
atom 4.9405598167262639 7.1577756337004130 2.2503797741784748 S
atom -0.0202404446999336 2.1038796203299857 7.7919414836420362 S
atom 4.9799422486767400 2.8533406755088513 7.1757740231192972 S
atom -0.0621916406711265 7.8954745648567206 7.1757740231192972 S
atom 4.9435400416898787 7.0676601067197939 7.7919414836420362 S
atom 0.2865243358914103 -0.1840274264564536 9.9908620168244955 Ba
atom 5.1869846143252953 -0.3257010373704360 9.9908620168244990 Ba
atom 0.1448507249774287 4.7164328519774310 9.9908620168244990 Ba
atom 5.2503048222812234 4.7797530599333591 9.9908620168244955 Ba
atom -0.2863581475818429 0.1819072140975607 14.9964242539509254 Ba
atom 4.8210499737712720 0.2471814461028167 14.9964242539509254 Ba
atom -0.2210839155765856 5.2893153354506799 14.9964242539509254 Ba
atom 4.6774223388079772 5.1456877004873895 14.9964242539509254 Ba
atom 2.4872311092531394 2.4794473550070548 12.4802954550195473 Zr
atom 7.4872903192516018 2.4373726756576564 12.4802954550195508 Zr
atom 2.4451564299037418 7.4795065650055284 12.4802954550195508 Zr
atom 7.4510115956429539 7.4432278413968715 12.4802954550195473 Zr
atom 2.4804850102572868 2.4820422487580829 17.4952877329753953 Zr
atom 7.4846954255005853 2.4441187746535151 17.4952877329753953 Zr
atom 2.4425615361527111 7.4862526640013920 17.4952877329753953 Zr
atom 7.4442654966471133 7.4458227351479076 17.4952877329753953 Zr
atom 2.7444372709553413 2.8076105149051922 9.9826225860600033 S
atom 7.1591271593534609 2.1801665139554425 9.9826225860600033 S
atom 2.1169932700055996 7.2223004033033318 9.9826225860600033 S
atom 7.7082177573451558 7.7713910012950089 9.9826225860600033 S
atom 2.2170118437576543 2.1510674201743121 14.9937425375701423 S
atom 7.8156702540843597 2.7075919411531499 14.9937425375701423 S
atom 2.7735363647364908 7.7497258305010126 14.9937425375701423 S
atom 7.1807923301474652 7.1148479065641164 14.9937425375701423 S
atom 2.8908195650063555 -0.0227654893603576 12.1755412767838305 S
atom 7.1174690840758075 -0.0594726935452842 12.8127847260377283 S
atom 2.0753351947279235 4.9826611958025939 12.8127847260377283 S
atom 7.8546000513961776 4.9410149970294563 12.1755412767838305 S
atom 2.8886629003660058 -0.0207523117734560 17.8222403594878180 S
atom 7.1176967567462226 -0.0574697036754073 17.1805389997247318 S
atom 2.0755628673983608 4.9846641856724592 17.1805389997247318 S
atom 7.8524433867558008 4.9430281746163631 17.8222403594878180 S
atom -0.0164112121186670 2.1121376228624773 12.1755412767838305 S
atom 4.9840764784560756 2.8492685901828838 12.8127847260377283 S
atom -0.0580574108917926 7.8914024795307389 12.8127847260377283 S
atom 4.9473692742711561 7.0759181092523047 12.1755412767838305 S
atom -0.0184243897055686 2.1142942875028359 17.8222403594878180 S
atom 4.9820734885862095 2.8490409175124367 17.1805389997247318 S
atom -0.0600604007616694 7.8911748068603016 17.1805389997247318 S
atom 4.9453560966842645 7.0780747738926637 17.8222403594878180 S
atom 0.2879963580551685 -0.1824614782756053 20.0048700317971786 Ba
atom 5.1854186661444563 -0.3271730595341940 20.0048700317971786 Ba
atom 0.1432847767965799 4.7149608298136876 20.0048700317971786 Ba
atom 5.2517768444449713 4.7813190081142025 20.0048700317971786 Ba
atom -0.2870727839163714 0.1812971092771241 25.0151364792656246 Ba
atom 4.8216600785917283 0.2478960824373452 25.0151364792656246 Ba
atom -0.2204738107561489 5.2900299717852173 25.0151364792656246 Ba
atom 4.6767077024734389 5.1450775956669306 25.0151364792656246 Ba
atom 2.4829602036601948 2.4811869670861380 22.5086431962679505 Zr
atom 7.4855507071725205 2.4416435812506054 22.5086431962679505 Zr
atom 2.4434168178246480 7.4837774705984534 22.5086431962679505 Zr
atom 7.4467406900500004 7.4449674534759467 22.5086431962679505 Zr
atom 2.4829602036601948 2.4811869670861380 27.5216297622632560 Zr
atom 7.4855507071725205 2.4416435812506054 27.5216297622632560 Zr
atom 2.4434168178246480 7.4837774705984534 27.5216297622632560 Zr
atom 7.4467406900500004 7.4449674534759467 27.5216297622632560 Zr
atom 2.7487603561551670 2.8128702967340358 20.0045302593938388 S
atom 7.1538673775246275 2.1758434287556376 20.0045302593938388 S
atom 2.1117334881767733 7.2179773181035030 20.0045302593938388 S
atom 7.7125408425449633 7.7766507831238467 20.0045302593938388 S
atom 2.2158789998482677 2.1496140443121448 25.0151364792656246 S
atom 7.8171236299465008 2.7087247850625191 25.0151364792656246 S
atom 2.7749897405986403 7.7508586744103898 25.0151364792656246 S
atom 7.1796594862380907 7.1133945307019628 25.0151364792656246 S
atom 2.8889980849507575 -0.0215233893163551 22.1890535851914734 S
atom 7.1182540636194327 -0.0582347326156262 22.8318680024412046 S
atom 2.0761201742715629 4.9838991567322362 22.8318680024412046 S
atom 7.8527785713405631 4.9422570970734707 22.1890535851914734 S
atom 2.8889980849507575 -0.0215233893163551 27.8412193733396975 S
atom 7.1182540636194327 -0.0582347326156262 27.1984049560900267 S
atom 2.0761201742715629 4.9838991567322362 27.1984049560900267 S
atom 7.8527785713405631 4.9422570970734707 27.8412193733396975 S
atom -0.0176533121626696 2.1139591029180815 22.1890535851914734 S
atom 4.9828385175264147 2.8484836106392315 22.8318680024412046 S
atom -0.0592953718214507 7.8906174999871057 22.8318680024412046 S
atom 4.9461271742271400 7.0777395893079129 22.1890535851914734 S
atom -0.0176533121626696 2.1139591029180815 27.8412193733396975 S
atom 4.9828385175264147 2.8484836106392315 27.1984049560900267 S
atom -0.0592953718214506 7.8906174999871057 27.1984049560900267 S
atom 4.9461271742271400 7.0777395893079129 27.8412193733396975 S
atom 0.2879963580551687 -0.1824614782756053 30.0254029267340172 Ba
atom 5.1854186661444563 -0.3271730595341939 30.0254029267340172 Ba
atom 0.1432847767965800 4.7149608298136876 30.0254029267340172 Ba
atom 5.2517768444449713 4.7813190081142025 30.0254029267340172 Ba
atom -0.2863581475818429 0.1819072140975607 35.0338487045803006 Ba
atom 4.8210499737712720 0.2471814461028167 35.0338487045803006 Ba
atom -0.2210839155765856 5.2893153354506799 35.0338487045803006 Ba
atom 4.6774223388079772 5.1456877004873895 35.0338487045803006 Ba
atom 2.4804850102572868 2.4820422487580829 32.5349852255558005 Zr
atom 7.4846954255005853 2.4441187746535151 32.5349852255558005 Zr
atom 2.4425615361527111 7.4862526640013920 32.5349852255558005 Zr
atom 7.4442654966471133 7.4458227351479076 32.5349852255558005 Zr
atom 2.4872311092531394 2.4794473550070548 37.5499775035117125 Zr
atom 7.4872903192516018 2.4373726756576564 37.5499775035117125 Zr
atom 2.4451564299037418 7.4795065650055284 37.5499775035117125 Zr
atom 7.4510115956429539 7.4432278413968715 37.5499775035117125 Zr
atom 2.7487603561551670 2.8128702967340358 30.0257426991373464 S
atom 7.1538673775246275 2.1758434287556376 30.0257426991373464 S
atom 2.1117334881767733 7.2179773181035030 30.0257426991373464 S
atom 7.7125408425449633 7.7766507831238467 30.0257426991373464 S
atom 2.2170118437576543 2.1510674201743121 35.0365304209609789 S
atom 7.8156702540843597 2.7075919411531499 35.0365304209609789 S
atom 2.7735363647364908 7.7497258305010126 35.0365304209609789 S
atom 7.1807923301474652 7.1148479065641164 35.0365304209609789 S
atom 2.8886629003660058 -0.0207523117734560 32.2080325990433636 S
atom 7.1176967567462226 -0.0574697036754073 32.8497339588064676 S
atom 2.0755628673983617 4.9846641856724592 32.8497339588064676 S
atom 7.8524433867558008 4.9430281746163631 32.2080325990433636 S
atom 2.8908195650063555 -0.0227654893603576 37.8547316817474098 S
atom 7.1174690840758075 -0.0594726935452842 37.2174882324935155 S
atom 2.0753351947279235 4.9826611958025939 37.2174882324935155 S
atom 7.8546000513961776 4.9410149970294563 37.8547316817474098 S
atom -0.0184243897055686 2.1142942875028359 32.2080325990433494 S
atom 4.9820734885862095 2.8490409175124367 32.8497339588064676 S
atom -0.0600604007616694 7.8911748068603016 32.8497339588064676 S
atom 4.9453560966842645 7.0780747738926637 32.2080325990433494 S
atom -0.0164112121186670 2.1121376228624773 37.8547316817474098 S
atom 4.9840764784560747 2.8492685901828838 37.2174882324935155 S
atom -0.0580574108917926 7.8914024795307389 37.2174882324935155 S
atom 4.9473692742711561 7.0759181092523047 37.8547316817474098 S
atom 0.2865243358914103 -0.1840274264564536 40.0394109417067909 Ba
atom 5.1869846143252953 -0.3257010373704360 40.0394109417067909 Ba
atom 0.1448507249774288 4.7164328519774310 40.0394109417067909 Ba
atom 5.2503048222812234 4.7797530599333591 40.0394109417067909 Ba
atom -0.2701269822484649 0.1875708369431198 45.0202190662676429 Ba
atom 4.8153863509257331 0.2309502807694387 45.0202190662676429 Ba
atom -0.2267475384221453 5.2730841701173139 45.0202190662676429 Ba
atom 4.6936535041413476 5.1513513233329382 45.0202190662676429 Ba
atom 2.4729059353006964 2.4864763392258937 42.5681732706756932 Zr
atom 7.4802613350327576 2.4516978496100998 42.5681732706756932 Zr
atom 2.4381274456848914 7.4938317389579661 42.5681732706756932 Zr
atom 7.4366864216905002 7.4502568256157122 42.5681732706756932 Zr
atom 2.4843015975295146 2.4702035391676871 47.6261815842437457 Zr
atom 7.4965341350909780 2.4403021873812754 47.6261815842437457 Zr
atom 2.4544002457430953 7.4824360767291402 47.6261815842437457 Zr
atom 7.4480820839193269 7.4339840255575025 47.6261815842437457 Zr
atom 2.7444372709553413 2.8076105149051922 40.0476503724712174 S
atom 7.1591271593534609 2.1801665139554425 40.0476503724712174 S
atom 2.1169932700055996 7.2223004033033318 40.0476503724712174 S
atom 7.7082177573451558 7.7713910012950089 40.0476503724712174 S
atom 2.2349307871835076 2.1870978625988218 45.0623564073197471 S
atom 7.7796398116598366 2.6896729977272802 45.0623564073197471 S
atom 2.7375059223119749 7.7318068870751482 45.0623564073197471 S
atom 7.1987112735733128 7.1508783489886509 45.0623564073197471 S
atom 2.8990775675388503 -0.0189362567790911 42.2383314748891578 S
atom 7.1133969987498080 -0.0553384637659504 42.8544989354118755 S
atom 2.0712631094019409 4.9867954255819171 42.8544989354118755 S
atom 7.8628580539286812 4.9448442296107284 42.2383314748891578 S
atom 2.8089620405582370 -0.0159560318154651 47.7798931843528010 S
atom 7.1743678617564068 -0.0525017476312843 47.2716357345667504 S
atom 2.1322339724085246 4.9896321417165961 47.2716357345667504 S
atom 7.7727425269480639 4.9478244545743468 47.7798931843528010 S
atom -0.0202404446999336 2.1038796203299857 42.2383314748891578 S
atom 4.9799422486767400 2.8533406755088513 42.8544989354118755 S
atom -0.0621916406711265 7.8954745648567206 42.8544989354118755 S
atom 4.9435400416898787 7.0676601067197939 42.2383314748891578 S
atom -0.0232206696635595 2.1939951473105963 47.7798931843528010 S
atom 4.9771055325420743 2.7923698125022693 47.2716357345667504 S
atom -0.0650283568057925 7.8345037018501298 47.2716357345667504 S
atom 4.9405598167262639 7.1577756337004130 47.7798931843528010 S
atom 0.1048061243888646 -0.1839965902828973 49.8162011066985428 Ba
atom 5.1869537781517261 -0.1439828258678900 49.8162011066985428 Ba
atom 0.1448198888038717 4.8981510634799834 49.8162011066985428 Ba
atom 5.0685866107786772 4.7797838961069310 49.8162011066985428 Ba
atom 2.6063322941529643 2.6894645701605384 50.1340317333199437 S
atom 7.2772731040981089 2.3182714907578226 50.1340317333199437 S
atom 2.2351392147502462 7.3604053801056901 50.1340317333199437 S
atom 7.5701127805427699 7.6532450565503449 50.1340317333199437 S
atom 2.6659277500159342 2.3770674586409966 53.2462205251291749 Ba
atom 7.5896702156176694 2.2586760348948509 53.2462205251291749 Ba
atom 2.5475363262697943 7.3008099242427242 53.2462205251291749 Ba
atom 7.6297082364057651 7.3408479450308199 53.2462205251291749 Ba
atom 2.2944795304879841 2.7518894276652470 58.0421879446089974 Ba
atom 7.2148482465934283 2.6301242544228147 58.0421879446089974 Ba
atom 2.1727143572455612 7.6722581437706801 58.0421879446089974 Ba
atom 7.2582600168778066 7.7156699140550637 58.0421879446089974 Ba
atom 4.9755647256016706 4.9612809243092402 55.4362353050067043 Zr
atom 9.9692372363392696 4.9128195456989312 55.4362353050067043 Zr
atom 4.9271033469913821 9.9549534350467805 55.4362353050067043 Zr
atom 9.9393452119914905 9.9250614106990422 55.4362353050067043 Zr
atom 4.9593565849801990 4.9726240013945029 60.4942439828227236 Zr
atom 9.9578941592539731 4.9290276863204268 60.4942439828227378 Zr
atom 4.9157602699061149 9.9711615756682921 60.4942439828227378 Zr
atom 9.9231370713700304 9.9364044877843245 60.4942439828227236 Zr
atom 4.7562838298554357 4.8392900876562246 52.9283918902187338 S
atom 10.0912280729922674 5.1321004414451750 52.9283918902187338 S
atom 5.0490941836443763 10.1742343307930270 52.9283918902187338 S
atom 9.7200643162452831 9.8030705740460338 52.9283918902187338 S
atom 5.2587074636082169 5.2106312565919461 58.0000636138766126 S
atom 9.7198869040565370 4.6296768076924080 58.0000636138766126 S
atom 4.6777530147086654 9.6718106970402644 58.0000636138766126 S
atom 10.2224879499980581 10.1744117429817944 58.0000636138766126 S
atom 4.6534405396822160 2.4684731709303356 55.7907514641484568 S
atom 10.2938456375266920 2.4266700507689931 55.2825491419445214 S
atom 5.2517117481788222 7.4688039401168593 55.2825491419445214 S
atom 9.6172210260720057 7.4322536573201470 55.7907514641484568 S
atom 4.5925029766529768 2.4655639931961653 60.2079077800633797 S
atom 10.3841208697219365 2.4236125539319415 60.8241004995325909 S
atom 5.3419869803740658 7.4657464432798140 60.8241004995325909 S
atom 9.5562834630428029 7.4293444795859918 60.2079077800633797 S
atom 2.4561306139804553 5.3132971345764766 55.7907514641484568 S
atom 7.4617142205316265 4.6366725231217947 55.2825491419445214 S
atom 2.4195803311837456 9.6788064124696600 55.2825491419445214 S
atom 7.4199111003702791 10.2770776209662866 55.7907514641484568 S
atom 2.4590397917146425 5.3742346976057140 60.2079077800633797 S
atom 7.4647717173686852 4.5463972909265671 60.8241004995325909 S
atom 2.4226378280208047 9.5885311802744315 60.8241004995325909 S
atom 7.4228202781044441 10.3380151839955268 60.2079077800633797 S
atom 2.6661256619333509 2.1952023875588065 63.0230091748785668 Ba
atom 7.7715352866998613 2.2584781229774533 63.0230091748785668 Ba
atom 2.7294013973519817 7.3006120123253222 63.0230091748785668 Ba
atom 7.6299061483231521 7.1589828739486219 63.0230091748785668 Ba
atom 2.3002592063364506 2.7679595456110340 68.0285216122998548 Ba
atom 7.1987781286476249 2.6243445785743433 68.0285216122998548 Ba
atom 2.1566442392997516 7.6664784679222082 68.0285216122998548 Ba
atom 7.2640396927262714 7.7317400320008529 68.0285216122998548 Ba
atom 4.9664396989835282 4.9582342899056906 65.5124308013883336 Zr
atom 9.9722838707428227 4.9219445723170843 65.5124308013883336 Zr
atom 4.9301499813949068 9.9640784616649452 65.5124308013883336 Zr
atom 9.9302201853733578 9.9220147762955282 65.5124308013883336 Zr
atom 4.9639844018618025 4.9648329038163457 70.5273938334096613 Zr
atom 9.9656852568321241 4.9243998694388047 70.5273938334096613 Zr
atom 4.9235513674842659 9.9665337587866780 70.5273938334096613 Zr
atom 9.9277648882516125 9.9286133902061859 70.5273938334096613 Zr
atom 4.6382594716820478 4.7010337221741931 63.0147571198346839 S
atom 10.2294844384743033 5.2501247996185754 63.0147571198346839 S
atom 5.1873505491264114 10.2922586889664363 63.0147571198346839 S
atom 9.6020399580718880 9.6648142085639996 63.0147571198346839 S
atom 5.2948993301830809 5.2283757432375495 68.0258506358540984 S
atom 9.7021424174109452 4.5934849411175387 68.0258506358540984 S
atom 4.6600085280630505 9.6356188304654076 68.0258506358540984 S
atom 10.2586798165729149 10.1921562296273507 68.0258506358540984 S
atom 4.5966918593635997 2.4613656280679890 65.8449104736890973 S
atom 10.3758609563472408 2.4197252720229150 65.2076636490917423 S
atom 5.3337270669993808 7.4618591613707768 65.2076636490917423 S
atom 9.5604723457534142 7.4251461144578004 65.8449104736890973 S
atom 4.5969506457619289 2.4632592025207494 70.2126141603425680 S
atom 10.3738533807352464 2.4216161669219973 70.8543364330617464 S
atom 5.3317194913873633 7.4637500562698627 70.8543364330617464 S
atom 9.5607311321517621 7.4270396889105701 70.2126141603425680 S
atom 2.4632381568428117 5.3700458148950663 65.8449104736890973 S
atom 7.4686589992777215 4.5546572043012388 65.2076636490917423 S
atom 2.4265251099298308 9.5967910936491201 65.2076636490917423 S
atom 7.4270186432326257 10.3338263012849065 65.8449104736890973 S
atom 2.4613445823900446 5.3697870284967451 70.2126141603425680 S
atom 7.4667681043786187 4.5566647799132136 70.8543364330617464 S
atom 2.4246342150307476 9.5987986692610789 70.8543364330617464 S
atom 7.4251250687798533 10.3335675148865302 70.2126141603425680 S
atom 2.6647107909977064 2.1935176082600902 73.0369713215986422 Ba
atom 7.7732200659985704 2.2598929939130854 73.0369713215986422 Ba
atom 2.7310861766506958 7.3020268832609529 73.0369713215986422 Ba
atom 7.6284912773875231 7.1572980946498976 73.0369713215986422 Ba
atom 2.3009557510313181 2.7685819611362650 78.0472258153086642 Ba
atom 7.1981557131223965 2.6236480338794768 78.0472258153086642 Ba
atom 2.1560218237745272 7.6657819232273390 78.0472258153086642 Ba
atom 7.2647362374211459 7.7323624475260928 78.0472258153086642 Ba
atom 4.9648472111522679 4.9623475627861442 75.5407417327530055 Zr
atom 9.9681705978623292 4.9235370601483437 75.5407417327530055 Zr
atom 4.9260367085144718 9.9656709494962410 75.5407417327530055 Zr
atom 9.9286276975420815 9.9261280491759454 75.5407417327530055 Zr
atom 4.9648472111522679 4.9623475627861442 80.5537098978641382 Zr
atom 9.9681705978623292 4.9235370601483437 80.5537098978641382 Zr
atom 4.9260367085144718 9.9656709494962410 80.5537098978641382 Zr
atom 9.9286276975420815 9.9261280491759454 80.5537098978641382 Zr
atom 4.6331656022287602 4.6965414259313150 73.0366257184031298 S
atom 10.2339767347171886 5.2552186690718408 73.0366257184031298 S
atom 5.1918428453692940 10.2973525584197159 73.0366257184031298 S
atom 9.5969460886186031 9.6603219123211073 73.0366257184031298 S
atom 5.2964247888603113 5.2294309313989888 78.0472258153086642 S
atom 9.7010872292495094 4.5919594824403047 78.0472258153086642 S
atom 4.6589533399016041 9.6340933717881292 78.0472258153086642 S
atom 10.2602052752501525 10.1932114177887865 78.0472258153086642 S
atom 4.5975378845934536 2.4624618175721542 75.8639627768341711 S
atom 10.3742360162246676 2.4208235635099156 75.2211492471173386 S
atom 5.3321021268767961 7.4629574528577853 75.2211492471173386 S
atom 9.5613183709832512 7.4262423039619696 75.8639627768341711 S
atom 4.5975378845934536 2.4624618175721542 80.2304888537831857 S
atom 10.3742360162246676 2.4208235635099156 80.8733023834999187 S
atom 5.3321021268767961 7.4629574528577853 80.8733023834999187 S
atom 9.5613183709832512 7.4262423039619696 80.2304888537831857 S
atom 2.4621419673386313 5.3691997896652293 75.8639627768341711 S
atom 7.4675607077907005 4.5562821444238182 75.2211492471173386 S
atom 2.4254268184428178 9.5984160337716791 75.2211492471173386 S
atom 7.4259224537284574 10.3329802760550198 75.8639627768341711 S
atom 2.4621419673386313 5.3691997896652293 80.2304888537831857 S
atom 7.4675607077907005 4.5562821444238182 80.8733023834999187 S
atom 2.4254268184428178 9.5984160337716791 80.8733023834999187 S
atom 7.4259224537284574 10.3329802760550198 80.2304888537831857 S
atom 2.6647107909977064 2.1935176082600902 83.0574803090186293 Ba
atom 7.7732200659985704 2.2598929939130854 83.0574803090186293 Ba
atom 2.7310861766506958 7.3020268832609529 83.0574803090186293 Ba
atom 7.6284912773875231 7.1572980946498976 83.0574803090186293 Ba
atom 2.3002592063364506 2.7679595456110340 88.0659300183174309 Ba
atom 7.1987781286476249 2.6243445785743433 88.0659300183174309 Ba
atom 2.1566442392997516 7.6664784679222082 88.0659300183174309 Ba
atom 7.2640396927262714 7.7317400320008529 88.0659300183174309 Ba
atom 4.9639844018618025 4.9648329038163457 85.5670577972077524 Zr
atom 9.9656852568321241 4.9243998694388047 85.5670577972077524 Zr
atom 4.9235513674842659 9.9665337587866780 85.5670577972077524 Zr
atom 9.9277648882516125 9.9286133902061859 85.5670577972077524 Zr
atom 4.9664396989835282 4.9582342899056906 90.5820208292291511 Zr
atom 9.9722838707428227 4.9219445723170843 90.5820208292291511 Zr
atom 4.9301499813949068 9.9640784616649452 90.5820208292291511 Zr
atom 9.9302201853733578 9.9220147762955282 90.5820208292291511 Zr
atom 4.6331656022287602 4.6965414259313150 83.0578259122143123 S
atom 10.2339767347171886 5.2552186690718408 83.0578259122143123 S
atom 5.1918428453692940 10.2973525584197159 83.0578259122143123 S
atom 9.5969460886186031 9.6603219123211073 83.0578259122143123 S
atom 5.2948993301830809 5.2283757432375495 88.0686009947633437 S
atom 9.7021424174109452 4.5934849411175387 88.0686009947633437 S
atom 4.6600085280630505 9.6356188304654076 88.0686009947633437 S
atom 10.2586798165729149 10.1921562296273507 88.0686009947633437 S
atom 4.5969506457619289 2.4632592025207494 85.8818374702746894 S
atom 10.3738533807352464 2.4216161669219973 85.2401151975557383 S
atom 5.3317194913873633 7.4637500562698627 85.2401151975557383 S
atom 9.5607311321517621 7.4270396889105701 85.8818374702746894 S
atom 4.5966918593635997 2.4613656280679890 90.2495411569285295 S
atom 10.3758609563472408 2.4197252720229150 90.8867879815258419 S
atom 5.3337270669993808 7.4618591613707768 90.8867879815258419 S
atom 9.5604723457534142 7.4251461144578004 90.2495411569285295 S
atom 2.4613445823900446 5.3697870284967451 85.8818374702746894 S
atom 7.4667681043786187 4.5566647799132118 85.2401151975557383 S
atom 2.4246342150307476 9.5987986692610789 85.2401151975557383 S
atom 7.4251250687798533 10.3335675148865302 85.8818374702746894 S
atom 2.4632381568428117 5.3700458148950663 90.2495411569285295 S
atom 7.4686589992777215 4.5546572043012388 90.8867879815258419 S
atom 2.4265251099298308 9.5967910936491201 90.8867879815258419 S
atom 7.4270186432326257 10.3338263012849065 90.2495411569285295 S
atom 2.6661256619333509 2.1952023875588065 93.0714424557387616 Ba
atom 7.7715352866998613 2.2584781229774533 93.0714424557387616 Ba
atom 2.7294013973519817 7.3006120123253222 93.0714424557387616 Ba
atom 7.6299061483231521 7.1589828739486219 93.0714424557387616 Ba
atom 2.2944795304879833 2.7518894276652470 98.0522636860085584 Ba
atom 7.2148482465934283 2.6301242544228156 98.0522636860085584 Ba
atom 2.1727143572455612 7.6722581437706801 98.0522636860085584 Ba
atom 7.2582600168778066 7.7156699140550637 98.0522636860085584 Ba
atom 4.9593565849801990 4.9726240013945029 95.6002076477946616 Zr
atom 9.9578941592539731 4.9290276863204268 95.6002076477946616 Zr
atom 4.9157602699061149 9.9711615756682921 95.6002076477946616 Zr
atom 9.9231370713700304 9.9364044877843245 95.6002076477946616 Zr
atom 4.9755647256016706 4.9612809243092402 100.6582163256109084 Zr
atom 9.9692372363392696 4.9128195456989312 100.6582163256109084 Zr
atom 4.9271033469913821 9.9549534350467805 100.6582163256109084 Zr
atom 9.9393452119914905 9.9250614106990422 100.6582163256109084 Zr
atom 4.6382594716820478 4.7010337221741931 93.0796945107827725 S
atom 10.2294844384743033 5.2501247996185754 93.0796945107827725 S
atom 5.1873505491264114 10.2922586889664363 93.0796945107827725 S
atom 9.6020399580718880 9.6648142085639996 93.0796945107827725 S
atom 5.2587074636082169 5.2106312565919461 98.0943880167408651 S
atom 9.7198869040565370 4.6296768076924080 98.0943880167408651 S
atom 4.6777530147086654 9.6718106970402644 98.0943880167408651 S
atom 10.2224879499980581 10.1744117429817944 98.0943880167408651 S
atom 4.5925029766529768 2.4655639931961653 95.8865438505540197 S
atom 10.3841208697219365 2.4236125539319415 95.2703511310850502 S
atom 5.3419869803740658 7.4657464432798140 95.2703511310850502 S
atom 9.5562834630428029 7.4293444795859918 95.8865438505540197 S
atom 4.6534405396822160 2.4684731709303356 100.3037001664689853 S
atom 10.2938456375266920 2.4266700507689931 100.8119024886728994 S
atom 5.2517117481788222 7.4688039401168593 100.8119024886728994 S
atom 9.6172210260720057 7.4322536573201470 100.3037001664689853 S
atom 2.4590397917146425 5.3742346976057140 95.8865438505540197 S
atom 7.4647717173686852 4.5463972909265671 95.2703511310850502 S
atom 2.4226378280208047 9.5885311802744315 95.2703511310850502 S
atom 7.4228202781044441 10.3380151839955268 95.8865438505540197 S
atom 2.4561306139804553 5.3132971345764766 100.3037001664689853 S
atom 7.4617142205316265 4.6366725231217947 100.8119024886728994 S
atom 2.4195803311837456 9.6788064124696600 100.8119024886728994 S
atom 7.4199111003702791 10.2770776209662866 100.3037001664689853 S
atom 2.6659277500159342 2.3770674586409966 102.8482311054880682 Ba
atom 7.5896702156176694 2.2586760348948509 102.8482311054880682 Ba
atom 2.5475363262697943 7.3008099242427242 102.8482311054880682 Ba
atom 7.6297082364057651 7.3408479450308199 102.8482311054880682 Ba
atom 4.7562838298554357 4.8392900876562246 103.1660597403987083 S
atom 10.0912280729922674 5.1321004414451750 103.1660597403987083 S
atom 5.0490941836443763 10.1742343307930270 103.1660597403987083 S
atom 9.7200643162452831 9.8030705740460338 103.1660597403987083 S
