#=======================================================
# FHI-aims file: sym_relax/sym_relax_RP_6_Rx00_0Ry0.in
# Created using the Atomic Simulation Environment (ASE)
# Fri Mar 14 11:00:21 2025
#=======================================================
lattice_vector 10.0866503572991153 -0.0000000000000004 -0.0000000000000000 
lattice_vector -0.0000000000000004 10.0866503572991153 0.0000000000000000 
lattice_vector -0.0000000000000000 0.0000000000000000 64.9830805238353690 
atom -0.1539900013723577 0.0000000000000000 0.2808741108850780 Ba
atom 5.1973151800219144 -0.0000000000000000 0.2808741108850780 Ba
atom 0.1539900013723576 5.0433251786495568 0.2808741108850780 Ba
atom 4.8893351772771947 5.0433251786495568 0.2808741108850780 Ba
atom 0.0280893983066905 -0.0000000000000000 4.9454320124532067 Ba
atom 5.0152357803428638 0.0000000000000000 4.9454320124532067 Ba
atom -0.0280893983066905 5.0433251786495568 4.9454320124532050 Ba
atom 5.0714145769562462 5.0433251786495568 4.9454320124532050 Ba
atom 2.5216625893247784 2.5089919973455825 2.3209556449661815 Zr
atom 7.5649877679743316 2.5343331813039720 2.3209556449661815 Zr
atom 2.5216625893247784 7.5776583599535172 2.3209556449661815 Zr
atom 7.5649877679743316 7.5523171759951415 2.3209556449661815 Zr
atom 2.5216625893247784 2.5205156945061868 7.3320188454761945 Zr
atom 7.5649877679743316 2.5228094841433619 7.3320188454761945 Zr
atom 2.5216625893247784 7.5661346627929156 7.3320188454761945 Zr
atom 7.5649877679743316 7.5638408731557423 7.3320188454761945 Zr
atom 2.5216625893247784 2.8764450844298839 -0.1598907355960988 S
atom 7.5649877679743316 2.1668800942196693 -0.1598907355960988 S
atom 2.5216625893247784 7.2102052728692199 -0.1598907355960988 S
atom 7.5649877679743316 7.9197702630794309 -0.1598907355960988 S
atom 2.5216625893247784 2.0478099976296633 4.8624081193328372 S
atom 7.5649877679743316 2.9955151810198890 4.8624081193328372 S
atom 2.5216625893247784 8.0388403596694467 4.8624081193328372 S
atom 7.5649877679743316 7.0911351762792227 4.8624081193328372 S
atom 2.5216625893247784 0.0000000000000000 2.0053386477516839 S
atom 7.5649877679743316 0.0000000000000000 2.7981592888468514 S
atom 2.5216625893247784 5.0433251786495568 2.7981592888468514 S
atom 7.5649877679743316 5.0433251786495568 2.0053386477516839 S
atom 2.5216625893247784 0.0000000000000000 7.8101786235933348 S
atom 7.5649877679743316 0.0000000000000000 6.8754074975323602 S
atom 2.5216625893247784 5.0433251786495568 6.8754074975323602 S
atom 7.5649877679743316 5.0433251786495568 7.8101786235933348 S
atom -0.0000000000000000 2.5216625893247784 2.4560506767736596 S
atom 5.0433251786495568 2.5216625893247784 2.4560506767736596 S
atom 0.0000000000000000 7.5649877679743316 2.4560506767736596 S
atom 5.0433251786495568 7.5649877679743316 2.4560506767736596 S
atom 0.0000000000000000 2.5216625893247784 7.3487287839796078 S
atom 5.0433251786495568 2.5216625893247784 7.3487287839796078 S
atom 0.0000000000000000 7.5649877679743316 7.3487287839796078 S
atom 5.0433251786495568 7.5649877679743316 7.3487287839796078 S
atom -0.0081728279781147 0.0000000000000000 9.8362500170778215 Ba
atom 5.0514980066276696 -0.0000000000000000 9.8362500170778215 Ba
atom 0.0081728279781147 5.0433251786495568 9.8362500170778180 Ba
atom 5.0351523506714386 5.0433251786495568 9.8362500170778180 Ba
atom 0.0085267790970054 0.0000000000000000 14.7688819372353173 Ba
atom 5.0347983995525487 0.0000000000000000 14.7688819372353173 Ba
atom -0.0085267790970054 5.0433251786495568 14.7688819372353173 Ba
atom 5.0518519577465595 5.0433251786495568 14.7688819372353173 Ba
atom 2.5216625893247784 2.5228854276170241 12.2903270323483458 Zr
atom 7.5649877679743316 2.5204397510325283 12.2903270323483458 Zr
atom 2.5216625893247784 7.5637649296820904 12.2903270323483458 Zr
atom 7.5649877679743316 7.5662106062665808 12.2903270323483458 Zr
atom 2.5216625893247784 2.5228854276170241 17.2474368421222799 Zr
atom 7.5649877679743316 2.5204397510325283 17.2474368421222799 Zr
atom 2.5216625893247784 7.5637649296820904 17.2474368421222799 Zr
atom 7.5649877679743316 7.5662106062665808 17.2474368421222799 Zr
atom 2.5216625893247784 3.0299134032696160 9.8172096742880530 S
atom 7.5649877679743316 2.0134117753799359 9.8172096742880530 S
atom 2.5216625893247784 7.0567369540294891 9.8172096742880530 S
atom 7.5649877679743316 8.0732385819191723 9.8172096742880530 S
atom 2.5216625893247784 2.0126312189971385 14.7688819372353173 S
atom 7.5649877679743316 3.0306939596524161 14.7688819372353173 S
atom 2.5216625893247784 8.0740191383019599 14.7688819372353173 S
atom 7.5649877679743316 7.0559563976466890 14.7688819372353173 S
atom 2.5216625893247784 0.0000000000000000 11.8182332606815486 S
atom 7.5649877679743316 0.0000000000000000 12.7742593988873985 S
atom 2.5216625893247784 5.0433251786495568 12.7742593988873985 S
atom 7.5649877679743316 5.0433251786495568 11.8182332606815486 S
atom 2.5216625893247784 0.0000000000000000 17.7195306137890896 S
atom 7.5649877679743316 0.0000000000000000 16.7635044755832325 S
atom 2.5216625893247784 5.0433251786495568 16.7635044755832325 S
atom 7.5649877679743316 5.0433251786495568 17.7195306137890896 S
atom -0.0000000000000000 2.5216625893247784 12.2962774296642188 S
atom 5.0433251786495568 2.5216625893247784 12.2962774296642188 S
atom 0.0000000000000000 7.5649877679743316 12.2962774296642188 S
atom 5.0433251786495568 7.5649877679743316 12.2962774296642188 S
atom 0.0000000000000000 2.5216625893247784 17.2414864448064016 S
atom 5.0433251786495568 2.5216625893247784 17.2414864448064016 S
atom 0.0000000000000000 7.5649877679743316 17.2414864448064016 S
atom 5.0433251786495568 7.5649877679743316 17.2414864448064016 S
atom -0.0081728279781147 0.0000000000000000 19.7015138573928503 Ba
atom 5.0514980066276696 0.0000000000000000 19.7015138573928503 Ba
atom 0.0081728279781147 5.0433251786495568 19.7015138573928432 Ba
atom 5.0351523506714386 5.0433251786495568 19.7015138573928432 Ba
atom 0.0280893983066905 -0.0000000000000000 24.5923318620174278 Ba
atom 5.0152357803428638 0.0000000000000000 24.5923318620174278 Ba
atom -0.0280893983066905 5.0433251786495568 24.5923318620174278 Ba
atom 5.0714145769562462 5.0433251786495568 24.5923318620174278 Ba
atom 2.5216625893247784 2.5205156945061868 22.2057450289944569 Zr
atom 7.5649877679743316 2.5228094841433619 22.2057450289944569 Zr
atom 2.5216625893247784 7.5661346627929156 22.2057450289944569 Zr
atom 7.5649877679743316 7.5638408731557423 22.2057450289944569 Zr
atom 2.5216625893247784 2.5089919973455825 27.2168082295044194 Zr
atom 7.5649877679743316 2.5343331813039720 27.2168082295044194 Zr
atom 2.5216625893247784 7.5776583599535172 27.2168082295044194 Zr
atom 7.5649877679743316 7.5523171759951415 27.2168082295044194 Zr
atom 2.5216625893247784 3.0299134032696160 19.7205542001825833 S
atom 7.5649877679743316 2.0134117753799359 19.7205542001825833 S
atom 2.5216625893247784 7.0567369540294891 19.7205542001825833 S
atom 7.5649877679743316 8.0732385819191723 19.7205542001825833 S
atom 2.5216625893247784 2.0478099976296633 24.6753557551377938 S
atom 7.5649877679743316 2.9955151810198890 24.6753557551377973 S
atom 2.5216625893247784 8.0388403596694467 24.6753557551377973 S
atom 7.5649877679743316 7.0911351762792227 24.6753557551377938 S
atom 2.5216625893247784 0.0000000000000000 21.7275852508772971 S
atom 7.5649877679743316 0.0000000000000000 22.6623563769382770 S
atom 2.5216625893247784 5.0433251786495568 22.6623563769382770 S
atom 7.5649877679743316 5.0433251786495568 21.7275852508772971 S
atom 2.5216625893247784 0.0000000000000000 27.5324252267189244 S
atom 7.5649877679743316 0.0000000000000000 26.7396045856237770 S
atom 2.5216625893247784 5.0433251786495568 26.7396045856237770 S
atom 7.5649877679743316 5.0433251786495568 27.5324252267189244 S
atom 0.0000000000000000 2.5216625893247784 22.1890350904910214 S
atom 5.0433251786495568 2.5216625893247784 22.1890350904910214 S
atom 0.0000000000000000 7.5649877679743316 22.1890350904910214 S
atom 5.0433251786495568 7.5649877679743316 22.1890350904910214 S
atom 0.0000000000000000 2.5216625893247784 27.0817131976969563 S
atom 5.0433251786495568 2.5216625893247784 27.0817131976969563 S
atom 0.0000000000000000 7.5649877679743316 27.0817131976969563 S
atom 5.0433251786495568 7.5649877679743316 27.0817131976969563 S
atom -0.1539900013723577 0.0000000000000000 29.2568897635855656 Ba
atom 5.1973151800219144 -0.0000000000000000 29.2568897635855656 Ba
atom 0.1539900013723576 5.0433251786495568 29.2568897635855656 Ba
atom 4.8893351772771947 5.0433251786495568 29.2568897635855656 Ba
atom 2.5216625893247784 2.8764450844298839 29.6976546100667385 S
atom 7.5649877679743316 2.1668800942196693 29.6976546100667385 S
atom 2.5216625893247784 7.2102052728692199 29.6976546100667385 S
atom 7.5649877679743316 7.9197702630794309 29.6976546100667385 S
atom 2.5216625893247784 2.3676725879524159 32.7724143728028068 Ba
atom 7.5649877679743316 2.6756525906971356 32.7724143728028068 Ba
atom 2.5216625893247784 7.7189777693466901 32.7724143728028068 Ba
atom 7.5649877679743316 7.4109977666019722 32.7724143728028068 Ba
atom 2.5216625893247784 2.5497519876314687 37.4369722743709161 Ba
atom 7.5649877679743316 2.4935731910180854 37.4369722743709161 Ba
atom 2.5216625893247784 7.5368983696676430 37.4369722743709161 Ba
atom 7.5649877679743316 7.5930771662810184 37.4369722743709161 Ba
atom 5.0306545866703614 5.0433251786495568 34.8124959068838535 Zr
atom 10.0993209492783134 5.0433251786495568 34.8124959068838535 Zr
atom 5.0559957706287362 10.0866503572991135 34.8124959068838535 Zr
atom 10.0739797653199226 10.0866503572991135 34.8124959068838535 Zr
atom 5.0421782838309639 5.0433251786495568 39.8235591073938409 Zr
atom 10.0877972521176993 5.0433251786495568 39.8235591073938409 Zr
atom 5.0444720734681381 10.0866503572991135 39.8235591073938409 Zr
atom 10.0855034624805135 10.0866503572991135 39.8235591073938409 Zr
atom 5.3981076737546658 5.0433251786495568 32.3316495263215913 S
atom 9.7318678621940098 5.0433251786495568 32.3316495263215913 S
atom 4.6885426835444477 10.0866503572991135 32.3316495263215913 S
atom 10.4414328524042155 10.0866503572991135 32.3316495263215913 S
atom 4.5694725869544452 5.0433251786495568 37.3539483812505182 S
atom 10.5605029489942179 5.0433251786495568 37.3539483812505182 S
atom 5.5171777703446567 10.0866503572991135 37.3539483812505182 S
atom 9.6127977656039878 10.0866503572991135 37.3539483812505182 S
atom 5.0433251786495568 2.5216625893247784 34.9475909386913628 S
atom 10.0866503572991135 2.5216625893247784 34.9475909386913628 S
atom 5.0433251786495568 7.5649877679743316 34.9475909386913628 S
atom 10.0866503572991135 7.5649877679743316 34.9475909386913628 S
atom 5.0433251786495568 2.5216625893247784 39.8402690458972799 S
atom 10.0866503572991135 2.5216625893247784 39.8402690458972799 S
atom 5.0433251786495568 7.5649877679743316 39.8402690458972799 S
atom 10.0866503572991135 7.5649877679743316 39.8402690458972799 S
atom 2.5216625893247784 5.0433251786495568 34.4968789096693556 S
atom 7.5649877679743316 5.0433251786495568 35.2896995507645528 S
atom 2.5216625893247784 10.0866503572991135 35.2896995507645528 S
atom 7.5649877679743316 10.0866503572991135 34.4968789096693556 S
atom 2.5216625893247784 5.0433251786495568 40.3017188855109723 S
atom 7.5649877679743316 5.0433251786495568 39.3669477594500847 S
atom 2.5216625893247784 10.0866503572991135 39.3669477594500847 S
atom 7.5649877679743316 10.0866503572991135 40.3017188855109723 S
atom 2.5216625893247784 2.5134897613466620 42.3277902789955291 Ba
atom 7.5649877679743316 2.5298354173028916 42.3277902789955291 Ba
atom 2.5216625893247784 7.5731605959524426 42.3277902789955291 Ba
atom 7.5649877679743316 7.5568149399962117 42.3277902789955291 Ba
atom 2.5216625893247784 2.5301893684217820 47.2604221991529982 Ba
atom 7.5649877679743316 2.5131358102277734 47.2604221991529982 Ba
atom 2.5216625893247784 7.5564609888773200 47.2604221991529982 Ba
atom 7.5649877679743316 7.5735145470713352 47.2604221991529982 Ba
atom 5.0445480169417980 5.0433251786495568 44.7818672942660214 Zr
atom 10.0854275190068616 5.0433251786495568 44.7818672942660214 Zr
atom 5.0421023403573093 10.0866503572991135 44.7818672942660214 Zr
atom 10.0878731955913423 10.0866503572991135 44.7818672942660214 Zr
atom 5.0445480169417980 5.0433251786495568 49.7389771040400177 Zr
atom 10.0854275190068616 5.0433251786495568 49.7389771040400177 Zr
atom 5.0421023403573093 10.0866503572991135 49.7389771040400177 Zr
atom 10.0878731955913423 10.0866503572991135 49.7389771040400177 Zr
atom 5.5515759925943886 5.0433251786495568 42.3087499362057500 S
atom 9.5783995433542728 5.0433251786495568 42.3087499362057500 S
atom 4.5350743647047107 10.0866503572991135 42.3087499362057500 S
atom 10.5949011712439578 10.0866503572991135 42.3087499362057500 S
atom 4.5342938083219133 5.0433251786495568 47.2604221991529982 S
atom 10.5956817276267419 5.0433251786495568 47.2604221991529982 S
atom 5.5523565489771967 10.0866503572991135 47.2604221991529982 S
atom 9.5776189869714692 10.0866503572991135 47.2604221991529982 S
atom 5.0433251786495568 2.5216625893247784 44.7878176915818855 S
atom 10.0866503572991135 2.5216625893247784 44.7878176915818855 S
atom 5.0433251786495568 7.5649877679743316 44.7878176915818855 S
atom 10.0866503572991135 7.5649877679743316 44.7878176915818855 S
atom 5.0433251786495568 2.5216625893247784 49.7330267067240968 S
atom 10.0866503572991135 2.5216625893247784 49.7330267067240968 S
atom 5.0433251786495568 7.5649877679743316 49.7330267067240968 S
atom 10.0866503572991135 7.5649877679743316 49.7330267067240968 S
atom 2.5216625893247784 5.0433251786495568 44.3097735225992722 S
atom 7.5649877679743316 5.0433251786495568 45.2657996608050439 S
atom 2.5216625893247784 10.0866503572991135 45.2657996608050439 S
atom 7.5649877679743316 10.0866503572991135 44.3097735225992722 S
atom 2.5216625893247784 5.0433251786495568 50.2110708757067528 S
atom 7.5649877679743316 5.0433251786495568 49.2550447375009526 S
atom 2.5216625893247784 10.0866503572991135 49.2550447375009526 S
atom 7.5649877679743316 10.0866503572991135 50.2110708757067528 S
atom 2.5216625893247784 2.5134897613466620 52.1930541193105455 Ba
atom 7.5649877679743316 2.5298354173028916 52.1930541193105455 Ba
atom 2.5216625893247784 7.5731605959524426 52.1930541193105455 Ba
atom 7.5649877679743316 7.5568149399962117 52.1930541193105455 Ba
atom 2.5216625893247784 2.5497519876314687 57.0838721239350875 Ba
atom 7.5649877679743316 2.4935731910180854 57.0838721239350875 Ba
atom 2.5216625893247784 7.5368983696676430 57.0838721239350875 Ba
atom 7.5649877679743316 7.5930771662810184 57.0838721239350875 Ba
atom 5.0421782838309639 5.0433251786495568 54.6972852909121485 Zr
atom 10.0877972521176993 5.0433251786495568 54.6972852909121485 Zr
atom 5.0444720734681381 10.0866503572991135 54.6972852909121485 Zr
atom 10.0855034624805135 10.0866503572991135 54.6972852909121485 Zr
atom 5.0306545866703614 5.0433251786495568 59.7083484914221359 Zr
atom 10.0993209492783134 5.0433251786495568 59.7083484914221359 Zr
atom 5.0559957706287362 10.0866503572991135 59.7083484914221359 Zr
atom 10.0739797653199226 10.0866503572991135 59.7083484914221359 Zr
atom 5.5515759925943886 5.0433251786495568 52.2120944621002963 S
atom 9.5783995433542728 5.0433251786495568 52.2120944621002963 S
atom 4.5350743647047107 10.0866503572991135 52.2120944621002963 S
atom 10.5949011712439578 10.0866503572991135 52.2120944621002963 S
atom 4.5694725869544452 5.0433251786495568 57.1668960170554925 S
atom 10.5605029489942179 5.0433251786495568 57.1668960170554925 S
atom 5.5171777703446567 10.0866503572991135 57.1668960170554925 S
atom 9.6127977656039878 10.0866503572991135 57.1668960170554925 S
atom 5.0433251786495568 2.5216625893247784 54.6805753524087308 S
atom 10.0866503572991135 2.5216625893247784 54.6805753524087308 S
atom 5.0433251786495568 7.5649877679743316 54.6805753524087308 S
atom 10.0866503572991135 7.5649877679743316 54.6805753524087308 S
atom 5.0433251786495568 2.5216625893247784 59.5732534596146550 S
atom 10.0866503572991135 2.5216625893247784 59.5732534596146550 S
atom 5.0433251786495568 7.5649877679743316 59.5732534596146550 S
atom 10.0866503572991135 7.5649877679743316 59.5732534596146550 S
atom 2.5216625893247784 5.0433251786495568 54.2191255127950242 S
atom 7.5649877679743316 5.0433251786495568 55.1538966388559402 S
atom 2.5216625893247784 10.0866503572991135 55.1538966388559402 S
atom 7.5649877679743316 10.0866503572991135 54.2191255127950242 S
atom 2.5216625893247784 5.0433251786495568 60.0239654886366694 S
atom 7.5649877679743316 5.0433251786495568 59.2311448475414508 S
atom 2.5216625893247784 10.0866503572991135 59.2311448475414508 S
atom 7.5649877679743316 10.0866503572991135 60.0239654886366694 S
atom 2.5216625893247784 2.3676725879524159 61.7484300255032323 Ba
atom 7.5649877679743316 2.6756525906971356 61.7484300255032323 Ba
atom 2.5216625893247784 7.7189777693466901 61.7484300255032323 Ba
atom 7.5649877679743316 7.4109977666019722 61.7484300255032323 Ba
atom 5.3981076737546658 5.0433251786495568 62.1891948719844336 S
atom 9.7318678621940098 5.0433251786495568 62.1891948719844336 S
atom 4.6885426835444477 10.0866503572991135 62.1891948719844336 S
atom 10.4414328524042155 10.0866503572991135 62.1891948719844336 S
