#=======================================================
# FHI-aims file: sym_relax/sym_relax_RP_6_00Mz1_00Mz2.in
# Created using the Atomic Simulation Environment (ASE)
# Fri Mar 14 10:59:27 2025
#=======================================================
lattice_vector 9.9094477562829919 0.0000000056349002 0.0000000000000000 
lattice_vector 0.0000000056349002 9.9094477562829759 0.0000000000000000 
lattice_vector 0.0000000000000000 0.0000000000000000 67.1447751465884579 
atom 0.0000000000000000 0.0000000000000000 0.1641455768892917 Ba
atom 4.9547238781414960 0.0000000028174499 0.1641455768892917 Ba
atom 0.0000000028174499 4.9547238781414871 0.1641455768892917 Ba
atom 4.9547238809589453 4.9547238809589382 0.1641455768892917 Ba
atom 0.0000000000000000 0.0000000000000000 5.0666138479336507 Ba
atom 4.9547238781414960 0.0000000028174499 5.0666138479336507 Ba
atom 0.0000000028174499 4.9547238781414871 5.0666138479336507 Ba
atom 4.9547238809589453 4.9547238809589382 5.0666138479336507 Ba
atom 2.4773619404794727 2.4773619404794691 2.4381157468053023 Zr
atom 7.4320858186209584 2.4773619432969185 2.4381157468053023 Zr
atom 2.4773619432969221 7.4320858186209575 2.4381157468053023 Zr
atom 7.4320858214384113 7.4320858214384113 2.4381157468053023 Zr
atom 2.4773619404794727 2.4773619404794691 7.5768126883229812 Zr
atom 7.4320858186209584 2.4773619432969185 7.5768126883229812 Zr
atom 2.4773619432969221 7.4320858186209575 7.5768126883229812 Zr
atom 7.4320858214384113 7.4320858214384113 7.5768126883229812 Zr
atom 2.4773619404794727 2.4773619404794691 -0.1053153993974704 S
atom 7.4320858186209584 2.4773619432969185 -0.1053153993974704 S
atom 2.4773619432969221 7.4320858186209575 -0.1053153993974704 S
atom 7.4320858214384113 7.4320858214384113 -0.1053153993974704 S
atom 2.4773619404794727 2.4773619404794691 5.0375132191786669 S
atom 7.4320858186209584 2.4773619432969185 5.0375132191786669 S
atom 2.4773619432969221 7.4320858186209575 5.0375132191786669 S
atom 7.4320858214384113 7.4320858214384113 5.0375132191786669 S
atom 2.0531341930441505 -0.0000063360749667 2.5303448346029747 S
atom 7.8563135632388166 0.0000063417098665 2.5303448346029747 S
atom 2.9015896879147851 4.9547302170338989 2.5303448346029747 S
atom 7.0078580740031038 4.9547175448839731 2.5303448346029747 S
atom 2.9977453485872170 -0.0000000885012598 7.5899135841646226 S
atom 6.9117024076957581 0.0000000941361596 7.5899135841646226 S
atom 1.9569785323717208 4.9547239694601988 7.5899135841646226 S
atom 7.9524692295461641 4.9547237924576741 7.5899135841646226 S
atom 0.0000063388924166 2.9015896850973295 2.5303448346029747 S
atom 4.9547175420665264 2.0531341958616047 2.5303448346029747 S
atom -0.0000063332575168 7.0078580711856509 2.5303448346029747 S
atom 4.9547302198513563 7.8563135660562695 2.5303448346029747 S
atom 0.0000000913187097 1.9569785295542692 7.5899135841646226 S
atom 4.9547237896402336 2.9977453514046690 7.5899135841646226 S
atom -0.0000000856838098 7.9524692267287067 7.5899135841646226 S
atom 4.9547239722776588 6.9117024105132092 7.5899135841646226 S
atom 0.0000000000000000 0.0000000000000000 10.1545179631723137 Ba
atom 4.9547238781414960 0.0000000028174499 10.1545179631723137 Ba
atom 0.0000000028174499 4.9547238781414871 10.1545179631723137 Ba
atom 4.9547238809589453 4.9547238809589382 10.1545179631723137 Ba
atom 0.0000000000000000 0.0000000000000000 15.2601761696792000 Ba
atom 4.9547238781414960 0.0000000028174499 15.2601761696792000 Ba
atom 0.0000000028174499 4.9547238781414871 15.2601761696792000 Ba
atom 4.9547238809589453 4.9547238809589382 15.2601761696792000 Ba
atom 2.4773619404794727 2.4773619404794691 12.6995848308477033 Zr
atom 7.4320858186209584 2.4773619432969185 12.6995848308477033 Zr
atom 2.4773619432969221 7.4320858186209575 12.6995848308477033 Zr
atom 7.4320858214384113 7.4320858214384113 12.6995848308477033 Zr
atom 2.4773619404794727 2.4773619404794691 17.8207675085106736 Zr
atom 7.4320858186209584 2.4773619432969185 17.8207675085106736 Zr
atom 2.4773619432969221 7.4320858186209575 17.8207675085106736 Zr
atom 7.4320858214384113 7.4320858214384113 17.8207675085106736 Zr
atom 2.4773619404794727 2.4773619404794691 10.1461019082022510 S
atom 7.4320858186209584 2.4773619432969185 10.1461019082022510 S
atom 2.4773619432969221 7.4320858186209575 10.1461019082022510 S
atom 7.4320858214384113 7.4320858214384113 10.1461019082022510 S
atom 2.4773619404794727 2.4773619404794691 15.2601761696792000 S
atom 7.4320858186209584 2.4773619432969185 15.2601761696792000 S
atom 2.4773619432969221 7.4320858186209575 15.2601761696792000 S
atom 7.4320858214384113 7.4320858214384113 15.2601761696792000 S
atom 2.9792641830124880 -0.0000000192189504 12.7070079304812751 S
atom 6.9301835732704999 0.0000000248538503 12.7070079304812751 S
atom 1.9754596979464514 4.9547239001778882 12.7070079304812751 S
atom 7.9339880639714231 4.9547238617399945 12.7070079304812751 S
atom 2.9792641830124880 -0.0000000192189504 17.8133444088771000 S
atom 6.9301835732704999 0.0000000248538503 17.8133444088771000 S
atom 1.9754596979464514 4.9547239001778882 17.8133444088771000 S
atom 7.9339880639714231 4.9547238617399945 17.8133444088771000 S
atom 0.0000000220364003 1.9754596951290002 12.7070079304812751 S
atom 4.9547238589225397 2.9792641858299391 12.7070079304812751 S
atom -0.0000000164015005 7.9339880611539710 12.7070079304812751 S
atom 4.9547239029953474 6.9301835760879422 12.7070079304812751 S
atom 0.0000000220364003 1.9754596951290002 17.8133444088771000 S
atom 4.9547238589225397 2.9792641858299391 17.8133444088771000 S
atom -0.0000000164015005 7.9339880611539710 17.8133444088771000 S
atom 4.9547239029953474 6.9301835760879422 17.8133444088771000 S
atom 0.0000000000000000 0.0000000000000000 20.3658343761860650 Ba
atom 4.9547238781414960 0.0000000028174499 20.3658343761860650 Ba
atom 0.0000000028174499 4.9547238781414871 20.3658343761860650 Ba
atom 4.9547238809589453 4.9547238809589382 20.3658343761860650 Ba
atom 0.0000000000000000 0.0000000000000000 25.4537384914247582 Ba
atom 4.9547238781414960 0.0000000028174499 25.4537384914247582 Ba
atom 0.0000000028174499 4.9547238781414871 25.4537384914247582 Ba
atom 4.9547238809589453 4.9547238809589382 25.4537384914247582 Ba
atom 2.4773619404794727 2.4773619404794691 22.9435396510354330 Zr
atom 7.4320858186209584 2.4773619432969185 22.9435396510354330 Zr
atom 2.4773619432969221 7.4320858186209575 22.9435396510354330 Zr
atom 7.4320858214384113 7.4320858214384113 22.9435396510354330 Zr
atom 2.4773619404794727 2.4773619404794691 28.0822365925531052 Zr
atom 7.4320858186209584 2.4773619432969185 28.0822365925531052 Zr
atom 2.4773619432969221 7.4320858186209575 28.0822365925531052 Zr
atom 7.4320858214384113 7.4320858214384113 28.0822365925531052 Zr
atom 2.4773619404794727 2.4773619404794691 20.3742504311561241 S
atom 7.4320858186209584 2.4773619432969185 20.3742504311561241 S
atom 2.4773619432969221 7.4320858186209575 20.3742504311561241 S
atom 7.4320858214384113 7.4320858214384113 20.3742504311561241 S
atom 2.4773619404794727 2.4773619404794691 25.4828391201796975 S
atom 7.4320858186209584 2.4773619432969185 25.4828391201796975 S
atom 2.4773619432969221 7.4320858186209575 25.4828391201796975 S
atom 7.4320858214384113 7.4320858214384113 25.4828391201796975 S
atom 2.9977453485872170 -0.0000000885012598 22.9304387551937445 S
atom 6.9117024076957581 0.0000000941361596 22.9304387551937445 S
atom 1.9569785323717208 4.9547239694601988 22.9304387551937445 S
atom 7.9524692295461641 4.9547237924576741 22.9304387551937445 S
atom 2.0531341930441505 -0.0000063360749667 27.9900075047554111 S
atom 7.8563135632388166 0.0000063417098665 27.9900075047554111 S
atom 2.9015896879147851 4.9547302170338989 27.9900075047554111 S
atom 7.0078580740031038 4.9547175448839731 27.9900075047554111 S
atom 0.0000000913187097 1.9569785295542692 22.9304387551937445 S
atom 4.9547237896402336 2.9977453514046690 22.9304387551937445 S
atom -0.0000000856838098 7.9524692267287067 22.9304387551937445 S
atom 4.9547239722776588 6.9117024105132092 22.9304387551937445 S
atom 0.0000063388924166 2.9015896850973295 27.9900075047554111 S
atom 4.9547175420665264 2.0531341958616047 27.9900075047554111 S
atom -0.0000063332575168 7.0078580711856509 27.9900075047554111 S
atom 4.9547302198513563 7.8563135660562686 27.9900075047554111 S
atom 0.0000000000000000 0.0000000000000000 30.3562067624691174 Ba
atom 4.9547238781414960 0.0000000028174499 30.3562067624691174 Ba
atom 0.0000000028174499 4.9547238781414871 30.3562067624691174 Ba
atom 4.9547238809589453 4.9547238809589382 30.3562067624691174 Ba
atom 2.4773619404794727 2.4773619404794691 30.6256677387558867 S
atom 7.4320858186209584 2.4773619432969185 30.6256677387558867 S
atom 2.4773619432969221 7.4320858186209575 30.6256677387558867 S
atom 7.4320858214384113 7.4320858214384113 30.6256677387558867 S
atom 2.4773619404794727 2.4773619404794691 33.7365243753184956 Ba
atom 7.4320858186209584 2.4773619432969185 33.7365243753184956 Ba
atom 2.4773619432969221 7.4320858186209575 33.7365243753184956 Ba
atom 7.4320858214384113 7.4320858214384113 33.7365243753184956 Ba
atom 2.4773619404794727 2.4773619404794691 38.6389705945067234 Ba
atom 7.4320858186209584 2.4773619432969185 38.6389705945067234 Ba
atom 2.4773619432969221 7.4320858186209575 38.6389705945067234 Ba
atom 7.4320858214384113 7.4320858214384113 38.6389705945067234 Ba
atom 4.9547238809589453 4.9547238809589382 36.0104864478924114 Zr
atom 9.9094477591004502 4.9547238837763867 36.0104864478924114 Zr
atom 4.9547238837763876 9.9094477591004164 36.0104864478924114 Zr
atom 9.9094477619178907 9.9094477619178765 36.0104864478924114 Zr
atom 4.9547238809589453 4.9547238809589382 41.1492039636072917 Zr
atom 9.9094477591004502 4.9547238837763867 41.1492039636072917 Zr
atom 4.9547238837763876 9.9094477591004164 41.1492039636072917 Zr
atom 9.9094477619178907 9.9094477619178765 41.1492039636072917 Zr
atom 4.9547238809589453 4.9547238809589382 33.4670566545810928 S
atom 9.9094477591004502 4.9547238837763867 33.4670566545810928 S
atom 4.9547238837763876 9.9094477591004164 33.4670566545810928 S
atom 9.9094477619178907 9.9094477619178765 33.4670566545810928 S
atom 4.9547238809589453 4.9547238809589382 38.6098959435875528 S
atom 9.9094477591004502 4.9547238837763867 38.6098959435875528 S
atom 4.9547238837763876 9.9094477591004164 38.6098959435875528 S
atom 9.9094477619178907 9.9094477619178765 38.6098959435875528 S
atom 4.5305262696413715 2.4773535241232914 36.1027079273024185 S
atom 10.3336453676005569 2.4773703624705496 36.1027079273024185 S
atom 5.3789214922765112 7.4320942377945896 36.1027079273024185 S
atom 9.4852501506002938 7.4320774050822305 36.1027079273024185 S
atom 5.4751766053862134 2.4773620464693966 41.1623031407443776 S
atom 9.3889950318557123 2.4773618401244439 41.1623031407443776 S
atom 4.4342711565316710 7.4320857154484683 41.1623031407443776 S
atom 10.4299004863451348 7.4320859274283384 41.1623031407443776 S
atom 2.4773703596531007 5.3789214894590547 36.1027079273024185 S
atom 7.4320774022647784 4.5305262724588271 36.1027079273024185 S
atom 2.4773535269407385 9.4852501477828639 36.1027079273024185 S
atom 7.4320942406120425 10.3336453704179991 36.1027079273024185 S
atom 2.4773618373069928 4.4342711537142234 41.1623031407443776 S
atom 7.4320859246108828 5.4751766082036575 41.1623031407443776 S
atom 2.4773620492868473 10.4299004835276925 41.1623031407443776 S
atom 7.4320857182659292 9.3889950346731492 41.1623031407443776 S
atom 2.4773619404794727 2.4773619404794691 43.7269563101417731 Ba
atom 7.4320858186209584 2.4773619432969185 43.7269563101417731 Ba
atom 2.4773619432969221 7.4320858186209575 43.7269563101417731 Ba
atom 7.4320858214384113 7.4320858214384113 43.7269563101417731 Ba
atom 2.4773619404794727 2.4773619404794691 48.8325637429734556 Ba
atom 7.4320858186209584 2.4773619432969185 48.8325637429734556 Ba
atom 2.4773619432969221 7.4320858186209575 48.8325637429734556 Ba
atom 7.4320858214384113 7.4320858214384113 48.8325637429734556 Ba
atom 4.9547238809589453 4.9547238809589382 46.2719875527715487 Zr
atom 9.9094477591004502 4.9547238837763867 46.2719875527715487 Zr
atom 4.9547238837763876 9.9094477591004164 46.2719875527715487 Zr
atom 9.9094477619178907 9.9094477619178765 46.2719875527715487 Zr
atom 4.9547238809589453 4.9547238809589382 51.3931399331753411 Zr
atom 9.9094477591004502 4.9547238837763867 51.3931399331753411 Zr
atom 4.9547238837763876 9.9094477591004164 51.3931399331753411 Zr
atom 9.9094477619178907 9.9094477619178765 51.3931399331753411 Zr
atom 4.9547238809589453 4.9547238809589382 43.7184968055128707 S
atom 9.9094477591004502 4.9547238837763867 43.7184968055128707 S
atom 4.9547238837763876 9.9094477591004164 43.7184968055128707 S
atom 9.9094477619178907 9.9094477619178765 43.7184968055128707 S
atom 4.9547238809589453 4.9547238809589382 48.8325637429734556 S
atom 9.9094477591004502 4.9547238837763867 48.8325637429734556 S
atom 4.9547238837763876 9.9094477591004164 48.8325637429734556 S
atom 9.9094477619178907 9.9094477619178765 48.8325637429734556 S
atom 5.4565668706988024 2.4773619401291680 46.2794255293477406 S
atom 9.4076047665431020 2.4773619464646690 46.2794255293477406 S
atom 4.4528808912190856 7.4320858217887116 46.2794255293477406 S
atom 10.4112907516577309 7.4320858210881040 46.2794255293477406 S
atom 5.4565668706988024 2.4773619401291680 51.3857019565990356 S
atom 9.4076047665431020 2.4773619464646690 51.3857019565990356 S
atom 4.4528808912190856 7.4320858217887116 51.3857019565990356 S
atom 10.4112907516577309 7.4320858210881040 51.3857019565990356 S
atom 2.4773619436472236 4.4528808884016327 46.2794255293477406 S
atom 7.4320858182706537 5.4565668735162456 46.2794255293477406 S
atom 2.4773619429466209 10.4112907488402868 46.2794255293477406 S
atom 7.4320858246061539 9.4076047693605691 46.2794255293477406 S
atom 2.4773619436472236 4.4528808884016327 51.3857019565990356 S
atom 7.4320858182706537 5.4565668735162456 51.3857019565990356 S
atom 2.4773619429466209 10.4112907488402868 51.3857019565990356 S
atom 7.4320858246061539 9.4076047693605691 51.3857019565990356 S
atom 2.4773619404794727 2.4773619404794691 53.9381711758050884 Ba
atom 7.4320858186209584 2.4773619432969185 53.9381711758050884 Ba
atom 2.4773619432969221 7.4320858186209575 53.9381711758050884 Ba
atom 7.4320858214384113 7.4320858214384113 53.9381711758050884 Ba
atom 2.4773619404794727 2.4773619404794691 59.0261568914401593 Ba
atom 7.4320858186209584 2.4773619432969185 59.0261568914401593 Ba
atom 2.4773619432969221 7.4320858186209575 59.0261568914401593 Ba
atom 7.4320858214384113 7.4320858214384113 59.0261568914401593 Ba
atom 4.9547238809589453 4.9547238809589382 56.5159235223396337 Zr
atom 9.9094477591004502 4.9547238837763867 56.5159235223396337 Zr
atom 4.9547238837763876 9.9094477591004164 56.5159235223396337 Zr
atom 9.9094477619178907 9.9094477619178765 56.5159235223396337 Zr
atom 4.9547238809589453 4.9547238809589382 61.6546410380544359 Zr
atom 9.9094477591004502 4.9547238837763867 61.6546410380544359 Zr
atom 4.9547238837763876 9.9094477591004164 61.6546410380544359 Zr
atom 9.9094477619178907 9.9094477619178765 61.6546410380544359 Zr
atom 4.9547238809589453 4.9547238809589382 53.9466306804338984 S
atom 9.9094477591004502 4.9547238837763867 53.9466306804338984 S
atom 4.9547238837763876 9.9094477591004164 53.9466306804338984 S
atom 9.9094477619178907 9.9094477619178765 53.9466306804338984 S
atom 4.9547238809589453 4.9547238809589382 59.0552315423592660 S
atom 9.9094477591004502 4.9547238837763867 59.0552315423592660 S
atom 4.9547238837763876 9.9094477591004164 59.0552315423592660 S
atom 9.9094477619178907 9.9094477619178765 59.0552315423592660 S
atom 5.4751766053862134 2.4773620464693966 56.5028243452024057 S
atom 9.3889950318557123 2.4773618401244439 56.5028243452024057 S
atom 4.4342711565316710 7.4320857154484683 56.5028243452024057 S
atom 10.4299004863451348 7.4320859274283384 56.5028243452024057 S
atom 4.5305262696413715 2.4773535241232914 61.5624195586444145 S
atom 10.3336453676005569 2.4773703624705496 61.5624195586444145 S
atom 5.3789214922765112 7.4320942377945896 61.5624195586444145 S
atom 9.4852501506002938 7.4320774050822305 61.5624195586444145 S
atom 2.4773618373069928 4.4342711537142234 56.5028243452024057 S
atom 7.4320859246108828 5.4751766082036575 56.5028243452024057 S
atom 2.4773620492868473 10.4299004835276925 56.5028243452024057 S
atom 7.4320857182659292 9.3889950346731492 56.5028243452024057 S
atom 2.4773703596531007 5.3789214894590547 61.5624195586444145 S
atom 7.4320774022647784 4.5305262724588271 61.5624195586444145 S
atom 2.4773535269407385 9.4852501477828639 61.5624195586444145 S
atom 7.4320942406120425 10.3336453704179991 61.5624195586444145 S
atom 2.4773619404794727 2.4773619404794691 63.9286031106283730 Ba
atom 7.4320858186209584 2.4773619432969185 63.9286031106283730 Ba
atom 2.4773619432969221 7.4320858186209575 63.9286031106283730 Ba
atom 7.4320858214384113 7.4320858214384113 63.9286031106283730 Ba
atom 4.9547238809589453 4.9547238809589382 64.1980708313656407 S
atom 9.9094477591004502 4.9547238837763867 64.1980708313656407 S
atom 4.9547238837763876 9.9094477591004164 64.1980708313656407 S
atom 9.9094477619178907 9.9094477619178765 64.1980708313656407 S
