#=======================================================
# FHI-aims file: sym_relax/sym_relax_RP_9_Rx0Rz_0Ry0.in
# Created using the Atomic Simulation Environment (ASE)
# Mon Mar 17 16:43:55 2025
#=======================================================
lattice_vector 9.9746490649761554 -0.0000000000000000 0.0114011672464096 
lattice_vector -0.0000000000000000 10.0869158869576108 0.0000000000000000 
lattice_vector 0.1096256004301251 0.0000000000000002 95.6311538120699538 
atom -0.1867396587783677 0.0000000000000000 0.0891355833069825 Ba
atom 5.0535289311240126 -0.0000000000000000 0.0924589608141227 Ba
atom 0.0662043986359256 5.0434579434788018 0.0867583771909178 Ba
atom 4.8005848737097132 5.0434579434788018 0.0948361669301874 Ba
atom -0.1064782075544873 0.0000000000000000 4.7814961507045322 Ba
atom 4.8254772415303115 0.0000000000000000 4.7520481280563223 Ba
atom -0.1618472909577779 5.0434579434788018 4.7463475444331191 Ba
atom 4.8808463249335947 5.0434579434788018 4.7871967343277406 Ba
atom 2.4296889561517818 2.5188927935693459 2.1548919567618996 Zr
atom 7.4170134886398715 2.5245651499094590 2.1605925403851018 Zr
atom 2.4296889561517809 7.5680230933882573 2.1548919567618987 Zr
atom 7.4170134886398715 7.5623507370481349 2.1605925403851018 Zr
atom 2.4530300027443857 2.5045666996271447 7.2289409403248763 Zr
atom 7.4403545352324727 2.5388912438516553 7.2346415239480892 Zr
atom 2.4530300027443857 7.5823491873304540 7.2289409403248763 Zr
atom 7.4403545352324727 7.5480246431059586 7.2346415239480892 Zr
atom 2.4374402982890677 2.8315441084736164 -0.3335158609277029 S
atom 7.4247648307771685 2.2119138350051806 -0.3278152773044978 S
atom 2.4374402982890677 7.2553717784839824 -0.3335158609277030 S
atom 7.4247648307771685 7.8750020519524240 -0.3278152773044979 S
atom 2.4489477350843063 2.2057284878103998 4.7321486048451646 S
atom 7.4362722675723836 2.8377294556684007 4.7378491884683651 S
atom 2.4489477350843063 7.8811873991472083 4.7321486048451629 S
atom 7.4362722675723836 7.2491864312892087 4.7378491884683633 S
atom 2.4293582660503219 0.0000000000000000 1.9505540784916204 S
atom 7.4131186535205256 0.0000000000000000 2.5767527763389859 S
atom 2.4257941210324518 5.0434579434788018 2.5710521927157863 S
atom 7.4166827985384156 5.0434579434788018 1.9562546621148218 S
atom 2.9148541858016639 0.0000000000000000 7.4937806787650185 S
atom 7.0402102645491276 0.0000000000000000 7.0076889110568672 S
atom 2.0528857320610414 5.0434579434788018 7.0019883274336614 S
atom 7.9021787182897514 5.0434579434788018 7.4994812623882208 S
atom -0.0615580929299631 2.5264603132508903 2.2740526529688840 S
atom 4.9257664395581227 2.5169976302279076 2.2797532365920929 S
atom -0.0615580929299631 7.5604555737067018 2.2740526529688823 S
atom 4.9257664395581227 7.5699182567296948 2.2797532365920938 S
atom -0.0343252820966475 2.0696288389796469 7.2515352420521042 S
atom 4.9529992503914348 2.9738291044991616 7.2572358256753091 S
atom -0.0343252820966475 8.0172870479779537 7.2515352420521042 S
atom 4.9529992503914348 7.1130867824584429 7.2572358256753109 S
atom -0.0629249626738407 0.0000000000000000 9.7623183317382356 Ba
atom 5.0788429167426150 0.0000000000000000 9.7921272356742772 Ba
atom 0.0915183842545274 5.0434579434788018 9.7864266520510839 Ba
atom 4.9243995698142449 5.0434579434788018 9.7680189153614183 Ba
atom 0.0942881633397577 0.0000000000000000 14.8271605067342112 Ba
atom 4.9418293480058839 0.0000000000000000 14.8237250523451110 Ba
atom -0.0454951844821990 5.0434579434788018 14.8180244687219105 Ba
atom 5.0816126958278476 5.0434579434788018 14.8328610903574205 Ba
atom 2.5021601223583740 2.5256430437352950 12.2855905758687918 Zr
atom 7.4894846548464633 2.5178148997434988 12.2912911594920082 Zr
atom 2.5021601223583740 7.5612728432223006 12.2855905758687882 Zr
atom 7.4894846548464633 7.5691009872141031 12.2912911594920047 Zr
atom 2.5128537576658116 2.5207533780940663 17.3504707565290346 Zr
atom 7.5001782901538752 2.5227045653847298 17.3561713401522510 Zr
atom 2.5128537576658116 7.5661625088635347 17.3504707565290346 Zr
atom 7.5001782901538769 7.5642113215728681 17.3561713401522510 Zr
atom 2.4726339617488953 2.7465848922120801 9.7689667561669129 S
atom 7.4599584942369681 2.2968730512667199 9.7746673397901258 S
atom 2.4726339617488944 7.3403309947455186 9.7689667561669129 S
atom 7.4599584942369663 7.7900428356908824 9.7746673397901365 S
atom 2.4972341383949237 2.3563757100004974 14.8243752883322397 S
atom 7.4845586708830103 2.6870822334783009 14.8300758719554615 S
atom 2.4972341383949228 7.7305401769570921 14.8243752883322397 S
atom 7.4845586708830103 7.3998336534793108 14.8300758719554580 S
atom 2.0451018722083960 0.0000000000000000 12.1441162530082902 S
atom 7.9541672692246905 0.0000000000000000 12.4629179062655506 S
atom 2.9668427367366039 5.0434579434788018 12.4572173226423573 S
atom 7.0324264046964835 5.0434579434788018 12.1498168366315209 S
atom 2.9856313231271643 0.0000000000000000 17.4805246945838100 S
atom 7.0283804754833792 0.0000000000000000 17.2384516079353283 S
atom 2.0410559429952944 5.0434579434788018 17.2327510243121438 S
atom 7.9729558556152478 5.0434579434788018 17.4862252782070051 S
atom 0.0025579987304217 3.0037632141566610 12.3000431877715872 S
atom 4.9898825312185044 2.0396947293221404 12.3057437713948019 S
atom 0.0025579987304217 7.0831526728009404 12.3000431877715872 S
atom 4.9898825312185044 8.0472211576354624 12.3057437713947966 S
atom 0.0164429099325160 2.0292156173207596 17.3529279070274249 S
atom 5.0037674424205907 3.0142423261580440 17.3586284906506130 S
atom 0.0164429099325160 8.0577002696368432 17.3529279070274320 S
atom 5.0037674424205907 7.0726735607995614 17.3586284906506130 S
atom -0.0386259727411774 0.0000000000000000 19.8772382779821655 Ba
atom 5.0762401504175294 0.0000000000000000 19.8926936773417289 Ba
atom 0.0889156179294394 5.0434579434788018 19.8869930937184733 Ba
atom 4.9486985597469184 5.0434579434788018 19.8829388616053855 Ba
atom 0.0900129729427983 0.0000000000000000 24.9498650714255703 Ba
atom 4.9497959147602701 0.0000000000000000 24.9458108393124043 Ba
atom -0.0375286177278181 5.0434579434788018 24.9401102556892305 Ba
atom 5.0773375054308838 5.0434579434788018 24.9555656550487583 Ba
atom 2.5193557663448511 2.5217289717394009 22.4164019665154370 Zr
atom 7.5066802988329391 2.5217289717394009 22.4221025501386748 Zr
atom 2.5193557663448511 7.5651869152181961 22.4164019665154370 Zr
atom 7.5066802988329391 7.5651869152181961 22.4221025501386748 Zr
atom 2.5258577750238937 2.5227045653847320 27.4823331765018395 Zr
atom 7.5131823075119808 2.5207533780940699 27.4880337601250915 Zr
atom 2.5258577750238937 7.5642113215728664 27.4823331765018466 Zr
atom 7.5131823075119808 7.5661625088635356 27.4880337601250915 Zr
atom 2.5129558263811664 2.6665976155582021 19.8853629561035312 S
atom 7.5002803588692490 2.3768603279206038 19.8910635397267583 S
atom 2.5129558263811651 7.4203182713993945 19.8853629561035348 S
atom 7.5002803588692499 7.7100555590370066 19.8910635397267512 S
atom 2.5257557063085372 2.3768603279206046 24.9474409769274139 S
atom 7.5130802387966398 2.6665976155582038 24.9531415605506410 S
atom 2.5257557063085381 7.7100555590370048 24.9474409769274068 S
atom 7.5130802387966380 7.4203182713993945 24.9531415605506410 S
atom 2.0444430957800148 0.0000000000000000 22.3003811010622996 S
atom 7.9815929693977852 0.0000000000000000 22.5381234155918193 S
atom 2.9942684369096932 5.0434579434788018 22.5324228319686490 S
atom 7.0317676282680850 5.0434579434788018 22.3060816846854415 S
atom 2.9976555896944159 0.0000000000000000 27.6000529087187587 S
atom 7.0404047420506339 0.0000000000000000 27.3579798220703019 S
atom 2.0530802095625482 5.0434579434788018 27.3522792384471174 S
atom 7.9849801221825194 5.0434579434788018 27.6057534923419645 S
atom 0.0256935001008110 3.0164908326257902 22.4135516747038750 S
atom 5.0130180325888984 2.0269671108530152 22.4192522583270311 S
atom 0.0256935001008110 7.0704250543318148 22.4135516747038750 S
atom 5.0130180325888984 8.0599487761045836 22.4192522583270311 S
atom 0.0349440902691051 2.0292156173207587 27.4741754423802824 S
atom 5.0222686227572142 3.0142423261580436 27.4798760260034918 S
atom 0.0349440902691051 8.0577002696368432 27.4741754423802824 S
atom 5.0222686227572142 7.0726735607995614 27.4798760260034953 S
atom -0.0429011631381368 0.0000000000000001 29.9999428426734802 Ba
atom 5.0842067171719050 0.0000000000000000 30.0147794643090755 Ba
atom 0.0968821846838212 5.0434579434788018 30.0090788806858200 Ba
atom 4.9444233693499537 5.0434579434788018 30.0056434262966505 Ba
atom 0.1143119628754617 0.0000000000000001 35.0647850176695144 Ba
atom 4.9471931484351845 0.0000000000000001 35.0463772809798400 Ba
atom -0.0401313840529052 5.0434579434788018 35.0406766973565524 Ba
atom 5.1016364953635414 5.0434579434788018 35.0704856012926527 Ba
atom 2.5365514103313260 2.5178148997434997 32.5472133571620930 Zr
atom 7.5238759428194353 2.5256430437352959 32.5529139407853165 Zr
atom 2.5365514103313260 7.5691009872141031 32.5472133571620930 Zr
atom 7.5238759428194353 7.5612728432223024 32.5529139407853165 Zr
atom 2.5856815299453273 2.5388912438516580 37.6038629927060342 Zr
atom 7.5730060624334081 2.5045666996271465 37.6095635763292222 Zr
atom 2.5856815299453277 7.5480246431059612 37.6038629927060342 Zr
atom 7.5730060624334063 7.5823491873304540 37.6095635763292151 Zr
atom 2.5414773942947821 2.6870822334783018 30.0084286446986326 S
atom 7.5288019267828785 2.3563757100004965 30.0141292283218419 S
atom 2.5414773942947830 7.3998336534793108 30.0084286446986255 S
atom 7.5288019267828785 7.7305401769570921 30.0141292283218348 S
atom 2.5660775709408057 2.2968730512667199 35.0638371768638990 S
atom 7.5534021034289127 2.7465848922120801 35.0695377604872007 S
atom 2.5660775709408057 7.7900428356908824 35.0638371768639061 S
atom 7.5534021034289127 7.3403309947455186 35.0695377604872007 S
atom 2.0718687959530935 0.0000000000000001 32.3755866103886021 S
atom 7.9809341929693955 0.0000000000000001 32.6943882636458198 S
atom 2.9936096604813085 5.0434579434788018 32.6886876800226034 S
atom 7.0591933284411930 5.0434579434788018 32.3812871940118470 S
atom 2.9858258006286635 0.0000000000000001 37.8308156055973157 S
atom 7.1111818793761277 0.0000000000000001 37.3447238378890347 S
atom 2.1238573468880593 5.0434579434788018 37.3390232542659177 S
atom 7.9731503331167568 5.0434579434788018 37.8365161892205251 S
atom 0.0488290014712003 3.0037632141566619 32.5270601616360224 S
atom 5.0361535339592880 2.0396947293221404 32.5327607452592176 S
atom 0.0488290014712004 7.0831526728009404 32.5270601616360509 S
atom 5.0361535339592880 8.0472211576354695 32.5327607452592176 S
atom 0.0857122822982696 2.0696288389796460 37.5755681073555579 S
atom 5.0730368147863603 2.9738291044991594 37.5812686909788738 S
atom 0.0857122822982696 8.0172870479779572 37.5755681073555579 S
atom 5.0730368147863603 7.1130867824584429 37.5812686909788738 S
atom 0.1578652077561083 0.0000000000000001 40.0456071987032090 Ba
atom 5.2005588236474818 0.0000000000000001 40.0864563885977390 Ba
atom 0.2132342911593988 5.0434579434788018 40.0807558049745225 Ba
atom 5.1451897402441933 5.0434579434788018 40.0513077823263473 Ba
atom 0.2381266589799896 0.0000000000000001 44.7379677661007733 Ba
atom 4.9725071340537808 0.0000000000000001 44.7460455558399985 Ba
atom -0.0148173984343036 5.0434579434788018 44.7403449722168318 Ba
atom 5.2254511914680819 5.0434579434788018 44.7436683497240182 Ba
atom 2.6090225765379254 2.5245651499094590 42.6779119762689092 Zr
atom 7.5963471090260146 2.5188927935693481 42.6836125598921967 Zr
atom 2.6090225765379254 7.5623507370481375 42.6779119762689092 Zr
atom 7.5963471090260146 7.5680230933882626 42.6836125598921967 Zr
atom 2.5897637976053960 2.8377294556684007 40.1006553281857947 S
atom 7.5770883300934955 2.2057284878103998 40.1063559118089685 S
atom 2.5897637976053960 7.2491864312892123 40.1006553281857876 S
atom 7.5770883300934955 7.8811873991472110 40.1063559118089756 S
atom 2.6012712344006439 2.2119138350051815 45.1663197939585714 S
atom 7.5885957668887301 2.8315441084736181 45.1720203775817453 S
atom 2.6012712344006439 7.8750020519524240 45.1663197939585714 S
atom 7.5885957668887301 7.2553717784839824 45.1720203775817453 S
atom 2.6129174116572553 0.0000000000000001 42.2617517403151126 S
atom 7.5966777991274723 0.0000000000000001 42.8879504381624983 S
atom 2.6093532666393879 5.0434579434788018 42.8822498545392747 S
atom 7.6002419441453526 5.0434579434788018 42.2674523239383362 S
atom 0.1129450931315843 2.5264603132508894 42.5530506964388309 S
atom 5.1002696256196778 2.5169976302279076 42.5587512800620047 S
atom 0.1129450931315843 7.5604555737067018 42.5530506964388309 S
atom 5.1002696256196778 7.5699182567296930 42.5587512800620047 S
atom 2.5995722099142378 2.6663472277025928 48.2467089204221793 Ba
atom 7.5868967424023230 2.3771107157762055 48.2524095040455165 Ba
atom 2.5995722099142378 7.4205686592550055 48.2467089204221793 Ba
atom 7.5868967424023230 7.7098051711814026 48.2524095040455023 Ba
atom 2.5940971790916181 2.5011600844117110 52.9294380940912959 Ba
atom 7.5814217115797318 2.5422978590670935 52.9351386777145407 Ba
atom 2.5940971790916181 7.5857558025459007 52.9294380940912959 Ba
atom 7.5814217115797318 7.5446180278905182 52.9351386777145407 Ba
atom 5.1018974100241437 5.0434579434788018 50.3135354904417014 Zr
atom 10.0671656173702218 5.0434579434788018 50.3202074412717337 Zr
atom 5.0798410848821369 10.0869158869576037 50.3145068576485812 Zr
atom 10.0892219425122516 10.0869158869576037 50.3192360740648823 Zr
atom 5.0863668287359109 5.0434579434788018 55.3338322237045901 Zr
atom 10.0710903832109633 5.0434579434788018 55.3399785311667074 Zr
atom 5.0837658507229007 10.0869158869576037 55.3342779475435194 Zr
atom 10.0736913612239665 10.0869158869576037 55.3395328073277710 Zr
atom 4.7517164294490790 5.0434579434788018 47.8228427352324559 S
atom 10.4229530219903364 5.0434579434788018 47.8303498481762759 S
atom 5.4356284895022524 10.0869158869576037 47.8246492645531021 S
atom 9.7390409619371212 10.0869158869576037 47.8285433188557221 S
atom 5.5609274130787485 5.0434579434788018 52.8578939958711089 S
atom 9.6020929802073240 5.0434579434788018 52.8627388177297632 S
atom 4.6147684477192277 10.0869158869576037 52.8570382341067599 S
atom 10.5482519455668395 10.0869158869576037 52.8635945794943822 S
atom 5.0907067546092746 2.5217670051107679 50.4419918657537210 S
atom 10.0780312870973496 2.5216909383680326 50.4476924493769303 S
atom 5.0907067546092746 7.5651488818468309 50.4419918657537210 S
atom 10.0780312870973496 7.5652249485895808 50.4476924493769232 S
atom 5.0850179386565291 2.5217200388228957 55.3485984514951141 S
atom 10.0723424711446210 2.5217379046559136 55.3542990351183093 S
atom 5.0850179386565273 7.5651958481347084 55.3485984514950999 S
atom 10.0723424711446210 7.5651779823016891 55.3542990351183093 S
atom 2.5966890685257193 5.0434579434788018 50.7979716497648042 S
atom 7.5849061056407221 5.0434579434788018 49.9802611501969238 S
atom 2.5975815731526328 10.0869158869576037 49.9745605665737358 S
atom 7.5840136010138055 10.0869158869576037 50.8036722333880135 S
atom 2.5918972225748753 5.0434579434788018 54.8526288638558555 S
atom 7.5781234233269661 5.0434579434788018 55.8348759211710046 S
atom 2.5907988908388631 10.0869158869576037 55.8291753375478876 S
atom 7.5792217550629637 10.0869158869576037 54.8583294474790506 S
atom 2.5884921845500375 2.5243002989760495 57.8390357461991798 Ba
atom 7.5758167170381228 2.5191576445027484 57.8447363298224602 Ba
atom 2.5884921845500375 7.5626155879815489 57.8390357461991940 Ba
atom 7.5758167170381228 7.5677582424548611 57.8447363298224602 Ba
atom 2.5827300386235912 2.5190130009176901 62.7915784824536942 Ba
atom 7.5700545711116831 2.5244449425611095 62.7972790660769036 Ba
atom 2.5827300386235912 7.5679028860399074 62.7915784824536942 Ba
atom 7.5700545711116831 7.5624709443964973 62.7972790660769036 Ba
atom 5.0776217102738492 5.0434579434788018 60.3024234980115068 Zr
atom 10.0682391631398449 5.0434579434788018 60.3083332476552272 Zr
atom 5.0809146306517725 10.0869158869576037 60.3026326640320249 Zr
atom 10.0649462427619198 10.0869158869576037 60.3081240816346877 Zr
atom 5.0738872640613106 5.0434579434788018 65.2692154661109782 Zr
atom 10.0605566787348017 5.0434579434788018 65.2749932430765796 Zr
atom 5.0732321462467214 10.0869158869576037 65.2692926594534555 Zr
atom 10.0612117965493724 10.0869158869576037 65.2749160497342729 Zr
atom 4.5752612212405701 5.0434579434788018 57.8236484892845723 S
atom 10.5764247747048241 5.0434579434788018 57.8306433071164392 S
atom 5.5891002422167455 10.0869158869576037 57.8249427234931872 S
atom 9.5625857537286620 10.0869158869576037 57.8293490729077249 S
atom 5.5843565970020048 5.0434579434788018 62.7887151355969380 S
atom 9.5557640973262146 5.0434579434788018 62.7933181370724043 S
atom 4.5684395648381200 10.0869158869576037 62.7876175534492234 S
atom 10.5716811294901092 10.0869158869576037 62.7944157192201189 S
atom 5.0792620713544521 2.5217221121795173 60.3097792886892492 S
atom 10.0665866038425218 2.5217358312992935 60.3154798723124230 S
atom 5.0792620713544521 7.5651937747781028 60.3097792886892492 S
atom 10.0665866038425218 7.5651800556583098 60.3154798723124088 S
atom 5.0735609665793202 2.5217296687943453 65.2711667222686884 S
atom 10.0608854990673766 2.5217282746844560 65.2768673058918552 S
atom 5.0735609665793202 7.5651862181632579 65.2711667222687169 S
atom 10.0608854990673766 7.5651876122731547 65.2768673058918552 S
atom 2.5850347429425700 5.0434579434788018 60.8069245716141822 S
atom 7.5735275756832765 5.0434579434788018 59.8150491417253249 S
atom 2.5862030431951659 10.0869158869576037 59.8093485581021156 S
atom 7.5723592754306477 10.0869158869576037 60.8126251552373844 S
atom 2.5804613377995240 5.0434579434788018 64.7686407317788735 S
atom 7.5666397995155661 5.0434579434788018 65.7747085754596839 S
atom 2.5793152670274671 10.0869158869576037 65.7690079918364745 S
atom 7.5677858702876177 10.0869158869576037 64.7743413154020118 S
atom 2.5770426188496827 2.5235609358078683 67.7506534212787699 Ba
atom 7.5643671513377724 2.5198970076709339 67.7563540049020645 Ba
atom 2.5770426188496827 7.5633549511497309 67.7506534212787415 Ba
atom 7.5643671513377706 7.5670188792866684 67.7563540049020929 Ba
atom 2.5712945142701447 2.5198970076709331 72.7133043238219443 Ba
atom 7.5586190467582357 2.5235609358078692 72.7190049074450968 Ba
atom 2.5712945142701447 7.5670188792866666 72.7133043238219159 Ba
atom 7.5586190467582375 7.5633549511497291 72.7190049074450400 Ba
atom 5.0678308328039643 5.0434579434788018 70.2348291643619547 Zr
atom 10.0551553652920482 5.0434579434788018 70.2405297479852919 Zr
atom 5.0678308328039643 10.0869158869576037 70.2348291643619547 Zr
atom 10.0551553652920482 10.0869158869576037 70.2405297479852919 Zr
atom 5.0617744015466153 5.0434579434788018 75.2004428626128743 Zr
atom 10.0497540518492645 5.0434579434788018 75.2060662528939048 Zr
atom 5.0624295193611930 10.0869158869576037 75.2003656692707096 Zr
atom 10.0490989340347010 10.0869158869576037 75.2061434462360126 Zr
atom 4.5617802265919094 5.0434579434788018 67.7520867981323960 S
atom 10.5669490246886859 5.0434579434788018 67.7589647268080597 S
atom 5.5796244922006046 10.0869158869576037 67.7532641431848646 S
atom 9.5491047590800218 10.0869158869576037 67.7577873817556764 S
atom 5.5738814390160032 5.0434579434788018 72.7175715305913997 S
atom 9.5433617058954265 5.0434579434788018 72.7220947691622825 S
atom 4.5560371734073222 10.0869158869576037 72.7163941855390732 S
atom 10.5612059715040711 10.0869158869576037 72.7232721142145948 S
atom 5.0678308328039643 2.5217255544616104 70.2348291643619547 S
atom 10.0551553652920482 2.5217323890171857 70.2405297479852919 S
atom 5.0678308328039643 7.5651903324959937 70.2348291643619547 S
atom 10.0551553652920482 7.5651834979404118 70.2405297479852919 S
atom 5.0621006990286093 2.5217296687943453 75.1984916064551641 S
atom 10.0494252315167092 2.5217282746844560 75.2041921900784018 S
atom 5.0621006990286093 7.5651862181632561 75.1984916064551641 S
atom 10.0494252315167092 7.5651876122731530 75.2041921900784018 S
atom 2.5735962398027183 5.0434579434788018 70.7330106718110159 S
atom 7.5620654258052085 5.0434579434788018 69.7366476569130356 S
atom 2.5747408933171148 10.0869158869576037 69.7309470732898120 S
atom 7.5609207722908129 10.0869158869576037 70.7387112554341684 S
atom 2.5690218660923665 5.0434579434788018 74.6949497532641971 S
atom 7.5552003278084143 5.0434579434788018 75.7010175969451495 S
atom 2.5678757953203148 10.0869158869576037 75.6953170133217554 S
atom 7.5563463985804393 10.0869158869576037 74.7006503368874206 S
atom 2.5656070944962415 2.5244449425611113 77.6723792626468992 Ba
atom 7.5529316269843321 2.5190130009176905 77.6780798462701938 Ba
atom 2.5656070944962424 7.5624709443964973 77.6723792626468992 Ba
atom 7.5529316269843321 7.5679028860399091 77.6780798462701938 Ba
atom 2.5598449485697965 2.5191576445027479 82.6249219989016268 Ba
atom 7.5471694810578898 2.5243002989760512 82.6306225825248362 Ba
atom 2.5598449485697965 7.5677582424548593 82.6249219989016268 Ba
atom 7.5471694810578898 7.5626155879815471 82.6306225825248362 Ba
atom 5.0580399553341042 5.0434579434788018 80.1672348307124452 Zr
atom 10.0420715674442302 5.0434579434788018 80.1727262483150867 Zr
atom 5.0547470349561383 10.0869158869576037 80.1670256646919484 Zr
atom 10.0453644878221766 10.0869158869576037 80.1729354143357540 Zr
atom 5.0492948368720159 5.0434579434788018 85.1358261050192908 Zr
atom 10.0392203473731083 5.0434579434788018 85.1410809648036491 Zr
atom 5.0518958148850119 10.0869158869576037 85.1353803811803118 Zr
atom 10.0366193693600732 10.0869158869576037 85.1415266886424718 Zr
atom 4.5513050686059096 5.0434579434788018 77.6809431931268080 S
atom 10.5545466332578783 5.0434579434788018 77.6877413588978811 S
atom 5.5672221007697926 10.0869158869576037 77.6820407752746434 S
atom 9.5386296010939748 10.0869158869576037 77.6866437767499889 S
atom 5.5604004443673576 5.0434579434788018 82.6460098394392446 S
atom 9.5338859558792830 5.0434579434788018 82.6504161888541375 S
atom 4.5465614233911786 10.0869158869576037 82.6447156052309708 S
atom 10.5477249768554060 10.0869158869576037 82.6517104230625392 S
atom 5.0563995942534756 2.5217221121795173 80.1598790400347525 S
atom 10.0437241267415391 2.5217358312992935 80.1655796236581182 S
atom 5.0563995942534756 7.5651937747781028 80.1598790400347525 S
atom 10.0437241267415391 7.5651800556583089 80.1655796236581182 S
atom 5.0506437269514119 2.5217200388228940 85.1210598772288591 S
atom 10.0379682594394612 2.5217379046559127 85.1267604608519974 S
atom 5.0506437269514137 7.5651958481347084 85.1210598772288591 S
atom 10.0379682594394612 7.5651779823016891 85.1267604608519974 S
atom 2.5621340899246574 5.0434579434788018 80.6546091869986412 S
atom 7.5506269226653577 5.0434579434788018 79.6627337571098622 S
atom 2.5633023901772765 10.0869158869576037 79.6570331734865391 S
atom 7.5494586224127467 10.0869158869576037 80.6603097706218648 S
atom 2.5575382422809692 5.0434579434788018 84.6347824075529473 S
atom 7.5437644430330453 5.0434579434788018 85.6170294648679828 S
atom 2.5564399105449604 10.0869158869576037 85.6113288812449440 S
atom 7.5448627747690438 10.0869158869576037 84.6404829911760146 S
atom 2.5542399540282079 2.5422978590670926 87.5345196510093615 Ba
atom 7.5415644865162923 2.5011600844117128 87.5402202346327556 Ba
atom 2.5542399540282079 7.5446180278905182 87.5345196510093615 Ba
atom 7.5415644865162923 7.5857558025459007 87.5402202346327556 Ba
atom 2.5487649232056002 2.3771107157762037 92.2172488246783786 Ba
atom 7.5360894556936877 2.6663472277025937 92.2229494083016732 Ba
atom 2.5487649232055998 7.7098051711814026 92.2172488246783786 Ba
atom 7.5360894556936877 7.4205686592550055 92.2229494083016732 Ba
atom 5.0337642555837698 5.0434579434788018 90.1561228382823288 Zr
atom 10.0431451132138783 5.0434579434788018 90.1608520546986369 Zr
atom 5.0558205807257828 10.0869158869576037 90.1551514710755129 Zr
atom 10.0210887880718538 10.0869158869576037 90.1618234219056092 Zr
atom 4.5747342525291517 5.0434579434788018 87.6117643328527009 S
atom 10.5082177503767618 5.0434579434788018 87.6183206782402380 S
atom 5.5208932178886965 10.0869158869576037 87.6126200946171281 S
atom 9.5620587850172249 10.0869158869576037 87.6174649164758961 S
atom 5.3839452361588584 5.0434579434788018 92.6468155934914961 S
atom 9.6873577085937566 5.0434579434788018 92.6507096477942156 S
atom 4.7000331761056682 10.0869158869576037 92.6450090641708783 S
atom 10.3712697686469895 10.0869158869576037 92.6525161771147054 S
atom 5.0449549109986425 2.5217670051107679 90.0276664629704158 S
atom 10.0322794434867166 2.5216909383680344 90.0333670465934688 S
atom 5.0449549109986425 7.5651488818468273 90.0276664629704158 S
atom 10.0322794434867166 7.5652249485895773 90.0333670465934688 S
atom 2.5507555599671874 5.0434579434788018 90.4893971785269571 S
atom 7.5389725970822088 5.0434579434788018 89.6716866789591052 S
atom 2.5516480645941080 10.0869158869576037 89.6659860953360095 S
atom 7.5380800924552789 10.0869158869576037 90.4950977621501806 S
