#=======================================================
# FHI-aims file: sym_relax/sym_relax_RP_10_RxRyRz_-Rx-RyRz.in
# Created using the Atomic Simulation Environment (ASE)
# Mon Mar 17 18:41:15 2025
#=======================================================
lattice_vector 9.9302061267381951 -0.0079993659055621 -0.0000000000000000 
lattice_vector -0.0079993659055624 9.9302061267382093 0.0000000000000000 
lattice_vector -0.0000000000000000 0.0000000000000000 107.5864832990657476 
atom 0.0514718515315908 -0.1222088903555822 0.1826435923108831 Ba
atom 5.0873119537246669 -0.0554715344843715 0.1826435923108830 Ba
atom 0.1182092074028014 4.9136312118375205 0.1826435923108831 Ba
atom 5.0125752319478938 4.8388944900607411 0.1826435923108831 Ba
atom -0.2504977176484090 0.1836618251779987 5.0342341948989517 Ba
atom 4.7814412381910829 0.2464980346956283 5.0342341948989517 Ba
atom -0.1876615081307793 5.2156007810175016 5.0342341948989517 Ba
atom 4.7106056627679145 5.1447652055943269 5.0342341948989517 Ba
atom 2.4552699529013315 2.5028500367837476 2.4103115798894090 Zr
atom 7.4233564070016413 2.5018337445622043 2.4103115798894090 Zr
atom 2.4542536606797776 7.4709364908840952 2.4103115798894090 Zr
atom 7.4163733333176287 7.4639534172000914 2.4103115798894090 Zr
atom 2.4105621060888334 2.5154343329510120 7.5154127457482112 Zr
atom 7.4107721108343894 2.5465415913746958 7.5154127457482112 Zr
atom 2.4416693645125220 7.5156443376965809 7.5154127457482112 Zr
atom 7.3716654865051314 7.4765377133673514 7.5154127457482112 Zr
atom 2.5682145732051982 2.6761939179988294 -0.1123034493870201 S
atom 7.2500125257865653 2.3888891242583359 -0.1123034493870201 S
atom 2.2809097794647046 7.3579918705802259 -0.1123034493870201 S
atom 7.5293179536215167 7.6372972984151639 -0.1123034493870201 S
atom 2.2579913185192892 2.3043662324562999 4.9979945686940939 S
atom 7.6218402113290988 2.6991123789442395 4.9979945686940939 S
atom 2.6527374650072351 7.6682151252661255 4.9979945686940939 S
atom 7.2190946989355993 7.2654696128726171 4.9979945686940939 S
atom 2.7996057871465312 0.0298869822488562 2.3054882041745612 S
atom 7.0505818076533879 0.0285488476557829 2.7135569318594195 S
atom 2.0814790613315139 4.9976515939776878 2.7135569318594195 S
atom 7.7607091675628421 4.9909903626651815 2.3054882041745612 S
atom 2.9489089018638754 0.0394089421440398 7.7151217168183148 S
atom 6.9451945485287485 0.0357921773638421 7.3665119281697953 S
atom 1.9760918022068703 5.0048949236857414 7.3665119281697953 S
atom 7.9100122822801788 5.0005123225603683 7.7151217168183148 S
atom -0.0338866652016368 2.1654972762225624 2.3054882041745612 S
atom 4.9285548498077389 2.8756246361320148 2.7135569318594195 S
atom -0.0405478965141278 7.8447273824539057 2.7135569318594195 S
atom 4.9272167152146809 7.1266006566388933 2.3054882041745612 S
atom -0.0434086250968209 2.0161941615052159 7.7151217168183148 S
atom 4.9213115200996791 2.9810118952566658 7.3665119281697953 S
atom -0.0477912262221861 7.9501146415785531 7.3665119281697953 S
atom 4.9176947553195003 6.9772975419215317 7.7151217168183148 S
atom 0.0049691291393310 -0.0797023488788895 10.0805646475045396 Ba
atom 5.0448054122479746 -0.0089688120921122 10.0805646475045396 Ba
atom 0.0757026659261084 4.9601339342297850 10.0805646475045396 Ba
atom 4.9660725095556435 4.8814010315374423 10.0805646475045396 Ba
atom 0.0449733682872153 0.0052937546147159 15.1736441216200486 Ba
atom 4.9598093087543722 -0.0489730512399966 15.1736441216200486 Ba
atom -0.0092934375674968 4.9201296950818936 15.1736441216200486 Ba
atom 5.0060767487035225 4.9663971350310412 15.1736441216200486 Ba
atom 2.4888877459711525 2.4826169845633141 12.6126944876224734 Zr
atom 7.4435894592220757 2.4682159514923794 12.6126944876224734 Zr
atom 2.4744867129002150 7.4373186978142698 12.6126944876224734 Zr
atom 7.4499911263874621 7.4437203649796473 12.6126944876224734 Zr
atom 2.4823876446312143 2.4787126181067078 17.7171507337258447 Zr
atom 7.4474938256786931 2.4747160528323184 17.7171507337258447 Zr
atom 2.4783910793568245 7.4438187991542142 17.7171507337258447 Zr
atom 7.4434910250475301 7.4398159985230290 17.7171507337258447 Zr
atom 2.5579140115881747 2.6360997365786232 10.0769635447881765 S
atom 7.2901067072067800 2.3991896858753554 10.0769635447881765 S
atom 2.3210039608849033 7.3682924321972560 10.0769635447881765 S
atom 7.5190173920044785 7.5972031169949465 10.0769635447881765 S
atom 2.4254624935446158 2.4531907585850559 15.1728943331770925 S
atom 7.4730156852003464 2.5316412039189164 15.1728943331770925 S
atom 2.5039129388784809 7.5007439502408015 15.1728943331770925 S
atom 7.3865658739609517 7.4142941390013757 15.1728943331770925 S
atom 1.9779570153868911 0.0018937786755367 12.5737814443974596 S
atom 7.9813002860296116 -0.0009816577164866 12.6845427986623527 S
atom 3.0121975397077541 4.9681210886054084 12.6845427986623527 S
atom 6.9390603958032004 4.9629971590918691 12.5737814443974596 S
atom 3.0082320602542949 0.0001492282439837 17.7454968159319897 S
atom 6.9229749050274005 -0.0041029411389139 17.7049003797526261 S
atom 1.9538721587055350 4.9649998051829751 17.7049003797526261 S
atom 7.9693354406706005 4.9612526086603097 17.7454968159319897 S
atom -0.0058934616283176 2.9871460479822050 12.5737814443974596 S
atom 4.9580853551800113 1.9449061577557740 12.6845427986623527 S
atom -0.0110173911418582 6.9140089040776811 12.6845427986623527 S
atom 4.9552099187879870 7.9482494283985332 12.5737814443974596 S
atom -0.0041489111967648 1.9568710031148024 17.7454968159319897 S
atom 4.9612066386024347 3.0032315387579946 17.7049003797526261 S
atom -0.0078961077194302 7.9723342850798842 17.7049003797526261 S
atom 4.9569544692195295 6.9179743835311305 17.7454968159319897 S
atom -0.0051816567222949 -0.0132162311994531 20.2733503735642309 Ba
atom 4.9783192945685535 0.0011819737695138 20.2733503735642309 Ba
atom 0.0092165482466721 4.9702847200913958 20.2733503735642309 Ba
atom 4.9559217236940221 4.9478871492168590 20.2733503735642309 Ba
atom 0.0069693731684108 0.0069693731684108 25.3741705894023468 Ba
atom 4.9581336902006834 -0.0109690561211920 25.3741705894023468 Ba
atom -0.0109690561211918 4.9581336902007012 25.3741705894023468 Ba
atom 4.9680727535847140 4.9680727535847291 25.3741705894023468 Ba
atom 2.4808034917571247 2.4806319845179305 22.8218978275875983 Zr
atom 7.4455744592674824 2.4763002057064165 22.8218978275875983 Zr
atom 2.4764717129456089 7.4454029520283012 22.8218978275875983 Zr
atom 7.4419068721734289 7.4417353649342708 22.8218978275875983 Zr
atom 2.4806319845179208 2.4808034917571238 27.9264433512170918 Zr
atom 7.4454029520282710 2.4764717129456173 27.9264433512170918 Zr
atom 2.4763002057064050 7.4455744592675019 27.9264433512170918 Zr
atom 7.4417353649342237 7.4419068721734485 27.9264433512170918 Zr
atom 2.4947141955650110 2.5032501786234111 20.2732337623639296 S
atom 7.4229562651619947 2.4623895018985258 20.2732337623639296 S
atom 2.4538535188401247 7.4314922482204269 20.2732337623639296 S
atom 7.4558175759813272 7.4643535590397461 20.2732337623639296 S
atom 2.4670721414020189 2.4670721414020247 25.3741705894023468 S
atom 7.4591343023833927 2.4900315560615218 25.3741705894023468 S
atom 2.4900315560615174 7.4591343023834202 25.3741705894023468 S
atom 7.4281755218183161 7.4281755218183454 25.3741705894023468 S
atom 1.9571466078652693 -0.0014907749725650 22.8126936878847886 S
atom 7.9736429377183189 -0.0053107557330216 22.8360473748234512 S
atom 3.0045401913964556 4.9637919905888745 22.8360473748234512 S
atom 6.9182499882815733 4.9596126054437644 22.8126936878847886 S
atom 3.0079564555038205 -0.0025089079802162 27.9356474909198766 S
atom 6.9216662523889667 -0.0066882931253226 27.9122938039812070 S
atom 1.9525635060670725 4.9624144531965548 27.9122938039812070 S
atom 7.9690598359201363 4.9585944724361006 27.9356474909198766 S
atom -0.0025089079802160 3.0079564555038263 22.8126936878847886 S
atom 4.9624144531965433 1.9525635060670758 22.8360473748234512 S
atom -0.0066882931253231 6.9216662523889676 22.8360473748234512 S
atom 4.9585944724360926 7.9690598359201656 22.8126936878847886 S
atom -0.0014907749725650 1.9571466078652806 27.9356474909198766 S
atom 4.9637919905888488 3.0045401913964733 27.9122938039812070 S
atom -0.0053107557330216 7.9736429377183615 27.9122938039812070 S
atom 4.9596126054437386 6.9182499882815929 27.9356474909198766 S
atom -0.0132162311994530 -0.0051816567222950 30.4749908052404237 Ba
atom 4.9702847200913798 0.0092165482466719 30.4749908052404237 Ba
atom 0.0011819737695141 4.9783192945685641 30.4749908052404237 Ba
atom 4.9478871492168413 4.9559217236940336 30.4749908052404237 Ba
atom 0.0052937546147159 0.0449733682872153 35.5746970571845793 Ba
atom 4.9201296950818785 -0.0092934375674971 35.5746970571845793 Ba
atom -0.0489730512399963 4.9598093087544006 35.5746970571845793 Ba
atom 4.9663971350310296 5.0060767487035402 35.5746970571845793 Ba
atom 2.4787126181067025 2.4823876446312236 33.0311904450787424 Zr
atom 7.4438187991541875 2.4783910793568302 33.0311904450787424 Zr
atom 2.4747160528323118 7.4474938256787304 33.0311904450787424 Zr
atom 7.4398159985230077 7.4434910250475506 33.0311904450787424 Zr
atom 2.4826169845633084 2.4888877459711716 38.1356466911821030 Zr
atom 7.4373186978142547 2.4744867129002275 38.1356466911821030 Zr
atom 2.4682159514923780 7.4435894592221050 38.1356466911821030 Zr
atom 7.4437203649796233 7.4499911263874905 38.1356466911821030 Zr
atom 2.5032501786233992 2.4947141955650238 30.4751074164407569 S
atom 7.4314922482204047 2.4538535188401291 30.4751074164407569 S
atom 2.4623895018985160 7.4229562651620169 30.4751074164407569 S
atom 7.4643535590397114 7.4558175759813352 30.4751074164407569 S
atom 2.4531907585850412 2.4254624935446292 35.5754468456276243 S
atom 7.5007439502407776 2.5039129388784915 35.5754468456276243 S
atom 2.5316412039189111 7.4730156852003722 35.5754468456276243 S
atom 7.4142941390013606 7.3865658739609552 35.5754468456276243 S
atom 1.9568710031147933 -0.0041489111967649 33.0028443628726933 S
atom 7.9723342850798629 -0.0078961077194303 33.0434407990520711 S
atom 3.0032315387579955 4.9612066386024578 33.0434407990520711 S
atom 6.9179743835310905 4.9569544692195651 33.0028443628726933 S
atom 2.9871460479821952 -0.0058934616283178 38.1745597344071399 S
atom 6.9140089040776456 -0.0110173911418576 38.0637983801423232 S
atom 1.9449061577557725 4.9580853551800246 38.0637983801423232 S
atom 7.9482494283985057 4.9552099187879977 38.1745597344071399 S
atom 0.0001492282439839 3.0082320602543060 33.0028443628726933 S
atom 4.9649998051829609 1.9538721587055448 33.0434407990520711 S
atom -0.0041029411389144 6.9229749050274343 33.0434407990520711 S
atom 4.9612526086602822 7.9693354406706369 33.0028443628726933 S
atom 0.0018937786755366 1.9779570153869055 38.1745597344071399 S
atom 4.9681210886053941 3.0121975397077652 38.0637983801423232 S
atom -0.0009816577164866 7.9813002860296480 38.0637983801423232 S
atom 4.9629971590918371 6.9390603958032218 38.1745597344071399 S
atom -0.0797023488788894 0.0049691291393309 40.6677765313001913 Ba
atom 4.9601339342297663 0.0757026659261083 40.6677765313001913 Ba
atom -0.0089688120921119 5.0448054122479835 40.6677765313001913 Ba
atom 4.8814010315374299 4.9660725095556613 40.6677765313001913 Ba
atom 0.1836618251779991 -0.2504977176484088 45.7141069839056797 Ba
atom 5.2156007810174918 -0.1876615081307798 45.7141069839056797 Ba
atom 0.2464980346956287 4.7814412381911024 45.7141069839056797 Ba
atom 5.1447652055943083 4.7106056627679207 45.7141069839056797 Ba
atom 2.5154343329510076 2.4105621060888445 43.2329284330563510 Zr
atom 7.5156443376965658 2.4416693645125345 43.2329284330563510 Zr
atom 2.5465415913746923 7.4107721108344213 43.2329284330563510 Zr
atom 7.4765377133673132 7.3716654865051785 43.2329284330563510 Zr
atom 2.5028500367837525 2.4552699529013404 48.3380295989152486 Zr
atom 7.4709364908840747 2.4542536606797865 48.3380295989152486 Zr
atom 2.5018337445621910 7.4233564070016769 48.3380295989152486 Zr
atom 7.4639534172000550 7.4163733333176740 48.3380295989152486 Zr
atom 2.6360997365786218 2.5579140115881911 40.6713776340166362 S
atom 7.3682924321972179 2.3210039608849180 40.6713776340166362 S
atom 2.3991896858753505 7.2901067072068066 40.6713776340166362 S
atom 7.5972031169949261 7.5190173920045087 40.6713776340166362 S
atom 2.3043662324562932 2.2579913185193017 45.7503466101106042 S
atom 7.6682151252661113 2.6527374650072435 45.7503466101106042 S
atom 2.6991123789442391 7.6218402113291344 45.7503466101106042 S
atom 7.2654696128726037 7.2190946989356384 45.7503466101106042 S
atom 2.0161941615052110 -0.0434086250968210 43.0332194619862918 S
atom 7.9501146415785069 -0.0477912262221863 43.3818292506348655 S
atom 2.9810118952566547 4.9213115200996942 43.3818292506348655 S
atom 6.9772975419215166 4.9176947553195154 43.0332194619862918 S
atom 2.1654972762225579 -0.0338866652016372 48.4428529746300782 S
atom 7.8447273824538799 -0.0405478965141272 48.0347842469452573 S
atom 2.8756246361320104 4.9285548498077594 48.0347842469452573 S
atom 7.1266006566388560 4.9272167152146960 48.4428529746300782 S
atom 0.0394089421440399 2.9489089018638901 43.0332194619862918 S
atom 5.0048949236857174 1.9760918022068776 43.3818292506348655 S
atom 0.0357921773638414 6.9451945485287743 43.3818292506348655 S
atom 5.0005123225603532 7.9100122822802117 43.0332194619862918 S
atom 0.0298869822488558 2.7996057871465458 48.4428529746300782 S
atom 4.9976515939776549 2.0814790613315233 48.0347842469452573 S
atom 0.0285488476557829 7.0505818076534181 48.0347842469452573 S
atom 4.9909903626651682 7.7607091675628670 48.4428529746300782 S
atom -0.1222088903555824 0.0514718515315903 50.5656975864938190 Ba
atom 4.9136312118374974 0.1182092074028011 50.5656975864938190 Ba
atom -0.0554715344843717 5.0873119537246900 50.5656975864938190 Ba
atom 4.8388944900607269 5.0125752319479098 50.5656975864938190 Ba
atom 2.6761939179988250 2.5682145732052097 50.8606446281916789 S
atom 7.3579918705801957 2.2809097794647180 50.8606446281916789 S
atom 2.3888891242583332 7.2500125257865937 50.8606446281916789 S
atom 7.6372972984151408 7.5293179536215353 50.8606446281916789 S
atom 2.4290798386765697 2.6027605805637508 53.9758852418438195 Ba
atom 7.3234458632216617 2.5280238587869679 53.9758852418438195 Ba
atom 2.3543431168997841 7.4971266051088596 53.9758852418438195 Ba
atom 7.3901832190928829 7.5638639609800631 53.9758852418438195 Ba
atom 2.7310494078565624 2.2968898650301628 58.8274758444319588 Ba
atom 7.6293165787552493 2.2260542896069699 58.8274758444319588 Ba
atom 2.6602138324333726 7.1951570359288697 58.8274758444319588 Ba
atom 7.6921527882728578 7.2579932454464862 58.8274758444319588 Ba
atom 4.9863851177231462 4.9388050338407457 56.2035532294223827 Zr
atom 9.9485047903610209 4.9318219601567233 56.2035532294223827 Zr
atom 4.9794020440391256 9.9009247064785928 56.2035532294223827 Zr
atom 9.9474884981394585 9.8999084142570482 56.2035532294223827 Zr
atom 5.0310929645356337 4.9262207376734741 61.3086543952811809 Zr
atom 9.9610890865282666 4.8871141133442295 61.3086543952811809 Zr
atom 4.9919863402063784 9.8562168596661337 61.3086543952811809 Zr
atom 9.9921963449519016 9.8873241180897917 61.3086543952811809 Zr
atom 4.8734404974192698 4.7654611526256474 53.6809382001458957 S
atom 10.1218486715760871 5.0447665804605970 53.6809382001458957 S
atom 5.1527459252542096 10.0138693267824781 53.6809382001458957 S
atom 9.8345438778355749 9.7265645330420121 53.6809382001458957 S
atom 5.1836637521051658 5.1372888381681943 58.7912362182270556 S
atom 9.7500209860335278 4.7345433257746832 58.7912362182270556 S
atom 4.7809182397116645 9.7036460720965767 58.7912362182270556 S
atom 10.1447671325214763 10.0983922185845287 58.7912362182270556 S
atom 5.3601760092929398 2.4440034766468175 56.5067985813923528 S
atom 9.6111520297998094 2.4426653420537412 56.0987298537076100 S
atom 4.6420492834779372 7.4117680883756343 56.0987298537076100 S
atom 10.3212793897092485 7.4051068570631262 56.5067985813923528 S
atom 5.4655632684175872 2.4367601469387568 61.1597535777027588 S
atom 9.4618489150824487 2.4331433821585557 61.5083633663512899 S
atom 4.4927461687605925 7.4022461284804564 61.5083633663512899 S
atom 10.4266666488339244 7.3978635273550664 61.1597535777027588 S
atom 2.5131002208167166 4.5660304344924789 56.5067985813923528 S
atom 7.4755417358261056 5.2761577944019189 56.0987298537076100 S
atom 2.5064389895042365 10.2452605407238035 56.0987298537076100 S
atom 7.4742036012330235 9.5271338149088152 56.5067985813923528 S
atom 2.5203435505247773 4.4606431753678342 61.1597535777027588 S
atom 7.4850636957212737 5.4254609091192618 61.5083633663512899 S
atom 2.5159609493994131 10.3945636554411305 61.5083633663512899 S
atom 7.4814469309411100 9.4217465557841145 61.1597535777027588 S
atom 2.4755825610688218 2.5602540390870563 63.8738062970374614 Ba
atom 7.3659524046983540 2.4815211363947118 63.8738062970374614 Ba
atom 2.3968496583764813 7.4506238827165925 63.8738062970374614 Ba
atom 7.4366859414851252 7.5213574195033717 63.8738062970374614 Ba
atom 2.4355783219209450 2.4752579355934476 68.9668857711529881 Ba
atom 7.4509485081919511 2.5215253755425984 68.9668857711529881 Ba
atom 2.4818457618700815 7.4906281218644892 68.9668857711529881 Ba
atom 7.3966817023372604 7.4363613160097799 68.9668857711529881 Ba
atom 4.9527673246532986 4.9590380860611658 66.4059361371554786 Zr
atom 9.9282717381405643 4.9654397532265468 66.4059361371554786 Zr
atom 4.9591689918186921 9.9345424995484652 66.4059361371554786 Zr
atom 9.9138707050695896 9.9201414664775012 66.4059361371554786 Zr
atom 4.9592674259932368 4.9629424525177832 71.5103923832586759 Zr
atom 9.9243673716839584 4.9589396518866122 71.5103923832586759 Zr
atom 4.9552646253620747 9.9280423982084738 71.5103923832586759 Zr
atom 9.9203708064095419 9.9240458329341141 71.5103923832586759 Zr
atom 4.8837410590362911 4.8055553340458657 63.8702051943211373 S
atom 10.0817544901558822 5.0344660188435624 63.8702051943211373 S
atom 5.1126517438339834 10.0035687651654701 63.8702051943211373 S
atom 9.8448444394525954 9.7666587144621904 63.8702051943211373 S
atom 5.0161925770798366 4.9884643120394347 68.9661359827100569 S
atom 9.8988455121623105 4.9020145008000222 68.9661359827100569 S
atom 4.9297427658404196 9.8711172471218980 68.9661359827100569 S
atom 9.9772959574961479 9.9495676924557568 68.9661359827100569 S
atom 4.4294575309167215 2.4735339820190858 66.4777844481955071 S
atom 10.4328008015594236 2.4706585456270642 66.3670230939304275 S
atom 5.4636980552375700 7.4397612919489537 66.3670230939304275 S
atom 9.3905609113330151 7.4346373624354083 66.4777844481955071 S
atom 5.4877829119189379 2.4766552654415128 71.4981420292856313 S
atom 9.4025257566920484 2.4724030960586125 71.5387384654650305 S
atom 4.4334230103701771 7.4415058423804989 71.5387384654650305 S
atom 10.4488862923352315 7.4377586458578344 71.4981420292856313 S
atom 2.4835697154444460 5.4967489128687079 66.4777844481955071 S
atom 7.4475485322527852 4.4545090226422790 66.3670230939304275 S
atom 2.4784457859309059 9.4236117689641681 66.3670230939304275 S
atom 7.4446730958607494 10.4578522932850486 66.4777844481955071 S
atom 2.4804484320220221 4.4384235318664835 71.4981420292856313 S
atom 7.4458039818212169 5.4847840675096844 71.5387384654650305 S
atom 2.4767012354993572 10.4538868138315664 71.5387384654650305 S
atom 7.4415518124383340 9.3995269122827931 71.4981420292856313 S
atom 2.4857333469304481 2.4937679214076187 74.0665920230971295 Ba
atom 7.4324385223777707 2.4713703505330815 74.0665920230971295 Ba
atom 2.4633357760559260 7.4404730968549799 74.0665920230971295 Ba
atom 7.4468367273467502 7.4548713018239452 74.0665920230971295 Ba
atom 2.4735823170397477 2.4735823170397504 79.1674122389354551 Ba
atom 7.4526241267456452 2.4835213804237952 79.1674122389354551 Ba
atom 2.4835213804237890 7.4526241267456674 79.1674122389354551 Ba
atom 7.4346856974560493 7.4346856974560867 79.1674122389354551 Ba
atom 4.9608515788673397 4.9610230861065512 76.6151394771206498 Zr
atom 9.9262867380951576 4.9573554990125146 76.6151394771206498 Zr
atom 4.9571839917732872 9.9264582453343966 76.6151394771206498 Zr
atom 9.9219549592836334 9.9221264665228794 76.6151394771206498 Zr
atom 4.9610230861065405 4.9608515788673531 81.7196850007499194 Zr
atom 9.9264582453343877 4.9571839917733183 81.7196850007499194 Zr
atom 4.9573554990124977 9.9262867380951949 81.7196850007499194 Zr
atom 9.9221264665228528 9.9219549592836849 81.7196850007499194 Zr
atom 4.9469408750594628 4.9384048920010777 74.0664754118971587 S
atom 9.9489049322006462 4.9712662028203871 74.0664754118971587 S
atom 4.9798021858787784 9.9403689491423037 74.0664754118971587 S
atom 9.9080442554757475 9.8995082724174015 74.0664754118971587 S
atom 4.9745829292224446 4.9745829292224686 79.1674122389354551 S
atom 9.9127268949792366 4.9436241486574000 79.1674122389354551 S
atom 4.9436241486573724 9.9127268949792793 79.1674122389354551 S
atom 9.9356863096387684 9.9356863096387933 79.1674122389354551 S
atom 4.4371148792280142 2.4778630800356214 76.6292890243563818 S
atom 10.4536112090810871 2.4740430992751592 76.6059353374177334 S
atom 5.4845084627591936 7.4431458455970558 76.6059353374177334 S
atom 9.3982182596443131 7.4389664604519448 76.6292890243563818 S
atom 5.4890915645573974 2.4792406174279220 81.7055354535142015 S
atom 9.4028013614425294 2.4750612322828176 81.7288891404529494 S
atom 4.4336986151206483 7.4441639786047098 81.7288891404529494 S
atom 10.4501949449736848 7.4403439978442467 81.7055354535142015 S
atom 2.4792406174279193 5.4890915645574072 76.6292890243563818 S
atom 7.4441639786046849 4.4336986151206519 76.6059353374177334 S
atom 2.4750612322828065 9.4028013614425436 76.6059353374177334 S
atom 7.4403439978442307 10.4501949449737346 76.6292890243563818 S
atom 2.4778630800356187 4.4371148792280239 81.7055354535142015 S
atom 7.4431458455970327 5.4845084627592113 81.7288891404529494 S
atom 2.4740430992751525 10.4536112090810906 81.7288891404529494 S
atom 7.4389664604519083 9.3982182596443664 81.7055354535142015 S
atom 2.4937679214076063 2.4857333469304606 84.2682324547735107 Ba
atom 7.4404730968549559 2.4633357760559269 84.2682324547735107 Ba
atom 2.4713703505330722 7.4324385223778053 84.2682324547735107 Ba
atom 7.4548713018239194 7.4468367273467768 84.2682324547735107 Ba
atom 2.4752579355934317 2.4355783219209495 89.3679387067175384 Ba
atom 7.4906281218644493 2.4818457618700975 89.3679387067175384 Ba
atom 2.5215253755425864 7.4509485081919822 89.3679387067175384 Ba
atom 7.4363613160097497 7.3966817023372693 89.3679387067175384 Ba
atom 4.9629424525177539 4.9592674259932670 86.8244320946118933 Zr
atom 9.9280423982084525 4.9552646253620942 86.8244320946118933 Zr
atom 4.9589396518865794 9.9243673716839869 86.8244320946118933 Zr
atom 9.9240458329340591 9.9203708064096165 86.8244320946118933 Zr
atom 4.9590380860611489 4.9527673246533270 91.9288883407150763 Zr
atom 9.9345424995484226 4.9591689918187010 91.9288883407150763 Zr
atom 4.9654397532265202 9.9282717381405838 91.9288883407150763 Zr
atom 9.9201414664774958 9.9138707050696322 91.9288883407150763 Zr
atom 4.9384048920010741 4.9469408750594770 84.2683490659736805 S
atom 9.9403689491422433 4.9798021858788006 84.2683490659736805 S
atom 4.9712662028203720 9.9489049322006995 84.2683490659736805 S
atom 9.8995082724173695 9.9080442554757919 84.2683490659736805 S
atom 4.9884643120394117 5.0161925770798561 89.3686884951606686 S
atom 9.8711172471218571 4.9297427658404338 89.3686884951606686 S
atom 4.9020145008000018 9.8988455121623513 89.3686884951606686 S
atom 9.9495676924557106 9.9772959574961959 89.3686884951606686 S
atom 4.4384235318664755 2.4804484320220319 86.8366824485851652 S
atom 10.4538868138315397 2.4767012354993652 86.7960860124057234 S
atom 5.4847840675096666 7.4458039818212605 86.7960860124057234 S
atom 9.3995269122827736 7.4415518124383642 86.8366824485851652 S
atom 5.4967489128686804 2.4835697154444558 91.8570400296751615 S
atom 9.4236117689641521 2.4784457859309170 91.9678013839401558 S
atom 4.4545090226422541 7.4475485322528066 91.9678013839401558 S
atom 10.4578522932849936 7.4446730958607796 91.8570400296751615 S
atom 2.4766552654415075 5.4877829119189405 86.8366824485851652 S
atom 7.4415058423804643 4.4334230103701824 86.7960860124057234 S
atom 2.4724030960586103 9.4025257566920661 86.7960860124057234 S
atom 7.4377586458578051 10.4488862923352741 86.8366824485851652 S
atom 2.4735339820190747 4.4294575309167330 91.8570400296751615 S
atom 7.4397612919489244 5.4636980552375825 91.9678013839401558 S
atom 2.4706585456270607 10.4328008015594715 91.9678013839401558 S
atom 7.4346373624353888 9.3905609113330470 91.8570400296751615 S
atom 2.5602540390870501 2.4755825610688329 94.4610181808333635 Ba
atom 7.4506238827165676 2.3968496583764840 94.4610181808333635 Ba
atom 2.4815211363947065 7.3659524046983886 94.4610181808333635 Ba
atom 7.5213574195033495 7.4366859414851563 94.4610181808333635 Ba
atom 2.2968898650301552 2.7310494078565783 99.5073486334387383 Ba
atom 7.1951570359288493 2.6602138324333819 99.5073486334387383 Ba
atom 2.2260542896069615 7.6293165787552706 99.5073486334387383 Ba
atom 7.2579932454464631 7.6921527882728888 99.5073486334387383 Ba
atom 4.9262207376734528 5.0310929645356444 97.0261700825893172 Zr
atom 9.8562168596660751 4.9919863402064006 97.0261700825893172 Zr
atom 4.8871141133442197 9.9610890865282933 97.0261700825893172 Zr
atom 9.8873241180897633 9.9921963449519708 97.0261700825893172 Zr
atom 4.9388050338407048 4.9863851177231577 102.1312712484480159 Zr
atom 9.9009247064785697 4.9794020440391407 102.1312712484480159 Zr
atom 4.9318219601566984 9.9485047903610297 102.1312712484480159 Zr
atom 9.8999084142569984 9.9474884981394531 102.1312712484480159 Zr
atom 4.8055553340458568 4.8837410590363000 94.4646192835496947 S
atom 10.0035687651654026 5.1126517438339967 94.4646192835496947 S
atom 5.0344660188435491 10.0817544901558911 94.4646192835496947 S
atom 9.7666587144621548 9.8448444394526256 94.4646192835496947 S
atom 5.1372888381681712 5.1836637521051774 99.5435882596432862 S
atom 9.7036460720964914 4.7809182397116796 99.5435882596432862 S
atom 4.7345433257746610 9.7500209860335527 99.5435882596432862 S
atom 10.0983922185844950 10.1447671325215172 99.5435882596432862 S
atom 4.4606431753678253 2.5203435505247902 97.1750709001679098 S
atom 10.3945636554410950 2.5159609493994211 96.8264611115193503 S
atom 5.4254609091192512 7.4850636957213057 96.8264611115193503 S
atom 9.4217465557840594 7.4814469309411180 97.1750709001679098 S
atom 4.5660304344924505 2.5131002208167268 101.8280258964780813 S
atom 10.2452605407237858 2.5064389895042418 102.2360946241629307 S
atom 5.2761577944019074 7.4755417358261287 102.2360946241629307 S
atom 9.5271338149087725 7.4742036012330617 101.8280258964780813 S
atom 2.4367601469387541 5.4655632684176094 97.1750709001679098 S
atom 7.4022461284804288 4.4927461687605996 96.8264611115193503 S
atom 2.4331433821585531 9.4618489150825180 96.8264611115193503 S
atom 7.3978635273550504 10.4266666488339510 97.1750709001679098 S
atom 2.4440034766468060 5.3601760092929620 101.8280258964780813 S
atom 7.4117680883756192 4.6420492834779346 102.2360946241629307 S
atom 2.4426653420537257 9.6111520297998254 102.2360946241629307 S
atom 7.4051068570631173 10.3212793897092876 101.8280258964780813 S
atom 2.6027605805637397 2.4290798386765795 104.3589392360267141 Ba
atom 7.4971266051088419 2.3543431168997953 104.3589392360267141 Ba
atom 2.5280238587869612 7.3234458632216954 104.3589392360267141 Ba
atom 7.5638639609800498 7.3901832190928989 104.3589392360267141 Ba
atom 4.7654611526256323 4.8734404974192786 104.6538862777245669 S
atom 10.0138693267824408 5.1527459252542185 104.6538862777245669 S
atom 5.0447665804605855 10.1218486715760942 104.6538862777245669 S
atom 9.7265645330419765 9.8345438778356069 104.6538862777245669 S
