#=======================================================
# FHI-aims file: sym_relax/sym_relax_RP_2_00Mz_00Mz.in
# Created using the Atomic Simulation Environment (ASE)
# Fri Mar 14 10:20:39 2025
#=======================================================
lattice_vector 9.9628651953519718 0.0000000000107577 -0.0000000000000000 
lattice_vector 0.0000000000107577 9.9628651953519682 -0.0000000000000000 
lattice_vector -0.0000000000000000 -0.0000000000000000 26.0318908654414827 
atom 0.0000000000000000 -0.0000000000000000 0.2025931376501047 Ba
atom 4.9814325976759868 0.0000000000053773 0.2025931376501047 Ba
atom 0.0000000000053787 4.9814325976759850 0.2025931376501047 Ba
atom 4.9814325976813674 4.9814325976813594 0.2025931376501047 Ba
atom -0.0000000000000004 0.0000000000000004 5.0061328587387468 Ba
atom 4.9814325976759859 0.0000000000053781 5.0061328587387468 Ba
atom 0.0000000000053781 4.9814325976759850 5.0061328587387468 Ba
atom 4.9814325976813665 4.9814325976813594 5.0061328587387468 Ba
atom 2.4907162988406832 2.4907162988406788 2.4289918517300433 Zr
atom 7.4721488965166643 2.4907162988460581 2.4289918517300415 Zr
atom 2.4907162988460607 7.4721488965166660 2.4289918517300415 Zr
atom 7.4721488965220431 7.4721488965220422 2.4289918517300433 Zr
atom 2.4907162988406832 2.4907162988406788 7.5832738657474579 Zr
atom 7.4721488965166634 2.4907162988460585 7.5832738657474579 Zr
atom 2.4907162988460603 7.4721488965166669 7.5832738657474579 Zr
atom 7.4721488965220431 7.4721488965220422 7.5832738657474579 Zr
atom 2.4907162988406837 2.4907162988406797 -0.1087357806877000 S
atom 7.4721488965166643 2.4907162988460581 -0.1087357806877000 S
atom 2.4907162988460607 7.4721488965166669 -0.1087357806877000 S
atom 7.4721488965220439 7.4721488965220431 -0.1087357806877000 S
atom 2.4907162988406832 2.4907162988406788 5.0061328587387468 S
atom 7.4721488965166643 2.4907162988460585 5.0061328587387468 S
atom 2.4907162988460603 7.4721488965166660 5.0061328587387468 S
atom 7.4721488965220431 7.4721488965220422 5.0061328587387468 S
atom 2.8254565926412125 0.0000000000023997 2.5127555310563858 S
atom 7.1374086027107602 0.0000000000083557 2.5127555310563841 S
atom 2.1559760050401477 4.9814325976789604 2.5127555310563841 S
atom 7.8068891903225719 4.9814325976837637 2.5127555310563858 S
atom 2.8254565926412116 0.0000000000023997 7.4995101864211167 S
atom 7.1374086027107602 0.0000000000083557 7.4995101864211167 S
atom 2.1559760050401477 4.9814325976789604 7.4995101864211167 S
atom 7.8068891903225719 4.9814325976837637 7.4995101864211167 S
atom 0.0000000000029780 2.1559760050347694 2.5127555310563858 S
atom 4.9814325976783884 2.8254565926465913 2.5127555310563858 S
atom 0.0000000000077792 7.8068891903171931 2.5127555310563858 S
atom 4.9814325976843401 7.1374086027161390 2.5127555310563858 S
atom 0.0000000000029776 2.1559760050347694 7.4995101864211167 S
atom 4.9814325976783875 2.8254565926465913 7.4995101864211167 S
atom 0.0000000000077787 7.8068891903171931 7.4995101864211167 S
atom 4.9814325976843401 7.1374086027161390 7.4995101864211167 S
atom -0.0000000000000009 0.0000000000000009 9.8096725798273976 Ba
atom 4.9814325976759850 0.0000000000053786 9.8096725798273976 Ba
atom 0.0000000000053777 4.9814325976759850 9.8096725798273976 Ba
atom 4.9814325976813665 4.9814325976813594 9.8096725798273976 Ba
atom 2.4907162988406828 2.4907162988406797 10.1210014981651977 S
atom 7.4721488965166634 2.4907162988460589 10.1210014981651977 S
atom 2.4907162988460598 7.4721488965166669 10.1210014981651977 S
atom 7.4721488965220431 7.4721488965220431 10.1210014981651977 S
atom 2.4907162988406828 2.4907162988406797 13.2185385703708373 Ba
atom 7.4721488965166634 2.4907162988460589 13.2185385703708373 Ba
atom 2.4907162988460598 7.4721488965166669 13.2185385703708373 Ba
atom 7.4721488965220431 7.4721488965220431 13.2185385703708373 Ba
atom 2.4907162988406824 2.4907162988406810 18.0220782914594793 Ba
atom 7.4721488965166625 2.4907162988460594 18.0220782914594793 Ba
atom 2.4907162988460594 7.4721488965166687 18.0220782914594793 Ba
atom 7.4721488965220422 7.4721488965220448 18.0220782914594793 Ba
atom 4.9814325976813665 4.9814325976813603 15.4449372844507877 Zr
atom 9.9628651953573488 4.9814325976867426 15.4449372844507895 Zr
atom 4.9814325976867400 9.9628651953573488 15.4449372844507895 Zr
atom 9.9628651953627330 9.9628651953627205 15.4449372844507877 Zr
atom 4.9814325976813656 4.9814325976813612 20.5992192984681957 Zr
atom 9.9628651953573488 4.9814325976867426 20.5992192984681957 Zr
atom 4.9814325976867400 9.9628651953573453 20.5992192984681957 Zr
atom 9.9628651953627330 9.9628651953627205 20.5992192984681957 Zr
atom 4.9814325976813665 4.9814325976813594 12.9072096520330426 S
atom 9.9628651953573488 4.9814325976867435 12.9072096520330426 S
atom 4.9814325976867408 9.9628651953573470 12.9072096520330426 S
atom 9.9628651953627330 9.9628651953627188 12.9072096520330426 S
atom 4.9814325976813665 4.9814325976813603 18.0220782914594793 S
atom 9.9628651953573488 4.9814325976867426 18.0220782914594793 S
atom 4.9814325976867400 9.9628651953573488 18.0220782914594793 S
atom 9.9628651953627330 9.9628651953627205 18.0220782914594793 S
atom 4.6466923038754562 2.4907162988436595 15.5287009637771209 S
atom 10.2976054891578688 2.4907162988484601 15.5287009637771227 S
atom 5.3161728914872661 7.4721488965190686 15.5287009637771227 S
atom 9.6281249015568235 7.4721488965250185 15.5287009637771209 S
atom 4.6466923038754562 2.4907162988436595 20.5154556191418607 S
atom 10.2976054891578688 2.4907162988484601 20.5154556191418607 S
atom 5.3161728914872652 7.4721488965190668 20.5154556191418607 S
atom 9.6281249015568235 7.4721488965250185 20.5154556191418607 S
atom 2.4907162988430818 5.3161728914818873 15.5287009637771227 S
atom 7.4721488965196361 4.6466923038808350 15.5287009637771227 S
atom 2.4907162988490370 9.6281249015514430 15.5287009637771227 S
atom 7.4721488965244465 10.2976054891632458 15.5287009637771227 S
atom 2.4907162988430813 5.3161728914818855 20.5154556191418607 S
atom 7.4721488965196361 4.6466923038808350 20.5154556191418607 S
atom 2.4907162988490366 9.6281249015514394 20.5154556191418607 S
atom 7.4721488965244465 10.2976054891632423 20.5154556191418607 S
atom 2.4907162988406819 2.4907162988406815 22.8256180125481443 Ba
atom 7.4721488965166625 2.4907162988460598 22.8256180125481443 Ba
atom 2.4907162988460589 7.4721488965166669 22.8256180125481443 Ba
atom 7.4721488965220422 7.4721488965220448 22.8256180125481443 Ba
atom 4.9814325976813656 4.9814325976813612 23.1369469308859479 S
atom 9.9628651953573470 4.9814325976867435 23.1369469308859479 S
atom 4.9814325976867400 9.9628651953573470 23.1369469308859479 S
atom 9.9628651953627330 9.9628651953627205 23.1369469308859479 S
