#=======================================================
# FHI-aims file: sym_relax/sym_relax_RP_9_RxRy0_RxRy0.in
# Created using the Atomic Simulation Environment (ASE)
# Mon Mar 17 16:32:11 2025
#=======================================================
lattice_vector 10.0650790115211137 0.0918401164191919 0.0000000000000000 
lattice_vector 0.0918401164191920 10.0650790115210995 -0.0000000000000003 
lattice_vector 0.0000000000000000 -0.0000000000000024 95.0056834857226846 
atom -0.0983474230797133 -0.0983474230797132 0.2774505985941526 Ba
atom 5.1308869288402779 0.1442674812893072 0.2774505985941527 Ba
atom 0.1442674812893072 5.1308869288402619 0.2774505985941527 Ba
atom 4.9801121408904452 4.9801121408904283 0.2774505985941526 Ba
atom -0.0081875035264181 -0.0081875035264181 4.9543692597105791 Ba
atom 5.0407270092869867 0.0541075617360118 4.9543692597105791 Ba
atom 0.0541075617360121 5.0407270092869627 4.9543692597105773 Ba
atom 5.0702720604437372 5.0702720604437186 4.9543692597105791 Ba
atom 2.5264034761390830 2.5264034761390799 2.3441168384903048 Zr
atom 7.5845955935916258 2.5979761460406556 2.3441168384903048 Zr
atom 2.5979761460406614 7.5845955935916036 2.3441168384903048 Zr
atom 7.6048630401092536 7.6048630401092199 2.3441168384903039 Zr
atom 2.5412415778914661 2.5412415778914590 7.3710208427715083 Zr
atom 7.5697574918392450 2.5831380442882783 7.3710208427715100 Zr
atom 2.5831380442882836 7.5697574918392192 7.3710208427715118 Zr
atom 7.6197011418616167 7.6197011418615990 7.3710208427715083 Zr
atom 2.7262708867769549 2.7262708867769510 -0.1402498334220510 S
atom 7.3847281829537517 2.3981087354027841 -0.1402498334220509 S
atom 2.3981087354027877 7.3847281829537357 -0.1402498334220510 S
atom 7.8047304507471109 7.8047304507470923 -0.1402498334220511 S
atom 2.2317371122228349 2.2317371122228278 4.8938851075819052 S
atom 7.8792619575078859 2.8926425099569086 4.8938851075819052 S
atom 2.8926425099569184 7.8792619575078522 4.8938851075819061 S
atom 7.3101966761929980 7.3101966761929704 4.8938851075819052 S
atom 2.5162697528802780 0.0229600291047970 2.1929245449734864 S
atom 7.5488092586408344 0.0688800873143914 2.6996549626229416 S
atom 2.5621898110898775 5.0554995348653442 2.6996549626229416 S
atom 7.5947293168504322 5.1014195930749384 2.1929245449734869 S
atom 2.5162697528802780 0.0229600291047968 7.7244937242936693 S
atom 7.5488092586408344 0.0688800873143913 7.0364029065035005 S
atom 2.5621898110898775 5.0554995348653442 7.0364029065034988 S
atom 7.5947293168504322 5.1014195930749384 7.7244937242936693 S
atom 0.0229600291047970 2.5162697528802727 2.1929245449734869 S
atom 5.0554995348653549 2.5621898110898691 2.6996549626229416 S
atom 0.0688800873143919 7.5488092586408166 2.6996549626229416 S
atom 5.1014195930749553 7.5947293168504180 2.1929245449734873 S
atom 0.0229600291047970 2.5162697528802727 7.7244937242936693 S
atom 5.0554995348653549 2.5621898110898691 7.0364029065034988 S
atom 0.0688800873143919 7.5488092586408166 7.0364029065034988 S
atom 5.1014195930749553 7.5947293168504180 7.7244937242936675 S
atom 0.0348641930509808 0.0348641930509805 9.8683804982897581 Ba
atom 4.9976753127095783 0.0110558651586135 9.8683804982897545 Ba
atom 0.0110558651586136 4.9976753127095623 9.8683804982897545 Ba
atom 5.1133237570211358 5.1133237570211207 9.8683804982897581 Ba
atom -0.0360994140110370 -0.0360994140110372 14.8265829967390772 Ba
atom 5.0686389197715975 0.0820194722206309 14.8265829967390808 Ba
atom 0.0820194722206313 5.0686389197715789 14.8265829967390808 Ba
atom 5.0423601499591175 5.0423601499591069 14.8265829967390772 Ba
atom 2.5397384940493581 2.5397384940493519 12.3389952040315869 Zr
atom 7.5712605756813565 2.5846411281303823 12.3389952040315887 Zr
atom 2.5846411281303880 7.5712605756813378 12.3389952040315887 Zr
atom 7.6181980580195185 7.6181980580194946 12.3389952040315869 Zr
atom 2.5390502877472625 2.5390502877472545 17.3034231025072351 Zr
atom 7.5719487819834459 2.5853293344324815 17.3034231025072351 Zr
atom 2.5853293344324855 7.5719487819834299 17.3034231025072351 Zr
atom 7.6175098517174167 7.6175098517174016 17.3034231025072351 Zr
atom 2.8883695684693467 2.8883695684693356 9.8614698034422350 S
atom 7.2226295012613688 2.2360100537103973 9.8614698034422315 S
atom 2.2360100537104053 7.2226295012613519 9.8614698034422315 S
atom 7.9668291324394991 7.9668291324394751 9.8614698034422350 S
atom 2.1858190475083656 2.1858190475083554 14.8233546731520427 S
atom 7.9251800222223538 2.9385605746713774 14.8233546731520427 S
atom 2.9385605746713881 7.9251800222223379 14.8233546731520391 S
atom 7.2642786114785203 7.2642786114785007 14.8233546731520427 S
atom 2.5162697528802780 0.0229600291047967 11.9814585563687590 S
atom 7.5488092586408344 0.0688800873143912 12.7092601497428355 S
atom 2.5621898110898775 5.0554995348653442 12.7092601497428355 S
atom 7.5947293168504322 5.1014195930749384 11.9814585563687608 S
atom 2.5162697528802780 0.0229600291047966 17.6707944335630458 S
atom 7.5488092586408344 0.0688800873143911 16.9401321217249254 S
atom 2.5621898110898775 5.0554995348653442 16.9401321217249254 S
atom 7.5947293168504322 5.1014195930749384 17.6707944335630458 S
atom 0.0229600291047970 2.5162697528802722 11.9814585563687590 S
atom 5.0554995348653549 2.5621898110898687 12.7092601497428355 S
atom 0.0688800873143919 7.5488092586408166 12.7092601497428355 S
atom 5.1014195930749553 7.5947293168504180 11.9814585563687590 S
atom 0.0229600291047970 2.5162697528802722 17.6707944335630458 S
atom 5.0554995348653549 2.5621898110898687 16.9401321217249254 S
atom 0.0688800873143919 7.5488092586408166 16.9401321217249254 S
atom 5.1014195930749553 7.5947293168504180 17.6707944335630458 S
atom 0.0365677014237451 0.0365677014237444 19.7860917883736427 Ba
atom 4.9959718043368149 0.0093523567858491 19.7860917883736285 Ba
atom 0.0093523567858494 4.9959718043367998 19.7860917883736285 Ba
atom 5.1150272653938984 5.1150272653938842 19.7860917883736427 Ba
atom -0.0365677014237461 -0.0365677014237464 24.7478223455588129 Ba
atom 5.0691072071842997 0.0824877596333387 24.7478223455588200 Ba
atom 0.0824877596333393 5.0691072071842864 24.7478223455588200 Ba
atom 5.0418918625464171 5.0418918625463958 24.7478223455588129 Ba
atom 2.5392297819850795 2.5392297819850724 22.2669570669662598 Zr
atom 7.5717692877456342 2.5851498401946653 22.2669570669662598 Zr
atom 2.5851498401946702 7.5717692877456182 22.2669570669662598 Zr
atom 7.6176893459552328 7.6176893459552151 22.2669570669662598 Zr
atom 2.5394092762228890 2.5394092762228855 27.2304910314251956 Zr
atom 7.5715897935078278 2.5849703459568500 27.2304910314251956 Zr
atom 2.5849703459568554 7.5715897935078029 27.2304910314251956 Zr
atom 7.6178688401930454 7.6178688401930250 27.2304910314251956 Zr
atom 2.8932194727947009 2.8932194727946952 19.7858170184711000 S
atom 7.2177795969360101 2.2311601493850404 19.7858170184711177 S
atom 2.2311601493850453 7.2177795969359941 19.7858170184711177 S
atom 7.9716790367648525 7.9716790367648258 19.7858170184711000 S
atom 2.1852400911754506 2.1852400911754453 24.7480971154613698 S
atom 7.9257589785552716 2.9391395310042912 24.7480971154613556 S
atom 2.9391395310042974 7.9257589785552423 24.7480971154613556 S
atom 7.2636996551455963 7.2636996551455866 24.7480971154613698 S
atom 2.5162697528802780 0.0229600291047965 21.9011381774356302 S
atom 7.5488092586408344 0.0688800873143909 22.6327759564968147 S
atom 2.5621898110898775 5.0554995348653442 22.6327759564968218 S
atom 7.5947293168504322 5.1014195930749384 21.9011381774356302 S
atom 2.5162697528802780 0.0229600291047963 27.5937820122075372 S
atom 7.5488092586408344 0.0688800873143908 26.8631197003694560 S
atom 2.5621898110898775 5.0554995348653433 26.8631197003694489 S
atom 7.5947293168504322 5.1014195930749375 27.5937820122075372 S
atom 0.0229600291047970 2.5162697528802722 21.9011381774356302 S
atom 5.0554995348653549 2.5621898110898687 22.6327759564968218 S
atom 0.0688800873143919 7.5488092586408166 22.6327759564968147 S
atom 5.1014195930749553 7.5947293168504180 21.9011381774356302 S
atom 0.0229600291047970 2.5162697528802722 27.5937820122075372 S
atom 5.0554995348653549 2.5621898110898687 26.8631197003694489 S
atom 0.0688800873143919 7.5488092586408158 26.8631197003694489 S
atom 5.1014195930749553 7.5947293168504171 27.5937820122075372 S
atom 0.0360994140110361 0.0360994140110352 29.7073311371934032 Ba
atom 4.9964400917495277 0.0098206441985570 29.7073311371933961 Ba
atom 0.0098206441985574 4.9964400917495118 29.7073311371933961 Ba
atom 5.1145589779811944 5.1145589779811793 29.7073311371934032 Ba
atom -0.0348641930509818 -0.0348641930509825 34.6655336356426673 Ba
atom 5.0674036988115407 0.0807842512605743 34.6655336356426744 Ba
atom 0.0807842512605754 5.0674036988115256 34.6655336356426744 Ba
atom 5.0435953709191779 5.0435953709191539 34.6655336356426673 Ba
atom 2.5387210699207956 2.5387210699207858 32.1949189299008793 Zr
atom 7.5722779998099181 2.5856585522589484 32.1949189299008864 Zr
atom 2.5856585522589541 7.5722779998099030 32.1949189299008864 Zr
atom 7.6171806338909542 7.6171806338909294 32.1949189299008793 Zr
atom 2.5372179860786837 2.5372179860786788 37.1628932911610264 Zr
atom 7.5737810836520323 2.5871616361010528 37.1628932911610264 Zr
atom 2.5871616361010603 7.5737810836520056 37.1628932911610264 Zr
atom 7.6156775500488401 7.6156775500488179 37.1628932911610264 Zr
atom 2.8926405164617917 2.8926405164617841 29.7105594607804058 S
atom 7.2183585532689198 2.2317391057179528 29.7105594607804093 S
atom 2.2317391057179532 7.2183585532689030 29.7105594607804093 S
atom 7.9711000804319463 7.9711000804319205 29.7105594607804058 S
atom 2.1900899955008155 2.1900899955007995 34.6724443304901584 S
atom 7.9209090742299155 2.9342896266789324 34.6724443304901726 S
atom 2.9342896266789409 7.9209090742298844 34.6724443304901726 S
atom 7.2685495594709737 7.2685495594709462 34.6724443304901584 S
atom 2.5162697528802780 0.0229600291047962 31.8246539841896414 S
atom 7.5488092586408344 0.0688800873143906 32.5524555775636983 S
atom 2.5621898110898775 5.0554995348653433 32.5524555775636983 S
atom 7.5947293168504322 5.1014195930749375 31.8246539841896379 S
atom 2.5162697528802780 0.0229600291047961 37.4975112274289444 S
atom 7.5488092586408344 0.0688800873143906 36.8094204096388111 S
atom 2.5621898110898775 5.0554995348653433 36.8094204096388111 S
atom 7.5947293168504322 5.1014195930749375 37.4975112274289444 S
atom 0.0229600291047970 2.5162697528802722 31.8246539841896379 S
atom 5.0554995348653549 2.5621898110898687 32.5524555775636983 S
atom 0.0688800873143919 7.5488092586408158 32.5524555775636983 S
atom 5.1014195930749553 7.5947293168504171 31.8246539841896379 S
atom 0.0229600291047970 2.5162697528802718 37.4975112274289444 S
atom 5.0554995348653549 2.5621898110898682 36.8094204096388111 S
atom 0.0688800873143919 7.5488092586408158 36.8094204096388111 S
atom 5.1014195930749553 7.5947293168504171 37.4975112274289444 S
atom 0.0081875035264172 0.0081875035264161 39.5795448742219378 Ba
atom 5.0243520022341466 0.0377325546831761 39.5795448742219378 Ba
atom 0.0377325546831767 5.0243520022341199 39.5795448742219378 Ba
atom 5.0866470674965747 5.0866470674965525 39.5795448742219378 Ba
atom 0.0983474230797124 0.0983474230797113 44.2564635353382982 Ba
atom 4.9341920826808430 -0.0524273648701190 44.2564635353382982 Ba
atom -0.0524273648701184 4.9341920826808305 44.2564635353382982 Ba
atom 5.1768069870498739 5.1768069870498614 44.2564635353382982 Ba
atom 2.5520560878310712 2.5520560878310583 42.1897972954421903 Zr
atom 7.5589429818996487 2.5723235343486750 42.1897972954421903 Zr
atom 2.5723235343486865 7.5589429818996292 42.1897972954421903 Zr
atom 7.6305156518012218 7.6305156518011996 42.1897972954421903 Zr
atom 2.8467224517473237 2.8467224517473109 39.6400290263505397 S
atom 7.2642766179833895 2.2776571704324216 39.6400290263505397 S
atom 2.2776571704324295 7.2642766179833780 39.6400290263505397 S
atom 7.9251820157174828 7.9251820157174535 39.6400290263505397 S
atom 2.3521886771931997 2.3521886771931917 44.6741639673544952 S
atom 7.7588103925375114 2.7721909449865438 44.6741639673544952 S
atom 2.7721909449865545 7.7588103925374927 44.6741639673544952 S
atom 7.4306482411633521 7.4306482411633281 44.6741639673544952 S
atom 2.5162697528802780 0.0229600291047959 41.8342591713095260 S
atom 7.5488092586408344 0.0688800873143904 42.3409895889589691 S
atom 2.5621898110898775 5.0554995348653433 42.3409895889589691 S
atom 7.5947293168504322 5.1014195930749375 41.8342591713095260 S
atom 0.0229600291047970 2.5162697528802718 41.8342591713095260 S
atom 5.0554995348653549 2.5621898110898682 42.3409895889589691 S
atom 0.0688800873143919 7.5488092586408158 42.3409895889589691 S
atom 5.1014195930749553 7.5947293168504171 41.8342591713095260 S
atom 2.4408823589053634 2.4408823589053528 47.7802923414555067 Ba
atom 7.6701167108253570 2.6834972632743770 47.7802923414555067 Ba
atom 2.6834972632743872 7.6701167108253303 47.7802923414555067 Ba
atom 7.5193419228755154 7.5193419228755012 47.7802923414555067 Ba
atom 2.5310422784586581 2.5310422784586502 52.4572110025718672 Ba
atom 7.5799567912720507 2.5933373437210823 52.4572110025718672 Ba
atom 2.5933373437210872 7.5799567912720338 52.4572110025718672 Ba
atom 7.6095018424288137 7.6095018424287852 52.4572110025718672 Ba
atom 5.0656332581241772 5.0656332581241514 49.8469585813515934 Zr
atom 10.1238253755767111 5.1372059280257227 49.8469585813515934 Zr
atom 5.1372059280257378 10.1238253755766578 49.8469585813515934 Zr
atom 10.1440928220943309 10.1440928220943025 49.8469585813515934 Zr
atom 5.0804713598765510 5.0804713598765288 54.8738625856328071 Zr
atom 10.1089872738243223 5.1223678262733428 54.8738625856328071 Zr
atom 5.1223678262733614 10.1089872738242850 54.8738625856328071 Zr
atom 10.1589309238467056 10.1589309238466630 54.8738625856328071 Zr
atom 5.2655006687620363 5.2655006687620212 47.3625919094393169 S
atom 9.9239579649388450 4.9373385173878503 47.3625919094393169 S
atom 4.9373385173878672 9.9239579649388219 47.3625919094393169 S
atom 10.3439602327321793 10.3439602327321474 47.3625919094393169 S
atom 4.7709668942079144 4.7709668942078984 52.3967268504432724 S
atom 10.4184917394929624 5.4318722919419731 52.3967268504432724 S
atom 5.4318722919419926 10.4184917394929268 52.3967268504432724 S
atom 9.8494264581780513 9.8494264581780477 52.3967268504432724 S
atom 5.0554995348653549 2.5621898110898678 49.6957662878348643 S
atom 10.0880390406259099 2.6081098692994624 50.2024967054842861 S
atom 5.1014195930749553 7.5947293168504171 50.2024967054842861 S
atom 10.1339590988355219 7.6406493750600077 49.6957662878348643 S
atom 5.0554995348653549 2.5621898110898678 55.2273354671550010 S
atom 10.0880390406259099 2.6081098692994624 54.5392446493648677 S
atom 5.1014195930749553 7.5947293168504171 54.5392446493648677 S
atom 10.1339590988355219 7.6406493750600077 55.2273354671550010 S
atom 2.5621898110898775 5.0554995348653433 49.6957662878348572 S
atom 7.5947293168504322 5.1014195930749375 50.2024967054842861 S
atom 2.6081098692994691 10.0880390406258904 50.2024967054842861 S
atom 7.6406493750600264 10.1339590988354775 49.6957662878348643 S
atom 2.5621898110898775 5.0554995348653433 55.2273354671550010 S
atom 7.5947293168504322 5.1014195930749375 54.5392446493648677 S
atom 2.6081098692994691 10.0880390406258904 54.5392446493648677 S
atom 7.6406493750600264 10.1339590988354775 55.2273354671550010 S
atom 2.5740939750360590 2.5740939750360510 57.3712222411511164 Ba
atom 7.5369050946946636 2.5502856471436872 57.3712222411511021 Ba
atom 2.5502856471436961 7.5369050946946343 57.3712222411511021 Ba
atom 7.6525535390062212 7.6525535390061945 57.3712222411511164 Ba
atom 2.5031303679740438 2.5031303679740327 62.3294247396004835 Ba
atom 7.6078687017566722 2.6212492542056980 62.3294247396004835 Ba
atom 2.6212492542057091 7.6078687017566464 62.3294247396004835 Ba
atom 7.5815899319442019 7.5815899319441762 62.3294247396004835 Ba
atom 5.0789682760344350 5.0789682760344244 59.8418369468928901 Zr
atom 10.1104903576664320 5.1238709101154498 59.8418369468928972 Zr
atom 5.1238709101154720 10.1104903576664089 59.8418369468928972 Zr
atom 10.1574278400046030 10.1574278400045639 59.8418369468928901 Zr
atom 5.0782800697323403 5.0782800697323287 64.8062648453686307 Zr
atom 10.1111785639685348 5.1245591164175464 64.8062648453686450 Zr
atom 5.1245591164175615 10.1111785639684832 64.8062648453686450 Zr
atom 10.1567396337025038 10.1567396337024611 64.8062648453686023 Zr
atom 5.4275993504544227 5.4275993504544111 57.3643115463035898 S
atom 9.7618592832464550 4.7752398356954693 57.3643115463035898 S
atom 4.7752398356954817 9.7618592832464230 57.3643115463035898 S
atom 10.5060589144245871 10.5060589144245409 57.3643115463035898 S
atom 4.7250488294934421 4.7250488294934234 62.3261964160133388 S
atom 10.4644098042074418 5.4777903566564516 62.3261964160133388 S
atom 5.4777903566564667 10.4644098042074010 62.3261964160133388 S
atom 9.8035083934635967 9.8035083934635594 62.3261964160133388 S
atom 5.0554995348653549 2.5621898110898673 59.4843002992300711 S
atom 10.0880390406259099 2.6081098692994620 60.2121018926041316 S
atom 5.1014195930749553 7.5947293168504171 60.2121018926041316 S
atom 10.1339590988355219 7.6406493750600077 59.4843002992300711 S
atom 5.0554995348653549 2.5621898110898673 65.1736361764243668 S
atom 10.0880390406259099 2.6081098692994620 64.4429738645862358 S
atom 5.1014195930749553 7.5947293168504171 64.4429738645862358 S
atom 10.1339590988355219 7.6406493750600077 65.1736361764243668 S
atom 2.5621898110898775 5.0554995348653433 59.4843002992300711 S
atom 7.5947293168504322 5.1014195930749375 60.2121018926041316 S
atom 2.6081098692994691 10.0880390406258904 60.2121018926041316 S
atom 7.6406493750600264 10.1339590988354775 59.4843002992300711 S
atom 2.5621898110898775 5.0554995348653433 65.1736361764243668 S
atom 7.5947293168504322 5.1014195930749375 64.4429738645862358 S
atom 2.6081098692994691 10.0880390406258904 64.4429738645862358 S
atom 7.6406493750600264 10.1339590988354775 65.1736361764243668 S
atom 2.5757974834088193 2.5757974834088113 67.2889335312348891 Ba
atom 7.5352015863218940 2.5485821387709184 67.2889335312348891 Ba
atom 2.5485821387709260 7.5352015863218753 67.2889335312348891 Ba
atom 7.6542570473789828 7.6542570473789580 67.2889335312348891 Ba
atom 2.5026620805613344 2.5026620805613260 72.2506640884202653 Ba
atom 7.6083369891693788 2.6217175416184038 72.2506640884202653 Ba
atom 2.6217175416184171 7.6083369891693584 72.2506640884202653 Ba
atom 7.5811216445314971 7.5811216445314624 72.2506640884202653 Ba
atom 5.0784595639701600 5.0784595639701458 69.7697988098275914 Zr
atom 10.1109990697307097 5.1243796221797373 69.7697988098275914 Zr
atom 5.1243796221797551 10.1109990697306866 69.7697988098275914 Zr
atom 10.1569191279403199 10.1569191279402915 69.7697988098275914 Zr
atom 5.0786390582079619 5.0786390582079566 74.7333327742864668 Zr
atom 10.1108195754928953 5.1242001279419229 74.7333327742864526 Zr
atom 5.1242001279419416 10.1108195754928865 74.7333327742864526 Zr
atom 10.1570986221781272 10.1570986221780988 74.7333327742864668 Zr
atom 5.4324492547797760 5.4324492547797565 67.2886587613325986 S
atom 9.7570093789210883 4.7703899313701132 67.2886587613325986 S
atom 4.7703899313701301 9.7570093789210652 67.2886587613325986 S
atom 10.5109088187499502 10.5109088187499040 67.2886587613325986 S
atom 4.7244698731605324 4.7244698731605146 72.2509388583225132 S
atom 10.4649887605403453 5.4783693129893614 72.2509388583225132 S
atom 5.4783693129893809 10.4649887605403045 72.2509388583225132 S
atom 9.8029294371306950 9.8029294371306577 72.2509388583225132 S
atom 5.0554995348653549 2.5621898110898673 69.4039799202969618 S
atom 10.0880390406259099 2.6081098692994620 70.1356176993581499 S
atom 5.1014195930749553 7.5947293168504162 70.1356176993581499 S
atom 10.1339590988355219 7.6406493750600077 69.4039799202969618 S
atom 5.0554995348653549 2.5621898110898673 75.0966237550688476 S
atom 10.0880390406259099 2.6081098692994620 74.3659614432307450 S
atom 5.1014195930749553 7.5947293168504162 74.3659614432307450 S
atom 10.1339590988355219 7.6406493750600069 75.0966237550688476 S
atom 2.5621898110898775 5.0554995348653433 69.4039799202969618 S
atom 7.5947293168504322 5.1014195930749366 70.1356176993581499 S
atom 2.6081098692994691 10.0880390406258904 70.1356176993581499 S
atom 7.6406493750600264 10.1339590988354775 69.4039799202969760 S
atom 2.5621898110898775 5.0554995348653424 75.0966237550688476 S
atom 7.5947293168504322 5.1014195930749366 74.3659614432307450 S
atom 2.6081098692994691 10.0880390406258904 74.3659614432307450 S
atom 7.6406493750600264 10.1339590988354775 75.0966237550688476 S
atom 2.5753291959961135 2.5753291959961073 77.2101728800545999 Ba
atom 7.5356698737346113 2.5490504261836300 77.2101728800546141 Ba
atom 2.5490504261836366 7.5356698737345829 77.2101728800546141 Ba
atom 7.6537887599662708 7.6537887599662415 77.2101728800545999 Ba
atom 2.5043655889341019 2.5043655889340850 82.1683753785039812 Ba
atom 7.6066334807966172 2.6200140332456430 82.1683753785039812 Ba
atom 2.6200140332456501 7.6066334807966012 82.1683753785039812 Ba
atom 7.5828251529042525 7.5828251529042294 82.1683753785039954 Ba
atom 5.0779508519058805 5.0779508519058547 79.6977606727622145 Zr
atom 10.1115077817949963 5.1248883342440177 79.6977606727622145 Zr
atom 5.1248883342440310 10.1115077817949466 79.6977606727622145 Zr
atom 10.1564104158760227 10.1564104158759942 79.6977606727622145 Zr
atom 5.0764477680637627 5.0764477680637441 84.6657350340224184 Zr
atom 10.1130108656371114 5.1263914180861274 84.6657350340224184 Zr
atom 5.1263914180861452 10.1130108656370599 84.6657350340224184 Zr
atom 10.1549073320339343 10.1549073320338969 84.6657350340224184 Zr
atom 5.4318702984468707 5.4318702984468521 77.2134012036417090 S
atom 9.7575883352539954 4.7709688877030203 77.2134012036417090 S
atom 4.7709688877030301 9.7575883352539776 77.2134012036417090 S
atom 10.5103298624170236 10.5103298624170005 77.2134012036417090 S
atom 4.7293197774858857 4.7293197774858742 82.1752860733516002 S
atom 10.4601388562149999 5.4735194086640053 82.1752860733516002 S
atom 5.4735194086640275 10.4601388562149520 82.1752860733516002 S
atom 9.8077793414560457 9.8077793414560297 82.1752860733516002 S
atom 5.0554995348653549 2.5621898110898673 79.3274957270510868 S
atom 10.0880390406259099 2.6081098692994620 80.0552973204249980 S
atom 5.1014195930749553 7.5947293168504162 80.0552973204249980 S
atom 10.1339590988355219 7.6406493750600069 79.3274957270510868 S
atom 5.0554995348653549 2.5621898110898669 85.0003529702903364 S
atom 10.0880390406259099 2.6081098692994615 84.3122621525001534 S
atom 5.1014195930749553 7.5947293168504162 84.3122621525001534 S
atom 10.1339590988355219 7.6406493750600069 85.0003529702903364 S
atom 2.5621898110898775 5.0554995348653424 79.3274957270510868 S
atom 7.5947293168504322 5.1014195930749366 80.0552973204249980 S
atom 2.6081098692994691 10.0880390406258904 80.0552973204249980 S
atom 7.6406493750600264 10.1339590988354775 79.3274957270510868 S
atom 2.5621898110898775 5.0554995348653424 85.0003529702903364 S
atom 7.5947293168504322 5.1014195930749366 84.3122621525001534 S
atom 2.6081098692994691 10.0880390406258904 84.3122621525001534 S
atom 7.6406493750600264 10.1339590988354775 85.0003529702903364 S
atom 2.5474172855114965 2.5474172855114854 87.0823866170831167 Ba
atom 7.5635817842192150 2.5769623366682417 87.0823866170831309 Ba
atom 2.5769623366682581 7.5635817842191937 87.0823866170831309 Ba
atom 7.6258768494816582 7.6258768494816360 87.0823866170831167 Ba
atom 2.6375772050647948 2.6375772050647810 91.7593052781996619 Ba
atom 7.4734218646659194 2.4868024171149479 91.7593052781996619 Ba
atom 2.4868024171149585 7.4734218646659007 91.7593052781996619 Ba
atom 7.7160367690349432 7.7160367690349334 91.7593052781996619 Ba
atom 5.0912858698161401 5.0912858698161303 89.6926390383035255 Zr
atom 10.0981727638847385 5.1115533163337510 89.6926390383035255 Zr
atom 5.1115533163337581 10.0981727638846976 89.6926390383035255 Zr
atom 10.1697454337862929 10.1697454337862503 89.6926390383035255 Zr
atom 5.3859522337324064 5.3859522337323851 87.1428707692118252 S
atom 9.8035063999684784 4.8168869524174935 87.1428707692118252 S
atom 4.8168869524174944 9.8035063999684429 87.1428707692118252 S
atom 10.4644117977025441 10.4644117977025193 87.1428707692118252 S
atom 4.8914184591782766 4.8914184591782561 92.1770057102158944 S
atom 10.2980401745225976 5.3114207269716180 92.1770057102158944 S
atom 5.3114207269716349 10.2980401745225532 92.1770057102158944 S
atom 9.9698780231484445 9.9698780231484108 92.1770057102158944 S
atom 5.0554995348653549 2.5621898110898669 89.3371009141707617 S
atom 10.0880390406259099 2.6081098692994615 89.8438313318203257 S
atom 5.1014195930749553 7.5947293168504162 89.8438313318203257 S
atom 10.1339590988355219 7.6406493750600069 89.3371009141707617 S
atom 2.5621898110898775 5.0554995348653424 89.3371009141707617 S
atom 7.5947293168504322 5.1014195930749366 89.8438313318203257 S
atom 2.6081098692994691 10.0880390406258904 89.8438313318203257 S
atom 7.6406493750600264 10.1339590988354775 89.3371009141707617 S
