#=======================================================
# FHI-aims file: sym_relax/sym_relax_RP_9_Rx00_0Ry0.in
# Created using the Atomic Simulation Environment (ASE)
# Mon Mar 17 16:31:35 2025
#=======================================================
lattice_vector 10.0778697932052825 -0.0000000000000004 0.0000000000000000 
lattice_vector -0.0000000000000004 10.0778697932052825 0.0000000000000000 
lattice_vector 0.0000000000000000 0.0000000000000000 94.8362459403065827 
atom -0.1680730411680015 0.0000000000000000 0.2881943091803072 Ba
atom 5.2070079377706460 -0.0000000000000000 0.2881943091803072 Ba
atom 0.1680730411680014 5.0389348966026377 0.2881943091803072 Ba
atom 4.8708618554346330 5.0389348966026377 0.2881943091803072 Ba
atom 0.0261963115193912 -0.0000000000000000 4.9615168116922757 Ba
atom 5.0127385850832455 0.0000000000000000 4.9615168116922757 Ba
atom -0.0261963115193912 5.0389348966026377 4.9615168116922757 Ba
atom 5.0651312081220290 5.0389348966026377 4.9615168116922757 Ba
atom 2.5194674483013189 2.4977359988336008 2.3384657459151481 Zr
atom 7.5584023449039650 2.5411988977690410 2.3384657459151481 Zr
atom 2.5194674483013189 7.5801337943716822 2.3384657459151481 Zr
atom 7.5584023449039650 7.5366708954362389 2.3384657459151481 Zr
atom 2.5194674483013189 2.5186080769901831 7.3539438761912379 Zr
atom 7.5584023449039650 2.5203268196124600 7.3539438761912379 Zr
atom 2.5194674483013189 7.5592617162151008 7.3539438761912379 Zr
atom 7.5584023449039650 7.5575429735928230 7.3539438761912379 Zr
atom 2.5194674483013189 2.8050994475023616 -0.1406091823582664 S
atom 7.5584023449039650 2.2338354491002814 -0.1406091823582663 S
atom 2.5194674483013189 7.2727703457029200 -0.1406091823582663 S
atom 7.5584023449039650 7.8440343441049984 -0.1406091823582664 S
atom 2.5194674483013189 2.0541068631862927 4.8837937953205834 S
atom 7.5584023449039650 2.9848280334163473 4.8837937953205834 S
atom 2.5194674483013189 8.0237629300189912 4.8837937953205834 S
atom 7.5584023449039650 7.0930417597889335 4.8837937953205834 S
atom 2.5194674483013189 0.0000000000000000 2.0402611558838180 S
atom 7.5584023449039650 0.0000000000000000 2.7805190909443871 S
atom 2.5194674483013189 5.0389348966026377 2.7805190909443871 S
atom 7.5584023449039650 5.0389348966026377 2.0402611558838180 S
atom 2.5194674483013189 0.0000000000000000 7.8312256256118022 S
atom 7.5584023449039650 0.0000000000000000 6.8957549410731955 S
atom 2.5194674483013189 5.0389348966026377 6.8957549410731955 S
atom 7.5584023449039650 5.0389348966026377 7.8312256256118022 S
atom -0.0000000000000000 2.5194674483013189 2.4774765662732867 S
atom 5.0389348966026377 2.5194674483013189 2.4774765662732867 S
atom -0.0000000000000000 7.5584023449039650 2.4774765662732867 S
atom 5.0389348966026377 7.5584023449039650 2.4774765662732867 S
atom 0.0000000000000000 2.5194674483013189 7.3738257725731220 S
atom 5.0389348966026377 2.5194674483013189 7.3738257725731220 S
atom -0.0000000000000000 7.5584023449039650 7.3738257725731220 S
atom 5.0389348966026377 7.5584023449039650 7.3738257725731220 S
atom -0.0068173469252329 0.0000000000000000 9.8596089374608749 Ba
atom 5.0457522435278728 -0.0000000000000000 9.8596089374608749 Ba
atom 0.0068173469252329 5.0389348966026377 9.8596089374608749 Ba
atom 5.0321175496774027 5.0389348966026377 9.8596089374608749 Ba
atom 0.0066835733838835 -0.0000000000000000 14.8016932252974236 Ba
atom 5.0322513232187660 0.0000000000000000 14.8016932252974236 Ba
atom -0.0066835733838835 5.0389348966026377 14.8016932252974236 Ba
atom 5.0456184699865245 5.0389348966026377 14.8016932252974236 Ba
atom 2.5194674483013189 2.5211552448244015 12.3137246119798895 Zr
atom 7.5584023449039650 2.5177796517782385 12.3137246119798895 Zr
atom 2.5194674483013189 7.5567145483808744 12.3137246119798895 Zr
atom 7.5584023449039650 7.5600901414270361 12.3137246119798895 Zr
atom 2.5194674483013189 2.5191018433800973 17.2710949880168485 Zr
atom 7.5584023449039650 2.5198330532225444 17.2710949880168485 Zr
atom 2.5194674483013189 7.5587679498251843 17.2710949880168485 Zr
atom 7.5584023449039650 7.5580367399827324 17.2710949880168485 Zr
atom 2.5194674483013189 3.0269404534997015 9.8411113065144793 S
atom 7.5584023449039650 2.0119944431029406 9.8411113065144793 S
atom 2.5194674483013189 7.0509293397055819 9.8411113065144793 S
atom 7.5584023449039650 8.0658753501023384 9.8411113065144793 S
atom 2.5194674483013189 2.0106588968936530 14.7951167467076612 S
atom 7.5584023449039650 3.0282759997089852 14.7951167467076612 S
atom 2.5194674483013189 8.0672108963116109 14.7951167467076612 S
atom 7.5584023449039650 7.0495937934962916 14.7951167467076612 S
atom 2.5194674483013189 0.0000000000000000 11.8422969837686836 S
atom 7.5584023449039650 0.0000000000000000 12.8025015875715180 S
atom 2.5194674483013189 5.0389348966026377 12.8025015875715180 S
atom 7.5584023449039650 5.0389348966026377 11.8422969837686836 S
atom 2.5194674483013189 0.0000000000000000 17.7550845413982437 S
atom 7.5584023449039650 0.0000000000000000 16.7925097873875409 S
atom 2.5194674483013189 5.0389348966026377 16.7925097873875409 S
atom 7.5584023449039650 5.0389348966026377 17.7550845413982437 S
atom -0.0000000000000000 2.5194674483013189 12.3225362652867751 S
atom 5.0389348966026377 2.5194674483013189 12.3225362652867751 S
atom -0.0000000000000000 7.5584023449039650 12.3225362652867751 S
atom 5.0389348966026377 7.5584023449039650 12.3225362652867751 S
atom -0.0000000000000000 2.5194674483013189 17.2735425401601859 S
atom 5.0389348966026377 2.5194674483013189 17.2735425401601859 S
atom -0.0000000000000000 7.5584023449039650 17.2735425401601859 S
atom 5.0389348966026377 7.5584023449039650 17.2735425401601859 S
atom -0.0057936858490196 0.0000000000000000 19.7508506721164387 Ba
atom 5.0447285824516674 -0.0000000000000000 19.7508506721164387 Ba
atom 0.0057936858490196 5.0389348966026377 19.7508506721164387 Ba
atom 5.0331412107536231 5.0389348966026377 19.7508506721164387 Ba
atom 0.0057936858490196 -0.0000000000000000 24.7036396124022986 Ba
atom 5.0331412107536231 0.0000000000000000 24.7036396124022986 Ba
atom -0.0057936858490196 5.0389348966026377 24.7036396124022986 Ba
atom 5.0447285824516674 5.0389348966026377 24.7036396124022986 Ba
atom 2.5194674483013189 2.5194674483013189 22.2272451422593527 Zr
atom 7.5584023449039650 2.5194674483013189 22.2272451422593527 Zr
atom 2.5194674483013189 7.5584023449039650 22.2272451422593527 Zr
atom 7.5584023449039650 7.5584023449039650 22.2272451422593527 Zr
atom 2.5194674483013189 2.5198330532225444 27.1833952965019208 Zr
atom 7.5584023449039650 2.5191018433800973 27.1833952965019208 Zr
atom 2.5194674483013189 7.5580367399827324 27.1833952965019208 Zr
atom 7.5584023449039650 7.5587679498251843 27.1833952965019208 Zr
atom 2.5194674483013189 3.0291572337701744 19.7499223061130778 S
atom 7.5584023449039650 2.0097776628324655 19.7499223061130778 S
atom 2.5194674483013189 7.0487125594351028 19.7499223061130778 S
atom 7.5584023449039650 8.0680921303728201 19.7499223061130778 S
atom 2.5194674483013189 2.0097776628324646 24.7045679784056773 S
atom 7.5584023449039650 3.0291572337701744 24.7045679784056773 S
atom 2.5194674483013189 8.0680921303728201 24.7045679784056773 S
atom 7.5584023449039650 7.0487125594351037 24.7045679784056773 S
atom 2.5194674483013189 0.0000000000000000 21.7451306308081698 S
atom 7.5584023449039650 0.0000000000000000 22.7093596537105391 S
atom 2.5194674483013189 5.0389348966026377 22.7093596537105391 S
atom 7.5584023449039650 5.0389348966026377 21.7451306308081698 S
atom 2.5194674483013189 0.0000000000000000 27.6619804971311680 S
atom 7.5584023449039650 0.0000000000000000 26.6994057431204617 S
atom 2.5194674483013189 5.0389348966026377 26.6994057431204617 S
atom 7.5584023449039650 5.0389348966026377 27.6619804971311680 S
atom -0.0000000000000000 2.5194674483013189 22.2272451422593527 S
atom 5.0389348966026377 2.5194674483013189 22.2272451422593527 S
atom -0.0000000000000000 7.5584023449039650 22.2272451422593527 S
atom 5.0389348966026377 7.5584023449039650 22.2272451422593527 S
atom -0.0000000000000000 2.5194674483013189 27.1809477443585692 S
atom 5.0389348966026377 2.5194674483013189 27.1809477443585692 S
atom -0.0000000000000000 7.5584023449039650 27.1809477443585692 S
atom 5.0389348966026377 7.5584023449039650 27.1809477443585692 S
atom -0.0066835733838835 0.0000000000000000 29.6527970592213030 Ba
atom 5.0456184699865245 -0.0000000000000000 29.6527970592213030 Ba
atom 0.0066835733838835 5.0389348966026377 29.6527970592213030 Ba
atom 5.0322513232187660 5.0389348966026377 29.6527970592213030 Ba
atom 0.0068173469252329 -0.0000000000000000 34.5948813470578216 Ba
atom 5.0321175496774027 0.0000000000000000 34.5948813470578216 Ba
atom -0.0068173469252329 5.0389348966026377 34.5948813470578216 Ba
atom 5.0457522435278728 5.0389348966026377 34.5948813470578216 Ba
atom 2.5194674483013189 2.5177796517782385 32.1407656725388620 Zr
atom 7.5584023449039650 2.5211552448244015 32.1407656725388620 Zr
atom 2.5194674483013189 7.5600901414270361 32.1407656725388620 Zr
atom 7.5584023449039650 7.5567145483808744 32.1407656725388620 Zr
atom 2.5194674483013189 2.5203268196124600 37.1005464083274816 Zr
atom 7.5584023449039650 2.5186080769901831 37.1005464083274816 Zr
atom 2.5194674483013189 7.5575429735928230 37.1005464083274816 Zr
atom 7.5584023449039650 7.5592617162151008 37.1005464083274816 Zr
atom 2.5194674483013189 3.0282759997089852 29.6593735378110779 S
atom 7.5584023449039650 2.0106588968936525 29.6593735378110814 S
atom 2.5194674483013189 7.0495937934962898 29.6593735378110814 S
atom 7.5584023449039650 8.0672108963116109 29.6593735378110779 S
atom 2.5194674483013189 2.0119944431029406 34.6133789780042491 S
atom 7.5584023449039650 3.0269404534997033 34.6133789780042491 S
atom 2.5194674483013189 8.0658753501023384 34.6133789780042491 S
atom 7.5584023449039650 7.0509293397055819 34.6133789780042491 S
atom 2.5194674483013189 0.0000000000000000 31.6519886969472068 S
atom 7.5584023449039650 0.0000000000000000 32.6121933007501070 S
atom 2.5194674483013189 5.0389348966026377 32.6121933007501070 S
atom 7.5584023449039650 5.0389348966026377 31.6519886969472068 S
atom 2.5194674483013189 0.0000000000000000 37.5587353434455764 S
atom 7.5584023449039650 0.0000000000000000 36.6232646589068693 S
atom 2.5194674483013189 5.0389348966026377 36.6232646589068693 S
atom 7.5584023449039650 5.0389348966026377 37.5587353434455764 S
atom -0.0000000000000000 2.5194674483013189 32.1319540192319408 S
atom 5.0389348966026377 2.5194674483013189 32.1319540192319408 S
atom -0.0000000000000000 7.5584023449039650 32.1319540192319408 S
atom 5.0389348966026377 7.5584023449039650 32.1319540192319408 S
atom -0.0000000000000000 2.5194674483013189 37.0806645119456135 S
atom 5.0389348966026377 2.5194674483013189 37.0806645119456135 S
atom -0.0000000000000000 7.5584023449039650 37.0806645119456135 S
atom 5.0389348966026377 7.5584023449039650 37.0806645119456135 S
atom -0.0261963115193912 0.0000000000000000 39.4929734728264208 Ba
atom 5.0651312081220290 -0.0000000000000000 39.4929734728264208 Ba
atom 0.0261963115193912 5.0389348966026377 39.4929734728264208 Ba
atom 5.0127385850832455 5.0389348966026377 39.4929734728264208 Ba
atom 0.1680730411680014 -0.0000000000000000 44.1662959753384072 Ba
atom 4.8708618554346330 0.0000000000000000 44.1662959753384072 Ba
atom -0.1680730411680014 5.0389348966026377 44.1662959753384072 Ba
atom 5.2070079377706460 5.0389348966026377 44.1662959753384072 Ba
atom 2.5194674483013189 2.5411988977690410 42.1160245386035896 Zr
atom 7.5584023449039650 2.4977359988336008 42.1160245386035896 Zr
atom 2.5194674483013189 7.5366708954362389 42.1160245386035896 Zr
atom 7.5584023449039650 7.5801337943716822 42.1160245386035896 Zr
atom 2.5194674483013189 2.9848280334163473 39.5706964891980633 S
atom 7.5584023449039650 2.0541068631862918 39.5706964891980633 S
atom 2.5194674483013189 7.0930417597889317 39.5706964891980633 S
atom 7.5584023449039650 8.0237629300189912 39.5706964891980633 S
atom 2.5194674483013189 2.2338354491002814 44.5950994668769525 S
atom 7.5584023449039650 2.8050994475023616 44.5950994668769525 S
atom 2.5194674483013189 7.8440343441049984 44.5950994668769525 S
atom 7.5584023449039650 7.2727703457029200 44.5950994668769525 S
atom 2.5194674483013189 0.0000000000000000 41.6739711935742747 S
atom 7.5584023449039650 0.0000000000000000 42.4142291286348936 S
atom 2.5194674483013189 5.0389348966026377 42.4142291286348936 S
atom 7.5584023449039650 5.0389348966026377 41.6739711935742747 S
atom -0.0000000000000000 2.5194674483013189 41.9770137182453951 S
atom 5.0389348966026377 2.5194674483013189 41.9770137182453951 S
atom -0.0000000000000000 7.5584023449039650 41.9770137182453951 S
atom 5.0389348966026377 7.5584023449039650 41.9770137182453951 S
atom 2.5194674483013189 2.3513944071333182 47.7063172793336179 Ba
atom 7.5584023449039650 2.6875404894693244 47.7063172793336179 Ba
atom 2.5194674483013189 7.7264753860719635 47.7063172793336179 Ba
atom 7.5584023449039650 7.3903293037359523 47.7063172793336179 Ba
atom 2.5194674483013189 2.5456637598207119 52.3796397818456327 Ba
atom 7.5584023449039650 2.4932711367819298 52.3796397818456327 Ba
atom 2.5194674483013189 7.5322060333845666 52.3796397818456327 Ba
atom 7.5584023449039650 7.5845986564233483 52.3796397818456327 Ba
atom 5.0172034471349169 5.0389348966026377 49.7565887160684781 Zr
atom 10.0996012426730122 5.0389348966026377 49.7565887160684781 Zr
atom 5.0606663460703674 10.0778697932052754 49.7565887160684781 Zr
atom 10.0561383437375671 10.0778697932052754 49.7565887160684781 Zr
atom 5.0380755252915010 5.0389348966026377 54.7720668463445435 Zr
atom 10.0787291645164228 5.0389348966026377 54.7720668463445435 Zr
atom 5.0397942679137833 10.0778697932052754 54.7720668463445435 Zr
atom 10.0770104218941423 10.0778697932052754 54.7720668463445435 Zr
atom 5.3245668958036854 5.0389348966026377 47.2775137877950797 S
atom 9.7922377940042438 5.0389348966026368 47.2775137877950797 S
atom 4.7533028974015972 10.0778697932052754 47.2775137877950797 S
atom 10.3635017924063249 10.0778697932052754 47.2775137877950797 S
atom 4.5735743114876097 5.0389348966026377 52.3019167654739547 S
atom 10.5432303783203132 5.0389348966026377 52.3019167654739547 S
atom 5.5042954817176719 10.0778697932052754 52.3019167654739547 S
atom 9.6125092080902537 10.0778697932052754 52.3019167654739547 S
atom 5.0389348966026377 2.5194674483013189 49.8955995364266016 S
atom 10.0778697932052754 2.5194674483013189 49.8955995364266016 S
atom 5.0389348966026377 7.5584023449039650 49.8955995364266016 S
atom 10.0778697932052754 7.5584023449039650 49.8955995364266016 S
atom 5.0389348966026377 2.5194674483013189 54.7919487427264258 S
atom 10.0778697932052754 2.5194674483013189 54.7919487427264258 S
atom 5.0389348966026377 7.5584023449039650 54.7919487427264258 S
atom 10.0778697932052754 7.5584023449039650 54.7919487427264258 S
atom 2.5194674483013189 5.0389348966026377 49.4583841260371173 S
atom 7.5584023449039650 5.0389348966026377 50.1986420610977788 S
atom 2.5194674483013189 10.0778697932052754 50.1986420610977788 S
atom 7.5584023449039650 10.0778697932052754 49.4583841260371173 S
atom 2.5194674483013189 5.0389348966026377 55.2493485957651487 S
atom 7.5584023449039650 5.0389348966026377 54.3138779112265055 S
atom 2.5194674483013189 10.0778697932052754 54.3138779112265055 S
atom 7.5584023449039650 10.0778697932052754 55.2493485957651487 S
atom 2.5194674483013189 2.5126501013760887 57.2777319076141964 Ba
atom 7.5584023449039650 2.5262847952265490 57.2777319076141964 Ba
atom 2.5194674483013189 7.5652196918291938 57.2777319076141964 Ba
atom 7.5584023449039650 7.5515849979787282 57.2777319076141964 Ba
atom 2.5194674483013189 2.5261510216852034 62.2198161954507185 Ba
atom 7.5584023449039650 2.5127838749174396 62.2198161954507185 Ba
atom 2.5194674483013189 7.5517187715200809 62.2198161954507185 Ba
atom 7.5584023449039650 7.5650859182878420 62.2198161954507185 Ba
atom 5.0406226931257283 5.0389348966026377 59.7318475821331987 Zr
atom 10.0761819966821999 5.0389348966026377 59.7318475821331987 Zr
atom 5.0372471000795542 10.0778697932052754 59.7318475821331987 Zr
atom 10.0795575897283545 10.0778697932052754 59.7318475821331987 Zr
atom 5.0385692916814167 5.0389348966026377 64.6892179581701185 Zr
atom 10.0782353981265214 5.0389348966026377 64.6892179581701185 Zr
atom 5.0393005015238703 10.0778697932052754 64.6892179581701185 Zr
atom 10.0775041882840490 10.0778697932052754 64.6892179581701185 Zr
atom 5.5464079018010217 5.0389348966026377 57.2592342766677476 S
atom 9.5703967880068994 5.0389348966026368 57.2592342766677476 S
atom 4.5314618914042617 10.0778697932052754 57.2592342766677476 S
atom 10.5853427984036443 10.0778697932052754 57.2592342766677476 S
atom 4.5301263451949794 5.0389348966026377 62.2132397168609828 S
atom 10.5866783446129453 5.0389348966026377 62.2132397168609828 S
atom 5.5477434480103112 10.0778697932052754 62.2132397168609828 S
atom 9.5690612417976073 10.0778697932052754 62.2132397168609828 S
atom 5.0389348966026377 2.5194674483013189 59.7406592354400630 S
atom 10.0778697932052754 2.5194674483013189 59.7406592354400630 S
atom 5.0389348966026377 7.5584023449039650 59.7406592354400630 S
atom 10.0778697932052754 7.5584023449039650 59.7406592354400630 S
atom 5.0389348966026377 2.5194674483013189 64.6916655103134985 S
atom 10.0778697932052754 2.5194674483013189 64.6916655103134985 S
atom 5.0389348966026377 7.5584023449039650 64.6916655103134985 S
atom 10.0778697932052754 7.5584023449039650 64.6916655103134985 S
atom 2.5194674483013189 5.0389348966026377 59.2604199539219820 S
atom 7.5584023449039650 5.0389348966026377 60.2206245577247756 S
atom 2.5194674483013189 10.0778697932052754 60.2206245577247756 S
atom 7.5584023449039650 10.0778697932052754 59.2604199539219820 S
atom 2.5194674483013189 5.0389348966026377 65.1732075115515670 S
atom 7.5584023449039650 5.0389348966026377 64.2106327575409068 S
atom 2.5194674483013189 10.0778697932052754 64.2106327575409068 S
atom 7.5584023449039650 10.0778697932052754 65.1732075115515670 S
atom 2.5194674483013189 2.5136737624523007 67.1689736422697905 Ba
atom 7.5584023449039650 2.5252611341503384 67.1689736422697763 Ba
atom 2.5194674483013189 7.5641960307529761 67.1689736422697763 Ba
atom 7.5584023449039650 7.5526086590549406 67.1689736422697905 Ba
atom 2.5194674483013189 2.5252611341503384 72.1217625825556468 Ba
atom 7.5584023449039650 2.5136737624523007 72.1217625825556468 Ba
atom 2.5194674483013189 7.5526086590549406 72.1217625825556468 Ba
atom 7.5584023449039650 7.5641960307529761 72.1217625825556468 Ba
atom 5.0389348966026377 5.0389348966026377 69.6453681124127257 Zr
atom 10.0778697932052754 5.0389348966026377 69.6453681124127257 Zr
atom 5.0389348966026377 10.0778697932052754 69.6453681124127257 Zr
atom 10.0778697932052754 10.0778697932052754 69.6453681124127257 Zr
atom 5.0393005015238703 5.0389348966026377 74.6015182666552050 Zr
atom 10.0775041882840490 5.0389348966026377 74.6015182666552050 Zr
atom 5.0385692916814167 10.0778697932052754 74.6015182666552050 Zr
atom 10.0782353981265214 10.0778697932052754 74.6015182666552050 Zr
atom 5.5486246820714946 5.0389348966026377 67.1680452762663407 S
atom 9.5681800077364247 5.0389348966026368 67.1680452762663407 S
atom 4.5292451111337835 10.0778697932052754 67.1680452762663407 S
atom 10.5875595786741563 10.0778697932052754 67.1680452762663407 S
atom 4.5292451111337853 5.0389348966026377 72.1226909485590681 S
atom 10.5875595786741581 5.0389348966026377 72.1226909485590681 S
atom 5.5486246820714946 10.0778697932052754 72.1226909485590681 S
atom 9.5681800077364265 10.0778697932052754 72.1226909485590681 S
atom 5.0389348966026377 2.5194674483013189 69.6453681124127257 S
atom 10.0778697932052754 2.5194674483013189 69.6453681124127257 S
atom 5.0389348966026377 7.5584023449039650 69.6453681124127257 S
atom 10.0778697932052754 7.5584023449039650 69.6453681124127257 S
atom 5.0389348966026377 2.5194674483013189 74.5990707145118535 S
atom 10.0778697932052754 2.5194674483013189 74.5990707145118535 S
atom 5.0389348966026377 7.5584023449039650 74.5990707145118535 S
atom 10.0778697932052754 7.5584023449039650 74.5990707145118535 S
atom 2.5194674483013189 5.0389348966026377 69.1632536009614256 S
atom 7.5584023449039650 5.0389348966026377 70.1274826238639690 S
atom 2.5194674483013189 10.0778697932052754 70.1274826238639690 S
atom 7.5584023449039650 10.0778697932052754 69.1632536009614256 S
atom 2.5194674483013189 5.0389348966026377 75.0801034672844310 S
atom 7.5584023449039650 5.0389348966026377 74.1175287132736571 S
atom 2.5194674483013189 10.0778697932052754 74.1175287132736571 S
atom 7.5584023449039650 10.0778697932052754 75.0801034672844310 S
atom 2.5194674483013189 2.5127838749174396 77.0709200293746193 Ba
atom 7.5584023449039650 2.5261510216852034 77.0709200293746193 Ba
atom 2.5194674483013189 7.5650859182878420 77.0709200293746193 Ba
atom 7.5584023449039650 7.5517187715200809 77.0709200293746193 Ba
atom 2.5194674483013189 2.5262847952265490 82.0130043172112551 Ba
atom 7.5584023449039650 2.5126501013760887 82.0130043172112551 Ba
atom 2.5194674483013189 7.5515849979787282 82.0130043172112551 Ba
atom 7.5584023449039650 7.5652196918291938 82.0130043172112551 Ba
atom 5.0372471000795542 5.0389348966026377 79.5588886426920681 Zr
atom 10.0795575897283545 5.0389348966026377 79.5588886426920681 Zr
atom 5.0406226931257283 10.0778697932052754 79.5588886426920681 Zr
atom 10.0761819966821999 10.0778697932052754 79.5588886426920681 Zr
atom 5.0397942679137833 5.0389348966026377 84.5186693784808938 Zr
atom 10.0770104218941423 5.0389348966026377 84.5186693784808938 Zr
atom 5.0380755252915010 10.0778697932052754 84.5186693784808938 Zr
atom 10.0787291645164228 10.0778697932052754 84.5186693784808938 Zr
atom 5.5477434480103094 5.0389348966026377 77.0774965079643692 S
atom 9.5690612417976073 5.0389348966026377 77.0774965079643692 S
atom 4.5301263451949785 10.0778697932052754 77.0774965079643692 S
atom 10.5866783446129453 10.0778697932052754 77.0774965079643692 S
atom 4.5314618914042617 5.0389348966026377 82.0315019481575263 S
atom 10.5853427984036443 5.0389348966026377 82.0315019481575263 S
atom 5.5464079018010217 10.0778697932052754 82.0315019481575263 S
atom 9.5703967880068994 10.0778697932052754 82.0315019481575263 S
atom 5.0389348966026377 2.5194674483013189 79.5500769893851469 S
atom 10.0778697932052754 2.5194674483013189 79.5500769893851469 S
atom 5.0389348966026377 7.5584023449039650 79.5500769893851469 S
atom 10.0778697932052754 7.5584023449039650 79.5500769893851469 S
atom 5.0389348966026377 2.5194674483013189 84.4987874820989049 S
atom 10.0778697932052754 2.5194674483013189 84.4987874820989049 S
atom 5.0389348966026377 7.5584023449039650 84.4987874820989049 S
atom 10.0778697932052754 7.5584023449039650 84.4987874820989049 S
atom 2.5194674483013189 5.0389348966026377 79.0701116671004769 S
atom 7.5584023449039650 5.0389348966026377 80.0303162709032705 S
atom 2.5194674483013189 10.0778697932052754 80.0303162709032705 S
atom 7.5584023449039650 10.0778697932052754 79.0701116671004769 S
atom 2.5194674483013189 5.0389348966026377 84.9768583135987541 S
atom 7.5584023449039650 5.0389348966026377 84.0413876290603099 S
atom 2.5194674483013189 10.0778697932052754 84.0413876290603099 S
atom 7.5584023449039650 10.0778697932052754 84.9768583135987541 S
atom 2.5194674483013189 2.4932711367819298 86.9110964429798400 Ba
atom 7.5584023449039650 2.5456637598207119 86.9110964429798400 Ba
atom 2.5194674483013189 7.5845986564233483 86.9110964429798400 Ba
atom 7.5584023449039650 7.5322060333845666 86.9110964429798400 Ba
atom 2.5194674483013189 2.6875404894693244 91.5844189454917768 Ba
atom 7.5584023449039650 2.3513944071333182 91.5844189454917768 Ba
atom 2.5194674483013189 7.3903293037359523 91.5844189454917768 Ba
atom 7.5584023449039650 7.7264753860719635 91.5844189454917768 Ba
atom 5.0606663460703674 5.0389348966026377 89.5341475087568455 Zr
atom 10.0561383437375671 5.0389348966026377 89.5341475087568455 Zr
atom 5.0172034471349169 10.0778697932052754 89.5341475087568455 Zr
atom 10.0996012426730122 10.0778697932052754 89.5341475087568455 Zr
atom 5.5042954817176701 5.0389348966026377 86.9888194593514896 S
atom 9.6125092080902537 5.0389348966026377 86.9888194593514896 S
atom 4.5735743114876097 10.0778697932052754 86.9888194593514896 S
atom 10.5432303783203132 10.0778697932052754 86.9888194593514896 S
atom 4.7533028974015981 5.0389348966026377 92.0132224370303362 S
atom 10.3635017924063249 5.0389348966026377 92.0132224370303362 S
atom 5.3245668958036854 10.0778697932052754 92.0132224370303362 S
atom 9.7922377940042438 10.0778697932052754 92.0132224370303362 S
atom 5.0389348966026377 2.5194674483013189 89.3951366883986651 S
atom 10.0778697932052754 2.5194674483013189 89.3951366883986651 S
atom 5.0389348966026377 7.5584023449039650 89.3951366883986651 S
atom 10.0778697932052754 7.5584023449039650 89.3951366883986651 S
atom 2.5194674483013189 5.0389348966026377 89.0920941637275803 S
atom 7.5584023449039650 5.0389348966026377 89.8323520987881921 S
atom 2.5194674483013189 10.0778697932052754 89.8323520987881921 S
atom 7.5584023449039650 10.0778697932052754 89.0920941637275803 S
