#=======================================================
# FHI-aims file: sym_relax/sym_relax_RP_4_RxRyRz_RxRyRz.in
# Created using the Atomic Simulation Environment (ASE)
# Fri Mar 14 10:29:44 2025
#=======================================================
lattice_vector 10.0377722352323087 0.0292323903717073 0.0097048132188162 
lattice_vector 0.0292323903717075 10.0377722352322980 -0.0097048132188163 
lattice_vector 0.0430501086639474 -0.0430501086639475 45.6685327057784818 
atom 0.0188546072867360 -0.1214922302910294 0.2429649110381019 Ba
atom 5.1403783479071850 -0.0042384121008824 0.2478173176475099 Ba
atom 0.1361084254768829 5.0000315103294124 0.2381125044286937 Ba
atom 5.0523569200887399 4.9120100825109771 0.2429649110381018 Ba
atom -0.2352275829956327 0.1962998353153988 4.9788161575696037 Ba
atom 4.8225862823007555 0.2498437781814855 4.9836685641790188 Ba
atom -0.1816836401295448 5.2541137006117697 4.9739637509601975 Ba
atom 4.7982747298063853 5.2298021481174004 4.9788161575696028 Ba
atom 2.4924609755081262 2.5415822345852135 2.3718377403841582 Zr
atom 7.5108061958329655 2.5556575324797297 2.3766901469935626 Zr
atom 2.5065362734026477 7.5599274549100173 2.3669853337747462 Zr
atom 7.5259632883101411 7.5750845473872088 2.3718377403841577 Zr
atom 2.4546199686511758 2.5655349691311122 7.4200372686615923 Zr
atom 7.4868534612870441 2.5934985393366818 7.4248896752709994 Zr
atom 2.4825835388567530 7.5977684617669841 7.4151848620521887 Zr
atom 7.4881222814531823 7.5990372819331204 7.4200372686615905 Zr
atom 2.6788628684259836 2.7987190474067436 -0.1268875671466427 S
atom 7.2536693830114114 2.3692556395618762 -0.1220351605372348 S
atom 2.2493994605811216 7.3735255619921762 -0.1317399737560510 S
atom 7.7123651812279803 7.8322213602087469 -0.1268875671466428 S
atom 2.2367636209887576 2.2401425121436391 4.9251307643457789 S
atom 7.8122459182745274 2.8113548869991072 4.9299831709551754 S
atom 2.8079759958442216 7.8156248094293943 4.9202783577363629 S
atom 7.2702659337907605 7.2736448249456469 4.9251307643457789 S
atom 2.6847603299848344 0.0383171652247398 2.2096955999745362 S
atom 7.2576339405916830 0.0575006957245231 2.7514173294804136 S
atom 2.2533640181613879 5.0617706181548190 2.7417125162615972 S
atom 7.7182626427868470 5.0718194780267236 2.2096955999745362 S
atom 2.8005658942318954 0.0416779036371276 7.7030280206310078 S
atom 7.1490595430836050 0.0602858763948838 7.1562004758851376 S
atom 2.1447896206533024 5.0645557988251841 7.1464956626663110 S
atom 7.8340682070338987 5.0751802164391240 7.7030280206310096 S
atom -0.0237009700388866 2.3341257876313271 2.2048431933651265 S
atom 4.9906178122633422 2.7947544898264756 2.7465649228710056 S
atom -0.0136521101669621 7.7990244122567738 2.7368601096521883 S
atom 5.0098013427631338 7.3676281004333237 2.2048431933651265 S
atom -0.0270617084512746 2.2183202233842580 7.6981756140215918 S
atom 4.9878326315929788 2.9033288873345549 7.1513480692757270 S
atom -0.0164372908373229 7.9075988097648580 7.1416432560569083 S
atom 5.0064406043507299 7.2518225361862614 7.6981756140215927 S
atom 0.0001969045543943 -0.0185205339951481 9.9279418925605523 Ba
atom 5.0374066516113105 0.0144192906314586 9.9327942991699416 Ba
atom 0.0331367291810021 5.0186892130617595 9.9230894859511398 Ba
atom 5.0336992173563866 5.0149817788068534 9.9279418925605523 Ba
atom 0.2150172738649417 -0.2539450215451748 14.8770676275514848 Ba
atom 5.2728311391613190 -0.2004010786790883 14.8819200341608688 Ba
atom 0.2685612167310289 4.8038688437512072 14.8722152209420830 Ba
atom 5.2485195866669532 4.7795572912568396 14.8770676275514848 Ba
atom 2.5842524076806539 2.4359025301016297 12.4358465164594811 Zr
atom 7.6164859003165342 2.4638661003072011 12.4406989230688918 Zr
atom 2.6122159778862324 7.4681360227374931 12.4309941098500758 Zr
atom 7.6177547204826714 7.4694048429036339 12.4358465164594811 Zr
atom 2.5602996731347565 2.4737435369585850 17.4840460447369352 Zr
atom 7.5786448934595700 2.4878188348530954 17.4888984513463441 Zr
atom 2.5743749710292745 7.4920887572834038 17.4791936381274979 Zr
atom 7.5938019859367607 7.5072458497605821 17.4840460447369352 Zr
atom 2.7939603587787865 2.7752429202292386 9.9279418925605523 S
atom 7.2771455101889115 2.2541581492090654 9.9327942991699416 S
atom 2.2728755877586164 7.2584280716393783 9.9230894859511398 S
atom 7.8274626715807907 7.8087452330312423 9.9279418925605523 S
atom 2.2588599506931821 2.2180461824392133 14.9307530207753008 S
atom 7.8343422479789462 2.7892585572946778 14.9356054273847381 S
atom 2.8300723255486457 7.7935284797249658 14.9259006141659043 S
atom 7.2923622634951997 7.2515484952412086 14.9307530207753008 S
atom 2.2370376619338050 -0.0457791470008171 12.1577081710994950 S
atom 7.9263162483144010 -0.0351547293868654 12.7142405290641634 S
atom 2.9220463258841036 4.9691151930434323 12.7045357158453367 S
atom 7.2705399747358177 4.9877231658011816 12.1577081710994932 S
atom 2.3528432261808638 -0.0424184085884292 17.6510405917559616 S
atom 7.8177418508063399 -0.0323695487165056 17.1190236754689060 S
atom 2.8134719283760172 4.9719003737137921 17.1093188622500740 S
atom 7.3863455389828623 4.9910839042135837 17.6510405917559616 S
atom 0.0603953421866702 2.7818484556823524 12.1528557644900950 S
atom 5.0832732373747351 2.1260721821037531 12.7093881224547420 S
atom 0.0790033149444263 7.1303421045340514 12.6996833092359331 S
atom 5.0938976549886723 7.8153507684843397 12.1528557644900967 S
atom 0.0570346037742821 2.6660428914352958 17.6461881851465314 S
atom 5.0804880567043655 2.2346465796118444 17.1141712688594971 S
atom 0.0762181342740656 7.2389165020421302 17.1044664556406332 S
atom 5.0905369165762799 7.6995452042372872 17.6461881851465314 S
atom -0.1027747917414864 0.0001371687371937 19.6129188740829861 Ba
atom 5.0187489488789616 0.1173909869273398 19.6177712806923878 Ba
atom 0.0144790264486601 5.1216609093576322 19.6080664674735594 Ba
atom 4.9307275210605228 5.0336394815391934 19.6129188740829861 Ba
atom 2.8174364859562928 2.6601454298764335 19.9827713522677151 S
atom 7.3922430005417246 2.2306820220315693 19.9876237588771275 S
atom 2.3879730781114268 7.2349519444618675 19.9779189456583239 S
atom 7.8509387987583050 7.6936477426784222 19.9827713522677115 S
atom 2.5571308180197159 2.3737338717779983 23.0772312639273416 Ba
atom 7.6786545586401642 2.4909876899681453 23.0820836705367505 Ba
atom 2.6743846362098624 7.4952576123984382 23.0723788573179363 Ba
atom 7.5906331308217192 7.4072361845800030 23.0772312639273416 Ba
atom 2.3030486277373465 2.6915259373844300 27.8130825104588517 Ba
atom 7.3608624930337303 2.7450698802505094 27.8179349170682464 Ba
atom 2.3565925706034352 7.7493398026808089 27.8082301038494677 Ba
atom 7.3365509405393539 7.7250282501864245 27.8130825104588482 Ba
atom 5.0307371862411072 5.0368083366542376 25.2061040932733427 Zr
atom 10.0490824065659385 5.0508836345487511 25.2109564998827729 Zr
atom 5.0448124841356261 10.0551535569790520 25.2012516866639444 Zr
atom 10.0642394990431345 10.0703106494562356 25.2061040932733427 Zr
atom 4.9928961793841520 5.0607610712001412 30.2543036215508288 Zr
atom 10.0251296720200127 5.0887246414057081 30.2591560281602199 Zr
atom 5.0208597495897216 10.0929945638360135 30.2494512149414234 Zr
atom 10.0263984921861393 10.0942633840021490 30.2543036215508288 Zr
atom 5.2171390791589474 5.2939451494757686 22.7073787857426090 S
atom 9.7919455937444226 4.8644817416309110 22.7122311923519966 S
atom 4.7876756713140782 9.8687516640612323 22.7025263791331717 S
atom 10.2506413919609596 10.3274474622777568 22.7073787857426090 S
atom 4.7750398317217462 4.7353686142126641 27.7593971172350500 S
atom 10.3505221290075085 5.3065809890681255 27.7642495238444234 S
atom 5.3462522065771996 10.3108509114984059 27.7545447106255949 S
atom 9.8085421445237468 9.7688709270146692 27.7593971172350500 S
atom 5.2230365407178017 2.5335432672937692 25.0439619528637643 S
atom 9.7959101513246853 2.5527267977935502 25.5856836823696838 S
atom 4.7916402288943640 7.5569967202238448 25.5759788691508483 S
atom 10.2565388535198050 7.5670455800957699 25.0439619528637643 S
atom 5.3388421049648773 2.5369040057061563 30.5372943735202220 S
atom 9.6873357538165905 2.5555119784639131 29.9904668287743910 S
atom 4.6830658313862727 7.5597819008942002 29.9807620155555945 S
atom 10.3723444177668505 7.5704063185081560 30.5372943735202256 S
atom 2.5145752406940889 4.8293518897003542 25.0391095462543483 S
atom 7.5288940229963117 5.2899805918955147 25.5808312757602749 S
atom 2.5246241005660224 10.2942505143258050 25.5711264625414145 S
atom 7.5480775534961140 9.8628542025023602 25.0391095462543483 S
atom 2.5112145022817094 4.7135463254532919 30.5324419669108131 S
atom 7.5261088423259546 5.3985549894035820 29.9856144221649892 S
atom 2.5218389198956470 10.4028249118338767 29.9759096089461714 S
atom 7.5447168150837118 9.7470486382553041 30.5324419669108131 S
atom 2.5384731152873767 2.4767055680738816 32.7622082454497274 Ba
atom 7.5756828623442960 2.5096453927004778 32.7670606520591932 Ba
atom 2.5714129399139725 7.5139153151307756 32.7573558388403967 Ba
atom 7.5719754280893801 7.5102078808758721 32.7622082454497274 Ba
atom 2.7532934845979260 2.2412810805238501 37.7113339804407062 Ba
atom 7.8111073498943000 2.2948250233899330 37.7161863870500582 Ba
atom 2.8068374274640062 7.2990949458202330 37.7064815738312404 Ba
atom 7.7867957973999342 7.2747833933258619 37.7113339804407062 Ba
atom 5.1225286184136349 4.9311286321706627 35.2701128693487647 Zr
atom 10.1547621110495054 4.9590922023762189 35.2749652759581522 Zr
atom 5.1504921886192125 9.9633621248065420 35.2652604627392989 Zr
atom 10.1560309312156694 9.9646309449726189 35.2701128693487647 Zr
atom 5.0985758838677224 4.9689696390276152 40.3183123976261513 Zr
atom 10.1169211041925493 4.9830449369221324 40.3231648042355815 Zr
atom 5.1126511817622546 9.9873148593524466 40.3134599910167637 Zr
atom 10.1320781966697506 10.0024719518296106 40.3183123976261513 Zr
atom 5.3322365695117719 5.2704690222982622 32.7622082454497274 S
atom 9.8154217209218722 4.7493842512781042 32.7670606520591932 S
atom 4.8111517984915935 9.7536541737083677 32.7573558388403967 S
atom 10.3657388823137957 10.3039713351002806 32.7622082454497274 S
atom 4.7971361614261676 4.7132722845082320 37.7650193736645221 S
atom 10.3726184587119246 5.2844846593636943 37.7698717802739736 S
atom 5.3683485362816237 10.2887545817939845 37.7601669670551843 S
atom 9.8306384742281718 9.7467745973102318 37.7650193736645221 S
atom 4.7753138726667785 2.4494469550682130 34.9919745239887874 S
atom 10.4645924590473633 2.4600713726821573 35.5485068819533865 S
atom 5.4603225366170838 7.4643412951124546 35.5388020687345971 S
atom 9.8088161854687961 7.4829492678702128 34.9919745239887874 S
atom 4.8911194369138435 2.4528076934805982 40.4853069446452238 S
atom 10.3560180615392934 2.4628565533525206 39.9532900283580332 S
atom 5.3517481391090103 7.4671264757828109 39.9435852151393149 S
atom 9.9246217497158593 7.4863100062826105 40.4853069446452238 S
atom 2.5986715529196460 5.2770745577513640 34.9871221173792861 S
atom 7.6215494481076949 4.6212982841727870 35.5436544753440273 S
atom 2.6172795256774077 9.6255682066030950 35.5339496621251953 S
atom 7.6321738657216640 10.3105768705533656 34.9871221173792861 S
atom 2.5953108145072599 5.1612689935043132 40.4804545380358149 S
atom 7.6187642674373475 4.7298726816808534 39.9484376217486670 S
atom 2.6144943450070399 9.7341426041111507 39.9387328085298634 S
atom 7.6288131273092601 10.1947713063062952 40.4804545380358149 S
atom 2.4355014189914859 2.4953632708062217 42.4471852269721239 Ba
atom 7.5570251596119444 2.6126170889963691 42.4520376335814973 Ba
atom 2.5527552371816382 7.6168870114266571 42.4423328203626795 Ba
atom 7.4690037317934976 7.5288655836082299 42.4471852269721239 Ba
atom 5.3557126966892676 5.1553715319454554 42.8170377051568849 S
atom 9.9305192112747243 4.7259081241006040 42.8218901117662938 S
atom 4.9262492888444145 9.7301780465309040 42.8121852985475186 S
atom 10.3892150094912470 10.1888738447474623 42.8170377051568849 S
