#=======================================================
# FHI-aims file: sym_relax/sym_relax_RP_5_RxRy0_-Rx-Ry0.in
# Created using the Atomic Simulation Environment (ASE)
# Fri Mar 14 10:49:48 2025
#=======================================================
lattice_vector 10.0730450897346113 0.1085878206372296 0.0000000000000000 
lattice_vector 0.1085878206372298 10.0730450897345865 -0.0000000000000000 
lattice_vector 0.0000000000000000 -0.0000000000000000 55.2040702770547256 
atom -0.0854143519841444 -0.0854143519841443 0.2721672015868529 Ba
atom 5.1219368968514427 0.1397082623027575 0.2721672015868529 Ba
atom 0.1397082623027597 5.1219368968514445 0.2721672015868529 Ba
atom 5.0054021032017850 5.0054021032017646 0.2721672015868529 Ba
atom -0.0062040553375886 -0.0062040553375886 4.9434279431369212 Ba
atom 5.0427266002048867 0.0604979656562018 4.9434279431369212 Ba
atom 0.0604979656562037 5.0427266002048867 4.9434279431369212 Ba
atom 5.0846123998483330 5.0846123998483188 4.9434279431369212 Ba
atom 2.5389804600245540 2.5389804600245496 2.3332228754128339 Zr
atom 7.5883585400286631 2.6061299054799711 2.3332228754128339 Zr
atom 2.6061299054799800 7.5883585400286586 2.3332228754128339 Zr
atom 7.6297969152104681 7.6297969152104592 2.3332228754128339 Zr
atom 2.5472570682185363 2.5472570682185314 7.3554152124925753 Zr
atom 7.5800819318346937 2.5978532972859929 7.3554152124925753 Zr
atom 2.5978532972859969 7.5800819318346626 7.3554152124925753 Zr
atom 7.6380735234044614 7.6380735234044463 7.3554152124925753 Zr
atom 2.7801144304213805 2.7801144304213739 -0.1525890157199203 S
atom 7.3472245696318454 2.3649959350831518 -0.1525890157199203 S
atom 2.3649959350831571 7.3472245696318392 -0.1525890157199203 S
atom 7.8709308856072937 7.8709308856072768 -0.1525890157199203 S
atom 2.2302460419356529 2.2302460419356471 4.8787148492069328 S
atom 7.8970929581175753 2.9148643235688754 4.8787148492069328 S
atom 2.9148643235688825 7.8970929581175602 4.8787148492069328 S
atom 7.3210624971215816 7.3210624971215568 4.8787148492069328 S
atom 2.5182612724336502 0.0271469551593066 2.1654566642284321 S
atom 7.5547838173009589 0.0814408654779198 2.7109942580413042 S
atom 2.5725551827522652 5.0636695000266032 2.7109942580413042 S
atom 7.6090777276195736 5.1179634103452125 2.1654566642284321 S
atom 2.5182612724336502 0.0271469551593066 7.7080817562354706 S
atom 7.5547838173009589 0.0814408654779198 7.0178353555050892 S
atom 2.5725551827522652 5.0636695000266032 7.0178353555050892 S
atom 7.6090777276195736 5.1179634103452125 7.7080817562354706 S
atom 0.0271469551593076 2.5182612724336475 2.1654566642284321 S
atom 5.0636695000266130 2.5725551827522630 2.7109942580413042 S
atom 0.0814408654779227 7.5547838173009429 2.7109942580413042 S
atom 5.1179634103452276 7.6090777276195567 2.1654566642284321 S
atom 0.0271469551593076 2.5182612724336475 7.7080817562354706 S
atom 5.0636695000266130 2.5725551827522630 7.0178353555050892 S
atom 0.0814408654779227 7.5547838173009429 7.0178353555050892 S
atom 5.1179634103452276 7.6090777276195567 7.7080817562354706 S
atom 0.0325208997536003 0.0325208997536003 9.8477632580945578 Ba
atom 5.0040016451137026 0.0217730105650129 9.8477632580945578 Ba
atom 0.0217730105650148 5.0040016451136955 9.8477632580945578 Ba
atom 5.1233373549395234 5.1233373549395056 9.8477632580945578 Ba
atom -0.0325208997536003 -0.0325208997536003 14.7969109727334587 Ba
atom 5.0690434446209149 0.0868148100722137 14.7969109727334587 Ba
atom 0.0868148100722154 5.0690434446208981 14.7969109727334587 Ba
atom 5.0582955554323199 5.0582955554323021 14.7969109727334587 Ba
atom 2.5454082275929562 2.5454082275929526 12.3223371154140082 Zr
atom 7.5819307724602698 2.5997021379115681 12.3223371154140082 Zr
atom 2.5997021379115792 7.5819307724602529 12.3223371154140082 Zr
atom 7.6362246827788818 7.6362246827788676 12.3223371154140082 Zr
atom 2.5435593869673836 2.5435593869673792 17.2892590183354429 Zr
atom 7.5837796130858415 2.6015509785371438 17.2892590183354429 Zr
atom 2.6015509785371522 7.5837796130858361 17.2892590183354429 Zr
atom 7.6343758421533003 7.6343758421532817 17.2892590183354429 Zr
atom 2.8966477557394126 2.8966477557394064 9.8431295763133075 S
atom 7.2306912443138174 2.2484626097651130 9.8431295763133075 S
atom 2.2484626097651188 7.2306912443137996 9.8431295763133075 S
atom 7.9874642109253289 7.9874642109253182 9.8431295763133075 S
atom 2.1941686994465099 2.1941686994465002 14.8015446545147249 S
atom 7.9331703006067080 2.9509416660580223 14.8015446545147249 S
atom 2.9509416660580277 7.9331703006067009 14.8015446545147249 S
atom 7.2849851546324365 7.2849851546324169 14.8015446545147249 S
atom 2.5182612724336502 0.0271469551593066 11.9603871597963174 S
atom 7.5547838173009589 0.0814408654779198 12.6842870710316973 S
atom 2.5725551827522652 5.0636695000266032 12.6842870710316973 S
atom 7.6090777276195736 5.1179634103452125 11.9603871597963174 S
atom 2.5182612724336502 0.0271469551593066 17.6268388753229424 S
atom 7.5547838173009589 0.0814408654779198 16.9365924745925582 S
atom 2.5725551827522652 5.0636695000266032 16.9365924745925582 S
atom 7.6090777276195736 5.1179634103452125 17.6268388753229424 S
atom 0.0271469551593076 2.5182612724336475 11.9603871597963174 S
atom 5.0636695000266130 2.5725551827522630 12.6842870710316973 S
atom 0.0814408654779227 7.5547838173009429 12.6842870710316973 S
atom 5.1179634103452276 7.6090777276195567 11.9603871597963174 S
atom 0.0271469551593076 2.5182612724336475 17.6268388753229424 S
atom 5.0636695000266130 2.5725551827522630 16.9365924745925582 S
atom 0.0814408654779227 7.5547838173009429 16.9365924745925582 S
atom 5.1179634103452276 7.6090777276195567 17.6268388753229424 S
atom 0.0062040553375886 0.0062040553375886 19.7012462876911023 Ba
atom 5.0303184895297139 0.0480898549810245 19.7012462876911023 Ba
atom 0.0480898549810266 5.0303184895297059 19.7012462876911023 Ba
atom 5.0970205105235085 5.0970205105234925 19.7012462876911023 Ba
atom 0.0854143519841445 0.0854143519841443 24.3725070292411559 Ba
atom 4.9511081928831633 -0.0311204416655310 24.3725070292411559 Ba
atom -0.0311204416655293 4.9511081928831482 24.3725070292411559 Ba
atom 5.1762308071700618 5.1762308071700556 24.3725070292411559 Ba
atom 2.5518359951613636 2.5518359951613596 22.3114513554151763 Zr
atom 7.5755030048918561 2.5932743703431642 22.3114513554151763 Zr
atom 2.5932743703431718 7.5755030048918455 22.3114513554151763 Zr
atom 7.6426524503472928 7.6426524503472706 22.3114513554151763 Zr
atom 2.8605704132502701 2.8605704132502643 19.7659593816210624 S
atom 7.2667685868029679 2.2845399522542595 19.7659593816210624 S
atom 2.2845399522542698 7.2667685868029483 19.7659593816210624 S
atom 7.9513868684361864 7.9513868684361668 19.7659593816210624 S
atom 2.3107020247645429 2.3107020247645393 24.7972632465479137 S
atom 7.8166369752886817 2.8344083407399845 24.7972632465479137 S
atom 2.8344083407399951 7.8166369752886675 24.7972632465479137 S
atom 7.4015184799504663 7.4015184799504494 24.7972632465479137 S
atom 2.5182612724336502 0.0271469551593066 21.9336799727866740 S
atom 7.5547838173009589 0.0814408654779198 22.4792175665996297 S
atom 2.5725551827522652 5.0636695000266032 22.4792175665996297 S
atom 7.6090777276195736 5.1179634103452125 21.9336799727866740 S
atom 0.0271469551593076 2.5182612724336475 21.9336799727866740 S
atom 5.0636695000266130 2.5725551827522630 22.4792175665996297 S
atom 0.0814408654779227 7.5547838173009429 22.4792175665996297 S
atom 5.1179634103452276 7.6090777276195567 21.9336799727866740 S
atom 2.6308225795771061 2.6308225795770994 27.8742023401142589 Ba
atom 7.4965164204761221 2.5142877859274240 27.8742023401142589 Ba
atom 2.5142877859274329 7.4965164204761061 27.8742023401142589 Ba
atom 7.7216390347630250 7.7216390347630073 27.8742023401142589 Ba
atom 2.5516122829305456 2.5516122829305394 32.5454630816643800 Ba
atom 7.5757267171226745 2.5934980825739822 32.5454630816643800 Ba
atom 2.5934980825739915 7.5757267171226639 32.5454630816643800 Ba
atom 7.6424287381164637 7.6424287381164531 32.5454630816643800 Ba
atom 5.0972442227543269 5.0972442227543180 29.9352580139402171 Zr
atom 10.1209112324847990 5.1386825979361168 29.9352580139402171 Zr
atom 5.1386825979361213 10.1209112324847847 29.9352580139402171 Zr
atom 10.1880606779402605 10.1880606779402321 29.9352580139402171 Zr
atom 5.0889676145603344 5.0889676145603273 34.9574503510199577 Zr
atom 10.1291878406788030 5.1469592061301048 34.9574503510199577 Zr
atom 5.1469592061301119 10.1291878406787887 34.9574503510199577 Zr
atom 10.1797840697462707 10.1797840697462405 34.9574503510199577 Zr
atom 4.8561102523575022 4.8561102523574950 27.4494461228074904 S
atom 10.3620452028816565 5.3798165683329380 27.4494461228074904 S
atom 5.3798165683329486 10.3620452028816352 27.4494461228074904 S
atom 9.9469267075434153 9.9469267075433976 27.4494461228074904 S
atom 5.4059786408432347 5.4059786408432133 32.4807499877343062 S
atom 9.8121768143959187 4.8299481798472179 32.4807499877343062 S
atom 4.8299481798472286 9.8121768143959009 32.4807499877343062 S
atom 10.4967950960291549 10.4967950960291301 32.4807499877343062 S
atom 5.0636695000266130 2.5725551827522630 30.3130293965687088 S
atom 10.1001920448939124 2.6268490930708741 29.7674918027557851 S
atom 5.1179634103452276 7.6090777276195567 29.7674918027557851 S
atom 10.1544859552125271 7.6633716379381722 30.3130293965687088 S
atom 5.0636695000266130 2.5725551827522630 34.6198704940324404 S
atom 10.1001920448939124 2.6268490930708741 35.3101168947628850 S
atom 5.1179634103452276 7.6090777276195567 35.3101168947628850 S
atom 10.1544859552125271 7.6633716379381722 34.6198704940324404 S
atom 2.5725551827522652 5.0636695000266032 30.3130293965687088 S
atom 7.6090777276195736 5.1179634103452125 29.7674918027557851 S
atom 2.6268490930708857 10.1001920448938982 29.7674918027557851 S
atom 7.6633716379381900 10.1544859552125022 30.3130293965687088 S
atom 2.5725551827522652 5.0636695000266032 34.6198704940324404 S
atom 7.6090777276195736 5.1179634103452125 35.3101168947628850 S
atom 2.6268490930708857 10.1001920448938982 35.3101168947628850 S
atom 7.6633716379381900 10.1544859552125022 34.6198704940324404 S
atom 2.5128873278393629 2.5128873278393544 37.4497983966219437 Ba
atom 7.6144516722138729 2.6322230376651645 37.4497983966219437 Ba
atom 2.6322230376651743 7.6144516722138516 37.4497983966219437 Ba
atom 7.6037037830252814 7.6037037830252618 37.4497983966219437 Ba
atom 2.5779291273465601 2.5779291273465543 42.3989461112608694 Ba
atom 7.5494098727066596 2.5671812381579717 42.3989461112608694 Ba
atom 2.5671812381579771 7.5494098727066490 42.3989461112608694 Ba
atom 7.6687455825324760 7.6687455825324680 42.3989461112608694 Ba
atom 5.0908164551859123 5.0908164551859052 39.9243722539413923 Zr
atom 10.1273390000532260 5.1451103655045261 39.9243722539413923 Zr
atom 5.1451103655045305 10.1273390000532064 39.9243722539413923 Zr
atom 10.1816329103718246 10.1816329103718104 39.9243722539413923 Zr
atom 5.0926652958115071 5.0926652958114902 44.8912941568627986 Zr
atom 10.1254901594276365 5.1432615248789419 44.8912941568627986 Zr
atom 5.1432615248789499 10.1254901594276276 44.8912941568627986 Zr
atom 10.1834817509974300 10.1834817509973856 44.8912941568627986 Zr
atom 4.7395769270394768 4.7395769270394554 37.4451647148406792 S
atom 10.4785785281996908 5.4963498936509732 37.4451647148406792 S
atom 5.4963498936509829 10.4785785281996784 37.4451647148406792 S
atom 9.8303933822253686 9.8303933822253615 37.4451647148406792 S
atom 5.4420559833323718 5.4420559833323550 42.4035797930421126 S
atom 9.7760994719067593 4.7938708373580674 42.4035797930421126 S
atom 4.7938708373580887 9.7760994719067433 42.4035797930421126 S
atom 10.5328724385182806 10.5328724385182841 42.4035797930421126 S
atom 5.0636695000266130 2.5725551827522630 40.2863222095590956 S
atom 10.1001920448939124 2.6268490930708741 39.5624222983237601 S
atom 5.1179634103452276 7.6090777276195567 39.5624222983237601 S
atom 10.1544859552125271 7.6633716379381722 40.2863222095590956 S
atom 5.0636695000266130 2.5725551827522630 44.5386276131198642 S
atom 10.1001920448939124 2.6268490930708741 45.2288740138503584 S
atom 5.1179634103452276 7.6090777276195567 45.2288740138503584 S
atom 10.1544859552125271 7.6633716379381722 44.5386276131198642 S
atom 2.5725551827522652 5.0636695000266032 40.2863222095590956 S
atom 7.6090777276195736 5.1179634103452125 39.5624222983237601 S
atom 2.6268490930708857 10.1001920448938982 39.5624222983237601 S
atom 7.6633716379381900 10.1544859552125022 40.2863222095590956 S
atom 2.5725551827522652 5.0636695000266032 44.5386276131198642 S
atom 7.6090777276195736 5.1179634103452125 45.2288740138503584 S
atom 2.6268490930708857 10.1001920448938982 45.2288740138503584 S
atom 7.6633716379381900 10.1544859552125022 44.5386276131198642 S
atom 2.5392041722553778 2.5392041722553689 47.3032814262184829 Ba
atom 7.5881348277978491 2.6059061932491541 47.3032814262184829 Ba
atom 2.6059061932491594 7.5881348277978411 47.3032814262184829 Ba
atom 7.6300206274412954 7.6300206274412803 47.3032814262184829 Ba
atom 2.4599938756088147 2.4599938756088102 51.9745421677685684 Ba
atom 7.6673451244444166 2.6851164898957109 51.9745421677685684 Ba
atom 2.6851164898957212 7.6673451244443980 51.9745421677685684 Ba
atom 7.5508103307947421 7.5508103307947199 51.9745421677685684 Ba
atom 5.0843886876175173 5.0843886876175031 49.9134864939426208 Zr
atom 10.1337667676216423 5.1515381330729362 49.9134864939426208 Zr
atom 5.1515381330729371 10.1337667676216352 49.9134864939426208 Zr
atom 10.1752051428034402 10.1752051428034012 49.9134864939426208 Zr
atom 4.7756542695286157 4.7756542695286051 47.3679945201485140 S
atom 10.4425011857105279 5.4602725511618342 47.3679945201485140 S
atom 5.4602725511618386 10.4425011857105119 47.3679945201485140 S
atom 9.8664707247145245 9.8664707247145067 47.3679945201485140 S
atom 5.3255226580143340 5.3255226580143287 52.3992983850754186 S
atom 9.8926327972248043 4.9104041626761061 52.3992983850754186 S
atom 4.9104041626761168 9.8926327972247723 52.3992983850754186 S
atom 10.4163391132002605 10.4163391132002339 52.3992983850754186 S
atom 5.0636695000266130 2.5725551827522630 50.0812527051269711 S
atom 10.1001920448939124 2.6268490930708741 49.5357151113141398 S
atom 5.1179634103452276 7.6090777276195567 49.5357151113141398 S
atom 10.1544859552125271 7.6633716379381722 50.0812527051269711 S
atom 2.5725551827522652 5.0636695000266032 50.0812527051269711 S
atom 7.6090777276195736 5.1179634103452125 49.5357151113141398 S
atom 2.6268490930708857 10.1001920448938982 49.5357151113141398 S
atom 7.6633716379381900 10.1544859552125022 50.0812527051269711 S
