#=======================================================
# FHI-aims file: sym_relax/sym_relax_RP_10_Rx0Rz_0-Ry0.in
# Created using the Atomic Simulation Environment (ASE)
# Mon Mar 17 18:32:32 2025
#=======================================================
lattice_vector 9.9679646322316753 0.0000000000000000 0.0104728286666749 
lattice_vector 0.0000000000000000 10.0858066247781117 -0.0000000000000000 
lattice_vector 0.1114068853543128 -0.0000000000000002 105.6921865917754673 
atom -0.1864740830839733 -0.0000000000000000 0.0596943266862030 Ba
atom 5.0475658322212515 0.0000000000000000 0.0624523478212530 Ba
atom 0.0635835161054269 5.0429033123890559 0.0572159334879156 Ba
atom 4.7975082330318584 5.0429033123890559 0.0649307410195407 Ba
atom -0.1056648975665157 -0.0000000000000000 4.7533877689545312 Ba
atom 4.8224791348891731 -0.0000000000000000 4.7229688420308769 Ba
atom -0.1615031812266570 5.0429033123890559 4.7177324276975368 Ba
atom 4.8783174185493188 5.0429033123890559 4.7586241832878677 Ba
atom 2.4275071592999846 2.5189318954697026 2.1268098925318975 Zr
atom 7.4114894754158298 2.5239714169193657 2.1320463068652371 Zr
atom 2.4275071592999837 7.5668747293084166 2.1268098925318966 Zr
atom 7.4114894754158298 7.5618352078587581 2.1320463068652371 Zr
atom 2.4513575711260054 2.5043142999513868 7.2029517497300404 Zr
atom 7.4353398872418506 2.5385890124376727 7.2081881640633654 Zr
atom 2.4513575711260054 7.5814923248267307 7.2029517497300386 Zr
atom 7.4353398872418506 7.5472176123404413 7.2081881640633672 Zr
atom 2.4350564734831912 2.8287301545305863 -0.3621235175466985 S
atom 7.4190387895990240 2.2141731578584718 -0.3568871032133612 S
atom 2.4350564734831912 7.2570764702475232 -0.3621235175466984 S
atom 7.4190387895990240 7.8716334669196337 -0.3568871032133612 S
atom 2.4468666916049115 2.2103872643645817 4.7053740433070619 S
atom 7.4308490077207461 2.8325160480244773 4.7106104576404011 S
atom 2.4468666916049115 7.8754193604135283 4.7053740433070619 S
atom 7.4308490077207461 7.2532905767536411 4.7106104576403993 S
atom 2.4252663556911327 -0.0000000000000000 1.9264308909389001 S
atom 7.4100253072707192 -0.0000000000000000 2.5451150472858952 S
atom 2.4260429911548855 5.0429033123890559 2.5398786329525569 S
atom 7.4092486718069681 5.0429033123890559 1.9316673052722373 S
atom 2.9174758048056679 -0.0000000000000000 7.4621894550328580 S
atom 7.0299568476015910 -0.0000000000000000 6.9866265456516787 S
atom 2.0459745314857667 5.0429033123890559 6.9813901313183404 S
atom 7.9014581209214905 5.0429033123890559 7.4674258693661821 S
atom -0.0620320689542836 2.5284862634298118 2.2460148897527952 S
atom 4.9219502471615479 2.5144170489592361 2.2512513040861366 S
atom -0.0620320689542836 7.5573203613482862 2.2460148897527943 S
atom 4.9219502471615479 7.5713895758188707 2.2512513040861375 S
atom -0.0348320967254219 2.0639905142715458 7.2262710719428274 S
atom 4.9491502193904191 2.9789127981175039 7.2315074862761755 S
atom -0.0348320967254219 8.0218161105065811 7.2262710719428256 S
atom 4.9491502193904191 7.1068938266605892 7.2315074862761737 S
atom -0.0619268107222631 -0.0000000000000000 9.7386091971758741 Ba
atom 5.0753594617268858 -0.0000000000000000 9.7662591316949907 Ba
atom 0.0913771456110479 5.0429033123890559 9.7610227173616479 Ba
atom 4.9220555053935717 5.0429033123890559 9.7438456115092187 Ba
atom 0.0908741922077902 -0.0000000000000000 14.8052397917607461 Ba
atom 4.9391940254122497 -0.0000000000000000 14.8012999917765704 Ba
atom -0.0447882907035835 5.0429033123890559 14.7960635774432170 Ba
atom 5.0748565083236343 5.0429033123890559 14.8104762060940889 Ba
atom 2.4990840932449210 2.5253112209870152 12.2617748725186146 Zr
atom 7.4830664093607551 2.5175920914020438 12.2670112868519414 Zr
atom 2.4990840932449210 7.5604954037911014 12.2617748725186146 Zr
atom 7.4830664093607551 7.5682145333760769 12.2670112868519414 Zr
atom 2.5089658931084200 2.5204785903151534 17.3285099753371270 Zr
atom 7.4929482092242665 2.5224247220739096 17.3337463896704982 Zr
atom 2.5089658931084200 7.5653280344629685 17.3285099753371199 Zr
atom 7.4929482092242665 7.5633819027042177 17.3337463896704840 Zr
atom 2.4695192494943310 2.7395013567452025 9.7444853671024365 S
atom 7.4535015656101553 2.3034019556438494 9.7497217814357633 S
atom 2.4695192494943301 7.3463052680329142 9.7444853671024330 S
atom 7.4535015656101553 7.7824046691342659 9.7497217814357633 S
atom 2.4931795349557868 2.3637404812599052 14.8021848091892476 S
atom 7.4771618510716129 2.6791628311291507 14.8074212235225779 S
atom 2.4931795349557868 7.7220661435181945 14.8021848091892476 S
atom 7.4771618510716147 7.4066437936489606 14.8074212235225779 S
atom 2.0389097077607192 -0.0000000000000000 12.1276873205204865 S
atom 7.9506895020995456 -0.0000000000000000 12.4330186304966031 S
atom 2.9667071859837133 5.0429033123890559 12.4277822161632496 S
atom 7.0228920238765475 5.0429033123890559 12.1329237348538346 S
atom 2.9840249045319913 -0.0000000000000000 17.4528291682251577 S
atom 7.0185295819962645 -0.0000000000000000 17.2242024052004652 S
atom 2.0345472658804260 5.0429033123890559 17.2189659908671722 S
atom 7.9680072206478076 5.0429033123890559 17.4580655825585609 S
atom 0.0009842496608155 3.0072138713467922 12.2769909487329709 S
atom 4.9849665657766407 2.0356894410422619 12.2822273630662924 S
atom 0.0009842496608155 7.0785927534313107 12.2769909487329762 S
atom 4.9849665657766407 8.0501171837358658 12.2822273630662870 S
atom 0.0139374110752360 2.0257979581359415 17.3324997142414254 S
atom 4.9979197271910634 3.0171053542531205 17.3377361285747149 S
atom 0.0139374110752360 8.0600086666421529 17.3324997142414254 S
atom 4.9979197271910634 7.0687012705249987 17.3377361285747220 S
atom -0.0368509806677858 -0.0000000000000000 19.8575416796694704 Ba
atom 5.0680159086441421 -0.0000000000000000 19.8724155690390880 Ba
atom 0.0840335925282970 5.0429033123890559 19.8671791547057346 Ba
atom 4.9471313354480380 5.0429033123890559 19.8627780940027812 Ba
atom 0.0846282596359256 -0.0000000000000000 24.9319289146002205 Ba
atom 4.9519044740998632 -0.0000000000000000 24.9281124958535258 Ba
atom -0.0320778420159677 5.0429033123890559 24.9228760815201618 Ba
atom 5.0686105757517561 5.0429033123890559 24.9371653289335740 Ba
atom 2.5152678427898936 2.5216510275098578 22.3961210747534558 Zr
atom 7.4992501589057223 2.5212522848791958 22.4013574890867844 Zr
atom 2.5152678427898936 7.5641555972682450 22.3961210747534487 Zr
atom 7.4992501589057223 7.5645543398989101 22.4013574890867915 Zr
atom 2.5212648909458926 2.5216510275098578 27.4639203357003368 Zr
atom 7.5052472070617107 2.5212522848791932 27.4691567500336191 Zr
atom 2.5212648909458926 7.5641555972682433 27.4639203357003296 Zr
atom 7.5052472070617107 7.5645543398989101 27.4691567500336191 Zr
atom 2.5076991707983636 2.6571334971407401 19.8653880223522101 S
atom 7.4916814869141968 2.3857698152483175 19.8706244366855245 S
atom 2.5076991707983636 7.4286731276373708 19.8653880223522101 S
atom 7.4916814869141986 7.7000368095297809 19.8706244366855209 S
atom 2.5182663668678926 2.3911394391145890 24.9300207052268803 S
atom 7.5022486829837245 2.6517638732744659 24.9352571195602302 S
atom 2.5182663668678926 7.6946671856635218 24.9300207052268803 S
atom 7.5022486829837245 7.4340427515036405 24.9352571195602302 S
atom 2.0375654826082155 -0.0000000000000000 22.2915410283941853 S
atom 7.9767929612694939 -0.0000000000000000 22.5101548125489366 S
atom 2.9928106451536873 5.0429033123890559 22.5049183982155867 S
atom 7.0215477987240451 5.0429033123890559 22.2967774427275103 S
atom 2.9989672511275822 -0.0000000000000001 27.5685003820596251 S
atom 7.0277044046979515 -0.0000000000000000 27.3603594265715095 S
atom 2.0437220885821099 5.0429033123890559 27.3551230122382414 S
atom 7.9829495672433959 5.0429033123890559 27.5737367963929678 S
atom 0.0224451001950770 3.0195726110687624 22.3955954982557266 S
atom 5.0064274163109008 2.0233307013202877 22.4008319125891049 S
atom 0.0224451001950770 7.0662340137093453 22.3955954982557053 S
atom 5.0064274163109008 8.0624759234577965 22.4008319125891049 S
atom 0.0301053174248805 2.0233307013202895 27.4592094978646841 S
atom 5.0140876335407176 3.0195726110687624 27.4644459121980411 S
atom 0.0301053174248805 8.0624759234578001 27.4592094978646841 S
atom 5.0140876335407176 7.0662340137093453 27.4644459121980482 S
atom -0.0314831749083392 -0.0000000000000001 29.9876258414146832 Ba
atom 5.0733837144035885 -0.0000000000000001 30.0024997307843648 Ba
atom 0.0894013982877433 5.0429033123890559 29.9972633164509794 Ba
atom 4.9524991412074852 5.0429033123890559 29.9928622557480722 Ba
atom 0.0973387083235413 -0.0000000000000001 35.0587414186772790 Ba
atom 4.9456585415279886 -0.0000000000000001 35.0548016186930340 Ba
atom -0.0383237745878327 5.0429033123890559 35.0495652043596451 Ba
atom 5.0813210244393767 5.0429033123890559 35.0639778330106324 Ba
atom 2.5275668406273586 2.5204785903151521 32.5315314351166336 Zr
atom 7.5115491567431851 2.5224247220739109 32.5367678494499160 Zr
atom 2.5275668406273586 7.5653280344629668 32.5315314351166336 Zr
atom 7.5115491567431851 7.5633819027042142 32.5367678494499160 Zr
atom 2.5374486404908696 2.5253112209870152 37.5982665379350820 Zr
atom 7.5214309566066992 2.5175920914020429 37.6035029522684638 Zr
atom 2.5374486404908696 7.5604954037910979 37.5982665379350820 Zr
atom 7.5214309566066992 7.5682145333760751 37.6035029522684638 Zr
atom 2.5288335629374212 2.6571334971407392 29.9946533881015718 S
atom 7.5128158790532567 2.3857698152483175 29.9998898024349145 S
atom 2.5288335629374212 7.4286731276373708 29.9946533881015718 S
atom 7.5128158790532567 7.7000368095297826 29.9998898024349145 S
atom 2.5433531987800015 2.3637404812599052 35.0578566012645325 S
atom 7.5273355148958379 2.6791628311291507 35.0630930155978646 S
atom 2.5433531987800015 7.7220661435181945 35.0578566012645325 S
atom 7.5273355148958396 7.4066437936489606 35.0630930155978788 S
atom 2.0525078292037993 -0.0000000000000001 32.4072122422286242 S
atom 7.9859677839712164 -0.0000000000000001 32.6463118339198743 S
atom 3.0019854678553619 5.0429033123890559 32.6410754195866062 S
atom 7.0364901453196413 5.0429033123890559 32.4124486565619563 S
atom 2.9976230259750754 -0.0000000000000001 37.7323540899332883 S
atom 7.0538078638679131 -0.0000000000000001 37.4374956086238342 S
atom 2.0698255477520755 5.0429033123890559 37.4322591942905802 S
atom 7.9816053420909201 5.0429033123890559 37.7375905042667128 S
atom 0.0386130065447216 3.0171053542531205 32.5223052818790492 S
atom 5.0225953226605533 2.0257979581359407 32.5275416962124453 S
atom 0.0386130065447216 7.0687012705249952 32.5223052818790492 S
atom 5.0225953226605533 8.0600086666421564 32.5275416962124453 S
atom 0.0515661679591421 2.0356894410422619 37.5778140473875197 S
atom 5.0355484840749769 3.0072138713467922 37.5830504617209726 S
atom 0.0515661679591421 8.0501171837358658 37.5778140473875339 S
atom 5.0355484840749769 7.0785927534313107 37.5830504617209726 S
atom -0.0388267279910901 -0.0000000000000001 40.0937822787588729 Ba
atom 5.0984595444580521 -0.0000000000000001 40.1214322132778847 Ba
atom 0.1144772283422204 5.0429033123890559 40.1161957989446094 Ba
atom 4.9451555881247433 5.0429033123890559 40.0990186930921269 Ba
atom 0.2140535988466148 -0.0000000000000001 45.1370725684229583 Ba
atom 5.1421976313023068 -0.0000000000000001 45.1066536414992640 Ba
atom 0.1582153151864739 5.0429033123890559 45.1014172271659035 Ba
atom 5.1980359149624409 5.0429033123890559 45.1423089827562336 Ba
atom 2.5851751626097861 2.5043142999513854 42.6570896607237771 Zr
atom 7.5691574787255957 2.5385890124376682 42.6623260750571305 Zr
atom 2.5851751626097861 7.5814923248267272 42.6570896607237771 Zr
atom 7.5691574787255940 7.5472176123404395 42.6623260750571305 Zr
atom 2.6090255744358051 2.5189318954697026 47.7332315179219009 Zr
atom 7.5930078905516183 2.5239714169193630 47.7384679322552614 Zr
atom 2.6090255744358060 7.5668747293084140 47.7332315179219009 Zr
atom 7.5930078905516183 7.5618352078587536 47.7384679322552614 Zr
atom 2.5670134842414676 2.7395013567452025 40.1155560433514182 S
atom 7.5509958003572972 2.3034019556438485 40.1207924576848569 S
atom 2.5670134842414680 7.3463052680329159 40.1155560433514040 S
atom 7.5509958003572972 7.7824046691342623 40.1207924576848569 S
atom 2.5896660421308852 2.2103872643645817 45.1546673671467289 S
atom 7.5736483582467056 2.8325160480244747 45.1599037814800042 S
atom 2.5896660421308852 7.8754193604135230 45.1546673671467289 S
atom 7.5736483582467056 7.2532905767536411 45.1599037814799900 S
atom 2.1190569289301204 -0.0000000000000001 42.3978519554209257 S
atom 7.9745405183658660 -0.0000000000000001 42.8838876934688358 S
atom 2.9905582022500181 5.0429033123890559 42.8786512791354966 S
atom 7.1030392450459532 5.0429033123890559 42.4030883697542507 S
atom 2.6112663780446574 -0.0000000000000001 47.9336105195148647 S
atom 7.5944720586967138 -0.0000000000000001 47.3253991918346699 S
atom 2.6104897425809082 5.0429033123890559 47.3201627775012383 S
atom 7.5952486941604898 5.0429033123890559 47.9388469338482039 S
atom 0.0873825143453793 2.9789127981175039 42.6285339241775745 S
atom 5.0713648304612065 2.0639905142715476 42.6337703385109705 S
atom 0.0873825143453793 7.1068938266605839 42.6285339241775816 S
atom 5.0713648304612065 8.0218161105065811 42.6337703385109563 S
atom 0.1145824865742417 2.5144170489592352 47.6087901063677208 S
atom 5.0985648026900732 2.5284862634298126 47.6140265207010245 S
atom 0.1145824865742417 7.5713895758188725 47.6087901063677208 S
atom 5.0985648026900732 7.5573203613482844 47.6140265207010245 S
atom -0.0110330984854683 -0.0000000000000001 49.7975890626324826 Ba
atom 5.2230068168197628 -0.0000000000000001 49.8003470837676545 Ba
atom 0.2390245007039316 5.0429033123890559 49.7951106694342940 Ba
atom 4.9729492176303642 5.0429033123890559 49.8028254769659213 Ba
atom 2.6014762602525954 2.8287301545305850 50.2221649280004456 S
atom 7.5854585763684312 2.2141731578584709 50.2274013423338062 S
atom 2.6014762602525954 7.2570764702475232 50.2221649280004456 S
atom 7.5854585763684295 7.8716334669196373 50.2274013423338062 S
atom 2.6002368346520917 2.3775741829791723 53.3028418696632400 Ba
atom 7.5842191507679138 2.6653291294098782 53.3080782839965508 Ba
atom 2.6002368346520925 7.7082324417989367 53.3028418696632542 Ba
atom 7.5842191507679138 7.4204774953682433 53.3080782839965437 Ba
atom 2.5951346592275275 2.5415491297906754 57.9870029146356032 Ba
atom 7.5791169753433669 2.5013541825983832 57.9922393289689424 Ba
atom 2.5951346592275284 7.5442574949874368 57.9870029146355819 Ba
atom 7.5791169753433669 7.5844524421797352 57.9922393289689495 Ba
atom 5.0791423068743811 5.0429033123890559 55.3721875694464529 Zr
atom 10.0849296728025699 5.0429033123890559 55.3764204647189331 Zr
atom 5.1009473566867198 10.0858066247781117 55.3711840503857005 Zr
atom 10.0631246229902569 10.0858066247781117 55.3774239837797495 Zr
atom 5.0833180806434974 5.0429033123890559 60.3927255086327506 Zr
atom 10.0699269020291968 5.0429033123890559 60.3974772557468569 Zr
atom 5.0859445859133752 10.0858066247781117 60.3922408414135674 Zr
atom 10.0673003967593377 10.0858066247781117 60.3979619229661111 Zr
atom 5.4336675614450121 5.0429033123890559 52.8817048893057020 S
atom 9.7355846182956860 5.0429033123890559 52.8851668900660741 S
atom 4.7516023021798475 10.0858066247781117 52.8799304757327349 S
atom 10.4176498775608355 10.0858066247781117 52.8869413036390128 S
atom 4.6143949718087125 5.0429033123890559 57.9150344283208796 S
atom 10.5440126869714277 5.0429033123890559 57.9210337301223319 S
atom 5.5600303708556149 10.0858066247781117 57.9157973157889856 S
atom 9.5983772879245919 10.0858066247781117 57.9202708426542543 S
atom 5.0898972621734275 2.5214142145132268 55.4992542898389090 S
atom 10.0738795782892634 2.5214890978758326 55.5044907041722553 S
atom 5.0898972621734275 7.5643924102648885 55.4992542898388947 S
atom 10.0738795782892634 7.5643175269022764 55.5044907041722766 S
atom 5.0845762314326040 2.5214661859173244 60.4069712297585824 S
atom 10.0685585475484842 2.5214371264717279 60.4122076440919500 S
atom 5.0845762314326040 7.5643404388607873 60.4069712297585966 S
atom 10.0685585475484842 7.5643694983063794 60.4122076440919500 S
atom 2.5983976449936423 5.0429033123890559 55.0314498970706723 S
atom 7.5815526620109202 5.0429033123890559 55.8617364995254775 S
atom 2.5975703458950941 10.0858066247781117 55.8565000851921809 S
atom 7.5823799611094831 10.0858066247781117 55.0366863114039901 S
atom 2.5920737099371873 5.0429033123890559 60.8890116116259748 S
atom 7.5770603209282523 5.0429033123890559 59.9153527811118636 S
atom 2.5930780048124182 10.0858066247781117 59.9101163667784746 S
atom 7.5760560260530294 10.0858066247781117 60.8942480259592855 S
atom 2.5899037009670853 2.5191976230047266 62.8979091157331140 Ba
atom 7.5738860170829323 2.5237056893843253 62.9031455300664959 Ba
atom 2.5899037009670853 7.5666090017733829 62.8979091157331140 Ba
atom 7.5738860170829323 7.5621009353937740 62.9031455300664959 Ba
atom 2.5845249547960050 2.5238829175285611 67.8515634623463626 Ba
atom 7.5685072709118248 2.5190203948604939 67.8567998766796308 Ba
atom 2.5845249547960050 7.5619237072495489 67.8515634623464194 Ba
atom 7.5685072709118248 7.5667862299176152 67.8567998766796023 Ba
atom 5.0808487839330407 5.0429033123890559 65.3619259206393082 Zr
atom 10.0614984408851935 5.0429033123890559 65.3668939058730132 Zr
atom 5.0775161247693772 10.0858066247781117 65.3616574915396029 Zr
atom 10.0648311000488526 10.0858066247781117 65.3671623349726900 Zr
atom 5.0735333967570195 5.0429033123890559 70.3294369757541205 Zr
atom 10.0582539435910423 5.0429033123890559 70.3345298100416585 Zr
atom 5.0742716274752162 10.0858066247781117 70.3292933957085324 Zr
atom 10.0575157128728616 10.0858066247781117 70.3346733900875165 Zr
atom 5.5885289582727440 5.0429033123890559 62.8837977853273102 S
atom 9.5592756047725160 5.0429033123890559 62.8877976947560953 S
atom 4.5752932886566819 10.0858066247781117 62.8825612804227774 S
atom 10.5725112743885763 10.0858066247781117 62.8890341996605358 S
atom 4.5688911695906445 5.0429033123890559 67.8475000672996202 S
atom 10.5681560722462820 5.0429033123890559 67.8537286195146123 S
atom 5.5841737561304745 10.0858066247781117 67.8484922051811026 S
atom 9.5528734857064990 10.0858066247781117 67.8527364816329737 S
atom 5.0791838950244550 2.5214593269879373 65.3692073351808318 S
atom 10.0631662111402491 2.5214439854011159 65.3744437495141995 S
atom 5.0791838950244532 7.5643472977901736 65.3692073351808318 S
atom 10.0631662111402456 7.5643626393769798 65.3744437495141284 S
atom 5.0738880627019611 2.5214555530538778 70.3316251060347497 S
atom 10.0578703788178192 2.5214477593351750 70.3368615203680747 S
atom 5.0738880627019611 7.5643510717242277 70.3316251060347639 S
atom 10.0578703788178192 7.5643588654429399 70.3368615203680747 S
atom 2.5877457705701365 5.0429033123890559 64.8678302629945591 S
atom 7.5706579884964809 5.0429033123890559 65.8729384175545931 S
atom 2.5866756723806481 10.0858066247781117 65.8677020032212823 S
atom 7.5717280866859626 10.0858066247781117 64.8730666773278983 S
atom 2.5813724427244495 5.0429033123890559 70.8308119889455838 S
atom 7.5664016546458654 5.0429033123890559 69.8333297411600000 S
atom 2.5824193385300211 10.0858066247781117 69.8280933268268313 S
atom 7.5653547588402921 10.0858066247781117 70.8360484032789941 S
atom 2.5792664261431208 2.5199309077341296 72.8118158961888042 Ba
atom 7.5632487422589563 2.5229724046549178 72.8170523105222429 Ba
atom 2.5792664261431208 7.5658757170439772 72.8118158961888042 Ba
atom 7.5632487422589563 7.5628342201231940 72.8170523105221861 Ba
atom 2.5739698095450558 2.5227445521604053 77.7761140011145073 Ba
atom 7.5579521256608739 2.5201587602286550 77.7813504154479034 Ba
atom 2.5739698095450558 7.5630620726177069 77.7761140011145073 Ba
atom 7.5579521256608739 7.5656478645494447 77.7813504154479034 Ba
atom 5.0686814765893962 5.0429033123890559 75.2957774926490231 Zr
atom 10.0525292694784323 5.0429033123890559 75.3009259449586921 Zr
atom 5.0685469533625991 10.0858066247781117 75.2956895306251965 Zr
atom 10.0526637927052143 10.0858066247781117 75.3010139069824334 Zr
atom 5.0633749818433360 5.0429033123890559 80.2617748859371574 Zr
atom 10.0472227747324077 5.0429033123890559 80.2669233382467695 Zr
atom 5.0632404586165460 10.0858066247781117 80.2616869239135013 Zr
atom 10.0473572979591523 10.0858066247781117 80.2670113002706245 Zr
atom 5.5798992560765281 5.0429033123890559 72.8140155640366942 S
atom 9.5466082076359093 5.0429033123890559 72.8181311593794902 S
atom 4.5626258915200637 10.0858066247781117 72.8128947450460799 S
atom 10.5638815721923471 10.0858066247781117 72.8192519783700334 S
atom 4.5569516611043204 5.0429033123890559 77.7782022692535691 S
atom 10.5589525902174426 5.0429033123890559 77.7844985616422093 S
atom 5.5749702741016183 10.0858066247781117 77.7792621473088985 S
atom 9.5409339772201669 10.0858066247781117 77.7834386835869083 S
atom 5.0686292412501182 2.5214545323916133 75.2964019807923961 S
atom 10.0526115573659158 2.5214487799974390 75.3016383951253943 S
atom 5.0686292412501182 7.5643520923864944 75.2964019807923819 S
atom 10.0526115573659158 7.5643578447806687 75.3016383951253943 S
atom 5.0632926939558196 2.5214487799974399 80.2610624357703273 S
atom 10.0472750100716617 2.5214545323916142 80.2662988501035386 S
atom 5.0632926939558196 7.5643578447806687 80.2610624357703557 S
atom 10.0472750100716617 7.5643520923864944 80.2662988501035102 S
atom 2.5771632035243974 5.0429033123890559 74.7913369270080750 S
atom 7.5600817295460541 5.0429033123890559 75.8012851306052937 S
atom 2.5760994134302364 10.0858066247781117 75.7960487162720398 S
atom 7.5611455196402355 10.0858066247781117 74.7965733413414569 S
atom 2.5707764155657054 5.0429033123890559 80.7608910752210392 S
atom 7.5558225217757125 5.0429033123890559 79.7614157002903283 S
atom 2.5718402056598628 10.0858066247781117 79.7561792859571739 S
atom 7.5547587316815363 10.0858066247781117 80.7661274895545631 S
atom 2.5686731929469788 2.5199309077341288 82.7404121060401394 Ba
atom 7.5526555090627987 2.5229724046549178 82.7456485203734786 Ba
atom 2.5686731929469788 7.5658757170439781 82.7404121060401394 Ba
atom 7.5526555090627987 7.5628342201231940 82.7456485203735070 Ba
atom 2.5634146642940969 2.5238829175285611 87.7006645398827658 Ba
atom 7.5473969804099443 2.5190203948604966 87.7059009542161903 Ba
atom 2.5634146642940969 7.5619237072495489 87.7006645398827658 Ba
atom 7.5473969804099443 7.5667862299176152 87.7059009542161618 Ba
atom 5.0576503077307153 5.0429033123890559 85.2281710208539778 Zr
atom 10.0423708545647550 5.0429033123890559 85.2332638551415585 Zr
atom 5.0583885384489209 10.0858066247781117 85.2280274408082477 Zr
atom 10.0416326238465157 10.0858066247781117 85.2334074351873028 Zr
atom 5.0544058104365588 5.0429033123890559 90.1958069250228220 Zr
atom 10.0350554673887391 5.0429033123890559 90.2007749102563281 Zr
atom 5.0510731512729015 10.0858066247781117 90.1955384959231736 Zr
atom 10.0383881265523964 10.0858066247781117 90.2010433393561613 Zr
atom 5.5692960436858696 5.0429033123890559 82.7445696715164161 S
atom 9.5360049952452268 5.0429033123890559 82.7486852668591268 S
atom 4.5520226791294078 10.0858066247781117 82.7434488525257450 S
atom 10.5532783598016859 10.0858066247781117 82.7498060858496700 S
atom 4.5477481790754632 5.0429033123890559 87.7089722113812513 S
atom 10.5470130817311443 5.0429033123890559 87.7152007635961866 S
atom 5.5630307656152826 10.0858066247781117 87.7099643492628473 S
atom 9.5317304951912707 10.0858066247781117 87.7142086257146332 S
atom 5.0580338725039642 2.5214477593351758 85.2258393105276895 S
atom 10.0420161886197956 2.5214555530538796 85.2310757248610855 S
atom 5.0580338725039642 7.5643588654429408 85.2258393105276753 S
atom 10.0420161886197956 7.5643510717242277 85.2310757248610855 S
atom 5.0527380401814757 2.5214439854011159 90.1882570813815789 S
atom 10.0367203562973195 2.5214593269879408 90.1934934957149608 S
atom 5.0527380401814757 7.5643626393769798 90.1882570813815647 S
atom 10.0367203562973195 7.5643472977901736 90.1934934957149608 S
atom 2.5665671763656452 5.0429033123890559 84.7214160132833030 S
atom 7.5495025966759108 5.0429033123890559 85.7293710897357357 S
atom 2.5655202805600807 10.0858066247781117 85.7241346754022970 S
atom 7.5505494924814673 10.0858066247781117 84.7266524276167416 S
atom 2.5601938485199685 5.0429033123890559 90.6843977392344698 S
atom 7.5452462628252857 5.0429033123890559 89.6897624133411568 S
atom 2.5612639467094480 10.0858066247781117 89.6845259990078176 S
atom 7.5441761646358048 10.0858066247781117 90.6896341535679227 S
atom 2.5580359181230130 2.5191976230047253 92.6543188864959006 Ba
atom 7.5420182342388422 2.5237056893843248 92.6595553008292541 Ba
atom 2.5580359181230130 7.5666090017733829 92.6543188864959006 Ba
atom 7.5420182342388422 7.5621009353937740 92.6595553008292541 Ba
atom 2.5528049598625695 2.5415491297906754 97.5652250875934897 Ba
atom 7.5367872759783934 2.5013541825983832 97.5704615019267436 Ba
atom 2.5528049598625695 7.5442574949874368 97.5652250875934897 Ba
atom 7.5367872759783934 7.5844524421797379 97.5704615019267436 Ba
atom 5.0459773492925626 5.0429033123890559 95.1652235751488149 Zr
atom 10.0325861706782220 5.0429033123890559 95.1699753222631273 Zr
atom 5.0486038545624332 10.0858066247781117 95.1647389079296033 Zr
atom 10.0299596654084056 10.0858066247781117 95.1704599894821683 Zr
atom 5.0309745785192277 5.0429033123890559 100.1862803661768737 Zr
atom 10.0367619444473668 5.0429033123890559 100.1905132614493539 Zr
atom 5.0527796283315318 10.0858066247781117 100.1852768471160289 Zr
atom 10.0149568946350289 10.0858066247781117 100.1915167805101134 Zr
atom 5.5566286465492496 5.0429033123890559 92.6749031361398607 S
atom 9.5273752930490101 5.0429033123890559 92.6789030455687453 S
atom 4.5433929769331867 10.0858066247781117 92.6736666312353066 S
atom 10.5406109626650739 10.0858066247781117 92.6801395504731289 S
atom 4.5718915643503140 5.0429033123890559 97.6416671007732191 S
atom 10.5015092795130176 5.0429033123890559 97.6476664025749699 S
atom 5.5175269633972137 10.0858066247781117 97.6424299882417301 S
atom 9.5558738804661516 10.0858066247781117 97.6469035151066720 S
atom 5.0473457037733160 2.5214371264717288 95.1504931868037431 S
atom 10.0313280198891341 2.5214661859173235 95.1557296011370539 S
atom 5.0473457037733160 7.5643694983063812 95.1504931868037431 S
atom 10.0313280198891341 7.5643404388607838 95.1557296011370539 S
atom 5.0420246730325200 2.5214890978758353 100.0582101267236084 S
atom 10.0260069891483248 2.5214142145132294 100.0634465410568055 S
atom 5.0420246730325200 7.5643175269022800 100.0582101267236084 S
atom 10.0260069891483248 7.5643924102648885 100.0634465410568055 S
atom 2.5558659091529203 5.0429033123890559 94.6632163906030542 S
atom 7.5388439303935124 5.0429033123890559 95.6473480497840285 S
atom 2.5548616142776837 10.0858066247781117 95.6421116354506040 S
atom 7.5398482252687566 10.0858066247781117 94.6684528049363365 S
atom 2.5495419740964622 5.0429033123890559 100.5207781051583851 S
atom 7.5343515893108526 5.0429033123890559 99.7009643313702156 S
atom 2.5503692731950065 10.0858066247781117 99.6957279170368906 S
atom 7.5335242902122843 10.0858066247781117 100.5260145194919517 S
atom 2.5477027844380076 2.3775741829791723 102.2493861325661726 Ba
atom 7.5316851005538492 2.6653291294098773 102.2546225468993981 Ba
atom 2.5477027844380076 7.7082324417989350 102.2493861325661442 Ba
atom 7.5316851005538492 7.4204774953682451 102.2546225468993981 Ba
atom 5.3803196330260752 5.0429033123890559 102.6775339408296190 S
atom 9.6822366898767438 5.0429033123890559 102.6809959415901830 S
atom 4.6982543737609301 10.0858066247781117 102.6757595272568153 S
atom 10.3643019491419164 10.0858066247781117 102.6827703551628730 S
