#=======================================================
# FHI-aims file: sym_relax/sym_relax_RP_8_Rx00_0Ry0.in
# Created using the Atomic Simulation Environment (ASE)
# Mon Mar 17 16:02:04 2025
#=======================================================
lattice_vector 10.0821177721563142 -0.0000000000000004 -0.0000000000000000 
lattice_vector -0.0000000000000004 10.0821177721563142 0.0000000000000000 
lattice_vector 0.0000000000000000 0.0000000000000000 84.8166274289760480 
atom -0.1529547129739501 0.0000000000000000 0.2780172098886441 Ba
atom 5.1940135990521030 -0.0000000000000000 0.2780172098886441 Ba
atom 0.1529547129739501 5.0410588860781580 0.2780172098886441 Ba
atom 4.8881041731042076 5.0410588860781580 0.2780172098886441 Ba
atom 0.0276102311225898 0.0000000000000000 4.9447611011930777 Ba
atom 5.0134486549555728 0.0000000000000000 4.9447611011930777 Ba
atom -0.0276102311225898 5.0410588860781580 4.9447611011930777 Ba
atom 5.0686691172007468 5.0410588860781580 4.9447611011930777 Ba
atom 2.5205294430390790 2.5080505182786084 2.3198083177305082 Zr
atom 7.5615883291172432 2.5330083677995483 2.3198083177305082 Zr
atom 2.5205294430390790 7.5740672538777023 2.3198083177305082 Zr
atom 7.5615883291172432 7.5491094043567699 2.3198083177305082 Zr
atom 2.5205294430390790 2.5192972397933779 7.3318603906178206 Zr
atom 7.5615883291172432 2.5217616462847783 7.3318603906178206 Zr
atom 2.5205294430390790 7.5628205323629381 7.3318603906178206 Zr
atom 7.5615883291172432 7.5603561258715448 7.3318603906178206 Zr
atom 2.5205294430390790 2.8739253764185344 -0.1615447102300808 S
atom 7.5615883291172432 2.1671335096596223 -0.1615447102300807 S
atom 2.5205294430390790 7.2081923957377789 -0.1615447102300807 S
atom 7.5615883291172432 7.9149842624966933 -0.1615447102300807 S
atom 2.5205294430390790 2.0477627710075681 4.8620958980514661 S
atom 7.5615883291172432 2.9932961150705895 4.8620958980514652 S
atom 2.5205294430390790 8.0343550011487572 4.8620958980514652 S
atom 7.5615883291172432 7.0888216570857301 4.8620958980514661 S
atom 2.5205294430390790 0.0000000000000000 2.0049745158464995 S
atom 7.5615883291172432 0.0000000000000000 2.7970959773430653 S
atom 2.5205294430390790 5.0410588860781580 2.7970959773430653 S
atom 7.5615883291172432 5.0410588860781580 2.0049745158464995 S
atom 2.5205294430390790 0.0000000000000000 7.8112638375776466 S
atom 7.5615883291172432 0.0000000000000000 6.8756870024490571 S
atom 2.5205294430390790 5.0410588860781580 6.8756870024490571 S
atom 7.5615883291172432 5.0410588860781580 7.8112638375776466 S
atom -0.0000000000000000 2.5205294430390790 2.4549193957529845 S
atom 5.0410588860781580 2.5205294430390790 2.4549193957529845 S
atom -0.0000000000000000 7.5615883291172432 2.4549193957529845 S
atom 5.0410588860781580 7.5615883291172432 2.4549193957529845 S
atom -0.0000000000000000 2.5205294430390790 7.3495572538107536 S
atom 5.0410588860781580 2.5205294430390790 7.3495572538107536 S
atom -0.0000000000000000 7.5615883291172432 7.3495572538107536 S
atom 5.0410588860781580 7.5615883291172432 7.3495572538107536 S
atom -0.0075319564042219 0.0000000000000000 9.8383305156453513 Ba
atom 5.0485908424823878 0.0000000000000000 9.8383305156453513 Ba
atom 0.0075319564042219 5.0410588860781580 9.8383305156453513 Ba
atom 5.0335269296739318 5.0410588860781580 9.8383305156453513 Ba
atom 0.0069642031338902 0.0000000000000000 14.7779776583561393 Ba
atom 5.0340946829442599 0.0000000000000000 14.7779776583561393 Ba
atom -0.0069642031338902 5.0410588860781580 14.7779776583561393 Ba
atom 5.0480230892120543 5.0410588860781580 14.7779776583561393 Ba
atom 2.5205294430390790 2.5220925707724189 12.2906966134353137 Zr
atom 7.5615883291172432 2.5189663153057413 12.2906966134353137 Zr
atom 2.5205294430390790 7.5600252013839064 12.2906966134353137 Zr
atom 7.5615883291172432 7.5631514568505747 12.2906966134353137 Zr
atom 2.5205294430390790 2.5202500265210088 17.2470693602154164 Zr
atom 7.5615883291172432 2.5208088595571505 17.2470693602154199 Zr
atom 2.5205294430390790 7.5618677456353085 17.2470693602154199 Zr
atom 7.5615883291172432 7.5613089125991708 17.2470693602154164 Zr
atom 2.5205294430390790 3.0283150272401911 9.8182880733460571 S
atom 7.5615883291172432 2.0127438588379669 9.8182880733460571 S
atom 2.5205294430390790 7.0538027449161262 9.8182880733460571 S
atom 7.5615883291172432 8.0693739133183442 9.8182880733460571 S
atom 2.5205294430390790 2.0109618954254675 14.7712146538943951 S
atom 7.5615883291172432 3.0300969906526909 14.7712146538944005 S
atom 2.5205294430390790 8.0711558767308400 14.7712146538944005 S
atom 7.5615883291172432 7.0520207815036224 14.7712146538943951 S
atom 2.5205294430390790 0.0000000000000000 11.8197555810074135 S
atom 7.5615883291172432 0.0000000000000000 12.7787282104432851 S
atom 2.5205294430390790 5.0410588860781580 12.7787282104432851 S
atom 7.5615883291172432 5.0410588860781580 11.8197555810074135 S
atom 2.5205294430390790 0.0000000000000000 17.7299513004441955 S
atom 7.5615883291172432 0.0000000000000000 16.7681872095703710 S
atom 2.5205294430390790 5.0410588860781580 16.7681872095703710 S
atom 7.5615883291172432 5.0410588860781580 17.7299513004441955 S
atom -0.0000000000000000 2.5205294430390790 12.2988549071370059 S
atom 5.0410588860781580 2.5205294430390790 12.2988549071370059 S
atom -0.0000000000000000 7.5615883291172432 12.2988549071370059 S
atom 5.0410588860781580 7.5615883291172432 12.2988549071370059 S
atom -0.0000000000000000 2.5205294430390790 17.2485710740610863 S
atom 5.0410588860781580 2.5205294430390790 17.2485710740610863 S
atom 0.0000000000000000 7.5615883291172432 17.2485710740610863 S
atom 5.0410588860781580 7.5615883291172432 17.2485710740610863 S
atom -0.0063085362776587 0.0000000000000000 19.7247970765060536 Ba
atom 5.0473674223558138 0.0000000000000000 19.7247970765060536 Ba
atom 0.0063085362776587 5.0410588860781580 19.7247970765060536 Ba
atom 5.0347503498005031 5.0410588860781580 19.7247970765060536 Ba
atom 0.0069642031338902 0.0000000000000000 24.6716164946559644 Ba
atom 5.0340946829442599 0.0000000000000000 24.6716164946559644 Ba
atom -0.0069642031338902 5.0410588860781580 24.6716164946559644 Ba
atom 5.0480230892120543 5.0410588860781580 24.6716164946559644 Ba
atom 2.5205294430390790 2.5202500265210088 22.2025247927966944 Zr
atom 7.5615883291172432 2.5208088595571505 22.2025247927966944 Zr
atom 2.5205294430390790 7.5618677456353085 22.2025247927966944 Zr
atom 7.5615883291172432 7.5613089125991708 22.2025247927966944 Zr
atom 2.5205294430390790 2.5220925707724189 27.1588975395768557 Zr
atom 7.5615883291172432 2.5189663153057413 27.1588975395768557 Zr
atom 2.5205294430390790 7.5600252013839064 27.1588975395768557 Zr
atom 7.5615883291172432 7.5631514568505747 27.1588975395768557 Zr
atom 2.5205294430390790 3.0307156355828564 19.7247970765060536 S
atom 7.5615883291172432 2.0103432504953012 19.7247970765060536 S
atom 2.5205294430390790 7.0514021365734649 19.7247970765060536 S
atom 7.5615883291172432 8.0717745216610250 19.7247970765060536 S
atom 2.5205294430390790 2.0109618954254675 24.6783794991177139 S
atom 7.5615883291172432 3.0300969906526909 24.6783794991177139 S
atom 2.5205294430390790 8.0711558767308400 24.6783794991177139 S
atom 7.5615883291172432 7.0520207815036224 24.6783794991177139 S
atom 2.5205294430390790 0.0000000000000000 21.7196428525679366 S
atom 7.5615883291172432 0.0000000000000000 22.6814069434417576 S
atom 2.5205294430390790 5.0410588860781580 22.6814069434417576 S
atom 7.5615883291172432 5.0410588860781580 21.7196428525679366 S
atom 2.5205294430390790 0.0000000000000000 27.6298385720047044 S
atom 7.5615883291172432 0.0000000000000000 26.6708659425687991 S
atom 2.5205294430390790 5.0410588860781580 26.6708659425687991 S
atom 7.5615883291172432 5.0410588860781580 27.6298385720047044 S
atom -0.0000000000000000 2.5205294430390790 22.2010230789510494 S
atom 5.0410588860781580 2.5205294430390790 22.2010230789510494 S
atom -0.0000000000000000 7.5615883291172432 22.2010230789510494 S
atom 5.0410588860781580 7.5615883291172432 22.2010230789510494 S
atom -0.0000000000000000 2.5205294430390790 27.1507392458751440 S
atom 5.0410588860781580 2.5205294430390790 27.1507392458751440 S
atom -0.0000000000000000 7.5615883291172432 27.1507392458751440 S
atom 5.0410588860781580 7.5615883291172432 27.1507392458751440 S
atom -0.0075319564042219 0.0000000000000000 29.6112636373667719 Ba
atom 5.0485908424823878 0.0000000000000000 29.6112636373667719 Ba
atom 0.0075319564042219 5.0410588860781580 29.6112636373667719 Ba
atom 5.0335269296739318 5.0410588860781580 29.6112636373667719 Ba
atom 0.0276102311225898 0.0000000000000000 34.5048330518190269 Ba
atom 5.0134486549555728 0.0000000000000000 34.5048330518190269 Ba
atom -0.0276102311225898 5.0410588860781580 34.5048330518190269 Ba
atom 5.0686691172007468 5.0410588860781580 34.5048330518190269 Ba
atom 2.5205294430390790 2.5192972397933779 32.1177337623943302 Zr
atom 7.5615883291172432 2.5217616462847783 32.1177337623943302 Zr
atom 2.5205294430390790 7.5628205323629381 32.1177337623943302 Zr
atom 7.5615883291172432 7.5603561258715448 32.1177337623943302 Zr
atom 2.5205294430390790 2.5080505182786084 37.1297858352817158 Zr
atom 7.5615883291172432 2.5330083677995483 37.1297858352817158 Zr
atom 2.5205294430390790 7.5740672538777023 37.1297858352817158 Zr
atom 7.5615883291172432 7.5491094043567699 37.1297858352817158 Zr
atom 2.5205294430390790 3.0283150272401911 29.6313060796660928 S
atom 7.5615883291172432 2.0127438588379669 29.6313060796660928 S
atom 2.5205294430390790 7.0538027449161262 29.6313060796660928 S
atom 7.5615883291172432 8.0693739133183442 29.6313060796660928 S
atom 2.5205294430390790 2.0477627710075681 34.5874982549606855 S
atom 7.5615883291172432 2.9932961150705895 34.5874982549606855 S
atom 2.5205294430390790 8.0343550011487572 34.5874982549606855 S
atom 7.5615883291172432 7.0888216570857301 34.5874982549606855 S
atom 2.5205294430390790 0.0000000000000000 31.6383303154344731 S
atom 7.5615883291172432 0.0000000000000000 32.5739071505630804 S
atom 2.5205294430390790 5.0410588860781580 32.5739071505630804 S
atom 7.5615883291172432 5.0410588860781580 31.6383303154344731 S
atom 2.5205294430390790 0.0000000000000000 37.4446196371656228 S
atom 7.5615883291172432 0.0000000000000000 36.6524981756690948 S
atom 2.5205294430390790 5.0410588860781580 36.6524981756690948 S
atom 7.5615883291172432 5.0410588860781580 37.4446196371656228 S
atom -0.0000000000000000 2.5205294430390790 32.1000368992013918 S
atom 5.0410588860781580 2.5205294430390790 32.1000368992013918 S
atom -0.0000000000000000 7.5615883291172432 32.1000368992013918 S
atom 5.0410588860781580 7.5615883291172432 32.1000368992013918 S
atom 0.0000000000000000 2.5205294430390790 36.9946747572591335 S
atom 5.0410588860781580 2.5205294430390790 36.9946747572591335 S
atom -0.0000000000000000 7.5615883291172432 36.9946747572591335 S
atom 5.0410588860781580 7.5615883291172432 36.9946747572591335 S
atom -0.1529547129739501 0.0000000000000000 39.1715769431235401 Ba
atom 5.1940135990521030 0.0000000000000000 39.1715769431235401 Ba
atom 0.1529547129739501 5.0410588860781580 39.1715769431235401 Ba
atom 4.8881041731042076 5.0410588860781580 39.1715769431235401 Ba
atom 2.5205294430390790 2.8739253764185344 39.6111388632422177 S
atom 7.5615883291172432 2.1671335096596223 39.6111388632422177 S
atom 2.5205294430390790 7.2081923957377789 39.6111388632422177 S
atom 7.5615883291172432 7.9149842624966933 39.6111388632422177 S
atom 2.5205294430390790 2.3675747300651286 42.6863309243766977 Ba
atom 7.5615883291172432 2.6734841560130302 42.6863309243766977 Ba
atom 2.5205294430390790 7.7145430420911891 42.6863309243766977 Ba
atom 7.5615883291172432 7.4086336161432866 42.6863309243766977 Ba
atom 2.5205294430390790 2.5481396741616682 47.3530748156811825 Ba
atom 7.5615883291172432 2.4929192119164920 47.3530748156811825 Ba
atom 2.5205294430390790 7.5339780979946500 47.3530748156811825 Ba
atom 7.5615883291172432 7.5891985602398195 47.3530748156811825 Ba
atom 5.0285799613176891 5.0410588860781580 44.7281220322185362 Zr
atom 10.0945966969167973 5.0410588860781580 44.7281220322185362 Zr
atom 5.0535378108386224 10.0821177721563160 44.7281220322185362 Zr
atom 10.0696388473958507 10.0821177721563160 44.7281220322185362 Zr
atom 5.0398266828324596 5.0410588860781580 49.7401741051058579 Zr
atom 10.0833499754020206 5.0410588860781580 49.7401741051058579 Zr
atom 5.0422910893238582 10.0821177721563160 49.7401741051058579 Zr
atom 10.0808855689106256 10.0821177721563160 49.7401741051058579 Zr
atom 5.3944548194576223 5.0410588860781580 42.2467690042579278 S
atom 9.7287218387768579 5.0410588860781580 42.2467690042579278 S
atom 4.6876629526986999 10.0821177721563160 42.2467690042579278 S
atom 10.4355137055357776 10.0821177721563160 42.2467690042579278 S
atom 4.5682922140466529 5.0410588860781580 47.2704096125395097 S
atom 10.5548844441878291 5.0410588860781580 47.2704096125395097 S
atom 5.5138255581096658 10.0821177721563160 47.2704096125395097 S
atom 9.6093511001248153 10.0821177721563160 47.2704096125395097 S
atom 5.0410588860781580 2.5205294430390790 44.8632331102410120 S
atom 10.0821177721563160 2.5205294430390790 44.8632331102410120 S
atom 5.0410588860781580 7.5615883291172432 44.8632331102410120 S
atom 10.0821177721563160 7.5615883291172432 44.8632331102410120 S
atom 5.0410588860781580 2.5205294430390790 49.7578709682987679 S
atom 10.0821177721563160 2.5205294430390790 49.7578709682987679 S
atom 5.0410588860781580 7.5615883291172432 49.7578709682987679 S
atom 10.0821177721563160 7.5615883291172432 49.7578709682987679 S
atom 2.5205294430390790 5.0410588860781580 44.4132882303345511 S
atom 7.5615883291172432 5.0410588860781580 45.2054096918311217 S
atom 2.5205294430390790 10.0821177721563160 45.2054096918311217 S
atom 7.5615883291172432 10.0821177721563160 44.4132882303345511 S
atom 2.5205294430390790 5.0410588860781580 50.2195775520657506 S
atom 7.5615883291172432 5.0410588860781580 49.2840007169371148 S
atom 2.5205294430390790 10.0821177721563160 49.2840007169371148 S
atom 7.5615883291172432 10.0821177721563160 50.2195775520657506 S
atom 2.5205294430390790 2.5129974866348572 52.2466442301333558 Ba
atom 7.5615883291172432 2.5280613994433017 52.2466442301333558 Ba
atom 2.5205294430390790 7.5691202855214694 52.2466442301333558 Ba
atom 7.5615883291172432 7.5540563727130134 52.2466442301333558 Ba
atom 2.5205294430390790 2.5274936461729687 57.1862913728442095 Ba
atom 7.5615883291172432 2.5135652399051924 57.1862913728441953 Ba
atom 2.5205294430390790 7.5546241259833380 57.1862913728441953 Ba
atom 7.5615883291172432 7.5685525322511404 57.1862913728442095 Ba
atom 5.0426220138114948 5.0410588860781580 54.6990103279233892 Zr
atom 10.0805546444229677 5.0410588860781580 54.6990103279233892 Zr
atom 5.0394957583448212 10.0821177721563160 54.6990103279233892 Zr
atom 10.0836808998896554 10.0821177721563160 54.6990103279233892 Zr
atom 5.0407794695600963 5.0410588860781580 59.6553830747034866 Zr
atom 10.0823971886743831 5.0410588860781580 59.6553830747034866 Zr
atom 5.0413383025962304 10.0821177721563160 59.6553830747034866 Zr
atom 10.0818383556382525 10.0821177721563160 59.6553830747034866 Zr
atom 5.5488444702792705 5.0410588860781580 52.2266017878341202 S
atom 9.5743321879552248 5.0410588860781580 52.2266017878341202 S
atom 4.5332733018770419 10.0821177721563160 52.2266017878341202 S
atom 10.5899033563574267 10.0821177721563160 52.2266017878341202 S
atom 4.5314913384645443 5.0410588860781580 57.1795283683824991 S
atom 10.5916853197699368 5.0410588860781580 57.1795283683824849 S
atom 5.5506264336917690 10.0821177721563160 57.1795283683824849 S
atom 9.5725502245427023 10.0821177721563160 57.1795283683824991 S
atom 5.0410588860781580 2.5205294430390790 54.7071686216250654 S
atom 10.0821177721563160 2.5205294430390790 54.7071686216250654 S
atom 5.0410588860781580 7.5615883291172432 54.7071686216250654 S
atom 10.0821177721563160 7.5615883291172432 54.7071686216250654 S
atom 5.0410588860781580 2.5205294430390790 59.6568847885491422 S
atom 10.0821177721563160 2.5205294430390790 59.6568847885491422 S
atom 5.0410588860781580 7.5615883291172432 59.6568847885491422 S
atom 10.0821177721563160 7.5615883291172432 59.6568847885491422 S
atom 2.5205294430390790 5.0410588860781580 54.2280692954954375 S
atom 7.5615883291172432 5.0410588860781580 55.1870419249313642 S
atom 2.5205294430390790 10.0821177721563160 55.1870419249313642 S
atom 7.5615883291172432 10.0821177721563160 54.2280692954954375 S
atom 2.5205294430390790 5.0410588860781580 60.1382650149322018 S
atom 7.5615883291172432 5.0410588860781580 59.1765009240583879 S
atom 2.5205294430390790 10.0821177721563160 59.1765009240583879 S
atom 7.5615883291172432 10.0821177721563160 60.1382650149322018 S
atom 2.5205294430390790 2.5142209067614205 62.1331107909941096 Ba
atom 7.5615883291172432 2.5268379793167375 62.1331107909941096 Ba
atom 2.5205294430390790 7.5678968653948937 62.1331107909941096 Ba
atom 7.5615883291172432 7.5552797928395830 62.1331107909941096 Ba
atom 2.5205294430390790 2.5274936461729687 67.0799302091439387 Ba
atom 7.5615883291172432 2.5135652399051924 67.0799302091439387 Ba
atom 2.5205294430390790 7.5546241259833380 67.0799302091439387 Ba
atom 7.5615883291172432 7.5685525322511404 67.0799302091439387 Ba
atom 5.0407794695600963 5.0410588860781580 64.6108385072847113 Zr
atom 10.0823971886743831 5.0410588860781580 64.6108385072847113 Zr
atom 5.0413383025962304 10.0821177721563160 64.6108385072847113 Zr
atom 10.0818383556382525 10.0821177721563160 64.6108385072847113 Zr
atom 5.0426220138114948 5.0410588860781580 69.5672112540647163 Zr
atom 10.0805546444229677 5.0410588860781580 69.5672112540647163 Zr
atom 5.0394957583448212 10.0821177721563160 69.5672112540647163 Zr
atom 10.0836808998896554 10.0821177721563160 69.5672112540647163 Zr
atom 5.5512450786219381 5.0410588860781580 62.1331107909941096 S
atom 9.5719315796125333 5.0410588860781580 62.1331107909941096 S
atom 4.5308726935343779 10.0821177721563160 62.1331107909941096 S
atom 10.5923039647001058 10.0821177721563160 62.1331107909941096 S
atom 4.5314913384645443 5.0410588860781580 67.0866932136057557 S
atom 10.5916853197699368 5.0410588860781580 67.0866932136057557 S
atom 5.5506264336917690 10.0821177721563160 67.0866932136057557 S
atom 9.5725502245427023 10.0821177721563160 67.0866932136057557 S
atom 5.0410588860781580 2.5205294430390790 64.6093367934391836 S
atom 10.0821177721563160 2.5205294430390790 64.6093367934391836 S
atom 5.0410588860781580 7.5615883291172432 64.6093367934391836 S
atom 10.0821177721563160 7.5615883291172432 64.6093367934391836 S
atom 5.0410588860781580 2.5205294430390790 69.5590529603632177 S
atom 10.0821177721563160 2.5205294430390790 69.5590529603632177 S
atom 5.0410588860781580 7.5615883291172432 69.5590529603632177 S
atom 10.0821177721563160 7.5615883291172432 69.5590529603632177 S
atom 2.5205294430390790 5.0410588860781580 64.1279565670560743 S
atom 7.5615883291172432 5.0410588860781580 65.0897206579298597 S
atom 2.5205294430390790 10.0821177721563160 65.0897206579298597 S
atom 7.5615883291172432 10.0821177721563160 64.1279565670560743 S
atom 2.5205294430390790 5.0410588860781580 70.0381522864928456 S
atom 7.5615883291172432 5.0410588860781580 69.0791796570568266 S
atom 2.5205294430390790 10.0821177721563160 69.0791796570568266 S
atom 7.5615883291172432 10.0821177721563160 70.0381522864928456 S
atom 2.5205294430390790 2.5129974866348572 72.0195773518548918 Ba
atom 7.5615883291172432 2.5280613994433017 72.0195773518548918 Ba
atom 2.5205294430390790 7.5691202855214694 72.0195773518548918 Ba
atom 7.5615883291172432 7.5540563727130134 72.0195773518548918 Ba
atom 2.5205294430390790 2.5481396741616682 76.9131467663071930 Ba
atom 7.5615883291172432 2.4929192119164920 76.9131467663071930 Ba
atom 2.5205294430390790 7.5339780979946500 76.9131467663071930 Ba
atom 7.5615883291172432 7.5891985602398195 76.9131467663071930 Ba
atom 5.0398266828324596 5.0410588860781580 74.5260474768823400 Zr
atom 10.0833499754020206 5.0410588860781580 74.5260474768823400 Zr
atom 5.0422910893238582 10.0821177721563160 74.5260474768823400 Zr
atom 10.0808855689106256 10.0821177721563160 74.5260474768823400 Zr
atom 5.0285799613176891 5.0410588860781580 79.5380995497697114 Zr
atom 10.0945966969167973 5.0410588860781580 79.5380995497697114 Zr
atom 5.0535378108386224 10.0821177721563160 79.5380995497697114 Zr
atom 10.0696388473958507 10.0821177721563160 79.5380995497697114 Zr
atom 5.5488444702792705 5.0410588860781580 72.0396197941540493 S
atom 9.5743321879552248 5.0410588860781580 72.0396197941540493 S
atom 4.5332733018770419 10.0821177721563160 72.0396197941540493 S
atom 10.5899033563574267 10.0821177721563160 72.0396197941540493 S
atom 4.5682922140466529 5.0410588860781580 76.9958119694487522 S
atom 10.5548844441878291 5.0410588860781580 76.9958119694487522 S
atom 5.5138255581096658 10.0821177721563160 76.9958119694487522 S
atom 9.6093511001248153 10.0821177721563160 76.9958119694487522 S
atom 5.0410588860781580 2.5205294430390790 74.5083506136894158 S
atom 10.0821177721563160 2.5205294430390790 74.5083506136894158 S
atom 5.0410588860781580 7.5615883291172432 74.5083506136894158 S
atom 10.0821177721563160 7.5615883291172432 74.5083506136894158 S
atom 5.0410588860781580 2.5205294430390790 79.4029884717471788 S
atom 10.0821177721563160 2.5205294430390790 79.4029884717471788 S
atom 5.0410588860781580 7.5615883291172432 79.4029884717471788 S
atom 10.0821177721563160 7.5615883291172432 79.4029884717471788 S
atom 2.5205294430390790 5.0410588860781580 74.0466440299225610 S
atom 7.5615883291172432 5.0410588860781580 74.9822208650510333 S
atom 2.5205294430390790 10.0821177721563160 74.9822208650510333 S
atom 7.5615883291172432 10.0821177721563160 74.0466440299225610 S
atom 2.5205294430390790 5.0410588860781580 79.8529333516537179 S
atom 7.5615883291172432 5.0410588860781580 79.0608118901570833 S
atom 2.5205294430390790 10.0821177721563160 79.0608118901570833 S
atom 7.5615883291172432 10.0821177721563160 79.8529333516537179 S
atom 2.5205294430390790 2.3675747300651286 81.5798906576115002 Ba
atom 7.5615883291172432 2.6734841560130302 81.5798906576115002 Ba
atom 2.5205294430390790 7.7145430420911891 81.5798906576115002 Ba
atom 7.5615883291172432 7.4086336161432866 81.5798906576115002 Ba
atom 5.3944548194576223 5.0410588860781580 82.0194525777303483 S
atom 9.7287218387768579 5.0410588860781580 82.0194525777303483 S
atom 4.6876629526986999 10.0821177721563160 82.0194525777303483 S
atom 10.4355137055357776 10.0821177721563160 82.0194525777303483 S
