#=======================================================
# FHI-aims file: sym_relax/sym_relax_RP_4_RxRyRz_RxRy0.in
# Created using the Atomic Simulation Environment (ASE)
# Fri Mar 14 10:31:46 2025
#=======================================================
lattice_vector 10.0377666261503400 0.0292169410501531 0.0095905295038453 
lattice_vector 0.0292169410501532 10.0377666261503471 -0.0095905295038453 
lattice_vector 0.0437086067391252 -0.0437086067391251 45.6684251165721733 
atom 0.0188665594678949 -0.1214828919112543 0.2429660038682367 Ba
atom 5.1403662049864325 -0.0042580889428186 0.2477612686201594 Ba
atom 0.1360913624363305 5.0000167536072997 0.2381707391163133 Ba
atom 5.0523583430681400 4.9120088916890063 0.2429660038682366 Ba
atom -0.2351780922380031 0.1962321651953111 4.9788044683047268 Ba
atom 4.8226511478798679 0.2497865627630804 4.9835997330566437 Ba
atom -0.1816236946702331 5.2540614053131867 4.9740092035528045 Ba
atom 4.7983136913622415 5.2297239487955745 4.9788044683047286 Ba
atom 2.4924881233601575 2.5415552037309883 2.3718403489825652 Zr
atom 7.5108198929444336 2.5556121307651756 2.3766356137344951 Zr
atom 2.5065450503943381 7.5598869733152929 2.3670450842306434 Zr
atom 7.5259799069603979 7.5750469873312616 2.3718403489825652 Zr
atom 2.4547210560880175 2.5654272133227387 7.4200177081084329 Zr
atom 7.4869478833527072 2.5933791980373133 7.4248129728603578 Zr
atom 2.4826730408025943 7.5976540405874173 7.4152224433565159 Zr
atom 7.4882128396882850 7.5989189969229978 7.4200177081084338 Zr
atom 2.6788924181581448 2.7987108298766366 -0.1268767883779963 S
atom 7.2536642667987765 2.3692078359671931 -0.1220815236260740 S
atom 2.2493894242486947 7.3734826785172949 -0.1316720531299195 S
atom 7.7123842017584057 7.8322026134768992 -0.1268767883779963 S
atom 2.2368120966435137 2.2400421481178330 4.9251184895948619 S
atom 7.8123329485576054 2.8112881574818243 4.9299137543467904 S
atom 2.8080581060075067 7.8155630000319212 4.9203232248429387 S
atom 7.2703038802437581 7.2735339317180872 4.9251184895948619 S
atom 2.6847703752728771 0.0382905406931473 2.2096500683849221 S
atom 7.2576542705100069 0.0574565208419333 2.7513548145367515 S
atom 2.2533794279598993 5.0617313633920489 2.7417642850329060 S
atom 7.7182621588731326 5.0717823242934026 2.2096500683849229 S
atom 2.8006243882527238 0.0415679772440494 7.7030144210281684 S
atom 7.1491838412963471 0.0601729017801800 7.1560635409797646 S
atom 2.1449089987462524 5.0644477443302902 7.1464730114759156 S
atom 7.8341161718529753 5.0750597608442938 7.7030144210281666 S
atom -0.0236820701680700 2.3341129378022996 2.2048548036329993 S
atom 4.9906437332833802 2.7947208261654279 2.7465595497848265 S
atom -0.0136311092667048 7.7989956687155555 2.7369690202809842 S
atom 5.0098097134321691 7.3676047214025457 2.2048548036329985 S
atom -0.0269595067189727 2.2182589248224498 7.6982191562762399 S
atom 4.9879273523451655 2.9031912553790855 7.1512682762278468 S
atom -0.0163474902049506 7.9074660979291957 7.1416777467240022 S
atom 5.0065322768812761 7.2517507084227297 7.6982191562762381 S
atom 0.0003613392930882 -0.0186424027674010 9.9279185036026281 Ba
atom 5.0375257158425786 0.0142471312319882 9.9327137683545459 Ba
atom 0.0332508732924779 5.0185219737820894 9.9231232388507102 Ba
atom 5.0338531228933379 5.0148493808328638 9.9279185036026281 Ba
atom 0.2152359072557995 -0.2541818342984928 14.8770325389005134 Ba
atom 5.2730651473736723 -0.2006274367307234 14.8818278036524472 Ba
atom 0.2687903048235677 4.8036474058193894 14.8722372741485902 Ba
atom 5.2487276908560476 4.7793099493017737 14.8770325389005134 Ba
atom 2.5844309553832194 2.4357173140275368 12.4358192990968242 Zr
atom 7.6166577826478958 2.4636692987421145 12.4406145638487402 Zr
atom 2.6123829400977887 7.4679441412922190 12.4310240343448815 Zr
atom 7.6179227389834647 7.4692090976277949 12.4358192990968277 Zr
atom 2.5605589457914775 2.4734843812996687 17.4839966582227113 Zr
atom 7.5788907153757714 2.4875413083338489 17.4887919229746238 Zr
atom 2.5746158728256581 7.4918161508839543 17.4792013934707668 Zr
atom 7.5940507293917205 7.5069761648999220 17.4839966582227113 Zr
atom 2.7941228910280209 2.7751191489675282 9.9279185036026281 S
atom 7.2772559477078973 2.2539773630973214 9.9327137683545459 S
atom 2.2729811051578004 7.2582522056474232 9.9231232388507102 S
atom 7.8276146746282702 7.8086109325677988 9.9279185036026281 S
atom 2.2590458901783173 2.2178083545830218 14.9307185176103765 S
atom 7.8345667420923943 2.7890543639470153 14.9355137823623227 S
atom 2.8302918995423032 7.7933292064971154 14.9259232528584533 S
atom 7.2925376737785630 7.2513001381832733 14.9307185176103729 S
atom 2.2372626668829354 -0.0459632487794622 12.1576178509290145 S
atom 7.9264698399896529 -0.0353512322654402 12.7141592604812601 S
atom 2.9221949974395631 4.9689236102846772 12.7045687309774138 S
atom 7.2707544504831931 4.9875285348208136 12.1576178509290234 S
atom 2.3531166798627754 -0.0426858122285602 17.6509822035722799 S
atom 7.8179994107760145 -0.0326348513271937 17.1188679869242719 S
atom 2.8137245682259149 4.9716399912229114 17.1092774574203936 S
atom 7.3866084634630349 4.9908059713716968 17.6509822035722799 S
atom 0.0605717193045387 2.7816206461922368 12.1528225861770807 S
atom 5.0834514863907652 2.1259052566857641 12.7093639957293369 S
atom 0.0791766438406694 7.1301800992358810 12.6997734662255031 S
atom 5.0940635029047963 7.8151124297924861 12.1528225861770878 S
atom 0.0572942827536369 2.6657666332123977 17.6461869388203532 S
atom 5.0807351054525087 2.2343756858994137 17.1140727221723417 S
atom 0.0764602629024229 7.2386505284495017 17.1044821926684918 S
atom 5.0907860663538882 7.6992584168126603 17.6461869388203532 S
atom -0.1024791498507642 -0.0001371825925946 19.6128710033370304 Ba
atom 5.0190204956677631 0.1170876203758412 19.6176662680889677 Ba
atom 0.0147456531176712 5.1213624629259629 19.6080757385851179 Ba
atom 4.9310126337494875 5.0333546010076509 19.6128710033370304 Ba
atom 2.8177145719371235 2.6598886760976499 19.9827137955831908 S
atom 7.3924864205777734 2.2303856821882104 19.9875090603351353 S
atom 2.3882115780276738 7.2346605247383025 19.9779185308312854 S
atom 7.8512063555373777 7.6933804596979138 19.9827137955831908 S
atom 2.5574598693245618 2.3733712543609138 23.0771767762960991 Ba
atom 7.6790038423145113 2.4906403848007681 23.0819720410480294 Ba
atom 2.6747289997644121 7.4949152273508703 23.0723815115441298 Ba
atom 7.5909516529248151 7.4068630379611795 23.0771767762961062 Ba
atom 2.3034523900456101 2.6911354775443757 27.8130238744063547 Ba
atom 7.3612396191310641 2.7446478640797278 27.8178191391582743 Ba
atom 2.3569647765809552 7.7489227066298305 27.8082286096544102 Ba
atom 7.3369441736458576 7.7246272611446312 27.8130238744063618 Ba
atom 5.0310774595631038 5.0364396595464127 25.2060489341702159 Zr
atom 10.0494272207292497 5.0505145781624963 25.2108441989221284 Zr
atom 5.0451523781791652 10.0547894207126003 25.2012536694182820 Zr
atom 10.0645692431633371 10.0699314431466771 25.2060489341702123 Zr
atom 4.9933351894623188 5.0603148928579094 30.2542388055510685 Zr
atom 10.0255519874177832 5.0882568482632831 30.2590340703029739 Zr
atom 5.0212771448676525 10.0925316908133684 30.2494435407991631 Zr
atom 10.0268269730625743 10.0938066764581915 30.2542388055510685 Zr
atom 5.2174298316339538 5.2936001081982322 22.7073140536690410 S
atom 9.7922667720774559 4.8641622060916427 22.7121093184210139 S
atom 4.7879919295273625 9.8684370486417627 22.7025187889171143 S
atom 10.2509216152341818 10.3270918917984957 22.7073140536690410 S
atom 4.7754331235322889 4.7349651628618048 27.7593341804097165 S
atom 10.3509017174138815 5.3061589141933219 27.7641294451615792 S
atom 5.3466268748637642 10.3104337567434197 27.7545389156577684 S
atom 9.8089249071325053 9.7684569464620825 27.7593341804097165 S
atom 5.2233953552381100 2.5331766210215187 25.0438796614749286 S
atom 9.7962923477039840 2.5523436518489211 25.5855291817457626 S
atom 4.7920175051539129 7.5566184943990171 25.5759386522419554 S
atom 10.2568871388383425 7.5666684046217814 25.0438796614749073 S
atom 5.3392483811834026 2.5364603473601850 30.5371968211915927 S
atom 9.6877542679915987 2.5550654541991955 29.9903134544035801 S
atom 4.6834794254414973 7.5593402967493102 29.9807229248997373 S
atom 10.3727401647836768 7.5699521309604512 30.5371968211915927 S
atom 2.5149236331038138 4.8289797414373208 25.0390843967230161 S
atom 7.5292483858766754 5.2895745325716872 25.5807339169938786 S
atom 2.5249735433265550 10.2938493751217894 25.5711433874900287 S
atom 7.5484154167040574 9.8624715250375985 25.0390843967230161 S
atom 2.5116399067651556 4.7131267154920158 30.5324015564396873 S
atom 7.5265265835263975 5.3981126122840841 29.9855181896516356 S
atom 2.5222517409762855 10.4023874548341819 29.9759276601478568 S
atom 7.5451316903654027 9.7466184990922944 30.5324015564396838 S
atom 2.5389596007798159 2.4762472519802072 32.7621310618886383 Ba
atom 7.5761278446952076 2.5091406533455061 32.7669263266405864 Ba
atom 2.5718530021451174 7.5134154958956128 32.7573357971367543 Ba
atom 7.5724513843800665 7.5097390355804761 32.7621310618886383 Ba
atom 2.7538478263439843 2.2407400412459912 37.7112382493710072 Ba
atom 7.8116350554294369 2.2942524277813501 37.7160335141229268 Ba
atom 2.8073602128793360 7.2985272703314505 37.7064429846190805 Ba
atom 7.7873396099442447 7.2742318248462645 37.7112382493710072 Ba
atom 5.1230272416575318 4.9306228406627053 35.2700233182263005 Zr
atom 10.1552440396129633 4.9585647960680719 35.2748185829781917 Zr
atom 5.1509691970628895 9.9628396386181493 35.2652280534744165 Zr
atom 10.1565190252577704 9.9641146242629812 35.2700233182263077 Zr
atom 5.0991520083460200 4.9683651107634930 40.3182131896071070 Zr
atom 10.1175017695121898 4.9824400293795605 40.3230084543590479 Zr
atom 5.1132269269620911 9.9867148719296779 40.3134179248552584 Zr
atom 10.1326437919462826 10.0018568943637582 40.3182131896071070 Zr
atom 5.3327042352960996 5.2699918864964879 32.7621310618886383 S
atom 9.8158749937791931 4.7488878024294916 32.7669263266405864 S
atom 4.8116001512290945 9.7531626449795716 32.7573357971367543 S
atom 10.3661960188963516 10.3034836700967478 32.7621310618886383 S
atom 4.7976775116614361 4.7127207747326727 37.7649279433675886 S
atom 10.3731461055430110 5.2839145260641542 37.7697232081195082 S
atom 5.3688712629929141 10.2881893686142583 37.7601326786156832 S
atom 9.8311692952616880 9.7462125583329318 37.7649279433675886 S
atom 4.7758390642916293 2.4489275579655341 34.9918605673376533 S
atom 10.4650998036337963 2.4595393921766799 35.5483344636294518 S
atom 5.4608249610837056 7.4638142347267884 35.5387439341256197 S
atom 9.8093308478918910 7.4824193415657980 34.9918605673376533 S
atom 4.8916920902369512 2.4522112843041914 40.4851777270541859 S
atom 10.3565617239214109 2.4622611945269468 39.9531187362874007 S
atom 5.3522868813712874 7.4665360370770646 39.9435282067836255 S
atom 9.9251838738372093 7.4857030679044527 40.4851777270541859 S
atom 2.5991726961597843 5.2765360323838184 34.9870653025857337 S
atom 7.6220526455489175 4.6207670766418838 35.5435391988775606 S
atom 2.6177778029988095 9.6250419191919807 35.5339486693737499 S
atom 7.6326644797600256 10.3100278159840695 34.9870653025857337 S
atom 2.5958889698211376 5.1606830064385099 40.4803824623023090 S
atom 7.6193308431986457 4.7293051563542754 39.9483234715354385 S
atom 2.6150560006485271 9.7335799989044069 39.9387329420316988 S
atom 7.6293807534213798 10.1941747900387796 40.4803824623022948 S
atom 2.4360836031605295 2.4947475205249545 42.4470853474813055 Ba
atom 7.5576275761504803 2.6120166509648128 42.4518806122332393 Ba
atom 2.5533527336003807 7.6162914935149146 42.4422900827293645 Ba
atom 7.4695753867607735 7.5282393041252194 42.4470853474813055 Ba
atom 5.3563124569978413 5.1547174828343447 42.8169480701082819 S
atom 9.9311493974413576 4.7252795807277446 42.8217433348603151 S
atom 4.9268745548912420 9.7295544232778663 42.8121528053564333 S
atom 10.3898042405980782 10.1882092664345958 42.8169480701082819 S
