#=======================================================
# FHI-aims file: sym_relax/sym_relax_RP_6_000_000.in
# Created using the Atomic Simulation Environment (ASE)
# Fri Mar 14 10:58:42 2025
#=======================================================
lattice_vector 10.0673078933153803 -0.0000000000000000 0.0000000000000000 
lattice_vector -0.0000000000000000 10.0673078933153803 0.0000000000000000 
lattice_vector 0.0000000000000000 0.0000000000000000 65.7888967098924269 
atom 0.0000000000000000 0.0000000000000000 0.2880709643286365 Ba
atom 5.0336539466576875 0.0000000000000000 0.2880709643286365 Ba
atom 0.0000000000000000 5.0336539466576884 0.2880709643286364 Ba
atom 5.0336539466576875 5.0336539466576884 0.2880709643286364 Ba
atom -0.0000000000000000 0.0000000000000000 5.0586392511569125 Ba
atom 5.0336539466576875 0.0000000000000000 5.0586392511569125 Ba
atom -0.0000000000000000 5.0336539466576884 5.0586392511569125 Ba
atom 5.0336539466576875 5.0336539466576884 5.0586392511569125 Ba
atom 2.5168269733288438 2.5168269733288442 2.3121338348215703 Zr
atom 7.5504809199865344 2.5168269733288442 2.3121338348215703 Zr
atom 2.5168269733288438 7.5504809199865344 2.3121338348215703 Zr
atom 7.5504809199865344 7.5504809199865344 2.3121338348215703 Zr
atom 2.5168269733288438 2.5168269733288442 7.3909208533828190 Zr
atom 7.5504809199865344 2.5168269733288442 7.3909208533828190 Zr
atom 2.5168269733288438 7.5504809199865344 7.3909208533828190 Zr
atom 7.5504809199865344 7.5504809199865344 7.3909208533828190 Zr
atom 2.5168269733288438 2.5168269733288442 -0.1793317512945231 S
atom 7.5504809199865344 2.5168269733288442 -0.1793317512945231 S
atom 2.5168269733288438 7.5504809199865344 -0.1793317512945231 S
atom 7.5504809199865344 7.5504809199865344 -0.1793317512945231 S
atom 2.5168269733288438 2.5168269733288442 4.8997828612667709 S
atom 7.5504809199865344 2.5168269733288442 4.8997828612667709 S
atom 2.5168269733288438 7.5504809199865344 4.8997828612667709 S
atom 7.5504809199865344 7.5504809199865344 4.8997828612667709 S
atom 2.5168269733288438 0.0000000000000000 2.4422742076815873 S
atom 7.5504809199865344 0.0000000000000000 2.4422742076815873 S
atom 2.5168269733288438 5.0336539466576884 2.4422742076815873 S
atom 7.5504809199865344 5.0336539466576884 2.4422742076815873 S
atom 2.5168269733288438 0.0000000000000000 7.4242680740724643 S
atom 7.5504809199865344 0.0000000000000000 7.4242680740724643 S
atom 2.5168269733288438 5.0336539466576884 7.4242680740724643 S
atom 7.5504809199865344 5.0336539466576884 7.4242680740724643 S
atom 0.0000000000000000 2.5168269733288442 2.4422742076815873 S
atom 5.0336539466576875 2.5168269733288442 2.4422742076815873 S
atom 0.0000000000000000 7.5504809199865344 2.4422742076815873 S
atom 5.0336539466576875 7.5504809199865344 2.4422742076815873 S
atom 0.0000000000000000 2.5168269733288442 7.4242680740724643 S
atom 5.0336539466576875 2.5168269733288442 7.4242680740724643 S
atom 0.0000000000000000 7.5504809199865344 7.4242680740724643 S
atom 5.0336539466576875 7.5504809199865344 7.4242680740724643 S
atom -0.0000000000000000 0.0000000000000000 9.9857880570133162 Ba
atom 5.0336539466576875 0.0000000000000000 9.9857880570133162 Ba
atom -0.0000000000000000 5.0336539466576884 9.9857880570133162 Ba
atom 5.0336539466576875 5.0336539466576884 9.9857880570133162 Ba
atom -0.0000000000000000 0.0000000000000000 14.9520219795209961 Ba
atom 5.0336539466576875 0.0000000000000000 14.9520219795209961 Ba
atom -0.0000000000000000 5.0336539466576884 14.9520219795209961 Ba
atom 5.0336539466576875 5.0336539466576884 14.9520219795209961 Ba
atom 2.5168269733288438 2.5168269733288442 12.4327384582639411 Zr
atom 7.5504809199865344 2.5168269733288442 12.4327384582639411 Zr
atom 2.5168269733288438 7.5504809199865344 12.4327384582639411 Zr
atom 7.5504809199865344 7.5504809199865344 12.4327384582639411 Zr
atom 2.5168269733288438 2.5168269733288442 17.4713055007780547 Zr
atom 7.5504809199865344 2.5168269733288442 17.4713055007780547 Zr
atom 2.5168269733288438 7.5504809199865344 17.4713055007780547 Zr
atom 7.5504809199865344 7.5504809199865344 17.4713055007780547 Zr
atom 2.5168269733288438 2.5168269733288442 9.9262585638372940 S
atom 7.5504809199865344 2.5168269733288442 9.9262585638372940 S
atom 2.5168269733288438 7.5504809199865344 9.9262585638372940 S
atom 7.5504809199865344 7.5504809199865344 9.9262585638372940 S
atom 2.5168269733288438 2.5168269733288442 14.9520219795209961 S
atom 7.5504809199865344 2.5168269733288442 14.9520219795209961 S
atom 2.5168269733288438 7.5504809199865344 14.9520219795209961 S
atom 7.5504809199865344 7.5504809199865344 14.9520219795209961 S
atom 2.5168269733288438 0.0000000000000000 12.4438042167636791 S
atom 7.5504809199865344 0.0000000000000000 12.4438042167636791 S
atom 2.5168269733288438 5.0336539466576884 12.4438042167636791 S
atom 7.5504809199865344 5.0336539466576884 12.4438042167636791 S
atom 2.5168269733288438 0.0000000000000000 17.4602397422783255 S
atom 7.5504809199865344 0.0000000000000000 17.4602397422783255 S
atom 2.5168269733288438 5.0336539466576884 17.4602397422783255 S
atom 7.5504809199865344 5.0336539466576884 17.4602397422783255 S
atom -0.0000000000000000 2.5168269733288442 12.4438042167636791 S
atom 5.0336539466576875 2.5168269733288442 12.4438042167636791 S
atom -0.0000000000000000 7.5504809199865344 12.4438042167636791 S
atom 5.0336539466576875 7.5504809199865344 12.4438042167636791 S
atom -0.0000000000000000 2.5168269733288442 17.4602397422783255 S
atom 5.0336539466576875 2.5168269733288442 17.4602397422783255 S
atom -0.0000000000000000 7.5504809199865344 17.4602397422783255 S
atom 5.0336539466576875 7.5504809199865344 17.4602397422783255 S
atom -0.0000000000000000 0.0000000000000000 19.9182559020286689 Ba
atom 5.0336539466576875 0.0000000000000000 19.9182559020286689 Ba
atom -0.0000000000000000 5.0336539466576884 19.9182559020286689 Ba
atom 5.0336539466576875 5.0336539466576884 19.9182559020286689 Ba
atom 0.0000000000000000 0.0000000000000000 24.8454047078850770 Ba
atom 5.0336539466576875 0.0000000000000000 24.8454047078850770 Ba
atom 0.0000000000000000 5.0336539466576884 24.8454047078850770 Ba
atom 5.0336539466576875 5.0336539466576884 24.8454047078850770 Ba
atom 2.5168269733288438 2.5168269733288442 22.5131231056591758 Zr
atom 7.5504809199865344 2.5168269733288442 22.5131231056591758 Zr
atom 2.5168269733288438 7.5504809199865344 22.5131231056591758 Zr
atom 7.5504809199865344 7.5504809199865344 22.5131231056591758 Zr
atom 2.5168269733288438 2.5168269733288442 27.5919101242204228 Zr
atom 7.5504809199865344 2.5168269733288442 27.5919101242204228 Zr
atom 2.5168269733288438 7.5504809199865344 27.5919101242204228 Zr
atom 7.5504809199865344 7.5504809199865344 27.5919101242204228 Zr
atom 2.5168269733288438 2.5168269733288442 19.9777853952047231 S
atom 7.5504809199865344 2.5168269733288442 19.9777853952047231 S
atom 2.5168269733288438 7.5504809199865344 19.9777853952047231 S
atom 7.5504809199865344 7.5504809199865344 19.9777853952047231 S
atom 2.5168269733288438 2.5168269733288442 25.0042610977752133 S
atom 7.5504809199865344 2.5168269733288442 25.0042610977752133 S
atom 2.5168269733288438 7.5504809199865344 25.0042610977752133 S
atom 7.5504809199865344 7.5504809199865344 25.0042610977752133 S
atom 2.5168269733288438 0.0000000000000000 22.4797758849695271 S
atom 7.5504809199865344 0.0000000000000000 22.4797758849695271 S
atom 2.5168269733288438 5.0336539466576884 22.4797758849695271 S
atom 7.5504809199865344 5.0336539466576884 22.4797758849695271 S
atom 2.5168269733288438 0.0000000000000000 27.4617697513604071 S
atom 7.5504809199865344 0.0000000000000000 27.4617697513604071 S
atom 2.5168269733288438 5.0336539466576884 27.4617697513604071 S
atom 7.5504809199865344 5.0336539466576884 27.4617697513604071 S
atom -0.0000000000000000 2.5168269733288442 22.4797758849695271 S
atom 5.0336539466576875 2.5168269733288442 22.4797758849695271 S
atom -0.0000000000000000 7.5504809199865344 22.4797758849695271 S
atom 5.0336539466576875 7.5504809199865344 22.4797758849695271 S
atom 0.0000000000000000 2.5168269733288442 27.4617697513604071 S
atom 5.0336539466576875 2.5168269733288442 27.4617697513604071 S
atom 0.0000000000000000 7.5504809199865344 27.4617697513604071 S
atom 5.0336539466576875 7.5504809199865344 27.4617697513604071 S
atom -0.0000000000000000 0.0000000000000000 29.6159729947133634 Ba
atom 5.0336539466576875 0.0000000000000000 29.6159729947133634 Ba
atom -0.0000000000000000 5.0336539466576884 29.6159729947133634 Ba
atom 5.0336539466576875 5.0336539466576884 29.6159729947133634 Ba
atom 2.5168269733288438 2.5168269733288442 30.0833757103365258 S
atom 7.5504809199865344 2.5168269733288442 30.0833757103365258 S
atom 2.5168269733288438 7.5504809199865344 30.0833757103365258 S
atom 7.5504809199865344 7.5504809199865344 30.0833757103365258 S
atom 2.5168269733288438 2.5168269733288442 33.1825193192748102 Ba
atom 7.5504809199865344 2.5168269733288442 33.1825193192748102 Ba
atom 2.5168269733288438 7.5504809199865344 33.1825193192748102 Ba
atom 7.5504809199865344 7.5504809199865344 33.1825193192748102 Ba
atom 2.5168269733288438 2.5168269733288442 37.9530876061030824 Ba
atom 7.5504809199865344 2.5168269733288442 37.9530876061030824 Ba
atom 2.5168269733288438 7.5504809199865344 37.9530876061030824 Ba
atom 7.5504809199865344 7.5504809199865344 37.9530876061030824 Ba
atom 5.0336539466576875 5.0336539466576884 35.2065821897678148 Zr
atom 10.0673078933153750 5.0336539466576884 35.2065821897678148 Zr
atom 5.0336539466576875 10.0673078933153768 35.2065821897678148 Zr
atom 10.0673078933153750 10.0673078933153768 35.2065821897678148 Zr
atom 5.0336539466576875 5.0336539466576884 40.2853692083290582 Zr
atom 10.0673078933153750 5.0336539466576884 40.2853692083290582 Zr
atom 5.0336539466576875 10.0673078933153768 40.2853692083290582 Zr
atom 10.0673078933153750 10.0673078933153768 40.2853692083290582 Zr
atom 5.0336539466576875 5.0336539466576884 32.7151166036517083 S
atom 10.0673078933153750 5.0336539466576884 32.7151166036517083 S
atom 5.0336539466576875 10.0673078933153768 32.7151166036517083 S
atom 10.0673078933153750 10.0673078933153768 32.7151166036517083 S
atom 5.0336539466576875 5.0336539466576884 37.7942312162129710 S
atom 10.0673078933153750 5.0336539466576884 37.7942312162129710 S
atom 5.0336539466576875 10.0673078933153768 37.7942312162129710 S
atom 10.0673078933153750 10.0673078933153768 37.7942312162129710 S
atom 5.0336539466576875 2.5168269733288442 35.3367225626277204 S
atom 10.0673078933153750 2.5168269733288442 35.3367225626277204 S
atom 5.0336539466576875 7.5504809199865344 35.3367225626277204 S
atom 10.0673078933153750 7.5504809199865344 35.3367225626277204 S
atom 5.0336539466576875 2.5168269733288442 40.3187164290186502 S
atom 10.0673078933153750 2.5168269733288442 40.3187164290186502 S
atom 5.0336539466576875 7.5504809199865344 40.3187164290186502 S
atom 10.0673078933153750 7.5504809199865344 40.3187164290186502 S
atom 2.5168269733288438 5.0336539466576884 35.3367225626277204 S
atom 7.5504809199865344 5.0336539466576884 35.3367225626277204 S
atom 2.5168269733288438 10.0673078933153768 35.3367225626277204 S
atom 7.5504809199865344 10.0673078933153768 35.3367225626277204 S
atom 2.5168269733288438 5.0336539466576884 40.3187164290186502 S
atom 7.5504809199865344 5.0336539466576884 40.3187164290186502 S
atom 2.5168269733288438 10.0673078933153768 40.3187164290186502 S
atom 7.5504809199865344 10.0673078933153768 40.3187164290186502 S
atom 2.5168269733288438 2.5168269733288442 42.8802364119595225 Ba
atom 7.5504809199865344 2.5168269733288442 42.8802364119595225 Ba
atom 2.5168269733288438 7.5504809199865344 42.8802364119595225 Ba
atom 7.5504809199865344 7.5504809199865344 42.8802364119595225 Ba
atom 2.5168269733288438 2.5168269733288442 47.8464703344671989 Ba
atom 7.5504809199865344 2.5168269733288442 47.8464703344671989 Ba
atom 2.5168269733288438 7.5504809199865344 47.8464703344671989 Ba
atom 7.5504809199865344 7.5504809199865344 47.8464703344671989 Ba
atom 5.0336539466576875 5.0336539466576884 45.3271868132101901 Zr
atom 10.0673078933153750 5.0336539466576884 45.3271868132101901 Zr
atom 5.0336539466576875 10.0673078933153768 45.3271868132101901 Zr
atom 10.0673078933153750 10.0673078933153768 45.3271868132101901 Zr
atom 5.0336539466576875 5.0336539466576884 50.3657538557241935 Zr
atom 10.0673078933153750 5.0336539466576884 50.3657538557241935 Zr
atom 5.0336539466576875 10.0673078933153768 50.3657538557241935 Zr
atom 10.0673078933153750 10.0673078933153768 50.3657538557241935 Zr
atom 5.0336539466576875 5.0336539466576884 42.8207069187834861 S
atom 10.0673078933153750 5.0336539466576884 42.8207069187834861 S
atom 5.0336539466576875 10.0673078933153768 42.8207069187834861 S
atom 10.0673078933153750 10.0673078933153768 42.8207069187834861 S
atom 5.0336539466576875 5.0336539466576884 47.8464703344671989 S
atom 10.0673078933153750 5.0336539466576884 47.8464703344671989 S
atom 5.0336539466576875 10.0673078933153768 47.8464703344671989 S
atom 10.0673078933153750 10.0673078933153768 47.8464703344671989 S
atom 5.0336539466576875 2.5168269733288442 45.3382525717098801 S
atom 10.0673078933153750 2.5168269733288442 45.3382525717098801 S
atom 5.0336539466576875 7.5504809199865344 45.3382525717098801 S
atom 10.0673078933153750 7.5504809199865344 45.3382525717098801 S
atom 5.0336539466576875 2.5168269733288442 50.3546880972244963 S
atom 10.0673078933153750 2.5168269733288442 50.3546880972244963 S
atom 5.0336539466576875 7.5504809199865344 50.3546880972244963 S
atom 10.0673078933153750 7.5504809199865344 50.3546880972244963 S
atom 2.5168269733288438 5.0336539466576884 45.3382525717098801 S
atom 7.5504809199865344 5.0336539466576884 45.3382525717098801 S
atom 2.5168269733288438 10.0673078933153768 45.3382525717098801 S
atom 7.5504809199865344 10.0673078933153768 45.3382525717098801 S
atom 2.5168269733288438 5.0336539466576884 50.3546880972244963 S
atom 7.5504809199865344 5.0336539466576884 50.3546880972244963 S
atom 2.5168269733288438 10.0673078933153768 50.3546880972244963 S
atom 7.5504809199865344 10.0673078933153768 50.3546880972244963 S
atom 2.5168269733288438 2.5168269733288442 52.8127042569748824 Ba
atom 7.5504809199865344 2.5168269733288442 52.8127042569748824 Ba
atom 2.5168269733288438 7.5504809199865344 52.8127042569748824 Ba
atom 7.5504809199865344 7.5504809199865344 52.8127042569748824 Ba
atom 2.5168269733288438 2.5168269733288442 57.7398530628312798 Ba
atom 7.5504809199865344 2.5168269733288442 57.7398530628312798 Ba
atom 2.5168269733288438 7.5504809199865344 57.7398530628312798 Ba
atom 7.5504809199865344 7.5504809199865344 57.7398530628312798 Ba
atom 5.0336539466576875 5.0336539466576884 55.4075714606053467 Zr
atom 10.0673078933153750 5.0336539466576884 55.4075714606053467 Zr
atom 5.0336539466576875 10.0673078933153768 55.4075714606053467 Zr
atom 10.0673078933153750 10.0673078933153768 55.4075714606053467 Zr
atom 5.0336539466576875 5.0336539466576884 60.4863584791666185 Zr
atom 10.0673078933153750 5.0336539466576884 60.4863584791666185 Zr
atom 5.0336539466576875 10.0673078933153768 60.4863584791666185 Zr
atom 10.0673078933153750 10.0673078933153768 60.4863584791666185 Zr
atom 5.0336539466576875 5.0336539466576884 52.8722337501508690 S
atom 10.0673078933153750 5.0336539466576884 52.8722337501508690 S
atom 5.0336539466576875 10.0673078933153768 52.8722337501508690 S
atom 10.0673078933153750 10.0673078933153768 52.8722337501508690 S
atom 5.0336539466576875 5.0336539466576884 57.8987094527214055 S
atom 10.0673078933153750 5.0336539466576884 57.8987094527214055 S
atom 5.0336539466576875 10.0673078933153768 57.8987094527214055 S
atom 10.0673078933153750 10.0673078933153768 57.8987094527214055 S
atom 5.0336539466576875 2.5168269733288442 55.3742242399157547 S
atom 10.0673078933153750 2.5168269733288442 55.3742242399157547 S
atom 5.0336539466576875 7.5504809199865344 55.3742242399157547 S
atom 10.0673078933153750 7.5504809199865344 55.3742242399157547 S
atom 5.0336539466576875 2.5168269733288442 60.3562181063066419 S
atom 10.0673078933153750 2.5168269733288442 60.3562181063066419 S
atom 5.0336539466576875 7.5504809199865344 60.3562181063066419 S
atom 10.0673078933153750 7.5504809199865344 60.3562181063066419 S
atom 2.5168269733288438 5.0336539466576884 55.3742242399157547 S
atom 7.5504809199865344 5.0336539466576884 55.3742242399157547 S
atom 2.5168269733288438 10.0673078933153768 55.3742242399157547 S
atom 7.5504809199865344 10.0673078933153768 55.3742242399157547 S
atom 2.5168269733288438 5.0336539466576884 60.3562181063066419 S
atom 7.5504809199865344 5.0336539466576884 60.3562181063066419 S
atom 2.5168269733288438 10.0673078933153768 60.3562181063066419 S
atom 7.5504809199865344 10.0673078933153768 60.3562181063066419 S
atom 2.5168269733288438 2.5168269733288442 62.5104213496595875 Ba
atom 7.5504809199865344 2.5168269733288442 62.5104213496595875 Ba
atom 2.5168269733288438 7.5504809199865344 62.5104213496595875 Ba
atom 7.5504809199865344 7.5504809199865344 62.5104213496595875 Ba
atom 5.0336539466576875 5.0336539466576884 62.9778240652826824 S
atom 10.0673078933153750 5.0336539466576884 62.9778240652826824 S
atom 5.0336539466576875 10.0673078933153768 62.9778240652826824 S
atom 10.0673078933153750 10.0673078933153768 62.9778240652826824 S
