#=======================================================
# FHI-aims file: sym_relax/sym_relax_RP_2_RxRyRz_RxRy-Rz.in
# Created using the Atomic Simulation Environment (ASE)
# Fri Mar 14 10:21:46 2025
#=======================================================
lattice_vector 10.0883598091277609 0.1463207915482652 -0.0000000000000000 
lattice_vector 0.1463207915482652 10.0883598091277698 0.0000000000000000 
lattice_vector -0.0000000000000000 0.0000000000000000 25.4319656737248359 
atom -0.0908671761447180 -0.0909260374922311 0.2763049489277687 Ba
atom 5.1351059420561027 0.1640275719188509 0.2763049489277686 Ba
atom 0.1640864332663635 5.1350470807086008 0.2763049489277687 Ba
atom 5.0264731241932825 5.0264142628457860 0.2763049489277687 Ba
atom 0.0274634077151922 0.0274634077151922 4.8907626295624596 Ba
atom 5.0167164968486819 0.0456969880589402 4.8907626295624596 Ba
atom 0.0456969880589402 5.0167164968486979 4.8907626295624596 Ba
atom 5.1448037080532014 5.1448037080532112 4.8907626295624596 Ba
atom 2.5545683734208375 2.5545098286400321 2.3530729466721376 Zr
atom 7.6070103762618491 2.6359323226913101 2.3530729466721376 Zr
atom 2.6359908674721164 7.6069518314810649 2.3530729466721376 Zr
atom 7.6719086737588338 7.6718501289780461 2.3530729466721376 Zr
atom 2.5545098286400232 2.5545683734208451 7.4284523124527926 Zr
atom 7.6069518314810427 2.6359908674721169 7.4284523124527926 Zr
atom 2.6359323226913012 7.6070103762618784 7.4284523124527926 Zr
atom 7.6718501289780310 7.6719086737588587 7.4284523124527926 Zr
atom 2.7923976406347708 2.7924386911218591 -0.1389036860162030 S
atom 7.3690815137800278 2.3981030554773750 -0.1389036860162030 S
atom 2.3980620049902823 7.3691225642671281 -0.1389036860162030 S
atom 7.9097379409727768 7.9097789914598771 -0.1389036860162030 S
atom 2.2828031446711248 2.2828031446711314 4.8907626295624596 S
atom 7.8787170602307501 2.9076975514410206 4.8907626295624596 S
atom 2.9076975514410148 7.8787170602307777 4.8907626295624596 S
atom 7.4001434450091219 7.4001434450091459 4.8907626295624596 S
atom 2.5221467041867234 0.0365637272575998 2.1965652628727228 S
atom 7.5662477497632405 0.1097243126025406 2.7015038603499462 S
atom 2.5952282409735070 5.0807438213922964 2.7015038603499462 S
atom 7.6394870045247378 5.1539040275956118 2.1965652628727228 S
atom 2.5220332003771468 0.0365966685165326 7.5849599962522092 S
atom 7.5662919639283750 0.1097568747198565 7.0800213987749832 S
atom 2.5952724551386304 5.0807763835096091 7.0800213987749832 S
atom 7.6393735007151484 5.1539369688545538 7.5849599962522092 S
atom 0.0365966685165322 2.5220332003771531 2.1965652628727228 S
atom 5.0807763835095932 2.5952724551386335 2.7015038603499462 S
atom 0.1097568747198560 7.5662919639283945 2.7015038603499462 S
atom 5.1539369688545342 7.6393735007151724 2.1965652628727228 S
atom 0.0365637272576002 2.5221467041867331 7.5849599962522092 S
atom 5.0807438213922778 2.5952282409735163 7.0800213987749832 S
atom 0.1097243126025411 7.5662477497632565 7.0800213987749832 S
atom 5.1539040275956021 7.6394870045247503 7.5849599962522092 S
atom -0.0909260374922311 -0.0908671761447184 9.5052203101971671 Ba
atom 5.1350470807085893 0.1640864332663632 9.5052203101971671 Ba
atom 0.1640275719188503 5.1351059420561214 9.5052203101971671 Ba
atom 5.0264142628457709 5.0264731241933029 9.5052203101971671 Ba
atom 2.7924386911218497 2.7923976406347752 9.9204289451411345 S
atom 7.3691225642671032 2.3980620049902930 9.9204289451411345 S
atom 2.3981030554773715 7.3690815137800536 9.9204289451411345 S
atom 7.9097789914598584 7.9097379409728008 9.9204289451411345 S
atom 2.4677441126767721 2.4678029740242877 12.9922877857901771 Ba
atom 7.6937172308775903 2.7227565834353729 12.9922877857901771 Ba
atom 2.7226977220878545 7.6937760922251277 12.9922877857901771 Ba
atom 7.5850844130147719 7.5851432743623102 12.9922877857901771 Ba
atom 2.5861335578841977 2.5861335578842000 17.6067454664248757 Ba
atom 7.5753866470176767 2.6043671382279476 17.6067454664248757 Ba
atom 2.6043671382279396 7.5753866470176980 17.6067454664248757 Ba
atom 7.7034738582221980 7.7034738582222131 17.6067454664248757 Ba
atom 5.1131799788090238 5.1132385235898434 15.0690557835345498 Zr
atom 10.1656219816500180 5.1946610176411276 15.0690557835345498 Zr
atom 5.1946024728603133 10.1656805264308900 15.0690557835345498 Zr
atom 10.2305202791470400 10.2305788239278819 15.0690557835345498 Zr
atom 5.1132385235898337 5.1131799788090371 20.1444351493152247 Zr
atom 10.1656805264308687 5.1946024728603231 20.1444351493152247 Zr
atom 5.1946610176411152 10.1656219816500535 20.1444351493152247 Zr
atom 10.2305788239278588 10.2305202791470506 20.1444351493152247 Zr
atom 5.3511088412908476 5.3510677908037847 12.5770791508462043 S
atom 9.9277927144361104 4.9567321551593091 12.5770791508462043 S
atom 4.9567732056463676 9.9277516639490493 12.5770791508462043 S
atom 10.4684491416288505 10.4684080911418125 12.5770791508462043 S
atom 4.8414732948401236 4.8414732948401404 17.6067454664248757 S
atom 10.4373872103997591 5.4663677016100349 17.6067454664248757 S
atom 5.4663677016100243 10.4373872103997840 17.6067454664248757 S
atom 9.9588135951781140 9.9588135951781513 17.6067454664248757 S
atom 5.0807033505461501 2.5952668186855417 14.9125480997351367 S
atom 10.1249621140973805 2.6684270248888664 15.4174866972123610 S
atom 5.1539426053076314 7.6394465336786173 15.4174866972123610 S
atom 10.1980436508841716 7.7126071190235663 14.9125480997351367 S
atom 5.0808168543557306 2.5952338774266095 20.3009428331146324 S
atom 10.1249178999322407 2.6683944627715515 19.7960042356373904 S
atom 5.1538983911425102 7.6394139715613054 19.7960042356373904 S
atom 10.1981571546937140 7.7125741777646217 20.3009428331146324 S
atom 2.5952338774266015 5.0808168543557422 14.9125480997351367 S
atom 7.6394139715612797 5.1538983911425191 15.4174866972123610 S
atom 2.6683944627715430 10.1249178999322798 15.4174866972123610 S
atom 7.7125741777646031 10.1981571546937602 14.9125480997351367 S
atom 2.5952668186855350 5.0807033505461616 20.3009428331146324 S
atom 7.6394465336786004 5.1539426053076483 19.7960042356373904 S
atom 2.6684270248888580 10.1249621140974000 19.7960042356373904 S
atom 7.7126071190235388 10.1980436508841965 20.3009428331146324 S
atom 2.4678029740242811 2.4677441126767792 22.2212031470595583 Ba
atom 7.6937760922251028 2.7226977220878603 22.2212031470595583 Ba
atom 2.7227565834353658 7.6937172308776125 22.2212031470595583 Ba
atom 7.5851432743622906 7.5850844130147950 22.2212031470595583 Ba
atom 5.3510677908037723 5.3511088412908645 22.6364117820035382 S
atom 9.9277516639490226 4.9567732056463862 22.6364117820035382 S
atom 4.9567321551592904 9.9277927144361264 22.6364117820035382 S
atom 10.4684080911417663 10.4684491416288896 22.6364117820035382 S
