#=======================================================
# FHI-aims file: sym_relax/sym_relax_RP_1_000_000.in
# Created using the Atomic Simulation Environment (ASE)
# Fri Mar 14 10:20:07 2025
#=======================================================
lattice_vector 10.0137925914958803 0.0000000000000000 -0.0000000000000000 
lattice_vector 0.0000000000000000 10.0137925914958803 0.0000000000000000 
lattice_vector 0.0000000000000000 0.0000000000000000 15.6661026015161902 
atom 0.0000000000000000 0.0000000000000000 0.2276085723642707 Ba
atom 5.0068962957479419 0.0000000000000000 0.2276085723642707 Ba
atom 0.0000000000000000 5.0068962957479410 0.2276085723642707 Ba
atom 5.0068962957479419 5.0068962957479410 0.2276085723642707 Ba
atom 0.0000000000000000 0.0000000000000000 4.6680484906095412 Ba
atom 5.0068962957479419 0.0000000000000000 4.6680484906095412 Ba
atom 0.0000000000000000 5.0068962957479410 4.6680484906095412 Ba
atom 5.0068962957479419 5.0068962957479410 4.6680484906095412 Ba
atom 2.5034481478739710 2.5034481478739705 2.4478285314869046 Zr
atom 7.5103444436219116 2.5034481478739705 2.4478285314869046 Zr
atom 2.5034481478739710 7.5103444436219089 2.4478285314869046 Zr
atom 7.5103444436219116 7.5103444436219089 2.4478285314869046 Zr
atom 2.5034481478739710 2.5034481478739705 -0.1067269434723975 S
atom 7.5103444436219116 2.5034481478739705 -0.1067269434723975 S
atom 2.5034481478739710 7.5103444436219089 -0.1067269434723975 S
atom 7.5103444436219116 7.5103444436219089 -0.1067269434723975 S
atom 2.5034481478739710 2.5034481478739705 5.0023840064462108 S
atom 7.5103444436219116 2.5034481478739705 5.0023840064462108 S
atom 2.5034481478739710 7.5103444436219089 5.0023840064462108 S
atom 7.5103444436219116 7.5103444436219089 5.0023840064462108 S
atom 2.5034481478739710 0.0000000000000000 2.4478285314869046 S
atom 7.5103444436219116 0.0000000000000000 2.4478285314869046 S
atom 2.5034481478739710 5.0068962957479410 2.4478285314869046 S
atom 7.5103444436219116 5.0068962957479410 2.4478285314869046 S
atom 0.0000000000000000 2.5034481478739705 2.4478285314869046 S
atom 5.0068962957479419 2.5034481478739705 2.4478285314869046 S
atom 0.0000000000000000 7.5103444436219089 2.4478285314869046 S
atom 5.0068962957479419 7.5103444436219089 2.4478285314869046 S
atom 2.5034481478739710 2.5034481478739705 8.0606598731223560 Ba
atom 7.5103444436219116 2.5034481478739705 8.0606598731223560 Ba
atom 2.5034481478739710 7.5103444436219089 8.0606598731223560 Ba
atom 7.5103444436219116 7.5103444436219089 8.0606598731223560 Ba
atom 2.5034481478739710 2.5034481478739705 12.5010997913676345 Ba
atom 7.5103444436219116 2.5034481478739705 12.5010997913676345 Ba
atom 2.5034481478739710 7.5103444436219089 12.5010997913676345 Ba
atom 7.5103444436219116 7.5103444436219089 12.5010997913676345 Ba
atom 5.0068962957479419 5.0068962957479410 10.2808798322450023 Zr
atom 10.0137925914958839 5.0068962957479410 10.2808798322450023 Zr
atom 5.0068962957479419 10.0137925914958821 10.2808798322450023 Zr
atom 10.0137925914958839 10.0137925914958821 10.2808798322450023 Zr
atom 5.0068962957479419 5.0068962957479410 7.7263243572856961 S
atom 10.0137925914958839 5.0068962957479410 7.7263243572856961 S
atom 5.0068962957479419 10.0137925914958821 7.7263243572856961 S
atom 10.0137925914958839 10.0137925914958821 7.7263243572856961 S
atom 5.0068962957479419 5.0068962957479410 12.8354353072042997 S
atom 10.0137925914958839 5.0068962957479410 12.8354353072042997 S
atom 5.0068962957479419 10.0137925914958821 12.8354353072042997 S
atom 10.0137925914958839 10.0137925914958821 12.8354353072042997 S
atom 5.0068962957479419 2.5034481478739705 10.2808798322450023 S
atom 10.0137925914958839 2.5034481478739705 10.2808798322450023 S
atom 5.0068962957479419 7.5103444436219089 10.2808798322450023 S
atom 10.0137925914958839 7.5103444436219089 10.2808798322450023 S
atom 2.5034481478739710 5.0068962957479410 10.2808798322450023 S
atom 7.5103444436219116 5.0068962957479410 10.2808798322450023 S
atom 2.5034481478739710 10.0137925914958821 10.2808798322450023 S
atom 7.5103444436219116 10.0137925914958821 10.2808798322450023 S
