#=======================================================
# FHI-aims file: sym_relax/sym_relax_RP_6_00Mz_00Mz.in
# Created using the Atomic Simulation Environment (ASE)
# Fri Mar 14 10:58:54 2025
#=======================================================
lattice_vector 9.9094508300700515 0.0000000140484870 0.0000000000000000 
lattice_vector 0.0000000140484870 9.9094508300700781 -0.0000000000000000 
lattice_vector -0.0000000000000000 -0.0000000000000000 67.1447880134898156 
atom -0.0000000000000000 -0.0000000000000000 0.1641416363360118 Ba
atom 4.9547254150350231 0.0000000070242441 0.1641416363360118 Ba
atom 0.0000000070242437 4.9547254150350399 0.1641416363360118 Ba
atom 4.9547254220592647 4.9547254220592807 0.1641416363360118 Ba
atom -0.0000000000000000 -0.0000000000000000 5.0665997425116407 Ba
atom 4.9547254150350231 0.0000000070242437 5.0665997425116407 Ba
atom 0.0000000070242437 4.9547254150350399 5.0665997425116407 Ba
atom 4.9547254220592647 4.9547254220592798 5.0665997425116407 Ba
atom 2.4773627110296323 2.4773627110296408 2.4381066807255891 Zr
atom 7.4320881260646603 2.4773627180538860 2.4381066807255891 Zr
atom 2.4773627180538784 7.4320881260646772 2.4381066807255891 Zr
atom 7.4320881330889046 7.4320881330889268 2.4381066807255891 Zr
atom 2.4773627110296323 2.4773627110296408 7.5768108995957508 Zr
atom 7.4320881260646603 2.4773627180538860 7.5768108995957508 Zr
atom 2.4773627180538784 7.4320881260646772 7.5768108995957508 Zr
atom 7.4320881330889046 7.4320881330889268 7.5768108995957508 Zr
atom 2.4773627110296323 2.4773627110296403 -0.1053233995222378 S
atom 7.4320881260646603 2.4773627180538860 -0.1053233995222378 S
atom 2.4773627180538784 7.4320881260646763 -0.1053233995222378 S
atom 7.4320881330889046 7.4320881330889259 -0.1053233995222378 S
atom 2.4773627110296323 2.4773627110296408 5.0375066261088595 S
atom 7.4320881260646603 2.4773627180538860 5.0375066261088595 S
atom 2.4773627180538784 7.4320881260646772 5.0375066261088595 S
atom 7.4320881330889046 7.4320881330889268 5.0375066261088595 S
atom 2.0531490438213780 -0.0000021088417090 2.5303321029439556 S
atom 7.8563017862486708 0.0000021228901959 2.5303321029439556 S
atom 2.9015763782378947 4.9547275309009882 2.5303321029439556 S
atom 7.0078744658806471 4.9547233132175776 2.5303321029439556 S
atom 2.9977602079780241 -0.0000010442046271 7.5899143095970452 S
atom 6.9116906220920216 0.0000010582531141 7.5899143095970452 S
atom 1.9569652140812448 4.9547264662639030 7.5899143095970452 S
atom 7.9524856300372999 4.9547243778546575 7.5899143095970452 S
atom 0.0000021158659522 2.9015763712136580 2.5303321029439556 S
atom 4.9547233061933147 2.0531490508456218 2.5303321029439556 S
atom -0.0000021018174649 7.0078744588564232 2.5303321029439556 S
atom 4.9547275379252156 7.8563017932729444 2.5303321029439556 S
atom 0.0000010512288704 1.9569652070570043 7.5899143095970452 S
atom 4.9547243708303990 2.9977602150022751 7.5899143095970452 S
atom -0.0000010371803830 7.9524856230130743 7.5899143095970452 S
atom 4.9547264732881375 6.9116906291162818 7.5899143095970452 S
atom -0.0000000000000000 -0.0000000000000000 10.1545291412795713 Ba
atom 4.9547254150350231 0.0000000070242437 10.1545291412795713 Ba
atom 0.0000000070242437 4.9547254150350399 10.1545291412795713 Ba
atom 4.9547254220592647 4.9547254220592798 10.1545291412795713 Ba
atom -0.0000000000000000 -0.0000000000000000 15.2601790939749709 Ba
atom 4.9547254150350231 0.0000000070242437 15.2601790939749709 Ba
atom 0.0000000070242437 4.9547254150350399 15.2601790939749709 Ba
atom 4.9547254220592647 4.9547254220592798 15.2601790939749709 Ba
atom 2.4773627110296323 2.4773627110296408 12.6995833994605771 Zr
atom 7.4320881260646603 2.4773627180538860 12.6995833994605771 Zr
atom 2.4773627180538784 7.4320881260646772 12.6995833994605771 Zr
atom 7.4320881330889046 7.4320881330889268 12.6995833994605771 Zr
atom 2.4773627110296323 2.4773627110296408 17.8207747884893557 Zr
atom 7.4320881260646603 2.4773627180538864 17.8207747884893557 Zr
atom 2.4773627180538784 7.4320881260646781 17.8207747884893557 Zr
atom 7.4320881330889046 7.4320881330889250 17.8207747884893557 Zr
atom 2.4773627110296323 2.4773627110296408 10.1461005338597108 S
atom 7.4320881260646603 2.4773627180538860 10.1461005338597108 S
atom 2.4773627180538784 7.4320881260646772 10.1461005338597108 S
atom 7.4320881330889046 7.4320881330889268 10.1461005338597108 S
atom 2.4773627110296323 2.4773627110296408 15.2601790939749709 S
atom 7.4320881260646603 2.4773627180538860 15.2601790939749709 S
atom 2.4773627180538784 7.4320881260646772 15.2601790939749709 S
atom 7.4320881330889046 7.4320881330889268 15.2601790939749709 S
atom 2.9792536353199699 -0.0000000274098826 12.7070065628533637 S
atom 6.9301971947500753 0.0000000414583696 12.7070065628533637 S
atom 1.9754717867392984 4.9547254494691639 12.7070065628533637 S
atom 7.9339790573792426 4.9547253946493965 12.7070065628533637 S
atom 2.9792536353199699 -0.0000000274098809 17.8133516250965975 S
atom 6.9301971947500753 0.0000000414583696 17.8133516250965975 S
atom 1.9754717867392984 4.9547254494691648 17.8133516250965975 S
atom 7.9339790573792426 4.9547253946493965 17.8133516250965975 S
atom 0.0000000344341259 1.9754717797150592 12.7070065628533637 S
atom 4.9547253876251416 2.9792536423442231 12.7070065628533637 S
atom -0.0000000203856385 7.9339790503550205 12.7070065628533637 S
atom 4.9547254564933967 6.9301972017743285 12.7070065628533637 S
atom 0.0000000344341259 1.9754717797150596 17.8133516250965975 S
atom 4.9547253876251416 2.9792536423442240 17.8133516250965975 S
atom -0.0000000203856385 7.9339790503550187 17.8133516250965975 S
atom 4.9547254564933967 6.9301972017743276 17.8133516250965975 S
atom -0.0000000000000000 -0.0000000000000000 20.3658290466703384 Ba
atom 4.9547254150350231 0.0000000070242437 20.3658290466703384 Ba
atom 0.0000000070242437 4.9547254150350408 20.3658290466703384 Ba
atom 4.9547254220592647 4.9547254220592816 20.3658290466703384 Ba
atom -0.0000000000000000 -0.0000000000000000 25.4537584454382930 Ba
atom 4.9547254150350231 0.0000000070242437 25.4537584454382930 Ba
atom 0.0000000070242437 4.9547254150350408 25.4537584454382930 Ba
atom 4.9547254220592647 4.9547254220592816 25.4537584454382930 Ba
atom 2.4773627110296323 2.4773627110296408 22.9435472883541500 Zr
atom 7.4320881260646603 2.4773627180538864 22.9435472883541500 Zr
atom 2.4773627180538784 7.4320881260646781 22.9435472883541500 Zr
atom 7.4320881330889046 7.4320881330889250 22.9435472883541500 Zr
atom 2.4773627110296323 2.4773627110296408 28.0822515072243313 Zr
atom 7.4320881260646603 2.4773627180538864 28.0822515072243313 Zr
atom 2.4773627180538784 7.4320881260646781 28.0822515072243313 Zr
atom 7.4320881330889046 7.4320881330889250 28.0822515072243313 Zr
atom 2.4773627110296323 2.4773627110296408 20.3742576540902114 S
atom 7.4320881260646603 2.4773627180538864 20.3742576540902114 S
atom 2.4773627180538784 7.4320881260646781 20.3742576540902114 S
atom 7.4320881330889046 7.4320881330889250 20.3742576540902114 S
atom 2.4773627110296323 2.4773627110296408 25.4828515618410663 S
atom 7.4320881260646603 2.4773627180538864 25.4828515618410663 S
atom 2.4773627180538784 7.4320881260646781 25.4828515618410663 S
atom 7.4320881330889046 7.4320881330889250 25.4828515618410663 S
atom 2.9977602079780241 -0.0000010442046254 22.9304438783528681 S
atom 6.9116906220920216 0.0000010582531145 22.9304438783528681 S
atom 1.9569652140812448 4.9547264662639048 22.9304438783528681 S
atom 7.9524856300372999 4.9547243778546575 22.9304438783528681 S
atom 2.0531490438213780 -0.0000021088417072 27.9900260850059794 S
atom 7.8563017862486708 0.0000021228901964 27.9900260850059794 S
atom 2.9015763782378947 4.9547275309009899 27.9900260850059794 S
atom 7.0078744658806471 4.9547233132175776 27.9900260850059794 S
atom 0.0000010512288704 1.9569652070570052 22.9304438783528681 S
atom 4.9547243708303990 2.9977602150022760 22.9304438783528681 S
atom -0.0000010371803830 7.9524856230130725 22.9304438783528681 S
atom 4.9547264732881375 6.9116906291162810 22.9304438783528681 S
atom 0.0000021158659522 2.9015763712136589 27.9900260850059794 S
atom 4.9547233061933147 2.0531490508456227 27.9900260850059794 S
atom -0.0000021018174649 7.0078744588564215 27.9900260850059794 S
atom 4.9547275379252156 7.8563017932729426 27.9900260850059794 S
atom -0.0000000000000000 -0.0000000000000000 30.3562165516139153 Ba
atom 4.9547254150350231 0.0000000070242437 30.3562165516139153 Ba
atom 0.0000000070242437 4.9547254150350408 30.3562165516139153 Ba
atom 4.9547254220592647 4.9547254220592816 30.3562165516139153 Ba
atom 2.4773627110296323 2.4773627110296408 30.6256815874721511 S
atom 7.4320881260646603 2.4773627180538864 30.6256815874721511 S
atom 2.4773627180538784 7.4320881260646781 30.6256815874721511 S
atom 7.4320881330889046 7.4320881330889250 30.6256815874721511 S
atom 2.4773627110296323 2.4773627110296417 33.7365356430809058 Ba
atom 7.4320881260646603 2.4773627180538864 33.7365356430809058 Ba
atom 2.4773627180538784 7.4320881260646781 33.7365356430809058 Ba
atom 7.4320881330889046 7.4320881330889259 33.7365356430809058 Ba
atom 2.4773627110296323 2.4773627110296408 38.6389937492565849 Ba
atom 7.4320881260646603 2.4773627180538864 38.6389937492565849 Ba
atom 2.4773627180538784 7.4320881260646763 38.6389937492565849 Ba
atom 7.4320881330889046 7.4320881330889259 38.6389937492565849 Ba
atom 4.9547254220592647 4.9547254220592816 36.0105006874705253 Zr
atom 9.9094508370942886 4.9547254290835312 36.0105006874705253 Zr
atom 4.9547254290835117 9.9094508370943206 36.0105006874705253 Zr
atom 9.9094508441185294 9.9094508441185614 36.0105006874705253 Zr
atom 4.9547254220592647 4.9547254220592816 41.1492049063406782 Zr
atom 9.9094508370942886 4.9547254290835312 41.1492049063406782 Zr
atom 4.9547254290835117 9.9094508370943206 41.1492049063406782 Zr
atom 9.9094508441185294 9.9094508441185614 41.1492049063406782 Zr
atom 4.9547254220592647 4.9547254220592816 33.4670706072226167 S
atom 9.9094508370942886 4.9547254290835303 33.4670706072226167 S
atom 4.9547254290835117 9.9094508370943188 33.4670706072226167 S
atom 9.9094508441185294 9.9094508441185614 33.4670706072226167 S
atom 4.9547254220592647 4.9547254220592816 38.6099006328537300 S
atom 9.9094508370942886 4.9547254290835312 38.6099006328537300 S
atom 4.9547254290835117 9.9094508370943206 38.6099006328537300 S
atom 9.9094508441185294 9.9094508441185614 38.6099006328537300 S
atom 5.3789390822432832 2.4773648268955935 36.1027261096888807 S
atom 9.4852371698860516 2.4773606092121732 36.1027261096888807 S
atom 4.5305117618752515 7.4320860172229706 36.1027261096888807 S
atom 10.3336645043025523 7.4320902489548759 36.1027261096888807 S
atom 4.4343279180866304 2.4773637622585114 41.1623083163419707 S
atom 10.4298483340426920 2.4773616738492548 41.1623083163419707 S
atom 5.4751229260319008 7.4320870818600540 41.1623083163419707 S
atom 9.3890533401459031 7.4320891843177934 41.1623083163419707 S
atom 2.4773606021879240 4.5305117548510232 36.1027261096888807 S
atom 7.4320902419306227 5.3789390892675426 36.1027261096888807 S
atom 2.4773648339198284 10.3336644972783294 36.1027261096888807 S
atom 7.4320860242471980 9.4852371769103119 36.1027261096888807 S
atom 2.4773616668250074 5.4751229190076707 41.1623083163419707 S
atom 7.4320891772935340 4.4343279251108889 41.1623083163419707 S
atom 2.4773637692827513 9.3890533331216783 41.1623083163419707 S
atom 7.4320870888842814 10.4298483410669540 41.1623083163419707 S
atom 2.4773627110296323 2.4773627110296408 43.7269231480244827 Ba
atom 7.4320881260646603 2.4773627180538864 43.7269231480244827 Ba
atom 2.4773627180538784 7.4320881260646763 43.7269231480244827 Ba
atom 7.4320881330889046 7.4320881330889259 43.7269231480244827 Ba
atom 2.4773627110296323 2.4773627110296408 48.8325731007198343 Ba
atom 7.4320881260646603 2.4773627180538864 48.8325731007198343 Ba
atom 2.4773627180538784 7.4320881260646763 48.8325731007198343 Ba
atom 7.4320881330889046 7.4320881330889259 48.8325731007198343 Ba
atom 4.9547254220592647 4.9547254220592816 46.2719774062054796 Zr
atom 9.9094508370942886 4.9547254290835312 46.2719774062054796 Zr
atom 4.9547254290835117 9.9094508370943206 46.2719774062054796 Zr
atom 9.9094508441185294 9.9094508441185614 46.2719774062054796 Zr
atom 4.9547254220592647 4.9547254220592816 51.3931687952342386 Zr
atom 9.9094508370942886 4.9547254290835312 51.3931687952342386 Zr
atom 4.9547254290835117 9.9094508370943206 51.3931687952342386 Zr
atom 9.9094508441185294 9.9094508441185631 51.3931687952342386 Zr
atom 4.9547254220592647 4.9547254220592816 43.7184945406046381 S
atom 9.9094508370942886 4.9547254290835312 43.7184945406046381 S
atom 4.9547254290835117 9.9094508370943206 43.7184945406046381 S
atom 9.9094508441185294 9.9094508441185614 43.7184945406046381 S
atom 4.9547254220592647 4.9547254220592816 48.8325731007198343 S
atom 9.9094508370942886 4.9547254290835312 48.8325731007198343 S
atom 4.9547254290835117 9.9094508370943206 48.8325731007198343 S
atom 9.9094508441185294 9.9094508441185614 48.8325731007198343 S
atom 4.4528344907446868 2.4773627454637657 46.2794005695981880 S
atom 10.4113417613846249 2.4773626906440023 46.2794005695981880 S
atom 5.4566163533738496 7.4320880986547966 46.2794005695981880 S
atom 9.4075599128039578 7.4320881675230543 46.2794005695981880 S
atom 4.4528344907446868 2.4773627454637657 51.3857456318415373 S
atom 10.4113417613846249 2.4773626906440041 51.3857456318415373 S
atom 5.4566163533738496 7.4320880986547984 51.3857456318415373 S
atom 9.4075599128039578 7.4320881675230552 51.3857456318415373 S
atom 2.4773626836197526 5.4566163463496240 46.2794005695981880 S
atom 7.4320881604987887 4.4528344977689391 46.2794005695981880 S
atom 2.4773627524879998 9.4075599057797437 46.2794005695981880 S
atom 7.4320881056790205 10.4113417684088976 46.2794005695981880 S
atom 2.4773626836197526 5.4566163463496240 51.3857456318415373 S
atom 7.4320881604987887 4.4528344977689400 51.3857456318415373 S
atom 2.4773627524879998 9.4075599057797454 51.3857456318415373 S
atom 7.4320881056790205 10.4113417684088976 51.3857456318415373 S
atom 2.4773627110296323 2.4773627110296408 53.9382230534152782 Ba
atom 7.4320881260646603 2.4773627180538864 53.9382230534152782 Ba
atom 2.4773627180538784 7.4320881260646781 53.9382230534152782 Ba
atom 7.4320881330889046 7.4320881330889268 53.9382230534152782 Ba
atom 2.4773627110296323 2.4773627110296408 59.0261524521831404 Ba
atom 7.4320881260646603 2.4773627180538864 59.0261524521831404 Ba
atom 2.4773627180538784 7.4320881260646781 59.0261524521831404 Ba
atom 7.4320881330889046 7.4320881330889268 59.0261524521831404 Ba
atom 4.9547254220592647 4.9547254220592816 56.5159412950990472 Zr
atom 9.9094508370942886 4.9547254290835312 56.5159412950990472 Zr
atom 4.9547254290835117 9.9094508370943206 56.5159412950990472 Zr
atom 9.9094508441185294 9.9094508441185631 56.5159412950990472 Zr
atom 4.9547254220592647 4.9547254220592816 61.6546455139692000 Zr
atom 9.9094508370942886 4.9547254290835312 61.6546455139692000 Zr
atom 4.9547254290835117 9.9094508370943206 61.6546455139692000 Zr
atom 9.9094508441185294 9.9094508441185631 61.6546455139692000 Zr
atom 4.9547254220592647 4.9547254220592816 53.9466516608351156 S
atom 9.9094508370942886 4.9547254290835312 53.9466516608351156 S
atom 4.9547254290835117 9.9094508370943206 53.9466516608351156 S
atom 9.9094508441185294 9.9094508441185631 53.9466516608351156 S
atom 4.9547254220592647 4.9547254220592816 59.0552455685860309 S
atom 9.9094508370942886 4.9547254290835312 59.0552455685860309 S
atom 4.9547254290835117 9.9094508370943206 59.0552455685860309 S
atom 9.9094508441185294 9.9094508441185631 59.0552455685860309 S
atom 4.4343279180866304 2.4773637622585118 56.5028378850977759 S
atom 10.4298483340426920 2.4773616738492565 56.5028378850977759 S
atom 5.4751229260319008 7.4320870818600557 56.5028378850977759 S
atom 9.3890533401459031 7.4320891843177952 56.5028378850977759 S
atom 5.3789390822432832 2.4773648268955939 61.5624200917508873 S
atom 9.4852371698860516 2.4773606092121749 61.5624200917508873 S
atom 4.5305117618752515 7.4320860172229724 61.5624200917508873 S
atom 10.3336645043025523 7.4320902489548777 61.5624200917508873 S
atom 2.4773616668250074 5.4751229190076707 56.5028378850977759 S
atom 7.4320891772935340 4.4343279251108898 56.5028378850977759 S
atom 2.4773637692827513 9.3890533331216801 56.5028378850977759 S
atom 7.4320870888842814 10.4298483410669540 56.5028378850977759 S
atom 2.4773606021879240 4.5305117548510232 61.5624200917508873 S
atom 7.4320902419306227 5.3789390892675435 61.5624200917508873 S
atom 2.4773648339198284 10.3336644972783311 61.5624200917508873 S
atom 7.4320860242471980 9.4852371769103119 61.5624200917508873 S
atom 2.4773627110296323 2.4773627110296408 63.9286105583588053 Ba
atom 7.4320881260646603 2.4773627180538864 63.9286105583588053 Ba
atom 2.4773627180538784 7.4320881260646781 63.9286105583588053 Ba
atom 7.4320881330889046 7.4320881330889268 63.9286105583588053 Ba
atom 4.9547254220592647 4.9547254220592816 64.1980755942171157 S
atom 9.9094508370942886 4.9547254290835312 64.1980755942171157 S
atom 4.9547254290835117 9.9094508370943206 64.1980755942171157 S
atom 9.9094508441185294 9.9094508441185631 64.1980755942171157 S
