#=======================================================
# FHI-aims file: sym_relax/sym_relax_RP_8_RxRyMz_-Rx-Ry-Mz.in
# Created using the Atomic Simulation Environment (ASE)
# Mon Mar 17 16:21:48 2025
#=======================================================
lattice_vector 10.0075878332268200 -0.0742346558833027 0.0000000000000000 
lattice_vector -0.0742346558833029 10.0075878332267898 0.0000000000000000 
lattice_vector 0.0000000000000000 0.0000000000000000 86.0017076687055351 
atom 0.1017016884880232 -0.1834653509369920 0.2157354699028119 Ba
atom 5.1872592675504121 -0.1388190164296742 0.2157354699028119 Ba
atom 0.1463480229953414 4.9020922281253672 0.2157354699028119 Ba
atom 5.0683782771597787 4.7832112377347400 0.2157354699028119 Ba
atom -0.2679569219352629 0.1867644349245033 5.0091028843804342 Ba
atom 4.8170294816889090 0.2308395939936101 5.0091028843804342 Ba
atom -0.2238817628661561 5.2717508385486518 5.0091028843804342 Ba
atom 4.6987196667364968 5.1534410235962289 5.0091028843804342 Ba
atom 2.4853622034799776 2.4716988930133028 2.4037347915415528 Zr
atom 7.4987716122718577 2.4441970572501126 2.4037347915415528 Zr
atom 2.4578603677167910 7.4851083018051545 2.4037347915415528 Zr
atom 7.4520387921517477 7.4383754816850418 2.4037347915415528 Zr
atom 2.4749828062060795 2.4874985361853219 7.4612637289658634 Zr
atom 7.4829719690998431 2.4545764545240205 7.4612637289658634 Zr
atom 2.4420607245447785 7.4954876990790584 7.4612637289658634 Zr
atom 7.4416593948778358 7.4541751248570494 7.4612637289658634 Zr
atom 2.6083563326736359 2.6915774619921451 -0.1037314486756071 S
atom 7.2788930432930163 2.3212029280564646 -0.1037314486756071 S
atom 2.2379817987379456 7.3621141726115020 -0.1037314486756071 S
atom 7.5750329213453869 7.6582540506638859 -0.1037314486756071 S
atom 2.2358851669552444 2.1875465800338789 4.9670060874306969 S
atom 7.7829239252512892 2.6936740937748476 4.9670060874306969 S
atom 2.7420126806962237 7.7345853383298788 4.9670060874306969 S
atom 7.2025617556270154 7.1542231687056015 4.9670060874306969 S
atom 2.8062744913494533 -0.0149832845193603 2.2497149563240333 S
atom 7.1791533174921893 -0.0493944783899530 2.7581331672278502 S
atom 2.1382420729371177 4.9915167661650841 2.7581331672278502 S
atom 7.7729510800212003 4.9516933041523714 2.2497149563240333 S
atom 2.8986021951896279 -0.0184341565231304 7.7904922346764742 S
atom 7.1164848207664440 -0.0526205240040637 7.1736313341388129 S
atom 2.0755735762113829 4.9882907205509763 7.1736313341388129 S
atom 7.8652787838613927 4.9482424321486018 7.7904922346764742 S
atom -0.0221340434222917 2.1975194252639527 2.2497149563240333 S
atom 4.9789537391200618 2.7913171877929788 2.7581331672278502 S
atom -0.0619575054350036 7.8322284323480069 2.7581331672278502 S
atom 4.9445425452494725 7.1641960139356957 2.2497149563240333 S
atom -0.0186831714185216 2.1051917214237776 7.7904922346764742 S
atom 4.9821797847341651 2.8539856845187108 7.1736313341388129 S
atom -0.0587314598208928 7.8948969290737470 7.1736313341388129 S
atom 4.9479934172532349 7.0718683100955024 7.7904922346764742 S
atom 0.2853785161655328 -0.1840725892816947 9.9889411328907602 Ba
atom 5.1878665058951157 -0.3224958441071828 9.9889411328907602 Ba
atom 0.1469552613400441 4.7184154004478618 9.9889411328907602 Ba
atom 5.2520551048372743 4.7826039993900320 9.9889411328907602 Ba
atom -0.2842959595949921 0.1811508749925551 14.9933076637601488 Ba
atom 4.8226430416208581 0.2471786316533386 14.9933076637601488 Ba
atom -0.2182682029342074 5.2880898762083834 14.9933076637601488 Ba
atom 4.6823806290767536 5.1478274636642878 14.9933076637601488 Ba
atom 2.4886141893951974 2.4806184788085099 12.4789142206218102 Zr
atom 7.4898520264766484 2.4409450713349004 12.4789142206218102 Zr
atom 2.4489407819215838 7.4818563158899396 12.4789142206218102 Zr
atom 7.4552907780669546 7.4472950674802441 12.4789142206218102 Zr
atom 2.4833041967958245 2.4827016835735818 17.4936043455837904 Zr
atom 7.4877688217115796 2.4462550639342728 17.4936043455837904 Zr
atom 2.4468575771565142 7.4871663084893054 17.4936043455837904 Zr
atom 7.4499807854675932 7.4493782722453172 17.4936043455837904 Zr
atom 2.7470818212126189 2.8095173072134205 9.9806645844396957 S
atom 7.1609531980717369 2.1824774395174811 9.9806645844396957 S
atom 2.1200419535166724 7.2233886840725150 9.9806645844396957 S
atom 7.7137584098843783 7.7761938958851466 9.9806645844396957 S
atom 2.2182154421953868 2.1513161224937427 14.9907216647857826 S
atom 7.8191543827914298 2.7113438185347087 14.9907216647857826 S
atom 2.7782431382363644 7.7522550630897520 14.9907216647857826 S
atom 7.1848920308671529 7.1179927111654786 14.9907216647857826 S
atom 2.8900241214814497 -0.0220706750206175 12.1721644959724777 S
atom 7.1205209647562899 -0.0565601530626136 12.8100873749330724 S
atom 2.0796097202012249 4.9843510914924209 12.8100873749330724 S
atom 7.8567007101532145 4.9446059136511185 12.1721644959724777 S
atom 2.8884497977432138 -0.0205728495380800 17.8178544335505222 S
atom 7.1210145064492343 -0.0550912940544196 17.1757909608922823 S
atom 2.0801032618941653 4.9858199505006189 17.1757909608922823 S
atom 7.8551263864149670 4.9461037391336484 17.8178544335505222 S
atom -0.0150466529210345 2.1137697951319541 12.1721644959724777 S
atom 4.9861194137927249 2.8499495405288653 12.8100873749330724 S
atom -0.0547918307623428 7.8908607850839081 12.8100873749330724 S
atom 4.9516299357507334 7.0804463838036860 12.1721644959724777 S
atom -0.0165444784035716 2.1153441188701918 17.8178544335505222 S
atom 4.9846505547845359 2.8494559988359303 17.1757909608922823 S
atom -0.0562606897705368 7.8903672433909646 17.1757909608922823 S
atom 4.9501321102681937 7.0820207075419299 17.8178544335505222 S
atom 0.2867636371804829 -0.1828411702017953 20.0003971322571275 Ba
atom 5.1866350868152082 -0.3238809651221330 20.0003971322571275 Ba
atom 0.1457238422601448 4.7170302794329046 20.0003971322571275 Ba
atom 5.2534402258522404 4.7838354184699421 20.0003971322571275 Ba
atom -0.2842959595949921 0.1811508749925551 25.0074866007540990 Ba
atom 4.8226430416208581 0.2471786316533385 25.0074866007540990 Ba
atom -0.2182682029342074 5.2880898762083834 25.0074866007540990 Ba
atom 4.6823806290767536 5.1478274636642878 25.0074866007540990 Ba
atom 2.4833041967958245 2.4827016835735818 22.5071899189304645 Zr
atom 7.4877688217115796 2.4462550639342728 22.5071899189304645 Zr
atom 2.4468575771565142 7.4871663084893054 22.5071899189304645 Zr
atom 7.4499807854675932 7.4493782722453172 22.5071899189304645 Zr
atom 2.4886141893951974 2.4806184788085099 27.5218800438923878 Zr
atom 7.4898520264766484 2.4409450713349004 27.5218800438923878 Zr
atom 2.4489407819215838 7.4818563158899396 27.5218800438923878 Zr
atom 7.4552907780669546 7.4472950674802441 27.5218800438923878 Zr
atom 2.7511466737269221 2.8142289270124814 20.0003971322571275 S
atom 7.1562415782726898 2.1784125870031810 20.0003971322571275 S
atom 2.1153303337176186 7.2193238315582144 20.0003971322571275 S
atom 7.7178232623986833 7.7809055156842160 20.0003971322571275 S
atom 2.2182154421953868 2.1513161224937427 25.0100725997284137 S
atom 7.8191543827914298 2.7113438185347087 25.0100725997284137 S
atom 2.7782431382363644 7.7522550630897520 25.0100725997284137 S
atom 7.1848920308671529 7.1179927111654786 25.0100725997284137 S
atom 2.8884497977432138 -0.0205728495380800 22.1829398309636900 S
atom 7.1210145064492343 -0.0550912940544196 22.8250033036219726 S
atom 2.0801032618941653 4.9858199505006189 22.8250033036219726 S
atom 7.8551263864149670 4.9461037391336484 22.1829398309636900 S
atom 2.8900241214814497 -0.0220706750206175 27.8286297685416919 S
atom 7.1205209647562899 -0.0565601530626136 27.1907068895811399 S
atom 2.0796097202012249 4.9843510914924209 27.1907068895811399 S
atom 7.8567007101532145 4.9446059136511185 27.8286297685416919 S
atom -0.0165444784035716 2.1153441188701918 22.1829398309636900 S
atom 4.9846505547845359 2.8494559988359303 22.8250033036219726 S
atom -0.0562606897705368 7.8903672433909646 22.8250033036219726 S
atom 4.9501321102681937 7.0820207075419299 22.1829398309636900 S
atom -0.0150466529210345 2.1137697951319541 27.8286297685416919 S
atom 4.9861194137927249 2.8499495405288653 27.1907068895811399 S
atom -0.0547918307623428 7.8908607850839081 27.1907068895811399 S
atom 4.9516299357507334 7.0804463838036860 27.8286297685416919 S
atom 0.2853785161655328 -0.1840725892816947 30.0118531316234751 Ba
atom 5.1878665058951157 -0.3224958441071829 30.0118531316234751 Ba
atom 0.1469552613400441 4.7184154004478618 30.0118531316234751 Ba
atom 5.2520551048372743 4.7826039993900320 30.0118531316234751 Ba
atom -0.2679569219352629 0.1867644349245033 34.9916913801337373 Ba
atom 4.8170294816889090 0.2308395939936101 34.9916913801337373 Ba
atom -0.2238817628661561 5.2717508385486518 34.9916913801337373 Ba
atom 4.6987196667364968 5.1534410235962289 34.9916913801337373 Ba
atom 2.4749828062060795 2.4874985361853219 32.5395305355483231 Zr
atom 7.4829719690998431 2.4545764545240205 32.5395305355483231 Zr
atom 2.4420607245447785 7.4954876990790584 32.5395305355483231 Zr
atom 7.4416593948778358 7.4541751248570494 32.5395305355483231 Zr
atom 2.4853622034799776 2.4716988930133028 37.5970594729726599 Zr
atom 7.4987716122718577 2.4441970572501126 37.5970594729726599 Zr
atom 2.4578603677167910 7.4851083018051545 37.5970594729726599 Zr
atom 7.4520387921517477 7.4383754816850418 37.5970594729726599 Zr
atom 2.7470818212126189 2.8095173072134205 30.0201296800744935 S
atom 7.1609531980717369 2.1824774395174811 30.0201296800744935 S
atom 2.1200419535166724 7.2233886840725159 30.0201296800744935 S
atom 7.7137584098843783 7.7761938958851466 30.0201296800744935 S
atom 2.2358851669552444 2.1875465800338789 35.0337881770835011 S
atom 7.7829239252512892 2.6936740937748476 35.0337881770835011 S
atom 2.7420126806962237 7.7345853383298788 35.0337881770835011 S
atom 7.2025617556270154 7.1542231687056015 35.0337881770835011 S
atom 2.8986021951896279 -0.0184341565231304 32.2103020298377345 S
atom 7.1164848207664440 -0.0526205240040637 32.8271629303753869 S
atom 2.0755735762113829 4.9882907205509763 32.8271629303753869 S
atom 7.8652787838613927 4.9482424321486018 32.2103020298377345 S
atom 2.8062744913494533 -0.0149832845193603 37.7510793081901852 S
atom 7.1791533174921893 -0.0493944783899530 37.2426610972863656 S
atom 2.1382420729371177 4.9915167661650841 37.2426610972863656 S
atom 7.7729510800212003 4.9516933041523714 37.7510793081901852 S
atom -0.0186831714185216 2.1051917214237776 32.2103020298377345 S
atom 4.9821797847341651 2.8539856845187108 32.8271629303753869 S
atom -0.0587314598208928 7.8948969290737470 32.8271629303753869 S
atom 4.9479934172532349 7.0718683100955024 32.2103020298377345 S
atom -0.0221340434222917 2.1975194252639527 37.7510793081901852 S
atom 4.9789537391200618 2.7913171877929788 37.2426610972863656 S
atom -0.0619575054350036 7.8322284323480069 37.2426610972863656 S
atom 4.9445425452494725 7.1641960139356957 37.7510793081901852 S
atom 0.1017016884880237 -0.1834653509369916 39.7850587946114160 Ba
atom 5.1872592675504112 -0.1388190164296743 39.7850587946114160 Ba
atom 0.1463480229953409 4.9020922281253672 39.7850587946114160 Ba
atom 5.0683782771597787 4.7832112377347400 39.7850587946114160 Ba
atom 2.6083563326736359 2.6915774619921451 40.1045257131898794 S
atom 7.2788930432930163 2.3212029280564654 40.1045257131898794 S
atom 2.2379817987379456 7.3621141726115020 40.1045257131898794 S
atom 7.5750329213453869 7.6582540506638859 40.1045257131898794 S
atom 2.6668036452728727 2.3816366058478451 43.2165893042556277 Ba
atom 7.5888338994373168 2.2627556154572241 43.2165893042556277 Ba
atom 2.5479226548822491 7.3036668600122594 43.2165893042556277 Ba
atom 7.6334802339446455 7.3483131945195792 43.2165893042556277 Ba
atom 2.2965738594113794 2.7512952162711297 48.0099567187332781 Ba
atom 7.2191752890140330 2.6329854013187224 48.0099567187332781 Ba
atom 2.1782640444589640 7.6738966458737474 48.0099567187332781 Ba
atom 7.2632504480831432 7.7179718049428576 48.0099567187332781 Ba
atom 4.9783159899943241 4.9646526795276298 45.4045886258943057 Zr
atom 9.9724944144292760 4.9179198594075206 45.4045886258943057 Zr
atom 4.9315831698742123 9.9588311039625736 45.4045886258943057 Zr
atom 9.9449925786660760 9.9313292681993577 45.4045886258943057 Zr
atom 4.9625163468223112 4.9750320768015355 50.4621175633186851 Zr
atom 9.9621150171553783 4.9337195025795344 50.4621175633186851 Zr
atom 4.9212037726003048 9.9746307471345759 50.4621175633186851 Zr
atom 9.9291929354940383 9.9417086654732838 50.4621175633186851 Zr
atom 4.7584374210154738 4.8416585503339871 42.8971223856770720 S
atom 10.0954885436229418 5.1377984283863682 42.8971223856770720 S
atom 5.0545772990678683 10.1787096729414159 42.8971223856770720 S
atom 9.7251140096872390 9.8083351390057008 42.8971223856770720 S
atom 5.2624683029737556 5.2141297160523639 47.9678599217835426 S
atom 9.7230173779045419 4.6337675464280901 47.9678599217835426 S
atom 4.6821061333494756 9.6746787909831191 47.9678599217835426 S
atom 10.2291448916455483 10.1808063047241060 47.9678599217835426 S
atom 4.6586976952146655 2.4710611438875678 45.7589870015806568 S
atom 10.2934067022987268 2.4312376818748551 45.2505687906768159 S
atom 5.2524954577436711 7.4721489264298899 45.2505687906768159 S
atom 9.6253742838864209 7.4377377325592962 45.7589870015806568 S
atom 4.5960291984889059 2.4678350982734552 50.1744851684916426 S
atom 10.3857344061389032 2.4277868098710860 50.7913460690292808 S
atom 5.3448231615838573 7.4686980544261239 50.7913460690292808 S
atom 9.5627057871606738 7.4345116869451928 50.1744851684916426 S
atom 2.4584981168425299 5.3117728100704893 45.7589870015806568 S
atom 7.4649981675270087 4.6437403916581665 45.2505687906768159 S
atom 2.4240869229719362 9.6846516362132071 45.2505687906768159 S
atom 7.4251747055142951 10.2784493987422323 45.7589870015806568 S
atom 2.4617241624566404 5.3744413067962373 50.1744851684916426 S
atom 7.4684490395307757 4.5514126878179866 50.7913460690292808 S
atom 2.4275377949757058 9.5923239323730272 50.7913460690292808 S
atom 7.4284007511284100 10.3411178954679706 50.1744851684916426 S
atom 2.6674108836175732 2.1979597781703331 52.9897949672434905 Ba
atom 7.7725107271148248 2.2621483771125277 52.9897949672434905 Ba
atom 2.7315994825597678 7.3030596216675523 52.9897949672434905 Ba
atom 7.6340874722893446 7.1646363668420765 52.9897949672434905 Ba
atom 2.3021874193433245 2.7676342539308583 57.9941614981129163 Ba
atom 7.2028362513542934 2.6273718413867733 57.9941614981129163 Ba
atom 2.1619250067992364 7.6682830859417992 57.9941614981129163 Ba
atom 7.2688640080150986 7.7343108426025964 57.9941614981129163 Ba
atom 4.9693964041991192 4.9614006936124238 55.4797680549746062 Zr
atom 9.9757464003444767 4.9268394452027264 55.4797680549746062 Zr
atom 4.9348351557894192 9.9677506897577732 55.4797680549746062 Zr
atom 9.9360729928708871 9.9280772822841588 55.4797680549746062 Zr
atom 4.9673131994340558 4.9667106862117860 60.4944581799365295 Zr
atom 9.9704364077451046 4.9289226499678023 60.4944581799365295 Zr
atom 4.9295251631900614 9.9698338945228411 60.4944581799365295 Zr
atom 9.9339897881058032 9.9333872748835255 60.4944581799365295 Zr
atom 4.6404975757942086 4.7029330617950000 52.9815184187924402 S
atom 10.2342140321619102 5.2557382736076255 52.9815184187924402 S
atom 5.1933027876068518 10.2966495181626883 52.9815184187924402 S
atom 9.6071741644659756 9.6696096504667395 52.9815184187924402 S
atom 5.2986987605138856 5.2317994408122264 57.9915754991385342 S
atom 9.7053476531447007 4.5975370888879592 57.9915754991385342 S
atom 4.6644364085896131 9.6384483334430016 57.9915754991385342 S
atom 10.2653753491856339 10.1984760294839543 57.9915754991385342 S
atom 4.6000653424787545 2.4638954692149033 55.8109412092858008 S
atom 10.3771563324307401 2.4241502913735915 55.1730183303252488 S
atom 5.3362450878756800 7.4650615359286343 55.1730183303252488 S
atom 9.5667419311505189 7.4305720578866374 55.8109412092858008 S
atom 4.6005588841717078 2.4653643282231035 60.1766447952451529 S
atom 10.3755820086924970 2.4256481168561366 60.8187082679033253 S
atom 5.3346707641374360 7.4665593614111696 60.8187082679033253 S
atom 9.5672354728434641 7.4320409168948371 60.1766447952451529 S
atom 2.4656637915151953 5.3704051628063922 55.8109412092858008 S
atom 7.4720855580282608 4.5599907615261701 55.1730183303252488 S
atom 2.4311743134731945 9.6009020060812151 55.1730183303252488 S
atom 7.4323403801869548 10.3370817514781272 55.8109412092858008 S
atom 2.4641949325069947 5.3699116211134506 60.1766447952451529 S
atom 7.4705877325457184 4.5615650852644123 60.8187082679033253 S
atom 2.4296764879906565 9.6024763298194529 60.8187082679033253 S
atom 7.4308715211787719 10.3365882097851784 60.1766447952451529 S
atom 2.6661794645376800 2.1965746571553884 63.0012509666098808 Ba
atom 7.7738958481297935 2.2633797961924205 63.0012509666098808 Ba
atom 2.7329846035747121 7.3042910407474615 63.0012509666098808 Ba
atom 7.6328560532094327 7.1632512458271176 63.0012509666098808 Ba
atom 2.3021874193433245 2.7676342539308583 68.0083404351068737 Ba
atom 7.2028362513542934 2.6273718413867733 68.0083404351068737 Ba
atom 2.1619250067992364 7.6682830859417992 68.0083404351068737 Ba
atom 7.2688640080150986 7.7343108426025964 68.0083404351068737 Ba
atom 4.9673131994340558 4.9667106862117860 65.5080437532832320 Zr
atom 9.9704364077451046 4.9289226499678023 65.5080437532832320 Zr
atom 4.9295251631900614 9.9698338945228411 65.5080437532832320 Zr
atom 9.9339897881058032 9.9333872748835255 65.5080437532832320 Zr
atom 4.9693964041991192 4.9614006936124238 70.5227338782452478 Zr
atom 9.9757464003444767 4.9268394452027264 70.5227338782452478 Zr
atom 4.9348351557894192 9.9677506897577732 70.5227338782452478 Zr
atom 9.9360729928708871 9.9280772822841588 70.5227338782452478 Zr
atom 4.6357859559951482 4.6988682092806968 63.0012509666098808 S
atom 10.2382788846762143 5.2604498934066992 63.0012509666098808 S
atom 5.1973676401211444 10.3013611379617274 63.0012509666098808 S
atom 9.6024625446669223 9.6655447979524425 63.0012509666098808 S
atom 5.2986987605138856 5.2317994408122264 68.0109264340813127 S
atom 9.7053476531447007 4.5975370888879592 68.0109264340813127 S
atom 4.6644364085896131 9.6384483334430016 68.0109264340813127 S
atom 10.2653753491856339 10.1984760294839543 68.0109264340813127 S
atom 4.6005588841717078 2.4653643282231035 65.8258571379747082 S
atom 10.3755820086924970 2.4256481168561366 65.1837936653164149 S
atom 5.3346707641374360 7.4665593614111696 65.1837936653164149 S
atom 9.5672354728434641 7.4320409168948371 65.8258571379747082 S
atom 4.6000653424787545 2.4638954692149033 70.1915607239338897 S
atom 10.3771563324307401 2.4241502913735915 70.8294836028945554 S
atom 5.3362450878756800 7.4650615359286343 70.8294836028945554 S
atom 9.5667419311505189 7.4305720578866374 70.1915607239338897 S
atom 2.4641949325069947 5.3699116211134514 65.8258571379747082 S
atom 7.4705877325457184 4.5615650852644123 65.1837936653164149 S
atom 2.4296764879906565 9.6024763298194529 65.1837936653164149 S
atom 7.4308715211787719 10.3365882097851784 65.8258571379747082 S
atom 2.4656637915151953 5.3704051628063922 70.1915607239338897 S
atom 7.4720855580282608 4.5599907615261701 70.8294836028945554 S
atom 2.4311743134731945 9.6009020060812151 70.8294836028945554 S
atom 7.4323403801869548 10.3370817514781272 70.1915607239338897 S
atom 2.6674108836175732 2.1979597781703331 73.0127069659762924 Ba
atom 7.7725107271148248 2.2621483771125277 73.0127069659762924 Ba
atom 2.7315994825597678 7.3030596216675523 73.0127069659762924 Ba
atom 7.6340874722893446 7.1646363668420765 73.0127069659762924 Ba
atom 2.2965738594113794 2.7512952162711297 77.9925452144864408 Ba
atom 7.2191752890140330 2.6329854013187224 77.9925452144864408 Ba
atom 2.1782640444589640 7.6738966458737474 77.9925452144864408 Ba
atom 7.2632504480831432 7.7179718049428576 77.9925452144864408 Ba
atom 4.9625163468223112 4.9750320768015355 75.5403843699010764 Zr
atom 9.9621150171553783 4.9337195025795344 75.5403843699010764 Zr
atom 4.9212037726003048 9.9746307471345759 75.5403843699010764 Zr
atom 9.9291929354940383 9.9417086654732838 75.5403843699010764 Zr
atom 4.9783159899943241 4.9646526795276298 80.5979133073254843 Zr
atom 9.9724944144292760 4.9179198594075206 80.5979133073254843 Zr
atom 4.9315831698742123 9.9588311039625736 80.5979133073254843 Zr
atom 9.9449925786660760 9.9313292681993577 80.5979133073254843 Zr
atom 4.6404975757942086 4.7029330617950000 73.0209835144271153 S
atom 10.2342140321619102 5.2557382736076255 73.0209835144271153 S
atom 5.1933027876068518 10.2966495181626883 73.0209835144271153 S
atom 9.6071741644659756 9.6696096504667395 73.0209835144271153 S
atom 5.2624683029737556 5.2141297160523639 78.0346420114363042 S
atom 9.7230173779045419 4.6337675464280901 78.0346420114363042 S
atom 4.6821061333494756 9.6746787909831191 78.0346420114363042 S
atom 10.2291448916455483 10.1808063047241060 78.0346420114363042 S
atom 4.5960291984889059 2.4678350982734552 75.8280167647282042 S
atom 10.3857344061389032 2.4277868098710860 75.2111558641906157 S
atom 5.3448231615838573 7.4686980544261239 75.2111558641906157 S
atom 9.5627057871606738 7.4345116869451928 75.8280167647282042 S
atom 4.6586976952146655 2.4710611438875678 80.2435149316392540 S
atom 10.2934067022987268 2.4312376818748551 80.7519331425428675 S
atom 5.2524954577436711 7.4721489264298899 80.7519331425428675 S
atom 9.6253742838864209 7.4377377325592962 80.2435149316392540 S
atom 2.4617241624566404 5.3744413067962373 75.8280167647282042 S
atom 7.4684490395307757 4.5514126878179866 75.2111558641906157 S
atom 2.4275377949757058 9.5923239323730272 75.2111558641906157 S
atom 7.4284007511284100 10.3411178954679706 75.8280167647282042 S
atom 2.4584981168425299 5.3117728100704893 80.2435149316392540 S
atom 7.4649981675270087 4.6437403916581665 80.7519331425428675 S
atom 2.4240869229719362 9.6846516362132071 80.7519331425428675 S
atom 7.4251747055142951 10.2784493987422323 80.2435149316392540 S
atom 2.6668036452728727 2.3816366058478446 82.7859126289642262 Ba
atom 7.5888338994373186 2.2627556154572246 82.7859126289642262 Ba
atom 2.5479226548822500 7.3036668600122594 82.7859126289642262 Ba
atom 7.6334802339446455 7.3483131945195792 82.7859126289642262 Ba
atom 4.7584374210154738 4.8416585503339871 83.1053795475425687 S
atom 10.0954885436229418 5.1377984283863682 83.1053795475425687 S
atom 5.0545772990678683 10.1787096729414159 83.1053795475425687 S
atom 9.7251140096872355 9.8083351390057008 83.1053795475425687 S
