#=======================================================
# FHI-aims file: sym_relax/sym_relax_RP_6_Rx1Ry20_-Rx2-Ry10.in
# Created using the Atomic Simulation Environment (ASE)
# Fri Mar 14 11:01:43 2025
#=======================================================
lattice_vector 10.0802485882645634 0.0298465591629158 0.0000000000000000 
lattice_vector 0.0298465591629158 10.0802485882645669 0.0000000000000000 
lattice_vector 0.0000000000000000 0.0000000000000000 65.1153880770011284 
atom -0.1653961620575990 -0.0160014538597862 0.2883335107878040 Ba
atom 5.2055204561898742 0.0309247334412439 0.2883335107878040 Ba
atom 0.1803194416390568 5.0561257479920760 0.2883335107878040 Ba
atom 4.8896514116561383 5.0390461198539489 0.2883335107878041 Ba
atom 0.0250355605861471 -0.0296012518929871 4.9569469061330445 Ba
atom 5.0150887335461354 0.0445245314744448 4.9569469061330445 Ba
atom -0.0101122810046894 5.0697255460252606 4.9569469061330445 Ba
atom 5.0800831342998833 5.0254463218207546 4.9569469061330445 Ba
atom 2.5223797159354997 2.5062200586808103 2.3418436705979597 Zr
atom 7.5727921519105195 2.5637507946143860 2.3418436705979597 Zr
atom 2.5475911373596953 7.5889518091652093 2.3418436705979597 Zr
atom 7.5774272896492327 7.5612676323945349 2.3418436705979597 Zr
atom 2.5318843625856542 2.5270368593228434 7.3582411184762151 Zr
atom 7.5632875052603552 2.5429339939723530 7.3582411184762151 Zr
atom 2.5380864907095364 7.5681350085231740 7.3582411184762151 Zr
atom 7.5869319362993890 7.5820844330365800 7.3582411184762151 Zr
atom 2.5698448337211959 2.8096267118445395 -0.1378443215461625 S
atom 7.5253270341248246 2.2603441414506564 -0.1378443215461625 S
atom 2.5001260195740058 7.2855451560014801 -0.1378443215461625 S
atom 7.6248924074349205 7.8646742855582659 -0.1378443215461625 S
atom 2.4354059382218094 2.0721664127850152 4.8863515285102963 S
atom 7.6597659296242107 2.9978044405101767 4.8863515285102963 S
atom 2.6345649150733830 8.0230054550609928 4.8863515285102963 S
atom 7.4904535119355495 7.1272139864987611 4.8863515285102963 S
atom 2.5200621470661404 0.0074616397907289 2.0506187453209215 S
atom 7.5601864411984190 0.0223849193721865 2.7777849645446286 S
atom 2.5349854266475980 5.0475859339230054 2.7777849645446286 S
atom 7.5751097207798832 5.0625092135044651 2.0506187453209215 S
atom 2.5200621470661404 0.0074616397907289 7.8230697529446953 S
atom 7.5601864411984190 0.0223849193721865 6.9075043604851549 S
atom 2.5349854266475980 5.0475859339230054 6.9075043604851549 S
atom 7.5751097207798832 5.0625092135044651 7.8230697529446953 S
atom 0.0074616397907289 2.5200621470661386 2.4036141689286818 S
atom 5.0475859339230178 2.5349854266475931 2.5480744369643817 S
atom 0.0223849193721866 7.5601864411984190 2.5480744369643817 S
atom 5.0625092135044678 7.5751097207798752 2.4036141689286818 S
atom 0.0074616397907289 2.5200621470661386 7.5066012577072838 S
atom 5.0475859339230178 2.5349854266475931 7.2385525495318452 S
atom 0.0223849193721866 7.5601864411984190 7.2385525495318452 S
atom 5.0625092135044678 7.5751097207798752 7.5066012577072838 S
atom -0.0056081766474318 0.0608349800477295 9.8553039648335918 Ba
atom 5.0457324707797193 -0.0459117004662718 9.8553039648335918 Ba
atom 0.0205314562288896 4.9792893140845527 9.8553039648335918 Ba
atom 5.0494393970663012 5.1158825537614669 9.8553039648335918 Ba
atom 0.0059107277393368 -0.0672483380426602 14.7989518356820806 Ba
atom 5.0342135663929399 0.0821716176241180 14.7989518356820806 Ba
atom 0.0090125518421210 5.1073726321749406 14.7989518356820806 Ba
atom 5.0609583014530832 4.9877992356710763 14.7989518356820806 Ba
atom 2.5262954176720278 2.5286754289077429 12.3191865761780335 Zr
atom 7.5688764501739856 2.5412954243874539 12.3191865761780335 Zr
atom 2.5436754356231712 7.5664964389382670 12.3191865761780335 Zr
atom 7.5813429913857657 7.5837230026214852 12.3191865761780335 Zr
atom 2.5262954176720278 2.5286754289077429 17.2787170951860780 Zr
atom 7.5688764501739856 2.5412954243874539 17.2787170951860780 Zr
atom 2.5436754356231712 7.5664964389382670 17.2787170951860780 Zr
atom 7.5813429913857657 7.5837230026214852 17.2787170951860780 Zr
atom 2.6622712356078919 3.0187732614009271 9.8442040186760167 S
atom 7.4329006322381206 2.0511975918942720 9.8442040186760167 S
atom 2.4076996176873089 7.0763986064450917 9.8442040186760167 S
atom 7.7173188093216298 8.0738208351146632 9.8442040186760167 S
atom 2.3779212294415779 2.0388580379509902 14.7989518356820806 S
atom 7.7172506384044484 3.0311128153442102 14.7989518356820806 S
atom 2.6920496238536153 8.0563138298950143 14.7989518356820806 S
atom 7.4329688031553030 7.0939056116647219 14.7989518356820806 S
atom 2.5200621470661404 0.0074616397907289 11.8569519949040103 S
atom 7.5601864411984190 0.0223849193721865 12.7912447806938978 S
atom 2.5349854266475980 5.0475859339230054 12.7912447806938978 S
atom 7.5751097207798832 5.0625092135044651 11.8569519949040103 S
atom 2.5200621470661404 0.0074616397907289 17.7409516764601634 S
atom 7.5601864411984190 0.0223849193721865 16.8066588906702847 S
atom 2.5349854266475980 5.0475859339230054 16.8066588906702847 S
atom 7.5751097207798832 5.0625092135044651 17.7409516764601634 S
atom 0.0074616397907289 2.5200621470661386 12.1529601006459380 S
atom 5.0475859339230178 2.5349854266475931 12.4936761013370692 S
atom 0.0223849193721866 7.5601864411984190 12.4936761013370692 S
atom 5.0625092135044678 7.5751097207798752 12.1529601006459380 S
atom 0.0074616397907289 2.5200621470661386 17.4449435707181806 S
atom 5.0475859339230178 2.5349854266475931 17.1042275700271169 S
atom 0.0223849193721866 7.5601864411984190 17.1042275700271169 S
atom 5.0625092135044678 7.5751097207798752 17.4449435707181806 S
atom -0.0056081766474318 0.0608349800477295 19.7425997065305303 Ba
atom 5.0457324707797193 -0.0459117004662718 19.7425997065305303 Ba
atom 0.0205314562288895 4.9792893140845527 19.7425997065305303 Ba
atom 5.0494393970663012 5.1158825537614669 19.7425997065305303 Ba
atom 0.0250355605861471 -0.0296012518929871 24.6409567652311203 Ba
atom 5.0150887335461354 0.0445245314744448 24.6409567652311203 Ba
atom -0.0101122810046894 5.0697255460252606 24.6409567652311203 Ba
atom 5.0800831342998833 5.0254463218207546 24.6409567652311203 Ba
atom 2.5318843625856542 2.5270368593228434 22.2396625528879284 Zr
atom 7.5632875052603552 2.5429339939723530 22.2396625528879284 Zr
atom 2.5380864907095364 7.5681350085231740 22.2396625528879284 Zr
atom 7.5869319362993890 7.5820844330365800 22.2396625528879284 Zr
atom 2.5223797159354997 2.5062200586808103 27.2560600007662295 Zr
atom 7.5727921519105195 2.5637507946143860 27.2560600007662295 Zr
atom 2.5475911373596953 7.5889518091652093 27.2560600007662295 Zr
atom 7.5774272896492327 7.5612676323945349 27.2560600007662295 Zr
atom 2.6622712356078919 3.0187732614009271 19.7536996526881303 S
atom 7.4329006322381206 2.0511975918942720 19.7536996526881303 S
atom 2.4076996176873089 7.0763986064450917 19.7536996526881303 S
atom 7.7173188093216298 8.0738208351146632 19.7536996526881303 S
atom 2.4354059382218094 2.0721664127850152 24.7115521428538507 S
atom 7.6597659296242107 2.9978044405101767 24.7115521428538507 S
atom 2.6345649150733830 8.0230054550609928 24.7115521428538507 S
atom 7.4904535119355495 7.1272139864987611 24.7115521428538507 S
atom 2.5200621470661404 0.0074616397907289 21.7748339184194570 S
atom 7.5601864411984190 0.0223849193721865 22.6903993108789983 S
atom 2.5349854266475980 5.0475859339230054 22.6903993108789983 S
atom 7.5751097207798832 5.0625092135044651 21.7748339184194570 S
atom 2.5200621470661404 0.0074616397907289 27.5472849260432575 S
atom 7.5601864411984190 0.0223849193721865 26.8201187068195033 S
atom 2.5349854266475980 5.0475859339230054 26.8201187068195033 S
atom 7.5751097207798832 5.0625092135044651 27.5472849260432575 S
atom 0.0074616397907289 2.5200621470661386 22.0913024136568907 S
atom 5.0475859339230178 2.5349854266475931 22.3593511218323329 S
atom 0.0223849193721866 7.5601864411984190 22.3593511218323329 S
atom 5.0625092135044678 7.5751097207798752 22.0913024136568907 S
atom 0.0074616397907289 2.5200621470661386 27.1942895024354669 S
atom 5.0475859339230178 2.5349854266475931 27.0498292343997768 S
atom 0.0223849193721866 7.5601864411984190 27.0498292343997768 S
atom 5.0625092135044678 7.5751097207798752 27.1942895024354669 S
atom -0.1653961620575990 -0.0160014538597862 29.3095701605763352 Ba
atom 5.2055204561898742 0.0309247334412439 29.3095701605763352 Ba
atom 0.1803194416390568 5.0561257479920760 29.3095701605763352 Ba
atom 4.8896514116561383 5.0390461198539489 29.3095701605763352 Ba
atom 2.5698448337211959 2.8096267118445395 29.7357479929103086 S
atom 7.5253270341248246 2.2603441414506564 29.7357479929103086 S
atom 2.5001260195740058 7.2855451560014801 29.7357479929103086 S
atom 7.6248924074349205 7.8646742855582659 29.7357479929103086 S
atom 2.5435252407166535 2.6929199489144682 32.8460275492884719 Ba
atom 7.5516466271293590 2.3770509043807273 32.8460275492884719 Ba
atom 2.5264456125785446 7.4022519189315492 32.8460275492884719 Ba
atom 7.5985728144303906 7.7479675226282039 32.8460275492884719 Ba
atom 2.5571250387498532 2.5024882262707213 37.5146409446336477 Ba
atom 7.5380468290961655 2.5674826270244688 37.5146409446336477 Ba
atom 2.5128458145453441 7.5926836415752961 37.5146409446336477 Ba
atom 7.6121726124635885 7.5575357999844543 37.5146409446336477 Ba
atom 5.0763513018897966 5.0601916446351058 34.8995377090985812 Zr
atom 10.0738681396699601 5.0648267823738218 34.8995377090985812 Zr
atom 5.0486671251191266 10.0900277969246481 34.8995377090985812 Zr
atom 10.1313988756035442 10.1152392183488224 34.8995377090985812 Zr
atom 5.0555345012477719 5.0506869979849487 39.9159351569767509 Zr
atom 10.0946849403119803 5.0743314290239807 39.9159351569767509 Zr
atom 5.0694839257611646 10.0995324435748266 39.9159351569767509 Zr
atom 10.1105820749615063 10.1057345716986706 39.9159351569767509 Zr
atom 4.7729446487260745 5.0127265268494199 32.4198497169543813 S
atom 10.3772747928336670 5.1122919001595113 32.4198497169543813 S
atom 5.3520737782828656 10.1374929147103341 32.4198497169543813 S
atom 9.8279922224398266 10.0677741005631507 32.4198497169543813 S
atom 5.5104049477855837 5.1471654223487953 37.4440455670108960 S
atom 9.6398144937741534 4.9778530046601315 37.4440455670108960 S
atom 4.6146134792233600 10.0030540192109658 37.4440455670108960 S
atom 10.5654525214993260 10.2022129960625278 37.4440455670108960 S
atom 5.0475859339230178 2.5349854266475931 35.1057684754649699 S
atom 10.0877102280553022 2.5499087062290529 34.9613082074292691 S
atom 5.0625092135044678 7.5751097207798752 34.9613082074292691 S
atom 10.1026335076367388 7.5900330003613350 35.1057684754649699 S
atom 5.0475859339230178 2.5349854266475931 39.7962465880324672 S
atom 10.0877102280553022 2.5499087062290529 40.0642952962078738 S
atom 5.0625092135044678 7.5751097207798752 40.0642952962078738 S
atom 10.1026335076367388 7.5900330003613350 39.7962465880324672 S
atom 2.5349854266475980 5.0475859339230054 35.3354790030452079 S
atom 7.5751097207798832 5.0625092135044651 34.6083127838215034 S
atom 2.5499087062290537 10.0877102280552773 34.6083127838215034 S
atom 7.5900330003613359 10.1026335076367353 35.3354790030452079 S
atom 2.5349854266475980 5.0475859339230054 39.4651983989856845 S
atom 7.5751097207798832 5.0625092135044651 40.3807637914452755 S
atom 2.5499087062290537 10.0877102280552773 40.3807637914452755 S
atom 7.5900330003613359 10.1026335076367353 39.4651983989856845 S
atom 2.4666888068091359 2.5331319635042977 42.4129980033341312 Ba
atom 7.6284830610368921 2.5368388897908956 42.4129980033341312 Ba
atom 2.6032820464860595 7.5620399043417104 42.4129980033341312 Ba
atom 7.5217363805228734 7.5881795372180409 42.4129980033341312 Ba
atom 2.5947721248995310 2.5216130591175321 47.3566458741827034 Ba
atom 7.5003997429464926 2.5483577941776598 47.3566458741827034 Ba
atom 2.4751987283956693 7.5735588087284871 47.3566458741827034 Ba
atom 7.6498196986132720 7.5766606328312598 47.3566458741827034 Ba
atom 5.0538959316628604 5.0562759428985800 44.8768806146786119 Zr
atom 10.0963235098968731 5.0687424841103494 44.8768806146786119 Zr
atom 5.0711224953460805 10.0939434986611740 44.8768806146786119 Zr
atom 10.1089435053766152 10.1113235166123108 44.8768806146786119 Zr
atom 5.0538959316628604 5.0562759428985800 49.8364111336867666 Zr
atom 10.0963235098968731 5.0687424841103494 49.8364111336867666 Zr
atom 5.0711224953460805 10.0939434986611740 49.8364111336867666 Zr
atom 10.1089435053766152 10.1113235166123108 49.8364111336867666 Zr
atom 4.5637980991696807 4.9203001249627043 42.4018980571765809 S
atom 10.5864213423900768 5.2047183020462260 42.4018980571765809 S
atom 5.5612203278392540 10.2299193165970372 42.4018980571765809 S
atom 9.6188456728834240 9.9753476986764582 42.4018980571765809 S
atom 5.5437133226196202 5.2046501311290383 47.3566458741827034 S
atom 9.6065061189401497 4.9203682958798911 47.3566458741827034 S
atom 4.5813051043893136 9.9455693104307219 47.3566458741827034 S
atom 10.5987608963333368 10.2596977048427611 47.3566458741827034 S
atom 5.0475859339230178 2.5349854266475931 45.0513701398375872 S
atom 10.0877102280553022 2.5499087062290529 44.7106541391465626 S
atom 5.0625092135044678 7.5751097207798752 44.7106541391465626 S
atom 10.1026335076367388 7.5900330003613350 45.0513701398375872 S
atom 5.0475859339230178 2.5349854266475931 49.6619216085276918 S
atom 10.0877102280553022 2.5499087062290529 50.0026376092188301 S
atom 5.0625092135044678 7.5751097207798752 50.0026376092188301 S
atom 10.1026335076367388 7.5900330003613350 49.6619216085276918 S
atom 2.5349854266475980 5.0475859339230054 45.3489388191944300 S
atom 7.5751097207798832 5.0625092135044651 44.4146460334045727 S
atom 2.5499087062290537 10.0877102280552773 44.4146460334045727 S
atom 7.5900330003613359 10.1026335076367353 45.3489388191944300 S
atom 2.5349854266475980 5.0475859339230054 49.3643529291708845 S
atom 7.5751097207798832 5.0625092135044651 50.2986457149607560 S
atom 2.5499087062290537 10.0877102280552773 50.2986457149607560 S
atom 7.5900330003613359 10.1026335076367353 49.3643529291708845 S
atom 2.4666888068091359 2.5331319635042977 52.3002937450311833 Ba
atom 7.6284830610368921 2.5368388897908956 52.3002937450311833 Ba
atom 2.6032820464860595 7.5620399043417104 52.3002937450311833 Ba
atom 7.5217363805228734 7.5881795372180409 52.3002937450311833 Ba
atom 2.5571250387498532 2.5024882262707213 57.1986508037316881 Ba
atom 7.5380468290961655 2.5674826270244688 57.1986508037316881 Ba
atom 2.5128458145453441 7.5926836415752961 57.1986508037316881 Ba
atom 7.6121726124635885 7.5575357999844543 57.1986508037316881 Ba
atom 5.0555345012477719 5.0506869979849487 54.7973565913885921 Zr
atom 10.0946849403119803 5.0743314290239807 54.7973565913885921 Zr
atom 5.0694839257611646 10.0995324435748266 54.7973565913885921 Zr
atom 10.1105820749615063 10.1057345716986706 54.7973565913885921 Zr
atom 5.0763513018897966 5.0601916446351058 59.8137540392667972 Zr
atom 10.0738681396699601 5.0648267823738218 59.8137540392667972 Zr
atom 5.0486671251191266 10.0900277969246481 59.8137540392667972 Zr
atom 10.1313988756035442 10.1152392183488224 59.8137540392667972 Zr
atom 4.5637980991696807 4.9203001249627043 52.3113936911887834 S
atom 10.5864213423900768 5.2047183020462260 52.3113936911887834 S
atom 5.5612203278392540 10.2299193165970372 52.3113936911887834 S
atom 9.6188456728834240 9.9753476986764582 52.3113936911887834 S
atom 5.5104049477855837 5.1471654223487953 57.2692461813544114 S
atom 9.6398144937741534 4.9778530046601315 57.2692461813544114 S
atom 4.6146134792233600 10.0030540192109658 57.2692461813544114 S
atom 10.5654525214993260 10.2022129960625278 57.2692461813544114 S
atom 5.0475859339230178 2.5349854266475931 54.9170451603328473 S
atom 10.0877102280553022 2.5499087062290529 54.6489964521574194 S
atom 5.0625092135044678 7.5751097207798752 54.6489964521574194 S
atom 10.1026335076367388 7.5900330003613350 54.9170451603328473 S
atom 5.0475859339230178 2.5349854266475931 59.6075232729003446 S
atom 10.0877102280553022 2.5499087062290529 59.7519835409360383 S
atom 5.0625092135044678 7.5751097207798752 59.7519835409360383 S
atom 10.1026335076367388 7.5900330003613350 59.6075232729003446 S
atom 2.5349854266475980 5.0475859339230054 55.2480933493796655 S
atom 7.5751097207798832 5.0625092135044651 54.3325279569200958 S
atom 2.5499087062290537 10.0877102280552773 54.3325279569200958 S
atom 7.5900330003613359 10.1026335076367353 55.2480933493796655 S
atom 2.5349854266475980 5.0475859339230054 59.3778127453201350 S
atom 7.5751097207798832 5.0625092135044651 60.1049789645438111 S
atom 2.5499087062290537 10.0877102280552773 60.1049789645438111 S
atom 7.5900330003613359 10.1026335076367353 59.3778127453201350 S
atom 2.5435252407166535 2.6929199489144682 61.8672641990768213 Ba
atom 7.5516466271293590 2.3770509043807273 61.8672641990768213 Ba
atom 2.5264456125785446 7.4022519189315492 61.8672641990768213 Ba
atom 7.5985728144303906 7.7479675226282039 61.8672641990768213 Ba
atom 4.7729446487260745 5.0127265268494199 62.2934420314109545 S
atom 10.3772747928336670 5.1122919001595113 62.2934420314109545 S
atom 5.3520737782828656 10.1374929147103341 62.2934420314109545 S
atom 9.8279922224398266 10.0677741005631507 62.2934420314109545 S
