#=======================================================
# FHI-aims file: sym_relax/sym_relax_RP_6_RxRyMz_RxRy-Mz.in
# Created using the Atomic Simulation Environment (ASE)
# Fri Mar 14 11:07:22 2025
#=======================================================
lattice_vector 10.0163434566868563 -0.0606445025203678 0.0000000000000000 
lattice_vector -0.0606445025203679 10.0163434566868261 0.0000000000000000 
lattice_vector 0.0000000000000000 0.0000000000000000 65.8714059206740359 
atom 0.0752672591172230 -0.1238613068892660 0.2226982236517480 Ba
atom 5.1320330352326886 -0.1055895103774062 0.2226982236517480 Ba
atom 0.0935390556290826 4.9329044692261963 0.2226982236517480 Ba
atom 5.0531167362004510 4.8539881701939596 0.2226982236517480 Ba
atom -0.3074181291284170 0.2344026464816635 5.0052388622887527 Ba
atom 4.7737690818617571 0.2770958778682311 5.0052388622887527 Ba
atom -0.2647248977418480 5.3155898574718314 5.0052388622887527 Ba
atom 4.6704313479548194 5.2122521235648840 5.0052388622887527 Ba
atom 2.4568248486705033 2.5269779132000019 2.3970054008810346 Zr
atom 7.4590432922266734 2.4907023771525489 2.3970054008810346 Zr
atom 2.4205493126230548 7.5291963567561364 2.3970054008810346 Zr
atom 7.4346743257537433 7.5048273902832232 2.3970054008810346 Zr
atom 2.4340245135494776 2.5394930952642616 7.4495809377615307 Zr
atom 7.4465281101623990 2.5135027122735747 7.4495809377615307 Zr
atom 2.4080341305587880 7.5519966918771688 7.4495809377615307 Zr
atom 7.4118739906327180 7.5173425723474887 7.4495809377615307 Zr
atom 2.6193504481626873 2.7860642644366136 -0.1083435416514715 S
atom 7.1999569409900452 2.3281767776603624 -0.1083435416514715 S
atom 2.1614629613864382 7.3666707572639476 -0.1083435416514715 S
atom 7.5971999252459499 7.7639137415198363 -0.1083435416514715 S
atom 2.1888528387938124 2.2281157845487107 4.9563870934853025 S
atom 7.7579054208779592 2.7586743870292363 4.9563870934853025 S
atom 2.7194114412743358 7.7971683666328238 4.9563870934853025 S
atom 7.1667023158770622 7.2059652616319383 4.9563870934853025 S
atom 2.7355032699926025 0.0327205386692303 2.2248900638211992 S
atom 7.1471967799164720 0.0057175400805693 2.7758271587466723 S
atom 2.1087028003128752 5.0442115196841675 2.7758271587466723 S
atom 7.7133527470758478 5.0105700157524398 2.2248900638211992 S
atom 2.8464647225310271 0.0306843578442367 7.7810108344822222 S
atom 7.0859834260421550 0.0039579293763314 7.1557830860608647 S
atom 2.0474894464385507 5.0424519089799320 7.1557830860608647 S
atom 7.8243141996142898 5.0085338349274586 7.7810108344822222 S
atom -0.0630427899294143 2.2726684583508230 2.2248900638211992 S
atom 4.9418096857424976 2.8388244255101722 2.7758271587466723 S
atom -0.0966842938611212 7.8773184051137735 2.7758271587466723 S
atom 4.9148066871538525 7.2505179354340514 2.2248900638211992 S
atom -0.0610066091044206 2.1617070058123917 7.7810108344822222 S
atom 4.9435692964467215 2.9000377793844985 7.1557830860608647 S
atom -0.0949246831568830 7.9385317589880877 7.1557830860608647 S
atom 4.9168428679788310 7.1395564828956095 7.7810108344822222 S
atom 0.2338483362512900 -0.1366351653188158 9.9740868790225079 Ba
atom 5.1448068936622446 -0.2641705875114728 9.9740868790225079 Ba
atom 0.1063129140586326 4.7743233920921213 9.9740868790225079 Ba
atom 5.2116978133345482 4.8412143117644089 9.9740868790225079 Ba
atom -0.3246041047467266 0.2265000653058482 14.9707740728804612 Ba
atom 4.7816716630375726 0.2942818534865407 14.9707740728804612 Ba
atom -0.2568223165660329 5.3327758330901442 14.9707740728804612 Ba
atom 4.6532453723365155 5.2043495423890720 14.9707740728804612 Ba
atom 2.4466781891774052 2.5329097318217997 12.4641338571697631 Zr
atom 7.4531114736048574 2.5008490366456440 12.4641338571697631 Zr
atom 2.4146174940012459 7.5393430162492363 12.4641338571697631 Zr
atom 7.4245276662606452 7.5107592089050268 12.4641338571697631 Zr
atom 2.4466781891774052 2.5329097318217997 17.4774142885911559 Zr
atom 7.4531114736048574 2.5008490366456440 17.4774142885911559 Zr
atom 2.4146174940012459 7.5393430162492363 17.4774142885911559 Zr
atom 7.4245276662606452 7.5107592089050268 17.4774142885911559 Zr
atom 2.7100763857991819 2.8659849864589093 9.9650410906023463 S
atom 7.1200362189677495 2.2374508400238655 9.9650410906023463 S
atom 2.0815422393641376 7.2759448196274672 9.9650410906023463 S
atom 7.6879258628824259 7.8438344635421453 9.9650410906023463 S
atom 2.1753873120695997 2.2003213178399461 14.9707740728804612 S
atom 7.7856998875867198 2.7721399137534477 14.9707740728804612 S
atom 2.7472059079831088 7.8106338933570463 14.9707740728804612 S
atom 7.1532367891528397 7.1781707949231803 14.9707740728804612 S
atom 2.8390223528247382 0.0277017425988273 12.1510829815378774 S
atom 7.0872532756107276 0.0005458440225833 12.7920860959128078 S
atom 2.0487592960071073 5.0390398236261742 12.7920860959128078 S
atom 7.8168718299079831 5.0055512196820384 12.1510829815378774 S
atom 2.8390223528247382 0.0277017425988273 17.7904651642230220 S
atom 7.0872532756107276 0.0005458440225833 17.1494620498481609 S
atom 2.0487592960071073 5.0390398236261742 17.1494620498481609 S
atom 7.8168718299079831 5.0055512196820384 17.7904651642230220 S
atom -0.0580239938590113 2.1691493755186766 12.1510829815378774 S
atom 4.9469813818004811 2.8987679298159397 12.7920860959128078 S
atom -0.0915125978031350 7.9372619094195302 12.7920860959128078 S
atom 4.9198254832242387 7.1469988526019002 12.1510829815378774 S
atom -0.0580239938590113 2.1691493755186766 17.7904651642230220 S
atom 4.9469813818004811 2.8987679298159397 17.1494620498481609 S
atom -0.0915125978031350 7.9372619094195320 17.1494620498481609 S
atom 4.9198254832242387 7.1469988526019002 17.7904651642230220 S
atom 0.2338483362512900 -0.1366351653188158 19.9674612667383791 Ba
atom 5.1448068936622446 -0.2641705875114728 19.9674612667383791 Ba
atom 0.1063129140586326 4.7743233920921213 19.9674612667383791 Ba
atom 5.2116978133345482 4.8412143117644089 19.9674612667383791 Ba
atom -0.3074181291284171 0.2344026464816635 24.9363092834721449 Ba
atom 4.7737690818617571 0.2770958778682311 24.9363092834721449 Ba
atom -0.2647248977418480 5.3155898574718314 24.9363092834721449 Ba
atom 4.6704313479548194 5.2122521235648840 24.9363092834721449 Ba
atom 2.4340245135494776 2.5394930952642607 22.4919672079994051 Zr
atom 7.4465281101623990 2.5135027122735747 22.4919672079994051 Zr
atom 2.4080341305587880 7.5519966918771688 22.4919672079994051 Zr
atom 7.4118739906327180 7.5173425723474887 22.4919672079994051 Zr
atom 2.4568248486705033 2.5269779132000019 27.5445427448798732 Zr
atom 7.4590432922266734 2.4907023771525489 27.5445427448798732 Zr
atom 2.4205493126230548 7.5291963567561364 27.5445427448798732 Zr
atom 7.4346743257537433 7.5048273902832232 27.5445427448798732 Zr
atom 2.7100763857991819 2.8659849864589093 19.9765070551585850 S
atom 7.1200362189677495 2.2374508400238655 19.9765070551585850 S
atom 2.0815422393641376 7.2759448196274672 19.9765070551585850 S
atom 7.6879258628824259 7.8438344635421435 19.9765070551585850 S
atom 2.1888528387938124 2.2281157845487107 24.9851610522756289 S
atom 7.7579054208779592 2.7586743870292363 24.9851610522756289 S
atom 2.7194114412743358 7.7971683666328238 24.9851610522756289 S
atom 7.1667023158770622 7.2059652616319383 24.9851610522756289 S
atom 2.8464647225310271 0.0306843578442367 22.1605373112786808 S
atom 7.0859834260421550 0.0039579293763313 22.7857650597000614 S
atom 2.0474894464385507 5.0424519089799320 22.7857650597000614 S
atom 7.8243141996142898 5.0085338349274586 22.1605373112786808 S
atom 2.7355032699926025 0.0327205386692303 27.7166580819397197 S
atom 7.1471967799164720 0.0057175400805693 27.1657209870142715 S
atom 2.1087028003128752 5.0442115196841675 27.1657209870142715 S
atom 7.7133527470758478 5.0105700157524398 27.7166580819397197 S
atom -0.0610066091044206 2.1617070058123917 22.1605373112786808 S
atom 4.9435692964467215 2.9000377793844985 22.7857650597000614 S
atom -0.0949246831568830 7.9385317589880877 22.7857650597000614 S
atom 4.9168428679788310 7.1395564828956095 22.1605373112786808 S
atom -0.0630427899294143 2.2726684583508230 27.7166580819397197 S
atom 4.9418096857424976 2.8388244255101722 27.1657209870142715 S
atom -0.0966842938611212 7.8773184051137735 27.1657209870142715 S
atom 4.9148066871538525 7.2505179354340514 27.7166580819397197 S
atom 0.0752672591172230 -0.1238613068892660 29.7188499221091718 Ba
atom 5.1320330352326886 -0.1055895103774062 29.7188499221091718 Ba
atom 0.0935390556290826 4.9329044692261963 29.7188499221091718 Ba
atom 5.0531167362004528 4.8539881701939596 29.7188499221091718 Ba
atom 2.6193504481626873 2.7860642644366136 30.0498916874123836 S
atom 7.1999569409900452 2.3281767776603624 30.0498916874123836 S
atom 2.1614629613864382 7.3666707572639476 30.0498916874123836 S
atom 7.5971999252459499 7.7639137415198363 30.0498916874123836 S
atom 2.3650634316523576 2.5641919976588383 33.1584011839887651 Ba
atom 7.4218292077678356 2.5824637941706938 33.1584011839887651 Ba
atom 2.3833352281642113 7.6209577737742924 33.1584011839887651 Ba
atom 7.3429129087355971 7.5420414747420566 33.1584011839887651 Ba
atom 2.7233273850232877 2.1815066094131992 37.9409418226257174 Ba
atom 7.8045145960134779 2.2241998407997725 37.9409418226257174 Ba
atom 2.7660206164098553 7.2626938204033706 37.9409418226257174 Ba
atom 7.7011768621065384 7.1593560864964303 37.9409418226257174 Ba
atom 5.0159026517416301 4.9457495872121138 35.3327083612180317 Zr
atom 10.0181210952977811 4.9094740511646657 35.3327083612180317 Zr
atom 4.9796271156941803 9.9479680307682585 35.3327083612180317 Zr
atom 9.9937521288248661 9.9235990642953418 35.3327083612180317 Zr
atom 5.0284178338058956 4.9229492520910902 40.3852838980985922 Zr
atom 10.0409214304188179 4.8969588691003949 40.3852838980985922 Zr
atom 5.0024274508152082 9.9354528487039833 40.3852838980985922 Zr
atom 10.0062673108891431 9.9007987291743103 40.3852838980985922 Zr
atom 5.2749890029782405 5.1082751867043106 32.8273594186855604 S
atom 9.8555954958056109 4.6503876999280465 32.8273594186855604 S
atom 4.8171015162019790 9.6888816795316455 32.8273594186855604 S
atom 10.2528384800614489 10.0861246637875368 32.8273594186855604 S
atom 4.7170405230903345 4.6777775773354309 37.8920900538223151 S
atom 10.2860931051744782 5.2083361798159542 37.8920900538223151 S
atom 5.2475991255708632 10.2468301594195186 37.8920900538223151 S
atom 9.6948900001736060 9.6556270544186500 37.8920900538223151 S
atom 4.7615931968924414 2.4258819486121981 35.1605930241582385 S
atom 10.3662431436554172 2.3922404446804895 35.7115301190836760 S
atom 5.3277491640518173 7.4307344242840925 35.7115301190836760 S
atom 9.7394426739756739 7.4037314256954323 35.1605930241582385 S
atom 4.6506317443540182 2.4279181294371948 40.7167137948191922 S
atom 10.4274564975297377 2.3940000553847303 40.0914860463978542 S
atom 5.3889625179261360 7.4324940349883306 40.0914860463978542 S
atom 9.6284812214372870 7.4057676065204214 40.7167137948191922 S
atom 2.5216452772108537 5.2244280085342032 35.1605930241582385 S
atom 7.5331362582258095 4.5976275388544838 35.7115301190836760 S
atom 2.4946422786222002 9.6361215184580882 35.7115301190836760 S
atom 7.4994947542940720 10.2022774856174330 35.1605930241582385 S
atom 2.5196090963858540 5.3353894610726353 40.7167137948191922 S
atom 7.5313766475215784 4.5364141849801660 40.0914860463978542 S
atom 2.4928826679179581 9.5749081645837606 40.0914860463978542 S
atom 7.4974585734691050 10.3132389381558571 40.7167137948191922 S
atom 2.3522895732228148 2.7227730747929018 42.9097898393595329 Ba
atom 7.2632481306337588 2.5952376526002441 42.9097898393595329 Ba
atom 2.2247541510301474 7.6337316322038431 42.9097898393595329 Ba
atom 7.3301390503060508 7.7006225518761262 42.9097898393595329 Ba
atom 2.7154248038474740 2.1643206337948904 47.9064770332174774 Ba
atom 7.8217005716317791 2.2321024219755832 47.9064770332174774 Ba
atom 2.7832065920281641 7.2705964015791711 47.9064770332174774 Ba
atom 7.6932742809307149 7.1421701108781184 47.9064770332174774 Ba
atom 5.0218344703634337 4.9356029277190165 45.3998368175067029 Zr
atom 10.0282677547908996 4.9035422325428586 45.3998368175067029 Zr
atom 4.9897737751872775 9.9420362121464638 45.3998368175067029 Zr
atom 9.9996839474467070 9.9134524048022463 45.3998368175067029 Zr
atom 5.0218344703634337 4.9356029277190165 50.4131172489281454 Zr
atom 10.0282677547908996 4.9035422325428586 50.4131172489281454 Zr
atom 4.9897737751872775 9.9420362121464638 50.4131172489281454 Zr
atom 9.9996839474467070 9.9134524048022463 50.4131172489281454 Zr
atom 5.3549097250005397 5.1990011243407919 42.9007440509393092 S
atom 9.7648695581691012 4.5704669779057472 42.9007440509393092 S
atom 4.7263755785655004 9.6089609575093444 42.9007440509393092 S
atom 10.3327592020837873 10.1768506014240181 42.9007440509393092 S
atom 4.6892460563815872 4.6643120506112083 47.9064770332174774 S
atom 10.2995586318986962 5.2361306465247104 47.9064770332174774 S
atom 5.2610646522950830 10.2746246261283112 47.9064770332174774 S
atom 9.6670955334648152 9.6421615276944443 47.9064770332174774 S
atom 4.6580741140602999 2.4309007446826048 45.0867859418749433 S
atom 10.4261866479611864 2.3974121407384787 45.7277890562497689 S
atom 5.3876926683575599 7.4359061203420787 45.7277890562497689 S
atom 9.6359235911435235 7.4087502217658363 45.0867859418749433 S
atom 4.6580741140602999 2.4309007446826048 50.7261681245600187 S
atom 10.4261866479611882 2.3974121407384787 50.0851650101852428 S
atom 5.3876926683575599 7.4359061203420787 50.0851650101852428 S
atom 9.6359235911435235 7.4087502217658363 50.7261681245600187 S
atom 2.5166264811404506 5.3279470913663518 45.0867859418749433 S
atom 7.5279645621678073 4.5376840345487279 45.7277890562497689 S
atom 2.4894705825642043 9.5761780141523065 45.7277890562497689 S
atom 7.4944759582236946 10.3057965684495780 45.0867859418749433 S
atom 2.5166264811404506 5.3279470913663518 50.7261681245600187 S
atom 7.5279645621678073 4.5376840345487279 50.0851650101852428 S
atom 2.4894705825642043 9.5761780141523065 50.0851650101852428 S
atom 7.4944759582236946 10.3057965684495780 50.7261681245600187 S
atom 2.3522895732228148 2.7227730747929018 52.9031642270754503 Ba
atom 7.2632481306337588 2.5952376526002441 52.9031642270754503 Ba
atom 2.2247541510301474 7.6337316322038431 52.9031642270754503 Ba
atom 7.3301390503060508 7.7006225518761262 52.9031642270754503 Ba
atom 2.7233273850232877 2.1815066094131992 57.8720122438092091 Ba
atom 7.8045145960134779 2.2241998407997725 57.8720122438092091 Ba
atom 2.7660206164098553 7.2626938204033706 57.8720122438092091 Ba
atom 7.7011768621065384 7.1593560864964303 57.8720122438092091 Ba
atom 5.0284178338058956 4.9229492520910902 55.4276701683363413 Zr
atom 10.0409214304188179 4.8969588691003949 55.4276701683363413 Zr
atom 5.0024274508152082 9.9354528487039833 55.4276701683363413 Zr
atom 10.0062673108891431 9.9007987291743103 55.4276701683363413 Zr
atom 5.0159026517416301 4.9457495872121138 60.4802457052169586 Zr
atom 10.0181210952977811 4.9094740511646657 60.4802457052169586 Zr
atom 4.9796271156941803 9.9479680307682585 60.4802457052169586 Zr
atom 9.9937521288248661 9.9235990642953418 60.4802457052169586 Zr
atom 5.3549097250005397 5.1990011243407919 52.9122100154956030 S
atom 9.7648695581691012 4.5704669779057472 52.9122100154956030 S
atom 4.7263755785655004 9.6089609575093444 52.9122100154956030 S
atom 10.3327592020837873 10.1768506014240181 52.9122100154956030 S
atom 4.7170405230903345 4.6777775773354309 57.9208640126125758 S
atom 10.2860931051744782 5.2083361798159542 57.9208640126125758 S
atom 5.2475991255708632 10.2468301594195186 57.9208640126125758 S
atom 9.6948900001736096 9.6556270544186500 57.9208640126125758 S
atom 4.6506317443540182 2.4279181294371948 55.0962402716157555 S
atom 10.4274564975297377 2.3940000553847303 55.7214680200370367 S
atom 5.3889625179261360 7.4324940349883306 55.7214680200370367 S
atom 9.6284812214372870 7.4057676065204214 55.0962402716157555 S
atom 4.7615931968924414 2.4258819486121981 60.6523610422767092 S
atom 10.3662431436554172 2.3922404446804895 60.1014239473512291 S
atom 5.3277491640518173 7.4307344242840925 60.1014239473512291 S
atom 9.7394426739756739 7.4037314256954323 60.6523610422767092 S
atom 2.5196090963858540 5.3353894610726353 55.0962402716157555 S
atom 7.5313766475215784 4.5364141849801660 55.7214680200370367 S
atom 2.4928826679179581 9.5749081645837606 55.7214680200370367 S
atom 7.4974585734691050 10.3132389381558571 55.0962402716157555 S
atom 2.5216452772108537 5.2244280085342032 60.6523610422767092 S
atom 7.5331362582258095 4.5976275388544838 60.1014239473512291 S
atom 2.4946422786222002 9.6361215184580882 60.1014239473512291 S
atom 7.4994947542940720 10.2022774856174330 60.6523610422767092 S
atom 2.3650634316523576 2.5641919976588383 62.6545528824461684 Ba
atom 7.4218292077678356 2.5824637941706938 62.6545528824461684 Ba
atom 2.3833352281642113 7.6209577737742924 62.6545528824461684 Ba
atom 7.3429129087355971 7.5420414747420566 62.6545528824461684 Ba
atom 5.2749890029782405 5.1082751867043106 62.9855946477493589 S
atom 9.8555954958056109 4.6503876999280465 62.9855946477493589 S
atom 4.8171015162019790 9.6888816795316455 62.9855946477493589 S
atom 10.2528384800614489 10.0861246637875368 62.9855946477493589 S
