#=======================================================
# FHI-aims file: sym_relax/sym_relax_RP_9_Rx0Mz_0-RyMz.in
# Created using the Atomic Simulation Environment (ASE)
# Mon Mar 17 16:39:19 2025
#=======================================================
lattice_vector 10.0066296201863825 -0.0765513117241574 -0.0000763225340661 
lattice_vector -0.0765513117241580 10.0066296201863025 -0.0000763225340661 
lattice_vector -0.0007085394842897 -0.0007085394842897 96.0333568769758017 
atom 0.1023813603494284 -0.1828524949921023 0.2148201259316573 Ba
atom 5.1859791388401586 -0.1407955843246598 0.2147713220694398 Ba
atom 0.1443886728848902 4.9007948816305644 0.2147713220694397 Ba
atom 5.0674205145805500 4.7821866592389695 0.2147438033975910 Ba
atom -0.2702656160174836 0.1880203720716242 5.0096620424768039 Ba
atom 4.8150243283048964 0.2317328773857741 5.0096092978896491 Ba
atom -0.2265661376503812 5.2733233433410085 5.0096092978896483 Ba
atom 4.6947735382136191 5.1530595263026804 5.0095857199427254 Ba
atom 2.4836833835423135 2.4717330775674600 2.4038985578497414 Zr
atom 7.4964307747563437 2.4428744977584480 2.4038616017890742 Zr
atom 2.4548403088010748 7.4844649637136635 2.4038616017890750 Zr
atom 7.4487225377734489 7.4367722317985443 2.4038222353156753 Zr
atom 2.4727292913029904 2.4877070953903058 7.4616946352071283 Zr
atom 7.4803628265226179 2.4537454063896500 7.4616576360245812 Zr
atom 2.4387723605673259 7.4953358723448824 7.4616576360245768 Zr
atom 7.4377684455341289 7.4527462496213630 7.4616183126730675 Zr
atom 2.6061328444479579 2.6912805063137162 -0.1037772895339047 S
atom 7.2769027143672869 2.3204505861821501 -0.1038008809681160 S
atom 2.2353122484120349 7.3620410521373545 -0.1038008809681160 S
atom 7.5711719986790769 7.6563196605447938 -0.1038536120679709 S
atom 2.2342489013069078 2.1881156809952924 4.9675059121446585 S
atom 7.7799708177060465 2.6922547890765682 4.9674694058239988 S
atom 2.7383803517507856 7.7338452550317918 4.9674694058239970 S
atom 7.1992880555380312 7.1531548352263528 4.9674295896105800 S
atom 2.8066846360094302 -0.0146586768665275 2.2500945672999335 S
atom 7.1753619654603638 -0.0502701123349732 2.7583743924431303 S
atom 2.1337714995050945 4.9913203536202575 2.7583743924431290 S
atom 7.7717237902405483 4.9503804773645337 2.2500182447658625 S
atom 2.8977855694379668 -0.0179281554674848 7.7913489269388529 S
atom 7.1136533153568084 -0.0533608166665427 7.1748422636127538 S
atom 2.0720628494015179 4.9882296492886908 7.1748422636127547 S
atom 7.8628247236690818 4.9471109987635744 7.7912726044047842 S
atom -0.0238258357844986 2.1964195388384598 2.2501141465423440 S
atom 4.9768218300332405 2.7927552258865722 2.7583573581376313 S
atom -0.0647686359220437 7.8343456918417926 2.7583573581376313 S
atom 4.9412133184466374 7.1614586930695419 2.2500378240082748 S
atom -0.0206335180549792 2.1052282045740682 7.7913510933314640 S
atom 4.9798335663299973 2.8544141361004067 7.1748167908648979 S
atom -0.0617568996252723 7.8960046020556227 7.1748167908648997 S
atom 4.9444056361761266 7.0702673588051486 7.7912747707974033 S
atom 0.2849652049462759 -0.1832875046305139 9.9900583682951520 Ba
atom 5.1862858770314810 -0.3235497258419125 9.9900531088367206 Ba
atom 0.1446954110762236 4.7180407401133095 9.9900531088367206 Ba
atom 5.2500043591773879 4.7817516496005643 9.9899820457610993 Ba
atom -0.2864589297238380 0.1822300904464479 14.9951554271164120 Ba
atom 4.8207530576152715 0.2478702710336019 14.9951072707470754 Ba
atom -0.2208374083399884 5.2894607369888238 14.9951072707470772 Ba
atom 4.6785802245072814 5.1472692446775143 14.9950791045823415 Ba
atom 2.4868289004035318 2.4806588914945640 12.4796342993230844 Zr
atom 7.4873728773451766 2.4396101605556999 12.4795961006658445 Zr
atom 2.4457824113899038 7.4812006265109350 12.4795961006658427 Zr
atom 7.4518680546346259 7.4456980457256376 12.4795579767890246 Zr
atom 2.4806945385530885 2.4829899305364065 17.4944482899984735 Zr
atom 7.4850586815188613 2.4457498961605100 17.4944089509306444 Zr
atom 2.4434682155635983 7.4873403621157220 17.4944089509306444 Zr
atom 7.4457336927842057 7.4480290847674766 17.4943719674644171 Zr
atom 2.7445310234883613 2.8091950509395915 9.9817714906914556 S
atom 7.1588429786688748 2.1819298540270768 9.9817325539413204 S
atom 2.1172525127135939 7.2235203199823035 9.9817325539413204 S
atom 7.7095701777194936 7.7742342051706697 9.9816951681574082 S
atom 2.2165193205594593 2.1518371586239242 14.9924400586498070 S
atom 7.8162025915382287 2.7099165696738923 14.9923973395891377 S
atom 2.7746121255829412 7.7515070356291202 14.9923973395891377 S
atom 7.1815584747905614 7.1168763128549966 14.9923637361157436 S
atom 2.8894031239440401 -0.0217523717329967 12.1741325587949145 S
atom 7.1177777859713096 -0.0574949458777456 12.8116522269001276 S
atom 2.0761873200160363 4.9840955200774841 12.8116522269001312 S
atom 7.8544422781751670 4.9432867824980802 12.1740562362608529 S
atom 2.8875942739856288 -0.0200303769813026 17.8204619012285974 S
atom 7.1181905519943971 -0.0557788072210322 17.1784885132071992 S
atom 2.0766000860391154 4.9858116587342014 17.1784885132072098 S
atom 7.8526334282167429 4.9450087772497548 17.8203855786945553 S
atom -0.0168471690708375 2.1135854442016395 12.1741279574515122 S
atom 4.9839405755919994 2.8502475775921101 12.8116448263999079 S
atom -0.0576498903632629 7.8918380435473390 12.8116448263999114 S
atom 4.9481919851602836 7.0786245984327278 12.1740516349174595 S
atom -0.0185634864737461 2.1153899979332249 17.8204851680199141 S
atom 4.9822173741913858 2.8498401554950652 17.1784881440943131 S
atom -0.0593730917638900 7.8914306214502821 17.1784881440943096 S
atom 4.9464756677573689 7.0804291521642764 17.8204088454858223 S
atom 0.2865783146675360 -0.1819961396560445 20.0030435878082251 Ba
atom 5.1849781628979983 -0.3251696407554373 20.0030273488519192 Ba
atom 0.1433876969427343 4.7164208251997888 20.0030273488519192 Ba
atom 5.2516174688986572 4.7830430145750267 20.0029672652741866 Ba
atom -0.2869104425507973 0.1816640117727840 25.0125924482740700 Ba
atom 4.8213193294051244 0.2482862011480184 25.0125323646963516 Ba
atom -0.2202711365501536 5.2898766671032522 25.0125323646963516 Ba
atom 4.6781287116803130 5.1467031660038538 25.0125161257400457 Ba
atom 2.4823535131739320 2.4823535131739045 22.5077798567741034 Zr
atom 7.4856683232671264 2.4440778573118180 22.5077416955070824 Zr
atom 2.4440778573118380 7.4856683232670544 22.5077416955070824 Zr
atom 7.4473926674050457 7.4473926674049729 22.5077035342400329 Zr
atom 2.4840124877947543 2.4817170958113990 27.5211114235497547 Zr
atom 7.4862779650153719 2.4424058184631394 27.5210744400835239 Zr
atom 2.4446874990601009 7.4839962844183763 27.5210744400835274 Zr
atom 7.4490516420258803 7.4467562500424735 27.5210351010157481 Zr
atom 2.7489451243519087 2.8141503312023515 20.0027407880781176 S
atom 7.1538873518701838 2.1774811864583508 20.0027049431474389 S
atom 2.1122968859149136 7.2190716524135752 20.0027049431474389 S
atom 7.7139842785830339 7.7791894854334318 20.0026644655440435 S
atom 2.2157619019959407 2.1505566951454655 25.0128189254701532 S
atom 7.8174492946640655 2.7106745281653102 25.0127784478667188 S
atom 2.7758588287087878 7.7522649941205390 25.0127784478667188 S
atom 7.1808010562270548 7.1155958493765299 25.0127426029360933 S
atom 2.8878361245191142 -0.0205685690962594 22.1863932784553128 S
atom 7.1184613677840369 -0.0563148705111588 22.8291664350929366 S
atom 2.0768709018287512 4.9852755954440733 22.8291664350929366 S
atom 7.8528752787501999 4.9444705851348090 22.1863169559212494 S
atom 2.8881069403087340 -0.0211046323863864 27.8370712003410397 S
atom 7.1187032183175036 -0.0568530626261157 27.1950978123196592 S
atom 2.0771127523622264 4.9847374033291194 27.1950978123196521 S
atom 7.8531460945398672 4.9439345218446782 27.8369948778069940 S
atom -0.0180427720881885 2.1151492679055157 22.1864080405073345 S
atom 4.9827497984360392 2.8495577584422964 22.8291516730408830 S
atom -0.0588406675192308 7.8911482243975364 22.8291516730408937 S
atom 4.9469963821429239 7.0801884221365645 22.1863317179733208 S
atom -0.0175103478435297 2.1148668708527523 27.8370715694539292 S
atom 4.9832705128216039 2.8493170284145912 27.1950745455283567 S
atom -0.0583199531336735 7.8909074943698263 27.1950745455283567 S
atom 4.9475288063875773 7.0799060250838188 27.8369952469198481 S
atom 0.2861268018405770 -0.1825622183297091 30.0204806089658902 Ba
atom 5.1855444346878459 -0.3247537106410210 30.0204524428011688 Ba
atom 0.1439539687325691 4.7168367553142101 30.0204524428011723 Ba
atom 5.2511659560717012 4.7824769359013670 30.0204042864318161 Ba
atom -0.2852973328295362 0.1829553767472528 35.0255776677872674 Ba
atom 4.8200116152716275 0.2466662862344942 35.0255066047116159 Ba
atom -0.2215788506836437 5.2882567521897279 35.0255066047116230 Ba
atom 4.6797418214015938 5.1479945309783277 35.0255013452531543 Ba
atom 2.4778781259443319 2.4840481348532455 32.5359254142251331 Zr
atom 7.4839637691890584 2.4485455540679539 32.5358872903483771 Zr
atom 2.4423733032337922 7.4901360200231837 32.5358872903483842 Zr
atom 7.4429172801754566 7.4490872890843027 32.5358490916910625 Zr
atom 2.4919777350448564 2.4769999309574979 37.5538650783411114 Zr
atom 7.4909738200116349 2.4344103082340052 37.5538257549896173 Zr
atom 2.4493833540563754 7.4760007741892283 37.5538257549896173 Zr
atom 7.4570168892759456 7.4420390851885747 37.5537887558069912 Zr
atom 2.7481877057883959 2.8128698677238910 30.0231196548984514 S
atom 7.1551340549960250 2.1782391449497491 30.0230860514249862 S
atom 2.1135435890407503 7.2198296109049753 30.0230860514249862 S
atom 7.7132268600195131 7.7779090219549607 30.0230433323644093 S
atom 2.2201760028594939 2.1555119754082210 35.0337882228568418 S
atom 7.8124936678653629 2.7062258605965690 35.0337508370728372 S
atom 2.7709032019100950 7.7478163265518001 35.0337508370728230 S
atom 7.1852151570905924 7.1205511296392734 35.0337119003226789 S
atom 2.8885197063318091 -0.0193884937296730 32.2039074866481059 S
atom 7.1168943683590795 -0.0551310678744216 32.8414271547534398 S
atom 2.0753039024038116 4.9864593980808101 32.8414271547534398 S
atom 7.8535588605629547 4.9456506605013946 32.2038311641139785 S
atom 2.8926441769463378 -0.0235226229408759 37.8407174499354113 S
atom 7.1085119228651781 -0.0589552841399336 37.2242107866092766 S
atom 2.0669214569098950 4.9826351818152981 37.2242107866092766 S
atom 7.8576833311774434 4.9415165312901825 37.8406411274013692 S
atom -0.0192335492441571 2.1144594487557007 32.2039148871483221 S
atom 4.9815541954186839 2.8511215821461615 32.8414317560967106 S
atom -0.0600362705365814 7.8927120481013890 32.8414317560967106 S
atom 4.9458056049869441 7.0794986029867655 32.2038385646142657 S
atom -0.0151265399821459 2.1102928902474072 37.8407429226832903 S
atom 4.9853405444028400 2.8594788217737435 37.2242086202167002 S
atom -0.0562499215524403 7.9010692877289701 37.2242086202167002 S
atom 4.9499126142489676 7.0753320444784933 37.8406666001492695 S
atom 0.2699334881342239 -0.1883524999548851 40.0059739936056076 Ba
atom 5.1912731639982406 -0.3086163169931923 40.0059504156585461 Ba
atom 0.1496826980429625 4.7329741489620263 40.0059504156585461 Ba
atom 5.2349726423653271 4.7766866542761797 40.0058976710715726 Ba
atom -0.1027134882326892 0.1825203671088417 44.8008159101506749 Ba
atom 4.8203183534629668 0.0639121447172414 44.8007883914789318 Ba
atom -0.2212721124923089 5.1055026106724597 44.8007883914789318 Ba
atom 4.8623256659984371 5.1475595213399234 44.8007395876166186 Ba
atom 2.4810236428055403 2.4929739487803468 42.6116611556984850 Zr
atom 7.4749058717778754 2.4452812168652067 42.6116217892250759 Zr
atom 2.4333154058226243 7.4868716828204427 42.6116217892250759 Zr
atom 7.4460627970366708 7.4580131030114325 42.6115848331644571 Zr
atom 2.7304581250409501 2.7765913453525277 40.0480538014036540 S
atom 7.1913658288281876 2.1959009255470838 40.0480139851902592 S
atom 2.1497753628729037 7.2374913915023100 40.0480139851902663 S
atom 7.6954972792720504 7.7416304995835867 40.0479774788695124 S
atom 2.3585741818998933 2.2734265200340880 45.1193370030820873 S
atom 7.6944339321669517 2.5677051284415073 45.1192842719822380 S
atom 2.6528434662116767 7.6092955943967358 45.1192842719822380 S
atom 7.3236133361310083 7.2384656742651616 45.1192606805481944 S
atom 2.8309355268427612 -0.0266133272724454 42.2571853211050907 S
atom 7.1996128562936992 -0.0622247627408915 42.7654651462483528 S
atom 2.1580223903384170 4.9793657032143530 42.7654651462483528 S
atom 7.7959746810738704 4.9384258269586212 42.2571089985710344 S
atom -0.0121148036853752 2.1719518004612439 42.2572023554106337 S
atom 4.9885328621323746 2.7682874875093528 42.7654455670057914 S
atom -0.0530576038229209 7.8098779534645768 42.7654455670057914 S
atom 4.9529243505457492 7.1369909546923065 42.2571260328765419 S
atom 2.2993128123813107 2.5845466677228193 48.2314604031524112 Ba
atom 7.3829601890040060 2.6265539802582798 48.2314115992900980 Ba
atom 2.3413697230487607 7.6681444462134953 48.2314115992900980 Ba
atom 7.2643519666124163 7.5495858219538823 48.2313840806183123 Ba
atom 2.6701856794450345 2.2118996913559097 53.0263023196974999 Ba
atom 7.7554886507144634 2.2555991697230140 53.0262495751105050 Ba
atom 2.7138981847591865 7.2971896356782295 53.0262495751105050 Ba
atom 7.6352248336761583 7.1769388455869869 53.0262259971634862 Ba
atom 4.9538983849409073 4.9658486909156858 50.4205388350704808 Zr
atom 9.9666302710871726 4.9370056161744404 50.4205018790097483 Zr
atom 4.9250398051318758 9.9785960821296857 50.4205018790097483 Zr
atom 9.9189375391719956 9.9308878451467564 50.4204625125364174 Zr
atom 4.9698724027637251 4.9548945986763560 55.4783349124279681 Zr
atom 9.9775011797183755 4.9209376679406827 55.4782979132452283 Zr
atom 4.9359107137630849 9.9625281338959475 55.4782979132452283 Zr
atom 9.9349115569948978 9.9199337529074469 55.4782585898938834 Zr
atom 5.1734458136871666 5.0882981518213315 47.9128629876868786 S
atom 9.8442063595108618 4.7174775557853854 47.9128393962526573 S
atom 4.8026158935555703 9.7590680217406245 47.9128393962526573 S
atom 10.1384849679182736 10.0533373060523630 47.9127866651526944 S
atom 4.6702809883687060 4.7164142086802823 52.9841461893653047 S
atom 10.2160105624053035 5.2205456591241504 52.9841096830447995 S
atom 5.1744200964499996 10.2621361250793708 52.9841096830447924 S
atom 9.6353201425998627 9.6814533629113324 52.9840698668313550 S
atom 4.6785848462118853 2.4583394715888920 50.2667544237631105 S
atom 10.3165109992152360 2.4173966714513462 50.7749976353583818 S
atom 5.2749205332600075 7.4589871374065844 50.7749976353583818 S
atom 9.6436240004429692 7.4233786258199590 50.2666781012290755 S
atom 4.5873935119475000 2.4615317893184074 55.8079913705522301 S
atom 10.3781699094291167 2.4204084077481163 55.1914570680857253 S
atom 5.3365794434738518 7.4619988737033616 55.1914570680857253 S
atom 9.5524326661786052 7.4265709435494749 55.8079150480181738 S
atom 2.4675066305068811 5.2888499433828002 50.2667348445206557 S
atom 7.4734856609937195 4.6159368068784667 50.7750146696639106 S
atom 2.4318951950384382 9.6575272728336774 50.7750146696639106 S
atom 7.4325457847379841 10.2538890976138788 50.2666585219865709 S
atom 2.4642371519059294 5.3799508768113364 55.8079892041597247 S
atom 7.4703949566621439 4.5542281567748981 55.1914825408335261 S
atom 2.4288044907068715 9.5958186227301283 55.1914825408335261 S
atom 7.4292763061370461 10.3449900310423981 55.8079128816256258 S
atom 2.2988778027428940 2.7671305123196581 58.0066986455158542 Ba
atom 7.2002060474867626 2.6268607184496124 58.0066933860574778 Ba
atom 2.1586155815315031 7.6684511844048311 58.0066933860574778 Ba
atom 7.2639169569740201 7.7321696665507211 58.0066223229817908 Ba
atom 2.6643953978198591 2.1957063776495542 63.0117957043372030 Ba
atom 7.7716260443622796 2.2613278990334025 63.0117475479678077 Ba
atom 2.7300355784070200 7.3029183649886207 63.0117475479678149 Ba
atom 7.6294345520509710 7.1607455318806270 63.0117193818031183 Ba
atom 4.9628241988679891 4.9689942077768867 60.4962745765438683 Zr
atom 9.9633659338844165 4.9279477187632805 60.4962363778865893 Zr
atom 4.9217754679291357 9.9695381847185089 60.4962363778865893 Zr
atom 9.9278633530990721 9.9340333620079555 60.4961982540097765 Zr
atom 4.9651552379098440 4.9628598459264719 65.5110885672194598 Zr
atom 9.9695056694892425 4.9256335229369670 65.5110492281513075 Zr
atom 4.9279152035339386 9.9672239888921812 65.5110492281513075 Zr
atom 9.9301943921409972 9.9278990001575487 65.5110122446852756 Zr
atom 5.2913603583130318 5.2266963308617358 57.9984117679122306 S
atom 9.7056856273557859 4.5994178200869618 57.9983728311620936 S
atom 4.6640951614005042 9.6410082860421973 57.9983728311620936 S
atom 10.2563995125441334 10.1917354850927833 57.9983354453781601 S
atom 4.6340024659973578 4.6986846279328249 63.0090803358704932 S
atom 10.2336723430025884 5.2567774329563184 63.0090376168098629 S
atom 5.1920818770473387 10.2983678989115433 63.0090376168098558 S
atom 9.5990416202284283 9.6637237821638902 63.0090040133363871 S
atom 4.5957507515750908 2.4653181383025498 60.1907682346722837 S
atom 10.3740033509208196 2.4245154170101304 60.8282851036207006 S
atom 5.3324128849655388 7.4661058829653681 60.8282851036207006 S
atom 9.5607899058062031 7.4303572925336310 60.1906919121382060 S
atom 4.5975553053066447 2.4636018208996466 65.8371254452407868 S
atom 10.3735959288237964 2.4227922156095025 65.1951284213148057 S
atom 5.3320054628684952 7.4643826815647243 65.1951284213148057 S
atom 9.5625944595377348 7.4286409751307065 65.8370491227065457 S
atom 2.4604129356404165 5.3715684313174110 60.1907728360156966 S
atom 7.4662608274509319 4.5583526273893993 60.8282925041209310 S
atom 2.4246703614956640 9.5999430933446295 60.8282925041209381 S
atom 7.4254520898715226 10.3366075855484407 60.1906965134815337 S
atom 2.4621349303921169 5.3697595813590100 65.8371021784495412 S
atom 7.4679769661076509 4.5587653934124894 65.1951287904282424 S
atom 2.4263865001523741 9.6003558593677241 65.1951287904282424 S
atom 7.4271740846232124 10.3347987355900539 65.8370258559153143 S
atom 2.3001691677173706 2.7687436220409327 68.0196838650289664 Ba
atom 7.1985861325732623 2.6255530043161253 68.0196676260726463 Ba
atom 2.1569956666179810 7.6671434702713519 68.0196676260726463 Ba
atom 7.2652083219484807 7.7337827762720073 68.0196075424949811 Ba
atom 2.6638293191461995 2.1952548648225938 73.0292327254947793 Ba
atom 7.7720419744767293 2.2618941708232310 73.0291726419170999 Ba
atom 2.7304515085214227 7.3034846367784754 73.0291726419170999 Ba
atom 7.6288684733773193 7.1602940190536586 73.0291564029606235 Ba
atom 4.9645188205473580 4.9645188205473065 70.5244201339947949 Zr
atom 9.9678336306405289 4.9262431646852285 70.5243819727280652 Zr
atom 4.9262431646852605 9.9678336306404489 70.5243819727280652 Zr
atom 9.9295579747784135 9.9295579747783478 70.5243438114608665 Zr
atom 4.9638824031848472 4.9661777951681136 75.5377517007704284 Zr
atom 9.9661615917918613 4.9268528064334633 75.5377147173043113 Zr
atom 4.9245711258365814 9.9684432723887166 75.5377147173043113 Zr
atom 9.9289215574159293 9.9312169493992055 75.5376753782364148 Zr
atom 5.2963156385757975 5.2311104317252752 68.0193810652988731 S
atom 9.7012369597870585 4.5944621932882681 68.0193452203683080 S
atom 4.6596464938317768 9.6360526592435161 68.0193452203683080 S
atom 10.2613547928069035 10.1961495859563414 68.0193047427648025 S
atom 4.6327220025188867 4.6979272093693139 73.0294592026907168 S
atom 10.2344303014939992 5.2580241360821374 73.0294187250873961 S
atom 5.1928398355387362 10.2996146020373462 73.0294187250873961 S
atom 9.5977611567499963 9.6629663636003702 73.0293828801567599 S
atom 4.5973145752789408 2.4641225352852034 70.2030483177279336 S
atom 10.3733135317709948 2.4233246398541568 70.8457919502617415 S
atom 5.3317230658157433 7.4649151058093963 70.8457919502617557 S
atom 9.5623537295100611 7.4291616895162713 70.2029719951938489 S
atom 4.5970321782262014 2.4646549595298586 75.8537118466749405 S
atom 10.3730728017432980 2.4238453542397176 75.2117148227490162 S
atom 5.3314823357880545 7.4654358201949584 75.2117148227490162 S
atom 9.5620713324572488 7.4296941137609487 75.8536355241407421 S
atom 2.4615967382771466 5.3700014318924589 70.2030335556760434 S
atom 7.4674409028175184 4.5590362092021310 70.8458067123136317 S
atom 2.4258504368622500 9.6006266751573630 70.8458067123136317 S
atom 7.4266358925082798 10.3350405861235419 70.2029572331422145 S
atom 2.4610606749870256 5.3702722476820908 75.8537114775616743 S
atom 7.4669027107025565 4.5592780597355818 75.2117380895402619 S
atom 2.4253122447472975 9.6008685256908457 75.2117380895402761 S
atom 7.4260998292181322 10.3353114019131596 75.8536351550275327 S
atom 2.2996030890437105 2.7682921092139638 78.0371208861867416 Ba
atom 7.1990020626876525 2.6261192761059564 78.0370927200219313 Ba
atom 2.1574115967324001 7.6677097420611915 78.0370927200219313 Ba
atom 7.2646422432748183 7.7333312634450353 78.0370445636525290 Ba
atom 2.6651206841206694 2.1968679745438568 83.0422179450077635 Ba
atom 7.7704220595631828 2.2605864566897567 83.0421468819323394 Ba
atom 2.7288315936079068 7.3021769226449722 83.0421468819323394 Ba
atom 7.6301598383517728 7.1619071287749296 83.0421416224737925 Ba
atom 4.9662134422266924 4.9600434333176855 80.5525656914460910 Zr
atom 9.9723013273966643 4.9245386106071534 80.5525275675691432 Zr
atom 4.9307108614413746 9.9661290765623942 80.5525275675691432 Zr
atom 9.9312525964577691 9.9250825875487738 80.5524893689120773 Zr
atom 4.9591652383309439 4.9741430424182003 85.5705053555618065 Zr
atom 9.9581660815627000 4.9315486614297468 85.5704660322102342 Zr
atom 4.9165756156074272 9.9731391273849415 85.5704660322102342 Zr
atom 9.9242043925620358 9.9391821966492984 85.5704290330278212 Zr
atom 5.2950351750973272 5.2303530131617526 78.0397599321191535 S
atom 9.7019949182784710 4.5957088964141146 78.0397263286457132 S
atom 4.6604044523231929 9.6372993623693581 78.0397263286457132 S
atom 10.2600743293284591 10.1953921673928178 78.0396836095851398 S
atom 4.6376772827816470 4.7023413102328426 83.0504285000776150 S
atom 10.2299816339252772 5.2530685092834632 83.0503911142937028 S
atom 5.1883911679700079 10.2946589752386934 83.0503911142937028 S
atom 9.6027164370127593 9.6673804644639230 83.0503521775435871 S
atom 4.5966247561291382 2.4629317581292387 80.2205551643690171 S
atom 10.3748773554748812 2.4221290368368100 80.8580720333173844 S
atom 5.3332868895195862 7.4637195027920367 80.8580720333173701 S
atom 9.5616639103602221 7.4279709123603022 80.2204788418350176 S
atom 4.5924581976208358 2.4670387673912444 85.8573831999038646 S
atom 10.3832345951024738 2.4259153858209515 85.2408488974376581 S
atom 5.3416441291471646 7.4675058517761785 85.2408488974376581 S
atom 9.5574973518519588 7.4320779216223007 85.8573068773696946 S
atom 2.4627768136437469 5.3706850137051791 80.2205477638690354 S
atom 7.4686247054542632 4.5574692097771843 80.8580674319743054 S
atom 2.4270342394989886 9.5990596757324198 80.8580674319743054 S
atom 7.4278159678748645 10.3357241679362506 80.2204714413348654 S
atom 2.4586426844325415 5.3748094843196936 85.8573577271563977 S
atom 7.4648004891887521 4.5490867642832553 85.2408510638301067 S
atom 2.4232100232334757 9.5906772302384891 85.2408510638301067 S
atom 7.4236818386636534 10.3398486385507518 85.8572814046222419 S
atom 2.2938128074185293 2.7520987955076097 88.0226142708263524 Ba
atom 7.2151394563354794 2.6318480054163511 88.0225906928794330 Ba
atom 2.1735489903802132 7.6734384713715844 88.0225906928794330 Ba
atom 7.2588519616496265 7.7171379497386754 88.0225379482923245 Ba
atom 2.6646856744822580 2.3794518191407015 92.8174561873713486 Ba
atom 7.5876679180459314 2.2608931948810822 92.8174286686998045 Ba
atom 2.5460774520906519 7.3024836608363213 92.8174286686998045 Ba
atom 7.6297248287133792 7.3444909733717791 92.8173798648372355 Ba
atom 4.9751392561537831 4.9631889501789077 90.6283014329191872 Zr
atom 9.9690369901939135 4.9154807131959890 90.6282620664460268 Zr
atom 4.9274465242386496 9.9570711791512156 90.6282620664460268 Zr
atom 9.9401784103849344 9.9282281044100227 90.6282251103850740 Zr
atom 5.2587566527259701 5.2126234324143086 88.0646940786243135 S
atom 9.7196566988757596 4.6319406702462862 88.0646542624109117 S
atom 4.6780662329205214 9.6735311362015057 88.0646542624109117 S
atom 10.2237958069570549 10.1776625866453863 88.0646177560902146 S
atom 4.7555918274075317 4.8407394892732611 93.1359772803028534 S
atom 10.0914609017702013 5.1350087735850307 93.1359245492029686 S
atom 5.0498704358149462 10.1765992395402751 93.1359245492029686 S
atom 9.7206309816386138 9.8057786435043557 93.1359009577690244 S
atom 4.6541171078346579 2.4700505036880207 90.2738426326315562 S
atom 10.2920432608380601 2.4291077035504709 90.7820858442266285 S
atom 5.2504527948827837 7.4706981695056980 90.7820858442266285 S
atom 9.6191562620657756 7.4350896579190859 90.2737663100972725 S
atom 2.4555519801009642 5.3131008342161055 90.2738255983259279 S
atom 7.4615310105878114 4.6401876977117862 90.7821054234690337 S
atom 2.4199405446325235 9.6817781636670226 90.7821054234690337 S
atom 7.4205911343320725 10.2781399884472044 90.2737492757918147 S
