#=======================================================
# FHI-aims file: sym_relax/sym_relax_RP_1_Rx0Mz_0-RyMz.in
# Created using the Atomic Simulation Environment (ASE)
# Fri Mar 14 10:20:18 2025
#=======================================================
lattice_vector 10.0712828800347403 -0.0000047196366769 -0.0002191685104850 
lattice_vector -0.0000047196366769 10.0712828800347367 -0.0002191685104850 
lattice_vector 0.0003381890524909 0.0003381890524909 15.6175396692540378 
atom -0.1383389772919054 0.0000072304995665 0.2385708793373552 Ba
atom 5.1739903266086227 -0.0000058595361275 0.2384545925542130 Ba
atom 0.1383465267729261 5.0356379402995746 0.2384545925542130 Ba
atom 4.8973001029071241 5.0356463106986036 0.2383517108268702 Ba
atom 0.1384446613708096 0.0000984535793375 4.6419102673045325 Ba
atom 4.8973982375050040 0.0001068239783537 4.6418073855771862 Ba
atom -0.1382455623306992 5.0357506238140619 4.6418073855771862 Ba
atom 5.1740837415698380 5.0357375337783710 4.6416910987940438 Ba
atom 2.5178723821389646 2.5178723821389695 2.4401309890657008 Zr
atom 7.5535138221563329 2.5178700223206314 2.4400214048104596 Zr
atom 2.5178700223206252 7.5535138221563507 2.4400214048104596 Zr
atom 7.5535114623380029 7.5535114623380020 2.4399118205552175 Zr
atom 2.5178056952830214 2.7383828519682103 -0.0979733359625866 S
atom 7.5534732707117413 2.2972448800887673 -0.0980727821990860 S
atom 2.5178294708760385 7.3328886799244746 -0.0980727821990860 S
atom 7.5534447754820491 7.7740219321672477 -0.0981925044730715 S
atom 2.5179390689949153 2.2973619123097340 4.9782353140939835 S
atom 7.5535543736009378 2.7384951645524964 4.9781155918200017 S
atom 2.5179105737652177 7.7741389643882073 4.9781155918200017 S
atom 7.5535781491939398 7.3330009925087642 4.9780161455835064 S
atom 2.5178706826477413 0.0000464934570226 2.2109612851398230 S
atom 7.5535178814658996 0.0000544709852038 2.6693006929915803 S
atom 2.5178740816301919 5.0356982708209177 2.6693006929915803 S
atom 7.5535097628467787 5.0356855736560631 2.2107421166293366 S
atom 0.0000518204444080 2.5178716336318767 2.4402033044217535 S
atom 5.0356929438335287 2.5178731306460640 2.4400586737096508 S
atom 0.0000491439978186 7.5535169304817780 2.4400586737096508 S
atom 5.0356909006434272 7.5535107138309012 2.4399841359112693 S
atom 2.5179958651253256 2.3796496573338621 8.0472311297091395 Ba
atom 7.5536265749253380 2.6563351613986921 8.0471148429259962 Ba
atom 2.5179827750896346 7.6919789612343941 8.0471148429259962 Ba
atom 7.5536349453243625 7.4152887375329035 8.0470119611986473 Ba
atom 2.5180870882051010 2.6564332959965711 12.4505705176763026 Ba
atom 7.5537392584398271 2.3797430722950681 12.4504676359489626 Ba
atom 2.5180954586041220 7.4153868721307790 12.4504676359489626 Ba
atom 7.5537261684041228 7.6920723761956049 12.4503513491658122 Ba
atom 5.0358610167647395 5.0358610167647333 10.2487912394374767 Zr
atom 10.0715024567820972 5.0358586569463970 10.2486816551822422 Zr
atom 5.0358586569463917 10.0715024567821025 10.2486816551822422 Zr
atom 10.0715000969637511 10.0715000969637707 10.2485720709269916 Zr
atom 5.2563714865939737 5.0357943299088017 7.7106869144091936 S
atom 9.8508773145502246 5.0358181055017948 7.7105874681726929 S
atom 4.8152335147145227 10.0714619053375163 7.7105874681726920 S
atom 10.2920105667930049 10.0714334101078293 7.7104677458987059 S
atom 4.8153505469354885 5.0359277036206755 12.7868955644657678 S
atom 10.2921275990139538 5.0358992083910001 12.7867758421917781 S
atom 5.2564837991782483 10.0715430082266995 12.7867758421917781 S
atom 9.8509896271345152 10.0715667838197174 12.7866763959552827 S
atom 5.0358602682576272 2.5180404550701727 10.2488635547935267 S
atom 10.0715055651075360 2.5180377786235790 10.2487189240814356 S
atom 5.0358617652718269 7.5536815784592983 10.2487189240814356 S
atom 10.0714993484566762 7.5536795352691994 10.2486443862830434 S
atom 2.5180351280827913 5.0358593172735047 10.0196215355115932 S
atom 7.5536869054466749 5.0358627162559628 10.4779609433633567 S
atom 2.5180431056109622 10.0715065160916719 10.4779609433633567 S
atom 7.5536742082818105 10.0714983974725509 10.0194023670011081 S
