#=======================================================
# FHI-aims file: sym_relax/sym_relax_RP_3_00Rz_00Rz.in
# Created using the Atomic Simulation Environment (ASE)
# Fri Mar 14 10:22:32 2025
#=======================================================
lattice_vector 9.9102417424435423 0.0000000000001527 -0.0000000000000000 
lattice_vector 0.0000000000001527 9.9102417424435405 0.0000000000000000 
lattice_vector 0.0000000000000000 0.0000000000000000 36.4536938160872950 
atom -0.0000000000000000 0.0000000000000000 0.1681493089395345 Ba
atom 4.9551208712217720 0.0000000000000762 0.1681493089395345 Ba
atom 0.0000000000000766 4.9551208712217711 0.1681493089395345 Ba
atom 4.9551208712218466 4.9551208712218511 0.1681493089395345 Ba
atom 0.0000000000000000 0.0000000000000000 5.0644187379962915 Ba
atom 4.9551208712217720 0.0000000000000762 5.0644187379962915 Ba
atom 0.0000000000000762 4.9551208712217711 5.0644187379962915 Ba
atom 4.9551208712218466 4.9551208712218511 5.0644187379962915 Ba
atom 2.4775604356109233 2.4775604356109255 2.4502793589699783 Zr
atom 7.4326813068326985 2.4775604356110001 2.4502793589699783 Zr
atom 2.4775604356110010 7.4326813068326985 2.4502793589699783 Zr
atom 7.4326813068327748 7.4326813068327704 2.4502793589699783 Zr
atom 2.4775604356109233 2.4775604356109255 7.5945195450181879 Zr
atom 7.4326813068326985 2.4775604356110001 7.5945195450181879 Zr
atom 2.4775604356110010 7.4326813068326985 7.5945195450181879 Zr
atom 7.4326813068327748 7.4326813068327704 7.5945195450181879 Zr
atom 2.4775604356109233 2.4775604356109255 -0.0969103331997490 S
atom 7.4326813068326985 2.4775604356110001 -0.0969103331997489 S
atom 2.4775604356110006 7.4326813068326985 -0.0969103331997490 S
atom 7.4326813068327748 7.4326813068327704 -0.0969103331997490 S
atom 2.4775604356109233 2.4775604356109255 5.0437247486531209 S
atom 7.4326813068326985 2.4775604356110001 5.0437247486531209 S
atom 2.4775604356110010 7.4326813068326985 5.0437247486531209 S
atom 7.4326813068327748 7.4326813068327704 5.0437247486531209 S
atom 2.0542702981414864 0.0000000000002197 2.5328582975090956 S
atom 7.8559714443020532 -0.0000000000000674 2.5328582975090956 S
atom 2.9008505730803607 4.9551208712216335 2.5328582975090956 S
atom 7.0093911693633340 4.9551208712220651 2.5328582975090956 S
atom 3.0118425049270838 -0.0000000000001286 7.5945195450181879 S
atom 6.8983992375164638 0.0000000000002814 7.5945195450181879 S
atom 1.9432783662947648 4.9551208712219772 7.5945195450181879 S
atom 7.9669633761489287 4.9551208712217214 7.5945195450181879 S
atom -0.0000000000001431 2.9008505730802847 2.5328582975090956 S
atom 4.9551208712219870 2.0542702981415641 2.5328582975090956 S
atom 0.0000000000002955 7.0093911693632611 2.5328582975090956 S
atom 4.9551208712217054 7.8559714443021305 2.5328582975090956 S
atom 0.0000000000002057 1.9432783662946866 7.5945195450181879 S
atom 4.9551208712216415 3.0118425049271611 7.5945195450181879 S
atom -0.0000000000000524 7.9669633761488576 7.5945195450181879 S
atom 4.9551208712220571 6.8983992375165384 7.5945195450181879 S
atom 0.0000000000000000 0.0000000000000000 10.1246203520400790 Ba
atom 4.9551208712217720 0.0000000000000762 10.1246203520400790 Ba
atom 0.0000000000000762 4.9551208712217711 10.1246203520400790 Ba
atom 4.9551208712218466 4.9551208712218511 10.1246203520400790 Ba
atom -0.0000000000000000 0.0000000000000000 15.0208897810968285 Ba
atom 4.9551208712217720 0.0000000000000762 15.0208897810968285 Ba
atom 0.0000000000000762 4.9551208712217711 15.0208897810968285 Ba
atom 4.9551208712218466 4.9551208712218511 15.0208897810968285 Ba
atom 2.4775604356109233 2.4775604356109255 12.7387597310664002 Zr
atom 7.4326813068326985 2.4775604356110001 12.7387597310664002 Zr
atom 2.4775604356110010 7.4326813068326985 12.7387597310664002 Zr
atom 7.4326813068327748 7.4326813068327704 12.7387597310664002 Zr
atom 2.4775604356109233 2.4775604356109255 10.1453143413832514 S
atom 7.4326813068326985 2.4775604356110001 10.1453143413832514 S
atom 2.4775604356110010 7.4326813068326985 10.1453143413832514 S
atom 7.4326813068327748 7.4326813068327704 10.1453143413832514 S
atom 2.4775604356109233 2.4775604356109255 15.2859494232361168 S
atom 7.4326813068326985 2.4775604356110001 15.2859494232361168 S
atom 2.4775604356110010 7.4326813068326985 15.2859494232361168 S
atom 7.4326813068327748 7.4326813068327704 15.2859494232361168 S
atom 2.0542702981414869 0.0000000000002197 12.6561807925272767 S
atom 7.8559714443020532 -0.0000000000000674 12.6561807925272767 S
atom 2.9008505730803607 4.9551208712216335 12.6561807925272767 S
atom 7.0093911693633340 4.9551208712220651 12.6561807925272767 S
atom -0.0000000000001431 2.9008505730802847 12.6561807925272767 S
atom 4.9551208712219870 2.0542702981415641 12.6561807925272767 S
atom 0.0000000000002955 7.0093911693632611 12.6561807925272767 S
atom 4.9551208712217054 7.8559714443021305 12.6561807925272767 S
atom 2.4775604356109233 2.4775604356109255 18.3949962169831878 Ba
atom 7.4326813068326985 2.4775604356110001 18.3949962169831878 Ba
atom 2.4775604356110010 7.4326813068326985 18.3949962169831878 Ba
atom 7.4326813068327748 7.4326813068327704 18.3949962169831878 Ba
atom 2.4775604356109233 2.4775604356109255 23.2912656460399532 Ba
atom 7.4326813068326985 2.4775604356110001 23.2912656460399532 Ba
atom 2.4775604356110006 7.4326813068326985 23.2912656460399532 Ba
atom 7.4326813068327748 7.4326813068327704 23.2912656460399532 Ba
atom 4.9551208712218466 4.9551208712218511 20.6771262670136267 Zr
atom 9.9102417424436240 4.9551208712219239 20.6771262670136267 Zr
atom 4.9551208712219266 9.9102417424436187 20.6771262670136267 Zr
atom 9.9102417424436933 9.9102417424437022 20.6771262670136267 Zr
atom 4.9551208712218466 4.9551208712218511 25.8213664530618310 Zr
atom 9.9102417424436240 4.9551208712219239 25.8213664530618310 Zr
atom 4.9551208712219266 9.9102417424436187 25.8213664530618310 Zr
atom 9.9102417424436933 9.9102417424437022 25.8213664530618310 Zr
atom 4.9551208712218466 4.9551208712218511 18.1299365748438888 S
atom 9.9102417424436240 4.9551208712219239 18.1299365748438888 S
atom 4.9551208712219266 9.9102417424436187 18.1299365748438888 S
atom 9.9102417424436933 9.9102417424437022 18.1299365748438888 S
atom 4.9551208712218466 4.9551208712218511 23.2705716566967666 S
atom 9.9102417424436240 4.9551208712219239 23.2705716566967666 S
atom 4.9551208712219266 9.9102417424436187 23.2705716566967666 S
atom 9.9102417424436933 9.9102417424437022 23.2705716566967666 S
atom 4.5318307337524155 2.4775604356111458 20.7597052055527342 S
atom 10.3335318799129752 2.4775604356108563 20.7597052055527342 S
atom 5.3784110086912840 7.4326813068325572 20.7597052055527342 S
atom 9.4869516049742515 7.4326813068329844 20.7597052055527342 S
atom 5.4894029405380076 2.4775604356107950 25.8213664530618310 S
atom 9.3759596731273760 2.4775604356112071 25.8213664530618310 S
atom 4.4208388019056901 7.4326813068328992 25.8213664530618310 S
atom 10.4445238117598524 7.4326813068326443 25.8213664530618310 S
atom 2.4775604356107790 5.3784110086912067 20.7597052055527342 S
atom 7.4326813068329125 4.5318307337524910 20.7597052055527342 S
atom 2.4775604356112186 9.4869516049741929 20.7597052055527342 S
atom 7.4326813068326363 10.3335318799130533 20.7597052055527342 S
atom 2.4775604356111298 4.4208388019056146 25.8213664530618310 S
atom 7.4326813068325688 5.4894029405380813 25.8213664530618310 S
atom 2.4775604356108714 10.4445238117597885 25.8213664530618310 S
atom 7.4326813068329791 9.3759596731274470 25.8213664530618310 S
atom 2.4775604356109233 2.4775604356109255 28.3514672600837230 Ba
atom 7.4326813068326985 2.4775604356110001 28.3514672600837230 Ba
atom 2.4775604356110006 7.4326813068326985 28.3514672600837230 Ba
atom 7.4326813068327748 7.4326813068327704 28.3514672600837230 Ba
atom 2.4775604356109233 2.4775604356109255 33.2477366891404884 Ba
atom 7.4326813068326985 2.4775604356110001 33.2477366891404884 Ba
atom 2.4775604356110006 7.4326813068326985 33.2477366891404884 Ba
atom 7.4326813068327748 7.4326813068327704 33.2477366891404884 Ba
atom 4.9551208712218466 4.9551208712218511 30.9656066391100531 Zr
atom 9.9102417424436240 4.9551208712219239 30.9656066391100531 Zr
atom 4.9551208712219266 9.9102417424436187 30.9656066391100531 Zr
atom 9.9102417424436933 9.9102417424437022 30.9656066391100531 Zr
atom 4.9551208712218466 4.9551208712218511 28.3721612494269131 S
atom 9.9102417424436240 4.9551208712219239 28.3721612494269131 S
atom 4.9551208712219266 9.9102417424436187 28.3721612494269131 S
atom 9.9102417424436933 9.9102417424437022 28.3721612494269131 S
atom 4.9551208712218466 4.9551208712218511 33.5127963312797661 S
atom 9.9102417424436240 4.9551208712219239 33.5127963312797661 S
atom 4.9551208712219266 9.9102417424436187 33.5127963312797661 S
atom 9.9102417424436933 9.9102417424437022 33.5127963312797661 S
atom 4.5318307337524155 2.4775604356111458 30.8830277005709384 S
atom 10.3335318799129752 2.4775604356108563 30.8830277005709384 S
atom 5.3784110086912840 7.4326813068325572 30.8830277005709384 S
atom 9.4869516049742515 7.4326813068329844 30.8830277005709384 S
atom 2.4775604356107790 5.3784110086912067 30.8830277005709384 S
atom 7.4326813068329125 4.5318307337524910 30.8830277005709384 S
atom 2.4775604356112186 9.4869516049741929 30.8830277005709384 S
atom 7.4326813068326363 10.3335318799130533 30.8830277005709384 S
