#=======================================================
# FHI-aims file: sym_relax/sym_relax_RP_4_Rx0Rz_0Ry0.in
# Created using the Atomic Simulation Environment (ASE)
# Fri Mar 14 10:28:50 2025
#=======================================================
lattice_vector 10.0855443906331992 0.0000000000000000 0.0036237782047141 
lattice_vector 0.0000000000000000 10.0891736892101154 -0.0000000000000000 
lattice_vector 0.0147655002217572 -0.0000000000000001 45.2721479034210645 
atom -0.1788560975176452 -0.0000000000000000 0.2913577460377866 Ba
atom 5.2031497049964113 -0.0000000000000000 0.2916446250034168 Ba
atom 0.1603775096798035 5.0445868446050577 0.2898327359010598 Ba
atom 4.8639160977989420 5.0445868446050577 0.2931696351401431 Ba
atom -0.0048750557247920 -0.0000000000000000 4.9619925660915287 Ba
atom 4.9829622168408623 -0.0000000000000000 4.9458866604096459 Ba
atom -0.0598099784757430 5.0445868446050577 4.9440747713072835 Ba
atom 5.0378971395918022 5.0445868446050577 4.9638044551938840 Ba
atom 2.5096335304439297 2.5001269746635422 2.3418031618079329 Zr
atom 7.5524057257605230 2.5444598699415168 2.3436150509102895 Zr
atom 2.5096335304439297 7.5890467145465763 2.3418031618079320 Zr
atom 7.5524057257605239 7.5447138192685843 2.3436150509102887 Zr
atom 2.5134882381129788 2.5224991590785182 7.3592709306220820 Zr
atom 7.5562604334295749 2.5220876855265431 7.3610828197244356 Zr
atom 2.5134882381129788 7.5666745301315848 7.3592709306220838 Zr
atom 7.5562604334295749 7.5670860036835883 7.3610828197244356 Zr
atom 2.5125630133610737 2.8086567873815365 -0.1373661146583869 S
atom 7.5553352086776631 2.2359300572235199 -0.1355542255560296 S
atom 2.5125630133610737 7.2805169018285962 -0.1373661146583868 S
atom 7.5553352086776631 7.8532436319865768 -0.1355542255560296 S
atom 2.5147505991397496 2.0609850487793735 4.8851623991761066 S
atom 7.5575227944563430 2.9836017958256886 4.8869742882784708 S
atom 2.5147505991397487 8.0281886404307432 4.8851623991761031 S
atom 7.5575227944563430 7.1055718933844254 4.8869742882784726 S
atom 2.5135333481364848 -0.0000000000000000 2.0445109975069418 S
atom 7.5494517183723984 -0.0000000000000000 2.7805980911595629 S
atom 2.5066795230557966 5.0445868446050577 2.7787862020572085 S
atom 7.5563055434530790 5.0445868446050577 2.0463228866092966 S
atom 2.6166845483277870 -0.0000000000000000 7.8193458132874332 S
atom 7.4795630684104584 -0.0000000000000000 6.9043260395117230 S
atom 2.4367908730938534 5.0445868446050577 6.9025141504093730 S
atom 7.6594567436443812 5.0445868446050577 7.8211577023897849 S
atom -0.0106720401356106 2.5213035489047351 2.4766802048931851 S
atom 5.0321001551809879 2.5232832957003262 2.4784920939955399 S
atom -0.0106720401356106 7.5678701403053781 2.4766802048931860 S
atom 5.0321001551809879 7.5658903935097763 2.4784920939955399 S
atom -0.0028280626885752 2.4172951235050739 7.3667218785275779 S
atom 5.0399441326280172 2.6272917210999802 7.3685337676299341 S
atom -0.0028280626885752 7.6718785657050281 7.3667218785275743 S
atom 5.0399441326280172 7.4618819681101254 7.3685337676299341 S
atom -0.0069397670307878 -0.0000000000000000 9.7909181264135530 Ba
atom 5.0561317450525074 -0.0000000000000000 9.8944363293936490 Ba
atom 0.0133595497359003 5.0445868446050577 9.8926244402912733 Ba
atom 5.0358324282858025 5.0445868446050577 9.7927300155159465 Ba
atom 0.0662297611808556 -0.0000000000000000 14.7394677953975730 Ba
atom 5.0540670337465139 -0.0000000000000000 14.7233618897156617 Ba
atom 0.0112948384299042 5.0445868446050577 14.7215500006133055 Ba
atom 5.1090019564974538 5.0445868446050577 14.7412796844999132 Ba
atom 2.5357037399087345 2.5224991590785182 12.3260835251851208 Zr
atom 7.5784759352253523 2.5220876855265431 12.3278954142874912 Zr
atom 2.5357037399087350 7.5666745301315848 12.3260835251851191 Zr
atom 7.5784759352253523 7.5670860036835883 12.3278954142874895 Zr
atom 2.5395584475777833 2.5001269746635413 17.3435512939992620 Zr
atom 7.5823306428943820 2.5444598699415177 17.3453631831016288 Zr
atom 2.5395584475777833 7.5890467145465781 17.3435512939992620 Zr
atom 7.5823306428943820 7.5447138192685861 17.3453631831016288 Zr
atom 2.5245959890108591 3.0210677216144397 9.8426772279036161 S
atom 7.5673681843274530 2.0235191229906153 9.8444891170059652 S
atom 2.5245959890108591 7.0681059675956854 9.8426772279036161 S
atom 7.5673681843274530 8.0656545662195107 9.8444891170059652 S
atom 2.5344413788819633 2.0609850487793735 14.8001920566310776 S
atom 7.5772135741985647 2.9836017958256895 14.8020039457334374 S
atom 2.5344413788819633 8.0281886404307432 14.8001920566310741 S
atom 7.5772135741985647 7.1055718933844254 14.8020039457334409 S
atom 2.4325074296939322 -0.0000000000000000 11.8660086425198106 S
atom 7.6551733002444591 -0.0000000000000000 12.7846521945002056 S
atom 2.6124011049278586 5.0445868446050577 12.7828403053978459 S
atom 7.4752796250105318 5.0445868446050577 11.8678205316221561 S
atom 2.5356586298852304 -0.0000000000000000 17.6408434583002531 S
atom 7.5852846502825226 -0.0000000000000000 16.9083801428523692 S
atom 2.5425124549659142 5.0445868446050577 16.9065682537500308 S
atom 7.5784308252018420 5.0445868446050577 17.6426553474026235 S
atom 0.0092478453936875 2.6272917210999802 12.3168206881772679 S
atom 5.0520200407102873 2.4172951235050739 12.3186325772796135 S
atom 0.0092478453936876 7.4618819681101272 12.3168206881772626 S
atom 5.0520200407102873 7.6718785657050290 12.3186325772796206 S
atom 0.0170918228407219 2.5232832957003271 17.2068623618116803 S
atom 5.0598640181573327 2.5213035489047351 17.2086742509140329 S
atom 0.0170918228407219 7.5658903935097763 17.2068623618116803 S
atom 5.0598640181573327 7.5678701403053781 17.2086742509140329 S
atom -0.1539577269746911 -0.0000000000000001 19.3937098308038145 Ba
atom 5.2280480755393555 -0.0000000000000000 19.3939967097694783 Ba
atom 0.1852758802227564 5.0445868446050577 19.3921848206670724 Ba
atom 4.8888144683419048 5.0445868446050577 19.3955217199061707 Ba
atom 2.5366289646606410 2.8086567873815373 19.8227205704655383 S
atom 7.5794011599772473 2.2359300572235217 19.8245324595679442 S
atom 2.5366289646606419 7.2805169018285962 19.8227205704655383 S
atom 7.5794011599772473 7.8532436319865768 19.8245324595679442 S
atom 2.5353569739856923 2.6923629427781348 22.9332724479286583 Ba
atom 7.5781291693022936 2.3522239018269220 22.9350843370310251 Ba
atom 2.5353569739856927 7.3968107464319850 22.9332724479286441 Ba
atom 7.5781291693022936 7.7369497873831907 22.9350843370310251 Ba
atom 2.5337845643872758 2.4942030166300828 27.5973359678278598 Ba
atom 7.5765567597038714 2.5503838279749735 27.5991478569302302 Ba
atom 2.5337845643872758 7.5949706725800379 27.5973359678278598 Ba
atom 7.5765567597038714 7.5387898612351325 27.5991478569302302 Ba
atom 5.0782285675383800 5.0445868446050577 24.9841652763196436 Zr
atom 10.0765772211360876 5.0445868446050577 24.9855112304039402 Zr
atom 5.0338050258194782 10.0891736892101154 24.9836993413016089 Zr
atom 10.1210007628549743 10.0891736892101154 24.9859771654219998 Zr
atom 5.0535084662500394 5.0445868446050577 29.9988940886872655 Zr
atom 10.0978505149542688 5.0445868446050577 30.0004514132580447 Zr
atom 5.0550783196376576 10.0891736892101154 29.9986395241556636 Zr
atom 10.0962806615666310 10.0891736892101154 30.0007059777896394 Zr
atom 4.7688641039577426 5.0445868446050577 22.5051402702239116 S
atom 10.3877471483164836 5.0445868446050577 22.5067165780464080 S
atom 5.3449749529999151 10.0891736892101154 22.5049046889440199 S
atom 9.8116362992743742 10.0891736892101154 22.5069521593263104 S
atom 5.5219883659873608 5.0445868446050577 27.5264159596629838 S
atom 9.6311239223777392 5.0445868446050577 27.5277856728750265 S
atom 4.5883517270611289 10.0891736892101154 27.5259737837726810 S
atom 10.5647605613039364 10.0891736892101154 27.5282278487652974 S
atom 5.0559678727834303 2.5222748279888996 25.1207110610676487 S
atom 10.0987400681000299 2.5223120166161621 25.1225229501700404 S
atom 5.0559678727834303 7.5668988612212118 25.1207110610676523 S
atom 10.0987400681000299 7.5668616725939533 25.1225229501700547 S
atom 5.0542912431789606 2.5222948801976268 30.0099304665301503 S
atom 10.0970634384955726 2.5222919644074295 30.0117423556324603 S
atom 5.0542912431789606 7.5668788090124819 30.0099304665301503 S
atom 10.0970634384955726 7.5668817248026983 30.0117423556324603 S
atom 2.5344616218683580 5.0445868446050577 25.4227122051033270 S
atom 7.5775236190792086 5.0445868446050577 24.6832737611134689 S
atom 2.5347514237626054 10.0891736892101154 24.6814618720110985 S
atom 7.5772338171849611 10.0891736892101154 25.4245240942056903 S
atom 2.5330879993723321 5.0445868446050577 29.5330106815768190 S
atom 7.5755157007474079 5.0445868446050577 30.4660927256990597 S
atom 2.5327435054308030 10.0891736892101154 30.4642808365966786 S
atom 7.5758601946889401 10.0891736892101154 29.5348225706791965 S
atom 2.5319787391217408 2.5309330668488546 32.4787511796141999 Ba
atom 7.5747509344383390 2.5136537777561969 32.4805630687165348 Ba
atom 2.5319787391217408 7.5582406223612510 32.4787511796141999 Ba
atom 7.5747509344383390 7.5755199114539238 32.4805630687165348 Ba
atom 2.5301729138562048 2.4942030166300833 37.3601663914004121 Ba
atom 7.5729451091728137 2.5503838279749749 37.3619782805028606 Ba
atom 2.5301729138562048 7.5949706725800379 37.3601663914004050 Ba
atom 7.5729451091728137 7.5387898612351325 37.3619782805028606 Ba
atom 5.0516513539224128 5.0445868446050577 34.9606747241750924 Zr
atom 10.0959934026266467 5.0445868446050577 34.9622320487458396 Zr
atom 5.0532212073100204 10.0891736892101154 34.9604201596435473 Zr
atom 10.0944235492390284 10.0891736892101154 34.9624866132774557 Zr
atom 5.0729246477405878 5.0445868446050577 39.9756149070291826 Zr
atom 10.0712733013382980 5.0445868446050577 39.9769608611134188 Zr
atom 5.0285011060216949 10.0891736892101154 39.9751489720109845 Zr
atom 10.1156968430571954 10.0891736892101154 39.9774267961315530 Zr
atom 4.5461377361329607 5.0445868446050577 32.4795211771463102 S
atom 10.6033641327437227 5.0445868446050577 32.4816049602866599 S
atom 5.5605919374271080 10.0891736892101154 32.4797930711843392 S
atom 9.5889099314495887 10.0891736892101154 32.4813330662487019 S
atom 5.5183779464989406 5.0445868446050577 37.4333404645580714 S
atom 9.6275135028893288 5.0445868446050577 37.4347101777701283 S
atom 4.5847413075727053 10.0891736892101154 37.4328982886678148 S
atom 10.5611501418155207 10.0891736892101154 37.4351523536604347 S
atom 5.0524384303811196 2.5222919644074286 34.9493837818005701 S
atom 10.0952106256977068 2.5222948801976268 34.9511956709029334 S
atom 5.0524384303811196 7.5668817248026983 34.9493837818005701 S
atom 10.0952106256977068 7.5668788090124819 34.9511956709029477 S
atom 5.0507618007766517 2.5223120166161634 39.8386031872630539 S
atom 10.0935339960932851 2.5222748279888996 39.8404150763653107 S
atom 5.0507618007766517 7.5668616725939550 39.8386031872630682 S
atom 10.0935339960932851 7.5668988612212118 39.8404150763653249 S
atom 2.5308694788711454 5.0445868446050577 35.4244916776515169 S
atom 7.5739861681292711 5.0445868446050577 34.4950334117338997 S
atom 2.5312139728126710 10.0891736892101154 34.4932215226316288 S
atom 7.5736416741877415 10.0891736892101154 35.4263035667539228 S
atom 2.5294958563751071 5.0445868446050577 39.5347901541250693 S
atom 7.5719782497974526 5.0445868446050577 40.2778523763196574 S
atom 2.5292060544808628 10.0891736892101154 40.2760404872173083 S
atom 7.5722680516917027 10.0891736892101154 39.5366020432274325 S
atom 2.5286005042577808 2.6923629427781348 42.0242299112996562 Ba
atom 7.5713726995743862 2.3522239018269220 42.0260418004020764 Ba
atom 2.5286005042577808 7.3968107464319850 42.0242299112996562 Ba
atom 7.5713726995743862 7.7369497873831925 42.0260418004020693 Ba
atom 4.7617547205601696 5.0445868446050577 42.4544095593866970 S
atom 10.3806377649189017 5.0445868446050577 42.4559858672091295 S
atom 5.3378655696023163 10.0891736892101154 42.4541739781067662 S
atom 9.8045269158767763 10.0891736892101154 42.4562214484891598 S
