#=======================================================
# FHI-aims file: sym_relax/sym_relax_RP_8_Rx0Mz_0-Ry0.in
# Created using the Atomic Simulation Environment (ASE)
# Mon Mar 17 16:14:08 2025
#=======================================================
lattice_vector 10.0341273085922627 0.0000000000000000 0.0000000000000000 
lattice_vector 0.0000000000000000 10.0841713507104185 0.0000000000000000 
lattice_vector 0.0000000000000000 0.0000000000000000 85.1784348229365804 
atom -0.1532088228366097 0.0000000000000000 0.2040526027522290 Ba
atom 5.1483414687597353 -0.0000000000000000 0.1978151563314313 Ba
atom 0.1312778144636068 5.0420856753552066 0.1978151563314313 Ba
atom 4.8638548314595278 5.0420856753552066 0.2040526027522290 Ba
atom -0.0493416502874193 0.0000000000000000 4.9038866904889060 Ba
atom 4.9154362324806069 0.0000000000000000 4.8338860222500273 Ba
atom -0.1016274218155197 5.0420856753552066 4.8338860222500273 Ba
atom 4.9677220040087118 5.0420856753552066 4.9038866904889060 Ba
atom 2.4930117318839420 2.5124959134168310 2.2547724900232637 Zr
atom 7.5100753861800760 2.5295897619383809 2.2547724900232637 Zr
atom 2.4930117318839420 7.5716754372935835 2.2547724900232637 Zr
atom 7.5100753861800760 7.5545815887720318 2.2547724900232637 Zr
atom 2.5337939289531568 2.5181687572800802 7.2951915017985112 Zr
atom 7.5508575832492948 2.5239169180751277 7.2951915017985112 Zr
atom 2.5337939289531568 7.5660025934303397 7.2951915017985112 Zr
atom 7.5508575832492948 7.5602544326352836 7.2951915017985112 Zr
atom 2.4982481389282594 2.8579942442874433 -0.2301165397129720 S
atom 7.5153117932243827 2.1840914310677637 -0.2301165397129720 S
atom 2.4982481389282594 7.2261771064229672 -0.2301165397129720 S
atom 7.5153117932243827 7.9000799196426534 -0.2301165397129720 S
atom 2.5088733141302466 2.1093618822356985 4.8121214961862400 S
atom 7.5259369684263797 2.9327237931195107 4.8121214961862400 S
atom 2.5088733141302466 7.9748094684747270 4.8121214961862400 S
atom 7.5259369684263797 7.1514475575908998 4.8121214961862400 S
atom 2.5026152449802330 0.0000000000000000 1.9818816224465718 S
atom 7.5038218270621595 -0.0000000000000000 2.7104508251040791 S
atom 2.4867581727660237 5.0420856753552066 2.7104508251040791 S
atom 7.5196788992763608 5.0420856753552066 1.9818816224465718 S
atom 2.8353717114946257 -0.0000000000000000 7.6978193423335153 S
atom 7.2647831165094789 0.0000000000000000 6.9152262209457405 S
atom 2.2477194622133378 5.0420856753552066 6.9152262209457405 S
atom 7.8524353657907646 5.0420856753552066 7.6978193423335153 S
atom -0.0126231379811716 2.5193106051955532 2.3822509531156841 S
atom 5.0044405163149470 2.5227750701596499 2.3822509531156841 S
atom -0.0126231379811716 7.5648607455148715 2.3822509531156841 S
atom 5.0044405163149470 7.5613962805507553 2.3822509531156841 S
atom 0.0232312139290795 2.2105514535733053 7.3205130738754800 S
atom 5.0402948682252013 2.8315342217818960 7.3205130738754800 S
atom 0.0232312139290795 7.8736198971370976 7.3205130738754800 S
atom 5.0402948682252013 7.2526371289285274 7.3205130738754800 S
atom 0.1819670730195757 -0.0000000000000000 9.8244029743813854 Ba
atom 5.1925417129276195 0.0000000000000000 9.8149755519328750 Ba
atom 0.1754780586314980 5.0420856753552066 9.8149755519328750 Ba
atom 5.1990307273157068 5.0420856753552066 9.8244029743813854 Ba
atom -0.1488854300982108 -0.0000000000000000 14.8112483706622378 Ba
atom 4.8759406653526174 0.0000000000000000 14.8110651042694315 Ba
atom -0.1411229889435087 5.0420856753552066 14.8110651042694315 Ba
atom 4.8681782241979024 5.0420856753552066 14.8112483706622378 Ba
atom 2.5301194731252208 2.5234240871421174 12.2994458136201601 Zr
atom 7.5471831274213468 2.5186615882130936 12.2994458136201601 Zr
atom 2.5301194731252208 7.5607472635683033 12.2994458136201601 Zr
atom 7.5471831274213468 7.5655097624973218 12.2994458136201601 Zr
atom 2.5280498031348153 2.5205821860436419 17.3058641086860661 Zr
atom 7.5451134574309533 2.5215034893115722 17.3058641086860661 Zr
atom 2.5280498031348153 7.5635891646667819 17.3058641086860661 Zr
atom 7.5451134574309533 7.5626678613988396 17.3058641086860661 Zr
atom 2.5286591325076180 2.9201405023398426 9.8062523517768927 S
atom 7.5457227868037560 2.1219451730153636 9.8062523517768927 S
atom 2.5286591325076180 7.1640308483705590 9.8062523517768927 S
atom 7.5457227868037560 7.9622261776950580 9.8062523517768927 S
atom 2.5283850179478744 2.1301631046550393 14.8065745813098637 S
atom 7.5454486722439782 2.9119225707001677 14.8065745813098637 S
atom 2.5283850179478744 7.9540082460553823 14.8065745813098637 S
atom 7.5454486722439782 7.1722487800102419 14.8065745813098637 S
atom 2.8444653607434640 0.0000000000000000 11.9254892289263204 S
atom 7.2263953587653864 0.0000000000000000 12.6962273575401099 S
atom 2.2093317044692538 5.0420856753552066 12.6962273575401099 S
atom 7.8615290150395900 5.0420856753552066 11.9254892289263204 S
atom 2.8513100834476481 -0.0000000000000000 17.6911560988537602 S
atom 7.2238587005419799 -0.0000000000000000 16.9265097045047526 S
atom 2.2067950462458485 5.0420856753552066 16.9265097045047526 S
atom 7.8683737377437835 5.0420856753552066 17.6911560988537602 S
atom 0.0203536172781924 2.1875482064571816 12.3124573690462356 S
atom 5.0374172715743226 2.8545374688980245 12.3124573690462356 S
atom 0.0203536172781924 7.8966231442532431 12.3124573690462356 S
atom 5.0374172715743226 7.2296338818123882 12.3124573690462356 S
atom 0.0198772299459005 2.1829375490487855 17.3089781114001546 S
atom 5.0369408842420222 2.8591481263064153 17.3089781114001546 S
atom 0.0198772299459005 7.9012338016616344 17.3089781114001546 S
atom 5.0369408842420222 7.2250232244039978 17.3089781114001546 S
atom 0.1910026460545619 0.0000000000000000 19.8089383309154776 Ba
atom 5.1984714013962332 0.0000000000000000 19.8089383309154776 Ba
atom 0.1814077471000970 5.0420856753552066 19.8089383309154776 Ba
atom 5.2080663003506862 5.0420856753552066 19.8089383309154776 Ba
atom -0.1488854300982108 -0.0000000000000000 24.8066282911686820 Ba
atom 4.8759406653526174 0.0000000000000000 24.8068115575614954 Ba
atom -0.1411229889435087 5.0420856753552066 24.8068115575614954 Ba
atom 4.8681782241979024 5.0420856753552066 24.8066282911686820 Ba
atom 2.5280498031348153 2.5205821860436419 22.3120125531448430 Zr
atom 7.5451134574309533 2.5215034893115722 22.3120125531448430 Zr
atom 2.5280498031348153 7.5635891646667819 22.3120125531448430 Zr
atom 7.5451134574309533 7.5626678613988396 22.3120125531448430 Zr
atom 2.5301194731252208 2.5234240871421174 27.3184308482107490 Zr
atom 7.5471831274213468 2.5186615882130936 27.3184308482107490 Zr
atom 2.5301194731252208 7.5607472635683033 27.3184308482107490 Zr
atom 7.5471831274213468 7.5655097624973218 27.3184308482107490 Zr
atom 2.5283890160959075 2.9104259535357691 19.8089383309154776 S
atom 7.5454526703920450 2.1316597218194366 19.8089383309154776 S
atom 2.5283890160959075 7.1737453971746499 19.8089383309154776 S
atom 7.5454526703920450 7.9525116288909734 19.8089383309154776 S
atom 2.5283850179478744 2.1301631046550393 24.8113020805210738 S
atom 7.5454486722439782 2.9119225707001677 24.8113020805210738 S
atom 2.5283850179478744 7.9540082460553805 24.8113020805210738 S
atom 7.5454486722439782 7.1722487800102419 24.8113020805210738 S
atom 2.8513100834476481 0.0000000000000000 21.9267205629772164 S
atom 7.2238587005419799 0.0000000000000000 22.6913669573261423 S
atom 2.2067950462458485 5.0420856753552066 22.6913669573261423 S
atom 7.8683737377437835 5.0420856753552066 21.9267205629772164 S
atom 2.8444653607434640 -0.0000000000000000 27.6923874329046704 S
atom 7.2263953587653864 0.0000000000000000 26.9216493042908347 S
atom 2.2093317044692538 5.0420856753552066 26.9216493042908347 S
atom 7.8615290150395900 5.0420856753552066 27.6923874329046704 S
atom 0.0198772299459005 2.1829375490487855 22.3088985504307900 S
atom 5.0369408842420222 2.8591481263064153 22.3088985504307900 S
atom 0.0198772299459005 7.9012338016616344 22.3088985504307900 S
atom 5.0369408842420222 7.2250232244039978 22.3088985504307900 S
atom 0.0203536172781924 2.1875482064571816 27.3054192927847801 S
atom 5.0374172715743226 2.8545374688980245 27.3054192927847801 S
atom 0.0203536172781924 7.8966231442532431 27.3054192927847801 S
atom 5.0374172715743226 7.2296338818123882 27.3054192927847801 S
atom 0.1819670730195757 -0.0000000000000000 29.7934736874495982 Ba
atom 5.1925417129276212 0.0000000000000000 29.8029011098980803 Ba
atom 0.1754780586314980 5.0420856753552066 29.8029011098980803 Ba
atom 5.1990307273157068 5.0420856753552066 29.7934736874495982 Ba
atom -0.0493416502874192 -0.0000000000000000 34.7139899713419808 Ba
atom 4.9154362324806069 -0.0000000000000000 34.7839906395809493 Ba
atom -0.1016274218155197 5.0420856753552066 34.7839906395809493 Ba
atom 4.9677220040087118 5.0420856753552066 34.7139899713419808 Ba
atom 2.5337939289531568 2.5181687572800802 32.3226851600324281 Zr
atom 7.5508575832492948 2.5239169180751277 32.3226851600324281 Zr
atom 2.5337939289531568 7.5660025934303397 32.3226851600324281 Zr
atom 7.5508575832492948 7.5602544326352836 32.3226851600324281 Zr
atom 2.4930117318839420 2.5124959134168310 37.3631041718077341 Zr
atom 7.5100753861800760 2.5295897619383809 37.3631041718077341 Zr
atom 2.4930117318839420 7.5716754372935835 37.3631041718077341 Zr
atom 7.5100753861800760 7.5545815887720318 37.3631041718077341 Zr
atom 2.5286591325076180 2.9201405023398426 29.8116243100540466 S
atom 7.5457227868037560 2.1219451730153636 29.8116243100540466 S
atom 2.5286591325076180 7.1640308483705590 29.8116243100540466 S
atom 7.5457227868037560 7.9622261776950580 29.8116243100540466 S
atom 2.5088733141302466 2.1093618822356985 34.8057551656447401 S
atom 7.5259369684263797 2.9327237931195107 34.8057551656447401 S
atom 2.5088733141302466 7.9748094684747270 34.8057551656447401 S
atom 7.5259369684263797 7.1514475575908998 34.8057551656447401 S
atom 2.8353717114946257 0.0000000000000000 31.9200573194974346 S
atom 7.2647831165094789 0.0000000000000000 32.7026504408851793 S
atom 2.2477194622133378 5.0420856753552066 32.7026504408851793 S
atom 7.8524353657907646 5.0420856753552066 31.9200573194974346 S
atom 2.5026152449802330 0.0000000000000000 37.6359950393843476 S
atom 7.5038218270621595 0.0000000000000000 36.9074258367267731 S
atom 2.4867581727660237 5.0420856753552066 36.9074258367267731 S
atom 7.5196788992763608 5.0420856753552066 37.6359950393843476 S
atom 0.0232312139290795 2.2105514535733053 32.2973635879554735 S
atom 5.0402948682252013 2.8315342217818960 32.2973635879554735 S
atom 0.0232312139290795 7.8736198971370976 32.2973635879554735 S
atom 5.0402948682252013 7.2526371289285274 32.2973635879554735 S
atom -0.0126231379811716 2.5193106051955532 37.2356257087153324 S
atom 5.0044405163149470 2.5227750701596507 37.2356257087153324 S
atom -0.0126231379811716 7.5648607455148715 37.2356257087153324 S
atom 5.0044405163149470 7.5613962805507553 37.2356257087153324 S
atom -0.1532088228366097 0.0000000000000000 39.4138240590786637 Ba
atom 5.1483414687597353 0.0000000000000000 39.4200615054995751 Ba
atom 0.1312778144636068 5.0420856753552066 39.4200615054995751 Ba
atom 4.8638548314595278 5.0420856753552066 39.4138240590786637 Ba
atom 2.4982481389282594 2.8579942442874433 39.8479932015439218 S
atom 7.5153117932243827 2.1840914310677637 39.8479932015439218 S
atom 2.4982481389282594 7.2261771064229672 39.8479932015439218 S
atom 7.5153117932243827 7.9000799196426534 39.8479932015439218 S
atom 2.4969725121055451 2.3720438554365004 42.9259327416158527 Ba
atom 7.5140361664016648 2.6700418199187057 42.9259327416158527 Ba
atom 2.4969725121055451 7.7121274952739149 42.9259327416158527 Ba
atom 7.5140361664016648 7.4141295307917101 42.9259327416158527 Ba
atom 2.4972136883697078 2.5454366549902665 47.5999387041911177 Ba
atom 7.5142773426658378 2.4966490203649321 47.5999387041911177 Ba
atom 2.4972136883697078 7.5387346957201391 47.5999387041911177 Ba
atom 7.5142773426658378 7.5875223303454771 47.5999387041911177 Ba
atom 4.9937902846782611 5.0420856753552066 44.9773272646878297 Zr
atom 10.0343440581022918 5.0420856753552066 44.9790146423650867 Zr
atom 5.0172804038061747 10.0841713507104132 44.9790146423650867 Zr
atom 10.0108539389743481 10.0841713507104132 44.9773272646878297 Zr
atom 5.0043488718118958 5.0420856753552066 49.9933870140583849 Zr
atom 10.0239567253766069 5.0420856753552066 49.9941312162006071 Zr
atom 5.0068930710805040 10.0841713507104132 49.9941312162006071 Zr
atom 10.0214125261080227 10.0841713507104132 49.9933870140583849 Zr
atom 5.3540918172059122 5.0420856753552066 42.4920671902279850 S
atom 9.6741422449209402 5.0420856753552066 42.4936304112831351 S
atom 4.6570785906247965 10.0841713507104132 42.4936304112831351 S
atom 10.3711554715020284 10.0841713507104132 42.4920671902279850 S
atom 4.5329754848617529 5.0420856753552066 47.5206875189625961 S
atom 10.4954974419353153 5.0420856753552066 47.5210551940791746 S
atom 5.4784337876392044 10.0841713507104132 47.5210551940791746 S
atom 9.5500391391578798 10.0841713507104132 47.5206875189625961 S
atom 5.0055947025660439 2.5211108203272881 45.1098799258122156 S
atom 10.0226583568622107 2.5209748550279238 45.1098799258122156 S
atom 5.0055947025660439 7.5630605303831224 45.1098799258122156 S
atom 10.0226583568622107 7.5631964956824955 45.1098799258122156 S
atom 5.0056874696131501 2.5210244266760573 50.0098641490629277 S
atom 10.0227511239093143 2.5210612486791533 50.0098641490629277 S
atom 5.0056874696131501 7.5631469240343501 50.0098641490629277 S
atom 10.0227511239093143 7.5631101020312776 50.0098641490629277 S
atom 2.4970421446634123 5.0420856753552066 44.6538672664393346 S
atom 7.5140311339929022 5.0420856753552066 45.4592026071014601 S
atom 2.4969674796967838 10.0841713507104132 45.4592026071014601 S
atom 7.5141057989595490 10.0841713507104132 44.6538672664393346 S
atom 2.4971243080711303 5.0420856753552066 50.4809748473679036 S
atom 7.5142429579546386 5.0420856753552066 49.5279327353647645 S
atom 2.4971793036585019 10.0841713507104132 49.5279327353647645 S
atom 7.5141879623672576 10.0841713507104132 50.4809748473679036 S
atom 2.4970691134001104 2.5157667103986463 52.5007310649997621 Ba
atom 7.5141327676962524 2.5263189649565652 52.5007310649997621 Ba
atom 2.4970691134001104 7.5684046403117726 52.5007310649997621 Ba
atom 7.5141327676962524 7.5578523857538524 52.5007310649997621 Ba
atom 2.4971438709783227 2.5260818112952617 57.4461157282845676 Ba
atom 7.5142075252744505 2.5160038640599462 57.4461157282845676 Ba
atom 2.4971438709783227 7.5580895394151550 57.4461157282845676 Ba
atom 7.5142075252744505 7.5681674866504700 57.4461157282845676 Ba
atom 5.0072412478894393 5.0420856753552066 54.9567806953563149 Zr
atom 10.0211548798610757 5.0420856753552066 54.9571036155271884 Zr
atom 5.0040912255649435 10.0841713507104132 54.9571036155271884 Zr
atom 10.0243049021855661 10.0841713507104132 54.9567806953563149 Zr
atom 5.0053653297705996 5.0420856753552066 59.9179842016420849 Zr
atom 10.0229793781894276 5.0420856753552066 59.9180753546090443 Zr
atom 5.0059157238933096 10.0841713507104132 59.9180753546090443 Zr
atom 10.0224289840667531 10.0841713507104132 59.9179842016420849 Zr
atom 5.5126777289388764 5.0420856753552066 52.4817177639653352 S
atom 9.5155882925785846 5.0420856753552066 52.4819270040914034 S
atom 4.4985246382824720 10.0841713507104132 52.4819270040914034 S
atom 10.5297413832349847 10.0841713507104132 52.4817177639653352 S
atom 4.4972200247053387 5.0420856753552066 57.4396195557262814 S
atom 10.5312072404068822 5.0420856753552066 57.4397030144957199 S
atom 5.5141435861107508 10.0841713507104132 57.4397030144957199 S
atom 9.5142836790014602 10.0841713507104132 57.4396195557262814 S
atom 5.0056411109192727 2.5210359145074079 54.9645299133100238 S
atom 10.0227047652153782 2.5210497608478022 54.9645299133100238 S
atom 5.0056411109192727 7.5631354362030176 54.9645299133100238 S
atom 10.0227047652153782 7.5631215898626047 54.9645299133100238 S
atom 5.0056502769550066 2.5210354188543045 59.9193943686381303 S
atom 10.0227139312511113 2.5210502565009021 59.9193943686381303 S
atom 5.0056502769550066 7.5631359318561113 59.9193943686381303 S
atom 10.0227139312511113 7.5631210942095128 59.9193943686381303 S
atom 2.4970914969310485 5.0420856753552066 54.4777153351176793 S
atom 7.5141803153668221 5.0420856753552066 55.4528213090307602 S
atom 2.4971166610706961 10.0841713507104132 55.4528213090307602 S
atom 7.5141551512271842 10.0841713507104132 54.4777153351176793 S
atom 2.4971053553652860 5.0420856753552066 60.4088009787772862 S
atom 7.5141828819117871 5.0420856753552066 59.4311412266416426 S
atom 2.4971192276156620 10.0841713507104132 59.4311412266416426 S
atom 7.5141690096614271 10.0841713507104132 60.4088009787772862 S
atom 2.4970922667254767 2.5166502804356461 62.3981557423837572 Ba
atom 7.5141559210216116 2.5254353949195703 62.3981557423837572 Ba
atom 2.4970922667254767 7.5675210702747782 62.3981557423837572 Ba
atom 7.5141559210216098 7.5587359557908478 62.3981557423837572 Ba
atom 2.4971438709783227 2.5260818112952617 67.3501957564828473 Ba
atom 7.5142075252744505 2.5160038640599462 67.3501957564828473 Ba
atom 2.4971438709783227 7.5580895394151550 67.3501957564828473 Ba
atom 7.5142075252744505 7.5681674866504700 67.3501957564828473 Ba
atom 5.0053653297705996 5.0420856753552066 64.8783272831253299 Zr
atom 10.0229793781894276 5.0420856753552066 64.8782361301583848 Zr
atom 5.0059157238933096 10.0841713507104132 64.8782361301583848 Zr
atom 10.0224289840667531 10.0841713507104132 64.8783272831253299 Zr
atom 5.0072412478894393 5.0420856753552066 69.8395307894110147 Zr
atom 10.0211548798610757 5.0420856753552066 69.8392078692403260 Zr
atom 5.0040912255649435 10.0841713507104132 69.8392078692403260 Zr
atom 10.0243049021855661 10.0841713507104132 69.8395307894110147 Zr
atom 5.5146516581084803 5.0420856753552066 62.3981557423837572 S
atom 9.5136439728692235 5.0420856753552066 62.3981557423837572 S
atom 4.4965803185731250 10.0841713507104132 62.3981557423837572 S
atom 10.5317153124046321 10.0841713507104132 62.3981557423837572 S
atom 4.4972200247053387 5.0420856753552066 67.3566919290412756 S
atom 10.5312072404068822 5.0420856753552066 67.3566084702717376 S
atom 5.5141435861107508 10.0841713507104132 67.3566084702717376 S
atom 9.5142836790014602 10.0841713507104132 67.3566919290412756 S
atom 5.0056502769550066 2.5210354188543045 64.8769171161292064 S
atom 10.0227139312511113 2.5210502565009021 64.8769171161292064 S
atom 5.0056502769550066 7.5631359318561113 64.8769171161292064 S
atom 10.0227139312511113 7.5631210942095128 64.8769171161292064 S
atom 5.0056411109192727 2.5210359145074079 69.8317815714575545 S
atom 10.0227047652153782 2.5210497608478022 69.8317815714575545 S
atom 5.0056411109192727 7.5631354362030176 69.8317815714575545 S
atom 10.0227047652153782 7.5631215898626047 69.8317815714575545 S
atom 2.4971053553652860 5.0420856753552066 64.3875105059901216 S
atom 7.5141828819117871 5.0420856753552066 65.3651702581257013 S
atom 2.4971192276156620 10.0841713507104132 65.3651702581257013 S
atom 7.5141690096614271 10.0841713507104132 64.3875105059901216 S
atom 2.4970914969310485 5.0420856753552066 70.3185961496499488 S
atom 7.5141803153668221 5.0420856753552066 69.3434901757366902 S
atom 2.4971166610706961 10.0841713507104132 69.3434901757366902 S
atom 7.5141551512271842 10.0841713507104132 70.3185961496499488 S
atom 2.4970691134001104 2.5157667103986463 72.2955804197679726 Ba
atom 7.5141327676962524 2.5263189649565652 72.2955804197679726 Ba
atom 2.4970691134001104 7.5684046403117726 72.2955804197679726 Ba
atom 7.5141327676962524 7.5578523857538524 72.2955804197679726 Ba
atom 2.4972136883697078 2.5454366549902665 77.1963727805765387 Ba
atom 7.5142773426658378 2.4966490203649321 77.1963727805765387 Ba
atom 2.4972136883697078 7.5387346957201391 77.1963727805765387 Ba
atom 7.5142773426658378 7.5875223303454771 77.1963727805765387 Ba
atom 5.0043488718118958 5.0420856753552066 74.8029244707090726 Zr
atom 10.0239567253766069 5.0420856753552066 74.8021802685668575 Zr
atom 5.0068930710805040 10.0841713507104132 74.8021802685668575 Zr
atom 10.0214125261080227 10.0841713507104132 74.8029244707090726 Zr
atom 4.9937902846782611 5.0420856753552066 79.8189842200795425 Zr
atom 10.0343440581022918 5.0420856753552066 79.8172968424024134 Zr
atom 5.0172804038061747 10.0841713507104132 79.8172968424024134 Zr
atom 10.0108539389743481 10.0841713507104132 79.8189842200795425 Zr
atom 5.5126777289388764 5.0420856753552066 72.3145937208022644 S
atom 9.5155882925785846 5.0420856753552066 72.3143844806761678 S
atom 4.4985246382824720 10.0841713507104132 72.3143844806761678 S
atom 10.5297413832349847 10.0841713507104132 72.3145937208022644 S
atom 4.5329754848617529 5.0420856753552066 77.2756239658048116 S
atom 10.4954974419353153 5.0420856753552066 77.2752562906882332 S
atom 5.4784337876392026 10.0841713507104132 77.2752562906882332 S
atom 9.5500391391578798 10.0841713507104132 77.2756239658048116 S
atom 5.0056874696131501 2.5210244266760573 74.7864473357044943 S
atom 10.0227511239093143 2.5210612486791533 74.7864473357044943 S
atom 5.0056874696131501 7.5631469240343501 74.7864473357044943 S
atom 10.0227511239093143 7.5631101020312776 74.7864473357044943 S
atom 5.0055947025660439 2.5211108203272881 79.6864315589553058 S
atom 10.0226583568622107 2.5209748550279238 79.6864315589553058 S
atom 5.0055947025660439 7.5630605303831224 79.6864315589553058 S
atom 10.0226583568622107 7.5631964956824955 79.6864315589553058 S
atom 2.4971243080711303 5.0420856753552066 74.3153366373996960 S
atom 7.5142429579546386 5.0420856753552066 75.2683787494028707 S
atom 2.4971793036585019 10.0841713507104132 75.2683787494028707 S
atom 7.5141879623672576 10.0841713507104132 74.3153366373996960 S
atom 2.4970421446634123 5.0420856753552066 80.1424442183282508 S
atom 7.5140311339929022 5.0420856753552066 79.3371088776662248 S
atom 2.4969674796967838 10.0841713507104132 79.3371088776662248 S
atom 7.5141057989595490 10.0841713507104132 80.1424442183282508 S
atom 2.4969725121055451 2.3720438554365004 81.8703787431516758 Ba
atom 7.5140361664016648 2.6700418199187057 81.8703787431516758 Ba
atom 2.4969725121055451 7.7121274952739149 81.8703787431516758 Ba
atom 7.5140361664016648 7.4141295307917101 81.8703787431516758 Ba
atom 5.3540918172059122 5.0420856753552066 82.3042442945394299 S
atom 9.6741422449209402 5.0420856753552066 82.3026810734843934 S
atom 4.6570785906247965 10.0841713507104132 82.3026810734843934 S
atom 10.3711554715020284 10.0841713507104132 82.3042442945394299 S
