#=======================================================
# FHI-aims file: sym_relax/sym_relax_RP_4_Rx1Ry20_-Rx2-Ry10.in
# Created using the Atomic Simulation Environment (ASE)
# Fri Mar 14 10:27:10 2025
#=======================================================
lattice_vector 10.0889879755418672 0.0000069427461619 0.0000000000000000 
lattice_vector 0.0000069427461619 10.0889879755418672 0.0000000000000000 
lattice_vector 0.0000000000000000 0.0000000000000000 45.2580417496990250 
atom -0.1704630724107375 -0.0000083839559390 0.2942955521690823 Ba
atom 5.2149570601816642 0.0000118553290198 0.2942955521690823 Ba
atom 0.1704665437838183 5.0445023717268747 0.2942955521690823 Ba
atom 4.8740343867332809 5.0444890751880713 0.2942955521690824 Ba
atom 0.0283103314002354 -0.0000257402122962 4.9578277223692133 Ba
atom 5.0161836563706972 0.0000292115853770 4.9578277223692133 Ba
atom -0.0283068600271546 5.0445197279832268 4.9578277223692133 Ba
atom 5.0728077905442568 5.0444717189317112 4.9578277223692133 Ba
atom 2.5222433127811730 2.4999024883792549 2.3433317665850035 Zr
atom 7.5667481341337783 2.5445984421378354 2.3433317665850035 Zr
atom 2.5222576177359315 7.5890889585356840 2.3433317665850035 Zr
atom 7.5667407719251907 7.5443999475232619 2.3433317665850035 Zr
atom 2.5222411635857052 2.5230418771926089 7.3579500757833252 Zr
atom 7.5667502833292550 2.5214590533244801 7.3579500757833252 Zr
atom 2.5222597669313895 7.5659495697223322 7.3579500757833252 Zr
atom 7.5667386227297282 7.5675393363366226 7.3579500757833252 Zr
atom 2.5222531768129750 2.8102606767529146 -0.1353135306366781 S
atom 7.5667382701019754 2.2342402537641739 -0.1353135306366781 S
atom 2.5222477537041210 7.2787307701620305 -0.1353135306366781 S
atom 7.5667506359569927 7.8547581358969278 -0.1353135306366781 S
atom 2.5222051665551093 2.0554964490682908 4.8855830631469424 S
atom 7.5667862803598354 2.9890044814487990 4.8855830631469424 S
atom 2.5222957639619832 8.0334949978466597 4.8855830631469424 S
atom 7.5667026256991337 7.0999939082122987 4.8855830631469424 S
atom 2.5222469938854664 0.0000017356865404 2.0425227351437809 S
atom 7.5667409816564017 0.0000052070596211 2.7825872360773172 S
atom 2.5222504652585509 5.0444957234574739 2.7825872360773172 S
atom 7.5667444530294805 5.0444991948305509 2.0425227351437809 S
atom 2.5222469938854664 0.0000017356865404 7.8237674298806645 S
atom 7.5667409816564017 0.0000052070596211 6.8937604598917925 S
atom 2.5222504652585509 5.0444957234574739 6.8937604598917925 S
atom 7.5667444530294805 5.0444991948305509 7.8237674298806645 S
atom 0.0000017356865404 2.5222469938854641 2.4803929731856638 S
atom 5.0444957234574748 2.5222504652585465 2.4804597702789728 S
atom 0.0000052070596212 7.5667409816563973 2.4804597702789728 S
atom 5.0444991948305562 7.5667444530294752 2.4803929731856638 S
atom 0.0000017356865404 2.5222469938854641 7.3692150331987456 S
atom 5.0444957234574748 2.5222504652585465 7.3691482024716102 S
atom 0.0000052070596212 7.5667409816563973 7.3691482024716102 S
atom 5.0444991948305562 7.5667444530294752 7.3692150331987456 S
atom -0.0088055898251902 -0.0000197339402838 9.8387047281954381 Ba
atom 5.0532995775961167 0.0000232053133645 9.8387047281954381 Ba
atom 0.0088090611982710 5.0445137217112155 9.8387047281954381 Ba
atom 5.0356918693188266 5.0444777252037261 9.8387047281954381 Ba
atom 0.0283103314002354 -0.0000257402122962 14.7195817340216362 Ba
atom 5.0161836563706972 0.0000292115853770 14.7195817340216362 Ba
atom -0.0283068600271546 5.0445197279832268 14.7195817340216362 Ba
atom 5.0728077905442568 5.0444717189317112 14.7195817340216362 Ba
atom 2.5222411635857052 2.5230418771926089 12.3194593806075492 Zr
atom 7.5667502833292550 2.5214590533244801 12.3194593806075492 Zr
atom 2.5222597669313895 7.5659495697223322 12.3194593806075492 Zr
atom 7.5667386227297282 7.5675393363366226 12.3194593806075492 Zr
atom 2.5222433127811730 2.4999024883792549 17.3340776898058664 Zr
atom 7.5667481341337783 2.5445984421378354 17.3340776898058664 Zr
atom 2.5222576177359315 7.5890889585356840 17.3340776898058664 Zr
atom 7.5667407719251907 7.5443999475232619 17.3340776898058664 Zr
atom 2.5222688733734486 3.0295332944802378 9.8387047281954381 S
atom 7.5667225735415000 2.0149676360368507 9.8387047281954381 S
atom 2.5222320571436478 7.0594581524347095 9.8387047281954381 S
atom 7.5667663325174566 8.0740307536242319 9.8387047281954381 S
atom 2.5222051665551093 2.0554964490682908 14.7918263932439391 S
atom 7.5667862803598354 2.9890044814487990 14.7918263932439391 S
atom 2.5222957639619832 8.0334949978466597 14.7918263932439391 S
atom 7.5667026256991337 7.0999939082122987 14.7918263932439391 S
atom 2.5222469938854664 0.0000017356865404 11.8536420265102098 S
atom 7.5667409816564017 0.0000052070596211 12.7836489964990587 S
atom 2.5222504652585509 5.0444957234574739 12.7836489964990587 S
atom 7.5667444530294805 5.0444991948305509 11.8536420265102098 S
atom 2.5222469938854664 0.0000017356865404 17.6348867212470850 S
atom 7.5667409816564017 0.0000052070596211 16.8948222203135607 S
atom 2.5222504652585509 5.0444957234574739 16.8948222203135607 S
atom 7.5667444530294805 5.0444991948305509 17.6348867212470850 S
atom 0.0000017356865404 2.5222469938854641 12.3081944231920897 S
atom 5.0444957234574748 2.5222504652585465 12.3082612539192500 S
atom 0.0000052070596212 7.5667409816563973 12.3082612539192500 S
atom 5.0444991948305562 7.5667444530294752 12.3081944231920897 S
atom 0.0000017356865404 2.5222469938854641 17.1970164832052141 S
atom 5.0444957234574748 2.5222504652585465 17.1969496861119211 S
atom 0.0000052070596212 7.5667409816563973 17.1969496861119211 S
atom 5.0444991948305562 7.5667444530294752 17.1970164832052141 S
atom -0.1704630724107375 -0.0000083839559390 19.3831139042217977 Ba
atom 5.2149570601816642 0.0000118553290198 19.3831139042217977 Ba
atom 0.1704665437838183 5.0445023717268747 19.3831139042217977 Ba
atom 4.8740343867332809 5.0444890751880713 19.3831139042217977 Ba
atom 2.5222531768129750 2.8102606767529146 19.8127229870275414 S
atom 7.5667382701019754 2.2342402537641739 19.8127229870275414 S
atom 2.5222477537041210 7.2787307701620305 19.8127229870275414 S
atom 7.5667506359569927 7.8547581358969278 19.8127229870275414 S
atom 2.5222571135279499 2.6927118019827438 22.9233164270185554 Ba
atom 7.5667343333870019 2.3517891285343500 22.9233164270185554 Ba
atom 2.5222438169891470 7.3962796449322035 22.9233164270185554 Ba
atom 7.5667545726719689 7.7372092611267531 22.9233164270185554 Ba
atom 2.5222744697843069 2.4939383981717662 27.5868485972187329 Ba
atom 7.5667169771306453 2.5505625323453236 27.5868485972187329 Ba
atom 2.5222264607327944 7.5950530487431731 27.5868485972187329 Ba
atom 7.5667719289283175 7.5384358573157790 27.5868485972187329 Ba
atom 5.0668437003367677 5.0445028759348487 24.9723526414344903 Zr
atom 10.0666452057222084 5.0444955137262557 24.9723526414344903 Zr
atom 5.0221546893243474 10.0889860301240972 24.9723526414344903 Zr
atom 10.1113411594807889 10.0890003350788664 24.9723526414344903 Zr
atom 5.0437043115234177 5.0445050251303103 29.9869709506328199 Zr
atom 10.0897845945355851 5.0444933645307923 29.9869709506328199 Zr
atom 5.0452940781377000 10.0889838809286356 29.9869709506328199 Zr
atom 10.0882017706674088 10.0890024842743298 29.9869709506328199 Zr
atom 4.7564855119631062 5.0444930119030502 22.4937073442128401 S
atom 10.3770033940958690 5.0445053777580524 22.4937073442128401 S
atom 5.3325128776980035 10.0889958941559144 22.4937073442128401 S
atom 9.8009829711071283 10.0889904710470546 22.4937073442128401 S
atom 5.5112497396477362 5.0445410221608986 27.5146039379964478 S
atom 9.6222391664112372 5.0444573675002022 27.5146039379964478 S
atom 4.5777486500133797 10.0889478838980491 27.5146039379964478 S
atom 10.5557471987917406 10.0890384813049199 27.5146039379964478 S
atom 5.0444957234574748 2.5222504652585465 25.1094806451284498 S
atom 10.0889897112284057 2.5222539366316261 25.1094138480351461 S
atom 5.0444991948305562 7.5667444530294752 25.1094138480351461 S
atom 10.0889931826014791 7.5667479244025566 25.1094806451284498 S
atom 5.0444957234574748 2.5222504652585465 29.9981690773210801 S
atom 10.0889897112284057 2.5222539366316261 29.9982359080482297 S
atom 5.0444991948305562 7.5667444530294752 29.9982359080482297 S
atom 10.0889931826014791 7.5667479244025566 29.9981690773210801 S
atom 2.5222504652585509 5.0444957234574739 25.4116081109268066 S
atom 7.5667444530294805 5.0444991948305509 24.6715436099932965 S
atom 2.5222539366316292 10.0889897112283915 24.6715436099932965 S
atom 7.5667479244025646 10.0889931826014738 25.4116081109268066 S
atom 2.5222504652585509 5.0444957234574739 29.5227813347412926 S
atom 7.5667444530294805 5.0444991948305509 30.4527883047301842 S
atom 2.5222539366316292 10.0889897112283915 30.4527883047301842 S
atom 7.5667479244025646 10.0889931826014738 29.5227813347412926 S
atom 2.5222684635122854 2.5310543193971955 32.4677256030449044 Ba
atom 7.5667229834026575 2.5134466111198965 32.4677256030449044 Ba
atom 2.5222324670048080 7.5579371275177474 32.4677256030449044 Ba
atom 7.5667659226563018 7.5755517785412003 32.4677256030449044 Ba
atom 2.5222744697843069 2.4939383981717662 37.3486026088711824 Ba
atom 7.5667169771306453 2.5505625323453236 37.3486026088711824 Ba
atom 2.5222264607327944 7.5950530487431731 37.3486026088711824 Ba
atom 7.5667719289283175 7.5384358573157790 37.3486026088711824 Ba
atom 5.0437043115234177 5.0445050251303103 34.9484802554570706 Zr
atom 10.0897845945355851 5.0444933645307923 34.9484802554570706 Zr
atom 5.0452940781377000 10.0889838809286356 34.9484802554570706 Zr
atom 10.0882017706674088 10.0890024842743298 34.9484802554570706 Zr
atom 5.0668437003367677 5.0445028759348487 39.9630985646553043 Zr
atom 10.0666452057222084 5.0444955137262557 39.9630985646553043 Zr
atom 5.0221546893243474 10.0889860301240972 39.9630985646553043 Zr
atom 10.1113411594807889 10.0890003350788664 39.9630985646553043 Zr
atom 4.5372128942357781 5.0444773153425730 32.4677256030449044 S
atom 10.5962760118231643 5.0445210743185305 32.4677256030449044 S
atom 5.5517854954253290 10.0890115907163782 32.4677256030449044 S
atom 9.5817103533798189 10.0889747744865819 32.4677256030449044 S
atom 5.5112497396477362 5.0445410221608986 37.4208472680934392 S
atom 9.6222391664112372 5.0444573675002022 37.4208472680934392 S
atom 4.5777486500133797 10.0889478838980491 37.4208472680934392 S
atom 10.5557471987917406 10.0890384813049199 37.4208472680934392 S
atom 5.0444957234574748 2.5222504652585465 34.9372821287687074 S
atom 10.0889897112284057 2.5222539366316261 34.9372152980416217 S
atom 5.0444991948305562 7.5667444530294752 34.9372152980416217 S
atom 10.0889931826014791 7.5667479244025566 34.9372821287687074 S
atom 5.0444957234574748 2.5222504652585465 39.8259705609614088 S
atom 10.0889897112284057 2.5222539366316261 39.8260373580546343 S
atom 5.0444991948305562 7.5667444530294752 39.8260373580546343 S
atom 10.0889931826014791 7.5667479244025566 39.8259705609614088 S
atom 2.5222504652585509 5.0444957234574739 35.4126698713486121 S
atom 7.5667444530294805 5.0444991948305509 34.4826629013597028 S
atom 2.5222539366316292 10.0889897112283915 34.4826629013597028 S
atom 7.5667479244025646 10.0889931826014738 35.4126698713486121 S
atom 2.5222504652585509 5.0444957234574739 39.5238430951630519 S
atom 7.5667444530294805 5.0444991948305509 40.2639075960965798 S
atom 2.5222539366316292 10.0889897112283915 40.2639075960965798 S
atom 7.5667479244025646 10.0889931826014738 39.5238430951630519 S
atom 2.5222571135279499 2.6927118019827438 42.0121347790712960 Ba
atom 7.5667343333870019 2.3517891285343500 42.0121347790712960 Ba
atom 2.5222438169891470 7.3962796449322035 42.0121347790712960 Ba
atom 7.5667545726719689 7.7372092611267531 42.0121347790712960 Ba
atom 4.7564855119631062 5.0444930119030502 42.4417438618770575 S
atom 10.3770033940958690 5.0445053777580524 42.4417438618770575 S
atom 5.3325128776980035 10.0889958941559144 42.4417438618770575 S
atom 9.8009829711071283 10.0889904710470546 42.4417438618770575 S
