#=======================================================
# FHI-aims file: sym_relax/sym_relax_RP_2_RxRyMz_RxRy-Mz.in
# Created using the Atomic Simulation Environment (ASE)
# Fri Mar 14 10:21:43 2025
#=======================================================
lattice_vector 10.0883895063643738 0.1462449571716134 -0.0000000000000000 
lattice_vector 0.1462449571716133 10.0883895063643720 0.0000000000000000 
lattice_vector 0.0000000000000000 0.0000000000000000 25.4318568316707285 
atom -0.0908652132812209 -0.0909233355978952 0.2763138712230955 Ba
atom 5.1351180887800769 0.1639876918670274 0.2763138712230955 Ba
atom 0.1640458141837021 5.1350599664633982 0.2763138712230955 Ba
atom 5.0264520184867685 5.0263938961700898 0.2763138712230955 Ba
atom 0.0274064280981500 0.0274578692596669 4.8907416983982213 Ba
atom 5.0167368839225110 0.0457160504876568 4.8907416983982213 Ba
atom 0.0456646093261395 5.0167883250840291 4.8907416983982213 Ba
atom 5.1447236598661377 5.1447751010276610 4.8907416983982213 Ba
atom 2.5545344967565051 2.5545126926421142 2.3530620604655561 Zr
atom 7.6069992923080454 2.6359052135972854 2.3530620604655561 Zr
atom 2.6359270177116794 7.6069774881936718 2.3530620604655561 Zr
atom 7.6718517285244952 7.6718299244101091 2.3530620604655561 Zr
atom 2.5545344967565051 2.5545126926421142 7.4284213363308691 Zr
atom 7.6069992923080454 2.6359052135972854 7.4284213363308691 Zr
atom 2.6359270177116785 7.6069774881936718 7.4284213363308691 Zr
atom 7.6718517285244952 7.6718299244101091 7.4284213363308691 Zr
atom 2.7923995580951657 2.7924046457412586 -0.1389082754204224 S
atom 7.3691073392089015 2.3980401522586323 -0.1389082754204224 S
atom 2.3980350646125324 7.3691124268550023 -0.1389082754204224 S
atom 7.9097167898631513 7.9097218775092495 -0.1389082754204224 S
atom 2.2828046257749137 2.2827754362528885 4.8907416983982213 S
atom 7.8787365486972769 2.9076350845788781 4.8907416983982213 S
atom 2.9076642741009060 7.8787073591752543 4.8907416983982213 S
atom 7.4001218575429029 7.4000926680208758 4.8907416983982213 S
atom 2.5221383981051555 0.0365513547613013 2.1965672935145153 S
atom 7.5662573837646363 0.1096762180128290 2.7014891295420016 S
atom 2.5951851091682583 5.0807484926091995 2.7014891295420016 S
atom 7.6394556298731393 5.1538685865292884 2.1965672935145153 S
atom 2.5221383981051555 0.0365513547613013 7.5849161032819099 S
atom 7.5662573837646363 0.1096762180128290 7.0799942672544303 S
atom 2.5951851091682583 5.0807484926091995 7.0799942672544303 S
atom 7.6394556298731393 5.1538685865292884 7.5849161032819099 S
atom 0.0365711238245054 2.5220563550770252 2.1965672935145153 S
atom 5.0807634923409610 2.5952546011855344 2.7014891295420016 S
atom 0.1096912177445909 7.5663268757819129 2.7014891295420016 S
atom 5.1538883555924890 7.6393735868450170 2.1965672935145153 S
atom 0.0365711238245054 2.5220563550770252 7.5849161032819099 S
atom 5.0807634923409610 2.5952546011855344 7.0799942672544303 S
atom 0.1096912177445909 7.5663268757819129 7.0799942672544303 S
atom 5.1538883555924890 7.6393735868450170 7.5849161032819099 S
atom -0.0908652132812209 -0.0909233355978952 9.5051695255733328 Ba
atom 5.1351180887800769 0.1639876918670274 9.5051695255733328 Ba
atom 0.1640458141837021 5.1350599664633982 9.5051695255733328 Ba
atom 5.0264520184867685 5.0263938961700898 9.5051695255733328 Ba
atom 2.7923995580951657 2.7924046457412586 9.9203916722168497 S
atom 7.3691073392089015 2.3980401522586323 9.9203916722168497 S
atom 2.3980350646125324 7.3691124268550023 9.9203916722168497 S
atom 7.9097167898631513 7.9097218775092495 9.9203916722168497 S
atom 2.4677352802860955 2.4677934026027724 12.9922422870584491 Ba
atom 7.6937185823473939 2.7227044300676964 12.9922422870584491 Ba
atom 2.7226463077510221 7.6937767046640690 12.9922422870584491 Ba
atom 7.5850525120540802 7.5851106343707659 12.9922422870584491 Ba
atom 2.5861164851436578 2.5860650439821424 17.6066701142335660 Ba
atom 7.5754469409680274 2.6043232252101376 17.6066701142335660 Ba
atom 2.6043746663716458 7.5753954998065067 17.6066701142335660 Ba
atom 7.7034337169116514 7.7033822757501307 17.6066701142335660 Ba
atom 5.1131713085261179 5.1131931126404950 15.0689904763009146 Zr
atom 10.1656361040776364 5.1945856335956657 15.0689904763009146 Zr
atom 5.1945638294812913 10.1656579081920366 15.0689904763009146 Zr
atom 10.2304885402941075 10.2305103444084988 15.0689904763009146 Zr
atom 5.1131713085261179 5.1131931126404950 20.1443497521662067 Zr
atom 10.1656361040776364 5.1945856335956657 20.1443497521662067 Zr
atom 5.1945638294812913 10.1656579081920366 20.1443497521662067 Zr
atom 10.2304885402941075 10.2305103444084988 20.1443497521662067 Zr
atom 5.3510632616252654 5.3510581739791601 12.5770201404149216 S
atom 9.9277710427390105 4.9566936804965280 12.5770201404149216 S
atom 4.9566987681426227 9.9277659550929123 12.5770201404149216 S
atom 10.4683804933932407 10.4683754057471408 12.5770201404149216 S
atom 4.8414340521368846 4.8414632416589134 17.6066701142335660 S
atom 10.4373659750592687 5.4663228899849035 17.6066701142335660 S
atom 5.4662937004628649 10.4373951645812788 17.6066701142335660 S
atom 9.9587512839048689 9.9587804734268950 17.6066701142335660 S
atom 5.0807149709610213 2.5952297397084978 14.9124957093498782 S
atom 10.1249854916659121 2.6683498336285862 15.4174175453773579 S
atom 5.1539132170695332 7.6394221082249558 15.4174175453773579 S
atom 10.1980322027290171 7.7125469714764820 14.9124957093498782 S
atom 5.0807149709610213 2.5952297397084978 20.3008445191172555 S
atom 10.1249854916659121 2.6683498336285862 19.7959226830897990 S
atom 5.1539132170695332 7.6394221082249558 19.7959226830897990 S
atom 10.1980322027290171 7.7125469714764820 20.3008445191172555 S
atom 2.5952099706452998 5.0807970139891481 14.9124957093498782 S
atom 7.6394071084932040 5.1538437250522584 15.4174175453773579 S
atom 2.6683348338968220 10.1249159996486124 15.4174175453773579 S
atom 7.7125272024132769 10.1981142457571199 14.9124957093498782 S
atom 2.5952099706452998 5.0807970139891481 20.3008445191172555 S
atom 7.6394071084932040 5.1538437250522584 19.7959226830897990 S
atom 2.6683348338968220 10.1249159996486124 19.7959226830897990 S
atom 7.7125272024132769 10.1981142457571199 20.3008445191172555 S
atom 2.4677352802860955 2.4677934026027724 22.2210979414087078 Ba
atom 7.6937185823473939 2.7227044300676964 22.2210979414087078 Ba
atom 2.7226463077510212 7.6937767046640690 22.2210979414087078 Ba
atom 7.5850525120540802 7.5851106343707659 22.2210979414087078 Ba
atom 5.3510632616252654 5.3510581739791601 22.6363200880522122 S
atom 9.9277710427390105 4.9566936804965280 22.6363200880522122 S
atom 4.9566987681426227 9.9277659550929123 22.6363200880522122 S
atom 10.4683804933932407 10.4683754057471408 22.6363200880522122 S
