#=======================================================
# FHI-aims file: sym_relax/sym_relax_RP_10_00Rz_000.in
# Created using the Atomic Simulation Environment (ASE)
# Mon Mar 17 17:07:32 2025
#=======================================================
lattice_vector 9.9993623199163313 -0.0000000000000004 0.0000000000000000 
lattice_vector -0.0000000000000004 9.9993623199163313 -0.0000000000000000 
lattice_vector 0.0000000000000000 -0.0000000000000000 106.7982828153682959 
atom 0.0000000000000000 -0.0000000000000000 0.1346905003614627 Ba
atom 4.9996811599581710 -0.0000000000000000 0.1346905003614627 Ba
atom 0.0000000000000000 4.9996811599581710 0.1346905003614627 Ba
atom 4.9996811599581710 4.9996811599581710 0.1346905003614627 Ba
atom 0.0000000000000000 -0.0000000000000000 4.9030426223924728 Ba
atom 4.9996811599581710 -0.0000000000000000 4.9030426223924728 Ba
atom 0.0000000000000000 4.9996811599581710 4.9030426223924728 Ba
atom 4.9996811599581710 4.9996811599581710 4.9030426223924728 Ba
atom 2.4998405799790855 2.4998405799790855 2.2766758201252073 Zr
atom 7.4995217399372640 2.4998405799790855 2.2766758201252073 Zr
atom 2.4998405799790855 7.4995217399372640 2.2766758201252073 Zr
atom 7.4995217399372640 7.4995217399372640 2.2766758201252073 Zr
atom 2.4998405799790855 2.4998405799790855 7.3933244466150567 Zr
atom 7.4995217399372640 2.4998405799790855 7.3933244466150567 Zr
atom 2.4998405799790855 7.4995217399372640 7.3933244466150567 Zr
atom 7.4995217399372640 7.4995217399372640 7.3933244466150567 Zr
atom 2.4998405799790855 2.4998405799790855 -0.2329039795630774 S
atom 7.4995217399372640 2.4998405799790855 -0.2329039795630773 S
atom 2.4998405799790855 7.4995217399372640 -0.2329039795630774 S
atom 7.4995217399372640 7.4995217399372640 -0.2329039795630774 S
atom 2.4998405799790855 2.4998405799790855 4.8833139532088374 S
atom 7.4995217399372640 2.4998405799790855 4.8833139532088374 S
atom 2.4998405799790855 7.4995217399372640 4.8833139532088374 S
atom 7.4995217399372640 7.4995217399372640 4.8833139532088374 S
atom 2.2119716326542034 -0.0000000000000000 2.4043743612127786 S
atom 7.7873906872621355 0.0000000000000000 2.4043743612127786 S
atom 2.7877095273039707 4.9996811599581710 2.4043743612127786 S
atom 7.2116527926123766 4.9996811599581710 2.4043743612127786 S
atom 3.0098919011167946 0.0000000000000000 7.4233219582746734 S
atom 6.9894704187995469 -0.0000000000000000 7.4233219582746734 S
atom 1.9897892588413801 4.9996811599581710 7.4233219582746734 S
atom 8.0095730610749722 4.9996811599581710 7.4233219582746734 S
atom 0.0000000000000000 2.7877095273039698 2.4043743612127786 S
atom 4.9996811599581710 2.2119716326542043 2.4043743612127786 S
atom -0.0000000000000000 7.2116527926123775 2.4043743612127786 S
atom 4.9996811599581710 7.7873906872621355 2.4043743612127786 S
atom -0.0000000000000000 1.9897892588413815 7.4233219582746734 S
atom 4.9996811599581710 3.0098919011167933 7.4233219582746734 S
atom 0.0000000000000000 8.0095730610749722 7.4233219582746734 S
atom 4.9996811599581710 6.9894704187995460 7.4233219582746734 S
atom 0.0000000000000000 -0.0000000000000000 9.9620845450946227 Ba
atom 4.9996811599581710 -0.0000000000000000 9.9620845450946227 Ba
atom 0.0000000000000000 4.9996811599581710 9.9620845450946227 Ba
atom 4.9996811599581710 4.9996811599581710 9.9620845450946227 Ba
atom 0.0000000000000000 -0.0000000000000000 15.0351549540279592 Ba
atom 4.9996811599581710 -0.0000000000000000 15.0351549540279592 Ba
atom 0.0000000000000000 4.9996811599581710 15.0351549540279592 Ba
atom 4.9996811599581710 4.9996811599581710 15.0351549540279592 Ba
atom 2.4998405799790855 2.4998405799790855 12.4794424282682339 Zr
atom 7.4995217399372640 2.4998405799790855 12.4794424282682339 Zr
atom 2.4998405799790855 7.4995217399372640 12.4794424282682339 Zr
atom 7.4995217399372640 7.4995217399372640 12.4794424282682339 Zr
atom 2.4998405799790855 2.4998405799790855 17.5642035088872603 Zr
atom 7.4995217399372640 2.4998405799790855 17.5642035088872603 Zr
atom 2.4998405799790855 7.4995217399372640 17.5642035088872603 Zr
atom 7.4995217399372640 7.4995217399372640 17.5642035088872603 Zr
atom 2.4998405799790855 2.4998405799790855 9.9551931643651361 S
atom 7.4995217399372640 2.4998405799790855 9.9551931643651361 S
atom 2.4998405799790855 7.4995217399372640 9.9551931643651361 S
atom 7.4995217399372640 7.4995217399372640 9.9551931643651361 S
atom 2.4998405799790855 2.4998405799790855 15.0323848374908113 S
atom 7.4995217399372640 2.4998405799790855 15.0323848374908113 S
atom 2.4998405799790855 7.4995217399372640 15.0323848374908113 S
atom 7.4995217399372640 7.4995217399372640 15.0323848374908113 S
atom 1.9967561697424403 -0.0000000000000000 12.5018973822427739 S
atom 8.0026061501739054 0.0000000000000000 12.5018973822427739 S
atom 3.0029249902157322 4.9996811599581710 12.5018973822427739 S
atom 6.9964373297006190 4.9996811599581710 12.5018973822427739 S
atom 3.0036694421110290 0.0000000000000000 17.5744896007545215 S
atom 6.9956928778053138 -0.0000000000000000 17.5744896007545286 S
atom 1.9960117178471435 4.9996811599581710 17.5744896007545286 S
atom 8.0033506020692116 4.9996811599581710 17.5744896007545215 S
atom 0.0000000000000000 3.0029249902157344 12.5018973822427739 S
atom 4.9996811599581710 1.9967561697424394 12.5018973822427739 S
atom -0.0000000000000000 6.9964373297006199 12.5018973822427739 S
atom 4.9996811599581710 8.0026061501739001 12.5018973822427739 S
atom -0.0000000000000000 1.9960117178471428 17.5744896007545215 S
atom 4.9996811599581710 3.0036694421110308 17.5744896007545286 S
atom 0.0000000000000000 8.0033506020692062 17.5744896007545286 S
atom 4.9996811599581710 6.9956928778053191 17.5744896007545215 S
atom 0.0000000000000000 -0.0000000000000000 20.1105599502056833 Ba
atom 4.9996811599581710 -0.0000000000000000 20.1105599502056833 Ba
atom 0.0000000000000000 4.9996811599581710 20.1105599502056833 Ba
atom 4.9996811599581710 4.9996811599581710 20.1105599502056833 Ba
atom 0.0000000000000000 -0.0000000000000000 25.1882742489076108 Ba
atom 4.9996811599581710 -0.0000000000000000 25.1882742489076108 Ba
atom 0.0000000000000000 4.9996811599581710 25.1882742489076108 Ba
atom 4.9996811599581710 4.9996811599581710 25.1882742489076108 Ba
atom 2.4998405799790855 2.4998405799790855 22.6470672223830078 Zr
atom 7.4995217399372640 2.4998405799790855 22.6470672223830078 Zr
atom 2.4998405799790855 7.4995217399372640 22.6470672223830078 Zr
atom 7.4995217399372640 7.4995217399372640 22.6470672223830078 Zr
atom 2.4998405799790855 2.4998405799790855 27.7294812754322102 Zr
atom 7.4995217399372640 2.4998405799790855 27.7294812754322102 Zr
atom 2.4998405799790855 7.4995217399372640 27.7294812754322102 Zr
atom 7.4995217399372640 7.4995217399372640 27.7294812754322102 Zr
atom 2.4998405799790855 2.4998405799790855 20.1102558369815192 S
atom 7.4995217399372640 2.4998405799790855 20.1102558369815192 S
atom 2.4998405799790855 7.4995217399372640 20.1102558369815192 S
atom 7.4995217399372640 7.4995217399372640 20.1102558369815192 S
atom 2.4998405799790855 2.4998405799790855 25.1882742489076108 S
atom 7.4995217399372640 2.4998405799790855 25.1882742489076108 S
atom 2.4998405799790855 7.4995217399372640 25.1882742489076108 S
atom 7.4995217399372640 7.4995217399372640 25.1882742489076108 S
atom 1.9954689907448095 -0.0000000000000000 22.6501491374170776 S
atom 8.0038933291715448 0.0000000000000000 22.6501491374170776 S
atom 3.0042121692133654 4.9996811599581710 22.6501491374170776 S
atom 6.9951501507029770 4.9996811599581710 22.6501491374170776 S
atom 3.0042121692133654 0.0000000000000000 27.7263993603981262 S
atom 6.9951501507029770 -0.0000000000000000 27.7263993603981334 S
atom 1.9954689907448095 4.9996811599581710 27.7263993603981334 S
atom 8.0038933291715448 4.9996811599581710 27.7263993603981262 S
atom 0.0000000000000000 3.0042121692133654 22.6501491374170847 S
atom 4.9996811599581710 1.9954689907448089 22.6501491374170776 S
atom -0.0000000000000000 6.9951501507029725 22.6501491374170776 S
atom 4.9996811599581710 8.0038933291715466 22.6501491374170847 S
atom -0.0000000000000000 1.9954689907448089 27.7263993603981262 S
atom 4.9996811599581710 3.0042121692133654 27.7263993603981262 S
atom 0.0000000000000000 8.0038933291715466 27.7263993603981262 S
atom 4.9996811599581710 6.9951501507029725 27.7263993603981262 S
atom 0.0000000000000000 -0.0000000000000000 30.2659885476095241 Ba
atom 4.9996811599581710 -0.0000000000000000 30.2659885476095241 Ba
atom 0.0000000000000000 4.9996811599581710 30.2659885476095241 Ba
atom 4.9996811599581710 4.9996811599581710 30.2659885476095241 Ba
atom 0.0000000000000000 -0.0000000000000000 35.3413935437872482 Ba
atom 4.9996811599581710 -0.0000000000000000 35.3413935437872482 Ba
atom 0.0000000000000000 4.9996811599581710 35.3413935437872482 Ba
atom 4.9996811599581710 4.9996811599581710 35.3413935437872482 Ba
atom 2.4998405799790855 2.4998405799790855 32.8123449889279541 Zr
atom 7.4995217399372640 2.4998405799790855 32.8123449889279541 Zr
atom 2.4998405799790855 7.4995217399372640 32.8123449889279541 Zr
atom 7.4995217399372640 7.4995217399372640 32.8123449889279541 Zr
atom 2.4998405799790855 2.4998405799790855 37.8971060695468651 Zr
atom 7.4995217399372640 2.4998405799790855 37.8971060695468651 Zr
atom 2.4998405799790855 7.4995217399372640 37.8971060695468651 Zr
atom 7.4995217399372640 7.4995217399372640 37.8971060695468651 Zr
atom 2.4998405799790855 2.4998405799790855 30.2662926608337628 S
atom 7.4995217399372640 2.4998405799790855 30.2662926608337628 S
atom 2.4998405799790855 7.4995217399372640 30.2662926608337628 S
atom 7.4995217399372640 7.4995217399372640 30.2662926608337628 S
atom 2.4998405799790855 2.4998405799790855 35.3441636603243907 S
atom 7.4995217399372640 2.4998405799790855 35.3441636603243907 S
atom 2.4998405799790855 7.4995217399372640 35.3441636603243907 S
atom 7.4995217399372640 7.4995217399372640 35.3441636603243907 S
atom 1.9960117178471435 -0.0000000000000000 32.8020588970607108 S
atom 8.0033506020692116 0.0000000000000000 32.8020588970607108 S
atom 3.0036694421110282 4.9996811599581710 32.8020588970607108 S
atom 6.9956928778053138 4.9996811599581710 32.8020588970607108 S
atom 3.0029249902157322 0.0000000000000000 37.8746511155724264 S
atom 6.9964373297006190 -0.0000000000000000 37.8746511155724264 S
atom 1.9967561697424403 4.9996811599581710 37.8746511155724264 S
atom 8.0026061501739054 4.9996811599581710 37.8746511155724264 S
atom 0.0000000000000000 3.0036694421110308 32.8020588970607108 S
atom 4.9996811599581710 1.9960117178471424 32.8020588970607108 S
atom -0.0000000000000000 6.9956928778053173 32.8020588970607108 S
atom 4.9996811599581710 8.0033506020692062 32.8020588970607108 S
atom -0.0000000000000000 1.9967561697424394 37.8746511155724264 S
atom 4.9996811599581710 3.0029249902157344 37.8746511155724264 S
atom 0.0000000000000000 8.0026061501739001 37.8746511155724264 S
atom 4.9996811599581710 6.9964373297006199 37.8746511155724264 S
atom -0.0000000000000000 -0.0000000000000000 40.4144639527206024 Ba
atom 4.9996811599581710 -0.0000000000000000 40.4144639527206024 Ba
atom 0.0000000000000000 4.9996811599581710 40.4144639527206024 Ba
atom 4.9996811599581710 4.9996811599581710 40.4144639527206024 Ba
atom 0.0000000000000000 -0.0000000000000000 45.4735058754227666 Ba
atom 4.9996811599581710 -0.0000000000000000 45.4735058754227666 Ba
atom 0.0000000000000000 4.9996811599581710 45.4735058754227666 Ba
atom 4.9996811599581710 4.9996811599581710 45.4735058754227666 Ba
atom 2.4998405799790855 2.4998405799790855 42.9832240512001462 Zr
atom 7.4995217399372640 2.4998405799790855 42.9832240512001462 Zr
atom 2.4998405799790855 7.4995217399372640 42.9832240512001462 Zr
atom 7.4995217399372640 7.4995217399372640 42.9832240512001462 Zr
atom 2.4998405799790855 2.4998405799790855 48.0998726776899517 Zr
atom 7.4995217399372640 2.4998405799790855 48.0998726776899517 Zr
atom 2.4998405799790855 7.4995217399372640 48.0998726776899517 Zr
atom 7.4995217399372640 7.4995217399372640 48.0998726776899517 Zr
atom 2.4998405799790855 2.4998405799790855 40.4213553334500872 S
atom 7.4995217399372640 2.4998405799790855 40.4213553334500872 S
atom 2.4998405799790855 7.4995217399372640 40.4213553334500872 S
atom 7.4995217399372640 7.4995217399372640 40.4213553334500872 S
atom 2.4998405799790855 2.4998405799790855 45.4932345446064517 S
atom 7.4995217399372640 2.4998405799790855 45.4932345446064517 S
atom 2.4998405799790855 7.4995217399372640 45.4932345446064517 S
atom 7.4995217399372640 7.4995217399372640 45.4932345446064517 S
atom 1.9897892588413801 -0.0000000000000000 42.9532265395405091 S
atom 8.0095730610749722 0.0000000000000000 42.9532265395405091 S
atom 3.0098919011167937 4.9996811599581710 42.9532265395405091 S
atom 6.9894704187995469 4.9996811599581710 42.9532265395405091 S
atom 2.7877095273039698 0.0000000000000000 47.9721741366024759 S
atom 7.2116527926123766 -0.0000000000000000 47.9721741366024759 S
atom 2.2119716326542034 4.9996811599581710 47.9721741366024759 S
atom 7.7873906872621355 4.9996811599581710 47.9721741366024759 S
atom 0.0000000000000000 3.0098919011167933 42.9532265395405091 S
atom 4.9996811599581710 1.9897892588413815 42.9532265395405091 S
atom -0.0000000000000000 6.9894704187995460 42.9532265395405091 S
atom 4.9996811599581710 8.0095730610749722 42.9532265395405091 S
atom -0.0000000000000000 2.2119716326542043 47.9721741366024759 S
atom 4.9996811599581710 2.7877095273039698 47.9721741366024759 S
atom 0.0000000000000000 7.7873906872621355 47.9721741366024759 S
atom 4.9996811599581710 7.2116527926123775 47.9721741366024759 S
atom 0.0000000000000000 -0.0000000000000000 50.2418579974537209 Ba
atom 4.9996811599581710 -0.0000000000000000 50.2418579974537209 Ba
atom 0.0000000000000000 4.9996811599581710 50.2418579974537209 Ba
atom 4.9996811599581710 4.9996811599581710 50.2418579974537209 Ba
atom 2.4998405799790855 2.4998405799790855 50.6094524773782979 S
atom 7.4995217399372640 2.4998405799790855 50.6094524773782979 S
atom 2.4998405799790855 7.4995217399372640 50.6094524773782979 S
atom 7.4995217399372640 7.4995217399372640 50.6094524773782979 S
atom 2.4998405799790855 2.4998405799790855 53.7446321090614916 Ba
atom 7.4995217399372640 2.4998405799790855 53.7446321090614916 Ba
atom 2.4998405799790855 7.4995217399372640 53.7446321090614916 Ba
atom 7.4995217399372640 7.4995217399372640 53.7446321090614916 Ba
atom 2.4998405799790855 2.4998405799790855 58.5574530738440941 Ba
atom 7.4995217399372640 2.4998405799790855 58.5574530738440941 Ba
atom 2.4998405799790855 7.4995217399372640 58.5574530738440941 Ba
atom 7.4995217399372640 7.4995217399372640 58.5574530738440941 Ba
atom 4.9996811599581710 4.9996811599581710 55.8158449496014128 Zr
atom 9.9993623199163419 4.9996811599581710 55.8158449496014128 Zr
atom 4.9996811599581710 9.9993623199163419 55.8158449496014128 Zr
atom 9.9993623199163419 9.9993623199163419 55.8158449496014128 Zr
atom 4.9996811599581710 4.9996811599581710 60.9064415783349631 Zr
atom 9.9993623199163419 4.9996811599581710 60.9064415783349631 Zr
atom 4.9996811599581710 9.9993623199163419 60.9064415783349631 Zr
atom 9.9993623199163419 9.9993623199163419 60.9064415783349631 Zr
atom 4.9996811599581710 4.9996811599581710 53.3088813353645037 S
atom 9.9993623199163419 4.9996811599581710 53.3088813353645037 S
atom 4.9996811599581710 9.9993623199163419 53.3088813353645037 S
atom 9.9993623199163419 9.9993623199163419 53.3088813353645037 S
atom 4.9996811599581710 4.9996811599581710 58.4010958080535119 S
atom 9.9993623199163419 4.9996811599581710 58.4010958080535119 S
atom 4.9996811599581710 9.9993623199163419 58.4010958080535119 S
atom 9.9993623199163419 9.9993623199163419 58.4010958080535119 S
atom 4.9996811599581710 2.4998423365889022 55.9245447035146412 S
atom 9.9993623199163419 2.4998388233692697 55.9245447035146412 S
atom 4.9996811599581710 7.4995199833274402 55.9245447035146412 S
atom 9.9993623199163419 7.4995234965470789 55.9245447035146412 S
atom 4.9996811599581710 2.4998405889102768 60.9323340671879592 S
atom 9.9993623199163419 2.4998405710478919 60.9323340671879592 S
atom 4.9996811599581710 7.4995217310060580 60.9323340671879592 S
atom 9.9993623199163419 7.4995217488684505 60.9323340671879592 S
atom 2.4998388233692701 4.9996811599581710 55.9245447035146412 S
atom 7.4995234965470798 4.9996811599581710 55.9245447035146412 S
atom 2.4998423365889066 9.9993623199163419 55.9245447035146412 S
atom 7.4995199833274420 9.9993623199163419 55.9245447035146412 S
atom 2.4998405710478937 4.9996811599581710 60.9323340671879592 S
atom 7.4995217488684496 4.9996811599581710 60.9323340671879592 S
atom 2.4998405889102790 9.9993623199163419 60.9323340671879592 S
atom 7.4995217310060598 9.9993623199163419 60.9323340671879592 S
atom 2.4998405799790855 2.4998405799790855 63.5168030991525541 Ba
atom 7.4995217399372640 2.4998405799790855 63.5168030991525541 Ba
atom 2.4998405799790855 7.4995217399372640 63.5168030991525541 Ba
atom 7.4995217399372640 7.4995217399372640 63.5168030991525541 Ba
atom 2.4998405799790855 2.4998405799790855 68.5265693183398241 Ba
atom 7.4995217399372640 2.4998405799790855 68.5265693183398241 Ba
atom 2.4998405799790855 7.4995217399372640 68.5265693183398241 Ba
atom 7.4995217399372640 7.4995217399372640 68.5265693183398241 Ba
atom 4.9996811599581710 4.9996811599581710 65.9630144067601805 Zr
atom 9.9993623199163419 4.9996811599581710 65.9630144067601805 Zr
atom 4.9996811599581710 9.9993623199163419 65.9630144067601805 Zr
atom 9.9993623199163419 9.9993623199163419 65.9630144067601805 Zr
atom 4.9996811599581710 4.9996811599581710 71.0143074129903482 Zr
atom 9.9993623199163419 4.9996811599581710 71.0143074129903482 Zr
atom 4.9996811599581710 9.9993623199163419 71.0143074129903482 Zr
atom 9.9993623199163419 9.9993623199163419 71.0143074129903482 Zr
atom 4.9996811599581710 4.9996811599581710 63.4471403250321515 S
atom 9.9993623199163419 4.9996811599581710 63.4471403250321515 S
atom 4.9996811599581710 9.9993623199163419 63.4471403250321515 S
atom 9.9993623199163419 9.9993623199163419 63.4471403250321515 S
atom 4.9996811599581710 4.9996811599581710 68.4931925321499762 S
atom 9.9993623199163419 4.9996811599581710 68.4931925321499762 S
atom 4.9996811599581710 9.9993623199163419 68.4931925321499762 S
atom 9.9993623199163419 9.9993623199163419 68.4931925321499762 S
atom 4.9996811599581710 2.4998405665284071 65.9741716858222986 S
atom 9.9993623199163419 2.4998405934297629 65.9741716858222986 S
atom 4.9996811599581710 7.4995217533879392 65.9741716858222986 S
atom 9.9993623199163419 7.4995217264865737 65.9741716858222986 S
atom 4.9996811599581710 2.4998405798331889 71.0172048132474316 S
atom 9.9993623199163419 2.4998405801249803 71.0172048132474316 S
atom 4.9996811599581710 7.4995217400831518 71.0172048132474316 S
atom 9.9993623199163419 7.4995217397913674 71.0172048132474316 S
atom 2.4998405934297625 4.9996811599581710 65.9741716858222986 S
atom 7.4995217264865754 4.9996811599581710 65.9741716858222986 S
atom 2.4998405665284089 9.9993623199163419 65.9741716858222986 S
atom 7.4995217533879401 9.9993623199163419 65.9741716858222986 S
atom 2.4998405801249821 4.9996811599581710 71.0172048132474316 S
atom 7.4995217397913674 4.9996811599581710 71.0172048132474316 S
atom 2.4998405798331862 9.9993623199163419 71.0172048132474316 S
atom 7.4995217400831553 9.9993623199163419 71.0172048132474316 S
atom 2.4998405799790855 2.4998405799790855 73.5529187550855710 Ba
atom 7.4995217399372640 2.4998405799790855 73.5529187550855710 Ba
atom 2.4998405799790855 7.4995217399372640 73.5529187550855710 Ba
atom 7.4995217399372640 7.4995217399372640 73.5529187550855710 Ba
atom 2.4998405799790855 2.4998405799790855 78.5874156565917303 Ba
atom 7.4995217399372640 2.4998405799790855 78.5874156565917303 Ba
atom 2.4998405799790855 7.4995217399372640 78.5874156565917303 Ba
atom 7.4995217399372640 7.4995217399372640 78.5874156565917303 Ba
atom 4.9996811599581710 4.9996811599581710 76.0632686822331010 Zr
atom 9.9993623199163419 4.9996811599581710 76.0632686822331010 Zr
atom 4.9996811599581710 9.9993623199163419 76.0632686822331010 Zr
atom 9.9993623199163419 9.9993623199163419 76.0632686822331010 Zr
atom 4.9996811599581710 4.9996811599581710 81.1115626309504449 Zr
atom 9.9993623199163419 4.9996811599581710 81.1115626309504449 Zr
atom 4.9996811599581710 9.9993623199163419 81.1115626309504449 Zr
atom 9.9993623199163419 9.9993623199163419 81.1115626309504449 Zr
atom 4.9996811599581710 4.9996811599581710 73.5400900161661895 S
atom 9.9993623199163419 4.9996811599581710 73.5400900161661895 S
atom 4.9996811599581710 9.9993623199163419 73.5400900161661895 S
atom 9.9993623199163419 9.9993623199163419 73.5400900161661895 S
atom 4.9996811599581710 4.9996811599581710 78.5874156565917303 S
atom 9.9993623199163419 4.9996811599581710 78.5874156565917303 S
atom 4.9996811599581710 9.9993623199163419 78.5874156565917303 S
atom 9.9993623199163419 9.9993623199163419 78.5874156565917303 S
atom 4.9996811599581710 2.4998405801202170 76.0637668006264533 S
atom 9.9993623199163419 2.4998405798379513 76.0637668006264533 S
atom 4.9996811599581710 7.4995217397961289 76.0637668006264533 S
atom 9.9993623199163419 7.4995217400783867 76.0637668006264533 S
atom 4.9996811599581710 2.4998405798379526 81.1110645125570784 S
atom 9.9993623199163419 2.4998405801202184 81.1110645125570784 S
atom 4.9996811599581710 7.4995217400783885 81.1110645125570784 S
atom 9.9993623199163419 7.4995217397961307 81.1110645125570784 S
atom 2.4998405798379508 4.9996811599581710 76.0637668006264533 S
atom 7.4995217400783876 4.9996811599581710 76.0637668006264533 S
atom 2.4998405801202184 9.9993623199163419 76.0637668006264533 S
atom 7.4995217397961298 9.9993623199163419 76.0637668006264533 S
atom 2.4998405801202184 4.9996811599581710 81.1110645125570784 S
atom 7.4995217397961280 4.9996811599581710 81.1110645125570784 S
atom 2.4998405798379499 9.9993623199163419 81.1110645125570784 S
atom 7.4995217400783876 9.9993623199163419 81.1110645125570784 S
atom 2.4998405799790855 2.4998405799790855 83.6219125580980318 Ba
atom 7.4995217399372640 2.4998405799790855 83.6219125580980318 Ba
atom 2.4998405799790855 7.4995217399372640 83.6219125580980318 Ba
atom 7.4995217399372640 7.4995217399372640 83.6219125580980318 Ba
atom 2.4998405799790855 2.4998405799790855 88.6482619948435087 Ba
atom 7.4995217399372640 2.4998405799790855 88.6482619948435087 Ba
atom 2.4998405799790855 7.4995217399372640 88.6482619948435087 Ba
atom 7.4995217399372640 7.4995217399372640 88.6482619948435087 Ba
atom 4.9996811599581710 4.9996811599581710 86.1605239001929846 Zr
atom 9.9993623199163419 4.9996811599581710 86.1605239001929846 Zr
atom 4.9996811599581710 9.9993623199163419 86.1605239001929846 Zr
atom 9.9993623199163419 9.9993623199163419 86.1605239001929846 Zr
atom 4.9996811599581710 4.9996811599581710 91.2118169064233371 Zr
atom 9.9993623199163419 4.9996811599581710 91.2118169064233371 Zr
atom 4.9996811599581710 9.9993623199163419 91.2118169064233371 Zr
atom 9.9993623199163419 9.9993623199163419 91.2118169064233371 Zr
atom 4.9996811599581710 4.9996811599581710 83.6347412970174133 S
atom 9.9993623199163419 4.9996811599581710 83.6347412970174133 S
atom 4.9996811599581710 9.9993623199163419 83.6347412970174133 S
atom 9.9993623199163419 9.9993623199163419 83.6347412970174133 S
atom 4.9996811599581710 4.9996811599581710 88.6816387810334845 S
atom 9.9993623199163419 4.9996811599581710 88.6816387810334845 S
atom 4.9996811599581710 9.9993623199163419 88.6816387810334845 S
atom 9.9993623199163419 9.9993623199163419 88.6816387810334845 S
atom 4.9996811599581710 2.4998405801249821 86.1576264999359864 S
atom 9.9993623199163419 2.4998405798331906 86.1576264999359864 S
atom 4.9996811599581710 7.4995217397913709 86.1576264999359864 S
atom 9.9993623199163419 7.4995217400831553 86.1576264999359864 S
atom 4.9996811599581710 2.4998405934297629 91.2006596273612189 S
atom 9.9993623199163419 2.4998405665284071 91.2006596273612189 S
atom 4.9996811599581710 7.4995217264865772 91.2006596273612189 S
atom 9.9993623199163419 7.4995217533879428 91.2006596273612189 S
atom 2.4998405798331871 4.9996811599581710 86.1576264999359864 S
atom 7.4995217400831553 4.9996811599581710 86.1576264999359864 S
atom 2.4998405801249834 9.9993623199163419 86.1576264999359864 S
atom 7.4995217397913674 9.9993623199163419 86.1576264999359864 S
atom 2.4998405665284062 4.9996811599581710 91.2006596273612189 S
atom 7.4995217533879401 4.9996811599581710 91.2006596273612189 S
atom 2.4998405934297625 9.9993623199163419 91.2006596273612189 S
atom 7.4995217264865737 9.9993623199163419 91.2006596273612189 S
atom 2.4998405799790855 2.4998405799790855 93.6580282140309208 Ba
atom 7.4995217399372640 2.4998405799790855 93.6580282140309208 Ba
atom 2.4998405799790855 7.4995217399372640 93.6580282140309208 Ba
atom 7.4995217399372640 7.4995217399372640 93.6580282140309208 Ba
atom 2.4998405799790855 2.4998405799790855 98.6173782393394305 Ba
atom 7.4995217399372640 2.4998405799790855 98.6173782393394305 Ba
atom 2.4998405799790855 7.4995217399372640 98.6173782393394305 Ba
atom 7.4995217399372640 7.4995217399372640 98.6173782393394305 Ba
atom 4.9996811599581710 4.9996811599581710 96.2683897348485544 Zr
atom 9.9993623199163419 4.9996811599581710 96.2683897348485544 Zr
atom 4.9996811599581710 9.9993623199163419 96.2683897348485544 Zr
atom 9.9993623199163419 9.9993623199163419 96.2683897348485544 Zr
atom 4.9996811599581710 4.9996811599581710 101.3589863635819626 Zr
atom 9.9993623199163419 4.9996811599581710 101.3589863635819626 Zr
atom 4.9996811599581710 9.9993623199163419 101.3589863635819626 Zr
atom 9.9993623199163419 9.9993623199163419 101.3589863635819626 Zr
atom 4.9996811599581710 4.9996811599581710 93.7276909881512950 S
atom 9.9993623199163419 4.9996811599581710 93.7276909881512950 S
atom 4.9996811599581710 9.9993623199163419 93.7276909881512950 S
atom 9.9993623199163419 9.9993623199163419 93.7276909881512950 S
atom 4.9996811599581710 4.9996811599581710 98.7737355051300909 S
atom 9.9993623199163419 4.9996811599581710 98.7737355051300909 S
atom 4.9996811599581710 9.9993623199163419 98.7737355051300909 S
atom 9.9993623199163419 9.9993623199163419 98.7737355051300909 S
atom 4.9996811599581710 2.4998405710478968 96.2424972459955370 S
atom 9.9993623199163419 2.4998405889102817 96.2424972459955370 S
atom 4.9996811599581710 7.4995217488684531 96.2424972459955370 S
atom 9.9993623199163419 7.4995217310060607 96.2424972459955370 S
atom 4.9996811599581710 2.4998388233692723 101.2502866096687058 S
atom 9.9993623199163419 2.4998423365889044 101.2502866096687058 S
atom 4.9996811599581710 7.4995234965470807 101.2502866096687058 S
atom 9.9993623199163419 7.4995199833274420 101.2502866096687058 S
atom 2.4998405889102790 4.9996811599581710 96.2424972459955370 S
atom 7.4995217310060625 4.9996811599581710 96.2424972459955370 S
atom 2.4998405710478928 9.9993623199163419 96.2424972459955370 S
atom 7.4995217488684514 9.9993623199163419 96.2424972459955370 S
atom 2.4998423365889040 4.9996811599581710 101.2502866096687058 S
atom 7.4995199833274420 4.9996811599581710 101.2502866096687058 S
atom 2.4998388233692701 9.9993623199163419 101.2502866096687058 S
atom 7.4995234965470781 9.9993623199163419 101.2502866096687058 S
atom 2.4998405799790855 2.4998405799790855 103.4301992041219904 Ba
atom 7.4995217399372640 2.4998405799790855 103.4301992041219904 Ba
atom 2.4998405799790855 7.4995217399372640 103.4301992041219904 Ba
atom 7.4995217399372640 7.4995217399372640 103.4301992041219904 Ba
atom 4.9996811599581710 4.9996811599581710 103.8659499778187296 S
atom 9.9993623199163419 4.9996811599581710 103.8659499778187296 S
atom 4.9996811599581710 9.9993623199163419 103.8659499778187296 S
atom 9.9993623199163419 9.9993623199163419 103.8659499778187296 S
