#=======================================================
# FHI-aims file: sym_relax/sym_relax_RP_10_RxRyRz_RxRy-Rz.in
# Created using the Atomic Simulation Environment (ASE)
# Mon Mar 17 18:38:26 2025
#=======================================================
lattice_vector 9.9360326159936605 -0.0057344661298467 -0.0000000000000000 
lattice_vector -0.0057344661298470 9.9360326159936960 0.0000000000000000 
lattice_vector -0.0000000000000000 0.0000000000000000 107.4670788910742374 
atom 0.0778327572537958 -0.1127868588161431 0.1839672752927664 Ba
atom 5.0808031668129763 -0.0806999903187198 0.1839672752927664 Ba
atom 0.1099196257512194 4.8901835507430667 0.1839672752927664 Ba
atom 5.0429818321857054 4.8523622161157824 0.1839672752927664 Ba
atom -0.2609772470422217 0.1978765393301476 5.0243281469812562 Ba
atom 4.7701397686666960 0.2581100139772989 5.0243281469812562 Ba
atom -0.2007437723950705 5.2289935550390858 5.0243281469812562 Ba
atom 4.7041718278896827 5.1630256142620832 5.0243281469812562 Ba
atom 2.4646594815325065 2.5120145678311951 2.3990042838595835 Zr
atom 7.4211508150975520 2.4976223603344847 2.3990042838595835 Zr
atom 2.4502672740357911 7.4685059013962629 2.3990042838595835 Zr
atom 7.4298085564644243 7.4771636427631307 2.3990042838595835 Zr
atom 2.4055613609210176 2.5231564307542618 7.4967843756198738 Zr
atom 7.4100089521744810 2.5567204809459767 7.4967843756198738 Zr
atom 2.4391254111127392 7.5276040220077576 7.4967843756198738 Zr
atom 7.3707104358529092 7.4883055056862080 7.4967843756198738 Zr
atom 2.6157538317157427 2.7278801994166071 -0.1204341707892431 S
atom 7.2052851835121343 2.3465280101512445 -0.1204341707892430 S
atom 2.2344016424503845 7.3174115512130182 -0.1204341707892430 S
atom 7.5809029066476592 7.6930292743485440 -0.1204341707892430 S
atom 2.2395662772615044 2.2915495088651956 4.9826978151367562 S
atom 7.6416158740635503 2.7227155646054984 4.9826978151367562 S
atom 2.6707323330018022 7.6935991056672792 4.9826978151367562 S
atom 7.2047153521934062 7.2566985837971041 4.9826978151367562 S
atom 2.7669969232142320 0.0337602322581545 2.2661855269806961 S
atom 7.0563195634544451 0.0339640900166578 2.7370163061753749 S
atom 2.0854360223926953 5.0048476310784311 2.7370163061753749 S
atom 7.7321459981461365 4.9989093071900852 2.2661855269806961 S
atom 2.9357465745393840 0.0454651110984577 7.7102313674247922 S
atom 6.9522168880002679 0.0433506339323444 7.3346861456019248 S
atom 1.9813333469385062 5.0142341749941250 7.3346861456019248 S
atom 7.9008956494712965 5.0106141860303879 7.7102313674247922 S
atom -0.0366274653230780 2.2010193847826058 2.2661855269806961 S
atom 4.9283177518503258 2.8768458194743083 2.7370163061753749 S
atom -0.0425657892114293 7.8477293605360945 2.7370163061753749 S
atom 4.9285216096088273 7.1661684597145499 2.2661855269806961 S
atom -0.0483323441633812 2.0322697334574515 7.7102313674247922 S
atom 4.9189312079346452 2.9809484949284912 7.3346861456019248 S
atom -0.0519523331271154 7.9518320359902663 7.3346861456019248 S
atom 4.9168167307685309 6.9974188083893889 7.7102313674247922 S
atom 0.0028858152685524 -0.0783424717369744 10.0601492165629995 Ba
atom 5.0463587797338043 -0.0057530483334762 10.0601492165629995 Ba
atom 0.0754752386720507 4.9651304927283073 10.0601492165629995 Ba
atom 4.9680348902004585 4.8868066031949553 10.0601492165629995 Ba
atom 0.0485672837570309 0.0079820393848315 15.1496083919002036 Ba
atom 4.9600342686119934 -0.0514345168219546 15.1496083919002036 Ba
atom -0.0108492724497547 4.9194490242398192 15.1496083919002036 Ba
atom 5.0137163586889439 4.9731311143167654 15.1496083919002036 Ba
atom 2.4900899577164823 2.4867255161883204 12.5901970693999470 Zr
atom 7.4464398667404188 2.4721918841505088 12.5901970693999470 Zr
atom 2.4755563256786726 7.4430754252122879 12.5901970693999470 Zr
atom 7.4552390326483948 7.4518745911202497 12.5901970693999470 Zr
atom 2.4838071088179747 2.4813991030493683 17.6921729769390446 Zr
atom 7.4517662798793882 2.4784747330490275 17.6921729769390446 Zr
atom 2.4808827388176322 7.4493582741108160 17.6921729769390446 Zr
atom 7.4489561837498686 7.4465481779812945 17.6921729769390446 Zr
atom 2.5651564089625984 2.6521311631763607 10.0561584074021404 S
atom 7.2810342197523967 2.3971254329043923 10.0561584074021404 S
atom 2.3101506786906283 7.3680089739661696 10.0561584074021404 S
atom 7.5303054838945185 7.6172802381082958 10.0561584074021404 S
atom 2.4193809748756587 2.4515810655452857 15.1490879082524419 S
atom 7.4815843173834660 2.5429008669913373 15.1490879082524419 S
atom 2.5107007763217064 7.5137844080531142 15.1490879082524419 S
atom 7.3845300498075614 7.4167301404772212 15.1490879082524419 S
atom 1.9832271204762120 0.0041583257204591 12.5449477043666153 S
atom 7.9821109258243501 0.0024622141117081 12.6686241676399014 S
atom 3.0112273847625883 4.9733457551734865 12.6686241676399014 S
atom 6.9483761954081231 4.9693074006523910 12.5449477043666153 S
atom 3.0066821928049348 0.0016787418698803 17.7244394193498209 S
atom 6.9286840055683507 -0.0013914732529912 17.6759220186695174 S
atom 1.9578004645065816 4.9694920678087833 17.6759220186695174 S
atom 7.9718312677368557 4.9668278168018061 17.7244394193498209 S
atom -0.0070255587853824 2.9847891875206338 12.5449477043666153 S
atom 4.9598196277552775 1.9510544571044057 12.6686241676399014 S
atom -0.0110639133064798 6.9219379981661753 12.6686241676399014 S
atom 4.9581235161465296 7.9499382624525747 12.5449477043666153 S
atom -0.0045459749348038 1.9613341151919090 17.7244394193498209 S
atom 4.9636733151199781 3.0044813773604089 17.6759220186695174 S
atom -0.0072102259417799 7.9753649184221924 17.6759220186695174 S
atom 4.9606030999970994 6.9264831901238360 17.7244394193498209 S
atom -0.0078084816423447 -0.0149584384047275 20.2472094264066875 Ba
atom 4.9829747464015552 0.0049412485774211 20.2472094264066875 Ba
atom 0.0120912053398043 4.9758247896391969 20.2472094264066875 Ba
atom 4.9573405932895644 4.9501906365271990 20.2472094264066875 Ba
atom 0.0090343564570066 0.0090343564570066 25.3460091724231376 Ba
atom 4.9589819515398226 -0.0119015895219302 25.3460091724231376 Ba
atom -0.0119015895219298 4.9589819515398430 25.3460091724231376 Ba
atom 4.9741834313889122 4.9741834313889468 25.3460091724231376 Ba
atom 2.4825328343976265 2.4829433098620401 22.7947818642407611 Zr
atom 7.4502220730667048 2.4797490074693775 22.7947818642407611 Zr
atom 2.4793385320049532 7.4506325485311526 22.7947818642407611 Zr
atom 7.4476819093295479 7.4480923847939762 22.7947818642407611 Zr
atom 2.4829433098620308 2.4825328343976323 27.8972364806055637 Zr
atom 7.4506325485311136 2.4793385320049666 27.8972364806055637 Zr
atom 2.4797490074693642 7.4502220730667332 27.8972364806055637 Zr
atom 7.4480923847939460 7.4476819093295621 27.8972364806055637 Zr
atom 2.5004572058939094 2.5107623908768182 20.2471646550374338 S
atom 7.4224029920519277 2.4618246359730835 20.2471646550374338 S
atom 2.4515194509901801 7.4327081770348560 20.2471646550374338 S
atom 7.4656062808258197 7.4759114658087560 20.2471646550374338 S
atom 2.4646625307708749 2.4646625307708776 25.3460091724231376 S
atom 7.4685028521578678 2.4976193110961300 25.3460091724231376 S
atom 2.4976193110961216 7.4685028521579060 25.3460091724231376 S
atom 7.4298116057027785 7.4298116057028132 25.3460091724231376 S
atom 1.9602969029988284 -0.0005349294061323 22.7819313048079799 S
atom 7.9756073758312498 -0.0032862227839638 22.8125564573533417 S
atom 3.0047238347694925 4.9675973182778117 22.8125564573533417 S
atom 6.9254459779307425 4.9646141455258022 22.7819313048079799 S
atom 3.0077194049980109 -0.0023323036587913 27.9100870400383272 S
atom 6.9284415481592543 -0.0053154764108073 27.8794618874929832 S
atom 1.9575580070974998 4.9655680646509746 27.8794618874929832 S
atom 7.9728684799299341 4.9628167712731370 27.9100870400383272 S
atom -0.0023323036587911 3.0077194049980189 22.7819313048079799 S
atom 4.9655680646509435 1.9575580070975063 22.8125564573533417 S
atom -0.0053154764108077 6.9284415481592871 22.8125564573533417 S
atom 4.9628167712731130 7.9728684799299483 22.7819313048079799 S
atom -0.0005349294061321 1.9602969029988373 27.9100870400383272 S
atom 4.9675973182777975 3.0047238347695053 27.8794618874929832 S
atom -0.0032862227839637 7.9756073758312667 27.8794618874929832 S
atom 4.9646141455257755 6.9254459779307611 27.9100870400383272 S
atom -0.0149584384047275 -0.0078084816423448 30.4448089184396125 Ba
atom 4.9758247896391827 0.0120912053398040 30.4448089184396125 Ba
atom 0.0049412485774216 4.9829747464015917 30.4448089184396125 Ba
atom 4.9501906365271804 4.9573405932895866 30.4448089184396125 Ba
atom 0.0079820393848314 0.0485672837570310 35.5424099529461515 Ba
atom 4.9194490242397944 -0.0108492724497550 35.5424099529461515 Ba
atom -0.0514345168219540 4.9600342686120262 35.5424099529461515 Ba
atom 4.9731311143167511 5.0137163586889670 35.5424099529461515 Ba
atom 2.4813991030493563 2.4838071088179805 32.9998453679072554 Zr
atom 7.4493582741107858 2.4808827388176438 32.9998453679072554 Zr
atom 2.4784747330490187 7.4517662798794246 32.9998453679072554 Zr
atom 7.4465481779812626 7.4489561837498970 32.9998453679072554 Zr
atom 2.4867255161883137 2.4900899577164965 38.1018212754465324 Zr
atom 7.4430754252122657 2.4755563256786877 38.1018212754465324 Zr
atom 2.4721918841504991 7.4464398667404561 38.1018212754465324 Zr
atom 7.4518745911202195 7.4552390326484224 38.1018212754465324 Zr
atom 2.5107623908768155 2.5004572058939178 30.4448536898089053 S
atom 7.4327081770348347 2.4515194509901836 30.4448536898089053 S
atom 2.4618246359730800 7.4224029920519596 30.4448536898089053 S
atom 7.4759114658087293 7.4656062808258428 30.4448536898089053 S
atom 2.4515810655452812 2.4193809748756681 35.5429304365938847 S
atom 7.5137844080530840 2.5107007763217193 35.5429304365938847 S
atom 2.5429008669913311 7.4815843173834979 35.5429304365938847 S
atom 7.4167301404771946 7.3845300498075970 35.5429304365938847 S
atom 1.9613341151918979 -0.0045459749348039 32.9675789254964968 S
atom 7.9753649184221560 -0.0072102259417799 33.0160963261768288 S
atom 3.0044813773603996 4.9636733151199950 33.0160963261768288 S
atom 6.9264831901238146 4.9606030999971322 32.9675789254964968 S
atom 2.9847891875206192 -0.0070255587853827 38.1470706404797184 S
atom 6.9219379981661566 -0.0110639133064793 38.0233941772064696 S
atom 1.9510544571043971 4.9598196277552873 38.0233941772064696 S
atom 7.9499382624525525 4.9581235161465447 38.1470706404797184 S
atom 0.0016787418698806 3.0066821928049436 32.9675789254964968 S
atom 4.9694920678087655 1.9578004645065910 33.0160963261768288 S
atom -0.0013914732529916 6.9286840055683792 33.0160963261768288 S
atom 4.9668278168017919 7.9718312677368717 32.9675789254964968 S
atom 0.0041583257204593 1.9832271204762224 38.1470706404797184 S
atom 4.9733457551734803 3.0112273847626017 38.0233941772064696 S
atom 0.0024622141117082 7.9821109258243892 38.0233941772064696 S
atom 4.9693074006523741 6.9483761954081471 38.1470706404797184 S
atom -0.0783424717369740 0.0028858152685525 40.6318691282834195 Ba
atom 4.9651304927282869 0.0754752386720507 40.6318691282834195 Ba
atom -0.0057530483334757 5.0463587797338265 40.6318691282834195 Ba
atom 4.8868066031949393 4.9680348902004807 40.6318691282834195 Ba
atom 0.1978765393301471 -0.2609772470422225 45.6676901978651273 Ba
atom 5.2289935550390663 -0.2007437723950713 45.6676901978651273 Ba
atom 0.2581100139772989 4.7701397686667084 45.6676901978651273 Ba
atom 5.1630256142620397 4.7041718278897013 45.6676901978651273 Ba
atom 2.5231564307542507 2.4055613609210318 43.1952339692264289 Zr
atom 7.5276040220077194 2.4391254111127445 43.1952339692264289 Zr
atom 2.5567204809459687 7.4100089521745183 43.1952339692264289 Zr
atom 7.4883055056861689 7.3707104358529527 43.1952339692264289 Zr
atom 2.5120145678311951 2.4646594815325167 48.2930140609868346 Zr
atom 7.4685059013962425 2.4502672740358076 48.2930140609868346 Zr
atom 2.4976223603344843 7.4211508150975867 48.2930140609868346 Zr
atom 7.4771636427631156 7.4298085564644518 48.2930140609868346 Zr
atom 2.6521311631763540 2.5651564089626122 40.6358599374442520 S
atom 7.3680089739661483 2.3101506786906385 40.6358599374442520 S
atom 2.3971254329043901 7.2810342197524198 40.6358599374442520 S
atom 7.6172802381082567 7.5303054838945336 40.6358599374442520 S
atom 2.2915495088651805 2.2395662772615137 45.7093205297095579 S
atom 7.6935991056672561 2.6707323330018133 45.7093205297095579 S
atom 2.7227155646054872 7.6416158740636035 45.7093205297095579 S
atom 7.2566985837970703 7.2047153521934328 45.7093205297095579 S
atom 2.0322697334574475 -0.0483323441633812 42.9817869774215140 S
atom 7.9518320359902344 -0.0519523331271156 43.3573321992443326 S
atom 2.9809484949284792 4.9189312079346585 43.3573321992443326 S
atom 6.9974188083893534 4.9168167307685575 42.9817869774215140 S
atom 2.2010193847826049 -0.0366274653230782 48.4258328178655972 S
atom 7.8477293605360563 -0.0425657892114289 47.9550020386709264 S
atom 2.8768458194743003 4.9283177518503560 47.9550020386709264 S
atom 7.1661684597145214 4.9285216096088513 48.4258328178655972 S
atom 0.0454651110984578 2.9357465745394022 42.9817869774215140 S
atom 5.0142341749941046 1.9813333469385166 43.3573321992443326 S
atom 0.0433506339323438 6.9522168880003026 43.3573321992443326 S
atom 5.0106141860303515 7.9008956494713232 42.9817869774215140 S
atom 0.0337602322581544 2.7669969232142457 48.4258328178655972 S
atom 5.0048476310784222 2.0854360223927002 47.9550020386709264 S
atom 0.0339640900166581 7.0563195634544664 47.9550020386709264 S
atom 4.9989093071900808 7.7321459981461613 48.4258328178655972 S
atom -0.1127868588161428 0.0778327572537962 50.5080510695535310 Ba
atom 4.8901835507430338 0.1099196257512194 50.5080510695535310 Ba
atom -0.0806999903187193 5.0808031668129949 50.5080510695535310 Ba
atom 4.8523622161157709 5.0429818321857223 50.5080510695535310 Ba
atom 2.7278801994166004 2.6157538317157631 50.8124525156355276 S
atom 7.3174115512130040 2.2344016424503979 50.8124525156355276 S
atom 2.3465280101512449 7.2052851835121636 50.8124525156355276 S
atom 7.6930292743485200 7.5809029066476841 50.8124525156355276 S
atom 2.3697876786498084 2.5604072947197589 53.9175067208297989 Ba
atom 7.3727580882089958 2.5924941632171890 53.9175067208297989 Ba
atom 2.4018745471472354 7.5633777042789614 53.9175067208297989 Ba
atom 7.3349367535817187 7.5255563696516878 53.9175067208297989 Ba
atom 2.6804510767961069 2.2215972904237451 58.7578675925182381 Ba
atom 7.7115680925050052 2.2818307650708944 58.7578675925182381 Ba
atom 2.7406845514432572 7.2527143061326704 58.7578675925182381 Ba
atom 7.6456001517280070 7.1867463653556687 58.7578675925182381 Ba
atom 4.9945891052971509 4.9472340189984880 56.1325437293966445 Zr
atom 9.9510804388622098 4.9328418115017723 56.1325437293966445 Zr
atom 4.9801968978004272 9.9037253525635531 56.1325437293966445 Zr
atom 9.9597381802290279 9.9123830939304067 56.1325437293966445 Zr
atom 5.0057309682202220 4.8881358983869916 61.2303238211570076 Zr
atom 10.0101785594737205 4.9216999485787039 61.2303238211570076 Zr
atom 5.0392950184119325 9.8925834896404936 61.2303238211570076 Zr
atom 9.9708800431521389 9.8532849733189085 61.2303238211570076 Zr
atom 5.2104547368825624 5.0983283691817247 53.6131052747478591 S
atom 9.7999860886789705 4.7169761799163474 53.6131052747478591 S
atom 4.8291025476171825 9.6878597209781443 53.6131052747478591 S
atom 10.1756038118145007 10.0634774441136514 53.6131052747478591 S
atom 4.7741240463311252 4.7221408147274655 58.7162372606738785 S
atom 10.1761736431331844 5.1533068704677909 58.7162372606738785 S
atom 5.2052901020714470 10.1241904115295629 58.7162372606738785 S
atom 9.7392731212630430 9.6872898896594108 58.7162372606738785 S
atom 4.6835939222485719 2.4459470721428880 55.9997249725177042 S
atom 10.3303038980019846 2.4400087482545403 56.4705557517125385 S
atom 5.3594203569402543 7.4108922893163118 56.4705557517125385 S
atom 9.6487429971804435 7.4110961470748133 55.9997249725177042 S
atom 4.5148442709233967 2.4342421933025840 61.4437708129619011 S
atom 10.4344065734562008 2.4306222043388503 61.0682255911390044 S
atom 5.4635230323944244 7.4015057454006206 61.0682255911390044 S
atom 9.4799933458552879 7.3993912682345160 61.4437708129619011 S
atom 2.5163347697241072 5.2495714606802020 55.9997249725177042 S
atom 7.4874221685443665 4.5680105598586564 56.4705557517125385 S
atom 2.5165386274826127 9.5388941009204284 56.4705557517125385 S
atom 7.4814838446560215 10.2147205356121731 55.9997249725177042 S
atom 2.5280396485644152 5.4183211120053558 61.4437708129619011 S
atom 7.4968087124600720 4.4639078844044837 61.0682255911390044 S
atom 2.5259251713983089 9.4347914254662335 61.0682255911390044 S
atom 7.4931887234963295 10.3834701869373127 61.4437708129619011 S
atom 2.4042320657289808 2.4854603527345209 63.7936886621000383 Ba
atom 7.4477050301942436 2.5580497761380192 63.7936886621000383 Ba
atom 2.4768214891324805 7.5289333171997921 63.7936886621000383 Ba
atom 7.3693811406609004 7.4506094276664445 63.7936886621000383 Ba
atom 2.4905565768507838 2.5311418212229952 68.8831478374372921 Ba
atom 7.4020235617057528 2.4717252650162043 68.8831478374372921 Ba
atom 2.4311400206440075 7.4426088060779847 68.8831478374372921 Ba
atom 7.4557056517827016 7.4962908961549335 68.8831478374372921 Ba
atom 4.9693000536542673 4.9726644951824639 66.3237365149368969 Zr
atom 9.9256499626782198 4.9581308631446595 66.3237365149368969 Zr
atom 4.9547664216164549 9.9290144042064270 66.3237365149368969 Zr
atom 9.9344491285861789 9.9378135701144057 66.3237365149368969 Zr
atom 4.9639736405153148 4.9663816462839385 71.4257124224759963 Zr
atom 9.9319328115767078 4.9634572762836084 71.4257124224759963 Zr
atom 4.9610492705149767 9.9343408173453689 71.4257124224759963 Zr
atom 9.9291227154472317 9.9315307212158839 71.4257124224759963 Zr
atom 5.1347057006423293 5.0477309464285751 63.7896978529391347 S
atom 9.8505835114320774 4.7927252161566054 63.7896978529391347 S
atom 4.8796999703703534 9.7636087572183623 63.7896978529391347 S
atom 10.0998547755742383 10.0128800213605107 63.7896978529391347 S
atom 4.9341556030112308 4.9019555123416305 68.8826273537894451 S
atom 9.9963589455190576 4.9932753137876897 68.8826273537894451 S
atom 5.0254754044572865 9.9641588548494688 68.8826273537894451 S
atom 9.8993046779431459 9.8671045872735768 68.8826273537894451 S
atom 5.4673637249865772 2.4755489786805764 66.2784871499036825 S
atom 9.4045125356321257 2.4715106241594871 66.4021636131770236 S
atom 4.4336289945703449 7.4423941652212555 66.4021636131770236 S
atom 10.4325127999184897 7.4406980536125031 66.2784871499036825 S
atom 4.4439086526578526 2.4780285625311653 71.4579788648868828 S
atom 10.4579394558881233 2.4753643115241863 71.4094614642067427 S
atom 5.4870559148263460 7.4462478525859686 71.4094614642067427 S
atom 9.4090577275897633 7.4431776374630969 71.4579788648868828 S
atom 2.4867328631864174 4.4658016579421789 66.2784871499036825 S
atom 7.4559202926394263 5.4938019222285677 66.4021636131770236 S
atom 2.4850367515776588 10.4646854632903334 66.4021636131770236 S
atom 7.4518819381183237 9.4309507328741162 66.2784871499036825 S
atom 2.4842532793358325 5.4892567302709097 71.4579788648868828 S
atom 7.4520666052747151 4.4403750019725567 71.4094614642067427 S
atom 2.4811830642129684 9.4112585430343199 71.4094614642067427 S
atom 7.4494023542677539 10.4544058052028532 71.4579788648868828 S
atom 2.4676160990612308 2.4747660558236184 73.9807488719439164 Ba
atom 7.4583993271051350 2.4946657428057653 73.9807488719439164 Ba
atom 2.4875157860433821 7.4655492838675448 73.9807488719439164 Ba
atom 7.4327651739931397 7.4399151307555460 73.9807488719439164 Ba
atom 2.4916088939229604 2.4916088939229684 79.0795486179602278 Ba
atom 7.4415564890057828 2.4706729479440344 79.0795486179602278 Ba
atom 2.4706729479440299 7.4415564890058103 79.0795486179602278 Ba
atom 7.4567579688548795 7.4567579688549079 79.0795486179602278 Ba
atom 4.9655178473279857 4.9651073718635956 76.5283213097777093 Zr
atom 9.9332070859970596 4.9619130694709233 76.5283213097777093 Zr
atom 4.9623235449353116 9.9327966105327121 76.5283213097777093 Zr
atom 9.9306669222599062 9.9302564467955516 76.5283213097777093 Zr
atom 4.9651073718635725 4.9655178473280142 81.6307759261428032 Zr
atom 9.9327966105326890 4.9623235449353373 81.6307759261428032 Zr
atom 4.9619130694709082 9.9332070859971164 81.6307759261428032 Zr
atom 9.9302564467954717 9.9306669222599382 81.6307759261428032 Zr
atom 4.9933369283427673 4.9830317433598807 73.9807041005744281 S
atom 9.9152827145007993 4.9340939884561630 73.9807041005744281 S
atom 4.9443991734390327 9.9049775295178897 73.9807041005744281 S
atom 9.9584860032746896 9.9481808182918048 73.9807041005744281 S
atom 4.9472370682368334 4.9472370682368458 79.0795486179602278 S
atom 9.9510773896238547 4.9801938485620942 79.0795486179602278 S
atom 4.9801938485620694 9.9510773896238884 79.0795486179602278 S
atom 9.9123861431687263 9.9123861431687814 79.0795486179602278 S
atom 5.4902939424639658 2.4802422338071746 76.5154707503453864 S
atom 9.4110160856252065 2.4772590610551561 76.5460959028904711 S
atom 4.4401325445634612 7.4481426021169339 76.5460959028904711 S
atom 10.4554430173958863 7.4453913087390955 76.5154707503453864 S
atom 4.4428714404647849 2.4820396080598330 81.6436264855752825 S
atom 10.4581819132971816 2.4792883146820031 81.6130013330300699 S
atom 5.4872983722354283 7.4501718557437746 81.6130013330300699 S
atom 9.4080205153966983 7.4471886829917633 81.6436264855752825 S
atom 2.4820396080598242 4.4428714404648018 76.5154707503453864 S
atom 7.4501718557437462 5.4872983722354567 76.5460959028904711 S
atom 2.4792883146819875 10.4581819132972260 76.5460959028904711 S
atom 7.4471886829917366 9.4080205153967391 76.5154707503453864 S
atom 2.4802422338071635 5.4902939424639756 81.6436264855752825 S
atom 7.4481426021169108 4.4401325445634789 81.6130013330300699 S
atom 2.4772590610551433 9.4110160856252705 81.6130013330300699 S
atom 7.4453913087390671 10.4554430173959005 81.6436264855752825 S
atom 2.4747660558236153 2.4676160990612370 84.1783483639766104 Ba
atom 7.4655492838675128 2.4875157860433856 84.1783483639766104 Ba
atom 2.4946657428057608 7.4583993271051678 84.1783483639766104 Ba
atom 7.4399151307555274 7.4327651739931646 84.1783483639766104 Ba
atom 2.5311418212229824 2.4905565768508002 89.2759493984833910 Ba
atom 7.4426088060779527 2.4311400206440155 89.2759493984833910 Ba
atom 2.4717252650162003 7.4020235617057821 89.2759493984833910 Ba
atom 7.4962908961548944 7.4557056517827309 89.2759493984833910 Ba
atom 4.9663816462839252 4.9639736405153263 86.7333848134445304 Zr
atom 9.9343408173453192 4.9610492705149936 86.7333848134445304 Zr
atom 4.9634572762835889 9.9319328115767700 86.7333848134445304 Zr
atom 9.9315307212158448 9.9291227154472530 86.7333848134445304 Zr
atom 4.9726644951824523 4.9693000536542895 91.8353607209834308 Zr
atom 9.9290144042063595 4.9547664216164691 91.8353607209834308 Zr
atom 4.9581308631446301 9.9256499626782499 91.8353607209834308 Zr
atom 9.9378135701143471 9.9344491285862198 91.8353607209834308 Zr
atom 4.9830317433598657 4.9933369283427860 84.1783931353459849 S
atom 9.9049775295178737 4.9443991734390540 84.1783931353459849 S
atom 4.9340939884561408 9.9152827145008597 84.1783931353459849 S
atom 9.9481808182917622 9.9584860032747198 84.1783931353459849 S
atom 4.9019555123416181 4.9341556030112530 89.2764698821309679 S
atom 9.9641588548494262 5.0254754044572962 89.2764698821309679 S
atom 4.9932753137876515 9.9963589455190700 89.2764698821309679 S
atom 9.8671045872735466 9.8993046779431744 89.2764698821309679 S
atom 5.4892567302708883 2.4842532793358427 86.7011183710335303 S
atom 9.4112585430342968 2.4811830642129680 86.7496357717138835 S
atom 4.4403750019725461 7.4520666052747480 86.7496357717138835 S
atom 10.4544058052028088 7.4494023542677672 86.7011183710335303 S
atom 4.4658016579421638 2.4867328631864312 91.8806100860168300 S
atom 10.4646854632902713 2.4850367515776726 91.7569336227436168 S
atom 5.4938019222285499 7.4559202926394459 91.7569336227436168 S
atom 9.4309507328740860 7.4518819381183565 91.8806100860168300 S
atom 2.4780285625311542 4.4439086526578873 86.7011183710335303 S
atom 7.4462478525859384 5.4870559148263665 86.7496357717138835 S
atom 2.4753643115241677 10.4579394558881429 86.7496357717138835 S
atom 7.4431776374630658 9.4090577275898024 86.7011183710335303 S
atom 2.4755489786805644 5.4673637249866092 91.8806100860168300 S
atom 7.4423941652212315 4.4336289945703662 91.7569336227436168 S
atom 2.4715106241594733 9.4045125356321648 91.7569336227436168 S
atom 7.4406980536124774 10.4325127999185359 91.8806100860168300 S
atom 2.4854603527345120 2.4042320657289897 94.3654085738204458 Ba
atom 7.5289333171997663 2.4768214891324889 94.3654085738204458 Ba
atom 2.5580497761380085 7.4477050301942738 94.3654085738204458 Ba
atom 7.4506094276664099 7.3693811406609253 94.3654085738204458 Ba
atom 2.2215972904237362 2.6804510767961109 99.4012296434022318 Ba
atom 7.2527143061326429 2.7406845514432638 99.4012296434022318 Ba
atom 2.2818307650708864 7.7115680925050487 99.4012296434022318 Ba
atom 7.1867463653556385 7.6456001517280470 99.4012296434022318 Ba
atom 4.8881358983869765 5.0057309682202344 96.9287734147634978 Zr
atom 9.8925834896404670 5.0392950184119476 96.9287734147634978 Zr
atom 4.9216999485786692 10.0101785594737525 96.9287734147634978 Zr
atom 9.8532849733188854 9.9708800431521709 96.9287734147634978 Zr
atom 4.9472340189984623 4.9945891052971696 102.0265535065238680 Zr
atom 9.9037253525635176 4.9801968978004503 102.0265535065238680 Zr
atom 4.9328418115017501 9.9510804388622365 102.0265535065238680 Zr
atom 9.9123830939303677 9.9597381802290990 102.0265535065238680 Zr
atom 5.0477309464285547 5.1347057006423311 94.3693993829811433 S
atom 9.7636087572183428 4.8796999703703641 94.3693993829811433 S
atom 4.7927252161565805 9.8505835114321201 94.3693993829811433 S
atom 10.0128800213604734 10.0998547755742862 94.3693993829811433 S
atom 4.7221408147274380 4.7741240463311492 99.4428599752466056 S
atom 10.1241904115295345 5.2052901020714701 99.4428599752466056 S
atom 5.1533068704677705 10.1761736431332253 99.4428599752466056 S
atom 9.6872898896593753 9.7392731212630679 99.4428599752466056 S
atom 5.4183211120053434 2.5280396485644201 96.7153264229585830 S
atom 9.4347914254662193 2.5259251713983093 97.0908716447815578 S
atom 4.4639078844044713 7.4968087124600853 97.0908716447815578 S
atom 10.3834701869372523 7.4931887234963499 96.7153264229585830 S
atom 5.2495714606801744 2.5163347697241192 102.1593722634027444 S
atom 9.5388941009204213 2.5165386274826185 101.6885414842080593 S
atom 4.5680105598586325 7.4874221685444065 101.6885414842080593 S
atom 10.2147205356120931 7.4814838446560614 102.1593722634027444 S
atom 2.4342421933025786 4.5148442709234242 96.7153264229585830 S
atom 7.4015057454005948 5.4635230323944475 97.0908716447815578 S
atom 2.4306222043388397 10.4344065734562310 97.0908716447815578 S
atom 7.3993912682344893 9.4799933458553465 96.7153264229585830 S
atom 2.4459470721428813 4.6835939222485781 102.1593722634027444 S
atom 7.4108922893162852 5.3594203569402818 101.6885414842080593 S
atom 2.4400087482545287 10.3303038980020450 101.6885414842080593 S
atom 7.4110961470747938 9.6487429971804950 102.1593722634027444 S
atom 2.5604072947197500 2.3697876786498235 104.2415905150905928 Ba
atom 7.5633777042789401 2.4018745471472469 104.2415905150905928 Ba
atom 2.5924941632171778 7.3727580882090207 104.2415905150905928 Ba
atom 7.5255563696516630 7.3349367535817525 104.2415905150905928 Ba
atom 5.0983283691817016 5.2104547368825784 104.5459919611728168 S
atom 9.6878597209780963 4.8291025476172154 104.5459919611728168 S
atom 4.7169761799163403 9.7999860886789918 104.5459919611728168 S
atom 10.0634774441136106 10.1756038118145131 104.5459919611728168 S
