#=======================================================
# FHI-aims file: sym_relax/sym_relax_RP_7_Rx0Mz_0-RyMz.in
# Created using the Atomic Simulation Environment (ASE)
# Mon Mar 17 15:46:14 2025
#=======================================================
lattice_vector 10.0088340111788394 -0.0711222422303697 -0.0000221762215488 
lattice_vector -0.0711222422303702 10.0088340111787648 -0.0000221762215488 
lattice_vector -0.0001749873778500 -0.0001749873778499 75.9685254183413008 
atom 0.0980694943746252 -0.1818096331432739 0.2168857870865294 Ba
atom 5.1861427337810770 -0.1336667139601206 0.2168991293061886 Ba
atom 0.1461646070764984 4.9063114127444534 0.2168991293061886 Ba
atom 5.0669253788488389 4.7870462513309340 0.2168636108649807 Ba
atom -0.2675534565527787 0.1874525249151612 5.0081920786251359 Ba
atom 4.8169001599127181 0.2319464412746407 5.0082305653206118 Ba
atom -0.2230779667918628 5.2719245679792124 5.0082305653206118 Ba
atom 4.7013024279214433 5.1563084093893616 5.0081699024035897 Ba
atom 2.4848096745714900 2.4740954148861314 2.4034380035667522 Zr
atom 7.4991053636480940 2.4483989082597599 2.4034128191246502 Zr
atom 2.4591272369435111 7.4883770349643184 2.4034128191246493 Zr
atom 7.4536655590457119 7.4429512993603248 2.4034158273452007 Zr
atom 2.4753751432183977 2.4894920209251978 7.4606353246396759 Zr
atom 7.4837505969410349 2.4578822253299482 7.4606211435347243 Zr
atom 2.4437724702364454 7.4978603520345315 7.4606211435347225 Zr
atom 7.4442310276926111 7.4583479053993971 7.4606131484181359 Zr
atom 2.6085694390975926 2.6944428604938344 -0.1037885798878836 S
atom 7.2787854730000019 2.3246707784301268 -0.1038090645998091 S
atom 2.2388073462954172 7.3646489051346915 -0.1038090645998090 S
atom 7.5774253235718145 7.6632987449680519 -0.1038107561094324 S
atom 2.2353358073989016 2.1891605650046770 4.9661657056615587 S
atom 7.7840557498365044 2.6978866811650764 4.9661469648380230 S
atom 2.7440776231319117 7.7378648078696424 4.9661469648380230 S
atom 7.2041916918731062 7.1580164494788825 4.9661435294400125 S
atom 2.8028966551839072 -0.0129884889893644 2.2490685713820104 S
atom 7.1813756533513740 -0.0457947764164729 2.7575821750509744 S
atom 2.1413975266467875 4.9941833502880844 2.7575821750509761 S
atom 7.7717525396581166 4.9558673954848249 2.2490463951604625 S
atom 2.8968900368213109 -0.0168167035090008 7.7890495499409491 S
atom 7.1175684266731318 -0.0493323960132077 7.1717690170408082 S
atom 2.0775902999685476 4.9906457306913552 7.1717690170408082 S
atom 7.8657459212955443 4.9520391809652038 7.7890273737194029 S
atom -0.0226572144018356 2.2014222799195413 2.2490641438765904 S
atom 4.9790036598477965 2.7917746646187891 2.7575662605410529 S
atom -0.0609744668567831 7.8317527913233578 2.7575662605410529 S
atom 4.9461986700723752 7.1702781643937259 2.2490419676550450 S
atom -0.0187868395911803 2.1074985776111448 7.7890663634692903 S
atom 4.9825822077793775 2.8557003212874545 7.1717675453592538 S
atom -0.0573959189252143 7.8956784479920152 7.1717675453592555 S
atom 4.9500690448830467 7.0763544620853631 7.7890441872477494 S
atom 0.2830768154591563 -0.1828257894590128 9.9872054007835516 Ba
atom 5.1871742130951253 -0.3187374871041174 9.9872364127354132 Ba
atom 0.1471960863905282 4.7212406396004667 9.9872364127354167 Ba
atom 5.2519326999333700 4.7860300950151817 9.9871832245620098 Ba
atom -0.2840498350991829 0.1819858591380964 14.9905768471532550 Ba
atom 4.8223285808520142 0.2483685034575296 14.9905749009371085 Ba
atom -0.2176495458525773 5.2883466301621080 14.9905749009371103 Ba
atom 4.6848060493750303 5.1508417436122977 14.9905546709317079 Ba
atom 2.4881127955698501 2.4828137100136005 12.4779998406797024 Zr
atom 7.4903121350902291 2.4450646000705163 12.4779897300255556 Zr
atom 2.4503340083856373 7.4850427267750934 12.4779897300255556 Zr
atom 7.4569686800440689 7.4516695944877922 12.4779776644581677 Zr
atom 2.4843876490908956 2.4843876490908845 17.4927414753230259 Zr
atom 7.4888046546802904 2.4488265279757022 17.4927303872122728 Zr
atom 2.4488265279757067 7.4888046546802638 17.4927303872122728 Zr
atom 7.4532435335651126 7.4532435335650877 17.4927192991014628 Zr
atom 2.7476039078349328 2.8121507758946391 9.9790011303451536 S
atom 7.1610303275186800 2.1856163511763755 9.9789859930021283 S
atom 2.1210522008140846 7.2255944778809384 9.9789859930021212 S
atom 7.7164597923091618 7.7810066603688472 9.9789789541236207 S
atom 2.2178626912062298 2.1530479771193800 14.9882234074931215 S
atom 7.8201241882956261 2.7153380589868563 14.9882069366678223 S
atom 2.7801460615910378 7.7553161856914397 14.9882069366678241 S
atom 7.1867185756804419 7.1219038615935668 14.9882012312715709 S
atom 2.8880804651503835 -0.0201968757315748 12.1693536389329040 S
atom 7.1212508417381990 -0.0530325058843608 12.8075347779255910 S
atom 2.0812727150336232 4.9869456208202010 12.8075347779255928 S
atom 7.8569363496246067 4.9486590087426183 12.1693314627113622 S
atom 2.8867301707745265 -0.0191801640437481 17.8135048342617033 S
atom 7.1220232541118351 -0.0520226644790529 17.1719781163843805 S
atom 2.0820451274072598 4.9879554622255053 17.1719781163843734 S
atom 7.8555860552487564 4.9496757204304505 17.8134826580401189 S
atom -0.0154720966840213 2.1162311659774322 12.1693650441155388 S
atom 4.9862191162956835 2.8519268954697847 12.8075397283460735 S
atom -0.0537590104089026 7.8919050221743499 12.8075397283460699 S
atom 4.9533837877901856 7.0850870504516203 12.1693428678939988 S
atom -0.0164577405552882 2.1176261148180635 17.8135076251919529 S
atom 4.9852330387370785 2.8511491833637028 17.1719753254541274 S
atom -0.0547450879675131 7.8911273100682573 17.1719753254541310 S
atom 4.9523981439189333 7.0864819992922659 17.8134854489703862 S
atom 0.2839692488067520 -0.1820664454305277 19.9949282797143901 Ba
atom 5.1864248440343648 -0.3195713319803311 19.9949080497089149 Ba
atom 0.1464467173297754 4.7204067947242319 19.9949080497089184 Ba
atom 5.2528251332809655 4.7867894390436501 19.9949061034928270 Ba
atom -0.2831574017515878 0.1827452031665819 24.9982997260840456 Ba
atom 4.8215792117912555 0.2475346585813162 24.9982465379106280 Ba
atom -0.2183989149133294 5.2875127852858821 24.9982465379106280 Ba
atom 4.6856984827226356 5.1516010876407776 24.9982775498625216 Ba
atom 2.4806625026119389 2.4859615881681649 22.5074831099664081 Zr
atom 7.4872971742703598 2.4525884558808766 22.5074710443988977 Zr
atom 2.4473190475657733 7.4925665825854386 22.5074710443989012 Zr
atom 7.4495183870861510 7.4548174726423628 22.5074609337448557 Zr
atom 2.4934001549633815 2.4792832772565614 27.5248476260063555 Zr
atom 7.4938587124195566 2.4397708306214430 27.5248396308897441 Zr
atom 2.4538805857149630 7.4797489573260059 27.5248396308897370 Zr
atom 7.4622560394376034 7.4481391617307597 27.5248254497848350 Zr
atom 2.7509126069755574 2.8157273210623930 19.9972595431528966 S
atom 7.1574851210649646 2.1823149969645361 19.9972538377567339 S
atom 2.1175069943603781 7.2222931236690906 19.9972538377567375 S
atom 7.7197684914497708 7.7845832055365856 19.9972373669313548 S
atom 2.2211713903468384 2.1566245222871214 25.0064818203009445 S
atom 7.8165789818419027 2.7120367047750285 25.0064747814223445 S
atom 2.7766008551373353 7.7520148314795927 25.0064747814223445 S
atom 7.1900272748210527 7.1254804067613140 25.0064596440793956 S
atom 2.8875025831481680 -0.0181703226384402 22.1779481727204804 S
atom 7.1206729597359812 -0.0510059527912258 22.8161293117131443 S
atom 2.0806948330313983 4.9889721739133392 22.8161293117131443 S
atom 7.8563584676223828 4.9506855618357513 22.1779259964989244 S
atom 2.8911849982132414 -0.0218704325095934 27.8137139336052286 S
atom 7.1118633880650481 -0.0543861250138005 27.1964334007051072 S
atom 2.0718852613604635 4.9855920016907511 27.1964334007051072 S
atom 7.8600408826874579 4.9469854519646104 27.8136917573836548 S
atom -0.0174438181138991 2.1168484027119829 22.1779432223000121 S
atom 4.9842473948658039 2.8525441322043359 22.8161179065305006 S
atom -0.0557307318387802 7.8925222589089037 22.8161179065305006 S
atom 4.9514120663603345 7.0857042871861902 22.1779210460784810 S
atom -0.0138069095975878 2.1130749768943082 27.8137154052867643 S
atom 4.9875621377729615 2.8612767205706287 27.1964165871768166 S
atom -0.0524159889316215 7.9012548472751858 27.1964165871768166 S
atom 4.9550489748766262 7.0819308613685044 27.8136932290652723 S
atom 0.2674728702603478 -0.1875331112075916 29.9773130482424364 Ba
atom 5.1918532649736493 -0.3031492697974413 29.9772523853254675 Ba
atom 0.1518751382690609 4.7368288569071311 29.9772523853254675 Ba
atom 5.2363287547345525 4.7813227732666084 29.9772908720209337 Ba
atom -0.0981500806670561 0.1817290468508427 34.7686193397809831 Ba
atom 4.8226106911052984 0.0624638854373196 34.7685838213399094 Ba
atom -0.2173674355993000 5.1024420121418750 34.7685838213399094 Ba
atom 4.8707058038071622 5.1505849313250405 34.7685971635594910 Ba
atom 2.4839656236102945 2.4946798832956358 32.5820449470793534 Zr
atom 7.4785039457125020 2.4492541476916365 32.5820479552997995 Zr
atom 2.4385258190079111 7.4892322743962056 32.5820479552997995 Zr
atom 7.4528215080845213 7.4635357677698408 32.5820227708578543 Zr
atom 2.7334394907828865 2.7796147331770809 30.0193172449845207 S
atom 7.1935535595240845 2.1997663747863161 30.0193138095865102 S
atom 2.1535754328195056 7.2397445014908826 30.0193138095865137 S
atom 7.7022953752570960 7.7484706176512930 30.0192950687629576 S
atom 2.3602058590841901 2.2743324376879333 35.0892715305339493 S
atom 7.6988238363605870 2.5729822775212741 35.0892698390242614 S
atom 2.6588457096560045 7.6129604042258396 35.0892698390242614 S
atom 7.3290617435584151 7.2431883221621218 35.0892493543124218 S
atom 2.8273777715349961 -0.0254080521063280 32.2279007755951952 S
atom 7.2058567697024722 -0.0582143395334371 32.7364143792640760 S
atom 2.1658786429978774 4.9817637871711398 32.7364143792640760 S
atom 7.7962336560092105 4.9434478323678759 32.2278785993735752 S
atom -0.0102283616660188 2.1770006335629786 32.2279166901050900 S
atom 4.9914325125836010 2.7673530182622210 32.7364188067695281 S
atom -0.0485456141209658 7.8073311449667928 32.7364188067695281 S
atom 4.9586275228081993 7.1458565180371663 32.2278945138834274 S
atom 2.3025308154049036 2.5824099429227996 38.2011374081463870 Ba
atom 7.3906518612926648 2.6305050556246745 38.2011507503658763 Ba
atom 2.3506737345880575 7.6704831823292219 38.2011507503658763 Ba
atom 7.2713866998791277 7.5512658273969926 38.2011152319247813 Ba
atom 2.6717929734633494 2.2167869919953946 42.9924436996848840 Ba
atom 7.7562650165274158 2.2612624817563121 42.9924821863803786 Ba
atom 2.7162868898228214 7.3012406084608763 42.9924821863803786 Ba
atom 7.6406488579375624 7.1856428764696085 42.9924215234633351 Ba
atom 4.9584358634343042 4.9691501231196460 40.3876896246265176 Zr
atom 9.9727174835125290 4.9434676854916741 40.3876644401845155 Zr
atom 4.9327393568079438 9.9834458121962406 40.3876644401845155 Zr
atom 9.9272917479085692 9.9380060075938470 40.3876674484049119 Zr
atom 4.9738324694733826 4.9597155917665514 45.4448869456994302 Zr
atom 9.9822008005827527 4.9281129187846027 45.4448727645944928 Zr
atom 4.9422226738781490 9.9680910454891674 45.4448727645944928 Zr
atom 9.9426883539476414 9.9285714762407640 45.4448647694779311 Zr
atom 5.1787833090420321 5.0929098876457530 37.8804630411718648 S
atom 9.8489893536829083 4.7231477948435847 37.8804425564599541 S
atom 4.8090112269783170 9.7631259215481290 37.8804425564599541 S
atom 10.1476391935162535 10.0617657721199709 37.8804408649503230 S
atom 4.6735010135528663 4.7196762559470615 42.9504173267213076 S
atom 10.2222052564178423 5.2284180716800766 42.9503985858978581 S
atom 5.1822271297132589 10.2683961983846128 42.9503985858978510 S
atom 9.6423568980270833 9.6885321404212643 42.9503951504997588 S
atom 4.6857627284677159 2.4616832341463408 40.2333157649363500 S
atom 10.3160932398715648 2.4233659816913926 40.7418178816008094 S
atom 5.2761151131669974 7.4633441083959653 40.7418178816008165 S
atom 9.6546186129419560 7.4305391186205512 40.2332935887148082 S
atom 4.5918390261593283 2.4655536089569869 45.7733179845290223 S
atom 10.3800188965402196 2.4269445296229595 45.1560191664189858 S
atom 5.3400407698356434 7.4669226563275304 45.1560191664189858 S
atom 9.5606949106335417 7.4344094934311835 45.7732958083075303 S
atom 2.4713519595588149 5.2872371037320622 40.2333201924417523 S
atom 7.4785237988362931 4.6257379751949612 40.7418337961106261 S
atom 2.4385456721317000 9.6657161018995001 40.7418337961106261 S
atom 7.4402078440330408 10.2560929882062624 40.2332980162201608 S
atom 2.4675237450391845 5.3812304853694828 45.7733011710007389 S
atom 7.4749861792395622 4.5619307485167155 45.1560206381005855 S
atom 2.4350080525349727 9.6019088752212625 45.1560206381005855 S
atom 7.4363796295134152 10.3500863698436660 45.7732789947792185 S
atom 2.3015146590891673 2.7674172640073293 47.9714570218432499 Ba
atom 7.2055810881486524 2.6315365349387019 47.9714880337951897 Ba
atom 2.1656029614440722 7.6715146616432666 47.9714880337951683 Ba
atom 7.2703705435633736 7.7362731484815210 47.9714348456217010 Ba
atom 2.6663263076862771 2.2002906134489875 52.9748284682129906 Ba
atom 7.7726870787103008 2.2666909026955948 52.9748265219968886 Ba
atom 2.7327089520057180 7.3066690294001591 52.9748265219968886 Ba
atom 7.6351821921605110 7.1691464979231947 52.9748062919913991 Ba
atom 4.9671541585617840 4.9724532441180100 50.4622514617395055 Zr
atom 9.9693831753233368 4.9346744569337968 50.4622413510853036 Zr
atom 4.9294050486187100 9.9746525836383739 50.4622413510852965 Zr
atom 9.9360100430360081 9.9413091285921933 50.4622292855180490 Zr
atom 4.9687280976390742 4.9687280976390644 55.4769930963828486 Zr
atom 9.9731451032284770 4.9331669765238706 55.4769820082719463 Zr
atom 4.9331669765238981 9.9731451032284575 55.4769820082719463 Zr
atom 9.9375839821132885 9.9375839821132566 55.4769709201612216 Zr
atom 5.2964912244428248 5.2319443563831056 47.9632527514049727 S
atom 9.7099349264291472 4.6053926493622432 47.9632376140618675 S
atom 4.6699567997245532 9.6453707760668088 47.9632376140618604 S
atom 10.2653471089170338 10.2008002408572711 47.9632305751833101 S
atom 4.6373884256675790 4.7022031397543937 52.9724750285529211 S
atom 10.2396566342396493 5.2644865101392018 52.9724585577275704 S
atom 5.1996785075350607 10.3044646368437522 52.9724585577275704 S
atom 9.6062443101417969 9.6710590242285992 52.9724528523312514 S
atom 4.6005716145256130 2.4688683518641525 50.1536166651753632 S
atom 10.3762454707225498 2.4305814381392681 50.7917913494057629 S
atom 5.3362673440179718 7.4705595648438363 50.7917913494057558 S
atom 9.5694274989998167 7.4377242363383402 50.1535944889537859 S
atom 4.6019665633662514 2.4678827079928816 55.7977592462516441 S
atom 10.3754677586164998 2.4295953605806599 55.1562269465139465 S
atom 5.3354896319118899 7.4695734872852286 55.1562269465139394 S
atom 9.5708224478404667 7.4367385924670666 55.7977370700301023 S
atom 2.4641435728166083 5.3724209136985444 50.1536052599926592 S
atom 7.4712860693684107 4.5656131635817738 50.7917863989853799 S
atom 2.4313079426638193 9.6055912902863430 50.7917863989854084 S
atom 7.4329994572908253 10.3412767981727090 50.1535830837710392 S
atom 2.4651602845044347 5.3710706193226843 55.7977564553214407 S
atom 7.4722959107737008 4.5663855759554179 55.1562297374441428 S
atom 2.4323177840691343 9.6063637026599764 55.1562297374441428 S
atom 7.4340161689786513 10.3399265037968711 55.7977342790999415 S
atom 2.3022740031176530 2.7683096973549213 57.9791799007742199 Ba
atom 7.2047472432724238 2.6307871658779463 57.9791596707686310 Ba
atom 2.1647691165678489 7.6707652925825052 57.9791596707686239 Ba
atom 7.2711298875918695 7.7371655818291201 57.9791577245525787 Ba
atom 2.6670856517147592 2.2011830467965816 62.9825513471438683 Ba
atom 7.7718532338340829 2.2659415336348494 62.9824981589703796 Ba
atom 2.7318751071295018 7.3059196603394270 62.9824981589703796 Ba
atom 7.6359415361889873 7.1700389312707786 62.9825291709223052 Ba
atom 4.9703020367163662 4.9650029511600948 60.4917347310260922 Zr
atom 9.9769070311336367 4.9316594961139337 60.4917226654587452 Zr
atom 4.9369289044290579 9.9716376228185375 60.4917226654587310 Zr
atom 9.9391579211905849 9.9338588356343180 60.4917125548045433 Zr
atom 4.9636237258047506 4.9777406035115526 65.5090992470660325 Zr
atom 9.9640894058742067 4.9382210342631376 65.5090912519494992 Zr
atom 4.9241112791696429 9.9781991609676890 65.5090912519494992 Zr
atom 9.9324796102789641 9.9465964879857420 65.5090770708444410 Zr
atom 5.3000677696105729 5.2352530555237182 57.9815111642127619 S
atom 9.7066335722173100 4.6018474429085359 57.9815054588164998 S
atom 4.6666554455127311 9.6418255696131272 57.9815054588164998 S
atom 10.2689236540848015 10.2041089399979121 57.9814889879912059 S
atom 4.6409649708353369 4.7055118388950135 62.9907334413607458 S
atom 10.2363552800278121 5.2609413036854917 62.9907264024821174 S
atom 5.1963771533232128 10.3009194303900760 62.9907264024821174 S
atom 9.6098208553094846 9.6743677233691923 62.9907112651391472 S
atom 4.6011888512601766 2.4668966304342743 60.1621948433597851 S
atom 10.3768627074570698 2.4286097167094001 60.8003695275902061 S
atom 5.3368845807525389 7.4685878434139639 60.8003695275902061 S
atom 9.5700447357343936 7.4357525149084900 60.1621726671382646 S
atom 4.5974154254424962 2.4705335389505856 65.7979670263463987 S
atom 10.3855952958234319 2.4319244596165572 65.1806682082364262 S
atom 5.3456171691188077 7.4719025863211179 65.1806682082364262 S
atom 9.5662713099167203 7.4393894234247790 65.7979448501250630 S
atom 2.4661701259097359 5.3718430316963302 60.1621997937801893 S
atom 7.4733126224615472 4.5650352815795561 60.8003809327729314 S
atom 2.4333344957569483 9.6050134082841296 60.8003809327729314 S
atom 7.4350260103839636 10.3406989161705276 60.1621776175586476 S
atom 2.4624700160385924 5.3755254467614053 65.7979655546650122 S
atom 7.4699324502389741 4.5562257099086336 65.1806850217649867 S
atom 2.4299543235343815 9.5962038366131992 65.1806850217649867 S
atom 7.4313259005127978 10.3443813312356152 65.7979433784435201 S
atom 2.2968073373405971 2.7518133188085216 67.9615646693021631 Ba
atom 7.2211693054553265 2.6362155868172241 67.9615040063850415 Ba
atom 2.1811911787507432 7.6761937135218075 67.9615040063850415 Ba
atom 7.2656632218148083 7.7206692032827009 67.9615424930806853 Ba
atom 2.6660694953990274 2.3861903678811158 72.7528709608410651 Ba
atom 7.5867824606900776 2.2669730129488701 72.7528354423996717 Ba
atom 2.5468043339855000 7.3069511396534503 72.7528354423996717 Ba
atom 7.6349253798732368 7.3550462523553257 72.7528487846194025 Ba
atom 4.9790203318438424 4.9683060721584660 70.5662965681391654 Zr
atom 9.9735727229444038 4.9228662675560608 70.5662995763598957 Zr
atom 4.9335945962398355 9.9628443942606477 70.5662995763598957 Zr
atom 9.9478762163179990 9.9371619566326732 70.5662743919175313 Zr
atom 5.2639551817252714 5.2177799393310522 68.0035688660443469 S
atom 9.7240849500391029 4.6379158813676602 68.0035654306461623 S
atom 4.6841068233345062 9.6778940080722400 68.0035654306461623 S
atom 10.2328110661995026 10.1866358238052683 68.0035466898228123 S
atom 4.7586728862361083 4.8445463076323438 73.0735231515936050 S
atom 10.0973008527740653 5.1431861582041645 73.0735214600841800 S
atom 5.0573227260694509 10.1831642849087487 73.0735214600841800 S
atom 9.7275287707103697 9.8134021921065635 73.0735009753721982 S
atom 4.6613410821111554 2.4741120868821573 70.2121683111648025 S
atom 10.2916715935150140 2.4357948344272127 70.7206704278291909 S
atom 5.2516934668104200 7.4757729611317671 70.7206704278291909 S
atom 9.6301969665853751 7.4429679713563379 70.2121461349434384 S
atom 2.4589323964418592 5.3117182200831570 70.2121523966547443 S
atom 7.4661042357193459 4.6502190915460622 70.7206660003238170 S
atom 2.4261261090147443 9.6901972182506206 70.7206660003238312 S
atom 7.4277882809160722 10.2805741045573669 70.2121302204330675 S
