#=======================================================
# FHI-aims file: sym_relax/sym_relax_RP_10_Rx0Rz_0-RyRz.in
# Created using the Atomic Simulation Environment (ASE)
# Mon Mar 17 17:21:25 2025
#=======================================================
lattice_vector 9.9046782509565450 -0.0041320919180222 0.0100279375525151 
lattice_vector -0.0041320919180222 9.9046782509565592 0.0100279375525150 
lattice_vector 0.1108392505383047 0.1108392505383043 107.9819974476320965 
atom -0.0502792394674429 -0.0379345915461791 0.1649453784386606 Ba
atom 4.9144052694705067 -0.0522201859456969 0.1699489020543620 Ba
atom -0.0399999019667608 4.9021849854915809 0.1699489020543618 Ba
atom 4.8999938400518221 4.9123384879730549 0.1749733159911756 Ba
atom 0.0952407437125810 0.0280011298301134 5.0612038455193442 Ba
atom 4.9802793779593193 0.0930544282379818 5.0662037996327145 Ba
atom 0.0258742065220490 5.0474595996752498 5.0662037996327118 Ba
atom 5.0455138232318362 4.9782742093493644 5.0712317830718634 Ba
atom 2.4803218812136936 2.5014238025747164 2.4355915872005633 Zr
atom 7.4537783112737834 2.4782415313015940 2.4406140708836541 Zr
atom 2.4993731398365120 7.4326467027388503 2.4406140708836541 Zr
atom 7.4305949607329351 7.4516968820939571 2.4456195247530714 Zr
atom 2.5193401150865911 2.5140373449228517 7.5716733541716597 Zr
atom 7.4664264541847629 2.5172254339054798 7.5766900983804382 Zr
atom 2.5120212827474826 7.4716306053427433 7.5766900983804382 Zr
atom 7.4696131946058530 7.4643104244420853 7.5817012917241682 Zr
atom 2.4118128954489184 2.6145362037992745 -0.1021220147733689 S
atom 7.5667867399755355 2.4095792480281593 -0.0971061799623644 S
atom 2.6123815685382690 7.3639844194654067 -0.0971061799623643 S
atom 7.3620859749681626 7.5648092833185263 -0.0920940772208537 S
atom 2.5784492751695467 2.4230815681481532 5.0378467867573775 S
atom 7.3756510597873897 2.5765739784577435 5.0428628916603389 S
atom 2.4212458883500880 7.5309791498949945 5.0428628916603415 S
atom 7.5287223546887994 7.3733546476673686 5.0478747243098860 S
atom 2.1055565272759011 0.0247618920170544 2.4285619946968220 S
atom 7.8909927068950330 0.0228610593443301 2.6364224947844703 S
atom 2.9365875354577473 4.9772662307816100 2.6364224947844730 S
atom 7.0558296067951511 4.9750349715362940 2.4385899322493416 S
atom 3.0543064457278564 0.0370033700468380 7.6365046909933056 S
atom 6.9455538391356892 0.0350966359811219 7.5557338378818262 S
atom 1.9911486676984209 4.9895018074183888 7.5557338378818244 S
atom 8.0045795252471308 4.9872764495660977 7.6465326285458080 S
atom 0.0249572109036491 2.9386096134034632 2.6312121510079511 S
atom 4.9771273085166170 2.1034421396928678 2.4337518918630718 S
atom 0.0227221370793197 7.0578473111301445 2.4337518918630723 S
atom 4.9752302904229024 7.8888826929227029 2.6412400885604650 S
atom 0.0372056130304121 1.9931708249615838 7.5508784905700734 S
atom 4.9893857294089319 3.0521896142424723 7.6413520276639746 S
atom 0.0349805579716388 8.0065947856797592 7.6413520276639746 S
atom 4.9874786925496659 6.9434439044808238 7.5609064281225873 S
atom 0.0359874401922477 0.0704357265437065 10.1433140599100469 Ba
atom 5.0229150086520722 0.0339375953586663 10.1483383634532256 Ba
atom 0.0685098372147954 4.9883427667959452 10.1483383634532256 Ba
atom 4.9862605197115162 5.0207088060629692 10.1533419974625598 Ba
atom 0.0471120533626791 0.0339348947041941 15.2497585856100955 Ba
atom 4.9861909412076226 0.0448954832899706 15.2547712290496893 Ba
atom 0.0317857697703417 4.9993006547272376 15.2547712290496964 Ba
atom 4.9973851328819014 4.9842079742234420 15.2597865231626226 Ba
atom 2.5141444612621395 2.5150453516411906 12.6868494647044532 Zr
atom 7.4674113952996874 2.5120219216746627 12.6918644047357834 Zr
atom 2.5130062238624151 7.4664270931119026 12.6918644047357798 Zr
atom 7.4644175407813691 7.4653184311604441 12.6968774022569555 Zr
atom 2.5092692203754345 2.5089211972318619 17.8018231658681430 Zr
atom 7.4612050081523700 2.5072448607491529 17.8068352029078341 Zr
atom 2.5067998367150977 7.4616500321864541 17.8068352029078341 Zr
atom 7.4595422998946779 7.4591942767511252 17.8118511034206293 Zr
atom 2.4746967438894751 2.5391715489418791 10.1437082779539498 S
atom 7.4913548560707257 2.4724134443928594 10.1487214980654983 S
atom 2.5369496846334374 7.4268186158301281 10.1487214980655001 S
atom 7.4249698234087242 7.4894446284611149 10.1537362155064965 S
atom 2.5204375796193590 2.4950129690669498 15.2527233442159531 S
atom 7.4474600941775542 2.5184953833445727 15.2577391476188762 S
atom 2.4930549227402645 7.4729005547818375 15.2577391476188691 S
atom 7.4707106591386161 7.4452860485861851 15.2627512817684643 S
atom 1.9824125157783949 0.0359518359060113 12.6845763848969444 S
atom 8.0016535554767820 0.0339189715922354 12.7226505622334312 S
atom 3.0472483840395235 4.9883241430294722 12.7226505622334383 S
atom 6.9326855952976629 4.9862249154252689 12.6946043224494503 S
atom 3.0441878607027473 0.0321357695247518 17.8147652121404079 S
atom 6.9287150737663143 0.0299804161151278 17.8053559009085767 S
atom 1.9743099023290425 4.9843855875523921 17.8053559009085767 S
atom 7.9944609402219884 4.9824088490439857 17.8247931496929297 S
atom 0.0360245925011222 3.0492485768529343 12.7175252210964267 S
atom 4.9883341489657509 1.9802712523595669 12.6897131078454635 S
atom 0.0339289775284795 6.9346764237968435 12.6897131078454617 S
atom 4.9862976720203811 7.9995216563721740 12.7275531586489716 S
atom 0.0320068459883010 1.9764601297317503 17.8004103970359502 S
atom 4.9844343920163032 3.0421764277777288 17.8196912721074234 S
atom 0.0300292205790493 7.9965815992149798 17.8196912721074305 S
atom 4.9822799255075312 6.9267332092509966 17.8104383345884827 S
atom 0.0296258915892785 0.0356604293141819 20.3578478113023316 Ba
atom 4.9879483810980636 0.0277690701445044 20.3628629145306448 Ba
atom 0.0335432096607612 4.9821742415817667 20.3628629145306519 Ba
atom 4.9798989711085273 4.9859335088334307 20.3678757488548392 Ba
atom 0.0281593855427040 0.0241479284177937 25.4674452082203437 Ba
atom 4.9764624052838125 0.0260686909714511 25.4724732169863017 Ba
atom 0.0220572338465409 4.9804738624087186 25.4724732169863017 Ba
atom 4.9784324650619407 4.9744210079370301 25.4774731457728230 Ba
atom 2.5038024383049646 2.5039553405303048 22.9156881466776738 Zr
atom 7.4562402926411364 2.5018052101302493 22.9206987979944081 Zr
atom 2.5018351212038938 7.4562103815675043 22.9206987979944081 Zr
atom 7.4540755178242106 7.4542284200495450 22.9257160842301992 Zr
atom 2.4986545777046034 2.4986844887782484 28.0292475647647379 Zr
atom 7.4510924320408050 2.4965343583781832 28.0342582160814757 Zr
atom 2.4966872606035326 7.4509395298154457 28.0342582160814757 Zr
atom 7.4489276572238659 7.4489575682975024 28.0392755023172811 Zr
atom 2.4995052927537840 2.5108905054790309 20.3625572786940943 S
atom 7.4630614394813142 2.4973017796021479 20.3675700644999260 S
atom 2.5086562680440454 7.4517069510394176 20.3675700644999296 S
atom 7.4497783722730038 7.4611635849982809 20.3725852162466623 S
atom 2.5050485415305332 2.4972861558494435 25.4724681512375746 S
atom 7.4498463288152257 2.5032035430590471 25.4774782115216176 S
atom 2.4954411573779582 7.4576087144963097 25.4774782115216212 S
atom 7.4553216210498059 7.4475592353687041 25.4824960887900716 S
atom 1.9705970253384364 0.0274680126444877 22.9116120388783528 S
atom 7.9915772602914794 0.0254960694683915 22.9247741651392154 S
atom 3.0371720888542213 4.9799012409056580 22.9247741651392012 S
atom 6.9208701048576806 4.9777410921637140 22.9216399764308250 S
atom 3.0340247654880925 0.0227486067447572 28.0283063863282678 S
atom 6.9177227814915367 0.0205884580028305 28.0251721976198986 S
atom 1.9633176100542697 4.9749936294401031 28.0251721976199057 S
atom 7.9842978450073128 4.9730216862639995 28.0383343238807754 S
atom 0.0275150617698361 3.0393261187183813 22.9195811850483402 S
atom 4.9797607748875006 1.9686006256811526 22.9167962617619452 S
atom 0.0253556034501928 6.9230057971184404 22.9167962617619487 S
atom 4.9777881412890963 7.9895991982376255 22.9296091226008762 S
atom 0.0227015576194094 1.9652956721081201 28.0203372401583515 S
atom 4.9751340954582703 3.0318890732273309 28.0331501009972186 S
atom 0.0207289240210293 7.9862942446645819 28.0331501009972222 S
atom 4.9729746371386625 6.9155687516273678 28.0303651777108271 S
atom 0.0166734097284835 0.0224475492447391 30.5770555106760078 Ba
atom 4.9749958992372365 0.0145561900750627 30.5820706139043210 Ba
atom 0.0205907277999662 4.9689613615123216 30.5820706139043210 Ba
atom 4.9669464892477206 4.9727206287639900 30.5870834482284835 Ba
atom 0.0184308496189026 0.0053211360992738 35.6851471961569331 Ba
atom 4.9575097374638384 0.0162817246850503 35.6901598395963617 Ba
atom 0.0031045660265657 4.9706868961223236 35.6901598395963617 Ba
atom 4.9687039291381421 4.9555942156185102 35.6951751337093839 Ba
atom 2.4936898621933867 2.4932448381593217 33.1431111598514008 Zr
atom 7.4456256499703146 2.4915685016766336 33.1481231968910635 Zr
atom 2.4912204785330698 7.4459736731138770 33.1481231968910706 Zr
atom 7.4439629417126412 7.4435179176785518 33.1531390974038942 Zr
atom 2.4874834750460741 2.4884677772338275 38.2580819580234035 Zr
atom 7.4407504090836358 2.4854443472672929 38.2630968980546626 Zr
atom 2.4863452376463600 7.4398495187045590 38.2630968980546626 Zr
atom 7.4377565545653237 7.4387408567530819 38.2681098955758259 Zr
atom 2.4918334308644408 2.5031879193063467 30.5823762982591880 S
atom 7.4553895775920180 2.4895991934294650 30.5873890840650091 S
atom 2.5009844061547164 7.4440043648667320 30.5873890840650091 S
atom 7.4421065103837076 7.4534609988255820 30.5924042358116850 S
atom 2.5074347761682345 2.4819943155639117 35.6922072151402503 S
atom 7.4344572907264128 2.5054767298415457 35.6972230185432551 S
atom 2.4800521192891396 7.4598819012788251 35.6972230185432622 S
atom 7.4577078556874605 7.4322673950831435 35.7022351526928574 S
atom 1.9604339301237605 0.0180808498644917 33.1251532130661488 S
atom 7.9805849680166947 0.0161041113560934 33.1445904618506759 S
atom 3.0261797965794575 4.9705092827933592 33.1445904618506759 S
atom 6.9107070096430165 4.9683539293837251 33.1351811506186849 S
atom 3.0222092750481151 0.0142647834832326 38.2553420403096638 S
atom 6.9076464863062315 0.0121655558789862 38.2272958005258587 S
atom 1.9532413148689725 4.9665707273162605 38.2272958005258658 S
atom 7.9724823545673331 4.9645378630024624 38.2653699778621927 S
atom 0.0182097734009437 3.0281616610947570 33.1395080281706029 S
atom 4.9704604783294482 1.9583132711307554 33.1302550906516586 S
atom 0.0160553068921728 6.9127184425680372 33.1302550906516586 S
atom 4.9684828529201939 7.9784347406139968 33.1495359657231674 S
atom 0.0141920268881225 1.9553732139735733 38.2223932041102046 S
atom 4.9665607213800174 3.0202184465489195 38.2602332549136293 S
atom 0.0121555499427428 7.9746236179861905 38.2602332549136293 S
atom 4.9644651064073635 6.9056462934928078 38.2324211416626625 S
atom -0.0182932178255509 0.0162790240305782 40.7915800617535282 Ba
atom 4.9686343506342538 -0.0202191071544620 40.7966043652965524 Ba
atom 0.0142291791969971 4.9341860642827911 40.7966043652965453 Ba
atom 4.9319798616937049 4.9665521035498292 40.8016079993059364 Ba
atom 0.0243424128671949 -0.0428378088487375 45.8737146255739603 Ba
atom 4.9093810471139436 0.0222154895591313 45.8787145796872124 Ba
atom -0.0450241243233364 4.9766206609963985 45.8787145796872124 Ba
atom 4.9746154923864223 4.9074352706705033 45.8837425631265177 Ba
atom 2.4884684161610058 2.4832642650030023 43.3732562643786324 Zr
atom 7.4355547552591839 2.4864523539856389 43.3782730085874704 Zr
atom 2.4811495838219089 7.4408575254229046 43.3782730085874704 Zr
atom 7.4387414956802429 7.4335373445222581 43.3832842019311258 Zr
atom 2.5011165590719719 2.5222481676068913 48.5093322918755234 Zr
atom 7.4745729891320760 2.4990658963337560 48.5143547755585374 Zr
atom 2.5201678176947917 7.4534710677710523 48.5143547755585374 Zr
atom 7.4513896385912286 7.4725212471261475 48.5193602294280737 Zr
atom 2.4635400142750536 2.5280762545156263 40.8012248646936371 S
atom 7.4801981264562807 2.4613181499666075 40.8062380848051447 S
atom 2.5257929550190124 7.4157233214038687 40.8062380848051447 S
atom 7.4138130937943192 7.4783493340348786 40.8112528022462300 S
atom 2.5792438105583972 2.4239157204507467 45.9070834710989004 S
atom 7.3764455951762278 2.5774081307603378 45.9120995760017436 S
atom 2.4220404237389626 7.5318133021976221 45.9120995760017436 S
atom 7.5295168900776206 7.3741887999700033 45.9171114086512446 S
atom 1.9503153450986650 0.0132132493424056 43.3034137342133505 S
atom 7.9637462026473296 0.0109878914900994 43.3942125248772683 S
atom 3.0093410312100755 4.9653930629273759 43.3942125248772683 S
atom 6.9005884246179097 4.9634863288616504 43.3134416717657587 S
atom 2.8990652635506162 0.0254547273721901 48.5113564305097142 S
atom 7.0183073348880267 0.0232234681268922 48.3135238679746166 S
atom 2.0639021634507619 4.9776286395641609 48.3135238679746166 S
atom 7.8493383430698449 4.9757278068914310 48.5213843680622716 S
atom 0.0130110063588326 3.0114509658649320 43.3890399346365712 S
atom 4.9655091409368470 1.9483000846660143 43.3085943350951084 S
atom 0.0111039694995834 6.9027052561032614 43.3085943350951084 S
atom 4.9632840858780769 7.9617240453841855 43.3990678721891072 S
atom 0.0252594084855967 2.0660121774230471 48.3087062741986841 S
atom 4.9777675618291788 2.8970475592156189 48.5161944708960675 S
atom 0.0233623903919027 7.8514527306528965 48.5161944708960675 S
atom 4.9755324880048484 7.0162852569423046 48.3187342117511420 S
atom 0.0902165213560052 0.1024368053349412 50.7699695231523904 Ba
atom 5.0549010302939612 0.0881512109354242 50.7749730467679683 Ba
atom 0.1004958588566880 5.0425563823727106 50.7749730467679683 Ba
atom 5.0404896008752704 5.0527098848541998 50.7799974607048199 Ba
atom 2.3881081303702199 2.5909104508803282 51.0470525427215165 S
atom 7.5430819748968423 2.3859534951092192 51.0520683775325281 S
atom 2.5886768034595771 7.3403586665464786 51.0520683775325281 S
atom 7.3383812098894765 7.5411835303995796 51.0570804802740810 S
atom 2.4926215734825923 2.4802769255613266 54.1609580710310254 Ba
atom 7.4327411505203491 2.4905562630620119 54.1659615946467667 Ba
atom 2.4783359790830781 7.4449614344992892 54.1659615946467667 Ba
atom 7.4428946530018525 7.4305500050805975 54.1709860085835544 Ba
atom 2.5585572948588919 2.6257969087413571 59.0572165381117955 Ba
atom 7.5780157647040403 2.5564303715508192 59.0622164922251400 Ba
atom 2.6236105932667551 7.5108355429881009 59.0622164922251471 Ba
atom 7.5088303743781353 7.5760699882605973 59.0672444756643031 Ba
atom 5.0319799676035002 5.0108780462424773 56.4316042797930635 Zr
atom 9.9632028677676683 5.0299293048652922 56.4366267634760703 Zr
atom 5.0087976963303804 9.9843344763025428 56.4366267634760703 Zr
atom 9.9822530471227573 9.9611511257617398 56.4416322173455285 Zr
atom 5.0445935099516381 5.0498962801153739 61.5676860467641447 Zr
atom 10.0021867703715550 5.0425774477762806 61.5727027909729756 Zr
atom 5.0477815989342742 9.9969826192135525 61.5727027909729827 Zr
atom 9.9948665894708988 10.0001693596346204 61.5777139843166736 Zr
atom 5.1450923688280330 4.9423690604776862 53.8938906778191154 S
atom 9.8945405844941963 5.1429377335670745 53.8989065126301057 S
atom 4.9401354130569421 10.0973429050043286 53.8989065126301057 S
atom 10.0953654483473390 9.8926421399969211 53.9039186153715875 S
atom 4.9536377331769037 5.1090054401983140 59.0338594793498856 S
atom 10.0615353149238160 4.9518020533789020 59.0388755842527289 S
atom 5.1071301434865335 9.9062072248161357 59.0388755842527289 S
atom 9.9039108126961519 10.0592785197175534 59.0438874169023720 S
atom 5.4691657784322407 2.5555133759324296 56.6272248436004375 S
atom 9.5884034761588985 2.5532783021080991 56.4297645844553983 S
atom 4.6339983047216560 7.5076834735453719 56.4297645844553983 S
atom 10.4194388579514943 7.5057864554516653 56.6372527811529167 S
atom 4.5237269899903669 2.5677617780591966 61.5468911831624510 S
atom 10.5371509507085435 2.5655367230004162 61.6373647202564641 S
atom 5.5827457792712698 7.5199418944376886 61.6373647202564570 S
atom 9.4740000695096001 7.5180348575784270 61.5569191207149942 S
atom 2.5553180570458265 4.6361126923046960 56.4245746872893648 S
atom 7.5078223958103711 5.4671437004865293 56.6324351873769203 S
atom 2.5534172243731068 10.4215488719237488 56.6324351873769203 S
atom 7.5055911365650756 9.5863857718239682 56.4346026248418298 S
atom 2.5675595350756142 5.5848626107566233 61.6325173835857782 S
atom 7.5200579724471597 4.5217048327271820 61.5517465304742899 S
atom 2.5656528010098927 9.4761100041644806 61.5517465304742899 S
atom 7.5178326145948722 10.5351356902758759 61.6425453211382859 S
atom 2.6009918915724795 2.5665436052210131 64.1393267525023703 Ba
atom 7.5188989318247161 2.5990660022435694 64.1443510560457213 Ba
atom 2.5644937603874336 7.5534711736808458 64.1443510560457355 Ba
atom 7.5512649710917357 7.5168166847402702 64.1493546900549205 Ba
atom 2.5644910597329749 2.5776682183914557 69.2457712782022696 Ba
atom 7.5298568197560218 2.5623419347991110 69.2507839216421957 Ba
atom 2.5754516483187508 7.5167471062363846 69.2507839216421957 Ba
atom 7.5147641392522324 7.5279412979106812 69.2557992157547773 Ba
atom 5.0456015166699784 5.0447006262909104 66.6828621572970093 Zr
atom 9.9969832581407232 5.0435623888911909 66.6878770973281689 Zr
atom 5.0425780867034202 9.9979675603284619 66.6878770973281405 Zr
atom 9.9958745961892355 9.9949737058101285 66.6928900948493038 Zr
atom 5.0394773622606666 5.0398253854042263 71.7978358584607861 Zr
atom 9.9922061972152267 5.0373560017438814 71.8028478955003067 Zr
atom 5.0378010257779531 9.9917611731811622 71.8028478955003067 Zr
atom 9.9897504417798952 9.9900984649234257 71.8078637960131800 Zr
atom 5.0697277139706829 5.0052529089182567 64.1397209705464206 S
atom 9.9573747808589292 5.0675058496622221 64.1447341906579140 S
atom 5.0029696094216360 10.0219110210994682 64.1447341906579140 S
atom 10.0200007934898849 9.9555259884374987 64.1497489080989141 S
atom 5.0255691340957096 5.0509937446481485 69.2487360368086087 S
atom 10.0034567198106377 5.0236110877690621 69.2537518402111942 S
atom 5.0490515483733613 9.9780162592062904 69.2537518402111942 S
atom 9.9758422136149516 10.0012668241673381 69.2587639743608321 S
atom 5.5798047418817278 2.5665807575298927 66.7135379136890947 S
atom 9.4652325888255966 2.5644851425572535 66.6857258004378224 S
atom 4.5108274173883549 7.5188903139945298 66.6857258004378224 S
atom 10.5300778214009529 7.5168538370491360 66.7235658512415455 S
atom 4.5070162947605485 2.5625630110170752 71.7964230896283055 S
atom 10.5271377642437471 2.5605853856078196 71.8157039647000630 S
atom 5.5727325928064930 7.5149905570450892 71.8157039647000630 S
atom 9.4572893742797817 7.5128360905362968 71.8064510271808558 S
atom 2.5665080009347956 4.5129686808071536 66.6805890774896426 S
atom 7.5188803080582849 5.5778045490683015 66.7186632548259979 S
atom 2.5644751366210197 10.5322097205055520 66.7186632548259837 S
atom 7.5167810804540602 9.4632417603264312 66.6906170150420792 S
atom 2.5626919345535311 5.5747440257315102 71.8107779047329302 S
atom 7.5149417525811781 4.5048660673578098 71.8013685935010955 S
atom 2.5605365811439085 9.4592712387950915 71.8013685935010812 S
atom 7.5129650140727655 10.5250171052507682 71.8208058422854236 S
atom 2.5662165943429640 2.5601820566180491 74.3538605038948504 Ba
atom 7.5127304066105474 2.5640993746895302 74.3588756071232240 Ba
atom 2.5583252351732799 7.5185045461268150 74.3588756071232240 Ba
atom 7.5164896738621980 7.5104551361372991 74.3638884414473864 Ba
atom 2.5547040934465692 2.5587155505714829 79.4634579008127702 Ba
atom 7.5110300274374948 2.5526133988753066 79.4684859095787459 Ba
atom 2.5566248560002354 7.5070185703126011 79.4684859095787459 Ba
atom 7.5049771729658232 7.5089886300907152 79.4734858383652352 Ba
atom 5.0345115055590943 5.0343586033337386 76.9117008392698978 Zr
atom 9.9867665465962556 5.0323912862326683 76.9167114905866924 Zr
atom 5.0323613751590237 9.9867964576699411 76.9167114905866924 Zr
atom 9.9847845850783639 9.9846316828529957 76.9217287768227607 Zr
atom 5.0292406538070304 5.0292107427333796 82.0252602573573597 Zr
atom 9.9814956948442148 5.0272434256322951 82.0302709086739128 Zr
atom 5.0270905234069438 9.9816485970695830 82.0302709086739128 Zr
atom 9.9795137333262822 9.9794838222525897 82.0352881949097679 Zr
atom 5.0414466705078071 5.0300614577825336 74.3585699712865562 S
atom 9.9822631160681681 5.0392124330728221 74.3635827570923595 S
atom 5.0278579446309335 9.9936176045101099 74.3635827570923595 S
atom 9.9917197500270269 9.9803345373017915 74.3685979088391633 S
atom 5.0278423208782206 5.0356047065593135 79.4684808438301218 S
atom 9.9881648795251134 5.0259973224067345 79.4734909041141719 S
atom 5.0337597080878300 9.9804024938439770 79.4734909041141719 S
atom 9.9781154003974919 9.9858777860785679 79.4785087813826152 S
atom 5.5698822837471713 2.5580712267986114 76.9155938776407737 S
atom 9.4535619621472726 2.5559117684789618 76.9128089543542899 S
atom 4.4991567907099483 7.5103169399162315 76.9128089543543041 S
atom 10.5201553632663849 7.5083443063178548 76.9256218151931819 S
atom 4.4958518371369118 2.5532577226481821 82.0163499327507850 S
atom 10.5168504096933493 2.5512850890498160 82.0291627935894923 S
atom 5.5624452382561138 7.5056902604870617 82.0291627935894923 S
atom 9.4461249166561885 7.5035308021674192 82.0263778703033779 S
atom 2.5580241776732686 4.5011531903672184 76.9076247314709747 S
atom 7.5104574059344387 5.5677282538830131 76.9207868577316134 S
atom 2.5560522344971712 10.5221334253203143 76.9207868577316276 S
atom 7.5082972571924955 9.4514262698864666 76.9176526690236386 S
atom 2.5533047717735249 5.5645809305168301 82.0243190789208541 S
atom 7.5055497944688980 4.4938737750830251 82.0211848902123819 S
atom 2.5511446230316079 9.4482789465202952 82.0211848902123677 S
atom 7.5035778512927855 10.5148540100360837 82.0343470164732338 S
atom 2.5530037142735291 2.5472295747572624 84.5730682032685337 Ba
atom 7.4995175265411120 2.5511468928287386 84.5780833064967226 Ba
atom 2.5451123551038366 7.5055520642660127 84.5780833064967226 Ba
atom 7.5032767937927849 7.4975026542764942 84.5830961408210698 Ba
atom 2.5358773011280453 2.5489870146476763 89.6811598887494199 Ba
atom 7.5012430611510892 2.5336607310553427 89.6861725321892607 Ba
atom 2.5468378897138346 7.4880659024926164 89.6861725321892607 Ba
atom 7.4861503806472927 7.4992600941669103 89.6911878263019560 Ba
atom 5.0238010031880966 5.0242460272221585 87.1391238524439302 Zr
atom 9.9765298381426621 5.0217766435618252 87.1441358894834934 Zr
atom 5.0221246667053867 9.9761818149991068 87.1441358894834792 Zr
atom 9.9740740827073804 9.9745191067414041 87.1491517899963526 Zr
atom 5.0190239422626126 5.0180396400748490 92.2540946506161248 Zr
atom 9.9704056837333344 5.0169014026751313 92.2591095906470287 Zr
atom 5.0160005122960731 9.9713065741124129 92.2591095906470287 Zr
atom 9.9692970217818555 9.9683127195940635 92.2641225881685330 Zr
atom 5.0337440843351189 5.0223895958932161 84.5783889908517352 S
atom 9.9745605298955002 5.0315405711835091 84.5834017766573396 S
atom 5.0201553584582363 9.9859457426207534 84.5834017766573396 S
atom 9.9840171638543733 9.9726626754124545 84.5884169284040297 S
atom 5.0125504805926768 5.0379909411969876 89.6882199077329290 S
atom 9.9904380663075578 5.0106082843178790 89.6932357111357845 S
atom 5.0360328948703286 9.9650134557551588 89.6932357111357845 S
atom 9.9628235601118966 9.9882640207162563 89.6982478452853087 S
atom 5.5587178261235310 2.5487659384297201 87.1355207207631821 S
atom 9.4432746075967824 2.5466114719209458 87.1262677832439039 S
atom 4.4888694361595434 7.5010166433582270 87.1262677832439039 S
atom 10.5089909056428077 7.4990390179489745 87.1455486583156187 S
atom 4.4859293790023349 2.5447481919169004 92.2184058967025919 S
atom 10.5051797830150413 2.5427117149715142 92.2562459475060876 S
atom 5.5507746115777090 7.4971168864087963 92.2562459475060876 S
atom 9.4362024585216027 7.4950212714361353 92.2284338342550853 S
atom 2.5486370148932709 4.4909900951525357 87.1211659056586569 S
atom 7.5010654478221248 5.5567359616082177 87.1406031544428572 S
atom 2.5466602763848698 10.5111411330454576 87.1406031544428714 S
atom 7.4989100944125076 9.4412631746717732 87.1311938432111077 S
atom 2.5448209485120077 5.5527654400768940 92.2513547329020724 S
atom 7.4971268923450340 4.4837974798977314 92.2233084931181253 S
atom 2.5427217209077613 9.4382026513349846 92.2233084931181395 S
atom 7.4950940280312519 10.5030385195961085 92.2613826704546227 S
atom 2.5468351890593519 2.5122629472032156 94.7875927543457379 Ba
atom 7.4647422293115779 2.5447853442257733 94.7926170578891600 Ba
atom 2.5103370578743189 7.4991905156630549 94.7926170578891600 Ba
atom 7.4971082685786072 7.4625360267224607 94.7976206918983308 Ba
atom 2.4877183561800447 2.5548985778959743 99.8697273181663263 Ba
atom 7.5071768260251872 2.4855320407054387 99.8747272722794577 Ba
atom 2.5527716545879096 7.4399372121427199 99.8747272722794435 Ba
atom 7.4379914356992920 7.5051716574151977 99.8797552557189050 Ba
atom 5.0138204300317817 5.0190245811897496 97.3692689569711689 Zr
atom 9.9714136904517012 5.0117057488506589 97.3742857011798861 Zr
atom 5.0170085190144018 9.9661109202879370 97.3742857011798861 Zr
atom 9.9640935095510006 9.9692976607090529 97.3792968945235771 Zr
atom 5.0528043326356533 5.0316727241007388 102.5053449844678823 Zr
atom 9.9840272327998587 5.0507239827235733 102.5103674681510739 Zr
atom 5.0296220613625540 10.0051291541608052 102.5103674681510739 Zr
atom 10.0030774121548784 9.9819458036200022 102.5153729220204752 Zr
atom 5.0586324195444217 4.9940961793038072 94.7972375572861523 S
atom 9.9462794864326760 5.0563491200477788 94.8022507773976457 S
atom 4.9918743149953668 10.0107542914850747 94.8022507773976457 S
atom 10.0089054990636654 9.9443692588231336 94.8072654948386884 S
atom 4.9544718854795455 5.1097999755871557 99.9030961636914014 S
atom 10.0623694672264090 4.9525965887677081 99.9081122685942944 S
atom 5.1079642957891309 9.9070017602049774 99.9081122685942944 S
atom 9.9047449649987556 10.0600730551064110 99.9131241012439375 S
atom 5.5420071308937127 2.5435671713876005 97.3850526272289017 S
atom 9.4332614211320927 2.5416601345283558 97.3046070276875099 S
atom 4.4788562496947764 7.4960653059656144 97.3046070276875241 S
atom 10.4922802104129662 7.4938402509068487 97.3950805647815088 S
atom 4.5965683424518327 2.5558155735143724 102.3047189667910004 S
atom 10.3820088956817056 2.5539185554206720 102.5122071634885117 S
atom 5.4276037242443946 7.5083237268579319 102.5122071634885117 S
atom 9.5468414219710365 7.5060886530336388 102.3147469043436217 S
atom 2.5437694143711846 4.4808715101274448 97.2994264268058231 S
atom 7.4959492279561486 5.5398971962388366 97.3902252174697907 S
atom 2.5415440565188856 10.4943023676761342 97.3902252174697907 S
atom 7.4940424938904133 9.4311445896466779 97.3094543643584302 S
atom 2.5560108924009768 5.4296214285793765 102.5073691231022082 S
atom 7.5081848045929513 4.5944583284795169 102.3095365605670111 S
atom 2.5537796331556719 9.5488634999167772 102.3095365605670111 S
atom 7.5062839719202090 10.3798945080986122 102.5173970606548153 S
atom 2.6329929703637101 2.6207726863847709 104.7659822157445149 Ba
atom 7.5731125474014940 2.6310520238854620 104.7709857393604125 Ba
atom 2.6187073759641892 7.5854571953227152 104.7709857393604125 Ba
atom 7.5832660498829547 7.5710457659040298 104.7760101532972214 Ba
atom 5.1214666159091200 4.9186642953989779 105.0430652353141028 S
atom 9.8709148315752238 5.1192329684883555 105.0480810701250363 S
atom 4.9165096601379750 10.0736381399255919 105.0480810701250363 S
atom 10.0717396954283718 9.8689373749182145 105.0530931728665962 S
