#=======================================================
# FHI-aims file: sym_relax/sym_relax_RP_1_Rx0Mz_0RyMz.in
# Created using the Atomic Simulation Environment (ASE)
# Fri Mar 14 10:20:15 2025
#=======================================================
lattice_vector 10.1083997533923977 0.0000243595787217 -0.0003358439916646 
lattice_vector 0.0000243595787217 10.1083997533923959 0.0003358439916646 
lattice_vector 0.0005100181928203 -0.0005100181928204 15.5284656698153842 
atom -0.1566165763028283 -0.0000283347327861 0.2394987654038239 Ba
atom 5.2108316166455246 0.0000260439331572 0.2393220627672043 Ba
atom 0.1566439197386931 5.0542137408399981 0.2396579067588690 Ba
atom 4.8975954801827335 5.0541837217527679 0.2394987654038238 Ba
atom 0.1567759569880848 -0.0001310459524703 4.6131467564134843 Ba
atom 4.8977275174321155 -0.0001610650396922 4.6129876150584410 Ba
atom -0.1564601794747145 5.0540266318671492 4.6133234590501111 Ba
atom 5.2109880134736279 5.0540810105330971 4.6131467564134843 Ba
atom 2.5271857185854056 2.5270263379001516 2.4263227609086564 Zr
atom 7.5813855952815983 2.5270385176895109 2.4261548389128236 Zr
atom 2.5271978983747569 7.5812262145963558 2.4264906829044874 Zr
atom 7.5813977750709558 7.5812383943857213 2.4263227609086564 Zr
atom 2.5271211164357306 2.8451035461914449 -0.1070334049097719 S
atom 7.5812757621613818 2.2091273836477017 -0.1072236570089714 S
atom 2.5270880652545498 7.2633150805545439 -0.1068878130173069 S
atom 7.5813331729212843 7.8993156026770164 -0.1070334049097719 S
atom 2.5272503207350772 2.2089491296088588 4.9596789267270713 S
atom 7.5814954284018148 2.8449496517313229 4.9595333348346129 S
atom 2.5273077314949779 7.8991373486381686 4.9598691788262776 S
atom 7.5814623772206247 7.2631611860944219 4.9596789267270713 S
atom 2.5271714698340348 -0.0000638586802911 2.1154460926724816 S
atom 7.5813876642436124 -0.0000711624262440 2.7368635851531669 S
atom 2.5271999673367751 5.0541165344805989 2.7371994291448316 S
atom 7.5813835263195797 5.0541481978052749 2.1154460926724803 S
atom 0.0000863828174914 2.5270183303259359 2.4263850773446567 S
atom 5.0542850543533202 2.5270343454743638 2.4262604444726525 S
atom 0.0000973574464879 7.5812220423812153 2.4265962884643160 S
atom 5.0542984393030430 7.5812303868114963 2.4263850773446562 S
atom 2.5273893720719722 2.6834675954491982 8.0037316003115198 Ba
atom 7.5815470498915900 2.3702314589864000 8.0035548976749116 Ba
atom 2.5273593529847496 7.4244191558932444 8.0038907416665790 Ba
atom 7.5816014285575370 7.7376796519347568 8.0037316003115198 Ba
atom 2.5274920832916639 2.3700750621582856 12.3773795913211888 Ba
atom 7.5817341588644265 2.6833355581998055 12.3772204499661331 Ba
atom 2.5275464619576002 7.7375232551066517 12.3775562939577899 Ba
atom 7.5817041397772105 7.4242871186438499 12.3773795913211906 Ba
atom 5.0545467559245969 5.0538773570465239 10.1905555958163578 Zr
atom 10.1087466326207860 5.0538895368358938 10.1903876738205117 Zr
atom 5.0545589357139447 10.1080772337427440 10.1907235178121862 Zr
atom 10.1087588124101408 10.1080894135320953 10.1905555958163578 Zr
atom 4.7364695476332965 5.0539419591961980 7.6571994299979274 S
atom 10.4266577666626166 5.0539993699560997 7.6570091778987228 S
atom 5.3724700697557601 10.1081870668629481 7.6573450218903867 S
atom 9.7906816041188591 10.1081540156817535 7.6571994299979274 S
atom 5.3726239642158893 5.0538127548968479 12.7239117616347812 S
atom 9.7908354985789732 5.0537797037156640 12.7237661697423086 S
atom 4.7366478016721363 10.1079674006225186 12.7241020137339742 S
atom 10.4268360207014137 10.1080248113824247 12.7239117616347812 S
atom 5.0545387483503763 2.5267780212786075 10.1904932793803500 S
atom 10.1087424604056313 2.5267889959076002 10.1902820682606947 S
atom 5.0545547634987971 7.5809766928144500 10.1906179122523621 S
atom 10.1087508048359176 7.5809900777641666 10.1904932793803500 S
atom 2.5274565593441500 5.0538631082951460 10.5014322640525197 S
atom 7.5816369525050309 5.0538916057979000 9.8796789275801746 S
atom 2.5274492555981962 10.1080793027047413 9.8800147715718367 S
atom 7.5816686158297095 10.1080751647807077 10.5014322640525197 S
