#=======================================================
# FHI-aims file: sym_relax/sym_relax_RP_8_Rx1Ry20_-Rx2-Ry10.in
# Created using the Atomic Simulation Environment (ASE)
# Mon Mar 17 16:04:59 2025
#=======================================================
lattice_vector 10.0759160091763249 0.0373200037531836 0.0000000000000000 
lattice_vector 0.0373200037531836 10.0759160091763160 0.0000000000000000 
lattice_vector 0.0000000000000000 0.0000000000000000 84.9671153103796115 
atom -0.1633631765350788 -0.0191687477814458 0.2853248577889111 Ba
atom 5.2013211811232489 0.0378287496580374 0.2853248577889111 Ba
atom 0.1820231784116704 5.0571267523695944 0.2853248577889111 Ba
atom 4.8932548299296776 5.0374492586832886 0.2853248577889111 Ba
atom 0.0241375393897914 -0.0311676226911337 4.9551595704620821 Ba
atom 5.0138204651983660 0.0498276245677254 4.9551595704620821 Ba
atom -0.0054775375131997 5.0691256272792735 4.9551595704620821 Ba
atom 5.0807555458545446 5.0254503837736131 4.9551595704620821 Ba
atom 2.5226852895940755 2.5074018965780644 2.3411914396431763 Zr
atom 7.5718907214588373 2.5678761117632667 2.3411914396431763 Zr
atom 2.5525927187472695 7.5871741144748173 2.3411914396431763 Zr
atom 7.5793032960588196 7.5640199030428166 2.3411914396431763 Zr
atom 2.5330247916776716 2.5278079017227033 7.3588983149969902 Zr
atom 7.5615512193752412 2.5474701066186278 7.3588983149969902 Zr
atom 2.5422532166636747 7.5667681093301820 7.3588983149969902 Zr
atom 7.5896427981424228 7.5844259081874474 7.3588983149969902 Zr
atom 2.5777709009626339 2.8079963288284984 -0.1391810909314594 S
atom 7.5168051100902797 2.2672816795128332 -0.1391810909314594 S
atom 2.4975071073787074 7.2865796822243922 -0.1391810909314594 S
atom 7.6343889074273941 7.8646143352932354 -0.1391810909314594 S
atom 2.4234016545627974 2.0772139686233499 4.8864278552678115 S
atom 7.6711743564901225 2.9980640397179781 4.8864278552678115 S
atom 2.6518763537785417 8.0173620424295304 4.8864278552678115 S
atom 7.4800196610275496 7.1338319750880927 4.8864278552678115 S
atom 2.5189790022940817 0.0093300009382958 2.0531833664645540 S
atom 7.5569370068822392 0.0279900028148874 2.7755708669204546 S
atom 2.5376390041706745 5.0472880055264433 2.7755708669204546 S
atom 7.5755970087588382 5.0659480074030423 2.0531833664645540 S
atom 2.5189790022940817 0.0093300009382958 7.8213390774656988 S
atom 7.5569370068822392 0.0279900028148874 6.9117760830595953 S
atom 2.5376390041706745 5.0472880055264433 6.9117760830595953 S
atom 7.5755970087588382 5.0659480074030423 7.8213390774656988 S
atom 0.0093300009382958 2.5189790022940763 2.3913765080561222 S
atom 5.0472880055264628 2.5376390041706669 2.5564861702504511 S
atom 0.0279900028148874 7.5569370068822161 2.5564861702504511 S
atom 5.0659480074030494 7.5755970087588116 2.3913765080561222 S
atom 0.0093300009382958 2.5189790022940763 7.5236155640672786 S
atom 5.0472880055264628 2.5376390041706669 7.2218929541089238 S
atom 0.0279900028148874 7.5569370068822161 7.2218929541089238 S
atom 5.0659480074030494 7.5755970087588116 7.5236155640672786 S
atom -0.0042635517402104 0.0640116736554935 9.8559154997079563 Ba
atom 5.0422215563283697 -0.0453516717789020 9.8559154997079563 Ba
atom 0.0229235536168020 4.9739463309326455 9.8559154997079563 Ba
atom 5.0523544547245445 5.1206296801202402 9.8559154997079563 Ba
atom 0.0029156608356095 -0.0717888518813361 14.8050915426356600 Ba
atom 5.0350423437525516 0.0904488537579276 14.8050915426356600 Ba
atom 0.0157443410409821 5.1097468564694850 14.8050915426356600 Ba
atom 5.0595336673003519 4.9848291545834069 14.8050915426356600 Ba
atom 2.5264723617006362 2.5296866000609826 12.3208355466895068 Zr
atom 7.5681036493522731 2.5455914082803481 12.3208355466895068 Zr
atom 2.5488056466407079 7.5648894109919098 12.3208355466895068 Zr
atom 7.5830903681653954 7.5863046065257214 12.3208355466895068 Zr
atom 2.5287930407860437 2.5280869468171221 17.2803680023256163 Zr
atom 7.5657829702668691 2.5471910615242082 17.2803680023256163 Zr
atom 2.5464849675553021 7.5664890642357774 17.2803680023256163 Zr
atom 7.5854110472508030 7.5847049532818538 17.2803680023256163 Zr
atom 2.6817222408994170 3.0133196329743033 9.8459417684151038 S
atom 7.4128537701535002 2.0619583753670323 9.8459417684151038 S
atom 2.3935557674419279 7.0812563780785833 9.8459417684151038 S
atom 7.7383402473641718 8.0699376394390363 9.8459417684151038 S
atom 2.3497785855448337 2.0495024510397020 14.8023180883888728 S
atom 7.7447974255080938 3.0257755573016327 14.8023180883888728 S
atom 2.7254994227965192 8.0450735600131971 14.8023180883888728 S
atom 7.4063965920095818 7.1061204575044430 14.8023180883888728 S
atom 2.5189790022940817 0.0093300009382958 11.8650480469191777 S
atom 7.5569370068822392 0.0279900028148874 12.7904807496868358 S
atom 2.5376390041706745 5.0472880055264433 12.7904807496868358 S
atom 7.5755970087588382 5.0659480074030423 11.8650480469191777 S
atom 2.5189790022940817 0.0093300009382958 17.7416941306296145 S
atom 7.5569370068822392 0.0279900028148874 16.8222828517602458 S
atom 2.5376390041706745 5.0472880055264433 16.8222828517602458 S
atom 7.5755970087588382 5.0659480074030423 17.7416941306296145 S
atom 0.0093300009382958 2.5189790022940763 12.1304523599883858 S
atom 5.0472880055264628 2.5376390041706669 12.5204632723457756 S
atom 0.0279900028148874 7.5569370068822161 12.5204632723457756 S
atom 5.0659480074030494 7.5755970087588116 12.1304523599883858 S
atom 0.0093300009382958 2.5189790022940763 17.4927859216513077 S
atom 5.0472880055264628 2.5376390041706669 17.0689549395170310 S
atom 0.0279900028148874 7.5569370068822161 17.0689549395170310 S
atom 5.0659480074030494 7.5755970087588116 17.4927859216513077 S
atom -0.0018039827598244 0.0732821644687177 19.7597942582277852 Ba
atom 5.0397619873479860 -0.0546221625921261 19.7597942582277852 Ba
atom 0.0204639846364160 4.9646758401194377 19.7597942582277852 Ba
atom 5.0548140237049317 5.1299001709334462 19.7597942582277852 Ba
atom 0.0029156608356095 -0.0717888518813361 24.7144969738199798 Ba
atom 5.0350423437525516 0.0904488537579276 24.7144969738199798 Ba
atom 0.0157443410409821 5.1097468564694850 24.7144969738199798 Ba
atom 5.0595336673003519 4.9848291545834069 24.7144969738199798 Ba
atom 2.5287930407860437 2.5280869468171221 22.2392205141299861 Zr
atom 7.5657829702668691 2.5471910615242082 22.2392205141299861 Zr
atom 2.5464849675553021 7.5664890642357774 22.2392205141299861 Zr
atom 7.5854110472508030 7.5847049532818538 22.2392205141299861 Zr
atom 2.5264723617006362 2.5296866000609826 27.1987529697661365 Zr
atom 7.5681036493522731 2.5455914082803481 27.1987529697661365 Zr
atom 2.5488056466407079 7.5648894109919098 27.1987529697661365 Zr
atom 7.5830903681653954 7.5863046065257214 27.1987529697661365 Zr
atom 2.7140611442974372 3.0046495845726948 19.7597942582277852 S
atom 7.3805148667554699 2.0706284237686372 19.7597942582277852 S
atom 2.3612168640439064 7.0899264264801927 19.7597942582277852 S
atom 7.7706791507621986 8.0612675910374492 19.7597942582277852 S
atom 2.3497785855448337 2.0495024510397020 24.7172704280667581 S
atom 7.7447974255080938 3.0257755573016327 24.7172704280667581 S
atom 2.7254994227965192 8.0450735600131971 24.7172704280667581 S
atom 7.4063965920095818 7.1061204575044430 24.7172704280667581 S
atom 2.5189790022940817 0.0093300009382958 21.7778943858259666 S
atom 7.5569370068822392 0.0279900028148874 22.6973056646953495 S
atom 2.5376390041706745 5.0472880055264433 22.6973056646953495 S
atom 7.5755970087588382 5.0659480074030423 21.7778943858259666 S
atom 2.5189790022940817 0.0093300009382958 27.6545404695364354 S
atom 7.5569370068822392 0.0279900028148874 26.7291077667687631 S
atom 2.5376390041706745 5.0472880055264433 26.7291077667687631 S
atom 7.5755970087588382 5.0659480074030423 27.6545404695364354 S
atom 0.0093300009382958 2.5189790022940763 22.0268025948043018 S
atom 5.0472880055264628 2.5376390041706669 22.4506335769385927 S
atom 0.0279900028148874 7.5569370068822161 22.4506335769385927 S
atom 5.0659480074030494 7.5755970087588116 22.0268025948043018 S
atom 0.0093300009382958 2.5189790022940763 27.3891361564672167 S
atom 5.0472880055264628 2.5376390041706669 26.9991252441098659 S
atom 0.0279900028148874 7.5569370068822161 26.9991252441098659 S
atom 5.0659480074030494 7.5755970087588116 27.3891361564672167 S
atom -0.0042635517402104 0.0640116736554935 29.6636730167476337 Ba
atom 5.0422215563283697 -0.0453516717789020 29.6636730167476337 Ba
atom 0.0229235536168020 4.9739463309326455 29.6636730167476337 Ba
atom 5.0523544547245445 5.1206296801202402 29.6636730167476337 Ba
atom 0.0241375393897914 -0.0311676226911337 34.5644289459934981 Ba
atom 5.0138204651983660 0.0498276245677254 34.5644289459934981 Ba
atom -0.0054775375131997 5.0691256272792735 34.5644289459934981 Ba
atom 5.0807555458545446 5.0254503837736131 34.5644289459934981 Ba
atom 2.5330247916776716 2.5278079017227033 32.1606902014585927 Zr
atom 7.5615512193752412 2.5474701066186278 32.1606902014585927 Zr
atom 2.5422532166636747 7.5667681093301820 32.1606902014585927 Zr
atom 7.5896427981424228 7.5844259081874474 32.1606902014585927 Zr
atom 2.5226852895940755 2.5074018965780644 37.1783970768124021 Zr
atom 7.5718907214588373 2.5678761117632667 37.1783970768124021 Zr
atom 2.5525927187472695 7.5871741144748173 37.1783970768124021 Zr
atom 7.5793032960588196 7.5640199030428166 37.1783970768124021 Zr
atom 2.6817222408994170 3.0133196329743033 29.6736467480405111 S
atom 7.4128537701535002 2.0619583753670323 29.6736467480405111 S
atom 2.3935557674419279 7.0812563780785833 29.6736467480405111 S
atom 7.7383402473641718 8.0699376394390363 29.6736467480405111 S
atom 2.4234016545627974 2.0772139686233499 34.6331606611877874 S
atom 7.6711743564901225 2.9980640397179781 34.6331606611877874 S
atom 2.6518763537785417 8.0173620424295304 34.6331606611877874 S
atom 7.4800196610275496 7.1338319750880927 34.6331606611877874 S
atom 2.5189790022940817 0.0093300009382958 31.6982494389898939 S
atom 7.5569370068822392 0.0279900028148874 32.6078124333959636 S
atom 2.5376390041706745 5.0472880055264433 32.6078124333959636 S
atom 7.5755970087588382 5.0659480074030423 31.6982494389898939 S
atom 2.5189790022940817 0.0093300009382958 37.4664051499910187 S
atom 7.5569370068822392 0.0279900028148874 36.7440176495351736 S
atom 2.5376390041706745 5.0472880055264433 36.7440176495351736 S
atom 7.5755970087588382 5.0659480074030423 37.4664051499910187 S
atom 0.0093300009382958 2.5189790022940763 31.9959729523883460 S
atom 5.0472880055264628 2.5376390041706669 32.2976955623466537 S
atom 0.0279900028148874 7.5569370068822161 32.2976955623466537 S
atom 5.0659480074030494 7.5755970087588116 31.9959729523883460 S
atom 0.0093300009382958 2.5189790022940763 37.1282120083995153 S
atom 5.0472880055264628 2.5376390041706669 36.9631023462051402 S
atom 0.0279900028148874 7.5569370068822161 36.9631023462051402 S
atom 5.0659480074030494 7.5755970087588116 37.1282120083995153 S
atom -0.1633631765350788 -0.0191687477814458 39.2342636586667339 Ba
atom 5.2013211811232489 0.0378287496580374 39.2342636586667339 Ba
atom 0.1820231784116704 5.0571267523695944 39.2342636586667339 Ba
atom 4.8932548299296776 5.0374492586832886 39.2342636586667339 Ba
atom 2.5777709009626339 2.8079963288284984 39.6587696073871356 S
atom 7.5168051100902797 2.2672816795128332 39.6587696073871356 S
atom 2.4975071073787074 7.2865796822243922 39.6587696073871356 S
atom 7.6343889074273941 7.8646143352932354 39.6587696073871356 S
atom 2.5474777510138154 2.6916721797674490 42.7688825129786778 Ba
atom 7.5470982600390988 2.3836058285738870 42.7688825129786778 Ba
atom 2.5278002573275287 7.4029038312854327 42.7688825129786778 Ba
atom 7.6040957574785750 7.7482901862321922 42.7688825129786778 Ba
atom 2.5594766259235029 2.5041714638425776 47.4387172256519278 Ba
atom 7.5350993851294144 2.5711065444987575 47.4387172256519278 Ba
atom 2.5158013824178371 7.5904045472103077 47.4387172256519278 Ba
atom 7.6160946323882532 7.5607894703073111 47.4387172256519278 Ba
atom 5.0775251131190569 5.0622417201030405 44.8247490948329173 Zr
atom 10.0736689043986054 5.0696542947030254 44.8247490948329173 Zr
atom 5.0543709016870384 10.0889522974145951 44.8247490948329173 Zr
atom 10.1341431195838076 10.1188597265677824 44.8247490948329173 Zr
atom 5.0571191079744162 5.0519022180194399 49.8424559701867764 Zr
atom 10.0940749095432558 5.0799937967866242 49.8424559701867764 Zr
atom 5.0747769068316844 10.0992917994981894 49.8424559701867764 Zr
atom 10.1137371144391714 10.1085202244841881 49.8424559701867764 Zr
atom 4.7769306808686229 5.0071561087344918 42.3443765642582335 S
atom 10.3742633366490491 5.1247399060715901 42.3443765642582335 S
atom 5.3549653339374705 10.1440379087831722 42.3443765642582335 S
atom 9.8335486873333657 10.0637741151992035 42.3443765642582335 S
atom 5.5077130410737754 5.1615253551343168 47.3699855104575889 S
atom 9.6434809764438931 4.9703706596717545 47.3699855104575889 S
atom 4.6241829737323208 9.9896686623833038 47.3699855104575889 S
atom 10.5643310475385181 10.2181433615990720 47.3699855104575889 S
atom 5.0472880055264628 2.5376390041706669 45.0400438254402715 S
atom 10.0852460101146324 2.5562990060472583 44.8749341632458894 S
atom 5.0659480074030494 7.5755970087588116 44.8749341632458894 S
atom 10.1039060119912101 7.5942570106354044 45.0400438254402715 S
atom 5.0472880055264628 2.5376390041706669 49.7054506092987296 S
atom 10.0852460101146324 2.5562990060472583 50.0071732192570622 S
atom 5.0659480074030494 7.5755970087588116 50.0071732192570622 S
atom 10.1039060119912101 7.5942570106354044 49.7054506092987296 S
atom 2.5376390041706745 5.0472880055264433 45.2591285221102311 S
atom 7.5755970087588382 5.0659480074030423 44.5367410216543504 S
atom 2.5562990060472663 10.0852460101145809 44.5367410216543504 S
atom 7.5942570106354266 10.1039060119911888 45.2591285221102311 S
atom 2.5376390041706745 5.0472880055264433 49.3953337382494411 S
atom 7.5755970087588382 5.0659480074030423 50.3048967326554717 S
atom 2.5562990060472663 10.0852460101145809 50.3048967326554717 S
atom 7.5942570106354266 10.1039060119911888 49.3953337382494411 S
atom 2.4642973295768824 2.5325725549725835 52.3394731548977248 Ba
atom 7.6302786814760335 2.5427054533687512 52.3394731548977248 Ba
atom 2.6109806787644554 7.5620034560803093 52.3394731548977248 Ba
atom 7.5209153360416297 7.5891905614373139 52.3394731548977248 Ba
atom 2.6000978551137135 2.5253933423967609 57.2886491978254853 Ba
atom 7.4944781559392029 2.5498846659445666 57.2886491978254853 Ba
atom 2.4751801532276296 7.5691826686561292 57.2886491978254853 Ba
atom 7.6567158615784647 7.5820113488615037 57.2886491978254853 Ba
atom 5.0552404096361343 5.0584546479964763 54.8043932018792859 Zr
atom 10.0959536078815439 5.0734413668096021 54.8043932018792859 Zr
atom 5.0766556051699574 10.0927393695211549 54.8043932018792859 Zr
atom 10.1118584161008922 10.1150726544612155 54.8043932018792859 Zr
atom 5.0568400628800161 5.0561339689110740 59.7639256575153937 Zr
atom 10.0943539546376702 5.0757620458950017 59.7639256575153937 Zr
atom 5.0750559519260872 10.0950600486065518 59.7639256575153937 Zr
atom 10.1134580693447411 10.1127519753758133 59.7639256575153937 Zr
atom 4.5716073767228318 4.9032047687977061 52.3294994236048367 S
atom 10.5795866407948367 5.2286912460083697 52.3294994236048367 S
atom 5.5602886380832741 10.2479892487199198 52.3294994236048367 S
atom 9.6282253831875835 9.9598227752624187 52.3294994236048367 S
atom 5.5354245586574242 5.2351484241522881 57.2858757435786643 S
atom 9.6157694588602389 4.8967475906537761 57.2858757435786643 S
atom 4.5964714561486675 9.9160455933653449 57.2858757435786643 S
atom 10.5920425651221866 10.2917664306170256 57.2858757435786643 S
atom 5.0472880055264628 2.5376390041706669 55.0040209275355565 S
atom 10.0852460101146324 2.5562990060472583 54.6140100151781738 S
atom 5.0659480074030494 7.5755970087588116 54.6140100151781738 S
atom 10.1039060119912101 7.5942570106354044 55.0040209275355565 S
atom 5.0472880055264628 2.5376390041706669 59.5525125947068190 S
atom 10.0852460101146324 2.5562990060472583 59.9763435768411100 S
atom 5.0659480074030494 7.5755970087588116 59.9763435768411100 S
atom 10.1039060119912101 7.5942570106354044 59.5525125947068190 S
atom 2.5376390041706745 5.0472880055264433 55.2740384048766202 S
atom 7.5755970087588382 5.0659480074030423 54.3486057021089550 S
atom 2.5562990060472663 10.0852460101145809 54.3486057021089550 S
atom 7.5942570106354266 10.1039060119911888 55.2740384048766202 S
atom 2.5376390041706745 5.0472880055264433 59.3058405069500694 S
atom 7.5755970087588382 5.0659480074030423 60.2252517858194381 S
atom 2.5562990060472663 10.0852460101145809 60.2252517858194381 S
atom 7.5942570106354266 10.1039060119911888 59.3058405069500694 S
atom 2.4550268387636565 2.5301129859921936 62.2433519134175910 Ba
atom 7.6395491722892448 2.5451650223491376 62.2433519134175910 Ba
atom 2.6202511695776880 7.5644630250607010 62.2433519134175910 Ba
atom 7.5116448452284112 7.5867309924569284 62.2433519134175910 Ba
atom 2.6000978551137135 2.5253933423967605 67.1980546290099028 Ba
atom 7.4944781559392029 2.5498846659445666 67.1980546290099028 Ba
atom 2.4751801532276296 7.5691826686561292 67.1980546290099028 Ba
atom 7.6567158615784647 7.5820113488615037 67.1980546290099028 Ba
atom 5.0568400628800161 5.0561339689110740 64.7227781693196675 Zr
atom 10.0943539546376702 5.0757620458950017 64.7227781693196675 Zr
atom 5.0750559519260872 10.0950600486065518 64.7227781693196675 Zr
atom 10.1134580693447411 10.1127519753758133 64.7227781693196675 Zr
atom 5.0552404096361343 5.0584546479964763 69.6823106249558037 Zr
atom 10.0959536078815439 5.0734413668096021 69.6823106249558037 Zr
atom 5.0766556051699574 10.0927393695211549 69.6823106249558037 Zr
atom 10.1118584161008922 10.1150726544612155 69.6823106249558037 Zr
atom 4.5802774251244260 4.8708658653996739 62.2433519134175910 S
atom 10.5709165923932442 5.2610301494064018 62.2433519134175910 S
atom 5.5516185896816737 10.2803281521179493 62.2433519134175910 S
atom 9.6368954315891759 9.9274838718644176 62.2433519134175910 S
atom 5.5354245586574242 5.2351484241522881 67.2008280832563827 S
atom 9.6157694588602389 4.8967475906537761 67.2008280832563827 S
atom 4.5964714561486675 9.9160455933653449 67.2008280832563827 S
atom 10.5920425651221866 10.2917664306170256 67.2008280832563827 S
atom 5.0472880055264628 2.5376390041706669 64.9341912321283274 S
atom 10.0852460101146324 2.5562990060472583 64.5103602499941360 S
atom 5.0659480074030494 7.5755970087588116 64.5103602499941360 S
atom 10.1039060119912101 7.5942570106354044 64.9341912321283274 S
atom 5.0472880055264628 2.5376390041706669 69.4826828992996042 S
atom 10.0852460101146324 2.5562990060472583 69.8726938116569727 S
atom 5.0659480074030494 7.5755970087588116 69.8726938116569727 S
atom 10.1039060119912101 7.5942570106354044 69.4826828992996042 S
atom 2.5376390041706745 5.0472880055264433 65.1808633198850771 S
atom 7.5755970087588382 5.0659480074030423 64.2614520410157297 S
atom 2.5562990060472663 10.0852460101145809 64.2614520410157297 S
atom 7.5942570106354266 10.1039060119911888 65.1808633198850771 S
atom 2.5376390041706745 5.0472880055264433 69.2126654219586470 S
atom 7.5755970087588382 5.0659480074030423 70.1380981247264117 S
atom 2.5562990060472663 10.0852460101145809 70.1380981247264117 S
atom 7.5942570106354266 10.1039060119911888 69.2126654219586470 S
atom 2.4642973295768824 2.5325725549725835 72.1472306719374217 Ba
atom 7.6302786814760335 2.5427054533687512 72.1472306719374217 Ba
atom 2.6109806787644554 7.5620034560803093 72.1472306719374217 Ba
atom 7.5209153360416297 7.5891905614373139 72.1472306719374217 Ba
atom 2.5594766259235029 2.5041714638425776 77.0479866011833394 Ba
atom 7.5350993851294144 2.5711065444987575 77.0479866011833394 Ba
atom 2.5158013824178371 7.5904045472103077 77.0479866011833394 Ba
atom 7.6160946323882532 7.5607894703073111 77.0479866011833394 Ba
atom 5.0571191079744162 5.0519022180194399 74.6442478566483203 Zr
atom 10.0940749095432558 5.0799937967866242 74.6442478566483203 Zr
atom 5.0747769068316844 10.0992917994981894 74.6442478566483203 Zr
atom 10.1137371144391714 10.1085202244841881 74.6442478566483203 Zr
atom 5.0775251131190569 5.0622417201030405 79.6619547320022434 Zr
atom 10.0736689043986054 5.0696542947030254 79.6619547320022434 Zr
atom 5.0543709016870384 10.0889522974145951 79.6619547320022434 Zr
atom 10.1341431195838076 10.1188597265677824 79.6619547320022434 Zr
atom 4.5716073767228318 4.9032047687977061 72.1572044032302813 S
atom 10.5795866407948367 5.2286912460083697 72.1572044032302813 S
atom 5.5602886380832741 10.2479892487199198 72.1572044032302813 S
atom 9.6282253831875835 9.9598227752624187 72.1572044032302813 S
atom 5.5077130410737754 5.1615253551343168 77.1167183163775150 S
atom 9.6434809764438931 4.9703706596717545 77.1167183163775150 S
atom 4.6241829737323208 9.9896686623833038 77.1167183163775150 S
atom 10.5643310475385181 10.2181433615990720 77.1167183163775150 S
atom 5.0472880055264628 2.5376390041706669 74.7812532175362747 S
atom 10.0852460101146324 2.5562990060472583 74.4795306075781411 S
atom 5.0659480074030494 7.5755970087588116 74.4795306075781411 S
atom 10.1039060119912101 7.5942570106354044 74.7812532175362747 S
atom 5.0472880055264628 2.5376390041706669 79.4466600013950881 S
atom 10.0852460101146324 2.5562990060472583 79.6117696635891576 S
atom 5.0659480074030494 7.5755970087588116 79.6117696635891576 S
atom 10.1039060119912101 7.5942570106354044 79.4466600013950881 S
atom 2.5376390041706745 5.0472880055264433 75.0913700885857196 S
atom 7.5755970087588382 5.0659480074030423 74.1818070941796606 S
atom 2.5562990060472663 10.0852460101145809 74.1818070941796606 S
atom 7.5942570106354266 10.1039060119911888 75.0913700885857196 S
atom 2.5376390041706745 5.0472880055264433 79.2275753047250362 S
atom 7.5755970087588382 5.0659480074030423 79.9499628051808600 S
atom 2.5562990060472663 10.0852460101145809 79.9499628051808600 S
atom 7.5942570106354266 10.1039060119911888 79.2275753047250362 S
atom 2.5474777510138154 2.6916721797674490 81.7178213138562910 Ba
atom 7.5470982600390988 2.3836058285738870 81.7178213138562910 Ba
atom 2.5278002573275287 7.4029038312854327 81.7178213138562910 Ba
atom 7.6040957574785750 7.7482901862321922 81.7178213138562910 Ba
atom 4.7769306808686220 5.0071561087344918 82.1423272625769556 S
atom 10.3742633366490491 5.1247399060715901 82.1423272625769556 S
atom 5.3549653339374705 10.1440379087831722 82.1423272625769556 S
atom 9.8335486873333657 10.0637741151992035 82.1423272625769556 S
