#=======================================================
# FHI-aims file: sym_relax/sym_relax_RP_8_RxRyRz_RxRyRz.in
# Created using the Atomic Simulation Environment (ASE)
# Mon Mar 17 16:17:17 2025
#=======================================================
lattice_vector 9.9505504425479447 -0.0023870725444636 -0.0022396612071555 
lattice_vector -0.0023870725444634 9.9505504425479305 0.0022396612071556 
lattice_vector -0.0132739472641322 0.0132739472641344 86.9536183102320308 
atom 0.0562426107024406 -0.1038485532804517 0.1963234217169968 Ba
atom 5.0791237745544278 -0.0574361469746724 0.1952035911134188 Ba
atom 0.1026550170082209 4.9190326105715174 0.1974432523205748 Ba
atom 5.0303242957041912 4.8702331317212648 0.1963234217169968 Ba
atom -0.2683991347128828 0.2071752332400549 5.0198925132623637 Ba
atom 4.7680999880339083 0.2672055984406507 5.0187726826587822 Ba
atom -0.2083687695122874 5.2436743559868484 5.0210123438659426 Ba
atom 4.7056825502888904 5.1812569182417887 5.0198925132623655 Ba
atom 2.4581721210499481 2.5260736188985429 2.3963806314644409 Zr
atom 7.4232832873771759 2.5147160276795502 2.3952608008608629 Zr
atom 2.4468145298309665 7.4911847852257347 2.3975004620680211 Zr
atom 7.4322538060517163 7.5001553039002724 2.3963806314644414 Zr
atom 2.4023526788266443 2.5352940767530683 7.4883512124841030 Zr
atom 7.4140628295226598 2.5705354699028691 7.4872313818805267 Zr
atom 2.4375940719764420 7.5470042274490634 7.4894710430876872 Zr
atom 7.3764343638283876 7.5093757617548089 7.4883512124841021 Zr
atom 2.6135760889798680 2.7483783854611863 -0.1193814872242254 S
atom 7.2009785208145214 2.3593120597496404 -0.1205013178278035 S
atom 2.2245097632683302 7.3357808172958423 -0.1182616566206479 S
atom 7.5876577739816033 7.7224600704629216 -0.1193814872242254 S
atom 2.2306647599142715 2.2964875784066288 4.9769538706334586 S
atom 7.6528693278691060 2.7422233888152401 4.9758340400298815 S
atom 2.6764005703228806 7.7186921463614349 4.9780737012370340 S
atom 7.2047464449160197 7.2705692634083547 4.9769538706334595 S
atom 2.7424812382841219 0.0446841461843459 2.2601633255853439 S
atom 7.0752665788993827 0.0466182830202677 2.7386205509619326 S
atom 2.0987978213531644 5.0230870405664740 2.7408602121690890 S
atom 7.7165629232858635 5.0187658311860845 2.2601633255853439 S
atom 2.9243156141490267 0.0530765561725200 7.7057191314205484 S
atom 6.9636104218924313 0.0529717210022154 7.3170927441036682 S
atom 1.9871416643461997 5.0294404785484152 7.3193324053108260 S
atom 7.8983972991507923 5.0271582411742539 7.7057191314205493 S
atom -0.0458776824565783 2.2327939829898593 2.2612831561889197 S
atom 4.9262698657092514 2.8740903273763521 2.7397403815655159 S
atom -0.0501988918369631 7.8505590849225424 2.7419800427726688 S
atom 4.9282040025451677 7.2068756679915857 2.2612831561889188 S
atom -0.0542700924447515 2.0509596071249403 7.7068389620241264 S
atom 4.9199164277273049 2.9857464843833013 7.3182125747072444 S
atom -0.0565523298189116 7.9622152419294991 7.3204522359143960 S
atom 4.9198115925570054 7.0250412921266570 7.7068389620241291 S
atom -0.0051597650469787 -0.0726442127966528 10.0478360326619995 Ba
atom 5.0479194340706295 0.0039662287747464 10.0467162020584091 Ba
atom 0.0714506765244219 4.9804349863209403 10.0489558632655687 Ba
atom 4.9689219199547638 4.9014374722050844 10.0478360326619995 Ba
atom 0.0492123100317530 0.0172920129971827 15.1300654009256057 Ba
atom 4.9579832082767981 -0.0504058463039845 15.1289455703220241 Ba
atom -0.0184855492694137 4.9260629112422185 15.1311852315291837 Ba
atom 5.0232939950335060 4.9913736979989025 15.1300654009256093 Ba
atom 2.4904557008242203 2.4953581175569841 12.5757620810715895 Zr
atom 7.4539987887187369 2.4824324479052926 12.5746422504680115 Zr
atom 2.4775300311725181 7.4589012054514896 12.5768819116751693 Zr
atom 7.4645373858259481 7.4694398025587203 12.5757620810715967 Zr
atom 2.4855328166315007 2.4888876528009511 17.6727220737730129 Zr
atom 7.4604692534747850 2.4873553320980237 17.6716022431693958 Zr
atom 2.4840004959285578 7.4638240896442021 17.6738419043766051 Zr
atom 7.4596145016332551 7.4629693378026731 17.6727220737730129 Zr
atom 2.5717371916255112 2.6700544024952841 10.0431613893917309 S
atom 7.2793025037804364 2.4011509571040044 10.0420415587881493 S
atom 2.3028337462342368 7.3776197146501890 10.0442812199953391 S
atom 7.5458188766272691 7.6441360874969924 10.0431613893917326 S
atom 2.4102852102867698 2.4479006540745516 15.1298043940308897 S
atom 7.5014562522011721 2.5626029384427471 15.1286845634273295 S
atom 2.5249874946549600 7.5390716959889295 15.1309242246344962 S
atom 7.3843668952885153 7.4219823390762798 15.1298043940308897 S
atom 1.9901550040224192 0.0091733918658911 12.5199216614627673 S
atom 7.9819108108466477 0.0089792682112353 12.6580537231790018 S
atom 3.0054420533004218 4.9854480257574139 12.6602933843861614 S
atom 6.9642366890241716 4.9832550768676214 12.5199216614627655 S
atom 3.0016599286072694 0.0044825002684106 17.7110339335316276 S
atom 6.9424646620951167 0.0032329314323864 17.6400834858675104 S
atom 1.9659959045489004 4.9797016889785830 17.6423231470746629 S
atom 7.9757416136090322 4.9785641852701437 17.7110339335316382 S
atom -0.0103669281381230 2.9851202172515423 12.5210414920663293 S
atom 4.9639088805182894 1.9674460954290980 12.6591735537825762 S
atom -0.0125598770279303 6.9439148529752908 12.6614132149896985 S
atom 4.9637147568636184 7.9592019022532678 12.5210414920663275 S
atom -0.0056760365406425 1.9736152926667108 17.7121537641352056 S
atom 4.9696552172971318 3.0068922441806087 17.6412033164710209 S
atom -0.0068135402490820 7.9833610017267933 17.6434429776782018 S
atom 4.9684056484611050 6.9476969776684419 17.7121537641351985 S
atom -0.0236354725306647 -0.0174615435706025 20.2217717000540276 Ba
atom 4.9927367648445964 0.0224419362584327 20.2206518694504744 Ba
atom 0.0162680072983718 4.9989106938046177 20.2228915306576589 Ba
atom 4.9504462124710846 4.9566201414311442 20.2217717000540276 Ba
atom 0.0111180840371205 0.0553862389918148 25.3134779991825667 Ba
atom 4.9198889822821616 -0.0123116203093523 25.3123581685789318 Ba
atom -0.0565797752640458 4.9641571372368425 25.3145978297861198 Ba
atom 4.9851997690388732 5.0294679239935389 25.3134779991825667 Ba
atom 2.4827137238409063 2.4917067455915434 22.7708213263350991 Zr
atom 7.4576501606841763 2.4901744248886102 22.7697014957314963 Zr
atom 2.4811814031379580 7.4666431824348019 22.7719411569386594 Zr
atom 7.4567954088426562 7.4657884305932809 22.7708213263350991 Zr
atom 2.4891841885969397 2.4966296297842656 27.8677813190365598 Zr
atom 7.4527272764914558 2.4837039601325746 27.8666614884329604 Zr
atom 2.4762585189452420 7.4601727176787680 27.8689011496401235 Zr
atom 7.4632658735986563 7.4707113147859916 27.8677813190365598 Zr
atom 2.5249164173809362 2.5310903463409855 20.2217717000540276 S
atom 7.4182665599347484 2.4479717313485700 20.2206518694504744 S
atom 2.4417978023885234 7.4244404888947759 20.2228915306576589 S
atom 7.4989981023826768 7.5051720313427168 20.2217717000540276 S
atom 2.4417267251144974 2.4164591392468209 25.3137390060772240 S
atom 7.5328977670288975 2.5311614236150097 25.3126191754736638 S
atom 2.5564290094826916 7.5076301811611907 25.3148588366807914 S
atom 7.4158084101162434 7.3905408242485482 25.3137390060772240 S
atom 1.9674413637066512 0.0004978924194197 22.7313896359729171 S
atom 7.9771870727667578 -0.0006396112890201 22.8001004224298818 S
atom 3.0007183152205639 4.9758291462571673 22.8023400836370520 S
atom 6.9415230487084161 4.9745795774211414 22.7313896359729135 S
atom 2.9789462882915010 -0.0041929991780607 27.9225019080418129 S
atom 6.9377409240152526 -0.0063859480678690 27.7821301851183939 S
atom 1.9612721664690422 4.9700828094783311 27.7843698463255109 S
atom 7.9530279732932412 4.9698886858236628 27.9225019080418093 S
atom -0.0016914286916514 3.0078338575673116 22.7325094665765270 S
atom 4.9735277600185572 1.9721698335089499 22.8012202530335131 S
atom -0.0029409975276746 6.9486385910551469 22.8034599142406158 S
atom 4.9723902563101054 7.9819155425690465 22.7325094665765342 S
atom 0.0029994629058292 1.9963289329824820 27.9236217386453873 S
atom 4.9792740967973916 3.0116159822604658 27.7832500157219684 S
atom 0.0028053392511736 7.9880847398066654 27.7854896769290995 S
atom 4.9770811479075769 6.9704106179842071 27.9236217386453838 S
atom -0.0788181417567151 0.0010141639130840 30.3957073674461284 Ba
atom 4.9742610573609074 0.0776246054844832 30.3945875368425718 Ba
atom -0.0022077001853145 5.0540933630306828 30.3968271980497313 Ba
atom 4.8952635432450471 4.9750958489148172 30.3957073674461284 Ba
atom 0.2010013042799947 -0.2622252057528205 35.4236508868457065 Ba
atom 5.2375004270268031 -0.2021948405522251 35.4225310562421996 Ba
atom 0.2610316694805900 4.7742739169939643 35.4247707174493129 Ba
atom 5.1750829892817514 4.7118564792489259 35.4236508868457065 Ba
atom 2.5291201477930167 2.4085266077866923 32.9551921876239575 Zr
atom 7.5408302984890359 2.4437680009364846 32.9540723570203582 Zr
atom 2.5643615409428073 7.4202367584826918 32.9563120182275071 Zr
atom 7.5032018327947592 7.3826082927884187 32.9551921876239575 Zr
atom 2.5198996899384998 2.4643460500100032 38.0471627686436662 Zr
atom 7.4850108562657152 2.4529884587910189 38.0460429380400527 Zr
atom 2.5085420987194986 7.4294572163372194 38.0482825992472442 Zr
atom 7.4939813749402511 7.4384277350117323 38.0471627686436662 Zr
atom 2.6638804735352277 2.5779111205855605 30.4003820107164167 S
atom 7.3714457856901587 2.3090076751942790 30.3992621801127783 S
atom 2.3949770281439515 7.2854764327404862 30.4015018413199343 S
atom 7.6379621585369586 7.5519928055872958 30.4003820107164131 S
atom 2.2903136494465759 2.2368386888743230 35.4665895294747315 S
atom 7.7125182174014100 2.6825744992829295 35.4654696988711535 S
atom 2.7360494598551846 7.6590432568291327 35.4677093600783451 S
atom 7.2643953344483219 7.2109203738760455 35.4665895294747315 S
atom 2.0447856781648808 -0.0480961634846898 32.7367044380838692 S
atom 7.9560413129694849 -0.0503784008588491 33.1230911641937311 S
atom 2.9795725554232511 4.9260903566873457 33.1253308254008800 S
atom 7.0188673631666365 4.9259855215170267 32.7367044380838692 S
atom 2.2266200540298073 -0.0397037534965156 38.1822602439192238 S
atom 7.8443851559625024 -0.0440249628769014 37.7015633573355018 S
atom 2.8679163984162908 4.9324437946692914 37.7038030185425939 S
atom 7.2007017390315440 4.9343779315052085 38.1822602439192167 S
atom 0.0469026272124583 2.9304895431090894 32.7378242686875893 S
atom 5.0232665495883717 1.9933155933062552 33.1242109947973020 S
atom 0.0467977920421550 6.9697843508524482 33.1264506560044012 S
atom 5.0209843122142157 7.9045712281108278 32.7378242686875893 S
atom 0.0385102172242841 2.7486551672441677 38.1833800745228160 S
atom 5.0169131116064412 2.1049717503132168 37.7026831879390656 S
atom 0.0404443540602064 7.0814405078594076 37.7049228491461932 S
atom 5.0125919022260392 7.7227368522458928 38.1833800745228160 S
atom -0.1100224822405134 0.0624165396625033 40.2472199783911080 Ba
atom 4.9128586816114774 0.1088289459682822 40.2461001477876152 Ba
atom -0.0636100759347334 5.0852977035144740 40.2483398089947215 Ba
atom 4.8640592027612328 5.0364982246642471 40.2472199783911080 Ba
atom 2.7422044565011361 2.6197500179399174 40.5629248873322794 S
atom 7.3296068883358005 2.2306836922283755 40.5618050567287511 S
atom 2.3531381307895898 7.2071524497745862 40.5640447179359285 S
atom 7.7162861415028816 7.5938317029416318 40.5629248873322794 S
atom 2.5366464795712491 2.3898292628524769 43.6731325768332255 Ba
atom 7.5595276434232517 2.4362416691582580 43.6720127462296475 Ba
atom 2.5830588858770263 7.4127104267044599 43.6742524074367537 Ba
atom 7.5107281645729946 7.3639109478542037 43.6731325768332255 Ba
atom 2.2120047341559217 2.7008530493729901 48.4967016683786767 Ba
atom 7.2485038569027376 2.7608834145735881 48.4955818377750987 Ba
atom 2.2720350993565184 7.7373521721197678 48.4978214989822476 Ba
atom 7.1860864191576725 7.6749347343747187 48.4967016683786696 Ba
atom 4.9385759899187613 5.0197514350314627 45.8731897865807170 Zr
atom 9.9036871562460043 5.0083938438124811 45.8720699559770893 Zr
atom 4.9272183986997717 9.9848626013586603 45.8743096171843092 Zr
atom 9.9126576749205189 9.9938331200331945 45.8731897865807170 Zr
atom 4.8827565476954620 5.0289718928860019 50.9651603676003404 Zr
atom 9.8944666983914580 5.0642132860358062 50.9640405369967127 Zr
atom 4.9179979408452494 10.0406820435819792 50.9662801982039184 Zr
atom 9.8568382326972035 10.0030535778877478 50.9651603676003404 Zr
atom 5.0939799578486813 5.2420562015941039 43.3574276678919972 S
atom 9.6813823896833355 4.8529898758825896 43.3563078372884831 S
atom 4.7049136321371190 9.8294586334287342 43.3585474984955610 S
atom 10.0680616428504255 10.2161378865958579 43.3574276678919972 S
atom 4.7110686287830781 4.7901653945395637 48.4537630257495593 S
atom 10.1332731967378891 5.2359012049481750 48.4526431951460594 S
atom 5.1568044391916992 10.2123699624943889 48.4548828563531302 S
atom 9.6851503137848134 9.7642470795413203 48.4537630257495593 S
atom 5.2228851071529334 2.5383619623172837 45.7369724807015601 S
atom 9.5556704477681951 2.5402960991531991 46.2154297060781829 S
atom 4.5792016902219652 7.5167648566993988 46.2176693672853673 S
atom 10.1969667921546243 7.5124436473190048 45.7369724807015601 S
atom 5.4047194830178542 2.5467543723054527 51.1825282865367299 S
atom 9.4440142907611815 2.5466495371351456 50.7939018992198754 S
atom 4.4675455332150147 7.5231182946813462 50.7961415604269959 S
atom 10.3788011680196064 7.5208360573071928 51.1825282865367299 S
atom 2.4345261864122332 4.7264717991227903 45.7380923113051310 S
atom 7.4066737345780487 5.3677681435092701 46.2165495366816899 S
atom 2.4302049770318424 10.3442369010554494 46.2187891978888601 S
atom 7.4086078714139649 9.7005534841245105 45.7380923113051310 S
atom 2.4261337764240567 4.5446374232578686 51.1836481171403292 S
atom 7.4003202965961066 5.4794243005162366 50.7950217298234676 S
atom 2.4238515390499074 10.4558930580624221 50.7972613910306094 S
atom 7.4002154614257920 9.5187191082595763 51.1836481171403292 S
atom 2.4752441038218338 2.4210336033362743 53.5246451877782761 Ba
atom 7.5283233029394463 2.4976440449076769 53.5235253571746696 Ba
atom 2.5518545453932271 7.4741128024538677 53.5257650183817901 Ba
atom 7.4493257888235753 7.3951152883380020 53.5246451877782761 Ba
atom 2.5296161789005671 2.5109698291301186 58.6068745560418876 Ba
atom 7.4383870771455962 2.4432719698289440 58.6057547254382740 Ba
atom 2.4619183195993921 7.4197407273751477 58.6079943866454158 Ba
atom 7.5036978639023175 7.4850515141318485 58.6068745560418876 Ba
atom 4.9708595696930233 4.9890359336899248 56.0525712361877595 Zr
atom 9.9344026575875493 4.9761102640382324 56.0514514055841673 Zr
atom 4.9579339000413407 9.9525790215844090 56.0536910667913304 Zr
atom 9.9449412546948039 9.9631176186916495 56.0525712361877595 Zr
atom 4.9659366855003029 4.9825654689338963 61.1495312288892592 Zr
atom 9.9408731223435804 4.9810331482309449 61.1484113982856243 Zr
atom 4.9644043647973719 9.9575019057771499 61.1506510594927377 Zr
atom 9.9400183705020382 9.9566471539356201 61.1495312288892592 Zr
atom 5.0521410604943275 5.1637322186281951 53.5199705445079346 S
atom 9.7597063726492284 4.8948287732369309 53.5188507139044063 S
atom 4.7832376151030482 9.8712975307831137 53.5210903751114913 S
atom 10.0262227454960637 10.1378139036299455 53.5199705445079346 S
atom 4.8906890791555870 4.9415784702074683 58.6066135491471272 S
atom 9.9818601210699480 5.0562807545756705 58.6054937185435847 S
atom 5.0053913635237590 10.0327495121218693 58.6077333797506128 S
atom 9.8647707641573419 9.9156601552091956 58.6066135491471272 S
atom 4.4705588728912362 2.5028512079988210 55.9967308165790527 S
atom 10.4623146797154227 2.5026570843441704 56.1348628782953014 S
atom 5.4858459221692168 7.4791258418903537 56.1371025395024077 S
atom 9.4446405578929831 7.4769328930005532 55.9967308165790598 S
atom 5.4820637974760684 2.4981603164013420 61.1878430886478455 S
atom 9.4228685309639406 2.4969107475653196 61.1168926409838136 S
atom 4.4463997734177090 7.4733795051115193 61.1191323021908559 S
atom 10.4561454824778099 7.4722420014030764 61.1878430886478313 S
atom 2.4700369407306906 5.4787980333844821 55.9978506471825881 S
atom 7.4443127493871071 4.4611239115620194 56.1359827088987871 S
atom 2.4678439918408830 9.4375926691082181 56.1382223701060141 S
atom 7.4441186257324317 10.4528797183861979 55.9978506471825881 S
atom 2.4747278323281674 4.4672931087996384 61.1889629192514022 S
atom 7.4500590861659362 5.5005700603135361 61.1180124715872992 S
atom 2.4735903286197232 10.4770388178597411 61.1202521327944339 S
atom 7.4488095173299165 9.4413747938013550 61.1889629192513951 S
atom 2.4567683963381453 2.4762162725623300 63.6985808551702846 Ba
atom 7.4731406337133874 2.5161197523913676 63.6974610245667066 Ba
atom 2.4966718761671807 7.4925885099375567 63.6997006857738697 Ba
atom 7.4308500813399059 7.4502979575640671 63.6985808551702846 Ba
atom 2.4915219529059338 2.5490640551247510 68.7902871542987242 Ba
atom 7.4002928511509811 2.4813661958235791 68.7891673236950965 Ba
atom 2.4238240936047570 7.4578349533697823 68.7914069849022951 Ba
atom 7.4656036379076829 7.5231457401264787 68.7902871542987242 Ba
atom 4.9631175927097022 4.9853845617244730 66.2476304814512673 Zr
atom 9.9380540295529833 4.9838522410215500 66.2465106508477248 Zr
atom 4.9615852720067686 9.9603209985677310 66.2487503120549519 Zr
atom 9.9371992777114659 9.9594662467262065 66.2476304814512673 Zr
atom 4.9695880574657307 4.9903074459171943 71.3445904741527812 Zr
atom 9.9331311453602531 4.9773817762655082 71.3434706435492672 Zr
atom 4.9566623878140588 9.9538505338116963 71.3457103047563805 Zr
atom 9.9436697424674918 9.9643891309189421 71.3445904741528096 Zr
atom 5.0053202862497388 5.0247681624739178 63.6985808551702846 S
atom 9.8986704288035465 4.9416495474815187 63.6974610245667066 S
atom 4.9222016712573335 9.9181183050276953 63.6997006857738697 S
atom 9.9794019712514999 9.9988498474756380 63.6985808551702846 S
atom 4.9221305939833062 4.9101369553797456 68.7905481611934988 S
atom 10.0133016358976938 5.0248392397479522 68.7894283305897716 S
atom 5.0368328783515066 10.0013079972941465 68.7916679917971550 S
atom 9.8962122789850504 9.8842186403814747 68.7905481611934988 S
atom 4.4478452325754736 2.4941757085523548 66.2081987910890746 S
atom 10.4575909416355746 2.4930382048439053 66.2769095775461778 S
atom 5.4811221840893696 7.4695069623901063 66.2791492387534191 S
atom 9.4219269175772133 7.4682573935540724 66.2081987910890604 S
atom 5.4593501571603120 2.4894848169548740 71.3993110631582653 S
atom 9.4181447928840747 2.4872918680650664 71.2589393402346616 S
atom 4.4416760353378555 7.4637606256112612 71.2611790014419597 S
atom 10.4334318421620331 7.4635665019565911 71.3993110631582653 S
atom 2.4787124401771554 5.5015116737002412 66.2093186216926313 S
atom 7.4539316288873456 4.4658476496418880 66.2780294081497772 S
atom 2.4774628713411451 9.4423164071880681 66.2802690693568337 S
atom 7.4527941251789178 10.4755933587019872 66.2093186216926455 S
atom 2.4834033317746314 4.4900067491154010 71.4004308937618788 S
atom 7.4596779656661978 5.5052937983933949 71.2600591708383320 S
atom 2.4832092081199808 10.4817625559396053 71.2622988320455164 S
atom 7.4574850167763964 9.4640884341171301 71.4004308937618788 S
atom 2.4015857271120917 2.4946919800460159 73.8725165225621225 Ba
atom 7.4546649262297136 2.5713024216174105 73.8713966919586227 Ba
atom 2.4781961686834850 7.5477711791636013 73.8736363531657361 Ba
atom 7.3756674121138435 7.4687736650477543 73.8725165225621225 Ba
atom 2.6814051731487987 2.2314526103801056 78.9004600419618924 Ba
atom 7.7179042958956110 2.2914829755807009 78.8993402113582221 Ba
atom 2.7414355383494020 7.2679517331268961 78.9015798725653354 Ba
atom 7.6554868581505602 7.2055342953818453 78.9004600419618924 Ba
atom 5.0095240166618247 4.9022044239196250 76.4320013427403353 Zr
atom 10.0212341673577985 4.9374458170694142 76.4308815121368212 Zr
atom 5.0447654098116317 9.9139145746155943 76.4331211733439204 Zr
atom 9.9836057016635849 9.8762861089213843 76.4320013427403353 Zr
atom 5.0003035588073015 4.9580238661429412 81.5239719237597882 Zr
atom 9.9654147251345062 4.9466662749239614 81.5228520931563025 Zr
atom 4.9889459675883048 9.9231350324701530 81.5250917543635012 Zr
atom 9.9743852438090546 9.9321055511446570 81.5239719237597882 Zr
atom 5.1442843424040285 5.0715889367184968 73.8771911658327838 S
atom 9.8518496545589880 4.8026854913272174 73.8760713352289571 S
atom 4.8753808970127483 9.7791542488734056 73.8783109964361557 S
atom 10.1183660274058216 10.0456706217202179 73.8771911658327838 S
atom 4.7707175183153874 4.7305165050072491 78.9433986845906333 S
atom 10.1929220862701886 5.1762523154158711 78.9422788539872187 S
atom 5.2164533287239863 10.1527210729620627 78.9445185151943747 S
atom 9.7447992033171520 9.7045981900089906 78.9433986845906333 S
atom 4.5251895470336789 2.4455816526482348 76.2135135932001475 S
atom 10.4364451818382769 2.4432994152740863 76.5999003193099668 S
atom 5.4599764242920541 7.4197681728202749 76.6021399805170802 S
atom 9.4992712320354382 7.4196633376499701 76.2135135932001475 S
atom 4.7070239228986130 2.4539740626364148 81.6590693990352179 S
atom 10.3247890248312881 2.4496528532560222 81.1783725124516025 S
atom 5.3483202672851036 7.4261216108022259 81.1806121736587585 S
atom 9.6811056079003581 7.4280557476381510 81.6590693990352179 S
atom 2.5273064960812648 5.4241673592420252 76.2146334238037610 S
atom 7.5036704184571876 4.4869934094391795 76.6010201499136656 S
atom 2.5272016609109578 9.4634621669853800 76.6032598111206653 S
atom 7.5013881810830103 10.3982490442437285 76.2146334238037610 S
atom 2.5189140860930985 5.2423329833770955 81.6601892296390446 S
atom 7.4973169804752375 4.5986495664461460 81.1794923430553297 S
atom 2.5208482229290157 9.5751183239923474 81.1817320042625141 S
atom 7.4929957710948489 10.2164146683788264 81.6601892296390446 S
atom 2.3703813866283001 2.5560943557954330 83.7240291335074005 Ba
atom 7.3932625504802845 2.6025067621012137 83.7229093029038438 Ba
atom 2.4167937929340741 7.5789755196473942 83.7251489641109998 Ba
atom 7.3444630716300470 7.5301760407971541 83.7240291335074005 Ba
atom 5.2226083253699258 5.1134278340728514 84.0397340424485009 S
atom 9.8100107572046120 4.7243615083613175 84.0386142118448589 S
atom 4.8335419996584044 9.7008302659075021 84.0408538730520576 S
atom 10.1966900103717020 10.0875095190746062 84.0397340424485009 S
