#=======================================================
# FHI-aims file: sym_relax/sym_relax_RP_7_Rx0Mz_0Ry0.in
# Created using the Atomic Simulation Environment (ASE)
# Mon Mar 17 15:48:26 2025
#=======================================================
lattice_vector 10.0781894219146650 0.0000000000000000 -0.0050500911135223 
lattice_vector 0.0000000000000000 10.0845027654021848 0.0000000000000000 
lattice_vector -0.0398653026490495 0.0000000000000001 74.9414553039645881 
atom -0.1313785980746557 0.0000000000000000 0.2691621255500591 Ba
atom 5.2122626930548464 0.0000000000000000 0.2680282186941918 Ba
atom 0.1731679820975222 5.0422513827010915 0.2705532642509533 Ba
atom 4.9077161128826567 5.0422513827010915 0.2666370799932981 Ba
atom 0.0718844760380893 0.0000000000000000 4.9257802390608241 Ba
atom 5.0568786004493518 0.0000000000000000 4.9408024902436161 Ba
atom 0.0177838894920321 5.0422513827010915 4.9433275358003730 Ba
atom 5.1109791869953964 5.0422513827010915 4.9232551935040503 Ba
atom 2.5433142319760322 2.5088149467430094 2.3116058461276383 Zr
atom 7.5824089429333492 2.5334364359580888 2.3090808005708787 Zr
atom 2.5433142319760313 7.5756878186591843 2.3116058461276383 Zr
atom 7.5824089429333510 7.5510663294441107 2.3090808005708769 Zr
atom 2.5402783161521083 2.5195158624289298 7.3267527980771838 Zr
atom 7.5793730271094182 2.5227355202721657 7.3242277525204198 Zr
atom 2.5402783161521074 7.5649869029732528 7.3267527980771838 Zr
atom 7.5793730271094182 7.5617672451300262 7.3242277525204198 Zr
atom 2.5400272714586780 2.8732517873491354 -0.1701574817443629 S
atom 7.5791219824159857 2.1689995953519525 -0.1726825273011237 S
atom 2.5400272714586789 7.2112509780530427 -0.1701574817443628 S
atom 7.5791219824159857 7.9155031700502363 -0.1726825273011236 S
atom 2.5384246565659079 2.0542717466478466 4.8550070211837255 S
atom 7.5775193675232311 2.9879796360532507 4.8524819756269659 S
atom 2.5384246565659079 8.0302310187543462 4.8550070211837255 S
atom 7.5775193675232302 7.0965231293489408 4.8524819756269659 S
atom 2.5393837990336614 0.0000000000000000 2.0006254033929172 S
atom 7.5863906439293363 0.0000000000000000 2.7837271029283168 S
atom 2.5472959329720104 5.0422513827010915 2.7862521484850733 S
atom 7.5784785099910019 5.0422513827010915 1.9981003578361529 S
atom 2.4336642619990334 0.0000000000000000 7.7979443947977005 S
atom 7.6570780708064143 0.0000000000000000 6.8758643787106370 S
atom 2.6179833598491098 5.0422513827010915 6.8783894242674171 S
atom 7.4727589729563570 5.0422513827010915 7.7954193492409383 S
atom 0.0228059165095732 2.5224439344644765 2.4466685876566272 S
atom 5.0619006274669047 2.5198074482366231 2.4441435420998645 S
atom 0.0228059165095732 7.5620588309377146 2.4466685876566272 S
atom 5.0619006274669047 7.5646953171655555 2.4441435420998645 S
atom 0.0151535918460055 2.6295335073458461 7.3427706132749737 S
atom 5.0542483028033347 2.4127178753552392 7.3402455677182035 S
atom 0.0151535918460055 7.4549692580563427 7.3427706132749755 S
atom 5.0542483028033347 7.6717848900469505 7.3402455677182017 S
atom 0.0028870950589092 0.0000000000000000 9.8863031585545578 Ba
atom 5.0593252533960644 0.0000000000000000 9.7786528902961827 Ba
atom 0.0202305424387383 5.0422513827010915 9.7811779358529485 Ba
atom 5.0419818060162198 5.0422513827010915 9.8837781129977884 Ba
atom 0.0026159522409197 0.0000000000000000 14.7332767200737944 Ba
atom 5.0260003622878164 0.0000000000000000 14.8283864385627684 Ba
atom -0.0130943486695165 5.0422513827010915 14.8309114841195200 Ba
atom 5.0417106631982342 5.0422513827010915 14.7307516745170126 Ba
atom 2.5224687254034173 2.5223700277154224 12.2919115115389239 Zr
atom 7.5615634363607667 2.5198813549856776 12.2893864659821759 Zr
atom 2.5224687254034164 7.5621327376867704 12.2919115115389310 Zr
atom 7.5615634363607676 7.5646214104165077 12.2893864659821794 Zr
atom 2.5103678450002662 2.5211256913505458 17.2549936327397582 Zr
atom 7.5494625559575752 2.5211256913505458 17.2524685871830350 Zr
atom 2.5103678450002662 7.5633770740516439 17.2549936327397582 Zr
atom 7.5494625559575752 7.5633770740516439 17.2524685871830350 Zr
atom 2.5274953720140259 3.0192087602164754 9.8158495439326821 S
atom 7.5665900829713619 2.0230426224846125 9.8133244983759447 S
atom 2.5274953720140250 7.0652940051857263 9.8158495439326856 S
atom 7.5665900829713619 8.0614601429175465 9.8133244983759340 S
atom 2.5163235131289534 2.0212628130346828 14.7750849483240358 S
atom 7.5554182240862833 3.0209885696664127 14.7725599027672772 S
atom 2.5163235131289530 8.0632399523675051 14.7750849483240394 S
atom 7.5554182240862833 7.0635141957357765 14.7725599027672772 S
atom 2.6258583311287169 0.0000000000000000 11.8284841944560082 S
atom 7.4589147245582872 0.0000000000000000 12.7669831935983353 S
atom 2.4198200136009720 5.0422513827010915 12.7695082391550976 S
atom 7.6649530420860357 5.0422513827010915 11.8259591488992335 S
atom 2.4176456242796522 0.0000000000000000 17.7264081673690228 S
atom 7.6421847766781825 0.0000000000000000 16.7810540525537775 S
atom 2.6030900657208607 5.0422513827010915 16.7835790981105291 S
atom 7.4567403352369794 5.0422513827010915 17.7238831218122854 S
atom 0.0028482145523283 2.3959690818064616 12.3016049471754201 S
atom 5.0419429255096384 2.6462823008946317 12.2990799016186525 S
atom 0.0028482145523283 7.6885336835957174 12.3016049471754130 S
atom 5.0419429255096384 7.4382204645075758 12.2990799016186436 S
atom -0.0091795104783997 2.6355833362228553 17.2562561555181624 S
atom 5.0299152004789116 2.4066680464782424 17.2537311099613895 S
atom -0.0091795104783997 7.4489194291793197 17.2562561555181624 S
atom 5.0299152004789116 7.6778347189239584 17.2537311099613895 S
atom -0.0209749731977196 0.0000000000000000 19.7792355909625783 Ba
atom 5.0338300386700290 0.0000000000000000 19.6790757813600479 Ba
atom -0.0052646722872828 5.0422513827010915 19.6816008269167924 Ba
atom 5.0181197377596147 5.0422513827010915 19.7767105454058338 Ba
atom -0.0212461160157081 0.0000000000000000 24.6262091524817812 Ba
atom 5.0005051475617837 0.0000000000000000 24.7288093296266638 Ba
atom -0.0385895633955371 5.0422513827010915 24.7313343751833798 Ba
atom 5.0178485949416114 5.0422513827010915 24.6236841069250509 Ba
atom 2.4982669645971045 2.5198813549856758 22.2180757539406137 Zr
atom 7.5373616755544344 2.5223700277154197 22.2155507083839083 Zr
atom 2.4982669645971027 7.5646214104165059 22.2180757539406208 Zr
atom 7.5373616755544344 7.5621327376867669 22.2155507083839154 Zr
atom 2.4804573738484184 2.5227355202721657 27.1832344674023538 Zr
atom 7.5195520848057305 2.5195158624289289 27.1807094218456164 Zr
atom 2.4804573738484184 7.5617672451300235 27.1832344674023538 Zr
atom 7.5195520848057305 7.5649869029732537 27.1807094218456164 Zr
atom 2.5044121768715568 3.0209885696664127 19.7349023171555409 S
atom 7.5435068878288849 2.0212628130346819 19.7323772715987680 S
atom 2.5044121768715568 7.0635141957357765 19.7349023171555302 S
atom 7.5435068878288849 8.0632399523675051 19.7323772715987751 S
atom 2.4932403179864950 2.0230426224846125 24.6941377215468698 S
atom 7.5323350289437956 3.0192087602164763 24.6916126759901360 S
atom 2.4932403179864941 8.0614601429175465 24.6941377215468627 S
atom 7.5323350289437956 7.0652940051857263 24.6916126759901360 S
atom 2.6009156763995471 0.0000000000000000 21.7404790263244578 S
atom 7.4339720698291405 0.0000000000000000 22.6789780254668472 S
atom 2.3948773588718066 5.0422513827010915 22.6815030710235206 S
atom 7.6400103873568579 5.0422513827010915 21.7379539807676920 S
atom 2.4027523301514089 0.0000000000000000 27.6315978412122192 S
atom 7.6261661389588200 0.0000000000000000 26.7095178251251077 S
atom 2.5870714280015021 5.0422513827010915 26.7120428706818771 S
atom 7.4418470411087450 5.0422513827010915 27.6290727956554356 S
atom -0.0212072355091277 2.3959690818064607 22.2109073638608763 S
atom 5.0178874754481910 2.6462823008946308 22.2083823183041247 S
atom -0.0212072355091277 7.6885336835957157 22.2109073638608905 S
atom 5.0178874754481910 7.4382204645075740 22.2083823183041247 S
atom -0.0335126128028041 2.6295335073458461 27.1697416977613919 S
atom 5.0055820981545098 2.4127178753552383 27.1672166522045515 S
atom -0.0335126128028041 7.4549692580563427 27.1697416977613919 S
atom 5.0055820981545098 7.6717848900469505 27.1672166522045515 S
atom -0.0902434969948887 0.0000000000000000 29.5867320719755114 Ba
atom 5.0029518005084803 0.0000000000000000 29.5666597296792055 Ba
atom -0.0361429104488319 5.0422513827010915 29.5691847752359642 Ba
atom 4.9488512139624365 5.0422513827010915 29.5842070264187242 Ba
atom 0.1130195771178569 0.0000000000000000 34.2433501854862712 Ba
atom 4.8475677079030106 0.0000000000000000 34.2394340012286378 Ba
atom -0.1915270030543213 5.0422513827010915 34.2419590467854036 Ba
atom 5.1521142880751922 5.0422513827010915 34.2408251399295978 Ba
atom 2.4774214580244847 2.5334364359580865 32.1983814193519038 Zr
atom 7.5165161689817976 2.5088149467430050 32.1958563737951664 Zr
atom 2.4774214580244847 7.5510663294441116 32.1983814193519038 Zr
atom 7.5165161689817976 7.5756878186591825 32.1958563737951664 Zr
atom 2.4823110334346090 2.9879796360532507 29.6549802442958175 S
atom 7.5214057443919353 2.0542717466478457 29.6524551987390659 S
atom 2.4823110334346108 7.0965231293489408 29.6549802442958175 S
atom 7.5214057443919344 8.0302310187543462 29.6524551987390659 S
atom 2.4807084185418495 2.1689995953519499 34.6801447472239843 S
atom 7.5198031294991754 2.8732517873491372 34.6776197016671190 S
atom 2.4807084185418495 7.9155031700502363 34.6801447472239843 S
atom 7.5198031294991754 7.2112509780530427 34.6776197016671190 S
atom 2.4734397570285163 0.0000000000000000 31.7237351169944581 S
atom 7.5204466019241698 0.0000000000000000 32.5068368165298978 S
atom 2.4813518909668559 5.0422513827010915 32.5093618620866636 S
atom 7.5125344679858221 5.0422513827010915 31.7212100714376781 S
atom -0.0411649374663725 2.5224439344644782 32.0658437233796079 S
atom 4.9979297734909451 2.5198074482366239 32.0633186778229060 S
atom -0.0411649374663725 7.5620588309377146 32.0658437233796079 S
atom 4.9979297734909451 7.5646953171655555 32.0633186778229060 S
atom 2.4819191433727825 2.6740197219778832 37.7555060997881498 Ba
atom 7.5210138543301079 2.3682316607232035 37.7529810542313413 Ba
atom 2.4819191433727825 7.4104830434243159 37.7555060997881355 Ba
atom 7.5210138543301079 7.7162711046789560 37.7529810542313413 Ba
atom 2.4842957928269529 2.4937354339138160 42.4222880985167023 Ba
atom 7.5233905037842952 2.5485159487872830 42.4197630529600360 Ba
atom 2.4842957928269529 7.5907673314883768 42.4222880985167023 Ba
atom 7.5233905037842952 7.5359868166149164 42.4197630529600360 Ba
atom 5.0149620594429125 5.0422513827010915 39.7968329560799035 Zr
atom 10.0291238863324335 5.0422513827010915 39.7938861093727070 Zr
atom 4.9900291753751453 10.0845027654021830 39.7964111549295438 Zr
atom 10.0540567704002175 10.0845027654021830 39.7943079105232584 Zr
atom 5.0062245378744050 5.0422513827010915 44.8087048405441735 Zr
atom 10.0428937569788737 5.0422513827010915 44.8059842885367061 Zr
atom 5.0037990460215624 10.0845027654021830 44.8085093340935288 Zr
atom 10.0453192488317136 10.0845027654021830 44.8061797949873650 Zr
atom 4.6478330257977030 5.0422513827010915 37.3154552833676831 S
atom 10.3938277749345040 5.0422513827010915 37.3121352851298482 S
atom 5.3547330639771635 10.0845027654021830 37.3146603306865785 S
atom 9.6869277367550186 10.0845027654021830 37.3129302378110452 S
atom 5.4771231560965967 5.0422513827010915 42.3384106928446968 S
atom 9.5695680511785568 5.0422513827010915 42.3362596232030484 S
atom 4.5304733402211959 10.0845027654021830 42.3387846687599776 S
atom 10.5162178670538946 10.0845027654021830 42.3358856472880376 S
atom 5.0025745250622666 2.5211045556818585 39.9313162546829972 S
atom 10.0416692360195849 2.5211468270192365 39.9287912091263024 S
atom 5.0025745250622666 7.5633982097203276 39.9313162546829972 S
atom 10.0416692360195849 7.5633559383829381 39.9287912091263024 S
atom 5.0050178362923914 2.5211301419639929 44.8257601366360845 S
atom 10.0441125472497053 2.5211212407371035 44.8232350910792761 S
atom 5.0050178362923914 7.5633726234382115 44.8257601366360703 S
atom 10.0441125472497053 7.5633815246650791 44.8232350910792761 S
atom 2.4831711365992328 5.0422513827010915 40.2756331857937298 S
atom 7.5218950895104637 5.0422513827010915 39.4790057756625785 S
atom 2.4828003785531285 10.0845027654021830 39.4815308212194509 S
atom 7.5222658475565662 10.0845027654021830 40.2731081402369568 S
atom 2.4852496431814766 5.0422513827010915 44.3523524330121290 S
atom 7.5248009594555398 5.0422513827010915 45.2874252041350829 S
atom 2.4857062484982180 10.0845027654021830 45.2899502496917847 S
atom 7.5243443541387940 10.0845027654021830 44.3498273874553419 S
atom 2.4867007697034857 2.5285708672818652 47.3158211905545585 Ba
atom 7.5257954806608254 2.5136805154192308 47.3132961449976932 Ba
atom 2.4867007697034866 7.5559318981203321 47.3158211905545443 Ba
atom 7.5257954806608254 7.5708222499829425 47.3132961449976790 Ba
atom 2.4892192531237249 2.5139776972619092 52.2546365401459951 Ba
atom 7.5283139640810388 2.5282736854391921 52.2521114945892720 Ba
atom 2.4892192531237249 7.5705250681402809 52.2546365401460022 Ba
atom 7.5283139640810388 7.5562290799630061 52.2521114945892862 Ba
atom 5.0059970443626316 5.0422513827010915 49.7675871865289565 Zr
atom 10.0480994767953771 5.0422513827010915 49.7649849629491072 Zr
atom 5.0090047658380650 10.0845027654021830 49.7675100085058517 Zr
atom 10.0450917553199712 10.0845027654021830 49.7650621409722405 Zr
atom 5.0099825491544019 5.0422513827010915 54.7244587619437795 Zr
atom 10.0490772601117087 5.0422513827010915 54.7219337163869355 Zr
atom 5.0099825491544019 10.0845027654021830 54.7244587619437795 Zr
atom 10.0490772601117087 10.0845027654021830 54.7219337163869355 Zr
atom 4.4981192708265070 5.0422513827010915 47.2950214049684377 S
atom 10.5534690160656499 5.0422513827010915 47.2919322607887480 S
atom 5.5143743051083485 10.0845027654021830 47.2944573063454214 S
atom 9.5372139817838590 10.0845027654021830 47.2924963594117571 S
atom 5.5181497144401934 5.0422513827010915 52.2473626709915635 S
atom 9.5384445327345624 5.0422513827010915 52.2453320091733104 S
atom 4.4993498217772352 10.0845027654021830 52.2478570547300052 S
atom 10.5572444253975064 10.0845027654021830 52.2448376254349398 S
atom 5.0075116947393461 2.5211268636465256 49.7748847164003365 S
atom 10.0466064056966626 2.5211245190545619 49.7723596708435494 S
atom 5.0075116947393443 7.5633759017556601 49.7748847164003365 S
atom 10.0466064056966626 7.5633782463476340 49.7723596708435565 S
atom 5.0099825491544019 2.5211256058151585 54.7244587619437795 S
atom 10.0490772601117087 2.5211257768859450 54.7219337163869355 S
atom 5.0099825491544019 7.5633771595870396 54.7244587619437795 S
atom 10.0490772601117087 7.5633769885162305 54.7219337163869355 S
atom 2.4881988002450961 5.0422513827010915 50.2568928113824143 S
atom 7.5268042256555203 5.0422513827010915 49.2940532936607525 S
atom 2.4877095146982060 10.0845027654021830 49.2965783392174757 S
atom 7.5272935112024069 10.0845027654021830 50.2543677658257693 S
atom 2.4901969135849322 5.0422513827010915 54.2450621900028054 S
atom 7.5297681847238449 5.0422513827010915 55.2038553338844622 S
atom 2.4906734737665448 10.0845027654021830 55.2063803794413062 S
atom 7.5292916245422470 10.0845027654021830 54.2425371444461604 S
atom 2.4916511342277445 2.5282736854391912 57.1968060292981590 Ba
atom 7.5307458451850744 2.5139776972619092 57.1942809837414856 Ba
atom 2.4916511342277445 7.5562290799630079 57.1968060292981733 Ba
atom 7.5307458451850744 7.5705250681402809 57.1942809837414714 Ba
atom 2.4941696176479802 2.5136805154192308 62.1356213788896667 Ba
atom 7.5332643286052976 2.5285708672818679 62.1330963333328867 Ba
atom 2.4941696176479802 7.5708222499829425 62.1356213788896667 Ba
atom 7.5332643286052994 7.5559318981203321 62.1330963333329080 Ba
atom 5.0139680539461304 5.0422513827010915 59.6813303373584887 Zr
atom 10.0500550434280278 5.0422513827010915 59.6788824698248135 Zr
atom 5.0109603324707397 10.0845027654021830 59.6814075153815295 Zr
atom 10.0530627649034709 10.0845027654021830 59.6788052918016660 Zr
atom 5.0137405604343845 5.0422513827010915 64.6402126833431652 Zr
atom 10.0552607632445490 5.0422513827010915 64.6378831442372643 Zr
atom 5.0161660522872449 10.0845027654021830 64.6404081897939164 Zr
atom 10.0528352713917002 10.0845027654021830 64.6376876377863709 Zr
atom 4.5018153838685988 5.0422513827010915 57.2015548528958462 S
atom 10.5597099874888745 5.0422513827010915 57.1985354236006742 S
atom 5.5206152765315721 10.0845027654021830 57.2010604691573832 S
atom 9.5409100948258985 10.0845027654021830 57.1990298073389738 S
atom 5.5218458274822835 5.0422513827010915 62.1538961189189507 S
atom 9.5446855041577585 5.0422513827010915 62.1519351719852367 S
atom 4.5055907932004482 10.0845027654021830 62.1544602175419527 S
atom 10.5609405384396240 10.0845027654021830 62.1513710733621565 S
atom 5.0124534035694603 2.5211268636465261 59.6740328074872082 S
atom 10.0515481145267778 2.5211245190545641 59.6715077619303855 S
atom 5.0124534035694603 7.5633759017556628 59.6740328074872082 S
atom 10.0515481145267778 7.5633782463476358 59.6715077619303855 S
atom 5.0149472620163911 2.5211301419639911 64.6231573872516805 S
atom 10.0540419729737174 2.5211212407371049 64.6206323416947868 S
atom 5.0149472620163911 7.5633726234382115 64.6231573872516805 S
atom 10.0540419729737209 7.5633815246650817 64.6206323416947583 S
atom 2.4931608726532586 5.0422513827010915 60.1548642302266785 S
atom 7.5317662980636921 5.0422513827010915 59.1920247125049883 S
atom 2.4926715871063791 10.0845027654021830 59.1945497580617044 S
atom 7.5322555836105858 10.0845027654021830 60.1523391846699838 S
atom 2.4951641388532515 5.0422513827010915 64.1614923197522273 S
atom 7.5347154551273121 5.0422513827010915 65.0965650908754867 S
atom 2.4956207441699885 10.0845027654021830 65.0990901364321388 S
atom 7.5342588498105707 10.0845027654021830 64.1589672741955326 S
atom 2.4965745945245148 2.5485159487872822 67.0291544709276934 Ba
atom 7.5356693054818491 2.4937354339138178 67.0266294253710839 Ba
atom 2.4965745945245126 7.5359868166149164 67.0291544709276792 Ba
atom 7.5356693054818491 7.5907673314883750 67.0266294253710697 Ba
atom 2.4989512439786887 2.3682316607232052 71.6959364696559760 Ba
atom 7.5380459549360062 2.6740197219778814 71.6934114240993381 Ba
atom 2.4989512439786887 7.7162711046789560 71.6959364696559760 Ba
atom 7.5380459549360062 7.4104830434243141 71.6934114240993381 Ba
atom 5.0050030388658797 5.0422513827010915 69.6520845678075062 Zr
atom 10.0690306338910087 5.0422513827010915 69.6499813234010077 Zr
atom 5.0299359229336629 10.0845027654021830 69.6525063689578303 Zr
atom 10.0440977498232300 10.0845027654021830 69.6495595222506125 Zr
atom 4.5428419422122097 5.0422513827010915 67.1105068310426276 S
atom 10.5285864690449351 5.0422513827010915 67.1076078095707658 S
atom 5.4894917580875857 10.0845027654021830 67.1101328551273184 S
atom 9.5819366531695120 10.0845027654021830 67.1079817854859044 S
atom 5.3721320725110937 5.0422513827010915 72.1334622405194068 S
atom 9.7043267452889523 5.0422513827010915 72.1317321476438877 S
atom 4.6652320343316331 10.0845027654021830 72.1342571932006820 S
atom 10.4112267834683863 10.0845027654021830 72.1309371949627121 S
atom 5.0173905732465371 2.5211045556818603 69.5176012692041922 S
atom 10.0564852842038501 2.5211468270192374 69.5150762236478243 S
atom 5.0173905732465371 7.5633982097203294 69.5176012692041922 S
atom 10.0564852842038501 7.5633559383829398 69.5150762236478243 S
atom 2.4980700087983334 5.0422513827010915 69.9699117482245327 S
atom 7.5367939617095487 5.0422513827010915 69.1732843380937652 S
atom 2.4976992507522340 10.0845027654021830 69.1758093836504315 S
atom 7.5371647197556495 10.0845027654021830 69.9673867026677243 S
