#=======================================================
# FHI-aims file: sym_relax/sym_relax_RP_8_RxRy0_RxRy0.in
# Created using the Atomic Simulation Environment (ASE)
# Mon Mar 17 16:02:38 2025
#=======================================================
lattice_vector 10.0675451373450286 0.0987997854745740 0.0000000000000000 
lattice_vector 0.0987997854745740 10.0675451373450215 -0.0000000000000000 
lattice_vector 0.0000000000000000 -0.0000000000000001 84.9962530293789484 
atom -0.0835190886615569 -0.0835190886615566 0.2679970266513906 Ba
atom 5.1172916573340679 0.1329189813988445 0.2679970266513906 Ba
atom 0.1329189813988443 5.1172916573340652 0.2679970266513905 Ba
atom 4.9996533727482610 4.9996533727482451 0.2679970266513905 Ba
atom -0.0076264720631606 -0.0076264720631607 4.9423606161803670 Ba
atom 5.0413990407356906 0.0570263648004487 4.9423606161803706 Ba
atom 0.0570263648004480 5.0413990407356781 4.9423606161803706 Ba
atom 5.0755459893466348 5.0755459893466375 4.9423606161803670 Ba
atom 2.5353103375575508 2.5353103375575459 2.3309769014300357 Zr
atom 7.5816346925247888 2.5972620165895410 2.3309769014300357 Zr
atom 2.5972620165895433 7.5816346925247684 2.3309769014300348 Zr
atom 7.6184827989673556 7.6184827989673467 2.3309769014300357 Zr
atom 2.5432044562116767 2.5432044562116722 7.3542497571997085 Zr
atom 7.5737405738706451 2.5893678979354169 7.3542497571997094 Zr
atom 2.5893678979354142 7.5737405738706371 7.3542497571997094 Zr
atom 7.6263769176214806 7.6263769176214771 7.3542497571997085 Zr
atom 2.7740806719437150 2.7740806719437070 -0.1553484897474851 S
atom 7.3428643581386250 2.3584916822033808 -0.1553484897474850 S
atom 2.3584916822033848 7.3428643581386117 -0.1553484897474849 S
atom 7.8572531333535114 7.8572531333535043 -0.1553484897474850 S
atom 2.2279367977995381 2.2279367977995359 4.8779583888582492 S
atom 7.8890082322827881 2.9046355563475506 4.8779583888582501 S
atom 2.9046355563475559 7.8890082322827775 4.8779583888582501 S
atom 7.3111092592093483 7.3111092592093341 4.8779583888582492 S
atom 2.5168862843362581 0.0246999463686436 2.1647522121185028 S
atom 7.5506588530087795 0.0740998391059308 2.7086653727513306 S
atom 2.5662861770735450 5.0584725150411574 2.7086653727513306 S
atom 7.6000587457460638 5.1078724077784470 2.1647522121185028 S
atom 2.5168862843362581 0.0246999463686436 7.7097920363818249 S
atom 7.5506588530087795 0.0740998391059308 7.0185720844610993 S
atom 2.5662861770735450 5.0584725150411574 7.0185720844610993 S
atom 7.6000587457460638 5.1078724077784470 7.7097920363818249 S
atom 0.0246999463686436 2.5168862843362549 2.1647522121185028 S
atom 5.0584725150411716 2.5662861770735481 2.7086653727513306 S
atom 0.0740998391059309 7.5506588530087706 2.7086653727513306 S
atom 5.1078724077784585 7.6000587457460576 2.1647522121185028 S
atom 0.0246999463686436 2.5168862843362549 7.7097920363818249 S
atom 5.0584725150411716 2.5662861770735481 7.0185720844610993 S
atom 0.0740998391059309 7.5506588530087706 7.0185720844610993 S
atom 5.1078724077784585 7.6000587457460576 7.7097920363818249 S
atom 0.0341961956965214 0.0341961956965214 9.8522199062483313 Ba
atom 4.9995763729760023 0.0152036970407668 9.8522199062483278 Ba
atom 0.0152036970407659 4.9995763729759926 9.8522199062483278 Ba
atom 5.1173686571063230 5.1173686571063222 9.8522199062483313 Ba
atom -0.0354188727973909 -0.0354188727973909 14.8085497151486614 Ba
atom 5.0691914414699086 0.0848187655346790 14.8085497151486596 Ba
atom 0.0848187655346783 5.0691914414698980 14.8085497151486596 Ba
atom 5.0477535886124230 5.0477535886124079 14.8085497151486614 Ba
atom 2.5421495089792536 2.5421495089792541 12.3213142833203371 Zr
atom 7.5747955211030833 2.5904228451678364 12.3213142833203371 Zr
atom 2.5904228451678390 7.5747955211030673 12.3213142833203371 Zr
atom 7.6253219703890505 7.6253219703890425 12.3213142833203371 Zr
atom 2.5414467843051569 2.5414467843051529 17.2850448430950543 Zr
atom 7.5754982457771654 2.5911255698419331 17.2850448430950472 Zr
atom 2.5911255698419358 7.5754982457771618 17.2850448430950472 Zr
atom 7.6246192457149728 7.6246192457149577 17.2850448430950543 Zr
atom 2.8920372193388988 2.8920372193388917 9.8442526091397315 S
atom 7.2249078107434199 2.2405351348081926 9.8442526091397298 S
atom 2.2405351348081908 7.2249078107434137 9.8442526091397298 S
atom 7.9752096807487112 7.9752096807486978 9.8442526091397315 S
atom 2.1871688436687866 2.1871688436687911 14.8051396656558936 S
atom 7.9297761864135232 2.9454035104782967 14.8051396656558865 S
atom 2.9454035104783030 7.9297761864135259 14.8051396656558865 S
atom 7.2703413050785990 7.2703413050785919 14.8051396656558936 S
atom 2.5168862843362581 0.0246999463686436 11.9638199783132286 S
atom 7.5506588530087795 0.0740998391059308 12.6918001302449959 S
atom 2.5662861770735450 5.0584725150411574 12.6918001302449959 S
atom 7.6000587457460638 5.1078724077784470 11.9638199783132286 S
atom 2.5168862843362581 0.0246999463686436 17.6519746732004208 S
atom 7.5506588530087795 0.0740998391059308 16.9211326866562750 S
atom 2.5662861770735450 5.0584725150411574 16.9211326866562750 S
atom 7.6000587457460638 5.1078724077784470 17.6519746732004208 S
atom 0.0246999463686436 2.5168862843362549 11.9638199783132286 S
atom 5.0584725150411716 2.5662861770735481 12.6918001302449959 S
atom 0.0740998391059309 7.5506588530087706 12.6918001302449959 S
atom 5.1078724077784585 7.6000587457460576 11.9638199783132286 S
atom 0.0246999463686436 2.5168862843362549 17.6519746732004208 S
atom 5.0584725150411716 2.5662861770735481 16.9211326866562750 S
atom 0.0740998391059309 7.5506588530087706 16.9211326866562750 S
atom 5.1078724077784585 7.6000587457460576 17.6519746732004208 S
atom 0.0357999494548769 0.0357999494548771 19.7665704719486044 Ba
atom 4.9979726192176539 0.0135999432824112 19.7665704719486044 Ba
atom 0.0135999432824102 4.9979726192176397 19.7665704719486044 Ba
atom 5.1189724108646830 5.1189724108646804 19.7665704719486044 Ba
atom -0.0354188727973909 -0.0354188727973909 24.7245912287485545 Ba
atom 5.0691914414699086 0.0848187655346790 24.7245912287485581 Ba
atom 0.0848187655346783 5.0691914414698980 24.7245912287485581 Ba
atom 5.0477535886124238 5.0477535886124087 24.7245912287485545 Ba
atom 2.5414467843051569 2.5414467843051529 22.2480961008021048 Zr
atom 7.5754982457771654 2.5911255698419331 22.2480961008020977 Zr
atom 2.5911255698419358 7.5754982457771618 22.2480961008020977 Zr
atom 7.6246192457149728 7.6246192457149577 22.2480961008021048 Zr
atom 2.5421495089792536 2.5421495089792541 27.2118266605768717 Zr
atom 7.5747955211030833 2.5904228451678364 27.2118266605768788 Zr
atom 2.5904228451678390 7.5747955211030673 27.2118266605768788 Zr
atom 7.6253219703890505 7.6253219703890425 27.2118266605768717 Zr
atom 2.8964483997780994 2.8964483997780963 19.7665704719486044 S
atom 7.2204966303042157 2.2361239543689919 19.7665704719486044 S
atom 2.2361239543689888 7.2204966303042086 19.7665704719486044 S
atom 7.9796208611879154 7.9796208611878994 19.7665704719486044 S
atom 2.1871688436687866 2.1871688436687911 24.7280012782412832 S
atom 7.9297761864135232 2.9454035104782967 24.7280012782412904 S
atom 2.9454035104783030 7.9297761864135259 24.7280012782412904 S
atom 7.2703413050785990 7.2703413050785919 24.7280012782412832 S
atom 2.5168862843362581 0.0246999463686436 21.8811662706968235 S
atom 7.5506588530087795 0.0740998391059308 22.6120082572409302 S
atom 2.5662861770735450 5.0584725150411574 22.6120082572409302 S
atom 7.6000587457460638 5.1078724077784470 21.8811662706968235 S
atom 2.5168862843362581 0.0246999463686436 27.5693209655839482 S
atom 7.5506588530087795 0.0740998391059308 26.8413408136521987 S
atom 2.5662861770735450 5.0584725150411574 26.8413408136521987 S
atom 7.6000587457460638 5.1078724077784470 27.5693209655839482 S
atom 0.0246999463686436 2.5168862843362549 21.8811662706968235 S
atom 5.0584725150411716 2.5662861770735481 22.6120082572409302 S
atom 0.0740998391059309 7.5506588530087706 22.6120082572409302 S
atom 5.1078724077784585 7.6000587457460576 21.8811662706968235 S
atom 0.0246999463686436 2.5168862843362549 27.5693209655839482 S
atom 5.0584725150411716 2.5662861770735481 26.8413408136521987 S
atom 0.0740998391059309 7.5506588530087706 26.8413408136521987 S
atom 5.1078724077784585 7.6000587457460576 27.5693209655839482 S
atom 0.0341961956965213 0.0341961956965214 29.6809210376488721 Ba
atom 4.9995763729760023 0.0152036970407668 29.6809210376488721 Ba
atom 0.0152036970407659 4.9995763729759926 29.6809210376488721 Ba
atom 5.1173686571063230 5.1173686571063222 29.6809210376488721 Ba
atom -0.0076264720631607 -0.0076264720631607 34.5907803277167787 Ba
atom 5.0413990407356906 0.0570263648004487 34.5907803277167929 Ba
atom 0.0570263648004480 5.0413990407356781 34.5907803277167929 Ba
atom 5.0755459893466348 5.0755459893466375 34.5907803277167787 Ba
atom 2.5432044562116767 2.5432044562116727 32.1788911866974914 Zr
atom 7.5737405738706451 2.5893678979354173 32.1788911866974914 Zr
atom 2.5893678979354142 7.5737405738706371 32.1788911866974914 Zr
atom 7.6263769176214806 7.6263769176214771 32.1788911866974914 Zr
atom 2.5353103375575508 2.5353103375575459 37.2021640424671673 Zr
atom 7.5816346925247888 2.5972620165895410 37.2021640424671673 Zr
atom 2.5972620165895433 7.5816346925247684 37.2021640424671673 Zr
atom 7.6184827989673556 7.6184827989673467 37.2021640424671673 Zr
atom 2.8920372193388988 2.8920372193388917 29.6888883347574435 S
atom 7.2249078107434199 2.2405351348081926 29.6888883347574364 S
atom 2.2405351348081908 7.2249078107434137 29.6888883347574364 S
atom 7.9752096807487112 7.9752096807486978 29.6888883347574435 S
atom 2.2279367977995381 2.2279367977995359 34.6551825550389339 S
atom 7.8890082322827881 2.9046355563475506 34.6551825550389339 S
atom 2.9046355563475559 7.8890082322827775 34.6551825550389339 S
atom 7.3111092592093483 7.3111092592093341 34.6551825550389339 S
atom 2.5168862843362581 0.0246999463686436 31.8233489075153386 S
atom 7.5506588530087795 0.0740998391059308 32.5145688594361033 S
atom 2.5662861770735450 5.0584725150411574 32.5145688594361033 S
atom 7.6000587457460638 5.1078724077784470 31.8233489075153386 S
atom 2.5168862843362581 0.0246999463686436 37.3683887317787082 S
atom 7.5506588530087795 0.0740998391059308 36.8244755711458964 S
atom 2.5662861770735450 5.0584725150411574 36.8244755711458964 S
atom 7.6000587457460638 5.1078724077784470 37.3683887317787082 S
atom 0.0246999463686436 2.5168862843362549 31.8233489075153386 S
atom 5.0584725150411716 2.5662861770735481 32.5145688594361033 S
atom 0.0740998391059309 7.5506588530087706 32.5145688594361033 S
atom 5.1078724077784585 7.6000587457460576 31.8233489075153386 S
atom 0.0246999463686436 2.5168862843362549 37.3683887317787082 S
atom 5.0584725150411716 2.5662861770735481 36.8244755711458964 S
atom 0.0740998391059309 7.5506588530087706 36.8244755711458964 S
atom 5.1078724077784585 7.6000587457460576 37.3683887317787082 S
atom -0.0835190886615569 -0.0835190886615557 39.2651439172457870 Ba
atom 5.1172916573340679 0.1329189813988449 39.2651439172457870 Ba
atom 0.1329189813988443 5.1172916573340652 39.2651439172457870 Ba
atom 4.9996533727482610 4.9996533727482459 39.2651439172457870 Ba
atom 2.7740806719437150 2.7740806719437070 39.6884894336446976 S
atom 7.3428643581386241 2.3584916822033803 39.6884894336446976 S
atom 2.3584916822033839 7.3428643581386117 39.6884894336446976 S
atom 7.8572531333535114 7.8572531333535043 39.6884894336446976 S
atom 2.4580671420433449 2.4580671420433431 42.7661235413409386 Ba
atom 7.6588778880389725 2.6745052121037483 42.7661235413409386 Ba
atom 2.6745052121037451 7.6588778880389627 42.7661235413409386 Ba
atom 7.5412396034531692 7.5412396034531470 42.7661235413409386 Ba
atom 2.5339597586417404 2.5339597586417399 47.4404871308698475 Ba
atom 7.5829852714405943 2.5986125955053505 47.4404871308698333 Ba
atom 2.5986125955053549 7.5829852714405739 47.4404871308698333 Ba
atom 7.6171322200515474 7.6171322200515323 47.4404871308698475 Ba
atom 5.0768965682624545 5.0768965682624438 44.8291034161195725 Zr
atom 10.1232209232296597 5.1388482472944430 44.8291034161195725 Zr
atom 5.1388482472944537 10.1232209232296650 44.8291034161195725 Zr
atom 10.1600690296722469 10.1600690296722469 44.8291034161195725 Zr
atom 5.0847906869165795 5.0847906869165751 49.8523762718891632 Zr
atom 10.1153268045755418 5.1309541286403055 49.8523762718891632 Zr
atom 5.1309541286403189 10.1153268045755276 49.8523762718891632 Zr
atom 10.1679631483263915 10.1679631483263790 49.8523762718891632 Zr
atom 5.3156669026486103 5.3156669026486014 42.3427780249419925 S
atom 9.8844505888435368 4.9000779129082854 42.3427780249419996 S
atom 4.9000779129082934 9.8844505888435297 42.3427780249419996 S
atom 10.3988393640584142 10.3988393640583805 42.3427780249419996 S
atom 4.7695230285044561 4.7695230285044445 47.3760849035477491 S
atom 10.4305944629876990 5.4462217870524485 47.3760849035477491 S
atom 5.4462217870524521 10.4305944629876812 47.3760849035477491 S
atom 9.8526954899142307 9.8526954899142147 47.3760849035477491 S
atom 5.0584725150411707 2.5662861770735481 44.6628787268079961 S
atom 10.0922450837136868 2.6156860698108311 45.2067918874408790 S
atom 5.1078724077784585 7.6000587457460567 45.2067918874408790 S
atom 10.1416449764509711 7.6494586384833436 44.6628787268079961 S
atom 5.0584725150411707 2.5662861770735481 50.2079185510712875 S
atom 10.0922450837136868 2.6156860698108311 49.5166985991506152 S
atom 5.1078724077784585 7.6000587457460567 49.5166985991506152 S
atom 10.1416449764509711 7.6494586384833436 50.2079185510712875 S
atom 2.5662861770735450 5.0584725150411574 44.6628787268079961 S
atom 7.6000587457460647 5.1078724077784470 45.2067918874408790 S
atom 2.6156860698108337 10.0922450837136601 45.2067918874408790 S
atom 7.6494586384833623 10.1416449764509569 44.6628787268079961 S
atom 2.5662861770735450 5.0584725150411574 50.2079185510712875 S
atom 7.6000587457460647 5.1078724077784470 49.5166985991506152 S
atom 2.6156860698108337 10.0922450837136601 49.5166985991506152 S
atom 7.6494586384833623 10.1416449764509569 50.2079185510712875 S
atom 2.5757824264014251 2.5757824264014215 52.3503464209377967 Ba
atom 7.5411626036809052 2.5567899277456676 52.3503464209377896 Ba
atom 2.5567899277456703 7.5411626036808892 52.3503464209377896 Ba
atom 7.6589548878112321 7.6589548878112144 52.3503464209377967 Ba
atom 2.5061673579075117 2.5061673579075059 57.3066762298381462 Ba
atom 7.6107776721748150 2.6264049962395766 57.3066762298381462 Ba
atom 2.6264049962395823 7.6107776721748062 57.3066762298381462 Ba
atom 7.5893398193173232 7.5893398193173178 57.3066762298381462 Ba
atom 5.0837357396841449 5.0837357396841458 54.8194407980098148 Zr
atom 10.1163817518079924 5.1320090758727437 54.8194407980098148 Zr
atom 5.1320090758727499 10.1163817518079622 54.8194407980098148 Zr
atom 10.1669082010939569 10.1669082010939533 54.8194407980098148 Zr
atom 5.0830330150100700 5.0830330150100611 59.7831713577845179 Zr
atom 10.1170844764820504 5.1327118005468346 59.7831713577845179 Zr
atom 5.1327118005468417 10.1170844764820558 59.7831713577845179 Zr
atom 10.1662054764198579 10.1662054764198597 59.7831713577845179 Zr
atom 5.4336234500438119 5.4336234500438003 52.3423791238292182 S
atom 9.7664940414483272 4.7821213655130856 52.3423791238292111 S
atom 4.7821213655130892 9.7664940414483041 52.3423791238292111 S
atom 10.5167959114536149 10.5167959114535989 52.3423791238292182 S
atom 4.7287550743736970 4.7287550743737023 57.3032661803453607 S
atom 10.4713624171184350 5.4869897411831907 57.3032661803453607 S
atom 5.4869897411831987 10.4713624171184172 57.3032661803453607 S
atom 9.8119275357835178 9.8119275357834876 57.3032661803453607 S
atom 5.0584725150411707 2.5662861770735481 54.4619464930027064 S
atom 10.0922450837136868 2.6156860698108311 55.1899266449344879 S
atom 5.1078724077784585 7.6000587457460567 55.1899266449344879 S
atom 10.1416449764509711 7.6494586384833436 54.4619464930027064 S
atom 5.0584725150411707 2.5662861770735481 60.1501011878899021 S
atom 10.0922450837136868 2.6156860698108311 59.4192592013456746 S
atom 5.1078724077784585 7.6000587457460567 59.4192592013456746 S
atom 10.1416449764509711 7.6494586384833436 60.1501011878899021 S
atom 2.5662861770735450 5.0584725150411574 54.4619464930027064 S
atom 7.6000587457460647 5.1078724077784470 55.1899266449344879 S
atom 2.6156860698108337 10.0922450837136601 55.1899266449344879 S
atom 7.6494586384833623 10.1416449764509569 54.4619464930027064 S
atom 2.5662861770735450 5.0584725150411574 60.1501011878899021 S
atom 7.6000587457460647 5.1078724077784470 59.4192592013456746 S
atom 2.6156860698108337 10.0922450837136601 59.4192592013456746 S
atom 7.6494586384833623 10.1416449764509569 60.1501011878899021 S
atom 2.5773861801597815 2.5773861801597788 62.2646969866380644 Ba
atom 7.5395588499225425 2.5551861739873081 62.2646969866380644 Ba
atom 2.5551861739873156 7.5395588499225319 62.2646969866380644 Ba
atom 7.6605586415695921 7.6605586415695752 62.2646969866380644 Ba
atom 2.5061673579075117 2.5061673579075059 67.2227177434381105 Ba
atom 7.6107776721748150 2.6264049962395766 67.2227177434381105 Ba
atom 2.6264049962395823 7.6107776721748062 67.2227177434381105 Ba
atom 7.5893398193173232 7.5893398193173187 67.2227177434381105 Ba
atom 5.0830330150100700 5.0830330150100611 64.7462226154915754 Zr
atom 10.1170844764820504 5.1327118005468346 64.7462226154916181 Zr
atom 5.1327118005468417 10.1170844764820558 64.7462226154916181 Zr
atom 10.1662054764198579 10.1662054764198597 64.7462226154915754 Zr
atom 5.0837357396841449 5.0837357396841458 69.7099531752663353 Zr
atom 10.1163817518079924 5.1320090758727437 69.7099531752663495 Zr
atom 5.1320090758727499 10.1163817518079622 69.7099531752663495 Zr
atom 10.1669082010939569 10.1669082010939533 69.7099531752663353 Zr
atom 5.4380346304830161 5.4380346304830045 62.2646969866380644 S
atom 9.7620828610091230 4.7777101850738886 62.2646969866380644 S
atom 4.7777101850738859 9.7620828610090999 62.2646969866380644 S
atom 10.5212070918928209 10.5212070918928013 62.2646969866380644 S
atom 4.7287550743736970 4.7287550743737023 67.2261277929307965 S
atom 10.4713624171184350 5.4869897411831907 67.2261277929307965 S
atom 5.4869897411831987 10.4713624171184172 67.2261277929307965 S
atom 9.8119275357835178 9.8119275357834876 67.2261277929307965 S
atom 5.0584725150411707 2.5662861770735481 64.3792927853862693 S
atom 10.0922450837136868 2.6156860698108311 65.1101347719304187 S
atom 5.1078724077784585 7.6000587457460567 65.1101347719304187 S
atom 10.1416449764509711 7.6494586384833436 64.3792927853862693 S
atom 5.0584725150411707 2.5662861770735481 70.0674474802734437 S
atom 10.0922450837136868 2.6156860698108311 69.3394673283416694 S
atom 5.1078724077784585 7.6000587457460567 69.3394673283416694 S
atom 10.1416449764509711 7.6494586384833436 70.0674474802734437 S
atom 2.5662861770735450 5.0584725150411574 64.3792927853862693 S
atom 7.6000587457460647 5.1078724077784470 65.1101347719304187 S
atom 2.6156860698108337 10.0922450837136601 65.1101347719304187 S
atom 7.6494586384833623 10.1416449764509569 64.3792927853862693 S
atom 2.5662861770735450 5.0584725150411574 70.0674474802734437 S
atom 7.6000587457460647 5.1078724077784470 69.3394673283416694 S
atom 2.6156860698108337 10.0922450837136601 69.3394673283416694 S
atom 7.6494586384833623 10.1416449764509569 70.0674474802734437 S
atom 2.5757824264014251 2.5757824264014215 72.1790475523384174 Ba
atom 7.5411626036809052 2.5567899277456676 72.1790475523384174 Ba
atom 2.5567899277456703 7.5411626036808892 72.1790475523384174 Ba
atom 7.6589548878112321 7.6589548878112144 72.1790475523384174 Ba
atom 2.5339597586417404 2.5339597586417399 77.0889068424062884 Ba
atom 7.5829852714405943 2.5986125955053505 77.0889068424062884 Ba
atom 2.5986125955053549 7.5829852714405739 77.0889068424062884 Ba
atom 7.6171322200515474 7.6171322200515323 77.0889068424062884 Ba
atom 5.0847906869165795 5.0847906869165751 74.6770177013870580 Zr
atom 10.1153268045755418 5.1309541286403055 74.6770177013870438 Zr
atom 5.1309541286403189 10.1153268045755276 74.6770177013870438 Zr
atom 10.1679631483263915 10.1679631483263790 74.6770177013870580 Zr
atom 5.0768965682624545 5.0768965682624438 79.7002905571567055 Zr
atom 10.1232209232296597 5.1388482472944430 79.7002905571567055 Zr
atom 5.1388482472944537 10.1232209232296650 79.7002905571567055 Zr
atom 10.1600690296722469 10.1600690296722469 79.7002905571567055 Zr
atom 5.4336234500438119 5.4336234500438003 72.1870148494470953 S
atom 9.7664940414483272 4.7821213655130856 72.1870148494470953 S
atom 4.7821213655130892 9.7664940414483041 72.1870148494470953 S
atom 10.5167959114536149 10.5167959114535989 72.1870148494470953 S
atom 4.7695230285044561 4.7695230285044445 77.1533090697284933 S
atom 10.4305944629876990 5.4462217870524485 77.1533090697284933 S
atom 5.4462217870524521 10.4305944629876812 77.1533090697284933 S
atom 9.8526954899142307 9.8526954899142147 77.1533090697284933 S
atom 5.0584725150411707 2.5662861770735481 74.3214754222048839 S
atom 10.0922450837136868 2.6156860698108311 75.0126953741255704 S
atom 5.1078724077784585 7.6000587457460567 75.0126953741255704 S
atom 10.1416449764509711 7.6494586384833436 74.3214754222048839 S
atom 5.0584725150411707 2.5662861770735481 79.8665152464682393 S
atom 10.0922450837136868 2.6156860698108311 79.3226020858352712 S
atom 5.1078724077784585 7.6000587457460567 79.3226020858352712 S
atom 10.1416449764509711 7.6494586384833436 79.8665152464682393 S
atom 2.5662861770735450 5.0584725150411574 74.3214754222048839 S
atom 7.6000587457460647 5.1078724077784470 75.0126953741255704 S
atom 2.6156860698108337 10.0922450837136601 75.0126953741255704 S
atom 7.6494586384833623 10.1416449764509569 74.3214754222048839 S
atom 2.5662861770735450 5.0584725150411574 79.8665152464682393 S
atom 7.6000587457460647 5.1078724077784470 79.3226020858352712 S
atom 2.6156860698108337 10.0922450837136601 79.3226020858352712 S
atom 7.6494586384833623 10.1416449764509569 79.8665152464682393 S
atom 2.4580671420433449 2.4580671420433440 81.7632704319352115 Ba
atom 7.6588778880389707 2.6745052121037487 81.7632704319352115 Ba
atom 2.6745052121037451 7.6588778880389619 81.7632704319352115 Ba
atom 7.5412396034531692 7.5412396034531479 81.7632704319352115 Ba
atom 5.3156669026486103 5.3156669026486014 82.1866159483342642 S
atom 9.8844505888435386 4.9000779129082854 82.1866159483342642 S
atom 4.9000779129082925 9.8844505888435297 82.1866159483342642 S
atom 10.3988393640584142 10.3988393640583805 82.1866159483342642 S
