#=======================================================
# FHI-aims file: sym_relax/sym_relax_RP_10_000_000.in
# Created using the Atomic Simulation Environment (ASE)
# Mon Mar 17 17:03:35 2025
#=======================================================
lattice_vector 10.0654654265642307 -0.0000000000000000 -0.0000000000000000 
lattice_vector 0.0000000000000000 10.0654654265642325 0.0000000000000000 
lattice_vector -0.0000000000000000 0.0000000000000001 106.0397916566361403 
atom -0.0000000000000000 0.0000000000000000 0.2833274419471222 Ba
atom 5.0327327132821127 0.0000000000000000 0.2833274419471222 Ba
atom -0.0000000000000000 5.0327327132821154 0.2833274419471222 Ba
atom 5.0327327132821127 5.0327327132821154 0.2833274419471222 Ba
atom -0.0000000000000000 0.0000000000000000 5.0595869005004683 Ba
atom 5.0327327132821127 0.0000000000000000 5.0595869005004683 Ba
atom -0.0000000000000000 5.0327327132821154 5.0595869005004683 Ba
atom 5.0327327132821127 5.0327327132821154 5.0595869005004683 Ba
atom 2.5163663566410563 2.5163663566410577 2.3066708532526135 Zr
atom 7.5490990699231739 2.5163663566410577 2.3066708532526135 Zr
atom 2.5163663566410563 7.5490990699231730 2.3066708532526135 Zr
atom 7.5490990699231739 7.5490990699231730 2.3066708532526135 Zr
atom 2.5163663566410563 2.5163663566410577 7.3855037175939753 Zr
atom 7.5490990699231739 2.5163663566410577 7.3855037175939753 Zr
atom 2.5163663566410563 7.5490990699231730 7.3855037175939753 Zr
atom 7.5490990699231739 7.5490990699231730 7.3855037175939753 Zr
atom 2.5163663566410563 2.5163663566410577 -0.1849130454462750 S
atom 7.5490990699231739 2.5163663566410577 -0.1849130454462750 S
atom 2.5163663566410563 7.5490990699231730 -0.1849130454462750 S
atom 7.5490990699231739 7.5490990699231730 -0.1849130454462750 S
atom 2.5163663566410563 2.5163663566410577 4.8948450357990714 S
atom 7.5490990699231739 2.5163663566410577 4.8948450357990714 S
atom 2.5163663566410563 7.5490990699231730 4.8948450357990714 S
atom 7.5490990699231739 7.5490990699231730 4.8948450357990714 S
atom 2.5163663566410563 0.0000000000000000 2.4370061127651628 S
atom 7.5490990699231739 0.0000000000000000 2.4370061127651628 S
atom 2.5163663566410563 5.0327327132821154 2.4370061127651628 S
atom 7.5490990699231739 5.0327327132821154 2.4370061127651628 S
atom 2.5163663566410563 0.0000000000000000 7.4201443189401362 S
atom 7.5490990699231739 0.0000000000000000 7.4201443189401362 S
atom 2.5163663566410563 5.0327327132821154 7.4201443189401362 S
atom 7.5490990699231739 5.0327327132821154 7.4201443189401362 S
atom -0.0000000000000000 2.5163663566410577 2.4370061127651628 S
atom 5.0327327132821127 2.5163663566410577 2.4370061127651628 S
atom -0.0000000000000000 7.5490990699231730 2.4370061127651628 S
atom 5.0327327132821127 7.5490990699231730 2.4370061127651628 S
atom 0.0000000000000000 2.5163663566410577 7.4201443189401362 S
atom 5.0327327132821127 2.5163663566410577 7.4201443189401362 S
atom 0.0000000000000000 7.5490990699231730 7.4201443189401362 S
atom 5.0327327132821127 7.5490990699231730 7.4201443189401362 S
atom -0.0000000000000000 0.0000000000000000 9.9988505886250820 Ba
atom 5.0327327132821127 0.0000000000000000 9.9988505886250820 Ba
atom -0.0000000000000000 5.0327327132821154 9.9988505886250820 Ba
atom 5.0327327132821127 5.0327327132821154 9.9988505886250820 Ba
atom -0.0000000000000000 0.0000000000000000 14.9881459268905708 Ba
atom 5.0327327132821127 0.0000000000000000 14.9881459268905708 Ba
atom -0.0000000000000000 5.0327327132821154 14.9881459268905708 Ba
atom 5.0327327132821127 5.0327327132821154 14.9881459268905708 Ba
atom 2.5163663566410563 2.5163663566410577 12.4264037480532039 Zr
atom 7.5490990699231739 2.5163663566410577 12.4264037480532039 Zr
atom 2.5163663566410563 7.5490990699231730 12.4264037480532039 Zr
atom 7.5490990699231739 7.5490990699231730 12.4264037480532039 Zr
atom 2.5163663566410563 2.5163663566410577 17.4613556950530366 Zr
atom 7.5490990699231739 2.5163663566410577 17.4613556950530366 Zr
atom 2.5163663566410563 7.5490990699231730 17.4613556950530366 Zr
atom 7.5490990699231739 7.5490990699231730 17.4613556950530366 Zr
atom 2.5163663566410563 2.5163663566410577 9.9226839574660080 S
atom 7.5490990699231739 2.5163663566410577 9.9226839574660080 S
atom 2.5163663566410563 7.5490990699231730 9.9226839574660080 S
atom 7.5490990699231739 7.5490990699231730 9.9226839574660080 S
atom 2.5163663566410563 2.5163663566410577 14.9506830099949628 S
atom 7.5490990699231739 2.5163663566410577 14.9506830099949628 S
atom 2.5163663566410563 7.5490990699231730 14.9506830099949628 S
atom 7.5490990699231739 7.5490990699231730 14.9506830099949628 S
atom 2.5163663566410563 0.0000000000000000 12.4426417559772844 S
atom 7.5490990699231739 0.0000000000000000 12.4426417559772844 S
atom 2.5163663566410563 5.0327327132821154 12.4426417559772844 S
atom 7.5490990699231739 5.0327327132821154 12.4426417559772844 S
atom 2.5163663566410563 0.0000000000000000 17.4666053833614860 S
atom 7.5490990699231739 0.0000000000000000 17.4666053833614860 S
atom 2.5163663566410563 5.0327327132821154 17.4666053833614860 S
atom 7.5490990699231739 5.0327327132821154 17.4666053833614860 S
atom -0.0000000000000000 2.5163663566410577 12.4426417559772844 S
atom 5.0327327132821127 2.5163663566410577 12.4426417559772844 S
atom -0.0000000000000000 7.5490990699231730 12.4426417559772844 S
atom 5.0327327132821127 7.5490990699231730 12.4426417559772844 S
atom 0.0000000000000000 2.5163663566410577 17.4666053833614860 S
atom 5.0327327132821127 2.5163663566410577 17.4666053833614860 S
atom 0.0000000000000000 7.5490990699231730 17.4666053833614860 S
atom 5.0327327132821127 7.5490990699231730 17.4666053833614860 S
atom -0.0000000000000000 0.0000000000000000 19.9944730329647733 Ba
atom 5.0327327132821127 0.0000000000000000 19.9944730329647733 Ba
atom -0.0000000000000000 5.0327327132821154 19.9944730329647733 Ba
atom 5.0327327132821127 5.0327327132821154 19.9944730329647733 Ba
atom 0.0000000000000000 0.0000000000000000 25.0093848246783388 Ba
atom 5.0327327132821127 0.0000000000000000 25.0093848246783388 Ba
atom 0.0000000000000000 5.0327327132821154 25.0093848246783388 Ba
atom 5.0327327132821127 5.0327327132821154 25.0093848246783388 Ba
atom 2.5163663566410563 2.5163663566410577 22.4936267672483297 Zr
atom 7.5490990699231739 2.5163663566410577 22.4936267672483297 Zr
atom 2.5163663566410563 7.5490990699231730 22.4936267672483297 Zr
atom 7.5490990699231739 7.5490990699231730 22.4936267672483297 Zr
atom 2.5163663566410563 2.5163663566410577 27.5251428821083302 Zr
atom 7.5490990699231739 2.5163663566410577 27.5251428821083302 Zr
atom 2.5163663566410563 7.5490990699231730 27.5251428821083302 Zr
atom 7.5490990699231739 7.5490990699231730 27.5251428821083302 Zr
atom 2.5163663566410563 2.5163663566410577 19.9797616944029031 S
atom 7.5490990699231739 2.5163663566410577 19.9797616944029031 S
atom 2.5163663566410563 7.5490990699231730 19.9797616944029066 S
atom 7.5490990699231739 7.5490990699231730 19.9797616944029066 S
atom 2.5163663566410563 2.5163663566410577 25.0093848246783388 S
atom 7.5490990699231739 2.5163663566410577 25.0093848246783388 S
atom 2.5163663566410563 7.5490990699231730 25.0093848246783388 S
atom 7.5490990699231739 7.5490990699231730 25.0093848246783388 S
atom 2.5163663566410563 0.0000000000000000 22.4948318077863192 S
atom 7.5490990699231739 0.0000000000000000 22.4948318077863192 S
atom 2.5163663566410563 5.0327327132821154 22.4948318077863192 S
atom 7.5490990699231739 5.0327327132821154 22.4948318077863192 S
atom 2.5163663566410563 0.0000000000000000 27.5239378415703477 S
atom 7.5490990699231739 0.0000000000000000 27.5239378415703477 S
atom 2.5163663566410563 5.0327327132821154 27.5239378415703477 S
atom 7.5490990699231739 5.0327327132821154 27.5239378415703477 S
atom -0.0000000000000000 2.5163663566410577 22.4948318077863192 S
atom 5.0327327132821127 2.5163663566410577 22.4948318077863192 S
atom -0.0000000000000000 7.5490990699231730 22.4948318077863192 S
atom 5.0327327132821127 7.5490990699231730 22.4948318077863192 S
atom -0.0000000000000000 2.5163663566410577 27.5239378415703477 S
atom 5.0327327132821127 2.5163663566410577 27.5239378415703477 S
atom -0.0000000000000000 7.5490990699231730 27.5239378415703477 S
atom 5.0327327132821127 7.5490990699231730 27.5239378415703477 S
atom -0.0000000000000000 0.0000000000000000 30.0242966163918723 Ba
atom 5.0327327132821127 0.0000000000000000 30.0242966163918723 Ba
atom -0.0000000000000000 5.0327327132821154 30.0242966163918723 Ba
atom 5.0327327132821127 5.0327327132821154 30.0242966163918723 Ba
atom -0.0000000000000000 0.0000000000000000 35.0306237224660748 Ba
atom 5.0327327132821127 0.0000000000000000 35.0306237224660748 Ba
atom -0.0000000000000000 5.0327327132821154 35.0306237224660748 Ba
atom 5.0327327132821127 5.0327327132821154 35.0306237224660748 Ba
atom 2.5163663566410563 2.5163663566410577 32.5574139543036694 Zr
atom 7.5490990699231739 2.5163663566410577 32.5574139543036694 Zr
atom 2.5163663566410563 7.5490990699231730 32.5574139543036694 Zr
atom 7.5490990699231739 7.5490990699231730 32.5574139543036694 Zr
atom 2.5163663566410563 2.5163663566410577 37.5923659013034168 Zr
atom 7.5490990699231739 2.5163663566410577 37.5923659013034168 Zr
atom 2.5163663566410563 7.5490990699231730 37.5923659013034168 Zr
atom 7.5490990699231739 7.5490990699231730 37.5923659013034168 Zr
atom 2.5163663566410563 2.5163663566410577 30.0390079549537674 S
atom 7.5490990699231739 2.5163663566410577 30.0390079549537674 S
atom 2.5163663566410563 7.5490990699231730 30.0390079549537674 S
atom 7.5490990699231739 7.5490990699231730 30.0390079549537674 S
atom 2.5163663566410563 2.5163663566410577 35.0680866393617165 S
atom 7.5490990699231739 2.5163663566410577 35.0680866393617165 S
atom 2.5163663566410563 7.5490990699231730 35.0680866393617165 S
atom 7.5490990699231739 7.5490990699231730 35.0680866393617165 S
atom 2.5163663566410563 0.0000000000000000 32.5521642659952306 S
atom 7.5490990699231739 0.0000000000000000 32.5521642659952306 S
atom 2.5163663566410563 5.0327327132821154 32.5521642659952306 S
atom 7.5490990699231739 5.0327327132821154 32.5521642659952306 S
atom 2.5163663566410563 0.0000000000000001 37.5761278933793577 S
atom 7.5490990699231739 0.0000000000000001 37.5761278933793577 S
atom 2.5163663566410563 5.0327327132821154 37.5761278933793577 S
atom 7.5490990699231739 5.0327327132821154 37.5761278933793577 S
atom -0.0000000000000000 2.5163663566410577 32.5521642659952306 S
atom 5.0327327132821127 2.5163663566410577 32.5521642659952306 S
atom -0.0000000000000000 7.5490990699231730 32.5521642659952306 S
atom 5.0327327132821127 7.5490990699231730 32.5521642659952306 S
atom 0.0000000000000000 2.5163663566410577 37.5761278933793577 S
atom 5.0327327132821127 2.5163663566410577 37.5761278933793577 S
atom 0.0000000000000000 7.5490990699231730 37.5761278933793577 S
atom 5.0327327132821127 7.5490990699231730 37.5761278933793577 S
atom -0.0000000000000000 0.0000000000000001 40.0199190607315316 Ba
atom 5.0327327132821127 0.0000000000000001 40.0199190607315316 Ba
atom 0.0000000000000000 5.0327327132821154 40.0199190607315316 Ba
atom 5.0327327132821127 5.0327327132821154 40.0199190607315316 Ba
atom -0.0000000000000000 0.0000000000000001 44.9591827488561790 Ba
atom 5.0327327132821127 0.0000000000000001 44.9591827488561790 Ba
atom -0.0000000000000000 5.0327327132821154 44.9591827488561790 Ba
atom 5.0327327132821127 5.0327327132821154 44.9591827488561790 Ba
atom 2.5163663566410563 2.5163663566410577 42.6332659317626934 Zr
atom 7.5490990699231739 2.5163663566410577 42.6332659317626934 Zr
atom 2.5163663566410563 7.5490990699231730 42.6332659317626934 Zr
atom 7.5490990699231739 7.5490990699231730 42.6332659317626934 Zr
atom 2.5163663566410563 2.5163663566410577 47.7120987961040441 Zr
atom 7.5490990699231739 2.5163663566410577 47.7120987961040441 Zr
atom 2.5163663566410563 7.5490990699231730 47.7120987961040441 Zr
atom 7.5490990699231739 7.5490990699231730 47.7120987961040441 Zr
atom 2.5163663566410563 2.5163663566410577 40.0960856918906430 S
atom 7.5490990699231739 2.5163663566410577 40.0960856918906430 S
atom 2.5163663566410563 7.5490990699231730 40.0960856918906430 S
atom 7.5490990699231739 7.5490990699231730 40.0960856918906430 S
atom 2.5163663566410563 2.5163663566410577 45.1239246135575911 S
atom 7.5490990699231739 2.5163663566410577 45.1239246135575911 S
atom 2.5163663566410563 7.5490990699231730 45.1239246135575911 S
atom 7.5490990699231739 7.5490990699231730 45.1239246135575911 S
atom 2.5163663566410563 0.0000000000000001 42.5986253304165459 S
atom 7.5490990699231739 0.0000000000000001 42.5986253304165459 S
atom 2.5163663566410563 5.0327327132821154 42.5986253304165459 S
atom 7.5490990699231739 5.0327327132821154 42.5986253304165459 S
atom 2.5163663566410563 0.0000000000000001 47.5817635365915592 S
atom 7.5490990699231739 0.0000000000000001 47.5817635365915592 S
atom 2.5163663566410563 5.0327327132821154 47.5817635365915592 S
atom 7.5490990699231739 5.0327327132821154 47.5817635365915592 S
atom -0.0000000000000000 2.5163663566410577 42.5986253304165459 S
atom 5.0327327132821127 2.5163663566410577 42.5986253304165459 S
atom -0.0000000000000000 7.5490990699231730 42.5986253304165459 S
atom 5.0327327132821127 7.5490990699231730 42.5986253304165459 S
atom -0.0000000000000000 2.5163663566410577 47.5817635365915592 S
atom 5.0327327132821127 2.5163663566410577 47.5817635365915592 S
atom -0.0000000000000000 7.5490990699231730 47.5817635365915592 S
atom 5.0327327132821127 7.5490990699231730 47.5817635365915592 S
atom -0.0000000000000000 0.0000000000000001 49.7354422074095126 Ba
atom 5.0327327132821127 0.0000000000000001 49.7354422074095126 Ba
atom -0.0000000000000000 5.0327327132821154 49.7354422074095126 Ba
atom 5.0327327132821127 5.0327327132821154 49.7354422074095126 Ba
atom 2.5163663566410563 2.5163663566410577 50.2036826948029429 S
atom 7.5490990699231739 2.5163663566410577 50.2036826948029429 S
atom 2.5163663566410563 7.5490990699231730 50.2036826948029429 S
atom 7.5490990699231739 7.5490990699231730 50.2036826948029429 S
atom 2.5163663566410563 2.5163663566410577 53.3032232702652209 Ba
atom 7.5490990699231739 2.5163663566410577 53.3032232702652209 Ba
atom 2.5163663566410563 7.5490990699231730 53.3032232702652209 Ba
atom 7.5490990699231739 7.5490990699231730 53.3032232702652209 Ba
atom 2.5163663566410563 2.5163663566410577 58.0794827288185331 Ba
atom 7.5490990699231739 2.5163663566410577 58.0794827288185331 Ba
atom 2.5163663566410563 7.5490990699231730 58.0794827288185331 Ba
atom 7.5490990699231739 7.5490990699231730 58.0794827288185331 Ba
atom 5.0327327132821127 5.0327327132821154 55.3265666815706965 Zr
atom 10.0654654265642254 5.0327327132821154 55.3265666815706965 Zr
atom 5.0327327132821127 10.0654654265642307 55.3265666815706965 Zr
atom 10.0654654265642254 10.0654654265642307 55.3265666815706965 Zr
atom 5.0327327132821127 5.0327327132821154 60.4053995459120472 Zr
atom 10.0654654265642254 5.0327327132821154 60.4053995459120472 Zr
atom 5.0327327132821127 10.0654654265642307 60.4053995459120472 Zr
atom 10.0654654265642254 10.0654654265642307 60.4053995459120472 Zr
atom 5.0327327132821127 5.0327327132821154 52.8349827828717906 S
atom 10.0654654265642254 5.0327327132821154 52.8349827828717906 S
atom 5.0327327132821127 10.0654654265642307 52.8349827828717906 S
atom 10.0654654265642254 10.0654654265642307 52.8349827828717906 S
atom 5.0327327132821127 5.0327327132821154 57.9147408641171211 S
atom 10.0654654265642254 5.0327327132821154 57.9147408641171211 S
atom 5.0327327132821127 10.0654654265642307 57.9147408641171211 S
atom 10.0654654265642254 10.0654654265642307 57.9147408641171211 S
atom 5.0327327132821127 2.5163663566410577 55.4569019410831743 S
atom 10.0654654265642254 2.5163663566410577 55.4569019410831743 S
atom 5.0327327132821127 7.5490990699231730 55.4569019410831743 S
atom 10.0654654265642254 7.5490990699231730 55.4569019410831743 S
atom 5.0327327132821127 2.5163663566410577 60.4400401472581592 S
atom 10.0654654265642254 2.5163663566410577 60.4400401472581592 S
atom 5.0327327132821127 7.5490990699231730 60.4400401472581592 S
atom 10.0654654265642254 7.5490990699231730 60.4400401472581592 S
atom 2.5163663566410563 5.0327327132821154 55.4569019410831743 S
atom 7.5490990699231739 5.0327327132821154 55.4569019410831743 S
atom 2.5163663566410563 10.0654654265642307 55.4569019410831743 S
atom 7.5490990699231739 10.0654654265642307 55.4569019410831743 S
atom 2.5163663566410563 5.0327327132821154 60.4400401472581592 S
atom 7.5490990699231739 5.0327327132821154 60.4400401472581592 S
atom 2.5163663566410563 10.0654654265642307 60.4400401472581592 S
atom 7.5490990699231739 10.0654654265642307 60.4400401472581592 S
atom 2.5163663566410563 2.5163663566410577 63.0187464169431379 Ba
atom 7.5490990699231739 2.5163663566410577 63.0187464169431379 Ba
atom 2.5163663566410563 7.5490990699231730 63.0187464169431379 Ba
atom 7.5490990699231739 7.5490990699231730 63.0187464169431379 Ba
atom 2.5163663566410563 2.5163663566410577 68.0080417552086089 Ba
atom 7.5490990699231739 2.5163663566410577 68.0080417552086089 Ba
atom 2.5163663566410563 7.5490990699231730 68.0080417552086089 Ba
atom 7.5490990699231739 7.5490990699231730 68.0080417552086089 Ba
atom 5.0327327132821127 5.0327327132821154 65.4462995763713451 Zr
atom 10.0654654265642254 5.0327327132821154 65.4462995763713451 Zr
atom 5.0327327132821127 10.0654654265642307 65.4462995763713451 Zr
atom 10.0654654265642254 10.0654654265642307 65.4462995763713451 Zr
atom 5.0327327132821127 5.0327327132821154 70.4812515233710570 Zr
atom 10.0654654265642254 5.0327327132821154 70.4812515233710570 Zr
atom 5.0327327132821127 10.0654654265642307 70.4812515233710570 Zr
atom 10.0654654265642254 10.0654654265642307 70.4812515233710570 Zr
atom 5.0327327132821127 5.0327327132821154 62.9425797857840479 S
atom 10.0654654265642254 5.0327327132821154 62.9425797857840479 S
atom 5.0327327132821127 10.0654654265642307 62.9425797857840479 S
atom 10.0654654265642254 10.0654654265642307 62.9425797857840479 S
atom 5.0327327132821127 5.0327327132821154 67.9705788383131306 S
atom 10.0654654265642254 5.0327327132821154 67.9705788383131306 S
atom 5.0327327132821127 10.0654654265642307 67.9705788383131306 S
atom 10.0654654265642254 10.0654654265642307 67.9705788383131306 S
atom 5.0327327132821127 2.5163663566410577 65.4625375842953474 S
atom 10.0654654265642254 2.5163663566410577 65.4625375842953474 S
atom 5.0327327132821127 7.5490990699231730 65.4625375842953474 S
atom 10.0654654265642254 7.5490990699231730 65.4625375842953474 S
atom 5.0327327132821127 2.5163663566410577 70.4865012116795384 S
atom 10.0654654265642254 2.5163663566410577 70.4865012116795384 S
atom 5.0327327132821127 7.5490990699231730 70.4865012116795384 S
atom 10.0654654265642254 7.5490990699231730 70.4865012116795384 S
atom 2.5163663566410563 5.0327327132821154 65.4625375842953474 S
atom 7.5490990699231739 5.0327327132821154 65.4625375842953474 S
atom 2.5163663566410563 10.0654654265642307 65.4625375842953474 S
atom 7.5490990699231739 10.0654654265642307 65.4625375842953474 S
atom 2.5163663566410563 5.0327327132821154 70.4865012116795384 S
atom 7.5490990699231739 5.0327327132821154 70.4865012116795384 S
atom 2.5163663566410563 10.0654654265642307 70.4865012116795384 S
atom 7.5490990699231739 10.0654654265642307 70.4865012116795384 S
atom 2.5163663566410563 2.5163663566410577 73.0143688612827759 Ba
atom 7.5490990699231739 2.5163663566410577 73.0143688612827759 Ba
atom 2.5163663566410563 7.5490990699231730 73.0143688612827759 Ba
atom 7.5490990699231739 7.5490990699231730 73.0143688612827759 Ba
atom 2.5163663566410563 2.5163663566410577 78.0292806529964338 Ba
atom 7.5490990699231739 2.5163663566410577 78.0292806529964338 Ba
atom 2.5163663566410563 7.5490990699231730 78.0292806529964338 Ba
atom 7.5490990699231739 7.5490990699231730 78.0292806529964338 Ba
atom 5.0327327132821127 5.0327327132821154 75.5135225955663287 Zr
atom 10.0654654265642254 5.0327327132821154 75.5135225955663287 Zr
atom 5.0327327132821127 10.0654654265642307 75.5135225955663287 Zr
atom 10.0654654265642254 10.0654654265642307 75.5135225955663287 Zr
atom 5.0327327132821127 5.0327327132821154 80.5450387104264252 Zr
atom 10.0654654265642254 5.0327327132821154 80.5450387104264252 Zr
atom 5.0327327132821127 10.0654654265642307 80.5450387104264252 Zr
atom 10.0654654265642254 10.0654654265642307 80.5450387104264252 Zr
atom 5.0327327132821127 5.0327327132821154 72.9996575227209661 S
atom 10.0654654265642254 5.0327327132821154 72.9996575227209661 S
atom 5.0327327132821127 10.0654654265642307 72.9996575227209661 S
atom 10.0654654265642254 10.0654654265642307 72.9996575227209661 S
atom 5.0327327132821127 5.0327327132821154 78.0292806529964338 S
atom 10.0654654265642254 5.0327327132821154 78.0292806529964338 S
atom 5.0327327132821127 10.0654654265642307 78.0292806529964338 S
atom 10.0654654265642254 10.0654654265642307 78.0292806529964338 S
atom 5.0327327132821127 2.5163663566410577 75.5147276361042685 S
atom 10.0654654265642254 2.5163663566410577 75.5147276361042685 S
atom 5.0327327132821127 7.5490990699231730 75.5147276361042685 S
atom 10.0654654265642254 7.5490990699231730 75.5147276361042685 S
atom 5.0327327132821127 2.5163663566410577 80.5438336698885848 S
atom 10.0654654265642254 2.5163663566410577 80.5438336698885848 S
atom 5.0327327132821127 7.5490990699231730 80.5438336698885848 S
atom 10.0654654265642254 7.5490990699231730 80.5438336698885848 S
atom 2.5163663566410563 5.0327327132821154 75.5147276361042685 S
atom 7.5490990699231739 5.0327327132821154 75.5147276361042685 S
atom 2.5163663566410563 10.0654654265642307 75.5147276361042685 S
atom 7.5490990699231739 10.0654654265642307 75.5147276361042685 S
atom 2.5163663566410563 5.0327327132821154 80.5438336698885848 S
atom 7.5490990699231739 5.0327327132821154 80.5438336698885848 S
atom 2.5163663566410563 10.0654654265642307 80.5438336698885848 S
atom 7.5490990699231739 10.0654654265642307 80.5438336698885848 S
atom 2.5163663566410563 2.5163663566410577 83.0441924447098927 Ba
atom 7.5490990699231739 2.5163663566410577 83.0441924447098927 Ba
atom 2.5163663566410563 7.5490990699231730 83.0441924447098927 Ba
atom 7.5490990699231739 7.5490990699231730 83.0441924447098927 Ba
atom 2.5163663566410563 2.5163663566410577 88.0505195507841307 Ba
atom 7.5490990699231739 2.5163663566410577 88.0505195507841307 Ba
atom 2.5163663566410563 7.5490990699231730 88.0505195507841307 Ba
atom 7.5490990699231739 7.5490990699231730 88.0505195507841307 Ba
atom 5.0327327132821127 5.0327327132821154 85.5773097826216684 Zr
atom 10.0654654265642254 5.0327327132821154 85.5773097826216684 Zr
atom 5.0327327132821127 10.0654654265642307 85.5773097826216684 Zr
atom 10.0654654265642254 10.0654654265642307 85.5773097826216684 Zr
atom 5.0327327132821127 5.0327327132821154 90.6122617296215509 Zr
atom 10.0654654265642254 5.0327327132821154 90.6122617296215509 Zr
atom 5.0327327132821127 10.0654654265642307 90.6122617296215509 Zr
atom 10.0654654265642254 10.0654654265642307 90.6122617296215509 Zr
atom 5.0327327132821127 5.0327327132821154 83.0589037832718162 S
atom 10.0654654265642254 5.0327327132821154 83.0589037832718162 S
atom 5.0327327132821127 10.0654654265642307 83.0589037832718162 S
atom 10.0654654265642254 10.0654654265642307 83.0589037832718162 S
atom 5.0327327132821127 5.0327327132821154 88.0879824676796943 S
atom 10.0654654265642254 5.0327327132821154 88.0879824676796943 S
atom 5.0327327132821127 10.0654654265642307 88.0879824676796943 S
atom 10.0654654265642254 10.0654654265642307 88.0879824676796943 S
atom 5.0327327132821127 2.5163663566410577 85.5720600943132155 S
atom 10.0654654265642254 2.5163663566410577 85.5720600943132155 S
atom 5.0327327132821127 7.5490990699231730 85.5720600943132155 S
atom 10.0654654265642254 7.5490990699231730 85.5720600943132155 S
atom 5.0327327132821127 2.5163663566410577 90.5960237216973496 S
atom 10.0654654265642254 2.5163663566410577 90.5960237216973496 S
atom 5.0327327132821127 7.5490990699231730 90.5960237216973496 S
atom 10.0654654265642254 7.5490990699231730 90.5960237216973496 S
atom 2.5163663566410563 5.0327327132821154 85.5720600943132155 S
atom 7.5490990699231739 5.0327327132821154 85.5720600943132155 S
atom 2.5163663566410563 10.0654654265642307 85.5720600943132155 S
atom 7.5490990699231739 10.0654654265642307 85.5720600943132155 S
atom 2.5163663566410563 5.0327327132821154 90.5960237216973496 S
atom 7.5490990699231739 5.0327327132821154 90.5960237216973496 S
atom 2.5163663566410563 10.0654654265642307 90.5960237216973496 S
atom 7.5490990699231739 10.0654654265642307 90.5960237216973496 S
atom 2.5163663566410563 2.5163663566410577 93.0398148890495520 Ba
atom 7.5490990699231739 2.5163663566410577 93.0398148890495520 Ba
atom 2.5163663566410563 7.5490990699231730 93.0398148890495520 Ba
atom 7.5490990699231739 7.5490990699231730 93.0398148890495520 Ba
atom 2.5163663566410563 2.5163663566410577 97.9790785771742776 Ba
atom 7.5490990699231739 2.5163663566410577 97.9790785771742776 Ba
atom 2.5163663566410563 7.5490990699231730 97.9790785771742776 Ba
atom 7.5490990699231739 7.5490990699231730 97.9790785771742776 Ba
atom 5.0327327132821127 5.0327327132821154 95.6531617600806214 Zr
atom 10.0654654265642254 5.0327327132821154 95.6531617600806214 Zr
atom 5.0327327132821127 10.0654654265642307 95.6531617600806214 Zr
atom 10.0654654265642254 10.0654654265642307 95.6531617600806214 Zr
atom 5.0327327132821127 5.0327327132821154 100.7319946244220432 Zr
atom 10.0654654265642254 5.0327327132821154 100.7319946244220432 Zr
atom 5.0327327132821127 10.0654654265642307 100.7319946244220432 Zr
atom 10.0654654265642254 10.0654654265642307 100.7319946244220432 Zr
atom 5.0327327132821127 5.0327327132821154 93.1159815202088197 S
atom 10.0654654265642254 5.0327327132821154 93.1159815202088197 S
atom 5.0327327132821127 10.0654654265642307 93.1159815202088197 S
atom 10.0654654265642254 10.0654654265642307 93.1159815202088197 S
atom 5.0327327132821127 5.0327327132821154 98.1438204418756897 S
atom 10.0654654265642254 5.0327327132821154 98.1438204418756897 S
atom 5.0327327132821127 10.0654654265642307 98.1438204418756897 S
atom 10.0654654265642254 10.0654654265642307 98.1438204418756897 S
atom 5.0327327132821127 2.5163663566410577 95.6185211587344526 S
atom 10.0654654265642254 2.5163663566410577 95.6185211587344526 S
atom 5.0327327132821127 7.5490990699231730 95.6185211587344526 S
atom 10.0654654265642254 7.5490990699231730 95.6185211587344526 S
atom 5.0327327132821127 2.5163663566410577 100.6016593649094375 S
atom 10.0654654265642254 2.5163663566410577 100.6016593649094375 S
atom 5.0327327132821127 7.5490990699231730 100.6016593649094375 S
atom 10.0654654265642254 7.5490990699231730 100.6016593649094375 S
atom 2.5163663566410563 5.0327327132821154 95.6185211587344526 S
atom 7.5490990699231739 5.0327327132821154 95.6185211587344526 S
atom 2.5163663566410563 10.0654654265642307 95.6185211587344526 S
atom 7.5490990699231739 10.0654654265642307 95.6185211587344526 S
atom 2.5163663566410563 5.0327327132821154 100.6016593649094375 S
atom 7.5490990699231739 5.0327327132821154 100.6016593649094375 S
atom 2.5163663566410563 10.0654654265642307 100.6016593649094375 S
atom 7.5490990699231739 10.0654654265642307 100.6016593649094375 S
atom 2.5163663566410563 2.5163663566410577 102.7553380357276041 Ba
atom 7.5490990699231739 2.5163663566410577 102.7553380357276041 Ba
atom 2.5163663566410563 7.5490990699231730 102.7553380357276041 Ba
atom 7.5490990699231739 7.5490990699231730 102.7553380357276041 Ba
atom 5.0327327132821127 5.0327327132821154 103.2235785231210201 S
atom 10.0654654265642254 5.0327327132821154 103.2235785231210201 S
atom 5.0327327132821127 10.0654654265642307 103.2235785231210201 S
atom 10.0654654265642254 10.0654654265642307 103.2235785231210201 S
