#=======================================================
# FHI-aims file: sym_relax/sym_relax_RP_9_RxRyRz_-RxRy0.in
# Created using the Atomic Simulation Environment (ASE)
# Mon Mar 17 17:03:01 2025
#=======================================================
lattice_vector 9.9795591325072301 -0.0388578512102633 -0.0055881029596368 
lattice_vector -0.0388578512102627 9.9795591325072284 0.0055881029596368 
lattice_vector -0.0524054073322756 0.0524054073322769 96.5590809066672620 
atom 0.0490685066366624 -0.0896960266924604 0.1108881033223051 Ba
atom 5.0794755929460722 -0.0684974322417939 0.1080940518424870 Ba
atom 0.0702671010873298 4.9407110596169641 0.1136821548021237 Ba
atom 5.0194191472851371 4.8806546139560325 0.1108881033223052 Ba
atom -0.3101492519058041 0.2363904564572380 4.9228915238414714 Ba
atom 4.7533891097963608 0.2907203263006724 4.9200974723616495 Ba
atom -0.2558193820623683 5.2999288181594277 4.9256855753212774 Ba
atom 4.6602013887426619 5.2067410971057386 4.9228915238414723 Ba
atom 2.4356860916082330 2.5449477437230397 2.3001932065611261 Zr
atom 7.4151824631790246 2.5152356234351236 2.2973991550813073 Zr
atom 2.4059739713203099 7.5244441152938650 2.3029872580409414 Zr
atom 7.4060367322567018 7.5152983843715360 2.3001932065611270 Zr
atom 2.3777755664361453 2.5544954198019099 7.3802447225668635 Zr
atom 7.4056347871001860 2.5731461486072162 7.3774506710870345 Zr
atom 2.3964262952414468 7.5823546404659670 7.3830387740466676 Zr
atom 7.3481262070846274 7.5248460604504004 7.3802447225668626 Zr
atom 2.5883723345014560 2.7826360618021346 -0.2100528991402598 S
atom 7.1774941450999297 2.3625493805418940 -0.2128469506200779 S
atom 2.1682856532412100 7.3717578724006394 -0.2072588476604411 S
atom 7.5587229751499372 7.7529867024506283 -0.2100528991402598 S
atom 2.2012714342090218 2.3018283323598911 4.8750780305155077 S
atom 7.6583018745421887 2.7496502808343299 4.8722839790356778 S
atom 2.6490933826834588 7.7588587726930802 4.8778720819953252 S
atom 7.1716220748574928 7.2721789730083826 4.8750780305155068 S
atom 2.7223266126955323 0.0578907275554560 2.1552406835802431 S
atom 7.0821885437093703 0.0408655536939214 2.6522922120627790 S
atom 2.0729800518506409 5.0500740455526705 2.6578803150224237 S
atom 7.6926772533439820 5.0282413682039380 2.1552406835802422 S
atom 2.8966413648712397 0.0646427426411291 7.6105468445731690 S
atom 6.9780848919221237 0.0458172768776665 7.1946936380273980 S
atom 1.9688764000633940 5.0550257687364200 7.2002817409870330 S
atom 7.8669920055197320 5.0349933832896197 7.6105468445731699 S
atom -0.0773196531605869 2.2674529535580894 2.1580347350600668 S
atom 4.9100561613494156 2.8779416631927113 2.6550862635426009 S
atom -0.0991523305093146 7.8871501550514544 2.6606743665022372 S
atom 4.8930309874878990 7.2378035942065946 2.1580347350600664 S
atom -0.0840716682462585 2.0931382013823705 7.6133408960529900 S
atom 4.9051044381656803 2.9820453149799699 7.1974876895072208 S
atom -0.1041040536930599 7.9912538068387340 7.2030757924668540 S
atom 4.8862789724022058 7.0634888420308659 7.6133408960529900 S
atom -0.0076731877660022 -0.0615015435337206 9.9343121366202922 Ba
atom 5.0512811097873334 -0.0117557378391290 9.9315180851404765 Ba
atom 0.0420726179285899 4.9974527540196307 9.9371061881001186 Ba
atom 4.9626774528824713 4.9088490971147518 9.9343121366202958 Ba
atom 0.0468546392552576 0.0167045246135146 15.0055336679312017 Ba
atom 4.9730750416401044 -0.0662835648603891 15.0027396164513664 Ba
atom -0.0361334502186450 4.9429249269983773 15.0083277194110050 Ba
atom 5.0172052799037328 4.9870551652620048 15.0055336679312035 Ba
atom 2.4802158830451724 2.5037387194725129 12.4561154942465429 Zr
atom 7.4563914874295607 2.4707058319981852 12.4533214427667058 Zr
atom 2.4471829955708282 7.4799143238569448 12.4589095457263674 Zr
atom 7.4505665236936389 7.4740893601210061 12.4561154942465411 Zr
atom 2.4752538990312321 2.4949764586437784 17.5428074589628906 Zr
atom 7.4651537482583281 2.4756678160121224 17.5400134074830945 Zr
atom 2.4559452563995721 7.4848763078708718 17.5456015104426797 Zr
atom 7.4456045396797004 7.4653270992922804 17.5428074589628906 Zr
atom 2.5573075383883945 2.6964396239479638 9.9292476365501745 S
atom 7.2636905829541369 2.3936141766549510 9.9264535850703464 S
atom 2.2544820910953889 7.4028226685137231 9.9320416880299973 S
atom 7.5276581790368686 7.6667902645964539 9.9292476365501710 S
atom 2.3936206024448659 2.4654726669191080 15.0058986100582370 S
atom 7.4946575399829589 2.5573011125984939 15.0031045585784213 S
atom 2.4854490481242459 7.5665096044572469 15.0086926615380740 S
atom 7.3639712430933448 7.4358233075675946 15.0058986100582388 S
atom 2.0003822900338055 0.0117804324453345 12.3973543884773907 S
atom 7.9844642812077478 -0.0057834305731254 12.5401953641116943 S
atom 2.9752557893490201 5.0034250612856308 12.5457834670713240 S
atom 6.9707329306822778 4.9821310730938162 12.3973543884773889 S
atom 2.9922576878963594 0.0066207899294847 17.5750095230498857 S
atom 6.9639218552931794 -0.0135717383840878 17.5170589123722067 S
atom 1.9547133634344220 4.9956367534746633 17.5226470153318701 S
atom 7.9626083285448290 4.9769714305779713 17.5750095230498893 S
atom -0.0312093580504655 2.9893972762198033 12.4001484399572277 S
atom 4.9567051456164677 1.9756659256943343 12.5429894155915065 S
atom -0.0525033462422680 6.9848744175530877 12.5485775185511343 S
atom 4.9391412825980083 7.9597479168683112 12.4001484399572277 S
atom -0.0260497155346142 1.9975218783572539 17.5778035745296464 S
atom 4.9644934534274272 2.9962083516089328 17.5198529638520704 S
atom -0.0447150384313055 8.0054168434676836 17.5254410668117160 S
atom 4.9443009251138612 6.9678725190057573 17.5778035745296428 S
atom -0.0223911698261676 -0.0068397979252761 20.0888421971392788 Ba
atom 4.9966193641788763 0.0029622442210366 20.0860481456594400 Ba
atom -0.0125891276798542 5.0121707360797938 20.0916362486190678 Ba
atom 4.9479594708223029 4.9635108427232133 20.0888421971392823 Ba
atom -0.0021738648608363 0.0314048326122808 25.1732269778609385 Ba
atom 4.9583747336413238 -0.0172550607442946 25.1704329263811459 Ba
atom -0.0508337582174110 4.9919534311144647 25.1760210293407809 Ba
atom 4.9681767757876365 5.0017554732607614 25.1732269778609385 Ba
atom 2.4728928029807355 2.4974578376677505 22.6310345875001175 Zr
atom 7.4626723692343404 2.4780289120626100 22.6282405360202894 Zr
atom 2.4534638773756035 7.4872374039213749 22.6338286389799208 Zr
atom 7.4432434436292230 7.4678084783162326 22.6310345875001175 Zr
atom 2.4705317069302390 2.4999392166917107 27.7192617160373302 Zr
atom 7.4601909902103571 2.4803900081131163 27.7164676645575092 Zr
atom 2.4509824983516335 7.4895984999718657 27.7220557675172046 Zr
atom 7.4408823475787056 7.4702898573402168 27.7192617160373302 Zr
atom 2.4948287613476170 2.5311888863512446 20.0890085291268399 S
atom 7.4289413205508401 2.4560929536957348 20.0862144776470259 S
atom 2.4197328286921120 7.4653014455544930 20.0918025806066183 S
atom 7.4651794019960889 7.5015395269997382 20.0890085291268434 S
atom 2.4509568446138572 2.4637267889842547 25.1730606458734059 S
atom 7.4964034179178434 2.4999648704294999 25.1702665943935990 S
atom 2.4871949260590944 7.5091733622882382 25.1758546973532447 S
atom 7.4213074852623402 7.4340774296327456 25.1730606458734130 S
atom 1.9728812919742318 0.0022620514689529 22.6102977412046080 S
atom 7.9821128058459756 -0.0165548679922108 22.6461833308360241 S
atom 2.9729043139872355 4.9926536238665458 22.6517714337956484 S
atom 6.9432319326226990 4.9726126921174343 22.6102977412046222 S
atom 2.9910722425270477 -0.0007210781391705 27.7394221596683934 S
atom 6.9627364099238642 -0.0209136064527426 27.6814715489907393 S
atom 1.9535279180651135 4.9882948854060114 27.6870596519503707 S
atom 7.9614228831755254 4.9696295625093168 27.7394221596683792 S
atom -0.0216909770740837 3.0168982742793911 22.6130917926844290 S
atom 4.9674765830355518 1.9780174010561169 22.6489773823158380 S
atom -0.0417319088231825 6.9872258929148678 22.6545654852754161 S
atom 4.9486596635744009 7.9872489149278714 22.6130917926844290 S
atom -0.0187078474659606 1.9987073237265651 27.7422162111481931 S
atom 4.9718353214960906 2.9973937969782423 27.6842656004705461 S
atom -0.0373731703626512 8.0066022888370085 27.6898537034301775 S
atom 4.9516427931824971 6.9690579643750690 27.7422162111481931 S
atom -0.0714196739422618 0.0078605100734902 30.2565355070690885 Ba
atom 4.9819190561801152 0.0519907483371309 30.2537414555892710 Ba
atom -0.0272894356786205 5.0611992401958723 30.2593295585489450 Ba
atom 4.8989309667062075 4.9782111507219859 30.2565355070690920 Ba
atom -0.0168918469210020 0.0860665782207255 35.3277570383800210 Ba
atom 4.9037129880328925 -0.0025370786841290 35.3249629869001964 Ba
atom -0.1054955038258552 5.0066714131746091 35.3305510898597248 Ba
atom 4.9534587937274930 5.0564172188692265 35.3277570383800210 Ba
atom 2.4655697229162969 2.4911769558629766 32.8059536807537100 Zr
atom 7.4689532510391023 2.4853519921270548 32.8031596292738499 Zr
atom 2.4597447591803672 7.4945604839858104 32.8087477322335133 Zr
atom 7.4359203635647750 7.4615275965114591 32.8059536807537100 Zr
atom 2.5680100395253165 2.4404202555335957 37.8818244524334489 Zr
atom 7.5197099513684789 2.3829116755180237 37.8790304009535248 Zr
atom 2.5105014595097588 7.3921201673767882 37.8846185039132806 Zr
atom 7.5383606801738070 7.4107708961820880 37.8818244524334489 Zr
atom 2.5521650035166101 2.5294430084163890 30.2561705649419608 S
atom 7.4306871984857068 2.3987567115267425 30.2533765134621646 S
atom 2.4214787066269681 7.4079652033854959 30.2589646164217996 S
atom 7.5225156441650842 7.4997936490648858 30.2561705649419608 S
atom 2.3884780675730757 2.2984760513875444 35.3328215384500623 S
atom 7.6616541555145385 2.5624436474702801 35.3300274869702804 S
atom 2.6524456636558185 7.5716521393290250 35.3356155899298443 S
atom 7.3588287082215711 7.2688266920360265 35.3328215384500552 S
atom 1.9705298166124527 -0.0085093859501324 32.7162857079289466 S
atom 7.9546118077864110 -0.0260732489685926 32.8591266835631828 S
atom 2.9454033159276611 4.9831352428901461 32.8647147865227325 S
atom 6.9408804572609162 4.9618412546983670 32.7162857079289466 S
atom 2.9769092058980857 -0.0601100934009248 38.0617874340132403 S
atom 7.0583527329489364 -0.0789355591643867 37.6459342274673858 S
atom 2.0491442410902252 4.9302729326943693 37.6515223304270705 S
atom 7.9472598465465722 4.9102405472475530 38.0617874340132403 S
atom -0.0109195396549984 3.0192497496411628 32.7190797594088139 S
atom 4.9769949640119355 2.0055183991156946 32.8619207350430074 S
atom -0.0322135278468007 7.0147268909744405 32.8675088380025926 S
atom 4.9594311009934682 7.9896003902896577 32.7190797594088139 S
atom 0.0406811677957935 2.0128703603555320 38.0645814854930009 S
atom 5.0298572742077567 2.9017774739531310 37.6487282789473028 S
atom 0.0206487823489928 7.9109859658118884 37.6543163819069804 S
atom 5.0110318084442778 6.9832210010040061 38.0645814854930009 S
atom 0.2855842172187993 -0.2118254217702330 40.3391776511587210 Ba
atom 5.2016049880238509 -0.3050131428239309 40.3363835996789533 Ba
atom 0.1923964961651019 4.7041953490348254 40.3419717026385527 Ba
atom 5.2559348578672775 4.7585252188782521 40.3391776511587210 Ba
atom -0.0736335413236665 0.1142610613794653 45.1511810716779607 Ba
atom 4.8755185048741376 0.0542046157185358 45.1483870201981503 Ba
atom -0.1336899869845953 5.0634131075772819 45.1539751231577853 Ba
atom 4.8967170993248246 5.0846117020279475 45.1511810716779607 Ba
atom 2.5100995143532359 2.4499679316124636 42.9618759684391165 Zr
atom 7.5101622752896482 2.4408222006901164 42.9590819169593203 Zr
atom 2.5009537834309055 7.4500306925488626 42.9646700199189056 Zr
atom 7.4804501550017060 7.4203185722609470 42.9618759684391165 Zr
atom 2.7445141717524391 2.6930873429756108 40.3869911444847247 S
atom 7.2670428639265001 2.2064075432909056 40.3841970930049214 S
atom 2.2578343720677507 7.2156160351496519 40.3897851959645564 S
atom 7.7148648124009336 7.6634379836240800 40.3869911444847247 S
atom 2.3574132714600138 2.2122796135333616 45.4721220741404153 S
atom 7.7478505933687334 2.5935084435833358 45.4693280226606689 S
atom 2.7386421015099982 7.6027169354420900 45.4749161256202541 S
atom 7.3277639121084874 7.1826302541818556 45.4721220741404153 S
atom 2.8728055541108346 -0.0551583702171790 42.6041888599778176 S
atom 7.2326674851246890 -0.0721835440787140 43.1012403884603472 S
atom 2.2234589932659419 4.9370249477800447 43.1068284914199751 S
atom 7.8431561947593078 4.9151922704313122 42.6041888599778176 S
atom 0.0357294446120483 2.1169740121427867 42.6069829114576279 S
atom 5.0231052591220582 2.7274627217774108 43.1040344399401860 S
atom 0.0138967672633208 7.7366712136361473 43.1096225428997286 S
atom 5.0060800852605265 7.0873246527912697 42.6069829114576279 S
atom 2.5989396107705875 2.4154855567668267 48.5822329161240134 Ba
atom 7.5446446501352646 2.3519821042727758 48.5794388646442314 Ba
atom 2.5354361582765286 7.3611905961315172 48.5850269676038238 Ba
atom 7.5692902514190683 7.3858361974153341 48.5822329161240134 Ba
atom 2.2502541159195455 2.7890169757436869 53.3878670387789498 Ba
atom 7.1711132311583965 2.7006675991238067 53.3850729872991536 Ba
atom 2.1619047392996635 7.7098760909825685 53.3906610902588099 Ba
atom 7.2206047565680258 7.7593676163921765 53.3878670387789498 Ba
atom 4.9275045340914874 5.0057081199308362 50.7740543383129008 Zr
atom 9.9247727276197413 4.9937678216003629 50.7712602868330407 Zr
atom 4.9155642357610088 10.0029763134591114 50.7768483897927680 Zr
atom 9.8978551747399663 9.9760587605792708 50.7740543383129008 Zr
atom 4.9181891398099147 5.0276014459438425 55.8379912091950530 Zr
atom 9.9028794016067110 5.0030832158819196 55.8351971577152568 Zr
atom 4.8936709097479874 10.0122917077406264 55.8407852606748065 Zr
atom 9.8885397804583768 9.9979520865923632 55.8379912091950459 Zr
atom 4.6807996936672627 4.8443312282768538 48.2626137196120908 S
atom 10.0861496192737192 5.2404726620245894 48.2598196681323017 S
atom 5.0769411274149707 10.2496811538833086 48.2654077710919154 S
atom 9.6511503343157123 9.8146818689253479 48.2626137196120908 S
atom 5.2166295276761225 5.2704539551313072 53.3402595884283812 S
atom 9.6600268924192765 4.7046428280156976 53.3374655369485424 S
atom 4.6508184005605351 9.7138513198744612 53.3430536399082058 S
atom 10.1869801683246024 10.2408045957797640 53.3402595884283812 S
atom 4.5918237435698011 2.5305881809585937 51.1467069493481716 S
atom 10.2112349757730367 2.5079009572026605 50.6020719959570897 S
atom 5.2020264839142962 7.5171094490614143 50.6076600989167815 S
atom 9.5621743842182401 7.5009388216070931 51.1467069493481787 S
atom 4.5391494659251643 2.5270928568304774 55.5533157766440766 S
atom 10.3231675944120429 2.5035800600521103 56.1620139615093663 S
atom 5.3139591025533175 7.5127885519108641 56.1676020644690226 S
atom 9.5095001065736753 7.4974434974789794 55.5533157766440695 S
atom 2.4203335340847651 5.3683064633322948 51.1495010008280033 S
atom 7.4133713984891791 4.7192458717775443 50.6048660474368361 S
atom 2.4041629066304284 9.7284543636363168 50.6104541503965280 S
atom 7.3906841747332450 10.3386571039808111 51.1495010008279962 S
atom 2.4238288582128642 5.4209807409769315 55.5561098281239225 S
atom 7.4176922956397080 4.6073132531384982 56.1648080129892193 S
atom 2.4084838037809768 9.6165217449972591 56.1703961159487903 S
atom 7.3941794988613392 10.3913313816253794 55.5561098281239225 S
atom 2.6193851390619782 2.2590302199031926 58.3716653519786703 Ba
atom 7.7010999869988863 2.3315365759813642 58.3688713004988315 Ba
atom 2.6918914951401494 7.3407450678401229 58.3744594034584949 Ba
atom 7.5897357797104714 7.2293808605516894 58.3716653519786632 Ba
atom 2.2636058395974556 2.8007835072208174 63.3853242524549643 Ba
atom 7.1593466996812820 2.6873158754458846 63.3825302009751610 Ba
atom 2.1501382078225340 7.6965243673046455 63.3881183039347960 Ba
atom 7.2339564802459400 7.7711341478693212 63.3853242524549714 Ba
atom 4.9278696081512798 5.0098489657051006 60.8645507367576926 Zr
atom 9.9206318818454839 4.9934027475405420 60.8617566852778893 Zr
atom 4.9114233899867434 10.0026112393992985 60.8673447882375598 Zr
atom 9.8982202487997597 9.9801996063535832 60.8645507367576926 Zr
atom 4.9285100642339739 5.0132999835223169 65.8883006335371277 Zr
atom 9.9171808640282748 4.9927622914578507 65.8855065820574168 Zr
atom 4.9079723721695032 10.0019707833166134 65.8910946850168102 Zr
atom 9.8988607048824271 9.9836506241708101 65.8883006335371419 Zr
atom 4.6062661547361232 4.7522762352586243 58.3627891539372499 S
atom 10.1782046122919461 5.3150062009557173 58.3599951024574182 S
atom 5.1689961204331967 10.3242146928144702 58.3655832054170673 S
atom 9.5766167953845951 9.7226268759071086 58.3627891539372428 S
atom 5.2493958168162758 5.2795288063066685 63.3820896034500905 S
atom 9.6509520412439009 4.6718765388755665 63.3792955519703440 S
atom 4.6417435493851702 9.6810850307343213 63.3848836549298511 S
atom 10.2197464574647334 10.2498794469551679 63.3820896034500976 S
atom 4.5438304402523402 2.5197379327943663 61.1914270505650819 S
atom 10.3188159006588069 2.4973169711821002 60.5599966974785957 S
atom 5.3096074088000629 7.5065254630408536 60.5655848004382378 S
atom 9.5141810809008494 7.4900885734428631 61.1914270505650748 S
atom 4.5465260483567089 2.5190942095163815 65.5763903424886507 S
atom 10.3203464077130427 2.4959918008054909 66.2053702418090353 S
atom 5.3111379158543190 7.5052002926642558 66.2109583447686845 S
atom 9.5168766890051604 7.4894448501648778 65.5763903424886223 S
atom 2.4311837822489917 5.4162997666497263 61.1942211020449491 S
atom 7.4239553845097204 4.6116649468917643 60.5627907489584487 S
atom 2.4147468926509852 9.6208734387505377 60.5683788519180908 S
atom 7.4015344228974618 10.3866504072982604 61.1942211020449633 S
atom 2.4318275055269751 5.4136041585453691 65.5791843939686032 S
atom 7.4252805548863368 4.6101344398375064 66.2081642932888172 S
atom 2.4160720630276034 9.6193429316962860 66.2137523962483243 S
atom 7.4021781461754470 10.3839547991939067 65.5791843939686032 S
atom 2.6236942697887984 2.2515425267160523 68.4012184014063536 Ba
atom 7.7085876801860387 2.3272274452545454 68.3984243499263442 Ba
atom 2.6993791883273062 7.3364359371133165 68.4040124528860787 Ba
atom 7.5940449104372716 7.2218931673645370 68.4012184014063536 Ba
atom 2.2696859288403974 2.7957785559517179 73.4199316802611577 Ba
atom 7.1643516509503717 2.6812357862029592 73.4171376287812905 Ba
atom 2.1551431590916370 7.6904442780617090 73.4227257317410675 Ba
atom 7.2400365694888595 7.7661291966002111 73.4199316802611719 Ba
atom 4.9318654196388243 5.0088358616581452 70.9105750408337201 Zr
atom 9.9216449858924634 4.9894069360530002 70.9077809893538529 Zr
atom 4.9124364940337086 9.9986154279117567 70.9133690923134452 Zr
atom 9.9022160602872766 9.9791865023066357 70.9105750408337201 Zr
atom 4.9352207750436952 5.0043717397939425 75.9328494481301561 Zr
atom 9.9261091077566554 4.9860515806481596 75.9300553966505447 Zr
atom 4.9169006158979034 9.9952600725068734 75.9356434996101513 Zr
atom 9.9055714156921617 9.9747223804424081 75.9328494481301561 Zr
atom 4.6076341329395714 4.7428951940627178 68.4011992410285359 S
atom 10.1875856534878615 5.3136382227522612 68.3984051895488108 S
atom 5.1783771616291396 10.3228467146110070 68.4039932925083889 S
atom 9.5779847735880299 9.7132458347111896 68.4011992410285643 S
atom 5.2560967063380790 5.2747765292535647 73.4199508406387338 S
atom 9.6557043182970226 4.6651756493537482 73.4171567891589802 S
atom 4.6464958264382847 9.6743841412124905 73.4227448921187005 S
atom 10.2264473469865731 10.2451271699020534 73.4199508406386343 S
atom 4.5498539339006001 2.5154282650387771 71.2259228274339904 S
atom 10.3230853972357934 2.4930349664187363 70.5896391512735164 S
atom 5.3138769053770707 7.5022434582774897 70.5952272542333077 S
atom 9.5202045745490871 7.4857789056872761 71.2259228274339904 S
atom 4.5525929234233402 2.5124714306520217 75.6101917368987699 S
atom 10.3264132827796793 2.4893690219411266 76.2391716362192398 S
atom 5.3172047909209503 7.4985775137998836 76.2447597391789174 S
atom 9.5229435640718130 7.4828220713005233 75.6101917368987699 S
atom 2.4354934500045871 5.4102762730014957 71.2287168789139855 S
atom 7.4282373892730833 4.6073954503147778 70.5924332027533836 S
atom 2.4190288974143459 9.6166039421735370 70.5980213057129902 S
atom 7.4058440906530381 10.3806269136499729 71.2287168789139997 S
atom 2.4384502843913336 5.4075372834787467 75.6129857883785235 S
atom 7.4319033337506859 4.6040675647708973 76.2419656876989649 S
atom 2.4226948418919592 9.6132760566296245 76.2475537906586851 S
atom 7.4088009250397802 10.3778879241272097 75.6129857883785235 S
atom 2.6297743590317211 2.2465375754469545 78.4358258292124901 Ba
atom 7.7135926314551462 2.3211473560116191 78.4330317777326798 Ba
atom 2.7043841395963990 7.3303558478703712 78.4386198806922863 Ba
atom 7.6001249996802169 7.2168882160954366 78.4358258292124901 Ba
atom 2.2739950595672052 2.7882908627645806 83.4494847296889333 Ba
atom 7.1718393441375117 2.6769266554761466 83.4466906782091371 Ba
atom 2.1626308522787796 7.6861351473348956 83.4522787811687579 Ba
atom 7.2443457002156828 7.7586415034130747 83.4494847296889475 Ba
atom 4.9358612311263750 5.0078227576111853 80.9565993449097334 Zr
atom 9.9226580899393735 4.9854111245654664 80.9538052934298520 Zr
atom 4.9134495980806561 9.9946196164242220 80.9593933963896859 Zr
atom 9.9062118717748309 9.9781733982596759 80.9565993449097334 Zr
atom 4.9455416994677579 4.9900702773724133 85.9831588724723730 Zr
atom 9.9404105701781784 4.9757306562240933 85.9803648209925484 Zr
atom 4.9312020783193962 9.9849391480828569 85.9859529239523255 Zr
atom 9.9158923401162067 9.9604209180209047 85.9831588724723730 Zr
atom 4.6143350224613879 4.7381429170096050 78.4390604782172289 S
atom 10.1923379305410133 5.3069373332304419 78.4362664267374612 S
atom 5.1831294386822488 10.3161458250892260 78.4418545296969967 S
atom 9.5846856631098287 9.7084935576581000 78.4390604782172289 S
atom 5.2574646845415387 5.2653954880576439 83.4583609277302116 S
atom 9.6650853594929238 4.6638076711502707 83.4555668762505434 S
atom 4.6558768676341975 9.6730161630090539 83.4611549792101783 S
atom 10.2278153251900008 10.2357461287061540 83.4583609277302116 S
atom 4.5541234304776026 2.5111462602754160 81.2555652812291100 S
atom 10.3291088908840294 2.4887252986631387 80.6241349281426380 S
atom 5.3199003990253146 7.4979337905219001 80.6297230311021025 S
atom 9.5244740711260896 7.4814969009238883 81.2555652812291100 S
atom 4.5497717367243622 2.5048831714054014 85.6535480171984460 S
atom 10.3337898652111964 2.4813703746270290 86.2622462020634089 S
atom 5.3245813733525047 7.4905788664857722 86.2678343050232002 S
atom 9.5201223773728145 7.4752338120538919 85.6535480171984318 S
atom 2.4397754547679429 5.4060067764244906 81.2583593327089204 S
atom 7.4325470570286880 4.6013719566665321 80.6269289796222779 S
atom 2.4233385651699519 9.6105804485252460 80.6325170825821687 S
atom 7.4101260954164436 10.3763574170729651 81.2583593327089204 S
atom 2.4460385436379508 5.4103584701777692 85.6563420686782138 S
atom 7.4399019810648177 4.5966909823393332 86.2650402535432903 S
atom 2.4306934892060537 9.6058994741980843 86.2706283565028684 S
atom 7.4163891842864285 10.3807091108262686 85.6563420686781853 S
atom 2.6431260827096614 2.2583041069240815 88.4332830428884336 Ba
atom 7.7018260999779997 2.3077956323337112 88.4304889914086090 Ba
atom 2.6926176081192650 7.3170041241924570 88.4360770943683292 Ba
atom 7.6134767233581240 7.2286547475725804 88.4332830428884336 Ba
atom 2.2944405878586172 2.6318355259009434 93.2389171655435263 Ba
atom 7.3282946810011547 2.6564811271847426 93.2361231140638438 Ba
atom 2.3190861891423991 7.6656896190435049 93.2417112170235072 Ba
atom 7.2647912285070895 7.6021861665494095 93.2389171655435263 Ba
atom 4.9362263051861968 5.0119636033854276 91.0470957433545323 Zr
atom 9.9185172441651144 4.9850460505056393 91.0443016918745656 Zr
atom 4.9093087523063978 9.9942545423643931 91.0498897948342005 Zr
atom 9.9065769458346420 9.9823142440339119 91.0470957433545323 Zr
atom 4.6471013116015474 4.7472177681849494 88.4808904932390448 S
atom 10.1832630793656147 5.2741710440902931 88.4780964417593907 S
atom 5.1740545875068742 10.2833795359490434 88.4836845447189262 S
atom 9.6174519522500361 9.7175684088334666 88.4808904932390448 S
atom 5.1829311456104099 5.1733404950394117 93.5585363620553778 S
atom 9.7571403525111613 4.7383412100814182 93.5557423105755532 S
atom 4.7479318606524208 9.7475497019401747 93.5613304135352308 S
atom 10.1532817862588427 10.1436911356879271 93.5585363620554062 S
atom 4.6617043553633781 2.5005622742548494 91.2134899827506871 S
atom 10.2811155875666671 2.4778750504989158 90.6688550293593067 S
atom 5.2719070957078555 7.4870835423576656 90.6744431323189133 S
atom 9.6320549960118367 7.4709129149033418 91.2134899827507013 S
atom 2.4503594407885037 5.2984258515387070 91.2162840342303554 S
atom 7.4433973051928959 4.6493652599839699 90.6716490808391313 S
atom 2.4341888133341731 9.6585737518426864 90.6772371837987379 S
atom 7.4207100814369840 10.2687764921872251 91.2162840342303554 S
