#=======================================================
# FHI-aims file: sym_relax/sym_relax_RP_3_RxRy0_RxRy0.in
# Created using the Atomic Simulation Environment (ASE)
# Fri Mar 14 10:22:46 2025
#=======================================================
lattice_vector 10.0776139788648482 0.1105617252915933 0.0000000000000000 
lattice_vector 0.1105617252915935 10.0776139788648518 -0.0000000000000000 
lattice_vector 0.0000000000000000 -0.0000000000000000 35.4301180888285430 
atom -0.1019049729921359 -0.1019049729921358 0.2847354491482937 Ba
atom 5.1407119624245636 0.1571858356379312 0.2847354491482937 Ba
atom 0.1571858356379314 5.1407119624245530 0.2847354491482937 Ba
atom 4.9921828790860880 4.9921828790860827 0.2847354491482937 Ba
atom -0.0030794845963606 -0.0030794845963605 4.9518965477589303 Ba
atom 5.0418864740287876 0.0583603472421561 4.9518965477589303 Ba
atom 0.0583603472421561 5.0418864740287805 4.9518965477589303 Ba
atom 5.0910083674818596 5.0910083674818534 4.9518965477589303 Ba
atom 2.5340545324433057 2.5340545324433061 2.3525425726136762 Zr
atom 7.5988403090673282 2.6153141822807009 2.3525425726136762 Zr
atom 2.6153141822807062 7.5988403090673229 2.3525425726136762 Zr
atom 7.6281423845215413 7.6281423845215270 2.3525425726136762 Zr
atom 2.5470439260391111 2.5470439260391071 7.3812746018392774 Zr
atom 7.5858509154715383 2.6023247886849035 7.3812746018392774 Zr
atom 2.6023247886849061 7.5858509154715268 7.3812746018392774 Zr
atom 7.6411317781173329 7.6411317781173240 7.3812746018392774 Zr
atom 2.7377045158482978 2.7377045158482960 -0.1318205822811607 S
atom 7.3951903256623588 2.4116641988757177 -0.1318205822811607 S
atom 2.4116641988757213 7.3951903256623410 -0.1318205822811607 S
atom 7.8317923679265107 7.8317923679265018 -0.1318205822811607 S
atom 2.2435847264293223 2.2435847264293192 4.8967791021034346 S
atom 7.8893101150813161 2.9057839882946905 4.8967791021034346 S
atom 2.9057839882946954 7.8893101150813143 4.8967791021034346 S
atom 7.3376725785075481 7.3376725785075347 4.8967791021034346 S
atom 2.5194034947162116 0.0276404313228978 2.1973755229321457 S
atom 7.5582104841486384 0.0829212939686930 2.7015366531370959 S
atom 2.5746843573620093 5.0664474207553143 2.7015366531370959 S
atom 7.6134913467944410 5.1217282834011133 2.1973755229321457 S
atom 2.5194034947162116 0.0276404313228978 7.7007298308943364 S
atom 7.5582104841486384 0.0829212939686930 7.0618193727842078 S
atom 2.5746843573620093 5.0664474207553143 7.0618193727842078 S
atom 7.6134913467944410 5.1217282834011133 7.7007298308943364 S
atom 0.0276404313228983 2.5194034947162125 2.1973755229321457 S
atom 5.0664474207553294 2.5746843573620040 2.7015366531370959 S
atom 0.0829212939686934 7.5582104841486286 2.7015366531370959 S
atom 5.1217282834011257 7.6134913467944196 2.1973755229321457 S
atom 0.0276404313228983 2.5194034947162125 7.7007298308943364 S
atom 5.0664474207553294 2.5746843573620040 7.0618193727842078 S
atom 0.0829212939686934 7.5582104841486286 7.0618193727842078 S
atom 5.1217282834011257 7.6134913467944196 7.7007298308943364 S
atom 0.0030794845963605 0.0030794845963605 9.8106526559196183 Ba
atom 5.0357275048360650 0.0522013780494351 9.8106526559196183 Ba
atom 0.0522013780494351 5.0357275048360570 9.8106526559196183 Ba
atom 5.0971673366745867 5.0971673366745716 9.8106526559196183 Ba
atom 0.1019049729921359 0.1019049729921359 14.4778137545302492 Ba
atom 4.9369020164402944 -0.0466241103463402 14.4778137545302492 Ba
atom -0.0466241103463401 4.9369020164402890 14.4778137545302492 Ba
atom 5.1959928250703511 5.1959928250703467 14.4778137545302492 Ba
atom 2.5600333196349112 2.5600333196349072 12.4100066310648760 Zr
atom 7.5728615218757378 2.5893353950891038 12.4100066310648760 Zr
atom 2.5893353950891056 7.5728615218757271 12.4100066310648760 Zr
atom 7.6541211717131263 7.6541211717131157 12.4100066310648760 Zr
atom 2.8505031256489000 2.8505031256488964 9.8657701015751087 S
atom 7.2823917158617482 2.2988655890751168 9.8657701015751087 S
atom 2.2988655890751195 7.2823917158617411 9.8657701015751087 S
atom 7.9445909777271204 7.9445909777271062 9.8657701015751087 S
atom 2.3563833362299231 2.3563833362299214 14.8943697859597126 S
atom 7.7765115052807197 2.7929853784940897 14.8943697859597126 S
atom 2.7929853784940963 7.7765115052807099 14.8943697859597126 S
atom 7.4504711883081525 7.4504711883081391 14.8943697859597126 S
atom 2.5194034947162116 0.0276404313228978 12.0610125505414594 S
atom 7.5582104841486384 0.0829212939686930 12.5651736807463994 S
atom 2.5746843573620093 5.0664474207553143 12.5651736807463994 S
atom 7.6134913467944410 5.1217282834011133 12.0610125505414594 S
atom 0.0276404313228983 2.5194034947162125 12.0610125505414594 S
atom 5.0664474207553294 2.5746843573620040 12.5651736807463994 S
atom 0.0829212939686934 7.5582104841486286 12.5651736807463994 S
atom 5.1217282834011257 7.6134913467944196 12.0610125505414594 S
atom 2.4451389530469787 2.4451389530469725 17.9997944935625540 Ba
atom 7.6877558884636699 2.7042297616770363 17.9997944935625540 Ba
atom 2.7042297616770403 7.6877558884636583 17.9997944935625540 Ba
atom 7.5392268051251969 7.5392268051251889 17.9997944935625540 Ba
atom 2.5439644414427502 2.5439644414427467 22.6669555921732098 Ba
atom 7.5889304000679010 2.6054042732812630 22.6669555921732098 Ba
atom 2.6054042732812639 7.5889304000678850 22.6669555921732098 Ba
atom 7.6380522935209703 7.6380522935209623 22.6669555921732098 Ba
atom 5.0810984584824217 5.0810984584824208 20.0676016170279219 Zr
atom 10.1458842351064504 5.1623581083198067 20.0676016170279219 Zr
atom 5.1623581083198156 10.1458842351064416 20.0676016170279219 Zr
atom 10.1751863105606546 10.1751863105606279 20.0676016170279219 Zr
atom 5.0940878520782222 5.0940878520782142 25.0963336462535480 Zr
atom 10.1328948415106588 5.1493687147240079 25.0963336462535480 Zr
atom 5.1493687147240177 10.1328948415106286 25.0963336462535480 Zr
atom 10.1881757041564445 10.1881757041564285 25.0963336462535480 Zr
atom 5.2847484418874080 5.2847484418873973 17.5832384621331137 S
atom 9.9422342517014552 4.9587081249148248 17.5832384621331137 S
atom 4.9587081249148337 9.9422342517014517 17.5832384621331137 S
atom 10.3788362939656285 10.3788362939656160 17.5832384621331137 S
atom 4.7906286524684329 4.7906286524684303 22.6118381465177158 S
atom 10.4363540411204383 5.4528279143337981 22.6118381465177158 S
atom 5.4528279143338025 10.4363540411204294 22.6118381465177158 S
atom 9.8847165045466454 9.8847165045466383 22.6118381465177158 S
atom 5.0664474207553294 2.5746843573620040 19.9124345673464020 S
atom 10.1052544101877668 2.6299652200077994 20.4165956975513545 S
atom 5.1217282834011257 7.6134913467944196 20.4165956975513545 S
atom 10.1605352728335507 7.6687722094402204 19.9124345673464020 S
atom 5.0664474207553294 2.5746843573620040 25.4157888753085999 S
atom 10.1052544101877668 2.6299652200077994 24.7768784171984855 S
atom 5.1217282834011257 7.6134913467944196 24.7768784171984855 S
atom 10.1605352728335507 7.6687722094402204 25.4157888753085999 S
atom 2.5746843573620093 5.0664474207553143 19.9124345673464020 S
atom 7.6134913467944410 5.1217282834011133 20.4165956975513545 S
atom 2.6299652200078008 10.1052544101877295 20.4165956975513545 S
atom 7.6687722094402302 10.1605352728335347 19.9124345673464020 S
atom 2.5746843573620093 5.0664474207553143 25.4157888753085999 S
atom 7.6134913467944410 5.1217282834011133 24.7768784171984855 S
atom 2.6299652200078008 10.1052544101877295 24.7768784171984855 S
atom 7.6687722094402302 10.1605352728335347 25.4157888753085999 S
atom 2.5501234106354680 2.5501234106354680 27.5257117003338792 Ba
atom 7.5827714308751792 2.5992453040885439 27.5257117003338792 Ba
atom 2.5992453040885488 7.5827714308751641 27.5257117003338792 Ba
atom 7.6442112627136893 7.6442112627136831 27.5257117003338792 Ba
atom 2.6489488990312449 2.6489488990312431 32.1928727989444781 Ba
atom 7.4839459424794059 2.5004198156927679 32.1928727989444781 Ba
atom 2.5004198156927742 7.4839459424793908 32.1928727989444781 Ba
atom 7.7430367511094680 7.7430367511094493 32.1928727989444781 Ba
atom 5.1070772456740201 5.1070772456740103 30.1250656754791528 Zr
atom 10.1199054479148547 5.1363793211282127 30.1250656754791528 Zr
atom 5.1363793211282260 10.1199054479148334 30.1250656754791528 Zr
atom 10.2011650977522486 10.2011650977522272 30.1250656754791528 Zr
atom 5.3975470516880097 5.3975470516880035 27.5808291459893766 S
atom 9.8294356419008562 4.8459095151142204 27.5808291459893766 S
atom 4.8459095151142302 9.8294356419008384 27.5808291459893766 S
atom 10.4916349037662489 10.4916349037662240 27.5808291459893766 S
atom 4.9034272622690347 4.9034272622690329 32.6094288303739930 S
atom 10.3235554313198321 5.3400293045331928 32.6094288303739930 S
atom 5.3400293045332008 10.3235554313198179 32.6094288303739930 S
atom 9.9975151143472640 9.9975151143472356 32.6094288303739930 S
atom 5.0664474207553294 2.5746843573620040 29.7760715949557238 S
atom 10.1052544101877668 2.6299652200077994 30.2802327251606584 S
atom 5.1217282834011257 7.6134913467944196 30.2802327251606584 S
atom 10.1605352728335507 7.6687722094402204 29.7760715949557238 S
atom 2.5746843573620093 5.0664474207553143 29.7760715949557238 S
atom 7.6134913467944410 5.1217282834011133 30.2802327251606584 S
atom 2.6299652200078008 10.1052544101877295 30.2802327251606584 S
atom 7.6687722094402302 10.1605352728335347 29.7760715949557238 S
