#=======================================================
# FHI-aims file: sym_relax/sym_relax_RP_1_RxRyMz_-Rx-Ry-Mz.in
# Created using the Atomic Simulation Environment (ASE)
# Fri Mar 14 10:20:30 2025
#=======================================================
lattice_vector 10.0858340682471077 0.2044642146131509 -0.0009255820611108 
lattice_vector 0.2044642146131508 10.0858340682471059 0.0009255820611108 
lattice_vector 0.0014275557594033 -0.0014275557594032 15.5513170566255585 
atom -0.1071950537035695 -0.1072347933007078 0.2366436964444470 Ba
atom 5.1501518274242617 0.2094271610101453 0.2361809054138920 Ba
atom 0.2094669006072829 5.1501120878271260 0.2371064874750025 Ba
atom 5.0379540877265505 5.0379143481294157 0.2366436964444473 Ba
atom 0.1076411648783835 0.1067886821258937 4.6231428837510391 Ba
atom 4.9361283519976524 -0.0054090575718091 4.6226800927204836 Ba
atom -0.0045565748193191 4.9352758692451726 4.6236056747815937 Ba
atom 5.2527903063085066 5.2519378235560312 4.6231428837510391 Ba
atom 2.5727976263024699 2.5723515151276559 2.4298932900977412 Zr
atom 7.6157146604260300 2.6745836224342345 2.4294304990671880 Zr
atom 2.6750297336090445 7.6152685492512084 2.4303560811282998 Zr
atom 7.7179467677325899 7.7175006565577906 2.4298932900977412 Zr
atom 2.7865318270017161 2.7865578834363420 -0.1074765682524204 S
atom 7.4015082921173407 2.4608494217349857 -0.1079393592829752 S
atom 2.4608233653003615 7.4015343485519631 -0.1070137772218649 S
atom 7.9316809684318459 7.9317070248664630 -0.1074765682524201 S
atom 2.3590634256032210 2.3581451468189751 4.9672631484479108 S
atom 7.8299210287346908 2.8883178231334812 4.9668003574173492 S
atom 2.8892361019177275 7.8290027499504555 4.9677259394784601 S
atom 7.5042125670333464 7.5032942882491076 4.9672631484479108 S
atom 2.5216630685978130 0.0509124944989838 2.2207138703039337 S
atom 7.5646171108241029 0.1531056089393525 2.6381471278304431 S
atom 2.6239321840071281 5.0937905357563285 2.6390727098915541 S
atom 7.6668122100279321 5.1960616359291185 2.2207138703039346 S
atom 0.0513196128075918 2.5212539655257413 2.2211766613344883 S
atom 5.0942756397973428 2.6234490647295710 2.6386099188609968 S
atom 0.1535907129803722 7.5641339915465453 2.6395355009221069 S
atom 5.1964687542377135 7.6664031069558671 2.2211766613344892 S
atom 2.6805231418954709 2.6790558465389327 8.0123022247572084 Ba
atom 7.5090103290147425 2.5668581068412286 8.0118394337266654 Ba
atom 2.5683254021977735 7.5075430336582079 8.0127650157877746 Ba
atom 7.8256722833256021 7.8242049879690674 8.0123022247572084 Ba
atom 2.4664996664688728 2.4642196279569761 12.3988014120638237 Ba
atom 7.7238465475967040 2.7808815822678308 12.3983386210332664 Ba
atom 2.7831616207797243 7.7215665090848153 12.3992642030943685 Ba
atom 7.6116488078989919 7.6093687693871086 12.3988014120638219 Ba
atom 5.1460859748972450 5.1442123079630209 10.2055518184105249 Zr
atom 10.1890030090207979 5.2464444152695986 10.2050890273799642 Zr
atom 5.2483180822038094 10.1871293420865818 10.2060146094410733 Zr
atom 10.2912351163273517 10.2893614493931498 10.2055518184105249 Zr
atom 4.9318796065885486 4.9304781072637773 7.6681819600603562 S
atom 10.4027372097200530 5.4606507835782816 7.6677191690297999 S
atom 5.4620522829030529 10.4013357103952568 7.6686447510909126 S
atom 10.0770287480186749 10.0756272486939036 7.6681819600603562 S
atom 5.3602923432059111 5.3579465086622706 12.7429216767606732 S
atom 9.9752688083215411 5.0322380469609156 12.7424588857301195 S
atom 5.0345838815045587 9.9729229737778891 12.7433844677912269 S
atom 10.5054414846360409 10.5030956500923836 12.7429216767606732 S
atom 5.0949884252953161 2.6227342944681387 10.4142684471737716 S
atom 10.1378684513161303 2.7250053946409230 9.9959096075861531 S
atom 5.1971835244991569 7.6656903214579053 9.9968351896472658 S
atom 10.2401375667254602 7.7678834358982627 10.4142684471737716 S
atom 2.6246469542685622 5.0930777502583666 10.4147312382043271 S
atom 7.6675249955259037 5.1953468656676698 9.9963723986167015 S
atom 2.7268400687089343 10.1360317924846672 9.9972979806778177 S
atom 7.7697960956986902 10.2382268916884858 10.4147312382043271 S
