#=======================================================
# FHI-aims file: sym_relax/sym_relax_RP_9_Rx0Rz_0RyRz.in
# Created using the Atomic Simulation Environment (ASE)
# Mon Mar 17 16:37:59 2025
#=======================================================
lattice_vector 9.9067209685651019 0.0050554664774436 0.0114172776642540 
lattice_vector 0.0050554664774436 9.9067209685650948 -0.0114172776642540 
lattice_vector 0.1120331216419322 -0.1120331216419318 97.7413905722536214 
atom -0.0520904728480412 0.0381532974010669 0.1662955257640086 Ba
atom 4.9149859649203114 0.0544072762457632 0.1720092832203204 Ba
atom -0.0358467861235073 5.0052400272896147 0.1605920055560666 Ba
atom 4.9037977446732350 4.9940415149223476 0.1662955257640087 Ba
atom 0.0952316403043146 -0.0268628420182680 5.0602106387293766 Ba
atom 4.9801290179056590 -0.0927798751224816 5.0659276389237453 Ba
atom 0.0292962668618189 4.8580528759213477 5.0545103612594904 Ba
atom 5.0511198578255740 4.9290253755030120 5.0602106387293775 Ba
atom 2.5036457177615485 2.4733588956400183 2.4301674208269115 Zr
atom 7.4357474339028782 2.4546157367575319 2.4358731616926623 Zr
atom 2.4849146828590341 7.4054484878013769 2.4244558840284083 Zr
atom 7.4595339352828098 7.4292471131612983 2.4301674208269120 Zr
atom 2.5160666923018655 2.4343410205161153 7.5654804902331358 Zr
atom 7.4748279244990510 2.4423071682017454 7.5711913168362548 Zr
atom 2.5239951734552357 7.3931399192455842 7.5597740391720034 Zr
atom 7.4719549098231308 7.3902292380373860 7.5654804902331358 Zr
atom 2.6196508144592863 2.5433690152431985 -0.1070589613356329 S
atom 7.3657914799621107 2.3385631910383382 -0.1013522965855705 S
atom 2.4149587289182812 7.2893959420821659 -0.1127695742498245 S
atom 7.5755390319805800 7.4992572327644833 -0.1070589613356330 S
atom 2.4232546381584448 2.3728204607791183 5.0317855697250513 S
atom 7.5362005754129102 2.5351916817312135 5.0374941954292893 S
atom 2.5853678243690741 7.4860244327750367 5.0260769177650397 S
atom 7.3791428556796976 7.3287086783004058 5.0317855697250486 S
atom 2.1078437841213726 -0.0241611257518815 2.4262750028815221 S
atom 7.8897991617768923 -0.0218160643990349 2.6393221126609365 S
atom 2.9389664107330491 4.9290166866447853 2.6279048349966843 S
atom 7.0637320016426415 4.9317270917694014 2.4262750028815230 S
atom 3.0534210331017113 -0.0361293940570053 7.6368222765699212 S
atom 6.9475721017388441 -0.0337546676517392 7.5533069728760642 S
atom 1.9967393506950211 4.9170780833920951 7.5418896952118084 S
atom 8.0093092506229482 4.9197588234642735 7.6368222765699176 S
atom 0.0265516991321587 2.8453813951600075 2.4206611118410510 S
atom 4.9800928209863287 2.0193144134068977 2.6335189692581369 S
atom 0.0292600699425004 6.9701471644507240 2.6221016915938868 S
atom 4.9824399166534219 7.8012696126812617 2.4206611118410502 S
atom 0.0386090918313810 1.8999380612723571 7.6310203058648600 S
atom 4.9921245044614722 2.9616781108929326 7.5477143497010930 S
atom 0.0412917534176384 7.9125108619367532 7.5362970720368345 S
atom 4.9944973093526492 6.8558262787936579 7.6310203058648600 S
atom 0.0343827356289501 -0.0706668112149178 10.1412627716571269 Ba
atom 5.0241001117764759 -0.0319391978437781 10.1469655569399198 Ba
atom 0.0732673607326557 4.9188935532000544 10.1355482792756852 Ba
atom 4.9902709531502332 4.8852214063063482 10.1412627716571286 Ba
atom 0.0463147652783137 -0.0316203524848040 15.2467428854319689 Ba
atom 4.9850547598256245 -0.0438099099536587 15.2524715838497507 Ba
atom 0.0342220087818098 4.9070228410901704 15.2410543061855073 Ba
atom 5.0022029827995880 4.9242678650364784 15.2467428854319689 Ba
atom 2.5166968836782972 2.4400754627083154 12.6800397533469162 Zr
atom 7.4691216074365627 2.4416687320899144 12.6857550401543939 Zr
atom 2.5182888563927190 7.3925014831337634 12.6743377624901434 Zr
atom 7.4725851011995550 7.3959636802296052 12.6800397533469145 Zr
atom 2.5099662612224214 2.4455795950406838 17.7945529809154017 Zr
atom 7.4637002475603129 2.4484836242386634 17.8002662845686537 Zr
atom 2.5128674965164555 7.3993163752824946 17.7888490069043677 Zr
atom 7.4658544787436885 7.4014678125619593 17.7945529809154017 Zr
atom 2.5425117592949769 2.4812994643139921 10.1366539543599785 S
atom 7.4279854090569213 2.4157583209818667 10.1423636896136742 S
atom 2.4771526580130878 7.3665910720257033 10.1309464119494148 S
atom 7.4983999768162608 7.4371876818352698 10.1366539543599750 S
atom 2.4948550233342721 2.4324779488913642 15.2447745620907433 S
atom 7.4767668497855562 2.4635387287597754 15.2504848502098813 S
atom 2.5259340987417076 7.4143714798036049 15.2390675725456237 S
atom 7.4507432408555463 7.3883661664126459 15.2447745620907398 S
atom 1.9824602521409140 -0.0345753126570030 12.6808754794933538 S
atom 8.0011966623325446 -0.0320952908278457 12.7222645262699530 S
atom 3.0503639112887191 4.9187374602159775 12.7108472486057043 S
atom 6.9383484696621798 4.9213129048642843 12.6808754794933520 S
atom 3.0423001498656963 -0.0301596230702998 17.8126516194223043 S
atom 6.9292097124741350 -0.0275262769363954 17.8012100915189819 S
atom 1.9783769614303159 4.9233064741074406 17.7897928138547279 S
atom 7.9981883673869669 4.9257285944509706 17.8126516194223079 S
atom 0.0370526888061552 2.9708445873684357 12.6751969901306332 S
atom 4.9904625344497857 1.9079744826832983 12.7165112979889567 S
atom 0.0396297834059539 6.8588072337271351 12.7050940203247116 S
atom 4.9929409063274370 7.9267328048897001 12.6751969901306349 S
atom 0.0327117780380125 1.9111145406957013 17.8069262700870397 S
atom 4.9859710178496242 2.9800607132027319 17.7954704943931432 S
atom 0.0351382668057810 7.9308934642465543 17.7840532167289354 S
atom 4.9885999955592899 6.8670027582169837 17.8069262700870397 S
atom 0.0262922799813270 -0.0341997478909665 20.3538781237171769 Ba
atom 4.9875818597886798 -0.0237962700244446 20.3596035114351466 Ba
atom 0.0367491087448521 4.9270364810194085 20.3481862337709032 Ba
atom 4.9821804975025969 4.9216884696303040 20.3538781237171911 Ba
atom 0.0262232457883291 -0.0183157778786892 25.4623987070268782 Ba
atom 4.9716546345460690 -0.0236637892677670 25.4680905969730951 Ba
atom 0.0208218835022478 4.9271689617760375 25.4566733193088304 Ba
atom 4.9821114633095895 4.9375724396425786 25.4623987070268747 Ba
atom 2.5042018716454693 2.4516863458758111 22.9081384153719689 Zr
atom 7.4575623559279958 2.4542140791145277 22.9138470542041297 Zr
atom 2.5067296048841845 7.4050468301583692 22.9024297765398615 Zr
atom 7.4600900891667292 7.4075745633970902 22.9081384153719689 Zr
atom 2.4984374820685069 2.4577930967109305 28.0217238498285610 Zr
atom 7.4514244642957213 2.4599445339904107 28.0274278238396093 Zr
atom 2.5005917132519100 7.4107772850342277 28.0160105461753481 Zr
atom 7.4543256995897753 7.4136813142322007 28.0217238498285610 Zr
atom 2.5137789544049012 2.4574163932964606 20.3536917894974252 S
atom 7.4518432090128339 2.4446258446082436 20.3594009845014057 S
atom 2.5010104579690133 7.3954585956520420 20.3479837068371197 S
atom 7.4696671719261998 7.4133046108177236 20.3536917894974252 S
atom 2.4946247888860222 2.4459562984551591 25.4625850412465695 S
atom 7.4632815028432073 2.4638023136208229 25.4682931239068893 S
atom 2.5124487517993663 7.4146350646646866 25.4568758462426104 S
atom 7.4505130064072809 7.4018445159764417 25.4625850412465695 S
atom 1.9692933703809614 -0.0249349659656803 22.9048566639104081 S
atom 7.9899431239537941 -0.0225250933265314 22.9228374444978193 S
atom 3.0391103729099602 4.9283076577172986 22.9114201668335689 S
atom 6.9251815879022303 4.9309532515556036 22.9048566639104187 S
atom 3.0300267818606224 -0.0199337823558169 28.0264840168892491 S
atom 6.9169363444690397 -0.0173004362219119 28.0150424889859089 S
atom 1.9661035934252202 4.9335323148219183 28.0036252113216158 S
atom 7.9859149993819045 4.9359544351654616 28.0264840168892491 S
atom 0.0274622356455887 2.9840634343619379 22.8991711045392599 S
atom 4.9809415076453671 1.9193092573896822 22.9171057262047881 S
atom 0.0301087566015113 6.8701420084334952 22.9056884485405163 S
atom 4.9833504531668629 7.9399516518832334 22.8991711045392599 S
atom 0.0224327254413187 1.9233119785488897 28.0208063363508124 S
atom 4.9756919652529144 2.9922581510559243 28.0093505606569302 S
atom 0.0248592142090869 7.9430909020997280 27.9979332829926193 S
atom 4.9783209429625916 6.8792001960701592 28.0208063363508195 S
atom 0.0062007604913425 -0.0208951732848521 30.5695339453119921 Ba
atom 4.9741817345091199 -0.0036501493385538 30.5752225245585052 Ba
atom 0.0233489834652904 4.9471826017052773 30.5638052468942583 Ba
atom 4.9620889780126207 4.9349930442364212 30.5695339453119956 Ba
atom 0.0181327901407055 0.0181512854452623 35.6750140590868483 Ba
atom 4.9351363825582659 -0.0155208614484336 35.6807285514681851 Ba
atom -0.0156963684855561 4.9353118895953960 35.6693112738039915 Ba
atom 4.9740210076619853 4.9740395029665301 35.6750140590868483 Ba
atom 2.4917068596126382 2.4632972290432931 33.1362370773970767 Zr
atom 7.4460031044194599 2.4667594261391397 33.1419390682539259 Zr
atom 2.4951703533756526 7.4175921771829705 33.1305217905896185 Zr
atom 7.4475950771339061 7.4191854465645752 33.1362370773970767 Zr
atom 2.4923370509890597 2.4690316712355069 38.2507963405107532 Zr
atom 7.4402967873569832 2.4661209900273175 38.2565027915718403 Zr
atom 2.4894640363131435 7.4169537410711630 38.2450855139076396 Zr
atom 7.4482252685103223 7.4249198887567838 38.2507963405107532 Zr
atom 2.5135487199566482 2.4708947428602541 30.5715022686532443 S
atom 7.4383578620704842 2.4448894294692782 30.5772092581983728 S
atom 2.4875251110266672 7.3957221805131255 30.5657919805341081 S
atom 7.4694369374779281 7.4267829603815239 30.5715022686532478 S
atom 2.4658919839959448 2.4220732274376329 35.6796228763841086 S
atom 7.4871393027991111 2.4926698372471927 35.6853304187945284 S
atom 2.5363065517552794 7.4435025882910359 35.6739131411303347 S
atom 7.4217802015172110 7.3779614449589079 35.6796228763841015 S
atom 1.9580398320022072 -0.0153647684643652 33.1054295821383207 S
atom 7.9767762421937993 -0.0128847466352091 33.1468186289149784 S
atom 3.0259434911500143 4.9379480044086144 33.1354013512507422 S
atom 6.9139280495234781 4.9405234490569097 33.1054295821383207 S
atom 3.0116643925959039 -0.0137053916404727 38.2743871355320167 S
atom 6.9058154612330460 -0.0113306652352068 38.1908718318382938 S
atom 1.9549827101892143 4.9395020858086260 38.1794545541740362 S
atom 7.9675526101171759 4.9421828258808018 38.2743871355320167 S
atom 0.0179412088411457 2.9953982090683180 33.0997655327550291 S
atom 4.9713510544847619 1.9325281043831817 33.1410798406133225 S
atom 0.0205183034409443 6.8833608554270240 33.1296625629491501 S
atom 4.9738294263624052 7.9512864265895917 33.0997655327550291 S
atom 0.0162792388294627 1.9416945808587016 38.2685624810427925 S
atom 4.9697946514595461 3.0034346304792563 38.1852565248791649 S
atom 0.0189619004157191 7.9542673815230858 38.1738392472148860 S
atom 4.9721674563507454 6.8975827983799727 38.2685624810427854 S
atom -0.0427161145346584 -0.0256526837513881 40.7560661920146572 Ba
atom 4.9791074764291006 0.0453198158302691 40.7617664694844777 Ba
atom 0.0282747253852818 4.9961525668741009 40.7503491918203338 Ba
atom 4.9131721029866346 4.9302355337698600 40.7560661920146572 Ba
atom 0.1046059986176966 -0.0906688231707225 45.6499813049799812 Ba
atom 5.0442505294144526 -0.1018673355379757 45.6556848251879188 Ba
atom 0.0934177783706072 4.8489654155058517 45.6442675475235760 Ba
atom 5.0604942161389692 4.8652193943505466 45.6499813049799812 Ba
atom 2.5047580255293727 2.4300137961116057 43.3861094099170828 Zr
atom 7.4793772779531524 2.4538124214715293 43.3918209467154625 Zr
atom 2.5285445269093372 7.4046451725153615 43.3804036690512760 Zr
atom 7.4606462430506530 7.3859020136328661 43.3861094099170899 Zr
atom 2.5851491051324844 2.5305522309725004 40.7844912610190207 S
atom 7.3789241364431284 2.3732364764978584 40.7901999129788706 S
atom 2.4280913853993047 7.3240692275416821 40.7787826353146912 S
atom 7.5410373226537413 7.4864404484937630 40.7844912610190207 S
atom 2.3887529288316376 2.3600036765084180 45.9233357920796337 S
atom 7.5493332318939119 2.5698649671907297 45.9290464049938407 S
atom 2.5985004808500820 7.5206977182345618 45.9176291273296329 S
atom 7.3446411463529078 7.3158918940296784 45.9233357920796337 S
atom 2.0694373325578810 -0.0256439948931765 43.1883719957472323 S
atom 7.8513927102133918 -0.0232989335403309 43.4014191055267418 S
atom 2.9005599591695588 4.9275338175035008 43.3900018278624628 S
atom 7.0253255500791383 4.9302442226281089 43.1883719957472323 S
atom 0.0283109223046002 2.8840582783447304 43.1827578614857188 S
atom 4.9818520441587628 2.0579912965916054 43.3956157189029952 S
atom 0.0310192931149411 7.0088240476354500 43.3841984412387021 S
atom 4.9841991398258791 7.8399464958659957 43.1827578614857188 S
atom 2.4958073721805318 2.4740180207877072 49.0369908118909379 Ba
atom 7.4354416108571142 2.4628298005406295 49.0427045693472152 Ba
atom 2.4846088598132856 7.4136625515844523 49.0312872916830429 Ba
atom 7.4516955897018091 7.4299062383089982 49.0369908118909379 Ba
atom 2.5608235115998781 2.3266959076353615 53.9309059248562619 Ba
atom 7.5826287622253687 2.3976867475553041 53.9366229250506137 Ba
atom 2.6317960111815344 7.3485194985991296 53.9252056473864272 Ba
atom 7.5167117291211261 7.2825841251566450 53.9309059248562619 Ba
atom 5.0164899914628700 4.8741700476993888 51.3008627069538150 Zr
atom 9.9911213678665831 4.8979565490793506 51.3065684478196360 Zr
atom 5.0402886168227985 9.8487893001231477 51.2951511701554139 Zr
atom 9.9723782089840824 9.8300582652206732 51.3008627069538150 Zr
atom 5.0555078665867867 4.8617490731590669 56.4361757763601446 Zr
atom 10.0034299364223767 4.8588760584831565 56.4418866029632156 Zr
atom 5.0525971853785778 9.8097088095270113 56.4304693252989935 Zr
atom 10.0113960841080498 9.8176372906803628 56.4361757763601446 Zr
atom 4.9464798718596734 4.7581649510016497 48.7636363247912072 S
atom 10.1071739135858305 4.9679125030201075 48.7693429895412578 S
atom 5.1563411625419917 9.9187452540639409 48.7579257118770926 S
atom 9.9023680893809178 9.7140531685229288 48.7636363247912072 S
atom 5.1170284263237562 4.9545611273025045 53.9024808558519410 S
atom 9.9105454228929091 4.7975034075693053 53.9081894815562208 S
atom 4.9597126718490916 9.7483361586131725 53.8967722038919987 S
atom 10.0729166438450619 9.9104493448237729 53.9024808558519410 S
atom 5.4705344736959711 2.3977229444746184 51.5042142553849658 S
atom 9.5953002429866636 2.4004313152849601 51.3027736756321886 S
atom 4.6444674919428826 7.3512640663288016 51.2913563979679310 S
atom 10.4264226912172777 7.3536111619958850 51.5042142553849658 S
atom 4.5281707762099490 2.3856912609994798 56.4184096358281053 S
atom 10.5407435768743039 2.3883739225857346 56.5131328696560118 S
atom 5.5899108258305086 7.3392066736295760 56.5017155919916689 S
atom 9.4840589937311961 7.3415794785207478 56.4184096358281124 S
atom 2.5608322004580750 4.4388493547278998 51.4986001211236726 S
atom 7.5140100128547545 5.2699719813395598 51.2969702890084776 S
atom 2.5631772618109316 10.2208047323833977 51.2855530113441773 S
atom 7.5167204179793634 9.3947375722491859 51.4986001211236726 S
atom 2.5727708037107835 5.3810764147659276 56.4125849813387177 S
atom 7.5259782811598868 4.3243947323592398 56.5075175626969042 S
atom 2.5751455301160444 9.2752274834031105 56.4961002850326253 S
atom 7.5286590212320492 10.3369646322872004 56.4125849813387177 S
atom 2.6046274807965224 2.3875448123107215 59.0119580577840495 Ba
atom 7.5217880849466594 2.3537156536844641 59.0176608430669560 Ba
atom 2.5709553339028268 7.3045484047282967 59.0062435654025847 Ba
atom 7.5605156983177855 7.3434330298320036 59.0119580577840637 Ba
atom 2.5655810220664081 2.3756127826613556 64.1174381715589874 Ba
atom 7.5336587970565327 2.3927610056353052 64.1231668699767852 Ba
atom 2.5828260460127050 7.3435937566791463 64.1117495923126199 Ba
atom 7.5214692395876765 7.3315010001826364 64.1174381715590016 Ba
atom 5.0497734243945569 4.8611188817826543 61.5507350394739206 Zr
atom 10.0040683725342205 4.8645823755456545 61.5564503262812934 Zr
atom 5.0532356214903880 9.8154151265894907 61.5450330486170216 Zr
atom 10.0056616419158182 9.8170070993039005 61.5507350394739206 Zr
atom 5.0442692920621930 4.8678495042385510 66.6652482670423723 Zr
atom 9.9972534803854938 4.8700037354219399 66.6709615706957521 Zr
atom 5.0464207293416470 9.8208364864657707 66.6595442930315016 Zr
atom 10.0001575095834667 9.8237377217597768 66.6652482670424007 Zr
atom 5.0085494227888887 4.8353040061659538 59.0073492404868247 S
atom 10.0299787836423011 4.9057185739253120 59.0130589757404564 S
atom 5.0791460325984579 9.8565513249691339 59.0016416980763054 S
atom 9.9644376403100896 9.7911922236872382 59.0073492404868318 S
atom 5.0573709382115259 4.8829607421266772 64.1154698482176002 S
atom 9.9821983758643551 4.8569371331966815 64.1211801363369744 S
atom 5.0313656248205110 9.8077698842405105 64.1097628586726529 S
atom 10.0132591557327650 9.8388489596479598 64.1154698482176002 S
atom 5.5818744044195903 2.3873532310111649 61.5872065841158403 S
atom 9.4698370507782688 2.3899303256109627 61.5573095539217832 S
atom 4.5190042997344477 7.3407630766547936 61.5458922762575824 S
atom 10.5377626219408747 7.3432414485324227 61.5872065841158332 S
atom 4.5097881739001480 2.3918447476113358 66.6661657805202026 S
atom 10.5295670974510180 2.3942712363791006 66.6890388338781861 S
atom 5.5787343464071704 7.3451039874229362 66.6776215562141488 S
atom 9.4656763914214181 7.3477329651326064 66.6661657805202026 S
atom 2.5711114268868869 4.3274518541722378 61.5815425347325061 S
atom 7.5244241997598760 5.3953555133200224 61.5515707656200917 S
atom 2.5735914487160576 10.3461882643638639 61.5401534879558909 S
atom 7.5269996444081473 9.2833400716935071 61.5815425347325061 S
atom 2.5665424129954308 5.3994388040306438 66.6604880999817340 S
atom 7.5200085101731684 4.3355156155952361 66.6833469055493993 S
atom 2.5691757591293403 9.2863483666390625 66.6719296278850919 S
atom 7.5224306305167179 10.3553270215518953 66.6604880999817198 S
atom 2.5681604174725750 2.3956352679583452 69.2245734098440408 Ba
atom 7.5136451571272964 2.3902339056722588 69.2302987975621278 Ba
atom 2.5628124060835025 7.3410666567160963 69.2188815198976499 Ba
atom 7.5240486349938349 7.3515234854796283 69.2245734098440408 Ba
atom 2.5522764474602813 2.3957043021513429 74.3330939931538808 Ba
atom 7.5135126763706452 2.4061611309148789 74.3387858831000159 Ba
atom 2.5626799253267984 7.3569938819587026 74.3273686054358080 Ba
atom 7.5081646649815594 7.3515925196726242 74.3330939931538524 Ba
atom 5.0381625412270648 4.8736138938154738 71.7788337014989679 Zr
atom 9.9915230255096006 4.8761416270541975 71.7845423403310718 Zr
atom 5.0406902744657831 9.8269743780980043 71.7731250626668640 Zr
atom 9.9940507587483491 9.8295021113367724 71.7788337014989679 Zr
atom 5.0320557903919330 4.8793782833924091 76.8924191359554925 Zr
atom 9.9857925706337447 4.8822795186864960 76.8981231099663063 Zr
atom 5.0349598195899326 9.8331122697303233 76.8867058323019705 Zr
atom 9.9879440079132262 9.8352665009137308 76.8924191359554925 Zr
atom 5.0324324938064224 4.8640368110560326 69.2243870756243780 S
atom 10.0011112600159233 4.8818607739693780 69.2300962706285361 S
atom 5.0502785089720916 9.8326935250132301 69.2186789929640582 S
atom 9.9883207113276899 9.8199250285773214 69.2243870756243780 S
atom 5.0438925886477195 4.8831909765749053 74.3332803273735152 S
atom 9.9819347910032903 4.8704224801390321 74.3389884100335934 S
atom 5.0311020399595039 9.8212552311828620 74.3275711323694708 S
atom 9.9997808061689746 9.8390791940962110 74.3332803273734868 S
atom 5.5705396297131919 2.3968742578155964 71.7878010123317551 S
atom 9.4566182037847799 2.3995207787715334 71.7812836683303033 S
atom 4.5057854527409216 7.3503535298153651 71.7698663906659675 S
atom 10.5264278472344355 7.3527624753368812 71.7878010123317267 S
atom 4.4975907360469627 2.4021238002080283 76.8800458467837444 S
atom 10.5173696595977901 2.4045502889758006 76.9029189001418132 S
atom 5.5665369085539824 7.3553830400196203 76.8915016224775343 S
atom 9.4534789535682080 7.3580120177293100 76.8800458467837444 S
atom 2.5615412293855737 4.3387053925509713 71.7821154529604257 S
atom 7.5147838530685522 5.4085223950799897 71.7755519500374675 S
atom 2.5639511020247201 10.3593551461238214 71.7641346723731459 S
atom 7.5174294469068608 9.2945936100722584 71.7821154529604257 S
atom 2.5563165722809638 5.4117121720357382 76.8743204974488066 S
atom 7.5097826694586951 4.3477889836003252 76.8971793030161450 S
atom 2.5589499184148656 9.2986217346441702 76.8857620253516245 S
atom 7.5122047898022304 10.3676003895569941 76.8743204974488066 S
atom 2.5548558428664507 2.4157267874483317 79.4402292314389484 Ba
atom 7.4934990364414071 2.4036340309518209 79.4459178106853159 Ba
atom 2.5426662853976034 7.3544667819956455 79.4345005330212075 Ba
atom 7.5107440603877178 7.3716150049696187 79.4402292314389484 Ba
atom 2.5158093841363365 2.4037947577989693 84.5457093452138508 Ba
atom 7.5053697485513036 2.4426793829026723 84.5514238375953653 Ba
atom 2.5545369975074697 7.3935121339465093 84.5400065599311432 Ba
atom 7.4716976016576027 7.3596829753202382 84.5457093452138508 Ba
atom 5.0265516580595957 4.8861089058482854 82.0069323635240011 Zr
atom 9.9789776784850179 4.8877008785627583 82.0126343543807508 Zr
atom 5.0281449274411765 9.8385336296065926 82.0012170767164861 Zr
atom 9.9824398755808801 9.8419971233696035 82.0069323635240011 Zr
atom 5.0208172158673392 4.8854787144718914 87.1214916266378196 Zr
atom 9.9796161145968174 4.8934071956252403 87.1271980776990347 Zr
atom 5.0287833635530079 9.8442399466690951 87.1157808000346989 Zr
atom 9.9767054333886520 9.8413669319931749 87.1214916266378196 Zr
atom 5.0189541442426036 4.8642670455042882 79.4421975547801509 S
atom 10.0008476751548336 4.8953461209117251 79.4479045443251408 S
atom 5.0500149241110321 9.8461788719555727 79.4364872666610466 S
atom 9.9748423617638764 9.8201552630255620 79.4421975547801509 S
atom 5.0677756596652319 4.9119237814650303 84.5503181625106350 S
atom 9.9530672673769178 4.8465646801830982 84.5560257049213817 S
atom 5.0022345163331172 9.7973974312269245 84.5446084272571738 S
atom 10.0236638771865287 9.8678119989862836 84.5503181625106350 S
atom 5.5573207827196880 2.4064647109761754 82.0117751267402326 S
atom 9.4452834290783798 2.4090418055759715 81.9818780965461684 S
atom 4.4944506780345588 7.3598745566198138 81.9704608188819748 S
atom 10.5132090002409555 7.3623529284974545 82.0117751267402184 S
atom 4.4864142566236049 2.4080211140013996 87.0559518110061106 S
atom 10.4989870572879891 2.4107037755876584 87.1506750448341450 S
atom 5.5481543062441769 7.3615365266314763 87.1392577671699371 S
atom 9.4423024741448689 7.3639093315226765 87.0559518110061106 S
atom 2.5519008826942486 4.3518722743109279 82.0060966373777234 S
atom 7.5052136555672346 5.4197759334587428 81.9761248682651740 S
atom 2.5543809045234056 10.3706086845025602 81.9647075906008240 S
atom 7.5077891002155450 9.3077604918322212 82.0060966373776807 S
atom 2.5503468012942530 5.4228330552717319 87.0501498403009606 S
atom 7.5035542787433540 4.3661513728650219 87.1450824216589410 S
atom 2.5527215276995245 9.3169841239088633 87.1336651439946479 S
atom 7.5062350188154996 10.3787212727930154 87.0501498403009606 S
atom 2.5596133533329799 2.4646436624743338 89.6267614781415034 Ba
atom 7.4445290712726138 2.3987082890318208 89.6324617556112315 Ba
atom 2.4936963202287741 7.3495410400756791 89.6210444779472084 Ba
atom 7.5155015708542523 7.4205318799956128 89.6267614781415034 Ba
atom 2.6246294927523182 2.3173215493219672 94.5206765911068203 Ba
atom 7.5917162226408390 2.3335652360465038 94.5263801113148361 Ba
atom 2.6408834715970153 7.2843979870903492 94.5149628336505145 Ba
atom 7.5805177102735914 7.2732097668432587 94.5206765911068203 Ba
atom 5.0598350909912391 4.8730577399315820 92.2568046960438437 Zr
atom 9.9919246831526305 4.8543267050290710 92.2625162328426001 Zr
atom 5.0410919321087677 9.8051594560728930 92.2510989551785059 Zr
atom 10.0157233085125679 9.8289459574528149 92.2568046960438437 Zr
atom 4.9592966561303724 4.7926666603284556 89.6551865471458882 S
atom 10.0725006281262974 4.9547798465391013 89.6608951991059939 S
atom 5.1216678770824728 9.9056125975829321 89.6494779214415587 S
atom 9.9151848736516115 9.7485548778497062 89.6551865471458882 S
atom 5.1298452105944463 4.9890628366293148 94.7940310782064302 S
atom 9.8758721374333831 4.7843707510882867 94.7997416911205590 S
atom 4.9250393863895736 9.7352035021321139 94.7883244134566354 S
atom 10.0857334281157272 9.9449510541505894 94.7940310782064302 S
atom 5.4318575905112514 2.3959637213021732 92.2663110050297490 S
atom 9.5566233598019572 2.3986720921125140 92.0648704252769789 S
atom 4.6057906087581442 7.3495048431563461 92.0534531476127427 S
atom 10.3877458080325322 7.3518519388234491 92.2663110050297490 S
atom 2.5623150695993719 4.4772558062914074 92.2606971139892948 S
atom 7.5154928819960407 5.3083784329030790 92.0590672818742348 S
atom 2.5646601309522272 10.2592111839469187 92.0476500042100554 S
atom 7.5182032871206532 9.4331440238126731 92.2606971139892948 S
