#=======================================================
# FHI-aims file: sym_relax/sym_relax_RP_3_Rx00_0-Ry0.in
# Created using the Atomic Simulation Environment (ASE)
# Fri Mar 14 10:22:54 2025
#=======================================================
lattice_vector 10.1029630578470186 -0.0000000000000004 -0.0000000000000000 
lattice_vector -0.0000000000000004 10.1029630578470186 -0.0000000000000000 
lattice_vector 0.0000000000000000 -0.0000000000000000 35.2420654797771888 
atom -0.1572596694342791 0.0000000000000000 0.2857291152246485 Ba
atom 5.2087411983577852 -0.0000000000000000 0.2857291152246485 Ba
atom 0.1572596694342790 5.0514815289235084 0.2857291152246485 Ba
atom 4.8942218594892246 5.0514815289235084 0.2857291152246485 Ba
atom 0.0302043596690918 -0.0000000000000000 4.9296798514755302 Ba
atom 5.0212771692544118 0.0000000000000000 4.9296798514755302 Ba
atom -0.0302043596690918 5.0514815289235084 4.9296798514755302 Ba
atom 5.0816858885926042 5.0514815289235084 4.9296798514755302 Ba
atom 2.5257407644617542 2.5117010166791940 2.3306093073190151 Zr
atom 7.5772222933852600 2.5397805122443131 2.3306093073190151 Zr
atom 2.5257407644617542 7.5912620411678224 2.3306093073190151 Zr
atom 7.5772222933852600 7.5631825456026913 2.3306093073190151 Zr
atom 2.5257407644617542 2.5257407644617542 7.3420969749535860 Zr
atom 7.5772222933852600 2.5257407644617542 7.3420969749535860 Zr
atom 2.5257407644617542 7.5772222933852600 7.3420969749535860 Zr
atom 7.5772222933852600 7.5772222933852600 7.3420969749535860 Zr
atom 2.5257407644617542 2.8839966137758419 -0.1507925346338882 S
atom 7.5772222933852600 2.1674849151476669 -0.1507925346338882 S
atom 2.5257407644617542 7.2189664440711763 -0.1507925346338882 S
atom 7.5772222933852600 7.9354781426993481 -0.1507925346338882 S
atom 2.5257407644617542 2.0518273676743370 4.8654181517796919 S
atom 7.5772222933852600 2.9996541612491670 4.8654181517796919 S
atom 2.5257407644617542 8.0511356901726678 4.8654181517796919 S
atom 7.5772222933852600 7.1033088965978441 4.8654181517796919 S
atom 2.5257407644617542 -0.0000000000000000 2.0083610554373932 S
atom 7.5772222933852600 -0.0000000000000000 2.7993497660553572 S
atom 2.5257407644617542 5.0514815289235084 2.7993497660553572 S
atom 7.5772222933852600 5.0514815289235084 2.0083610554373932 S
atom 2.5257407644617542 -0.0000000000000000 7.7938032812861318 S
atom 7.5772222933852600 -0.0000000000000000 6.8903906686210323 S
atom 2.5257407644617542 5.0514815289235084 6.8903906686210323 S
atom 7.5772222933852600 5.0514815289235084 7.7938032812861318 S
atom 0.0000000000000000 2.5257407644617542 2.4579692454167543 S
atom 5.0514815289235084 2.5257407644617542 2.4579692454167543 S
atom 0.0000000000000000 7.5772222933852600 2.4579692454167543 S
atom 5.0514815289235084 7.5772222933852600 2.4579692454167543 S
atom 0.0000000000000000 2.5257407644617542 7.3420969749535860 S
atom 5.0514815289235084 2.5257407644617542 7.3420969749535860 S
atom 0.0000000000000000 7.5772222933852600 7.3420969749535860 S
atom 5.0514815289235084 7.5772222933852600 7.3420969749535860 S
atom -0.0302043596690918 0.0000000000000000 9.7545140984316330 Ba
atom 5.0816858885926042 -0.0000000000000000 9.7545140984316330 Ba
atom 0.0302043596690918 5.0514815289235084 9.7545140984316330 Ba
atom 5.0212771692544118 5.0514815289235084 9.7545140984316330 Ba
atom 0.1572596694342790 -0.0000000000000000 14.3984648346825264 Ba
atom 4.8942218594892246 0.0000000000000000 14.3984648346825264 Ba
atom -0.1572596694342790 5.0514815289235084 14.3984648346825264 Ba
atom 5.2087411983577852 5.0514815289235084 14.3984648346825264 Ba
atom 2.5257407644617542 2.5397805122443131 12.3535846425881548 Zr
atom 7.5772222933852600 2.5117010166791940 12.3535846425881548 Zr
atom 2.5257407644617542 7.5631825456026913 12.3535846425881548 Zr
atom 7.5772222933852600 7.5912620411678224 12.3535846425881548 Zr
atom 2.5257407644617542 2.9996541612491670 9.8187757981274739 S
atom 7.5772222933852600 2.0518273676743379 9.8187757981274739 S
atom 2.5257407644617542 7.1033088965978441 9.8187757981274739 S
atom 7.5772222933852600 8.0511356901726678 9.8187757981274739 S
atom 2.5257407644617542 2.1674849151476669 14.8349864845410622 S
atom 7.5772222933852600 2.8839966137758428 14.8349864845410622 S
atom 2.5257407644617542 7.9354781426993481 14.8349864845410622 S
atom 7.5772222933852600 7.2189664440711763 14.8349864845410622 S
atom 2.5257407644617542 -0.0000000000000000 11.8848441838518042 S
atom 7.5772222933852600 -0.0000000000000000 12.6758328944697674 S
atom 2.5257407644617542 5.0514815289235084 12.6758328944697674 S
atom 7.5772222933852600 5.0514815289235084 11.8848441838518042 S
atom 0.0000000000000000 2.5257407644617542 12.2262247044904129 S
atom 5.0514815289235084 2.5257407644617542 12.2262247044904129 S
atom 0.0000000000000000 7.5772222933852600 12.2262247044904129 S
atom 5.0514815289235084 7.5772222933852600 12.2262247044904129 S
atom 2.5257407644617542 2.6830004338960345 17.9067618551132277 Ba
atom 7.5772222933852600 2.3684810950274762 17.9067618551132277 Ba
atom 2.5257407644617542 7.4199626239509779 17.9067618551132277 Ba
atom 7.5772222933852600 7.7344819628195447 17.9067618551132277 Ba
atom 2.5257407644617542 2.4955364047926634 22.5507125913641318 Ba
atom 7.5772222933852600 2.5559451241308415 22.5507125913641318 Ba
atom 2.5257407644617542 7.6074266530543539 22.5507125913641318 Ba
atom 7.5772222933852600 7.5470179337161598 22.5507125913641318 Ba
atom 5.0655212767060727 5.0514815289235084 19.9516420472076526 Zr
atom 10.0889233100644535 5.0514815289235084 19.9516420472076526 Zr
atom 5.0374417811409451 10.1029630578470169 19.9516420472076526 Zr
atom 10.1170028056295767 10.1029630578470169 19.9516420472076526 Zr
atom 5.0514815289235084 5.0514815289235084 24.9631297148421822 Zr
atom 10.1029630578470169 5.0514815289235084 24.9631297148421822 Zr
atom 5.0514815289235084 10.1029630578470169 24.9631297148421822 Zr
atom 10.1029630578470169 10.1029630578470169 24.9631297148421822 Zr
atom 4.6932256796094176 5.0514815289235084 17.4702402052547185 S
atom 10.4612189071611059 5.0514815289235084 17.4702402052547185 S
atom 5.4097373782375922 10.1029630578470169 17.4702402052547185 S
atom 9.7447072085329154 10.1029630578470169 17.4702402052547185 S
atom 5.5253949257109198 5.0514815289235084 22.4864508916683086 S
atom 9.6290496610595984 5.0514815289235084 22.4864508916683086 S
atom 4.5775681321360926 10.1029630578470169 22.4864508916683086 S
atom 10.5768764546344283 10.1029630578470169 22.4864508916683086 S
atom 5.0514815289235084 2.5257407644617542 20.0790019853053963 S
atom 10.1029630578470169 2.5257407644617542 20.0790019853053963 S
atom 5.0514815289235084 7.5772222933852600 20.0790019853053963 S
atom 10.1029630578470169 7.5772222933852600 20.0790019853053963 S
atom 5.0514815289235084 2.5257407644617542 24.9631297148421822 S
atom 10.1029630578470169 2.5257407644617542 24.9631297148421822 S
atom 5.0514815289235084 7.5772222933852600 24.9631297148421822 S
atom 10.1029630578470169 7.5772222933852600 24.9631297148421822 S
atom 2.5257407644617542 5.0514815289235084 20.4203825059439694 S
atom 7.5772222933852600 5.0514815289235084 19.6293937953260027 S
atom 2.5257407644617542 10.1029630578470169 19.6293937953260027 S
atom 7.5772222933852600 10.1029630578470169 20.4203825059439694 S
atom 2.5257407644617542 5.0514815289235084 24.5114234085096427 S
atom 7.5772222933852600 5.0514815289235084 25.4148360211747288 S
atom 2.5257407644617542 10.1029630578470169 25.4148360211747288 S
atom 7.5772222933852600 10.1029630578470169 24.5114234085096427 S
atom 2.5257407644617542 2.5559451241308415 27.3755468383202398 Ba
atom 7.5772222933852600 2.4955364047926634 27.3755468383202398 Ba
atom 2.5257407644617542 7.5470179337161598 27.3755468383202398 Ba
atom 7.5772222933852600 7.6074266530543539 27.3755468383202398 Ba
atom 2.5257407644617542 2.3684810950274762 32.0194975745710835 Ba
atom 7.5772222933852600 2.6830004338960345 32.0194975745710835 Ba
atom 2.5257407644617542 7.7344819628195447 32.0194975745710835 Ba
atom 7.5772222933852600 7.4199626239509779 32.0194975745710835 Ba
atom 5.0374417811409451 5.0514815289235084 29.9746173824767510 Zr
atom 10.1170028056295767 5.0514815289235084 29.9746173824767510 Zr
atom 5.0655212767060727 10.1029630578470169 29.9746173824767510 Zr
atom 10.0889233100644535 10.1029630578470169 29.9746173824767510 Zr
atom 4.5775681321360926 5.0514815289235084 27.4398085380160737 S
atom 10.5768764546344283 5.0514815289235084 27.4398085380160737 S
atom 5.5253949257109189 10.1029630578470169 27.4398085380160737 S
atom 9.6290496610595984 10.1029630578470169 27.4398085380160737 S
atom 5.4097373782375922 5.0514815289235084 32.4560192244296530 S
atom 9.7447072085329154 5.0514815289235084 32.4560192244296530 S
atom 4.6932256796094176 10.1029630578470169 32.4560192244296530 S
atom 10.4612189071611059 10.1029630578470169 32.4560192244296530 S
atom 5.0514815289235084 2.5257407644617542 29.8472574443790108 S
atom 10.1029630578470169 2.5257407644617542 29.8472574443790108 S
atom 5.0514815289235084 7.5772222933852600 29.8472574443790108 S
atom 10.1029630578470169 7.5772222933852600 29.8472574443790108 S
atom 2.5257407644617542 5.0514815289235084 30.2968656343583902 S
atom 7.5772222933852600 5.0514815289235084 29.5058769237404164 S
atom 2.5257407644617542 10.1029630578470169 29.5058769237404164 S
atom 7.5772222933852600 10.1029630578470169 30.2968656343583902 S
