#=======================================================
# FHI-aims file: sym_relax/sym_relax_RP_6_Rx0Mz_0-Ry0.in
# Created using the Atomic Simulation Environment (ASE)
# Fri Mar 14 11:05:34 2025
#=======================================================
lattice_vector 10.0798427126607937 0.0000000000000000 0.0000000000000000 
lattice_vector 0.0000000000000000 10.0868451584333734 0.0000000000000000 
lattice_vector 0.0000000000000000 0.0000000000000000 65.0256412689658276 
atom -0.1587752968671504 -0.0000000000000000 0.2718550299476717 Ba
atom 5.1863891231676194 0.0000000000000000 0.2704727198164263 Ba
atom 0.1464677668372203 5.0434225792166867 0.2704727198164263 Ba
atom 4.8811460594632559 5.0434225792166867 0.2718550299476717 Ba
atom -0.0043134003598142 0.0000000000000000 4.9425134916354008 Ba
atom 4.9821772728491149 -0.0000000000000000 4.9261107458133893 Ba
atom -0.0577440834812870 5.0434225792166867 4.9261107458133893 Ba
atom 5.0356079559705718 5.0434225792166867 4.9425134916354008 Ba
atom 2.5117044940906936 2.5093026844877451 2.3137085328545375 Zr
atom 7.5516258504210745 2.5341198947289305 2.3137085328545375 Zr
atom 2.5117044940906936 7.5775424739456012 2.3137085328545375 Zr
atom 7.5516258504210745 7.5527252637044358 2.3137085328545375 Zr
atom 2.5185197249891513 2.5195906852812442 7.3291991855867948 Zr
atom 7.5584410813195593 2.5238318939354398 7.3291991855867948 Zr
atom 2.5185197249891513 7.5672544731521079 7.3291991855867948 Zr
atom 7.5584410813195593 7.5630132644979202 7.3291991855867948 Zr
atom 2.5139439246519544 2.8742235475826896 -0.1679379227915900 S
atom 7.5538652809823565 2.1691990316339895 -0.1679379227915900 S
atom 2.5139439246519544 7.2126216108506656 -0.1679379227915900 S
atom 7.5538652809823565 7.9176461267993608 -0.1679379227915900 S
atom 2.5189656650931900 2.0558232707624362 4.8569927999285794 S
atom 7.5588870214235833 2.9875993084542394 4.8569927999285794 S
atom 2.5189656650931900 8.0310218876709278 4.8569927999285794 S
atom 7.5588870214235833 7.0992458499791109 4.8569927999285794 S
atom 2.5161098754907947 0.0000000000000000 2.0031618483970020 S
atom 7.5463998246720889 -0.0000000000000000 2.7877388645279115 S
atom 2.5064784683417041 5.0434225792166867 2.7877388645279115 S
atom 7.5560312318211880 5.0434225792166867 2.0031618483970020 S
atom 2.6453316413860835 -0.0000000000000000 7.7983768301852017 S
atom 7.4696905303845051 0.0000000000000000 6.8836877401094760 S
atom 2.4297691740540945 5.0434225792166867 6.8836877401094760 S
atom 7.6852529977164705 5.0434225792166867 7.7983768301852017 S
atom -0.0071575826553304 2.5195859178223596 2.4470591555880143 S
atom 5.0327637736750637 2.5238366613943177 2.4470591555880143 S
atom -0.0071575826553304 7.5672592406109933 2.4470591555880143 S
atom 5.0327637736750637 7.5630084970390401 2.4470591555880143 S
atom 0.0052729452650770 2.3962854272331326 7.3417429374203858 S
atom 5.0451943015954717 2.6471371519835483 7.3417429374203858 S
atom 0.0052729452650770 7.6905597312002403 7.3417429374203858 S
atom 5.0451943015954717 7.4397080064497905 7.3417429374203858 S
atom -0.0003072975716490 0.0000000000000000 9.7684333418807370 Ba
atom 5.0606705188958854 -0.0000000000000000 9.9022446852252237 Ba
atom 0.0207491625654888 5.0434225792166867 9.9022446852252237 Ba
atom 5.0396140587587359 5.0434225792166867 9.7684333418807370 Ba
atom 0.0849700477002336 0.0000000000000000 14.7785548338558748 Ba
atom 5.1142682912798518 0.0000000000000000 14.7785548338558748 Ba
atom 0.0743469349494568 5.0434225792166867 14.7785548338558748 Ba
atom 5.1248914040306248 5.0434225792166867 14.7785548338558748 Ba
atom 2.5515973340390738 2.5216795037621216 12.2964138868738697 Zr
atom 7.5915186903694689 2.5217430754545656 12.2964138868738697 Zr
atom 2.5515973340390738 7.5651656546712447 12.2964138868738697 Zr
atom 7.5915186903694689 7.5651020829787932 12.2964138868738697 Zr
atom 2.5515973340390738 2.5216795037621216 17.2606957808379349 Zr
atom 7.5915186903694689 2.5217430754545656 17.2606957808379349 Zr
atom 2.5515973340390738 7.5651656546712447 17.2606957808379349 Zr
atom 7.5915186903694689 7.5651020829787932 17.2606957808379349 Zr
atom 2.5327935278785128 3.0162742844727974 9.8186952713652218 S
atom 7.5727148842088914 2.0271482947438830 9.8186952713652218 S
atom 2.5327935278785128 7.0705708739605582 9.8186952713652218 S
atom 7.5727148842088914 8.0596968636894850 9.8186952713652218 S
atom 2.5418032586893422 2.0266740068438978 14.7785548338558748 S
atom 7.5817246150197413 3.0167485723727756 14.7785548338558748 S
atom 2.5418032586893422 8.0601711515894543 14.7785548338558748 S
atom 7.5817246150197413 7.0700965860605818 14.7785548338558748 S
atom 2.4163729045124205 0.0000000000000000 11.8324509393977397 S
atom 7.6967335228093967 0.0000000000000000 12.7657672263892454 S
atom 2.6568121664789981 5.0434225792166867 12.7657672263892454 S
atom 7.4562942608428093 5.0434225792166867 11.8324509393977397 S
atom 2.4163729045124205 0.0000000000000000 17.7246587283139547 S
atom 7.6967335228093967 -0.0000000000000000 16.7913424413225130 S
atom 2.6568121664789981 5.0434225792166867 16.7913424413225130 S
atom 7.4562942608428093 5.0434225792166867 17.7246587283139547 S
atom 0.0241592198923705 2.6587401094021903 12.3082904090002412 S
atom 5.0640805762227705 2.3846824698144915 12.3082904090002412 S
atom 0.0241592198923705 7.4281050490311609 12.3082904090002412 S
atom 5.0640805762227705 7.7021626886188610 12.3082904090002412 S
atom 0.0241592198923705 2.6587401094021903 17.2488192587114710 S
atom 5.0640805762227705 2.3846824698144915 17.2488192587114710 S
atom 0.0241592198923705 7.4281050490311609 17.2488192587114710 S
atom 5.0640805762227705 7.7021626886188610 17.2488192587114710 S
atom -0.0003072975716490 -0.0000000000000000 19.7886763258310232 Ba
atom 5.0606705188958854 0.0000000000000000 19.6548649824864867 Ba
atom 0.0207491625654888 5.0434225792166867 19.6548649824864867 Ba
atom 5.0396140587587359 5.0434225792166867 19.7886763258310232 Ba
atom -0.0043134003598142 -0.0000000000000000 24.6145961760763008 Ba
atom 4.9821772728491149 0.0000000000000000 24.6309989218983674 Ba
atom -0.0577440834812870 5.0434225792166867 24.6309989218983674 Ba
atom 5.0356079559705718 5.0434225792166867 24.6145961760763008 Ba
atom 2.5185197249891513 2.5195906852812442 22.2279104821249263 Zr
atom 7.5584410813195593 2.5238318939354398 22.2279104821249263 Zr
atom 2.5185197249891513 7.5672544731521079 22.2279104821249263 Zr
atom 7.5584410813195593 7.5630132644979202 22.2279104821249263 Zr
atom 2.5117044940906936 2.5093026844877451 27.2434011348572049 Zr
atom 7.5516258504210745 2.5341198947289305 27.2434011348572049 Zr
atom 2.5117044940906936 7.5775424739456012 27.2434011348572049 Zr
atom 7.5516258504210745 7.5527252637044358 27.2434011348572049 Zr
atom 2.5327935278785128 3.0162742844727974 19.7384143963465455 S
atom 7.5727148842088914 2.0271482947438830 19.7384143963465455 S
atom 2.5327935278785128 7.0705708739605599 19.7384143963465455 S
atom 7.5727148842088914 8.0596968636894850 19.7384143963465455 S
atom 2.5189656650931900 2.0558232707624362 24.7001168677831870 S
atom 7.5588870214235833 2.9875993084542394 24.7001168677831870 S
atom 2.5189656650931900 8.0310218876709278 24.7001168677831870 S
atom 7.5588870214235833 7.0992458499791109 24.7001168677831870 S
atom 2.6453316413860835 0.0000000000000000 21.7587328375266118 S
atom 7.4696905303845051 -0.0000000000000000 22.6734219276023019 S
atom 2.4297691740540945 5.0434225792166867 22.6734219276023019 S
atom 7.6852529977164705 5.0434225792166867 21.7587328375266118 S
atom 2.5161098754907947 -0.0000000000000000 27.5539478193147147 S
atom 7.5463998246720889 -0.0000000000000000 26.7693708031838007 S
atom 2.5064784683417041 5.0434225792166867 26.7693708031838007 S
atom 7.5560312318211880 5.0434225792166867 27.5539478193147147 S
atom 0.0052729452650770 2.3962854272331326 22.2153667302913647 S
atom 5.0451943015954717 2.6471371519835483 22.2153667302913647 S
atom 0.0052729452650770 7.6905597312002403 22.2153667302913647 S
atom 5.0451943015954717 7.4397080064497905 22.2153667302913647 S
atom -0.0071575826553304 2.5195859178223596 27.1100505121237454 S
atom 5.0327637736750637 2.5238366613943177 27.1100505121237454 S
atom -0.0071575826553304 7.5672592406109933 27.1100505121237454 S
atom 5.0327637736750637 7.5630084970390401 27.1100505121237454 S
atom -0.1587752968671504 0.0000000000000000 29.2852546377640230 Ba
atom 5.1863891231676194 -0.0000000000000000 29.2866369478952997 Ba
atom 0.1464677668372203 5.0434225792166867 29.2866369478952997 Ba
atom 4.8811460594632559 5.0434225792166867 29.2852546377640230 Ba
atom 2.5139439246519544 2.8742235475826896 29.7250475905033120 S
atom 7.5538652809823565 2.1691990316339895 29.7250475905033120 S
atom 2.5139439246519544 7.2126216108506656 29.7250475905033120 S
atom 7.5538652809823565 7.9176461267993608 29.7250475905033120 S
atom 2.5137124576718923 2.3683518060583615 32.8002525301726848 Ba
atom 7.5536338140022723 2.6750707731583070 32.8002525301726848 Ba
atom 2.5137124576718923 7.7184933523749768 32.8002525301726848 Ba
atom 7.5536338140022723 7.4117743852750451 32.8002525301726848 Ba
atom 2.5137805245590430 2.5493206437322184 37.4659408344874834 Ba
atom 7.5537018808894327 2.4941019354844567 37.4659408344874834 Ba
atom 2.5137805245590430 7.5375245147011496 37.4659408344874834 Ba
atom 7.5537018808894327 7.5927432229489007 37.4659408344874834 Ba
atom 5.0211275713093126 5.0434225792166867 34.8418001969958695 Zr
atom 10.0861617660239382 5.0434225792166867 34.8422076817201685 Zr
atom 5.0462404096935245 10.0868451584333734 34.8422076817201685 Zr
atom 10.0610489276396944 10.0868451584333734 34.8418001969958695 Zr
atom 5.0325662962737301 5.0434225792166867 39.8534771782430042 Zr
atom 10.0747866958016328 5.0434225792166867 39.8536495096872869 Zr
atom 5.0348653394712333 10.0868451584333734 39.8536495096872869 Zr
atom 10.0724876526041029 10.0868451584333734 39.8534771782430042 Zr
atom 5.3877760685221876 5.0434225792166867 32.3603932065676076 S
atom 9.7195884991262957 5.0434225792166867 32.3608259947104600 S
atom 4.6796671427958980 10.0868451584333734 32.3608259947104600 S
atom 10.4276974248525711 10.0868451584333734 32.3603932065676076 S
atom 4.5599428369067354 5.0434225792166867 37.3834607424789880 S
atom 10.5474652780233011 5.0434225792166867 37.3835518413628023 S
atom 5.5075439216929185 10.0868451584333734 37.3835518413628023 S
atom 9.5998641932371527 10.0868451584333734 37.3834607424789880 S
atom 5.0337142464325035 2.5217320701262977 34.9765506162271862 S
atom 10.0736356027628791 2.5216905090903796 34.9765506162271862 S
atom 5.0337142464325035 7.5651130883070481 34.9765506162271862 S
atom 10.0736356027628791 7.5651546493429676 34.9765506162271862 S
atom 5.0337011670512997 2.5217047642429264 39.8700430181043117 S
atom 10.0736225233816938 2.5217178149737469 39.8700430181043117 S
atom 5.0337011670512997 7.5651403941904247 39.8700430181043117 S
atom 10.0736225233816938 7.5651273434596016 39.8700430181043117 S
atom 2.5137476573083655 5.0434225792166867 34.5251012660491625 S
atom 7.5536461077180039 5.0434225792166867 35.3196635438812478 S
atom 2.5137247513875960 10.0868451584333734 35.3196635438812478 S
atom 7.5536690136387517 10.0868451584333734 34.5251012660491625 S
atom 2.5137528662569864 5.0434225792166867 40.3328209306247558 S
atom 7.5536886171549735 5.0434225792166867 39.3955858726905888 S
atom 2.5137672608245727 10.0868451584333734 39.3955858726905888 S
atom 7.5536742225873850 10.0868451584333734 40.3328209306247558 S
atom 2.5137322064627834 2.5138449480427032 42.3578651436181701 Ba
atom 7.5536535627931789 2.5295776311739835 42.3578651436181701 Ba
atom 2.5137322064627834 7.5730002103906511 42.3578651436181701 Ba
atom 7.5536535627931789 7.5572675272593832 42.3578651436181701 Ba
atom 2.5137350949626422 2.5299463842629164 47.2913754683387921 Ba
atom 7.5536564512930369 2.5134761949537534 47.2913754683387921 Ba
atom 2.5137350949626422 7.5568987741704357 47.2913754683387921 Ba
atom 7.5536564512930369 7.5733689634795871 47.2913754683387921 Ba
atom 5.0349014443876436 5.0434225792166867 44.8124557039023017 Zr
atom 10.0723749981907940 5.0434225792166867 44.8125111664534614 Zr
atom 5.0324536418604051 10.0868451584333734 44.8125111664534614 Zr
atom 10.0748228007180671 10.0868451584333734 44.8124557039023017 Zr
atom 5.0349014443876436 5.0434225792166867 49.7702952327751760 Zr
atom 10.0723749981907940 5.0434225792166867 49.7702397702241512 Zr
atom 5.0324536418604051 10.0868451584333734 49.7702397702241512 Zr
atom 10.0748228007180671 10.0868451584333734 49.7702952327751760 Zr
atom 5.5418570698146787 5.0434225792166867 42.3389647965065734 S
atom 9.5654748908488543 5.0434225792166867 42.3390091901599277 S
atom 4.5255535345184636 10.0868451584333734 42.3390091901599277 S
atom 10.5817784261450960 10.0868451584333734 42.3389647965065734 S
atom 4.5248897783839750 5.0434225792166867 47.2913754683387921 S
atom 10.5824804505661181 5.0434225792166867 47.2913754683387921 S
atom 5.5425590942357292 10.0868451584333734 47.2913754683387921 S
atom 9.5648111347143701 10.0868451584333734 47.2913754683387921 S
atom 5.0337538465511322 2.5217083744482776 44.8183522808037651 S
atom 10.0736752028815264 2.5217142047684074 44.8183522808037651 S
atom 5.0337538465511322 7.5651367839850785 44.8183522808037651 S
atom 10.0736752028815264 7.5651309536649594 44.8183522808037651 S
atom 5.0337538465511322 2.5217083744482776 49.7643986558737339 S
atom 10.0736752028815264 2.5217142047684074 49.7643986558737339 S
atom 5.0337538465511322 7.5651367839850785 49.7643986558737339 S
atom 10.0736752028815264 7.5651309536649594 49.7643986558737339 S
atom 2.5137477073234025 5.0434225792166867 44.3392968371884209 S
atom 7.5536735404785151 5.0434225792166867 45.2975127578533261 S
atom 2.5137521841481116 10.0868451584333734 45.2975127578533261 S
atom 7.5536690636538033 10.0868451584333734 44.3392968371884209 S
atom 2.5137477073234025 5.0434225792166867 50.2434540994891776 S
atom 7.5536735404785151 5.0434225792166867 49.2852381788242724 S
atom 2.5137521841481116 10.0868451584333734 49.2852381788242724 S
atom 7.5536690636538033 10.0868451584333734 50.2434540994891776 S
atom 2.5137322064627834 2.5138449480427032 52.2248857930594852 Ba
atom 7.5536535627931789 2.5295776311739835 52.2248857930594852 Ba
atom 2.5137322064627834 7.5730002103906511 52.2248857930594852 Ba
atom 7.5536535627931789 7.5572675272593832 52.2248857930594852 Ba
atom 2.5137805245590430 2.5493206437322184 57.1168101021900725 Ba
atom 7.5537018808894327 2.4941019354844567 57.1168101021900725 Ba
atom 2.5137805245590430 7.5375245147011496 57.1168101021900725 Ba
atom 7.5537018808894327 7.5927432229489007 57.1168101021900725 Ba
atom 5.0325662962737301 5.0434225792166867 54.7292737584344664 Zr
atom 10.0747866958016328 5.0434225792166867 54.7291014269902405 Zr
atom 5.0348653394712333 10.0868451584333734 54.7291014269902405 Zr
atom 10.0724876526041029 10.0868451584333734 54.7292737584344664 Zr
atom 5.0211275713093126 5.0434225792166867 59.7409507396818782 Zr
atom 10.0861617660239382 5.0434225792166867 59.7405432549572879 Zr
atom 5.0462404096935245 10.0868451584333734 59.7405432549572879 Zr
atom 10.0610489276396944 10.0868451584333734 59.7409507396818782 Zr
atom 5.5418570698146787 5.0434225792166867 52.2437861401709966 S
atom 9.5654748908488543 5.0434225792166867 52.2437417465175287 S
atom 4.5255535345184636 10.0868451584333734 52.2437417465175287 S
atom 10.5817784261450960 10.0868451584333734 52.2437861401709966 S
atom 4.5599428369067354 5.0434225792166867 57.1992901941985536 S
atom 10.5474652780233011 5.0434225792166867 57.1991990953148175 S
atom 5.5075439216929185 10.0868451584333734 57.1991990953148175 S
atom 9.5998641932371527 10.0868451584333734 57.1992901941985536 S
atom 5.0337011670512997 2.5217047642429264 54.7127079185732583 S
atom 10.0736225233816938 2.5217178149737469 54.7127079185732583 S
atom 5.0337011670512997 7.5651403941904247 54.7127079185732583 S
atom 10.0736225233816938 7.5651273434596016 54.7127079185732583 S
atom 5.0337142464325035 2.5217320701262977 59.6062003204503057 S
atom 10.0736356027628791 2.5216905090903796 59.6062003204503057 S
atom 5.0337142464325035 7.5651130883070481 59.6062003204503057 S
atom 10.0736356027628791 7.5651546493429676 59.6062003204503057 S
atom 2.5137528662569864 5.0434225792166867 54.2499300060528356 S
atom 7.5536886171549735 5.0434225792166867 55.1871650639869458 S
atom 2.5137672608245727 10.0868451584333734 55.1871650639869458 S
atom 7.5536742225873850 10.0868451584333734 54.2499300060528356 S
atom 2.5137476573083655 5.0434225792166867 60.0576496706283720 S
atom 7.5536461077180039 5.0434225792166867 59.2630873927962085 S
atom 2.5137247513875960 10.0868451584333734 59.2630873927962085 S
atom 7.5536690136387517 10.0868451584333734 60.0576496706283720 S
atom 2.5137124576718923 2.3683518060583615 61.7824984065049421 Ba
atom 7.5536338140022723 2.6750707731583070 61.7824984065049421 Ba
atom 2.5137124576718923 7.7184933523749768 61.7824984065049421 Ba
atom 7.5536338140022723 7.4117743852750451 61.7824984065049421 Ba
atom 5.3877760685221876 5.0434225792166867 62.2223577301096995 S
atom 9.7195884991262957 5.0434225792166867 62.2219249419670959 S
atom 4.6796671427958980 10.0868451584333734 62.2219249419670959 S
atom 10.4276974248525711 10.0868451584333734 62.2223577301096995 S
