#=======================================================
# FHI-aims file: sym_relax/sym_relax_RP_4_RxRyRz_-Rx-RyRz.in
# Created using the Atomic Simulation Environment (ASE)
# Fri Mar 14 10:30:36 2025
#=======================================================
lattice_vector 10.0214261866535868 0.0113856498343730 -0.0000000000000000 
lattice_vector 0.0113856498343730 10.0214261866535974 0.0000000000000000 
lattice_vector 0.0000000000000000 0.0000000000000000 45.8288072215658531 
atom -0.0060414681195885 -0.1185846508160360 0.2360270485450969 Ba
atom 5.1292977441428285 0.0117342930367750 0.2360270485450969 Ba
atom 0.1242774757332226 5.0167545614463993 0.2360270485450969 Ba
atom 5.0103644501243876 4.8978212674279558 0.2360270485450969 Ba
atom -0.2562945541256991 0.2100105392861905 4.9921280903171859 Ba
atom 4.8007025540405976 0.2619873790428857 4.9921280903171859 Ba
atom -0.2043177143690035 5.2670076474525063 4.9921280903171859 Ba
atom 4.7601113641182682 5.2264164575301812 4.9921280903171859 Ba
atom 2.4615653497672292 2.5432277658683948 2.3867706304881158 Zr
atom 7.4838912457023818 2.5605333933939449 2.3867706304881158 Zr
atom 2.4788709772927722 7.5655536618035519 2.3867706304881158 Zr
atom 7.4779712680111974 7.5596336841123941 2.3867706304881158 Zr
atom 2.4346265188221112 2.5649915671116887 7.4472148086260717 Zr
atom 7.4621274444590755 2.5874722243390575 7.4472148086260717 Zr
atom 2.4571071760494858 7.5924924927486694 7.4472148086260717 Zr
atom 7.4510324370660861 7.5813974853556889 7.4472148086260717 Zr
atom 2.6007954132369147 2.7595562850671747 -0.1154976433246419 S
atom 7.2675627265035976 2.4213033299242532 -0.1154976433246419 S
atom 2.2625424580939910 7.4263235983338660 -0.1154976433246419 S
atom 7.6172013314808913 7.7759622033111748 -0.1154976433246419 S
atom 2.2325351465405916 2.2680493609647283 4.9462038587859620 S
atom 7.7590696506060342 2.7895635966205781 4.9462038587859620 S
atom 2.7540493821964427 7.7945838650301900 4.9462038587859620 S
atom 7.2489410647845700 7.2844552792087169 4.9462038587859620 S
atom 2.7047824652271752 0.0490559703097296 2.2442711780837410 S
atom 7.2095375493279237 0.0582209267858333 2.7287743539039089 S
atom 2.2045172809183295 5.0632411951954559 2.7287743539039089 S
atom 7.7211883834711328 5.0654618885537248 2.2442711780837410 S
atom 2.8294923886959689 0.0474949298484302 7.7043812384894768 S
atom 7.0912607722093446 0.0568002771151793 7.1995462675732078 S
atom 2.0862405037997291 5.0618205455248004 7.1995462675732078 S
atom 7.8458983069399331 5.0639008480924188 7.7043812384894768 S
atom -0.0433631453925425 2.3059306280996208 2.2442711780837410 S
atom 4.9638778163753319 2.8175814622428366 2.7287743539039089 S
atom -0.0411424520342750 7.8226017306524698 2.7287743539039089 S
atom 4.9730427728514339 7.3223365463436192 2.2442711780837410 S
atom -0.0418021049312437 2.1812207046308214 7.7043812384894768 S
atom 4.9652984660459749 2.9358582393614365 7.1995462675732078 S
atom -0.0397218023636203 7.9408785077710471 7.1995462675732078 S
atom 4.9746038133127399 7.1976266228748234 7.7043812384894768 S
atom -0.0191188620015148 -0.0191188620015149 9.9627841786012556 Ba
atom 5.0298319553283042 0.0248116869187011 9.9627841786012556 Ba
atom 0.0248116869187015 5.0298319553283211 9.9627841786012556 Ba
atom 4.9972870562424605 4.9972870562424756 9.9627841786012556 Ba
atom 0.2100105392861900 -0.2562945541256992 14.9334402668853290 Ba
atom 5.2670076474524867 -0.2043177143690042 14.9334402668853290 Ba
atom 0.2619873790428852 4.8007025540406110 14.9334402668853290 Ba
atom 5.2264164575301573 4.7601113641182833 14.9334402668853290 Ba
atom 2.5649915671116807 2.4346265188221174 12.4783535485764254 Zr
atom 7.5924924927486437 2.4571071760494871 12.4783535485764254 Zr
atom 2.5874722243390509 7.4621274444590977 12.4783535485764254 Zr
atom 7.5813974853556587 7.4510324370661198 12.4783535485764254 Zr
atom 2.5432277658683842 2.4615653497672305 17.5387977267143995 Zr
atom 7.5655536618035288 2.4788709772927775 17.5387977267143995 Zr
atom 2.5605333933939352 7.4838912457023978 17.5387977267143995 Zr
atom 7.5596336841123648 7.4779712680112276 17.5387977267143995 Zr
atom 2.7511401103237700 2.7511401103237798 9.9627841786012556 S
atom 7.2759789012469920 2.2709586328373961 9.9627841786012556 S
atom 2.2709586328373828 7.2759789012470106 9.9627841786012556 S
atom 7.7675460285677458 7.7675460285677786 9.9627841786012556 S
atom 2.2680493609647154 2.2325351465405987 14.9793644984165493 S
atom 7.7945838650301686 2.7540493821964489 14.9793644984165493 S
atom 2.7895635966205670 7.7590696506060741 14.9793644984165493 S
atom 7.2844552792086974 7.2489410647845931 14.9793644984165493 S
atom 2.1812207046308187 -0.0418021049312439 12.2211871187130043 S
atom 7.9408785077710293 -0.0397218023636207 12.7260220896293177 S
atom 2.9358582393614263 4.9652984660459980 12.7260220896293177 S
atom 7.1976266228747949 4.9746038133127524 12.2211871187130043 S
atom 2.3059306280996172 -0.0433631453925434 17.6812971791187543 S
atom 7.8226017306524316 -0.0411424520342748 17.1967940032986029 S
atom 2.8175814622428366 4.9638778163753425 17.1967940032986029 S
atom 7.3223365463435925 4.9730427728514490 17.6812971791187543 S
atom 0.0474949298484305 2.8294923886959800 12.2211871187130043 S
atom 5.0618205455247844 2.0862405037997376 12.7260220896293177 S
atom 0.0568002771151797 7.0912607722093535 12.7260220896293177 S
atom 5.0639008480924073 7.8458983069399588 12.2211871187130043 S
atom 0.0490559703097302 2.7047824652271824 17.6812971791187543 S
atom 5.0632411951954248 2.2045172809183362 17.1967940032986029 S
atom 0.0582209267858335 7.2095375493279468 17.1967940032986029 S
atom 5.0654618885537150 7.7211883834711630 17.6812971791187543 S
atom -0.1185846508160362 -0.0060414681195888 19.6895413086574465 Ba
atom 5.0167545614463771 0.1242774757332223 19.6895413086574465 Ba
atom 0.0117342930367750 5.1292977441428409 19.6895413086574465 Ba
atom 4.8978212674279407 5.0103644501244053 19.6895413086574465 Ba
atom 2.7595562850671715 2.6007954132369226 20.0410660005271595 S
atom 7.4263235983338474 2.2625424580939999 20.0410660005271595 S
atom 2.4213033299242395 7.2675627265036136 20.0410660005271595 S
atom 7.7759622033111393 7.6172013314809126 20.0410660005271595 S
atom 2.5142444272415783 2.6267876099380318 23.1504306593279985 Ba
atom 7.4003314016327293 2.5078543159195932 23.1504306593279985 Ba
atom 2.3953111332231356 7.5128745843292073 23.1504306593279985 Ba
atom 7.5306503454855536 7.6431935281820209 23.1504306593279985 Ba
atom 2.7644975132476843 2.2981924198358037 27.9065317011000751 Ba
atom 7.7289265917349681 2.2576012299134800 27.9065317011000751 Ba
atom 2.7239063233253638 7.2626214983230950 27.9065317011000751 Ba
atom 7.7809034314916525 7.3145983380797936 27.9065317011000751 Ba
atom 5.0630435275987269 4.9813811114975888 25.3011742412710348 Zr
atom 10.0621438183171623 4.9754611338064230 25.3011742412710348 Zr
atom 5.0571235499075726 9.9804814022160340 25.3011742412710348 Zr
atom 10.0794494458427071 9.9977870297415770 25.3011742412710348 Zr
atom 5.0899823585438462 4.9596173102542895 30.3616184194089911 Zr
atom 10.0839076195604527 4.9485223028613081 30.3616184194089911 Zr
atom 5.0788873511508639 9.9535425712709102 30.3616184194089911 Zr
atom 10.1063882767878273 9.9760232284982830 30.3616184194089911 Zr
atom 4.9238134641290356 4.7650525922988072 22.7989059674582393 S
atom 10.2784723375159377 5.1146911972761124 22.7989059674582393 S
atom 5.2734520691063445 10.1197114656857252 22.7989059674582393 S
atom 9.9402193823730229 9.7814585105427891 22.7989059674582393 S
atom 5.2920737308253560 5.2565595164012597 27.8606074695688655 S
atom 9.7869654134134834 4.7464309305797885 27.8606074695688655 S
atom 4.7819451450038946 9.7514511989893826 27.8606074695688655 S
atom 10.3084796490693478 10.2729654346452666 27.8606074695688655 S
atom 5.3200915964476456 2.4613676821705321 25.6431779646867994 S
atom 9.8248466805484114 2.4705326386466351 25.1586747888666409 S
atom 4.8198264121388004 7.4755529070562527 25.1586747888666409 S
atom 10.3364975146916134 7.4777736004145243 25.6431779646867994 S
atom 5.4383683735662256 2.4627883318411858 30.1139498783561237 S
atom 9.7001367570795924 2.4720936791079344 30.6187848492723518 S
atom 4.6951164886700010 7.4771139475175650 30.6187848492723518 S
atom 10.4547742918102013 7.4791942500851638 30.1139498783561237 S
atom 2.5607310609906335 4.7070274151231324 25.6431779646867994 S
atom 7.5679720227584966 5.2186782492663530 25.1586747888666409 S
atom 2.5629517543489029 10.2236985176759561 25.1586747888666409 S
atom 7.5771369792346075 9.7234333333671366 25.6431779646867994 S
atom 2.5593104113199838 4.5887506380045462 30.1139498783561237 S
atom 7.5664109822971977 5.3433881727351578 30.6187848492723518 S
atom 2.5613907138876053 10.3484084411447821 30.6187848492723518 S
atom 7.5757163295639538 9.6051565562485273 30.1139498783561237 S
atom 2.5273218211235049 2.5273218211235120 32.8771877893841662 Ba
atom 7.4997971904472633 2.4947769220376603 32.8771877893841662 Ba
atom 2.4947769220376541 7.4997971904472740 32.8771877893841662 Ba
atom 7.5437277393674700 7.5437277393674957 32.8771877893841662 Ba
atom 2.2981924198357966 2.7644975132476950 37.8478438776682609 Ba
atom 7.2626214983230755 2.7239063233253726 37.8478438776682609 Ba
atom 2.2576012299134791 7.7289265917349859 37.8478438776682609 Ba
atom 7.3145983380797732 7.7809034314916889 37.8478438776682609 Ba
atom 4.9596173102542815 5.0899823585438666 35.3927571593593697 Zr
atom 9.9535425712708889 5.0788873511508807 35.3927571593593697 Zr
atom 4.9485223028612815 10.0839076195604775 35.3927571593593697 Zr
atom 9.9760232284982386 10.1063882767878592 35.3927571593593697 Zr
atom 4.9813811114975755 5.0630435275987544 40.4532013374973261 Zr
atom 9.9804814022160109 5.0571235499075753 40.4532013374973261 Zr
atom 4.9754611338064079 10.0621438183171961 40.4532013374973261 Zr
atom 9.9977870297415308 10.0794494458427391 40.4532013374973261 Zr
atom 4.7734687670421847 4.7734687670421945 32.8771877893841662 S
atom 10.2700561627725282 5.2650358943629696 32.8771877893841662 S
atom 5.2650358943629456 10.2700561627725833 32.8771877893841662 S
atom 9.7898746852861667 9.7898746852861951 32.8771877893841662 S
atom 5.2565595164012358 5.2920737308253800 37.8937681091994421 S
atom 9.7514511989893737 4.7819451450039026 37.8937681091994421 S
atom 4.7464309305797716 9.7869654134135153 37.8937681091994421 S
atom 10.2729654346452275 10.3084796490693886 37.8937681091994421 S
atom 4.5887506380045382 2.5593104113199843 35.6404257004122229 S
atom 10.3484084411447466 2.5613907138876133 35.1355907294958314 S
atom 5.3433881727351258 7.5664109822972279 35.1355907294958314 S
atom 9.6051565562485060 7.5757163295639831 35.6404257004122229 S
atom 4.7070274151231297 2.5607310609906468 40.1111976140815401 S
atom 10.2236985176759276 2.5629517543489140 40.5957007899016489 S
atom 5.2186782492663406 7.5679720227585348 40.5957007899016489 S
atom 9.7234333333671223 7.5771369792346288 40.1111976140815401 S
atom 2.4627883318411850 5.4383683735662434 35.6404257004122229 S
atom 7.4771139475175437 4.6951164886700063 35.1355907294958314 S
atom 2.4720936791079273 9.7001367570796209 35.1355907294958314 S
atom 7.4791942500851416 10.4547742918102333 35.6404257004122229 S
atom 2.4613676821705268 5.3200915964476518 40.1111976140815401 S
atom 7.4755529070562252 4.8198264121388066 40.5957007899016489 S
atom 2.4705326386466280 9.8248466805484327 40.5957007899016489 S
atom 7.4777736004145039 10.3364975146916205 40.1111976140815401 S
atom 2.6267876099380238 2.5142444272415863 42.6039449194403375 Ba
atom 7.5128745843291869 2.3953111332231383 42.6039449194403375 Ba
atom 2.5078543159195870 7.4003314016327595 42.6039449194403375 Ba
atom 7.6431935281819916 7.5306503454855722 42.6039449194403375 Ba
atom 4.7650525922987859 4.9238134641290605 42.9554696113100007 S
atom 10.1197114656856968 5.2734520691063702 42.9554696113100007 S
atom 5.1146911972760858 10.2784723375159839 42.9554696113100007 S
atom 9.7814585105427572 9.9402193823730443 42.9554696113100007 S
