#=======================================================
# FHI-aims file: sym_relax/sym_relax_RP_5_RxRyRz_-RxRy0.in
# Created using the Atomic Simulation Environment (ASE)
# Fri Mar 14 10:58:32 2025
#=======================================================
lattice_vector 10.0099460159682572 -0.0180096345102911 -0.0043663562830076 
lattice_vector -0.0180096345102907 10.0099460159682447 0.0043663562830076 
lattice_vector -0.0248373962920327 0.0248373962920335 55.9435916704611245 
atom 0.0320625942598842 -0.0977675436676988 0.1974998306290545 Ba
atom 5.1027405516518316 -0.0410674115150290 0.1953166524875507 Ba
atom 0.0887627264125531 4.9729104137242528 0.1996830087705583 Ba
atom 5.0280307849888670 4.8982006470612820 0.1974998306290545 Ba
atom -0.2879690723011870 0.2250534501991521 4.9768057938859842 Ba
atom 4.7799195577849805 0.2789642550460407 4.9746226157444795 Ba
atom -0.2340582674542979 5.2929420802853233 4.9789889720274845 Ba
atom 4.7079991184278063 5.2210216409281429 4.9768057938859842 Ba
atom 2.4534736771213477 2.5489490599061697 2.3598209986671690 Zr
atom 7.4519921388069417 2.5334896963524951 2.3576378205256594 Zr
atom 2.4380143135676668 7.5474675215917699 2.3620041768086688 Zr
atom 7.4494418678503367 7.5449172506351738 2.3598209986671694 Zr
atom 2.4002642954327733 2.5605164758983259 7.4278582313533112 Zr
atom 7.4404247228148046 2.5866990780410783 7.4256750532118003 Zr
atom 2.4264468975755227 7.6006769032803421 7.4300414094948186 Zr
atom 7.3962324861617557 7.5564846666273056 7.4278582313533112 Zr
atom 2.6159774554284687 2.7987105925912865 -0.1450290891748051 S
atom 7.2022306061218480 2.3709859180453643 -0.1472122673163087 S
atom 2.1882527808825532 7.3849637432846187 -0.1428459110333010 S
atom 7.6119456461574755 7.7946787833202622 -0.1450290891748049 S
atom 2.2158629117404831 2.2859644177405882 4.9251205340367230 S
atom 7.7149767809725489 2.7711004617333508 4.9229373558952210 S
atom 2.7009989557332545 7.7850782869726265 4.9273037121782304 S
atom 7.2118311024694943 7.2819326084695657 4.9251205340367230 S
atom 2.7033008276382660 0.0539675519781452 2.2074871039783330 S
atom 7.1545737908152534 0.0479409591966295 2.7178692804777622 S
atom 2.1405959655759625 5.0619187844359077 2.7222356367607654 S
atom 7.6992690183672554 5.0499357427071416 2.2074871039783330 S
atom 2.8855294980869384 0.0565438466954935 7.6637121560424024 S
atom 7.0346275593402128 0.0493251171843255 7.2211322606071544 S
atom 2.0206497341009353 5.0633029424236087 7.2254986168901683 S
atom 7.8814976888159327 5.0525120374244805 7.6637121560424006 S
atom -0.0629723692332914 2.3016721803458644 2.2096702821198329 S
atom 4.9390224142772148 2.8463674078978696 2.7200524586192660 S
atom -0.0749554109620666 7.8603452331371448 2.7244188149022661 S
atom 4.9329958214956955 7.2976403710748423 2.2096702821198333 S
atom -0.0655486639506386 2.1194435098971947 7.6658953341839107 S
atom 4.9376382562895111 2.9663136393728968 7.2233154387486609 S
atom -0.0763395689497629 7.9802914646121836 7.2276817950316854 S
atom 4.9304195267783628 7.1154117006261757 7.6658953341839116 S
atom -0.0290763952960781 -0.0535752552571231 9.9695103767252071 Ba
atom 5.0585482632412644 0.0200715780409326 9.9673271985837104 Ba
atom 0.0445704380019775 5.0340494032802150 9.9716935548667127 Ba
atom 4.9668917954329119 4.9423929354718492 9.9695103767252071 Ba
atom 0.0179882719514207 0.0646633786017807 15.0053073333020048 Ba
atom 4.9403096293823472 -0.0269930892065664 15.0031241551605046 Ba
atom -0.0736681958569263 4.9869847360327197 15.0074905114435353 Ba
atom 5.0139564626804045 5.0606315693307709 15.0053073333020048 Ba
atom 2.4924400336921728 2.5035281570368162 12.4874088550136282 Zr
atom 7.4974130416763103 2.4945233397816775 12.4852256768721084 Zr
atom 2.4834352164370164 7.5085011650209559 12.4895920331551178 Zr
atom 7.4884082244211472 7.4994963477658168 12.4874088550136282 Zr
atom 2.5846157719515563 2.4465398381753172 17.5469594786739194 Zr
atom 7.5544013605378106 2.4023476015222824 17.5447763005323942 Zr
atom 2.5404235352985238 7.4163254267615519 17.5491426568154161 Zr
atom 7.5805839626805565 7.4425080289043022 17.5469594786739194 Zr
atom 2.6283441473838245 2.7115896312349150 9.9606674893971885 S
atom 7.2893515674782101 2.3586192260900156 9.9584843112556971 S
atom 2.2753737422389237 7.3725970513293015 9.9628506675386870 S
atom 7.6243123381128024 7.7075578219638992 9.9606674893971885 S
atom 2.3565359200005123 2.2954666828387307 15.0141502206300359 S
atom 7.7054745158743900 2.6304274534733336 15.0119670424885356 S
atom 2.6914966906351117 7.6444052787125978 15.0163333987715255 S
atom 7.3525041107295026 7.2914348735677157 15.0141502206300341 S
atom 2.0471962382422881 0.0006605011842177 12.3582073666322092 S
atom 7.9516616543813328 -0.0075820123498514 12.6122439871120182 S
atom 2.9376838291420411 5.0063958128894130 12.6166103433950365 S
atom 7.0431644289712905 4.9966286919132026 12.3582073666322056 S
atom 2.9642303332833948 -0.0562466283499594 17.7493190931371139 S
atom 7.1133283945366719 -0.0634653578611274 17.3067391977018197 S
atom 2.0993505692973904 4.9505124673781582 17.3111055539848628 S
atom 7.9601985240123803 4.9397215623790220 17.7493190931371139 S
atom -0.0096653184393637 2.9577767697418431 12.3603905447737024 S
atom 4.9945453858237130 2.0492795443318035 12.6144271652535043 S
atom -0.0194324394155858 7.0632573695710725 12.6187935215365368 S
atom 4.9863028722896248 7.9537449604708286 12.3603905447737077 S
atom 0.0472418110948141 2.0407426747007369 17.7515022712786035 S
atom 5.0504287313349714 2.8876128041764542 17.3089223758433484 S
atom 0.0364509060956908 7.9015906294157263 17.3132887321263418 S
atom 5.0432100018238053 7.0367108654297326 17.7515022712786035 S
atom 0.2768809489565303 -0.2139653268544942 19.9980119161412304 Ba
atom 5.2189383348386356 -0.2858857662116752 19.9958287379997159 Ba
atom 0.2049605095993497 4.7280920590276088 20.0001950942827165 Ba
atom 5.2728491396855048 4.7820028638744896 19.9980119161412304 Ba
atom -0.0431507176045414 0.1088556670123566 24.7773178793981508 Ba
atom 4.8961173409717675 0.0341459003493954 24.7751347012566754 Ba
atom -0.1178604842675019 5.0481237255886651 24.7795010575396510 Ba
atom 4.9528174731244388 5.1048238577413407 24.7773178793981508 Ba
atom 2.5314063902629873 2.4581072541674622 22.6149967113601029 Zr
atom 7.5428339445456496 2.4555569832108546 22.6128135332185707 Zr
atom 2.5288561193063743 7.4695348084501401 22.6171798895015854 Zr
atom 7.5273745809919772 7.4540754448964428 22.6149967113601029 Zr
atom 2.7690171556438443 2.7210918963330597 20.0496971759904952 S
atom 7.2798493023800699 2.2179462178299940 20.0475139978490091 S
atom 2.2658714771407791 7.2319240430692773 20.0518803541319990 S
atom 7.7649853463728222 7.7170600870620421 20.0496971759904916 S
atom 2.3689026119558445 2.2083457214823636 25.1198467992020511 S
atom 7.7925954772307637 2.6180607615179881 25.1176636210605899 S
atom 2.7786176519914831 7.6320385867572744 25.1220299773435549 S
atom 7.3648708026848295 7.2043139122113562 25.1198467992020511 S
atom 2.8442841018083658 -0.0548624703622632 22.2525820732664918 S
atom 7.2955570649853252 -0.0608890631437790 22.7629642497659148 S
atom 2.2815792397460606 4.9530887620954909 22.7673306060489189 S
atom 7.8402522925373548 4.9411057203667204 22.2525820732664918 S
atom 0.0458576531071181 2.1606889061757713 22.2547652514080170 S
atom 5.0478524366176192 2.7053841337277786 22.7651474279074009 S
atom 0.0338746113783420 7.7193619589670526 22.7695137841904227 S
atom 5.0418258438361194 7.1566570969047492 22.2547652514080170 S
atom 2.6331723170560370 2.4310740234701051 28.2227004201539984 Ba
atom 7.5698671752430098 2.3537910564178013 28.2205172420125230 Ba
atom 2.5558893500037390 7.3677688816570548 28.2248835982955057 Ba
atom 7.6291405077850394 7.4270422141990817 28.2227004201539984 Ba
atom 2.2932590321079247 2.7635650524746365 32.9949056981955167 Ba
atom 7.2373761462384802 2.6937043413659079 32.9927225200539951 Ba
atom 2.2233983209991979 7.7076821666052018 32.9970888763370453 Ba
atom 7.2892272228368933 7.7595332432036273 32.9949056981955309 Ba
atom 4.9766752713762292 5.0117223386857859 30.3881606416530268 Zr
atom 9.9851870507562950 5.0062562928266017 30.3859774635114839 Zr
atom 4.9712092255170459 10.0202341180658898 30.3903438197944880 Zr
atom 9.9726434621051769 10.0076905294148073 30.3881606416530197 Zr
atom 4.9712252543302382 5.0240634188537605 35.4424943076423631 Zr
atom 9.9728459705883541 5.0117063098725767 35.4403111295009197 Zr
atom 4.9588681453490722 10.0256841351118435 35.4446774857838989 Zr
atom 9.9671934450592694 10.0200316095827251 35.4424943076423631 Zr
atom 4.7195770598848066 4.8424434159212693 27.8827197226166632 S
atom 10.1544659735208072 5.2633545043180172 27.8805365444752020 S
atom 5.1404881482815510 10.2773323295573249 27.8849029007581741 S
atom 9.7155452506137792 9.8384116066502703 27.8827197226166703 S
atom 5.2793676828119978 5.2772088178079262 32.9475780666421869 S
atom 9.7197005716342009 4.7035638813908243 32.9453948885007151 S
atom 4.7057227463949030 9.7175417066300991 32.9497612447837227 S
atom 10.2753358735409961 10.2731770085368979 32.9475780666421727 S
atom 4.6759202646610714 2.5251283484883378 30.7630645505889753 S
atom 10.2373658198086517 2.5124217019595125 30.2140067950768767 S
atom 5.2233879945693582 7.5263995271987936 30.2183731513598879 S
atom 9.6718884553900555 7.5210965392173348 30.7630645505889646 S
atom 4.6043650118550907 2.5181645510343476 35.1451339532210625 S
atom 10.3685683517849689 2.5041711533975701 35.7657546591436102 S
atom 5.3545905265457057 7.5181489786368392 35.7701210154266107 S
atom 9.6003332025840695 7.5141327417633237 35.1451339532210696 S
atom 2.4618350249855037 5.3250209340520422 30.7652477287304507 S
atom 7.4705098622433077 4.7595435696334798 30.2161899732183912 S
atom 2.4565320370040267 9.7735213948727324 30.2205563295013881 S
atom 7.4578032157144767 10.3209891247810344 30.7652477287304578 S
atom 2.4687988224395054 5.3965761868580344 35.1473171313625343 S
atom 7.4787604108052603 4.6283410376571394 35.7679378372850891 S
atom 2.4647825855659784 9.6423188628964311 35.7723041935681962 S
atom 7.4647670131684967 10.3925443775870079 35.1473171313625414 S
atom 2.6566588972109382 2.2539400331816686 37.9624539998124746 Ba
atom 7.7470011655314472 2.3303044762629050 37.9602708216709885 Ba
atom 2.7330233402921715 7.3442823015021856 37.9646371779539606 Ba
atom 7.6526270879399236 7.2499082239106558 37.9624539998124746 Ba
atom 2.3033837738813570 2.7779536771840045 42.9559553806757251 Ba
atom 7.2229875215291148 2.6835795995924792 42.9537722025342603 Ba
atom 2.2090096962898338 7.6975574248317535 42.9581385588172537 Ba
atom 7.2993519646103495 7.7739218679129873 42.9559553806757322 Ba
atom 4.9780054309106516 5.0139309505473229 40.4592046902441282 Zr
atom 9.9829784388947669 5.0049261332921837 40.4570215121026280 Zr
atom 4.9690006136555098 10.0189039585314479 40.4613878683856214 Zr
atom 9.9739736216396082 10.0098991412763194 40.4592046902441282 Zr
atom 4.9847856074910339 5.0037984822409154 45.4759150728459005 Zr
atom 9.9931109072012028 4.9981459567117730 45.4737318947044145 Zr
atom 4.9791330819619271 10.0121237819510682 45.4780982509874292 Zr
atom 9.9807537982200341 9.9997666729698942 45.4759150728458934 Zr
atom 4.6460684165309685 4.7446348456358240 37.9561949244934951 S
atom 10.2522745438062550 5.3368631476718704 37.9540117463519948 S
atom 5.2382967185669864 10.3508409729111186 37.9583781026350024 S
atom 9.6420366072599606 9.7406030363648313 37.9561949244935022 S
atom 5.3099424452903499 5.2832270554588314 42.9622144559947685 S
atom 9.7136823339832770 4.6729891189124970 42.9600312778531901 S
atom 4.6997045087439862 9.6869669441517612 42.9643976341362048 S
atom 10.3059106360193198 10.2791952461878200 42.9622144559947685 S
atom 4.6071989055954337 2.5134628495444882 40.7766328894239649 S
atom 10.3627897814651373 2.5004212263108898 40.1374101347812413 S
atom 5.3488119562258509 7.5143990515501606 40.1417764910642916 S
atom 9.6031670963244036 7.5094310402734861 40.7766328894239933 S
atom 4.6014203352755878 2.5097129224578141 45.1482883650616387 S
atom 10.3656236752054873 2.4957195248210446 45.7689090709842219 S
atom 5.3516458499661912 7.5096973500603257 45.7732754272672366 S
atom 9.5973885260045950 7.5056811131868093 45.1482883650616600 S
atom 2.4735005239293533 5.3937422931176675 40.7788160675654581 S
atom 7.4825103378919389 4.6341196079769826 40.1395933129227629 S
atom 2.4685325126526578 9.6480974332162575 40.1439596692057563 S
atom 7.4694687146583467 10.3897104838466401 40.7788160675654581 S
atom 2.4772504510160327 5.3995208634375249 45.1504715432031958 S
atom 7.4872120393817996 4.6312857142366184 45.7710922491257293 S
atom 2.4732342141425057 9.6452635394759163 45.7754586054087085 S
atom 7.4732186417450173 10.3954890541665215 45.1504715432031958 S
atom 2.6667836389843709 2.2683286578910371 47.9235036822927256 Ba
atom 7.7326125408220960 2.3201797344894781 47.9213205041512467 Ba
atom 2.7186347155828106 7.3341575597287552 47.9256868604342472 Ba
atom 7.6627518297133630 7.2642968486200230 47.9235036822927398 Ba
atom 2.3268703540362594 2.6008196868955702 52.6957089603343150 Ba
atom 7.4001215118175505 2.6600930194375882 52.6935257821928786 Ba
atom 2.3861436865782673 7.6740708446768719 52.6978921384758650 Ba
atom 7.3228385447652480 7.5967878776245552 52.6957089603343007 Ba
atom 4.9793355904450651 5.0161395624088749 50.5302487388353185 Zr
atom 9.9807698270332441 5.0035959737577773 50.5280655606938183 Zr
atom 4.9667920017939515 10.0175737989970486 50.5324319169768259 Zr
atom 9.9753037811740732 10.0121077531378635 50.5302487388353399 Zr
atom 4.6766431790092904 4.7506530832867435 47.9708313138461051 S
atom 10.2462563061553471 5.3062883851935654 47.9686481357045551 S
atom 5.2322784809160874 10.3202662104328322 47.9730144919876054 S
atom 9.6726113697382701 9.7466212740157374 47.9708313138461051 S
atom 5.2364338019364629 5.1854184851733978 53.0356896578715364 S
atom 9.8114909042687319 4.7464977622663405 53.0335064797299296 S
atom 4.7975130790294358 9.7604755875055993 53.0378728360129514 S
atom 10.2324019926654710 10.1813866759023863 53.0356896578715507 S
atom 4.7326228672519353 2.5014623738958743 50.7000362291283224 S
atom 10.2940684223995280 2.4887557273670526 50.1509784736163837 S
atom 5.2800905971602221 7.5027335526063164 50.1553448298993203 S
atom 9.7285910579809194 7.4974305646248549 50.7000362291283153 S
atom 2.4855009995779747 5.2683183314611810 50.7022194072698937 S
atom 7.4941758368357876 4.7028409670426177 50.1531616517578271 S
atom 2.4801980115965097 9.7168187922819165 50.1575280080408703 S
atom 7.4814691903069903 10.2642865221902078 50.7022194072698866 S
