#=======================================================
# FHI-aims file: sym_relax/sym_relax_RP_8_RxRyRz_-Rx-RyRz.in
# Created using the Atomic Simulation Environment (ASE)
# Mon Mar 17 16:21:00 2025
#=======================================================
lattice_vector 9.9423435285427111 -0.0074753092789170 -0.0000000000000000 
lattice_vector -0.0074753092789173 9.9423435285427217 -0.0000000000000000 
lattice_vector 0.0000000000000000 -0.0000000000000000 87.0755261083415917 
atom 0.0452492723538038 -0.1220489709804134 0.1895560294342649 Ba
atom 5.0932207352517693 -0.0489869269932627 0.1895560294342651 Ba
atom 0.1183113163409543 4.9259224919175351 0.1895560294342651 Ba
atom 5.0126833819857017 4.8453851386514799 0.1895560294342649 Ba
atom -0.2541523208608702 0.1878255839853965 5.0282439470388107 Ba
atom 4.7833461802859452 0.2504146662214111 5.0282439470388107 Ba
atom -0.1915632386248556 5.2253240851322253 5.0282439470388107 Ba
atom 4.7132817887710310 5.1552596936172845 5.0282439470388107 Ba
atom 2.4552993194552184 2.5082803284021562 2.4068897792942909 Zr
atom 7.4303255455010735 2.5083971355372099 2.4068897792942909 Zr
atom 2.4554161265902748 7.4833065544480180 2.4068897792942909 Zr
atom 7.4227334290871267 7.4757144380340588 2.4068897792942909 Zr
atom 2.4115173665228071 2.5206036904920026 7.5066321030349386 Zr
atom 7.4180021834112395 2.5521790884696269 7.5066321030349386 Zr
atom 2.4430927645004266 7.5270885073804275 7.5066321030349386 Zr
atom 7.3789514761546977 7.4880378001238777 7.5066321030349386 Zr
atom 2.5710924768860877 2.6879942501843113 -0.1127851989677550 S
atom 7.2506116237189371 2.3926039781063428 -0.1127851989677550 S
atom 2.2757022048081166 7.3675133970171407 -0.1127851989677550 S
atom 7.5385265865179925 7.6554283598162014 -0.1127851989677550 S
atom 2.2539898155236591 2.3020368527132913 4.9913898642811718 S
atom 7.6365690211899571 2.7097066394687768 4.9913898642811718 S
atom 2.6616596022791348 7.6846160583795688 4.9913898642811718 S
atom 7.2214239251555599 7.2694709623451788 4.9913898642811718 S
atom 2.7873082692373838 0.0326123917868620 2.2974866322365521 S
atom 7.0703215686238305 0.0316354212524501 2.7158682053089134 S
atom 2.0954121497130034 5.0065448401632544 2.7158682053089134 S
atom 7.7547423788692740 5.0000465014187423 2.2974866322365521 S
atom 2.9438735164410343 0.0410031556491624 7.7106453349983450 S
atom 6.9588496004104323 0.0377926312072667 7.3501811452611632 S
atom 1.9839401814996063 5.0127020501180697 7.3501811452611632 S
atom 7.9113076260729178 5.0084372652810449 7.7106453349983450 S
atom -0.0363500464263206 2.1838634950339633 2.2974866322365521 S
atom 4.9320610337399788 2.8682843052794347 2.7158682053089134 S
atom -0.0428483851708274 7.8431937241902396 2.7158682053089134 S
atom 4.9310840632055859 7.1512976046658610 2.2974866322365521 S
atom -0.0447408102886210 2.0272982478303203 7.7106453349983450 S
atom 4.9259038237851698 2.9797562734928209 7.3501811452611632 S
atom -0.0490055951256431 7.9546656924036165 7.3501811452611632 S
atom 4.9226932993432717 6.9947323574621958 7.7106453349983450 S
atom 0.0032071582263563 -0.0797813698689724 10.0681767958706452 Ba
atom 5.0509531341403404 -0.0069448128658149 10.0681767958706452 Ba
atom 0.0760437152295140 4.9679646060450056 10.0681767958706452 Ba
atom 4.9706412678582526 4.8876527397628999 10.0681767958706452 Ba
atom 0.0486983201953501 0.0097885719511484 15.1553696279265129 Ba
atom 4.9613831923202136 -0.0524359748348088 15.1553696279265129 Ba
atom -0.0135262265906068 4.9224734440759885 15.1553696279265129 Ba
atom 5.0161324298272509 4.9772226815830223 15.1553696279265129 Ba
atom 2.4924386780678311 2.4855642497878581 12.5990590122066735 Zr
atom 7.4530416241153743 2.4712577769246029 12.5990590122066735 Zr
atom 2.4781322052045747 7.4461671958353994 12.5990590122066735 Zr
atom 7.4598727876997319 7.4529983594197571 12.5990590122066735 Zr
atom 2.4858884209512304 2.4818603520751914 17.6994922186859895 Zr
atom 7.4567455218280614 2.4778080340412041 17.6994922186859895 Zr
atom 2.4818361029172440 7.4527174529519984 17.6994922186859895 Zr
atom 7.4533225305831223 7.4492944617070762 17.6994922186859895 Zr
atom 2.5666220349709583 2.6468166703023250 10.0641454782740372 S
atom 7.2917892036009153 2.3970744200214771 10.0641454782740372 S
atom 2.3168797846901099 7.3719838389322829 10.0641454782740372 S
atom 7.5340561446028635 7.6142507799342134 10.0641454782740372 S
atom 2.4209653077394502 2.4470753941736842 15.1548688878876554 S
atom 7.4915304797295610 2.5427311472529759 15.1548688878876554 S
atom 2.5166210608187498 7.5176405661637853 15.1548688878876554 S
atom 7.3883994173713416 7.4145095038055686 15.1548688878876554 S
atom 1.9873435184980204 0.0017976093684819 12.5516018599987866 S
atom 7.9852985666702843 -0.0008625620978318 12.6747040918987697 S
atom 3.0103891477594855 4.9740468568129650 12.6747040918987697 S
atom 6.9547776281299125 4.9692317190003799 12.5516018599987866 S
atom 3.0067164864327633 -0.0006854571993931 17.7322807882724334 S
atom 6.9368338006981407 -0.0046161163623453 17.6746521579717317 S
atom 1.9619243817873189 4.9702933025484537 17.6746521579717317 S
atom 7.9741505960646570 4.9667486524324875 17.7322807882724334 S
atom -0.0055352640079403 2.9838282457733283 12.5516018599987866 S
atom 4.9645590170902825 1.9533073072329485 12.6747040918987697 S
atom -0.0103504018205452 6.9282167261437611 12.6747040918987697 S
atom 4.9618988456239617 7.9512623554052189 12.5516018599987866 S
atom -0.0030521974400655 1.9644552778385855 17.7322807882724334 S
atom 4.9683125713547751 3.0017720732051099 17.6746521579717317 S
atom -0.0065968475560311 7.9766814921159108 17.6746521579717317 S
atom 4.9643819121918300 6.9318893874704743 17.7322807882724334 S
atom -0.0168393581645520 -0.0168393581645519 20.2501223507770867 Ba
atom 4.9880111224359025 0.0131017035250932 20.2501223507770902 Ba
atom 0.0131017035250937 4.9880111224358936 20.2501223507770902 Ba
atom 4.9505947514673521 4.9505947514673441 20.2501223507770902 Ba
atom 0.0097885719511484 0.0486983201953500 25.3448750736277049 Ba
atom 4.9224734440759992 -0.0135262265906071 25.3448750736277049 Ba
atom -0.0524359748348085 4.9613831923202012 25.3448750736277049 Ba
atom 4.9772226815830356 5.0161324298272376 25.3448750736277049 Ba
atom 2.4818603520751865 2.4858884209512322 22.8007524828681838 Zr
atom 7.4527174529520188 2.4818361029172440 22.8007524828681838 Zr
atom 2.4778080340412019 7.4567455218280436 22.8007524828681838 Zr
atom 7.4492944617070895 7.4533225305831108 22.8007524828681838 Zr
atom 2.4855642497878692 2.4924386780678272 27.9011856893475425 Zr
atom 7.4461671958354181 2.4781322052045729 27.9011856893475425 Zr
atom 2.4712577769246087 7.4530416241153636 27.9011856893475425 Zr
atom 7.4529983594197722 7.4598727876997302 27.9011856893475425 Zr
atom 2.5170228995216464 2.5170228995216446 20.2501223507770902 S
atom 7.4215829743816029 2.4466735554707797 20.2501223507770902 S
atom 2.4466735554707846 7.4215829743816011 20.2501223507770902 S
atom 7.4844570091535303 7.4844570091535214 20.2501223507770902 S
atom 2.4470753941736816 2.4209653077394515 25.3453758136665463 S
atom 7.5176405661638066 2.5166210608187423 25.3453758136665463 S
atom 2.5427311472529799 7.4915304797295530 25.3453758136665463 S
atom 7.4145095038055810 7.3883994173713416 25.3453758136665463 S
atom 1.9644552778385886 -0.0030521974400656 22.7679639132817684 S
atom 7.9766814921159046 -0.0065968475560312 22.8255925435825091 S
atom 3.0017720732051134 4.9683125713547822 22.8255925435825091 S
atom 6.9318893874704886 4.9643819121918371 22.7679639132817684 S
atom 2.9838282457733341 -0.0055352640079405 27.9486428415554187 S
atom 6.9282167261437682 -0.0103504018205447 27.8255406096554587 S
atom 1.9533073072329541 4.9645590170902638 27.8255406096554587 S
atom 7.9512623554052162 4.9618988456239430 27.9486428415554187 S
atom -0.0006854571993928 3.0067164864327549 22.7679639132817684 S
atom 4.9702933025484706 1.9619243817873204 22.8255925435825091 S
atom -0.0046161163623457 6.9368338006981274 22.8255925435825091 S
atom 4.9667486524324804 7.9741505960646464 22.7679639132817684 S
atom 0.0017976093684819 1.9873435184980164 27.9486428415554187 S
atom 4.9740468568129783 3.0103891477594797 27.8255406096554587 S
atom -0.0008625620978316 7.9852985666702780 27.8255406096554587 S
atom 4.9692317190003887 6.9547776281299027 27.9486428415554187 S
atom -0.0797813698689725 0.0032071582263562 30.4320679056835921 Ba
atom 4.9679646060450002 0.0760437152295138 30.4320679056835921 Ba
atom -0.0069448128658145 5.0509531341403155 30.4320679056835921 Ba
atom 4.8876527397629168 4.9706412678582312 30.4320679056835921 Ba
atom 0.1878255839853971 -0.2541523208608694 35.4720007545153777 Ba
atom 5.2253240851322271 -0.1915632386248552 35.4720007545153777 Ba
atom 0.2504146662214115 4.7833461802859469 35.4720007545153777 Ba
atom 5.1552596936172970 4.7132817887710097 35.4720007545153777 Ba
atom 2.5206036904920062 2.4115173665228054 32.9936125985192845 Zr
atom 7.5270885073804461 2.4430927645004274 32.9936125985192845 Zr
atom 2.5521790884696300 7.4180021834112377 32.9936125985192845 Zr
atom 7.4880378001238901 7.3789514761546888 32.9936125985192845 Zr
atom 2.5082803284021571 2.4552993194552206 38.0933549222598558 Zr
atom 7.4833065544480180 2.4554161265902703 38.0933549222598558 Zr
atom 2.5083971355372183 7.4303255455010646 38.0933549222598558 Zr
atom 7.4757144380340677 7.4227334290871081 38.0933549222598558 Zr
atom 2.6468166703023286 2.5666220349709525 30.4360992232801166 S
atom 7.3719838389322812 2.3168797846901041 30.4360992232801166 S
atom 2.3970744200214842 7.2917892036009091 30.4360992232801166 S
atom 7.6142507799342107 7.5340561446028484 30.4360992232801166 S
atom 2.3020368527132939 2.2539898155236577 35.5088548372730699 S
atom 7.6846160583795804 2.6616596022791335 35.5088548372730699 S
atom 2.7097066394687794 7.6365690211899411 35.5088548372730699 S
atom 7.2694709623451841 7.2214239251555563 35.5088548372730699 S
atom 2.0272982478303234 -0.0447408102886211 32.7895993665559118 S
atom 7.9546656924036485 -0.0490055951256433 33.1500635562930484 S
atom 2.9797562734928240 4.9259038237851733 33.1500635562930484 S
atom 6.9947323574622082 4.9226932993432655 32.7895993665559118 S
atom 2.1838634950339628 -0.0363500464263206 38.2027580693176674 S
atom 7.8431937241902441 -0.0428483851708267 37.7843764962453861 S
atom 2.8682843052794307 4.9320610337399691 37.7843764962453861 S
atom 7.1512976046658592 4.9310840632055752 38.2027580693176674 S
atom 0.0410031556491626 2.9438735164410290 32.7895993665559118 S
atom 5.0127020501180768 1.9839401814996060 33.1500635562930484 S
atom 0.0377926312072661 6.9588496004104243 33.1500635562930484 S
atom 5.0084372652810698 7.9113076260729196 32.7895993665559118 S
atom 0.0326123917868623 2.7873082692373838 38.2027580693176674 S
atom 5.0065448401632686 2.0954121497130003 37.7843764962453861 S
atom 0.0316354212524504 7.0703215686238030 37.7843764962453861 S
atom 5.0000465014187547 7.7547423788692607 38.2027580693176674 S
atom -0.1220489709804129 0.0452492723538039 40.3106886721198237 Ba
atom 4.9259224919175368 0.1183113163409544 40.3106886721198379 Ba
atom -0.0489869269932622 5.0932207352517613 40.3106886721198379 Ba
atom 4.8453851386514746 5.0126833819856929 40.3106886721198379 Ba
atom 2.6879942501843113 2.5710924768860854 40.6130299005218944 S
atom 7.3675133970171558 2.2757022048081241 40.6130299005218944 S
atom 2.3926039781063544 7.2506116237189273 40.6130299005218944 S
atom 7.6554283598162058 7.5385265865179738 40.6130299005218944 S
atom 2.4384677824621432 2.6057660257963575 43.7273190836051242 Ba
atom 7.3328398481068833 2.5252286725302882 43.7273190836051242 Ba
atom 2.3579304291960752 7.5001380914410900 43.7273190836051242 Ba
atom 7.4059018920940378 7.5732001354282534 43.7273190836051242 Ba
atom 2.7378693756768113 2.2958914708305449 48.5660070012096128 Ba
atom 7.6427144030726932 2.2258270793156179 48.5660070012096128 Ba
atom 2.6678049841618807 7.2007364982264148 48.5660070012096128 Ba
atom 7.7053034853087077 7.2633255804624435 48.5660070012096128 Ba
atom 4.9958518449926137 4.9428708360456701 45.9446528334651134 Zr
atom 9.9631691474894950 4.9352787196317021 45.9446528334651134 Zr
atom 4.9882597285786581 9.9101881385425088 45.9446528334651134 Zr
atom 9.9632859546245172 9.9103049456775558 45.9446528334651134 Zr
atom 5.0396337979250401 4.9305474739558308 51.0443951572057202 Zr
atom 9.9754925095793094 4.8914967666992757 51.0443951572057202 Zr
atom 5.0005830906684849 9.8664061856100940 51.0443951572057202 Zr
atom 10.0070679075569160 9.8979815835877165 51.0443951572057202 Zr
atom 4.8800586875617542 4.7631569142635177 43.4249778552030463 S
atom 10.1428830692715852 5.0510718770625704 43.4249778552030463 S
atom 5.1679736503607892 10.0259812959733363 43.4249778552030463 S
atom 9.8474927971936648 9.7305910238954123 43.4249778552030463 S
atom 5.1971613489241681 5.1491143117345342 48.5291529184519419 S
atom 9.7569256718005803 4.7339692157001458 48.5291529184519419 S
atom 4.7820162528897852 9.7088786346109384 48.5291529184519419 S
atom 10.1645954585560752 10.1165484213664314 48.5291529184519419 S
atom 5.3557390147348460 2.4446063242845697 46.2536312594795831 S
atom 9.6387523141212679 2.4436293537501679 45.8352496864072521 S
atom 4.6638428952104718 7.4185387726609697 45.8352496864072521 S
atom 10.3231731243667362 7.4120404339164541 46.2536312594795831 S
atom 5.4672109829482283 2.4384491143297620 50.8879441994319137 S
atom 9.4821870669176178 2.4352385898878643 51.2484083891690858 S
atom 4.5072776480068093 7.4101480087986600 51.2484083891690858 S
atom 10.4346450925801406 7.4058832239616503 50.8879441994319137 S
atom 2.5190901307078608 4.5828668591684059 46.2536312594795831 S
atom 7.4875012108741714 5.2672876694138635 45.8352496864072521 S
atom 2.5125917919633456 10.2421970883246747 45.8352496864072521 S
atom 7.4865242403397554 9.5503009688002898 46.2536312594795831 S
atom 2.5252473406626716 4.4713948909550165 50.8879441994319137 S
atom 7.4958919747364696 5.4238529166175207 51.2484083891690858 S
atom 2.5209825558256456 10.3987623355283052 51.2484083891690858 S
atom 7.4926814502945609 9.4388290005868889 50.8879441994319137 S
atom 2.4805098965895871 2.5634984246849157 53.6059398500414375 Ba
atom 7.3751074492183193 2.4831865584028421 53.6059398500414375 Ba
atom 2.4001980303075148 7.4580959773136373 53.6059398500414375 Ba
atom 7.4479440062214843 7.5309325343168103 53.6059398500414375 Ba
atom 2.4350187346205971 2.4739284828647881 58.6931326820973425 Ba
atom 7.4646773910384541 2.5286777203718378 58.6931326820973425 Ba
atom 2.4897679721276358 7.5035871392826445 58.6931326820973425 Ba
atom 7.4024528442524913 7.4413625924966977 58.6931326820973425 Ba
atom 4.9587124863799934 4.9655869146599612 56.1368220663772988 Zr
atom 9.9404530688751898 4.9724180782443108 56.1368220663772988 Zr
atom 4.9655436499643528 9.9473274971551362 56.1368220663772988 Zr
atom 9.9261465960118755 9.9330210242918842 56.1368220663772988 Zr
atom 4.9652627434966137 4.9692908123726420 61.2372552728567854 Zr
atom 9.9367491711624751 4.9658678211277127 61.2372552728567854 Zr
atom 4.9618397522516879 9.9407772400385284 61.2372552728567854 Zr
atom 9.9326968531285065 9.9367249220045544 61.2372552728567854 Zr
atom 4.8845291294768876 4.8043344941455111 53.6019085324447957 S
atom 10.1017054893896336 5.0466014351474406 53.6019085324447957 S
atom 5.1267960704788180 10.0215108540582225 53.6019085324447957 S
atom 9.8519632391088159 9.7717686037773959 53.6019085324447957 S
atom 5.0301858567083961 5.0040757702741505 58.6926319420584619 S
atom 9.9019642132609604 4.9009447079159356 58.6926319420584619 S
atom 4.9270547943501892 9.8758541268267166 58.6926319420584619 S
atom 9.9976199663403129 9.9715098799060691 58.6926319420584619 S
atom 4.4407620166883595 2.4771043076348596 56.2124671460695211 S
atom 10.4387170648606364 2.4744441361685441 56.0893649141695079 S
atom 5.4638076459498350 7.4493535550793437 56.0893649141695079 S
atom 9.4081961263202700 7.4445384172667532 56.2124671460695211 S
atom 5.4892267826605297 2.4808578618993757 61.2124152121424245 S
atom 9.4193440969259097 2.4769272027364160 61.2700438424432150 S
atom 4.4444346780150870 7.4518366216472307 61.2700438424432150 S
atom 10.4566608922923994 7.4482919715312583 61.2124152121424245 S
atom 2.4865921473575692 5.4978438572148702 56.2124671460695211 S
atom 7.4566864284557850 4.4673229186744905 56.0893649141695079 S
atom 2.4817770095449747 9.4422323375853114 56.0893649141695079 S
atom 7.4540262569894722 10.4652779668467488 56.2124671460695211 S
atom 2.4828385930930557 4.4493790912427187 61.2124152121424245 S
atom 7.4542033618878900 5.4866958866092448 61.2700438424432150 S
atom 2.4792939429770988 10.4616053055200542 61.2700438424432150 S
atom 7.4502727027249653 9.4168132008746177 61.2124152121424245 S
atom 2.5005564129804987 2.5005564129804920 63.7878854049478576 Ba
atom 7.4380494609227590 2.4631400420119340 63.7878854049478576 Ba
atom 2.4631400420119460 7.4380494609227394 63.7878854049478576 Ba
atom 7.4679905226123866 7.4679905226123857 63.7878854049478576 Ba
atom 2.4739284828648009 2.4350187346205940 68.8826381277985433 Ba
atom 7.5035871392826596 2.4897679721276367 68.8826381277985433 Ba
atom 2.5286777203718382 7.4646773910384292 68.8826381277985433 Ba
atom 7.4413625924966977 7.4024528442524877 68.8826381277985433 Ba
atom 4.9692908123726482 4.9652627434966110 66.3385155370391146 Zr
atom 9.9407772400385639 4.9618397522516799 66.3385155370391146 Zr
atom 4.9658678211277074 9.9367491711624787 66.3385155370391146 Zr
atom 9.9367249220045384 9.9326968531284781 66.3385155370391146 Zr
atom 4.9655869146599709 4.9587124863799996 71.4389487435183099 Zr
atom 9.9473274971551540 4.9655436499643466 71.4389487435183099 Zr
atom 4.9724180782443099 9.9404530688751560 71.4389487435183099 Zr
atom 9.9330210242918699 9.9261465960118667 71.4389487435183099 Zr
atom 4.9341282649261959 4.9341282649261915 63.7878854049478576 S
atom 9.9719117186089292 4.9970022996981296 63.7878854049478576 S
atom 4.9970022996981465 9.9719117186089363 63.7878854049478576 S
atom 9.9015623745581056 9.9015623745580807 63.7878854049478576 S
atom 5.0040757702741532 5.0301858567083855 68.8831388678373600 S
atom 9.8758541268267361 4.9270547943501741 68.8831388678373600 S
atom 4.9009447079159436 9.9019642132609658 68.8831388678373600 S
atom 9.9715098799060602 9.9976199663402916 68.8831388678373600 S
atom 4.4493790912427302 2.4828385930930517 66.3633555977534684 S
atom 10.4616053055200329 2.4792939429770908 66.3057269674524576 S
atom 5.4866958866092528 7.4542033618878838 66.3057269674524576 S
atom 9.4168132008746266 7.4502727027249476 66.3633555977534684 S
atom 5.4978438572148853 2.4865921473575727 71.3633036638263007 S
atom 9.4422323375852972 2.4817770095449641 71.4864058957260653 S
atom 4.4673229186744932 7.4566864284557735 71.4864058957260653 S
atom 10.4652779668467666 7.4540262569894571 71.3633036638263007 S
atom 2.4808578618993788 5.4892267826605208 66.3633555977534684 S
atom 7.4518366216472449 4.4444346780150799 66.3057269674524576 S
atom 2.4769272027364160 9.4193440969259044 66.3057269674524576 S
atom 7.4482919715312725 10.4566608922923887 66.3633555977534684 S
atom 2.4771043076348662 4.4407620166883506 71.3633036638263007 S
atom 7.4493535550793455 5.4638076459498235 71.4864058957260653 S
atom 2.4744441361685561 10.4387170648606080 71.4864058957260653 S
atom 7.4445384172667630 9.4081961263202381 71.3633036638263007 S
atom 2.5634984246849148 2.4805098965895827 73.9698309598542920 Ba
atom 7.4580959773136559 2.4001980303075157 73.9698309598542920 Ba
atom 2.4831865584028519 7.3751074492183122 73.9698309598542920 Ba
atom 7.5309325343168307 7.4479440062214843 73.9698309598542920 Ba
atom 2.2958914708305458 2.7378693756768113 79.0097638086862020 Ba
atom 7.2007364982264184 2.6678049841618829 79.0097638086862020 Ba
atom 2.2258270793156187 7.6427144030726870 79.0097638086862020 Ba
atom 7.2633255804624470 7.7053034853087103 79.0097638086862020 Ba
atom 4.9305474739558433 5.0396337979250294 76.5313756526900733 Zr
atom 9.8664061856100886 5.0005830906684841 76.5313756526900733 Zr
atom 4.8914967666992917 9.9754925095792917 76.5313756526900733 Zr
atom 9.8979815835877218 10.0070679075569089 76.5313756526900733 Zr
atom 4.9428708360456790 4.9958518449926181 81.6311179764305876 Zr
atom 9.9101881385425052 4.9882597285786527 81.6311179764305876 Zr
atom 4.9352787196317109 9.9631691474894648 81.6311179764305876 Zr
atom 9.9103049456775523 9.9632859546244923 81.6311179764305876 Zr
atom 4.8043344941455102 4.8845291294768804 73.9738622774509622 S
atom 10.0215108540582278 5.1267960704788003 73.9738622774509622 S
atom 5.0466014351474495 10.1017054893896088 73.9738622774509622 S
atom 9.7717686037773834 9.8519632391087981 73.9738622774509622 S
atom 5.1491143117345546 5.1971613489241673 79.0466178914438018 S
atom 9.7088786346109490 4.7820162528897709 79.0466178914438018 S
atom 4.7339692157001521 9.7569256718005679 79.0466178914438018 S
atom 10.1165484213664545 10.1645954585560840 79.0466178914438018 S
atom 4.4713948909550130 2.5252473406626663 76.6878266104640005 S
atom 10.3987623355283336 2.5209825558256487 76.3273624207266153 S
atom 5.4238529166175260 7.4958919747364545 76.3273624207266153 S
atom 9.4388290005869031 7.4926814502945582 76.6878266104640005 S
atom 4.5828668591684085 2.5190901307078541 81.3221395504157982 S
atom 10.2421970883246658 2.5125917919633438 81.7405211234883637 S
atom 5.2672876694138759 7.4875012108741386 81.7405211234883637 S
atom 9.5503009688003093 7.4865242403397367 81.3221395504157982 S
atom 2.4384491143297629 5.4672109829482096 76.6878266104640005 S
atom 7.4101480087986724 4.5072776480067924 76.3273624207266153 S
atom 2.4352385898878670 9.4821870669176160 76.3273624207266153 S
atom 7.4058832239616530 10.4346450925801140 76.6878266104640005 S
atom 2.4446063242845764 5.3557390147348398 81.3221395504157982 S
atom 7.4185387726609795 4.6638428952104585 81.7405211234883637 S
atom 2.4436293537501674 9.6387523141212412 81.7405211234883637 S
atom 7.4120404339164772 10.3231731243667202 81.3221395504157982 S
atom 2.6057660257963575 2.4384677824621379 83.8484517262907758 Ba
atom 7.5001380914410918 2.3579304291960721 83.8484517262907758 Ba
atom 2.5252286725302944 7.3328398481068708 83.8484517262907758 Ba
atom 7.5732001354282588 7.4059018920940289 83.8484517262907758 Ba
atom 4.7631569142635284 4.8800586875617462 84.1507929546927471 S
atom 10.0259812959733772 5.1679736503607971 84.1507929546927471 S
atom 5.0510718770625793 10.1428830692715941 84.1507929546927471 S
atom 9.7305910238954212 9.8474927971936559 84.1507929546927471 S
