#=======================================================
# FHI-aims file: sym_relax/sym_relax_RP_8_Rx0Mz_0Ry0.in
# Created using the Atomic Simulation Environment (ASE)
# Mon Mar 17 16:11:48 2025
#=======================================================
lattice_vector 10.0200411807843910 0.0000000000000000 0.0000000000000000 
lattice_vector 0.0000000000000000 10.0823097045622241 0.0000000000000000 
lattice_vector 0.0000000000000000 0.0000000000000000 85.3543224576879567 
atom -0.1675004208614697 0.0000000000000000 0.1955515605260144 Ba
atom 5.1501272478787721 -0.0000000000000000 0.1897651877226829 Ba
atom 0.1401066574865886 5.0411548522811076 0.1897651877226829 Ba
atom 4.8425201695307196 5.0411548522811076 0.1955515605260144 Ba
atom -0.0644033651573759 0.0000000000000000 4.9013684812005263 Ba
atom 4.8968394385486826 0.0000000000000000 4.8328058290063334 Ba
atom -0.1131811518434983 5.0411548522811076 4.8328058290063334 Ba
atom 4.9456172252348134 5.0411548522811076 4.9013684812005263 Ba
atom 2.4868867674265949 2.5035197072563582 2.2558381664245126 Zr
atom 7.4969073578187713 2.5376351450247414 2.2558381664245126 Zr
atom 2.4868867674265949 7.5787899973058455 2.2558381664245126 Zr
atom 7.4969073578187713 7.5446745595374534 2.2558381664245126 Zr
atom 2.5313814720519225 2.5182780970749272 7.3075750238918005 Zr
atom 7.5414020624441029 2.5228767552061679 7.3075750238918005 Zr
atom 2.5313814720519225 7.5640316074872613 7.3075750238918005 Zr
atom 7.5414020624441029 7.5594329493560268 7.3075750238918005 Zr
atom 2.4924705323435163 2.7781743158295020 -0.2280337169481136 S
atom 7.5024911227356981 2.2629805364515900 -0.2280337169481136 S
atom 2.4924705323435163 7.3041353887327016 -0.2280337169481136 S
atom 7.5024911227356981 7.8193291681105999 -0.2280337169481136 S
atom 2.5061580831620569 2.1406666859924011 4.8206631358035841 S
atom 7.5161786735542417 2.9004881662886990 4.8206631358035841 S
atom 2.5061580831620569 7.9416430185698124 4.8206631358035841 S
atom 7.5161786735542417 7.1818215382734847 4.8206631358035841 S
atom 2.4968914546391923 -0.0000000000000000 2.0196322269799678 S
atom 7.4892209837233095 0.0000000000000000 2.6627423844416671 S
atom 2.4792003933311264 5.0411548522811076 2.6627423844416671 S
atom 7.5069120450313696 5.0411548522811076 2.0196322269799678 S
atom 2.8787026754182596 -0.0000000000000000 7.6809538693893176 S
atom 7.2108676391164916 0.0000000000000000 6.9536476312098365 S
atom 2.2008470487242926 5.0411548522811076 6.9536476312098365 S
atom 7.8887232658104525 5.0411548522811076 7.6809538693893176 S
atom -0.0150162507334778 2.5178701508477239 2.3854507711121373 S
atom 4.9950043396587036 2.5232847014333846 2.3854507711121373 S
atom -0.0150162507334778 7.5644395537144735 2.3854507711121373 S
atom 4.9950043396587036 7.5590250031288182 2.3854507711121373 S
atom 0.0239913767365451 2.1649060724909628 7.3351976274156545 S
atom 5.0340119671287304 2.8762487797901430 7.3351976274156545 S
atom 0.0239913767365451 7.9174036320712400 7.3351976274156545 S
atom 5.0340119671287304 7.2060609247720526 7.3351976274156545 S
atom 0.2143666295117130 -0.0000000000000000 9.8433748506706777 Ba
atom 5.2033818779554863 -0.0000000000000000 9.8327907939339028 Ba
atom 0.1933612875632969 5.0411548522811076 9.8327907939339028 Ba
atom 5.2243872199038943 5.0411548522811076 9.8433748506706777 Ba
atom -0.1709288180122089 0.0000000000000000 14.8420204941580405 Ba
atom 4.8593594812369005 0.0000000000000000 14.8402539487470868 Ba
atom -0.1506611091552841 5.0411548522811076 14.8402539487470868 Ba
atom 4.8390917723799793 5.0411548522811076 14.8420204941580405 Ba
atom 2.5303096233890168 2.5228017490875474 12.3242222558508718 Zr
atom 7.5403302137811918 2.5183531031935473 12.3242222558508718 Zr
atom 2.5303096233890168 7.5595079554746505 12.3242222558508718 Zr
atom 7.5403302137811918 7.5639566013686563 12.3242222558508718 Zr
atom 2.5267171483515014 2.5201380130959512 17.3415446504887605 Zr
atom 7.5367377387436845 2.5210168391851440 17.3415446504887605 Zr
atom 2.5267171483515014 7.5621716914662374 17.3415446504887605 Zr
atom 7.5367377387436845 7.5612928653770535 17.3415446504887605 Zr
atom 2.5226956599359522 2.8868347799065086 9.8255444476758171 S
atom 7.5327162503281286 2.1543200723745906 9.8255444476758171 S
atom 2.5226956599359522 7.1954749246556862 9.8255444476758171 S
atom 7.5327162503281286 7.9279896321876127 9.8255444476758171 S
atom 2.5306737341534200 2.1575039995856824 14.8371852215811586 S
atom 7.5406943245456119 2.8836508526954159 14.8371852215811586 S
atom 2.5306737341534200 7.9248057049765137 14.8371852215811586 S
atom 7.5406943245456119 7.1986588518667807 14.8371852215811586 S
atom 2.8771254469020340 0.0000000000000000 11.9736083837198084 S
atom 7.1876170831988269 0.0000000000000000 12.6971836596277843 S
atom 2.1775964928066225 5.0411548522811076 12.6971836596277843 S
atom 7.8871460372942295 5.0411548522811076 11.9736083837198084 S
atom 2.8789968691232621 -0.0000000000000000 17.7052387031104033 S
atom 7.1860181001739409 0.0000000000000000 16.9835151472350780 S
atom 2.1759975097817699 5.0411548522811076 16.9835151472350780 S
atom 7.8890174595154487 5.0411548522811076 17.7052387031104033 S
atom 0.0234405824112719 2.1551990489235426 12.3390005464036658 S
atom 5.0334611728034604 2.8859558033575570 12.3390005464036658 S
atom 0.0234405824112719 7.9271106556386517 12.3390005464036658 S
atom 5.0334611728034604 7.1963539012046471 12.3390005464036658 S
atom 0.0221073393637141 2.1532859597495220 17.3451214825598541 S
atom 5.0321279297558892 2.8878688925315767 17.3451214825598541 S
atom 0.0221073393637141 7.9290237448126755 17.3451214825598541 S
atom 5.0321279297558892 7.1944408120306163 17.3451214825598541 S
atom 0.2169047247126623 0.0000000000000000 19.8498424320204485 Ba
atom 5.2051935875584103 0.0000000000000000 19.8498424320204485 Ba
atom 0.1951729971662260 5.0411548522811076 19.8498424320204485 Ba
atom 5.2269253151048618 5.0411548522811076 19.8498424320204485 Ba
atom -0.1709288180122089 -0.0000000000000000 24.8576643698828335 Ba
atom 4.8593594812369005 0.0000000000000000 24.8594309152938635 Ba
atom -0.1506611091552841 5.0411548522811076 24.8594309152938635 Ba
atom 4.8390917723799793 5.0411548522811076 24.8576643698828335 Ba
atom 2.5267171483515014 2.5201380130959512 22.3581402135521863 Zr
atom 7.5367377387436845 2.5210168391851440 22.3581402135521863 Zr
atom 2.5267171483515014 7.5621716914662374 22.3581402135521863 Zr
atom 7.5367377387436845 7.5612928653770535 22.3581402135521863 Zr
atom 2.5303096233890168 2.5228017490875474 27.3754626081900767 Zr
atom 7.5403302137811918 2.5183531031935473 27.3754626081900767 Zr
atom 2.5303096233890168 7.5595079554746505 27.3754626081900767 Zr
atom 7.5403302137811918 7.5639566013686563 27.3754626081900767 Zr
atom 2.5238876993086974 2.8832106462391947 19.8498424320204485 S
atom 7.5339082897008804 2.1579442060419058 19.8498424320204485 S
atom 2.5238876993086974 7.1990990583230143 19.8498424320204485 S
atom 7.5339082897008804 7.9243654985203005 19.8498424320204485 S
atom 2.5306737341534200 2.1575039995856824 24.8624996424597420 S
atom 7.5406943245456119 2.8836508526954159 24.8624996424597420 S
atom 2.5306737341534200 7.9248057049765137 24.8624996424597420 S
atom 7.5406943245456119 7.1986588518667807 24.8624996424597420 S
atom 2.8789968691232621 0.0000000000000000 21.9944461609305009 S
atom 7.1860181001739409 0.0000000000000000 22.7161697168058403 S
atom 2.1759975097817699 5.0411548522811076 22.7161697168058403 S
atom 7.8890174595154487 5.0411548522811076 21.9944461609305009 S
atom 2.8771254469020340 -0.0000000000000000 27.7260764803211224 S
atom 7.1876170831988269 -0.0000000000000000 27.0025012044131678 S
atom 2.1775964928066225 5.0411548522811076 27.0025012044131678 S
atom 7.8871460372942295 5.0411548522811076 27.7260764803211224 S
atom 0.0221073393637141 2.1532859597495220 22.3545633814811353 S
atom 5.0321279297558892 2.8878688925315767 22.3545633814811353 S
atom 0.0221073393637141 7.9290237448126755 22.3545633814811353 S
atom 5.0321279297558892 7.1944408120306163 22.3545633814811353 S
atom 0.0234405824112719 2.1551990489235426 27.3606843176372898 S
atom 5.0334611728034604 2.8859558033575570 27.3606843176372898 S
atom 0.0234405824112719 7.9271106556386517 27.3606843176372898 S
atom 5.0334611728034604 7.1963539012046471 27.3606843176372898 S
atom 0.2143666295117130 0.0000000000000000 29.8563100133702832 Ba
atom 5.2033818779554863 0.0000000000000000 29.8668940701070689 Ba
atom 0.1933612875632969 5.0411548522811076 29.8668940701070689 Ba
atom 5.2243872199038943 5.0411548522811076 29.8563100133702832 Ba
atom -0.0644033651573759 -0.0000000000000000 34.7983163828404543 Ba
atom 4.8968394385486826 0.0000000000000000 34.8668790350346640 Ba
atom -0.1131811518434983 5.0411548522811076 34.8668790350346640 Ba
atom 4.9456172252348134 5.0411548522811076 34.7983163828404543 Ba
atom 2.5313814720519225 2.5182780970749272 32.3921098401490823 Zr
atom 7.5414020624441029 2.5228767552061679 32.3921098401490823 Zr
atom 2.5313814720519225 7.5640316074872613 32.3921098401490823 Zr
atom 7.5414020624441029 7.5594329493560268 32.3921098401490823 Zr
atom 2.4868867674265949 2.5035197072563582 37.4438466976163582 Zr
atom 7.4969073578187713 2.5376351450247414 37.4438466976163582 Zr
atom 2.4868867674265949 7.5787899973058455 37.4438466976163582 Zr
atom 7.4969073578187713 7.5446745595374534 37.4438466976163582 Zr
atom 2.5226956599359522 2.8868347799065086 29.8741404163651509 S
atom 7.5327162503281286 2.1543200723745906 29.8741404163651509 S
atom 2.5226956599359522 7.1954749246556862 29.8741404163651509 S
atom 7.5327162503281286 7.9279896321876127 29.8741404163651509 S
atom 2.5061580831620569 2.1406666859924011 34.8790217282372623 S
atom 7.5161786735542417 2.9004881662886990 34.8790217282372623 S
atom 2.5061580831620569 7.9416430185698124 34.8790217282372623 S
atom 7.5161786735542417 7.1818215382734847 34.8790217282372623 S
atom 2.8787026754182596 -0.0000000000000000 32.0187309946516052 S
atom 7.2108676391164916 0.0000000000000000 32.7460372328311209 S
atom 2.2008470487242926 5.0411548522811076 32.7460372328311209 S
atom 7.8887232658104525 5.0411548522811076 32.0187309946516052 S
atom 2.4968914546391923 -0.0000000000000000 37.6800526370609674 S
atom 7.4892209837233095 0.0000000000000000 37.0369424795992686 S
atom 2.4792003933311264 5.0411548522811076 37.0369424795992686 S
atom 7.5069120450313696 5.0411548522811076 37.6800526370609674 S
atom 0.0239913767365451 2.1649060724909628 32.3644872366253011 S
atom 5.0340119671287304 2.8762487797901430 32.3644872366253011 S
atom 0.0239913767365451 7.9174036320712400 32.3644872366253011 S
atom 5.0340119671287304 7.2060609247720526 32.3644872366253011 S
atom -0.0150162507334778 2.5178701508477239 37.3142340929288210 S
atom 4.9950043396587036 2.5232847014333846 37.3142340929288210 S
atom -0.0150162507334778 7.5644395537144735 37.3142340929288210 S
atom 4.9950043396587036 7.5590250031288182 37.3142340929288210 S
atom -0.1675004208614697 -0.0000000000000000 39.5041333035149336 Ba
atom 5.1501272478787721 -0.0000000000000000 39.5099196763182547 Ba
atom 0.1401066574865886 5.0411548522811076 39.5099196763182547 Ba
atom 4.8425201695307196 5.0411548522811076 39.5041333035149336 Ba
atom 2.4924705323435163 2.7781743158295020 39.9277185809891080 S
atom 7.5024911227356981 2.2629805364515900 39.9277185809891080 S
atom 2.4924705323435163 7.3041353887327016 39.9277185809891080 S
atom 7.5024911227356981 7.8193291681105999 39.9277185809891080 S
atom 2.4928840341158955 2.6829356705536265 43.0382588132818427 Ba
atom 7.5029046245080879 2.3582191817274682 43.0382588132818427 Ba
atom 2.4928840341158955 7.3993740340085719 43.0382588132818427 Ba
atom 7.5029046245080879 7.7240905228347323 43.0382588132818427 Ba
atom 2.4926078472661679 2.4981178214601036 47.7184523668294673 Ba
atom 7.5026284376583616 2.5430370308209889 47.7184523668294673 Ba
atom 2.4926078472661679 7.5841918831020907 47.7184523668294673 Ba
atom 7.5026284376583616 7.5392726737412001 47.7184523668294673 Ba
atom 5.0175759644185645 5.0411548522811076 45.0985693297741435 Zr
atom 9.9880830875948003 5.0411548522811076 45.1000417333901495 Zr
atom 4.9780624972026200 10.0823097045622152 45.1000417333901495 Zr
atom 10.0275965548107511 10.0823097045622152 45.0985693297741435 Zr
atom 4.9986215957806177 5.0411548522811076 50.1180776714228458 Zr
atom 10.0068341606649085 5.0411548522811076 50.1187348374427373 Zr
atom 4.9968135702727086 10.0823097045622152 50.1187348374427373 Zr
atom 10.0086421861728265 10.0823097045622152 50.1180776714228458 Zr
atom 4.7110039183121275 5.0411548522811076 42.6145886526447981 S
atom 10.2946646549061533 5.0411548522811076 42.6160340163632512 S
atom 5.2846440645139463 10.0823097045622152 42.6160340163632512 S
atom 9.7210245087043088 10.0823097045622152 42.6145886526447981 S
atom 5.4641644852111240 5.0411548522811076 47.6443328561036310 S
atom 9.5411503681191334 5.0411548522811076 47.6446621172208751 S
atom 4.5311297777269290 10.0823097045622152 47.6446621172208751 S
atom 10.4741850756033088 10.0823097045622152 47.6443328561036310 S
atom 4.9977567755688543 2.5206372157911097 45.2338530344648646 S
atom 10.0077773659610703 2.5205176364899939 45.2338530344648646 S
atom 4.9977567755688543 7.5616724887710891 45.2338530344648646 S
atom 10.0077773659610703 7.5617920680721964 45.2338530344648646 S
atom 4.9976586815718109 2.5205646706664075 50.1358158609078757 S
atom 10.0076792719639904 2.5205901816146943 50.1358158609078757 S
atom 4.9976586815718109 7.5617450338957939 50.1358158609078757 S
atom 10.0076792719639904 7.5617195229475129 50.1358158609078757 S
atom 2.4928424974502628 5.0411548522811076 45.5489091304436329 S
atom 7.5027994780413785 5.0411548522811076 44.7872919663157418 S
atom 2.4927788876491999 10.0823097045622152 44.7872919663157418 S
atom 7.5028630878424547 10.0823097045622152 45.5489091304436329 S
atom 2.4926304862191415 5.0411548522811076 49.6479781114156964 S
atom 7.5027006506953127 5.0411548522811076 50.6054073344962561 S
atom 2.4926800603031234 10.0823097045622152 50.6054073344962561 S
atom 7.5026510766113246 10.0823097045622152 49.6479781114156964 S
atom 2.4927338216244763 2.5247837492076188 52.6245049846310948 Ba
atom 7.5027544120166452 2.5163711030734781 52.6245049846310948 Ba
atom 2.4927338216244763 7.5575259553545839 52.6245049846310948 Ba
atom 7.5027544120166452 7.5659386014887193 52.6245049846310948 Ba
atom 2.4927543661677807 2.5161572935885026 57.5727929035329637 Ba
atom 7.5027749565599722 2.5249975586925912 57.5727929035329637 Ba
atom 2.4927543661677807 7.5661524109736833 57.5727929035329637 Ba
atom 7.5027749565599722 7.5573121458696138 57.5727929035329637 Ba
atom 4.9960892063632940 5.0411548522811076 55.0829748898188285 Zr
atom 10.0093615346430873 5.0411548522811076 55.0832725933796539 Zr
atom 4.9993409442508927 10.0823097045622152 55.0832725933796539 Zr
atom 10.0061097967554780 10.0823097045622152 55.0829748898188285 Zr
atom 4.9981270310976713 5.0411548522811076 60.0459173620321280 Zr
atom 10.0075787632432522 5.0411548522811076 60.0459967888502604 Zr
atom 4.9975581728510727 10.0823097045622152 60.0459967888502604 Zr
atom 10.0081476214898775 10.0823097045622152 60.0459173620321280 Zr
atom 4.4906992631165226 5.0411548522811076 52.6070576199121476 S
atom 10.5148472327457263 5.0411548522811076 52.6072289533617692 S
atom 5.5048266423535255 10.0823097045622152 52.6072289533617692 S
atom 9.5007198535086843 10.0823097045622152 52.6070576199121476 S
atom 5.5057355298996828 5.0411548522811076 57.5666407532923472 S
atom 9.4998022420725476 5.0411548522811076 57.5667376167402409 S
atom 4.4897816516803584 10.0823097045622152 57.5667376167402409 S
atom 10.5157561202919041 10.0823097045622152 57.5666407532923472 S
atom 4.9977285102782067 2.5205653625853222 55.0906931519786554 S
atom 10.0077491006703809 2.5205894896957712 55.0906931519786554 S
atom 4.9977285102782067 7.5617443419768655 55.0906931519786554 S
atom 10.0077491006703809 7.5617202148664253 55.0906931519786554 S
atom 4.9978433805859037 2.5205681953207493 60.0473384996735433 S
atom 10.0078639709780788 2.5205866569603472 60.0473384996735433 S
atom 4.9978433805859037 7.5617415092414504 60.0473384996735433 S
atom 10.0078639709780788 7.5617230476018369 60.0473384996735433 S
atom 2.4927263474069248 5.0411548522811076 55.5813802185404739 S
atom 7.5027625644720963 5.0411548522811076 54.6009176413287065 S
atom 2.4927419740799177 10.0823097045622152 54.6009176413287065 S
atom 7.5027469377991167 10.0823097045622152 55.5813802185404739 S
atom 2.4928187619216224 5.0411548522811076 59.5568150121466786 S
atom 7.5028482618197936 5.0411548522811076 60.5390072281407896 S
atom 2.4928276714276132 10.0823097045622152 60.5390072281407896 S
atom 7.5028393523138117 10.0823097045622152 59.5568150121466786 S
atom 2.4928549482256477 2.5244122289053510 62.5270036608643949 Ba
atom 7.5028755386178183 2.5167426233757455 62.5270036608643949 Ba
atom 2.4928549482256477 7.5578974756568442 62.5270036608643949 Ba
atom 7.5028755386178183 7.5655670811864555 62.5270036608643949 Ba
atom 2.4927543661677807 2.5161572935885026 67.4812144181957905 Ba
atom 7.5027749565599722 2.5249975586925912 67.4812144181957905 Ba
atom 2.4927543661677807 7.5661524109736833 67.4812144181957905 Ba
atom 7.5027749565599722 7.5573121458696138 67.4812144181957905 Ba
atom 4.9981270310976713 5.0411548522811076 65.0080899596968607 Zr
atom 10.0075787632432522 5.0411548522811076 65.0080105328790125 Zr
atom 4.9975581728510727 10.0823097045622152 65.0080105328790125 Zr
atom 10.0081476214898775 10.0823097045622152 65.0080899596968607 Zr
atom 4.9960892063632940 5.0411548522811076 69.9710324319100891 Zr
atom 10.0093615346430873 5.0411548522811076 69.9707347283493277 Zr
atom 4.9993409442508927 10.0823097045622152 69.9707347283493277 Zr
atom 10.0061097967554780 10.0823097045622152 69.9710324319100891 Zr
atom 4.4894798792441701 5.0411548522811076 62.5270036608643949 S
atom 10.5162608634380739 5.0411548522811076 62.5270036608643949 S
atom 5.5062402730458935 10.0823097045622152 62.5270036608643949 S
atom 9.4995004696363630 10.0823097045622152 62.5270036608643949 S
atom 5.5057355298996828 5.0411548522811076 67.4873665684367126 S
atom 9.4998022420725476 5.0411548522811076 67.4872697049887904 S
atom 4.4897816516803584 10.0823097045622152 67.4872697049887904 S
atom 10.5157561202919041 10.0823097045622152 67.4873665684367126 S
atom 4.9978433805859037 2.5205681953207493 65.0066688220555022 S
atom 10.0078639709780788 2.5205866569603472 65.0066688220555022 S
atom 4.9978433805859037 7.5617415092414504 65.0066688220555022 S
atom 10.0078639709780788 7.5617230476018369 65.0066688220555022 S
atom 4.9977285102782067 2.5205653625853222 69.9633141697503902 S
atom 10.0077491006703809 2.5205894896957712 69.9633141697503902 S
atom 4.9977285102782067 7.5617443419768655 69.9633141697503902 S
atom 10.0077491006703809 7.5617202148664253 69.9633141697503902 S
atom 2.4928187619216224 5.0411548522811076 65.4971923095822319 S
atom 7.5028482618197936 5.0411548522811076 64.5150000935880001 S
atom 2.4928276714276132 10.0823097045622152 64.5150000935880001 S
atom 7.5028393523138117 10.0823097045622152 65.4971923095822319 S
atom 2.4927263474069248 5.0411548522811076 69.4726271031884011 S
atom 7.5027625644720963 5.0411548522811076 70.4530896804002253 S
atom 2.4927419740799177 10.0823097045622152 70.4530896804002253 S
atom 7.5027469377991167 10.0823097045622152 69.4726271031884011 S
atom 2.4927338216244763 2.5247837492076188 72.4295023370978441 Ba
atom 7.5027544120166452 2.5163711030734781 72.4295023370978441 Ba
atom 2.4927338216244763 7.5575259553545839 72.4295023370978441 Ba
atom 7.5027544120166452 7.5659386014887193 72.4295023370978441 Ba
atom 2.4926078472661679 2.4981178214601036 77.3355549548996777 Ba
atom 7.5026284376583616 2.5430370308209889 77.3355549548996777 Ba
atom 2.4926078472661679 7.5841918831020907 77.3355549548996777 Ba
atom 7.5026284376583616 7.5392726737412001 77.3355549548996777 Ba
atom 4.9986215957806177 5.0411548522811076 74.9359296503059937 Zr
atom 10.0068341606649085 5.0411548522811076 74.9352724842860738 Zr
atom 4.9968135702727086 10.0823097045622152 74.9352724842860738 Zr
atom 10.0086421861728265 10.0823097045622152 74.9359296503059937 Zr
atom 5.0175759644185645 5.0411548522811076 79.9554379919548381 Zr
atom 9.9880830875948003 5.0411548522811076 79.9539655883388605 Zr
atom 4.9780624972026200 10.0823097045622152 79.9539655883388605 Zr
atom 10.0275965548107511 10.0823097045622152 79.9554379919548381 Zr
atom 4.4906992631165226 5.0411548522811076 72.4469497018166919 S
atom 10.5148472327457263 5.0411548522811076 72.4467783683671342 S
atom 5.5048266423535255 10.0823097045622152 72.4467783683671342 S
atom 9.5007198535086843 10.0823097045622152 72.4469497018166919 S
atom 5.4641644852111240 5.0411548522811076 77.4096744656251303 S
atom 9.5411503681191334 5.0411548522811076 77.4093452045079147 S
atom 4.5311297777269290 10.0823097045622152 77.4093452045079147 S
atom 10.4741850756033088 10.0823097045622152 77.4096744656251303 S
atom 4.9976586815718109 2.5205646706664075 74.9181914608211343 S
atom 10.0076792719639904 2.5205901816146943 74.9181914608211343 S
atom 4.9976586815718109 7.5617450338957939 74.9181914608211343 S
atom 10.0076792719639904 7.5617195229475129 74.9181914608211343 S
atom 4.9977567755688543 2.5206372157911097 79.8201542872638612 S
atom 10.0077773659610703 2.5205176364899939 79.8201542872638612 S
atom 4.9977567755688543 7.5616724887710891 79.8201542872638612 S
atom 10.0077773659610703 7.5617920680721964 79.8201542872638612 S
atom 2.4926304862191415 5.0411548522811076 75.4060292103132923 S
atom 7.5027006506953127 5.0411548522811076 74.4485999872325834 S
atom 2.4926800603031234 10.0823097045622152 74.4485999872325834 S
atom 7.5026510766113246 10.0823097045622152 75.4060292103132923 S
atom 2.4928424974502628 5.0411548522811076 79.5050981912852990 S
atom 7.5027994780413785 5.0411548522811076 80.2667153554130408 S
atom 2.4927788876491999 10.0823097045622152 80.2667153554130408 S
atom 7.5028630878424547 10.0823097045622152 79.5050981912852990 S
atom 2.4928840341158955 2.6829356705536265 82.0157485084469613 Ba
atom 7.5029046245080879 2.3582191817274682 82.0157485084469613 Ba
atom 2.4928840341158955 7.3993740340085719 82.0157485084469613 Ba
atom 7.5029046245080879 7.7240905228347323 82.0157485084469613 Ba
atom 4.7110039183121275 5.0411548522811076 82.4394186690840201 S
atom 10.2946646549061533 5.0411548522811076 82.4379733053657731 S
atom 5.2846440645139463 10.0823097045622152 82.4379733053657731 S
atom 9.7210245087043088 10.0823097045622152 82.4394186690840201 S
