#=======================================================
# FHI-aims file: sym_relax/sym_relax_RP_9_00Rz_000.in
# Created using the Atomic Simulation Environment (ASE)
# Mon Mar 17 16:30:26 2025
#=======================================================
lattice_vector 10.0003946365490748 -0.0000000000000004 -0.0000000000000000 
lattice_vector -0.0000000000000004 10.0003946365490748 0.0000000000000000 
lattice_vector -0.0000000000000000 0.0000000000000000 96.6638904298979327 
atom 0.0000000000000000 0.0000000000000000 0.1443362448949860 Ba
atom 5.0001973182745392 0.0000000000000000 0.1443362448949860 Ba
atom 0.0000000000000000 5.0001973182745392 0.1443362448949861 Ba
atom 5.0001973182745392 5.0001973182745392 0.1443362448949861 Ba
atom -0.0000000000000000 0.0000000000000000 4.9112372416593058 Ba
atom 5.0001973182745392 0.0000000000000000 4.9112372416593058 Ba
atom 0.0000000000000000 5.0001973182745392 4.9112372416593058 Ba
atom 5.0001973182745392 5.0001973182745392 4.9112372416593058 Ba
atom 2.5000986591372696 2.5000986591372696 2.2853819611929693 Zr
atom 7.5002959774118096 2.5000986591372696 2.2853819611929693 Zr
atom 2.5000986591372696 7.5002959774118096 2.2853819611929693 Zr
atom 7.5002959774118096 7.5002959774118096 2.2853819611929693 Zr
atom 2.5000986591372696 2.5000986591372696 7.4017958985910512 Zr
atom 7.5002959774118096 2.5000986591372696 7.4017958985910512 Zr
atom 2.5000986591372696 7.5002959774118096 7.4017958985910512 Zr
atom 7.5002959774118096 7.5002959774118096 7.4017958985910512 Zr
atom 2.5000986591372696 2.5000986591372696 -0.2241511860538099 S
atom 7.5002959774118096 2.5000986591372696 -0.2241511860538099 S
atom 2.5000986591372696 7.5002959774118096 -0.2241511860538099 S
atom 7.5002959774118096 7.5002959774118096 -0.2241511860538099 S
atom 2.5000986591372696 2.5000986591372696 4.8915695414828821 S
atom 7.5002959774118096 2.5000986591372696 4.8915695414828821 S
atom 2.5000986591372696 7.5002959774118096 4.8915695414828821 S
atom 7.5002959774118096 7.5002959774118096 4.8915695414828821 S
atom 2.2139340253670445 -0.0000000000000000 2.4127448127614168 S
atom 7.7864606111820374 0.0000000000000000 2.4127448127614168 S
atom 2.7862632929074982 5.0001973182745392 2.4127448127614168 S
atom 7.2141313436415935 5.0001973182745392 2.4127448127614168 S
atom 3.0099275106369712 0.0000000000000005 7.4311256796186180 S
atom 6.9904671259121063 -0.0000000000000000 7.4311256796186180 S
atom 1.9902698076375687 5.0001973182745392 7.4311256796186180 S
atom 8.0101248289115343 5.0001973182745392 7.4311256796186180 S
atom 0.0000000000000000 2.7862632929074964 2.4127448127614168 S
atom 5.0001973182745392 2.2139340253670459 2.4127448127614168 S
atom -0.0000000000000000 7.2141313436415899 2.4127448127614168 S
atom 5.0001973182745392 7.7864606111820365 2.4127448127614168 S
atom -0.0000000000000000 1.9902698076375676 7.4311256796186180 S
atom 5.0001973182745392 3.0099275106369721 7.4311256796186180 S
atom 0.0000000000000000 8.0101248289115343 7.4311256796186180 S
atom 5.0001973182745392 6.9904671259121063 7.4311256796186180 S
atom -0.0000000000000000 0.0000000000000000 9.9698819415132807 Ba
atom 5.0001973182745392 0.0000000000000000 9.9698819415132807 Ba
atom 0.0000000000000000 5.0001973182745392 9.9698819415132807 Ba
atom 5.0001973182745392 5.0001973182745392 9.9698819415132807 Ba
atom 0.0000000000000000 0.0000000000000000 15.0423928006984848 Ba
atom 5.0001973182745392 0.0000000000000000 15.0423928006984848 Ba
atom 0.0000000000000000 5.0001973182745392 15.0423928006984848 Ba
atom 5.0001973182745392 5.0001973182745392 15.0423928006984848 Ba
atom 2.5000986591372696 2.5000986591372696 12.4877464082900094 Zr
atom 7.5002959774118096 2.5000986591372696 12.4877464082900094 Zr
atom 2.5000986591372696 7.5002959774118096 12.4877464082900094 Zr
atom 7.5002959774118096 7.5002959774118096 12.4877464082900094 Zr
atom 2.5000986591372696 2.5000986591372696 17.5724816290827093 Zr
atom 7.5002959774118096 2.5000986591372696 17.5724816290827093 Zr
atom 2.5000986591372696 7.5002959774118096 17.5724816290827093 Zr
atom 7.5002959774118096 7.5002959774118096 17.5724816290827093 Zr
atom 2.5000986591372696 2.5000986591372696 9.9629676255043425 S
atom 7.5002959774118096 2.5000986591372696 9.9629676255043425 S
atom 2.5000986591372696 7.5002959774118096 9.9629676255043425 S
atom 7.5002959774118096 7.5002959774118096 9.9629676255043425 S
atom 2.5000986591372696 2.5000986591372696 15.0396582053942200 S
atom 7.5002959774118096 2.5000986591372696 15.0396582053942200 S
atom 2.5000986591372696 7.5002959774118096 15.0396582053942200 S
atom 7.5002959774118096 7.5002959774118096 15.0396582053942200 S
atom 1.9973174175168653 -0.0000000000000000 12.5091204533490981 S
atom 8.0030772190322192 0.0000000000000000 12.5091204533490945 S
atom 3.0028799007576730 5.0001973182745392 12.5091204533490945 S
atom 6.9975147357914107 5.0001973182745392 12.5091204533490981 S
atom 3.0035941238359403 0.0000000000000005 17.5808906557612481 S
atom 6.9968005127131487 -0.0000000000000000 17.5808906557612481 S
atom 1.9966031944386045 5.0001973182745392 17.5808906557612481 S
atom 8.0037914421104688 5.0001973182745392 17.5808906557612481 S
atom 0.0000000000000000 3.0028799007576730 12.5091204533490945 S
atom 5.0001973182745392 1.9973174175168649 12.5091204533490981 S
atom -0.0000000000000000 6.9975147357914107 12.5091204533490981 S
atom 5.0001973182745392 8.0030772190322192 12.5091204533490945 S
atom -0.0000000000000000 1.9966031944386036 17.5808906557612481 S
atom 5.0001973182745392 3.0035941238359403 17.5808906557612481 S
atom 0.0000000000000000 8.0037914421104706 17.5808906557612481 S
atom 5.0001973182745392 6.9968005127131470 17.5808906557612481 S
atom 0.0000000000000000 0.0000000000000000 20.1170984845728960 Ba
atom 5.0001973182745392 0.0000000000000000 20.1170984845728960 Ba
atom 0.0000000000000000 5.0001973182745392 20.1170984845728960 Ba
atom 5.0001973182745392 5.0001973182745392 20.1170984845728960 Ba
atom -0.0000000000000000 0.0000000000000000 25.1941001544417134 Ba
atom 5.0001973182745392 0.0000000000000000 25.1941001544417134 Ba
atom 0.0000000000000000 5.0001973182745392 25.1941001544417134 Ba
atom 5.0001973182745392 5.0001973182745392 25.1941001544417134 Ba
atom 2.5000986591372696 2.5000986591372696 22.6555993195073420 Zr
atom 7.5002959774118096 2.5000986591372696 22.6555993195073420 Zr
atom 2.5000986591372696 7.5002959774118096 22.6555993195073420 Zr
atom 7.5002959774118096 7.5002959774118096 22.6555993195073420 Zr
atom 2.5000986591372696 2.5000986591372696 27.7387170099319320 Zr
atom 7.5002959774118096 2.5000986591372696 27.7387170099319320 Zr
atom 2.5000986591372696 7.5002959774118096 27.7387170099319320 Zr
atom 7.5002959774118096 7.5002959774118096 27.7387170099319320 Zr
atom 2.5000986591372696 2.5000986591372696 20.1169492881014662 S
atom 7.5002959774118096 2.5000986591372696 20.1169492881014662 S
atom 2.5000986591372696 7.5002959774118096 20.1169492881014662 S
atom 7.5002959774118096 7.5002959774118096 20.1169492881014662 S
atom 2.5000986591372696 2.5000986591372696 25.1942493509131573 S
atom 7.5002959774118096 2.5000986591372696 25.1942493509131573 S
atom 2.5000986591372696 7.5002959774118096 25.1942493509131573 S
atom 7.5002959774118096 7.5002959774118096 25.1942493509131573 S
atom 1.9959734243306726 -0.0000000000000000 22.6555993195073420 S
atom 8.0044212122184089 0.0000000000000000 22.6555993195073420 S
atom 3.0042238939438692 5.0001973182745392 22.6555993195073420 S
atom 6.9961707426052140 5.0001973182745392 22.6555993195073420 S
atom 3.0035941238359403 0.0000000000000005 27.7303079832533754 S
atom 6.9968005127131487 -0.0000000000000000 27.7303079832533754 S
atom 1.9966031944386045 5.0001973182745392 27.7303079832533754 S
atom 8.0037914421104688 5.0001973182745392 27.7303079832533754 S
atom 0.0000000000000000 3.0042238939438684 22.6555993195073420 S
atom 5.0001973182745392 1.9959734243306737 22.6555993195073420 S
atom -0.0000000000000000 6.9961707426052131 22.6555993195073420 S
atom 5.0001973182745392 8.0044212122184071 22.6555993195073420 S
atom -0.0000000000000000 1.9966031944386036 27.7303079832533754 S
atom 5.0001973182745392 3.0035941238359403 27.7303079832533683 S
atom 0.0000000000000000 8.0037914421104706 27.7303079832533683 S
atom 5.0001973182745392 6.9968005127131470 27.7303079832533754 S
atom -0.0000000000000000 0.0000000000000000 30.2688058383161440 Ba
atom 5.0001973182745392 0.0000000000000000 30.2688058383161440 Ba
atom 0.0000000000000000 5.0001973182745392 30.2688058383161440 Ba
atom 5.0001973182745392 5.0001973182745392 30.2688058383161440 Ba
atom 0.0000000000000000 0.0000000000000000 35.3413166975013553 Ba
atom 5.0001973182745392 0.0000000000000000 35.3413166975013553 Ba
atom 0.0000000000000000 5.0001973182745392 35.3413166975013553 Ba
atom 5.0001973182745392 5.0001973182745392 35.3413166975013553 Ba
atom 2.5000986591372696 2.5000986591372696 32.8234522307245982 Zr
atom 7.5002959774118096 2.5000986591372696 32.8234522307245982 Zr
atom 2.5000986591372696 7.5002959774118096 32.8234522307245982 Zr
atom 7.5002959774118096 7.5002959774118096 32.8234522307245982 Zr
atom 2.5000986591372696 2.5000986591372696 37.9094027404235518 Zr
atom 7.5002959774118096 2.5000986591372696 37.9094027404235518 Zr
atom 2.5000986591372696 7.5002959774118096 37.9094027404235518 Zr
atom 7.5002959774118096 7.5002959774118096 37.9094027404235518 Zr
atom 2.5000986591372696 2.5000986591372696 30.2715404336204159 S
atom 7.5002959774118096 2.5000986591372696 30.2715404336204159 S
atom 2.5000986591372696 7.5002959774118096 30.2715404336204159 S
atom 7.5002959774118096 7.5002959774118096 30.2715404336204159 S
atom 2.5000986591372696 2.5000986591372696 35.3482310135103361 S
atom 7.5002959774118096 2.5000986591372696 35.3482310135103361 S
atom 2.5000986591372696 7.5002959774118096 35.3482310135103361 S
atom 7.5002959774118096 7.5002959774118096 35.3482310135103361 S
atom 1.9973174175168653 -0.0000000000000000 32.8020781856655574 S
atom 8.0030772190322192 0.0000000000000000 32.8020781856655574 S
atom 3.0028799007576730 5.0001973182745392 32.8020781856655574 S
atom 6.9975147357914107 5.0001973182745392 32.8020781856655574 S
atom 3.0099275106369721 0.0000000000000005 37.8800729593961023 S
atom 6.9904671259121063 -0.0000000000000000 37.8800729593961023 S
atom 1.9902698076375687 5.0001973182745392 37.8800729593961023 S
atom 8.0101248289115343 5.0001973182745392 37.8800729593961023 S
atom 0.0000000000000000 3.0028799007576730 32.8020781856655574 S
atom 5.0001973182745392 1.9973174175168649 32.8020781856655574 S
atom -0.0000000000000000 6.9975147357914107 32.8020781856655574 S
atom 5.0001973182745392 8.0030772190322192 32.8020781856655574 S
atom -0.0000000000000000 1.9902698076375676 37.8800729593961023 S
atom 5.0001973182745392 3.0099275106369721 37.8800729593961023 S
atom 0.0000000000000000 8.0101248289115343 37.8800729593961023 S
atom 5.0001973182745392 6.9904671259121063 37.8800729593961023 S
atom -0.0000000000000000 0.0000000000000000 40.3999613973553764 Ba
atom 5.0001973182745392 0.0000000000000000 40.3999613973553764 Ba
atom 0.0000000000000000 5.0001973182745392 40.3999613973553764 Ba
atom 5.0001973182745392 5.0001973182745392 40.3999613973553764 Ba
atom -0.0000000000000000 0.0000000000000000 45.1668623941196685 Ba
atom 5.0001973182745392 0.0000000000000000 45.1668623941196614 Ba
atom 0.0000000000000000 5.0001973182745392 45.1668623941196614 Ba
atom 5.0001973182745392 5.0001973182745392 45.1668623941196614 Ba
atom 2.5000986591372696 2.5000986591372696 43.0258166778216307 Zr
atom 7.5002959774118096 2.5000986591372696 43.0258166778216307 Zr
atom 2.5000986591372696 7.5002959774118096 43.0258166778216307 Zr
atom 7.5002959774118096 7.5002959774118096 43.0258166778216307 Zr
atom 2.5000986591372696 2.5000986591372696 40.4196290975317609 S
atom 7.5002959774118096 2.5000986591372696 40.4196290975317609 S
atom 2.5000986591372696 7.5002959774118096 40.4196290975317609 S
atom 7.5002959774118096 7.5002959774118096 40.4196290975317609 S
atom 2.5000986591372696 2.5000986591372696 45.5353498250684154 S
atom 7.5002959774118096 2.5000986591372696 45.5353498250684154 S
atom 2.5000986591372696 7.5002959774118096 45.5353498250684154 S
atom 7.5002959774118096 7.5002959774118096 45.5353498250684154 S
atom 2.2139340253670445 -0.0000000000000000 42.8984538262531956 S
atom 7.7864606111820374 0.0000000000000000 42.8984538262531956 S
atom 2.7862632929074982 5.0001973182745392 42.8984538262531956 S
atom 7.2141313436415935 5.0001973182745392 42.8984538262531956 S
atom 0.0000000000000000 2.7862632929074964 42.8984538262531956 S
atom 5.0001973182745392 2.2139340253670468 42.8984538262531956 S
atom -0.0000000000000000 7.2141313436415899 42.8984538262531956 S
atom 5.0001973182745392 7.7864606111820365 42.8984538262531956 S
atom 2.5000986591372696 2.5000986591372696 48.6700964530693341 Ba
atom 7.5002959774118096 2.5000986591372696 48.6700964530693341 Ba
atom 2.5000986591372696 7.5002959774118096 48.6700964530693341 Ba
atom 7.5002959774118096 7.5002959774118096 48.6700964530693341 Ba
atom 2.5000986591372696 2.5000986591372696 53.4821714840842120 Ba
atom 7.5002959774118096 2.5000986591372696 53.4821714840842120 Ba
atom 2.5000986591372696 7.5002959774118096 53.4821714840842120 Ba
atom 7.5002959774118096 7.5002959774118096 53.4821714840842120 Ba
atom 5.0001973182745392 5.0001973182745392 50.7407593348014885 Zr
atom 10.0003946365490783 5.0001973182745392 50.7407593348014885 Zr
atom 5.0001973182745392 10.0003946365490783 50.7407593348014885 Zr
atom 10.0003946365490783 10.0003946365490783 50.7407593348014885 Zr
atom 5.0001973182745392 5.0001973182745392 55.8310938803448806 Zr
atom 10.0003946365490783 5.0001973182745392 55.8310938803448806 Zr
atom 5.0001973182745392 10.0003946365490783 55.8310938803448806 Zr
atom 10.0003946365490783 10.0003946365490783 55.8310938803448806 Zr
atom 5.0001973182745392 5.0001973182745392 48.2340992865525067 S
atom 10.0003946365490783 5.0001973182745392 48.2340992865525067 S
atom 5.0001973182745392 10.0003946365490783 48.2340992865525067 S
atom 10.0003946365490783 10.0003946365490783 48.2340992865525067 S
atom 5.0001973182745392 5.0001973182745392 53.3261197612200490 S
atom 10.0003946365490783 5.0001973182745392 53.3261197612200490 S
atom 5.0001973182745392 10.0003946365490783 53.3261197612200490 S
atom 10.0003946365490783 10.0003946365490783 53.3261197612200490 S
atom 5.0001973182745392 2.5000965871679464 50.8498521549461771 S
atom 10.0003946365490783 2.5001007311065910 50.8498521549461771 S
atom 5.0001973182745392 7.5002980493811275 50.8498521549461771 S
atom 10.0003946365490783 7.5002939054424829 50.8498521549461771 S
atom 5.0001973182745392 2.5000988592408886 55.8573991930904938 S
atom 10.0003946365490783 2.5000984590336488 55.8573991930904938 S
atom 5.0001973182745392 7.5002957773081960 55.8573991930904938 S
atom 10.0003946365490783 7.5002961775154322 55.8573991930904938 S
atom 2.5001007311065901 5.0001973182745392 50.8498521549461771 S
atom 7.5002939054424829 5.0001973182745392 50.8498521549461771 S
atom 2.5000965871679464 10.0003946365490783 50.8498521549461771 S
atom 7.5002980493811275 10.0003946365490783 50.8498521549461771 S
atom 2.5000984590336515 5.0001973182745392 55.8573991930904938 S
atom 7.5002961775154304 5.0001973182745392 55.8573991930904938 S
atom 2.5000988592408899 10.0003946365490783 55.8573991930904938 S
atom 7.5002957773081924 10.0003946365490783 55.8573991930904938 S
atom 2.5000986591372696 2.5000986591372696 58.4405470125749531 Ba
atom 7.5002959774118096 2.5000986591372696 58.4405470125749531 Ba
atom 2.5000986591372696 7.5002959774118096 58.4405470125749531 Ba
atom 7.5002959774118096 7.5002959774118096 58.4405470125749531 Ba
atom 2.5000986591372696 2.5000986591372696 63.4488384343089109 Ba
atom 7.5002959774118096 2.5000986591372696 63.4488384343089109 Ba
atom 2.5000986591372696 7.5002959774118096 63.4488384343089109 Ba
atom 7.5002959774118096 7.5002959774118096 63.4488384343089109 Ba
atom 5.0001973182745392 5.0001973182745392 60.8873984721938797 Zr
atom 10.0003946365490783 5.0001973182745392 60.8873984721938797 Zr
atom 5.0001973182745392 10.0003946365490783 60.8873984721938797 Zr
atom 10.0003946365490783 10.0003946365490783 60.8873984721938797 Zr
atom 5.0001973182745392 5.0001973182745392 65.9385138886563453 Zr
atom 10.0003946365490783 5.0001973182745392 65.9385138886563453 Zr
atom 5.0001973182745392 10.0003946365490783 65.9385138886563453 Zr
atom 10.0003946365490783 10.0003946365490783 65.9385138886563453 Zr
atom 5.0001973182745392 5.0001973182745392 58.3718757389694929 S
atom 10.0003946365490783 5.0001973182745392 58.3718757389694929 S
atom 5.0001973182745392 10.0003946365490783 58.3718757389694929 S
atom 10.0003946365490783 10.0003946365490783 58.3718757389694929 S
atom 5.0001973182745392 5.0001973182745392 63.4176243364817935 S
atom 10.0003946365490783 5.0001973182745392 63.4176243364817935 S
atom 5.0001973182745392 10.0003946365490783 63.4176243364817935 S
atom 10.0003946365490783 10.0003946365490783 63.4176243364817935 S
atom 5.0001973182745392 2.5000986298978525 60.8989739711634144 S
atom 10.0003946365490783 2.5000986883766911 60.8989739711634144 S
atom 5.0001973182745392 7.5002960066512303 60.8989739711634144 S
atom 10.0003946365490783 7.5002959481723872 60.8989739711634144 S
atom 5.0001973182745392 2.5000986605637112 65.9416508419549530 S
atom 10.0003946365490783 2.5000986577108288 65.9416508419549530 S
atom 5.0001973182745392 7.5002959759853596 65.9416508419549530 S
atom 10.0003946365490783 7.5002959788382579 65.9416508419549530 S
atom 2.5000986883766907 5.0001973182745392 60.8989739711634144 S
atom 7.5002959481723872 5.0001973182745392 60.8989739711634144 S
atom 2.5000986298978534 10.0003946365490783 60.8989739711634144 S
atom 7.5002960066512294 10.0003946365490783 60.8989739711634144 S
atom 2.5000986577108293 5.0001973182745392 65.9416508419549530 S
atom 7.5002959788382588 5.0001973182745392 65.9416508419549530 S
atom 2.5000986605637121 10.0003946365490783 65.9416508419549530 S
atom 7.5002959759853596 10.0003946365490783 65.9416508419549530 S
atom 2.5000986591372696 2.5000986591372696 68.4727173832092149 Ba
atom 7.5002959774118096 2.5000986591372696 68.4727173832092149 Ba
atom 2.5000986591372696 7.5002959774118096 68.4727173832092149 Ba
atom 7.5002959774118096 7.5002959774118096 68.4727173832092149 Ba
atom 2.5000986591372696 2.5000986591372696 73.5023716857032241 Ba
atom 7.5002959774118096 2.5000986591372696 73.5023716857032241 Ba
atom 2.5000986591372696 7.5002959774118096 73.5023716857032241 Ba
atom 7.5002959774118096 7.5002959774118096 73.5023716857032241 Ba
atom 5.0001973182745392 5.0001973182745392 70.9875445344561768 Zr
atom 10.0003946365490783 5.0001973182745392 70.9875445344561768 Zr
atom 5.0001973182745392 10.0003946365490783 70.9875445344561768 Zr
atom 10.0003946365490783 10.0003946365490783 70.9875445344561768 Zr
atom 5.0001973182745392 5.0001973182745392 76.0365751802561078 Zr
atom 10.0003946365490783 5.0001973182745392 76.0365751802561078 Zr
atom 5.0001973182745392 10.0003946365490783 76.0365751802561078 Zr
atom 10.0003946365490783 10.0003946365490783 76.0365751802561078 Zr
atom 5.0001973182745392 5.0001973182745392 68.4641552394664217 S
atom 10.0003946365490783 5.0001973182745392 68.4641552394664217 S
atom 5.0001973182745392 10.0003946365490783 68.4641552394664217 S
atom 10.0003946365490783 10.0003946365490783 68.4641552394664217 S
atom 5.0001973182745392 5.0001973182745392 73.5109338294462020 S
atom 10.0003946365490783 5.0001973182745392 73.5109338294462020 S
atom 5.0001973182745392 10.0003946365490783 73.5109338294462020 S
atom 10.0003946365490783 10.0003946365490783 73.5109338294462020 S
atom 5.0001973182745392 2.5000986592760821 70.9875445344561768 S
atom 10.0003946365490783 2.5000986589984580 70.9875445344561768 S
atom 5.0001973182745392 7.5002959772729891 70.9875445344561768 S
atom 10.0003946365490783 7.5002959775506293 70.9875445344561768 S
atom 5.0001973182745392 2.5000986605637117 76.0334382269576707 S
atom 10.0003946365490783 2.5000986577108293 76.0334382269576707 S
atom 5.0001973182745392 7.5002959759853587 76.0334382269576707 S
atom 10.0003946365490783 7.5002959788382570 76.0334382269576707 S
atom 2.5000986589984562 5.0001973182745392 70.9875445344561768 S
atom 7.5002959775506284 5.0001973182745392 70.9875445344561768 S
atom 2.5000986592760830 10.0003946365490783 70.9875445344561768 S
atom 7.5002959772729882 10.0003946365490783 70.9875445344561768 S
atom 2.5000986577108284 5.0001973182745392 76.0334382269576707 S
atom 7.5002959788382570 5.0001973182745392 76.0334382269576707 S
atom 2.5000986605637112 10.0003946365490783 76.0334382269576707 S
atom 7.5002959759853596 10.0003946365490783 76.0334382269576707 S
atom 2.5000986591372696 2.5000986591372696 78.5262506346036702 Ba
atom 7.5002959774118096 2.5000986591372696 78.5262506346036702 Ba
atom 2.5000986591372696 7.5002959774118096 78.5262506346036702 Ba
atom 7.5002959774118096 7.5002959774118096 78.5262506346036702 Ba
atom 2.5000986591372696 2.5000986591372696 83.5345420563375995 Ba
atom 7.5002959774118096 2.5000986591372696 83.5345420563375995 Ba
atom 2.5000986591372696 7.5002959774118096 83.5345420563375995 Ba
atom 7.5002959774118096 7.5002959774118096 83.5345420563375995 Ba
atom 5.0001973182745392 5.0001973182745392 81.0876905967187298 Zr
atom 10.0003946365490783 5.0001973182745392 81.0876905967187298 Zr
atom 5.0001973182745392 10.0003946365490783 81.0876905967187298 Zr
atom 10.0003946365490783 10.0003946365490783 81.0876905967187298 Zr
atom 5.0001973182745392 5.0001973182745392 86.1439951885677715 Zr
atom 10.0003946365490783 5.0001973182745392 86.1439951885677715 Zr
atom 5.0001973182745392 10.0003946365490783 86.1439951885677715 Zr
atom 10.0003946365490783 10.0003946365490783 86.1439951885677715 Zr
atom 5.0001973182745392 5.0001973182745392 78.5574647324306881 S
atom 10.0003946365490783 5.0001973182745392 78.5574647324306881 S
atom 5.0001973182745392 10.0003946365490783 78.5574647324306881 S
atom 10.0003946365490783 10.0003946365490783 78.5574647324306881 S
atom 5.0001973182745392 5.0001973182745392 83.6032133299430029 S
atom 10.0003946365490783 5.0001973182745392 83.6032133299430029 S
atom 5.0001973182745392 10.0003946365490783 83.6032133299430029 S
atom 10.0003946365490783 10.0003946365490783 83.6032133299430029 S
atom 5.0001973182745392 2.5000986298978529 81.0761150977489820 S
atom 10.0003946365490783 2.5000986883766911 81.0761150977489820 S
atom 5.0001973182745392 7.5002960066512321 81.0761150977489820 S
atom 10.0003946365490783 7.5002959481723890 81.0761150977489820 S
atom 5.0001973182745392 2.5000988592408908 86.1176898758220943 S
atom 10.0003946365490783 2.5000984590336515 86.1176898758220943 S
atom 5.0001973182745392 7.5002957773081897 86.1176898758220943 S
atom 10.0003946365490783 7.5002961775154260 86.1176898758220943 S
atom 2.5000986883766916 5.0001973182745392 81.0761150977489820 S
atom 7.5002959481723899 5.0001973182745392 81.0761150977489820 S
atom 2.5000986298978520 10.0003946365490783 81.0761150977489820 S
atom 7.5002960066512312 10.0003946365490783 81.0761150977489820 S
atom 2.5000984590336506 5.0001973182745392 86.1176898758220943 S
atom 7.5002961775154287 5.0001973182745392 86.1176898758220943 S
atom 2.5000988592408899 10.0003946365490783 86.1176898758220943 S
atom 7.5002957773081924 10.0003946365490783 86.1176898758220943 S
atom 2.5000986591372696 2.5000986591372696 88.4929175848284189 Ba
atom 7.5002959774118096 2.5000986591372696 88.4929175848284189 Ba
atom 2.5000986591372696 7.5002959774118096 88.4929175848284189 Ba
atom 7.5002959774118096 7.5002959774118096 88.4929175848284189 Ba
atom 2.5000986591372696 2.5000986591372696 93.3049926158430765 Ba
atom 7.5002959774118096 2.5000986591372696 93.3049926158430765 Ba
atom 2.5000986591372696 7.5002959774118096 93.3049926158430765 Ba
atom 7.5002959774118096 7.5002959774118096 93.3049926158430765 Ba
atom 5.0001973182745392 5.0001973182745392 91.2343297341109150 Zr
atom 10.0003946365490783 5.0001973182745392 91.2343297341109150 Zr
atom 5.0001973182745392 10.0003946365490783 91.2343297341109150 Zr
atom 10.0003946365490783 10.0003946365490783 91.2343297341109150 Zr
atom 5.0001973182745392 5.0001973182745392 88.6489693076924397 S
atom 10.0003946365490783 5.0001973182745392 88.6489693076924397 S
atom 5.0001973182745392 10.0003946365490783 88.6489693076924397 S
atom 10.0003946365490783 10.0003946365490783 88.6489693076924397 S
atom 5.0001973182745392 5.0001973182745392 93.7409897823600744 S
atom 10.0003946365490783 5.0001973182745392 93.7409897823600744 S
atom 5.0001973182745392 10.0003946365490783 93.7409897823600744 S
atom 10.0003946365490783 10.0003946365490783 93.7409897823600744 S
atom 5.0001973182745392 2.5000965871679450 91.1252369139664324 S
atom 10.0003946365490783 2.5001007311065893 91.1252369139664324 S
atom 5.0001973182745392 7.5002980493811258 91.1252369139664324 S
atom 10.0003946365490783 7.5002939054424793 91.1252369139664324 S
atom 2.5001007311065893 5.0001973182745392 91.1252369139664324 S
atom 7.5002939054424811 5.0001973182745392 91.1252369139664324 S
atom 2.5000965871679464 10.0003946365490783 91.1252369139664324 S
atom 7.5002980493811275 10.0003946365490783 91.1252369139664324 S
