#=======================================================
# FHI-aims file: sym_relax/sym_relax_RP_3_Rx0Mz_0-RyMz.in
# Created using the Atomic Simulation Environment (ASE)
# Fri Mar 14 10:23:30 2025
#=======================================================
lattice_vector 10.0929972998673563 0.0000206308581616 0.0017696232508967 
lattice_vector 0.0000206308581616 10.0929972998673492 0.0017696232508967 
lattice_vector 0.0062997986712824 0.0062997986712825 35.3595848371983479 
atom -0.1746845604854179 0.0025082465039095 0.2942544962026732 Ba
atom 5.2129062049137334 0.0025400521471998 0.2930737623975276 Ba
atom 0.1664178704091435 5.0490283866517975 0.2930737623975275 Ba
atom 4.8718244048773460 5.0490172118666763 0.2960241194535700 Ba
atom 0.0064070698515589 0.0017917843490274 4.9580709613764737 Ba
atom 4.9976145079983381 0.0018141720948311 4.9359321381266863 Ba
atom -0.0488738265062764 5.0483025065994411 4.9359321381266845 Ba
atom 5.0529160352143139 5.0483007497117898 4.9598405846273730 Ba
atom 2.5172167566351642 2.5025465590848759 2.3498638993675245 Zr
atom 7.5637202480969368 2.5483403541780656 2.3511871373817588 Zr
atom 2.5172319135923420 7.5948286886826715 2.3511871373817588 Zr
atom 7.5637257219979315 7.5490555244476543 2.3516335226184237 Zr
atom 2.5245669407378948 2.5245669407378943 7.3674649860417709 Zr
atom 7.5710655906715871 2.5245772561669813 7.3683497976672214 Zr
atom 2.5245772561669773 7.5710655906715729 7.3683497976672214 Zr
atom 7.5710759061006572 7.5710759061006634 7.3692346092926702 Zr
atom 2.5194844874739211 2.8141708574291271 -0.1301147192571271 S
atom 7.5659609654076352 2.2376705848209832 -0.1288674226044112 S
atom 2.5194726309030231 7.2841589193255905 -0.1288674226044112 S
atom 7.5659934528366799 7.8606798227918944 -0.1283450960062303 S
atom 2.5208246733002970 2.0623020101637306 4.8887020867210333 S
atom 7.5673944569951024 2.9878154446934677 4.8898034134361579 S
atom 2.5209061224904885 8.0343037791980780 4.8898034134361579 S
atom 7.5673336386630545 7.1088109755264899 4.8904717099719308 S
atom 2.5202566495193017 0.0022660347460570 2.0460132359186090 S
atom 7.5636862090235937 0.0021354122388872 2.7833398872102091 S
atom 2.5171978745190033 5.0486237467434858 2.7833398872102082 S
atom 7.5667656148820770 5.0487750001088054 2.0477828591695006 S
atom 2.5934293227000440 0.0012193130511760 7.8153665743763359 S
atom 7.5021928932803599 0.0014262339200197 6.9195633977072122 S
atom 2.4557045587757531 5.0479145684246198 6.9195633977072140 S
atom 7.6399382880627966 5.0477282784139330 7.8171361976272236 S
atom -0.0049068262544055 2.5259049854372879 2.4794446047721088 S
atom 5.0415591800294912 2.5249986379525460 2.4803609835385938 S
atom -0.0049291544751015 7.5714869724571345 2.4803609835385951 S
atom 5.0416021391083481 7.5724139508000450 2.4812142280230023 S
atom 0.0013030879254972 2.4473440685878880 7.3670413019566068 S
atom 5.0478307935502951 2.6017898128879038 7.3678886701269448 S
atom 0.0013424590456987 7.6482781473925137 7.3678886701269466 S
atom 5.0478120532882755 7.4938530339506482 7.3688109252074963 S
atom -0.0037821537385238 0.0008331317640076 9.7750893874561786 Ba
atom 5.0980077079820694 0.0008313748763650 9.7989978339568609 Ba
atom 0.0515193734774723 5.0473197093809645 9.7989978339568609 Ba
atom 5.0427268116242434 5.0473420971267817 9.7768590107070938 Ba
atom 0.1773094765984528 0.0001166696091251 14.4389058526299880 Ba
atom 4.8827160110666492 0.0001054948239959 14.4418562096860210 Ba
atom -0.1637723234379476 5.0465938293285983 14.4418562096860210 Ba
atom 5.2238184419612130 5.0466256349718774 14.4406754758808802 Ba
atom 2.5319171248406391 2.5465873223909163 12.3850660727160005 Zr
atom 7.5784109332462224 2.5008141581558947 12.3855124579526823 Zr
atom 2.5319225987416223 7.5473024926604895 12.3855124579526858 Zr
atom 7.5784260902034006 7.5930962877536823 12.3868356959668926 Zr
atom 2.5283092081755023 2.9868318713120621 9.8462278853625200 S
atom 7.5747367243480541 2.0613390676404837 9.8468961818982965 S
atom 2.5282483898434549 7.1078274021451069 9.8468961818982965 S
atom 7.5748181735382696 8.0333408366748440 9.8479975086134104 S
atom 2.5296493940018818 2.2349630240466722 14.8650446913406658 S
atom 7.5761702159355355 2.8114839275129668 14.8655670179388419 S
atom 2.5296818814309248 7.8579722620175847 14.8655670179388419 S
atom 7.5761583593646362 7.2814719894094182 14.8668143145915721 S
atom 2.5319360069567978 0.0005101347323088 11.9515900848733434 S
atom 7.5753655664610751 0.0003795122251388 12.6889167361649431 S
atom 2.5288772319564998 5.0468678467297385 12.6889167361649431 S
atom 7.5784449723195655 5.0470191000950804 11.9533597081242302 S
atom 0.0075747014462973 2.5241352435232507 12.2545689885449374 S
atom 5.0540407077302119 2.5232288960385132 12.2554853673114383 S
atom 0.0075523732256014 7.5697172305431115 12.2554853673114401 S
atom 5.0540836668090687 7.5706442088860237 12.2563386117958562 S
atom 2.5289126285209327 2.3517198215316100 17.9749317264273252 Ba
atom 7.5754327686688256 2.6928222524261645 17.9737509926221684 Ba
atom 2.5289444341642215 7.7393105869307677 17.9737509926221684 Ba
atom 7.5754215938836911 7.3982287868943652 17.9767013496782155 Ba
atom 2.5281961663660439 2.5328114518685769 22.6387481916010742 Ba
atom 7.5747068886164541 2.4775305555107519 22.6166093683513161 Ba
atom 2.5282185541118545 7.5240188900153466 22.6166093683513125 Ba
atom 7.5747051317288143 7.5793204172313322 22.6405178148519965 Ba
atom 5.0289509411019209 5.0436211386521830 20.0305411295921765 Zr
atom 10.1212330706996738 5.0436362956093692 20.0318643676064347 Zr
atom 5.0747447361951012 10.0901246301139285 20.0318643676064347 Zr
atom 10.0754599064646690 10.0901301040149409 20.0323107528430988 Zr
atom 5.0509713227549078 5.0509713227549158 25.0481422162664131 Zr
atom 10.0974699726885930 5.0509816381840080 25.0490270278918672 Zr
atom 5.0509816381840027 10.0974699726886001 25.0490270278918672 Zr
atom 10.0974802881176871 10.0974802881176728 25.0499118395173106 Zr
atom 5.3405752394461539 5.0458888694909358 17.5505625109674810 S
atom 9.8105633013425972 5.0458770129200641 17.5518098076202165 S
atom 4.7640749668380158 10.0923653474246251 17.5518098076202165 S
atom 10.3870842048089074 10.0923978348537027 17.5523321342183891 S
atom 4.5887063921807565 5.0472290553173123 22.5693793169456747 S
atom 10.5607081612151070 5.0473105045075153 22.5704806436607903 S
atom 5.5142198267104838 10.0937988390121198 22.5704806436607939 S
atom 9.6352153575434993 10.0937380206800782 22.5711489401965757 S
atom 5.0523093674543027 2.5214975557626178 20.1601218349967439 S
atom 10.0978913544741591 2.5214752275419219 20.1610382137632627 S
atom 5.0514030199695794 7.5679635620465291 20.1610382137632627 S
atom 10.0988183328171068 7.5680065211253789 20.1618914582476414 S
atom 4.9737484506049014 2.5277074699425195 25.0477185321812179 S
atom 10.1746825294095498 2.5277468410627191 25.0485659003515337 S
atom 5.1281941949049266 7.5742351755673241 25.0485659003515337 S
atom 10.0202574159676363 7.5742164353052894 25.0494881554321580 S
atom 2.5286704167630791 5.0466610315363463 19.7266904661432143 S
atom 7.5750281287605121 5.0436022565360190 20.4640171174348104 S
atom 2.5285397942559085 10.0900905910406351 20.4640171174348104 S
atom 7.5751793821258566 10.0931699968990678 19.7284600893941366 S
atom 2.5276236950682067 5.1198337047170597 25.4960438046009585 S
atom 7.5743189504416319 4.9821089407927808 24.6002406279318109 S
atom 2.5278306159370434 10.0285972752973951 24.6002406279318073 S
atom 7.5741326604309691 10.1663426700798212 25.4978134278518844 S
atom 2.5272375137810328 2.5226222282785007 27.4557666176807906 Ba
atom 7.5737240913979766 2.5779237554944889 27.4796750641814782 Ba
atom 2.5272357568933819 7.6244120899990877 27.4796750641814818 Ba
atom 7.5737464791438072 7.5691311936412742 27.4575362409316952 Ba
atom 2.5265210516261432 2.7037138586154779 32.1195830828546107 Ba
atom 7.5729982113456034 2.3626320585790737 32.1225334399105904 Ba
atom 2.5265098768410144 7.4091203930836720 32.1225334399105904 Ba
atom 7.5730300169889029 7.7502228239782429 32.1213527061054478 Ba
atom 5.0729917044079391 5.0583215068576504 30.0657433029406462 Zr
atom 10.0737068746775211 5.0583269807586397 30.0661896881772996 Zr
atom 5.0272185401729175 10.1048153152632576 30.0661896881772996 Zr
atom 10.1195006697706678 10.1048304722204083 30.0675129261915473 Zr
atom 5.5132362533290813 5.0547135901925255 27.5269051155871232 S
atom 9.6342317841620968 5.0546527718604777 27.5275734121229014 S
atom 4.5877434496575180 10.1011411063650858 27.5275734121229050 S
atom 10.5597452186918748 10.1012225555553172 27.5286747388380562 S
atom 4.7613674060636955 5.0560537760188993 32.5457219215653311 S
atom 10.3843766440345995 5.0560862634479484 32.5462442481635463 S
atom 5.3378883095300003 10.1025745979525503 32.5462442481635463 S
atom 9.8078763714264348 10.1025627413816270 32.5474915448162392 S
atom 5.0505396255402815 2.5339790834633216 29.9352462187695529 S
atom 10.0961216125601272 2.5339567552426203 29.9361625975360752 S
atom 5.0496332780555226 7.5804450897472275 29.9361625975360752 S
atom 10.0970485909030199 7.5804880488260853 29.9370158420204504 S
atom 2.5269145167493279 5.0583403889738250 29.6322673150979874 S
atom 7.5732722287467702 5.0552816139735084 30.3695939663895693 S
atom 2.5267838942421648 10.1017699484781076 30.3695939663895693 S
atom 7.5734234821120854 10.1048493543365581 29.6340369383488635 S
