#=======================================================
# FHI-aims file: sym_relax/sym_relax_RP_2_RxRyMz_RxRyMz.in
# Created using the Atomic Simulation Environment (ASE)
# Fri Mar 14 10:21:35 2025
#=======================================================
lattice_vector 10.0884013465383404 0.1462617483320341 -0.0000000000000000 
lattice_vector 0.1462617483320341 10.0884013465383422 0.0000000000000000 
lattice_vector 0.0000000000000000 0.0000000000000000 25.4318247551180008 
atom -0.0908883502402696 -0.0908948530900542 0.2763175430667971 Ba
atom 5.1350955263592235 0.1640192244062856 0.2763175430667971 Ba
atom 0.1640257272560700 5.1350890235094440 0.2763175430667971 Ba
atom 5.0264431971949195 5.0264366943451311 0.2763175430667970 Ba
atom 0.0275088852751600 0.0273925969213072 4.8907355298303825 Ba
atom 5.0168080763478686 0.0456219888908564 4.8907355298303825 Ba
atom 0.0457382772447084 5.0166917879940147 4.8907355298303825 Ba
atom 5.1448404327103425 5.1447241443564913 4.8907355298303825 Ba
atom 2.5545326016268839 2.5545360173450939 2.3530488627293895 Zr
atom 7.6069962033592633 2.6359298199743204 2.3530488627293895 Zr
atom 2.6359264042561059 7.6069996190774694 2.3530488627293895 Zr
atom 7.6718641490620776 7.6718675647802872 2.3530488627293895 Zr
atom 2.5545326016268839 2.5545360173450939 7.4284221969313800 Zr
atom 7.6069962033592633 2.6359298199743204 7.4284221969313800 Zr
atom 2.6359264042561059 7.6069996190774694 7.4284221969313800 Zr
atom 7.6718641490620776 7.6718675647802872 7.4284221969313800 Zr
atom 2.7924035589813689 2.7924405974092217 -0.1389164192188715 S
atom 7.3690916232951453 2.3980588626198296 -0.1389164192188715 S
atom 2.3980218241919831 7.3691286617229848 -0.1389164192188715 S
atom 7.9097351064165649 7.9097721448444149 -0.1389164192188715 S
atom 2.2827670008152952 2.2828313980911163 4.8907355298303825 S
atom 7.8787008226132498 2.9076954207859087 4.8907355298303825 S
atom 2.9076310235100786 7.8787652198890639 4.8907355298303825 S
atom 7.4000985482504804 7.4001629455263052 4.8907355298303825 S
atom 2.5220999866007814 0.0365706059197863 2.1965471265954002 S
atom 7.5663185546168217 0.1097003313351321 2.7014829755600598 S
atom 2.5952487555136607 5.0807701304382826 2.7014829755600598 S
atom 7.6394315340359595 5.1539021533549771 2.1965471265954002 S
atom 2.5220999866007814 0.0365706059197863 7.5849239330653520 S
atom 7.5663185546168217 0.1097003313351321 7.0799880841007035 S
atom 2.5952487555136607 5.0807701304382826 7.0799880841007035 S
atom 7.6394315340359595 5.1539021533549771 7.5849239330653520 S
atom 0.0365602682462301 2.5221006866683893 2.1965471265954002 S
atom 5.0807620902660737 2.5952136660875422 2.7014829755600598 S
atom 0.1096922911629156 7.5662834651907005 2.7014829755600598 S
atom 5.1538918156814129 7.6394322341035874 2.1965471265954002 S
atom 0.0365602682462301 2.5221006866683893 7.5849239330653520 S
atom 5.0807620902660737 2.5952136660875422 7.0799880841007035 S
atom 0.1096922911629156 7.5662834651907005 7.0799880841007035 S
atom 5.1538918156814129 7.6394322341035874 7.5849239330653520 S
atom -0.0908883502402696 -0.0908948530900542 9.5051535165939693 Ba
atom 5.1350955263592235 0.1640192244062856 9.5051535165939693 Ba
atom 0.1640257272560700 5.1350890235094440 9.5051535165939693 Ba
atom 5.0264431971949195 5.0264366943451311 9.5051535165939693 Ba
atom 2.7924035589813689 2.7924405974092217 9.9203874788796185 S
atom 7.3690916232951453 2.3980588626198305 9.9203874788796185 S
atom 2.3980218241919831 7.3691286617229856 9.9203874788796185 S
atom 7.9097351064165649 7.9097721448444149 9.9203874788796185 S
atom 2.4677774234773215 2.4677709206275380 12.9922299206257943 Ba
atom 7.6937613000768259 2.7226849981238797 12.9922299206257943 Ba
atom 2.7226915009736623 7.6937547972270375 12.9922299206257943 Ba
atom 7.5851089709125041 7.5851024680627237 12.9922299206257943 Ba
atom 2.5861746589927530 2.5860583706389000 17.6066479073893660 Ba
atom 7.5754738500654577 2.6042877626084509 17.6066479073893660 Ba
atom 2.6044040509623030 7.5753575617116136 17.6066479073893660 Ba
atom 7.7035062064279414 7.7033899180740812 17.6066479073893660 Ba
atom 5.1131983753444814 5.1132017910626919 15.0689612402883775 Zr
atom 10.1656619770768479 5.1945955936919104 15.0689612402883775 Zr
atom 5.1945921779736999 10.1656653927950593 15.0689612402883775 Zr
atom 10.2305299227796844 10.2305333384978887 15.0689612402883775 Zr
atom 5.1131983753444814 5.1132017910626919 20.1443345744903368 Zr
atom 10.1656619770768479 5.1945955936919104 20.1443345744903368 Zr
atom 5.1945921779736999 10.1656653927950593 20.1443345744903368 Zr
atom 10.2305299227796844 10.2305333384978887 20.1443345744903368 Zr
atom 5.3510693326989704 5.3511063711268116 12.5769959583401238 S
atom 9.9277573970127246 4.9567246363374249 12.5769959583401238 S
atom 4.9566875979095766 9.9277944354405765 12.5769959583401238 S
atom 10.4684008801341442 10.4684379185620013 12.5769959583401238 S
atom 4.8414327745328984 4.8414971718087143 17.6066479073893660 S
atom 10.4373665963308397 5.4663611945035058 17.6066479073893660 S
atom 5.4662967972276846 10.4374309936066663 17.6066479073893660 S
atom 9.9587643219680597 9.9588287192438969 17.6066479073893660 S
atom 5.0807657603183767 2.5952363796373774 14.9124595041543913 S
atom 10.1249843283344187 2.6683661050527268 15.4173953531190513 S
atom 5.1539145292312512 7.6394359041558779 15.4173953531190513 S
atom 10.1980973077535708 7.7125679270725760 14.9124595041543913 S
atom 5.0807657603183767 2.5952363796373774 20.3008363106243657 S
atom 10.1249843283344187 2.6683661050527268 19.7959004616596879 S
atom 5.1539145292312512 7.6394359041558779 19.7959004616596879 S
atom 10.1980973077535708 7.7125679270725760 20.3008363106243657 S
atom 2.5952260419638238 5.0807664603859939 14.9124595041543913 S
atom 7.6394278639836752 5.1538794398051344 15.4173953531190513 S
atom 2.6683580648805103 10.1249492389083038 15.4173953531190513 S
atom 7.7125575893990055 10.1980980078211658 14.9124595041543913 S
atom 2.5952260419638238 5.0807664603859939 20.3008363106243657 S
atom 7.6394278639836752 5.1538794398051344 19.7959004616596879 S
atom 2.6683580648805103 10.1249492389083038 19.7959004616596879 S
atom 7.7125575893990055 10.1980980078211658 20.3008363106243657 S
atom 2.4677774234773211 2.4677709206275380 22.2210658941529609 Ba
atom 7.6937613000768259 2.7226849981238797 22.2210658941529609 Ba
atom 2.7226915009736623 7.6937547972270375 22.2210658941529609 Ba
atom 7.5851089709125041 7.5851024680627237 22.2210658941529609 Ba
atom 5.3510693326989704 5.3511063711268116 22.6362998564386153 S
atom 9.9277573970127246 4.9567246363374258 22.6362998564386153 S
atom 4.9566875979095766 9.9277944354405765 22.6362998564386153 S
atom 10.4684008801341442 10.4684379185620013 22.6362998564386153 S
