#=======================================================
# FHI-aims file: sym_relax/sym_relax_RP_10_Rx0Rz_0Ry0.in
# Created using the Atomic Simulation Environment (ASE)
# Mon Mar 17 17:50:06 2025
#=======================================================
lattice_vector 9.9584423113701668 0.0000000000000000 0.0091536781537347 
lattice_vector 0.0000000000000000 10.0831046278843424 -0.0000000000000000 
lattice_vector 0.0976827439828229 -0.0000000000000001 105.8417444658753084 
atom -0.1990610527652127 -0.0000000000000000 0.0498563068744306 Ba
atom 5.0353172748729307 0.0000000000000000 0.0543874762982451 Ba
atom 0.0560961191878244 5.0415523139421703 0.0498106372213779 Ba
atom 4.7801601029198739 5.0415523139421703 0.0544331459512980 Ba
atom -0.0647429072483164 -0.0000000000000000 4.7579313081083816 Ba
atom 4.8409272017639218 -0.0000000000000000 4.7288746603632905 Ba
atom -0.1382939539211697 5.0415523139421703 4.7242978212864175 Ba
atom 4.9144782484367679 5.0415523139421703 4.7625081471852440 Ba
atom 2.4315064013209029 2.5106993700960651 2.1341847616711576 Zr
atom 7.4107275570059814 2.5308529438460976 2.1387616007480297 Zr
atom 2.4315064013209029 7.5724052577882706 2.1341847616711576 Zr
atom 7.4107275570059814 7.5522516840382234 2.1387616007480288 Zr
atom 2.4605756379587591 2.5073331399135559 7.2220952196865573 Zr
atom 7.4397967936438514 2.5342191740286011 7.2266720587634357 Zr
atom 2.4605756379587591 7.5757714879707523 7.2220952196865555 Zr
atom 7.4397967936438514 7.5488854538557337 7.2266720587634365 Zr
atom 2.4458064777931248 2.7233416855457286 -0.3563739296305083 S
atom 7.4250276334781962 2.3182106283964274 -0.3517970905536414 S
atom 2.4458064777931257 7.3597629423385955 -0.3563739296305085 S
atom 7.4250276334781944 7.7648939994878932 -0.3517970905536414 S
atom 2.4568548434272133 2.2625422584619077 4.7209994669146162 S
atom 7.4360759991123242 2.7790100554802586 4.7255763059914724 S
atom 2.4568548434272133 7.8205623694224196 4.7209994669146145 S
atom 7.4360759991123242 7.3040945724040629 4.7255763059914697 S
atom 2.3453248287247788 -0.0000000000000000 2.0009194913025201 S
atom 7.5000119011077064 0.0000000000000000 2.4766002527029283 S
atom 2.5207907454226270 5.0415523139421703 2.4720234136260575 S
atom 7.3245459844098608 5.0415523139421703 2.0054963303793856 S
atom 2.9450379111263962 -0.0000000000000000 7.4395997873061992 S
atom 7.0042983019264184 -0.0000000000000000 7.0441367913722548 S
atom 2.0250771462413328 5.0415523139421703 7.0395599522953889 S
atom 7.9242590668114721 5.0415523139421703 7.4441766263830536 S
atom -0.0530313473890695 2.6198194392256795 2.2578347746260365 S
atom 4.9261898082960132 2.4217328747164868 2.2624116137029016 S
atom -0.0530313473890695 7.4632851886586646 2.2578347746260365 S
atom 4.9261898082960132 7.6613717531678409 2.2624116137029016 S
atom -0.0249257720507690 2.0384546699954780 7.2474122739513023 S
atom 4.9542953836343226 3.0030976439466919 7.2519891130281700 S
atom -0.0249257720507690 8.0446499578888684 7.2474122739513041 S
atom 4.9542953836343226 7.0800069839376398 7.2519891130281700 S
atom -0.0561576597630392 -0.0000000000000000 9.7674352564139575 Ba
atom 5.0713158952151041 -0.0000000000000000 9.7842765877316360 Ba
atom 0.0920947395300066 5.0415523139421703 9.7796997486547781 Ba
atom 4.9230634959220465 5.0415523139421703 9.7720120954908456 Ba
atom 0.0819027335284674 -0.0000000000000000 14.8351703980850740 Ba
atom 4.9367431323116344 -0.0000000000000000 14.8298852770105967 Ba
atom -0.0424780233734605 5.0415523139421703 14.8253084379337441 Ba
atom 5.0611238892135537 5.0415523139421703 14.8397472371619532 Ba
atom 2.4968605181613355 2.5234010278921386 12.2880678308834721 Zr
atom 7.4760816738464166 2.5181512860500259 12.2926446699603407 Zr
atom 2.4968605181613355 7.5597035999921944 12.2880678308834685 Zr
atom 7.4760816738464166 7.5649533418342987 12.2926446699603407 Zr
atom 2.5042754454597578 2.5200788453279088 17.3588431560380805 Zr
atom 7.4834966011448394 2.5214734686142481 17.3634199951150165 Zr
atom 2.5042754454597578 7.5630257825563953 17.3588431560380876 Zr
atom 7.4834966011448394 7.5616311592700889 17.3634199951150094 Zr
atom 2.4725250547385738 2.7078216066057297 9.7682637053695949 S
atom 7.4517462104236705 2.3337307073364317 9.7728405444464563 S
atom 2.4725250547385738 7.3752830212786087 9.7682637053696020 S
atom 7.4517462104236705 7.7493739205478889 9.7728405444464492 S
atom 2.4915391026991722 2.3813654633917603 14.8310282526243125 S
atom 7.4707602583842565 2.6601868505504087 14.8356050917011899 S
atom 2.4915391026991731 7.7017391644925617 14.8310282526243018 S
atom 7.4707602583842601 7.4229177773339119 14.8356050917011881 S
atom 2.0275111252949101 -0.0000000000000000 12.1768974013756086 S
atom 7.9494830057624259 -0.0000000000000000 12.4394171349757894 S
atom 2.9702618500773492 5.0415523139421703 12.4348402958989066 S
atom 7.0067322809800121 5.0415523139421703 12.1814742404524807 S
atom 2.9832048842093561 -0.0000000000000000 17.4705993919947389 S
atom 7.0047776179565790 -0.0000000000000000 17.2666567340854193 S
atom 2.0255564622714730 5.0415523139421703 17.2620798950085401 S
atom 7.9624260398944386 5.0415523139421703 17.4751762310715932 S
atom 0.0020192940835570 3.0147083517539426 12.3033796941398634 S
atom 4.9812404497686247 2.0268439621882233 12.3079565332167178 S
atom 0.0020192940835571 7.0683962761303958 12.3033796941398634 S
atom 4.9812404497686247 8.0562606656960991 12.3079565332167107 S
atom 0.0123004144671083 2.0202739654087454 17.3639058615921478 S
atom 4.9915215701522051 3.0212783485334249 17.3684827006689879 S
atom 0.0123004144671083 8.0628306624756139 17.3639058615921549 S
atom 4.9915215701522051 7.0618262793508908 17.3684827006689879 S
atom -0.0356620771151929 -0.0000000000000000 19.8904228027859595 Ba
atom 5.0550121309202778 -0.0000000000000000 19.9042147551879722 Ba
atom 0.0757909752351853 5.0415523139421703 19.8996379161110930 Ba
atom 4.9435590785699057 5.0415523139421703 19.8949996418627855 Ba
atom 0.0769733613538314 -0.0000000000000000 24.9671572162637787 Ba
atom 4.9483245603608843 -0.0000000000000000 24.9627707859615633 Ba
atom -0.0308965953241989 5.0415523139421703 24.9581939468846983 Ba
atom 5.0561945170389073 5.0415523139421703 24.9717340553406046 Ba
atom 2.5098326856684214 2.5209213640811177 22.4295889267282398 Zr
atom 7.4890538413535079 2.5206309498610486 22.4341657658050728 Zr
atom 2.5098326856684214 7.5621832638032105 22.4295889267282398 Zr
atom 7.4890538413535079 7.5624736780232888 22.4341657658050657 Zr
atom 2.5154652360463037 2.5209213640811132 27.5003390754970987 Zr
atom 7.4946863917313973 2.5206309498610451 27.5049159145739885 Zr
atom 2.5154652360463037 7.5621832638032078 27.5003390754970987 Zr
atom 7.4946863917313973 7.5624736780232924 27.5049159145739885 Zr
atom 2.5036171853767879 2.6434065051537075 19.8975064984374832 S
atom 7.4828383410618891 2.3981458087884606 19.9020833375143482 S
atom 2.5036171853767870 7.4396981227306194 19.8975064984374690 S
atom 7.4828383410618908 7.6849588190958773 19.9020833375143660 S
atom 2.5126489608573670 2.4022161484816591 24.9649640011126834 S
atom 7.4918701165424517 2.6393361654605050 24.9695408401895591 S
atom 2.5126489608573670 7.6808884794026806 24.9649640011126834 S
atom 7.4918701165424517 7.4437684624238170 24.9695408401895591 S
atom 2.0288967188052647 -0.0000000000000000 22.3351937913297682 S
atom 7.9697875154415012 -0.0000000000000000 22.5330294905292483 S
atom 2.9905663597564041 5.0415523139421703 22.5284526514523726 S
atom 7.0081178744903525 5.0415523139421703 22.3397706304066475 S
atom 2.9964012029094569 -0.0000000000000000 27.5947342108956057 S
atom 7.0139527176434147 -0.0000000000000000 27.4060521898498166 S
atom 2.0347315619583162 5.0415523139421703 27.4014753507729907 S
atom 7.9756223585945669 5.0415523139421703 27.5993110499724743 S
atom 0.0195995378302495 3.0230672145348350 22.4295503653035588 S
atom 4.9988206935153272 2.0184850994073207 22.4341272043804523 S
atom 0.0195995378302495 7.0600374133494830 22.4295503653035446 S
atom 4.9988206935153272 8.0646195284770190 22.4341272043804238 S
atom 0.0264772281993827 2.0184850994073202 27.4958007978449679 S
atom 5.0056983838844742 3.0230672145348350 27.5003776369217761 S
atom 0.0264772281993827 8.0646195284770190 27.4958007978449679 S
atom 5.0056983838844742 7.0600374133494812 27.5003776369217761 S
atom -0.0297142092055529 -0.0000000000000000 30.0257132470374337 Ba
atom 5.0609599988299170 -0.0000000000000000 30.0395051994394535 Ba
atom 0.0817388431448248 5.0415523139421703 30.0349283603625921 Ba
atom 4.9495069464795378 5.0415523139421703 30.0302900861143272 Ba
atom 0.0885547894030932 -0.0000000000000000 35.1000427252148484 Ba
atom 4.9433951881862530 -0.0000000000000000 35.0947576041402414 Ba
atom -0.0358259674988352 5.0415523139421703 35.0901807650633302 Ba
atom 5.0677759450881883 5.0415523139421703 35.1046195642916956 Ba
atom 2.5210224762549687 2.5200788453279062 32.5710848461872260 Zr
atom 7.5002436319400791 2.5214734686142473 32.5756616852641372 Zr
atom 2.5210224762549687 7.5630257825563936 32.5710848461872118 Zr
atom 7.5002436319400791 7.5616311592700871 32.5756616852641372 Zr
atom 2.5284374035533839 2.5234010278921377 37.6418601713419108 Zr
atom 7.5076585592384895 2.5181512860500215 37.6464370104187296 Zr
atom 2.5284374035533839 7.5597035999921909 37.6418601713419108 Zr
atom 7.5076585592384877 7.5649533418342934 37.6464370104187438 Zr
atom 2.5216807363379350 2.6434065051537075 30.0324215037879121 S
atom 7.5009018920230197 2.3981458087884606 30.0369983428647593 S
atom 2.5216807363379345 7.4396981227306194 30.0324215037879121 S
atom 7.5009018920230197 7.6849588190958773 30.0369983428647878 S
atom 2.5337588190155440 2.3813654633917594 35.0988997496009674 S
atom 7.5129799747006283 2.6601868505504087 35.1034765886778715 S
atom 2.5337588190155440 7.7017391644925617 35.0988997496009674 S
atom 7.5129799747006301 7.4229177773339083 35.1034765886778715 S
atom 2.0420930375053716 -0.0000000000000000 32.4593286102307061 S
atom 7.9789626151283359 -0.0000000000000000 32.6724249462936527 S
atom 2.9997414594432503 5.0415523139421703 32.6678481072167557 S
atom 7.0213141931904737 5.0415523139421703 32.4639054493074894 S
atom 2.9977867964198111 -0.0000000000000000 37.7530306008498115 S
atom 7.0342572273224828 -0.0000000000000000 37.4996645454032560 S
atom 2.0550360716373874 5.0415523139421703 37.4950877063264585 S
atom 7.9770079521048780 5.0415523139421703 37.7576074399266730 S
atom 0.0337763515625240 3.0212783485334249 32.5614453015563754 S
atom 5.0129975072476070 2.0202739654087445 32.5660221406333008 S
atom 0.0337763515625240 7.0618262793508908 32.5614453015563896 S
atom 5.0129975072476070 8.0628306624756139 32.5660221406332795 S
atom 0.0440574719460751 2.0268439621882224 37.6219714690087699 S
atom 5.0232786276311820 3.0147083517539452 37.6265483080855248 S
atom 0.0440574719460751 8.0562606656960991 37.6219714690087699 S
atom 5.0232786276311820 7.0683962761303940 37.6265483080855248 S
atom -0.0460179735003740 -0.0000000000000000 40.1456514144937628 Ba
atom 5.0814555814777727 -0.0000000000000000 40.1624927458113703 Ba
atom 0.1022344257926716 5.0415523139421703 40.1579159067345159 Ba
atom 4.9332031821847151 5.0415523139421703 40.1502282535705746 Ba
atom 0.1843707199508023 -0.0000000000000000 45.2010533418620710 Ba
atom 5.0900408289630557 -0.0000000000000000 45.1719966941169417 Ba
atom 0.1108196732779494 5.0415523139421703 45.1674198550400661 Ba
atom 5.1635918756358956 5.0415523139421703 45.2056301809389893 Ba
atom 2.5647222837559727 2.5073331399135550 42.7078327825388016 Zr
atom 7.5439434394410645 2.5342191740285993 42.7124096216155920 Zr
atom 2.5647222837559718 7.5757714879707541 42.7078327825388016 Zr
atom 7.5439434394410645 7.5488854538557284 42.7124096216155777 Zr
atom 2.5937915203938173 2.5106993700960669 47.7957432405542662 Zr
atom 7.5730126760789265 2.5308529438460976 47.8003200796310779 Zr
atom 2.5937915203938173 7.5724052577882688 47.7957432405542662 Zr
atom 7.5730126760789265 7.5522516840382199 47.8003200796310779 Zr
atom 2.5527728669761505 2.7078216066057306 40.1616642968558395 S
atom 7.5319940226612330 2.3337307073364317 40.1662411359326796 S
atom 2.5527728669761505 7.3752830212786087 40.1616642968558395 S
atom 7.5319940226612330 7.7493739205478889 40.1662411359326867 S
atom 2.5684430782875110 2.2625422584619068 45.2089285353107684 S
atom 7.5476642339725846 2.7790100554802550 45.2135053743876867 S
atom 2.5684430782875110 7.8205623694224196 45.2089285353107613 S
atom 7.5476642339725846 7.3040945724040629 45.2135053743876867 S
atom 2.0802600105883298 -0.0000000000000000 42.4903282149190957 S
atom 7.9794419311584814 -0.0000000000000000 42.8949448890068297 S
atom 3.0002207754733874 5.0415523139421703 42.8903680499300037 S
atom 7.0594811662734198 5.0415523139421703 42.4949050539959785 S
atom 2.6799730929899455 -0.0000000000000000 47.9290085109228485 S
atom 7.4837283319771801 -0.0000000000000000 47.4624814276762521 S
atom 2.5045071762921012 5.0415523139421703 47.4579045885993196 S
atom 7.6591942486750435 5.0415523139421703 47.9335853499996460 S
atom 0.0710025380804012 3.0030976439466928 42.6779388891972076 S
atom 5.0502236937655081 2.0384546699954771 42.6825157282740832 S
atom 0.0710025380804012 7.0800069839376363 42.6779388891972076 S
atom 5.0502236937655081 8.0446499578888684 42.6825157282740832 S
atom 0.0991081134187032 2.4217328747164886 47.6675163885224507 S
atom 5.0783292691037962 2.6198194392256813 47.6720932275992979 S
atom 0.0991081134187032 7.6613717531678374 47.6675163885224507 S
atom 5.0783292691037962 7.4632851886586593 47.6720932275992979 S
atom -0.0100193531581910 -0.0000000000000001 49.8755405259271924 Ba
atom 5.2243589744799435 -0.0000000000000000 49.8800716953509209 Ba
atom 0.2451378187948459 5.0415523139421703 49.8754948562739955 Ba
atom 4.9692018025268911 5.0415523139421703 49.8801173650040752 Ba
atom 2.5794914439216017 2.7233416855457295 50.2863019318558955 S
atom 7.5587125996067037 2.3182106283964266 50.2908787709326930 S
atom 2.5794914439216017 7.3597629423385937 50.2863019318558955 S
atom 7.5587125996067037 7.7648939994878914 50.2908787709326930 S
atom 2.5841448923792307 2.6753527564918476 53.3964173411093057 Ba
atom 7.5633660480643092 2.3661995574503134 53.4009941801861885 Ba
atom 2.5841448923792316 7.4077518713924819 53.3964173411093199 Ba
atom 7.5633660480643083 7.7169050704340085 53.4009941801861743 Ba
atom 2.5797002314486237 2.5024433798901420 58.0867061530241102 Ba
atom 7.5589213871337115 2.5391089340520221 58.0912829921009717 Ba
atom 2.5797002314486237 7.5806612479941986 58.0867061530240818 Ba
atom 7.5589213871337115 7.5439956938322954 58.0912829921009859 Ba
atom 5.0892503140812781 5.0415523139421703 55.4738120662882181 Zr
atom 10.0336069236988301 5.0415523139421703 55.4786530273838068 Zr
atom 5.0543857680137370 10.0831046278843406 55.4740761883069382 Zr
atom 10.0684714697663615 10.0831046278843406 55.4783889053651222 Zr
atom 5.0680708480002883 5.0415523139421703 60.4969563548306795 Zr
atom 10.0453663019519102 5.0415523139421703 60.5016512483994333 Zr
atom 5.0661451462668134 10.0831046278843406 60.4970744093225790 Zr
atom 10.0472920036853584 10.0831046278843406 60.5015331939075338 Zr
atom 4.7827442808450193 5.0415523139421703 52.9831382455124924 S
atom 10.3440739925440273 5.0415523139421703 52.9886460776292267 S
atom 5.3648528368589385 10.0831046278843406 52.9840692385523937 S
atom 9.7619654365301596 10.0831046278843406 52.9877150845892899 S
atom 5.5372213060781785 5.0415523139421703 58.0189625934958570 S
atom 9.5807368751997508 5.0415523139421703 58.0227471673836206 S
atom 4.6015157195146426 10.0831046278843406 58.0181703283067023 S
atom 10.5164424617632708 10.0831046278843406 58.0235394325727469 S
atom 5.0717258113018060 2.5208235174586267 55.6021648335200993 S
atom 10.0509469669868796 2.5207287964835348 55.6067416725968684 S
atom 5.0717258113018060 7.5622811104257073 55.6021648335200993 S
atom 10.0509469669868796 7.5623758314007947 55.6067416725968684 S
atom 5.0670821635497303 2.5207739234250042 60.5117385322848307 S
atom 10.0463033192348394 2.5207783905171564 60.5163153713616850 S
atom 5.0670821635497303 7.5623307044593115 60.5117385322848307 S
atom 10.0463033192348394 7.5623262373671754 60.5163153713616850 S
atom 2.5818129081949683 5.0415523139421703 55.9311768634503395 S
atom 7.5616820431963347 5.0415523139421703 55.1466974203018623 S
atom 2.5824608875112505 10.0831046278843406 55.1421205812250861 S
atom 7.5610340638800642 10.0831046278843406 55.9357537025270872 S
atom 2.5779210927479825 5.0415523139421703 60.0110476061404299 S
atom 7.5562469316403460 5.0415523139421703 60.9974660395495221 S
atom 2.5770257759552599 10.0831046278843406 60.9928892004725256 S
atom 7.5571422484330748 10.0831046278843406 60.0156244452173482 S
atom 2.5751724268499210 2.5222311185840112 63.0019941098301217 Ba
atom 7.5543935825350097 2.5193211953581538 63.0065709489070116 Ba
atom 2.5751724268499201 7.5608735093003201 63.0019941098301146 Ba
atom 7.5543935825350097 7.5637834325261730 63.0065709489070116 Ba
atom 2.5705874352804230 2.5187982092448706 67.9579629995385375 Ba
atom 7.5498085909655179 2.5227541046972997 67.9625398386153705 Ba
atom 2.5705874352804230 7.5643064186394522 67.9579629995385091 Ba
atom 7.5498085909655179 7.5603505231870276 67.9625398386153421 Ba
atom 5.0608480379275029 5.0415523139421703 65.4675037218346034 Zr
atom 10.0433735011354432 5.0415523139421703 65.4721633505320710 Zr
atom 5.0641523454503350 10.0831046278843406 65.4675865114551669 Zr
atom 10.0400691936125988 10.0831046278843406 65.4720805609116212 Zr
atom 5.0582861513163833 5.0415523139421703 70.4364868926749352 Zr
atom 10.0367913079765092 5.0415523139421703 70.4411008900209339 Zr
atom 5.0575701522914054 10.0831046278843406 70.4365240509440156 Zr
atom 10.0375073070014729 10.0831046278843406 70.4410637317518393 Zr
atom 4.5584420846183535 5.0415523139421703 62.9873884078304229 S
atom 10.5503900684376930 5.0415523139421703 62.9929384572401503 S
atom 5.5711689127525927 10.0831046278843406 62.9883616181632888 S
atom 9.5376632403034556 10.0831046278843406 62.9919652469072133 S
atom 5.5672507950395431 5.0415523139421703 67.9546773146458634 S
atom 9.5323834865588726 5.0415523139421703 67.9583512971871642 S
atom 4.5531623308737812 10.0831046278843406 67.9537744581101748 S
atom 10.5464719507246816 10.0831046278843406 67.9592541537225827 S
atom 5.0624973144003196 2.5207728720807658 65.4744072000832773 S
atom 10.0417184700854296 2.5207794418614000 65.4789840391601672 S
atom 5.0624973144003196 7.5623317558035650 65.4744072000832347 S
atom 10.0417184700854296 7.5623251860229335 65.4789840391601672 S
atom 5.0579154190779523 2.5207735123631188 70.4385429708275836 S
atom 10.0371365747630357 2.5207788015790493 70.4431198099044877 S
atom 5.0579154190779505 7.5623311155212090 70.4385429708275552 S
atom 10.0371365747630357 7.5623258263052797 70.4431198099045162 S
atom 2.5724285492595045 5.0415523139421703 65.9750229323645101 S
atom 7.5525740001018509 5.0415523139421703 64.9760750475696085 S
atom 2.5733528444167573 10.0831046278843406 64.9714982084928039 S
atom 7.5516497049445999 10.0831046278843406 65.9795997714412863 S
atom 2.5687779316851023 5.0415523139421703 69.9339140408513344 S
atom 7.5470672726823143 5.0415523139421703 70.9442173611358413 S
atom 2.5678461169972353 10.0831046278843406 70.9396405220588804 S
atom 7.5479990873702061 10.0831046278843406 69.9384908799283949 S
atom 2.5660265628993151 2.5219039536582573 72.9199595478187916 Ba
atom 7.5452477185844264 2.5196483602839130 72.9245363868956673 Ba
atom 2.5660265628993137 7.5612006742260753 72.9199595478187632 Ba
atom 7.5452477185844247 7.5634562676004196 72.9245363868956389 Ba
atom 2.5614903328487739 2.5198563893817791 77.8858362340500037 Ba
atom 7.5407114885338737 2.5216959245603845 77.8904130731271636 Ba
atom 2.5614903328487739 7.5632482385025437 77.8858362340500037 Ba
atom 7.5407114885338737 7.5614087033239556 77.8904130731271636 Ba
atom 5.0532920478560612 5.0415523139421703 75.4043472659413681 Zr
atom 10.0326430088709717 5.0415523139421703 75.4089706163635043 Zr
atom 5.0534218531858599 10.0831046278843406 75.4043937772867849 Zr
atom 10.0325132035411642 10.0831046278843406 75.4089241050182864 Zr
atom 5.0487799681967962 5.0415523139421703 80.3718555298902828 Zr
atom 10.0281309292116756 5.0415523139421703 80.3764788803125754 Zr
atom 5.0489097735265807 10.0831046278843406 80.3719020412356002 Zr
atom 10.0280011238818592 10.0831046278843406 80.3764323689671869 Zr
atom 4.5477553596487654 5.0415523139421703 72.9207996732541517 S
atom 10.5427640143347237 5.0415523139421703 72.9263168310666288 S
atom 5.5635428586496261 10.0831046278843406 72.9217399919897815 S
atom 9.5269765153338710 10.0831046278843406 72.9253765123308852 S
atom 5.5593576880173234 5.0415523139421703 77.8885779365319735 S
atom 9.5220652890504098 5.0415523139421703 77.8922482097217994 S
atom 4.5428441333653389 10.0831046278843406 77.8876713706449095 S
atom 10.5385788437024033 10.0831046278843406 77.8931547756088491 S
atom 5.0533606343744060 2.5207693534505942 75.4049713786778142 S
atom 10.0325817900595116 2.5207829604915717 75.4095482177549030 S
atom 5.0533606343744051 7.5623352744337335 75.4049713786778426 S
atom 10.0325817900595116 7.5623216673927534 75.4095482177548746 S
atom 5.0488411870082395 2.5207829604915726 80.3712779284992820 S
atom 10.0280623426933015 2.5207693534505933 80.3758547675760013 S
atom 5.0488411870082395 7.5623216673927498 80.3712779284992820 S
atom 10.0280623426933015 7.5623352744337335 80.3758547675759729 S
atom 2.5632971382417034 5.0415523139421703 75.9064317914213404 S
atom 7.5434333793409678 5.0415523139421703 74.9033864303291068 S
atom 2.5642122236558862 10.0831046278843406 74.8988095912522311 S
atom 7.5425182939268147 10.0831046278843406 75.9110086304983298 S
atom 2.5596835274558383 5.0415523139421703 79.8652406766789227 S
atom 7.5379895977267628 5.0415523139421703 80.8774397159249361 S
atom 2.5587684420416732 10.0831046278843406 80.8728628768481030 S
atom 7.5389046831409132 10.0831046278843406 79.8698175157556705 S
atom 2.5569541027982283 2.5219039536582573 82.8517129202814715 Ba
atom 7.5361752584833361 2.5196483602839113 82.8562897593583187 Ba
atom 2.5569541027982283 7.5612006742260753 82.8517129202814431 Ba
atom 7.5361752584833344 7.5634562676004213 82.8562897593582903 Ba
atom 2.5523932304171235 2.5187982092448697 87.8137094685616972 Ba
atom 7.5316143861022251 2.5227541046972979 87.8182863076382745 Ba
atom 2.5523932304171235 7.5643064186394522 87.8137094685616972 Ba
atom 7.5316143861022251 7.5603505231870285 87.8182863076382887 Ba
atom 5.0446316690912409 5.0415523139421703 85.3397252562331801 Zr
atom 10.0231368257513047 5.0415523139421703 85.3443392535789656 Zr
atom 5.0439156700662551 10.0831046278843406 85.3397624145019620 Zr
atom 10.0238528247763163 10.0831046278843406 85.3443020953098994 Zr
atom 5.0380494759323140 5.0415523139421703 90.3086627957218866 Zr
atom 10.0205749391402090 5.0415523139421703 90.3133224244191837 Zr
atom 5.0413537834551398 10.0831046278843406 90.3087455853423506 Zr
atom 10.0172706316173823 10.0831046278843406 90.3132396347989470 Zr
atom 4.5386589627330149 5.0415523139421703 82.8545093151871015 S
atom 10.5336676174189474 5.0415523139421703 82.8600264730000049 S
atom 5.5544464617338534 10.0831046278843406 82.8554496339231008 S
atom 9.5178801184180930 10.0831046278843406 82.8590861542639345 S
atom 5.5490394905088776 5.0415523139421703 87.8224748490669214 S
atom 9.5141721820281635 5.0415523139421703 87.8261488316081937 S
atom 4.5349510263430686 10.0831046278843406 87.8215719925313323 S
atom 10.5282606461939761 10.0831046278843406 87.8270516881436265 S
atom 5.0442864023046958 2.5207788015790484 85.3377063363494273 S
atom 10.0235075579897721 2.5207735123631210 85.3422831754261608 S
atom 5.0442864023046958 7.5623258263052797 85.3377063363494273 S
atom 10.0235075579897686 7.5623311155212072 85.3422831754261608 S
atom 5.0397045069823134 2.5207794418614018 90.3018421070935915 S
atom 10.0189256626674226 2.5207728720807641 90.3064189461704814 S
atom 5.0397045069823134 7.5623251860229352 90.3018421070936057 S
atom 10.0189256626674155 7.5623317558035650 90.3064189461705240 S
atom 2.5542027340124442 5.0415523139421703 85.8377584272488292 S
atom 7.5343557043854217 5.0415523139421703 84.8366087851180595 S
atom 2.5551345487003152 10.0831046278843406 84.8320319460412833 S
atom 7.5334238896975219 10.0831046278843406 85.8423352663255770 S
atom 2.5505521164380518 5.0415523139421703 89.7966495357356820 S
atom 7.5288489769658771 5.0415523139421703 90.8047510986842354 S
atom 2.5496278212807848 10.0831046278843406 90.8001742596074450 S
atom 7.5297732721231272 10.0831046278843406 89.8012263748126713 S
atom 2.5478082388476322 2.5222311185840138 92.7696783582699851 Ba
atom 7.5270293945327360 2.5193211953581542 92.7742551973468323 Ba
atom 2.5478082388476322 7.5608735093003219 92.7696783582700419 Ba
atom 7.5270293945327360 7.5637834325261766 92.7742551973468608 Ba
atom 2.5432804342489321 2.5024433798901455 97.6849663150763092 Ba
atom 7.5225015899340208 2.5391089340520248 97.6895431541528154 Ba
atom 2.5432804342489321 7.5806612479942022 97.6849663150763092 Ba
atom 7.5225015899340208 7.5439956938322936 97.6895431541528154 Ba
atom 5.0360566751158311 5.0415523139421703 95.2791748978546309 Zr
atom 10.0133521290674601 5.0415523139421703 95.2838697914231147 Zr
atom 5.0341309733823643 10.0831046278843406 95.2792929523462249 Zr
atom 10.0152778308009367 10.0831046278843406 95.2837517369315918 Zr
atom 5.0478160533689014 5.0415523139421703 100.3021731188701438 Zr
atom 9.9921726629864374 5.0415523139421703 100.3070140799655405 Zr
atom 5.0129515073013637 10.0831046278843406 100.3024372408887217 Zr
atom 10.0270372090540096 10.0831046278843406 100.3067499579471047 Zr
atom 4.5310329086300376 5.0415523139421703 92.7878876890138287 S
atom 10.5229808924493629 5.0415523139421703 92.7934377384235063 S
atom 5.5437597367642679 10.0831046278843406 92.7888608993466448 S
atom 9.5102540643151201 10.0831046278843406 92.7924645280907754 S
atom 5.5006861018679905 5.0415523139421703 97.7580789788705573 S
atom 9.5442016709895423 5.0415523139421703 97.7618635527581148 S
atom 4.5649805153044518 10.0831046278843406 97.7572867136811396 S
atom 10.4799072575530552 10.0831046278843406 97.7626558179472909 S
atom 5.0351196578329134 2.5207783905171581 95.2645107748924431 S
atom 10.0143408135180128 2.5207739234250068 95.2690876139691625 S
atom 5.0351196578329134 7.5623262373671807 95.2645107748924147 S
atom 10.0143408135180128 7.5623307044593133 95.2690876139691341 S
atom 5.0304760100808394 2.5207287964835361 100.1740844736570324 S
atom 10.0096971657659335 2.5208235174586280 100.1786613127339507 S
atom 5.0304760100808394 7.5623758314007956 100.1740844736570608 S
atom 10.0096971657659335 7.5622811104257073 100.1786613127339791 S
atom 2.5450595729495662 5.0415523139421703 95.7606248619595988 S
atom 7.5251760454274130 5.0415523139421703 94.7833601067045350 S
atom 2.5459548897422946 10.0831046278843406 94.7787832676276167 S
atom 7.5242807286346460 10.0831046278843406 95.7652017010365739 S
atom 2.5411677575025795 5.0415523139421703 99.8404956046498029 S
atom 7.5197409338713905 5.0415523139421703 100.6341287259519106 S
atom 2.5405197781862952 10.0831046278843406 100.6295518868751202 S
atom 7.5203889131876887 10.0831046278843406 99.8450724437267070 S
atom 2.5388357733183162 2.6753527564918476 102.3752551269909503 Ba
atom 7.5180569290034365 2.3661995574503152 102.3798319660678402 Ba
atom 2.5388357733183162 7.4077518713924801 102.3752551269909503 Ba
atom 7.5180569290034365 7.7169050704340103 102.3798319660678118 Ba
atom 4.7373489845236927 5.0415523139421703 102.7921800686247025 S
atom 10.2986786962227086 5.0415523139421703 102.7976879007416500 S
atom 5.3194575405376057 10.0831046278843406 102.7931110616647032 S
atom 9.7165701402087770 10.0831046278843406 102.7967569077015781 S
