#=======================================================
# FHI-aims file: sym_relax/sym_relax_RP_7_00Rz_00Rz.in
# Created using the Atomic Simulation Environment (ASE)
# Mon Mar 17 15:40:59 2025
#=======================================================
lattice_vector 9.8994739917019086 -0.0000000531574541 -0.0000000000000000 
lattice_vector -0.0000000531574541 9.8994739917018819 -0.0000000000000000 
lattice_vector -0.0000000000000000 -0.0000000000000000 77.3882739361843335 
atom 0.0000000000000000 -0.0000000000000000 0.1613186127242324 Ba
atom 4.9497369958509561 -0.0000000265787272 0.1613186127242324 Ba
atom -0.0000000265787268 4.9497369958509410 0.1613186127242324 Ba
atom 4.9497369692722328 4.9497369692722053 0.1613186127242324 Ba
atom 0.0000000000000000 -0.0000000000000000 5.0704344776522543 Ba
atom 4.9497369958509561 -0.0000000265787272 5.0704344776522543 Ba
atom -0.0000000265787272 4.9497369958509410 5.0704344776522543 Ba
atom 4.9497369692722328 4.9497369692722053 5.0704344776522543 Ba
atom 2.4748684846361164 2.4748684846361027 2.4397429198480700 Zr
atom 7.4246054804870605 2.4748684580573799 2.4397429198480700 Zr
atom 2.4748684580573896 7.4246054804870498 2.4397429198480700 Zr
atom 7.4246054539083408 7.4246054539083186 2.4397429198480700 Zr
atom 2.4748684846361164 2.4748684846361027 7.5818518170567319 Zr
atom 7.4246054804870605 2.4748684580573799 7.5818518170567319 Zr
atom 2.4748684580573896 7.4246054804870498 7.5818518170567319 Zr
atom 7.4246054539083408 7.4246054539083186 7.5818518170567319 Zr
atom 2.4748684846361164 2.4748684846361027 -0.1038403510938453 S
atom 7.4246054804870605 2.4748684580573799 -0.1038403510938453 S
atom 2.4748684580573892 7.4246054804870498 -0.1038403510938453 S
atom 7.4246054539083408 7.4246054539083186 -0.1038403510938453 S
atom 2.4748684846361164 2.4748684846361027 5.0442718443070742 S
atom 7.4246054804870605 2.4748684580573799 5.0442718443070742 S
atom 2.4748684580573896 7.4246054804870498 5.0442718443070742 S
atom 7.4246054539083408 7.4246054539083186 5.0442718443070742 S
atom 2.0446423461067007 -0.0000059810266804 2.5338043722479626 S
atom 7.8548316455952092 0.0000059278692260 2.5338043722479626 S
atom 2.9050946231655241 4.9497429502988961 2.5338043722479626 S
atom 6.9943793153789251 4.9497309882455278 2.5338043722479626 S
atom 3.0113620016734584 0.0000001029965961 7.6040338715452087 S
atom 6.8881119900284453 -0.0000001561540501 7.6040338715452087 S
atom 1.9383749675987676 4.9497368662756198 7.6040338715452087 S
atom 7.9610989709456890 4.9497370722688094 7.6040338715452087 S
atom 0.0000059544479537 2.9050946497442411 2.5338043722479635 S
atom 4.9497310148242732 2.0446423195279699 2.5338043722479626 S
atom -0.0000060076054076 6.9943793419576368 2.5338043722479626 S
atom 4.9497429237201853 7.8548316190164540 2.5338043722479626 S
atom -0.0000001295753224 1.9383749941774893 7.6040338715452087 S
atom 4.9497370988475469 3.0113619750947227 7.6040338715452087 S
atom 0.0000000764178680 7.9610989975243838 7.6040338715452087 S
atom 4.9497368396969099 6.8881119634496972 7.6040338715452087 S
atom 0.0000000000000000 -0.0000000000000000 10.1585195762380973 Ba
atom 4.9497369958509561 -0.0000000265787272 10.1585195762380973 Ba
atom -0.0000000265787272 4.9497369958509410 10.1585195762380973 Ba
atom 4.9497369692722328 4.9497369692722053 10.1585195762380973 Ba
atom 0.0000000000000000 -0.0000000000000000 15.2659100885298287 Ba
atom 4.9497369958509561 -0.0000000265787272 15.2659100885298287 Ba
atom -0.0000000265787272 4.9497369958509410 15.2659100885298287 Ba
atom 4.9497369692722328 4.9497369692722053 15.2659100885298287 Ba
atom 2.4748684846361164 2.4748684846361027 12.7010005291359782 Zr
atom 7.4246054804870605 2.4748684580573799 12.7010005291359782 Zr
atom 2.4748684580573896 7.4246054804870498 12.7010005291359782 Zr
atom 7.4246054539083408 7.4246054539083186 12.7010005291359782 Zr
atom 2.4748684846361164 2.4748684846361027 17.8196683405687857 Zr
atom 7.4246054804870605 2.4748684580573799 17.8196683405687857 Zr
atom 2.4748684580573896 7.4246054804870498 17.8196683405687857 Zr
atom 7.4246054539083408 7.4246054539083186 17.8196683405687857 Zr
atom 2.4748684846361164 2.4748684846361027 10.1536868677743577 S
atom 7.4246054804870605 2.4748684580573799 10.1536868677743577 S
atom 2.4748684580573896 7.4246054804870498 10.1536868677743577 S
atom 7.4246054539083408 7.4246054539083186 10.1536868677743577 S
atom 2.4748684846361164 2.4748684846361027 15.2642165138432855 S
atom 7.4246054804870605 2.4748684580573799 15.2642165138432855 S
atom 2.4748684580573896 7.4246054804870498 15.2642165138432855 S
atom 7.4246054539083408 7.4246054539083186 15.2642165138432855 S
atom 1.9392820881570663 -0.0000000065156862 12.7132293348028842 S
atom 7.9601919035448345 -0.0000000466417682 12.7132293348028842 S
atom 3.0104548811151588 4.9497369757878928 12.7132293348028842 S
atom 6.8890190574292980 4.9497369627565231 12.7132293348028842 S
atom 3.0103950197434250 -0.0000000132796189 17.8196683405687857 S
atom 6.8890789719584866 -0.0000000398778359 17.8196683405687857 S
atom 1.9393419495287996 4.9497369825518316 17.8196683405687857 S
atom 7.9601319890156512 4.9497369559925932 17.8196683405687857 S
atom -0.0000000200630406 3.0104549076938771 12.7132293348028842 S
atom 4.9497369893352658 1.9392820615783350 12.7132293348028842 S
atom -0.0000000330944134 6.8890190840080034 12.7132293348028842 S
atom 4.9497369492091794 7.9601918769660882 12.7132293348028842 S
atom -0.0000000132991079 1.9393419761075212 17.8196683405687857 S
atom 4.9497369825713333 3.0103949931646876 17.8196683405687857 S
atom -0.0000000398583461 7.9601320155943469 17.8196683405687857 S
atom 4.9497369559731181 6.8890789453797385 17.8196683405687857 S
atom -0.0000000000000000 -0.0000000000000000 20.3734265926077320 Ba
atom 4.9497369958509561 -0.0000000265787272 20.3734265926077320 Ba
atom -0.0000000265787272 4.9497369958509410 20.3734265926077320 Ba
atom 4.9497369692722328 4.9497369692722053 20.3734265926077320 Ba
atom -0.0000000000000000 -0.0000000000000000 25.4808171048994865 Ba
atom 4.9497369958509561 -0.0000000265787272 25.4808171048994865 Ba
atom -0.0000000265787272 4.9497369958509410 25.4808171048994865 Ba
atom 4.9497369692722328 4.9497369692722053 25.4808171048994865 Ba
atom 2.4748684846361164 2.4748684846361027 22.9383361520016038 Zr
atom 7.4246054804870605 2.4748684580573799 22.9383361520016038 Zr
atom 2.4748684580573896 7.4246054804870498 22.9383361520016038 Zr
atom 7.4246054539083408 7.4246054539083186 22.9383361520016038 Zr
atom 2.4748684846361164 2.4748684846361027 28.0574848640808483 Zr
atom 7.4246054804870605 2.4748684580573799 28.0574848640808483 Zr
atom 2.4748684580573896 7.4246054804870498 28.0574848640808483 Zr
atom 7.4246054539083408 7.4246054539083186 28.0574848640808483 Zr
atom 2.4748684846361164 2.4748684846361027 20.3751201672942663 S
atom 7.4246054804870605 2.4748684580573799 20.3751201672942663 S
atom 2.4748684580573896 7.4246054804870498 20.3751201672942663 S
atom 7.4246054539083408 7.4246054539083186 20.3751201672942663 S
atom 2.4748684846361164 2.4748684846361027 25.4856498133632243 S
atom 7.4246054804870605 2.4748684580573799 25.4856498133632243 S
atom 2.4748684580573896 7.4246054804870498 25.4856498133632243 S
atom 7.4246054539083408 7.4246054539083186 25.4856498133632243 S
atom 1.9392820881570663 -0.0000000065156862 22.9261073463346676 S
atom 7.9601919035448345 -0.0000000466417682 22.9261073463346676 S
atom 3.0104548811151588 4.9497369757878928 22.9261073463346676 S
atom 6.8890190574292980 4.9497369627565231 22.9261073463346676 S
atom 3.0113620016734584 0.0000001029965961 28.0353028095923911 S
atom 6.8881119900284444 -0.0000001561540501 28.0353028095923911 S
atom 1.9383749675987676 4.9497368662756198 28.0353028095923911 S
atom 7.9610989709456890 4.9497370722688094 28.0353028095923911 S
atom -0.0000000200630406 3.0104549076938771 22.9261073463346676 S
atom 4.9497369893352658 1.9392820615783350 22.9261073463346676 S
atom -0.0000000330944134 6.8890190840080034 22.9261073463346676 S
atom 4.9497369492091794 7.9601918769660882 22.9261073463346676 S
atom -0.0000001295753224 1.9383749941774893 28.0353028095923911 S
atom 4.9497370988475469 3.0113619750947227 28.0353028095923911 S
atom 0.0000000764178680 7.9610989975243820 28.0353028095923911 S
atom 4.9497368396969099 6.8881119634496972 28.0353028095923911 S
atom -0.0000000000000000 -0.0000000000000000 30.5689022034852975 Ba
atom 4.9497369958509561 -0.0000000265787272 30.5689022034852975 Ba
atom -0.0000000265787272 4.9497369958509410 30.5689022034852975 Ba
atom 4.9497369692722328 4.9497369692722053 30.5689022034852975 Ba
atom -0.0000000000000000 -0.0000000000000000 35.4780180684133128 Ba
atom 4.9497369958509561 -0.0000000265787272 35.4780180684133128 Ba
atom -0.0000000265787272 4.9497369958509410 35.4780180684133128 Ba
atom 4.9497369692722328 4.9497369692722053 35.4780180684133128 Ba
atom 2.4748684846361164 2.4748684846361027 33.1995937612894849 Zr
atom 7.4246054804870605 2.4748684580573799 33.1995937612894849 Zr
atom 2.4748684580573896 7.4246054804870498 33.1995937612894849 Zr
atom 7.4246054539083408 7.4246054539083186 33.1995937612894849 Zr
atom 2.4748684846361164 2.4748684846361027 30.5950648368304741 S
atom 7.4246054804870605 2.4748684580573799 30.5950648368304741 S
atom 2.4748684580573896 7.4246054804870498 30.5950648368304741 S
atom 7.4246054539083408 7.4246054539083186 30.5950648368304741 S
atom 2.4748684846361164 2.4748684846361027 35.7431770322313795 S
atom 7.4246054804870605 2.4748684580573799 35.7431770322313795 S
atom 2.4748684580573896 7.4246054804870498 35.7431770322313795 S
atom 7.4246054539083408 7.4246054539083186 35.7431770322313795 S
atom 2.0446423461067007 -0.0000059810266804 33.1055323088896003 S
atom 7.8548316455952092 0.0000059278692260 33.1055323088896003 S
atom 2.9050946231655241 4.9497429502988961 33.1055323088896003 S
atom 6.9943793153789251 4.9497309882455278 33.1055323088896003 S
atom 0.0000059544479537 2.9050946497442411 33.1055323088896003 S
atom 4.9497310148242732 2.0446423195279699 33.1055323088896003 S
atom -0.0000060076054076 6.9943793419576368 33.1055323088896003 S
atom 4.9497429237201853 7.8548316190164540 33.1055323088896003 S
atom 2.4748684846361164 2.4748684846361027 38.8554555808164537 Ba
atom 7.4246054804870605 2.4748684580573799 38.8554555808164537 Ba
atom 2.4748684580573896 7.4246054804870498 38.8554555808164537 Ba
atom 7.4246054539083408 7.4246054539083186 38.8554555808164537 Ba
atom 2.4748684846361164 2.4748684846361027 43.7645714457444583 Ba
atom 7.4246054804870605 2.4748684580573799 43.7645714457444583 Ba
atom 2.4748684580573892 7.4246054804870498 43.7645714457444583 Ba
atom 7.4246054539083408 7.4246054539083186 43.7645714457444583 Ba
atom 4.9497369692722328 4.9497369692722053 41.1338798879402177 Zr
atom 9.8994739651231853 4.9497369426934856 41.1338798879402177 Zr
atom 4.9497369426935034 9.8994739651231445 41.1338798879402177 Zr
atom 9.8994739385444657 9.8994739385444106 41.1338798879402177 Zr
atom 4.9497369692722328 4.9497369692722053 46.2759887851489680 Zr
atom 9.8994739651231853 4.9497369426934856 46.2759887851489680 Zr
atom 4.9497369426935034 9.8994739651231445 46.2759887851489680 Zr
atom 9.8994739385444657 9.8994739385444106 46.2759887851489680 Zr
atom 4.9497369692722328 4.9497369692722053 38.5902966169984012 S
atom 9.8994739651231853 4.9497369426934856 38.5902966169984012 S
atom 4.9497369426935034 9.8994739651231445 38.5902966169984012 S
atom 9.8994739385444657 9.8994739385444106 38.5902966169984012 S
atom 4.9497369692722328 4.9497369692722053 43.7384088123992285 S
atom 9.8994739651231853 4.9497369426934856 43.7384088123992285 S
atom 4.9497369426935034 9.8994739651231445 43.7384088123992285 S
atom 9.8994739385444657 9.8994739385444106 43.7384088123992285 S
atom 4.5195108307428145 2.4748625036094229 41.2279413403401449 S
atom 10.3297001302313038 2.4748744125053346 41.2279413403401449 S
atom 5.3799631078016370 7.4246114349350032 41.2279413403401449 S
atom 9.4692478000150455 7.4245994728816376 41.2279413403401449 S
atom 5.4862304863095668 2.4748685876327037 46.2981708396373790 S
atom 9.3629804746645693 2.4748683284820543 46.2981708396373790 S
atom 4.4132434522348829 7.4246053509117234 46.2981708396373790 S
atom 10.4359674555817961 7.4246055569049094 46.2981708396373790 S
atom 2.4748744390840671 5.3799631343803469 41.2279413403401449 S
atom 7.4245994994603750 4.5195108041640735 41.2279413403401449 S
atom 2.4748624770307059 9.4692478265937439 41.2279413403401449 S
atom 7.4246114083562924 10.3297001036525469 41.2279413403401449 S
atom 2.4748683550607908 4.4132434788136008 46.2981708396373790 S
atom 7.4246055834836575 5.4862304597308293 46.2981708396373790 S
atom 2.4748685610539836 10.4359674821604873 46.2981708396373790 S
atom 7.4246053243330126 9.3629804480858123 46.2981708396373790 S
atom 2.4748684846361164 2.4748684846361027 48.8526565443302871 Ba
atom 7.4246054804870605 2.4748684580573799 48.8526565443302871 Ba
atom 2.4748684580573892 7.4246054804870498 48.8526565443302871 Ba
atom 7.4246054539083408 7.4246054539083186 48.8526565443302871 Ba
atom 2.4748684846361164 2.4748684846361027 53.9600470566220523 Ba
atom 7.4246054804870605 2.4748684580573799 53.9600470566220523 Ba
atom 2.4748684580573892 7.4246054804870498 53.9600470566220523 Ba
atom 7.4246054539083408 7.4246054539083186 53.9600470566220523 Ba
atom 4.9497369692722328 4.9497369692722053 51.3951374972281840 Zr
atom 9.8994739651231853 4.9497369426934856 51.3951374972281840 Zr
atom 4.9497369426935034 9.8994739651231445 51.3951374972281840 Zr
atom 9.8994739385444657 9.8994739385444106 51.3951374972281840 Zr
atom 4.9497369692722328 4.9497369692722053 56.5138053086609844 Zr
atom 9.8994739651231853 4.9497369426934856 56.5138053086609844 Zr
atom 4.9497369426935034 9.8994739651231445 56.5138053086609844 Zr
atom 9.8994739385444657 9.8994739385444106 56.5138053086609844 Zr
atom 4.9497369692722328 4.9497369692722053 48.8478238358666133 S
atom 9.8994739651231853 4.9497369426934856 48.8478238358666133 S
atom 4.9497369426935034 9.8994739651231445 48.8478238358666133 S
atom 9.8994739385444657 9.8994739385444106 48.8478238358666133 S
atom 4.9497369692722328 4.9497369692722053 53.9583534819354469 S
atom 9.8994739651231853 4.9497369426934856 53.9583534819354469 S
atom 4.9497369426935034 9.8994739651231445 53.9583534819354469 S
atom 9.8994739385444657 9.8994739385444106 53.9583534819354469 S
atom 4.4141505727931856 2.4748684781204200 51.4073663028950918 S
atom 10.4350603881809540 2.4748684379943398 51.4073663028950918 S
atom 5.4853233657512730 7.4246054604239990 51.4073663028950918 S
atom 9.3638875420654060 7.4246054473926302 51.4073663028950918 S
atom 5.4852635043795281 2.4748684713564848 56.5138053086609844 S
atom 9.3639474565945982 2.4748684447582683 56.5138053086609844 S
atom 4.4142104341649224 7.4246054671879333 56.5138053086609844 S
atom 10.4350004736517583 7.4246054406286977 56.5138053086609844 S
atom 2.4748684645730754 5.4853233923299740 51.4073663028950918 S
atom 7.4246054739713854 4.4141505462144517 51.4073663028950918 S
atom 2.4748684515416999 9.3638875686441025 51.4073663028950918 S
atom 7.4246054338452945 10.4350603616021917 51.4073663028950918 S
atom 2.4748684713370062 4.4142104607436332 56.5138053086609844 S
atom 7.4246054672074484 5.4852634778007925 56.5138053086609844 S
atom 2.4748684447777678 10.4350005002304638 56.5138053086609844 S
atom 7.4246054406092279 9.3639474300158483 56.5138053086609844 S
atom 2.4748684846361164 2.4748684846361027 59.0675635606999876 Ba
atom 7.4246054804870605 2.4748684580573799 59.0675635606999876 Ba
atom 2.4748684580573892 7.4246054804870498 59.0675635606999876 Ba
atom 7.4246054539083408 7.4246054539083186 59.0675635606999876 Ba
atom 2.4748684846361164 2.4748684846361027 64.1749540729917385 Ba
atom 7.4246054804870605 2.4748684580573799 64.1749540729917385 Ba
atom 2.4748684580573892 7.4246054804870498 64.1749540729917385 Ba
atom 7.4246054539083408 7.4246054539083186 64.1749540729917385 Ba
atom 4.9497369692722328 4.9497369692722053 61.6324731200937848 Zr
atom 9.8994739651231853 4.9497369426934856 61.6324731200937848 Zr
atom 4.9497369426935034 9.8994739651231445 61.6324731200937848 Zr
atom 9.8994739385444657 9.8994739385444106 61.6324731200937848 Zr
atom 4.9497369692722328 4.9497369692722053 66.7516218321729582 Zr
atom 9.8994739651231853 4.9497369426934856 66.7516218321729582 Zr
atom 4.9497369426935034 9.8994739651231445 66.7516218321729582 Zr
atom 9.8994739385444657 9.8994739385444106 66.7516218321729582 Zr
atom 4.9497369692722328 4.9497369692722053 59.0692571353865077 S
atom 9.8994739651231853 4.9497369426934856 59.0692571353865077 S
atom 4.9497369426935034 9.8994739651231445 59.0692571353865077 S
atom 9.8994739385444657 9.8994739385444106 59.0692571353865077 S
atom 4.9497369692722328 4.9497369692722053 64.1797867814553626 S
atom 9.8994739651231853 4.9497369426934856 64.1797867814553626 S
atom 4.9497369426935034 9.8994739651231445 64.1797867814553626 S
atom 9.8994739385444657 9.8994739385444106 64.1797867814553626 S
atom 4.4141505727931856 2.4748684781204200 61.6202443144267917 S
atom 10.4350603881809540 2.4748684379943398 61.6202443144267917 S
atom 5.4853233657512730 7.4246054604239990 61.6202443144267917 S
atom 9.3638875420654060 7.4246054473926302 61.6202443144267917 S
atom 5.4862304863095668 2.4748685876327037 66.7294397776845187 S
atom 9.3629804746645693 2.4748683284820543 66.7294397776845187 S
atom 4.4132434522348829 7.4246053509117234 66.7294397776845187 S
atom 10.4359674555817961 7.4246055569049094 66.7294397776845187 S
atom 2.4748684645730754 5.4853233923299740 61.6202443144267917 S
atom 7.4246054739713854 4.4141505462144517 61.6202443144267917 S
atom 2.4748684515416999 9.3638875686441025 61.6202443144267917 S
atom 7.4246054338452945 10.4350603616021917 61.6202443144267917 S
atom 2.4748683550607908 4.4132434788136008 66.7294397776845187 S
atom 7.4246055834836575 5.4862304597308293 66.7294397776845187 S
atom 2.4748685610539836 10.4359674821604873 66.7294397776845187 S
atom 7.4246053243330126 9.3629804480858123 66.7294397776845187 S
atom 2.4748684846361164 2.4748684846361027 69.2630391715775175 Ba
atom 7.4246054804870605 2.4748684580573799 69.2630391715775175 Ba
atom 2.4748684580573892 7.4246054804870498 69.2630391715775175 Ba
atom 7.4246054539083408 7.4246054539083186 69.2630391715775175 Ba
atom 2.4748684846361164 2.4748684846361027 74.1721550365055435 Ba
atom 7.4246054804870605 2.4748684580573799 74.1721550365055435 Ba
atom 2.4748684580573892 7.4246054804870498 74.1721550365055435 Ba
atom 7.4246054539083408 7.4246054539083186 74.1721550365055435 Ba
atom 4.9497369692722328 4.9497369692722053 71.8937307293817014 Zr
atom 9.8994739651231853 4.9497369426934856 71.8937307293817014 Zr
atom 4.9497369426935034 9.8994739651231445 71.8937307293817014 Zr
atom 9.8994739385444657 9.8994739385444106 71.8937307293817014 Zr
atom 4.9497369692722328 4.9497369692722053 69.2892018049226834 S
atom 9.8994739651231853 4.9497369426934856 69.2892018049226834 S
atom 4.9497369426935034 9.8994739651231445 69.2892018049226834 S
atom 9.8994739385444657 9.8994739385444106 69.2892018049226834 S
atom 4.9497369692722328 4.9497369692722053 74.4373140003236813 S
atom 9.8994739651231853 4.9497369426934856 74.4373140003236813 S
atom 4.9497369426935034 9.8994739651231445 74.4373140003236813 S
atom 9.8994739385444657 9.8994739385444106 74.4373140003236813 S
atom 4.5195108307428145 2.4748625036094229 71.7996692769817457 S
atom 10.3297001302313038 2.4748744125053346 71.7996692769817457 S
atom 5.3799631078016370 7.4246114349350032 71.7996692769817457 S
atom 9.4692478000150455 7.4245994728816376 71.7996692769817457 S
atom 2.4748744390840671 5.3799631343803469 71.7996692769817457 S
atom 7.4245994994603750 4.5195108041640735 71.7996692769817457 S
atom 2.4748624770307059 9.4692478265937439 71.7996692769817457 S
atom 7.4246114083562924 10.3297001036525469 71.7996692769817457 S
