#=======================================================
# FHI-aims file: sym_relax/sym_relax_RP_3_RxRyRz_RxRy-Rz.in
# Created using the Atomic Simulation Environment (ASE)
# Fri Mar 14 10:24:40 2025
#=======================================================
lattice_vector 10.0277134601286502 -0.0250413066098862 -0.0000000000000000 
lattice_vector -0.0250413066098862 10.0277134601286431 -0.0000000000000000 
lattice_vector 0.0000000000000000 -0.0000000000000000 35.7906316926624584 
atom 0.0572341315731252 -0.1697983571289202 0.2312141884920557 Ba
atom 5.1836550871932445 -0.0697547848780688 0.2312141884920557 Ba
atom 0.1572777038239767 4.9566225984911938 0.2312141884920557 Ba
atom 5.0585702083325117 4.8315377196304583 0.2312141884920557 Ba
atom -0.2433809378737241 0.1831473166109894 4.9862797316528287 Ba
atom 4.8307094134533433 0.2308602845687807 4.9862797316528287 Ba
atom -0.1956679699159329 5.2572376679380479 4.9862797316528287 Ba
atom 4.7579551388856629 5.1844833933703631 4.9862797316528287 Ba
atom 2.4915119972227591 2.4957639842552579 2.3997201784891882 Zr
atom 7.5194288225684502 2.4973034262316802 2.3997201784891882 Zr
atom 2.4930514391991814 7.5236808096009389 2.3997201784891882 Zr
atom 7.4928480739821470 7.4971000610146383 2.3997201784891882 Zr
atom 2.5006680383796942 2.5006680383796884 7.4563816026380172 Zr
atom 7.5145247684440220 2.4881473850747460 7.4563816026380172 Zr
atom 2.4881473850747482 7.5145247684440140 7.4563816026380172 Zr
atom 7.5020041151390764 7.5020041151390640 7.4563816026380172 Zr
atom 2.6265864131718124 2.7192825053460621 -0.1054288910762097 S
atom 7.2959103014776421 2.3622290102826304 -0.1054288910762097 S
atom 2.2695329181083794 7.3886063936518998 -0.1054288910762097 S
atom 7.6279224899311897 7.7206185821054412 -0.1054288910762097 S
atom 2.2487516647248817 2.2046703653978525 4.9536436708393001 S
atom 7.8105224414258512 2.7400637587295580 4.9536436708393001 S
atom 2.7841450580565894 7.7664411420988246 4.9536436708393001 S
atom 7.2500877414842693 7.2060064421572338 4.9536436708393001 S
atom 2.7660115597257398 0.0022205671525339 2.2394218761554505 S
atom 7.2338479009296490 -0.0070268459402666 2.7422894403658233 S
atom 2.2074705175603762 5.0193505374290037 2.7422894403658233 S
atom 7.7673476364851259 5.0035566439119155 2.2394218761554505 S
atom 2.8924119188981439 -0.0086736446121504 7.7534313107358424 S
atom 7.1353015412305041 -0.0163676619977362 7.1593318945401956 S
atom 2.1089241578612397 5.0100097213715280 7.1593318945401956 S
atom 7.8937479956575345 4.9926624321472266 7.7534313107358424 S
atom -0.0147412204574768 2.2478451703385796 2.2394218761554505 S
atom 4.9958422693947062 2.7813449058940614 2.7422894403658233 S
atom -0.0305351139745629 7.8077222892633298 2.7422894403658233 S
atom 4.9865948563019149 7.2491812470979529 2.2394218761554505 S
atom -0.0038470086927922 2.1214448111661839 7.7534313107358424 S
atom 5.0051830854521828 2.8798912655931965 7.1593318945401956 S
atom -0.0211942979170941 7.9062686489624623 7.1593318945401956 S
atom 4.9974890680665931 7.1227808879255523 7.7534313107358424 S
atom 0.2433809378737242 -0.1831473166109894 9.9264834736231808 Ba
atom 5.1970040466753140 -0.2559015911786675 9.9264834736231808 Ba
atom 0.1706266633060461 4.7704757921905969 9.9264834736231808 Ba
atom 5.2447170146331032 4.8181887601483897 9.9264834736231808 Ba
atom -0.0572341315731253 0.1697983571289204 14.6815490167839826 Ba
atom 4.8440583729354101 0.0447134782681820 14.6815490167839826 Ba
atom -0.1823190104338636 5.0710908616374546 14.6815490167839826 Ba
atom 4.9441019451862571 5.1711344338882910 14.6815490167839826 Ba
atom 2.5098240795366258 2.5055720925041189 12.5130430267868462 Zr
atom 7.5096207143195883 2.4789913439178122 12.5130430267868462 Zr
atom 2.4832433309503141 7.5053687272870819 12.5130430267868462 Zr
atom 7.5111601562960155 7.5069081692634967 12.5130430267868462 Zr
atom 2.7525844120345053 2.7966657113615261 9.9591195344367254 S
atom 7.2185270954621892 2.2362310114199331 9.9591195344367254 S
atom 2.1921497120929136 7.2626083947891980 9.9591195344367254 S
atom 7.7539204887938888 7.7980017881208967 9.9591195344367254 S
atom 2.3747496635875716 2.2820535714133170 15.0181920963522391 S
atom 7.7331392354103974 2.6140657598668642 15.0181920963522391 S
atom 2.7067618520411214 7.6404431432361317 15.0181920963522391 S
atom 7.3760857403469586 7.2833896481726894 15.0181920963522391 S
atom 2.7938655591990074 -0.0180144606696199 12.1704737649102377 S
atom 7.2617019004029020 -0.0272618737624195 12.6733413291205927 S
atom 2.2353245170336464 4.9991155096068516 12.6733413291205927 S
atom 7.7952016359583940 4.9833216160897527 12.1704737649102377 S
atom 0.0054938073646763 2.2199911708653173 12.1704737649102377 S
atom 5.0160772972168646 2.7534909064207929 12.6733413291205927 S
atom -0.0103000861524100 7.7798682897900653 12.6733413291205927 S
atom 5.0068298841240573 7.2213272476246946 12.1704737649102377 S
atom 2.3308696812507739 2.5579021699528148 18.1265300348233254 Ba
atom 7.4572906368708898 2.6579457422036672 18.1265300348233254 Ba
atom 2.4309132535016218 7.6843231255729263 18.1265300348233254 Ba
atom 7.3322057580101578 7.5592382467121917 18.1265300348233254 Ba
atom 2.6838153549906822 2.2572871005059607 22.8815955779840792 Ba
atom 7.7579057063177403 2.3050000684637553 22.8815955779840792 Ba
atom 2.7315283229484750 7.3313774518330277 22.8815955779840792 Ba
atom 7.6851514317500600 7.2586231772653447 22.8815955779840792 Ba
atom 4.9964320226349548 4.9921800356024502 20.2950360248204333 Zr
atom 10.0243488479806544 4.9937194775788640 20.2950360248204333 Zr
atom 4.9979714646113687 10.0200968609481365 20.2950360248204333 Zr
atom 9.9977680993943441 9.9935161123618244 20.2950360248204333 Zr
atom 5.0013360767593884 5.0013360767593769 25.3516974489692686 Zr
atom 10.0151928068237197 4.9888154234544384 25.3516974489692686 Zr
atom 4.9888154234544482 10.0151928068236984 25.3516974489692686 Zr
atom 10.0026721535187768 10.0026721535187537 25.3516974489692686 Zr
atom 5.2199505437257603 5.1272544515514999 17.7898869552550458 S
atom 9.8892744320315877 4.7702009564880612 17.7898869552550458 S
atom 4.8628970486623144 9.7965783398573176 17.7898869552550458 S
atom 10.2212866204851291 10.1285905283108892 17.7898869552550458 S
atom 4.7053384037775494 4.7494197031045662 22.8489595171705560 S
atom 10.2671091804785153 5.2848130964362658 22.8489595171705560 S
atom 5.2407317971092509 10.3111904798055320 22.8489595171705560 S
atom 9.7066744805369538 9.7507557798639564 22.8489595171705560 S
atom 4.7485132087182711 2.4859268179222132 20.1347377224867046 S
atom 10.3083903276430178 2.4701329244051231 20.6376052866970880 S
atom 5.2820129442737542 7.4965103077743880 20.6376052866970880 S
atom 9.7498492854776817 7.4872628946815878 20.1347377224867046 S
atom 4.6221128495458670 2.4968210296868962 25.6487471570670884 S
atom 10.4069366873421636 2.4794737404625975 25.0546477408714416 S
atom 5.3805593039728894 7.5058511238318584 25.0546477408714416 S
atom 9.6234489263052474 7.4981571064462686 25.6487471570670884 S
atom 2.5028886055322261 5.2666795981054317 20.1347377224867046 S
atom 7.5200185758087024 4.7081385559400584 20.6376052866970880 S
atom 2.4936411924394286 9.7345159393093468 20.6376052866970880 S
atom 7.5042246822916132 10.2680156748648095 20.1347377224867046 S
atom 2.4919943937675431 5.3930799572778314 25.6487471570670884 S
atom 7.5106777597512266 4.6095921962409232 25.0546477408714416 S
atom 2.4843003763819569 9.6359695796102027 25.0546477408714416 S
atom 7.4933304705269208 10.3944160340372012 25.6487471570670884 S
atom 2.3175207217687022 2.7440489762534148 27.8217993199544473 Ba
atom 7.2711438305702956 2.6712947016857358 27.8217993199544473 Ba
atom 2.2447664472010262 7.6976720850549931 27.8217993199544473 Ba
atom 7.3188567985280910 7.7453850530127939 27.8217993199544473 Ba
atom 2.6704663955086110 2.4434339068065598 32.5768648631152828 Ba
atom 7.5717589000171461 2.3183490279458261 32.5768648631152828 Ba
atom 2.5453815166478750 7.3447264113150874 32.5768648631152828 Ba
atom 7.6718024722679941 7.4447699835659380 32.5768648631152828 Ba
atom 5.0062401308838140 5.0104921179163053 30.4083588731181180 Zr
atom 10.0060367656667744 4.9839113693300030 30.4083588731181180 Zr
atom 4.9796593822975153 10.0102887526992603 30.4083588731181180 Zr
atom 10.0075762076431989 10.0118281946757044 30.4083588731181180 Zr
atom 5.2973337497412158 5.2532524504142000 27.8544353807679705 S
atom 9.7632764331689028 4.6928177504726030 27.8544353807679705 S
atom 4.7368990497996286 9.7191951338418789 27.8544353807679705 S
atom 10.2986698265006051 10.2545885271735742 27.8544353807679705 S
atom 4.7827216097930059 4.8754177019672635 32.9135079426834594 S
atom 10.1411111816158446 5.2074298904208058 32.9135079426834594 S
atom 5.1147337982465615 10.2338072737900703 32.9135079426834594 S
atom 9.7840576865524049 9.8767537787266271 32.9135079426834594 S
atom 4.7206592092450101 2.5061618457443688 30.0657896112414491 S
atom 10.2805363281697577 2.4903679522272792 30.5686571754518255 S
atom 5.2541589448004986 7.5167453355965499 30.5686571754518255 S
atom 9.7219952860044305 7.5074979225037435 30.0657896112414491 S
atom 2.4826535777100740 5.2945335975786927 30.0657896112414491 S
atom 7.4997835479865431 4.7359925554133264 30.5686571754518255 S
atom 2.4734061646172747 9.7623699387826051 30.5686571754518255 S
atom 7.4839896544694584 10.2958696743380447 30.0657896112414491 S
