#=======================================================
# FHI-aims file: sym_relax/sym_relax_RP_8_RxRyRz_RxRy0.in
# Created using the Atomic Simulation Environment (ASE)
# Mon Mar 17 16:26:05 2025
#=======================================================
lattice_vector 9.9838045721179309 -0.0228935154248484 0.0000742328214155 
lattice_vector -0.0228935154248487 9.9838045721180002 -0.0000742328214155 
lattice_vector 0.0016199164190029 -0.0016199164190040 86.4256163100263564 
atom 0.0592058474737376 -0.1097800927049232 0.1376947113720306 Ba
atom 5.1016823787638756 -0.0706526051861628 0.1377318277827380 Ba
atom 0.0983333349924983 4.9326964385852472 0.1376575949613227 Ba
atom 5.0396613758202706 4.8706754356416324 0.1376947113720307 Ba
atom -0.2815673699883815 0.2136708856162711 4.9402551016049729 Ba
atom 4.7782314004426940 0.2701206122759600 4.9402922180156796 Ba
atom -0.2251176433286932 5.2734696560473635 4.9402179851942716 Ba
atom 4.6988881583581517 5.1941264139628345 4.9402551016049747 Ba
atom 2.4605096770885804 2.5291472839528164 2.3191251376070281 Zr
atom 7.4432105304526806 2.5084990935455362 2.3191622540177304 Zr
atom 2.4398614866812975 7.5118481373169663 2.3190880211963241 Zr
atom 7.4409652054351216 7.5096028122993825 2.3191251376070277 Zr
atom 2.4028157089606950 2.5401588116503944 7.3972151924568479 Zr
atom 7.4321990027551177 2.5661930616734452 7.3972523088675484 Zr
atom 2.4288499589837294 7.5695421054448433 7.3971780760461341 Zr
atom 7.3832712373072171 7.5206143399969632 7.3972151924568479 Zr
atom 2.6188509730765821 2.7672889815489441 -0.1896413023671254 S
atom 7.2050688328565737 2.3501577975575545 -0.1896041859564183 S
atom 2.2017197890851938 7.3535068413289686 -0.1896784187778338 S
atom 7.5993065014231087 7.7477445098954965 -0.1896413023671255 S
atom 2.2244670182165249 2.2834218170288771 4.8929653998472604 S
atom 7.6889359973766416 2.7445417524175948 4.8930025162579769 S
atom 2.6855869536052484 7.7478907961889885 4.8929282834365546 S
atom 7.2049225465630604 7.2638773453754588 4.8929653998472622 S
atom 2.7329200474472204 0.0404562090186470 2.1755542127503551 S
atom 7.1194455348527876 0.0320258063716928 2.6760883028038966 S
atom 2.1160964910814188 5.0353748501431026 2.6760140699824837 S
atom 7.7133755757937630 5.0209117373652159 2.1755542127503555 S
atom 2.9136517378633338 0.0484726746494138 7.6298217994160265 S
atom 7.0047590652450058 0.0378797186970165 7.2132343639673255 S
atom 2.0014100214736108 5.0412287624684140 7.2131601311459139 S
atom 7.8941072662098604 5.0289282029959699 7.6298217994160256 S
atom -0.0519029667310709 2.2589822386117566 2.1755170963396462 S
atom 4.9369829642624188 2.8529122795527213 2.6760511863931815 S
atom -0.0663660795089665 7.8562613233241336 2.6759769535717739 S
atom 4.9285525616154615 7.2394377669583019 2.1755170963396457 S
atom -0.0599194323618378 2.0782505481956353 7.6297846830053171 S
atom 4.9311290519370869 2.9675987491605245 7.2131972475566215 S
atom -0.0722199918342893 7.9709477929319332 7.2131230147352037 S
atom 4.9205360959847049 7.0587060765422072 7.6297846830053189 S
atom 0.0038502905490625 -0.0771924575679967 9.9500178693631494 Ba
atom 5.0690947436269616 -0.0152970482614871 9.9500549857738569 Ba
atom 0.0657456998555722 4.9880519955099274 9.9499807529524311 Ba
atom 4.9843058188956100 4.9032630707785563 9.9500178693631511 Ba
atom 0.0633933457504699 0.0091277316616724 15.0181404414641637 Ba
atom 4.9827745543972872 -0.0748401034628946 15.0181775578748713 Ba
atom -0.0205744893740967 4.9285089403085243 15.0181033250534508 Ba
atom 5.0438488740969918 4.9895832600082342 15.0181404414641673 Ba
atom 2.5012081449739267 2.4923315593129529 12.4708092228198808 Zr
atom 7.4800262550925769 2.4678006256602116 12.4708463392305866 Zr
atom 2.4766772113211752 7.4711496694316439 12.4707721064091750 Zr
atom 7.4816636733204502 7.4727870876595226 12.4708092228198790 Zr
atom 2.4942132832167303 2.4862545743755957 17.5557101044898189 Zr
atom 7.4861032400299194 2.4747954874173996 17.5557472209005567 Zr
atom 2.4827541962585316 7.4781445311888195 17.5556729880791629 Zr
atom 7.4746688115632587 7.4667101027221534 17.5557101044898261 Zr
atom 2.5874594443177137 2.6866955858849146 9.9443105211898750 S
atom 7.2856622285206107 2.3815493263164056 9.9443476376006075 S
atom 2.2823131847492215 7.3848983700878286 9.9442734047791532 S
atom 7.5679149726642843 7.6671511142314683 9.9443105211898750 S
atom 2.4061994983342325 2.4415211426191026 15.0184140000211848 S
atom 7.5308366717864192 2.5628092722998965 15.0184511164318906 S
atom 2.5274876280150287 7.5661583160713084 15.0183768836104843 S
atom 7.3866550266807636 7.4219766709656669 15.0184140000211919 S
atom 2.0208604885832293 -0.0010754753665132 12.4052100383794048 S
atom 7.9999702599947025 -0.0110454025226097 12.5650028094283357 S
atom 2.9966212162233328 4.9923036412487853 12.5649285766069223 S
atom 7.0013160169297777 4.9793800529800345 12.4052100383794084 S
atom 3.0046609420961987 -0.0049677770228551 17.5988224584735846 S
atom 6.9842357039805476 -0.0168507796682767 17.5201264799430803 S
atom 1.9808866602091737 4.9864982641031412 17.5200522471216544 S
atom 7.9851164704427049 4.9754877513236915 17.5988224584735917 S
atom -0.0103712823459111 2.9710417974757486 12.4051729219687008 S
atom 4.9800541731567129 1.9723875544107849 12.5649656930176441 S
atom -0.0232948706146642 6.9757365981822073 12.5648914601962076 S
atom 4.9700842460006331 7.9514973258223147 12.4051729219687008 S
atom -0.0064789806895694 1.9872413439627747 17.5987853420628646 S
atom 4.9858595503023722 2.9881221104249538 17.5200893635323709 S
atom -0.0174894934689969 7.9914711541963648 17.5200151307109451 S
atom 4.9739765476569717 6.9676968723093342 17.5987853420628646 S
atom -0.0234500429418187 -0.0242034924390296 20.0989805372154500 Ba
atom 5.0161057784980052 0.0120032852293942 20.0990176536261238 Ba
atom 0.0127567347266052 5.0153523290008071 20.0989434208047228 Ba
atom 4.9570054854047019 4.9562520359075357 20.0989805372154500 Ba
atom 0.0098811811588830 0.0626398962532592 25.1798206329666883 Ba
atom 4.9292623898057073 -0.0213279388713078 25.1798577493774260 Ba
atom -0.0740866539656833 4.9820211049001051 25.1797835165559789 Ba
atom 4.9903367095053985 5.0430954245998425 25.1798206329666883 Ba
atom 2.4870080238727863 2.4934598337195300 22.6422509699409993 Zr
atom 7.4788979806859919 2.4820007467613334 22.6422880863517122 Zr
atom 2.4755489369145907 7.4853497905327417 22.6422138535302828 Zr
atom 7.4674635522193231 7.4739153620660872 22.6422509699409993 Zr
atom 2.4930850088101484 2.5004546954767157 27.7271518516109872 Zr
atom 7.4719031189288039 2.4759237618239780 27.7271889680217001 Zr
atom 2.4685540751574035 7.4792728055953956 27.7271147352002956 Zr
atom 7.4735405371566745 7.4809102238232770 27.7271518516109872 Zr
atom 2.5369710991496084 2.5362176496524005 20.0989805372154500 S
atom 7.4361401647531249 2.4320376714845251 20.0990176536261238 S
atom 2.4327911209817117 7.4353867152559348 20.0989434208047228 S
atom 7.5174266274961292 7.5166731779989666 20.0989805372154500 S
atom 2.4422745921162949 2.4054460488370375 25.1795470744097010 S
atom 7.5669117655684772 2.5267341785178301 25.1795841908204068 S
atom 2.5635627217970853 7.5300832222892264 25.1795099579989845 S
atom 7.4227301204628260 7.3859015771836027 25.1795470744097010 S
atom 1.9879947934599751 -0.0072324301867803 22.5991757323680140 S
atom 7.9922246036935114 -0.0182429429662079 22.6779459437199371 S
atom 2.9888755599221515 4.9851061008052033 22.6778717108984651 S
atom 6.9684503218065093 4.9732230981597949 22.5991757323680176 S
atom 2.9717952469729472 -0.0111247318431222 27.7927881524621618 S
atom 6.9764900476793859 -0.0240483201118748 27.6330696142346142 S
atom 1.9731410039079835 4.9793007236595574 27.6329953814132381 S
atom 7.9522507753194995 4.9693307965034510 27.7927881524621618 S
atom -0.0042143275256441 3.0039074925990037 22.5991386159572976 S
atom 4.9872517136003198 1.9801332107119665 22.6779088273091816 S
atom -0.0160973301710664 6.9834822544833957 22.6778345944877557 S
atom 4.9762412008208754 7.9843630209455680 22.5991386159573047 S
atom -0.0003220258693024 2.0201070390860281 27.7927510360514276 S
atom 4.9930570907459790 2.9958677667261435 27.6330324978239439 S
atom -0.0102919530253989 7.9992168104975541 27.6329582650025039 S
atom 4.9801335024772371 7.0005625674325778 27.7927510360514241 S
atom -0.0764390080707857 0.0030968410518518 30.2479432050677559 Ba
atom 4.9888054450071122 0.0649922503583614 30.2479803214784546 Ba
atom -0.0145435987642760 5.0683412941297643 30.2479060886570394 Ba
atom 4.9040165202757580 4.9835523693984145 30.2479432050677559 Ba
atom 0.2144243351134802 -0.2823208194855936 35.2577059728259243 Ba
atom 5.2742231055445590 -0.2258710928259059 35.2577430892366479 Ba
atom 0.2708740617731674 4.7774779509455128 35.2576688564152576 Ba
atom 5.1948798634600033 4.6981347088609615 35.2577059728259243 Ba
atom 2.5409122611475987 2.4020622594634791 32.8007458819740805 Zr
atom 7.5702955549420219 2.4280965094865326 32.8007829983846833 Zr
atom 2.5669465111706260 7.4314455532579373 32.8007087655633072 Zr
atom 7.5213677894941293 7.3825177878100554 32.8007458819740805 Zr
atom 2.5299007334500141 2.4597562275913889 37.8788359368237550 Zr
atom 7.5126015868141378 2.4391080371841123 37.8788730532345213 Zr
atom 2.5092525430427415 7.4424570809555206 37.8787988204131736 Zr
atom 7.5103562617965611 7.4402117559379439 37.8788359368237550 Zr
atom 2.6874490353820959 2.5867059948205222 30.2536505532409521 S
atom 7.3856518195849823 2.2815597352520189 30.2536876696516934 S
atom 2.3823027758136028 7.2849087790234437 30.2536134368302889 S
atom 7.6679045637286469 7.5671615231670746 30.2536505532409521 S
atom 2.2841752665260753 2.2237135687193312 35.3049956745834947 S
atom 7.7486442456861742 2.6848335041080502 35.3050327909942396 S
atom 2.7452952019148023 7.6881825478794550 35.3049585581727712 S
atom 7.2646307948726321 7.2041690970658925 35.3049956745834947 S
atom 2.0790039976928356 -0.0606728818590494 32.5681763914255100 S
atom 7.9717012424290976 -0.0729734413315012 32.9848380596956758 S
atom 2.9683521986577137 4.9303756024399199 32.9847638268743211 S
atom 7.0594595260393831 4.9197826464875316 32.5681763914254958 S
atom 2.2597356881089508 -0.0526564162282825 38.0224439780912391 S
atom 7.8570147728213104 -0.0671195290061775 37.5219841208590381 S
atom 2.8536657290499123 4.9362295147652340 37.5219098880376833 S
atom 7.2401912164554831 4.9277991121182829 38.0224439780912391 S
atom 0.0492261241466245 2.9128982883661410 32.5681392750148149 S
atom 5.0419822119656112 2.0006565719763998 32.9848009432849452 S
atom 0.0386331681942262 7.0040056157478121 32.9847267104635620 S
atom 5.0296816524931449 7.8933538167126960 32.5681392750148149 S
atom 0.0412096585158572 2.7321665979500267 38.0224068616805013 S
atom 5.0361282996403034 2.1153430415842003 37.5219470044483927 S
atom 0.0327792558689030 7.1186920853556162 37.5218727716269314 S
atom 5.0216651868623954 7.7126221262965950 38.0224068616805013 S
atom -0.1090266432077116 0.0584523979765274 40.0602663630588083 Ba
atom 4.9334498880824365 0.0975798854952875 40.0603034794695958 Ba
atom -0.0698991556889509 5.1009289292666997 40.0602292466481629 Ba
atom 4.8714288851388137 5.0389079263231000 40.0602663630588083 Ba
atom 2.7680424310461373 2.6180975235793698 40.3876023767981067 S
atom 7.3542602908261250 2.2009663395879842 40.3876394932087308 S
atom 2.3509112470547335 7.2043153833594031 40.3875652603873547 S
atom 7.7484979593926679 7.5985530519259310 40.3876023767981067 S
atom 2.5560396833368051 2.3706085339275504 43.4954893442747519 Ba
atom 7.6017492804779634 2.4129690872973231 43.4955264606855891 Ba
atom 2.5984002367065755 7.4163181310687474 43.4954522278640496 Ba
atom 7.5364952116833379 7.3510640622741121 43.4954893442747519 Ba
atom 2.2002158182938518 2.7158216748706430 48.2922175384318138 Ba
atom 7.2565361395348598 2.7687929523402794 48.2922546548424947 Ba
atom 2.2531870957634714 7.7721419961116851 48.2921804220210760 Ba
atom 7.1806713466403584 7.6962772032172122 48.2922175384318066 Ba
atom 4.9507133742487639 5.0165121214219619 45.6795154331207769 Zr
atom 9.9363012213300852 4.9987509247319091 45.6795525495315431 Zr
atom 4.9329521775587084 10.0020999685033090 45.6794783167101599 Zr
atom 9.9311689025952976 9.9969676497685356 45.6795154331207911 Zr
atom 4.9288227898017603 5.0269124171698687 50.7416643603773849 Zr
atom 9.9259009255821962 5.0206415091789021 50.7417014767881298 Zr
atom 4.9225518818107972 10.0239905529503197 50.7416272439666400 Zr
atom 9.9092783181482815 10.0073679455164282 50.7416643603773778 Zr
atom 5.1174008017978618 5.2635644118924780 43.1694783900556374 S
atom 9.6892489308595948 4.8320634971828245 43.1695155064663680 S
atom 4.6858998870882091 9.8354125409542181 43.1694412736449067 S
atom 10.0978563301443938 10.2440199402390206 43.1694783900556374 S
atom 4.6844465301176603 4.7254847598398726 48.2447854045624354 S
atom 10.2273285829122003 5.2650177688630020 48.2448225209732939 S
atom 5.2239795391408057 10.2683668126343974 48.2447482881519534 S
atom 9.6649020584641843 9.7059402881864436 48.2447854045624425 S
atom 5.2236345918943146 2.5290724885954199 45.5120109888401245 S
atom 9.6091864034828465 2.5215022949264507 46.0537812068192736 S
atom 4.6058373597114919 7.5248513386978653 46.0537069739977980 S
atom 10.2040901202409007 7.5095280169419913 45.5120109888401245 S
atom 5.3416571546190665 2.5262596543107270 51.0695453433399607 S
atom 9.5473289920775510 2.5190459497355886 50.4570877451707318 S
atom 4.5439799483061520 7.5223949935070049 50.4570135123493912 S
atom 10.3221126829656331 7.5067151826572882 51.0695453433399891 S
atom 2.4399362820387021 4.7487232225111926 45.5119738724294152 S
atom 7.4279620040542111 5.3436269392691855 46.0537440904084647 S
atom 2.4246129602828206 10.3469759830406112 46.0536698575870247 S
atom 7.4203918103852518 9.7291787508577237 45.5119738724294152 S
atom 2.4427491163234105 4.6307006597864442 51.0695082269293579 S
atom 7.4304183492450679 5.4054843506745334 50.4570506287600651 S
atom 2.4270693054736738 10.4088333944459670 50.4569763959385966 S
atom 7.4232046446699425 9.6111561881330143 51.0695082269293721 S
atom 2.7150819219779390 2.3540674261183825 53.2763834842545378 Ba
atom 7.6182903882871207 2.2539268486561825 53.2764206006653751 Ba
atom 2.6149413445157434 7.2572758924275940 53.2763463678439422 Ba
atom 7.6955374503244691 7.3345229544649557 53.2763834842545450 Ba
atom 2.1884447868813353 2.7088421391145485 58.2946845491063215 Ba
atom 7.2635156752909493 2.7805639837527947 58.2947216655171090 Ba
atom 2.2601666315195827 7.7839130275241901 58.2946474326956263 Ba
atom 7.1689003152278881 7.6892976674611120 58.2946845491063073 Ba
atom 4.9458801877033425 5.0211915080765275 55.7671406028391630 Zr
atom 9.9316218346755427 5.0035841112773314 55.7671777192498865 Zr
atom 4.9282727909041331 10.0069331550487384 55.7671034864284181 Zr
atom 9.9263357160499037 10.0016470364230994 55.7671406028391559 Zr
atom 4.9060329687184234 5.0402231211402349 60.7944901363603165 Zr
atom 9.9125902216118646 5.0434313302622442 60.7945272527711182 Zr
atom 4.9092411778404506 10.0467803740336663 60.7944530199496214 Zr
atom 9.8864884970649616 10.0206786494868059 60.7944901363603165 Zr
atom 5.2041761263010899 5.3404904742829125 53.2648179786374314 S
atom 9.6123228684691426 4.7452881726795910 53.2648550950480910 S
atom 4.6089738246977978 9.7486372164510016 53.2647808622267505 S
atom 10.1846316546476547 10.3209460026294622 53.2648179786374314 S
atom 4.6866779448474967 4.7165603431095651 58.2829693252540082 S
atom 10.2362529996425096 5.2627863541331763 58.2830064416647744 S
atom 5.2329039558710893 10.2661353979045877 58.2829322088433557 S
atom 9.6671334731940082 9.6970158714561077 58.2829693252540224 S
atom 5.3371856105976834 2.5226902052521023 55.4725874866533175 S
atom 9.5409050060401697 2.5149474531333404 56.0895291958516395 S
atom 4.5375559622687831 7.5182964969047541 56.0894549630301640 S
atom 10.3176411389442482 7.5031457335986582 55.4725874866533175 S
atom 5.3015014752077052 2.5345836781807560 61.0619070355921991 S
atom 9.5349340942378884 2.5264493981579279 60.5277065510493344 S
atom 4.5315850504665036 7.5297984419293531 60.5276323182279512 S
atom 10.2819570035542327 7.5150392065273204 61.0619070355921991 S
atom 2.4463185653820281 4.6351722038078345 55.4725503702426508 S
atom 7.4345168458473250 5.4119083367118979 56.0894920794408520 S
atom 2.4311678020759353 10.4152573804833182 56.0894178466195115 S
atom 7.4267740937285636 9.6156277321543975 55.4725503702426508 S
atom 2.4344250924533593 4.6708563391978100 61.0618699191814613 S
atom 7.4230149008227224 5.4178792485141827 60.5276694346386464 S
atom 2.4196658570513550 10.4212282922855994 60.5275952018172561 S
atom 7.4148806207999236 9.6513118675444076 61.0618699191814898 S
atom 2.4847890364226455 2.4824156705064362 63.3117886922285678 Ba
atom 7.4899421438990705 2.4842197342114809 63.3118258086393197 Ba
atom 2.4865931001276911 7.4875687779828946 63.3117515758179010 Ba
atom 7.4652445647691899 7.4628711988530156 63.3117886922285678 Ba
atom 2.7112155050307476 2.1860714209651371 68.3288928353508709 Ba
atom 7.7862863934403563 2.2577932656033792 68.3289299517613244 Ba
atom 2.7829373496689915 7.2611423093747760 68.3288557189400336 Ba
atom 7.6916710333772729 7.1665269493116996 68.3288928353508709 Ba
atom 5.0425964870564064 4.9036596028022386 65.8290872480968545 Zr
atom 10.0491537399498565 4.9068678119242675 65.8291243645074502 Zr
atom 5.0458046961784335 9.9102168556956638 65.8290501316862731 Zr
atom 10.0230520154029481 9.8841151311487980 65.8290872480968545 Zr
atom 5.0235648739927310 4.9435068217871656 70.8564367816181289 Zr
atom 10.0093065209648895 4.9258994249879517 70.8564738980288098 Zr
atom 5.0059574771935322 9.9292484687593632 70.8563996652074195 Zr
atom 10.0040204023392043 9.9239623501337633 70.8564367816181289 Zr
atom 5.2269052951060253 5.2245319291898342 63.3117886922285678 S
atom 9.7282814135622466 4.7225590038746530 63.3118258086393197 S
atom 4.7249323697908441 9.7259080476460440 63.3117515758179010 S
atom 10.2073608234525501 10.2049874575364097 63.3117886922285678 S
atom 4.7189337090257535 4.6843045789312994 68.3406080592032481 S
atom 10.2685087638207708 5.2305305899549213 68.3406451756138864 S
atom 5.2651597200493612 10.2338796337263638 68.3405709427924251 S
atom 9.6993892373722925 9.6647601072778393 68.3406080592032339 S
atom 4.6732297051140135 2.4320517265371659 65.5617074652755889 S
atom 10.4236016582017648 2.4172924911351426 66.0959821826399434 S
atom 5.4202526144303711 7.4206415349065411 66.0959079498186668 S
atom 9.6536852334605783 7.4125072548837370 65.5617074652755889 S
atom 4.6375455697240309 2.4439451994658232 71.1510270142144066 S
atom 10.4176307463994675 2.4287944361597362 70.5341595378376240 S
atom 5.4142817026280774 7.4321434799311428 70.5340853050160774 S
atom 9.6180010980705575 7.4244007278123929 71.1510270142143781 S
atom 2.5369570440969595 5.2991281092915239 65.5616703488648369 S
atom 7.5321718078455140 4.5292116845503152 66.0959450662294330 S
atom 2.5288227640741345 9.5325607283217053 66.0958708334078864 S
atom 7.5174125724435035 10.2795836376380478 65.5616703488648653 S
atom 2.5250635711682921 5.3348122446815056 71.1509898978038535 S
atom 7.5206698628209310 4.5351825963525956 70.5341224214268578 S
atom 2.5173208190495417 9.5385316401240150 70.5340481886056523 S
atom 7.5055190995148484 10.3152677730280864 71.1509898978038535 S
atom 2.3564407920345847 2.7127085560617363 73.3471939002025834 Ba
atom 7.2596492583437682 2.6125679785995390 73.3472310166132502 Ba
atom 2.2563002145723949 7.6159170223709571 73.3471567837915757 Ba
atom 7.3368963203811219 7.6931640844083029 73.3471939002025408 Ba
atom 2.7181950407868500 2.1978424523776385 78.3313598460252507 Ba
atom 7.7745153620278993 2.2508137298472786 78.3313969624359316 Ba
atom 2.7711663182564723 7.2541627736186864 78.3313227296143708 Ba
atom 7.6986505691333766 7.1782979807242056 78.3313598460252223 Ba
atom 5.0292857830860553 4.9264494238855931 75.8819130240798074 Zr
atom 10.0263639188664992 4.9201785158946167 75.8819501404905878 Zr
atom 5.0230148750951127 9.9235275596660042 75.8818759076691833 Zr
atom 10.0097413114325846 9.9069049522321428 75.8819130240798074 Zr
atom 5.0188854873381503 4.9483400083325737 80.9440619513363941 Zr
atom 10.0044733344194494 4.9305788116425324 80.9440990677468761 Zr
atom 5.0011242906480975 9.9339278554139430 80.9440248349256279 Zr
atom 9.9993410156847062 9.9287955366791767 80.9440619513363941 Zr
atom 5.3428638401990822 5.2018027603848882 73.3587594058195265 S
atom 9.7510105823671367 4.6066004587815748 73.3587965222305343 S
atom 4.7476615385957599 9.6099495025529951 73.3587222894089876 S
atom 10.3233193685456346 10.1822582887314894 73.3587594058195265 S
atom 4.7278581257560743 4.6820731642014826 78.3787919798947144 S
atom 10.2707401785505894 5.2216061732246173 78.3788290963053242 S
atom 5.2673911347791993 10.2249552169960225 78.3787548634840476 S
atom 9.7083136541025681 9.6625286925480527 78.3787919798947001 S
atom 4.6330740257026379 2.4403757504071963 75.5540691575277776 S
atom 10.4112067603621359 2.4246959395574819 76.1666009885184394 S
atom 5.4078577165907191 7.4280449833288760 76.1665267556970065 S
atom 9.6135295540491814 7.4208312787537656 75.5540691575277776 S
atom 4.7510965884273837 2.4375629161225167 81.1116035120280401 S
atom 10.3493493489567658 2.4222395943666202 80.5699075268700398 S
atom 5.3460003051853890 7.4255886381380263 80.5698332940486210 S
atom 9.7315521167738961 7.4180184444690704 81.1116035120280543 S
atom 2.5286330202269189 5.3392837887028826 75.5540320411171393 S
atom 7.5247683594231889 4.5416065823899627 76.1665638721077585 S
atom 2.5214193156518041 9.5449556261613768 76.1664896392862261 S
atom 7.5090885485734695 10.3197393170494767 75.5540320411171393 S
atom 2.5314458545116181 5.2212612259781492 81.1115663956170891 S
atom 7.5272247046140297 4.6034639937953017 80.5698704104592878 S
atom 2.5238756608426596 9.6068130375667309 80.5697961776379543 S
atom 7.5119013828581593 10.2017167543247265 81.1115663956170891 S
atom 2.3729818998437633 2.5536663174205922 83.1280880401825755 Ba
atom 7.4186914969848976 2.5960268707903698 83.1281251565931285 Ba
atom 2.4153424532135364 7.5993759145617865 83.1280509237718093 Ba
atom 7.3534374281902881 7.5341218457671637 83.1280880401825613 Ba
atom 5.2659377778086611 5.1150274358816619 83.4540989944015337 S
atom 9.8377859068703941 4.6835265211720047 83.4541361108120725 S
atom 4.8344368630990209 9.6868755649434437 83.4540618779907959 S
atom 10.2463933061551771 10.0954829642282053 83.4540989944015337 S
