#=======================================================
# FHI-aims file: sym_relax/sym_relax_RP_10_Rx0Mz_0-RyMz.in
# Created using the Atomic Simulation Environment (ASE)
# Mon Mar 17 17:18:59 2025
#=======================================================
lattice_vector 10.0085260949143837 0.0762020370058043 -0.0000000000000000 
lattice_vector 0.0762020370058046 10.0085260949142913 0.0000000000000000 
lattice_vector -0.0000000000000000 0.0000000000000000 105.9993035563360593 
atom 0.1412581866490490 0.1724528700933669 0.2099988537222904 Ba
atom 5.1766471882414473 0.1794797537890876 0.2099695057574119 Ba
atom 0.2104851592871701 5.1456417827433301 0.2099695057574118 Ba
atom 5.1836222526091289 5.2148169360534133 0.2099988537222904 Ba
atom -0.2698227140661041 -0.1911231029026577 5.0063640025171896 Ba
atom 4.8129646010880709 -0.2314889662890358 5.0063139687550704 Ba
atom -0.1531974278662038 4.7346730626652027 5.0063139687550704 Ba
atom 4.7725413518939765 4.8512409630573714 5.0063640025171896 Ba
atom 2.5299833222178232 2.5384719876886814 2.3965954901429649 Zr
atom 7.5426221042783688 2.5682127033591220 2.3966220469601649 Zr
atom 2.5764600753241029 7.5343747323133465 2.3966220469601649 Zr
atom 7.5723473881779011 7.5808360536487083 2.3965954901429649 Zr
atom 2.5152451244749301 2.5102673499526444 7.4508531386428514 Zr
atom 7.5142713142835031 2.5536187729196254 7.4508782722492617 Zr
atom 2.5481092853292346 7.5197808018738481 7.4508782722492617 Zr
atom 7.5576091904350182 7.5526314159126917 7.4508531386428514 Zr
atom 2.2703396403592242 2.6956621011056203 -0.1107205514847894 S
atom 7.6998473550831985 2.3085333072210714 -0.1106906555490405 S
atom 2.7336853261289278 7.2746953361753022 -0.1106906555490405 S
atom 7.3127037063193070 7.7380261670656685 -0.1107205514847893 S
atom 2.8247876179912823 2.2693628772266674 4.9578479119039933 S
atom 7.2734305673912232 2.8630938695058075 4.9578393975205630 S
atom 2.3072685384369498 7.8292558984600564 4.9578393975205630 S
atom 7.8671516839513673 7.3117269431867182 4.9578479119039933 S
atom 2.7964992929364652 0.0181556688565562 2.2239306452697378 S
atom 7.1721301968177809 0.0533833214967342 2.7763405161173114 S
atom 2.2059681678635212 5.0195453504509677 2.7763405161173114 S
atom 7.8388633588965577 5.0605197348165900 2.2239306452697378 S
atom 2.8949341816248801 0.0177724103140885 7.7850166467621289 S
atom 7.1187663128903838 0.0528825368952729 7.1621863422487015 S
atom 2.1526042839361117 5.0190445658495042 7.1621863422487015 S
atom 7.9372982475849669 5.0601364762741294 7.7850166467621289 S
atom 0.0151583074933220 2.1679666180907278 2.7763665711910717 S
atom 5.0222972466394067 2.8346788424804057 2.2239789521140172 S
atom 0.0561352176851469 7.8008408714346276 2.2239789521140172 S
atom 5.0575223734534083 7.2103306840507555 2.7763665711910717 S
atom 0.0145127987710418 2.1147374593322659 7.1621776552584411 S
atom 5.0217691297772920 2.9332960017220215 7.7850370296191223 S
atom 0.0556071008230160 7.8994580306762465 7.7850370296191223 S
atom 5.0568768647311115 7.1571015252923003 7.1621776552584411 S
atom 0.2848307483010566 0.1833221879153906 9.9800697819732811 Ba
atom 5.1872120610260630 0.3232986376066974 9.9801093413147086 Ba
atom 0.2210500320717931 5.2894606665609345 9.9801093413147086 Ba
atom 5.3271948142611230 5.2256862538754270 9.9800697819732811 Ba
atom -0.2863480704879722 -0.1820237942900690 14.9836869167903757 Ba
atom 4.8218049146533204 -0.2477789190144621 14.9836943095439246 Ba
atom -0.1443571143009481 4.7183831099397686 14.9836943095439246 Ba
atom 4.7560159954720955 4.8603402716699664 14.9836869167903757 Ba
atom 2.5227787833145205 2.5264183626976600 12.4677111009600345 Zr
atom 7.5302177628366636 2.5613593970355431 12.4677230683101943 Zr
atom 2.5640557338824066 7.5275214259897698 12.4677230683101943 Zr
atom 7.5651428492746007 7.5687824286576975 12.4677111009600345 Zr
atom 2.5202321694341085 2.5193495852268311 17.4815926620780111 Zr
atom 7.5231927702242514 2.5587703266320525 17.4816038606999768 Zr
atom 2.5570307412699713 7.5249323555862819 17.4816038606999768 Zr
atom 7.5625962353942020 7.5617136511868779 17.4815926620780111 Zr
atom 2.1924816140931651 2.7847659954486885 9.9708695989680081 S
atom 7.7886553730206654 2.2309367050550439 9.9709005626235303 S
atom 2.8224933440663760 7.1970987340092796 9.9709005626235303 S
atom 7.2348456800532395 7.8271300614087300 9.9708695989680081 S
atom 2.8524440440247996 2.2551059555640576 14.9807087796659246 S
atom 7.2589573236579676 2.8910093195309736 14.9807129551413052 S
atom 2.2927952947037018 7.8571713484852106 14.9807129551413052 S
atom 7.8948081099848606 7.2974700215241075 14.9807087796659246 S
atom 2.8885443136684521 0.0219009522356299 12.1624057561862760 S
atom 7.1203461953992866 0.0574038521862944 12.8014630097617204 S
atom 2.1541841664450105 5.0235658811405228 12.8014630097617204 S
atom 7.9309083796285158 5.0642650181956652 12.1624057561862760 S
atom 2.8868823335933973 0.0198978400926596 17.8093240085146292 S
atom 7.1205621488944377 0.0554345915237134 17.1664209566515602 S
atom 2.1544001199401639 5.0215966204779416 17.1664209566515602 S
atom 7.9292463995534721 5.0622619060526972 17.8093240085146292 S
atom 0.0188690783566083 2.1165293067462176 12.8014497388607769 S
atom 5.0257297906096143 2.9270816331721781 12.1624530998436704 S
atom 0.0595677616553355 7.8932436621264248 12.1624530998436704 S
atom 5.0612331443166747 7.1588933727062516 12.8014497388607769 S
atom 0.0169091999007050 2.1167114207796534 17.1664100466687017 S
atom 5.0237332251020135 2.9253957746420078 17.8093120271758139 S
atom 0.0575711961477531 7.8915578035962319 17.8093120271758139 S
atom 5.0592732658607922 7.1590754867396926 17.1664100466687017 S
atom 0.2864071701961150 0.1817843465520172 19.9907659172845058 Ba
atom 5.1856465580404310 0.3249074913846786 19.9907594230890737 Ba
atom 0.2194845290861568 5.2910695203389162 19.9907594230890737 Ba
atom 5.3287712361561903 5.2241484125120579 19.9907659172845058 Ba
atom -0.2870529008182415 -0.1813701245619045 24.9998357444189381 Ba
atom 4.8225011935345536 -0.2485611756745617 24.9998357444189381 Ba
atom -0.1436608354197333 4.7176008532796709 24.9998357444189381 Ba
atom 4.7553111651418147 4.8609939413981351 24.9998357444189381 Ba
atom 2.5211030021246579 2.5218660280824419 22.4938799948677790 Zr
atom 7.5257310167187299 2.5595882373681693 22.4938870336657004 Zr
atom 2.5595689877644521 7.5257502663224098 22.4938870336657004 Zr
atom 7.5634670680847202 7.5642300940424887 22.4938799948677790 Zr
atom 2.5211030021246579 2.5218660280824419 27.5057914939700439 Zr
atom 7.5257310167187299 2.5595882373681693 27.5057844551721402 Zr
atom 2.5595689877644521 7.5257502663224098 27.5057844551721402 Zr
atom 7.5634670680847202 7.5642300940424887 27.5057914939700439 Zr
atom 2.1882385355443970 2.7883973245052824 19.9903590266508076 S
atom 7.7922801612554160 2.2267597711378802 19.9903625037243451 S
atom 2.8261181323011368 7.1929218000921207 19.9903625037243451 S
atom 7.2306026015044740 7.8307613904653177 19.9903590266508076 S
atom 2.8538648421700921 2.2540735873640920 24.9998357444189381 S
atom 7.2578866724624511 2.8923030249495643 24.9998357444189381 S
atom 2.2917246435081866 7.8584650539037995 24.9998357444189381 S
atom 7.8962289081301682 7.2964376533241380 24.9998357444189381 S
atom 2.8872603142087918 0.0206526701712182 22.1737718985742802 S
atom 7.1210149561274854 0.0561810371739860 22.8177129616064782 S
atom 2.1548529271732173 5.0223430661282125 22.8177129616064782 S
atom 7.9296243801688817 5.0630167361312495 22.1737718985742802 S
atom 2.8872603142087918 0.0206526701712182 27.8258995902635675 S
atom 7.1210149561274854 0.0561810371739860 27.1819585272313624 S
atom 2.1548529271732173 5.0223430661282125 27.1819585272313624 S
atom 7.9296243801688817 5.0630167361312495 27.8258995902635675 S
atom 0.0176836234812979 2.1171624710062482 22.8177356505641384 S
atom 5.0245171909206370 2.9257642253117497 22.1737471821191576 S
atom 0.0583551619663787 7.8919262542659796 22.1737471821191576 S
atom 5.0600476894413848 7.1595265369662879 22.8177356505641384 S
atom 0.0176836234812979 2.1171624710062482 27.1819358382736489 S
atom 5.0245171909206370 2.9257642253117497 27.8259243067186617 S
atom 0.0583551619663787 7.8919262542659796 27.8259243067186617 S
atom 5.0600476894413848 7.1595265369662879 27.1819358382736489 S
atom 0.2864071701961150 0.1817843465520172 30.0089055715533100 Ba
atom 5.1856465580404310 0.3249074913846787 30.0089120657487172 Ba
atom 0.2194845290861568 5.2910695203389162 30.0089120657487172 Ba
atom 5.3287712361561903 5.2241484125120579 30.0089055715533100 Ba
atom -0.2863480704879722 -0.1820237942900690 35.0159845720474294 Ba
atom 4.8218049146533204 -0.2477789190144621 35.0159771792938557 Ba
atom -0.1443571143009481 4.7183831099397686 35.0159771792938557 Ba
atom 4.7560159954720955 4.8603402716699664 35.0159845720474294 Ba
atom 2.5202321694341085 2.5193495852268311 32.5180788267598260 Zr
atom 7.5231927702242514 2.5587703266320525 32.5180676281379206 Zr
atom 2.5570307412699713 7.5249323555862819 32.5180676281379206 Zr
atom 7.5625962353942020 7.5617136511868779 32.5180788267598260 Zr
atom 2.5227787833145205 2.5264183626976600 37.5319603878778949 Zr
atom 7.5302177628366636 2.5613593970355431 37.5319484205275771 Zr
atom 2.5640557338824066 7.5275214259897698 37.5319484205275771 Zr
atom 7.5651428492746007 7.5687824286576975 37.5319603878778949 Zr
atom 2.1882385355443970 2.7883973245052824 30.0093124621870686 S
atom 7.7922801612554160 2.2267597711378802 30.0093089851135026 S
atom 2.8261181323011368 7.1929218000921207 30.0093089851135026 S
atom 7.2306026015044740 7.8307613904653177 30.0093124621870686 S
atom 2.8524440440247996 2.2551059555640576 35.0189627091719586 S
atom 7.2589573236579676 2.8910093195309736 35.0189585336966260 S
atom 2.2927952947037018 7.8571713484852106 35.0189585336966260 S
atom 7.8948081099848606 7.2974700215241075 35.0189627091719586 S
atom 2.8868823335933973 0.0198978400926596 32.1903474803232470 S
atom 7.1205621488944377 0.0554345915237134 32.8332505321861987 S
atom 2.1544001199401639 5.0215966204779416 32.8332505321861987 S
atom 7.9292463995534721 5.0622619060526972 32.1903474803232470 S
atom 2.8885443136684521 0.0219009522356299 37.8372657326516801 S
atom 7.1203461953992866 0.0574038521862944 37.1982084790761292 S
atom 2.1541841664450105 5.0235658811405228 37.1982084790761292 S
atom 7.9309083796285158 5.0642650181956652 37.8372657326516801 S
atom 0.0169091999007050 2.1167114207796534 32.8332614421691389 S
atom 5.0237332251020135 2.9253957746420078 32.1903594616620055 S
atom 0.0575711961477531 7.8915578035962319 32.1903594616620055 S
atom 5.0592732658607922 7.1590754867396926 32.8332614421691389 S
atom 0.0188690783566083 2.1165293067462176 37.1982217499770584 S
atom 5.0257297906096143 2.9270816331721781 37.8372183889941667 S
atom 0.0595677616553355 7.8932436621264248 37.8372183889941667 S
atom 5.0612331443166747 7.1588933727062516 37.1982217499770584 S
atom 0.2848307483010566 0.1833221879153906 40.0196017068646483 Ba
atom 5.1872120610260630 0.3232986376066973 40.0195621475230965 Ba
atom 0.2210500320717930 5.2894606665609345 40.0195621475230965 Ba
atom 5.3271948142611230 5.2256862538754270 40.0196017068646483 Ba
atom -0.2698227140661041 -0.1911231029026577 44.9933074863206599 Ba
atom 4.8129646010880709 -0.2314889662890358 44.9933575200827960 Ba
atom -0.1531974278662038 4.7346730626652027 44.9933575200827960 Ba
atom 4.7725413518939765 4.8512409630573714 44.9933074863206599 Ba
atom 2.5152451244749301 2.5102673499526444 42.5488183501950132 Zr
atom 7.5142713142835031 2.5536187729196254 42.5487932165885354 Zr
atom 2.5481092853292346 7.5197808018738481 42.5487932165885354 Zr
atom 7.5576091904350182 7.5526314159126917 42.5488183501950132 Zr
atom 2.5299833222178232 2.5384719876886814 47.6030759986947771 Zr
atom 7.5426221042783688 2.5682127033591220 47.6030494418776442 Zr
atom 2.5764600753241029 7.5343747323133465 47.6030494418776442 Zr
atom 7.5723473881779011 7.5808360536487083 47.6030759986947771 Zr
atom 2.1924816140931651 2.7847659954486885 40.0288018898698752 S
atom 7.7886553730206654 2.2309367050550439 40.0287709262143707 S
atom 2.8224933440663760 7.1970987340092796 40.0287709262143707 S
atom 7.2348456800532395 7.8271300614087300 40.0288018898698752 S
atom 2.8247876179912823 2.2693628772266674 45.0418235769338651 S
atom 7.2734305673912232 2.8630938695058075 45.0418320913172892 S
atom 2.3072685384369498 7.8292558984600564 45.0418320913172892 S
atom 7.8671516839513673 7.3117269431867182 45.0418235769338651 S
atom 2.8949341816248801 0.0177724103140885 42.2146548420756602 S
atom 7.1187663128903838 0.0528825368952729 42.8374851465891808 S
atom 2.1526042839361117 5.0190445658495042 42.8374851465891808 S
atom 7.9372982475849669 5.0601364762741294 42.2146548420756602 S
atom 2.7964992929364652 0.0181556688565562 47.7757408435680944 S
atom 7.1721301968177809 0.0533833214967342 47.2233309727205821 S
atom 2.2059681678635212 5.0195453504509677 47.2233309727205821 S
atom 7.8388633588965577 5.0605197348165900 47.7757408435680944 S
atom 0.0145127987710418 2.1147374593322668 42.8374938335794084 S
atom 5.0217691297772920 2.9332960017220215 42.2146344592187077 S
atom 0.0556071008230160 7.8994580306762465 42.2146344592187077 S
atom 5.0568768647311115 7.1571015252922994 42.8374938335794084 S
atom 0.0151583074933220 2.1679666180907278 47.2233049176467574 S
atom 5.0222972466394067 2.8346788424804057 47.7756925367237741 S
atom 0.0561352176851469 7.8008408714346276 47.7756925367237741 S
atom 5.0575223734534083 7.2103306840507555 47.2233049176467574 S
atom 0.1412581866490490 0.1724528700933669 49.7896726351155507 Ba
atom 5.1766471882414473 0.1794797537890875 49.7897019830804908 Ba
atom 0.2104851592871701 5.1456417827433301 49.7897019830804908 Ba
atom 5.1836222526091289 5.2148169360534133 49.7896726351155507 Ba
atom 2.2703396403592242 2.6956621011056203 50.1103920403225942 S
atom 7.6998473550831985 2.3085333072210714 50.1103621443868761 S
atom 2.7336853261289278 7.2746953361753022 50.1103621443868761 S
atom 7.3127037063193070 7.7380261670656685 50.1103920403225942 S
atom 2.6936349030734030 2.6624402196290644 53.2096506318903550 Ba
atom 7.6668238157233937 2.7316671922671878 53.2096212839254648 Ba
atom 2.7006617867691296 7.6978292212214150 53.2096212839254648 Ba
atom 7.7359989690334805 7.7048042855891055 53.2096506318903550 Ba
atom 2.3300589300773797 2.2513593189139174 58.0060157806853738 Ba
atom 7.2558550956452788 2.3679846051138171 58.0059657469231382 Ba
atom 2.2896930666910018 7.3341466340680679 58.0059657469231382 Ba
atom 7.3724229960374554 7.2937233848739522 58.0060157806853738 Ba
atom 5.0596540206687433 5.0511653551978339 55.3962472683112210 Zr
atom 10.0555567652934315 5.0976421083041084 55.3962738251282829 Zr
atom 5.0893947363391749 10.0638041372583249 55.3962738251282829 Zr
atom 10.1020180866287976 10.0935294211578821 55.3962472683112210 Zr
atom 5.0314493829326956 5.0364271574549351 60.4505049168110062 Zr
atom 10.0409628348539837 5.0692913183092374 60.4505300504173846 Zr
atom 5.0748008058996730 10.0354533472634664 60.4505300504173846 Zr
atom 10.0738134488927802 10.0787912234149655 60.4505049168110062 Zr
atom 5.2168441340857026 4.7915216733392318 52.8889312266833258 S
atom 9.7958773691553951 5.2548673591089186 52.8889611226191647 S
atom 4.8297153402011315 10.2210293880631617 52.8889611226191647 S
atom 10.2592082000457978 9.8338857392992960 52.8889312266833258 S
atom 4.7905449102067283 5.3459696509712860 57.9574996900720976 S
atom 10.3504379314401422 4.8284505714169361 57.9574911756885953 S
atom 5.3842759024858688 9.7946126003711758 57.9574911756885953 S
atom 9.8329089761667987 10.3883337169313332 57.9574996900720976 S
atom 4.6891486510707709 2.5363403404733367 55.7760183493592763 S
atom 10.3220229044147427 2.5773172506651636 55.2236307302822098 S
atom 5.3558608754604640 7.5434792796193868 55.2236307302822098 S
atom 9.7315127170308298 7.5787044064333813 55.7760183493592763 S
atom 4.6359194923123201 2.5356948317510586 60.1618294334265613 S
atom 10.4206400636563323 2.5767891338030409 60.7846888077871697 S
atom 5.4544780347020829 7.5429511627572667 60.7846888077871697 S
atom 9.6782835582724047 7.5780588977111059 60.1618294334265613 S
atom 2.5393377018365895 5.3176813259164417 55.2235824234378327 S
atom 7.5407273834310526 4.7271502008435258 55.7759922942853308 S
atom 2.5745653544767735 9.6933122297977690 55.7759922942853308 S
atom 7.5817017677966749 10.3600453918765005 55.2235824234378327 S
atom 2.5389544432941284 5.4161162146048873 60.7846684249302172 S
atom 7.5402265988295731 4.6737863169161145 60.1618381204168458 S
atom 2.5740645698753144 9.6399483458703816 60.1618381204168458 S
atom 7.5813185092542001 10.4584802805649222 60.7846684249302172 S
atom 2.7045042208954317 2.8060127812810691 62.9797215601413498 Ba
atom 7.8106426995409990 2.7422320650518097 62.9797611194827951 Ba
atom 2.8444806705867371 7.7083940940060414 62.9797611194827951 Ba
atom 7.7468682868555101 7.8483768472411066 62.9797215601413498 Ba
atom 2.3391582386899712 2.2348339624920528 67.9833386949584764 Ba
atom 7.2395651429198420 2.3768249186790738 67.9833460877118938 Ba
atom 2.2734031139655659 7.3429869476333085 67.9833460877118938 Ba
atom 7.3815223046500407 7.2771980284520961 67.9833386949584764 Ba
atom 5.0476003956777253 5.0439608162945193 65.4673628791283306 Zr
atom 10.0487034589698485 5.0852377668623907 65.4673748464783358 Zr
atom 5.0825414300155769 10.0513997958166232 65.4673748464783358 Zr
atom 10.0899644616377575 10.0863248822545533 65.4673628791283306 Zr
atom 5.0405316182068818 5.0414142024141304 70.4812444402462859 Zr
atom 10.0461143885663855 5.0782127742499785 70.4812556388678075 Zr
atom 5.0799523596121086 10.0443748032042102 70.4812556388678075 Zr
atom 10.0828956841669726 10.0837782683741430 70.4812444402462859 Zr
atom 5.3059480284287517 4.7136636470731741 62.9705213771360661 S
atom 9.7182807669893627 5.3436753770463934 62.9705523407916345 S
atom 4.7521187380351035 10.3098374060006019 62.9705523407916345 S
atom 10.3483120943888292 9.7560277130331894 62.9705213771360661 S
atom 4.7762879885441425 5.3736260770047712 67.9803605578339756 S
atom 10.3783533814652973 4.8139773276837090 67.9803647333095284 S
atom 5.4121913525110283 9.7801393566379282 67.9803647333095284 S
atom 9.8186520545041809 10.4159901429648389 67.9803605578339756 S
atom 4.6377113397262608 2.5400511113366324 65.8011015170287550 S
atom 10.4144256951065355 2.5807497946353521 65.1621048780118457 S
atom 5.4482636661522443 7.5469118235895785 65.1621048780118457 S
atom 9.6800754056863383 7.5824151772966646 65.8011015170287550 S
atom 4.6378934537597036 2.5380912328807206 70.1660618248368877 S
atom 10.4127398365763213 2.5787532291277770 70.8089638053440211 S
atom 5.4465778076220683 7.5449152580820069 70.8089638053440211 S
atom 9.6802575197197829 7.5804552988407625 70.1660618248368877 S
atom 2.5430829852156629 5.4097263466484389 65.1620575343542043 S
atom 7.5447479141205980 4.6753661994250262 65.8011147879298903 S
atom 2.5785858851663339 9.6415282283792525 65.8011147879298903 S
atom 7.5854470511757475 10.4520904126085004 65.1620575343542043 S
atom 2.5410798730727007 5.4080643665733845 70.8089757866826659 S
atom 7.5427786534580239 4.6755821529201738 70.1660727348196360 S
atom 2.5766166245037492 9.6417441818743921 70.1660727348196360 S
atom 7.5834439390327750 10.4504284325334513 70.8089757866826659 S
atom 2.7029663795320613 2.8075892031761271 72.9904176954527060 Ba
atom 7.8122515533190002 2.7406665620661697 72.9904112012572170 Ba
atom 2.8460895243647153 7.7068285910203995 72.9904112012572170 Ba
atom 7.7453304454921339 7.8499532691361580 72.9904176954527060 Ba
atom 2.3398119084181270 2.2341291321617804 77.9994875225869748 Ba
atom 7.2387828862597434 2.3775211975602848 77.9994875225869748 Ba
atom 2.2726208573054762 7.3436832265145302 77.9994875225869748 Ba
atom 7.3821759743782085 7.2764931981218011 77.9994875225869748 Ba
atom 5.0430480610625077 5.0422850351046593 75.4935317730358264 Zr
atom 10.0469322993025063 5.0807510207444500 75.4935388118335737 Zr
atom 5.0807702703482409 10.0469130496986825 75.4935388118335737 Zr
atom 10.0854121270225523 10.0846491010646826 75.4935317730358264 Zr
atom 5.0430480610625077 5.0422850351046593 80.5054432721382938 Zr
atom 10.0469322993025063 5.0807510207444500 80.5054362333402622 Zr
atom 5.0807702703482409 10.0469130496986825 80.5054362333402622 Zr
atom 10.0854121270225523 10.0846491010646826 80.5054432721382938 Zr
atom 5.3095793574853118 4.7094205685243944 72.9900108048188372 S
atom 9.7141038330722100 5.3473001652811325 72.9900142818924991 S
atom 4.7479418041179295 10.3134621942353935 72.9900142818924991 S
atom 10.3519434234454319 9.7517846344844408 72.9900108048188372 S
atom 4.7752556203441587 5.3750468751500833 77.9994875225869748 S
atom 10.3796470868839137 4.8129066764881907 77.9994875225869748 S
atom 5.4134850579296261 9.7790687054424072 77.9994875225869748 S
atom 9.8176196863042193 10.4174109411101075 77.9994875225869748 S
atom 4.6383445039863016 2.5388656564613119 75.8173874287322178 S
atom 10.4131082872461089 2.5795371949464010 75.1733989602872157 S
atom 5.4469462582918071 7.5456992239006206 75.1733989602872157 S
atom 9.6807085699463737 7.5812297224213632 75.8173874287322178 S
atom 4.6383445039863016 2.5388656564613119 80.1815876164419450 S
atom 10.4131082872461089 2.5795371949464010 80.8255760848866629 S
atom 5.4469462582918071 7.5456992239006206 80.8255760848866629 S
atom 9.6807085699463737 7.5812297224213632 80.1815876164419450 S
atom 2.5418347031512538 5.4084423471887968 75.1734236767422317 S
atom 7.5435250991082787 4.6760349601532178 75.8173647397746464 S
atom 2.5773630701540187 9.6421969891074415 75.8173647397746464 S
atom 7.5841987691113202 10.4508064131488307 75.1734236767422317 S
atom 2.5418347031512538 5.4084423471887968 80.8255513684317606 S
atom 7.5435250991082787 4.6760349601532178 80.1816103053995590 S
atom 2.5773630701540187 9.6421969891074415 80.1816103053995590 S
atom 7.5841987691113202 10.4508064131488307 80.8255513684317606 S
atom 2.7029663795320613 2.8075892031761263 83.0085573497214142 Ba
atom 7.8122515533190002 2.7406665620661697 83.0085638439168605 Ba
atom 2.8460895243647153 7.7068285910203995 83.0085638439168605 Ba
atom 7.7453304454921339 7.8499532691361589 83.0085573497214142 Ba
atom 2.3391582386899712 2.2348339624920528 88.0156363502155585 Ba
atom 7.2395651429198420 2.3768249186790738 88.0156289574620416 Ba
atom 2.2734031139655659 7.3429869476333076 88.0156289574620416 Ba
atom 7.3815223046500407 7.2771980284520961 88.0156363502155585 Ba
atom 5.0405316182068818 5.0414142024141304 85.5177306049278911 Zr
atom 10.0461143885663855 5.0782127742499785 85.5177194063060284 Zr
atom 5.0799523596121086 10.0443748032042102 85.5177194063060284 Zr
atom 10.0828956841669726 10.0837782683741430 85.5177306049278911 Zr
atom 5.0476003956777253 5.0439608162945193 90.5316121660457611 Zr
atom 10.0487034589698485 5.0852377668623907 90.5316001986955428 Zr
atom 5.0825414300155769 10.0513997958166232 90.5316001986955428 Zr
atom 10.0899644616377575 10.0863248822545533 90.5316121660457611 Zr
atom 5.3095793574853118 4.7094205685243944 83.0089642403554251 S
atom 9.7141038330722100 5.3473001652811325 83.0089607632815643 S
atom 4.7479418041179295 10.3134621942353935 83.0089607632815643 S
atom 10.3519434234454319 9.7517846344844408 83.0089642403554251 S
atom 4.7762879885441425 5.3736260770047712 88.0186144873400309 S
atom 10.3783533814652973 4.8139773276837090 88.0186103118644638 S
atom 5.4121913525110283 9.7801393566379282 88.0186103118644638 S
atom 9.8186520545041809 10.4159901429648389 88.0186144873400309 S
atom 4.6378934537597036 2.5380912328807206 85.8329132203373035 S
atom 10.4127398365763213 2.5787532291277770 85.1900112398301559 S
atom 5.4465778076220683 7.5449152580820069 85.1900112398301559 S
atom 9.6802575197197829 7.5804552988407625 85.8329132203373035 S
atom 4.6377113397262608 2.5400511113366324 90.1978735281452231 S
atom 10.4144256951065355 2.5807497946353521 90.8368701671623739 S
atom 5.4482636661522443 7.5469118235895785 90.8368701671623739 S
atom 9.6800754056863383 7.5824151772966646 90.1978735281452231 S
atom 2.5410798730727007 5.4080643665733845 85.1899992584911416 S
atom 7.5427786534580239 4.6755821529201738 85.8329023103543278 S
atom 2.5766166245037492 9.6417441818743921 85.8329023103543278 S
atom 7.5834439390327750 10.4504284325334513 85.1899992584911416 S
atom 2.5430829852156629 5.4097263466484389 90.8369175108197169 S
atom 7.5447479141205980 4.6753661994250262 90.1978602572443009 S
atom 2.5785858851663339 9.6415282283792525 90.1978602572443009 S
atom 7.5854470511757475 10.4520904126085004 90.8369175108197169 S
atom 2.7045042208954317 2.8060127812810691 93.0192534850328769 Ba
atom 7.8106426995409990 2.7422320650518097 93.0192139256912611 Ba
atom 2.8444806705867371 7.7083940940060414 93.0192139256912611 Ba
atom 7.7468682868555101 7.8483768472411066 93.0192534850328769 Ba
atom 2.3300589300773797 2.2513593189139174 97.9929592644888032 Ba
atom 7.2558550956452788 2.3679846051138171 97.9930092982507546 Ba
atom 2.2896930666910018 7.3341466340680679 97.9930092982507546 Ba
atom 7.3724229960374554 7.2937233848739522 97.9929592644888032 Ba
atom 5.0314493829326956 5.0364271574549351 95.5484701283630926 Zr
atom 10.0409628348539837 5.0692913183092374 95.5484449947567498 Zr
atom 5.0748008058996730 10.0354533472634664 95.5484449947567498 Zr
atom 10.0738134488927802 10.0787912234149655 95.5484701283630926 Zr
atom 5.0596540206687433 5.0511653551978339 100.6027277768630768 Zr
atom 10.0555567652934315 5.0976421083041084 100.6027012200458017 Zr
atom 5.0893947363391749 10.0638041372583249 100.6027012200458017 Zr
atom 10.1020180866287976 10.0935294211578821 100.6027277768630768 Zr
atom 5.3059480284287517 4.7136636470731741 93.0284536680381393 S
atom 9.7182807669893627 5.3436753770463934 93.0284227043824643 S
atom 4.7521187380351035 10.3098374060006019 93.0284227043824643 S
atom 10.3483120943888292 9.7560277130331894 93.0284536680381393 S
atom 4.7905449102067283 5.3459696509712860 98.0414753551020084 S
atom 10.3504379314401422 4.8284505714169361 98.0414838694855035 S
atom 5.3842759024858688 9.7946126003711758 98.0414838694855035 S
atom 9.8329089761667987 10.3883337169313332 98.0414753551020084 S
atom 4.6359194923123201 2.5356948317510586 95.8371456117477294 S
atom 10.4206400636563323 2.5767891338030409 95.2142862373866308 S
atom 5.4544780347020829 7.5429511627572667 95.2142862373866308 S
atom 9.6782835582724047 7.5780588977111059 95.8371456117477294 S
atom 4.6891486510707709 2.5363403404733367 100.2229566958150428 S
atom 10.3220229044147427 2.5773172506651636 100.7753443148918393 S
atom 5.3558608754604640 7.5434792796193868 100.7753443148918393 S
atom 9.7315127170308298 7.5787044064333813 100.2229566958150428 S
atom 2.5389544432941284 5.4161162146048873 95.2143066202438604 S
atom 7.5402265988295731 4.6737863169161145 95.8371369247572176 S
atom 2.5740645698753144 9.6399483458703816 95.8371369247572176 S
atom 7.5813185092542001 10.4584802805649222 95.2143066202438604 S
atom 2.5393377018365895 5.3176813259164417 100.7753926217362306 S
atom 7.5407273834310526 4.7271502008435258 100.2229827508885762 S
atom 2.5745653544767735 9.6933122297977690 100.2229827508885762 S
atom 7.5817017677966749 10.3600453918765005 100.7753926217362306 S
atom 2.6936349030734030 2.6624402196290644 102.7893244132836230 Ba
atom 7.6668238157233937 2.7316671922671878 102.7893537612486057 Ba
atom 2.7006617867691296 7.6978292212214150 102.7893537612486057 Ba
atom 7.7359989690334805 7.7048042855891055 102.7893244132836230 Ba
atom 5.2168441340857026 4.7915216733392318 103.1100438184908654 S
atom 9.7958773691553951 5.2548673591089186 103.1100139225551828 S
atom 4.8297153402011315 10.2210293880631617 103.1100139225551828 S
atom 10.2592082000457978 9.8338857392992960 103.1100438184908654 S
