#=======================================================
# FHI-aims file: sym_relax/sym_relax_RP_7_RxRy0_-Rx-Ry0.in
# Created using the Atomic Simulation Environment (ASE)
# Mon Mar 17 15:43:32 2025
#=======================================================
lattice_vector 10.0688406782585549 0.1011029978996820 -0.0000000000000000 
lattice_vector 0.1011029978996819 10.0688406782585602 0.0000000000000000 
lattice_vector -0.0000000000000000 0.0000000000000000 75.0658406525532342 
atom -0.0839510620565615 -0.0839510620565612 0.2690420634862866 Ba
atom 5.1183714011858319 0.1345025610064005 0.2690420634862866 Ba
atom 0.1345025610064023 5.1183714011858408 0.2690420634862866 Ba
atom 5.0010207760225684 5.0010207760225649 0.2690420634862866 Ba
atom -0.0073197365223771 -0.0073197365223772 4.9427520566300824 Ba
atom 5.0417400756516502 0.0578712354722166 4.9427520566300824 Ba
atom 0.0578712354722175 5.0417400756516546 4.9427520566300824 Ba
atom 5.0776521015567546 5.0776521015567502 4.9427520566300824 Ba
atom 2.5361806140027361 2.5361806140027388 2.3314843118329271 Zr
atom 7.5832115632056691 2.5993427230262216 2.3314843118329196 Zr
atom 2.5993427230262247 7.5832115632056594 2.3314843118329196 Zr
atom 7.6211524520818612 7.6211524520818559 2.3314843118329271 Zr
atom 2.5441423131384333 2.5441423131384333 7.3544326935999775 Zr
atom 7.5752498640699644 2.5913810238905262 7.3544326935999775 Zr
atom 2.5913810238905253 7.5752498640699724 7.3544326935999775 Zr
atom 7.6291141512175580 7.6291141512175553 7.3544326935999775 Zr
atom 2.7755236508981742 2.7755236508981693 -0.1546860640375728 S
atom 7.3438685263102235 2.3599996861307906 -0.1546860640375728 S
atom 2.3599996861307950 7.3438685263102323 -0.1546860640375729 S
atom 7.8604954889773051 7.8604954889772918 -0.1546860640375728 S
atom 2.2284319120434501 2.2284319120434475 4.8781700089834121 S
atom 7.8909602651649591 2.9070914249855115 4.8781700089834121 S
atom 2.9070914249855133 7.8909602651649546 4.8781700089834121 S
atom 7.3134037501225775 7.3134037501225704 4.8781700089834121 S
atom 2.5172101695646378 0.0252757494749197 2.1649561229521095 S
atom 7.5516305086939166 0.0758272484247592 2.7092739843274325 S
atom 2.5677616685144824 5.0596960886042028 2.7092739843274325 S
atom 7.6021820076437621 5.1102475875540376 2.1649561229521095 S
atom 2.5172101695646378 0.0252757494749197 7.7096729281874374 S
atom 7.5516305086939166 0.0758272484247592 7.0183311347312740 S
atom 2.5677616685144824 5.0596960886042028 7.0183311347312740 S
atom 7.6021820076437621 5.1102475875540376 7.7096729281874374 S
atom 0.0252757494749197 2.5172101695646383 2.1649561229521095 S
atom 5.0596960886041948 2.5677616685144793 2.7092739843274325 S
atom 0.0758272484247611 7.5516305086939211 2.7092739843274325 S
atom 5.1102475875540456 7.6021820076437558 2.1649561229521095 S
atom 0.0252757494749197 2.5172101695646383 7.7096729281874374 S
atom 5.0596960886041948 2.5677616685144793 7.0183311347312740 S
atom 0.0758272484247611 7.5516305086939211 7.0183311347312740 S
atom 5.1102475875540456 7.6021820076437558 7.7096729281874374 S
atom 0.0339404668819007 0.0339404668819006 9.8519544432243418 Ba
atom 5.0004798722473796 0.0166110320679387 9.8519544432243418 Ba
atom 0.0166110320679397 5.0004798722473804 9.8519544432243418 Ba
atom 5.1189123049610128 5.1189123049610235 9.8519544432243418 Ba
atom -0.0350550505418646 -0.0350550505418646 14.8074754964438853 Ba
atom 5.0694753896711511 0.0856065494917041 14.8074754964438853 Ba
atom 0.0856065494917052 5.0694753896711466 14.8074754964438853 Ba
atom 5.0499167875372466 5.0499167875372635 14.8074754964438853 Ba
atom 2.5429941172331412 2.5429941172331367 12.3211974797156270 Zr
atom 7.5763980599752596 2.5925292197958223 12.3211974797156270 Zr
atom 2.5925292197958218 7.5763980599752632 12.3211974797156270 Zr
atom 7.6279659553122627 7.6279659553122618 12.3211974797156270 Zr
atom 2.5424859190395623 2.5424859190395610 17.2848975186800047 Zr
atom 7.5769062581688393 2.5930374179894011 17.2848975186800047 Zr
atom 2.5930374179893976 7.5769062581688402 17.2848975186800047 Zr
atom 7.6274577571186795 7.6274577571186786 17.2848975186800047 Zr
atom 2.8933266060637828 2.8933266060637846 9.8439692071545153 S
atom 7.2260655711446171 2.2421967309651731 9.8439692071545153 S
atom 2.2421967309651798 7.2260655711446198 9.8439692071545153 S
atom 7.9782984441429159 7.9782984441429008 9.8439692071545153 S
atom 2.1878878442172032 2.1878878442172054 14.8043374923839259 S
atom 7.9315043329911852 2.9476354928117514 14.8043374923839259 S
atom 2.9476354928117572 7.9315043329911923 14.8043374923839259 S
atom 7.2728596822963336 7.2728596822963301 14.8043374923839259 S
atom 2.5172101695646378 0.0252757494749197 11.9630836432904655 S
atom 7.5516305086939166 0.0758272484247592 12.6909541674088846 S
atom 2.5677616685144824 5.0596960886042028 12.6909541674088846 S
atom 7.6021820076437621 5.1102475875540376 11.9630836432904655 S
atom 2.5172101695646378 0.0252757494749197 17.6497439034461827 S
atom 7.5516305086939166 0.0758272484247592 16.9200511339138444 S
atom 2.5677616685144824 5.0596960886042028 16.9200511339138444 S
atom 7.6021820076437621 5.1102475875540376 17.6497439034461827 S
atom 0.0252757494749197 2.5172101695646383 11.9630836432904655 S
atom 5.0596960886041948 2.5677616685144793 12.6909541674088846 S
atom 0.0758272484247611 7.5516305086939211 12.6909541674088846 S
atom 5.1102475875540456 7.6021820076437558 11.9630836432904655 S
atom 0.0252757494749197 2.5172101695646383 17.6497439034461827 S
atom 5.0596960886041948 2.5677616685144793 16.9200511339138444 S
atom 0.0758272484247611 7.5516305086939211 16.9200511339138444 S
atom 5.1102475875540456 7.6021820076437558 17.6497439034461827 S
atom 0.0350550505418646 0.0350550505418647 19.7623195409161738 Ba
atom 4.9993652885874145 0.0154964484079747 19.7623195409161738 Ba
atom 0.0154964484079757 4.9993652885874162 19.7623195409161738 Ba
atom 5.1200268886209939 5.1200268886209859 19.7623195409161738 Ba
atom -0.0339404668819007 -0.0339404668819006 24.7178405941356658 Ba
atom 5.0683608060111798 0.0844919658317402 24.7178405941356658 Ba
atom 0.0844919658317410 5.0683608060111753 24.7178405941356658 Ba
atom 5.0510313711972294 5.0510313711972232 24.7178405941356658 Ba
atom 2.5419777208459817 2.5419777208459795 22.2485975576444339 Zr
atom 7.5774144563624262 2.5935456161829773 22.2485975576444339 Zr
atom 2.5935456161829813 7.5774144563624173 22.2485975576444339 Zr
atom 7.6269495589251051 7.6269495589250935 22.2485975576444339 Zr
atom 2.5408295249406896 2.5408295249406869 27.2153623437600842 Zr
atom 7.5785626522677196 2.5946938120882739 27.2153623437600842 Zr
atom 2.5946938120882739 7.5785626522677134 27.2153623437600842 Zr
atom 7.6258013630198125 7.6258013630198072 27.2153623437600842 Zr
atom 2.8970839938619166 2.8970839938619140 19.7654575449761225 S
atom 7.2223081833464979 2.2384393431670482 19.7654575449761225 S
atom 2.2384393431670477 7.2223081833464917 19.7654575449761225 S
atom 7.9820558319410368 7.9820558319410333 19.7654575449761225 S
atom 2.1916452320153357 2.1916452320153343 24.7258258302055225 S
atom 7.9277469451930624 2.9438781050136225 24.7258258302055225 S
atom 2.9438781050136269 7.9277469451930687 24.7258258302055225 S
atom 7.2766170700944599 7.2766170700944572 24.7258258302055225 S
atom 2.5172101695646378 0.0252757494749197 21.8788408699511230 S
atom 7.5516305086939166 0.0758272484247592 22.6067113940695741 S
atom 2.5677616685144824 5.0596960886042028 22.6067113940695741 S
atom 7.6021820076437621 5.1102475875540376 21.8788408699511230 S
atom 2.5172101695646378 0.0252757494749197 27.5514639026287398 S
atom 7.5516305086939166 0.0758272484247592 26.8601221091725755 S
atom 2.5677616685144824 5.0596960886042028 26.8601221091725755 S
atom 7.6021820076437621 5.1102475875540376 27.5514639026287398 S
atom 0.0252757494749197 2.5172101695646383 21.8788408699511230 S
atom 5.0596960886041948 2.5677616685144793 22.6067113940695741 S
atom 0.0758272484247611 7.5516305086939211 22.6067113940695741 S
atom 5.1102475875540456 7.6021820076437558 21.8788408699511230 S
atom 0.0252757494749197 2.5172101695646383 27.5514639026287398 S
atom 5.0596960886041948 2.5677616685144793 26.8601221091725755 S
atom 0.0758272484247611 7.5516305086939211 26.8601221091725755 S
atom 5.1102475875540456 7.6021820076437558 27.5514639026287398 S
atom 0.0073197365223771 0.0073197365223772 29.6270429807299216 Ba
atom 5.0271006026069092 0.0432317624274623 29.6270429807299216 Ba
atom 0.0432317624274633 5.0271006026069109 29.6270429807299216 Ba
atom 5.0922915746014938 5.0922915746014930 29.6270429807299216 Ba
atom 0.0839510620565615 0.0839510620565611 34.3007529738737773 Ba
atom 4.9504692770727177 -0.0333995631067218 34.3007529738737773 Ba
atom -0.0333995631067211 4.9504692770727132 34.3007529738737773 Ba
atom 5.1689229001356782 5.1689229001356800 34.3007529738737773 Ba
atom 2.5487912240763841 2.5487912240763868 32.2383107255271497 Zr
atom 7.5706009531320140 2.5867321129525784 32.2383107255271497 Zr
atom 2.5867321129525789 7.5706009531320193 32.2383107255271497 Zr
atom 7.6337630621555128 7.6337630621555075 32.2383107255271497 Zr
atom 2.8565399260356727 2.8565399260356696 29.6916250283766168 S
atom 7.2628522511727311 2.2789834109932885 29.6916250283766168 S
atom 2.2789834109932907 7.2628522511727205 29.6916250283766168 S
atom 7.9415117641148001 7.9415117641147930 29.6916250283766168 S
atom 2.3094481871809518 2.3094481871809505 34.7244811013975792 S
atom 7.8099439900274490 2.8260751498480094 34.7244811013975792 S
atom 2.8260751498480130 7.8099439900274596 34.7244811013975792 S
atom 7.3944200252600734 7.3944200252600654 34.7244811013975792 S
atom 2.5172101695646378 0.0252757494749197 31.8605210530325991 S
atom 7.5516305086939166 0.0758272484247592 32.4048389144079039 S
atom 2.5677616685144824 5.0596960886042028 32.4048389144079039 S
atom 7.6021820076437621 5.1102475875540376 31.8605210530325991 S
atom 0.0252757494749197 2.5172101695646383 31.8605210530325991 S
atom 5.0596960886041948 2.5677616685144793 32.4048389144079039 S
atom 0.0758272484247611 7.5516305086939211 32.4048389144079039 S
atom 5.1102475875540456 7.6021820076437558 31.8605210530325991 S
atom 2.6264369810961266 2.6264369810961243 37.8019623897628847 Ba
atom 7.4929551961122813 2.5090863559328351 37.8019623897628847 Ba
atom 2.5090863559328378 7.4929551961122849 37.8019623897628847 Ba
atom 7.7114088191752383 7.7114088191752295 37.8019623897628847 Ba
atom 2.5498056555619382 2.5498056555619377 42.4756723829066800 Ba
atom 7.5695865216464711 2.5857176814670222 42.4756723829066800 Ba
atom 2.5857176814670244 7.5695865216464684 42.4756723829066800 Ba
atom 7.6347774936410566 7.6347774936410522 42.4756723829066800 Ba
atom 5.0912771431159456 5.0912771431159385 39.8644046381094839 Zr
atom 10.1130868721715856 5.1292180319921377 39.8644046381094981 Zr
atom 5.1292180319921341 10.1130868721715750 39.8644046381094981 Zr
atom 10.1762489811950818 10.1762489811950676 39.8644046381094839 Zr
atom 5.0833154439802444 5.0833154439802470 44.8873530198766275 Zr
atom 10.1210485713072771 5.1371797311278309 44.8873530198766275 Zr
atom 5.1371797311278389 10.1210485713072664 44.8873530198766275 Zr
atom 10.1682872820593708 10.1682872820593762 44.8873530198766275 Zr
atom 4.8519341062205106 4.8519341062205061 37.3782342622390118 S
atom 10.3524299090670073 5.3685610688875727 37.3782342622390118 S
atom 5.3685610688875824 10.3524299090670038 37.3782342622390118 S
atom 9.9369059442996601 9.9369059442996459 37.3782342622390118 S
atom 5.3990258450752382 5.3990258450752329 42.4110903352600062 S
atom 9.8053381702122859 4.8214693300328504 42.4110903352600062 S
atom 4.8214693300328433 9.8053381702122895 42.4110903352600062 S
atom 10.4839976831543478 10.4839976831543442 42.4110903352600062 S
atom 5.0596960886041948 2.5677616685144793 40.2421943106040487 S
atom 10.0941164277334892 2.6183131674643225 39.6978764492287084 S
atom 5.1102475875540465 7.6021820076437558 39.6978764492287084 S
atom 10.1446679266833240 7.6527335065936031 40.2421943106040487 S
atom 5.0596960886041948 2.5677616685144793 44.5512514610078441 S
atom 10.0941164277334892 2.6183131674643225 45.2425932544639835 S
atom 5.1102475875540465 7.6021820076437558 45.2425932544639835 S
atom 10.1446679266833240 7.6527335065936031 44.5512514610078441 S
atom 2.5677616685144824 5.0596960886042028 40.2421943106040487 S
atom 7.6021820076437603 5.1102475875540376 39.6978764492287084 S
atom 2.6183131674643230 10.0941164277334749 39.6978764492287084 S
atom 7.6527335065935977 10.1446679266833293 40.2421943106040487 S
atom 2.5677616685144824 5.0596960886042028 44.5512514610078441 S
atom 7.6021820076437603 5.1102475875540376 45.2425932544639835 S
atom 2.6183131674643230 10.0941164277334749 45.2425932544639835 S
atom 7.6527335065935977 10.1446679266833293 44.5512514610078441 S
atom 2.5085454521576591 2.5085454521576587 47.3848747695009322 Ba
atom 7.6108467250507426 2.6269778848712990 47.3848747695009322 Ba
atom 2.6269778848713043 7.6108467250507399 47.3848747695009322 Ba
atom 7.5935172902367842 7.5935172902367789 47.3848747695009322 Ba
atom 2.5775409695814209 2.5775409695814244 52.3403958227204669 Ba
atom 7.5418512076269737 2.5579823674475333 52.3403958227204669 Ba
atom 2.5579823674475364 7.5418512076269737 52.3403958227204669 Ba
atom 7.6625128076605469 7.6625128076605513 52.3403958227204669 Ba
atom 5.0844636398855467 5.0844636398855432 49.8541178059922387 Zr
atom 10.1199003754019738 5.1360315352225365 49.8541178059922387 Zr
atom 5.1360315352225454 10.1199003754019916 49.8541178059922387 Zr
atom 10.1694354779646581 10.1694354779646563 49.8541178059922387 Zr
atom 5.0849718380791247 5.0849718380791220 54.8178178449566360 Zr
atom 10.1193921772083897 5.1355233370289586 54.8178178449566360 Zr
atom 5.1355233370289657 10.1193921772084057 54.8178178449566360 Zr
atom 10.1699436761582493 10.1699436761582440 54.8178178449566360 Zr
atom 4.7341311510548989 4.7341311510548936 47.3768895334311040 S
atom 10.4702328642326190 5.4863640240531852 47.3768895334311040 S
atom 5.4863640240531879 10.4702328642326172 47.3768895334311040 S
atom 9.8191029891340431 9.8191029891340147 47.3768895334311040 S
atom 5.4395699129014741 5.4395699129014625 52.3372578186605608 S
atom 9.7647941023860305 4.7809252622066092 52.3372578186605608 S
atom 4.7809252622066198 9.7647941023860341 52.3372578186605608 S
atom 10.5245417509806014 10.5245417509805996 52.3372578186605608 S
atom 5.0596960886041948 2.5677616685144793 50.2238744936855284 S
atom 10.0941164277334892 2.6183131674643225 49.4960039695670773 S
atom 5.1102475875540465 7.6021820076437558 49.4960039695670773 S
atom 10.1446679266833240 7.6527335065936031 50.2238744936855284 S
atom 5.0596960886041948 2.5677616685144793 54.4529714601905113 S
atom 10.0941164277334892 2.6183131674643225 55.1826642297227536 S
atom 5.1102475875540465 7.6021820076437558 55.1826642297227536 S
atom 10.1446679266833240 7.6527335065936031 54.4529714601905113 S
atom 2.5677616685144824 5.0596960886042028 50.2238744936855284 S
atom 7.6021820076437603 5.1102475875540376 49.4960039695670773 S
atom 2.6183131674643230 10.0941164277334749 49.4960039695670773 S
atom 7.6527335065935977 10.1446679266833293 50.2238744936855284 S
atom 2.5677616685144824 5.0596960886042028 54.4529714601905113 S
atom 7.6021820076437603 5.1102475875540376 55.1826642297227536 S
atom 2.6183131674643230 10.0941164277334749 55.1826642297227536 S
atom 7.6527335065935977 10.1446679266833293 54.4529714601905113 S
atom 2.5074308684976967 2.5074308684976976 57.2952398671927554 Ba
atom 7.6119613087107041 2.6280924685312623 57.2952398671927554 Ba
atom 2.6280924685312690 7.6119613087107041 57.2952398671927554 Ba
atom 7.5924027065768138 7.5924027065768138 57.2952398671927554 Ba
atom 2.5764263859214607 2.5764263859214607 62.2507609204122545 Ba
atom 7.5429657912869370 2.5590969511074988 62.2507609204122545 Ba
atom 2.5590969511075019 7.5429657912869379 62.2507609204122545 Ba
atom 7.6613982240005845 7.6613982240005809 62.2507609204122545 Ba
atom 5.0854800362727071 5.0854800362726991 59.7815178839209551 Zr
atom 10.1188839790148002 5.1350151388353842 59.7815178839209551 Zr
atom 5.1350151388353851 10.1188839790148144 59.7815178839209551 Zr
atom 10.1704518743518140 10.1704518743518335 59.7815178839209551 Zr
atom 5.0866282321779970 5.0866282321779925 64.7482826700366161 Zr
atom 10.1177357831095431 5.1338669429300827 64.7482826700366161 Zr
atom 5.1338669429300889 10.1177357831095254 64.7482826700366161 Zr
atom 10.1716000702571030 10.1716000702571154 64.7482826700366161 Zr
atom 4.7303737632567735 4.7303737632567673 57.2983778712527041 S
atom 10.4739902520307719 5.4901214118513098 57.2983778712527041 S
atom 5.4901214118513026 10.4739902520307577 57.2983778712527041 S
atom 9.8153456013358831 9.8153456013358742 57.2983778712527041 S
atom 5.4358125251033416 5.4358125251033398 62.2587461564821112 S
atom 9.7685514901841692 4.7846826500047372 62.2587461564821112 S
atom 4.7846826500047479 9.7685514901841763 62.2587461564821112 S
atom 10.5207843631824627 10.5207843631824680 62.2587461564821112 S
atom 5.0596960886041948 2.5677616685144793 60.1396317203461521 S
atom 10.0941164277334892 2.6183131674643225 59.4117611962277152 S
atom 5.1102475875540465 7.6021820076437558 59.4117611962277152 S
atom 10.1446679266833240 7.6527335065936031 60.1396317203461521 S
atom 5.0596960886041948 2.5677616685144793 64.3930424354491890 S
atom 10.0941164277334892 2.6183131674643225 65.0843842289053782 S
atom 5.1102475875540465 7.6021820076437558 65.0843842289053782 S
atom 10.1446679266833240 7.6527335065936031 64.3930424354491890 S
atom 2.5677616685144824 5.0596960886042028 60.1396317203461521 S
atom 7.6021820076437603 5.1102475875540376 59.4117611962277152 S
atom 2.6183131674643230 10.0941164277334749 59.4117611962277152 S
atom 7.6527335065935977 10.1446679266833293 60.1396317203461521 S
atom 2.5677616685144824 5.0596960886042028 64.3930424354491890 S
atom 7.6021820076437603 5.1102475875540376 65.0843842289053782 S
atom 2.6183131674643230 10.0941164277334749 65.0843842289053782 S
atom 7.6527335065935977 10.1446679266833293 64.3930424354491890 S
atom 2.5351661825171852 2.5351661825171825 67.1599633070065636 Ba
atom 7.5842259946912236 2.6003571545117770 67.1599633070065636 Ba
atom 2.6003571545117752 7.5842259946912165 67.1599633070065636 Ba
atom 7.6201380205962996 7.6201380205963130 67.1599633070065636 Ba
atom 2.4585348569829990 2.4585348569829986 71.8336733001501955 Ba
atom 7.6608573202254018 2.6769884800459613 71.8336733001501955 Ba
atom 2.6769884800459685 7.6608573202253964 71.8336733001501955 Ba
atom 7.5435066950621277 7.5435066950621250 71.8336733001501955 Ba
atom 5.0786665330422949 5.0786665330422966 69.7712310518036531 Zr
atom 10.1256974822452257 5.1418286420657795 69.7712310518036531 Zr
atom 5.1418286420657937 10.1256974822452204 69.7712310518036531 Zr
atom 10.1636383711214187 10.1636383711214258 69.7712310518036531 Zr
atom 4.7709178310830200 4.7709178310830085 67.2245453546532303 S
atom 10.4334461842045094 5.4495773440250659 67.2245453546532303 S
atom 5.4495773440250792 10.4334461842045183 67.2245453546532303 S
atom 9.8558896691621420 9.8558896691621261 67.2245453546532303 S
atom 5.3180095699377441 5.3180095699377334 72.2574014276741821 S
atom 9.8863544453498111 4.9024856051703480 72.2574014276741821 S
atom 4.9024856051703507 9.8863544453498005 72.2574014276741821 S
atom 10.4029814080168421 10.4029814080168439 72.2574014276741821 S
atom 5.0596960886041948 2.5677616685144793 69.9377592406844286 S
atom 10.0941164277334892 2.6183131674643225 69.3934413793092943 S
atom 5.1102475875540465 7.6021820076437558 69.3934413793092943 S
atom 10.1446679266833240 7.6527335065936031 69.9377592406844286 S
atom 2.5677616685144824 5.0596960886042028 69.9377592406844286 S
atom 7.6021820076437603 5.1102475875540376 69.3934413793092943 S
atom 2.6183131674643230 10.0941164277334749 69.3934413793092943 S
atom 7.6527335065935977 10.1446679266833293 69.9377592406844286 S
