#=======================================================
# FHI-aims file: sym_relax/sym_relax_RP_6_00Rz_00Rz.in
# Created using the Atomic Simulation Environment (ASE)
# Fri Mar 14 10:59:37 2025
#=======================================================
lattice_vector 9.9009233785158486 0.0000000483908517 -0.0000000000000000 
lattice_vector 0.0000000483908517 9.9009233785158486 0.0000000000000000 
lattice_vector -0.0000000000000000 0.0000000000000000 67.1542762955701562 
atom 0.0000000000000000 0.0000000000000000 0.1625327519799747 Ba
atom 4.9504616892579234 0.0000000241954248 0.1625327519799747 Ba
atom 0.0000000241954248 4.9504616892579216 0.1625327519799747 Ba
atom 4.9504617134533495 4.9504617134533513 0.1625327519799746 Ba
atom -0.0000000000000000 0.0000000000000000 5.0702179191719310 Ba
atom 4.9504616892579234 0.0000000241954248 5.0702179191719310 Ba
atom 0.0000000241954248 4.9504616892579216 5.0702179191719310 Ba
atom 4.9504617134533495 4.9504617134533513 5.0702179191719310 Ba
atom 2.4752308567266748 2.4752308567266756 2.4407607167125014 Zr
atom 7.4256925459846022 2.4752308809220995 2.4407607167125014 Zr
atom 2.4752308809220995 7.4256925459845986 2.4407607167125014 Zr
atom 7.4256925701800229 7.4256925701800220 2.4407607167125014 Zr
atom 2.4752308567266748 2.4752308567266756 7.5829482294562913 Zr
atom 7.4256925459846022 2.4752308809220995 7.5829482294562913 Zr
atom 2.4752308809220995 7.4256925459845986 7.5829482294562913 Zr
atom 7.4256925701800229 7.4256925701800220 7.5829482294562913 Zr
atom 2.4752308567266748 2.4752308567266756 -0.1030540443065547 S
atom 7.4256925459846022 2.4752308809220995 -0.1030540443065547 S
atom 2.4752308809220995 7.4256925459845986 -0.1030540443065547 S
atom 7.4256925701800229 7.4256925701800220 -0.1030540443065547 S
atom 2.4752308567266748 2.4752308567266756 5.0441930628225169 S
atom 7.4256925459846022 2.4752308809220995 5.0441930628225169 S
atom 2.4752308809220995 7.4256925459845986 5.0441930628225169 S
atom 7.4256925701800229 7.4256925701800220 5.0441930628225169 S
atom 2.0459912601573076 0.0000049779116262 2.5339475767432704 S
atom 7.8549321183585343 -0.0000049295207766 2.5339475767432704 S
atom 2.9044704532960379 4.9504567355417244 2.5339475767432704 S
atom 6.9964529736106620 4.9504666913649746 2.5339475767432704 S
atom 3.0113275565124740 -0.0000000609536277 7.6028539435737805 S
atom 6.8895958220033746 0.0000001093444764 7.6028539435737805 S
atom 1.9391341569408753 4.9504617744069783 7.6028539435737805 S
atom 7.9617892699658164 4.9504616524997243 7.6028539435737805 S
atom -0.0000049537162014 2.9044704291006145 2.5339475767432704 S
atom 4.9504666671695459 2.0459912843527364 2.5339475767432704 S
atom 0.0000050021070506 6.9964529494152368 2.5339475767432704 S
atom 4.9504567597371496 7.8549321425539640 2.5339475767432704 S
atom 0.0000000851490520 1.9391341327454519 7.6028539435737805 S
atom 4.9504616283043008 3.0113275807079001 7.6028539435737805 S
atom -0.0000000367582024 7.9617892457703974 7.6028539435737805 S
atom 4.9504617986023982 6.8895958461988007 7.6028539435737805 S
atom -0.0000000000000000 0.0000000000000000 10.1573187835974963 Ba
atom 4.9504616892579234 0.0000000241954248 10.1573187835974963 Ba
atom 0.0000000241954248 4.9504616892579216 10.1573187835974963 Ba
atom 4.9504617134533495 4.9504617134533513 10.1573187835974963 Ba
atom 0.0000000000000000 0.0000000000000000 15.2623355217205070 Ba
atom 4.9504616892579234 0.0000000241954248 15.2623355217205070 Ba
atom 0.0000000241954248 4.9504616892579216 15.2623355217205070 Ba
atom 4.9504617134533495 4.9504617134533513 15.2623355217205070 Ba
atom 2.4752308567266748 2.4752308567266756 12.7024578034195397 Zr
atom 7.4256925459846022 2.4752308809220995 12.7024578034195397 Zr
atom 2.4752308809220995 7.4256925459845986 12.7024578034195397 Zr
atom 7.4256925701800229 7.4256925701800220 12.7024578034195397 Zr
atom 2.4752308567266748 2.4752308567266756 17.8222132400214370 Zr
atom 7.4256925459846022 2.4752308809220995 17.8222132400214370 Zr
atom 2.4752308809220995 7.4256925459845986 17.8222132400214370 Zr
atom 7.4256925701800229 7.4256925701800220 17.8222132400214370 Zr
atom 2.4752308567266748 2.4752308567266756 10.1526777871220535 S
atom 7.4256925459846022 2.4752308809220995 10.1526777871220535 S
atom 2.4752308809220995 7.4256925459845986 10.1526777871220535 S
atom 7.4256925701800229 7.4256925701800220 10.1526777871220535 S
atom 2.4752308567266748 2.4752308567266756 15.2623355217205070 S
atom 7.4256925459846022 2.4752308809220995 15.2623355217205070 S
atom 2.4752308809220995 7.4256925459845986 15.2623355217205070 S
atom 7.4256925701800229 7.4256925701800220 15.2623355217205070 S
atom 1.9404267153132917 0.0000000100367954 12.7104828672376406 S
atom 7.9604966632025560 0.0000000383540542 12.7104828672376406 S
atom 3.0100349981400529 4.9504617034165577 12.7104828672376406 S
atom 6.8908884287666403 4.9504617234901405 12.7104828672376406 S
atom 3.0100349739446322 0.0000000141586294 17.8141881762033485 S
atom 6.8908884045712115 0.0000000342322202 17.8141881762033485 S
atom 1.9404267395087151 4.9504616992947188 17.8141881762033485 S
atom 7.9604966873979839 4.9504617276119749 17.8141881762033485 S
atom 0.0000000141586298 3.0100349739446335 12.7104828672376406 S
atom 4.9504616992947161 1.9404267395087162 12.7104828672376406 S
atom 0.0000000342322198 6.8908884045712142 12.7104828672376406 S
atom 4.9504617276119820 7.9604966873979830 12.7104828672376406 S
atom 0.0000000100367954 1.9404267153132930 17.8141881762033485 S
atom 4.9504617034165559 3.0100349981400583 17.8141881762033485 S
atom 0.0000000383540546 7.9604966632025596 17.8141881762033485 S
atom 4.9504617234901431 6.8908884287666456 17.8141881762033485 S
atom -0.0000000000000000 0.0000000000000000 20.3673522598435177 Ba
atom 4.9504616892579234 0.0000000241954248 20.3673522598435177 Ba
atom 0.0000000241954248 4.9504616892579216 20.3673522598435177 Ba
atom 4.9504617134533495 4.9504617134533513 20.3673522598435177 Ba
atom 0.0000000000000000 0.0000000000000000 25.4544531242690653 Ba
atom 4.9504616892579234 0.0000000241954248 25.4544531242690653 Ba
atom 0.0000000241954248 4.9504616892579216 25.4544531242690653 Ba
atom 4.9504617134533495 4.9504617134533513 25.4544531242690653 Ba
atom 2.4752308567266748 2.4752308567266756 22.9417228139846969 Zr
atom 7.4256925459846022 2.4752308809220995 22.9417228139846969 Zr
atom 2.4752308809220995 7.4256925459845986 22.9417228139846969 Zr
atom 7.4256925701800229 7.4256925701800220 22.9417228139846969 Zr
atom 2.4752308567266748 2.4752308567266756 28.0839103267285033 Zr
atom 7.4256925459846022 2.4752308809220995 28.0839103267285033 Zr
atom 2.4752308809220995 7.4256925459845986 28.0839103267285033 Zr
atom 7.4256925701800229 7.4256925701800220 28.0839103267285033 Zr
atom 2.4752308567266748 2.4752308567266756 20.3719932563189481 S
atom 7.4256925459846022 2.4752308809220995 20.3719932563189481 S
atom 2.4752308809220995 7.4256925459845986 20.3719932563189481 S
atom 7.4256925701800229 7.4256925701800220 20.3719932563189481 S
atom 2.4752308567266748 2.4752308567266756 25.4804779806184634 S
atom 7.4256925459846022 2.4752308809220995 25.4804779806184634 S
atom 2.4752308809220995 7.4256925459845986 25.4804779806184634 S
atom 7.4256925701800229 7.4256925701800220 25.4804779806184634 S
atom 1.9391341327454503 0.0000000851490525 22.9218170998672228 S
atom 7.9617892457703920 -0.0000000367582020 22.9218170998672228 S
atom 3.0113275807078970 4.9504616283042981 22.9218170998672228 S
atom 6.8895958461987989 4.9504617986023991 22.9218170998672228 S
atom 2.9044704291006167 -0.0000049537162014 27.9907234666977338 S
atom 6.9964529494152332 0.0000050021070510 27.9907234666977338 S
atom 2.0459912843527346 4.9504666671695521 27.9907234666977338 S
atom 7.8549321425539631 4.9504567597371478 27.9907234666977338 S
atom -0.0000000609536272 3.0113275565124766 22.9218170998672228 S
atom 4.9504617744069739 1.9391341569408751 22.9218170998672228 S
atom 0.0000001093444768 6.8895958220033782 22.9218170998672228 S
atom 4.9504616524997287 7.9617892699658217 22.9218170998672228 S
atom 0.0000049779116262 2.0459912601573120 27.9907234666977338 S
atom 4.9504567355417253 2.9044704532960397 27.9907234666977338 S
atom -0.0000049295207770 7.8549321183585423 27.9907234666977338 S
atom 4.9504666913649684 6.9964529736106593 27.9907234666977338 S
atom -0.0000000000000000 0.0000000000000000 30.3621382914610294 Ba
atom 4.9504616892579234 0.0000000241954248 30.3621382914610294 Ba
atom 0.0000000241954248 4.9504616892579216 30.3621382914610294 Ba
atom 4.9504617134533495 4.9504617134533513 30.3621382914610294 Ba
atom 2.4752308567266748 2.4752308567266756 30.6277250877475566 S
atom 7.4256925459846022 2.4752308809220995 30.6277250877475566 S
atom 2.4752308809220995 7.4256925459845986 30.6277250877475566 S
atom 7.4256925701800229 7.4256925701800220 30.6277250877475566 S
atom 2.4752308567266748 2.4752308567266756 33.7396708997650805 Ba
atom 7.4256925459846022 2.4752308809220995 33.7396708997650805 Ba
atom 2.4752308809220995 7.4256925459845986 33.7396708997650805 Ba
atom 7.4256925701800229 7.4256925701800220 33.7396708997650805 Ba
atom 2.4752308567266748 2.4752308567266756 38.6473560669570304 Ba
atom 7.4256925459846022 2.4752308809220995 38.6473560669570304 Ba
atom 2.4752308809220995 7.4256925459845986 38.6473560669570304 Ba
atom 7.4256925701800229 7.4256925701800220 38.6473560669570304 Ba
atom 4.9504617134533495 4.9504617134533513 36.0178988644975817 Zr
atom 9.9009234027112800 4.9504617376487703 36.0178988644975817 Zr
atom 4.9504617376487694 9.9009234027112729 36.0178988644975817 Zr
atom 9.9009234269066990 9.9009234269067026 36.0178988644975817 Zr
atom 4.9504617134533495 4.9504617134533513 41.1600863772414272 Zr
atom 9.9009234027112800 4.9504617376487703 41.1600863772414272 Zr
atom 4.9504617376487694 9.9009234027112729 41.1600863772414272 Zr
atom 9.9009234269066990 9.9009234269067026 41.1600863772414272 Zr
atom 4.9504617134533495 4.9504617134533513 33.4740841034785603 S
atom 9.9009234027112800 4.9504617376487703 33.4740841034785603 S
atom 4.9504617376487694 9.9009234027112729 33.4740841034785603 S
atom 9.9009234269066990 9.9009234269067026 33.4740841034785603 S
atom 4.9504617134533495 4.9504617134533513 38.6213312106075861 S
atom 9.9009234027112800 4.9504617376487703 38.6213312106075861 S
atom 4.9504617376487694 9.9009234027112729 38.6213312106075861 S
atom 9.9009234269066990 9.9009234269067026 38.6213312106075861 S
atom 4.5212221168839921 2.4752358346383003 36.1110857245283512 S
atom 10.3301629750851980 2.4752259272059001 36.1110857245283512 S
atom 5.3797013100227140 7.4256875922683960 36.1110857245283512 S
atom 9.4716838303373247 7.4256975480916507 36.1110857245283512 S
atom 5.4865584132391483 2.4752307957730459 41.1799920913589119 S
atom 9.3648266787300507 2.4752309660711544 41.1799920913589119 S
atom 4.4143650136675472 7.4256926311336526 41.1799920913589119 S
atom 10.4370201266925076 7.4256925092264003 41.1799920913589119 S
atom 2.4752259030104740 5.3797012858272932 36.1110857245283512 S
atom 7.4256975238962148 4.5212221410794076 36.1110857245283512 S
atom 2.4752358588337260 9.4716838061419288 36.1110857245283512 S
atom 7.4256876164638186 10.3301629992806365 36.1110857245283512 S
atom 2.4752309418757288 4.4143649894721273 41.1799920913589119 S
atom 7.4256924850309742 5.4865584374345691 41.1799920913589119 S
atom 2.4752308199684712 10.4370201024970797 41.1799920913589119 S
atom 7.4256926553290752 9.3648267029254715 41.1799920913589119 S
atom 2.4752308567266748 2.4752308567266756 43.7344569313825886 Ba
atom 7.4256925459846022 2.4752308809220995 43.7344569313825886 Ba
atom 2.4752308809220995 7.4256925459845986 43.7344569313825886 Ba
atom 7.4256925701800229 7.4256925701800220 43.7344569313825886 Ba
atom 2.4752308567266748 2.4752308567266756 48.8394736695055940 Ba
atom 7.4256925459846022 2.4752308809220995 48.8394736695055940 Ba
atom 2.4752308809220995 7.4256925459845986 48.8394736695055940 Ba
atom 7.4256925701800229 7.4256925701800220 48.8394736695055940 Ba
atom 4.9504617134533495 4.9504617134533513 46.2795959512046480 Zr
atom 9.9009234027112800 4.9504617376487703 46.2795959512046480 Zr
atom 4.9504617376487694 9.9009234027112729 46.2795959512046480 Zr
atom 9.9009234269066990 9.9009234269067026 46.2795959512046480 Zr
atom 4.9504617134533495 4.9504617134533513 51.3993513878065613 Zr
atom 9.9009234027112800 4.9504617376487703 51.3993513878065613 Zr
atom 4.9504617376487694 9.9009234027112729 51.3993513878065613 Zr
atom 9.9009234269066990 9.9009234269067026 51.3993513878065613 Zr
atom 4.9504617134533495 4.9504617134533513 43.7298159349071298 S
atom 9.9009234027112800 4.9504617376487703 43.7298159349071298 S
atom 4.9504617376487694 9.9009234027112729 43.7298159349071298 S
atom 9.9009234269066990 9.9009234269067026 43.7298159349071298 S
atom 4.9504617134533495 4.9504617134533513 48.8394736695055940 S
atom 9.9009234027112800 4.9504617376487703 48.8394736695055940 S
atom 4.9504617376487694 9.9009234027112729 48.8394736695055940 S
atom 9.9009234269066990 9.9009234269067026 48.8394736695055940 S
atom 4.4156575720399687 2.4752308667634715 46.2876210150226797 S
atom 10.4357275199292303 2.4752308950807302 46.2876210150226797 S
atom 5.4852658548667286 7.4256925601432275 46.2876210150226797 S
atom 9.3661192854933191 7.4256925802168219 46.2876210150226797 S
atom 5.4852658306713096 2.4752308708853064 51.3913263239884941 S
atom 9.3661192612978965 2.4752308909588971 51.3913263239884941 S
atom 4.4156575962353930 7.4256925560213940 51.3913263239884941 S
atom 10.4357275441246458 7.4256925843386554 51.3913263239884941 S
atom 2.4752308708853037 5.4852658306713051 46.2876210150226797 S
atom 7.4256925560213851 4.4156575962353966 46.2876210150226797 S
atom 2.4752308909588967 9.3661192612978947 46.2876210150226797 S
atom 7.4256925843386510 10.4357275441246440 46.2876210150226797 S
atom 2.4752308667634733 4.4156575720399687 51.3913263239884941 S
atom 7.4256925601432258 5.4852658548667277 51.3913263239884941 S
atom 2.4752308950807325 10.4357275199292321 51.3913263239884941 S
atom 7.4256925802168201 9.3661192854933191 51.3913263239884941 S
atom 2.4752308567266748 2.4752308567266756 53.9444904076286065 Ba
atom 7.4256925459846022 2.4752308809220995 53.9444904076286065 Ba
atom 2.4752308809220995 7.4256925459845986 53.9444904076286065 Ba
atom 7.4256925701800229 7.4256925701800220 53.9444904076286065 Ba
atom 2.4752308567266748 2.4752308567266756 59.0315912720541434 Ba
atom 7.4256925459846022 2.4752308809220995 59.0315912720541434 Ba
atom 2.4752308809220995 7.4256925459845986 59.0315912720541434 Ba
atom 7.4256925701800229 7.4256925701800220 59.0315912720541434 Ba
atom 4.9504617134533495 4.9504617134533513 56.5188609617698035 Zr
atom 9.9009234027112800 4.9504617376487703 56.5188609617698035 Zr
atom 4.9504617376487694 9.9009234027112729 56.5188609617698035 Zr
atom 9.9009234269066990 9.9009234269067026 56.5188609617698035 Zr
atom 4.9504617134533495 4.9504617134533513 61.6610484745136418 Zr
atom 9.9009234027112800 4.9504617376487703 61.6610484745136418 Zr
atom 4.9504617376487694 9.9009234027112729 61.6610484745136418 Zr
atom 9.9009234269066990 9.9009234269067026 61.6610484745136418 Zr
atom 4.9504617134533495 4.9504617134533513 53.9491314041040226 S
atom 9.9009234027112800 4.9504617376487703 53.9491314041040226 S
atom 4.9504617376487694 9.9009234027112729 53.9491314041040226 S
atom 9.9009234269066990 9.9009234269067026 53.9491314041040226 S
atom 4.9504617134533495 4.9504617134533513 59.0576161284036232 S
atom 9.9009234027112800 4.9504617376487703 59.0576161284036232 S
atom 4.9504617376487694 9.9009234027112729 59.0576161284036232 S
atom 9.9009234269066990 9.9009234269067026 59.0576161284036232 S
atom 4.4143649894721282 2.4752309418757301 56.4989552476522832 S
atom 10.4370201024970850 2.4752308199684729 56.4989552476522832 S
atom 5.4865584374345726 7.4256924850309742 56.4989552476522832 S
atom 9.3648267029254679 7.4256926553290823 56.4989552476522832 S
atom 5.3797012858272897 2.4752259030104744 61.5678616144828794 S
atom 9.4716838061419022 2.4752358588337229 61.5678616144828794 S
atom 4.5212221410794147 7.4256975238962264 61.5678616144828794 S
atom 10.3301629992806312 7.4256876164638213 61.5678616144828794 S
atom 2.4752307957730451 5.4865584132391509 56.4989552476522832 S
atom 7.4256926311336438 4.4143650136675481 56.4989552476522832 S
atom 2.4752309660711540 9.3648266787300365 56.4989552476522832 S
atom 7.4256925092263932 10.4370201266925076 56.4989552476522832 S
atom 2.4752358346383012 4.5212221168839850 61.5678616144828794 S
atom 7.4256875922683907 5.3797013100227105 61.5678616144828794 S
atom 2.4752259272059018 10.3301629750852104 61.5678616144828794 S
atom 7.4256975480916427 9.4716838303373407 61.5678616144828794 S
atom 2.4752308567266748 2.4752308567266756 63.9392764392460862 Ba
atom 7.4256925459846022 2.4752308809220995 63.9392764392460862 Ba
atom 2.4752308809220995 7.4256925459845986 63.9392764392460862 Ba
atom 7.4256925701800229 7.4256925701800220 63.9392764392460862 Ba
atom 4.9504617134533495 4.9504617134533513 64.2048632355326276 S
atom 9.9009234027112800 4.9504617376487703 64.2048632355326276 S
atom 4.9504617376487694 9.9009234027112729 64.2048632355326276 S
atom 9.9009234269066990 9.9009234269067026 64.2048632355326276 S
