#=======================================================
# FHI-aims file: sym_relax/sym_relax_RP_7_Rx00_0-Ry0.in
# Created using the Atomic Simulation Environment (ASE)
# Mon Mar 17 15:43:11 2025
#=======================================================
lattice_vector 10.0840548369188046 -0.0000000000000004 0.0000000000000000 
lattice_vector -0.0000000000000004 10.0840548369188046 -0.0000000000000000 
lattice_vector -0.0000000000000000 -0.0000000000000000 74.9000042567820969 
atom -0.1534000222621765 0.0000000000000000 0.2792669079926550 Ba
atom 5.1954274407215806 -0.0000000000000000 0.2792669079926550 Ba
atom 0.1534000222621765 5.0420274184594023 0.2792669079926550 Ba
atom 4.8886273961972213 5.0420274184594023 0.2792669079926550 Ba
atom 0.0277857654674138 -0.0000000000000000 4.9451525143581758 Ba
atom 5.0142416529919824 0.0000000000000000 4.9451525143581758 Ba
atom -0.0277857654674138 5.0420274184594023 4.9451525143581758 Ba
atom 5.0698131839268239 5.0420274184594023 4.9451525143581758 Ba
atom 2.5210137092297011 2.5084479235902948 2.3202743286289751 Zr
atom 7.5630411276891056 2.5335794948691093 2.3202743286289751 Zr
atom 2.5210137092297011 7.5756069133285022 2.3202743286289751 Zr
atom 7.5630411276891056 7.5504753420497011 2.3202743286289751 Zr
atom 2.5210137092297011 2.5198134818999005 7.3318792540968865 Zr
atom 7.5630411276891056 2.5222139365595027 7.3318792540968865 Zr
atom 2.5210137092297011 7.5642413550189112 7.3318792540968865 Zr
atom 7.5630411276891056 7.5618409003592957 7.3318792540968865 Zr
atom 2.5210137092297011 2.8750096130070077 -0.1608420265370959 S
atom 7.5630411276891056 2.1670178054523950 -0.1608420265370959 S
atom 2.5210137092297011 7.2090452239117981 -0.1608420265370959 S
atom 7.5630411276891056 7.9170370314664078 -0.1608420265370959 S
atom 2.5210137092297011 2.0477481111148004 4.8622352091168386 S
atom 7.5630411276891056 2.9942793073446028 4.8622352091168386 S
atom 2.5210137092297011 8.0363067258040015 4.8622352091168386 S
atom 7.5630411276891056 7.0897755295741991 4.8622352091168386 S
atom 2.5210137092297011 -0.0000000000000000 2.0051261841370538 S
atom 7.5630411276891056 -0.0000000000000000 2.7975737253644706 S
atom 2.5210137092297011 5.0420274184594023 2.7975737253644706 S
atom 7.5630411276891056 5.0420274184594023 2.0051261841370538 S
atom 2.5210137092297011 -0.0000000000000000 7.8109324856293370 S
atom 7.5630411276891056 -0.0000000000000000 6.8755714821101872 S
atom 2.5210137092297011 5.0420274184594023 6.8755714821101872 S
atom 7.5630411276891056 5.0420274184594023 7.8109324856293370 S
atom -0.0000000000000000 2.5210137092297011 2.4554136702294644 S
atom 5.0420274184594023 2.5210137092297011 2.4554136702294644 S
atom -0.0000000000000000 7.5630411276891056 2.4554136702294644 S
atom 5.0420274184594023 7.5630411276891056 2.4554136702294644 S
atom -0.0000000000000000 2.5210137092297011 7.3492381145125165 S
atom 5.0420274184594023 2.5210137092297011 7.3492381145125165 S
atom -0.0000000000000000 7.5630411276891056 7.3492381145125165 S
atom 5.0420274184594023 7.5630411276891056 7.3492381145125165 S
atom -0.0077172265705112 0.0000000000000000 9.8377515255740313 Ba
atom 5.0497446450299135 -0.0000000000000000 9.8377515255740313 Ba
atom 0.0077172265705112 5.0420274184594023 9.8377515255740313 Ba
atom 5.0343101918888911 5.0420274184594023 9.8377515255740313 Ba
atom 0.0073849006160492 -0.0000000000000000 14.7759387518112248 Ba
atom 5.0346425178433512 0.0000000000000000 14.7759387518112248 Ba
atom -0.0073849006160492 5.0420274184594023 14.7759387518112248 Ba
atom 5.0494123190754552 5.0420274184594023 14.7759387518112248 Ba
atom 2.5210137092297011 2.5225136049977319 12.2903472237773919 Zr
atom 7.5630411276891056 2.5195138134616695 12.2903472237773919 Zr
atom 2.5210137092297011 7.5615412319210771 12.2903472237773919 Zr
atom 7.5630411276891056 7.5645410234571306 12.2903472237773919 Zr
atom 2.5210137092297011 2.5210137092297011 17.2467115064958669 Zr
atom 7.5630411276891056 2.5210137092297011 17.2467115064958669 Zr
atom 2.5210137092297011 7.5630411276891056 17.2467115064958669 Zr
atom 7.5630411276891056 7.5630411276891056 17.2467115064958669 Zr
atom 2.5210137092297011 3.0291595308790304 9.8178334492125696 S
atom 7.5630411276891056 2.0128678875803749 9.8178334492125696 S
atom 2.5210137092297011 7.0548953060397768 9.8178334492125696 S
atom 7.5630411276891056 8.0711869493384327 9.8178334492125696 S
atom 2.5210137092297011 2.0114806972366530 14.7701499238365592 S
atom 7.5630411276891056 3.0305467212227488 14.7701499238365592 S
atom 2.5210137092297011 8.0725741396821604 14.7701499238365592 S
atom 7.5630411276891056 7.0535081156960624 14.7701499238365592 S
atom 2.5210137092297011 -0.0000000000000000 11.8190777335061679 S
atom 7.5630411276891056 -0.0000000000000000 12.7774337264530633 S
atom 2.5210137092297011 5.0420274184594023 12.7774337264530633 S
atom 7.5630411276891056 5.0420274184594023 11.8190777335061679 S
atom 2.5210137092297011 -0.0000000000000000 17.7264344502299274 S
atom 7.5630411276891056 -0.0000000000000000 16.7669885627617710 S
atom 2.5210137092297011 5.0420274184594023 16.7669885627617710 S
atom 7.5630411276891056 5.0420274184594023 17.7264344502299274 S
atom -0.0000000000000000 2.5210137092297011 12.2977657475118747 S
atom 5.0420274184594023 2.5210137092297011 12.2977657475118747 S
atom -0.0000000000000000 7.5630411276891056 12.2977657475118747 S
atom 5.0420274184594023 7.5630411276891056 12.2977657475118747 S
atom 0.0000000000000000 2.5210137092297011 17.2467115064958669 S
atom 5.0420274184594023 2.5210137092297011 17.2467115064958669 S
atom -0.0000000000000000 7.5630411276891056 17.2467115064958669 S
atom 5.0420274184594023 7.5630411276891056 17.2467115064958669 S
atom -0.0073849006160492 0.0000000000000000 19.7174842611805126 Ba
atom 5.0494123190754552 -0.0000000000000000 19.7174842611805126 Ba
atom 0.0073849006160492 5.0420274184594023 19.7174842611805126 Ba
atom 5.0346425178433512 5.0420274184594023 19.7174842611805126 Ba
atom 0.0077172265705112 -0.0000000000000000 24.6556714874176883 Ba
atom 5.0343101918888911 0.0000000000000000 24.6556714874176883 Ba
atom -0.0077172265705112 5.0420274184594023 24.6556714874176883 Ba
atom 5.0497446450299135 5.0420274184594023 24.6556714874176883 Ba
atom 2.5210137092297011 2.5195138134616695 22.2030757892143562 Zr
atom 7.5630411276891056 2.5225136049977319 22.2030757892143562 Zr
atom 2.5210137092297011 7.5645410234571306 22.2030757892143562 Zr
atom 7.5630411276891056 7.5615412319210771 22.2030757892143562 Zr
atom 2.5210137092297011 2.5222139365595027 27.1615437588948225 Zr
atom 7.5630411276891056 2.5198134818999005 27.1615437588948225 Zr
atom 2.5210137092297011 7.5618409003592957 27.1615437588948225 Zr
atom 7.5630411276891056 7.5642413550189112 27.1615437588948225 Zr
atom 2.5210137092297011 3.0305467212227488 19.7232730891551604 S
atom 7.5630411276891056 2.0114806972366535 19.7232730891551604 S
atom 2.5210137092297011 7.0535081156960624 19.7232730891551604 S
atom 7.5630411276891056 8.0725741396821604 19.7232730891551604 S
atom 2.5210137092297011 2.0128678875803749 24.6755895637791696 S
atom 7.5630411276891056 3.0291595308790304 24.6755895637791696 S
atom 2.5210137092297011 8.0711869493384327 24.6755895637791696 S
atom 7.5630411276891056 7.0548953060397768 24.6755895637791696 S
atom 2.5210137092297011 -0.0000000000000000 21.7159892865386652 S
atom 7.5630411276891056 -0.0000000000000000 22.6743452794855536 S
atom 2.5210137092297011 5.0420274184594023 22.6743452794855536 S
atom 7.5630411276891056 5.0420274184594023 21.7159892865386652 S
atom 2.5210137092297011 -0.0000000000000000 27.6178515308815591 S
atom 7.5630411276891056 -0.0000000000000000 26.6824905273623685 S
atom 2.5210137092297011 5.0420274184594023 26.6824905273623685 S
atom 7.5630411276891056 5.0420274184594023 27.6178515308815591 S
atom -0.0000000000000000 2.5210137092297011 22.1956572654798556 S
atom 5.0420274184594023 2.5210137092297011 22.1956572654798556 S
atom -0.0000000000000000 7.5630411276891056 22.1956572654798556 S
atom 5.0420274184594023 7.5630411276891056 22.1956572654798556 S
atom -0.0000000000000000 2.5210137092297011 27.1441848984792031 S
atom 5.0420274184594023 2.5210137092297011 27.1441848984792031 S
atom -0.0000000000000000 7.5630411276891056 27.1441848984792031 S
atom 5.0420274184594023 7.5630411276891056 27.1441848984792031 S
atom -0.0277857654674138 0.0000000000000000 29.5482704986335492 Ba
atom 5.0698131839268239 -0.0000000000000000 29.5482704986335492 Ba
atom 0.0277857654674138 5.0420274184594023 29.5482704986335492 Ba
atom 5.0142416529919824 5.0420274184594023 29.5482704986335492 Ba
atom 0.1534000222621765 -0.0000000000000000 34.2141561049990699 Ba
atom 4.8886273961972213 0.0000000000000000 34.2141561049990699 Ba
atom -0.1534000222621765 5.0420274184594023 34.2141561049990699 Ba
atom 5.1954274407215806 5.0420274184594023 34.2141561049990699 Ba
atom 2.5210137092297011 2.5335794948691093 32.1731486843628005 Zr
atom 7.5630411276891056 2.5084479235902948 32.1731486843628005 Zr
atom 2.5210137092297011 7.5504753420497011 32.1731486843628005 Zr
atom 7.5630411276891056 7.5756069133285022 32.1731486843628005 Zr
atom 2.5210137092297011 2.9942793073446028 29.6311878038748802 S
atom 7.5630411276891056 2.0477481111148004 29.6311878038748802 S
atom 2.5210137092297011 7.0897755295742009 29.6311878038748802 S
atom 7.5630411276891056 8.0363067258040015 29.6311878038748802 S
atom 2.5210137092297011 2.1670178054523950 34.6542650395288234 S
atom 7.5630411276891056 2.8750096130070077 34.6542650395288234 S
atom 2.5210137092297011 7.9170370314664078 34.6542650395288234 S
atom 7.5630411276891056 7.2090452239117981 34.6542650395288234 S
atom 2.5210137092297011 -0.0000000000000000 31.6958492876272686 S
atom 7.5630411276891056 -0.0000000000000000 32.4882968288546010 S
atom 2.5210137092297011 5.0420274184594023 32.4882968288546010 S
atom 7.5630411276891056 5.0420274184594023 31.6958492876272686 S
atom -0.0000000000000000 2.5210137092297011 32.0380093427622583 S
atom 5.0420274184594023 2.5210137092297011 32.0380093427622583 S
atom -0.0000000000000000 7.5630411276891056 32.0380093427622583 S
atom 5.0420274184594023 7.5630411276891056 32.0380093427622583 S
atom 2.5210137092297011 2.6744137314918768 37.7292690363836840 Ba
atom 7.5630411276891056 2.3676136869675273 37.7292690363836840 Ba
atom 2.5210137092297011 7.4096411054269273 37.7292690363836840 Ba
atom 7.5630411276891056 7.7164411499512813 37.7292690363836840 Ba
atom 2.5210137092297011 2.4932279437622871 42.3951546427492261 Ba
atom 7.5630411276891056 2.5487994746971125 42.3951546427492261 Ba
atom 2.5210137092297011 7.5908268931565237 42.3951546427492261 Ba
atom 7.5630411276891056 7.5352553622216876 42.3951546427492261 Ba
atom 5.0545932040988069 5.0420274184594023 39.7702764570199960 Zr
atom 10.0714890512793982 5.0420274184594023 39.7702764570199960 Zr
atom 5.0294616328199986 10.0840548369188046 39.7702764570199960 Zr
atom 10.0966206225582162 10.0840548369188046 39.7702764570199960 Zr
atom 5.0432276457892096 5.0420274184594023 44.7818813824878958 Zr
atom 10.0828546095890061 5.0420274184594023 44.7818813824878958 Zr
atom 5.0408271911296021 10.0840548369188046 44.7818813824878958 Zr
atom 10.0852550642486101 10.0840548369188046 44.7818813824878958 Zr
atom 4.6880315146821010 5.0420274184594023 37.2891601018539447 S
atom 10.4380507406961076 5.0420274184594023 37.2891601018539447 S
atom 5.3960233222367044 10.0840548369188046 37.2891601018539447 S
atom 9.7300589331415104 10.0840548369188046 37.2891601018539447 S
atom 5.5152930165743070 5.0420274184594023 42.3122373375078666 S
atom 9.6107892388038945 5.0420274184594023 42.3122373375078666 S
atom 4.5687618203444984 10.0840548369188046 42.3122373375078666 S
atom 10.5573204350337040 10.0840548369188046 42.3122373375078666 S
atom 5.0420274184594023 2.5210137092297011 39.9054157986205169 S
atom 10.0840548369188046 2.5210137092297011 39.9054157986205169 S
atom 5.0420274184594023 7.5630411276891056 39.9054157986205169 S
atom 10.0840548369188046 7.5630411276891056 39.9054157986205169 S
atom 5.0420274184594023 2.5210137092297011 44.7992402429035010 S
atom 10.0840548369188046 2.5210137092297011 44.7992402429035010 S
atom 5.0420274184594023 7.5630411276891056 44.7992402429035010 S
atom 10.0840548369188046 7.5630411276891056 44.7992402429035010 S
atom 2.5210137092297011 5.0420274184594023 40.2475758537554000 S
atom 7.5630411276891056 5.0420274184594023 39.4551283125281245 S
atom 2.5210137092297011 10.0840548369188046 39.4551283125281245 S
atom 7.5630411276891056 10.0840548369188046 40.2475758537554000 S
atom 2.5210137092297011 5.0420274184594023 44.3255736105011735 S
atom 7.5630411276891056 5.0420274184594023 45.2609346140203357 S
atom 2.5210137092297011 10.0840548369188046 45.2609346140203357 S
atom 7.5630411276891056 10.0840548369188046 44.3255736105011735 S
atom 2.5210137092297011 2.5287309358002141 47.2877536539650336 Ba
atom 7.5630411276891056 2.5132964826591873 47.2877536539650336 Ba
atom 2.5210137092297011 7.5553239011185944 47.2877536539650336 Ba
atom 7.5630411276891056 7.5707583542596151 47.2877536539650336 Ba
atom 2.5210137092297011 2.5136288086136518 52.2259408802022733 Ba
atom 7.5630411276891056 2.5283986098457514 52.2259408802022733 Ba
atom 2.5210137092297011 7.5704260283051523 52.2259408802022733 Ba
atom 7.5630411276891056 7.5556562270730554 52.2259408802022733 Ba
atom 5.0405275226913737 5.0420274184594023 49.7403493521684581 Zr
atom 10.0855547326868376 5.0420274184594023 49.7403493521684581 Zr
atom 5.0435273142274282 10.0840548369188046 49.7403493521684581 Zr
atom 10.0825549411507769 10.0840548369188046 49.7403493521684581 Zr
atom 5.0420274184594023 5.0420274184594023 54.6967136348868692 Zr
atom 10.0840548369188046 5.0420274184594023 54.6967136348868692 Zr
atom 5.0420274184594023 10.0840548369188046 54.6967136348868692 Zr
atom 10.0840548369188046 10.0840548369188046 54.6967136348868692 Zr
atom 4.5338815968100832 5.0420274184594023 47.2678355776035986 S
atom 10.5922006585681316 5.0420274184594023 47.2678355776035986 S
atom 5.5501732401087311 10.0840548369188046 47.2678355776035986 S
atom 9.5759090152694775 10.0840548369188046 47.2678355776035986 S
atom 5.5515604304524464 5.0420274184594023 52.2201520522275899 S
atom 9.5745218249257604 5.0420274184594023 52.2201520522275899 S
atom 4.5324944064663546 10.0840548369188046 52.2201520522275899 S
atom 10.5935878489118522 10.0840548369188046 52.2201520522275899 S
atom 5.0420274184594023 2.5210137092297011 49.7477678759028663 S
atom 10.0840548369188046 2.5210137092297011 49.7477678759028663 S
atom 5.0420274184594023 7.5630411276891056 49.7477678759028663 S
atom 10.0840548369188046 7.5630411276891056 49.7477678759028663 S
atom 5.0420274184594023 2.5210137092297011 54.6967136348868692 S
atom 10.0840548369188046 2.5210137092297011 54.6967136348868692 S
atom 5.0420274184594023 7.5630411276891056 54.6967136348868692 S
atom 10.0840548369188046 7.5630411276891056 54.6967136348868692 S
atom 2.5210137092297011 5.0420274184594023 50.2274358548440674 S
atom 7.5630411276891056 5.0420274184594023 49.2690798618972110 S
atom 2.5210137092297011 10.0840548369188046 49.2690798618972110 S
atom 7.5630411276891056 10.0840548369188046 50.2274358548440674 S
atom 2.5210137092297011 5.0420274184594023 54.2169906911527946 S
atom 7.5630411276891056 5.0420274184594023 55.1764365786209865 S
atom 2.5210137092297011 10.0840548369188046 55.1764365786209865 S
atom 7.5630411276891056 10.0840548369188046 54.2169906911527946 S
atom 2.5210137092297011 2.5283986098457514 57.1674863895714935 Ba
atom 7.5630411276891056 2.5136288086136518 57.1674863895714935 Ba
atom 2.5210137092297011 7.5556562270730554 57.1674863895714935 Ba
atom 7.5630411276891056 7.5704260283051523 57.1674863895714935 Ba
atom 2.5210137092297011 2.5132964826591873 62.1056736158087048 Ba
atom 7.5630411276891056 2.5287309358002141 62.1056736158087048 Ba
atom 2.5210137092297011 7.5707583542596151 62.1056736158087048 Ba
atom 7.5630411276891056 7.5553239011185944 62.1056736158087048 Ba
atom 5.0435273142274282 5.0420274184594023 59.6530779176052732 Zr
atom 10.0825549411507769 5.0420274184594023 59.6530779176052732 Zr
atom 5.0405275226913737 10.0840548369188046 59.6530779176052732 Zr
atom 10.0855547326868376 10.0840548369188046 59.6530779176052732 Zr
atom 5.0408271911296021 5.0420274184594023 64.6115458872857289 Zr
atom 10.0852550642486101 5.0420274184594023 64.6115458872857289 Zr
atom 5.0432276457892096 10.0840548369188046 64.6115458872857289 Zr
atom 10.0828546095890061 10.0840548369188046 64.6115458872857289 Zr
atom 4.5324944064663546 5.0420274184594023 57.1732752175461769 S
atom 10.5935878489118522 5.0420274184594023 57.1732752175461769 S
atom 5.5515604304524464 10.0840548369188046 57.1732752175461769 S
atom 9.5745218249257604 10.0840548369188046 57.1732752175461769 S
atom 5.5501732401087311 5.0420274184594023 62.1255916921701399 S
atom 9.5759090152694775 5.0420274184594023 62.1255916921701399 S
atom 4.5338815968100832 10.0840548369188046 62.1255916921701399 S
atom 10.5922006585681316 10.0840548369188046 62.1255916921701399 S
atom 5.0420274184594023 2.5210137092297011 59.6456593938708579 S
atom 10.0840548369188046 2.5210137092297011 59.6456593938708579 S
atom 5.0420274184594023 7.5630411276891056 59.6456593938708579 S
atom 10.0840548369188046 7.5630411276891056 59.6456593938708579 S
atom 5.0420274184594023 2.5210137092297011 64.5941870268701734 S
atom 10.0840548369188046 2.5210137092297011 64.5941870268701734 S
atom 5.0420274184594023 7.5630411276891056 64.5941870268701734 S
atom 10.0840548369188046 7.5630411276891056 64.5941870268701734 S
atom 2.5210137092297011 5.0420274184594023 60.1243474078765416 S
atom 7.5630411276891056 5.0420274184594023 59.1659914149296853 S
atom 2.5210137092297011 10.0840548369188046 59.1659914149296853 S
atom 7.5630411276891056 10.0840548369188046 60.1243474078765416 S
atom 2.5210137092297011 5.0420274184594023 64.1324926557533672 S
atom 7.5630411276891056 5.0420274184594023 65.0678536592724726 S
atom 2.5210137092297011 10.0840548369188046 65.0678536592724726 S
atom 7.5630411276891056 10.0840548369188046 64.1324926557533672 S
atom 2.5210137092297011 2.5487994746971125 66.9982726270245053 Ba
atom 7.5630411276891056 2.4932279437622871 66.9982726270245053 Ba
atom 2.5210137092297011 7.5352553622216876 66.9982726270245053 Ba
atom 7.5630411276891056 7.5908268931565237 66.9982726270245053 Ba
atom 2.5210137092297011 2.3676136869675273 71.6641582333900828 Ba
atom 7.5630411276891056 2.6744137314918768 71.6641582333900828 Ba
atom 2.5210137092297011 7.7164411499512813 71.6641582333900828 Ba
atom 7.5630411276891056 7.4096411054269273 71.6641582333900828 Ba
atom 5.0294616328199986 5.0420274184594023 69.6231508127537495 Zr
atom 10.0966206225582162 5.0420274184594023 69.6231508127537495 Zr
atom 5.0545932040988069 10.0840548369188046 69.6231508127537495 Zr
atom 10.0714890512793982 10.0840548369188046 69.6231508127537495 Zr
atom 4.5687618203444984 5.0420274184594023 67.0811899322658718 S
atom 10.5573204350337040 5.0420274184594023 67.0811899322658718 S
atom 5.5152930165743053 10.0840548369188046 67.0811899322658718 S
atom 9.6107892388038945 10.0840548369188046 67.0811899322658718 S
atom 5.3960233222367044 5.0420274184594023 72.1042671679198719 S
atom 9.7300589331415104 5.0420274184594023 72.1042671679198719 S
atom 4.6880315146821010 10.0840548369188046 72.1042671679198719 S
atom 10.4380507406961076 10.0840548369188046 72.1042671679198719 S
atom 5.0420274184594023 2.5210137092297011 69.4880114711532002 S
atom 10.0840548369188046 2.5210137092297011 69.4880114711532002 S
atom 5.0420274184594023 7.5630411276891056 69.4880114711532002 S
atom 10.0840548369188046 7.5630411276891056 69.4880114711532002 S
atom 2.5210137092297011 5.0420274184594023 69.9382989572456921 S
atom 7.5630411276891056 5.0420274184594023 69.1458514160183171 S
atom 2.5210137092297011 10.0840548369188046 69.1458514160183171 S
atom 7.5630411276891056 10.0840548369188046 69.9382989572456921 S
