#=======================================================
# FHI-aims file: sym_relax/sym_relax_RP_2_00Mz1_00Mz2.in
# Created using the Atomic Simulation Environment (ASE)
# Fri Mar 14 10:20:42 2025
#=======================================================
lattice_vector 9.9627875000742900 0.0000000000011824 0.0000000000000000 
lattice_vector 0.0000000000011824 9.9627875000742900 0.0000000000000000 
lattice_vector 0.0000000000000000 0.0000000000000000 26.0321919370132981 
atom 0.0000000000000000 0.0000000000000000 0.2025436974017085 Ba
atom 4.9813937500371441 0.0000000000005910 0.2025436974017085 Ba
atom 0.0000000000005910 4.9813937500371441 0.2025436974017085 Ba
atom 4.9813937500377348 4.9813937500377348 0.2025436974017085 Ba
atom 0.0000000000000000 0.0000000000000000 5.0061907571179409 Ba
atom 4.9813937500371441 0.0000000000005910 5.0061907571179409 Ba
atom 0.0000000000005910 4.9813937500371441 5.0061907571179409 Ba
atom 4.9813937500377348 4.9813937500377348 5.0061907571179409 Ba
atom 2.4906968750188674 2.4906968750188674 2.4290293669445888 Zr
atom 7.4720906250560120 2.4906968750194589 2.4290293669445888 Zr
atom 2.4906968750194589 7.4720906250560102 2.4290293669445888 Zr
atom 7.4720906250565990 7.4720906250566035 2.4290293669445888 Zr
atom 2.4906968750188674 2.4906968750188674 7.5833521472912908 Zr
atom 7.4720906250560120 2.4906968750194589 7.5833521472912908 Zr
atom 2.4906968750194589 7.4720906250560102 7.5833521472912908 Zr
atom 7.4720906250565990 7.4720906250566035 7.5833521472912908 Zr
atom 2.4906968750188674 2.4906968750188674 -0.1087181839571985 S
atom 7.4720906250560120 2.4906968750194589 -0.1087181839571985 S
atom 2.4906968750194589 7.4720906250560102 -0.1087181839571985 S
atom 7.4720906250565990 7.4720906250566035 -0.1087181839571985 S
atom 2.4906968750188674 2.4906968750188674 5.0061907571179409 S
atom 7.4720906250560120 2.4906968750194589 5.0061907571179409 S
atom 2.4906968750194589 7.4720906250560102 5.0061907571179409 S
atom 7.4720906250565990 7.4720906250566035 5.0061907571179409 S
atom 2.8255555053903096 0.0000000000001930 2.5127855053482766 S
atom 7.1372319946839715 0.0000000000009891 2.5127855053482766 S
atom 2.1558382446474234 4.9813937500375420 2.5127855053482766 S
atom 7.8069492554280444 4.9813937500379240 2.5127855053482766 S
atom 2.8255555053903096 0.0000000000001930 7.4995960088876066 S
atom 7.1372319946839715 0.0000000000009891 7.4995960088876066 S
atom 2.1558382446474234 4.9813937500375420 7.4995960088876066 S
atom 7.8069492554280444 4.9813937500379240 7.4995960088876066 S
atom 0.0000000000003981 2.1558382446468332 2.5127855053482766 S
atom 4.9813937500373351 2.8255555053909007 2.5127855053482766 S
atom 0.0000000000007840 7.8069492554274547 2.5127855053482766 S
atom 4.9813937500381380 7.1372319946845639 2.5127855053482766 S
atom 0.0000000000003981 2.1558382446468332 7.4995960088876066 S
atom 4.9813937500373351 2.8255555053909007 7.4995960088876066 S
atom 0.0000000000007840 7.8069492554274547 7.4995960088876066 S
atom 4.9813937500381380 7.1372319946845639 7.4995960088876066 S
atom 0.0000000000000000 0.0000000000000000 9.8098378168341700 Ba
atom 4.9813937500371441 0.0000000000005910 9.8098378168341700 Ba
atom 0.0000000000005910 4.9813937500371441 9.8098378168341700 Ba
atom 4.9813937500377348 4.9813937500377348 9.8098378168341700 Ba
atom 2.4906968750188674 2.4906968750188674 10.1210996981930847 S
atom 7.4720906250560120 2.4906968750194589 10.1210996981930847 S
atom 2.4906968750194589 7.4720906250560102 10.1210996981930847 S
atom 7.4720906250565990 7.4720906250566035 10.1210996981930847 S
atom 2.4906968750188674 2.4906968750188674 13.2186428816155619 Ba
atom 7.4720906250560120 2.4906968750194589 13.2186428816155619 Ba
atom 2.4906968750194589 7.4720906250560102 13.2186428816155619 Ba
atom 7.4720906250565990 7.4720906250566035 13.2186428816155619 Ba
atom 2.4906968750188674 2.4906968750188674 18.0222867256245927 Ba
atom 7.4720906250560120 2.4906968750194589 18.0222867256245927 Ba
atom 2.4906968750194589 7.4720906250560102 18.0222867256245927 Ba
atom 7.4720906250565990 7.4720906250566035 18.0222867256245927 Ba
atom 4.9813937500377348 4.9813937500377348 15.4451260494513232 Zr
atom 9.9627875000748833 4.9813937500383227 15.4451260494513232 Zr
atom 4.9813937500383272 9.9627875000748798 15.4451260494513232 Zr
atom 9.9627875000754695 9.9627875000754695 15.4451260494513232 Zr
atom 4.9813937500377348 4.9813937500377348 20.5994474017978497 Zr
atom 9.9627875000748833 4.9813937500383227 20.5994474017978497 Zr
atom 4.9813937500383272 9.9627875000748798 20.5994474017978497 Zr
atom 9.9627875000754695 9.9627875000754695 20.5994474017978497 Zr
atom 4.9813937500377348 4.9813937500377348 12.9073789175858646 S
atom 9.9627875000748833 4.9813937500383227 12.9073789175858646 S
atom 4.9813937500383272 9.9627875000748798 12.9073789175858646 S
atom 9.9627875000754695 9.9627875000754695 12.9073789175858646 S
atom 4.9813937500377348 4.9813937500377348 18.0222867256245927 S
atom 9.9627875000748833 4.9813937500383227 18.0222867256245927 S
atom 4.9813937500383272 9.9627875000748798 18.0222867256245927 S
atom 9.9627875000754695 9.9627875000754695 18.0222867256245927 S
atom 5.3162487650218173 2.4906968750192688 15.5288824706323361 S
atom 9.6279324850901986 2.4906968750196459 15.5288824706323361 S
atom 4.6465387350536460 7.4720906250562020 15.5288824706323361 S
atom 10.2976425150595734 7.4720906250570049 15.5288824706323361 S
atom 5.3162487650218173 2.4906968750192688 20.5156909806168422 S
atom 9.6279324850901986 2.4906968750196459 20.5156909806168422 S
atom 4.6465387350536460 7.4720906250562020 20.5156909806168422 S
atom 10.2976425150595734 7.4720906250570049 20.5156909806168422 S
atom 2.4906968750190570 4.6465387350530571 15.5288824706323361 S
atom 7.4720906250564099 5.3162487650224097 15.5288824706323361 S
atom 2.4906968750198608 10.2976425150589606 15.5288824706323361 S
atom 7.4720906250567909 9.6279324850907813 15.5288824706323361 S
atom 2.4906968750190570 4.6465387350530571 20.5156909806168422 S
atom 7.4720906250564099 5.3162487650224097 20.5156909806168422 S
atom 2.4906968750198608 10.2976425150589606 20.5156909806168422 S
atom 7.4720906250567909 9.6279324850907813 20.5156909806168422 S
atom 2.4906968750188674 2.4906968750188674 22.8259305696336092 Ba
atom 7.4720906250560120 2.4906968750194589 22.8259305696336092 Ba
atom 2.4906968750194589 7.4720906250560102 22.8259305696336092 Ba
atom 7.4720906250565990 7.4720906250566035 22.8259305696336092 Ba
atom 4.9813937500377348 4.9813937500377348 23.1371945336633118 S
atom 9.9627875000748833 4.9813937500383227 23.1371945336633118 S
atom 4.9813937500383272 9.9627875000748798 23.1371945336633118 S
atom 9.9627875000754695 9.9627875000754695 23.1371945336633118 S
