#=======================================================
# FHI-aims file: sym_relax/sym_relax_RP_2_RxRyMz_-Rx-Ry-Mz.in
# Created using the Atomic Simulation Environment (ASE)
# Fri Mar 14 10:21:55 2025
#=======================================================
lattice_vector 10.0810643484800089 0.1195206499640511 -0.0000000000000000 
lattice_vector 0.1195206499640511 10.0810643484800124 0.0000000000000000 
lattice_vector 0.0000000000000000 0.0000000000000000 25.5129142773978188 
atom -0.0998557194850713 -0.0998223519243749 0.2830232356945082 Ba
atom 5.1403545261643711 0.1596160444670962 0.2830232356945081 Ba
atom 0.1595826769063997 5.1403878937250793 0.2830232356945081 Ba
atom 5.0004367797369493 5.0004701472976576 0.2830232356945081 Ba
atom 0.0263311549040007 0.0262925491469921 4.9063296687303533 Ba
atom 5.0142396250930048 0.0334291700780255 4.9063296687303533 Ba
atom 0.0334677758350323 5.0142010193360065 4.9063296687303533 Ba
atom 5.1266236541260222 5.1265850483690274 4.9063296687303533 Ba
atom 2.5408118358794325 2.5408052630777340 2.3646958113325125 Zr
atom 7.6000194103842968 2.6192409883246213 2.3646958113325125 Zr
atom 2.6192475611263215 7.6000128375826055 2.3646958113325125 Zr
atom 7.6411043351014527 7.6410977622997729 2.3646958113325125 Zr
atom 2.5408118358794325 2.5408052630777340 7.4479635261281976 Zr
atom 7.6000194103842968 2.6192409883246213 7.4479635261281976 Zr
atom 2.6192475611263215 7.6000128375826055 7.4479635261281976 Zr
atom 7.6411043351014527 7.6410977622997729 7.4479635261281976 Zr
atom 2.7331076426113543 2.7330619315272404 -0.1263080352722588 S
atom 7.4077627419347865 2.4269451815926972 -0.1263080352722588 S
atom 2.4269908926768125 7.4077170308506863 -0.1263080352722588 S
atom 7.8334001418333798 7.8333544307492815 -0.1263080352722588 S
atom 2.2948702957821565 2.2948721918396986 4.9063296687303533 S
atom 7.8459524816223327 2.8651825284219057 4.9063296687303533 S
atom 2.8651806323643521 7.8459543776798863 4.9063296687303533 S
atom 7.3951627950041798 7.3951646910617397 4.9063296687303533 S
atom 2.5202728187777095 0.0298803284669252 2.2327997591135107 S
atom 7.5607536040872168 0.0896396670451638 2.6833817549134404 S
atom 2.5799817548292463 5.0704115163031496 2.6833817549134404 S
atom 7.6205653179997297 5.1301728276889502 2.2327997591135107 S
atom 2.5202728187777095 0.0298803284669252 7.5798595783471967 S
atom 7.5607536040872168 0.0896396670451638 7.1292775825472781 S
atom 2.5799817548292463 5.0704115163031496 7.1292775825472781 S
atom 7.6205653179997297 5.1301728276889502 7.5798595783471967 S
atom 0.0298799965151002 2.5202593554622919 2.2327997591135107 S
atom 5.0704131571588844 2.5800710693748088 2.6833817549134404 S
atom 0.0896413079009118 7.5608429186327868 2.6833817549134404 S
atom 5.1301724957371322 7.6205518546843276 2.2327997591135107 S
atom 0.0298799965151002 2.5202593554622919 7.5798595783471967 S
atom 5.0704131571588844 2.5800710693748088 7.1292775825472781 S
atom 0.0896413079009118 7.5608429186327868 7.1292775825472781 S
atom 5.1301724957371322 7.6205518546843276 7.5798595783471967 S
atom -0.0998557194850713 -0.0998223519243748 9.5296361017662061 Ba
atom 5.1403545261643711 0.1596160444670962 9.5296361017662061 Ba
atom 0.1595826769063997 5.1403878937250793 9.5296361017662061 Ba
atom 5.0004367797369493 5.0004701472976576 9.5296361017662061 Ba
atom 2.7331076426113543 2.7330619315272404 9.9389673727329679 S
atom 7.4077627419347865 2.4269451815926963 9.9389673727329679 S
atom 2.4269908926768133 7.4077170308506863 9.9389673727329679 S
atom 7.8334001418333798 7.8333544307492815 9.9389673727329679 S
atom 2.6499686015353894 2.6500019690960857 13.0394803743934240 Ba
atom 7.4908227043659368 2.5100842226686679 13.0394803743934240 Ba
atom 2.5100508551079668 7.4908560719266513 13.0394803743934240 Ba
atom 7.7502611007574087 7.7502944683181223 13.0394803743934240 Ba
atom 2.5238537004640209 2.5238150947070186 17.6627868074292849 Ba
atom 7.6170095787550123 2.6361991237400337 17.6627868074292849 Ba
atom 2.6362377294970365 7.6169709729980140 17.6627868074292849 Ba
atom 7.6241461996860398 7.6241075939290548 17.6627868074292849 Ba
atom 5.1096334857553094 5.1096269129536145 15.1211529500314352 Zr
atom 10.1314902597304393 5.1507118376707774 15.1211529500314352 Zr
atom 5.1507184104724724 10.1314836869287763 15.1211529500314352 Zr
atom 10.2099259849773158 10.2099194121756529 15.1211529500314352 Zr
atom 5.1096334857553094 5.1096269129536145 20.2044206648270972 Zr
atom 10.1314902597304393 5.1507118376707774 20.2044206648270972 Zr
atom 5.1507184104724724 10.1314836869287763 20.2044206648270972 Zr
atom 10.2099259849773158 10.2099194121756529 20.2044206648270972 Zr
atom 4.9173768173057928 4.9173311062216927 12.6301491034266675 S
atom 10.3237860664623540 5.3429685061202887 12.6301491034266675 S
atom 5.3430142172043915 10.3237403553782663 12.6301491034266675 S
atom 10.0176693165278206 10.0176236054437187 12.6301491034266675 S
atom 5.3555665569933355 5.3555684530508989 17.6627868074292849 S
atom 9.8855487196331566 4.9047787664327425 17.6627868074292849 S
atom 4.9047768703751906 9.8855506156907307 17.6627868074292849 S
atom 10.4558590562153668 10.4558609522729427 17.6627868074292849 S
atom 5.0703676794582302 2.5800255916741532 15.4398388936123609 S
atom 10.1109512426287331 2.6397869030599637 14.9892568978124352 S
atom 5.1301793933707405 7.6205587523179421 14.9892568978124352 S
atom 10.1706601786802704 7.6803180908961890 15.4398388936123609 S
atom 5.0703676794582302 2.5800255916741532 19.8857347212462052 S
atom 10.1109512426287331 2.6397869030599637 20.3363167170461168 S
atom 5.1301793933707405 7.6205587523179421 20.3363167170461168 S
atom 10.1706601786802704 7.6803180908961890 19.8857347212462052 S
atom 2.5800272325298979 5.0704569940038038 15.4398388936123609 S
atom 7.6205584203661250 5.1301659300553331 14.9892568978124352 S
atom 2.6397865711081390 10.1109377793133213 14.9892568978124352 S
atom 7.6803197317519238 10.1707494932258271 15.4398388936123609 S
atom 2.5800272325298979 5.0704569940038038 19.8857347212462052 S
atom 7.6205584203661250 5.1301659300553331 20.3363167170461168 S
atom 2.6397865711081390 10.1109377793133213 20.3363167170461168 S
atom 7.6803197317519238 10.1707494932258271 19.8857347212462052 S
atom 2.6499686015353894 2.6500019690960857 22.2860932404651244 Ba
atom 7.4908227043659368 2.5100842226686679 22.2860932404651244 Ba
atom 2.5100508551079668 7.4908560719266513 22.2860932404651244 Ba
atom 7.7502611007574087 7.7502944683181223 22.2860932404651244 Ba
atom 4.9173768173057928 4.9173311062216909 22.6954245114318844 S
atom 10.3237860664623540 5.3429685061202887 22.6954245114318844 S
atom 5.3430142172043915 10.3237403553782663 22.6954245114318844 S
atom 10.0176693165278206 10.0176236054437169 22.6954245114318844 S
