#=======================================================
# FHI-aims file: sym_relax/sym_relax_RP_9_Rx0Rz_0-Ry0.in
# Created using the Atomic Simulation Environment (ASE)
# Mon Mar 17 16:46:30 2025
#=======================================================
lattice_vector 9.9660976710401155 0.0000000000000000 0.0100018543311180 
lattice_vector 0.0000000000000000 10.0842902242990444 -0.0000000000000000 
lattice_vector 0.0963851912533051 -0.0000000000000002 95.7628076889810274 
atom -0.1974534336745436 -0.0000000000000000 0.0852012436237226 Ba
atom 5.0514853889038296 0.0000000000000000 0.0888853306030426 Ba
atom 0.0684365533837586 5.0421451121495231 0.0838844034374838 Ba
atom 4.7855954018455193 5.0421451121495231 0.0902021707892814 Ba
atom -0.0835739739519591 -0.0000000000000000 4.7864480225835164 Ba
atom 4.8363728347553021 -0.0000000000000000 4.7568644468628403 Ba
atom -0.1466760007647701 5.0421451121495231 4.7518635196972800 Ba
atom 4.8994748615681054 5.0421451121495231 4.7914489497490740 Ba
atom 2.4335710767864684 2.5097675831865955 2.1621629408621565 Zr
atom 7.4166199123065377 2.5323775289629329 2.1671638680277172 Zr
atom 2.4335710767864684 7.5745226411124609 2.1621629408621570 Zr
atom 7.4166199123065377 7.5519126953361200 2.1671638680277172 Zr
atom 2.4592048566829168 2.5063715390108974 7.2465442517075944 Zr
atom 7.4422536922029749 2.5357735731386404 7.2515451788731511 Zr
atom 2.4592048566829177 7.5779186852881724 7.2465442517075962 Zr
atom 7.4422536922029749 7.5485166511604165 7.2515451788731511 Zr
atom 2.4453672691575807 2.7338512021952357 -0.3266519614426564 S
atom 7.4284161046776527 2.3082939099542901 -0.3216510342770978 S
atom 2.4453672691575794 7.3504390221038243 -0.3266519614426565 S
atom 7.4284161046776527 7.7759963143447592 -0.3216510342770978 S
atom 2.4571369503488358 2.2488485900456534 4.7466440681084698 S
atom 7.4401857858688993 2.7932965221038746 4.7516449952740309 S
atom 2.4571369503488349 7.8354416342534003 4.7466440681084698 S
atom 7.4401857858689011 7.2909937021951912 4.7516449952740274 S
atom 2.3837904992152890 -0.0000000000000000 2.0130918082489595 S
atom 7.4674782619803768 0.0000000000000000 2.5161792551030064 S
atom 2.4844294264603271 5.0421451121495231 2.5111783279374427 S
atom 7.3668393347353618 5.0421451121495231 2.0180927354145166 S
atom 2.9388938240009597 -0.0000000000000000 7.4768984312060391 S
atom 7.0163235390773071 -0.0000000000000000 7.0550304638525798 S
atom 2.0332747035572454 5.0421451121495231 7.0500295366870205 S
atom 7.9219426595210303 5.0421451121495231 7.4818993583715931 S
atom -0.0537703660588067 2.5806927829437387 2.2850722314305045 S
atom 4.9292784694612601 2.4614523292057786 2.2900731585960643 S
atom -0.0537703660588067 7.5035974413552999 2.2850722314305019 S
atom 4.9292784694612601 7.6228378950932782 2.2900731585960643 S
atom -0.0269662769607206 2.0468531318416106 7.2710972285932876 S
atom 4.9560825585593493 2.9952919803079112 7.2760981557588558 S
atom -0.0269662769607206 8.0374370924574343 7.2710972285932867 S
atom 4.9560825585593493 7.0889982439911412 7.2760981557588540 S
atom -0.0588023836669555 -0.0000000000000000 9.7886326294723638 Ba
atom 5.0762607919102791 -0.0000000000000000 9.8084102329408012 Ba
atom 0.0932119563902240 5.0421451121495231 9.8034093057752614 Ba
atom 4.9242464518531301 5.0421451121495231 9.7936335566379356 Ba
atom 0.0866736628357031 -0.0000000000000000 14.8541381602484250 Ba
atom 4.9386890766417064 -0.0000000000000000 14.8495046124970393 Ba
atom -0.0443597588783612 5.0421451121495231 14.8445036853314924 Ba
atom 5.0697224983557794 5.0421451121495231 14.8591390874139631 Ba
atom 2.4996485116265319 2.5239592045832042 12.3094811287405523 Zr
atom 7.4826973471465879 2.5181859075663300 12.3144820559061241 Zr
atom 2.4996485116265319 7.5603310197158482 12.3094811287405594 Zr
atom 7.4826973471465879 7.5661043167327282 12.3144820559061312 Zr
atom 2.5081102373026365 2.5203641147742086 17.3780548481336758 Zr
atom 7.4911590728227146 2.5217809973753189 17.3830557752992547 Zr
atom 2.5081102373026365 7.5639261095248456 17.3780548481336758 Zr
atom 7.4911590728227146 7.5625092269237282 17.3830557752992547 Zr
atom 2.4742358643264160 2.7202941809545806 9.7904046543444352 S
atom 7.4572846998464914 2.3218509311949505 9.7954055815100016 S
atom 2.4742358643264168 7.3639960433444669 9.7904046543444387 S
atom 7.4572846998464914 7.7624392931041184 9.7954055815100016 S
atom 2.4949189204567483 2.3714707688080563 14.8504312972821744 S
atom 7.4779677559768087 2.6706743433414766 14.8554322244477319 S
atom 2.4949189204567475 7.7128194554909832 14.8504312972821637 S
atom 7.4779677559768105 7.4136158809575923 14.8554322244477284 S
atom 2.0343959261331155 -0.0000000000000000 12.1874198895178694 S
atom 7.9528519814426186 -0.0000000000000000 12.4695299823845005 S
atom 2.9698031459225467 5.0421451121495231 12.4645290552189785 S
atom 7.0174447616531728 5.0421451121495231 12.1924208166834322 S
atom 2.9845055290382478 -0.0000000000000000 17.4969508568574952 S
atom 7.0152222837706919 -0.0000000000000000 17.2764300542532041 S
atom 2.0321734482506346 5.0421451121495231 17.2714291270876714 S
atom 7.9675543645583247 5.0421451121495231 17.5019517840230812 S
atom 0.0028229494562163 3.0105289467423959 12.3238156675500825 S
atom 4.9858717849762870 2.0316161654071294 12.3288165947156454 S
atom 0.0028229494562163 7.0737612775566570 12.3238156675500807 S
atom 4.9858717849762870 8.0526740588919292 12.3288165947156436 S
atom 0.0143218176513437 2.0240539956458541 17.3813143891637409 S
atom 4.9973706531714068 3.0180911165036770 17.3863153163292772 S
atom 0.0143218176513437 8.0602362286531868 17.3813143891637409 S
atom 4.9973706531714068 7.0661991077953772 17.3863153163292772 S
atom -0.0380588182722988 -0.0000000000000000 19.9071063434984730 Ba
atom 5.0644614124021441 -0.0000000000000000 19.9214594543050119 Ba
atom 0.0814125768820708 5.0421451121495231 19.9164585271394472 Ba
atom 4.9449900172477630 5.0421451121495231 19.9121072706640341 Ba
atom 0.0832393766722855 -0.0000000000000000 24.9817097607111300 Ba
atom 4.9468168170379760 -0.0000000000000000 24.9773585042357240 Ba
atom -0.0362320184820839 5.0421451121495231 24.9723575770701984 Ba
atom 5.0662882121923545 5.0421451121495231 24.9867106878766769 Ba
atom 2.5141146969600254 2.5210725560747616 22.4469085156876105 Zr
atom 7.4971635324800969 2.5210725560747616 22.4519094428531680 Zr
atom 2.5141146969600254 7.5632176682242918 22.4469085156876105 Zr
atom 7.4971635324800969 7.5632176682242918 22.4519094428531680 Zr
atom 2.5201191566174224 2.5217809973753211 27.5157621832414989 Zr
atom 7.5031679921374854 2.5203641147742086 27.5207631104070813 Zr
atom 2.5201191566174224 7.5625092269237326 27.5157621832414954 Zr
atom 7.5031679921374854 7.5639261095248456 27.5207631104070813 Zr
atom 2.5084974605034245 2.6543465637964845 19.9145103282134599 S
atom 7.4915462960235004 2.3877985483530493 19.9195112553790139 S
atom 2.5084974605034254 7.4299436605025830 19.9145103282134457 S
atom 7.4915462960234986 7.6964916759459960 19.9195112553790104 S
atom 2.5197319334166344 2.3877985483530493 24.9793067031616829 S
atom 7.5027807689366997 2.6543465637964845 24.9843076303272440 S
atom 2.5197319334166326 7.6964916759459960 24.9793067031616864 S
atom 7.5027807689367032 7.4299436605025830 24.9843076303272511 S
atom 2.0359797402544273 -0.0000000000000000 22.3402581848216464 S
atom 7.9752984891856915 -0.0000000000000000 22.5585597737190540 S
atom 2.9922496536656316 5.0421451121495231 22.5535588465535213 S
atom 7.0190285757744935 5.0421451121495231 22.3452591119872039 S
atom 2.9960559456694336 -0.0000000000000000 27.6223879042874714 S
atom 7.0267727004018754 -0.0000000000000000 27.4018671016832265 S
atom 2.0437238648818012 5.0421451121495231 27.3968661745176156 S
atom 7.9791047811894886 5.0421451121495231 27.6273888314530645 S
atom 0.0225902791999939 3.0198068065774208 22.4444080521047908 S
atom 5.0056391147200578 2.0223383055721067 22.4494089792703484 S
atom 0.0225902791999939 7.0644834177216360 22.4444080521047908 S
atom 5.0056391147200578 8.0619519187269528 22.4494089792703484 S
atom 0.0308587407486430 2.0240539956458541 27.5075017150458621 S
atom 5.0139075762687098 3.0180911165036788 27.5125026422114303 S
atom 0.0308587407486430 8.0602362286531903 27.5075017150458692 S
atom 5.0139075762687098 7.0661991077953772 27.5125026422114303 S
atom -0.0414931044357164 -0.0000000000000000 30.0346779439611460 Ba
atom 5.0725891527984102 -0.0000000000000000 30.0493133460436859 Ba
atom 0.0895403172783489 5.0421451121495231 30.0443124188780786 Ba
atom 4.9415557310843425 5.0421451121495231 30.0396788711267284 Ba
atom 0.1039829420669423 -0.0000000000000001 35.1001834747373067 Ba
atom 4.9350174375298375 -0.0000000000000001 35.0904077255999525 Ba
atom -0.0480313979902362 5.0421451121495231 35.0854067984343345 Ba
atom 5.0870317775870069 5.0421451121495231 35.1051844019027683 Ba
atom 2.5285808822935265 2.5181859075663309 32.5843359026345638 Zr
atom 7.5116297178135998 2.5239592045832033 32.5893368298001391 Zr
atom 2.5285808822935265 7.5661043167327247 32.5843359026345638 Zr
atom 7.5116297178135998 7.5603310197158464 32.5893368298001391 Zr
atom 2.5690245372371332 2.5357735731386395 37.6472727796676594 Zr
atom 7.5520733727572260 2.5063715390108952 37.6522737068331992 Zr
atom 2.5690245372371323 7.5485166511604147 37.6472727796676594 Zr
atom 7.5520733727572260 7.5779186852881733 37.6522737068331992 Zr
atom 2.5333104734633110 2.6706743433414766 30.0433857340929649 S
atom 7.5163593089833762 2.3714707688080545 30.0483866612585366 S
atom 2.5333104734633110 7.4136158809575914 30.0433857340929613 S
atom 7.5163593089833745 7.7128194554909850 30.0483866612585508 S
atom 2.5539935295936327 2.3218509311949491 35.1034123770307218 S
atom 7.5370423651136962 2.7202941809545793 35.1084133041962971 S
atom 2.5539935295936318 7.7624392931041175 35.1034123770307218 S
atom 7.5370423651136962 7.3639960433444669 35.1084133041962971 S
atom 2.0584262479975117 -0.0000000000000001 32.4292879761560897 S
atom 7.9768823033070113 -0.0000000000000000 32.7113980690227137 S
atom 2.9938334677869443 5.0421451121495231 32.7063971418572166 S
atom 7.0414750835175770 5.0421451121495231 32.4342889033216721 S
atom 2.9949546903628081 -0.0000000000000001 37.8437874946881792 S
atom 7.0723844054391476 -0.0000000000000001 37.4219195273347154 S
atom 2.0893355699190921 5.0421451121495231 37.4169186001691898 S
atom 7.9780035258828823 5.0421451121495231 37.8487884218537474 S
atom 0.0423576089437714 3.0105289467423950 32.5650004366595951 S
atom 5.0254064444638429 2.0316161654071290 32.5700013638251065 S
atom 0.0423576089437714 7.0737612775566552 32.5650004366596022 S
atom 5.0254064444638429 8.0526740588919292 32.5700013638250994 S
atom 0.0721468353607083 2.0468531318416101 37.6177188756163332 S
atom 5.0551956708807753 2.9952919803079112 37.6227198027818517 S
atom 0.0721468353607083 8.0374370924574343 37.6177188756163332 S
atom 5.0551956708807753 7.0889982439911412 37.6227198027818517 S
atom 0.1287545323519459 -0.0000000000000001 40.1023680816260679 Ba
atom 5.1749053946848136 -0.0000000000000001 40.1419535116778263 Ba
atom 0.1918565591647568 5.0421451121495231 40.1369525845123292 Ba
atom 5.1118033678720103 5.0421451121495231 40.1073690087916077 Ba
atom 0.2426339920745306 -0.0000000000000001 44.8036148605858244 Ba
atom 4.9597928405362941 -0.0000000000000001 44.8099326279376129 Ba
atom -0.0232559949837710 5.0421451121495231 44.8049317007720873 Ba
atom 5.2256828275946061 5.0421451121495231 44.8086157877513998 Ba
atom 2.5946583171335824 2.5323775289629302 42.7316540905130253 Zr
atom 7.5777071526536623 2.5097675831865933 42.7366550176785509 Zr
atom 2.5946583171335820 7.5519126953361173 42.7316540905130253 Zr
atom 7.5777071526536623 7.5745226411124618 42.7366550176785509 Zr
atom 2.5710924435712199 2.7932965221038746 40.1471729632666268 S
atom 7.5541412790912910 2.2488485900456534 40.1521738904322305 S
atom 2.5710924435712199 7.2909937021951903 40.1471729632666268 S
atom 7.5541412790912910 7.8354416342534003 40.1521738904322305 S
atom 2.5828621247624786 2.3082939099542892 45.2204689928178283 S
atom 7.5659109602825367 2.7338512021952339 45.2254699199833041 S
atom 2.5828621247624777 7.7759963143447628 45.2204689928178283 S
atom 7.5659109602825367 7.3504390221038225 45.2254699199833112 S
atom 2.5437999674597345 -0.0000000000000001 42.3826387034377206 S
atom 7.6274877302248258 -0.0000000000000001 42.8857261502918021 S
atom 2.6444388947047690 5.0421451121495231 42.8807252231261984 S
atom 7.5268488029798100 5.0421451121495231 42.3876396306032532 S
atom 0.0989509244587937 2.5806927829437387 42.6037438727790914 S
atom 5.0819997599788591 2.4614523292057777 42.6087447999445743 S
atom 0.0989509244587937 7.5035974413553017 42.6037438727790772 S
atom 5.0819997599788591 7.6228378950932765 42.6087447999445743 S
atom 2.5846618443603075 2.3649502362040558 48.3293674109299474 Ba
atom 7.5677106798803635 2.6771948759454745 48.3343683380954587 Ba
atom 2.5846618443603067 7.7193399880949976 48.3293674109299474 Ba
atom 7.5677106798803635 7.4070953483535851 48.3343683380954587 Ba
atom 2.5799123140705271 2.5400189465993050 53.0170733175741731 Ba
atom 7.5629611495905849 2.5021261655502238 53.0220742447396987 Ba
atom 2.5799123140705271 7.5442712776997434 53.0170733175742015 Ba
atom 7.5629611495905849 7.5821640587488384 53.0220742447396844 Ba
atom 5.0563252678990445 5.0421451121495231 50.4035918052652576 Zr
atom 10.0749449179250661 5.0421451121495231 50.4088558696475744 Zr
atom 5.0918960824049728 10.0842902242990462 50.4038549424819564 Zr
atom 10.0393741034191279 10.0842902242990462 50.4085927324308400 Zr
atom 5.0680138186645989 5.0421451121495231 55.4262730427229116 Zr
atom 10.0530016406393070 5.0421451121495231 55.4313822718633702 Zr
atom 5.0699528051192368 10.0842902242990462 55.4263813446977736 Zr
atom 10.0510626541846406 10.0842902242990462 55.4312739698884513 Zr
atom 5.3664265382891019 5.0421451121495231 47.9147203247639837 S
atom 9.7693983992054250 5.0421451121495231 47.9193192312087461 S
atom 4.7863495636853370 10.0842902242990462 47.9143183040432987 S
atom 10.3494753738091472 10.0842902242990462 47.9197212519295590 S
atom 4.6036599215987053 5.0421451121495231 52.9482292381160207 S
atom 10.5223833557894988 5.0421451121495231 52.9542324164103491 S
atom 5.5393345202694242 10.0842902242990462 52.9492314892448377 S
atom 9.5867087571187763 10.0842902242990462 52.9532301652815036 S
atom 5.0740426837868640 2.5210623369516876 50.5335617691512624 S
atom 10.0570915193069172 2.5210827751978306 50.5385626963168306 S
atom 5.0740426837868640 7.5632278873473657 50.5335617691512624 S
atom 10.0570915193069172 7.5632074491012151 50.5385626963168306 S
atom 5.0689637435111923 2.5210692314777834 55.4416325818008104 S
atom 10.0520125790312918 2.5210758806717335 55.4466335089663360 S
atom 5.0689637435111923 7.5632209928212610 55.4416325818008104 S
atom 10.0520125790312918 7.5632143436273074 55.4466335089663360 S
atom 2.5828920054666633 5.0421451121495231 50.0746216391545431 S
atom 7.5651802363621918 5.0421451121495231 50.8647619121367427 S
atom 2.5821314008421266 10.0842902242990462 50.8597609849712242 S
atom 7.5659408409867179 10.0842902242990462 50.0796225663200829 S
atom 2.5769553408016921 5.0421451121495231 55.9208389093734013 S
atom 7.5609978409102565 5.0421451121495231 54.9467507143490224 S
atom 2.5779490053901908 10.0842902242990462 54.9417497871834470 S
atom 7.5600041763217609 10.0842902242990462 55.9258398365391258 S
atom 2.5748925465719497 2.5192602441656380 57.9309040420877110 Ba
atom 7.5579413820920323 2.5228848679838931 57.9359049692532793 Ba
atom 2.5748925465719497 7.5650299801334224 57.9309040420876968 Ba
atom 7.5579413820920323 7.5614053563151549 57.9359049692532508 Ba
atom 2.5698777323816007 2.5233965215653509 62.8856058815466810 Ba
atom 7.5529265679016859 2.5187485905841749 62.8906068087121284 Ba
atom 2.5698777323816007 7.5608937027337104 62.8856058815466739 Ba
atom 7.5529265679016859 7.5655416337148660 62.8906068087121284 Ba
atom 5.0655838661029859 5.0421451121495231 60.3958840787161790 Zr
atom 10.0453091987382237 5.0421451121495231 60.4009234201289118 Zr
atom 5.0622603632181526 10.0842902242990462 60.3959224929632938 Zr
atom 10.0486327016230845 10.0842902242990462 60.4008850058815838 Zr
atom 5.0585733175738055 5.0421451121495231 65.3638805762461175 Zr
atom 10.0422760812761105 5.0421451121495231 65.3688997826888141 Zr
atom 5.0592272457560261 10.0842902242990462 65.3638988555232885 Zr
atom 10.0416221530938952 10.0842902242990462 65.3688815034117141 Zr
atom 5.5731913335339973 5.0421451121495231 57.9173812263592893 S
atom 9.5427324342852131 5.0421451121495231 57.9213868427800449 S
atom 4.5596835987651456 10.0842902242990462 57.9163859156144412 S
atom 10.5562401690540657 10.0842902242990462 57.9223821535248860 S
atom 4.5539987361984462 5.0421451121495231 62.8815594923032108 S
atom 10.5518663927979137 5.0421451121495231 62.8875859645443498 S
atom 5.5688175572778364 10.0842902242990462 62.8825850373788100 S
atom 9.5370475717185119 10.0842902242990462 62.8865604194687151 S
atom 5.0639056170072427 2.5210678554920394 60.4029238320517337 S
atom 10.0469544525273022 2.5210772566574899 60.4079247592173445 S
atom 5.0639056170072427 7.5632223688070139 60.4029238320517337 S
atom 10.0469544525273022 7.5632129676415731 60.4079247592173303 S
atom 5.0589101179275229 2.5210725487664529 65.3657277358749269 S
atom 10.0419589534475797 2.5210725633830813 65.3707286630405093 S
atom 5.0589101179275229 7.5632176755325977 65.3657277358749269 S
atom 10.0419589534475797 7.5632176609159654 65.3707286630405093 S
atom 2.5728892934398400 5.0421451121495231 59.9010222073254752 S
atom 7.5549294231562092 5.0421451121495231 60.9069075438533574 S
atom 2.5718805876361572 10.0842902242990462 60.9019066166876826 S
atom 7.5559381289599106 10.0842902242990462 59.9060231344909795 S
atom 2.5668658181622082 5.0421451121495231 65.8652523784575976 S
atom 7.5509305058151526 5.0421451121495231 64.8672694399543133 S
atom 2.5678816702950940 10.0842902242990462 64.8622685127887166 S
atom 7.5499146536822703 10.0842902242990462 65.8702533056229669 S
atom 2.5648511031829493 2.5195871759428927 67.8462590269985242 Ba
atom 7.5478999387030141 2.5225579362066446 67.8512599541639787 Ba
atom 2.5648511031829493 7.5647030483561579 67.8462590269984958 Ba
atom 7.5478999387030141 7.5617322880924229 67.8512599541639929 Ba
atom 2.5597634819904171 2.5225579362066437 72.8103656933571273 Ba
atom 7.5428123175104851 2.5195871759428923 72.8153666205227239 Ba
atom 2.5597634819904171 7.5617322880924247 72.8103656933570278 Ba
atom 7.5428123175104842 7.5647030483561579 72.8153666205227523 Ba
atom 5.0538317103467127 5.0421451121495231 70.3308128237607093 Zr
atom 10.0368805458667758 5.0421451121495231 70.3358137509260928 Zr
atom 5.0538317103467127 10.0842902242990462 70.3308128237607093 Zr
atom 10.0368805458667758 10.0842902242990462 70.3358137509260928 Zr
atom 5.0490901031196316 5.0421451121495231 75.2977450712749174 Zr
atom 10.0314850104574536 5.0421451121495231 75.3027277191633857 Zr
atom 5.0484361749373985 10.0842902242990462 75.2977267919978033 Zr
atom 10.0321389386396653 10.0842902242990462 75.3027459984404430 Zr
atom 5.5645843209227817 5.0421451121495231 67.8484766522750391 S
atom 9.5311788869595411 5.0421451121495231 67.8524501087601521 S
atom 4.5481300514394531 10.0842902242990462 67.8474491815945981 S
atom 10.5476331564428190 10.0842902242990462 67.8534775794404510 S
atom 4.5430790997706545 5.0421451121495231 72.8131489952461664 S
atom 10.5425822047740425 5.0421451121495231 72.8191773930923461 S
atom 5.5595333692539786 10.0842902242990462 72.8141764659266926 S
atom 9.5261279352907167 10.0842902242990462 72.8181499224117630 S
atom 5.0538317103467127 2.5210727736919738 70.3308128237607093 S
atom 10.0368805458667758 2.5210723384575457 70.3358137509260928 S
atom 5.0538317103467127 7.5632174506070857 70.3308128237607093 S
atom 10.0368805458667758 7.5632178858415040 70.3358137509260928 S
atom 5.0487533027659062 2.5210725487664538 75.2958979116462501 S
atom 10.0318021382859968 2.5210725633830795 75.3008988388117899 S
atom 5.0487533027659062 7.5632176755326004 75.2958979116462501 S
atom 10.0318021382859968 7.5632176609159671 75.3008988388117899 S
atom 2.5628160217699114 5.0421451121495231 69.8260221454449095 S
atom 7.5448473989235199 5.0421451121495231 70.8356035020760260 S
atom 2.5617985634034528 10.0842902242990462 70.8306025749105856 S
atom 7.5458648572899838 10.0842902242990462 69.8310230726106340 S
atom 2.5567329148782711 5.0421451121495231 75.7943562075668638 S
atom 7.5407976025312307 5.0421451121495231 74.7963732690636931 S
atom 2.5577487670111627 10.0842902242990462 74.7913723418981675 S
atom 7.5397817503983386 10.0842902242990462 75.7993571347322472 S
atom 2.5547368527917627 2.5187485905841740 77.7710188388088142 Ba
atom 7.5377856883118275 2.5233965215653518 77.7760197659744819 Ba
atom 2.5547368527917635 7.5655416337148695 77.7710188388088142 Ba
atom 7.5377856883118275 7.5608937027337113 77.7760197659744819 Ba
atom 2.5497220386014123 2.5228848679838931 82.7257206782679759 Ba
atom 7.5327708741214732 2.5192602441656380 82.7307216054335441 Ba
atom 2.5497220386014123 7.5614053563151575 82.7257206782679617 Ba
atom 7.5327708741214732 7.5650299801334260 82.7307216054335299 Ba
atom 5.0420795545904289 5.0421451121495231 80.2657415688053959 Zr
atom 10.0284518929953297 5.0421451121495231 80.2707040817236077 Zr
atom 5.0454030574752862 10.0842902242990462 80.2657031545579827 Zr
atom 10.0251283901104831 10.0842902242990462 80.2707424959707794 Zr
atom 5.0396496020288382 5.0421451121495231 85.2353526047982655 Zr
atom 10.0207594510942624 5.0421451121495231 85.2402452299889291 Zr
atom 5.0377106155741869 10.0842902242990462 85.2352443028234887 Zr
atom 10.0226984375489021 10.0842902242990462 85.2403535319637911 Zr
atom 5.5536646844949837 5.0421451121495231 77.7800661552177530 S
atom 9.5218946989356539 5.0421451121495231 77.7840415373078287 S
atom 4.5388458634155811 10.0842902242990462 77.7790406101422889 S
atom 10.5367135200150592 10.0842902242990462 77.7850670823835202 S
atom 4.5344720871594264 5.0421451121495231 82.7442444211617385 S
atom 10.5310286574483403 5.0421451121495231 82.7502406590723183 S
atom 5.5479798219282621 10.0842902242990462 82.7452397319067074 S
atom 9.5175209226795072 10.0842902242990462 82.7492453483274915 S
atom 5.0437578036861819 2.5210678554920420 80.2587018154693368 S
atom 10.0268066392062618 2.5210772566574913 80.2637027426348340 S
atom 5.0437578036861819 7.5632223688070139 80.2587018154693368 S
atom 10.0268066392062618 7.5632129676415714 80.2637027426348340 S
atom 5.0386996771822448 2.5210692314777798 85.2199930657206295 S
atom 10.0217485127022972 2.5210758806717344 85.2249939928861124 S
atom 5.0386996771822448 7.5632209928212664 85.2199930657206579 S
atom 10.0217485127022972 7.5632143436273074 85.2249939928860840 S
atom 2.5527339975372030 5.0421451121495231 79.7547181036677841 S
atom 7.5347741272535886 5.0421451121495231 80.7606034401957231 S
atom 2.5517252917335225 10.0842902242990462 80.7556025130300128 S
atom 7.5357828330572909 10.0842902242990462 79.7597190308333808 S
atom 2.5466655797831668 5.0421451121495231 85.7148749331724531 S
atom 7.5307080798917374 5.0421451121495231 84.7407867381477047 S
atom 2.5476592443716655 10.0842902242990462 84.7357858109821365 S
atom 7.5297144153032383 10.0842902242990462 85.7198758603381208 S
atom 2.5447022711028295 2.5021261655502229 87.6395514027815210 Ba
atom 7.5277511066229001 2.5400189465993050 87.6445523299471603 Ba
atom 2.5447022711028295 7.5821640587488401 87.6395514027815210 Ba
atom 7.5277511066229001 7.5442712776997487 87.6445523299471319 Ba
atom 2.5399527408130549 2.6771948759454762 92.3272573094256472 Ba
atom 7.5230015763331233 2.3649502362040558 92.3322582365913291 Ba
atom 2.5399527408130549 7.4070953483535851 92.3272573094256472 Ba
atom 7.5230015763331233 7.7193399880949984 92.3322582365913291 Ba
atom 5.0513381527943944 5.0421451121495231 90.2580338422559691 Zr
atom 9.9988161738084926 5.0421451121495231 90.2627716322047604 Zr
atom 5.0157673382884598 10.0842902242990462 90.2577707050390785 Zr
atom 10.0343869883144592 10.0842902242990462 90.2630347694215232 Zr
atom 5.5040034990947344 5.0421451121495231 87.7133964094052061 S
atom 9.5513777359440848 5.0421451121495231 87.7173950854418081 S
atom 4.5683289004239933 10.0842902242990462 87.7123941582763678 S
atom 10.4870523346147948 10.0842902242990462 87.7183973365707601 S
atom 4.7412368824043245 5.0421451121495231 92.7469053227573568 S
atom 10.3043626925281391 5.0421451121495231 92.7523082706433968 S
atom 5.3213138570080813 10.0842902242990462 92.7473073434778712 S
atom 9.7242857179244009 10.0842902242990462 92.7519062499228539 S
atom 5.0336207369065669 2.5210623369516885 90.1280638783700283 S
atom 10.0166695724266699 2.5210827751978302 90.1330648055354970 S
atom 5.0336207369065669 7.5632278873473675 90.1280638783700567 S
atom 10.0166695724266699 7.5632074491012222 90.1330648055354970 S
atom 2.5424831843312381 5.0421451121495231 89.7968637353843491 S
atom 7.5247714152267768 5.0421451121495231 90.5870040083667050 S
atom 2.5417225797066956 10.0842902242990462 90.5820030812011936 S
atom 7.5255320198513189 10.0842902242990462 89.8018646625498036 S
