#=======================================================
# FHI-aims file: sym_relax/sym_relax_RP_7_00Mz1_00Mz2.in
# Created using the Atomic Simulation Environment (ASE)
# Mon Mar 17 15:40:43 2025
#=======================================================
lattice_vector 9.9091064708363188 -0.0000000081918688 0.0000000000000000 
lattice_vector -0.0000000081918688 9.9091064708363330 0.0000000000000000 
lattice_vector 0.0000000000000000 0.0000000000000000 77.3781996076400134 
atom 0.0000000000000000 0.0000000000000000 0.1631014701722791 Ba
atom 4.9545532354181558 -0.0000000040959346 0.1631014701722789 Ba
atom -0.0000000040959346 4.9545532354181638 0.1631014701722791 Ba
atom 4.9545532313222242 4.9545532313222296 0.1631014701722791 Ba
atom 0.0000000000000000 0.0000000000000000 5.0659876540453146 Ba
atom 4.9545532354181558 -0.0000000040959346 5.0659876540453146 Ba
atom -0.0000000040959346 4.9545532354181638 5.0659876540453146 Ba
atom 4.9545532313222242 4.9545532313222296 5.0659876540453146 Ba
atom 2.4772766156611121 2.4772766156611148 2.4366674310851630 Zr
atom 7.4318298510792689 2.4772766115651792 2.4366674310851630 Zr
atom 2.4772766115651774 7.4318298510792795 2.4366674310851630 Zr
atom 7.4318298469833382 7.4318298469833417 2.4366674310851630 Zr
atom 2.4772766156611121 2.4772766156611148 7.5750420905295366 Zr
atom 7.4318298510792689 2.4772766115651792 7.5750420905295366 Zr
atom 2.4772766115651774 7.4318298510792795 7.5750420905295366 Zr
atom 7.4318298469833382 7.4318298469833417 7.5750420905295366 Zr
atom 2.4772766156611121 2.4772766156611148 -0.1064345145915969 S
atom 7.4318298510792689 2.4772766115651792 -0.1064345145915969 S
atom 2.4772766115651774 7.4318298510792795 -0.1064345145915969 S
atom 7.4318298469833382 7.4318298469833417 -0.1064345145915969 S
atom 2.4772766156611121 2.4772766156611148 5.0367722389439127 S
atom 7.4318298510792689 2.4772766115651792 5.0367722389439127 S
atom 2.4772766115651774 7.4318298510792795 5.0367722389439127 S
atom 7.4318298469833382 7.4318298469833417 5.0367722389439127 S
atom 2.0528743454807081 0.0000018719485847 2.5296338579290301 S
atom 7.8562321253556098 -0.0000018801404539 2.5296338579290301 S
atom 2.9016788858415179 4.9545513593736565 2.5296338579290301 S
atom 7.0074275768029368 4.9545551032708097 2.5296338579290301 S
atom 2.9977220509445242 0.0000013315499028 7.5898684633206148 S
atom 6.9113844198917960 -0.0000013397417720 7.5898684633206148 S
atom 1.9568311803777012 4.9545518997723237 7.5898684633206148 S
atom 7.9522752822667480 4.9545545628721408 7.5898684633206148 S
atom -0.0000018760445193 2.9016788899374530 2.5296338579290301 S
atom 4.9545551073667280 2.0528743413847739 2.5296338579290301 S
atom 0.0000018678526501 7.0074275808988675 2.5296338579290301 S
atom 4.9545513552777036 7.8562321212596800 2.5296338579290301 S
atom -0.0000013356458374 1.9568311844736392 7.5898684633206148 S
atom 4.9545545669680555 2.9977220468485921 7.5898684633206148 S
atom 0.0000013274539682 7.9522752863626991 7.5898684633206148 S
atom 4.9545518956763903 6.9113844157958635 7.5898684633206148 S
atom 0.0000000000000000 0.0000000000000000 10.1543517501548326 Ba
atom 4.9545532354181558 -0.0000000040959346 10.1543517501548326 Ba
atom -0.0000000040959346 4.9545532354181638 10.1543517501548326 Ba
atom 4.9545532313222242 4.9545532313222296 10.1543517501548326 Ba
atom 0.0000000000000000 0.0000000000000000 15.2622720362919129 Ba
atom 4.9545532354181558 -0.0000000040959346 15.2622720362919129 Ba
atom -0.0000000040959346 4.9545532354181638 15.2622720362919129 Ba
atom 4.9545532313222242 4.9545532313222296 15.2622720362919129 Ba
atom 2.4772766156611121 2.4772766156611148 12.6973006655725253 Zr
atom 7.4318298510792689 2.4772766115651792 12.6973006655725253 Zr
atom 2.4772766115651774 7.4318298510792795 12.6973006655725253 Zr
atom 7.4318298469833382 7.4318298469833417 12.6973006655725253 Zr
atom 2.4772766156611121 2.4772766156611148 17.8173485938644838 Zr
atom 7.4318298510792689 2.4772766115651792 17.8173485938644838 Zr
atom 2.4772766115651774 7.4318298510792795 17.8173485938644838 Zr
atom 7.4318298469833382 7.4318298469833417 17.8173485938644838 Zr
atom 2.4772766156611121 2.4772766156611148 10.1458187388912009 S
atom 7.4318298510792689 2.4772766115651792 10.1458187388912009 S
atom 2.4772766115651774 7.4318298510792795 10.1458187388912009 S
atom 7.4318298469833382 7.4318298469833417 10.1458187388912009 S
atom 2.4772766156611121 2.4772766156611148 15.2602933789465904 S
atom 7.4318298510792689 2.4772766115651792 15.2602933789465904 S
atom 2.4772766115651774 7.4318298510792795 15.2602933789465904 S
atom 7.4318298469833382 7.4318298469833417 15.2602933789465904 S
atom 2.9797890264856175 -0.0000001158395016 12.7078870940018476 S
atom 6.9293174443506960 0.0000001076476324 12.7078870940018476 S
atom 1.9747642048366048 4.9545533471617329 12.7078870940018476 S
atom 7.9343422578078435 4.9545531154827236 12.7078870940018476 S
atom 2.9814721870670886 -0.0000000224326362 17.8173485938644838 S
atom 6.9276342837692351 0.0000000142407670 17.8173485938644838 S
atom 1.9730810442551423 4.9545532537548640 17.8173485938644838 S
atom 7.9360254183893080 4.9545532088895952 17.8173485938644838 S
atom 0.0000001117435670 1.9747642089325426 12.7078870940018476 S
atom 4.9545531195786499 2.9797890223896877 12.7078870940018476 S
atom -0.0000001199354362 7.9343422619037893 12.7078870940018476 S
atom 4.9545533430657853 6.9293174402547688 12.7078870940018476 S
atom 0.0000000183367016 1.9730810483510803 17.8173485938644838 S
atom 4.9545532129855250 2.9814721829711552 17.8173485938644838 S
atom -0.0000000265285708 7.9360254224852538 17.8173485938644838 S
atom 4.9545532496589200 6.9276342796733097 17.8173485938644838 S
atom 0.0000000000000000 0.0000000000000000 20.3724251514370813 Ba
atom 4.9545532354181558 -0.0000000040959346 20.3724251514370813 Ba
atom -0.0000000040959346 4.9545532354181638 20.3724251514370813 Ba
atom 4.9545532313222242 4.9545532313222296 20.3724251514370813 Ba
atom 0.0000000000000000 0.0000000000000000 25.4803454375741332 Ba
atom 4.9545532354181558 -0.0000000040959346 25.4803454375741332 Ba
atom -0.0000000040959346 4.9545532354181638 25.4803454375741332 Ba
atom 4.9545532313222242 4.9545532313222296 25.4803454375741332 Ba
atom 2.4772766156611121 2.4772766156611148 22.9373965221564902 Zr
atom 7.4318298510792689 2.4772766115651792 22.9373965221564902 Zr
atom 2.4772766115651774 7.4318298510792795 22.9373965221564902 Zr
atom 7.4318298469833382 7.4318298469833417 22.9373965221564902 Zr
atom 2.4772766156611121 2.4772766156611148 28.0596550971994851 Zr
atom 7.4318298510792689 2.4772766115651792 28.0596550971994851 Zr
atom 2.4772766115651774 7.4318298510792795 28.0596550971994851 Zr
atom 7.4318298469833382 7.4318298469833417 28.0596550971994851 Zr
atom 2.4772766156611121 2.4772766156611148 20.3744038087823611 S
atom 7.4318298510792689 2.4772766115651792 20.3744038087823611 S
atom 2.4772766115651774 7.4318298510792795 20.3744038087823611 S
atom 7.4318298469833382 7.4318298469833417 20.3744038087823611 S
atom 2.4772766156611121 2.4772766156611148 25.4888784488377595 S
atom 7.4318298510792689 2.4772766115651792 25.4888784488377595 S
atom 2.4772766115651774 7.4318298510792795 25.4888784488377595 S
atom 7.4318298469833382 7.4318298469833417 25.4888784488377595 S
atom 2.9797890264856175 -0.0000001158395016 22.9268100937271697 S
atom 6.9293174443506960 0.0000001076476324 22.9268100937271697 S
atom 1.9747642048366048 4.9545533471617329 22.9268100937271697 S
atom 7.9343422578078435 4.9545531154827236 22.9268100937271697 S
atom 2.9977220509445242 0.0000013315499028 28.0448287244083474 S
atom 6.9113844198917960 -0.0000013397417720 28.0448287244083474 S
atom 1.9568311803777012 4.9545518997723237 28.0448287244083474 S
atom 7.9522752822667480 4.9545545628721408 28.0448287244083474 S
atom 0.0000001117435670 1.9747642089325426 22.9268100937271697 S
atom 4.9545531195786499 2.9797890223896877 22.9268100937271697 S
atom -0.0000001199354362 7.9343422619037893 22.9268100937271697 S
atom 4.9545533430657853 6.9293174402547688 22.9268100937271697 S
atom -0.0000013356458374 1.9568311844736392 28.0448287244083474 S
atom 4.9545545669680555 2.9977220468485921 28.0448287244083474 S
atom 0.0000013274539682 7.9522752863626991 28.0448287244083474 S
atom 4.9545518956763903 6.9113844157958635 28.0448287244083474 S
atom 0.0000000000000000 0.0000000000000000 30.5687095336836840 Ba
atom 4.9545532354181558 -0.0000000040959346 30.5687095336836840 Ba
atom -0.0000000040959346 4.9545532354181638 30.5687095336836840 Ba
atom 4.9545532313222242 4.9545532313222296 30.5687095336836840 Ba
atom 0.0000000000000000 0.0000000000000000 35.4715957175567524 Ba
atom 4.9545532354181558 -0.0000000040959346 35.4715957175567524 Ba
atom -0.0000000040959346 4.9545532354181638 35.4715957175567524 Ba
atom 4.9545532313222242 4.9545532313222296 35.4715957175567524 Ba
atom 2.4772766156611121 2.4772766156611148 33.1980297566438196 Zr
atom 7.4318298510792689 2.4772766115651792 33.1980297566438196 Zr
atom 2.4772766115651774 7.4318298510792795 33.1980297566438196 Zr
atom 7.4318298469833382 7.4318298469833417 33.1980297566438196 Zr
atom 2.4772766156611121 2.4772766156611148 30.5979249487850993 S
atom 7.4318298510792689 2.4772766115651792 30.5979249487850993 S
atom 2.4772766115651774 7.4318298510792795 30.5979249487850993 S
atom 7.4318298469833382 7.4318298469833417 30.5979249487850993 S
atom 2.4772766156611121 2.4772766156611148 35.7411317023206081 S
atom 7.4318298510792689 2.4772766115651792 35.7411317023206081 S
atom 2.4772766115651774 7.4318298510792795 35.7411317023206081 S
atom 7.4318298469833382 7.4318298469833417 35.7411317023206081 S
atom 2.0528743454807081 0.0000018719485847 33.1050633297999113 S
atom 7.8562321253556098 -0.0000018801404539 33.1050633297999113 S
atom 2.9016788858415179 4.9545513593736565 33.1050633297999113 S
atom 7.0074275768029368 4.9545551032708097 33.1050633297999113 S
atom -0.0000018760445193 2.9016788899374530 33.1050633297999113 S
atom 4.9545551073667280 2.0528743413847739 33.1050633297999113 S
atom 0.0000018678526501 7.0074275808988675 33.1050633297999113 S
atom 4.9545513552777036 7.8562321212596800 33.1050633297999113 S
atom 2.4772766156611121 2.4772766156611148 38.8521639329540847 Ba
atom 7.4318298510792689 2.4772766115651792 38.8521639329540847 Ba
atom 2.4772766115651774 7.4318298510792795 38.8521639329540847 Ba
atom 7.4318298469833382 7.4318298469833417 38.8521639329540847 Ba
atom 2.4772766156611121 2.4772766156611148 43.7550857929151675 Ba
atom 7.4318298510792689 2.4772766115651792 43.7550857929151675 Ba
atom 2.4772766115651774 7.4318298510792795 43.7550857929151675 Ba
atom 7.4318298469833382 7.4318298469833417 43.7550857929151675 Ba
atom 4.9545532313222242 4.9545532313222296 41.1257358930158929 Zr
atom 9.9091064667403739 4.9545532272262900 41.1257358930158929 Zr
atom 4.9545532272262980 9.9091064667404005 41.1257358930158929 Zr
atom 9.9091064626444485 9.9091064626444592 41.1257358930158929 Zr
atom 4.9545532313222242 4.9545532313222296 46.2641263521124912 Zr
atom 9.9091064667403739 4.9545532272262900 46.2641263521124912 Zr
atom 4.9545532272262980 9.9091064667404005 46.2641263521124912 Zr
atom 9.9091064626444485 9.9091064626444592 46.2641263521124912 Zr
atom 4.9545532313222242 4.9545532313222296 38.5826319570855532 S
atom 9.9091064667403739 4.9545532272262900 38.5826319570855532 S
atom 4.9545532272262980 9.9091064667404005 38.5826319570855532 S
atom 9.9091064626444485 9.9091064626444592 38.5826319570855532 S
atom 4.9545532313222242 4.9545532313222296 43.7258579363744673 S
atom 9.9091064667403739 4.9545532272262900 43.7258579363744673 S
atom 4.9545532272262980 9.9091064667404005 43.7258579363744673 S
atom 9.9091064626444485 9.9091064626444592 43.7258579363744673 S
atom 4.5301514514004211 2.4772766720464867 41.2187089721735731 S
atom 10.3335082507581113 2.4772765510838726 41.2187089721735731 S
atom 5.3789550112440256 7.4318297905979751 41.2187089721735731 S
atom 9.4847046827226222 7.4318299033687216 41.2187089721735731 S
atom 5.4750156467180222 2.4772786939039273 46.2789629286757815 S
atom 9.3886440554404924 2.4772745292264320 46.2789629286757815 S
atom 4.4340908159264236 7.4318277687405319 46.2789629286757815 S
atom 10.4295688780402287 7.4318319252261622 46.2789629286757815 S
atom 2.4772765551798024 5.3789550153399679 41.2187089721735731 S
atom 7.4318299074646426 4.5301514473044859 41.2187089721735731 S
atom 2.4772766679505476 9.4847046868185849 41.2187089721735731 S
atom 7.4318297865020293 10.3335082466621984 41.2187089721735731 S
atom 2.4772745333223636 4.4340908200223703 46.2789629286757815 S
atom 7.4318319293220885 5.4750156426220915 46.2789629286757815 S
atom 2.4772786898079939 10.4295688821361843 46.2789629286757815 S
atom 7.4318277646445852 9.3886440513445866 46.2789629286757815 S
atom 2.4772766156611121 2.4772766156611148 48.8434388407699771 Ba
atom 7.4318298510792689 2.4772766115651792 48.8434388407699771 Ba
atom 2.4772766115651774 7.4318298510792795 48.8434388407699771 Ba
atom 7.4318298469833382 7.4318298469833417 48.8434388407699771 Ba
atom 2.4772766156611121 2.4772766156611148 53.9513631724931244 Ba
atom 7.4318298510792689 2.4772766115651792 53.9513631724931244 Ba
atom 2.4772766115651774 7.4318298510792795 53.9513631724931244 Ba
atom 7.4318298469833382 7.4318298469833417 53.9513631724931244 Ba
atom 4.9545532313222242 4.9545532313222296 51.3863813903097650 Zr
atom 9.9091064667403739 4.9545532272262900 51.3863813903097650 Zr
atom 4.9545532272262980 9.9091064667404005 51.3863813903097650 Zr
atom 9.9091064626444485 9.9091064626444592 51.3863813903097650 Zr
atom 4.9545532313222242 4.9545532313222296 56.5064483976845153 Zr
atom 9.9091064667403739 4.9545532272262900 56.5064483976845153 Zr
atom 4.9545532272262980 9.9091064667404005 56.5064483976845153 Zr
atom 9.9091064626444485 9.9091064626444592 56.5064483976845153 Zr
atom 4.9545532313222242 4.9545532313222296 48.8349029758153108 S
atom 9.9091064667403739 4.9545532272262900 48.8349029758153108 S
atom 4.9545532272262980 9.9091064667404005 48.8349029758153108 S
atom 9.9091064626444485 9.9091064626444592 48.8349029758153108 S
atom 4.9545532313222242 4.9545532313222296 53.9493852400305798 S
atom 9.9091064667403739 4.9545532272262900 53.9493852400305798 S
atom 4.9545532272262980 9.9091064667404005 53.9493852400305798 S
atom 9.9091064626444485 9.9091064626444592 53.9493852400305798 S
atom 5.4570647781228754 2.4772765550303788 51.3969699410602274 S
atom 9.4065949240356552 2.4772766680999805 51.3969699410602274 S
atom 4.4520416845215847 7.4318299076140857 51.3969699410602274 S
atom 10.4116180094450765 7.4318297863526031 51.3969699410602274 S
atom 5.4587232851718159 2.4772765864689021 56.5064483976845153 S
atom 9.4049364169867129 2.4772766366614589 56.5064483976845153 S
atom 4.4503831774726370 7.4318298761755548 56.5064483976845153 S
atom 10.4132765164940455 7.4318298177911375 56.5064483976845153 S
atom 2.4772766721959116 4.4520416886175189 51.3969699410602274 S
atom 7.4318297904485364 5.4570647740269438 51.3969699410602274 S
atom 2.4772765509344392 10.4116180135410428 51.3969699410602274 S
atom 7.4318299035181372 9.4065949199397458 51.3969699410602274 S
atom 2.4772766407573905 4.4503831815685722 56.5064483976845153 S
atom 7.4318298218870638 5.4587232810758808 56.5064483976845153 S
atom 2.4772765823729674 10.4132765205899833 56.5064483976845153 S
atom 7.4318298720796117 9.4049364128907964 56.5064483976845153 S
atom 2.4772766156611121 2.4772766156611148 59.0615336228759489 Ba
atom 7.4318298510792689 2.4772766115651792 59.0615336228759489 Ba
atom 2.4772766115651774 7.4318298510792795 59.0615336228759489 Ba
atom 7.4318298469833382 7.4318298469833417 59.0615336228759489 Ba
atom 2.4772766156611121 2.4772766156611148 64.1694579545990962 Ba
atom 7.4318298510792689 2.4772766115651792 64.1694579545990962 Ba
atom 2.4772766115651774 7.4318298510792795 64.1694579545990962 Ba
atom 7.4318298469833382 7.4318298469833417 64.1694579545990962 Ba
atom 4.9545532313222242 4.9545532313222296 61.6265154050592798 Zr
atom 9.9091064667403739 4.9545532272262900 61.6265154050592798 Zr
atom 4.9545532272262980 9.9091064667404005 61.6265154050592798 Zr
atom 9.9091064626444485 9.9091064626444592 61.6265154050592798 Zr
atom 4.9545532313222242 4.9545532313222296 66.7487704432565181 Zr
atom 9.9091064667403739 4.9545532272262900 66.7487704432565181 Zr
atom 4.9545532272262980 9.9091064667404005 66.7487704432565181 Zr
atom 9.9091064626444485 9.9091064626444592 66.7487704432565181 Zr
atom 4.9545532313222242 4.9545532313222296 59.0635115553384935 S
atom 9.9091064667403739 4.9545532272262900 59.0635115553384935 S
atom 4.9545532272262980 9.9091064667404005 59.0635115553384935 S
atom 9.9091064626444485 9.9091064626444592 59.0635115553384935 S
atom 4.9545532313222242 4.9545532313222296 64.1779938195537625 S
atom 9.9091064667403739 4.9545532272262900 64.1779938195537625 S
atom 4.9545532272262980 9.9091064667404005 64.1779938195537625 S
atom 9.9091064626444485 9.9091064626444592 64.1779938195537625 S
atom 5.4570647781228754 2.4772765550303788 61.6159268543087819 S
atom 9.4065949240356552 2.4772766680999805 61.6159268543087819 S
atom 4.4520416845215847 7.4318299076140857 61.6159268543087819 S
atom 10.4116180094450765 7.4318297863526031 61.6159268543087819 S
atom 5.4750156467180222 2.4772786939039273 66.7339338666932775 S
atom 9.3886440554404924 2.4772745292264320 66.7339338666932775 S
atom 4.4340908159264236 7.4318277687405319 66.7339338666932775 S
atom 10.4295688780402287 7.4318319252261622 66.7339338666932775 S
atom 2.4772766721959116 4.4520416886175189 61.6159268543087819 S
atom 7.4318297904485364 5.4570647740269438 61.6159268543087819 S
atom 2.4772765509344392 10.4116180135410428 61.6159268543087819 S
atom 7.4318299035181372 9.4065949199397458 61.6159268543087819 S
atom 2.4772745333223636 4.4340908200223703 66.7339338666932775 S
atom 7.4318319293220885 5.4750156426220915 66.7339338666932775 S
atom 2.4772786898079939 10.4295688821361843 66.7339338666932775 S
atom 7.4318277646445852 9.3886440513445866 66.7339338666932775 S
atom 2.4772766156611121 2.4772766156611148 69.2578110024538915 Ba
atom 7.4318298510792689 2.4772766115651792 69.2578110024538915 Ba
atom 2.4772766115651774 7.4318298510792795 69.2578110024538915 Ba
atom 7.4318298469833382 7.4318298469833417 69.2578110024538915 Ba
atom 2.4772766156611121 2.4772766156611148 74.1607328624151734 Ba
atom 7.4318298510792689 2.4772766115651792 74.1607328624151734 Ba
atom 2.4772766115651774 7.4318298510792795 74.1607328624151734 Ba
atom 7.4318298469833382 7.4318298469833417 74.1607328624151734 Ba
atom 4.9545532313222242 4.9545532313222296 71.8871609023531306 Zr
atom 9.9091064667403739 4.9545532272262900 71.8871609023531306 Zr
atom 4.9545532272262980 9.9091064667404005 71.8871609023531306 Zr
atom 9.9091064626444485 9.9091064626444592 71.8871609023531306 Zr
atom 4.9545532313222242 4.9545532313222296 69.2870388589943502 S
atom 9.9091064667403739 4.9545532272262900 69.2870388589943502 S
atom 4.9545532272262980 9.9091064667404005 69.2870388589943502 S
atom 9.9091064626444485 9.9091064626444592 69.2870388589943502 S
atom 4.9545532313222242 4.9545532313222296 74.4302648382835343 S
atom 9.9091064667403739 4.9545532272262900 74.4302648382835343 S
atom 4.9545532272262980 9.9091064667404005 74.4302648382835343 S
atom 9.9091064626444485 9.9091064626444592 74.4302648382835343 S
atom 4.5301514514004211 2.4772766720464867 71.7941878231954291 S
atom 10.3335082507581113 2.4772765510838726 71.7941878231954291 S
atom 5.3789550112440256 7.4318297905979751 71.7941878231954291 S
atom 9.4847046827226222 7.4318299033687216 71.7941878231954291 S
atom 2.4772765551798024 5.3789550153399679 71.7941878231954291 S
atom 7.4318299074646426 4.5301514473044859 71.7941878231954291 S
atom 2.4772766679505476 9.4847046868185849 71.7941878231954291 S
atom 7.4318297865020293 10.3335082466621984 71.7941878231954291 S
