#=======================================================
# FHI-aims file: sym_relax/sym_relax_RP_5_Rx00_0-Ry0.in
# Created using the Atomic Simulation Environment (ASE)
# Fri Mar 14 10:49:32 2025
#=======================================================
lattice_vector 10.0902559446445235 -0.0000000000000004 -0.0000000000000000 
lattice_vector -0.0000000000000004 10.0902559446445235 -0.0000000000000000 
lattice_vector 0.0000000000000000 -0.0000000000000000 55.0660483992698957 
atom -0.1547461482136258 0.0000000000000000 0.2828938210199087 Ba
atom 5.1998741205358785 -0.0000000000000000 0.2828938210199087 Ba
atom 0.1547461482136257 5.0451279723222573 0.2828938210199087 Ba
atom 4.8903818241086290 5.0451279723222573 0.2828938210199087 Ba
atom 0.0287300707607753 -0.0000000000000000 4.9451031682475586 Ba
atom 5.0163979015614748 0.0000000000000000 4.9451031682475586 Ba
atom -0.0287300707607753 5.0451279723222573 4.9451031682475568 Ba
atom 5.0738580430830371 5.0451279723222573 4.9451031682475568 Ba
atom 2.5225639861611286 2.5097584767634147 2.3220797010677576 Zr
atom 7.5676919584833833 2.5353694955588417 2.3220797010677576 Zr
atom 2.5225639861611286 7.5804974678810924 2.3220797010677576 Zr
atom 7.5676919584833833 7.5548864490856777 2.3220797010677576 Zr
atom 2.5225639861611286 2.5217006001915032 7.3327344653120816 Zr
atom 7.5676919584833833 2.5234273721307576 7.3327344653120816 Zr
atom 2.5225639861611286 7.5685553444530189 7.3327344653120816 Zr
atom 7.5676919584833833 7.5668285725137503 7.3327344653120816 Zr
atom 2.5225639861611286 2.8783433549831967 -0.1584883679964728 S
atom 7.5676919584833833 2.1667846173390606 -0.1584883679964728 S
atom 2.5225639861611286 7.2119125896613197 -0.1584883679964728 S
atom 7.5676919584833833 7.9234713273054478 -0.1584883679964728 S
atom 2.5225639861611286 2.0483357511549523 4.8627099644138347 S
atom 7.5676919584833833 2.9967922211673046 4.8627099644138347 S
atom 2.5225639861611286 8.0419201934895650 4.8627099644138347 S
atom 7.5676919584833833 7.0934637234772158 4.8627099644138347 S
atom 2.5225639861611286 -0.0000000000000000 2.0058910752702097 S
atom 7.5676919584833833 -0.0000000000000000 2.7988102974353719 S
atom 2.5225639861611286 5.0451279723222573 2.7988102974353719 S
atom 7.5676919584833833 5.0451279723222573 2.0058910752702097 S
atom 2.5225639861611286 -0.0000000000000000 7.8078043890365034 S
atom 7.5676919584833833 -0.0000000000000000 6.8753024384254378 S
atom 2.5225639861611286 5.0451279723222573 6.8753024384254378 S
atom 7.5676919584833833 5.0451279723222573 7.8078043890365034 S
atom -0.0000000000000000 2.5225639861611286 2.4568214791448688 S
atom 5.0451279723222573 2.5225639861611286 2.4568214791448688 S
atom -0.0000000000000000 7.5676919584833833 2.4568214791448688 S
atom 5.0451279723222573 7.5676919584833833 2.4568214791448688 S
atom -0.0000000000000000 2.5225639861611286 7.3481310326085900 S
atom 5.0451279723222573 2.5225639861611286 7.3481310326085900 S
atom -0.0000000000000000 7.5676919584833833 7.3481310326085900 S
atom 5.0451279723222573 7.5676919584833833 7.3481310326085900 S
atom -0.0093682506225283 0.0000000000000000 9.8299590703390347 Ba
atom 5.0544962229447776 -0.0000000000000000 9.8299590703390347 Ba
atom 0.0093682506225283 5.0451279723222573 9.8299590703390347 Ba
atom 5.0357597216997343 5.0451279723222573 9.8299590703390347 Ba
atom 0.0093682506225283 -0.0000000000000000 14.7530982507635322 Ba
atom 5.0357597216997343 0.0000000000000000 14.7530982507635322 Ba
atom -0.0093682506225283 5.0451279723222573 14.7530982507635322 Ba
atom 5.0544962229447776 5.0451279723222573 14.7530982507635322 Ba
atom 2.5225639861611286 2.5225639861611286 12.2915286605512915 Zr
atom 7.5676919584833833 2.5225639861611286 12.2915286605512915 Zr
atom 2.5225639861611286 7.5676919584833833 12.2915286605512915 Zr
atom 7.5676919584833833 7.5676919584833833 12.2915286605512915 Zr
atom 2.5225639861611286 2.5234273721307576 17.2503228557904755 Zr
atom 7.5676919584833833 2.5217006001915032 17.2503228557904755 Zr
atom 2.5225639861611286 7.5668285725137503 17.2503228557904755 Zr
atom 7.5676919584833833 7.5685553444530189 17.2503228557904755 Zr
atom 2.5225639861611286 3.0305784610142905 9.8165910471745441 S
atom 7.5676919584833833 2.0145495113079637 9.8165910471745441 S
atom 2.5225639861611286 7.0596774836302210 9.8165910471745441 S
atom 7.5676919584833833 8.0757064333365420 9.8165910471745441 S
atom 2.5225639861611286 2.0145495113079637 14.7664662739280228 S
atom 7.5676919584833833 3.0305784610142914 14.7664662739280228 S
atom 2.5225639861611286 8.0757064333365420 14.7664662739280228 S
atom 7.5676919584833833 7.0596774836302210 14.7664662739280228 S
atom 2.5225639861611286 -0.0000000000000000 11.8151990882451088 S
atom 7.5676919584833833 -0.0000000000000000 12.7678582328574866 S
atom 2.5225639861611286 5.0451279723222573 12.7678582328574866 S
atom 7.5676919584833833 5.0451279723222573 11.8151990882451088 S
atom 2.5225639861611286 -0.0000000000000000 17.7077548826771398 S
atom 7.5676919584833833 -0.0000000000000000 16.7752529320660848 S
atom 2.5225639861611286 5.0451279723222573 16.7752529320660848 S
atom 7.5676919584833833 5.0451279723222573 17.7077548826771398 S
atom -0.0000000000000000 2.5225639861611286 12.2915286605512915 S
atom 5.0451279723222573 2.5225639861611286 12.2915286605512915 S
atom 0.0000000000000000 7.5676919584833833 12.2915286605512915 S
atom 5.0451279723222573 7.5676919584833833 12.2915286605512915 S
atom 0.0000000000000000 2.5225639861611286 17.2349262884939911 S
atom 5.0451279723222573 2.5225639861611286 17.2349262884939911 S
atom 0.0000000000000000 7.5676919584833833 17.2349262884939911 S
atom 5.0451279723222573 7.5676919584833833 17.2349262884939911 S
atom -0.0287300707607753 0.0000000000000000 19.6379541528549986 Ba
atom 5.0738580430830371 -0.0000000000000000 19.6379541528549986 Ba
atom 0.0287300707607753 5.0451279723222573 19.6379541528550057 Ba
atom 5.0163979015614748 5.0451279723222573 19.6379541528550057 Ba
atom 0.1547461482136257 -0.0000000000000000 24.3001635000826646 Ba
atom 4.8903818241086290 0.0000000000000000 24.3001635000826646 Ba
atom -0.1547461482136258 5.0451279723222573 24.3001635000826646 Ba
atom 5.1998741205358785 5.0451279723222573 24.3001635000826646 Ba
atom 2.5225639861611286 2.5353694955588417 22.2609776200348293 Zr
atom 7.5676919584833833 2.5097584767634147 22.2609776200348293 Zr
atom 2.5225639861611286 7.5548864490856777 22.2609776200348293 Zr
atom 7.5676919584833833 7.5804974678810924 22.2609776200348293 Zr
atom 2.5225639861611286 2.9967922211673046 19.7203473566887588 S
atom 7.5676919584833833 2.0483357511549531 19.7203473566887588 S
atom 2.5225639861611286 7.0934637234772175 19.7203473566887588 S
atom 7.5676919584833833 8.0419201934895650 19.7203473566887588 S
atom 2.5225639861611286 2.1667846173390606 24.7415456890990590 S
atom 7.5676919584833833 2.8783433549831976 24.7415456890990590 S
atom 2.5225639861611286 7.9234713273054478 24.7415456890990590 S
atom 7.5676919584833833 7.2119125896613197 24.7415456890990590 S
atom 2.5225639861611286 -0.0000000000000000 21.7842470236671844 S
atom 7.5676919584833833 -0.0000000000000000 22.5771662458323803 S
atom 2.5225639861611286 5.0451279723222573 22.5771662458323803 S
atom 7.5676919584833833 5.0451279723222573 21.7842470236671844 S
atom 0.0000000000000000 2.5225639861611286 22.1262358419576799 S
atom 5.0451279723222573 2.5225639861611286 22.1262358419576799 S
atom 0.0000000000000000 7.5676919584833833 22.1262358419576799 S
atom 5.0451279723222573 7.5676919584833833 22.1262358419576799 S
atom 2.5225639861611286 2.6773101343747525 27.8159180206548058 Ba
atom 7.5676919584833833 2.3678178379475057 27.8159180206548058 Ba
atom 2.5225639861611286 7.4129458102697621 27.8159180206548058 Ba
atom 7.5676919584833833 7.7224381066970080 27.8159180206548058 Ba
atom 2.5225639861611286 2.4938339154003528 32.4781273678824292 Ba
atom 7.5676919584833833 2.5512940569219049 32.4781273678824292 Ba
atom 2.5225639861611286 7.5964220292441631 32.4781273678824292 Ba
atom 7.5676919584833833 7.5389618877226070 32.4781273678824292 Ba
atom 5.0579334817199610 5.0451279723222573 29.8551039007026127 Zr
atom 10.0774504352467922 5.0451279723222573 29.8551039007026127 Zr
atom 5.0323224629245482 10.0902559446445146 29.8551039007026127 Zr
atom 10.1030614540422334 10.0902559446445146 29.8551039007026127 Zr
atom 5.0459913582918947 5.0451279723222573 34.8657586649469593 Zr
atom 10.0893925586748754 5.0451279723222573 34.8657586649469593 Zr
atom 5.0442645863526270 10.0902559446445146 34.8657586649469593 Zr
atom 10.0911193306141431 10.0902559446445146 34.8657586649469593 Zr
atom 4.6893486035001892 5.0451279723222573 27.3745358316384042 S
atom 10.4460353134665880 5.0451279723222573 27.3745358316384042 S
atom 5.4009073411443209 10.0902559446445146 27.3745358316384042 S
atom 9.7344765758224430 10.0902559446445146 27.3745358316384042 S
atom 5.5193562073284275 5.0451279723222573 32.3957341640486902 S
atom 9.6160277096383364 5.0451279723222573 32.3957341640486902 S
atom 4.5708997373160871 10.0902559446445146 32.3957341640486902 S
atom 10.5644841796506892 10.0902559446445146 32.3957341640486902 S
atom 5.0451279723222573 2.5225639861611286 29.9898456787797869 S
atom 10.0902559446445146 2.5225639861611286 29.9898456787797869 S
atom 5.0451279723222573 7.5676919584833833 29.9898456787797869 S
atom 10.0902559446445146 7.5676919584833833 29.9898456787797869 S
atom 5.0451279723222573 2.5225639861611286 34.8811552322434792 S
atom 10.0902559446445146 2.5225639861611286 34.8811552322434792 S
atom 5.0451279723222573 7.5676919584833833 34.8811552322434792 S
atom 10.0902559446445146 7.5676919584833833 34.8811552322434792 S
atom 2.5225639861611286 5.0451279723222573 30.3318344970702789 S
atom 7.5676919584833833 5.0451279723222573 29.5389152749050901 S
atom 2.5225639861611286 10.0902559446445146 29.5389152749050901 S
atom 7.5676919584833833 10.0902559446445146 30.3318344970702789 S
atom 2.5225639861611286 5.0451279723222573 34.4083266380603376 S
atom 7.5676919584833833 5.0451279723222573 35.3408285886713713 S
atom 2.5225639861611286 10.0902559446445146 35.3408285886713713 S
atom 7.5676919584833833 10.0902559446445146 34.4083266380603376 S
atom 2.5225639861611286 2.5319322367836565 37.3629832699739097 Ba
atom 7.5676919584833833 2.5131957355386012 37.3629832699739097 Ba
atom 2.5225639861611286 7.5583237078608621 37.3629832699739097 Ba
atom 7.5676919584833833 7.5770602091059081 37.3629832699739097 Ba
atom 2.5225639861611286 2.5131957355386012 42.2861224503984374 Ba
atom 7.5676919584833833 2.5319322367836565 42.2861224503984374 Ba
atom 2.5225639861611286 7.5770602091059081 42.2861224503984374 Ba
atom 7.5676919584833833 7.5583237078608621 42.2861224503984374 Ba
atom 5.0451279723222573 5.0451279723222573 39.8245528601861665 Zr
atom 10.0902559446445146 5.0451279723222573 39.8245528601861665 Zr
atom 5.0451279723222573 10.0902559446445146 39.8245528601861665 Zr
atom 10.0902559446445146 10.0902559446445146 39.8245528601861665 Zr
atom 5.0442645863526270 5.0451279723222573 44.7833470554254092 Zr
atom 10.0911193306141431 5.0451279723222573 44.7833470554254092 Zr
atom 5.0459913582918947 10.0902559446445146 44.7833470554254092 Zr
atom 10.0893925586748754 10.0902559446445146 44.7833470554254092 Zr
atom 4.5371134974690897 5.0451279723222573 37.3496152468094280 S
atom 10.5982704194976751 5.0451279723222573 37.3496152468094280 S
atom 5.5531424471754232 10.0902559446445146 37.3496152468094280 S
atom 9.5822414697913647 10.0902559446445146 37.3496152468094280 S
atom 5.5531424471754240 5.0451279723222573 42.2994904735629191 S
atom 9.5822414697913647 5.0451279723222573 42.2994904735629191 S
atom 4.5371134974690897 10.0902559446445146 42.2994904735629191 S
atom 10.5982704194976751 10.0902559446445146 42.2994904735629191 S
atom 5.0451279723222573 2.5225639861611286 39.8245528601861665 S
atom 10.0902559446445146 2.5225639861611286 39.8245528601861665 S
atom 5.0451279723222573 7.5676919584833833 39.8245528601861665 S
atom 10.0902559446445146 7.5676919584833833 39.8245528601861665 S
atom 5.0451279723222573 2.5225639861611286 44.7679504881288821 S
atom 10.0902559446445146 2.5225639861611286 44.7679504881288821 S
atom 5.0451279723222573 7.5676919584833833 44.7679504881288821 S
atom 10.0902559446445146 7.5676919584833833 44.7679504881288821 S
atom 2.5225639861611286 5.0451279723222573 40.3008824324923580 S
atom 7.5676919584833833 5.0451279723222573 39.3482232878799891 S
atom 2.5225639861611286 10.0902559446445146 39.3482232878799891 S
atom 7.5676919584833833 10.0902559446445146 40.3008824324923580 S
atom 2.5225639861611286 5.0451279723222573 44.3082771317009829 S
atom 7.5676919584833833 5.0451279723222573 45.2407790823120450 S
atom 2.5225639861611286 10.0902559446445146 45.2407790823120450 S
atom 7.5676919584833833 10.0902559446445146 44.3082771317009829 S
atom 2.5225639861611286 2.5512940569219049 47.1709783524899109 Ba
atom 7.5676919584833833 2.4938339154003528 47.1709783524899109 Ba
atom 2.5225639861611286 7.5389618877226070 47.1709783524899109 Ba
atom 7.5676919584833833 7.5964220292441631 47.1709783524899109 Ba
atom 2.5225639861611286 2.3678178379475057 51.8331876997175627 Ba
atom 7.5676919584833833 2.6773101343747525 51.8331876997175627 Ba
atom 2.5225639861611286 7.7224381066970080 51.8331876997175627 Ba
atom 7.5676919584833833 7.4129458102697621 51.8331876997175627 Ba
atom 5.0323224629245482 5.0451279723222573 49.7940018196696883 Zr
atom 10.1030614540422334 5.0451279723222573 49.7940018196696883 Zr
atom 5.0579334817199610 10.0902559446445146 49.7940018196696883 Zr
atom 10.0774504352467922 10.0902559446445146 49.7940018196696883 Zr
atom 4.5708997373160871 5.0451279723222573 47.2533715563236569 S
atom 10.5644841796506892 5.0451279723222573 47.2533715563236569 S
atom 5.5193562073284275 10.0902559446445146 47.2533715563236569 S
atom 9.6160277096383364 10.0902559446445146 47.2533715563236569 S
atom 5.4009073411443218 5.0451279723222573 52.2745698887339785 S
atom 9.7344765758224430 5.0451279723222573 52.2745698887339785 S
atom 4.6893486035001892 10.0902559446445146 52.2745698887339785 S
atom 10.4460353134665880 10.0902559446445146 52.2745698887339785 S
atom 5.0451279723222573 2.5225639861611286 49.6592600415925745 S
atom 10.0902559446445146 2.5225639861611286 49.6592600415925745 S
atom 5.0451279723222573 7.5676919584833833 49.6592600415925745 S
atom 10.0902559446445146 7.5676919584833833 49.6592600415925745 S
atom 2.5225639861611286 5.0451279723222573 50.1101904454672251 S
atom 7.5676919584833833 5.0451279723222573 49.3172712233020860 S
atom 2.5225639861611286 10.0902559446445146 49.3172712233020860 S
atom 7.5676919584833833 10.0902559446445146 50.1101904454672251 S
