#=======================================================
# FHI-aims file: sym_relax/sym_relax_RP_5_Rx0Rz_0RyRz.in
# Created using the Atomic Simulation Environment (ASE)
# Fri Mar 14 10:51:09 2025
#=======================================================
lattice_vector 10.0874245467154360 0.0004354614600479 0.0038118459122510 
lattice_vector 0.0004354614600479 10.0874245467154324 -0.0038118459122511 
lattice_vector 0.0172045159403418 -0.0172045159403423 55.0975715296336475 
atom -0.1638358111634701 -0.0078137251400534 0.2819437952476135 Ba
atom 5.1877003816472183 -0.0073539797813761 0.2829677216561315 Ba
atom 0.1442058390195395 5.0361405628463007 0.2791558757438795 Ba
atom 4.8800941929242558 5.0361162789476843 0.2819437952476137 Ba
atom 0.0009157675968952 -0.0061994523181488 4.9492095863608938 Ba
atom 4.9884188070987667 -0.0050757909507583 4.9397563361205981 Ba
atom -0.0550757355289059 5.0384187516769092 4.9359444902083407 Ba
atom 5.0448457716846278 5.0377305517695721 4.9492095863608956 Ba
atom 2.5098798062706220 2.5024105799066967 2.3224020020768767 Zr
atom 7.5536958620002785 2.5279081391007456 2.3245753627428090 Zr
atom 2.5102013193725936 7.5714026817284159 2.3207635168305591 Zr
atom 7.5538098103583629 7.5463405839944206 2.3224020020768754 Zr
atom 2.5114770442501824 2.5157338090754777 7.3352948110988176 Zr
atom 7.5550746840016689 2.5182080957253796 7.3372777639431535 Zr
atom 2.5115801413739769 7.5617026383530757 7.3334659180309032 Zr
atom 7.5554070483379112 7.5596638131632083 7.3352948110988194 Zr
atom 2.5130476297231246 2.8686375765419223 -0.1589208272460430 S
atom 7.5553711857317563 2.1598153207815964 -0.1564560557405732 S
atom 2.5118766431040762 7.2033098634092712 -0.1602679016528241 S
atom 7.5569776338108472 7.9125675806296609 -0.1589208272460430 S
atom 2.5122977907327342 2.0450983111362371 4.8640252899691543 S
atom 7.5586135115882636 2.9869896620687242 4.8656293850909176 S
atom 2.5151189689605871 8.0304842046963962 4.8618175391786744 S
atom 7.5562277948204635 7.0890283152239606 4.8640252899691543 S
atom 2.5126834189998601 -0.0069245187179684 2.0088170991768526 S
atom 7.5504657418683365 -0.0064353536229938 2.8009751167031083 S
atom 2.5069711992406432 5.0370591890046779 2.7971632707908594 S
atom 7.5566134230875868 5.0370054853697681 2.0088170991768521 S
atom 2.5891207706990427 -0.0048913532765322 7.8074287164178049 S
atom 7.5002679733440303 -0.0049881515966007 6.8847283878666179 S
atom 2.4567734307163360 5.0385063910310777 6.8809165419543694 S
atom 7.6330507747867777 5.0390386508111904 7.8074287164178005 S
atom -0.0112087380353125 2.5139460223219605 2.4542829024694557 S
atom 5.0324767918859257 2.5162664367763266 2.4582538758170176 S
atom -0.0110177507417586 7.5597609794040013 2.4544420299047673 S
atom 5.0327212660524268 7.5578760264096720 2.4542829024694557 S
atom -0.0058672855675275 2.4378268881804281 7.3493555424363146 S
atom 5.0378485119197824 2.5958825678344040 7.3474503334539749 S
atom -0.0056460307078948 7.6393771104620907 7.3436384875417309 S
atom 5.0380627185202007 7.4817568922681543 7.3493555424363146 S
atom -0.0162878877587220 -0.0035130080803143 9.7890473679904204 Ba
atom 5.0467518978982433 -0.0050513676365423 9.8768501728149865 Ba
atom 0.0032573552705662 5.0384431749911522 9.8730383269027175 Ba
atom 5.0276421163290070 5.0404169960074210 9.7890473679904169 Ba
atom 0.0239684752320889 -0.0041675793930528 14.8080827791674405 Ba
atom 5.0483532362905335 -0.0021937583767763 14.7240918202551381 Ba
atom 0.0048586936628489 5.0413007842508968 14.7202799743428603 Ba
atom 5.0678984793198225 5.0397624246946844 14.8080827791674370 Ba
atom 2.5258052957805530 2.5181247083071829 12.2985650735789296 Zr
atom 7.5695175691382639 2.5183424390372098 12.3004709965350489 Zr
atom 2.5260230265105719 7.5618369816648894 12.2966591506227942 Zr
atom 7.5697352998682925 7.5620547123949065 12.2985650735789278 Zr
atom 2.5401335473109246 2.5205156075388899 17.2618353360590540 Zr
atom 7.5839604542748722 2.5184767823490328 17.2636642291269347 Zr
atom 2.5404659116471793 7.5619713249767226 17.2598523832146817 Zr
atom 7.5840635513986614 7.5644456116266143 17.2618353360590540 Zr
atom 2.5234906439617291 3.0191623911588095 9.8210027729421974 S
atom 7.5635239956283966 2.0159092574901223 9.8232217068384919 S
atom 2.5200294530007072 7.0594038001178125 9.8194098609262426 S
atom 7.5674206480494739 8.0630923952465317 9.8210027729421956 S
atom 2.5281199475993619 2.0170870254555617 14.7761273742156245 S
atom 7.5755111426481205 3.0207756205842831 14.7777202862316148 S
atom 2.5320166000204418 8.0642701632119973 14.7739084403193726 S
atom 7.5720499516871129 7.0610170295432804 14.7761273742156209 S
atom 2.4347272397350674 -0.0038916950757896 11.8282091772181133 S
atom 7.6603778944537249 -0.0033534309375295 12.7727328158519899 S
atom 2.6168833518260430 5.0401411116901595 12.7689209699397530 S
atom 7.4786572438227958 5.0400383090119441 11.8282091772181133 S
atom 2.5948371608447740 -0.0022569744167182 17.7162136052034995 S
atom 7.5059843634897430 -0.0023537727367868 16.7935132766523054 S
atom 2.4624898208620514 5.0411407698908963 16.7897014307400418 S
atom 7.6387671649325108 5.0416730296710091 17.7162136052034995 S
atom 0.0039402963705307 2.6274465945503329 12.2953542644289247 S
atom 5.0476702951905699 2.4088028220640361 12.3017758827289470 S
atom 0.0041757525628848 7.4522973646917166 12.2979640368166869 S
atom 5.0478703004582615 7.6713765986380507 12.2953542644289264 S
atom 0.0137620796413102 2.4403668487799535 17.2496798137038816 S
atom 5.0574778771286191 2.5984225284339364 17.2477746047215810 S
atom 0.0139833345009427 7.6419170710616067 17.2439627588092961 S
atom 5.0576920837290444 7.4842968528676899 17.2496798137038780 S
atom 0.0067648198764720 -0.0014811351552188 19.6479205607969760 Ba
atom 5.1066863270900100 -0.0021693350625604 19.6611856569495096 Ba
atom 0.0631917844623217 5.0413252075651256 19.6573738110372389 Ba
atom 5.0506948239642062 5.0424488689325200 19.6479205607969831 Ba
atom 0.1715163986368373 0.0001331376666862 24.3151863519101958 Ba
atom 4.9074047525415603 0.0001088537680576 24.3179742714139735 Ba
atom -0.1360897900861247 5.0436033963957456 24.3141624255017241 Ba
atom 5.2154464027245755 5.0440631417544157 24.3151863519101958 Ba
atom 2.5417307852904760 2.5338388367076714 22.2747281450809638 Zr
atom 7.5853392762762306 2.5087767389736646 22.2763666303272920 Zr
atom 2.5418447336485555 7.5522712816013513 22.2725547844150462 Zr
atom 7.5856607893782115 7.5777688407953914 22.2747281450809638 Zr
atom 2.5393128008283621 2.9911511054781288 19.7331048571887280 S
atom 7.5804216266882403 2.0496952160056860 19.7353126079791288 S
atom 2.5369270840605580 7.0931897586333754 19.7315007620669256 S
atom 7.5832428049161136 8.0350811095658585 19.7331048571887280 S
atom 2.5385629618379757 2.1676118400724396 24.7560509744038484 S
atom 7.5836639525447707 2.8768695572928102 24.7573980488106677 S
atom 2.5401694099170791 7.9203640999204925 24.7535862028984219 S
atom 7.5824929659257361 7.2115418441601573 24.7560509744038484 S
atom 2.5446393923204567 -0.0008097723903245 21.7999668763669980 S
atom 7.5824217151889277 -0.0003206072953502 22.5921248938932600 S
atom 2.5389271725612419 5.0431739353323364 22.5883130479810141 S
atom 7.5885693964081797 5.0431202316974115 21.7999668763669980 S
atom 0.0191337996751732 2.5199829798380371 22.1388762713408589 S
atom 5.0628193295964081 2.5223033942924062 22.1428472446884079 S
atom 0.0193247869687277 7.5657979369200836 22.1390353987761408 S
atom 5.0630638037629119 7.5639129839257739 22.1388762713408589 S
atom 2.5383809851540962 2.6771985552371578 27.8307295600644622 Ba
atom 7.5818512438831513 2.3695923665142073 27.8317534864729303 Ba
atom 2.5383567012554638 7.4130869091418754 27.8279416405606987 Ba
atom 7.5823109892418268 7.7211285593248986 27.8307295600644622 Ba
atom 2.5367667123321906 2.5124469764767992 32.4979953511776287 Ba
atom 7.5795730550525295 2.5688739410626500 32.4885421009374014 Ba
atom 2.5360785124248513 7.6123684836903260 32.4847302550251698 Ba
atom 7.5806967164199319 7.5563769805645284 32.4979953511776287 Ba
atom 5.0720866841950798 5.0474129418907916 29.8711877668936623 Zr
atom 10.0905191290887490 5.0475268902488875 29.8733611275596189 Zr
atom 5.0470245864610845 10.0910214328765857 29.8695492816473731 Zr
atom 10.1160166882827873 10.0913429459785107 29.8711877668936623 Zr
atom 5.0587634550262957 5.0458157039112415 34.8840805759156964 Zr
atom 10.1002191724641222 5.0461480682474926 34.8860635287599194 Zr
atom 5.0567246298364426 10.0896426108751918 34.8822516828476381 Zr
atom 10.1026934591140449 10.0897457079989685 34.8840805759156964 Zr
atom 4.7058596875598333 5.0442451184383161 27.3898649375708203 S
atom 10.4586119474079151 5.0458515665173804 27.3923297090762112 S
atom 5.4151174047802435 10.0893461091451169 27.3885178631639867 S
atom 9.7497896916475657 10.0881751225260423 27.3898649375708203 S
atom 5.5293989529655407 5.0449949574286892 32.4128110547860402 S
atom 9.6314376061207891 5.0426092406608838 32.4144151499077253 S
atom 4.5879430634930998 10.0861037832885803 32.4106033039954511 S
atom 10.5733289570532367 10.0889249615164367 32.4128110547860331 S
atom 5.0582308273254446 2.5248159562755021 30.0070396406338276 S
atom 10.1040457844075018 2.5250069435690485 30.0068805131985350 S
atom 5.0605512417798151 7.5685014861967463 30.0030686672862252 S
atom 10.1021608314131814 7.5687459603632403 30.0070396406338276 S
atom 4.9786146962673472 2.5194442362416347 34.8962360982707693 S
atom 10.1801649185490319 2.5196654911012697 34.9019531531654081 S
atom 5.1366703759213355 7.5631600337289591 34.8981413072531339 S
atom 10.0225447003551036 7.5633742403293622 34.8962360982707693 S
atom 2.5374380750970786 5.0503215489207740 30.3459490356076707 S
atom 7.5814217828197430 5.0446093291615588 29.5576028639936830 S
atom 2.5379272401920541 10.0881038717892508 29.5537910180814407 S
atom 7.5813680791848377 10.0942515530085277 30.3459490356076707 S
atom 2.5359908730706904 5.1005193174451087 34.4297023067710910 S
atom 7.5793886173783047 4.9681719774623812 35.3562144812345096 S
atom 2.5358940747506229 10.0116665200900794 35.3524026353223277 S
atom 7.5799208771584246 10.1444493215328251 34.4297023067710910 S
atom 2.5340802680943515 2.5296506318324155 37.3378331328071695 Ba
atom 7.5795486317383185 2.5105408502631805 37.4256359376318670 Ba
atom 2.5360540891106313 7.5540353928908734 37.4218240917196070 Ba
atom 7.5780102721820883 7.5735806359201412 37.3378331328071624 Ba
atom 2.5347348394070948 2.4893942688416044 42.3568685439842554 Ba
atom 7.5766910224785571 2.5089395118708895 42.2728775850719742 Ba
atom 2.5331964798508610 7.5524340544985717 42.2690657391596574 Ba
atom 7.5786648434948169 7.5333242729293373 42.3568685439842483 Ba
atom 5.0563725557945887 5.0314874523808832 39.8473508383957693 Zr
atom 10.1000848291523102 5.0317051831108994 39.8492567613519171 Zr
atom 5.0565902865246235 10.0751997257385835 39.8454449154397068 Zr
atom 10.1003025598823211 10.0754174564685890 39.8473508383957693 Zr
atom 5.0539816565628657 5.0171592008505135 44.8106211008757569 Zr
atom 10.0999504858404787 5.0172622979743107 44.8124499939437655 Zr
atom 5.0564559432127956 10.0607568406020036 44.8086381480315339 Zr
atom 10.0979116606506079 10.0610892049382308 44.8106211008757569 Zr
atom 4.5553348729429723 5.0338021041996948 37.3697885377590211 S
atom 10.6025180106994217 5.0376987566207703 37.3720074716553299 S
atom 5.5590234680716977 10.0811932992484614 37.3681956257430343 S
atom 9.5992648770307092 10.0777321082874227 37.3697885377590282 S
atom 5.5574102386462219 5.0291728005620504 42.3249131390325033 S
atom 9.5976516476052058 5.0257116096010339 42.3265060510484545 S
atom 4.5541571049775360 10.0692061522287304 42.3226942051362229 S
atom 10.6013402427339383 10.0731028046498103 42.3249131390325104 S
atom 5.1656944420377382 2.5096224529708531 39.8505616475456890 S
atom 9.9905452121791374 2.5098579091632138 39.8479518751580031 S
atom 4.9470506695514400 7.5533524517908903 39.8441400292457502 S
atom 10.2096244461254511 7.5535524570585926 39.8505616475456819 S
atom 4.9760747356678365 2.4998148710328008 44.7965603695383905 S
atom 10.1776249579495062 2.5000361258924353 44.8022774244328872 S
atom 5.1341304153217955 7.5435306685201242 44.7984655785206840 S
atom 10.0200047397555583 7.5437448751205309 44.7965603695383905 S
atom 2.5343561524116160 4.9404093963353883 40.3177067347565696 S
atom 7.5783889591775626 5.1225655084263622 39.3769949420348695 S
atom 2.5348944165498750 10.1660600510540515 39.3731830961226024 S
atom 7.5782861564993382 9.9843394004231136 40.3177067347565696 S
atom 2.5333564942108717 5.0948029272993702 44.3384871955568300 S
atom 7.5767542385184843 4.9624555873166516 45.2649993700202771 S
atom 2.5332596958908025 10.0059501299443490 45.2611875241080241 S
atom 7.5772864982986112 10.1387329313871106 44.3384871955568229 S
atom 2.5320483951692556 2.5065979241972198 47.1967063256137749 Ba
atom 7.5766665991643256 2.4506064210714178 47.2099714217663049 Ba
atom 2.5331720565366465 7.4941009636990934 47.2061595758540733 Ba
atom 7.5759783992569796 7.5505279282849580 47.1967063256137749 Ba
atom 2.5304341223473492 2.3418463454368612 51.8639721167270054 Ba
atom 7.5743884103337109 2.6498879956198667 51.8667600362307581 Ba
atom 2.5308938677060304 7.6933825382475440 51.8629481903185265 Ba
atom 7.5743641264350874 7.3857763495245852 51.8639721167270054 Ba
atom 5.0406584273941162 5.0155619628709607 49.8235139098977697 Zr
atom 10.1096505292158412 5.0158834759729167 49.8251523951441158 Zr
atom 5.0661559865881385 10.0593780186006025 49.8213405492318486 Zr
atom 10.0845884314818033 10.0594919669586922 49.8235139098977697 Zr
atom 4.5833461586236339 5.0179799473330702 47.2818906220055197 S
atom 10.5687320521838100 5.0208011255609035 47.2840983727960520 S
atom 5.5252375095561090 10.0642956681885760 47.2802865268837351 S
atom 9.6272761627113734 10.0619099514207839 47.2818906220055126 S
atom 5.4068854240293280 5.0187297863234495 52.3048367392206970 S
atom 9.7415577108967142 5.0175587997044042 52.3061838136274488 S
atom 4.6980631682689920 10.0610533423320714 52.3023719677152243 S
atom 10.4508154281171119 10.0626597904111765 52.3048367392206970 S
atom 5.0521938698093791 2.4944734185650095 49.6916330095051748 S
atom 10.0980088268914230 2.4946644058585612 49.6914738820699071 S
atom 5.0545142842637274 7.5381589484862523 49.6876620361576187 S
atom 10.0961238738970920 7.5384034226527374 49.6916330095051748 S
atom 2.5313233287694485 5.0183655756001881 50.1370988127977952 S
atom 7.5753070364920871 5.0126533558409863 49.3487526411837933 S
atom 2.5318124938644155 10.0561478984686445 49.3449407952715617 S
atom 7.5752533328571721 10.0622955796879143 50.1370988127977881 S
