#=======================================================
# FHI-aims file: sym_relax/sym_relax_RP_5_RxRyMz_RxRyMz.in
# Created using the Atomic Simulation Environment (ASE)
# Fri Mar 14 10:54:40 2025
#=======================================================
lattice_vector 10.0145622593845829 -0.0585803935626575 -0.0106060213751027 
lattice_vector -0.0585803935626574 10.0145622593846060 0.0106060213751027 
lattice_vector -0.0594039009233984 0.0594039009233984 55.9021319127706562 
atom 0.0570238230094931 -0.1508581289837228 0.2276010470087575 Ba
atom 5.1581392586760177 -0.0863140197908218 0.2222980363212061 Ba
atom 0.1215679322023935 4.9502573066828095 0.2329040576963092 Ba
atom 5.0350147559204679 4.8271328039272587 0.2276010470087574 Ba
atom -0.2819920174299464 0.2074847416694860 5.0080735841260324 Ba
atom 4.7997963880228012 0.2527018206486196 5.0027705734384860 Ba
atom -0.2367749384508135 5.2892731471222678 5.0133765948135833 Ba
atom 4.6959989154810211 5.1854756745804842 5.0080735841260315 Ba
atom 2.4631349988252196 2.5041020400057810 2.4040894245768367 Zr
atom 7.4811700225974818 2.4855657373044222 2.3987864138892885 Zr
atom 2.4445986961238679 7.5221370637780769 2.4093924352643903 Zr
atom 7.4411259317361695 7.4820929729167656 2.4040894245768376 Zr
atom 2.4629981664669840 2.5121305734925659 7.4608109755929686 Zr
atom 7.4731414891106986 2.4857025696626658 7.4555079649054132 Zr
atom 2.4365701626370755 7.5222738961363032 7.4661139862805204 Zr
atom 7.4409890993779397 7.4901215064035460 7.4608109755929695 Zr
atom 2.5889670351998810 2.7250249926232097 -0.1014022178913997 S
atom 7.2602470699800561 2.3597337009297630 -0.1067052285789508 S
atom 2.2236757435064338 7.3963050274034092 -0.0960992072038482 S
atom 7.5669579681108443 7.7030159255341806 -0.1014022178913997 S
atom 2.2169188268710220 2.2137067642634003 4.9652038253934521 S
atom 7.7715652983398655 2.7317819092586193 4.9599008147059003 S
atom 2.7349939718662446 7.7683532357322669 4.9705068360810021 S
atom 7.1949097597819769 7.1916976971743898 4.9652038253934521 S
atom 2.7630725283934527 0.0155920627674289 2.2471499758241147 S
atom 7.1743421972714856 -0.0112487945528421 2.7496644216399400 S
atom 2.1377708707978678 5.0253225319207919 2.7602704430150466 S
atom 7.7410634613044040 4.9935829956784126 2.2471499758241147 S
atom 2.8760533506641917 0.0038676901184447 7.7817027566122672 S
atom 7.1076547711760441 -0.0212461195819697 7.1595299185643126 S
atom 2.0710834447024267 5.0153252068916636 7.1701359399394109 S
atom 7.8540442835751421 4.9818586230294279 7.7817027566122672 S
atom -0.0448822595487581 2.2442086012988476 2.2524529865116678 S
atom 4.9599495306824837 2.8109298653317896 2.7549674323274913 S
atom -0.0766217957911469 7.8475011918054225 2.7655734537025971 S
atom 4.9331086733622049 7.2221995342098317 2.2524529865116687 S
atom -0.0331578868997740 2.1312277790281082 7.7870057672998225 S
atom 4.9699468557116022 2.8776172914272209 7.1648329292518618 S
atom -0.0666244707620193 7.9141886179008516 7.1754389506269654 S
atom 4.9448330460111958 7.1092187119390902 7.7870057672998225 S
atom 0.2617683413486954 -0.1663281012561862 9.9801692971577349 Ba
atom 5.1736092309484834 -0.2910585381300255 9.9748662864701920 Ba
atom 0.1370379044748571 4.7455127883436194 9.9854723078452956 Ba
atom 5.2397592742596588 4.8116628316547949 9.9801692971577349 Ba
atom -0.2882879399752128 0.1928476998827042 14.9761395924720375 Ba
atom 4.8144334298095810 0.2589977431938846 14.9708365817844893 Ba
atom -0.2221378966640331 5.2955690696675184 14.9814426031595822 Ba
atom 4.6897029929357492 5.1708386327936866 14.9761395924720393 Ba
atom 2.4757356671422199 2.5022552657687482 12.4781544448149031 Zr
atom 7.4830167968345256 2.4729650689874187 12.4728514341273318 Zr
atom 2.4464454703608900 7.5095363954610628 12.4834574555024407 Zr
atom 7.4537266000531881 7.4802461986797262 12.4781544448149031 Zr
atom 2.4884731678174625 2.4923799580449351 17.4954979140368359 Zr
atom 7.4928921045583259 2.4602275683121761 17.4901949033492734 Zr
atom 2.4563207780847107 7.4967988947858135 17.5008009247243912 Zr
atom 7.4664641007284400 7.4703708909559241 17.4954979140368359 Zr
atom 2.7375472992248029 2.8339259146639955 9.9749483797240028 S
atom 7.1513461479392681 2.2111534369048376 9.9696453690364546 S
atom 2.1147748214656441 7.2477247633784714 9.9802513904115511 S
atom 7.7155382321357857 7.8119168475749863 9.9749483797240028 S
atom 2.2139240350596419 2.1705846168735006 14.9813605099057803 S
atom 7.8146874457297484 2.7347767010700048 14.9760574992182285 S
atom 2.7781161192561368 7.7713480275436559 14.9866635205933285 S
atom 7.1919149679705949 7.1485755497844803 14.9813605099057803 S
atom 2.8720466921715020 -0.0026340771517214 12.1575734554292474 S
atom 7.1159959685865628 -0.0294267177844203 12.7881294128254126 S
atom 2.0794246421129450 5.0071446086892086 12.7987354342005428 S
atom 7.8500376250824635 4.9753568557592684 12.1575734554292474 S
atom 2.8803878895820216 -0.0108146753541728 17.7861729496903536 S
atom 7.1119893100938825 -0.0359284850545862 17.1640001116424443 S
atom 2.0754179836202562 5.0006428414190491 17.1746061330175479 S
atom 7.8583788224929787 4.9671762575568028 17.7861729496903536 S
atom -0.0266561196296080 2.1352344375208028 12.1628764661168027 S
atom 4.9781274539140608 2.8692760940166981 12.7934324235129822 S
atom -0.0584438725595683 7.9058474204903382 12.8040384448880928 S
atom 4.9513348132813499 7.1132253704317909 12.1628764661168027 S
atom -0.0184755214271571 2.1268932401102836 17.7914759603779196 S
atom 4.9846292211842300 2.8732827525093838 17.1693031223299570 S
atom -0.0519421052894024 7.9098540789830345 17.1799091437050819 S
atom 4.9595154114838111 7.1048841730212571 17.7914759603779196 S
atom 0.2554724188034308 -0.1809651430429675 19.9482353055037613 Ba
atom 5.1882462727352596 -0.2847626155847608 19.9429322948161669 Ba
atom 0.1516749462616378 4.7518087108888798 19.9535383161912954 Ba
atom 5.2334633517144029 4.7970257898680035 19.9482353055037613 Ba
atom -0.0835434216360092 0.1773777276102412 24.7287078426210520 Ba
atom 4.8299034020820617 0.0542532248546802 24.7234048319334931 Ba
atom -0.2066679243915699 5.0908245513283266 24.7340108533085967 Ba
atom 4.8944475112749544 5.1553686605212299 24.7287078426210520 Ba
atom 2.4883363354592256 2.5004084915317213 22.5522194650529322 Zr
atom 7.4848635710715588 2.4603644006704162 22.5469164543653875 Zr
atom 2.4482922445979245 7.4969357271440620 22.5575224757404804 Zr
atom 7.4663272683702004 7.4783994244427081 22.5522194650529322 Zr
atom 2.7345525074134263 2.7908037672741037 19.9911050642363257 S
atom 7.1944682953291661 2.2141482287162235 19.9858020535487846 S
atom 2.1578969688555438 7.2507195551898516 19.9964080749238740 S
atom 7.7125434403244091 7.7687947001850661 19.9911050642363257 S
atom 2.3625042990845704 2.2794855389142885 25.0577111075212073 S
atom 7.7057865236889693 2.5861964370450745 25.0524080968336378 S
atom 2.6692151972153519 7.6227677635187021 25.0630141182087449 S
atom 7.3404952319955301 7.2574764718252771 25.0577111075212073 S
atom 2.8137004634865823 -0.0208120003833004 22.1960384466147005 S
atom 7.2249701323646205 -0.0476528577035705 22.6985528924305378 S
atom 2.1883988058909911 4.9889184687700689 22.7091589138056449 S
atom 7.7916913963975372 4.9571789325276887 22.1960384466146969 S
atom -0.0084781963980295 2.1935806662057136 22.2013414573022736 S
atom 4.9963535938331995 2.7603019302386582 22.7038559031181144 S
atom -0.0402177326404182 7.7968732567123045 22.7144619244931896 S
atom 4.9695127365129288 7.1715715991166995 22.2013414573022736 S
atom 2.5163173390032774 2.3678392879334651 28.1786670033940929 Ba
atom 7.6174327746697958 2.4323833971263706 28.1733639927065553 Ba
atom 2.5808614481961754 7.4689547236000138 28.1839700140816696 Ba
atom 7.4943082719142371 7.3458302208444666 28.1786670033940929 Ba
atom 2.1773014985638319 2.7261821585866755 32.9591395405113801 Ba
atom 7.2590899040165926 2.7713992375658085 32.9538365298238247 Ba
atom 2.2225185775429703 7.8079705640394463 32.9644425511988928 Ba
atom 7.1552924314747921 7.7041730914976707 32.9591395405113801 Ba
atom 4.9224285148189990 5.0227994569229670 30.3551553809621701 Zr
atom 9.9404635385912563 5.0042631542216203 30.3498523702746290 Zr
atom 4.9038922121176443 10.0408344806952474 30.3604583916497397 Zr
atom 9.9004194477299592 10.0007903898339539 30.3551553809621701 Zr
atom 4.9222916824607665 5.0308279904097510 35.4118769319783340 Zr
atom 9.9324350051045034 5.0043999865798501 35.4065739212908568 Zr
atom 4.8958636786308691 10.0409713130535003 35.4171799426658964 Zr
atom 9.9002826153717205 10.0088189233207299 35.4118769319783340 Zr
atom 5.0482605511936498 5.2437224095403998 27.8496637384939483 S
atom 9.7195405859738440 4.8784311178469668 27.8443607278063823 S
atom 4.6829692595002177 9.9150024443205993 27.8549667491815001 S
atom 10.0262514841046411 10.2217133424513857 27.8496637384939518 S
atom 4.6762123428647921 4.7324041811805939 32.9162697817788015 S
atom 10.2308588143336667 5.2504793261758191 32.9109667710912603 S
atom 5.1942874878600280 10.2870506526494641 32.9215727924663852 S
atom 9.6542032757757799 9.7103951140915719 32.9162697817788015 S
atom 5.2223660443872468 2.5342894796846180 30.1982159322094788 S
atom 9.6336357132652424 2.5074486223643486 30.7007303780252947 S
atom 4.5970643867916401 7.5440199488379909 30.7113363994004089 S
atom 10.2003569772981972 7.5122804125956009 30.1982159322094788 S
atom 5.3353468666579671 2.5225651070356285 35.7327687129975899 S
atom 9.5669482871698399 2.4974512973352292 35.1105958749496310 S
atom 4.5303769606962039 7.5340226238088714 35.1212018963246919 S
atom 10.3133377995689628 7.5005560399466153 35.7327687129975899 S
atom 2.4144112564450224 4.7629060182160323 30.2035189428970163 S
atom 7.4192430466762627 5.3296272822489712 30.7060333887128429 S
atom 2.3826717202026377 10.3661986087226357 30.7166394100879607 S
atom 7.3924021893559875 9.7408969511270271 30.2035189428970163 S
atom 2.4261356290940066 4.6499251959452979 35.7380717236851737 S
atom 7.4292403717053892 5.3963147083444127 35.1158988856372360 S
atom 2.3926690452317581 10.4328860348180559 35.1265049070123752 S
atom 7.4041265620049748 9.6279161288562758 35.7380717236851737 S
atom 2.7210618573424776 2.3523693156610035 37.9312352535430009 Ba
atom 7.6329027469422623 2.2276388787871655 37.9259322428555450 Ba
atom 2.5963314204686396 7.2642102052607980 37.9365382642305562 Ba
atom 7.6990527902534405 7.3303602485719868 37.9312352535430009 Ba
atom 2.1710055760185751 2.7115451167998903 42.9272055488573869 Ba
atom 7.2737269458033662 2.7776951601110706 42.9219025381699097 Ba
atom 2.2371556193297453 7.8142664865847147 42.9325085595449565 Ba
atom 7.1489965089295353 7.6895360497108829 42.9272055488573869 Ba
atom 4.9350291831359980 5.0209526826859383 40.4292204012001903 Zr
atom 9.9423103128282939 4.9916624859046133 40.4239173905127132 Zr
atom 4.9057389863546756 10.0282338123782520 40.4345234118877670 Zr
atom 9.9130201160469493 9.9989436155969305 40.4292204012001903 Zr
atom 4.9477666838112544 5.0110773749621220 45.4465638704221959 Zr
atom 9.9521856205521217 4.9789249852293747 45.4412608597346193 Zr
atom 4.9156142940784973 10.0154963117030018 45.4518668811097513 Zr
atom 9.9257576167222137 9.9890683078731168 45.4465638704221959 Zr
atom 5.1968408152185859 5.3526233315811931 37.9260143361093611 S
atom 9.6106396639330285 4.7298508538220210 37.9207113254217703 S
atom 4.5740683374594235 9.7664221802956686 37.9313173467968525 S
atom 10.1748317481295594 10.3306142644921799 37.9260143361093540 S
atom 4.6732175510534093 4.6892820337906924 42.9324264662911617 S
atom 10.2739809617235345 5.2534741179872029 42.9271234556035992 S
atom 5.2374096352499162 10.2900454444608478 42.9377294769787241 S
atom 9.6512084839643872 9.6672729667016739 42.9324264662911617 S
atom 5.3313402081652681 2.5160633397654686 40.1086394118146075 S
atom 9.5752894845803507 2.4892706991327667 40.7391953692107833 S
atom 4.5387181581067315 7.5258420256064094 40.7498013905859011 S
atom 10.3093311410762585 7.4940542726764621 40.1086394118146075 S
atom 5.3396814055758046 2.5078827415630087 45.7372389060757030 S
atom 9.5712828260876321 2.4827689318626054 45.1150660680277582 S
atom 4.5347114996140396 7.5193402583362454 45.1256720894029186 S
atom 10.3176723384867746 7.4858736744739947 45.7372389060757030 S
atom 2.4326373963641719 4.6539318544379915 40.1139424225021912 S
atom 7.4374209699078380 5.3879735109338833 40.7444983798983316 S
atom 2.4008496434342095 10.4245448374075309 40.7551044012734494 S
atom 7.4106283292751360 9.6319227873489730 40.1139424225021912 S
atom 2.4408179945666317 4.6455906570274719 45.7425419167632441 S
atom 7.4439227371780037 5.3919801694265717 45.1203690787153633 S
atom 2.4073514107043752 10.4285514959002299 45.1309751000904100 S
atom 7.4188089274775812 9.6235815899384818 45.7425419167632441 S
atom 2.7147659347972115 2.3377322738742272 47.8993012618891214 Ba
atom 7.6475397887290386 2.2339348013324272 47.8939982512015874 Ba
atom 2.6109684622554123 7.2705061278060716 47.9046042725766981 Ba
atom 7.6927568677081704 7.3157232067852034 47.8993012618891214 Ba
atom 2.3757500943577701 2.6960751445274322 52.6797737990063624 Ba
atom 7.2891969180758336 2.5729506417718722 52.6744707883187928 Ba
atom 2.2526255916022095 7.6095219682455042 52.6850768096938893 Ba
atom 7.3537410272687396 7.6740660774384164 52.6797737990063624 Ba
atom 4.9476298514530113 5.0191059084489069 50.5032854214382922 Zr
atom 9.9441570870653422 4.9790618175875911 50.4979824107507156 Zr
atom 4.9075857605916982 10.0156331440612316 50.5085884321258121 Zr
atom 9.9256207843639679 9.9970968413599159 50.5032854214382922 Zr
atom 5.1938460234072075 5.3095011841912934 47.9421710206216360 S
atom 9.6537618113229406 4.7328456456333976 47.9368680099340807 S
atom 4.6171904848493179 9.7694169721070789 47.9474740313092482 S
atom 10.1718369563181632 10.2874921171022784 47.9421710206216360 S
atom 4.8217978150783480 4.7981829558314866 53.0087770639064857 S
atom 10.1650800396827563 5.1048938539622633 53.0034740532189019 S
atom 5.1285087132091265 10.1414651804359259 53.0140800745940481 S
atom 9.7997887479893091 9.7761738887424450 53.0087770639064857 S
atom 5.2729939794803551 2.4978854165338884 50.1471044030000144 S
atom 9.6842636483584243 2.4710445592136159 50.6496188488158765 S
atom 4.6476923218847741 7.5076158856872564 50.6602248701909801 S
atom 10.2509849123913490 7.4758763494448752 50.1471044030000144 S
atom 2.4508153195957538 4.7122780831229143 50.1524074136875839 S
atom 7.4556471098270007 5.2789993471558407 50.6549218595034390 S
atom 2.4190757833533660 10.3155706736294750 50.6655278808785283 S
atom 7.4288062525067087 9.6902690160338860 50.1524074136875839 S
