#=======================================================
# FHI-aims file: sym_relax/sym_relax_RP_8_Rx0Rz_0-Ry0.in
# Created using the Atomic Simulation Environment (ASE)
# Mon Mar 17 16:15:30 2025
#=======================================================
lattice_vector 9.9831707969674586 -0.0000000000000000 0.0126334199047106 
lattice_vector -0.0000000000000000 10.0883333458527353 0.0000000000000000 
lattice_vector 0.1086368277723608 0.0000000000000001 85.5673317479525508 
atom -0.1879778879209351 0.0000000000000000 0.1194571317452221 Ba
atom 5.0602623122567101 -0.0000000000000000 0.1235468272494911 Ba
atom 0.0686769137729770 5.0441666729263632 0.1172301172971359 Ba
atom 4.8036075105627782 5.0441666729263632 0.1257738416975772 Ba
atom -0.1081938781583504 0.0000000000000000 4.8102115644683279 Ba
atom 4.8285643254737058 0.0000000000000000 4.7820136218995479 Ba
atom -0.1630210730100307 5.0441666729263632 4.7756969119472066 Ba
atom 4.8833915203253770 5.0441666729263632 4.8165282744206870 Ba
atom 2.4316279988683780 2.5188155442821167 2.1835738746340243 Zr
atom 7.4232133973521037 2.5253511286442509 2.1898905845863799 Zr
atom 2.4316279988683780 7.5695178015706155 2.1835738746340234 Zr
atom 7.4232133973521046 7.5629822172084786 2.1898905845863799 Zr
atom 2.4541704680525598 2.5049582378976942 7.2548761458233750 Zr
atom 7.4457558665362935 2.5392084350286659 7.2611928557757359 Zr
atom 2.4541704680525598 7.5833751079550318 7.2548761458233750 Zr
atom 7.4457558665362935 7.5491249108240588 7.2611928557757359 Zr
atom 2.4397036512263472 2.8351382807311127 -0.3041963100059484 S
atom 7.4312890497100872 2.2090283921952460 -0.2978796000535930 S
atom 2.4397036512263450 7.2531950651216119 -0.3041963100059482 S
atom 7.4312890497100881 7.8793049536574769 -0.2978796000535932 S
atom 2.4507015078556886 2.1994997290568530 4.7590453131595281 S
atom 7.4422869063394117 2.8446669438695094 4.7653620231118836 S
atom 2.4507015078556886 7.8888336167958659 4.7590453131595334 S
atom 7.4422869063394117 7.2436664019832193 4.7653620231118854 S
atom 2.4334809385281284 0.0000000000000000 1.9739626395891425 S
atom 7.4165352396977662 0.0000000000000000 2.6099995189166139 S
atom 2.4249498412140276 5.0441666729263632 2.6036828089642681 S
atom 7.4250663370118435 5.0441666729263632 1.9802793495414959 S
atom 2.9098511389458950 0.0000000000000000 7.5272033721602511 S
atom 7.0529499485377567 0.0000000000000000 7.0267194871302534 S
atom 2.0613645500540354 5.0441666729263632 7.0204027771778899 S
atom 7.9014365374296336 5.0441666729263632 7.5335200821126120 S
atom -0.0617827653989883 2.5242121785367377 2.3026179737635215 S
atom 4.9298026330847362 2.5199544943896304 2.3089346837158709 S
atom -0.0617827653989883 7.5641211673159869 2.3026179737635215 S
atom 4.9298026330847362 7.5683788514630903 2.3089346837158726 S
atom -0.0345865861669172 2.0773628500176802 7.2763891785674231 S
atom 4.9569988123168054 2.9668038229086822 7.2827058885197946 S
atom -0.0345865861669172 8.0109704958350534 7.2763891785674231 S
atom 4.9569988123168054 7.1215295229440372 7.2827058885197946 S
atom -0.0652589323952522 0.0000000000000000 9.7851453063384497 Ba
atom 5.0819073120865630 0.0000000000000000 9.8178727982993728 Ba
atom 0.0903219136028389 5.0441666729263632 9.8115560883469932 Ba
atom 4.9263264660884838 5.0441666729263632 9.7914620162908257 Ba
atom 0.0976115096442093 0.0000000000000000 14.8476937639773681 Ba
atom 4.9435784408331767 0.0000000000000000 14.8446405794452474 Ba
atom -0.0480069576505600 5.0441666729263632 14.8383238694928714 Ba
atom 5.0891969081279305 5.0441666729263632 14.8540104739297139 Ba
atom 2.5051945978919998 2.5260418889818004 12.3086110570515270 Zr
atom 7.4967799963757189 2.5181247839445620 12.3149277670038497 Zr
atom 2.5051945978919998 7.5622914568709234 12.3086110570515270 Zr
atom 7.4967799963757189 7.5702085619081680 12.3149277670038497 Zr
atom 2.5171365765596021 2.5212488848474122 17.3709069824547662 Zr
atom 7.5087219750433238 2.5229177880789511 17.3772236924071350 Zr
atom 2.5171365765596021 7.5670844610053161 17.3709069824547733 Zr
atom 7.5087219750433238 7.5654155577737727 17.3772236924071350 Zr
atom 2.4758747946620563 2.7564433629953959 9.7927688531646915 S
atom 7.4674601931457909 2.2877233099309739 9.7990855631170390 S
atom 2.4758747946620563 7.3318899828573336 9.7927688531646897 S
atom 7.4674601931457927 7.8006100359217561 9.7990855631170390 S
atom 2.5023410771432473 2.3451498406367590 14.8449604052386608 S
atom 7.4939264756269823 2.6990168322896047 14.8512771151909924 S
atom 2.5023410771432473 7.7431835052159865 14.8449604052386608 S
atom 7.4939264756269823 7.3893165135631209 14.8512771151909924 S
atom 2.0527365559973383 0.0000000000000000 12.1563350429512536 S
atom 7.9571683139188609 0.0000000000000000 12.4945362965069098 S
atom 2.9655829154351330 5.0441666729263632 12.4882195865545569 S
atom 7.0443219544810711 5.0441666729263632 12.1626517529035958 S
atom 2.9860213153758344 0.0000000000000000 17.5105070294532652 S
atom 7.0412765021529715 0.0000000000000000 17.2457845236183509 S
atom 2.0496911036692667 5.0441666729263632 17.2394678136659394 S
atom 7.9776067138595543 5.0441666729263632 17.5168237394055879 S
atom 0.0038556902901417 2.9989109991379914 12.3218049889038195 S
atom 4.9954410887738749 2.0452556737883758 12.3281216988561972 S
atom 0.0038556902901417 7.0894223467147333 12.3218049889038159 S
atom 4.9954410887738749 8.0430776720643671 12.3281216988561972 S
atom 0.0194480061804671 2.0343904530269676 17.3709881638078265 S
atom 5.0110334046641976 3.0097762198993907 17.3773048737601954 S
atom 0.0194480061804671 8.0539428928257593 17.3709881638078194 S
atom 5.0110334046641976 7.0785571259533260 17.3773048737601954 S
atom -0.0439982830471619 0.0000000000000000 19.8940177085598968 Ba
atom 5.0861124386343244 0.0000000000000000 19.9110579539284416 Ba
atom 0.0945270401505849 5.0441666729263632 19.9047412439760620 Ba
atom 4.9475871154365612 5.0441666729263632 19.9003344185122693 Ba
atom 0.0985357147539823 0.0000000000000000 24.9604350830430803 Ba
atom 4.9445026459429409 0.0000000000000000 24.9573818985110094 Ba
atom -0.0470827525407854 5.0441666729263632 24.9510651885586618 Ba
atom 5.0901211132377071 5.0441666729263632 24.9667517929954457 Ba
atom 2.5249775790275466 2.5212488848474113 22.4341686800335829 Zr
atom 7.5165629775112794 2.5229177880789520 22.4404853899859411 Zr
atom 2.5249775790275466 7.5670844610053143 22.4341686800335829 Zr
atom 7.5165629775112794 7.5654155577737727 22.4404853899859411 Zr
atom 2.5369195576951484 2.5260418889818013 27.4964646054368593 Zr
atom 7.5285049561788773 2.5181247839445602 27.5027813153892069 Zr
atom 2.5369195576951493 7.5622914568709252 27.4964646054368593 Zr
atom 7.5285049561788773 7.5702085619081698 27.5027813153892069 Zr
atom 2.5210570777935817 2.6838244112697867 19.9025378312441852 S
atom 7.5126424762773034 2.3603422616565797 19.9088545411965683 S
atom 2.5210570777935817 7.4045089345829407 19.9025378312441852 S
atom 7.5126424762773034 7.7279910841961428 19.9088545411965683 S
atom 2.5397730784439121 2.3451498406367595 24.9601152572497220 S
atom 7.5313584769276378 2.6990168322896051 24.9664319672020660 S
atom 2.5397730784439121 7.7431835052159874 24.9601152572497256 S
atom 7.5313584769276378 7.3893165135631227 24.9664319672020660 S
atom 2.0560928402113179 0.0000000000000000 22.2945686330350696 S
atom 7.9840084504016220 0.0000000000000000 22.5719245587747146 S
atom 2.9924230519178776 5.0441666729263632 22.5656078488223564 S
atom 7.0476782386950605 5.0441666729263632 22.3008853429874385 S
atom 2.9893775995898095 0.0000000000000000 27.6487406195371150 S
atom 7.0681166386357308 0.0000000000000000 27.3231727858862179 S
atom 2.0765312401520100 5.0441666729263632 27.3168560759338099 S
atom 7.9809629980735330 5.0441666729263632 27.6550573294894377 S
atom 0.0310807509229558 3.0097762198993925 22.4277707887281395 S
atom 5.0226661494066773 2.0343904530269667 22.4340874986804835 S
atom 0.0310807509229558 7.0785571259533251 22.4277707887281395 S
atom 5.0226661494066773 8.0539428928257593 22.4340874986804764 S
atom 0.0466730668132813 2.0452556737883758 27.4769539636321340 S
atom 5.0382584652969999 2.9989109991379905 27.4832706735845136 S
atom 0.0466730668132813 8.0430776720643635 27.4769539636321340 S
atom 5.0382584652969999 7.0894223467147341 27.4832706735845136 S
atom -0.0397931564994160 0.0000000000000000 29.9872028641889514 Ba
atom 5.1073730879824026 0.0000000000000000 30.0199303561498532 Ba
atom 0.1157876894986750 5.0441666729263632 30.0136136461975340 Ba
atom 4.9517922419843154 5.0441666729263632 29.9935195741413700 Ba
atom 0.2135498301134534 0.0000000000000000 35.0230620405887407 Ba
atom 5.1503080337454845 0.0000000000000000 34.9948640980200594 Ba
atom 0.1587226352617734 5.0441666729263632 34.9885473880677296 Ba
atom 5.2051352285971646 5.0441666729263632 35.0293787505411416 Ba
atom 2.5879436875345947 2.5049582378976951 32.5501995166650175 Zr
atom 7.5795290860183142 2.5392084350286677 32.5565162266173900 Zr
atom 2.5879436875345947 7.5833751079550380 32.5501995166650175 Zr
atom 7.5795290860183142 7.5491249108240623 32.5565162266173900 Zr
atom 2.6104861567187707 2.5188155442821154 37.6215017878543847 Zr
atom 7.6020715552024924 2.5253511286442483 37.6278184978066790 Zr
atom 2.6104861567187707 7.5695178015706119 37.6215017878543847 Zr
atom 7.6020715552024924 7.5629822172084786 37.6278184978066790 Zr
atom 2.5662393609250951 2.7564433629953946 30.0123068093237109 S
atom 7.5578247594088230 2.2877233099309766 30.0186235192760229 S
atom 2.5662393609250951 7.3318899828573336 30.0123068093237109 S
atom 7.5578247594088230 7.8006100359217561 30.0186235192760229 S
atom 2.5914126477314579 2.1994997290568530 35.0460303493288592 S
atom 7.5829980462151685 2.8446669438695111 35.0523470592812174 S
atom 2.5914126477314579 7.8888336167958659 35.0460303493288592 S
atom 7.5829980462151685 7.2436664019832211 35.0523470592812174 S
atom 2.1322630166412537 0.0000000000000000 32.2778722903280766 S
atom 7.9723350040168581 0.0000000000000000 32.7909895952628005 S
atom 2.9807496055331195 5.0441666729263632 32.7846728853104921 S
atom 7.1238484151249750 5.0441666729263632 32.2841890002804277 S
atom 2.6086332170590243 0.0000000000000001 37.8311130228992383 S
atom 7.6087497128568380 0.0000000000000000 37.2077095634765342 S
atom 2.6171643143731265 5.0441666729263632 37.2013928535241831 S
atom 7.6002186155427465 5.0441666729263632 37.8374297328515752 S
atom 0.0851153432703402 2.9668038229086822 32.5223697739685065 S
atom 5.0767007417540695 2.0773628500176793 32.5286864839208576 S
atom 0.0851153432703401 7.1215295229440354 32.5223697739685136 S
atom 5.0767007417540695 8.0109704958350534 32.5286864839208576 S
atom 0.1123115225024111 2.5199544943896304 37.4961409787724165 S
atom 5.1038969209861502 2.5242121785367369 37.5024576887248529 S
atom 0.1123115225024111 7.5683788514630903 37.4961409787724165 S
atom 5.1038969209861502 7.5641211673159869 37.5024576887248529 S
atom -0.0181481566695539 0.0000000000000001 39.6815288352388293 Ba
atom 5.2300920435080744 0.0000000000000001 39.6856185307432199 Ba
atom 0.2385066450243584 5.0441666729263632 39.6793018207908261 Ba
atom 4.9734372418141746 5.0441666729263632 39.6878455451911876 Ba
atom 2.6024105043608050 2.8351382807311114 40.1092719724943265 S
atom 7.5939959028445134 2.2090283921952456 40.1155886824466918 S
atom 2.6024105043608050 7.2531950651216137 40.1092719724943265 S
atom 7.5939959028445125 7.8793049536574786 40.1155886824466918 S
atom 2.6001497027829004 2.3765377758703661 43.1892968557242298 Ba
atom 7.5917351012666332 2.6676288970560011 43.1956135656765667 Ba
atom 2.6001497027828995 7.7117955699823693 43.1892968557242156 Ba
atom 7.5917351012666350 7.4207044487967115 43.1956135656765667 Ba
atom 2.5941060630406567 2.5432502417066516 47.8702287540304212 Ba
atom 7.5856914615243793 2.5009164312197139 47.8765454639827936 Ba
atom 2.5941060630406567 7.5450831041460793 47.8702287540304212 Ba
atom 7.5856914615243793 7.5874169146330130 47.8765454639827794 Ba
atom 5.0821292010282821 5.0441666729263632 45.2551774589852869 Zr
atom 10.0960764272567491 5.0441666729263632 45.2605879831504154 Zr
atom 5.1044910287730119 10.0883333458527265 45.2542712731980643 Zr
atom 10.0737145995120319 10.0883333458527265 45.2614941689375385 Zr
atom 5.0856502689865897 5.0441666729263632 50.2740278273400278 Zr
atom 10.0797935903257159 5.0441666729263632 50.2799116260475856 Zr
atom 5.0882081918419786 10.0883333458527265 50.2735949160952771 Zr
atom 10.0772356674703580 10.0883333458527265 50.2803445372923434 Zr
atom 5.4395717052261734 5.0441666729263632 42.7661307779111084 S
atom 9.7448368456933707 5.0441666729263632 42.7706107345553619 S
atom 4.7532514472096343 10.0883333458527265 42.7642940246031174 S
atom 10.4311571037099036 10.0883333458527265 42.7724474878634524 S
atom 4.6166091380350318 5.0441666729263632 47.7973101719313860 S
atom 10.5550007948552551 5.0441666729263632 47.8046145253960688 S
atom 5.5634153963715569 10.0883333458527265 47.7982978154437248 S
atom 9.6081945365187682 10.0883333458527265 47.8036268818837868 S
atom 5.0931503630522119 2.5220472912134930 45.3831960025557422 S
atom 10.0847357615359172 2.5221193817128680 45.3895127125082141 S
atom 5.0931503630522119 7.5662860546392325 45.3831960025557422 S
atom 10.0847357615359172 7.5662139641398500 45.3895127125082212 S
atom 5.0868656911651984 2.5220923800566561 50.2883799460467600 S
atom 10.0784510896489081 2.5220742928697035 50.2946966559990472 S
atom 5.0868656911651984 7.5662409657960739 50.2883799460467742 S
atom 10.0784510896489081 7.5662590529830149 50.2946966559990329 S
atom 2.5979381853854209 5.0441666729263632 44.9161936677930669 S
atom 7.5885353075747330 5.0441666729263632 45.7439032332390454 S
atom 2.5969499090910078 10.0883333458527265 45.7375865232866943 S
atom 7.5895235838691448 10.0883333458527265 44.9225103777454535 S
atom 2.5904774808421478 5.0441666729263632 50.7670968261001718 S
atom 7.5832686339519686 5.0441666729263632 49.7998462256078014 S
atom 2.5916832354682264 10.0883333458527265 49.7935295156554147 S
atom 7.5820628793258740 10.0883333458527265 50.7734135360525158 S
atom 2.5879500854605175 2.5190867425729504 52.7781149687988815 Ba
atom 7.5795354839442481 2.5250799303534084 52.7844316787512469 Ba
atom 2.5879500854605175 7.5692466032797681 52.7781149687988815 Ba
atom 7.5795354839442481 7.5632534154993261 52.7844316787512469 Ba
atom 2.5816540156216838 2.5251907596583485 57.7290741424641212 Ba
atom 7.5732394141054042 2.5189759132680152 57.7353908524166073 Ba
atom 2.5816540156216830 7.5631425861943713 57.7290741424641354 Ba
atom 7.5732394141054042 7.5693574325847255 57.7353908524166073 Ba
atom 5.0821854452069273 5.0441666729263632 55.2413586654972164 Zr
atom 10.0705830990039207 5.0441666729263632 55.2474343174190992 Zr
atom 5.0789977005202278 10.0883333458527265 55.2411176074668120 Zr
atom 10.0737708436906601 10.0883333458527265 55.2476753754496528 Zr
atom 5.0740695332004533 5.0441666729263632 60.2069971189912465 Zr
atom 10.0661745832472516 5.0441666729263632 60.2131594078331958 Zr
atom 5.0745891847634921 10.0883333458527265 60.2068426978808091 Zr
atom 10.0656549316841719 10.0883333458527265 60.2133138289435834 Zr
atom 5.5910638948609899 5.0441666729263632 52.7641527149029628 S
atom 9.5680515682538889 5.0441666729263632 52.7690503374166795 S
atom 4.5764661697701561 10.0883333458527265 52.7627336274643000 S
atom 10.5826492933447192 10.0883333458527265 52.7704694248552428 S
atom 4.5691107102453392 5.0441666729263632 57.7254841838167039 S
atom 10.5773725222502222 5.0441666729263632 57.7330114966861743 S
atom 5.5857871237664733 10.0883333458527265 57.7266947867337379 S
atom 9.5606961087290490 10.0883333458527265 57.7318008937690834 S
atom 5.0805972323070261 2.5220853065281390 55.2481948128731233 S
atom 10.0721826307907474 2.5220813663982220 55.2545115228254318 S
atom 5.0805972323070261 7.5662480393246003 55.2481948128731375 S
atom 10.0721826307907474 7.5662519794544956 55.2545115228254176 S
atom 5.0743221989739711 2.5220867028595033 60.2081632680807886 S
atom 10.0659075974577075 2.5220799700668541 60.2144799780331965 S
atom 5.0743221989739711 7.5662466429932129 60.2081632680808028 S
atom 10.0659075974577075 7.5662533757858554 60.2144799780331965 S
atom 2.5854404345394233 5.0441666729263632 54.7489206052560817 S
atom 7.5757613606529581 5.0441666729263632 55.7498827623153659 S
atom 2.5841759621692311 10.0883333458527265 55.7435660523629934 S
atom 7.5770258330231455 10.0883333458527265 54.7552373152083405 S
atom 2.5778929085527644 5.0441666729263632 60.7041633724942145 S
atom 7.5707271529207576 5.0441666729263632 59.7133750183673442 S
atom 2.5791417544370354 10.0883333458527265 59.7070583084150570 S
atom 7.5694783070364942 10.0883333458527265 60.7104800824465727 S
atom 2.5753754916797518 2.5196442399125845 62.6862037052204073 Ba
atom 7.5669608901634842 2.5245224330137797 62.6925204151727016 Ba
atom 2.5753754916797518 7.5686891059401455 62.6862037052204073 Ba
atom 7.5669608901634842 7.5638109128389388 62.6925204151727016 Ba
atom 2.5690969677378250 2.5251907596583498 67.6433332679765726 Ba
atom 7.5606823662215428 2.5189759132680143 67.6496499779289309 Ba
atom 2.5690969677378250 7.5631425861943660 67.6433332679765442 Ba
atom 7.5606823662215428 7.5693574325847228 67.6496499779289309 Ba
atom 5.0677471970797390 5.0441666729263632 65.1718814225122571 Zr
atom 10.0598522471265479 5.0441666729263632 65.1780437113541495 Zr
atom 5.0682668486428097 10.0883333458527265 65.1717270014018055 Zr
atom 10.0593325955634345 10.0883333458527265 65.1781981324646296 Zr
atom 5.0633386813230121 5.0441666729263632 70.1376065129264816 Zr
atom 10.0517363351200313 5.0441666729263632 70.1436821648482720 Zr
atom 5.0601509366363153 10.0883333458527265 70.1373654548961554 Zr
atom 10.0549240798067601 10.0883333458527265 70.1439232228788114 Zr
atom 5.5800948244124315 5.0441666729263632 62.6900427480010336 S
atom 9.5538269559145270 5.0441666729263632 62.6949980823443767 S
atom 4.5622415574307897 10.0883333458527265 62.6886813723920326 S
atom 10.5716802228961733 10.0883333458527265 62.6963594579533918 S
atom 4.5565492580767728 5.0441666729263632 67.6520293336591862 S
atom 10.5648110700816247 5.0441666729263632 67.6595566465287845 S
atom 5.5732256715979069 10.0883333458527265 67.6532399365765116 S
atom 9.5481346565604923 10.0883333458527265 67.6583460436117434 S
atom 5.0680141828692635 2.5220799700668537 65.1705608523123203 S
atom 10.0595995813529928 2.5220867028595024 65.1768775622646501 S
atom 5.0680141828692635 7.5662533757858572 65.1705608523123203 S
atom 10.0595995813529928 7.5662466429932111 65.1768775622646501 S
atom 5.0617391495362085 2.5220813663982211 70.1305293075199643 S
atom 10.0533245480199671 2.5220853065281381 70.1368460174722799 S
atom 5.0617391495362085 7.5662519794544920 70.1305293075199643 S
atom 10.0533245480199671 7.5662480393246003 70.1368460174722941 S
atom 2.5728580748067453 5.0441666729263632 64.6682440379463515 S
atom 7.5631946274062010 5.0441666729263632 65.6716658119780448 S
atom 2.5716092289224752 10.0883333458527265 65.6653491020257718 S
atom 7.5644434732904831 10.0883333458527265 64.6745607478989228 S
atom 2.5653105488200905 5.0441666729263632 70.6234868051847968 S
atom 7.5581604196740084 5.0441666729263632 69.6351580680300088 S
atom 2.5665750211902791 10.0883333458527265 69.6288413580777217 S
atom 7.5568959473038175 10.0883333458527265 70.6298035151371977 S
atom 2.5628008978989900 2.5190867425729504 72.5942924416418549 Ba
atom 7.5543862963827166 2.5250799303534075 72.6006091515941705 Ba
atom 2.5628008978989900 7.5692466032797654 72.5942924416418549 Ba
atom 7.5543862963827166 7.5632534154993261 72.6006091515941705 Ba
atom 2.5566449203188633 2.5432502417066503 77.5021786564103934 Ba
atom 7.5482303188025721 2.5009164312197139 77.5084953663627232 Ba
atom 2.5566449203188637 7.5450831041460775 77.5021786564103934 Ba
atom 7.5482303188025721 7.5874169146330113 77.5084953663627232 Ba
atom 5.0541281900012454 5.0441666729263632 75.1051292042977536 Zr
atom 10.0482715113403707 5.0441666729263632 75.1110130030053256 Zr
atom 5.0566861128566636 10.0883333458527265 75.1046962930529816 Zr
atom 10.0457135884849933 10.0883333458527265 75.1114459142501545 Zr
atom 5.0378453530702183 5.0441666729263632 80.1244528471951440 Zr
atom 10.0517925792986844 5.0441666729263632 80.1298633713600736 Zr
atom 5.0602071808149631 10.0883333458527265 80.1235466614077865 Zr
atom 10.0294307515539618 10.0883333458527265 80.1307695571475591 Zr
atom 5.5658702120730812 5.0441666729263632 72.6159904929288018 S
atom 9.5428578854659936 5.0441666729263632 72.6208881154426962 S
atom 4.5512724869822598 10.0883333458527265 72.6145714054901674 S
atom 10.5574556105567936 10.0883333458527265 72.6223072028811032 S
atom 4.5789209854716839 5.0441666729263632 77.5804263049492846 S
atom 10.5173126422919232 5.0441666729263632 77.5877306584143156 S
atom 5.5257272438081966 10.0883333458527265 77.5814139484616874 S
atom 9.5705063839554221 10.0883333458527265 77.5867430149016570 S
atom 5.0554706906780451 2.5220742928697009 75.0903441743465834 S
atom 10.0470560891617957 2.5220923800566561 75.0966608842986858 S
atom 5.0554706906780451 7.5662590529830149 75.0903441743465834 S
atom 10.0470560891617993 7.5662409657960739 75.0966608842986858 S
atom 5.0491860187910191 2.5221193817128671 79.9955281178374662 S
atom 10.0407714172747777 2.5220472912134930 80.0018448277896539 S
atom 5.0491860187910191 7.5662139641398527 79.9955281178374662 S
atom 10.0407714172747777 7.5662860546392370 80.0018448277896539 S
atom 2.5602735025173620 5.0441666729263632 74.6053105843405433 S
atom 7.5506531463750095 5.0441666729263632 75.5851946047378220 S
atom 2.5590677478912882 10.0883333458527265 75.5788778947855491 S
atom 7.5518589010010748 10.0883333458527265 74.6116272942929299 S
atom 2.5528127979740947 5.0441666729263632 80.4562137426476767 S
atom 7.5453864727522335 5.0441666729263632 79.6411375971063222 S
atom 2.5538010742685038 10.0883333458527265 79.6348208871539356 S
atom 7.5443981964578155 10.0883333458527265 80.4625304526001202 S
atom 2.5506012805766036 2.3765377758703634 82.1831105547165492 Ba
atom 7.5421866790603325 2.6676288970560025 82.1894272646690212 Ba
atom 2.5506012805766036 7.7117955699823693 82.1831105547165492 Ba
atom 7.5421866790603325 7.4207044487967133 82.1894272646690212 Ba
atom 5.3890849346336083 5.0441666729263632 82.6144300957901550 S
atom 9.6943500751007932 5.0441666729263632 82.6189100524342734 S
atom 4.7027646766170559 10.0883333458527265 82.6125933424820147 S
atom 10.3806703331173473 10.0883333458527265 82.6207468057424705 S
