#=======================================================
# FHI-aims file: sym_relax/sym_relax_RP_1_00Mz_000.in
# Created using the Atomic Simulation Environment (ASE)
# Fri Mar 14 10:20:08 2025
#=======================================================
lattice_vector 10.0137778567156044 -0.0000000000000004 0.0000000000000000 
lattice_vector -0.0000000000000004 10.0137778567156044 0.0000000000000000 
lattice_vector -0.0000000000000000 0.0000000000000000 15.6661243489996433 
atom -0.0000000000000000 0.0000000000000000 0.2276195719961981 Ba
atom 5.0068889283578013 0.0000000000000000 0.2276195719961981 Ba
atom -0.0000000000000000 5.0068889283578013 0.2276195719961981 Ba
atom 5.0068889283578013 5.0068889283578013 0.2276195719961981 Ba
atom -0.0000000000000000 0.0000000000000000 4.6680442870661967 Ba
atom 5.0068889283578013 0.0000000000000000 4.6680442870661967 Ba
atom -0.0000000000000000 5.0068889283578013 4.6680442870661967 Ba
atom 5.0068889283578013 5.0068889283578013 4.6680442870661967 Ba
atom 2.5034444641789007 2.5034444641789007 2.4478319295311977 Zr
atom 7.5103333925367046 2.5034444641789007 2.4478319295311977 Zr
atom 2.5034444641789007 7.5103333925367046 2.4478319295311977 Zr
atom 7.5103333925367046 7.5103333925367046 2.4478319295311977 Zr
atom 2.5034444641789007 2.5034444641789007 -0.1067281600699215 S
atom 7.5103333925367046 2.5034444641789007 -0.1067281600699216 S
atom 2.5034444641789007 7.5103333925367046 -0.1067281600699215 S
atom 7.5103333925367046 7.5103333925367046 -0.1067281600699215 S
atom 2.5034444641789007 2.5034444641789007 5.0023920191323139 S
atom 7.5103333925367046 2.5034444641789007 5.0023920191323139 S
atom 2.5034444641789007 7.5103333925367046 5.0023920191323139 S
atom 7.5103333925367046 7.5103333925367046 5.0023920191323139 S
atom 2.5034798410940868 0.0000000000000005 2.4478319295311977 S
atom 7.5102980156215180 -0.0000000000000000 2.4478319295311977 S
atom 2.5034090872637176 5.0068889283578013 2.4478319295311977 S
atom 7.5103687694518886 5.0068889283578013 2.4478319295311977 S
atom -0.0000000000000000 2.5034090872637171 2.4478319295311977 S
atom 5.0068889283578013 2.5034798410940877 2.4478319295311977 S
atom 0.0000000000000000 7.5103687694518886 2.4478319295311977 S
atom 5.0068889283578013 7.5102980156215189 2.4478319295311977 S
atom 2.5034444641789007 2.5034444641789007 8.0606680490815314 Ba
atom 7.5103333925367046 2.5034444641789007 8.0606680490815314 Ba
atom 2.5034444641789007 7.5103333925367046 8.0606680490815314 Ba
atom 7.5103333925367046 7.5103333925367046 8.0606680490815314 Ba
atom 2.5034444641789007 2.5034444641789007 12.5011201589805196 Ba
atom 7.5103333925367046 2.5034444641789007 12.5011201589805196 Ba
atom 2.5034444641789007 7.5103333925367046 12.5011201589805196 Ba
atom 7.5103333925367046 7.5103333925367046 12.5011201589805196 Ba
atom 5.0068889283578013 5.0068889283578013 10.2808941040310238 Zr
atom 10.0137778567156026 5.0068889283578013 10.2808941040310238 Zr
atom 5.0068889283578013 10.0137778567156026 10.2808941040310238 Zr
atom 10.0137778567156026 10.0137778567156026 10.2808941040310238 Zr
atom 5.0068889283578013 5.0068889283578013 7.7263286174894139 S
atom 10.0137778567156026 5.0068889283578013 7.7263286174894139 S
atom 5.0068889283578013 10.0137778567156026 7.7263286174894139 S
atom 10.0137778567156026 10.0137778567156026 7.7263286174894139 S
atom 5.0068889283578013 5.0068889283578013 12.8354595905726399 S
atom 10.0137778567156026 5.0068889283578013 12.8354595905726399 S
atom 5.0068889283578013 10.0137778567156026 12.8354595905726399 S
atom 10.0137778567156026 10.0137778567156026 12.8354595905726399 S
atom 5.0068889283578013 2.5034506583756286 10.2808941040310238 S
atom 10.0137778567156026 2.5034382699821727 10.2808941040310238 S
atom 5.0068889283578013 7.5103271983399775 10.2808941040310238 S
atom 10.0137778567156026 7.5103395867334353 10.2808941040310238 S
atom 2.5034382699821727 5.0068889283578013 10.2808941040310238 S
atom 7.5103395867334344 5.0068889283578013 10.2808941040310238 S
atom 2.5034506583756286 10.0137778567156026 10.2808941040310238 S
atom 7.5103271983399766 10.0137778567156026 10.2808941040310238 S
