#=======================================================
# FHI-aims file: sym_relax/sym_relax_RP_10_00Mz_00Mz.in
# Created using the Atomic Simulation Environment (ASE)
# Mon Mar 17 17:04:15 2025
#=======================================================
lattice_vector 9.9084513764991513 0.0000000336138007 0.0000000000000000 
lattice_vector 0.0000000336138007 9.9084513764991904 -0.0000000000000003 
lattice_vector 0.0000000000000000 -0.0000000000000030 108.0783186601039461 
atom 0.0000000000000000 -0.0000000000000000 0.1609773650604195 Ba
atom 4.9542256882495712 0.0000000168069010 0.1609773650604194 Ba
atom 0.0000000168069005 4.9542256882495952 0.1609773650604192 Ba
atom 4.9542257050564684 4.9542257050565004 0.1609773650604192 Ba
atom 0.0000000000000000 -0.0000000000000001 5.0645851854422643 Ba
atom 4.9542256882495712 0.0000000168069004 5.0645851854422643 Ba
atom 0.0000000168069005 4.9542256882495952 5.0645851854422643 Ba
atom 4.9542257050564684 4.9542257050564995 5.0645851854422643 Ba
atom 2.4771128525282342 2.4771128525282506 2.4341777518311738 Zr
atom 7.4313385407778139 2.4771128693351492 2.4341777518311738 Zr
atom 2.4771128693351372 7.4313385407778423 2.4341777518311738 Zr
atom 7.4313385575847244 7.4313385575847395 2.4341777518311738 Zr
atom 2.4771128525282342 2.4771128525282502 7.5722446654359983 Zr
atom 7.4313385407778139 2.4771128693351487 7.5722446654359983 Zr
atom 2.4771128693351372 7.4313385407778423 7.5722446654359983 Zr
atom 7.4313385575847244 7.4313385575847395 7.5722446654359983 Zr
atom 2.4771128525282342 2.4771128525282502 -0.1085391609787757 S
atom 7.4313385407778139 2.4771128693351492 -0.1085391609787757 S
atom 2.4771128693351372 7.4313385407778414 -0.1085391609787758 S
atom 7.4313385575847244 7.4313385575847386 -0.1085391609787758 S
atom 2.4771128525282342 2.4771128525282506 5.0352585602428066 S
atom 7.4313385407778139 2.4771128693351492 5.0352585602428066 S
atom 2.4771128693351372 7.4313385407778423 5.0352585602428066 S
atom 7.4313385575847244 7.4313385575847395 5.0352585602428066 S
atom 2.0523342640334281 -0.0000017765305478 2.5280718126333008 S
atom 7.8561171124657205 0.0000018101443483 2.5280718126333008 S
atom 2.9018914410230443 4.9542274815870417 2.5280718126333008 S
atom 7.0065599690899081 4.9542239285259519 2.5280718126333008 S
atom 2.9977909406858516 0.0000001622073564 7.5892819262117808 S
atom 6.9106604358132966 -0.0000001285935557 7.5892819262117808 S
atom 1.9564347643706230 4.9542255428491409 7.5892819262117808 S
atom 7.9520166457423134 4.9542258672638493 7.5892819262117808 S
atom 0.0000017933374478 2.9018914242161591 2.5280718126333013 S
atom 4.9542239117190228 2.0523342808403355 2.5280718126333013 S
atom -0.0000017597236467 7.0065599522830304 2.5280718126333013 S
atom 4.9542274983939230 7.8561171292726497 2.5280718126333013 S
atom -0.0000001454004565 1.9564347475637300 7.5892819262117799 S
atom 4.9542258504569254 2.9977909574927648 7.5892819262117825 S
atom 0.0000001790142571 7.9520166289354526 7.5892819262117825 S
atom 4.9542255596560221 6.9106604526202320 7.5892819262117799 S
atom 0.0000000000000000 -0.0000000000000003 10.1535670709220103 Ba
atom 4.9542256882495712 0.0000000168069002 10.1535670709220103 Ba
atom 0.0000000168069005 4.9542256882495952 10.1535670709220103 Ba
atom 4.9542257050564684 4.9542257050564995 10.1535670709220103 Ba
atom 0.0000000000000000 -0.0000000000000004 15.2624241400150691 Ba
atom 4.9542256882495712 0.0000000168069001 15.2624241400150691 Ba
atom 0.0000000168069005 4.9542256882495943 15.2624241400150691 Ba
atom 4.9542257050564684 4.9542257050564986 15.2624241400150691 Ba
atom 2.4771128525282342 2.4771128525282502 12.6939369892077227 Zr
atom 7.4313385407778139 2.4771128693351487 12.6939369892077227 Zr
atom 2.4771128693351372 7.4313385407778423 12.6939369892077227 Zr
atom 7.4313385575847244 7.4313385575847395 12.6939369892077227 Zr
atom 2.4771128525282342 2.4771128525282502 17.8130465383150138 Zr
atom 7.4313385407778139 2.4771128693351487 17.8130465383150138 Zr
atom 2.4771128693351372 7.4313385407778414 17.8130465383150138 Zr
atom 7.4313385575847244 7.4313385575847386 17.8130465383150138 Zr
atom 2.4771128525282342 2.4771128525282502 10.1449232371538827 S
atom 7.4313385407778139 2.4771128693351487 10.1449232371538827 S
atom 2.4771128693351372 7.4313385407778423 10.1449232371538827 S
atom 7.4313385575847244 7.4313385575847395 10.1449232371538827 S
atom 2.4771128525282342 2.4771128525282502 15.2601900148689467 S
atom 7.4313385407778139 2.4771128693351487 15.2601900148689467 S
atom 2.4771128693351372 7.4313385407778414 15.2601900148689467 S
atom 7.4313385575847244 7.4313385575847386 15.2601900148689467 S
atom 2.9798726568100493 0.0000000371703483 12.7084981692092231 S
atom 6.9285787196890984 -0.0000000035565480 12.7084981692092214 S
atom 1.9743530482464249 4.9542256678861483 12.7084981692092196 S
atom 7.9340983618665151 4.9542257422268374 12.7084981692092231 S
atom 2.9820007352354039 0.0000000048705591 17.8196007909691154 S
atom 6.9264506412637523 0.0000000287432410 17.8196007909691190 S
atom 1.9722249698210716 4.9542257001859396 17.8196007909691190 S
atom 7.9362264402918639 4.9542257099270515 17.8196007909691154 S
atom -0.0000000203634486 1.9743530314395352 12.7084981692092231 S
atom 4.9542257254199153 2.9798726736169603 12.7084981692092214 S
atom 0.0000000539772492 7.9340983450596516 12.7084981692092214 S
atom 4.9542256846930286 6.9285787364960276 12.7084981692092231 S
atom 0.0000000119363405 1.9722249530141778 17.8196007909691225 S
atom 4.9542256931201329 2.9820007520423197 17.8196007909691154 S
atom 0.0000000216774601 7.9362264234850022 17.8196007909691154 S
atom 4.9542257169928154 6.9264506580706797 17.8196007909691225 S
atom 0.0000000000000000 -0.0000000000000006 20.3753787890577591 Ba
atom 4.9542256882495712 0.0000000168069000 20.3753787890577591 Ba
atom 0.0000000168069005 4.9542256882495943 20.3753787890577591 Ba
atom 4.9542257050564684 4.9542257050564986 20.3753787890577591 Ba
atom 0.0000000000000000 -0.0000000000000007 25.4901694953075193 Ba
atom 4.9542256882495712 0.0000000168068998 25.4901694953075193 Ba
atom 0.0000000168069005 4.9542256882495943 25.4901694953075193 Ba
atom 4.9542257050564684 4.9542257050564986 25.4901694953075193 Ba
atom 2.4771128525282342 2.4771128525282498 22.9311952843889983 Zr
atom 7.4313385407778139 2.4771128693351483 22.9311952843889983 Zr
atom 2.4771128693351372 7.4313385407778414 22.9311952843889983 Zr
atom 7.4313385575847244 7.4313385575847386 22.9311952843889983 Zr
atom 2.4771128525282342 2.4771128525282502 28.0491437062260509 Zr
atom 7.4313385407778139 2.4771128693351492 28.0491437062260509 Zr
atom 2.4771128693351372 7.4313385407778423 28.0491437062260509 Zr
atom 7.4313385575847244 7.4313385575847368 28.0491437062260509 Zr
atom 2.4771128525282342 2.4771128525282498 20.3751605529711881 S
atom 7.4313385407778139 2.4771128693351483 20.3751605529711881 S
atom 2.4771128693351372 7.4313385407778414 20.3751605529711881 S
atom 7.4313385575847244 7.4313385575847386 20.3751605529711881 S
atom 2.4771128525282342 2.4771128525282498 25.4901694953075193 S
atom 7.4313385407778139 2.4771128693351483 25.4901694953075193 S
atom 2.4771128693351372 7.4313385407778414 25.4901694953075193 S
atom 7.4313385575847244 7.4313385575847386 25.4901694953075193 S
atom 2.9824616143036913 0.0000000063638151 22.9332277997850724 S
atom 6.9259897621954662 0.0000000272499851 22.9332277997850724 S
atom 1.9717640907527811 4.9542256986926745 22.9332277997850724 S
atom 7.9366873193601579 4.9542257114203130 22.9332277997850724 S
atom 2.9824616143036913 0.0000000063638158 28.0471111908299378 S
atom 6.9259897621954662 0.0000000272499850 28.0471111908299342 S
atom 1.9717640907527811 4.9542256986926754 28.0471111908299342 S
atom 7.9366873193601579 4.9542257114203121 28.0471111908299378 S
atom 0.0000000104430843 1.9717640739458877 22.9332277997850724 S
atom 4.9542256946133989 2.9824616311106062 22.9332277997850724 S
atom 0.0000000231707163 7.9366873025532936 22.9332277997850724 S
atom 4.9542257154995548 6.9259897790023883 22.9332277997850724 S
atom 0.0000000104430843 1.9717640739458886 28.0471111908299342 S
atom 4.9542256946133989 2.9824616311106076 28.0471111908299342 S
atom 0.0000000231707163 7.9366873025532918 28.0471111908299342 S
atom 4.9542257154995548 6.9259897790023874 28.0471111908299342 S
atom 0.0000000000000000 -0.0000000000000009 30.6049602015572724 Ba
atom 4.9542256882495712 0.0000000168068997 30.6049602015572724 Ba
atom 0.0000000168069005 4.9542256882495952 30.6049602015572724 Ba
atom 4.9542257050564684 4.9542257050565004 30.6049602015572724 Ba
atom 0.0000000000000000 -0.0000000000000010 35.7179148505999535 Ba
atom 4.9542256882495712 0.0000000168068995 35.7179148505999535 Ba
atom 0.0000000168069005 4.9542256882495952 35.7179148505999535 Ba
atom 4.9542257050564684 4.9542257050565004 35.7179148505999535 Ba
atom 2.4771128525282342 2.4771128525282498 33.1672924522999608 Zr
atom 7.4313385407778139 2.4771128693351487 33.1672924522999608 Zr
atom 2.4771128693351372 7.4313385407778423 33.1672924522999608 Zr
atom 7.4313385575847244 7.4313385575847368 33.1672924522999608 Zr
atom 2.4771128525282342 2.4771128525282498 38.2864020014073674 Zr
atom 7.4313385407778139 2.4771128693351487 38.2864020014073674 Zr
atom 2.4771128693351372 7.4313385407778423 38.2864020014073674 Zr
atom 7.4313385575847244 7.4313385575847368 38.2864020014073674 Zr
atom 2.4771128525282342 2.4771128525282502 30.6051784376438363 S
atom 7.4313385407778139 2.4771128693351492 30.6051784376438363 S
atom 2.4771128693351372 7.4313385407778423 30.6051784376438363 S
atom 7.4313385575847244 7.4313385575847368 30.6051784376438363 S
atom 2.4771128525282342 2.4771128525282498 35.7201489757460564 S
atom 7.4313385407778139 2.4771128693351487 35.7201489757460564 S
atom 2.4771128693351372 7.4313385407778423 35.7201489757460564 S
atom 7.4313385575847244 7.4313385575847368 35.7201489757460564 S
atom 2.9820007352354039 0.0000000048705595 33.1607381996459338 S
atom 6.9264506412637523 0.0000000287432410 33.1607381996459338 S
atom 1.9722249698210716 4.9542257001859413 33.1607381996459338 S
atom 7.9362264402918639 4.9542257099270506 33.1607381996459338 S
atom 2.9798726568100493 0.0000000371703485 38.2718408214058030 S
atom 6.9285787196890984 -0.0000000035565483 38.2718408214058030 S
atom 1.9743530482464249 4.9542256678861492 38.2718408214058030 S
atom 7.9340983618665151 4.9542257422268356 38.2718408214058030 S
atom 0.0000000119363405 1.9722249530141782 33.1607381996459338 S
atom 4.9542256931201329 2.9820007520423202 33.1607381996459338 S
atom 0.0000000216774601 7.9362264234850004 33.1607381996459338 S
atom 4.9542257169928154 6.9264506580706788 33.1607381996459338 S
atom -0.0000000203634486 1.9743530314395357 38.2718408214058030 S
atom 4.9542257254199153 2.9798726736169607 38.2718408214058101 S
atom 0.0000000539772492 7.9340983450596489 38.2718408214058101 S
atom 4.9542256846930286 6.9285787364960258 38.2718408214058030 S
atom 0.0000000000000000 -0.0000000000000011 40.8267719196929875 Ba
atom 4.9542256882495712 0.0000000168068994 40.8267719196929875 Ba
atom 0.0000000168069005 4.9542256882495943 40.8267719196929875 Ba
atom 4.9542257050564684 4.9542257050564995 40.8267719196929875 Ba
atom 0.0000000000000000 -0.0000000000000013 45.9157538051727840 Ba
atom 4.9542256882495712 0.0000000168068992 45.9157538051727840 Ba
atom 0.0000000168069005 4.9542256882495943 45.9157538051727840 Ba
atom 4.9542257050564684 4.9542257050564995 45.9157538051727840 Ba
atom 2.4771128525282342 2.4771128525282498 43.4080943251790217 Zr
atom 7.4313385407778139 2.4771128693351487 43.4080943251790217 Zr
atom 2.4771128693351372 7.4313385407778414 43.4080943251790217 Zr
atom 7.4313385575847244 7.4313385575847359 43.4080943251790217 Zr
atom 2.4771128525282342 2.4771128525282493 48.5461612387839025 Zr
atom 7.4313385407778139 2.4771128693351483 48.5461612387839025 Zr
atom 2.4771128693351372 7.4313385407778414 48.5461612387839025 Zr
atom 7.4313385575847244 7.4313385575847359 48.5461612387839025 Zr
atom 2.4771128525282342 2.4771128525282498 40.8354157534611204 S
atom 7.4313385407778139 2.4771128693351487 40.8354157534611204 S
atom 2.4771128693351372 7.4313385407778414 40.8354157534611062 S
atom 7.4313385575847244 7.4313385575847359 40.8354157534611062 S
atom 2.4771128525282342 2.4771128525282493 45.9450804303722293 S
atom 7.4313385407778139 2.4771128693351483 45.9450804303722293 S
atom 2.4771128693351372 7.4313385407778414 45.9450804303722293 S
atom 7.4313385575847244 7.4313385575847359 45.9450804303722293 S
atom 2.9977909406858516 0.0000001622073562 43.3910570644032560 S
atom 6.9106604358132966 -0.0000001285935563 43.3910570644032489 S
atom 1.9564347643706230 4.9542255428491409 43.3910570644032489 S
atom 7.9520166457423134 4.9542258672638466 43.3910570644032560 S
atom 2.0523342640334281 -0.0000017765305473 48.4522671779817600 S
atom 7.8561171124657205 0.0000018101443474 48.4522671779817600 S
atom 2.9018914410230443 4.9542274815870417 48.4522671779817600 S
atom 7.0065599690899081 4.9542239285259502 48.4522671779817600 S
atom -0.0000001454004565 1.9564347475637300 43.3910570644032489 S
atom 4.9542258504569254 2.9977909574927657 43.3910570644032489 S
atom 0.0000001790142571 7.9520166289354508 43.3910570644032489 S
atom 4.9542255596560221 6.9106604526202284 43.3910570644032489 S
atom 0.0000017933374478 2.9018914242161586 48.4522671779817600 S
atom 4.9542239117190228 2.0523342808403351 48.4522671779817600 S
atom -0.0000017597236467 7.0065599522830269 48.4522671779817600 S
atom 4.9542274983939230 7.8561171292726470 48.4522671779817600 S
atom 0.0000000000000000 -0.0000000000000014 50.8193616255545848 Ba
atom 4.9542256882495712 0.0000000168068991 50.8193616255545848 Ba
atom 0.0000000168069005 4.9542256882495943 50.8193616255545848 Ba
atom 4.9542257050564684 4.9542257050564995 50.8193616255545848 Ba
atom 2.4771128525282342 2.4771128525282493 51.0888781515937538 S
atom 7.4313385407778139 2.4771128693351483 51.0888781515937538 S
atom 2.4771128693351372 7.4313385407778414 51.0888781515937538 S
atom 7.4313385575847244 7.4313385575847359 51.0888781515937538 S
atom 2.4771128525282342 2.4771128525282502 54.2001366951123700 Ba
atom 7.4313385407778139 2.4771128693351483 54.2001366951123700 Ba
atom 2.4771128693351372 7.4313385407778423 54.2001366951123700 Ba
atom 7.4313385575847244 7.4313385575847377 54.2001366951123700 Ba
atom 2.4771128525282342 2.4771128525282489 59.1037445154941992 Ba
atom 7.4313385407778139 2.4771128693351478 59.1037445154941992 Ba
atom 2.4771128693351372 7.4313385407778405 59.1037445154941992 Ba
atom 7.4313385575847244 7.4313385575847377 59.1037445154941992 Ba
atom 4.9542257050564684 4.9542257050565004 56.4733370818830736 Zr
atom 9.9084513933060485 4.9542257218633994 56.4733370818830736 Zr
atom 4.9542257218633772 9.9084513933060929 56.4733370818830736 Zr
atom 9.9084514101129368 9.9084514101129990 56.4733370818830736 Zr
atom 4.9542257050564684 4.9542257050565004 61.6114039954879047 Zr
atom 9.9084513933060485 4.9542257218633994 61.6114039954879047 Zr
atom 4.9542257218633772 9.9084513933060929 61.6114039954879047 Zr
atom 9.9084514101129368 9.9084514101129990 61.6114039954879047 Zr
atom 4.9542257050564684 4.9542257050565004 53.9306201690731513 S
atom 9.9084513933060485 4.9542257218633985 53.9306201690731513 S
atom 4.9542257218633772 9.9084513933060911 53.9306201690731442 S
atom 9.9084514101129368 9.9084514101129990 53.9306201690731442 S
atom 4.9542257050564684 4.9542257050565004 59.0744178902947041 S
atom 9.9084513933060485 4.9542257218633994 59.0744178902947041 S
atom 4.9542257218633772 9.9084513933060929 59.0744178902947041 S
atom 9.9084514101129368 9.9084514101129990 59.0744178902947041 S
atom 5.3790042767443760 2.4771146458656941 56.5672311426852090 S
atom 9.4836728048112438 2.4771110928045990 56.5672311426852090 S
atom 4.5294471333685733 7.4313367642472965 56.5672311426852090 S
atom 10.3332299818008870 7.4313403509221843 56.5672311426852090 S
atom 4.4335476000919698 2.4771127071277923 61.6284412562637556 S
atom 10.4291294814636597 2.4771130315425016 61.6284412562637485 S
atom 5.4749038100209937 7.4313387029851956 61.6284412562637485 S
atom 9.3877733051484604 7.4313384121842914 61.6284412562637556 S
atom 2.4771110759976898 4.5294471165616912 56.5672311426852090 S
atom 7.4313403341152542 5.3790042935512972 56.5672311426852090 S
atom 2.4771146626725842 10.3332299649940076 56.5672311426852090 S
atom 7.4313367810541706 9.4836728216181605 56.5672311426852090 S
atom 2.4771130147355973 5.4749037932141036 61.6284412562637485 S
atom 7.4313383953773515 4.4335476168988803 61.6284412562637485 S
atom 2.4771127239346828 9.3877732883415810 61.6284412562637485 S
atom 7.4313387197920688 10.4291294982705942 61.6284412562637485 S
atom 2.4771128525282342 2.4771128525282489 64.1927264009739247 Ba
atom 7.4313385407778139 2.4771128693351478 64.1927264009739247 Ba
atom 2.4771128693351372 7.4313385407778396 64.1927264009739247 Ba
atom 7.4313385575847244 7.4313385575847368 64.1927264009739247 Ba
atom 2.4771128525282342 2.4771128525282489 69.3015834700669444 Ba
atom 7.4313385407778139 2.4771128693351478 69.3015834700669444 Ba
atom 2.4771128693351372 7.4313385407778396 69.3015834700669444 Ba
atom 7.4313385575847244 7.4313385575847368 69.3015834700669444 Ba
atom 4.9542257050564684 4.9542257050564995 66.7330963192596585 Zr
atom 9.9084513933060485 4.9542257218633985 66.7330963192596585 Zr
atom 4.9542257218633772 9.9084513933060929 66.7330963192596585 Zr
atom 9.9084514101129368 9.9084514101129990 66.7330963192596585 Zr
atom 4.9542257050564684 4.9542257050564995 71.8522058683668519 Zr
atom 9.9084513933060485 4.9542257218633985 71.8522058683668519 Zr
atom 4.9542257218633772 9.9084513933060929 71.8522058683668519 Zr
atom 9.9084514101129368 9.9084514101129990 71.8522058683668519 Zr
atom 4.9542257050564684 4.9542257050564995 64.1840825672057349 S
atom 9.9084513933060485 4.9542257218633985 64.1840825672057349 S
atom 4.9542257218633772 9.9084513933060929 64.1840825672057349 S
atom 9.9084514101129368 9.9084514101129990 64.1840825672057349 S
atom 4.9542257050564684 4.9542257050564995 69.2993493449208131 S
atom 9.9084513933060485 4.9542257218633985 69.2993493449208131 S
atom 4.9542257218633772 9.9084513933060929 69.2993493449208131 S
atom 9.9084514101129368 9.9084514101129990 69.2993493449208131 S
atom 4.4514658839677663 2.4771128321647975 66.7476574992611091 S
atom 10.4112111975878712 2.4771129065054960 66.7476574992611091 S
atom 5.4569855261451918 7.4313385779481838 66.7476574992611091 S
atom 9.4056915890242383 7.4313385372212988 66.7476574992611091 S
atom 4.4493378055424229 2.4771128644645848 71.8587601210211062 S
atom 10.4133392760132253 2.4771128742057087 71.8587601210211062 S
atom 5.4591136045705380 7.4313385456484040 71.8587601210211062 S
atom 9.4035635105988966 7.4313385695210847 71.8587601210211062 S
atom 2.4771128896985881 5.4569855093383115 66.7476574992611091 S
atom 7.4313385204143714 4.4514659007746822 66.7476574992611091 S
atom 2.4771128489716912 9.4056915722173660 66.7476574992611091 S
atom 7.4313385947550561 10.4112112143948057 66.7476574992611091 S
atom 2.4771128573987999 5.4591135877636559 71.8587601210211062 S
atom 7.4313385527141591 4.4493378223493307 71.8587601210211062 S
atom 2.4771128812714758 9.4035634937920118 71.8587601210211062 S
atom 7.4313385624552692 10.4133392928201598 71.8587601210211062 S
atom 2.4771128525282342 2.4771128525282484 74.4145381191096504 Ba
atom 7.4313385407778139 2.4771128693351474 74.4145381191096504 Ba
atom 2.4771128693351372 7.4313385407778396 74.4145381191096504 Ba
atom 7.4313385575847244 7.4313385575847368 74.4145381191096504 Ba
atom 2.4771128525282342 2.4771128525282489 79.5293288253593857 Ba
atom 7.4313385407778139 2.4771128693351478 79.5293288253593857 Ba
atom 2.4771128693351372 7.4313385407778396 79.5293288253593857 Ba
atom 7.4313385575847244 7.4313385575847368 79.5293288253593857 Ba
atom 4.9542257050564684 4.9542257050564995 76.9703546144409074 Zr
atom 9.9084513933060485 4.9542257218633985 76.9703546144409074 Zr
atom 4.9542257218633772 9.9084513933060911 76.9703546144409074 Zr
atom 9.9084514101129368 9.9084514101129972 76.9703546144409074 Zr
atom 4.9542257050564684 4.9542257050564995 82.0883030362780488 Zr
atom 9.9084513933060485 4.9542257218633985 82.0883030362780488 Zr
atom 4.9542257218633772 9.9084513933060911 82.0883030362780488 Zr
atom 9.9084514101129368 9.9084514101129990 82.0883030362780488 Zr
atom 4.9542257050564684 4.9542257050564995 74.4143198830229977 S
atom 9.9084513933060485 4.9542257218633985 74.4143198830229977 S
atom 4.9542257218633772 9.9084513933060929 74.4143198830229977 S
atom 9.9084514101129368 9.9084514101129990 74.4143198830229977 S
atom 4.9542257050564684 4.9542257050564995 79.5293288253593857 S
atom 9.9084513933060485 4.9542257218633985 79.5293288253593857 S
atom 4.9542257218633772 9.9084513933060911 79.5293288253593857 S
atom 9.9084514101129368 9.9084514101129972 79.5293288253593857 S
atom 4.4488769264741252 2.4771128629713308 76.9723871298369886 S
atom 10.4138001550815051 2.4771128756989627 76.9723871298369886 S
atom 5.4595744836388320 7.4313385471416611 76.9723871298369886 S
atom 9.4031026315306079 7.4313385680278277 76.9723871298369886 S
atom 4.4488769264741252 2.4771128629713313 82.0862705208818255 S
atom 10.4138001550815051 2.4771128756989640 82.0862705208818255 S
atom 5.4595744836388320 7.4313385471416620 82.0862705208818255 S
atom 9.4031026315306079 7.4313385680278286 82.0862705208818255 S
atom 2.4771128588920521 5.4595744668319535 76.9723871298369886 S
atom 7.4313385512208967 4.4488769432810367 76.9723871298369886 S
atom 2.4771128797782218 9.4031026147237249 76.9723871298369886 S
atom 7.4313385639485379 10.4138001718884396 76.9723871298369886 S
atom 2.4771128588920521 5.4595744668319544 82.0862705208818255 S
atom 7.4313385512208967 4.4488769432810376 82.0862705208818255 S
atom 2.4771128797782218 9.4031026147237267 82.0862705208818255 S
atom 7.4313385639485379 10.4138001718884396 82.0862705208818255 S
atom 2.4771128525282342 2.4771128525282484 84.6441195316092347 Ba
atom 7.4313385407778139 2.4771128693351474 84.6441195316092347 Ba
atom 2.4771128693351372 7.4313385407778414 84.6441195316092347 Ba
atom 7.4313385575847244 7.4313385575847377 84.6441195316092347 Ba
atom 2.4771128525282342 2.4771128525282484 89.7570741806518413 Ba
atom 7.4313385407778139 2.4771128693351474 89.7570741806518413 Ba
atom 2.4771128693351372 7.4313385407778414 89.7570741806518413 Ba
atom 7.4313385575847244 7.4313385575847377 89.7570741806518413 Ba
atom 4.9542257050564684 4.9542257050564995 87.2064517823518486 Zr
atom 9.9084513933060485 4.9542257218633985 87.2064517823518486 Zr
atom 4.9542257218633772 9.9084513933060911 87.2064517823518486 Zr
atom 9.9084514101129368 9.9084514101129990 87.2064517823518486 Zr
atom 4.9542257050564684 4.9542257050564986 92.3255613314591130 Zr
atom 9.9084513933060485 4.9542257218633976 92.3255613314591130 Zr
atom 4.9542257218633772 9.9084513933060911 92.3255613314591130 Zr
atom 9.9084514101129368 9.9084514101129990 92.3255613314591130 Zr
atom 4.9542257050564684 4.9542257050564995 84.6443377676958022 S
atom 9.9084513933060485 4.9542257218633985 84.6443377676958022 S
atom 4.9542257218633772 9.9084513933060911 84.6443377676958022 S
atom 9.9084514101129368 9.9084514101129990 84.6443377676958022 S
atom 4.9542257050564684 4.9542257050564995 89.7593083057980152 S
atom 9.9084513933060485 4.9542257218633985 89.7593083057980152 S
atom 4.9542257218633772 9.9084513933060911 89.7593083057980152 S
atom 9.9084514101129368 9.9084514101129990 89.7593083057980152 S
atom 4.4493378055424229 2.4771128644645852 87.1998975296977648 S
atom 10.4133392760132253 2.4771128742057096 87.1998975296977648 S
atom 5.4591136045705380 7.4313385456484049 87.1998975296977648 S
atom 9.4035635105988966 7.4313385695210865 87.1998975296977648 S
atom 4.4514658839677663 2.4771128321647975 92.3110001514577760 S
atom 10.4112111975878712 2.4771129065054964 92.3110001514577760 S
atom 5.4569855261451918 7.4313385779481838 92.3110001514577760 S
atom 9.4056915890242383 7.4313385372212997 92.3110001514577760 S
atom 2.4771128573987999 5.4591135877636567 87.1998975296977648 S
atom 7.4313385527141591 4.4493378223493316 87.1998975296977648 S
atom 2.4771128812714758 9.4035634937920136 87.1998975296977648 S
atom 7.4313385624552692 10.4133392928201580 87.1998975296977648 S
atom 2.4771128896985881 5.4569855093383115 92.3110001514577760 S
atom 7.4313385204143714 4.4514659007746822 92.3110001514577760 S
atom 2.4771128489716912 9.4056915722173660 92.3110001514577760 S
atom 7.4313385947550561 10.4112112143948039 92.3110001514577760 S
atom 2.4771128525282342 2.4771128525282484 94.8659312497449463 Ba
atom 7.4313385407778139 2.4771128693351474 94.8659312497449463 Ba
atom 2.4771128693351372 7.4313385407778405 94.8659312497449463 Ba
atom 7.4313385575847244 7.4313385575847368 94.8659312497449463 Ba
atom 2.4771128525282342 2.4771128525282480 99.9549131352245439 Ba
atom 7.4313385407778139 2.4771128693351470 99.9549131352245439 Ba
atom 2.4771128693351372 7.4313385407778405 99.9549131352245439 Ba
atom 7.4313385575847244 7.4313385575847368 99.9549131352245439 Ba
atom 4.9542257050564684 4.9542257050564986 97.4472536552309947 Zr
atom 9.9084513933060485 4.9542257218633976 97.4472536552309947 Zr
atom 4.9542257218633772 9.9084513933060911 97.4472536552309947 Zr
atom 9.9084514101129368 9.9084514101129990 97.4472536552309947 Zr
atom 4.9542257050564684 4.9542257050564986 102.5853205688356127 Zr
atom 9.9084513933060485 4.9542257218633976 102.5853205688356127 Zr
atom 4.9542257218633772 9.9084513933060911 102.5853205688356127 Zr
atom 9.9084514101129368 9.9084514101129990 102.5853205688356127 Zr
atom 4.9542257050564684 4.9542257050564986 94.8745750835131076 S
atom 9.9084513933060485 4.9542257218633976 94.8745750835131076 S
atom 4.9542257218633772 9.9084513933060911 94.8745750835131076 S
atom 9.9084514101129368 9.9084514101129990 94.8745750835131076 S
atom 4.9542257050564684 4.9542257050564986 99.9842397604241171 S
atom 9.9084513933060485 4.9542257218633976 99.9842397604241171 S
atom 4.9542257218633772 9.9084513933060911 99.9842397604241171 S
atom 9.9084514101129368 9.9084514101129990 99.9842397604241171 S
atom 4.4335476000919707 2.4771127071277919 97.4302163944552575 S
atom 10.4291294814636597 2.4771130315425016 97.4302163944552575 S
atom 5.4749038100209937 7.4313387029851947 97.4302163944552575 S
atom 9.3877733051484604 7.4313384121842914 97.4302163944552575 S
atom 5.3790042767443760 2.4771146458656932 102.4914265080336406 S
atom 9.4836728048112438 2.4771110928045994 102.4914265080336406 S
atom 4.5294471333685733 7.4313367642472965 102.4914265080336406 S
atom 10.3332299818008870 7.4313403509221843 102.4914265080336406 S
atom 2.4771130147355973 5.4749037932141036 97.4302163944552575 S
atom 7.4313383953773515 4.4335476168988786 97.4302163944552575 S
atom 2.4771127239346828 9.3877732883415810 97.4302163944552575 S
atom 7.4313387197920688 10.4291294982705942 97.4302163944552575 S
atom 2.4771110759976898 4.5294471165616894 102.4914265080336406 S
atom 7.4313403341152542 5.3790042935512963 102.4914265080336406 S
atom 2.4771146626725842 10.3332299649940076 102.4914265080336406 S
atom 7.4313367810541706 9.4836728216181587 102.4914265080336406 S
atom 2.4771128525282342 2.4771128525282475 104.8585209556064655 Ba
atom 7.4313385407778139 2.4771128693351465 104.8585209556064655 Ba
atom 2.4771128693351372 7.4313385407778405 104.8585209556064655 Ba
atom 7.4313385575847244 7.4313385575847368 104.8585209556064655 Ba
atom 4.9542257050564684 4.9542257050564986 105.1280374816457055 S
atom 9.9084513933060485 4.9542257218633976 105.1280374816457055 S
atom 4.9542257218633772 9.9084513933060911 105.1280374816457055 S
atom 9.9084514101129368 9.9084514101129990 105.1280374816457055 S
