#=======================================================
# FHI-aims file: sym_relax/sym_relax_RP_1_00Rz_00Rz.in
# Created using the Atomic Simulation Environment (ASE)
# Fri Mar 14 10:20:09 2025
#=======================================================
lattice_vector 10.0137827556705279 -0.0000000807141454 0.0000000000000000 
lattice_vector -0.0000000807141454 10.0137827556705261 0.0000000000000000 
lattice_vector -0.0000000000000000 0.0000000000000000 15.6661189771972218 
atom -0.0000000000000000 0.0000000000000000 0.2276090638396221 Ba
atom 5.0068913778352639 -0.0000000403570738 0.2276090638396221 Ba
atom -0.0000000403570738 5.0068913778352622 0.2276090638396221 Ba
atom 5.0068913374781951 5.0068913374781898 0.2276090638396221 Ba
atom 0.0000000000000000 0.0000000000000000 4.6680531165345078 Ba
atom 5.0068913778352639 -0.0000000403570738 4.6680531165345078 Ba
atom -0.0000000403570738 5.0068913778352622 4.6680531165345078 Ba
atom 5.0068913374781951 5.0068913374781898 4.6680531165345078 Ba
atom 2.5034456687390976 2.5034456687390949 2.4478310901870639 Zr
atom 7.5103370465743602 2.5034456283820194 2.4478310901870639 Zr
atom 2.5034456283820243 7.5103370465743593 2.4478310901870639 Zr
atom 7.5103370062172869 7.5103370062172816 2.4478310901870639 Zr
atom 2.5034456687390976 2.5034456687390949 -0.1067287623159535 S
atom 7.5103370465743602 2.5034456283820194 -0.1067287623159535 S
atom 2.5034456283820243 7.5103370465743593 -0.1067287623159535 S
atom 7.5103370062172869 7.5103370062172816 -0.1067287623159535 S
atom 2.5034456687390976 2.5034456687390949 5.0023909426900799 S
atom 7.5103370465743602 2.5034456283820194 5.0023909426900799 S
atom 2.5034456283820243 7.5103370465743593 5.0023909426900799 S
atom 7.5103370062172869 7.5103370062172816 5.0023909426900799 S
atom 2.5034359681075147 0.0000002841583662 2.4478310901870639 S
atom 7.5103467875630177 -0.0000003648725133 2.4478310901870639 S
atom 2.5034553693706765 5.0068910533198228 2.4478310901870639 S
atom 7.5103273055857045 5.0068916216365551 2.4478310901870639 S
atom -0.0000003245154400 2.5034554097277475 2.4478310901870639 S
atom 5.0068916619936310 2.5034359277504397 2.4478310901870639 S
atom 0.0000002438012924 7.5103273459427742 2.4478310901870639 S
atom 5.0068910129627522 7.5103467472059382 2.4478310901870639 S
atom 2.5034456687390976 2.5034456687390949 8.0606685524382318 Ba
atom 7.5103370465743602 2.5034456283820194 8.0606685524382318 Ba
atom 2.5034456283820243 7.5103370465743593 8.0606685524382318 Ba
atom 7.5103370062172869 7.5103370062172816 8.0606685524382318 Ba
atom 2.5034456687390976 2.5034456687390949 12.5011126051331161 Ba
atom 7.5103370465743602 2.5034456283820194 12.5011126051331161 Ba
atom 2.5034456283820243 7.5103370465743593 12.5011126051331161 Ba
atom 7.5103370062172869 7.5103370062172816 12.5011126051331161 Ba
atom 5.0068913374781951 5.0068913374781898 10.2808905787856659 Zr
atom 10.0137827153134573 5.0068912971211166 10.2808905787856659 Zr
atom 5.0068912971211219 10.0137827153134502 10.2808905787856659 Zr
atom 10.0137826749563903 10.0137826749563796 10.2808905787856659 Zr
atom 5.0068913374781951 5.0068913374781898 7.7263307262826508 S
atom 10.0137827153134573 5.0068912971211166 7.7263307262826508 S
atom 5.0068912971211219 10.0137827153134502 7.7263307262826508 S
atom 10.0137826749563903 10.0137826749563796 7.7263307262826508 S
atom 5.0068913374781951 5.0068913374781898 12.8354504312886935 S
atom 10.0137827153134573 5.0068912971211166 12.8354504312886935 S
atom 5.0068912971211219 10.0137827153134502 12.8354504312886935 S
atom 10.0137826749563903 10.0137826749563796 12.8354504312886935 S
atom 5.0068816368466109 2.5034459528974611 10.2808905787856659 S
atom 10.0137924563021183 2.5034453038665814 10.2808905787856659 S
atom 5.0069010381097749 7.5103367220589172 10.2808905787856659 S
atom 10.0137729743248141 7.5103372903756496 10.2808905787856659 S
atom 2.5034453442236573 5.0069010784668437 10.2808905787856659 S
atom 7.5103373307327246 5.0068815964895323 10.2808905787856659 S
atom 2.5034459125403883 10.0137730146818704 10.2808905787856659 S
atom 7.5103366817018422 10.0137924159450318 10.2808905787856659 S
