#=======================================================
# FHI-aims file: sym_relax/sym_relax_RP_7_RxRyMz_-Rx-Ry-Mz.in
# Created using the Atomic Simulation Environment (ASE)
# Mon Mar 17 15:54:32 2025
#=======================================================
lattice_vector 10.0136022845776580 -0.0662750389850686 -0.0125172539204249 
lattice_vector -0.0662750389850685 10.0136022845776598 0.0125172539204249 
lattice_vector -0.0953932921563141 0.0953932921563139 75.9104714581545181 
atom 0.0824750792214241 -0.1269780085327650 0.2205450153965464 Ba
atom 5.1337791508216108 -0.1156125987139577 0.2142863884363342 Ba
atom 0.0938404890402301 4.9243260630673733 0.2268036423567591 Ba
atom 5.0561387020177140 4.8466856142635022 0.2205450153965464 Ba
atom -0.3022903799434355 0.2273474369084696 5.0082314219802226 Ba
atom 4.7794537053803339 0.2691528604508999 5.0019727950199968 Ba
atom -0.2604849564010047 5.3090915222322490 5.0144900489404316 Ba
atom 4.6713732428528498 5.2010110597047445 5.0082314219802226 Ba
atom 2.4606021298072864 2.5196696872836344 2.3981732586713340 Zr
atom 7.4607950778014738 2.4799239734964602 2.3919146317111215 Zr
atom 2.4208564160201167 7.5198626352778053 2.4044318856315443 Zr
atom 7.4342657526035794 7.4933333100798958 2.3981732586713345 Zr
atom 2.4420668513591748 2.5268538054722591 7.4515382238030190 Zr
atom 7.4536109596128473 2.4984592519445719 7.4452795968428021 Zr
atom 2.4136722978314911 7.5383979137259134 7.4577968507632368 Zr
atom 7.4157304741554553 7.5005174282685374 7.4515382238030190 Zr
atom 2.6186059220562119 2.7809401642652931 -0.1074888273391323 S
atom 7.1995246008198110 2.3219201812475303 -0.1137474542993446 S
atom 2.1595859390384571 7.3618588430288732 -0.1012302003789198 S
atom 7.5922695448525213 7.7546037870615754 -0.1074888273391324 S
atom 2.1956059109067336 2.2192923354643987 4.9585485549182318 S
atom 7.7611724296207170 2.7449201923970157 4.9522899279580175 S
atom 2.7212337678393528 7.7848588541783545 4.9648071818784425 S
atom 7.1692695337030194 7.1929559582606544 4.9585485549182318 S
atom 2.7442292540339768 0.0264588430092125 2.2231667400434789 S
atom 7.1453240464967918 -0.0041523049225310 2.7685197981860541 S
atom 2.1053853847154320 5.0357863568588170 2.7810370521064773 S
atom 7.7178928768302839 5.0001224658054806 2.2231667400434789 S
atom 2.8589266108197102 0.0184003667958433 7.7807377292700028 S
atom 7.0920201326883578 -0.0105814910500300 7.1510705036638695 S
atom 2.0520814709070065 5.0293571707313154 7.1635877575842990 S
atom 7.8325902336159867 4.9920639895921193 7.7807377292700020 S
atom -0.0595963625017468 2.2625718882548411 2.2294253670036919 S
atom 4.9446784082262871 2.8351407185883177 2.7747784251462684 S
atom -0.0952602535550724 7.8750793803696606 2.7872956790666916 S
atom 4.9140672602945372 7.2362355110511158 2.2294253670036919 S
atom -0.0515378862883781 2.1478745314691077 7.7869963562302118 S
atom 4.9511075943537879 2.8884446323967476 7.1573291306240856 S
atom -0.0888310674275735 7.9283832941780910 7.1698463845445026 S
atom 4.9221257365078976 7.1215381542653953 7.7869963562302109 S
atom 0.2500302216841399 -0.1509632408936554 9.9776540890563936 Ba
atom 5.1577643831824886 -0.2831677411766748 9.9713954620961758 Ba
atom 0.1178257214011207 4.7567709206046578 9.9839127160166043 Ba
atom 5.2236938444804384 4.8227003819026271 9.9776540890563918 Ba
atom -0.3072320445020611 0.2064687503623042 14.9791073697470338 Ba
atom 4.8003323919265206 0.2740945250095265 14.9728487427868124 Ba
atom -0.2396062698548386 5.3140331867908710 14.9853659967072499 Ba
atom 4.6664315782942216 5.1801323731585853 14.9791073697470356 Ba
atom 2.4627142949181162 2.5134014024025433 12.4666440850317528 Zr
atom 7.4670633626825653 2.4778118083856322 12.4603854580715208 Zr
atom 2.4271247009012074 7.5177504701669866 12.4729027119919529 Zr
atom 7.4363779177144060 7.4870650251988193 12.4666440850317510 Zr
atom 2.4648662507042602 2.5087973720920265 17.4793848752328387 Zr
atom 7.4716673929930808 2.4756598525994966 17.4731262482726741 Zr
atom 2.4317287312117211 7.5155985143808319 17.4856435021930992 Zr
atom 7.4385298735005545 7.4824609948883003 17.4793848752328387 Zr
atom 2.7209304141409736 2.8489274315705928 9.9689608524887401 S
atom 7.1315373335145162 2.2195956891627731 9.9627022255285222 S
atom 2.0915986717331561 7.2595343509441221 9.9752194794489384 S
atom 7.6945940369372545 7.8225910543668569 9.9689608524887365 S
atom 2.1937340003900188 2.1783253866920131 14.9758199995143038 S
atom 7.8021393783931003 2.7467921029137345 14.9695613725541037 S
atom 2.7622007166117397 7.7867307646950872 14.9820786264745092 S
atom 7.1673976231862744 7.1519890094882959 14.9758199995143038 S
atom 2.8572361401138409 0.0094819135187625 12.1533718823041870 S
atom 7.1003284445879213 -0.0214941910695502 12.7888757793038774 S
atom 2.0603897828065665 5.0184444707117928 12.8013930332243024 S
atom 7.8308997629101285 4.9831455363150452 12.1533718823041852 S
atom 2.8631799437094587 0.0035229512054359 17.7976062137723439 S
atom 7.1064912194804339 -0.0258668688027290 17.1486462827730080 S
atom 2.0665525576990618 5.0140717929786103 17.1611635366934188 S
atom 7.8368435665057268 4.9771865740017205 17.7976062137723403 S
atom -0.0426194330112968 2.1495650021749708 12.1596305092643782 S
atom 4.9620202943733016 2.8801363204971802 12.7951344062640775 S
atom -0.0779183674080527 7.9200749822785266 12.8076516601845114 S
atom 4.9310441897849930 7.1232286249712518 12.1596305092643764 S
atom -0.0366604706979699 2.1436211985793618 17.8038648407325510 S
atom 4.9663929721064877 2.8739735456046884 17.1549049097332365 S
atom -0.0735456896748738 7.9139122073860202 17.1674221636536295 S
atom 4.9370031520983089 7.1172848213756588 17.8038648407325439 S
atom 0.2633009231142864 -0.1625376289745286 19.9796623807187324 Ba
atom 5.1693387712633401 -0.2964384426068191 19.9734037537585039 Ba
atom 0.1294001094819945 4.7435002191745275 19.9859210076789324 Ba
atom 5.2369645459105820 4.8111259938217392 19.9796623807187288 Ba
atom -0.2939613430719152 0.1948943622814315 24.9811156614093406 Ba
atom 4.8119067800073907 0.2608238235793812 24.9748570344491228 Ba
atom -0.2280318817739652 5.3007624853607309 24.9873742883695726 Ba
atom 4.6797022797243608 5.1685579850777064 24.9811156614093406 Ba
atom 2.4670182064904007 2.5041933417815057 22.4921256654340489 Zr
atom 7.4762714233035972 2.4735078968133517 22.4858670384738346 Zr
atom 2.4363327615222374 7.5134465585946995 22.4983842923942454 Zr
atom 7.4406818292866870 7.4778569645777910 22.4921256654340453 Zr
atom 2.4876656500493368 2.4907409387117996 27.5072315266627214 Zr
atom 7.4897238263733055 2.4528604532544138 27.5009728997025000 Zr
atom 2.4497851645919484 7.4927991150357540 27.5134901536229535 Zr
atom 7.4613292728456253 7.4644045615080739 27.5072315266627214 Zr
atom 2.7359985010184937 2.8392693574920354 19.9829497509514233 S
atom 7.1411954075930693 2.2045276022852538 19.9766911239912375 S
atom 2.1012567458117117 7.2444662640665909 19.9892083779116732 S
atom 7.7096621238147920 7.8129329802883296 19.9829497509514233 S
atom 2.2088020872675322 2.1686673126134686 24.9898088979769852 S
atom 7.8117974524716427 2.7317240160362126 24.9835502710167852 S
atom 2.7718587906902896 7.7716626778175559 24.9960675249371924 S
atom 7.1824657100638465 7.1423309354097375 24.9898088979769817 S
atom 2.8693427186019482 -0.0008497265277424 22.1573767172414762 S
atom 7.1124350230760092 -0.0318258311160557 22.7928806142411666 S
atom 2.0724963612946676 5.0081128306652820 22.8053978681615774 S
atom 7.8430063413982323 4.9728138962685398 22.1573767172414762 S
atom 2.8776510305015059 -0.0117624265472635 27.7951819928814388 S
atom 7.1107445523701607 -0.0407442843931365 27.1655147672753188 S
atom 2.0708058905888014 4.9991943773882106 27.1780320211957438 S
atom 7.8513146532977984 4.9619011962490296 27.7951819928814423 S
atom -0.0322877929647919 2.1374584236868706 22.1636353442017189 S
atom 4.9723519344198088 2.8680297420090866 22.7991392412013774 S
atom -0.0675867273615469 7.9079684037904299 22.8116564951218024 S
atom 4.9413758298315029 7.1111220464831399 22.1636353442017189 S
atom -0.0213750929452707 2.1291501117873159 27.8014406198416353 S
atom 4.9812703876968927 2.8697202127149426 27.1717733942355402 S
atom -0.0586682740844659 7.9096588744962872 27.1842906481559226 S
atom 4.9522885298510184 7.1028137345835818 27.8014406198416353 S
atom 0.2583592585556603 -0.1834163155206937 29.9505383284855426 Ba
atom 5.1902174578095188 -0.2914967780481936 29.9442797015253710 Ba
atom 0.1502787960281603 4.7484418837331415 29.9567969554457534 Ba
atom 5.2320228813519556 4.7902473072755809 29.9505383284855426 Ba
atom -0.1264062006091996 0.1709091299205406 34.7382247350691813 Ba
atom 4.8358920123682889 0.0932686811166654 34.7319661081090700 Ba
atom -0.2040466494130740 5.1332073428980163 34.7444833620294276 Ba
atom 4.8472574221870888 5.1445727527168250 34.7382247350691813 Ba
atom 2.4691303716012269 2.4979250569004239 32.5605964917944135 Zr
atom 7.4825397081846683 2.4713957317025179 32.5543378648341530 Zr
atom 2.4426010464033254 7.5113343934838879 32.5668551187545745 Zr
atom 7.4427939943974968 7.4715886796967075 32.5605964917944135 Zr
atom 2.7341265905017842 2.7983024087196569 30.0002211955475282 S
atom 7.1821623563654482 2.2063995128019696 29.9939625685872748 S
atom 2.1422236945840969 7.2463381745833244 30.0064798225077247 S
atom 7.7077902132980629 7.7719660315159418 30.0002211955475282 S
atom 2.3111265793522957 2.2366545799187563 35.0662585778049163 S
atom 7.7438101851663506 2.6293995239514598 35.0599999508446345 S
atom 2.7038715233849877 7.6693381857328120 35.0725172047651697 S
atom 7.2847902021485798 7.2103182027150359 35.0662585778049163 S
atom 2.8243471166930720 -0.0181916126747622 32.1777326983592786 S
atom 7.2254419091558821 -0.0488027606065054 32.7230857565018596 S
atom 2.1855032473745348 4.9911359011748413 32.7356030104223308 S
atom 7.7980107394893654 4.9554720101215057 32.1777326983592786 S
atom -0.0149459068177718 2.1824540255957445 32.1839913253194609 S
atom 4.9893288639102620 2.7550228559292091 32.7293443834620774 S
atom -0.0506097978710968 7.7949615177105702 32.7418616373825628 S
atom 4.9587177159785147 7.1561176483920175 32.1839913253194609 S
atom 2.5661131738527518 2.4520533782548743 38.1757807444736059 Ba
atom 7.5284113868302391 2.3744129294509890 38.1695221175134023 Ba
atom 2.4884727250488807 7.4143515912323332 38.1820393714337953 Ba
atom 7.5397767966490523 7.4257170010511420 38.1757807444736059 Ba
atom 2.2117877284115095 2.8368188374197314 42.9634671510573511 Ba
atom 7.1436459276653572 2.7287383748922363 42.9572085240971759 Ba
atom 2.1037072658840157 7.7686770366735791 42.9697257780174837 Ba
atom 7.1854513512077975 7.8104824602160212 42.9634671510573511 Ba
atom 4.8931291008326463 5.0475899504652775 40.3534089877485087 Zr
atom 9.9065384374161152 5.0210606252673804 40.3471503607882767 Zr
atom 4.8665997756347421 10.0609992870487375 40.3596676147086413 Zr
atom 9.8667927236289401 10.0212535732615518 40.3534089877485087 Zr
atom 4.8859449826440047 5.0661252289134096 45.4067739528800516 Zr
atom 9.8880031589679991 5.0282447434560193 45.4005153259198551 Zr
atom 4.8480644971866376 10.0681834052373649 45.4130325798403334 Zr
atom 9.8596086054403109 10.0397888517096714 45.4067739528800516 Zr
atom 4.6318586238509720 4.8895861582163533 37.8477469017379633 S
atom 10.0645422296650064 5.2823311022490591 37.8414882747777597 S
atom 5.0246035678836751 10.3222697640303771 37.8540055286980888 S
atom 9.6055222466472578 9.8632497810126303 37.8477469017379633 S
atom 5.1935064526518753 5.3125861693658400 42.9137842839953052 S
atom 9.6415422185155322 4.7206832734481496 42.9075256570350518 S
atom 4.6016035567341795 9.7606219352295032 42.9200429109555373 S
atom 10.1671700754481407 10.2862497921621241 42.9137842839953052 S
atom 4.5776580695279439 2.5635136720463030 40.7300141542234186 S
atom 10.1901655616427878 2.5278497809929790 40.1721438421602670 S
atom 5.1502268998614360 7.5677884427743125 40.1846610960807382 S
atom 9.5513216923242332 7.5371772948425821 40.7300141542234186 S
atom 4.5243541557195277 2.5570844859188022 45.1125648597011590 S
atom 10.3048629184285261 2.5197913047796012 45.7297148313869428 S
atom 5.2649242566471575 7.5597299665609636 45.7422320853072861 S
atom 9.4980177785158002 7.5307481087150610 45.1125648597011590 S
atom 2.3770124312574392 5.4028066955571523 40.7362727811835583 S
atom 7.3863399451070668 4.7639628262385934 40.1784024691205133 S
atom 2.3464012833257053 9.8039014880199407 40.1909197230409134 S
atom 7.3506760540537375 10.3764703183534266 40.7362727811835583 S
atom 2.3834416173849453 5.4561106093655809 45.1188234866614053 S
atom 7.3943984213204415 4.6492654694528781 45.7359734583470541 S
atom 2.3544597595390777 9.6892041312342183 45.7484907122675111 S
atom 7.3571052401812347 10.4297742321618507 45.1188234866613982 S
atom 2.5900984062136394 2.2844982357921579 47.9328898181334253 Ba
atom 7.6959665292929422 2.3504276970901041 47.9266311911731719 Ba
atom 2.6560278675115963 7.3903663588714625 47.9391484450937426 Ba
atom 7.5637620290099266 7.2581618585884273 47.9328898181334253 Ba
atom 2.2326664149576807 2.8417605019783587 52.9343430988241792 Ba
atom 7.1387042631067503 2.7078596883460708 52.9280844718639045 Ba
atom 2.0987656013253937 7.7477983501274146 52.9406017257843047 Ba
atom 7.2063300377539568 7.8154241247746352 52.9343430988241792 Ba
atom 4.8993973857137245 5.0454777853544712 50.4218798141088413 Zr
atom 9.9086506025269490 5.0147923403862960 50.4156211871486377 Zr
atom 4.8687119407455786 10.0547310021676495 50.4281384410690663 Zr
atom 9.8730610085100388 10.0191414081507357 50.4218798141088413 Zr
atom 4.9040014160242356 5.0433258295683325 55.4346206043099556 Zr
atom 9.9108025583130797 5.0101883100757965 55.4283619773497946 Zr
atom 4.8708638965317181 10.0501269718571358 55.4408792312701806 Zr
atom 9.8776650388205578 10.0169894523645873 55.4346206043099556 Zr
atom 4.5638713565456746 4.7872616661316130 47.9241965815658233 S
atom 10.1668667217497664 5.3503183695543512 47.9179379546056694 S
atom 5.1269280599684146 10.3902570313356826 47.9304552085260198 S
atom 9.5375349793419666 9.7609252889278864 47.9241965815658233 S
atom 5.2344734014242533 5.3144580798825753 52.9310557285913603 S
atom 9.6396703079988235 4.6797163246757663 52.9247971016311638 S
atom 4.5997316462174576 9.7196549864571065 52.9373143555516137 S
atom 10.2081370242205338 10.2881217026788399 52.9310557285913603 S
atom 4.5326624676190788 2.5461717858992792 50.7503701353411714 S
atom 10.3031724477226803 2.5108728515025311 50.1023489844210701 S
atom 5.2632337859412948 7.5508115132838736 50.1148662383414774 S
atom 9.5063260904153584 7.5198354086955517 50.7503701353411714 S
atom 4.5388252425115825 2.5417991081661024 55.1101406388101935 S
atom 10.3091162513182670 2.5049138891891949 55.7465833158892607 S
atom 5.2691775895368931 7.5448525509705515 55.7591005698097106 S
atom 9.5124888653078798 7.5154627309623736 55.1101406388102006 S
atom 2.3943543174044728 5.4478022974660201 50.7566287623013679 S
atom 7.4033168745975164 4.6509559401587239 50.1086076113813021 S
atom 2.3633782128161536 9.6908946019400748 50.1211248653017378 S
atom 7.3680179402007502 10.4214659202623015 50.7566287623013679 S
atom 2.3987269951376509 5.4416395225735066 55.1163992657704611 S
atom 7.4092758369108376 4.6450121365631309 55.7528419428495425 S
atom 2.3693371751294787 9.6849507983444916 55.7653591967699356 S
atom 7.3723906179339309 10.4153031453698119 55.1163992657704682 S
atom 2.6016727942945166 2.2712275343620085 57.9348981097958173 Ba
atom 7.7092372307230894 2.3388533090092318 57.9286394828355853 Ba
atom 2.6692985689417403 7.3787919707905774 57.9411567367559783 Ba
atom 7.5753364170908020 7.2448911571582881 57.9348981097958173 Ba
atom 2.2442408030385601 2.8284898005482169 62.9363513904865002 Ba
atom 7.1519749645368940 2.6962853002651923 62.9300927635262326 Ba
atom 2.1120363027555356 7.7362239620465223 62.9426100174466967 Ba
atom 7.2179044258348668 7.8021534233444880 62.9363513904865002 Ba
atom 4.9086054463347573 5.0411738737821894 60.4473613945110628 Zr
atom 9.9129545140992050 5.0055842797652623 60.4411027675508379 Zr
atom 4.8730158523178435 10.0455229415466025 60.4536200214712949 Zr
atom 9.8822690691310502 10.0148374965784601 60.4473613945110699 Zr
atom 4.9220578494044815 5.0205264302232298 65.4624672557398100 Zr
atom 9.9336019576581513 4.9921318766955505 65.4562086287796490 Zr
atom 4.8936632958767969 10.0320705384769351 65.4687258827000278 Zr
atom 9.8957214722007887 9.9941900530195156 65.4624672557398100 Zr
atom 4.5735294306242267 4.7721935792540782 57.9381854800285367 S
atom 10.1819348086273127 5.3406602954758009 57.9319268530684113 S
atom 5.1419961468459512 10.3805989572571349 57.9444441069887972 S
atom 9.5471930534205178 9.7458572020503453 57.9381854800285367 S
atom 5.2441314755028001 5.2993899930050361 62.9450446270541306 S
atom 9.6547383948763450 4.6700582505972221 62.9387860000938986 S
atom 4.6147997330949861 9.7099969123785961 62.9513032540143413 S
atom 10.2177950982990797 10.2730536158013024 62.9450446270541306 S
atom 4.5447690461071852 2.5358401458527751 60.7543749702784126 S
atom 10.3152790262107601 2.5005412114560182 60.1063538193583113 S
atom 5.2753403644294057 7.5404798732373655 60.1188710732788252 S
atom 9.5184326689034702 7.5095037686490649 60.7543749702783984 S
atom 4.5430785754013181 2.5269216925756948 65.1270091233125328 S
atom 10.3235873381103289 2.4896285114364973 65.7441590949982810 S
atom 5.2836486763289603 7.5295671732178562 65.7566763489186172 S
atom 9.5167421981976048 7.5005853153719659 65.1270091233125328 S
atom 2.4046859574509742 5.4356957189779269 60.7606335972386518 S
atom 7.4136485146440050 4.6388493616706388 60.1126124463185079 S
atom 2.3737098528626537 9.6787880234519772 60.1251297002390075 S
atom 7.3783495802472405 10.4093593417741967 60.7606335972386518 S
atom 2.4136044107280505 5.4373861896837754 65.1332677502727933 S
atom 7.4245612146635311 4.6305410497710708 65.7504177219584420 S
atom 2.3846225528821843 9.6704797115524244 65.7629349758788493 S
atom 7.3872680335243510 10.4110498124800355 65.1332677502727933 S
atom 2.6225514808406820 2.2761691989206403 67.9057740575625672 Ba
atom 7.7042955661644736 2.3179746224630633 67.8995154306022499 Ba
atom 2.6643569043831126 7.3579132842444182 67.9120326845227424 Ba
atom 7.5962151036369798 7.2498328217169172 67.9057740575625814 Ba
atom 2.2682260353994432 2.6609346580855027 72.6934604641462698 Ba
atom 7.3195301069995979 2.6723000679043043 72.6872018371861230 Ba
atom 2.2795914452182515 7.7122387296856614 72.6997190911065587 Ba
atom 7.2418896581957295 7.6345982808817769 72.6934604641462698 Ba
atom 4.9148737312158310 5.0390617086713698 70.5158322208715447 Zr
atom 9.9150666792100193 4.9993159948842019 70.5095735939112416 Zr
atom 4.8751280174286720 10.0392546566655625 70.5220908478316346 Zr
atom 9.8885373540121062 10.0127253314676565 70.5158322208715447 Zr
atom 4.6144963793966056 4.7740654897708081 67.9554569246245137 S
atom 10.1800628981105845 5.2996933467034317 67.9491982976643669 S
atom 5.1401242363292257 10.3396320084847435 67.9617155515848737 S
atom 9.5881600021929252 9.7477291125670771 67.9554569246245137 S
atom 5.1761442081975000 5.1970655009202948 73.0214943068819906 S
atom 9.7570628869610800 4.7380455179025178 73.0152356799218722 S
atom 4.7171242251797443 9.7779841796838838 73.0277529338421942 S
atom 10.1498078309938098 10.1707291237165425 73.0214943068819906 S
atom 4.6577759321870458 2.5188632163623259 70.6845801125391091 S
atom 10.2702834243019030 2.4831993253089917 70.1267098004762204 S
atom 5.2303447625205397 7.5231379870903456 70.1392270543966418 S
atom 9.6314395549833449 7.4925268391586055 70.6845801125390949 S
atom 2.4216628869414207 5.3226888328980495 70.6908387394993412 S
atom 7.4309904007910399 4.6838449635795021 70.1329684274365377 S
atom 2.3910517390096770 9.7237836253608627 70.1454856813568455 S
atom 7.3953265097377114 10.2963524556943362 70.6908387394993412 S
