#=======================================================
# FHI-aims file: sym_relax/sym_relax_RP_7_Rx0Rz_0-Ry0.in
# Created using the Atomic Simulation Environment (ASE)
# Mon Mar 17 15:50:28 2025
#=======================================================
lattice_vector 9.9844897343314649 -0.0000000000000000 0.0122811546443411 
lattice_vector -0.0000000000000000 10.0869519294523542 0.0000000000000000 
lattice_vector 0.0932916810670149 0.0000000000000001 75.6282262796233056 
atom -0.1970651451545143 0.0000000000000000 0.1496342371476477 Ba
atom 5.0746691337097332 -0.0000000000000000 0.1536680102393885 Ba
atom 0.0824242665440019 5.0434759647261789 0.1475274329172179 Ba
atom 4.7951797220112056 5.0434759647261789 0.1557748144698184 Ba
atom -0.1017485616004696 0.0000000000000000 4.8447383181040520 Ba
atom 4.8368265985387113 0.0000000000000000 4.8170829450891128 Ba
atom -0.1554182686270043 5.0434759647261789 4.8109423677669412 Ba
atom 4.8904963055652670 5.0434759647261789 4.8508788954262219 Ba
atom 2.4383845173327279 2.5089483546242111 2.2202943044988639 Zr
atom 7.4306293844984479 2.5345276101019696 2.2264348818210364 Zr
atom 2.4383845173327279 7.5780035748281458 2.2202943044988639 Zr
atom 7.4306293844984479 7.5524243193503873 2.2264348818210364 Zr
atom 2.4598359552103508 2.5060469766527165 7.2981030341480606 Zr
atom 7.4520808223760850 2.5374289880734557 7.3042436114702323 Zr
atom 2.4598359552103526 7.5809049527996430 7.2981030341480588 Zr
atom 7.4520808223760850 7.5495229413788980 7.3042436114702358 Zr
atom 2.4485558940588197 2.7476950647160860 -0.2665305882055861 S
atom 7.4408007612245530 2.2957809000100964 -0.2603900108834157 S
atom 2.4485558940588206 7.3392568647362850 -0.2665305882055861 S
atom 7.4408007612245530 7.7911710294422525 -0.2603900108834156 S
atom 2.4602182052208992 2.2291171457810512 4.8002254587968540 S
atom 7.4524630723866183 2.8143588189451267 4.8063660361190355 S
atom 2.4602182052208992 7.8578347836713043 4.8002254587968540 S
atom 7.4524630723866183 7.2725931105072252 4.8063660361190355 S
atom 2.4214553910720085 0.0000000000000000 2.0510540407115987 S
atom 7.4458578124269508 0.0000000000000000 2.5902233489019872 S
atom 2.4536129452612538 5.0434759647261789 2.5840827715798129 S
atom 7.4137002582377365 5.0434759647261789 2.0571946180337686 S
atom 2.9276149926839774 0.0000000000000000 7.5491055315090527 S
atom 7.0438462814308371 0.0000000000000000 7.0854448556133267 S
atom 2.0516014142651060 5.0434759647261789 7.0793042782911471 S
atom 7.9198598598497103 5.0434759647261789 7.5552461088312262 S
atom -0.0543850682635024 2.5450988728480395 2.3423717208646293 S
atom 4.9378597989022159 2.4983770918781429 2.3485122981867943 S
atom -0.0543850682635024 7.5418530566043351 2.3423717208646284 S
atom 4.9378597989022159 7.5885748375742228 2.3485122981867939 S
atom -0.0287120881982936 2.0640694932477501 7.3202097994784410 S
atom 4.9635327789674211 2.9794064714784243 7.3263503768006162 S
atom -0.0287120881982936 8.0228824362046129 7.3202097994784410 S
atom 4.9635327789674211 7.1075454579739370 7.3263503768006144 S
atom -0.0650998327426971 0.0000000000000000 9.8329526757842789 Ba
atom 5.0850361449998811 0.0000000000000000 9.8591139222863458 Ba
atom 0.0927912778341507 5.0434759647261789 9.8529733449641732 Ba
atom 4.9271450344230301 5.0434759647261789 9.8390932531064550 Ba
atom 0.0951770193544729 0.0000000000000000 14.8932498826003332 Ba
atom 4.9400656096876094 0.0000000000000000 14.8891777435159280 Ba
atom -0.0521792574781209 5.0434759647261789 14.8830371661937626 Ba
atom 5.0874218865201923 5.0434759647261789 14.8993904599225022 Ba
atom 2.5062188793372426 2.5247148021624239 12.3545771087070282 Zr
atom 7.4984637465029618 2.5187611625637674 12.3607176860292043 Zr
atom 2.5062188793372426 7.5622371272899374 12.3545771087070282 Zr
atom 7.4984637465029618 7.5681907668886037 12.3607176860292043 Zr
atom 2.5176040706706631 2.5217379823630894 17.4174644977848843 Zr
atom 7.5098489378363960 2.5217379823630894 17.4236050751070870 Zr
atom 2.5176040706706631 7.5652139470892665 17.4174644977848843 Zr
atom 7.5098489378363960 7.5652139470892665 17.4236050751070870 Zr
atom 2.4809704165468367 2.7449836464452018 9.8367223544405658 S
atom 7.4732152837125563 2.2984923182809753 9.8428629317627490 S
atom 2.4809704165468367 7.3419682830071595 9.8367223544405658 S
atom 7.4732152837125563 7.7884596111713860 9.8428629317627472 S
atom 2.5067063582992413 2.3433728998839376 14.8894337162705153 S
atom 7.4989512254649755 2.7001030648422475 14.8955742935927109 S
atom 2.5067063582992413 7.7435790295684290 14.8894337162705117 S
atom 7.4989512254649755 7.3868488646101165 14.8955742935927109 S
atom 2.0512957344256488 0.0000000000000000 12.2057246621263467 S
atom 7.9594606121377307 0.0000000000000000 12.5345174452996524 S
atom 2.9672157449720018 5.0434759647261789 12.5283768679774834 S
atom 7.0435406015913706 5.0434759647261789 12.2118652394485157 S
atom 2.9830625187276332 0.0000000000000000 17.5601113766451320 S
atom 7.0443904897794223 0.0000000000000000 17.2809581962467966 S
atom 2.0521456226136925 5.0434759647261789 17.2748176189246045 S
atom 7.9753073858933510 5.0434759647261789 17.5662519539673241 S
atom 0.0057829293214826 2.9997825009655985 12.3655083451382310 S
atom 4.9980277964872108 2.0436934637605786 12.3716489224604143 S
atom 0.0057829293214826 7.0871694284867717 12.3655083451382346 S
atom 4.9980277964872108 8.0432584656917889 12.3716489224604178 S
atom 0.0214816370877992 2.0367497899605187 17.4143942091238166 S
atom 5.0137265042535244 3.0067261747656611 17.4205347864459767 S
atom 0.0214816370877992 8.0502021394918515 17.4143942091238166 S
atom 5.0137265042535244 7.0802257546867082 17.4205347864459767 S
atom -0.0522137451788739 0.0000000000000000 19.9355385356472610 Ba
atom 5.0873873988194349 0.0000000000000000 19.9518918293760024 Ba
atom 0.0951425316537194 5.0434759647261789 19.9457512520538458 Ba
atom 4.9400311219868582 5.0434759647261789 19.9416791129693856 Ba
atom 0.1080631069182964 0.0000000000000000 24.9958357424633384 Ba
atom 4.9424168635071792 0.0000000000000000 24.9819556506056344 Ba
atom -0.0498280036585513 5.0434759647261789 24.9758150732834672 Ba
atom 5.1003079740840152 5.0434759647261789 25.0019763197854914 Ba
atom 2.5289892620040799 2.5187611625637691 22.4803518868627350 Zr
atom 7.5212341291698079 2.5247148021624248 22.4864924641849200 Zr
atom 2.5289892620040799 7.5681907668886064 22.4803518868627350 Zr
atom 7.5212341291698079 7.5622371272899391 22.4864924641849200 Zr
atom 2.5753721861309651 2.5374289880734566 27.5368259614217123 Zr
atom 7.5676170532966855 2.5060469766527183 27.5429665387438938 Zr
atom 2.5753721861309651 7.5495229413789060 27.5368259614217123 Zr
atom 7.5676170532966855 7.5809049527996430 27.5429665387438938 Zr
atom 2.5285017830420751 2.7001030648422475 19.9454952792992515 S
atom 7.5207466502077978 2.3433728998839376 19.9516358566214329 S
atom 2.5285017830420751 7.3868488646101165 19.9454952792992515 S
atom 7.5207466502077978 7.7435790295684290 19.9516358566214329 S
atom 2.5542377247944859 2.2984923182809753 24.9982066411291619 S
atom 7.5464825919602152 2.7449836464452018 25.0043472184513789 S
atom 2.5542377247944859 7.7884596111713860 24.9982066411291619 S
atom 7.5464825919602152 7.3419682830071578 25.0043472184513789 S
atom 2.0679923963693212 0.0000000000000000 22.3065521275922833 S
atom 7.9761572740814115 0.0000000000000000 22.6353449107655678 S
atom 2.9839124069156751 5.0434759647261789 22.6292043334433686 S
atom 7.0602372635350399 5.0434759647261789 22.3126927049144328 S
atom 2.9836067270762059 0.0000000000000000 27.7556247172786499 S
atom 7.0998380158230683 0.0000000000000000 27.2919640413829434 S
atom 2.1075931486573518 5.0434759647261789 27.2858234640607513 S
atom 7.9758515942419423 5.0434759647261789 27.7617652946007958 S
atom 0.0371803448541159 2.9997825009655976 22.4632800731093454 S
atom 5.0294252120198388 2.0436934637605781 22.4694206504315375 S
atom 0.0371803448541159 7.0871694284867699 22.4632800731093454 S
atom 5.0294252120198388 8.0432584656917889 22.4694206504315375 S
atom 0.0716753623738929 2.0640694932477510 27.5085786187691852 S
atom 5.0639202295396180 2.9794064714784243 27.5147191960913453 S
atom 0.0716753623738929 8.0228824362046129 27.5085786187691852 S
atom 5.0639202295396180 7.1075454579739352 27.5147191960913382 S
atom 0.1447118357760688 0.0000000000000000 29.9840501001435591 Ba
atom 5.1906264099683384 0.0000000000000000 30.0239866278028344 Ba
atom 0.1983815428026026 5.0434759647261789 30.0178460504806885 Ba
atom 5.1369567029417906 5.0434759647261789 29.9901906774657476 Ba
atom 0.2400284193301134 0.0000000000000000 34.6791541810999888 Ba
atom 4.9527838747973032 0.0000000000000000 34.6874015626525676 Ba
atom -0.0394609923684034 5.0434759647261789 34.6812609853303826 Ba
atom 5.2322732864958406 5.0434759647261789 34.6852947584221809 Ba
atom 2.5968236240086009 2.5345276101019683 32.6146346910708971 Zr
atom 7.5890684911743174 2.5089483546242106 32.6207752683931105 Zr
atom 2.5968236240086009 7.5524243193503873 32.6146346910708971 Zr
atom 7.5890684911743165 7.5780035748281458 32.6207752683931105 Zr
atom 2.5749899361204291 2.8143588189451276 30.0347035367729340 S
atom 7.5672348032861452 2.2291171457810530 30.0408441140950977 S
atom 2.5749899361204291 7.2725931105072252 30.0347035367729340 S
atom 7.5672348032861452 7.8578347836713043 30.0408441140950977 S
atom 2.5866522472825006 2.2957809000100964 35.1014595837753518 S
atom 7.5788971144482238 2.7476950647160852 35.1076001610974942 S
atom 2.5866522472825006 7.7911710294422543 35.1014595837753518 S
atom 7.5788971144482238 7.3392568647362850 35.1076001610974942 S
atom 2.5815951960800705 0.0000000000000000 32.2508462239899671 S
atom 7.6059976174350350 0.0000000000000000 32.7900155321803055 S
atom 2.6137527502693163 5.0434759647261789 32.7838749548581347 S
atom 7.5738400632458038 5.0434759647261789 32.2569868013121166 S
atom 0.0973483424391010 2.5450988728480395 32.4864166973830280 S
atom 5.0895932096048258 2.4983770918781429 32.4925572747051916 S
atom 0.0973483424391010 7.5418530566043351 32.4864166973830280 S
atom 5.0895932096048258 7.5885748375742228 32.4925572747051916 S
atom 2.5850415626141574 2.3629629693380223 38.2101319664874737 Ba
atom 7.5772864297798792 2.6805129953881615 38.2162725438096231 Ba
atom 2.5850415626141574 7.7239889601143439 38.2101319664874737 Ba
atom 7.5772864297798774 7.4064389340641990 38.2162725438096231 Ba
atom 2.5793521107421356 2.5420376863812835 42.8938646359359126 Ba
atom 7.5715969779078600 2.5014382783448963 42.9000052132580549 Ba
atom 2.5793521107421356 7.5449142430710765 42.8938646359359126 Ba
atom 7.5715969779078600 7.5855136511074752 42.9000052132580549 Ba
atom 5.0601553248677940 5.0434759647261789 40.2798118290323757 Zr
atom 10.0893436067488995 5.0434759647261789 40.2865526079088951 Zr
atom 5.0970987395831724 10.0869519294523577 40.2804120305867315 Zr
atom 10.0524001920335415 10.0869519294523577 40.2859524063546672 Zr
atom 5.0715854963538840 5.0434759647261789 45.3009025151188922 Zr
atom 10.0656222249971741 5.0434759647261789 45.3072966544219895 Zr
atom 5.0733773578314256 10.0869519294523577 45.3011560770998187 Zr
atom 10.0638303635195925 10.0869519294523577 45.3070430924410061 Zr
atom 5.3713830384932644 5.0434759647261789 37.7929281817315541 S
atom 9.7840114367024871 5.0434759647261789 37.7989325644568908 S
atom 4.7917665695367360 10.0869519294523577 37.7927919871346489 S
atom 10.3636279056589906 10.0869519294523577 37.7990687590537675 S
atom 4.6074180638629008 5.0434759647261789 42.8241522977318212 S
atom 10.5359134003345130 5.0434759647261789 42.8315678484158511 S
atom 5.5436685331688436 10.0869519294523577 42.8254272710936021 S
atom 9.5996629310286039 10.0869519294523577 42.8302928750540559 S
atom 5.0785212458729934 2.5217512007106362 40.4116453692623381 S
atom 10.0707661130387240 2.5217247640155431 40.4177859465845799 S
atom 5.0785212458729934 7.5652007287417176 40.4116453692623381 S
atom 10.0707661130387240 7.5652271654368120 40.4177859465845799 S
atom 5.0724841374960148 2.5217313071366241 45.3166379222053450 S
atom 10.0647290046617535 2.5217446575895517 45.3227784995275442 S
atom 5.0724841374960148 7.5652206223157394 45.3166379222053450 S
atom 10.0647290046617535 7.5652072718628025 45.3227784995275442 S
atom 2.5829039492277261 5.0434759647261789 39.9545551220598156 S
atom 7.5741826951902418 5.0434759647261789 40.7391268468277872 S
atom 2.5819378280245213 10.0869519294523577 40.7329862695056590 S
atom 7.5751488163934431 10.0869519294523577 39.9606956993820432 S
atom 2.5757658702940165 5.0434759647261789 45.7915179767978131 S
atom 7.5692214639275015 5.0434759647261789 44.8251936129914128 S
atom 2.5769765967617890 10.0869519294523577 44.8190530356691923 S
atom 7.5680107374597458 10.0869519294523577 45.7976585541199768 S
atom 2.5732688948082232 2.5190127612846531 47.8040172046373968 Ba
atom 7.5655137619739419 2.5244632034415275 47.8101577819595605 Ba
atom 2.5732688948082232 7.5679391681677108 47.8040172046373968 Ba
atom 7.5655137619739419 7.5624887260108329 47.8101577819595605 Ba
atom 2.5672566234986101 2.5251201452582563 52.7549830038521890 Ba
atom 7.5595014906643474 2.5183558194679265 52.7611235811743313 Ba
atom 2.5672566234986101 7.5618317841941005 52.7549830038521961 Ba
atom 7.5595014906643474 7.5685961099844370 52.7611235811743455 Ba
atom 5.0679585789290531 5.0434759647261789 50.2684224308288918 Zr
atom 10.0570730804265214 5.0434759647261789 50.2746610158464975 Zr
atom 5.0648282132607960 10.0869519294523577 50.2685204385243267 Zr
atom 10.0602034460947767 10.0869519294523577 50.2745630081510129 Zr
atom 5.0603723447870337 5.0434759647261789 55.2346479262576509 Zr
atom 10.0526172119527715 5.0434759647261789 55.2407885035798500 Zr
atom 5.0603723447870337 10.0869519294523577 55.2346479262576509 Zr
atom 10.0526172119527715 10.0869519294523577 55.2407885035798500 Zr
atom 5.5769221221924266 5.0434759647261789 47.7909495536449640 S
atom 9.5541413156078860 5.0434759647261789 47.7959117711370709 S
atom 4.5618964484421571 10.0869519294523577 47.7897711938148717 S
atom 10.5691669893581466 10.0869519294523577 47.7970901309671845 S
atom 4.5555951646606534 5.0434759647261789 52.7522847693090142 S
atom 10.5634310467470520 5.0434759647261789 52.7596772926400419 S
atom 5.5711861795813213 10.0869519294523577 52.7535367153178782 S
atom 9.5478400318263876 10.0869519294523577 52.7584253466311921 S
atom 5.0663668612720958 2.5217387488497236 50.2747594833288218 S
atom 10.0586117284378158 2.5217372158764606 50.2809000606510068 S
atom 5.0663668612720958 7.5652131806026350 50.2747594833288218 S
atom 10.0586117284378158 7.5652147135759025 50.2809000606510068 S
atom 5.0603723447870337 2.5217386727167539 55.2346479262576509 S
atom 10.0526172119527715 2.5217372920094241 55.2407885035798500 S
atom 5.0603723447870337 7.5652132567356061 55.2346479262576509 S
atom 10.0526172119527715 7.5652146374429430 55.2407885035798500 S
atom 2.5708553934769247 5.0434759647261789 49.7756217569844850 S
atom 7.5618948031258855 5.0434759647261789 50.7759170173523273 S
atom 2.5696499359601699 10.0869519294523577 50.7697764400300500 S
atom 7.5631002606426581 10.0869519294523577 49.7817623343065492 S
atom 2.5636402897763322 5.0434759647261789 55.7287294398349644 S
atom 7.5571043997977236 5.0434759647261789 54.7405664126804083 S
atom 2.5648595326320107 10.0869519294523577 54.7344258353581878 S
atom 7.5558851569420575 10.0869519294523577 55.7348700171571210 S
atom 2.5612431989097271 2.5183558194679265 57.7081722713410485 Ba
atom 7.5534880660754453 2.5251201452582563 57.7143128486632193 Ba
atom 2.5612431989097257 7.5685961099844370 57.7081722713410485 Ba
atom 7.5534880660754462 7.5618317841941005 57.7143128486632193 Ba
atom 2.5552309276001148 2.5244632034415257 62.6591380705557626 Ba
atom 7.5474757947658428 2.5190127612846540 62.6652786478779547 Ba
atom 2.5552309276001148 7.5624887260108329 62.6591380705557626 Ba
atom 7.5474757947658428 7.5679391681677091 62.6652786478779547 Ba
atom 5.0527861106450036 5.0434759647261789 60.2008734216864738 Zr
atom 10.0481613434790322 5.0434759647261789 60.2069159913131386 Zr
atom 5.0559164763132642 10.0869519294523577 60.2007754139909323 Zr
atom 10.0450309778107378 10.0869519294523577 60.2070139990086588 Zr
atom 5.0491591932201727 5.0434759647261789 65.1683933373963384 Zr
atom 10.0396121989083635 5.0434759647261789 65.1742803527377248 Zr
atom 5.0473673317426329 10.0869519294523577 65.1681397754155824 Zr
atom 10.0414040603859220 10.0869519294523577 65.1745339147186371 Zr
atom 5.5651495249134069 5.0434759647261789 57.7170110832063656 S
atom 9.5418033771584625 5.0434759647261789 57.7218997145196937 S
atom 4.5495585099927363 10.0869519294523577 57.7157591371974732 S
atom 10.5573943920791269 10.0869519294523577 57.7231516605285577 S
atom 4.5438225673816426 5.0434759647261789 62.6783462988703590 S
atom 10.5510931082976462 5.0434759647261789 62.6856652360226292 S
atom 5.5588482411319218 10.0869519294523577 62.6795246587004939 S
atom 9.5360674345473804 10.0869519294523577 62.6844868761925511 S
atom 5.0543778283019787 2.5217387488497245 60.1945363691865083 S
atom 10.0466226954677005 2.5217372158764597 60.2006769465086862 S
atom 5.0543778283019787 7.5652131806026341 60.1945363691865083 S
atom 10.0466226954677005 7.5652147135758989 60.2006769465086862 S
atom 5.0482605520780517 2.5217313071366259 65.1526579303100277 S
atom 10.0405054192437593 2.5217446575895517 65.1587985076322838 S
atom 5.0482605520780517 7.5652206223157394 65.1526579303100277 S
atom 10.0405054192437593 7.5652072718628043 65.1587985076322838 S
atom 2.5588498864481752 5.0434759647261789 59.6933788351631165 S
atom 7.5498892960971409 5.0434759647261789 60.6936740955308380 S
atom 2.5576444289314204 10.0869519294523577 60.6875335182087667 S
atom 7.5510947536138815 10.0869519294523577 59.6995194124852517 S
atom 2.5515232256465539 5.0434759647261789 65.6441022395240168 S
atom 7.5449788192800415 5.0434759647261789 64.6777778757176520 S
atom 2.5527339521143197 10.0869519294523577 64.6716372983954386 S
atom 7.5437680928122806 10.0869519294523577 65.6502428168461165 S
atom 2.5491477116662007 2.5014382783448954 67.5692906392572041 Ba
atom 7.5413925788319451 2.5420376863812835 67.5754312165794744 Ba
atom 2.5491477116662007 7.5855136511074717 67.5692906392572326 Ba
atom 7.5413925788319451 7.5449142430710747 67.5754312165794744 Ba
atom 2.5434582597941895 2.6805129953881606 72.2530233087057070 Ba
atom 7.5357031269599162 2.3629629693380232 72.2591638860278636 Ba
atom 2.5434582597941899 7.4064389340641990 72.2530233087057354 Ba
atom 7.5357031269599153 7.7239889601143439 72.2591638860278351 Ba
atom 5.0605893647062592 5.0434759647261789 70.1894840234829616 Zr
atom 10.0158908171566363 5.0434759647261789 70.1950243992506131 Zr
atom 5.0236459499908914 10.0869519294523577 70.1888838219285134 Zr
atom 10.0528342318719837 10.0869519294523577 70.1956246008050471 Zr
atom 5.5133266257111684 5.0434759647261789 67.6451435547834024 S
atom 9.5693210235709802 5.0434759647261789 67.6500091587439982 S
atom 4.5770761564052425 10.0869519294523577 67.6438685814219127 S
atom 10.5055714928769230 10.0869519294523577 67.6512841321056584 S
atom 4.7493616510808101 5.0434759647261789 72.6763676707837618 S
atom 10.3212229872030559 5.0434759647261789 72.6826444427031220 S
atom 5.3289781200373003 10.0869519294523577 72.6765038653807807 S
atom 9.7416065182465257 10.0869519294523577 72.6825082481059184 S
atom 5.0422234437010642 2.5217512007106384 70.0576504832527860 S
atom 10.0344683108667887 2.5217247640155431 70.0637910605752410 S
atom 5.0422234437010642 7.5652007287417158 70.0576504832527576 S
atom 10.0344683108667887 7.5652271654368137 70.0637910605752694 S
atom 2.5465619943838185 5.0434759647261789 69.7301690056875003 S
atom 7.5378407403463505 5.0434759647261789 70.5147407304555855 S
atom 2.5455958731806101 10.0869519294523577 70.5086001531333579 S
atom 7.5388068615495403 10.0869519294523577 69.7363095830096000 S
