#=======================================================
# FHI-aims file: sym_relax/sym_relax_RP_3_RxRyMz_RxRy-Mz.in
# Created using the Atomic Simulation Environment (ASE)
# Fri Mar 14 10:24:33 2025
#=======================================================
lattice_vector 10.0277137817496520 -0.0250758442845296 0.0000000000000000 
lattice_vector -0.0250758442845297 10.0277137817496520 0.0000000000000000 
lattice_vector 0.0000000000000000 0.0000000000000000 35.7906184707984849 
atom 0.0572729799065270 -0.1698067400261601 0.2312133267076817 Ba
atom 5.1836636309009894 -0.0698109020487919 0.2312133267076817 Ba
atom 0.1572688178838953 4.9565839109682965 0.2312133267076817 Ba
atom 5.0585919486390960 4.8315122287063961 0.2312133267076817 Ba
atom -0.2433761829410814 0.1831630775977386 4.9862829812936349 Ba
atom 4.8306938132770920 0.2308382607988154 4.9862829812936349 Ba
atom -0.1957009997400044 5.2572330738158914 4.9862829812936349 Ba
atom 4.7579427857914922 5.1844820463302916 4.9862829812936349 Ba
atom 2.4915096168750566 2.4957554063027856 2.3997204076540721 Zr
atom 7.5194204533045985 2.4972714297152443 2.3997204076540721 Zr
atom 2.4930256402875086 7.5236662427323315 2.3997204076540721 Zr
atom 7.4928285856076258 7.4970743750353472 2.3997204076540721 Zr
atom 2.5006594843662810 2.5006594843662771 7.4563788480830189 Zr
atom 7.5145163752411177 2.4881215622240118 7.4563788480830189 Zr
atom 2.4881215622240198 7.5145163752410937 7.4563788480830189 Zr
atom 7.5019784530988449 7.5019784530988343 7.4563788480830189 Zr
atom 2.6265728666608741 2.7192673820382827 -0.1054280243955384 S
atom 7.2959084775691077 2.3622081799294250 -0.1054280243955384 S
atom 2.2695136645520138 7.3886029929465060 -0.1054280243955384 S
atom 7.6278918353934388 7.7205863507708337 -0.1054280243955384 S
atom 2.2487417888230752 2.2046682364350754 4.9536430444819661 S
atom 7.8105076231723247 2.7400392577672221 4.9536430444819661 S
atom 2.7841128101552202 7.7664340707843094 4.9536430444819661 S
atom 7.2500607575556462 7.2059872051676237 4.9536430444819661 S
atom 2.7660368000044597 0.0022096399549593 2.2394296336688178 S
atom 7.2338480247767896 -0.0070586413658597 2.7423013891865931 S
atom 2.2074532117596872 5.0193361716512293 2.7423013891865931 S
atom 7.7673557687370289 5.0035286086875210 2.2394296336688178 S
atom 2.8924202008484698 -0.0086842726857300 7.7534324506513554 S
atom 7.1352935809011928 -0.0163915715988000 7.1593252455146823 S
atom 2.1088987678840985 5.0100032414182936 7.1593252455146823 S
atom 7.8937391695810426 4.9926346960468271 7.7534324506513554 S
atom -0.0147475620972236 2.2478200908703632 2.2394296336688178 S
atom 4.9958396879561606 2.7813278348306048 2.7423013891865931 S
atom -0.0305551250609359 7.8077226478476911 2.7423013891865931 S
atom 4.9865714066353357 7.2491390596029204 2.2394296336688178 S
atom -0.0038536494565342 2.1214366900263557 7.7534324506513554 S
atom 5.0051726181890936 2.8798822787061993 7.1593252455146823 S
atom -0.0212221948279955 7.9062770917232843 7.1593252455146823 S
atom 4.9974653192760359 7.1227556587589120 7.7534324506513554 S
atom 0.2433761829410815 -0.1831630775977386 9.9264747148723895 Ba
atom 5.1970199684725751 -0.2559141050833459 9.9264747148723895 Ba
atom 0.1706251554554742 4.7704807079337481 9.9264747148723895 Ba
atom 5.2446951516736400 4.8181558911348157 9.9264747148723895 Ba
atom -0.0572729799065270 0.1698067400261600 14.6815443694583525 Ba
atom 4.8440501508486769 0.0447350577642617 14.6815443694583525 Ba
atom -0.1823446621684252 5.0711298707813519 14.6815443694583525 Ba
atom 4.9440459888260442 5.1711257087587166 14.6815443694583525 Ba
atom 2.5098093518575126 2.5055635624297672 12.5130372885119598 Zr
atom 7.5096122971776174 2.4789716947327842 12.5130372885119598 Zr
atom 2.4832174841605288 7.5053665077498666 12.5130372885119598 Zr
atom 7.5111283205900827 7.5068825311623195 12.5130372885119598 Zr
atom 2.7525771799094962 2.7966507322974845 9.9591146516840787 S
atom 7.2185251273099036 2.2362038666808002 9.9591146516840787 S
atom 2.1921303142928128 7.2625986796978923 9.9591146516840787 S
atom 7.7538961486420597 7.7979697010300439 9.9591146516840787 S
atom 2.3747461020716920 2.2820515866942728 15.0181857205615739 S
atom 7.7331242729131144 2.6140349445185991 15.0181857205615739 S
atom 2.7067294598960245 7.6404297575356974 15.0181857205615739 S
atom 7.3760650708042537 7.2833705554268349 15.0181857205615739 S
atom 2.7938657569728815 -0.0180172029186703 12.1704563069794460 S
atom 7.2616769817452074 -0.0272854842394894 12.6733280624972338 S
atom 2.2352821687281041 4.9991093287775916 12.6733280624972338 S
atom 7.7951847257054494 4.9833017658138843 12.1704563069794460 S
atom 0.0054792807764052 2.2199911339019480 12.1704563069794460 S
atom 5.0160665308297929 2.7534988778621905 12.6733280624972338 S
atom -0.0103282821873060 7.7798936908792733 12.6733280624972338 S
atom 5.0067982495089609 7.2213101026345061 12.1704563069794460 S
atom 2.3308527443401221 2.5579324642728034 18.1265225621068993 Ba
atom 7.4572433953345918 2.6579283022501716 18.1265225621068993 Ba
atom 2.4308485823174921 7.6843231152672580 18.1265225621068993 Ba
atom 7.3321717130726904 7.5592514330053593 18.1265225621068993 Ba
atom 2.6838225619640244 2.2572833014251978 22.8815922166929049 Ba
atom 7.7578925581821911 2.3049584846262725 22.8815922166929049 Ba
atom 2.7314977451650968 7.3313532976433562 22.8815922166929049 Ba
atom 7.6851415306965878 7.2586022701577599 22.8815922166929049 Ba
atom 4.9964148906690724 4.9921691012413243 20.2950296430533150 Zr
atom 10.0243257270986188 4.9936851246537781 20.2950296430533150 Zr
atom 4.9979309140815396 10.0200799376708769 20.2950296430533150 Zr
atom 9.9977338594016381 9.9934880699738837 20.2950296430533150 Zr
atom 5.0013189687325621 5.0013189687325541 25.3516880834822764 Zr
atom 10.0151758596074156 4.9887810465902929 25.3516880834822764 Zr
atom 4.9887810465903026 10.0151758596073641 25.3516880834822764 Zr
atom 10.0026379374651242 10.0026379374651082 25.3516880834822764 Zr
atom 5.2199268664045668 5.1272323510271471 17.7898812110037241 S
atom 9.8892624773128084 4.7701731489182926 17.7898812110037241 S
atom 4.8628676642957052 9.7965679619353789 17.7898812110037241 S
atom 10.2212458351371200 10.1285513197596888 17.7898812110037241 S
atom 4.7053277208013551 4.7494012731893429 22.8489522798812246 S
atom 10.2670935551506144 5.2847722945214990 22.8489522798812246 S
atom 5.2406987421335121 10.3111671075385658 22.8489522798812246 S
atom 9.7066466895339474 9.7507202419218935 22.8489522798812246 S
atom 4.7484795752366482 2.4859119222690542 20.1347388690680766 S
atom 10.3083821322139908 2.4701043593053473 20.6376106245858040 S
atom 5.2819873191969018 7.4964991723224239 20.6376106245858040 S
atom 9.7497985439692165 7.4872308910016070 20.1347388690680766 S
atom 4.6220961743926434 2.4968058349097393 25.6487416860506379 S
atom 10.4069365760895742 2.4794372895382826 25.0546344809139043 S
atom 5.3805417630724861 7.5058321025553667 25.0546344809139043 S
atom 9.6234151431252357 7.4981248036423063 25.6487416860506379 S
atom 2.5028691243212462 5.2666962843707283 20.1347388690680766 S
atom 7.5199956560175263 4.7081126961259558 20.6376106245858040 S
atom 2.4936008430004195 9.7345075091430395 20.6376106245858040 S
atom 7.5041880930538118 10.2680152531033055 20.1347388690680766 S
atom 2.4919752116805580 5.3930796852147402 25.6487416860506379 S
atom 7.5106627257845844 4.6095582522503715 25.0546344809139043 S
atom 2.4842679127674825 9.6359530652674437 25.0546344809139043 S
atom 7.4932941804131135 10.3943986539472828 25.6487416860506379 S
atom 2.3174964067685453 2.7440356673073589 27.8217839502716551 Ba
atom 7.2711401923000460 2.6712846398217547 27.8217839502716551 Ba
atom 2.2447453792829384 7.6976794528388321 27.8217839502716551 Ba
atom 7.3188153755011021 7.7453546360399077 27.8217839502716551 Ba
atom 2.6704662243924422 2.4433865044597534 32.5768536048576323 Ba
atom 7.5717893551476401 2.3183148221978502 32.5768536048576323 Ba
atom 2.5453945421305466 7.3447096352149366 32.5768536048576323 Ba
atom 7.6717851931250065 7.4447054731923075 32.5768536048576323 Ba
atom 5.0062230467960571 5.0104688362237910 30.4083465239112130 Zr
atom 10.0060259921161734 4.9838769685267987 30.4083465239112130 Zr
atom 4.9796311790990764 10.0102717815438673 30.4083465239112130 Zr
atom 10.0075420155286405 10.0117878049563434 30.4083465239112130 Zr
atom 5.2973102166637771 5.2532366642757662 27.8544238870833105 S
atom 9.7632581640641884 4.6927897986590779 27.8544238870833105 S
atom 4.7368633510470870 9.7191846116761962 27.8544238870833105 S
atom 10.2986291853963348 10.2545556330083389 27.8544238870833105 S
atom 4.7827110710605618 4.8754055864379557 32.9134949559608287 S
atom 10.1410892419020016 5.2073889442622985 32.9134949559608287 S
atom 5.1146944288849010 10.2337837572793759 32.9134949559608287 S
atom 9.7840300397931248 9.8767245551705347 32.9134949559608287 S
atom 4.7206506182682366 2.5061387651426781 30.0657655423787276 S
atom 10.2805531752455810 2.4903312021789712 30.5686372978964513 S
atom 5.2541583622284822 7.5167260151960642 30.5686372978964513 S
atom 9.7219695870008067 7.5074577338752357 30.0657655423787276 S
atom 2.4826422814476174 5.2945252413391497 30.0657655423787276 S
atom 7.4997688131438842 4.7359416530943763 30.5686372978964513 S
atom 2.4733740001267988 9.7623364661114476 30.5686372978964513 S
atom 7.4839612501801724 10.2958442100717029 30.0657655423787276 S
