#=======================================================
# FHI-aims file: sym_relax/sym_relax_RP_5_RxRyRz_RxRy-Rz.in
# Created using the Atomic Simulation Environment (ASE)
# Fri Mar 14 10:55:36 2025
#=======================================================
lattice_vector 9.9835267385781243 0.0035270631526167 0.0000000000000000 
lattice_vector 0.0035270631526166 9.9835267385781492 -0.0000000000000000 
lattice_vector 0.0000000000000000 -0.0000000000000000 56.2263492933504807 
atom 0.0163539055301035 -0.1190757155751480 0.2147957789200952 Ba
atom 5.1108390848642031 -0.0145903739537949 0.2147957789200952 Ba
atom 0.1208392471514560 4.9754094637589787 0.2147957789200952 Ba
atom 5.0098808063954641 4.8744511852902370 0.2147957789200952 Ba
atom -0.2546225735658137 0.1962093516673226 5.0076362619753843 Ba
atom 4.7955540176217299 0.2563861051421230 5.0076362619753843 Ba
atom -0.1944458200910138 5.2463859428548894 5.0076362619753843 Ba
atom 4.7389043272995535 5.1897362525327058 5.0076362619753843 Ba
atom 2.4588886544071413 2.5270623000269619 2.3941783293993470 Zr
atom 7.4582279701274707 2.5364017780345471 2.3941783293993470 Zr
atom 2.4682281324147199 7.5264016157473090 2.3941783293993470 Zr
atom 7.4524155552725082 7.5205892008923430 2.3941783293993470 Zr
atom 2.4193305776376475 2.5398574252045214 7.4769213440786046 Zr
atom 7.4454328449499130 2.5759598548040383 7.4769213440786046 Zr
atom 2.4554330072371595 7.5659596925168104 7.4769213440786046 Zr
atom 7.4128574785030166 7.5333843260699140 7.4769213440786046 Zr
atom 2.5853702933609362 2.7254025347375430 -0.1158871669414999 S
atom 7.2598877354168954 2.4099201390807408 -0.1158871669414999 S
atom 2.2698878977041383 7.3999199767935062 -0.1158871669414999 S
atom 7.5788971942263066 7.7189294356029343 -0.1158871669414999 S
atom 2.2481099397440087 2.2942070176480471 4.9674528077178115 S
atom 7.6910832525063793 2.7471804926976731 4.9674528077178115 S
atom 2.7010834147936369 7.7371803304104292 4.9674528077178115 S
atom 7.2416368406093774 7.2877339185134264 4.9674528077178115 S
atom 2.7410530716709793 0.0416688912619105 2.2715949862082225 S
atom 7.1472129001771254 0.0465007320006831 2.7178257951794658 S
atom 2.1572130624643697 5.0365005697134473 2.7178257951794658 S
atom 7.7345799725363502 5.0351957921272863 2.2715949862082225 S
atom 2.9221995641134528 0.0450603086514254 7.6921289231995793 S
atom 7.0109585922503381 0.0482488151973239 7.2933837949269753 S
atom 2.0209587545375860 5.0382486529100889 7.2933837949269753 S
atom 7.9157264649788148 5.0385872095168107 7.6921289231995793 S
atom -0.0399053596856016 2.2507102976180788 2.2715949862082225 S
atom 4.9487897004409902 2.8380773699773139 2.7178257951794658 S
atom -0.0412101372717580 7.8280772076900833 2.7178257951794658 S
atom 4.9536215411797642 7.2442371984834724 2.2715949862082225 S
atom -0.0432967770751163 2.0695638051756249 7.6921289231995793 S
atom 4.9470416172443592 2.9743316779041007 7.2933837949269753 S
atom -0.0429582204683999 7.9643315156168644 7.2933837949269753 S
atom 4.9502301237902460 7.0630907060410095 7.6921289231995793 S
atom -0.0233431928307843 -0.0690909290103886 10.0237596209679474 Ba
atom 5.0608542982994447 0.0251067244070926 10.0237596209679474 Ba
atom 0.0708544605866966 5.0151065621198585 10.0237596209679474 Ba
atom 4.9701837080345967 4.9244359718549910 10.0237596209679474 Ba
atom 0.0233431928307843 0.0690909290103886 15.0772891707064041 Ba
atom 4.9226724402786619 -0.0215796612544762 15.0772891707064041 Ba
atom -0.0673273974340805 4.9684201764582978 15.0772891707064041 Ba
atom 5.0168700936961486 5.0626178298757720 15.0772891707064041 Ba
atom 2.4967634504326797 2.4967634504326890 12.5505243958371775 Zr
atom 7.4885268197217387 2.4985269820090030 12.5505243958371775 Zr
atom 2.4985269820089910 7.4885268197217743 12.5505243958371775 Zr
atom 7.4902903512980483 7.4902903512980794 12.5505243958371775 Zr
atom 2.5741963232277181 2.4536694756608619 17.6241274475957894 Zr
atom 7.5316207944935707 2.4210941092139606 17.6241274475957894 Zr
atom 2.5416209567808186 7.4110939469267363 17.6241274475957894 Zr
atom 7.5677232240930827 7.4471963765262403 17.6241274475957894 Zr
atom 2.6202798711544952 2.6811899675414055 10.0173629609838368 S
atom 7.3041003026130227 2.3750105612871830 10.0173629609838368 S
atom 2.3141004649002785 7.3650103989999502 10.0173629609838368 S
atom 7.6138067720198697 7.6747168684067937 10.0173629609838368 S
atom 2.3732470297108690 2.3123369333239792 15.0836858306904951 S
atom 7.6729533368304557 2.6220434027308177 15.0836858306904951 S
atom 2.6829534991177058 7.6120432404435894 15.0836858306904951 S
atom 7.3667739305762225 7.3058638341893669 15.0836858306904951 S
atom 2.0220331971229313 0.0005916438208886 12.4402255701095168 S
atom 7.9614935414551917 0.0029354193317286 12.6608232215648595 S
atom 2.9714937037424392 4.9929352570444916 12.6608232215648595 S
atom 7.0155600979882884 4.9941185446862724 12.4402255701095168 S
atom 2.9725681463277831 -0.0447217520447076 17.8076649967473841 S
atom 7.0613271744646697 -0.0415332454988090 17.4089198684747792 S
atom 2.0713273367519225 4.9484665922139612 17.4089198684747792 S
atom 7.9660950471931518 4.9488051488206812 17.8076649967473841 S
atom 0.0011718877554199 2.9697301721661447 12.4402255701095168 S
atom 4.9923550131099548 2.0237967286992378 12.6608232215648595 S
atom 0.0023551753971960 7.0137965664120010 12.6608232215648595 S
atom 4.9946987886207843 7.9632570730315253 12.4402255701095168 S
atom 0.0464852836210154 2.0191952229612866 17.8076649967473841 S
atom 5.0368236779404869 2.9239630956897678 17.4089198684747792 S
atom 0.0468238402277329 7.9139629334025328 17.4089198684747792 S
atom 5.0400121844863754 7.0127221238266753 17.8076649967473841 S
atom 0.2546225735658137 -0.1962093516673226 20.0934125296989876 Ba
atom 5.1879727209563793 -0.2528590419895065 20.0934125296989876 Ba
atom 0.1979728832436300 4.7371407957232590 20.0934125296989876 Ba
atom 5.2481494744311821 4.7973175491980564 20.0934125296989876 Ba
atom -0.0163539055301035 0.1190757155751480 24.8862530127542279 Ba
atom 4.8726876537139052 0.0181174371064113 24.8862530127542279 Ba
atom -0.1173121839988396 5.0081172748191776 24.8862530127542279 Ba
atom 4.9771729953352652 5.1126026164405305 24.8862530127542279 Ba
atom 2.5346382464582273 2.4664646008384210 22.7068704622749848 Zr
atom 7.5188256693160147 2.4606521859834531 22.7068704622749848 Zr
atom 2.5288258316032652 7.4506520236962297 22.7068704622749848 Zr
atom 7.5281651473235831 7.4599915017038123 22.7068704622749848 Zr
atom 2.7454169611213564 2.6993198832173384 20.1335959839565071 S
atom 7.2859703869371018 2.2498734713203277 20.1335959839565071 S
atom 2.2959705492243452 7.2398733090330945 20.1335959839565071 S
atom 7.7389438619867210 7.6928467840827226 20.1335959839565071 S
atom 2.4081566075044210 2.2681243661278381 25.2169359586158564 S
atom 7.7171659040265919 2.5871338249372582 25.2169359586158564 S
atom 2.7271660663138464 7.5771336626500325 25.2169359586158564 S
atom 7.4016835083697927 7.2616512669932201 25.2169359586158564 S
atom 2.8363138384009945 -0.0429736688480668 22.3832229964949398 S
atom 7.2424736669071308 -0.0381418281092932 22.8294538054661302 S
atom 2.2524738291943778 4.9518580096034732 22.8294538054661302 S
atom 7.8298407392663467 4.9505532320173176 22.3832229964949398 S
atom 0.0447372004243742 2.1554495308880690 22.3832229964949398 S
atom 5.0334322605509598 2.7428166032473058 22.8294538054661302 S
atom 0.0434324228382175 7.7328164409600699 22.8294538054661302 S
atom 5.0382641012897365 7.1489764317534572 22.3832229964949398 S
atom 2.3776877348575329 2.5131173559627973 28.3279704255954030 Ba
atom 7.4721729141916446 2.6176026975841467 28.3279704255954030 Ba
atom 2.4821730764788854 7.6076025352969125 28.3279704255954030 Ba
atom 7.3712146357228931 7.5066442568281744 28.3279704255954030 Ba
atom 2.6929728021000043 2.2421408768668694 33.1208109086506539 Ba
atom 7.7431493932875455 2.3023176303416752 33.1208109086506539 Ba
atom 2.7531495555748084 7.2923174680544420 33.1208109086506539 Ba
atom 7.6864997029653850 7.2356677777322691 33.1208109086506539 Ba
atom 5.0238257504596424 4.9556521048398512 30.5073529760746389 Zr
atom 10.0231650661799705 4.9649915828474187 30.5073529760746389 Zr
atom 5.0331652284672170 9.9549914205601837 30.5073529760746389 Zr
atom 10.0173526513250000 9.9491790057052132 30.5073529760746389 Zr
atom 5.0366208756371993 4.9160940280703507 35.5900959907539374 Zr
atom 10.0627231429494604 4.9521964576698601 35.5900959907539374 Zr
atom 5.0727233052367131 9.9421962953826171 35.5900959907539374 Zr
atom 10.0301477765025648 9.9096209289357340 35.5900959907539374 Zr
atom 5.2221659851702169 5.0821337437936451 27.9972874797337923 S
atom 9.8966834272261703 4.7666513481368495 27.9972874797337923 S
atom 4.9066835895134124 9.7566511858496057 27.9972874797337923 S
atom 10.2156928860355531 10.0756606446590418 27.9972874797337923 S
atom 4.7909704680807268 4.7448733901767133 33.0806274543930456 S
atom 10.2339437808430844 5.1978468652263370 33.0806274543930456 S
atom 5.2439439431303514 10.1878467029391082 33.0806274543930456 S
atom 9.7844973689460968 9.7384002910421170 33.0806274543930456 S
atom 4.7474737480507638 2.4568580907470898 30.3847696328835184 S
atom 10.3248406581227226 2.4555533131609333 30.8310004418547159 S
atom 5.3348408204099851 7.4455531508737067 30.8310004418547159 S
atom 9.7410006489161187 7.4503849916124869 30.3847696328835184 S
atom 4.5663272556082948 2.4534666733575770 35.8053035698748943 S
atom 10.4610949660495081 2.4538052299642921 35.4065584416022858 S
atom 5.4710951283367617 7.4438050676770722 35.4065584416022858 S
atom 9.5598541564736568 7.4469935742229598 35.8053035698748943 S
atom 2.5384323416945889 5.2378165221036852 30.3847696328835184 S
atom 7.5332640201461132 4.6539765128970743 30.8310004418547159 S
atom 2.5432641824333659 9.6439763506098721 30.8310004418547159 S
atom 7.5319592425599531 10.2313434229690809 30.3847696328835184 S
atom 2.5418237590841080 5.4189630145461427 35.8053035698748943 S
atom 7.5350121033427451 4.5177222049702950 35.4065584416022858 S
atom 2.5450122656300094 9.5077220426830333 35.4065584416022858 S
atom 7.5353506599494651 10.4124899154115393 35.8053035698748943 S
atom 2.4276725214222967 2.4734202576019038 38.1369342676432197 Ba
atom 7.5118700125525271 2.5676179110193873 38.1369342676432197 Ba
atom 2.5218701748397780 7.5576177487321656 38.1369342676432197 Ba
atom 7.4211994222876632 7.4669471584673008 38.1369342676432197 Ba
atom 2.5658543794430710 2.5201066432634804 43.1904638173816977 Ba
atom 7.4651836268909726 2.4294360529986103 43.1904638173816977 Ba
atom 2.4751837891782067 7.4194358907113740 43.1904638173816977 Ba
atom 7.5593812803084433 7.5136335441288509 43.1904638173816977 Ba
atom 4.9935269008653593 4.9935269008653780 40.6636990425124765 Zr
atom 9.9852902701544224 4.9952904324416867 40.6636990425124765 Zr
atom 4.9952904324416796 9.9852902701544579 40.6636990425124765 Zr
atom 9.9870538017307187 9.9870538017307560 40.6636990425124765 Zr
atom 4.9504329260935265 5.0709597736604257 45.7373020942710440 Zr
atom 9.9078573973594004 5.0383844072135222 45.7373020942710440 Zr
atom 4.9178575596466425 10.0283842449262899 45.7373020942710440 Zr
atom 9.9439598269588938 10.0644866745258028 45.7373020942710440 Zr
atom 5.1779534179740763 5.1170433215871993 38.1305376076591216 S
atom 9.8617738494325948 4.8108639153329795 38.1305376076591216 S
atom 4.8717740117198574 9.8008637530457463 38.1305376076591216 S
atom 10.1714803188394427 10.1105702224525782 38.1305376076591216 S
atom 4.8091003837566557 4.8700104801435735 43.1968604773657887 S
atom 10.1088066908762428 5.1797169495504098 43.1968604773657887 S
atom 5.1188068531634903 10.1697167872631695 43.1968604773657887 S
atom 9.8026272846220284 9.8635373810089533 43.1968604773657887 S
atom 5.4664936225988123 2.4979353381881180 40.5534002167847660 S
atom 9.5105600168446536 2.4991186258298876 40.7739978682401656 S
atom 4.5205601791319063 7.4891184635426633 40.7739978682401656 S
atom 10.4600205234642036 7.4914622390534991 40.5534002167847660 S
atom 4.5159586733939641 2.5432487340537122 45.9208396434226955 S
atom 10.4107263838351880 2.5435872906604264 45.5220945151499734 S
atom 5.4207265461224390 7.5335871283732025 45.5220945151499734 S
atom 9.5094855742593154 7.5367756349190858 45.9208396434226955 S
atom 2.4973550942535696 4.5187966475556145 40.5534002167847660 S
atom 7.4896987074771646 5.4682571541751530 40.7739978682401656 S
atom 2.4996988697644125 10.4582569918879145 40.7739978682401656 S
atom 7.4908819951189463 9.5123235484209978 40.5534002167847660 S
atom 2.4520416983879749 5.4693315967604823 45.9208396434226955 S
atom 7.4452300426466218 4.5680907871846168 45.5220945151499734 S
atom 2.4552302049338754 9.5580906248973889 45.5220945151499734 S
atom 7.4455685992533454 10.4628584976258736 45.9208396434226955 S
atom 2.3005540987653585 2.7513860239985117 48.2065871763742635 Ba
atom 7.2339042461559258 2.6947363336763246 48.2065871763742635 Ba
atom 2.2439044084431776 7.6847361713890905 48.2065871763742635 Ba
atom 7.2940809996307223 7.7449129248638862 48.2065871763742635 Ba
atom 2.6158391660078291 2.4804095449025887 52.9994276594295997 Ba
atom 7.5048807252518372 2.3794512664338514 52.9994276594295997 Ba
atom 2.5148808875390971 7.3694511041466280 52.9994276594295997 Ba
atom 7.6093660668731911 7.4739364457679800 52.9994276594295997 Ba
atom 4.9632280512711020 5.0314016968909225 50.8200451089502181 Zr
atom 9.9474154741288618 5.0255892820359653 50.8200451089502181 Zr
atom 4.9574156364161306 10.0155891197487357 50.8200451089502181 Zr
atom 9.9567549521364551 10.0249285977563201 50.8200451089502181 Zr
atom 5.1960833336500061 5.2421804115540551 48.2467706306318078 S
atom 9.7366367594657586 4.7927339996570453 48.2467706306318078 S
atom 4.7466369217530096 9.7827338373698272 48.2467706306318078 S
atom 10.1896102345153707 10.2357073124194375 48.2467706306318078 S
atom 4.7648878165605222 4.9049200579371233 53.3301106052912033 S
atom 10.0738971130826762 5.2239295167465460 53.3301106052912033 S
atom 5.0838972753699210 10.2139293544593208 53.3301106052912033 S
atom 9.7584147174259002 9.8984469588025181 53.3301106052912033 S
atom 4.6522129813207602 2.5415006508570666 50.4963976431700772 S
atom 10.2295798913927207 2.5401958732709047 50.9426284521414203 S
atom 5.2395800536799735 7.5301957109836746 50.9426284521414203 S
atom 9.6457398821861240 7.5350275517224494 50.4963976431700772 S
atom 2.4537897815846179 5.3330772888336977 50.4963976431700772 S
atom 7.4486214600361427 4.7492372796270832 50.9426284521414203 S
atom 2.4586216223233928 9.7392371173398491 50.9426284521414203 S
atom 7.4473166824499915 10.3266041896990686 50.4963976431700772 S
