#=======================================================
# FHI-aims file: sym_relax/sym_relax_RP_7_RxRyRz_-RxRy0.in
# Created using the Atomic Simulation Environment (ASE)
# Mon Mar 17 15:58:14 2025
#=======================================================
lattice_vector 9.9896251426139138 -0.0332090593285109 -0.0059608165233205 
lattice_vector -0.0332090593285105 9.9896251426139191 0.0059608165233205 
lattice_vector -0.0447035313442020 0.0447035313442023 76.2706052999376425 
atom 0.0447232698899284 -0.0930831003304359 0.1498140709913593 Ba
atom 5.0878956716373969 -0.0613277995541841 0.1468336627296988 Ba
atom 0.0764785706661806 4.9500893014170328 0.1527944792530193 Ba
atom 5.0229313115326448 4.8851249413122684 0.1498140709913590 Ba
atom -0.3030320414912888 0.2317902712987856 4.9512139785386138 Ba
atom 4.7630223000081680 0.2864275118270325 4.9482335702769529 Ba
atom -0.2483948009630406 5.2978446127982615 4.9541943868002791 Ba
atom 4.6751760001514198 5.2099983129415151 4.9512139785386156 Ba
atom 2.4419660451164420 2.5453333354966605 2.3304143113469462 Zr
atom 7.4276872774530096 2.5196374668620214 2.3274339030852822 Zr
atom 2.4162701764818020 7.5310545678332490 2.3333947196086045 Zr
atom 7.4201740867591486 7.5235413771393729 2.3304143113469462 Zr
atom 2.3865240696242642 2.5539104901298706 7.4066412488461273 Zr
atom 7.4191101228198244 2.5750794423541921 7.4036608405844690 Zr
atom 2.4076930218485719 7.5864965433254090 7.4096216571077802 Zr
atom 7.3647321112669646 7.5321185317726025 7.4066412488461246 Zr
atom 2.5973419475940380 2.7874722437835220 -0.1778345411560859 S
atom 7.1855483691661499 2.3642615643844227 -0.1808149494177460 S
atom 2.1741312681949254 7.3756786653556414 -0.1748541328944253 S
atom 7.5755499892367464 7.7656802854262326 -0.1778345411560859 S
atom 2.2064949236672278 2.2962027427945162 4.9026159019683764 S
atom 7.6768178701551548 2.7551085883112409 4.8996354937067084 S
atom 2.6654007691839312 7.7665256892824637 4.9055963102300222 S
atom 7.1847029653099197 7.2744107844372445 4.9026159019683764 S
atom 2.7174097124135415 0.0557461457425852 2.1832201158946503 S
atom 7.1060811849187795 0.0416938024213646 2.6842931751365660 S
atom 2.0946640839475692 5.0531109033925823 2.6902539916598873 S
atom 7.6956177540562658 5.0339541873853006 2.1832201158946503 S
atom 2.8982110858973531 0.0606224881329342 7.6384941558806556 S
atom 6.9964588675420245 0.0449322356562883 7.2151023401029315 S
atom 1.9850417665708067 5.0563493366275027 7.2210631566262515 S
atom 7.8764191275400739 5.0388305297756464 7.6384941558806556 S
atom -0.0723506754068402 2.2774028588934176 2.1862005241563076 S
atom 4.9199097095570865 2.8669394280308840 2.6872735833982246 S
atom -0.0915073914141314 7.8783565290021045 2.6932343999215491 S
atom 4.9058573662358649 7.2556109005361273 2.1862005241563085 S
atom -0.0772270177971891 2.0966014854096051 7.6414745641423156 S
atom 4.9166712763221740 2.9765617454076492 7.2180827483645995 S
atom -0.0947458246490547 7.9879788463788746 7.2240435648879320 S
atom 4.9009810238455209 7.0748095270523086 7.6414745641423201 S
atom -0.0051685160846715 -0.0661148638315549 9.9572696198855937 Ba
atom 5.0609274351385176 -0.0114360135795842 9.9542892116239354 Ba
atom 0.0495103341672998 4.9999810873916442 9.9602500281472519 Ba
atom 4.9730395255580264 4.9120931778111601 9.9572696198855901 Ba
atom 0.0531016708169691 0.0218461422742723 15.0232613489982434 Ba
atom 4.9729664290326960 -0.0697062004812246 15.0202809407365798 Ba
atom -0.0384506719385272 4.9417109004900048 15.0262417572598910 Ba
atom 5.0313097124596808 5.0000541839169950 15.0232613489982434 Ba
atom 2.4894915753854194 2.5023030086711326 12.4786316276716942 Zr
atom 7.4707176042785433 2.4721119365930408 12.4756512194100182 Zr
atom 2.4593005033073330 7.4835290375642609 12.4816120359333507 Zr
atom 7.4676996170281287 7.4805110503138419 12.4786316276716942 Zr
atom 2.4788104445249912 2.4993975971177185 17.5623104309067166 Zr
atom 7.4736230158319623 2.4827930674534628 17.5593300226450388 Zr
atom 2.4622059148607391 7.4942101684246900 17.5652908391683660 Zr
atom 7.4570184861677014 7.4776056387604317 17.5623104309067166 Zr
atom 2.5731142215874909 2.6997905676158838 9.9515840978929422 S
atom 7.2732300453337890 2.3884892903909596 9.9486036896312715 S
atom 2.2618129443625761 7.3999063913621992 9.9545645061545915 S
atom 7.5513222632301842 7.6779986092585917 9.9515840978929386 S
atom 2.3969798651623750 2.4492008105977523 15.0234709574874046 S
atom 7.5238198023519089 2.5646236468160981 15.0204905492257410 S
atom 2.5124027013807031 7.5760407477873244 15.0264513657490557 S
atom 7.3751879068050625 7.4274088522404869 15.0234709574874046 S
atom 2.0141128663772108 0.0071137787215231 12.4102597293522425 S
atom 7.9923047276979657 -0.0078869313495840 12.5649481592587602 S
atom 2.9808876267267332 5.0035301696216328 12.5709089757820927 S
atom 6.9923209080199173 4.9853218203642520 12.4102597293522425 S
atom 2.9907826900567560 0.0022972067708475 17.6017890011350815 S
atom 6.9782552999644576 -0.0149191135066339 17.5168710441550388 S
atom 1.9668381989932191 4.9964979874646058 17.5228318606783411 S
atom 7.9689907316994724 4.9805052484135661 17.6017890011350815 S
atom -0.0237183083857781 2.9806997049297550 12.4132401376138990 S
atom 4.9694904433280378 1.9807158852517284 12.5679285675204344 S
atom -0.0419266576431829 6.9921329862229511 12.5738893840437829 S
atom 4.9544897332569340 7.9589077465724651 12.4132401376138954 S
atom -0.0189017364351022 2.0040298812502049 17.6047694093967380 S
atom 4.9765226254850949 2.9947653129852325 17.5198514524167130 S
atom -0.0348944754861324 8.0061824139564468 17.5258122689400011 S
atom 4.9593063052076154 6.9822379228929146 17.6047694093967380 S
atom -0.0736888234096938 -0.0012589896815473 20.1013595128152076 Ba
atom 4.9960715609885193 0.0570842937454386 20.0983791045535085 Ba
atom -0.0153455399827075 5.0685013947166633 20.1043399210768676 Ba
atom 4.9045192182330268 4.9769490519611690 20.1013595128152076 Ba
atom -0.0154186365080533 0.0867020164242798 25.1673512419278289 Ba
atom 4.9081105548826809 -0.0011858931562023 25.1643708336661795 Ba
atom -0.1033065460885345 5.0102312078150142 25.1703316501894996 Ba
atom 4.9627894051346564 5.0649100580669790 25.1673512419278289 Ba
atom 2.4681293136645723 2.4964921855643105 22.6459892341417302 Zr
atom 7.4765284273853636 2.4934741983138937 22.6430088258800524 Zr
atom 2.4651113264141462 7.5048912992851253 22.6489696424033760 Zr
atom 7.4463373553072820 7.4747002272070198 22.6459892341417337 Zr
atom 2.5710968194257289 2.4448847041055632 27.7179796129673193 Zr
atom 7.5281359088441180 2.3905066925527345 27.7149992047056841 Zr
atom 2.5167188078729033 7.4019237935239710 27.7209600212290077 Zr
atom 7.5493048610684355 7.4230927457482796 27.7179796129673193 Zr
atom 2.5606410238876203 2.5495943836376869 20.1011499043260500 S
atom 7.4234262293120041 2.4009624880908378 20.0981694960643651 S
atom 2.4120091283407685 7.4123795890620521 20.1041303125876780 S
atom 7.5388490655303295 7.5278024252803890 20.1011499043260393 S
atom 2.3845066674624893 2.2990046266195576 25.1730367639204715 S
atom 7.6740159863301241 2.5770968445159737 25.1700563556588222 S
atom 2.6625988853589035 7.5885139454871782 25.1760171721821528 S
atom 7.3627147091052301 7.2772126682622771 25.1730367639204715 S
atom 1.9767332623232636 -0.0047349753862020 22.5537118860313974 S
atom 7.9549251236440170 -0.0197356854573097 22.7084003159378298 S
atom 2.9435080226727770 4.9916814155139164 22.7143611324611854 S
atom 6.9549413039659775 4.9734730662565072 22.5537118860313974 S
atom 2.9725791224791789 -0.0575541423920749 27.9035577051871932 S
atom 7.0708269041238223 -0.0732443948687205 27.4801658894094842 S
atom 2.0594098031526236 4.9381727061025105 27.4861267059327616 S
atom 7.9507871641218868 4.9206538992506417 27.9035577051871932 S
atom -0.0118695542780526 3.0180793089837068 22.5566922942930397 S
atom 4.9813391974357666 2.0180954893056833 22.7113807241995360 S
atom -0.0300779035354575 7.0295125902769131 22.7173415407228454 S
atom 4.9663384873646539 7.9962873506264218 22.5566922942930361 S
atom 0.0409496127278192 2.0222334488277873 27.9065381134488533 S
atom 5.0348479068471681 2.9021937088258367 27.4831462976711300 S
atom 0.0234308058759541 7.9136108097970599 27.4891071141944536 S
atom 5.0191576543705185 7.0004414904705099 27.9065381134488568 S
atom 0.2824448888985638 -0.2112031187060606 30.1734068832747901 Ba
atom 5.2060156900130448 -0.2990494185628195 30.1704264750131514 Ba
atom 0.1945985890418065 4.7123676824084031 30.1763872915364750 Ba
atom 5.2606529305412746 4.7670049229366454 30.1734068832747901 Ba
atom -0.0653104224826529 0.1136702529231607 34.9748067908220932 Ba
atom 4.8811423183838087 0.0487058928183977 34.9718263825604296 Ba
atom -0.1302747825874151 5.0601229937896326 34.9777871990837355 Ba
atom 4.9128976191600664 5.0918782945658663 34.9748067908220932 Ba
atom 2.5156548439335471 2.4534618587387769 32.7942065504664768 Zr
atom 7.5195587542109035 2.4459486680449087 32.7912261422047848 Zr
atom 2.5081416532396759 7.4573657690161381 32.7971869587280764 Zr
atom 7.4938628855762701 7.4316699003814701 32.7942065504664768 Zr
atom 2.7511259653827671 2.7025924514409136 30.2220049598450018 S
atom 7.2704281615087494 2.2104775465956976 30.2190245515833169 S
atom 2.2590110605375453 7.2218946475669155 30.2249853681066440 S
atom 7.7293340070254857 7.6808004930836207 30.2220049598450018 S
atom 2.3602789414559471 2.2113229504519185 35.3024554029695139 S
atom 7.7616976624977756 2.6013245705225083 35.2994749947078432 S
atom 2.7502805615265400 7.6127416714937315 35.3054358112312414 S
atom 7.3384869830986528 7.1895309920946175 35.3024554029695139 S
atom 2.8629568051024123 -0.0543157091571505 32.4343668701535606 S
atom 7.2516282776076606 -0.0683680524783716 32.9354399293954714 S
atom 2.2402111766364414 4.9430490484928473 32.9414007459187701 S
atom 7.8411648467451247 4.9238923324855675 32.4343668701535606 S
atom 0.0377111794928959 2.1318557662045543 32.4373472784152170 S
atom 5.0299715644568277 2.7213923353420144 32.9384203376571065 S
atom 0.0185544634856050 7.7328094363132553 32.9443811541804550 S
atom 5.0159192211356016 7.1100638078472604 32.4373472784152170 S
atom 2.6092627675964581 2.4205260479273809 38.4104528772440901 Ba
atom 7.5524945650223039 2.3523407443819928 38.4074724689824620 Ba
atom 2.5410774640510936 7.3637578453532155 38.4134332855057323 Ba
atom 7.5874708092391785 7.3987340895700875 38.4104528772440901 Ba
atom 2.2631354807898894 2.7818509363402821 43.2054133284977695 Ba
atom 7.1911696766093849 2.6984680311885585 43.2024329202360988 Ba
atom 2.1797525756381635 7.7098851321597923 43.2083937367593265 Ba
atom 7.2413435224326159 7.7600589779829949 43.2054133284977837 Ba
atom 4.9422691324544568 5.0078934210455248 40.5937909682918772 Zr
atom 9.9433352335468630 4.9975424211667141 40.5908105600301852 Zr
atom 4.9319181325756203 10.0089595221379444 40.5967713765535478 Zr
atom 9.9204771740971456 9.9861014626882625 40.5937909682918914 Zr
atom 4.9343542843310537 5.0266992159295292 45.6543140474710682 Zr
atom 9.9245294386629084 5.0054572692901038 45.6513336392093976 Zr
atom 4.9131123376916443 10.0168743702613323 45.6572944557327318 Zr
atom 9.9125623259737505 10.0049072575722384 45.6543140474710825 Zr
atom 4.6916202528875086 4.8443123426794719 38.0843469460088642 S
atom 10.1069163119129222 5.2481913007336418 38.0813665377471722 S
atom 5.0954992109416750 10.2596084017048810 38.0873273542705135 S
atom 9.6698282945302090 9.8225203843221998 38.0843469460088500 S
atom 5.2361426452032473 5.2728915491679782 43.1577501563499624 S
atom 9.6783371054244007 4.7036689084178942 43.1547697480882348 S
atom 4.6669200044531784 9.7150860093891520 43.1607305646116117 S
atom 10.2143506868459664 10.2510995908106857 43.1577501563499553 S
atom 4.6176331818014678 2.5290810518717444 40.9673712890810364 S
atom 10.2193950073939561 2.5091072364784384 40.4203685345000920 S
atom 5.2079779064227338 7.5205243374496522 40.4263293510234405 S
atom 9.5958412234442072 7.5072890935144692 40.9673712890810151 S
atom 4.5596092856599624 2.5242070153530429 45.3654207410263268 S
atom 10.3375492725002402 2.5031980827048841 45.9781680512966773 S
atom 5.3261321715290126 7.5146151836761259 45.9841288678199973 S
atom 9.5378173273026832 7.5024150569957628 45.3654207410263339 S
atom 2.4325224601067048 5.3553874311481984 40.9703516973426787 S
atom 7.4307043171427347 4.7318336471984406 40.4233489427617343 S
atom 2.4192872161715075 9.7432507481696540 40.4293097592850117 S
atom 7.4107305017494038 10.3335954727909076 40.9703516973426716 S
atom 2.4373964966254102 5.4134113272897011 45.3684011492880046 S
atom 7.4366134709162477 4.6136793820921405 45.9811484595583124 S
atom 2.4251963699450445 9.6250964830633556 45.9871092760815969 S
atom 7.4156045382681253 10.3916193689324103 45.3684011492880117 S
atom 2.6310132738619032 2.2567007164435999 48.1844745526721994 Ba
atom 7.7163198965060715 2.3305902381165478 48.1814941444106353 Ba
atom 2.7049027955348572 7.3420073390877842 48.1874549609339766 Ba
atom 7.6092213155046151 7.2349087580863092 48.1844745526722136 Ba
atom 2.2765772776572066 2.7939062162137676 53.1931346991159373 Ba
atom 7.1791143967359181 2.6850262343212332 53.1901542908542453 Ba
atom 2.1676972957646830 7.6964433352924573 53.1961151073775511 Ba
atom 7.2547853192999430 7.7721142578564786 53.1931346991159231 Ba
atom 4.9439735190755512 5.0100575490030135 50.6771021165138862 Zr
atom 9.9411711055894170 4.9958380345455939 50.6741217082522795 Zr
atom 4.9297540046181618 10.0072551355168109 50.6800825247756137 Zr
atom 9.9221815607182720 9.9882655906456979 50.6771021165138720 Zr
atom 4.9455626996742481 5.0108533836111757 55.6976130808755769 Zr
atom 9.9403752709812156 4.9942488539469316 55.6946326726138992 Zr
atom 4.9289581700100031 10.0056659549181539 55.7005934891372831 Zr
atom 9.9237707413169414 9.9890614252538992 55.6976130808755769 Zr
atom 4.6179967484886904 4.7493430940850683 48.1755880177932880 S
atom 10.2018855605072964 5.3218148051324734 48.1726076095316316 S
atom 5.1904684595360973 10.3332319061037037 48.1785684260549374 S
atom 9.5962047901313934 9.7275511357278024 48.1755880177932880 S
atom 5.2699233431363206 5.2811135352888785 53.1902526116878818 S
atom 9.6701151193035315 4.6698882104848130 53.1872722034261685 S
atom 4.6586980183322861 9.6813053114560432 53.1932330199495453 S
atom 10.2481313847790627 10.2593215769315531 53.1902526116879102 S
atom 4.5642243618212097 2.5170740221835404 51.0029685615843604 S
atom 10.3326764241379614 2.4972172858703989 50.3669852035038232 S
atom 5.3212593231667213 7.5086343868416332 50.3729460200271646 S
atom 9.5424324034639287 7.4952820638262496 51.0029685615843533 S
atom 4.5675720150172854 2.5154413165779683 55.3785923721335536 S
atom 10.3349704853024331 2.4948483496731644 56.0106729730942519 S
atom 5.3235533843312357 7.5062654506443884 56.0166337896175435 S
atom 9.5457800566599982 7.4936493582206785 55.3785923721335251 S
atom 2.4445294897949177 5.4087962511284386 51.0059489698459814 S
atom 7.4425942677507759 4.6185522304544406 50.3699656117655081 S
atom 2.4311771667795461 9.6299693314256523 50.3759264282888211 S
atom 7.4227375314376234 10.3870042927711612 51.0059489698459672 S
atom 2.4461621954004840 5.4054485979324003 55.3815727803951958 S
atom 7.4449632039480074 4.6162581692899529 56.0136533813559083 S
atom 2.4335461029767869 9.6276752702611894 56.0196141978792426 S
atom 7.4243702370431990 10.3836566395751078 55.3815727803952029 S
atom 2.6363400800485737 2.2495925093658791 58.2020914626353445 Ba
atom 7.7234281035838048 2.3252634319298955 58.1991110543735601 Ba
atom 2.7120110026125772 7.3366805329011138 58.2050718708969370 Ba
atom 7.6145481216912740 7.2278005510086016 58.2020914626353445 Ba
atom 2.2819040838438847 2.7867980091360414 63.2107516090789474 Ba
atom 7.1862226038136425 2.6796994281345810 63.2077712008171986 Ba
atom 2.1748055028424256 7.6911165291057983 63.2137320173405257 Ba
atom 7.2601121254865957 7.7650060507787551 63.2107516090789545 Ba
atom 4.9471518802729326 5.0116492182193433 60.7181240452372393 Zr
atom 9.9395794363730001 4.9926596733482560 60.7151436369755544 Zr
atom 4.9281623354018231 10.0040767743194632 60.7211044534988673 Zr
atom 9.9253599219156570 9.9898572598620881 60.7181240452372322 Zr
atom 4.9567711150174310 4.9950075512928356 65.7409121142800217 Zr
atom 9.9562211032995780 4.9830404386037603 65.7379317060184150 Zr
atom 4.9448040023283433 9.9944575395749737 65.7438925225417705 Zr
atom 9.9349791566601358 9.9732155929355830 65.7409121142800217 Zr
atom 4.6212020562121570 4.7405932319334951 58.2049735500634569 S
atom 10.2106354226588785 5.3186094974090121 58.2019931418017009 S
atom 5.1992183216876766 10.3300265983802504 58.2079539583250209 S
atom 9.5994100978548786 9.7188012735762115 58.2049735500634497 S
atom 5.2731286508597801 5.2723636731372840 63.2196381439579724 S
atom 9.6788649814551473 4.6666829027613863 63.2166577356961881 S
atom 4.6674478804839046 9.6781000037326166 63.2226185522194939 S
atom 10.2513366925025142 10.2505717147799871 63.2196381439579724 S
atom 4.5698660761817793 2.5130723803807338 61.0222801417239609 S
atom 10.3383181384985061 2.4932156440675968 60.3862967836434024 S
atom 5.3269010375272785 7.5046327450388119 60.3922576001667792 S
atom 9.5480741178244948 7.4912804220234515 61.0222801417239467 S
atom 4.5649932278194854 2.5070915835462366 65.4110972939312205 S
atom 10.3429332146597410 2.4860826508980871 66.0238446042015568 S
atom 5.3315161136885347 7.4974997518693076 66.0298054207249550 S
atom 9.5432012694621662 7.4852996251889374 65.4110972939312205 S
atom 2.4485311315977181 5.4031545367679028 61.0252605499855960 S
atom 7.4465959095535759 4.6129105160938986 60.3892771919050944 S
atom 2.4351788085823536 9.6243276170651448 60.3952380084284215 S
atom 7.4267391732404313 10.3813625784106236 61.0252605499855960 S
atom 2.4545119284322245 5.4080273851302127 65.4140777021927988 S
atom 7.4537289027230775 4.6082954399326557 66.0268250124632061 S
atom 2.4423118017518597 9.6197125409038975 66.0327858289864764 S
atom 7.4327199700749382 10.3862354267729362 65.4140777021928130 S
atom 2.6497818769158963 2.2616477892393574 68.1898128332533844 Ba
atom 7.7113728237103167 2.3118216350625738 68.1868324249918061 Ba
atom 2.6999557227391047 7.3232387360337921 68.1927932415150480 Ba
atom 7.6279899185586162 7.2398558308820773 68.1898128332533702 Ba
atom 2.3036545901093222 2.6229726776522644 72.9847732845070141 Ba
atom 7.3500479352974111 2.6579489218691372 72.9817928762455068 Ba
atom 2.3386308343261826 7.6693660228403662 72.9877536927686208 Ba
atom 7.2818626317520279 7.6011807192949856 72.9847732845070283 Ba
atom 4.9488562668940359 5.0138133461768231 70.8014351934591133 Zr
atom 9.9374153084155932 4.9909552867271278 70.7984547851974781 Zr
atom 4.9259982074443487 10.0023723876983492 70.8044156017207627 Zr
atom 9.9270643085367496 9.9920213878195465 70.8014351934591133 Zr
atom 4.6549827541452578 4.7488152180543839 68.2374760054012768 S
atom 10.2024134365380217 5.2848287994759460 68.2344955971396558 S
atom 5.1909963355667958 10.2962459004471523 68.2404564136629403 S
atom 9.6331907957879483 9.7270232596971002 68.2374760054012768 S
atom 5.1995051464609876 5.1773944245428760 73.3108792157423181 S
atom 9.7738342300495304 4.7403064071601966 73.3078988074805409 S
atom 4.7624171290783117 9.7517235081314038 73.3138596240039817 S
atom 10.1777131881037146 10.1556024661855862 73.3108792157423181 S
atom 4.6831474929257624 2.5011824297726926 70.9688968107275713 S
atom 10.2849093185182490 2.4812086143793839 70.4218940561469537 S
atom 5.2734922175470187 7.4926257153506066 70.4278548726701388 S
atom 9.6613555345684432 7.4793904714154138 70.9688968107275713 S
atom 2.4604210822057757 5.2898731200239117 70.9718772189892348 S
atom 7.4586029392418070 4.6663193360741602 70.4248744644086315 S
atom 2.4471858382705656 9.6777364370454109 70.4308352809317597 S
atom 7.4386291238484912 10.2680811616666450 70.9718772189892206 S
