#=======================================================
# FHI-aims file: sym_relax/sym_relax_RP_4_00Mz1_00Mz2.in
# Created using the Atomic Simulation Environment (ASE)
# Fri Mar 14 10:26:05 2025
#=======================================================
lattice_vector 9.9373381464013057 -0.0000006352889909 0.0000000000000000 
lattice_vector -0.0000006352889909 9.9373381464013413 0.0000000000000000 
lattice_vector 0.0000000000000000 0.0000000000000000 46.5021921219151437 
atom 0.0000000000000000 0.0000000000000000 0.1903836263532735 Ba
atom 4.9686690732006484 -0.0000003176444956 0.1903836263532735 Ba
atom -0.0000003176444956 4.9686690732006698 0.1903836263532735 Ba
atom 4.9686687555561617 4.9686687555561795 0.1903836263532735 Ba
atom 0.0000000000000000 0.0000000000000000 5.0339593674513097 Ba
atom 4.9686690732006484 -0.0000003176444956 5.0339593674513097 Ba
atom -0.0000003176444956 4.9686690732006698 5.0339593674513097 Ba
atom 4.9686687555561617 4.9686687555561795 5.0339593674513097 Ba
atom 2.4843343777780809 2.4843343777780897 2.4131404736382769 Zr
atom 7.4530034509787368 2.4843340601335968 2.4131404736382769 Zr
atom 2.4843340601335866 7.4530034509787635 2.4131404736382769 Zr
atom 7.4530031333342350 7.4530031333342670 2.4131404736382769 Zr
atom 2.4843343777780809 2.4843343777780897 7.5514887585412929 Zr
atom 7.4530034509787368 2.4843340601335968 7.5514887585412929 Zr
atom 2.4843340601335866 7.4530034509787635 7.5514887585412929 Zr
atom 7.4530031333342350 7.4530031333342670 7.5514887585412929 Zr
atom 2.4843343777780809 2.4843343777780897 -0.1209118991861910 S
atom 7.4530034509787368 2.4843340601335968 -0.1209118991861910 S
atom 2.4843340601335866 7.4530034509787635 -0.1209118991861910 S
atom 7.4530031333342350 7.4530031333342670 -0.1209118991861910 S
atom 2.4843343777780809 2.4843343777780897 5.0114382503729509 S
atom 7.4530034509787368 2.4843340601335968 5.0114382503729509 S
atom 2.4843340601335866 7.4530034509787635 5.0114382503729509 S
atom 7.4530031333342350 7.4530031333342670 5.0114382503729509 S
atom 2.8268086559603214 0.0000023287575957 2.5053224820238418 S
atom 7.1105294904409835 -0.0000029640465869 2.5053224820238418 S
atom 2.1418600995958372 4.9686664267985767 2.5053224820238418 S
atom 7.7954774115164689 4.9686710843137742 2.5053224820238418 S
atom 2.9832373565115309 0.0000002707024297 7.5564173298237849 S
atom 6.9541007898897735 -0.0000009059914209 7.5564173298237849 S
atom 1.9854313990446257 4.9686684848537439 7.5564173298237849 S
atom 7.9519061120676851 4.9686690262586124 7.5564173298237849 S
atom -0.0000026464020913 2.1418604172403439 2.5053224820238418 S
atom 4.9686714019582512 2.8268083383158329 2.5053224820238418 S
atom 0.0000020111131001 7.7954777291609982 2.5053224820238418 S
atom 4.9686661091540554 7.1105291727965199 2.5053224820238418 S
atom -0.0000005883469253 1.9854317166891298 7.5564173298237849 S
atom 4.9686693439030760 2.9832370388670491 7.5564173298237849 S
atom -0.0000000469420660 7.9519064297122108 7.5564173298237849 S
atom 4.9686681672092279 6.9541004722453108 7.5564173298237849 S
atom 0.0000000000000000 0.0000000000000000 10.1091722004163280 Ba
atom 4.9686690732006484 -0.0000003176444956 10.1091722004163280 Ba
atom -0.0000003176444956 4.9686690732006698 10.1091722004163280 Ba
atom 4.9686687555561617 4.9686687555561795 10.1091722004163280 Ba
atom 0.0000000000000000 0.0000000000000000 15.1843850333813659 Ba
atom 4.9686690732006484 -0.0000003176444956 15.1843850333813659 Ba
atom -0.0000003176444956 4.9686690732006698 15.1843850333813659 Ba
atom 4.9686687555561617 4.9686687555561795 15.1843850333813659 Ba
atom 2.4843343777780809 2.4843343777780897 12.6668556422913667 Zr
atom 7.4530034509787368 2.4843340601335968 12.6668556422913667 Zr
atom 2.4843340601335866 7.4530034509787635 12.6668556422913667 Zr
atom 7.4530031333342350 7.4530031333342670 12.6668556422913667 Zr
atom 2.4843343777780809 2.4843343777780897 17.8052039271943912 Zr
atom 7.4530034509787368 2.4843340601335968 17.8052039271943912 Zr
atom 2.4843340601335866 7.4530034509787635 17.8052039271943912 Zr
atom 7.4530031333342350 7.4530031333342670 17.8052039271943912 Zr
atom 2.4843343777780809 2.4843343777780897 10.1091722004163280 S
atom 7.4530034509787368 2.4843340601335968 10.1091722004163280 S
atom 2.4843340601335866 7.4530034509787635 10.1091722004163280 S
atom 7.4530031333342350 7.4530031333342670 10.1091722004163280 S
atom 2.4843343777780809 2.4843343777780897 15.2069061504597141 S
atom 7.4530034509787368 2.4843340601335968 15.2069061504597141 S
atom 2.4843340601335866 7.4530034509787635 15.2069061504597141 S
atom 7.4530031333342350 7.4530031333342670 15.2069061504597141 S
atom 2.9832373565115309 0.0000002707024297 12.6619270710089022 S
atom 6.9541007898897735 -0.0000009059914209 12.6619270710089022 S
atom 1.9854313990446248 4.9686684848537439 12.6619270710089022 S
atom 7.9519061120676851 4.9686690262586124 12.6619270710089022 S
atom 2.8268086559603214 0.0000023287575957 17.7130219188088311 S
atom 7.1105294904409835 -0.0000029640465869 17.7130219188088311 S
atom 2.1418600995958368 4.9686664267985767 17.7130219188088311 S
atom 7.7954774115164689 4.9686710843137742 17.7130219188088311 S
atom -0.0000005883469253 1.9854317166891298 12.6619270710089022 S
atom 4.9686693439030760 2.9832370388670491 12.6619270710089022 S
atom -0.0000000469420660 7.9519064297122108 12.6619270710089022 S
atom 4.9686681672092279 6.9541004722453108 12.6619270710089022 S
atom -0.0000026464020913 2.1418604172403439 17.7130219188088311 S
atom 4.9686714019582512 2.8268083383158329 17.7130219188088311 S
atom 0.0000020111131001 7.7954777291609982 17.7130219188088311 S
atom 4.9686661091540554 7.1105291727965199 17.7130219188088311 S
atom 0.0000000000000000 -0.0000000000000000 20.0279607744793999 Ba
atom 4.9686690732006484 -0.0000003176444956 20.0279607744793999 Ba
atom -0.0000003176444956 4.9686690732006698 20.0279607744793999 Ba
atom 4.9686687555561617 4.9686687555561795 20.0279607744793999 Ba
atom 2.4843343777780809 2.4843343777780897 20.3392563000188318 S
atom 7.4530034509787368 2.4843340601335968 20.3392563000188318 S
atom 2.4843340601335866 7.4530034509787635 20.3392563000188318 S
atom 7.4530031333342350 7.4530031333342670 20.3392563000188318 S
atom 2.4843343777780809 2.4843343777780897 23.4414416697720327 Ba
atom 7.4530034509787368 2.4843340601335968 23.4414416697720327 Ba
atom 2.4843340601335866 7.4530034509787635 23.4414416697720327 Ba
atom 7.4530031333342350 7.4530031333342670 23.4414416697720327 Ba
atom 2.4843343777780809 2.4843343777780897 28.2850645322969712 Ba
atom 7.4530034509787368 2.4843340601335968 28.2850645322969712 Ba
atom 2.4843340601335866 7.4530034509787635 28.2850645322969712 Ba
atom 7.4530031333342350 7.4530031333342670 28.2850645322969712 Ba
atom 4.9686687555561617 4.9686687555561795 25.6642182160625616 Zr
atom 9.9373378287568119 4.9686684379116812 25.6642182160625616 Zr
atom 4.9686684379116599 9.9373378287568599 25.6642182160625616 Zr
atom 9.9373375111123234 9.9373375111123590 25.6642182160625616 Zr
atom 4.9686687555561617 4.9686687555561795 30.8025828830559263 Zr
atom 9.9373378287568119 4.9686684379116812 30.8025828830559263 Zr
atom 4.9686684379116599 9.9373378287568599 30.8025828830559263 Zr
atom 9.9373375111123234 9.9373375111123590 30.8025828830559263 Zr
atom 4.9686687555561617 4.9686687555561795 23.1301617259959329 S
atom 9.9373378287568119 4.9686684379116812 23.1301617259959329 S
atom 4.9686684379116599 9.9373378287568599 23.1301617259959329 S
atom 9.9373375111123234 9.9373375111123590 23.1301617259959329 S
atom 4.9686687555561617 4.9686687555561795 28.2625284901921781 S
atom 9.9373378287568119 4.9686684379116812 28.2625284901921781 S
atom 4.9686684379116599 9.9373378287568599 28.2625284901921781 S
atom 9.9373375111123234 9.9373375111123590 28.2625284901921781 S
atom 5.3112094896995306 2.4843372486109674 25.7564091051817456 S
atom 9.5947974122579271 2.4843308716562174 25.7564091051817456 S
atom 4.6261280214127831 7.4530002625013960 25.7564091051817456 S
atom 10.2798782452556932 7.4530060041671424 25.7564091051817456 S
atom 5.4675646408513812 2.4843349052442343 30.8075198351167039 S
atom 9.4384422611060863 2.4843332150229545 30.8075198351167039 S
atom 4.4697728702609272 7.4530026058681278 30.8075198351167039 S
atom 10.4362333964075304 7.4530036608004062 30.8075198351167039 S
atom 2.4843311893007041 4.6261283390572974 25.7564091051817456 S
atom 7.4530063218116132 5.3112091720550616 25.7564091051817456 S
atom 2.4843369309664647 10.2798785629002314 25.7564091051817456 S
atom 7.4529999448568613 9.5947970946134653 25.7564091051817456 S
atom 2.4843335326674376 4.4697731879054388 30.8075198351167039 S
atom 7.4530039784448716 5.4675643232069193 30.8075198351167039 S
atom 2.4843345875997307 10.4362337140520829 30.8075198351167039 S
atom 7.4530022882236029 9.4384419434616333 30.8075198351167039 S
atom 2.4843343777780809 2.4843343777780897 33.3602682613739105 Ba
atom 7.4530034509787368 2.4843340601335968 33.3602682613739105 Ba
atom 2.4843340601335866 7.4530034509787635 33.3602682613739105 Ba
atom 7.4530031333342350 7.4530031333342670 33.3602682613739105 Ba
atom 2.4843343777780809 2.4843343777780897 38.4354719904508713 Ba
atom 7.4530034509787368 2.4843340601335968 38.4354719904508713 Ba
atom 2.4843340601335866 7.4530034509787635 38.4354719904508713 Ba
atom 7.4530031333342350 7.4530031333342670 38.4354719904508713 Ba
atom 4.9686687555561617 4.9686687555561795 35.9179536396918166 Zr
atom 9.9373378287568119 4.9686684379116812 35.9179536396918166 Zr
atom 4.9686684379116599 9.9373378287568599 35.9179536396918166 Zr
atom 9.9373375111123234 9.9373375111123590 35.9179536396918166 Zr
atom 4.9686687555561617 4.9686687555561795 41.0563183066852275 Zr
atom 9.9373378287568119 4.9686684379116812 41.0563183066852275 Zr
atom 4.9686684379116599 9.9373378287568599 41.0563183066852275 Zr
atom 9.9373375111123234 9.9373375111123590 41.0563183066852275 Zr
atom 4.9686687555561617 4.9686687555561795 33.3602682613739105 S
atom 9.9373378287568119 4.9686684379116812 33.3602682613739105 S
atom 4.9686684379116599 9.9373378287568599 33.3602682613739105 S
atom 9.9373375111123234 9.9373375111123590 33.3602682613739105 S
atom 4.9686687555561617 4.9686687555561795 38.4580080325556253 S
atom 9.9373378287568119 4.9686684379116812 38.4580080325556253 S
atom 4.9686684379116599 9.9373378287568599 38.4580080325556253 S
atom 9.9373375111123234 9.9373375111123590 38.4580080325556253 S
atom 5.4675646408513812 2.4843349052442343 35.9130166876311065 S
atom 9.4384422611060863 2.4843332150229545 35.9130166876311065 S
atom 4.4697728702609272 7.4530026058681278 35.9130166876311065 S
atom 10.4362333964075304 7.4530036608004062 35.9130166876311065 S
atom 5.3112094896995306 2.4843372486109674 40.9641274175661039 S
atom 9.5947974122579271 2.4843308716562174 40.9641274175661039 S
atom 4.6261280214127831 7.4530002625013960 40.9641274175661039 S
atom 10.2798782452556932 7.4530060041671424 40.9641274175661039 S
atom 2.4843335326674376 4.4697731879054388 35.9130166876311065 S
atom 7.4530039784448716 5.4675643232069193 35.9130166876311065 S
atom 2.4843345875997307 10.4362337140520829 35.9130166876311065 S
atom 7.4530022882236029 9.4384419434616333 35.9130166876311065 S
atom 2.4843311893007041 4.6261283390572974 40.9641274175661039 S
atom 7.4530063218116132 5.3112091720550616 40.9641274175661039 S
atom 2.4843369309664647 10.2798785629002314 40.9641274175661039 S
atom 7.4529999448568613 9.5947970946134653 40.9641274175661039 S
atom 2.4843343777780809 2.4843343777780897 43.2790948529757884 Ba
atom 7.4530034509787368 2.4843340601335968 43.2790948529757884 Ba
atom 2.4843340601335866 7.4530034509787635 43.2790948529757884 Ba
atom 7.4530031333342350 7.4530031333342670 43.2790948529757884 Ba
atom 4.9686687555561617 4.9686687555561795 43.5903747967519166 S
atom 9.9373378287568119 4.9686684379116812 43.5903747967519166 S
atom 4.9686684379116599 9.9373378287568599 43.5903747967519166 S
atom 9.9373375111123234 9.9373375111123590 43.5903747967519166 S
