#=======================================================
# FHI-aims file: sym_relax/sym_relax_RP_4_Rx0Mz_0-RyMz.in
# Created using the Atomic Simulation Environment (ASE)
# Fri Mar 14 10:28:00 2025
#=======================================================
lattice_vector 10.0264249358085422 0.0380904085731248 -0.0000000000000000 
lattice_vector 0.0380904085731250 10.0264249358085866 0.0000000000000000 
lattice_vector 0.0000000000000000 0.0000000000000000 45.7610113582649731 
atom 0.1051244883809743 0.1656880605698084 0.2241610644144677 Ba
atom 5.1790035115452486 0.1240095725015323 0.2241615641832999 Ba
atom 0.1848362479275178 5.1181768361192574 0.2241615641832999 Ba
atom 5.1373821605718160 5.1979457327606653 0.2241610644144677 Ba
atom -0.2479180720657546 -0.1836637140016227 4.9895438546534239 Ba
atom 4.8297725912013618 -0.2291216027748771 4.9895820282150218 Ba
atom -0.1643946724163554 4.7650456608428504 4.9895820282150218 Ba
atom 4.7843396001250991 4.8485939581892277 4.9895438546534239 Ba
atom 2.5231479449116794 2.5266418771786538 2.3900372490939024 Zr
atom 7.5400120211045998 2.5420154066005649 2.3900354680276559 Zr
atom 2.5458447574868814 7.5361826702182970 2.3900354680276559 Zr
atom 7.5554056171025268 7.5588995493695075 2.3900372490939024 Zr
atom 2.5156859065700412 2.5137068932699322 7.4407158752694906 Zr
atom 7.5271577138776919 2.5344908460108733 7.4407185435891234 Zr
atom 2.5329904502599736 7.5286581096285916 7.4407185435891234 Zr
atom 7.5479435787608873 7.5459645654607916 7.4407158752694906 Zr
atom 2.2584362179913975 2.6935021152925320 -0.1143690684850383 S
atom 7.7068315823134652 2.2773465183844719 -0.1143835328510623 S
atom 2.7126643186957420 7.2715137820021942 -0.1143835328510623 S
atom 7.2906938901822347 7.7257597874833763 -0.1143690684850383 S
atom 2.8278395132508223 2.2600587170424102 4.9448950775119762 S
atom 7.2734897900920261 2.8466613462383874 4.9449006048106483 S
atom 2.2793225264743127 7.8408286098561177 4.9449006048106483 S
atom 7.8600971854416706 7.2923163892332710 4.9448950775119762 S
atom 2.7671725840438728 0.0075349401939524 2.2142524591276822 S
atom 7.2233368514017009 0.0230809109289980 2.7655725989740256 S
atom 2.2291695877839901 5.0172481745467250 2.7655725989740256 S
atom 7.7994302562347197 5.0397926123848134 2.2142524591276822 S
atom 2.8901107959251031 0.0131934979622356 7.7608946720852803 S
atom 7.1496990651399335 0.0278582851687577 7.1363552578544542 S
atom 2.1555318015222129 5.0220255487864849 7.1363552578544542 S
atom 7.9223684681159474 5.0454511701530897 7.7608946720852803 S
atom 0.0041966028021461 2.2099737004668127 2.7655699202088693 S
atom 5.0209074118803176 2.7860812710701390 2.2142285790300860 S
atom 0.0267401482625986 7.7802485346878703 2.2142285790300860 S
atom 5.0364542749929910 7.2422313726576650 2.7655699202088693 S
atom 0.0090670989189725 2.1362249114045722 7.1363467046470213 S
atom 5.0266601911020796 2.9088909633278792 7.7608894191291649 S
atom 0.0324929274843588 7.9030582269455980 7.7608894191291649 S
atom 5.0413247711098128 7.1684825835954227 7.1363467046470213 S
atom 0.2721252711269658 0.1836782606987392 9.9480459474489269 Ba
atom 5.1971703815529553 0.2909052176698519 9.9480459474489269 Ba
atom 0.2030031179352315 5.2850724812875765 9.9480459474489269 Ba
atom 5.3043829433178145 5.2159359328895931 9.9480459474489269 Ba
atom -0.2479180720657546 -0.1836637140016227 14.9065480402444130 Ba
atom 4.8297725912013618 -0.2291216027748771 14.9065098666828160 Ba
atom -0.1643946724163553 4.7650456608428504 14.9065098666828160 Ba
atom 4.7843396001250991 4.8485939581892277 14.9065480402444130 Ba
atom 2.5156859065700412 2.5137068932699322 12.4553760196283108 Zr
atom 7.5271577138776919 2.5344908460108733 12.4553733513087028 Zr
atom 2.5329904502599736 7.5286581096285916 12.4553733513087028 Zr
atom 7.5479435787608873 7.5459645654607916 12.4553760196283108 Zr
atom 2.5231479449116794 2.5266418771786538 17.5060546458039248 Zr
atom 7.5400120211045998 2.5420154066005649 17.5060564268701846 Zr
atom 2.5458447574868814 7.5361826702182970 17.5060564268701846 Zr
atom 7.5554056171025268 7.5588995493695075 17.5060546458039248 Zr
atom 2.1862223468886670 2.7859919427099098 9.9480459474489269 S
atom 7.7994625092722849 2.2049956806460593 9.9480459474489269 S
atom 2.8052952456545679 7.1991629442637901 9.9480459474489269 S
atom 7.2184800190795020 7.8182496149007576 9.9480459474489269 S
atom 2.8278395132508223 2.2600587170424102 14.9511968173858314 S
atom 7.2734897900920261 2.8466613462383874 14.9511912900871806 S
atom 2.2793225264743127 7.8408286098561177 14.9511912900871806 S
atom 7.8600971854416706 7.2923163892332710 14.9511968173858314 S
atom 2.8901107959251031 0.0131934979622356 12.1351972228125256 S
atom 7.1496990651399335 0.0278582851687577 12.7597366370433623 S
atom 2.1555318015222129 5.0220255487864849 12.7597366370433623 S
atom 7.9223684681159474 5.0454511701530897 12.1351972228125256 S
atom 2.7671725840438728 0.0075349401939524 17.6818394357701258 S
atom 7.2233368514017009 0.0230809109289980 17.1305192959237580 S
atom 2.2291695877839901 5.0172481745467250 17.1305192959237580 S
atom 7.7994302562347197 5.0397926123848134 17.6818394357701258 S
atom 0.0090670989189725 2.1362249114045722 12.7597451902508077 S
atom 5.0266601911020796 2.9088909633278792 12.1352024757686383 S
atom 0.0324929274843588 7.9030582269455980 12.1352024757686383 S
atom 5.0413247711098128 7.1684825835954227 12.7597451902508077 S
atom 0.0041966028021461 2.2099737004668127 17.1305219746889641 S
atom 5.0209074118803176 2.7860812710701390 17.6818633158677549 S
atom 0.0267401482625986 7.7802485346878703 17.6818633158677549 S
atom 5.0364542749929910 7.2422313726576650 17.1305219746889641 S
atom 0.1051244883809743 0.1656880605698084 19.6719308304833369 Ba
atom 5.1790035115452486 0.1240095725015323 19.6719303307145346 Ba
atom 0.1848362479275178 5.1181768361192574 19.6719303307145346 Ba
atom 5.1373821605718160 5.1979457327606653 19.6719308304833369 Ba
atom 2.2584362179913975 2.6935021152925320 20.0104609633828403 S
atom 7.7068315823134652 2.2773465183844719 20.0104754277488723 S
atom 2.7126643186957420 7.2715137820021942 20.0104754277488723 S
atom 7.2906938901822347 7.7257597874833763 20.0104609633828403 S
atom 2.6818168966652274 2.6212533244763954 23.1046667435469715 Ba
atom 7.6343056722146780 2.7009650840229411 23.1046672433158022 Ba
atom 2.6401384085969553 7.6951323476406817 23.1046672433158022 Ba
atom 7.7140745688560735 7.6535109966672570 23.1046667435469715 Ba
atom 2.3324651220938040 2.2682107640296745 27.8700495337859380 Ba
atom 7.2811744969382595 2.3517341636790694 27.8700877073475333 Ba
atom 2.2870072333205425 7.3459014272967993 27.8700877073475333 Ba
atom 7.3647227942846287 7.3004684362205277 27.8700495337859380 Ba
atom 5.0427707132740665 5.0392767810071257 25.2705429282264014 Zr
atom 10.0523115063137087 5.0619735935823114 25.2705411471601238 Zr
atom 5.0581442426959855 10.0561408572000452 25.2705411471601238 Zr
atom 10.0750283854649201 10.0715344531979607 25.2705429282264014 Zr
atom 5.0298357293653577 5.0318147426654605 30.3212215544019976 Zr
atom 10.0447869457240202 5.0491192863553955 30.3212242227215967 Zr
atom 5.0506196821062854 10.0432865499731108 30.3212242227215967 Zr
atom 10.0620934015561954 10.0640724148563123 30.3212215544019976 Zr
atom 5.2096309513879531 4.7745650540868310 22.7661366106474858 S
atom 9.7876426180976139 5.2287931547911723 22.7661221462814467 S
atom 4.7934753544798800 10.2229604184088938 22.7661221462814467 S
atom 10.2418886235788182 9.8068227262777157 22.7661366106474858 S
atom 4.7761875531378308 5.3439683493462384 27.8254007566444557 S
atom 10.3569574459515312 4.7954513625697501 27.8254062839430816 S
atom 5.3627901823337973 9.7896186261874689 27.8254062839430816 S
atom 9.8084452253286560 10.3762260215370787 27.8254007566444557 S
atom 4.7261025365622311 2.5203254388975753 25.6460755993413656 S
atom 10.2963773707832615 2.5428689843580257 25.0947342581625712 S
atom 5.3022101071655552 7.5370362479757569 25.0947342581625712 S
atom 9.7583602087530679 7.5525831110884267 25.6460755993413656 S
atom 4.6523537475000039 2.5251959350144042 30.0168523837795576 S
atom 10.4191870630410079 2.5486217635797863 30.6413950982616967 S
atom 5.4250197994232998 7.5427890271975118 30.6413950982616967 S
atom 9.6846114196908335 7.5574536072052441 30.0168523837795576 S
atom 2.5236637762893745 5.2833014201393080 25.0947581382601754 S
atom 7.5333770106421403 4.7452984238794000 25.6460782781065824 S
atom 2.5392097470244179 9.7394656874971481 25.6460782781065824 S
atom 7.5559214484802109 10.3155590923301421 25.0947581382601754 S
atom 2.5293223340576523 5.4062396320205393 30.6414003512177509 S
atom 7.5381543848818984 4.6716606376176406 30.0168609369870012 S
atom 2.5439871212641800 9.6658279012353567 30.0168609369870012 S
atom 7.5615800062485148 10.4384973042113991 30.6414003512177509 S
atom 2.6998070967941628 2.7882541072223903 32.8285516265814650 Ba
atom 7.8012013173829944 2.7191319540306611 32.8285516265814650 Ba
atom 2.8070340537652791 7.7132992176483963 32.8285516265814650 Ba
atom 7.7320647689850031 7.8205117794132475 32.8285516265814650 Ba
atom 2.3324651220938040 2.2682107640296745 37.7870537193768499 Ba
atom 7.2811744969382595 2.3517341636790694 37.7870155458152652 Ba
atom 2.2870072333205425 7.3459014272967984 37.7870155458152652 Ba
atom 7.3647227942846287 7.3004684362205277 37.7870537193768499 Ba
atom 5.0298357293653577 5.0318147426654605 35.3358816987608577 Zr
atom 10.0447869457240202 5.0491192863553955 35.3358790304411556 Zr
atom 5.0506196821062854 10.0432865499731108 35.3358790304411556 Zr
atom 10.0620934015561954 10.0640724148563123 35.3358816987608577 Zr
atom 5.0427707132740665 5.0392767810071257 40.3865603249364327 Zr
atom 10.0523115063137087 5.0619735935823114 40.3865621060026783 Zr
atom 5.0581442426959855 10.0561408572000452 40.3865621060026783 Zr
atom 10.0750283854649201 10.0715344531979607 40.3865603249364327 Zr
atom 5.3021207788053148 4.7023511829841054 32.8285516265814650 S
atom 9.7152917803592036 5.3214240817499849 32.8285516265814650 S
atom 4.7211245167414742 10.3155913453677268 32.8285516265814650 S
atom 10.3343784509961765 9.7346088551749421 32.8285516265814650 S
atom 4.7761875531378308 5.3439683493462384 37.8317024965183109 S
atom 10.3569574459515312 4.7954513625697501 37.8316969692196921 S
atom 5.3627901823337973 9.7896186261874689 37.8316969692196921 S
atom 9.8084452253286560 10.3762260215370787 37.8317024965183109 S
atom 4.6523537475000039 2.5251959350144042 35.6402508693832871 S
atom 10.4191870630410079 2.5486217635797863 35.0157081549010911 S
atom 5.4250197994232998 7.5427890271975118 35.0157081549010911 S
atom 9.6846114196908335 7.5574536072052441 35.6402508693832871 S
atom 4.7261025365622311 2.5203254388975753 40.0110276538214293 S
atom 10.2963773707832615 2.5428689843580257 40.5623689950002628 S
atom 5.3022101071655552 7.5370362479757569 40.5623689950002628 S
atom 9.7583602087530679 7.5525831110884267 40.0110276538214293 S
atom 2.5293223340576523 5.4062396320205393 35.0157029019450192 S
atom 7.5381543848818984 4.6716606376176406 35.6402423161758435 S
atom 2.5439871212641800 9.6658279012353567 35.6402423161758435 S
atom 7.5615800062485148 10.4384973042113991 35.0157029019450192 S
atom 2.5236637762893745 5.2833014201393080 40.5623451149026337 S
atom 7.5333770106421403 4.7452984238794000 40.0110249750564009 S
atom 2.5392097470244179 9.7394656874971481 40.0110249750564009 S
atom 7.5559214484802109 10.3155590923301421 40.5623451149026337 S
atom 2.6818168966652274 2.6212533244763954 42.5524365096158874 Ba
atom 7.6343056722146780 2.7009650840229411 42.5524360098470709 Ba
atom 2.6401384085969553 7.6951323476406817 42.5524360098470709 Ba
atom 7.7140745688560735 7.6535109966672570 42.5524365096158874 Ba
atom 5.2096309513879531 4.7745650540868310 42.8909666425153446 S
atom 9.7876426180976139 5.2287931547911723 42.8909811068814193 S
atom 4.7934753544798800 10.2229604184088938 42.8909811068814193 S
atom 10.2418886235788182 9.8068227262777157 42.8909666425153446 S
