#=======================================================
# FHI-aims file: sym_relax/sym_relax_RP_4_RxRyRz_-RxRy0.in
# Created using the Atomic Simulation Environment (ASE)
# Fri Mar 14 10:32:38 2025
#=======================================================
lattice_vector 10.0226978027513542 0.0129127714909674 0.0116169016302521 
lattice_vector 0.0129127714909672 10.0226978027513915 -0.0116169016302521 
lattice_vector 0.0534881206129360 -0.0534881206129364 45.8278469623367002 
atom 0.0117761447551030 -0.1392572183052652 0.2410375847651124 Ba
atom 5.1506061196809396 -0.0053197590096192 0.2468460355802385 Ba
atom 0.1457136040507485 4.9995727566205810 0.2352291339499862 Ba
atom 5.0295814318762559 4.8785480688159160 0.2410375847651123 Ba
atom -0.2371702450606763 0.1923099894132722 4.9924990336195174 Ba
atom 4.8190389119624006 0.2436266308061608 4.9983074844346476 Ba
atom -0.1858536036677876 5.2485191464363874 4.9866905828043997 Ba
atom 4.7806350420604788 5.2101152765344567 4.9924990336195156 Ba
atom 2.4821625504003202 2.5239795500982742 2.3866845546579891 Zr
atom 7.5051746383985529 2.5420991224663356 2.3924930054731193 Zr
atom 2.5002821227683674 7.5469916380965509 2.3808761038428692 Zr
atom 7.4999678375214565 7.5417848372194625 2.3866845546579896 Zr
atom 2.4500039587971774 2.5511502379036051 7.4470983113889151 Zr
atom 7.4780039505932407 2.5742577140694753 7.4529067622040390 Zr
atom 2.4731114349630454 7.5791502296996835 7.4412898605737858 Zr
atom 7.4678092459183469 7.5689555250247915 7.4470983113889160 Zr
atom 2.6262265506344709 2.7346144921059166 -0.1148301654185666 S
atom 7.2945396963909293 2.3980351222321699 -0.1090217146034407 S
atom 2.2896471807607415 7.4029276378623798 -0.1206386162336930 S
atom 7.6440318377556276 7.7524197792270861 -0.1148301654185666 S
atom 2.2506844134080897 2.2512508559060977 4.9465798606931113 S
atom 7.7779033325907401 2.7735772594585666 4.9523883115082254 S
atom 2.7730108169605518 7.7784697750887544 4.9407714098779714 S
atom 7.2684897005292513 7.2690561430272664 4.9465798606931086 S
atom 2.7179877569589910 0.0294257323697103 2.2489501032187467 S
atom 7.2346744313026479 0.0399222157454392 2.7373160963889651 S
atom 2.2297819156724521 5.0448147313756433 2.7256991947587141 S
atom 7.7357930440801601 5.0472310194908845 2.2489501032187467 S
atom 2.8432764833334039 0.0335008810063605 7.7078547644594311 S
atom 7.1080782161551026 0.0430216228753213 7.2075732181840220 S
atom 2.1031857005249006 5.0479141385055355 7.1959563165537759 S
atom 7.8610817704545886 5.0513061681275335 7.7078547644594302 S
atom -0.0229693466242259 2.2933611444166853 2.2431416524036236 S
atom 4.9843394571211999 2.7944797571942006 2.7315076455738474 S
atom -0.0205530585089895 7.7993722728244155 2.7198907439435929 S
atom 4.9948359404969196 7.3111664315378659 2.2431416524036218 S
atom -0.0270444952608769 2.1680724180422688 7.7020463136443045 S
atom 4.9812400499912988 2.9210759723417508 7.2017647673689096 S
atom -0.0236524656388707 7.9259684879719501 7.1901478657386511 S
atom 4.9907607918602777 7.1858777051634517 7.7020463136443045 S
atom -0.0075456351087850 -0.0308013397231052 9.9625754265949471 Ba
atom 5.0421502410987831 0.0140020208542684 9.9683838774100835 Ba
atom 0.0372577254685887 5.0188945364844866 9.9567669757798356 Ba
atom 5.0102596520123690 4.9870039473980654 9.9625754265949471 Ba
atom 0.2155656940275912 -0.2604259496749973 14.9326518195703706 Ba
atom 5.2717748510506786 -0.2091093082821089 14.9384602703854981 Ba
atom 0.2668823354204802 4.7957832073481059 14.9268433687552537 Ba
atom 5.2333709811487417 4.7573793374461708 14.9326518195703724 Ba
atom 2.5744059425179198 2.4267482541828596 12.4780525418009898 Zr
atom 7.6024059343139641 2.4498557303487352 12.4838609926161066 Zr
atom 2.5975134186837878 7.4547482459789407 12.4722440909858765 Zr
atom 7.5922112296390916 7.4445535413040478 12.4780525418009915 Zr
atom 2.5472352547125876 2.4589068457860028 17.5384662985318869 Zr
atom 7.5702473427108394 2.4770264181540638 17.5442747493469646 Zr
atom 2.5653548270806503 7.4819189337842680 17.5326578477167558 Zr
atom 7.5650405418337394 7.4767121329071680 17.5384662985318833 Zr
atom 2.7640183893272559 2.7407626847129358 9.9625754265949471 S
atom 7.2883915037839184 2.2602432835394031 9.9683838774100835 S
atom 2.2834989881537129 7.2651357991696264 9.9567669757798356 S
atom 7.7818236764483997 7.7585679718341085 9.9625754265949471 S
atom 2.2745065605204071 2.2274287087937767 14.9785709924967954 S
atom 7.8017254797030544 2.7497551123462420 14.9843794433119069 S
atom 2.7968329640728804 7.7546476279764525 14.9727625416816679 S
atom 7.2923118476415780 7.2452339959149548 14.9785709924967954 S
atom 2.1913281226565893 -0.0503001998751971 12.2231045395456182 S
atom 7.9492241925862572 -0.0469081702531912 12.7350029874512600 S
atom 2.9443316769560655 4.9579843453770112 12.7233860858210228 S
atom 7.2091334097777384 4.9675050872459749 12.2231045395456217 S
atom 2.3166168490310066 -0.0462250512385469 17.6820092007862897 S
atom 7.8226279774386942 -0.0438087631233092 17.2052601092463213 S
atom 2.8177354618085149 4.9610837525069105 17.1936432076160699 S
atom 7.3344221361521553 4.9715802358826160 17.6820092007862897 S
atom 0.0567565856206806 2.8200207787191021 12.2172960887304960 S
atom 5.0711698431198471 2.0799299959105904 12.7291945366361450 S
atom 0.0662773274896415 7.0848225115407990 12.7175776350058864 S
atom 5.0745618727418460 7.8378260658402681 12.2172960887304960 S
atom 0.0526814369840307 2.6947320523446887 17.6762007499711657 S
atom 5.0680704359899496 2.2065262110581352 17.1994516584312258 S
atom 0.0631779203597593 7.2114187266883452 17.1878347568009389 S
atom 5.0704867241051979 7.7125373394658610 17.6762007499711657 S
atom -0.1160015136909449 -0.0114795598592176 19.6841132684247739 Ba
atom 5.0228284612348899 0.1224578994364285 19.6899217192399156 Ba
atom 0.0179359456047008 5.1273504150666493 19.6783048176096500 Ba
atom 4.9018037734302160 5.0063257272619470 19.6841132684247739 Ba
atom 2.7578701967202202 2.6029708460201695 20.0399810186085254 S
atom 7.4261833424766905 2.2663914761464246 20.0457894694235925 S
atom 2.4212908268464850 7.2712839917766470 20.0341725677933731 S
atom 7.7756754838413888 7.6207761331413426 20.0399810186085254 S
atom 2.6749003606243695 2.4703595386295820 23.1549209748890732 Ba
atom 7.5587946498672602 2.3493613122422854 23.1607294257042078 Ba
atom 2.5539021342370618 7.3542538278724932 23.1491125240739137 Ba
atom 7.6927056477455356 7.4881648257507472 23.1549209748890732 Ba
atom 2.3432960669786991 2.7194047522167248 27.9064069799848902 Ba
atom 7.3097494362801294 2.6809656058879603 27.9122154308000141 Ba
atom 2.3048569206499323 7.6858581215181818 27.9005985291697343 Ba
atom 7.3611013540998336 7.7372100393378958 27.9064069799848902 Ba
atom 5.0294566325529004 5.0178147411628169 25.3005861257306854 Zr
atom 10.0291447344551710 5.0126103274349303 25.3063945765458165 Zr
atom 5.0242522188249978 10.0175028430651398 25.2947776749155544 Zr
atom 10.0472619196740567 10.0356200282839971 25.3005861257306890 Zr
atom 5.0022761367912922 5.0500037187292861 30.3610111731626304 Zr
atom 9.9969557568887559 5.0397908231965394 30.3668196239777224 Zr
atom 4.9920632412585562 10.0446833388267471 30.3552027223474781 Zr
atom 10.0200814239124441 10.0678090058504512 30.3610111731626269 Zr
atom 4.8188175839485012 4.8737548917518536 22.7990689579588768 S
atom 10.1732045838661342 5.2232493760393206 22.8048774087740220 S
atom 5.1683120682359673 10.2281418916695408 22.7932605071437813 S
atom 9.8366228710696539 9.8915601788730356 22.7990689579588697 S
atom 5.3021973354505372 5.2492863936533753 27.8604888131633324 S
atom 9.7976730819646036 4.7398696245372980 27.8662972639784563 S
atom 4.7927805663344261 9.7447621401674986 27.8546803623481622 S
atom 10.3200026225716766 10.2670916807745947 27.8604888131633253 S
atom 4.7588953481190508 2.5156355182205106 25.6454101506969927 S
atom 10.2650538938883127 2.5180511563415342 25.1686760790145172 S
atom 5.2601613782581165 7.5229436719717384 25.1570591773842480 S
atom 9.7767006352402230 7.5334408053416881 25.6454101506969856 S
atom 4.6323400257860516 2.5187427344454272 30.1156804549437638 S
atom 10.3902902340486367 2.5221352166597297 30.6275774231786393 S
atom 5.3853977184184929 7.5270277322899384 30.6159605215483204 S
atom 9.6501453129072203 7.5365480215665919 30.1156804549437602 S
atom 2.5086261546461399 5.2702588403778181 25.6396016998818794 S
atom 7.5240158036462699 4.7819055817297036 25.1628676281993791 S
atom 2.5191232880160834 9.7867980973599220 25.1512507265691170 S
atom 7.5264314417672979 10.2880641274989699 25.6396016998818830 S
atom 2.5055189384212366 5.3968141627108093 30.1098720041286185 S
atom 7.5199317433280726 4.6566692415693112 30.6217689723635083 S
atom 2.5150392276978861 9.6615617571995589 30.6101520707332284 S
atom 7.5233242255423844 10.4146194498319762 30.1098720041286221 S
atom 2.5664678675524892 2.4897240423252400 32.8764989077633984 Ba
atom 7.5394301461716111 2.4577938053141581 32.8823073585785153 Ba
atom 2.5345376305414105 7.4626863209443712 32.8706904569482603 Ba
atom 7.5842731546736459 7.5075293294464114 32.8764989077633984 Ba
atom 2.7961485774439567 2.2665522417514357 37.8465908355417966 Ba
atom 7.7626019467454110 2.2281130954226698 37.8523992863569561 Ba
atom 2.7577094311152068 7.2330056110528975 37.8407823847266940 Ba
atom 7.8139538645651214 7.2843575288725946 37.8465908355417895 Ba
atom 5.1267475439565136 4.9255323115640532 35.3919866423640599 Zr
atom 10.1214271640539852 4.9153194160312959 35.3977950931792265 Zr
atom 5.1165346484237775 9.9202119316615303 35.3861781915489004 Zr
atom 10.1445528310776556 9.9433375986852326 35.3919866423640599 Zr
atom 5.0945585663900550 4.9527128073256588 40.4524116897959942 Zr
atom 10.0942466682923513 4.9475083935977500 40.4582201406111750 Zr
atom 5.0893541526621542 9.9524009092279631 40.4466032389808987 Zr
atom 10.1123638535112494 9.9705180944468275 40.4524116897959942 Zr
atom 4.8127090671337980 4.7359652419065617 32.8764989077633984 S
atom 10.3109942337114564 5.2293578928540052 32.8823073585785153 S
atom 5.3061017180812495 10.2342504084841952 32.8706904569482603 S
atom 9.8305143542549729 9.7537705290277330 32.8764989077633984 S
atom 5.3260302188806170 5.2254535102232795 37.8925090023633331 S
atom 9.8215059653947243 4.7160367411071933 37.8983174531784925 S
atom 4.8166134497645228 9.7209292567374064 37.8867005515482234 S
atom 10.3438355060017688 10.2432587973444633 37.8925090023633473 S
atom 5.4735579879380269 2.4287751131939816 35.6431258113981357 S
atom 9.7383055824267899 2.4382954024706396 35.1428457447935045 S
atom 4.7334130667965733 7.4431879181008505 35.1312288431631643 S
atom 10.4913632750592019 7.4465804003151614 35.6431258113981215 S
atom 5.3470026656050331 2.4318823294188903 40.1133961156449743 S
atom 9.8635419225871157 2.4423794627888351 40.6017470889574810 S
atom 4.8586494069569346 7.4472719784190344 40.5901301873272686 S
atom 10.3648079527261849 7.4496876165400652 40.1133961156449601 S
atom 2.5954865596726586 4.5555962005588198 35.6373173605829550 S
atom 7.6037715575171605 5.3086538931912646 35.1370372939783664 S
atom 2.5988790418869785 10.3135464088214501 35.1254203923480333 S
atom 7.6132918467938220 9.5734014876799982 35.6373173605829550 S
atom 2.5923793434477553 4.6821515228917940 40.1075876648298006 S
atom 7.5996874971989703 5.1834175530308766 40.5959386381424210 S
atom 2.5947949815687870 10.1883100686610799 40.5843217365121305 S
atom 7.6101846305689156 9.6999568100129672 40.1075876648298006 S
atom 2.5471033638568397 2.5981565353971163 42.5980768406377237 Ba
atom 7.4309976530997268 2.4771583090098148 42.6038852914528547 Ba
atom 2.4261051374695386 7.4820508246400310 42.5922683898225927 Ba
atom 7.5649086509779853 7.6159618225183081 42.5980768406377237 Ba
atom 4.9504987169790926 4.7420737587212569 42.9539288575678384 S
atom 10.3048857168967061 5.0915682430087106 42.9597373083830050 S
atom 5.2999932012665614 10.0964607586389352 42.9481204067527358 S
atom 9.9683040041002560 9.7598790458424496 42.9539288575678384 S
