#=======================================================
# FHI-aims file: sym_relax/sym_relax_RP_5_Rx1Ry20_-Rx2-Ry10.in
# Created using the Atomic Simulation Environment (ASE)
# Fri Mar 14 10:50:03 2025
#=======================================================
lattice_vector 10.0890962251111649 0.0215803659386503 0.0000000000000000 
lattice_vector 0.0215803659386503 10.0890962251111649 0.0000000000000000 
lattice_vector 0.0000000000000000 0.0000000000000000 55.0791341208586829 
atom -0.1531296232258393 -0.0064410415627912 0.2813358915897660 Ba
atom 5.1976777357814266 0.0172312245321161 0.2813358915897660 Ba
atom 0.1639198061951645 5.0509891541183691 0.2813358915897660 Ba
atom 4.9022086722990892 5.0488972539621146 0.2813358915897660 Ba
atom 0.0278265279899714 -0.0237932494911945 4.9421661006570519 Ba
atom 5.0167215845656123 0.0345834324605194 4.9421661006570519 Ba
atom -0.0170363450206465 5.0683413620467732 4.9421661006570519 Ba
atom 5.0831648235148865 5.0315450460337177 4.9421661006570519 Ba
atom 2.5248343422851542 2.5150651962134796 2.3234291957906139 Zr
atom 7.5750520657953500 2.5510632822807522 2.3234291957906139 Zr
atom 2.5412941362090820 7.5848212118670109 2.3234291957906139 Zr
atom 7.5801726378100645 7.5704034917383902 2.3234291957906139 Zr
atom 2.5310137337619638 2.5269220680719662 7.3349784246922400 Zr
atom 7.5688726743185377 2.5392064104222647 7.3349784246922400 Zr
atom 2.5351147447322786 7.5729643400085180 7.3349784246922400 Zr
atom 7.5863520292868811 7.5822603635968768 7.3349784246922400 Zr
atom 2.5638801546787580 2.8806883799999334 -0.1577075554553260 S
atom 7.5360062534017418 2.1854400984942974 -0.1577075554553260 S
atom 2.5022483238154782 7.2191980280805526 -0.1577075554553260 S
atom 7.6192184502036735 7.9360266755248370 -0.1577075554553261 S
atom 2.4598698548880105 2.0589447266900356 4.8640911799538626 S
atom 7.6400165531924848 3.0071837518042006 4.8640911799538626 S
atom 2.6062586236062324 8.0409416813904411 4.8640911799538626 S
atom 7.5152081504129393 7.1142830222149405 4.8640911799538626 S
atom 2.5222740562777881 0.0053950914846625 2.0107444609306331 S
atom 7.5668221688333857 0.0161852744539874 2.7967889044093330 S
atom 2.5330642392471190 5.0499432040402494 2.7967889044093330 S
atom 7.5776123518027063 5.0607333870095692 2.0107444609306331 S
atom 2.5222740562777881 0.0053950914846625 7.8046629584660678 S
atom 7.5668221688333857 0.0161852744539874 6.8812083461457147 S
atom 2.5330642392471190 5.0499432040402494 6.8812083461457147 S
atom 7.5776123518027063 5.0607333870095692 7.8046629584660678 S
atom 0.0053950914846625 2.5222740562777926 2.4018878620676172 S
atom 5.0499432040402592 2.5330642392471168 2.5101371916533624 S
atom 0.0161852744539875 7.5668221688333723 2.5101371916533624 S
atom 5.0607333870095754 7.5776123518026957 2.4018878620676172 S
atom 0.0053950914846625 2.5222740562777926 7.4475205203772665 S
atom 5.0499432040402592 2.5330642392471168 7.2491261299823977 S
atom 0.0161852744539875 7.5668221688333723 7.2491261299823977 S
atom 5.0607333870095754 7.5776123518026957 7.4475205203772665 S
atom -0.0084371879908399 0.0490307212957735 9.8295149026346085 Ba
atom 5.0529853005464265 -0.0382405383264485 9.8295149026346085 Ba
atom 0.0192273709601649 4.9955173912598116 9.8295149026346085 Ba
atom 5.0469011075340848 5.1043690168206739 9.8295149026346085 Ba
atom 0.0084371879908399 -0.0490307212957736 14.7593842584630153 Ba
atom 5.0361109245647553 0.0598209042650984 14.7593842584630153 Ba
atom 0.0023529949784851 5.0935788338513550 14.7593842584630153 Ba
atom 5.0637754835157516 5.0063075742291350 14.7593842584630153 Ba
atom 2.5276691477624551 2.5276691477624529 12.2944495805487968 Zr
atom 7.5722172603180384 2.5384593307317784 12.2944495805487968 Zr
atom 2.5384593307317811 7.5722172603180375 12.2944495805487968 Zr
atom 7.5830074432873715 7.5830074432873600 12.2944495805487968 Zr
atom 2.5243245617629504 2.5284162274529369 17.2539207364053695 Zr
atom 7.5755618463175596 2.5377122510412971 17.2539207364053695 Zr
atom 2.5418039167312911 7.5714701806275500 17.2539207364053695 Zr
atom 7.5796628572878513 7.5837545229778449 17.2539207364053695 Zr
atom 2.6255589302692979 3.0277485715236692 9.8189925144723702 S
atom 7.4743274778112010 2.0383799069705617 9.8189925144723702 S
atom 2.4405695482249392 7.0721378365568155 9.8189925144723702 S
atom 7.6808972257942116 8.0830868670485838 9.8189925144723702 S
atom 2.4297793652556181 2.0275897240012357 14.7699066466252127 S
atom 7.6701070428248848 3.0385387544929947 14.7699066466252127 S
atom 2.6363491132386185 8.0722966840792552 14.7699066466252127 S
atom 7.4851176607805288 7.0829280195261486 14.7699066466252127 S
atom 2.5222740562777881 0.0053950914846625 11.8227285656341365 S
atom 7.5668221688333857 0.0161852744539874 12.7661705954634517 S
atom 2.5330642392471190 5.0499432040402494 12.7661705954634517 S
atom 7.5776123518027063 5.0607333870095692 11.8227285656341365 S
atom 2.5222740562777881 0.0053950914846625 17.7076908149518566 S
atom 7.5668221688333857 0.0161852744539874 16.7842362026315293 S
atom 2.5330642392471190 5.0499432040402494 16.7842362026315293 S
atom 7.5776123518027063 5.0607333870095692 17.7076908149518566 S
atom 0.0053950914846625 2.5222740562777926 12.1740501378969572 S
atom 5.0499432040402592 2.5330642392471168 12.4148490232006345 S
atom 0.0161852744539875 7.5668221688333723 12.4148490232006345 S
atom 5.0607333870095754 7.5776123518026957 12.1740501378969572 S
atom 0.0053950914846625 2.5222740562777926 17.3397730311152287 S
atom 5.0499432040402592 2.5330642392471168 17.1413786407203226 S
atom 0.0161852744539875 7.5668221688333723 17.1413786407203226 S
atom 5.0607333870095754 7.5776123518026957 17.3397730311152287 S
atom -0.0278265279899715 0.0237932494911945 19.6467330604405142 Ba
atom 5.0723746405455667 -0.0130030665218695 19.6467330604405142 Ba
atom 0.0386167109592965 5.0207548630643881 19.6467330604405142 Ba
atom 5.0275117675349454 5.0791315450160921 19.6467330604405142 Ba
atom 0.1531296232258393 0.0064410415627912 24.3075632695078454 Ba
atom 4.8914184893297508 0.0043491414065338 24.3075632695078454 Ba
atom -0.1423394402565145 5.0381070709927860 24.3075632695078454 Ba
atom 5.2084679187507517 5.0617793370877022 24.3075632695078454 Ba
atom 2.5305039532397631 2.5402730993114293 22.2654699653069450 Zr
atom 7.5693824548407482 2.5258553791828033 22.2654699653069450 Zr
atom 2.5356245252544758 7.5596133087690616 22.2654699653069450 Zr
atom 7.5858422487646697 7.5956113948363333 22.2654699653069450 Zr
atom 2.5954684406369060 2.9963935688348702 19.7248079811437265 S
atom 7.5044179674436027 2.0697349096593580 19.7248079811437265 S
atom 2.4706600378573369 7.1034928392456127 19.7248079811437265 S
atom 7.6508067361618117 8.0517318643597644 19.7248079811437265 S
atom 2.4914581408461536 2.1746499155249763 24.7466067165529040 S
atom 7.6084282672343493 2.8914785629692568 24.7466067165529040 S
atom 2.5746703376480840 7.9252364925555137 24.7466067165529040 S
atom 7.5467964363710660 7.2299882110498741 24.7466067165529040 S
atom 2.5222740562777881 0.0053950914846625 21.7921102566883036 S
atom 7.5668221688333857 0.0161852744539874 22.5781547001669551 S
atom 2.5330642392471190 5.0499432040402494 22.5781547001669551 S
atom 7.5776123518027063 5.0607333870095692 21.7921102566883036 S
atom 0.0053950914846625 2.5222740562777926 22.0787619694441979 S
atom 5.0499432040402592 2.5330642392471168 22.1870112990299653 S
atom 0.0161852744539875 7.5668221688333723 22.1870112990299653 S
atom 5.0607333870095754 7.5776123518026957 22.0787619694441979 S
atom 2.5341101893252471 2.6807987709882926 27.8209029520190967 Ba
atom 7.5657762187552606 2.3853297075059379 27.8209029520190967 Ba
atom 2.5320182891689877 7.4190876370921979 27.8209029520190967 Ba
atom 7.5894484848501627 7.7361370665131926 27.8209029520190967 Ba
atom 2.5514623972536543 2.4998426197724823 32.4817331610863604 Ba
atom 7.5484240108268601 2.5662858587217503 32.4817331610863604 Ba
atom 2.5146660812405797 7.6000437883080103 32.4817331610863604 Ba
atom 7.6068006927785659 7.5551809152973854 32.4817331610863604 Ba
atom 5.0679422470738906 5.0581731010022093 29.8629962562199331 Zr
atom 10.0872824565315327 5.0632936730169318 29.8629962562199331 Zr
atom 5.0535245269452576 10.0970516026031891 29.8629962562199331 Zr
atom 10.1232805425987937 10.1135113965271106 29.8629962562199331 Zr
atom 5.0560853752154031 5.0519937095253962 34.8745454851215584 Zr
atom 10.0991393283900113 5.0694730644937405 34.8745454851215584 Zr
atom 5.0653813988037601 10.1032309940799863 34.8745454851215584 Zr
atom 10.1114236707403151 10.1073320050503206 34.8745454851215584 Zr
atom 4.7023190632874341 5.0191272886085994 27.3818595049740097 S
atom 10.4529056403179883 5.1023394854105337 27.3818595049740097 S
atom 5.4191477107317132 10.1360974149967955 27.3818595049740097 S
atom 9.7576573588123665 10.0744655841335042 27.3818595049740097 S
atom 5.5240627165973306 5.1231375883993469 32.4036582403831801 S
atom 9.6311619870080936 4.9983291856197924 32.4036582403831801 S
atom 4.5974040574218211 10.0320871152060338 32.4036582403831801 S
atom 10.5794010121222470 10.1784758839242500 32.4036582403831801 S
atom 5.0499432040402592 2.5330642392471168 30.0497042520827051 S
atom 10.0944913165958639 2.5438544222164396 29.9414549224969591 S
atom 5.0607333870095754 7.5776123518026957 29.9414549224969591 S
atom 10.1052814995651676 7.5884025347720216 30.0497042520827051 S
atom 5.0499432040402592 2.5330642392471168 34.7886931904117276 S
atom 10.0944913165958639 2.5438544222164396 34.9870875808066373 S
atom 5.0607333870095754 7.5776123518026957 34.9870875808066373 S
atom 10.1052814995651676 7.5884025347720216 34.7886931904117276 S
atom 2.5330642392471190 5.0499432040402494 30.3363559648386314 S
atom 7.5776123518027063 5.0607333870095692 29.5503115213599550 S
atom 2.5438544222164459 10.0944913165958159 29.5503115213599550 S
atom 7.5884025347720296 10.1052814995651534 30.3363559648386314 S
atom 2.5330642392471190 5.0499432040402494 34.4207754065750038 S
atom 7.5776123518027063 5.0607333870095692 35.3442300188953453 S
atom 2.5438544222164459 10.0944913165958159 35.3442300188953453 S
atom 7.5884025347720296 10.1052814995651534 34.4207754065750038 S
atom 2.4786384264666865 2.5361063357532911 37.3690819630639339 Ba
atom 7.6212479816138128 2.5300221427409388 37.3690819630639339 Ba
atom 2.5874900520275554 7.5637800723271971 37.3690819630639339 Ba
atom 7.5339767219916052 7.5914446312781960 37.3690819630639339 Ba
atom 2.5766998690582290 2.5192319597716151 42.2989513188922928 Ba
atom 7.5231865390222747 2.5468965187226198 42.2989513188922928 Ba
atom 2.4894286094360090 7.5806544483088691 42.2989513188922928 Ba
atom 7.6320381645831450 7.5745702552965222 42.2989513188922928 Ba
atom 5.0553382955249102 5.0553382955249058 39.8340166409781204 Zr
atom 10.0998864080805184 5.0661284784942335 39.8340166409781204 Zr
atom 5.0661284784942380 10.0998864080804989 39.8340166409781204 Zr
atom 10.1106765910498204 10.1106765910498115 39.8340166409781204 Zr
atom 5.0545912158344315 5.0586828815244118 44.7934877968346896 Zr
atom 10.1006334877709936 5.0627838924947257 44.7934877968346896 Zr
atom 5.0668755581847247 10.0965418220809884 44.7934877968346896 Zr
atom 10.1099295113593328 10.1140211770493096 44.7934877968346896 Zr
atom 4.5552588717636970 4.9574485130180612 37.3585595749016335 S
atom 10.5999658318417183 5.1640182610010736 37.3585595749016335 S
atom 5.5662079022554529 10.1977761905873123 37.3585595749016335 S
atom 9.6105971672886294 10.0127868085429768 37.3585595749016335 S
atom 5.5554177192861216 5.1532280780317476 42.3094737070546074 S
atom 9.5998069843193079 4.9682386959873845 42.3094737070546074 S
atom 4.5660490547330239 10.0019966255736499 42.3094737070546074 S
atom 10.6107560148110451 10.2085663735566463 42.3094737070546074 S
atom 5.0499432040402592 2.5330642392471168 39.9544160836299866 S
atom 10.0944913165958639 2.5438544222164396 39.7136171983263111 S
atom 5.0607333870095754 7.5776123518026957 39.7136171983263111 S
atom 10.1052814995651676 7.5884025347720216 39.9544160836299866 S
atom 5.0499432040402592 2.5330642392471168 44.6809457011496320 S
atom 10.0944913165958639 2.5438544222164396 44.8793400915444849 S
atom 5.0607333870095754 7.5776123518026957 44.8793400915444849 S
atom 10.1052814995651676 7.5884025347720216 44.6809457011496320 S
atom 2.5330642392471190 5.0499432040402494 40.3057376558927558 S
atom 7.5776123518027063 5.0607333870095692 39.3622956260635348 S
atom 2.5438544222164459 10.0944913165958159 39.3622956260635348 S
atom 7.5884025347720296 10.1052814995651534 40.3057376558927558 S
atom 2.5330642392471190 5.0499432040402494 44.3238032630608672 S
atom 7.5776123518027063 5.0607333870095692 45.2472578753812087 S
atom 2.5438544222164459 10.0944913165958159 45.2472578753812087 S
atom 7.5884025347720296 10.1052814995651534 44.3238032630608672 S
atom 2.5038758982712572 2.5554956757524265 47.1863001208698236 Ba
atom 7.5960105098092328 2.5106328027418074 47.1863001208698236 Ba
atom 2.5622525802229816 7.5443907323280603 47.1863001208698236 Ba
atom 7.5592141937961754 7.6108339712773354 47.1863001208698236 Ba
atom 2.5212281061996684 2.3745395245366163 51.8471303299371442 Ba
atom 7.5786583018808464 2.6915889539576181 51.8471303299371442 Ba
atom 2.5449003722945718 7.7253468835438737 51.8471303299371442 Ba
atom 7.5765664017245822 7.4298778200615221 51.8471303299371442 Ba
atom 5.0427343439759360 5.0525034900476049 49.8050370257363113 Zr
atom 10.1124903596294740 5.0689632839715326 49.8050370257363113 Zr
atom 5.0787324300432175 10.1027212135577784 49.8050370257363113 Zr
atom 10.0980726395008631 10.1078417855725124 49.8050370257363113 Zr
atom 4.5866138744524934 4.9875390026504656 47.2643750415730821 S
atom 10.5686108291529148 5.1339277713686693 47.2643750415730821 S
atom 5.5348528995666557 10.1676857009549426 47.2643750415730821 S
atom 9.6419521699774275 10.0428772981753660 47.2643750415730821 S
atom 5.4083575277623934 5.0915493024412051 52.2861737769822312 S
atom 9.7468671758430272 5.0299174715779271 52.2861737769822312 S
atom 4.7131092462567583 10.0636754011641827 52.2861737769822312 S
atom 10.4636958232872921 10.1468875979661313 52.2861737769822312 S
atom 5.0499432040402592 2.5330642392471168 49.7265783594593458 S
atom 10.0944913165958639 2.5438544222164396 49.6183290298735145 S
atom 5.0607333870095754 7.5776123518026957 49.6183290298735145 S
atom 10.1052814995651676 7.5884025347720216 49.7265783594593458 S
atom 2.5330642392471190 5.0499432040402494 50.1177217605962682 S
atom 7.5776123518027063 5.0607333870095692 49.3316773171175811 S
atom 2.5438544222164459 10.0944913165958159 49.3316773171175811 S
atom 7.5884025347720296 10.1052814995651534 50.1177217605962682 S
