#=======================================================
# FHI-aims file: sym_relax/sym_relax_RP_5_000_000.in
# Created using the Atomic Simulation Environment (ASE)
# Fri Mar 14 10:32:46 2025
#=======================================================
lattice_vector 10.0678570768957947 0.0000000000000000 0.0000000000000000 
lattice_vector 0.0000000000000000 10.0678570768957947 0.0000000000000000 
lattice_vector -0.0000000000000000 0.0000000000000001 55.7269088293788144 
atom -0.0000000000000000 0.0000000000000000 0.2895232581762114 Ba
atom 5.0339285384478982 0.0000000000000000 0.2895232581762114 Ba
atom -0.0000000000000000 5.0339285384478982 0.2895232581762114 Ba
atom 5.0339285384478982 5.0339285384478982 0.2895232581762114 Ba
atom 0.0000000000000000 0.0000000000000000 5.0540312440482458 Ba
atom 5.0339285384478982 0.0000000000000000 5.0540312440482458 Ba
atom 0.0000000000000000 5.0339285384478982 5.0540312440482458 Ba
atom 5.0339285384478982 5.0339285384478982 5.0540312440482458 Ba
atom 2.5169642692239491 2.5169642692239491 2.3156759155327840 Zr
atom 7.5508928076718407 2.5169642692239491 2.3156759155327840 Zr
atom 2.5169642692239491 7.5508928076718407 2.3156759155327840 Zr
atom 7.5508928076718407 7.5508928076718407 2.3156759155327840 Zr
atom 2.5169642692239491 2.5169642692239491 7.3951278181757436 Zr
atom 7.5508928076718407 2.5169642692239491 7.3951278181757436 Zr
atom 2.5169642692239491 7.5508928076718407 7.3951278181757436 Zr
atom 7.5508928076718407 7.5508928076718407 7.3951278181757436 Zr
atom 2.5169642692239491 2.5169642692239491 -0.1762396934379168 S
atom 7.5508928076718407 2.5169642692239491 -0.1762396934379169 S
atom 2.5169642692239491 7.5508928076718407 -0.1762396934379169 S
atom 7.5508928076718407 7.5508928076718407 -0.1762396934379169 S
atom 2.5169642692239491 2.5169642692239491 4.9021219213953433 S
atom 7.5508928076718407 2.5169642692239491 4.9021219213953433 S
atom 2.5169642692239491 7.5508928076718407 4.9021219213953433 S
atom 7.5508928076718407 7.5508928076718407 4.9021219213953433 S
atom 2.5169642692239491 0.0000000000000000 2.4446953307890236 S
atom 7.5508928076718407 0.0000000000000000 2.4446953307890236 S
atom 2.5169642692239491 5.0339285384478982 2.4446953307890236 S
atom 7.5508928076718407 5.0339285384478982 2.4446953307890236 S
atom 2.5169642692239491 0.0000000000000000 7.4247732489275293 S
atom 7.5508928076718407 0.0000000000000000 7.4247732489275293 S
atom 2.5169642692239491 5.0339285384478982 7.4247732489275293 S
atom 7.5508928076718407 5.0339285384478982 7.4247732489275293 S
atom -0.0000000000000000 2.5169642692239491 2.4446953307890236 S
atom 5.0339285384478982 2.5169642692239491 2.4446953307890236 S
atom -0.0000000000000000 7.5508928076718407 2.4446953307890236 S
atom 5.0339285384478982 7.5508928076718407 2.4446953307890236 S
atom 0.0000000000000000 2.5169642692239491 7.4247732489275293 S
atom 5.0339285384478982 2.5169642692239491 7.4247732489275293 S
atom 0.0000000000000000 7.5508928076718407 7.4247732489275293 S
atom 5.0339285384478982 7.5508928076718407 7.4247732489275293 S
atom -0.0000000000000000 0.0000000000000000 9.9668338780239338 Ba
atom 5.0339285384478982 0.0000000000000000 9.9668338780239338 Ba
atom -0.0000000000000000 5.0339285384478982 9.9668338780239338 Ba
atom 5.0339285384478982 5.0339285384478982 9.9668338780239338 Ba
atom -0.0000000000000000 0.0000000000000000 14.9112504208058887 Ba
atom 5.0339285384478982 0.0000000000000000 14.9112504208058887 Ba
atom -0.0000000000000000 5.0339285384478982 14.9112504208058887 Ba
atom 5.0339285384478982 5.0339285384478982 14.9112504208058887 Ba
atom 2.5169642692239491 2.5169642692239491 12.4390421494149148 Zr
atom 7.5508928076718407 2.5169642692239491 12.4390421494149148 Zr
atom 2.5169642692239491 7.5508928076718407 12.4390421494149148 Zr
atom 7.5508928076718407 7.5508928076718407 12.4390421494149148 Zr
atom 2.5169642692239491 2.5169642692239491 17.4829564806540532 Zr
atom 7.5508928076718407 2.5169642692239491 17.4829564806540532 Zr
atom 2.5169642692239491 7.5508928076718407 17.4829564806540532 Zr
atom 7.5508928076718407 7.5508928076718407 17.4829564806540532 Zr
atom 2.5169642692239491 2.5169642692239491 9.9271519091907336 S
atom 7.5508928076718407 2.5169642692239491 9.9271519091907336 S
atom 2.5169642692239491 7.5508928076718407 9.9271519091907336 S
atom 7.5508928076718407 7.5508928076718407 9.9271519091907336 S
atom 2.5169642692239491 2.5169642692239491 14.9509323896390907 S
atom 7.5508928076718407 2.5169642692239491 14.9509323896390907 S
atom 2.5169642692239491 7.5508928076718407 14.9509323896390907 S
atom 7.5508928076718407 7.5508928076718407 14.9509323896390907 S
atom 2.5169642692239491 0.0000000000000000 12.4390421494149148 S
atom 7.5508928076718407 0.0000000000000000 12.4390421494149148 S
atom 2.5169642692239491 5.0339285384478982 12.4390421494149148 S
atom 7.5508928076718407 5.0339285384478982 12.4390421494149148 S
atom 2.5169642692239491 0.0000000000000000 17.4533110499022897 S
atom 7.5508928076718407 0.0000000000000000 17.4533110499022897 S
atom 2.5169642692239491 5.0339285384478982 17.4533110499022897 S
atom 7.5508928076718407 5.0339285384478982 17.4533110499022897 S
atom -0.0000000000000000 2.5169642692239491 12.4390421494149148 S
atom 5.0339285384478982 2.5169642692239491 12.4390421494149148 S
atom -0.0000000000000000 7.5508928076718407 12.4390421494149148 S
atom 5.0339285384478982 7.5508928076718407 12.4390421494149148 S
atom -0.0000000000000000 2.5169642692239491 17.4533110499022897 S
atom 5.0339285384478982 2.5169642692239491 17.4533110499022897 S
atom -0.0000000000000000 7.5508928076718407 17.4533110499022897 S
atom 5.0339285384478982 7.5508928076718407 17.4533110499022897 S
atom 0.0000000000000000 0.0000000000000000 19.8240530547815723 Ba
atom 5.0339285384478982 0.0000000000000000 19.8240530547815723 Ba
atom 0.0000000000000000 5.0339285384478982 19.8240530547815723 Ba
atom 5.0339285384478982 5.0339285384478982 19.8240530547815723 Ba
atom 0.0000000000000000 0.0000000000000001 24.5885610406536088 Ba
atom 5.0339285384478982 0.0000000000000001 24.5885610406536088 Ba
atom 0.0000000000000000 5.0339285384478982 24.5885610406536124 Ba
atom 5.0339285384478982 5.0339285384478982 24.5885610406536124 Ba
atom 2.5169642692239491 2.5169642692239491 22.5624083832970399 Zr
atom 7.5508928076718407 2.5169642692239491 22.5624083832970399 Zr
atom 2.5169642692239491 7.5508928076718407 22.5624083832970399 Zr
atom 7.5508928076718407 7.5508928076718407 22.5624083832970399 Zr
atom 2.5169642692239491 2.5169642692239491 19.9759623774344774 S
atom 7.5508928076718407 2.5169642692239491 19.9759623774344774 S
atom 2.5169642692239491 7.5508928076718407 19.9759623774344774 S
atom 7.5508928076718407 7.5508928076718407 19.9759623774344774 S
atom 2.5169642692239491 2.5169642692239491 25.0543239922677330 S
atom 7.5508928076718407 2.5169642692239491 25.0543239922677330 S
atom 2.5169642692239491 7.5508928076718407 25.0543239922677330 S
atom 7.5508928076718407 7.5508928076718407 25.0543239922677330 S
atom 2.5169642692239491 0.0000000000000001 22.4333889680407985 S
atom 7.5508928076718407 0.0000000000000001 22.4333889680407985 S
atom 2.5169642692239491 5.0339285384478982 22.4333889680407985 S
atom 7.5508928076718407 5.0339285384478982 22.4333889680407985 S
atom 0.0000000000000000 2.5169642692239491 22.4333889680407985 S
atom 5.0339285384478982 2.5169642692239491 22.4333889680407985 S
atom 0.0000000000000000 7.5508928076718407 22.4333889680407985 S
atom 5.0339285384478982 7.5508928076718407 22.4333889680407985 S
atom 2.5169642692239491 2.5169642692239491 28.1529776728656103 Ba
atom 7.5508928076718407 2.5169642692239491 28.1529776728656103 Ba
atom 2.5169642692239491 7.5508928076718407 28.1529776728656103 Ba
atom 7.5508928076718407 7.5508928076718407 28.1529776728656103 Ba
atom 2.5169642692239491 2.5169642692239491 32.9174856587376325 Ba
atom 7.5508928076718407 2.5169642692239491 32.9174856587376325 Ba
atom 2.5169642692239491 7.5508928076718407 32.9174856587376325 Ba
atom 7.5508928076718407 7.5508928076718407 32.9174856587376325 Ba
atom 5.0339285384478982 5.0339285384478982 30.1791303302221792 Zr
atom 10.0678570768957965 5.0339285384478982 30.1791303302221792 Zr
atom 5.0339285384478982 10.0678570768957965 30.1791303302221792 Zr
atom 10.0678570768957965 10.0678570768957965 30.1791303302221792 Zr
atom 5.0339285384478982 5.0339285384478982 35.2585822328651517 Zr
atom 10.0678570768957965 5.0339285384478982 35.2585822328651517 Zr
atom 5.0339285384478982 10.0678570768957965 35.2585822328651517 Zr
atom 10.0678570768957965 10.0678570768957965 35.2585822328651517 Zr
atom 5.0339285384478982 5.0339285384478982 27.6872147212515003 S
atom 10.0678570768957965 5.0339285384478982 27.6872147212515003 S
atom 5.0339285384478982 10.0678570768957965 27.6872147212515003 S
atom 10.0678570768957965 10.0678570768957965 27.6872147212515003 S
atom 5.0339285384478982 5.0339285384478982 32.7655763360847416 S
atom 10.0678570768957965 5.0339285384478982 32.7655763360847416 S
atom 5.0339285384478982 10.0678570768957965 32.7655763360847416 S
atom 10.0678570768957965 10.0678570768957965 32.7655763360847416 S
atom 5.0339285384478982 2.5169642692239491 30.3081497454784099 S
atom 10.0678570768957965 2.5169642692239491 30.3081497454784099 S
atom 5.0339285384478982 7.5508928076718407 30.3081497454784099 S
atom 10.0678570768957965 7.5508928076718407 30.3081497454784099 S
atom 5.0339285384478982 2.5169642692239491 35.2882276636169365 S
atom 10.0678570768957965 2.5169642692239491 35.2882276636169365 S
atom 5.0339285384478982 7.5508928076718407 35.2882276636169365 S
atom 10.0678570768957965 7.5508928076718407 35.2882276636169365 S
atom 2.5169642692239491 5.0339285384478982 30.3081497454784099 S
atom 7.5508928076718407 5.0339285384478982 30.3081497454784099 S
atom 2.5169642692239491 10.0678570768957965 30.3081497454784099 S
atom 7.5508928076718407 10.0678570768957965 30.3081497454784099 S
atom 2.5169642692239491 5.0339285384478982 35.2882276636169365 S
atom 7.5508928076718407 5.0339285384478982 35.2882276636169365 S
atom 2.5169642692239491 10.0678570768957965 35.2882276636169365 S
atom 7.5508928076718407 10.0678570768957965 35.2882276636169365 S
atom 2.5169642692239491 2.5169642692239491 37.8302882927133481 Ba
atom 7.5508928076718407 2.5169642692239491 37.8302882927133481 Ba
atom 2.5169642692239491 7.5508928076718407 37.8302882927133481 Ba
atom 7.5508928076718407 7.5508928076718407 37.8302882927133481 Ba
atom 2.5169642692239491 2.5169642692239491 42.7747048354952781 Ba
atom 7.5508928076718407 2.5169642692239491 42.7747048354952781 Ba
atom 2.5169642692239491 7.5508928076718407 42.7747048354952781 Ba
atom 7.5508928076718407 7.5508928076718407 42.7747048354952781 Ba
atom 5.0339285384478982 5.0339285384478982 40.3024965641043167 Zr
atom 10.0678570768957965 5.0339285384478982 40.3024965641043167 Zr
atom 5.0339285384478982 10.0678570768957965 40.3024965641043167 Zr
atom 10.0678570768957965 10.0678570768957965 40.3024965641043167 Zr
atom 5.0339285384478982 5.0339285384478982 45.3464108953434888 Zr
atom 10.0678570768957965 5.0339285384478982 45.3464108953434888 Zr
atom 5.0339285384478982 10.0678570768957965 45.3464108953434888 Zr
atom 10.0678570768957965 10.0678570768957965 45.3464108953434888 Zr
atom 5.0339285384478982 5.0339285384478982 37.7906063238801480 S
atom 10.0678570768957965 5.0339285384478982 37.7906063238801480 S
atom 5.0339285384478982 10.0678570768957965 37.7906063238801480 S
atom 10.0678570768957965 10.0678570768957965 37.7906063238801480 S
atom 5.0339285384478982 5.0339285384478982 42.8143868043284641 S
atom 10.0678570768957965 5.0339285384478982 42.8143868043284641 S
atom 5.0339285384478982 10.0678570768957965 42.8143868043284641 S
atom 10.0678570768957965 10.0678570768957965 42.8143868043284641 S
atom 5.0339285384478982 2.5169642692239491 40.3024965641043167 S
atom 10.0678570768957965 2.5169642692239491 40.3024965641043167 S
atom 5.0339285384478982 7.5508928076718407 40.3024965641043167 S
atom 10.0678570768957965 7.5508928076718407 40.3024965641043167 S
atom 5.0339285384478982 2.5169642692239491 45.3167654645917182 S
atom 10.0678570768957965 2.5169642692239491 45.3167654645917182 S
atom 5.0339285384478982 7.5508928076718407 45.3167654645917182 S
atom 10.0678570768957965 7.5508928076718407 45.3167654645917182 S
atom 2.5169642692239491 5.0339285384478982 40.3024965641043167 S
atom 7.5508928076718407 5.0339285384478982 40.3024965641043167 S
atom 2.5169642692239491 10.0678570768957965 40.3024965641043167 S
atom 7.5508928076718407 10.0678570768957965 40.3024965641043167 S
atom 2.5169642692239491 5.0339285384478982 45.3167654645917182 S
atom 7.5508928076718407 5.0339285384478982 45.3167654645917182 S
atom 2.5169642692239491 10.0678570768957965 45.3167654645917182 S
atom 7.5508928076718407 10.0678570768957965 45.3167654645917182 S
atom 2.5169642692239491 2.5169642692239491 47.6875074694709582 Ba
atom 7.5508928076718407 2.5169642692239491 47.6875074694709582 Ba
atom 2.5169642692239491 7.5508928076718407 47.6875074694709582 Ba
atom 7.5508928076718407 7.5508928076718407 47.6875074694709582 Ba
atom 2.5169642692239491 2.5169642692239491 52.4520154553430231 Ba
atom 7.5508928076718407 2.5169642692239491 52.4520154553430231 Ba
atom 2.5169642692239491 7.5508928076718407 52.4520154553430231 Ba
atom 7.5508928076718407 7.5508928076718407 52.4520154553430231 Ba
atom 5.0339285384478982 5.0339285384478982 50.4258627979864329 Zr
atom 10.0678570768957965 5.0339285384478982 50.4258627979864329 Zr
atom 5.0339285384478982 10.0678570768957965 50.4258627979864329 Zr
atom 10.0678570768957965 10.0678570768957965 50.4258627979864329 Zr
atom 5.0339285384478982 5.0339285384478982 47.8394167921239060 S
atom 10.0678570768957965 5.0339285384478982 47.8394167921239060 S
atom 5.0339285384478982 10.0678570768957965 47.8394167921239060 S
atom 10.0678570768957965 10.0678570768957965 47.8394167921239060 S
atom 5.0339285384478982 5.0339285384478982 52.9177784069571189 S
atom 10.0678570768957965 5.0339285384478982 52.9177784069571189 S
atom 5.0339285384478982 10.0678570768957965 52.9177784069571189 S
atom 10.0678570768957965 10.0678570768957965 52.9177784069571189 S
atom 5.0339285384478982 2.5169642692239491 50.2968433827302093 S
atom 10.0678570768957965 2.5169642692239491 50.2968433827302093 S
atom 5.0339285384478982 7.5508928076718407 50.2968433827302093 S
atom 10.0678570768957965 7.5508928076718407 50.2968433827302093 S
atom 2.5169642692239491 5.0339285384478982 50.2968433827302093 S
atom 7.5508928076718407 5.0339285384478982 50.2968433827302093 S
atom 2.5169642692239491 10.0678570768957965 50.2968433827302093 S
atom 7.5508928076718407 10.0678570768957965 50.2968433827302093 S
