#=======================================================
# FHI-aims file: sym_relax/sym_relax_RP_10_Rx00_0Ry0.in
# Created using the Atomic Simulation Environment (ASE)
# Mon Mar 17 17:09:11 2025
#=======================================================
lattice_vector 10.0794293798620096 -0.0000000000000004 0.0000000000000000 
lattice_vector -0.0000000000000004 10.0794293798620096 0.0000000000000000 
lattice_vector 0.0000000000000000 0.0000000000000000 104.6490792284649700 
atom -0.1523059355054033 0.0000000000000000 0.2762118575806982 Ba
atom 5.1920206254364105 -0.0000000000000000 0.2762118575806982 Ba
atom 0.1523059355054035 5.0397146899310030 0.2762118575806982 Ba
atom 4.8874087544255982 5.0397146899310039 0.2762118575806982 Ba
atom 0.0273490272490369 -0.0000000000000000 4.9441085396885374 Ba
atom 5.0123656626819573 0.0000000000000000 4.9441085396885374 Ba
atom -0.0273490272490369 5.0397146899310030 4.9441085396885374 Ba
atom 5.0670637171800488 5.0397146899310039 4.9441085396885374 Ba
atom 2.5198573449655015 2.5074890087410955 2.3191177923301396 Zr
atom 7.5595720348965063 2.5322256811899098 2.3191177923301396 Zr
atom 2.5198573449655015 7.5719403711209106 2.3191177923301396 Zr
atom 7.5595720348965063 7.5472036986720941 2.3191177923301396 Zr
atom 2.5198573449655015 2.5186008773900754 7.3318400072578109 Zr
atom 7.5595720348965063 2.5211138125409258 7.3318400072578127 Zr
atom 2.5198573449655015 7.5608285024719271 7.3318400072578127 Zr
atom 7.5595720348965063 7.5583155673210820 7.3318400072578109 Zr
atom 2.5198573449655015 2.8724066478981523 -0.1625764867598197 S
atom 7.5595720348965063 2.1673080420328508 -0.1625764867598197 S
atom 2.5198573449655015 7.2070227319638454 -0.1625764867598197 S
atom 7.5595720348965063 7.9121213378291486 -0.1625764867598197 S
atom 2.5198573449655015 2.0477835905510444 4.8618324748539186 S
atom 7.5595720348965063 2.9919310993799604 4.8618324748539186 S
atom 2.5198573449655015 8.0316457893109483 4.8618324748539186 S
atom 7.5595720348965063 7.0874982804820474 4.8618324748539186 S
atom 2.5198573449655015 0.0000000000000000 2.0047043093739516 S
atom 7.5595720348965063 0.0000000000000000 2.7963219866421172 S
atom 2.5198573449655015 5.0397146899310039 2.7963219866421172 S
atom 7.5595720348965063 5.0397146899310039 2.0047043093739516 S
atom 2.5198573449655015 0.0000000000000000 7.8115487893352018 S
atom 7.5595720348965063 0.0000000000000000 6.8758440051077248 S
atom 2.5198573449655015 5.0397146899310039 6.8758440051077248 S
atom 7.5595720348965063 5.0397146899310039 7.8115487893352018 S
atom 0.0000000000000000 2.5198573449655015 2.4541316454235713 S
atom 5.0397146899310030 2.5198573449655020 2.4541316454235713 S
atom -0.0000000000000000 7.5595720348965063 2.4541316454235713 S
atom 5.0397146899310030 7.5595720348965063 2.4541316454235713 S
atom 0.0000000000000000 2.5198573449655015 7.3498316390248233 S
atom 5.0397146899310030 2.5198573449655020 7.3498316390248233 S
atom -0.0000000000000000 7.5595720348965063 7.3498316390248233 S
atom 5.0397146899310030 7.5595720348965063 7.3498316390248233 S
atom -0.0073130719245151 0.0000000000000000 9.8387613542130783 Ba
atom 5.0470277618555173 -0.0000000000000000 9.8387613542130783 Ba
atom 0.0073130719245151 5.0397146899310030 9.8387613542130783 Ba
atom 5.0324016180064888 5.0397146899310039 9.8387613542130783 Ba
atom 0.0067764826808900 0.0000000000000000 14.7795996083372927 Ba
atom 5.0329382072501154 0.0000000000000000 14.7795996083372927 Ba
atom -0.0067764826808901 5.0397146899310030 14.7795996083372927 Ba
atom 5.0464911726118942 5.0397146899310039 14.7795996083372927 Ba
atom 2.5198573449655015 2.5214958031340315 12.2913650518507112 Zr
atom 7.5595720348965063 2.5182188867969679 12.2913650518507112 Zr
atom 2.5198573449655015 7.5579335767279705 12.2913650518507112 Zr
atom 7.5595720348965063 7.5612104930650279 12.2913650518507112 Zr
atom 2.5198573449655015 2.5194751501566413 17.2483036779938175 Zr
atom 7.5595720348965063 2.5202395397743564 17.2483036779938175 Zr
atom 2.5198573449655015 7.5599542297053564 17.2483036779938175 Zr
atom 7.5595720348965063 7.5591898400876492 17.2483036779938175 Zr
atom 2.5198573449655015 3.0269895844479202 9.8188565670963168 S
atom 7.5595720348965063 2.0127251054830828 9.8188565670963168 S
atom 2.5198573449655015 7.0524397954140792 9.8188565670963168 S
atom 7.5595720348965063 8.0667042743789104 9.8188565670963168 S
atom 2.5198573449655015 2.0108879929021111 14.7726489607373246 S
atom 7.5595720348965063 3.0288266970288884 14.7726489607373246 S
atom 2.5198573449655015 8.0685413869598985 14.7726489607373246 S
atom 7.5595720348965063 7.0506026828331247 14.7726489607373246 S
atom 2.5198573449655015 0.0000000000000000 11.8208403649381086 S
atom 7.5595720348965063 0.0000000000000000 12.7799810574396790 S
atom 2.5198573449655015 5.0397146899310039 12.7799810574396790 S
atom 7.5595720348965063 5.0397146899310039 11.8208403649381086 S
atom 2.5198573449655015 0.0000000000000000 17.7324586224019747 S
atom 7.5595720348965063 0.0000000000000000 16.7699945383717051 S
atom 2.5198573449655015 5.0397146899310039 16.7699945383717051 S
atom 7.5595720348965063 5.0397146899310039 17.7324586224019747 S
atom -0.0000000000000000 2.5198573449655015 12.3001695708267214 S
atom 5.0397146899310030 2.5198573449655020 12.3001695708267214 S
atom -0.0000000000000000 7.5595720348965063 12.3001695708267214 S
atom 5.0397146899310030 7.5595720348965063 12.3001695708267214 S
atom 0.0000000000000000 2.5198573449655015 17.2510375236818767 S
atom 5.0397146899310030 2.5198573449655020 17.2510375236818767 S
atom 0.0000000000000000 7.5595720348965063 17.2510375236818767 S
atom 5.0397146899310030 7.5595720348965063 17.2510375236818767 S
atom -0.0057790370648203 0.0000000000000000 19.7282952999990400 Ba
atom 5.0454937269958169 0.0000000000000000 19.7282952999990400 Ba
atom 0.0057790370648203 5.0397146899310030 19.7282952999990400 Ba
atom 5.0339356528661856 5.0397146899310039 19.7282952999990400 Ba
atom 0.0055286227320697 0.0000000000000000 24.6813866104870208 Ba
atom 5.0341860671989327 0.0000000000000000 24.6813866104870208 Ba
atom -0.0055286227320697 5.0397146899310030 24.6813866104870208 Ba
atom 5.0452433126630689 5.0397146899310039 24.6813866104870208 Ba
atom 2.5198573449655015 2.5199281238507676 22.2038365407501956 Zr
atom 7.5595720348965063 2.5197865660802372 22.2038365407501956 Zr
atom 2.5198573449655015 7.5595012560112380 22.2038365407501956 Zr
atom 7.5595720348965063 7.5596428137817675 22.2038365407501956 Zr
atom 2.5198573449655015 2.5199281238507676 27.1589366802238921 Zr
atom 7.5595720348965063 2.5197865660802372 27.1589366802238921 Zr
atom 2.5198573449655015 7.5595012560112380 27.1589366802238921 Zr
atom 7.5595720348965063 7.5596428137817675 27.1589366802238921 Zr
atom 2.5198573449655015 3.0299952668569121 19.7271112531881734 S
atom 7.5595720348965063 2.0097194230740909 19.7271112531881663 S
atom 2.5198573449655015 7.0494341130050895 19.7271112531881663 S
atom 7.5595720348965063 8.0697099567879018 19.7271112531881734 S
atom 2.5198573449655015 2.0092445130144068 24.6813866104870208 S
atom 7.5595720348965063 3.0304701769165945 24.6813866104870208 S
atom 2.5198573449655015 8.0701848668475886 24.6813866104870208 S
atom 7.5595720348965063 7.0489592029454107 24.6813866104870208 S
atom 2.5198573449655015 0.0000000000000000 21.7221028976567503 S
atom 7.5595720348965063 0.0000000000000000 22.6867840597284776 S
atom 2.5198573449655015 5.0397146899310039 22.6867840597284776 S
atom 7.5595720348965063 5.0397146899310039 21.7221028976567503 S
atom 2.5198573449655015 0.0000000000000000 27.6406703233172912 S
atom 7.5595720348965063 0.0000000000000000 26.6759891612455924 S
atom 2.5198573449655015 5.0397146899310039 26.6759891612455924 S
atom 7.5595720348965063 5.0397146899310039 27.6406703233172912 S
atom 0.0000000000000000 2.5198573449655015 22.2046649357305341 S
atom 5.0397146899310030 2.5198573449655020 22.2046649357305341 S
atom 0.0000000000000000 7.5595720348965063 22.2046649357305341 S
atom 5.0397146899310030 7.5595720348965063 22.2046649357305341 S
atom -0.0000000000000000 2.5198573449655015 27.1581082852435074 S
atom 5.0397146899310030 2.5198573449655020 27.1581082852435074 S
atom -0.0000000000000000 7.5595720348965063 27.1581082852435074 S
atom 5.0397146899310030 7.5595720348965063 27.1581082852435074 S
atom -0.0057790370648203 0.0000000000000000 29.6344779209750335 Ba
atom 5.0454937269958169 0.0000000000000000 29.6344779209750335 Ba
atom 0.0057790370648203 5.0397146899310030 29.6344779209750335 Ba
atom 5.0339356528661856 5.0397146899310039 29.6344779209750335 Ba
atom 0.0067764826808900 0.0000000000000000 34.5831736126367986 Ba
atom 5.0329382072501154 0.0000000000000000 34.5831736126367986 Ba
atom -0.0067764826808901 5.0397146899310030 34.5831736126367986 Ba
atom 5.0464911726118942 5.0397146899310039 34.5831736126367986 Ba
atom 2.5198573449655015 2.5194751501566413 32.1144695429802951 Zr
atom 7.5595720348965063 2.5202395397743564 32.1144695429802951 Zr
atom 2.5198573449655015 7.5599542297053564 32.1144695429802951 Zr
atom 7.5595720348965063 7.5591898400876492 32.1144695429802951 Zr
atom 2.5198573449655015 2.5214958031340315 37.0714081691233446 Zr
atom 7.5595720348965063 2.5182188867969679 37.0714081691233446 Zr
atom 2.5198573449655015 7.5579335767279705 37.0714081691233446 Zr
atom 7.5595720348965063 7.5612104930650279 37.0714081691233446 Zr
atom 2.5198573449655015 3.0299952668569112 29.6356619677858646 S
atom 7.5595720348965063 2.0097194230740909 29.6356619677858646 S
atom 2.5198573449655015 7.0494341130050895 29.6356619677858646 S
atom 7.5595720348965063 8.0697099567879018 29.6356619677858646 S
atom 2.5198573449655015 2.0108879929021111 34.5901242602367347 S
atom 7.5595720348965063 3.0288266970288893 34.5901242602367347 S
atom 2.5198573449655015 8.0685413869598985 34.5901242602367347 S
atom 7.5595720348965063 7.0506026828331247 34.5901242602367347 S
atom 2.5198573449655015 0.0000000000000000 31.6303145985721201 S
atom 7.5595720348965063 0.0000000000000000 32.5927786826023365 S
atom 2.5198573449655015 5.0397146899310039 32.5927786826023365 S
atom 7.5595720348965063 5.0397146899310039 31.6303145985721201 S
atom 2.5198573449655015 0.0000000000000000 37.5419328560359844 S
atom 7.5595720348965063 0.0000000000000000 36.5827921635344069 S
atom 2.5198573449655015 5.0397146899310039 36.5827921635344069 S
atom 7.5595720348965063 5.0397146899310039 37.5419328560359844 S
atom 0.0000000000000000 2.5198573449655015 32.1117356972921755 S
atom 5.0397146899310030 2.5198573449655020 32.1117356972921755 S
atom -0.0000000000000000 7.5595720348965063 32.1117356972921755 S
atom 5.0397146899310030 7.5595720348965063 32.1117356972921755 S
atom 0.0000000000000000 2.5198573449655015 37.0626036501473450 S
atom 5.0397146899310030 2.5198573449655020 37.0626036501473450 S
atom 0.0000000000000000 7.5595720348965063 37.0626036501473450 S
atom 5.0397146899310030 7.5595720348965063 37.0626036501473450 S
atom -0.0073130719245151 0.0000000000000000 39.5240118667609650 Ba
atom 5.0470277618555173 0.0000000000000000 39.5240118667609650 Ba
atom 0.0073130719245151 5.0397146899310030 39.5240118667609650 Ba
atom 5.0324016180064888 5.0397146899310039 39.5240118667609650 Ba
atom 0.0273490272490369 -0.0000000000000000 44.4186646812855201 Ba
atom 5.0123656626819573 0.0000000000000000 44.4186646812855201 Ba
atom -0.0273490272490369 5.0397146899310030 44.4186646812855201 Ba
atom 5.0670637171800488 5.0397146899310039 44.4186646812855201 Ba
atom 2.5198573449655015 2.5186008773900754 42.0309332137162173 Zr
atom 7.5595720348965063 2.5211138125409258 42.0309332137162173 Zr
atom 2.5198573449655015 7.5608285024719271 42.0309332137162173 Zr
atom 7.5595720348965063 7.5583155673210820 42.0309332137162173 Zr
atom 2.5198573449655015 2.5074890087410955 47.0436554286439161 Zr
atom 7.5595720348965063 2.5322256811899098 47.0436554286439161 Zr
atom 2.5198573449655015 7.5719403711209106 47.0436554286439161 Zr
atom 7.5595720348965063 7.5472036986720941 47.0436554286439161 Zr
atom 2.5198573449655015 3.0269895844479202 39.5439166538777442 S
atom 7.5595720348965063 2.0127251054830828 39.5439166538777442 S
atom 2.5198573449655015 7.0524397954140792 39.5439166538777442 S
atom 7.5595720348965063 8.0667042743789104 39.5439166538777442 S
atom 2.5198573449655015 2.0477835905510444 44.5009407461201221 S
atom 7.5595720348965063 2.9919310993799604 44.5009407461201221 S
atom 2.5198573449655015 8.0316457893109483 44.5009407461201221 S
atom 7.5595720348965063 7.0874982804820474 44.5009407461201221 S
atom 2.5198573449655015 0.0000000000000000 41.5512244316388433 S
atom 7.5595720348965063 0.0000000000000000 42.4869292158664038 S
atom 2.5198573449655015 5.0397146899310039 42.4869292158664038 S
atom 7.5595720348965063 5.0397146899310039 41.5512244316388433 S
atom 2.5198573449655015 0.0000000000000000 47.3580689116001352 S
atom 7.5595720348965063 0.0000000000000000 46.5664512343319146 S
atom 2.5198573449655015 5.0397146899310039 46.5664512343319146 S
atom 7.5595720348965063 5.0397146899310039 47.3580689116001352 S
atom 0.0000000000000000 2.5198573449655015 42.0129415819492209 S
atom 5.0397146899310030 2.5198573449655020 42.0129415819492209 S
atom 0.0000000000000000 7.5595720348965063 42.0129415819492209 S
atom 5.0397146899310030 7.5595720348965063 42.0129415819492209 S
atom 0.0000000000000000 2.5198573449655015 46.9086415755505186 S
atom 5.0397146899310030 2.5198573449655020 46.9086415755505186 S
atom 0.0000000000000000 7.5595720348965063 46.9086415755505186 S
atom 5.0397146899310030 7.5595720348965063 46.9086415755505186 S
atom -0.1523059355054033 0.0000000000000000 49.0865613633933648 Ba
atom 5.1920206254364105 -0.0000000000000000 49.0865613633933648 Ba
atom 0.1523059355054034 5.0397146899310030 49.0865613633933648 Ba
atom 4.8874087544255982 5.0397146899310039 49.0865613633933648 Ba
atom 2.5198573449655015 2.8724066478981523 49.5253497077338523 S
atom 7.5595720348965063 2.1673080420328508 49.5253497077338523 S
atom 2.5198573449655015 7.2070227319638454 49.5253497077338523 S
atom 7.5595720348965063 7.9121213378291486 49.5253497077338523 S
atom 2.5198573449655015 2.3675514094600985 52.6007514718131546 Ba
atom 7.5595720348965063 2.6721632804709086 52.6007514718131546 Ba
atom 2.5198573449655015 7.7118779704019040 52.6007514718131546 Ba
atom 7.5595720348965063 7.4072660993910979 52.6007514718131546 Ba
atom 2.5198573449655015 2.5472063722145375 57.2686481539210703 Ba
atom 7.5595720348965063 2.4925083177164682 57.2686481539210703 Ba
atom 2.5198573449655015 7.5322230076474623 57.2686481539210703 Ba
atom 7.5595720348965063 7.5869210621455432 57.2686481539210703 Ba
atom 5.0273463537065908 5.0397146899310039 54.6436574065626601 Zr
atom 10.0917977160864041 5.0397146899310039 54.6436574065626601 Zr
atom 5.0520830261554064 10.0794293798620078 54.6436574065626601 Zr
atom 10.0670610436375991 10.0794293798620078 54.6436574065626601 Zr
atom 5.0384582223555796 5.0397146899310039 59.6563796214903022 Zr
atom 10.0806858474374383 5.0397146899310039 59.6563796214903022 Zr
atom 5.0409711575064273 10.0794293798620078 59.6563796214903022 Zr
atom 10.0781729122865773 10.0794293798620078 59.6563796214903022 Zr
atom 5.3922639928636578 5.0397146899310039 52.1619631274726956 S
atom 9.7268800769293708 5.0397146899310039 52.1619631274726956 S
atom 4.6871653869983465 10.0794293798620078 52.1619631274726956 S
atom 10.4319786827946430 10.0794293798620078 52.1619631274726956 S
atom 4.5676409355165379 5.0397146899310039 57.1863720890863974 S
atom 10.5515031342764516 5.0397146899310039 57.1863720890863974 S
atom 5.5117884443454663 10.0794293798620078 57.1863720890863974 S
atom 9.6073556254475658 10.0794293798620078 57.1863720890863974 S
atom 5.0397146899310030 2.5198573449655020 54.7786712596559724 S
atom 10.0794293798620060 2.5198573449655020 54.7786712596559724 S
atom 5.0397146899310030 7.5595720348965063 54.7786712596559724 S
atom 10.0794293798620060 7.5595720348965063 54.7786712596559724 S
atom 5.0397146899310030 2.5198573449655020 59.6743712532573198 S
atom 10.0794293798620060 2.5198573449655020 59.6743712532573198 S
atom 5.0397146899310030 7.5595720348965063 59.6743712532573198 S
atom 10.0794293798620060 7.5595720348965063 59.6743712532573198 S
atom 2.5198573449655015 5.0397146899310039 54.3292439236064055 S
atom 7.5595720348965063 5.0397146899310039 55.1208616008746048 S
atom 2.5198573449655015 10.0794293798620078 55.1208616008746048 S
atom 7.5595720348965063 10.0794293798620078 54.3292439236064055 S
atom 2.5198573449655015 5.0397146899310039 60.1360884035676477 S
atom 7.5595720348965063 5.0397146899310039 59.2003836193401654 S
atom 2.5198573449655015 10.0794293798620078 59.2003836193401654 S
atom 7.5595720348965063 10.0794293798620078 60.1360884035676477 S
atom 2.5198573449655015 2.5125442730409837 62.1633009684455473 Ba
atom 7.5595720348965063 2.5271704168900189 62.1633009684455473 Ba
atom 2.5198573449655015 7.5668851068210161 62.1633009684455473 Ba
atom 7.5595720348965063 7.5522589629719903 62.1633009684455473 Ba
atom 2.5198573449655015 2.5266338276463935 67.1041392225697422 Ba
atom 7.5595720348965063 2.5130808622846108 67.1041392225697422 Ba
atom 2.5198573449655015 7.5527955522156125 67.1041392225697422 Ba
atom 7.5595720348965063 7.5663485175773983 67.1041392225697422 Ba
atom 5.0413531480995255 5.0397146899310039 64.6159046660831820 Zr
atom 10.0777909216934756 5.0397146899310039 64.6159046660831820 Zr
atom 5.0380762317624734 10.0794293798620078 64.6159046660831820 Zr
atom 10.0810678380305312 10.0794293798620078 64.6159046660831820 Zr
atom 5.0393324951221512 5.0397146899310039 69.5728432922263380 Zr
atom 10.0798115746708632 5.0397146899310039 69.5728432922263380 Zr
atom 5.0400968847398548 10.0794293798620078 69.5728432922263380 Zr
atom 10.0790471850531489 10.0794293798620078 69.5728432922263380 Zr
atom 5.5468469294134142 5.0397146899310039 62.1433961813287326 S
atom 9.5722971403795860 5.0397146899310039 62.1433961813287326 S
atom 4.5325824504485883 10.0794293798620078 62.1433961813287326 S
atom 10.5865616193444190 10.0794293798620078 62.1433961813287326 S
atom 4.5307453378676250 5.0397146899310039 67.0971885749696497 S
atom 10.5883987319253947 5.0397146899310039 67.0971885749696497 S
atom 5.5486840419943873 10.0794293798620078 67.0971885749696497 S
atom 9.5704600277986085 10.0794293798620078 67.0971885749696497 S
atom 5.0397146899310030 2.5198573449655020 64.6247091850591886 S
atom 10.0794293798620060 2.5198573449655020 64.6247091850591886 S
atom 5.0397146899310030 7.5595720348965063 64.6247091850591886 S
atom 10.0794293798620060 7.5595720348965063 64.6247091850591886 S
atom 5.0397146899310030 2.5198573449655020 69.5755771379144079 S
atom 10.0794293798620060 2.5198573449655020 69.5755771379144079 S
atom 5.0397146899310030 7.5595720348965063 69.5755771379144079 S
atom 10.0794293798620060 7.5595720348965063 69.5755771379144079 S
atom 2.5198573449655015 5.0397146899310039 64.1453799791705421 S
atom 7.5595720348965063 5.0397146899310039 65.1045206716721907 S
atom 2.5198573449655015 10.0794293798620078 65.1045206716721907 S
atom 7.5595720348965063 10.0794293798620078 64.1453799791705421 S
atom 2.5198573449655015 5.0397146899310039 70.0569982366343851 S
atom 7.5595720348965063 5.0397146899310039 69.0945341526040266 S
atom 2.5198573449655015 10.0794293798620078 69.0945341526040266 S
atom 7.5595720348965063 10.0794293798620078 70.0569982366343851 S
atom 2.5198573449655015 2.5140783079006819 72.0528349142315392 Ba
atom 7.5595720348965063 2.5256363820303203 72.0528349142315392 Ba
atom 2.5198573449655015 7.5653510719613148 72.0528349142315392 Ba
atom 7.5595720348965063 7.5537929978316827 72.0528349142315392 Ba
atom 2.5198573449655015 2.5253859676975732 77.0059262247195448 Ba
atom 7.5595720348965063 2.5143287222334343 77.0059262247195448 Ba
atom 2.5198573449655015 7.5540434121644413 77.0059262247195448 Ba
atom 7.5595720348965063 7.5651006576285713 77.0059262247195448 Ba
atom 5.0397854688162633 5.0397146899310039 74.5283761549826380 Zr
atom 10.0793586009767306 5.0397146899310039 74.5283761549826380 Zr
atom 5.0396439110457392 10.0794293798620078 74.5283761549826380 Zr
atom 10.0795001587472814 10.0794293798620078 74.5283761549826380 Zr
atom 5.0397854688162633 5.0397146899310039 79.4834762944563522 Zr
atom 10.0793586009767306 5.0397146899310039 79.4834762944563522 Zr
atom 5.0396439110457392 10.0794293798620078 79.4834762944563522 Zr
atom 10.0795001587472814 10.0794293798620078 79.4834762944563522 Zr
atom 5.5498526118224181 5.0397146899310039 72.0516508674206619 S
atom 9.5692914579706070 5.0397146899310039 72.0516508674206619 S
atom 4.5295767680395969 10.0794293798620078 72.0516508674206619 S
atom 10.5895673017534069 10.0794293798620078 72.0516508674206619 S
atom 4.5291018579799074 5.0397146899310039 77.0059262247195448 S
atom 10.5900422118130972 5.0397146899310039 77.0059262247195448 S
atom 5.5503275218820924 10.0794293798620078 77.0059262247195448 S
atom 9.5688165479109148 10.0794293798620078 77.0059262247195448 S
atom 5.0397146899310030 2.5198573449655020 74.5292045499630262 S
atom 10.0794293798620060 2.5198573449655020 74.5292045499630262 S
atom 5.0397146899310030 7.5595720348965063 74.5292045499630262 S
atom 10.0794293798620060 7.5595720348965063 74.5292045499630262 S
atom 5.0397146899310030 2.5198573449655020 79.4826478994759640 S
atom 10.0794293798620060 2.5198573449655020 79.4826478994759640 S
atom 5.0397146899310030 7.5595720348965063 79.4826478994759640 S
atom 10.0794293798620060 7.5595720348965063 79.4826478994759640 S
atom 2.5198573449655015 5.0397146899310039 74.0466425118891891 S
atom 7.5595720348965063 5.0397146899310039 75.0113236739609448 S
atom 2.5198573449655015 10.0794293798620078 75.0113236739609448 S
atom 7.5595720348965063 10.0794293798620078 74.0466425118891891 S
atom 2.5198573449655015 5.0397146899310039 79.9652099375498722 S
atom 7.5595720348965063 5.0397146899310039 79.0005287754781165 S
atom 2.5198573449655015 10.0794293798620078 79.0005287754781165 S
atom 7.5595720348965063 10.0794293798620078 79.9652099375498722 S
atom 2.5198573449655015 2.5140783079006819 81.9590175352074510 Ba
atom 7.5595720348965063 2.5256363820303203 81.9590175352074510 Ba
atom 2.5198573449655015 7.5653510719613148 81.9590175352074510 Ba
atom 7.5595720348965063 7.5537929978316827 81.9590175352074510 Ba
atom 2.5198573449655015 2.5266338276463935 86.9077132268692196 Ba
atom 7.5595720348965063 2.5130808622846108 86.9077132268692196 Ba
atom 2.5198573449655015 7.5527955522156125 86.9077132268692196 Ba
atom 7.5595720348965063 7.5663485175773983 86.9077132268692196 Ba
atom 5.0393324951221512 5.0397146899310039 84.4390091572127233 Zr
atom 10.0798115746708632 5.0397146899310039 84.4390091572127233 Zr
atom 5.0400968847398548 10.0794293798620078 84.4390091572127233 Zr
atom 10.0790471850531489 10.0794293798620078 84.4390091572127233 Zr
atom 5.0413531480995255 5.0397146899310039 89.3959477833557656 Zr
atom 10.0777909216934756 5.0397146899310039 89.3959477833557656 Zr
atom 5.0380762317624734 10.0794293798620078 89.3959477833557656 Zr
atom 10.0810678380305312 10.0794293798620078 89.3959477833557656 Zr
atom 5.5498526118224181 5.0397146899310039 81.9602015820183709 S
atom 9.5692914579706070 5.0397146899310039 81.9602015820183709 S
atom 4.5295767680395969 10.0794293798620078 81.9602015820183709 S
atom 10.5895673017534069 10.0794293798620078 81.9602015820183709 S
atom 4.5307453378676250 5.0397146899310039 86.9146638744693973 S
atom 10.5883987319253947 5.0397146899310039 86.9146638744693973 S
atom 5.5486840419943873 10.0794293798620078 86.9146638744693973 S
atom 9.5704600277986085 10.0794293798620078 86.9146638744693973 S
atom 5.0397146899310030 2.5198573449655020 84.4362753115245539 S
atom 10.0794293798620060 2.5198573449655020 84.4362753115245539 S
atom 5.0397146899310030 7.5595720348965063 84.4362753115245539 S
atom 10.0794293798620060 7.5595720348965063 84.4362753115245539 S
atom 5.0397146899310030 2.5198573449655020 89.3871432643797590 S
atom 10.0794293798620060 2.5198573449655020 89.3871432643797590 S
atom 5.0397146899310030 7.5595720348965063 89.3871432643797590 S
atom 10.0794293798620060 7.5595720348965063 89.3871432643797590 S
atom 2.5198573449655015 5.0397146899310039 83.9548542128047330 S
atom 7.5595720348965063 5.0397146899310039 84.9173182968349352 S
atom 2.5198573449655015 10.0794293798620078 84.9173182968349352 S
atom 7.5595720348965063 10.0794293798620078 83.9548542128047330 S
atom 2.5198573449655015 5.0397146899310039 89.8664724702684055 S
atom 7.5595720348965063 5.0397146899310039 88.9073317777668137 S
atom 2.5198573449655015 10.0794293798620078 88.9073317777668137 S
atom 7.5595720348965063 10.0794293798620078 89.8664724702684055 S
atom 2.5198573449655015 2.5125442730409837 91.8485514809935779 Ba
atom 7.5595720348965063 2.5271704168900189 91.8485514809935779 Ba
atom 2.5198573449655015 7.5668851068210161 91.8485514809935779 Ba
atom 7.5595720348965063 7.5522589629719903 91.8485514809935779 Ba
atom 2.5198573449655015 2.5472063722145375 96.7432042955180265 Ba
atom 7.5595720348965063 2.4925083177164682 96.7432042955180265 Ba
atom 2.5198573449655015 7.5322230076474623 96.7432042955180265 Ba
atom 7.5595720348965063 7.5869210621455432 96.7432042955180265 Ba
atom 5.0384582223555796 5.0397146899310039 94.3554728279485744 Zr
atom 10.0806858474374383 5.0397146899310039 94.3554728279485744 Zr
atom 5.0409711575064273 10.0794293798620078 94.3554728279485744 Zr
atom 10.0781729122865773 10.0794293798620078 94.3554728279485744 Zr
atom 5.0273463537065908 5.0397146899310039 99.3681950428764935 Zr
atom 10.0917977160864041 5.0397146899310039 99.3681950428764935 Zr
atom 5.0520830261554064 10.0794293798620078 99.3681950428764935 Zr
atom 10.0670610436375991 10.0794293798620078 99.3681950428764935 Zr
atom 5.5468469294134142 5.0397146899310039 91.8684562681101653 S
atom 9.5722971403795860 5.0397146899310039 91.8684562681101653 S
atom 4.5325824504485883 10.0794293798620078 91.8684562681101653 S
atom 10.5865616193444190 10.0794293798620078 91.8684562681101653 S
atom 4.5676409355165379 5.0397146899310039 96.8254803603526568 S
atom 10.5515031342764516 5.0397146899310039 96.8254803603526568 S
atom 5.5117884443454663 10.0794293798620078 96.8254803603526568 S
atom 9.6073556254475658 10.0794293798620078 96.8254803603526568 S
atom 5.0397146899310030 2.5198573449655020 94.3374811961816135 S
atom 10.0794293798620060 2.5198573449655020 94.3374811961816135 S
atom 5.0397146899310030 7.5595720348965063 94.3374811961816135 S
atom 10.0794293798620060 7.5595720348965063 94.3374811961816135 S
atom 5.0397146899310030 2.5198573449655020 99.2331811897829823 S
atom 10.0794293798620060 2.5198573449655020 99.2331811897829823 S
atom 5.0397146899310030 7.5595720348965063 99.2331811897829823 S
atom 10.0794293798620060 7.5595720348965063 99.2331811897829823 S
atom 2.5198573449655015 5.0397146899310039 93.8757640458712928 S
atom 7.5595720348965063 5.0397146899310039 94.8114688300988462 S
atom 2.5198573449655015 10.0794293798620078 94.8114688300988462 S
atom 7.5595720348965063 10.0794293798620078 93.8757640458712928 S
atom 2.5198573449655015 5.0397146899310039 99.6826085258326628 S
atom 7.5595720348965063 5.0397146899310039 98.8909908485644138 S
atom 2.5198573449655015 10.0794293798620078 98.8909908485644138 S
atom 7.5595720348965063 10.0794293798620078 99.6826085258326628 S
atom 2.5198573449655015 2.3675514094600985 101.4111009776257220 Ba
atom 7.5595720348965063 2.6721632804709086 101.4111009776257220 Ba
atom 2.5198573449655015 7.7118779704019040 101.4111009776257220 Ba
atom 7.5595720348965063 7.4072660993910979 101.4111009776257220 Ba
atom 5.3922639928636578 5.0397146899310039 101.8498893219663444 S
atom 9.7268800769293708 5.0397146899310039 101.8498893219663444 S
atom 4.6871653869983465 10.0794293798620078 101.8498893219663444 S
atom 10.4319786827946430 10.0794293798620078 101.8498893219663444 S
