#=======================================================
# FHI-aims file: sym_relax/sym_relax_RP_4_RxRyMz_RxRy0.in
# Created using the Atomic Simulation Environment (ASE)
# Fri Mar 14 10:31:15 2025
#=======================================================
lattice_vector 10.0264224904761257 -0.0381013502014989 0.0000000000000000 
lattice_vector -0.0381013502014992 10.0264224904761328 0.0000000000000000 
lattice_vector -0.0000000000000000 0.0000000000000000 45.7608407702651192 
atom 0.1050378046036577 -0.1657398846084664 0.2241680628022072 Ba
atom 5.1789511298465296 -0.1240884797044083 0.2241680628022072 Ba
atom 0.1466892095077167 4.9081734406343953 0.2241680628022072 Ba
atom 5.0991983747409542 4.8284206855288252 0.2241680628022073 Ba
atom -0.2480184819412626 0.1835401029719049 4.9895420323129809 Ba
atom 4.8296711422661529 0.2289678068405131 4.9895420323129809 Ba
atom -0.2025907780726541 5.2612297271793231 4.9895420323129809 Ba
atom 4.7461420881960583 5.1777006731092232 4.9895420323129809 Ba
atom 2.5076870712182373 2.4901349968716202 2.3900157348316098 Zr
atom 7.5172368185037515 2.4674228238183278 2.3900157348316098 Zr
atom 2.4849748981649382 7.4996847441571246 2.3900157348316098 Zr
atom 7.5018476413555568 7.4842955670089211 2.3900157348316098 Zr
atom 2.4947821064265590 2.4976479675728145 7.4406807528770278 Zr
atom 7.5097238478025563 2.4803277886099999 7.4406807528770278 Zr
atom 2.4774619274637493 7.5125897089488074 7.4406807528770278 Zr
atom 7.4889426765638634 7.4918085377101189 7.4406807528770278 Zr
atom 2.6744994805369053 2.7548345203733451 -0.1143926087568041 S
atom 7.2525372950020177 2.3006104144996566 -0.1143926087568041 S
atom 2.2202753746632191 7.3328723348384663 -0.1143926087568041 S
atom 7.6686600506742000 7.7489950905106406 -0.1143926087568041 S
atom 2.2411261775261946 2.1854714531125596 4.9448715341536698 S
atom 7.8219003622628147 2.7339837175103638 4.9448715341536698 S
atom 2.7896384419240077 7.7662456378491651 4.9448715341536698 S
atom 7.2352867476635101 7.1796320232498676 4.9448715341536698 S
atom 2.7670885439395865 -0.0076327207349701 2.2142332222041938 S
atom 7.2233075324218250 -0.0231844400697008 2.7655398152542761 S
atom 2.1910456120830117 5.0090774802691103 2.7655398152542761 S
atom 7.7612491140769029 4.9865278494023384 2.2142332222041938 S
atom 2.8899791133207837 -0.0133320571745627 7.7608581918648207 S
atom 7.1495912072685339 -0.0280046618213796 7.1363110790904827 S
atom 2.1173292869297229 5.0042572585174190 7.1363110790904827 S
atom 7.8841396834581063 4.9808285129627539 7.7608581918648207 S
atom -0.0114179543657791 2.2461227012984670 2.2142332222041938 S
atom 4.9982943351062481 2.7840642829535471 2.7655398152542761 S
atom -0.0339675852325487 7.8163262032923519 2.7655398152542761 S
atom 4.9827426157715315 7.2402832714357777 2.2142332222041938 S
atom -0.0057186179261865 2.1232321319172645 7.7608581918648207 S
atom 5.0031145568579269 2.8577806081068413 7.1363110790904827 S
atom -0.0291473634808698 7.8900425284456563 7.1363110790904827 S
atom 4.9884419522111134 7.1173927020545715 7.7608581918648207 S
atom 0.2720091159599088 -0.1837988195569882 9.9480088631010979 Ba
atom 5.1970100647950597 -0.2910597910606582 9.9480088631010979 Ba
atom 0.1647481444562383 4.7412021292781468 9.9480088631010979 Ba
atom 5.2661696860972143 4.8103617505803253 9.9480088631010979 Ba
atom -0.2480184819412626 0.1835401029719049 14.9064756938892113 Ba
atom 4.8296711422661529 0.2289678068405131 14.9064756938892113 Ba
atom -0.2025907780726540 5.2612297271793231 14.9064756938892113 Ba
atom 4.7461420881960583 5.1777006731092232 14.9064756938892113 Ba
atom 2.4947821064265590 2.4976479675728145 12.4553369733251653 Zr
atom 7.5097238478025563 2.4803277886099999 12.4553369733251653 Zr
atom 2.4774619274637493 7.5125897089488074 12.4553369733251653 Zr
atom 7.4889426765638634 7.4918085377101189 12.4553369733251653 Zr
atom 2.5076870712182373 2.4901349968716202 17.5060019913706455 Zr
atom 7.5172368185037515 2.4674228238183278 17.5060019913706455 Zr
atom 2.4849748981649382 7.4996847441571246 17.5060019913706455 Zr
atom 7.5018476413555568 7.4842955670089211 17.5060019913706455 Zr
atom 2.7670622938257847 2.8271121754780570 9.9480088631010979 S
atom 7.1802596398973160 2.2080476012107697 9.9480088631010979 S
atom 2.1479977195585014 7.2403095215495803 9.9480088631010979 S
atom 7.7612228639630967 7.8212727456153690 9.9480088631010979 S
atom 2.2411261775261946 2.1854714531125596 14.9511461920485118 S
atom 7.8219003622628147 2.7339837175103638 14.9511461920485118 S
atom 2.7896384419240086 7.7662456378491651 14.9511461920485118 S
atom 7.2352867476635101 7.1796320232498676 14.9511461920485118 S
atom 2.8899791133207837 -0.0133320571745627 12.1351595343373582 S
atom 7.1495912072685339 -0.0280046618213797 12.7597066471117504 S
atom 2.1173292869297229 5.0042572585174190 12.7597066471117504 S
atom 7.8841396834581063 4.9808285129627539 12.1351595343373582 S
atom 2.7670885439395865 -0.0076327207349701 17.6817845039979638 S
atom 7.2233075324218250 -0.0231844400697008 17.1304779109479561 S
atom 2.1910456120830117 5.0090774802691103 17.1304779109479561 S
atom 7.7612491140769029 4.9865278494023384 17.6817845039979638 S
atom -0.0057186179261865 2.1232321319172645 12.1351595343373582 S
atom 5.0031145568579269 2.8577806081068413 12.7597066471117504 S
atom -0.0291473634808698 7.8900425284456563 12.7597066471117504 S
atom 4.9884419522111134 7.1173927020545715 12.1351595343373582 S
atom -0.0114179543657791 2.2461227012984670 17.6817845039979638 S
atom 4.9982943351062481 2.7840642829535480 17.1304779109479561 S
atom -0.0339675852325487 7.8163262032923519 17.1304779109479561 S
atom 4.9827426157715315 7.2402832714357777 17.6817845039979638 S
atom 0.1050378046036577 -0.1657398846084664 19.6718496633999820 Ba
atom 5.1789511298465296 -0.1240884797044083 19.6718496633999820 Ba
atom 0.1466892095077167 4.9081734406343944 19.6718496633999820 Ba
atom 5.0991983747409542 4.8284206855288252 19.6718496633999820 Ba
atom 2.6744994805369053 2.7548345203733451 20.0104103349590119 S
atom 7.2525372950020177 2.3006104144996566 20.0104103349590119 S
atom 2.2202753746632191 7.3328723348384663 20.0104103349590119 S
atom 7.6686600506742000 7.7489950905106406 20.0104103349590119 S
atom 2.6021254774355156 2.3313411774530577 23.1045818198976711 Ba
atom 7.6760306379222998 2.3729844176010415 23.1045818198976711 Ba
atom 2.6437687175834994 7.4052463379398485 23.1045818198976711 Ba
atom 7.5962860475728169 7.3255017475903763 23.1045818198976711 Ba
atom 2.2490356863914740 2.6806341859825835 27.8699498149252527 Ba
atom 7.3267376293927882 2.7260742086450871 27.8699498149252527 Ba
atom 2.2944757090539758 7.7583361289838972 27.8699498149252527 Ba
atom 7.2431962565287744 7.6747947561198862 27.8699498149252527 Ba
atom 5.0047580432834096 4.9872246877706781 25.2704315387993823 Zr
atom 10.0143076977420087 4.9645124218904764 25.2704315387993823 Zr
atom 4.9820457774031901 9.9967743422292763 25.2704315387993823 Zr
atom 9.9989186134207060 9.9813852579079896 25.2704315387993823 Zr
atom 4.9918391625736369 4.9947499006622538 30.3211012685902581 Zr
atom 10.0067824848504134 4.9774313026002348 30.3211012685902581 Zr
atom 4.9745205645116108 10.0096932229390614 30.3211012685902581 Zr
atom 9.9859997327109600 9.9889104707995866 30.3211012685902581 Zr
atom 5.1715844053549009 5.2519222560401495 22.7660232057181915 S
atom 9.7496101294725293 4.7976860598189521 22.7660232057181915 S
atom 4.7173482091337213 9.8299479801577707 22.7660232057181915 S
atom 10.1657449754922151 10.2460828261774441 22.7660232057181915 S
atom 4.7381854814109134 4.6825820107434390 27.8252864469051353 S
atom 10.3189503747692317 5.2310849837629485 27.8252864469051353 S
atom 5.2866884544304318 10.2633469041017431 27.8252864469051353 S
atom 9.7323460515482321 9.6767425808807044 27.8252864469051353 S
atom 5.2641629602021869 2.4894579132405013 25.0946426155801952 S
atom 9.7203746887843021 2.4739061647378877 25.6459517354789490 S
atom 4.6881127684454968 7.5061680850766974 25.6459517354789490 S
atom 10.2583235303395028 7.4836184833778150 25.0946426155801952 S
atom 5.3870498950385572 2.4837750427672138 30.6412543592668598 S
atom 9.6466155548312216 2.4691026415734147 30.0167583364718773 S
atom 4.6143536344924057 7.5013645619122382 30.0167583364718773 S
atom 10.3812104651758563 7.4779356129045285 30.6412543592668598 S
atom 2.4856519817960625 4.7432088551731688 25.0946426155801952 S
atom 7.4953643004359822 5.2811576967283873 25.6459517354789490 S
atom 2.4631023800971650 10.3134196170672006 25.6459517354789490 S
atom 7.4798125519333647 9.7373694253104688 25.0946426155801952 S
atom 2.4913348522693437 4.6203219203368109 30.6412543592668598 S
atom 7.5001678236004423 5.3549168306814598 30.0167583364718773 S
atom 2.4679059032616451 10.3871787510202740 30.0167583364718773 S
atom 7.4854954224066521 9.6144824904741348 30.6412543592668598 S
atom 2.7690640692481319 2.3132960241842788 32.8284292482336681 Ba
atom 7.6940757911910875 2.2060458257884230 32.8284292482336681 Ba
atom 2.6618138708522796 7.2383077461272283 32.8284292482336681 Ba
atom 7.7632246393854532 7.3074565943215948 32.8284292482336681 Ba
atom 2.2490356863914740 2.6806341859825835 37.7869086815420019 Ba
atom 7.3267376293927882 2.7260742086450871 37.7869086815420019 Ba
atom 2.2944757090539758 7.7583361289838972 37.7869086815420019 Ba
atom 7.2431962565287744 7.6747947561198862 37.7869086815420019 Ba
atom 4.9918391625736369 4.9947499006622538 35.3357572278770178 Zr
atom 10.0067824848504134 4.9774313026002348 35.3357572278770178 Zr
atom 4.9745205645116108 10.0096932229390614 35.3357572278770178 Zr
atom 9.9859997327109600 9.9889104707995866 35.3357572278770178 Zr
atom 5.0047580432834096 4.9872246877706781 40.3864269576678296 Zr
atom 10.0143076977420087 4.9645124218904764 40.3864269576678296 Zr
atom 4.9820457774031901 9.9967743422292763 40.3864269576678296 Zr
atom 9.9989186134207060 9.9813852579079896 40.3864269576678296 Zr
atom 5.2641161314446174 5.3242128113344513 32.8284292482336681 S
atom 9.6773195741782008 4.7051543337292632 32.8284292482336681 S
atom 4.6450576538394062 9.7374162540680587 32.8284292482336681 S
atom 10.2582767015819432 10.3183733814717584 32.8284292482336681 S
atom 4.7381854814109134 4.6825820107434390 37.8315720495621122 S
atom 10.3189503747692317 5.2310849837629485 37.8315720495621122 S
atom 5.2866884544304318 10.2633469041017431 37.8315720495621122 S
atom 9.7323460515482321 9.6767425808807044 37.8315720495621122 S
atom 5.3870498950385572 2.4837750427672138 35.0156041372004125 S
atom 9.6466155548312216 2.4691026415734147 35.6401001599953773 S
atom 4.6143536344924057 7.5013645619122382 35.6401001599953773 S
atom 10.3812104651758563 7.4779356129045285 35.0156041372004125 S
atom 5.2641629602021869 2.4894579132405013 40.5622158808871731 S
atom 9.7203746887843021 2.4739061647378877 40.0109067609883411 S
atom 4.6881127684454968 7.5061680850766974 40.0109067609883411 S
atom 10.2583235303395028 7.4836184833778150 40.5622158808871731 S
atom 2.4913348522693437 4.6203219203368109 35.0156041372004125 S
atom 7.5001678236004423 5.3549168306814598 35.6401001599953773 S
atom 2.4679059032616451 10.3871787510202740 35.6401001599953773 S
atom 7.4854954224066521 9.6144824904741348 35.0156041372004125 S
atom 2.4856519817960625 4.7432088551731688 40.5622158808871731 S
atom 7.4953643004359822 5.2811576967283873 40.0109067609883411 S
atom 2.4631023800971650 10.3134196170672006 40.0109067609883411 S
atom 7.4798125519333647 9.7373694253104688 40.5622158808871731 S
atom 2.6021254774355156 2.3313411774530577 42.5522766765696048 Ba
atom 7.6760306379222998 2.3729844176010415 42.5522766765696048 Ba
atom 2.6437687175834994 7.4052463379398485 42.5522766765696048 Ba
atom 7.5962860475728169 7.3255017475903763 42.5522766765696048 Ba
atom 5.1715844053549009 5.2519222560401495 42.8908352907490595 S
atom 9.7496101294725293 4.7976860598189521 42.8908352907490595 S
atom 4.7173482091337213 9.8299479801577707 42.8908352907490595 S
atom 10.1657449754922151 10.2460828261774441 42.8908352907490595 S
