#=======================================================
# FHI-aims file: sym_relax/sym_relax_RP_10_Rx0Mz_0RyMz.in
# Created using the Atomic Simulation Environment (ASE)
# Mon Mar 17 17:15:02 2025
#=======================================================
lattice_vector 10.0059210357804993 -0.0783534109739584 -0.0000000000000000 
lattice_vector -0.0783534109739590 10.0059210357804353 -0.0000000000000000 
lattice_vector -0.0000000000000000 -0.0000000000000000 106.0642005765686378 
atom 0.1047783865426877 -0.1840163216193691 0.2141029986638968 Ba
atom 5.1869557027418383 -0.1439474732752731 0.2141149716134477 Ba
atom 0.1448184793646128 4.8981897501019267 0.2141149716134477 Ba
atom 5.0685621989459593 4.7797674907838790 0.2141029986638968 Ba
atom -0.2700875712301919 0.1874575796519459 5.0100732891895490 Ba
atom 4.8154322160415788 0.2308649868687848 5.0100798711597090 Ba
atom -0.2267050073356451 5.2730022102459957 5.0100798711597090 Ba
atom 4.6936962411730816 5.1512413920551898 5.0100732891895490 Ba
atom 2.4843151399811081 2.4701513718006982 2.4041159718492007 Zr
atom 7.4965777711915518 2.4402587868318357 2.4041169001200067 Zr
atom 2.4544405478143183 7.4823960102090403 2.4041169001200067 Zr
atom 7.4480989523843801 7.4339351842039427 2.4041159718492007 Zr
atom 2.4729099753297623 2.4863730578511922 7.4621351911441964 Zr
atom 7.4802831732732473 2.4516061342566018 7.4621285305805261 Zr
atom 2.4381459498960223 7.4937433576338064 7.4621285305805261 Zr
atom 7.4366937877330281 7.4501568702544434 7.4621351911441964 Zr
atom 2.6063302408968601 2.6894375949110851 -0.1037301595160710 S
atom 7.2772953572744523 2.3182571085110384 -0.1037259401128094 S
atom 2.2351581338972237 7.3603943318882328 -0.1037259401128094 S
atom 7.5701140533001272 7.6532214073143274 -0.1037301595160710 S
atom 2.2349397809710934 2.1869966267704397 4.9679496682427402 S
atom 7.7796934323052493 2.6896155502272250 4.9679558030380999 S
atom 2.7375562089280070 7.7317527736044225 4.9679558030380999 S
atom 7.1987235933743587 7.1507804391736709 4.9679496682427402 S
atom 2.8089317094940691 -0.0160138426354191 2.2504103055751852 S
atom 7.1744389491881924 -0.0525614346493728 2.7586654823065491 S
atom 2.1323017258109558 4.9895757887278238 2.7586654823065491 S
atom 7.7727155218973421 4.9477699697678226 2.2504103055751852 S
atom 2.8990964448213643 -0.0190491112855307 7.7920074165576105 S
atom 7.1134574074688679 -0.0554489452323484 7.1757898529199462 S
atom 2.0713201840916207 4.9866882781448529 7.1757898529199462 S
atom 7.8628802572246164 4.9447347011177216 7.7920074165576105 S
atom -0.0231986984924837 2.1939863573946399 2.2504253076976917 S
atom 4.9771311323557201 2.7922394840982565 2.7586415350156717 S
atom -0.0650060910215116 7.8343767074754576 2.7586415350156717 S
atom 4.9405851139107826 7.1577701697978791 2.2504253076976917 S
atom -0.0202131192141063 2.1037771995101031 7.7920077308360014 S
atom 4.9799736062357569 2.8532154892612929 7.1758056024991079 S
atom -0.0621636171414748 7.8953527126384886 7.1758056024991079 S
atom 4.9435706931891703 7.0675610119133569 7.7920077308360014 S
atom 0.2865684674433572 -0.1841808087535286 9.9908849939446362 Ba
atom 5.1870320992148953 -0.3258678309076223 9.9908942013838331 Ba
atom 0.1448948758376760 4.7162693924695720 9.9908942013838331 Ba
atom 5.2503522798466244 4.7796030036497159 9.9908849939446362 Ba
atom -0.2862778068581019 0.1816881259234584 14.9964390402283652 Ba
atom 4.8211363978184831 0.2469464621739659 14.9964552576481971 Ba
atom -0.2210008255587390 5.2890836855511605 14.9964552576481971 Ba
atom 4.6775060055451716 5.1454719383267022 14.9964390402283652 Ba
atom 2.4872742357747026 2.4792364705863918 12.4803150252407171 Zr
atom 7.4873303104420614 2.4371579043004368 12.4803126659108639 Zr
atom 2.4451930870648302 7.4792951276776343 12.4803126659108639 Zr
atom 7.4510580481779778 7.4430202829896412 12.4803150252407171 Zr
atom 2.4806015308332872 2.4817931363495962 17.4953032246457134 Zr
atom 7.4848240498278251 2.4438783187443804 17.4952885846247739 Zr
atom 2.4426868264506068 7.4860155421215708 17.4952885846247739 Zr
atom 7.4443853432365445 7.4455769487528460 17.4953032246457134 Zr
atom 2.7444988596859887 2.8074780922997875 9.9826537202752803 S
atom 7.1591682765230367 2.1799825385159037 9.9826477437207188 S
atom 2.1170310531458050 7.2221197618930990 9.9826477437207188 S
atom 7.7082826720892621 7.7712619047030307 9.9826537202752803 S
atom 2.2170879065398661 2.1508405530666810 14.9937587397534546 S
atom 7.8157470752972582 2.7073777776535599 14.9937607885747077 S
atom 2.7736098519200327 7.7495150010307761 14.9937607885747077 S
atom 7.1808717189431421 7.1146243654699175 14.9937587397534546 S
atom 2.8908263220021406 -0.0229633642875078 12.1755398140096780 S
atom 7.1175519656409758 -0.0596687910328816 12.8128407573617906 S
atom 2.0754147422637534 4.9824684323443158 12.8128407573617906 S
atom 7.8546101344054122 4.9408204481157361 12.1755398140096780 S
atom 2.8887601697229850 -0.0209970544750370 17.8222673722206864 S
atom 7.1178262720118308 -0.0577164191431198 17.1805646814969748 S
atom 2.0756890486345969 4.9844208042340910 17.1805646814969748 S
atom 7.8525439821262495 4.9427867579281992 17.8222673722206864 S
atom -0.0163633787259659 2.1119794830017371 12.1755775419569758 S
atom 4.9841255933680930 2.8490373793918473 12.8128164695641065 S
atom -0.0580116300091205 7.8911746027690546 12.8128164695641065 S
atom 4.9474204336772996 7.0757632954049896 12.1755775419569758 S
atom -0.0183104926272391 2.1140569736954373 17.8222717870001297 S
atom 4.9821846598506685 2.8487920907103677 17.1805272202756179 S
atom -0.0599525635265618 7.8909293140875807 17.1805272202756179 S
atom 4.9454733197760188 7.0778407860986841 17.8222717870001297 S
atom 0.2881104083633700 -0.1827147539268522 20.0048883090382041 Ba
atom 5.1855510055035188 -0.3274119464849188 20.0048938138433208 Ba
atom 0.1434137821263031 4.7147252768922865 20.0048938138433208 Ba
atom 5.2518942207666282 4.7810690584763993 20.0048883090382041 Ba
atom -0.2869080937062654 0.1810379661027693 25.0151416454171311 Ba
atom 4.8217957373265996 0.2476373968315913 25.0151416454171311 Ba
atom -0.2203414860506278 5.2897746202088030 25.0151416454171311 Ba
atom 4.6768757186970129 5.1448217785060075 25.0151416454171311 Ba
atom 2.4830850366794892 2.4809418503133740 22.5086525961753097 Zr
atom 7.4856845544282731 2.4413898996210692 22.5086506613968531 Zr
atom 2.4435473310510418 7.4835271229982681 22.5086506613968531 Zr
atom 7.4468688490827661 7.4447256627166016 22.5086525961753097 Zr
atom 2.4830850366794892 2.4809418503133740 27.5216306946589526 Zr
atom 7.4856845544282731 2.4413898996210692 27.5216326294374625 Zr
atom 2.4435473310510418 7.4835271229982681 27.5216326294374625 Zr
atom 7.4468688490827661 7.4447256627166016 27.5216306946589526 Zr
atom 2.7488859251124311 2.8126070525977442 20.0045372975787927 S
atom 7.1539827726803358 2.1756248785042609 20.0045380590328712 S
atom 2.1118455493031165 7.2177621018814699 20.0045380590328712 S
atom 7.7126697375156930 7.7763908650009936 20.0045372975787927 S
atom 2.2160135847602715 2.1494020439814263 25.0151416454171311 S
atom 7.8172770823773927 2.7084325034440777 25.0151416454171311 S
atom 2.7751398590001628 7.7505697268212934 25.0151416454171311 S
atom 7.1797973971635445 7.1131858563846739 25.0151416454171311 S
atom 2.8891355429964536 -0.0217773523409704 22.1890816646994793 S
atom 7.1183670910482579 -0.0584932126772384 22.8318557457632849 S
atom 2.0762298676710422 4.9836440106999635 22.8318557457632849 S
atom 7.8529193553997265 4.9420064600622782 22.1890816646994793 S
atom 2.8891355429964536 -0.0217773523409704 27.8412016261348327 S
atom 7.1183670910482579 -0.0584932126772384 27.1984275450710591 S
atom 2.0762298676710422 4.9836440106999635 27.1984275450710591 S
atom 7.8529193553997265 4.9420064600622782 27.8412016261348327 S
atom -0.0175257043551838 2.1136907504300537 22.1890548875409657 S
atom 4.9829715498761971 2.8482397225811096 22.8318769680224491 S
atom -0.0591656735010382 7.8903769459583115 22.8318769680224491 S
atom 4.9462581080480907 7.0774745628332978 22.1890548875409657 S
atom -0.0175257043551838 2.1136907504300537 27.8412284032934032 S
atom 4.9829715498761971 2.8482397225811096 27.1984063228118309 S
atom -0.0591656735010382 7.8903769459583097 27.1984063228118309 S
atom 4.9462581080480907 7.0774745628332978 27.8412284032934032 S
atom 0.2881104083633700 -0.1827147539268522 30.0253949817960617 Ba
atom 5.1855510055035188 -0.3274119464849188 30.0253894769909557 Ba
atom 0.1434137821263031 4.7147252768922865 30.0253894769909557 Ba
atom 5.2518942207666282 4.7810690584763993 30.0253949817960617 Ba
atom -0.2862778068581019 0.1816881259234584 35.0338442506059664 Ba
atom 4.8211363978184831 0.2469464621739659 35.0338280331860474 Ba
atom -0.2210008255587390 5.2890836855511605 35.0338280331860474 Ba
atom 4.6775060055451716 5.1454719383267022 35.0338442506059664 Ba
atom 2.4806015308332872 2.4817931363495962 32.5349800661885382 Zr
atom 7.4848240498278251 2.4438783187443804 32.5349947062095239 Zr
atom 2.4426868264506068 7.4860155421215708 32.5349947062095239 Zr
atom 7.4443853432365445 7.4455769487528460 32.5349800661885382 Zr
atom 2.4872742357747026 2.4792364705863918 37.5499682655935985 Zr
atom 7.4873303104420614 2.4371579043004368 37.5499706249233611 Zr
atom 2.4451930870648302 7.4792951276776343 37.5499706249233611 Zr
atom 7.4510580481779778 7.4430202829896412 37.5499682655935985 Zr
atom 2.7488859251124311 2.8126070525977442 30.0257459932554731 S
atom 7.1539827726803358 2.1756248785042609 30.0257452318013733 S
atom 2.1118455493031165 7.2177621018814699 30.0257452318013733 S
atom 7.7126697375156930 7.7763908650009936 30.0257459932554731 S
atom 2.2170879065398661 2.1508405530666810 35.0365245510808592 S
atom 7.8157470752972582 2.7073777776535599 35.0365225022596860 S
atom 2.7736098519200327 7.7495150010307761 35.0365225022596860 S
atom 7.1808717189431421 7.1146243654699175 35.0365245510808592 S
atom 2.8887601697229850 -0.0209970544750370 32.2080159186135475 S
atom 7.1178262720118308 -0.0577164191431198 32.8497186093373870 S
atom 2.0756890486345969 4.9844208042340910 32.8497186093373870 S
atom 7.8525439821262495 4.9427867579281992 32.2080159186135475 S
atom 2.8908263220021406 -0.0229633642875078 37.8547434768245310 S
atom 7.1175519656409758 -0.0596687910328816 37.2174425334725427 S
atom 2.0754147422637534 4.9824684323443158 37.2174425334725427 S
atom 7.8546101344054122 4.9408204481157361 37.8547434768245310 S
atom -0.0183104926272391 2.1140569736954373 32.2080115038341717 S
atom 4.9821846598506685 2.8487920907103677 32.8497560705586267 S
atom -0.0599525635265618 7.8909293140875807 32.8497560705586267 S
atom 4.9454733197760188 7.0778407860986841 32.2080115038341717 S
atom -0.0163633787259659 2.1119794830017371 37.8547057488773220 S
atom 4.9841255933680930 2.8490373793918473 37.2174668212701718 S
atom -0.0580116300091205 7.8911746027690546 37.2174668212701718 S
atom 4.9474204336772996 7.0757632954049896 37.8547057488773220 S
atom 0.2865684674433572 -0.1841808087535286 40.0393982968896154 Ba
atom 5.1870320992148953 -0.3258678309076223 40.0393890894505091 Ba
atom 0.1448948758376760 4.7162693924695720 40.0393890894505091 Ba
atom 5.2503522798466244 4.7796030036497159 40.0393982968896154 Ba
atom -0.2700875712301919 0.1874575796519459 45.0202100016447417 Ba
atom 4.8154322160415788 0.2308649868687848 45.0202034196745231 Ba
atom -0.2267050073356451 5.2730022102459957 45.0202034196745231 Ba
atom 4.6936962411730816 5.1512413920551898 45.0202100016447417 Ba
atom 2.4729099753297623 2.4863730578511922 42.5681480996900987 Zr
atom 7.4802831732732473 2.4516061342566018 42.5681547602537762 Zr
atom 2.4381459498960214 7.4937433576338064 42.5681547602537762 Zr
atom 7.4366937877330281 7.4501568702544434 42.5681480996900845 Zr
atom 2.4843151399811081 2.4701513718006982 47.6261673189851038 Zr
atom 7.4965777711915518 2.4402587868318357 47.6261663907142676 Zr
atom 2.4544405478143183 7.4823960102090403 47.6261663907142676 Zr
atom 7.4480989523843801 7.4339351842039427 47.6261673189851038 Zr
atom 2.7444988596859887 2.8074780922997875 40.0476295705591099 S
atom 7.1591682765230367 2.1799825385159037 40.0476355471135221 S
atom 2.1170310531458050 7.2221197618930990 40.0476355471135221 S
atom 7.7082826720892621 7.7712619047030307 40.0476295705591099 S
atom 2.2349397809710934 2.1869966267704397 45.0623336225915878 S
atom 7.7796934323052493 2.6896155502272250 45.0623274877962032 S
atom 2.7375562089280070 7.7317527736044225 45.0623274877962032 S
atom 7.1987235933743587 7.1507804391736709 45.0623336225915878 S
atom 2.8990964448213643 -0.0190491112855307 42.2382758742766029 S
atom 7.1134574074688679 -0.0554489452323484 42.8544934379143925 S
atom 2.0713201840916207 4.9866882781448529 42.8544934379143925 S
atom 7.8628802572246164 4.9447347011177216 42.2382758742766029 S
atom 2.8089317094940691 -0.0160138426354191 47.7798729852591109 S
atom 7.1744389491881941 -0.0525614346493728 47.2716178085277861 S
atom 2.1323017258109558 4.9895757887278238 47.2716178085277861 S
atom 7.7727155218973421 4.9477699697678226 47.7798729852591109 S
atom -0.0202131192141063 2.1037771995101031 42.2382755599982644 S
atom 4.9799736062357569 2.8532154892612929 42.8544776883352228 S
atom -0.0621636171414748 7.8953527126384886 42.8544776883352228 S
atom 4.9435706931891703 7.0675610119133569 42.2382755599982644 S
atom -0.0231986984924837 2.1939863573946399 47.7798579831366013 S
atom 4.9771311323557201 2.7922394840982565 47.2716417558186137 S
atom -0.0650060910215116 7.8343767074754576 47.2716417558186137 S
atom 4.9405851139107826 7.1577701697978791 47.7798579831366013 S
atom 0.1047783865426877 -0.1840163216193691 49.8161802921704151 Ba
atom 5.1869557027418383 -0.1439474732752731 49.8161683192208216 Ba
atom 0.1448184793646128 4.8981897501019267 49.8161683192208216 Ba
atom 5.0685621989459593 4.7797674907838790 49.8161802921704151 Ba
atom 2.6063302408968601 2.6894375949110851 50.1340134503504657 S
atom 7.2772953572744523 2.3182571085110384 50.1340092309471146 S
atom 2.2351581338972237 7.3603943318882328 50.1340092309471146 S
atom 7.5701140533001272 7.6532214073143274 50.1340134503504657 S
atom 2.6659082278210087 2.3771135196589377 53.2462032869482158 Ba
atom 7.5896231918801744 2.2587200158630476 53.2462152598977738 Ba
atom 2.5474859685029467 7.3008572392402504 53.2462152598977738 Ba
atom 7.6296920402242616 7.3408973320621742 53.2462032869482158 Ba
atom 2.2944343265496947 2.7519794774318100 58.0421735774738750 Ba
atom 7.2148107317361170 2.6302435025633075 58.0421801594441078 Ba
atom 2.1726735083588857 7.6723807259405135 58.0421801594441078 Ba
atom 7.2582181389529641 7.7157632898350501 58.0421735774738750 Ba
atom 4.9755243468041801 4.9613605786237711 55.4362162601336337 Zr
atom 9.9692007441763479 4.9128817598165835 55.4362171884043775 Zr
atom 4.9270635207990994 9.9550189831937921 55.4362171884043775 Zr
atom 9.9393081592074619 9.9251443910270449 55.4362162601336337 Zr
atom 4.9593026607536759 4.9727657432751116 60.4942354794285180 Zr
atom 9.9578533967515579 4.9291763577348888 60.4942288188648618 Zr
atom 4.9157161733743369 9.9713135811121187 60.4942288188648618 Zr
atom 9.9230864731569390 9.9365495556783578 60.4942354794285180 Zr
atom 4.7562381236938158 4.8393454777080267 52.9283701287681865 S
atom 10.0912024224971244 5.1321641737337114 52.9283743481715376 S
atom 5.0490651991199034 10.1743013971109004 52.9283743481715376 S
atom 9.7200219360970888 9.8031292901112916 52.9283701287681865 S
atom 5.2586790918344422 5.2107359376337854 58.0000499565271568 S
atom 9.7198439807809471 4.6297660987029108 58.0000560913224632 S
atom 4.6777067574037083 9.6719033220801158 58.0000560913224632 S
atom 10.2224629042376982 10.1745197500370228 58.0000499565271568 S
atom 4.6534362345066107 2.4685445862491764 55.7907418233000385 S
atom 10.2938265845874852 2.4267371937201490 55.2825255959821007 S
atom 5.2516893612102606 7.4688744170973429 55.2825255959821007 S
atom 9.6172200469098676 7.4323283986524329 55.7907418233000385 S
atom 4.5924602293436045 2.4657021123691347 60.2079058907835289 S
atom 10.3840357424720207 2.4237516144417643 60.8241080191202883 S
atom 5.3418985190947872 7.4658888378189747 60.8241080191202883 S
atom 9.5562440417468686 7.4294859247723766 60.2079058907835289 S
atom 2.4560999298770447 5.3133739927939079 55.7907657705908022 S
atom 7.4616895612403189 4.6367440091108127 55.2825105938595769 S
atom 2.4195523378630872 9.6788812324880276 55.2825105938595769 S
atom 7.4198837422803159 10.2771578051971666 55.7907657705908022 S
atom 2.4589874404600254 5.3743555345132368 60.2078901412042100 S
atom 7.4647248298904394 4.5465792737835180 60.8241077048419427 S
atom 2.4225876065132086 9.5887164971607248 60.8241077048419427 S
atom 7.4227712528632965 10.3381393469164902 60.2078901412042100 S
atom 2.6660727149551584 2.1953234387582690 63.0229852822290653 Ba
atom 7.7715435495125202 2.2586436193899870 63.0229944896682568 Ba
atom 2.7294063261353076 7.3007808427671961 63.0229944896682568 Ba
atom 7.6298565273584407 7.1591072511615135 63.0229852822290653 Ba
atom 2.3002037802781796 2.7681697130597209 68.0285393285127640 Ba
atom 7.1987292564309495 2.6245393207863965 68.0285555459326758 Ba
atom 2.1565920330537129 7.6666765441636020 68.0285555459326758 Ba
atom 7.2639875926814472 7.7319535254629628 68.0285393285127640 Ba
atom 4.9664392480184869 4.9584014828301788 65.5124153135250253 Zr
atom 9.9723016267077007 4.9221292205660774 65.5124129541953693 Zr
atom 4.9301644033304930 9.9642664439432842 65.5124129541953693 Zr
atom 9.9302230604217474 9.9221852952334313 65.5124153135250253 Zr
atom 4.9638825822552937 4.9650741877715969 70.5274035129302064 Zr
atom 9.9655812122637641 4.9246354811803199 70.5273888729090714 Zr
atom 4.9234439888865618 9.9667727045574939 70.5273888729090714 Zr
atom 9.9276663946585391 9.9288580001748254 70.5274035129302064 Zr
atom 4.6381976263051143 4.7011768589188874 63.0147540085595566 S
atom 10.2294769924922644 5.2502912544851119 63.0147480320050732 S
atom 5.1873397691150336 10.2924284778623250 63.0147480320050732 S
atom 9.6019814387083677 9.6649606713221328 63.0147540085595566 S
atom 5.2948351655382071 5.2285878120650162 68.0258590280378854 S
atom 9.7020817533545927 4.5937124557108806 68.0258610768588596 S
atom 4.6599445299773494 9.6358496790880892 68.0258610768588596 S
atom 10.2586189779414649 10.1923716244682598 68.0258590280378854 S
atom 4.5966383392130377 2.4615501252367840 65.8449167578484946 S
atom 10.3758334589803756 2.4199018739536342 65.2076778302412379 S
atom 5.3336962356031581 7.4620390973308268 65.2076778302412379 S
atom 9.5604221516163204 7.4253339376400342 65.8449167578484946 S
atom 4.5968836278945151 2.4634910587542209 70.2126275085600753 S
atom 10.3737559682866856 2.4218489878549030 70.8543720752845729 S
atom 5.3316187449094601 7.4639862112321111 70.8543720752845729 S
atom 9.5606674402977667 7.4272748711574641 70.2126275085600753 S
atom 2.4632072862605607 5.3702609763411226 65.8449410456459958 S
atom 7.4686390828924072 4.5548493966027372 65.2076401022939223 S
atom 2.4265018595151764 9.5969866199799370 65.2076401022939223 S
atom 7.4269910986638212 10.3340447887443343 65.8449410456459958 S
atom 2.4612549143707936 5.3699866699702783 70.2126649697813860 S
atom 7.4666727730799529 4.5569155488819000 70.8543676605049626 S
atom 2.4245355497027128 9.5990527722590890 70.8543676605049626 S
atom 7.4250387267740656 10.3337704823734988 70.2126649697813860 S
atom 2.6646066601284919 2.1937814978382546 73.0369885973225337 Ba
atom 7.7730876650898226 2.2601247131013613 73.0369941021275793 Ba
atom 2.7309504417125954 7.3022619364785726 73.0369941021275793 Ba
atom 7.6283904725317493 7.1575653102414982 73.0369885973225337 Ba
atom 2.3008539400988681 2.7687999999078836 78.0472419337014429 Ba
atom 7.1980383217733204 2.6238799812782960 78.0472419337014429 Ba
atom 2.1559010983960882 7.6660172046554855 78.0472419337014429 Ba
atom 7.2646377525021544 7.7325838123111250 78.0472419337014429 Ba
atom 4.9647338682915327 4.9625906819253833 75.5407528844596357 Zr
atom 9.9680696313870918 4.9237749765798684 75.5407509496813532 Zr
atom 4.9259324080098574 9.9659121999570530 75.5407509496813532 Zr
atom 9.9285176806947799 9.9263744943286305 75.5407528844596357 Zr
atom 4.9647338682915327 4.9625906819253833 80.5537309829432360 Zr
atom 9.9680696313870918 4.9237749765798684 80.5537329177216606 Zr
atom 4.9259324080098574 9.9659121999570530 80.5537329177216606 Zr
atom 9.9285176806947799 9.9263744943286305 80.5537309829432360 Zr
atom 4.6330686660071523 4.6967897934924290 73.0366375858632040 S
atom 10.2338346525038943 5.2554767583278048 73.0366383473172363 S
atom 5.1916974291266582 10.2976139817049948 73.0366383473172363 S
atom 9.5968524784104208 9.6605736058956762 73.0366375858632040 S
atom 5.2962736746234835 5.2296621338446005 78.0472419337014429 S
atom 9.7010270275640771 4.5921824486307505 78.0472419337014429 S
atom 4.6588898041868516 9.6343196720079636 78.0472419337014429 S
atom 10.2600574870267405 10.1934459462478699 78.0472419337014429 S
atom 4.5974359960237825 2.4627041687286977 75.8639772563068391 S
atom 10.3741221915520541 2.4210641995828523 75.2211551758254444 S
atom 5.3319849681748490 7.4632014229600543 75.2211551758254444 S
atom 9.5612198084270332 7.4264879811319435 75.8639772563068391 S
atom 4.5974359960237825 2.4627041687286977 80.2305066110962173 S
atom 10.3741221915520541 2.4210641995828523 80.8733286915776262 S
atom 5.3319849681748490 7.4632014229600543 80.8733286915776262 S
atom 9.5612198084270332 7.4264879811319435 80.2305066110962173 S
atom 2.4620317079049121 5.3694458509338361 75.8639560340474901 S
atom 7.4674530709458864 4.5565401756084194 75.2211819529836845 S
atom 2.4253158475686463 9.5986773989856555 75.2211819529836845 S
atom 7.4258155203081735 10.3332296633370504 75.8639560340474901 S
atom 2.4620317079049121 5.3694458509338361 80.2305278333554241 S
atom 7.4674530709458864 4.5565401756084194 80.8733019144192298 S
atom 2.4253158475686463 9.5986773989856555 80.8733019144192298 S
atom 7.4258155203081735 10.3332296633370504 80.2305278333554241 S
atom 2.6646066601284919 2.1937814978382546 83.0574952700804090 Ba
atom 7.7730876650898226 2.2601247131013613 83.0574897652752924 Ba
atom 2.7309504417125954 7.3022619364785726 83.0574897652752924 Ba
atom 7.6283904725317493 7.1575653102414982 83.0574952700804090 Ba
atom 2.3002037802781796 2.7681697130597209 88.0659445388903208 Ba
atom 7.1987292564309495 2.6245393207863965 88.0659283214703095 Ba
atom 2.1565920330537129 7.6666765441636020 88.0659283214703095 Ba
atom 7.2639875926814472 7.7319535254629628 88.0659445388903208 Ba
atom 4.9638825822552937 4.9650741877715969 85.5670803544727079 Zr
atom 9.9655812122637641 4.9246354811803199 85.5670949944938144 Zr
atom 4.9234439888865618 9.9667727045574939 85.5670949944938144 Zr
atom 9.9276663946585391 9.9288580001748254 85.5670803544727079 Zr
atom 4.9664392480184869 4.9584014828301788 90.5820685538778889 Zr
atom 9.9723016267077007 4.9221292205660774 90.5820709132077724 Zr
atom 4.9301644033304930 9.9642664439432842 90.5820709132077724 Zr
atom 9.9302230604217492 9.9221852952334313 90.5820685538778889 Zr
atom 4.6330686660071523 4.6967897934924290 83.0578462815399092 S
atom 10.2338346525038943 5.2554767583278048 83.0578455200857206 S
atom 5.1916974291266582 10.2976139817049948 83.0578455200857206 S
atom 9.5968524784104208 9.6605736058956762 83.0578462815399092 S
atom 5.2948351655382071 5.2285878120650162 88.0686248393651994 S
atom 9.7020817533545927 4.5937124557108806 88.0686227905440546 S
atom 4.6599445299773494 9.6358496790880892 88.0686227905440546 S
atom 10.2586189779414649 10.1923716244682598 88.0686248393651994 S
atom 4.5968836278945151 2.4634910587542209 85.8818563588428816 S
atom 10.3737559682866856 2.4218489878549030 85.2401117921186540 S
atom 5.3316187449094601 7.4639862112321111 85.2401117921186540 S
atom 9.5606674402977667 7.4272748711574641 85.8818563588428816 S
atom 4.5966383392130377 2.4615501252367840 90.2495671095545902 S
atom 10.3758334589803756 2.4199018739536342 90.8868060371617759 S
atom 5.3336962356031581 7.4620390973308268 90.8868060371617759 S
atom 9.5604221516163204 7.4253339376400342 90.2495671095545902 S
atom 2.4612549143707936 5.3699866699702783 85.8818188976217982 S
atom 7.4666727730799529 4.5569155488819000 85.2401162068979659 S
atom 2.4245355497027128 9.5990527722590890 85.2401162068979659 S
atom 7.4250387267740656 10.3337704823734988 85.8818188976217982 S
atom 2.4632072862605607 5.3702609763411226 90.2495428217569042 S
atom 7.4686390828924072 4.5548493966027372 90.8868437651089778 S
atom 2.4265018595151764 9.5969866199799370 90.8868437651089778 S
atom 7.4269910986638212 10.3340447887443343 90.2495428217569042 S
atom 2.6660727149551584 2.1953234387582690 93.0714985851741403 Ba
atom 7.7715435495125202 2.2586436193899870 93.0714893777349204 Ba
atom 2.7294063261353076 7.3007808427671961 93.0714893777349204 Ba
atom 7.6298565273584407 7.1591072511615135 93.0714985851741403 Ba
atom 2.2944343265496947 2.7519794774318100 98.0523102899290961 Ba
atom 7.2148107317361170 2.6302435025633075 98.0523037079588988 Ba
atom 2.1726735083588857 7.6723807259405135 98.0523037079588988 Ba
atom 7.2582181389529641 7.7157632898350501 98.0523102899290961 Ba
atom 4.9593026607536759 4.9727657432751116 95.6002483879745171 Zr
atom 9.9578533967515579 4.9291763577348888 95.6002550485380453 Zr
atom 4.9157161733743369 9.9713135811121187 95.6002550485380453 Zr
atom 9.9230864731569390 9.9365495556783578 95.6002483879745171 Zr
atom 4.9755243468041792 4.9613605786237711 100.6582676072694511 Zr
atom 9.9692007441763479 4.9128817598165835 100.6582666789985439 Zr
atom 4.9270635207990994 9.9550189831937921 100.6582666789985439 Zr
atom 9.9393081592074619 9.9251443910270449 100.6582676072694511 Zr
atom 4.6381976263051143 4.7011768589188874 93.0797298588432085 S
atom 10.2294769924922644 5.2502912544851119 93.0797358353978410 S
atom 5.1873397691150336 10.2924284778623250 93.0797358353978410 S
atom 9.6019814387083677 9.6649606713221328 93.0797298588432085 S
atom 5.2586790918344422 5.2107359376337854 98.0944339108759209 S
atom 9.7198439807809471 4.6297660987029108 98.0944277760807637 S
atom 4.6777067574037083 9.6719033220801158 98.0944277760807637 S
atom 10.2224629042376982 10.1745197500370228 98.0944339108759209 S
atom 4.5924602293436045 2.4657021123691347 95.8865779766195345 S
atom 10.3840357424720207 2.4237516144417643 95.2703758482823986 S
atom 5.3418985190947872 7.4658888378189747 95.2703758482823986 S
atom 9.5562440417468686 7.4294859247723766 95.8865779766195345 S
atom 4.6534362345066107 2.4685445862491764 100.3037420441031884 S
atom 10.2938265845874852 2.4267371937201490 100.8119582714210480 S
atom 5.2516893612102606 7.4688744170973429 100.8119582714210480 S
atom 9.6172200469098676 7.4323283986524329 100.3037420441031884 S
atom 2.4589874404600254 5.3743555345132368 95.8865937261986261 S
atom 7.4647248298904394 4.5465792737835180 95.2703761625610070 S
atom 2.4225876065132086 9.5887164971607248 95.2703761625610070 S
atom 7.4227712528632965 10.3381393469164902 95.8865937261986261 S
atom 2.4560999298770447 5.3133739927939079 100.3037180968121049 S
atom 7.4616895612403189 4.6367440091108127 100.8119732735433729 S
atom 2.4195523378630872 9.6788812324880276 100.8119732735433729 S
atom 7.4198837422803159 10.2771578051971666 100.3037180968121049 S
atom 2.6659082278210087 2.3771135196589377 102.8482805804546416 Ba
atom 7.5896231918801744 2.2587200158630476 102.8482686075052612 Ba
atom 2.5474859685029467 7.3008572392402504 102.8482686075052612 Ba
atom 7.6296920402242616 7.3408973320621742 102.8482805804546416 Ba
atom 4.7562381236938158 4.8393454777080267 103.1661137386345075 S
atom 10.0912024224971244 5.1321641737337114 103.1661095192314974 S
atom 5.0490651991199034 10.1743013971109004 103.1661095192314974 S
atom 9.7200219360970888 9.8031292901112916 103.1661137386345075 S
