#=======================================================
# FHI-aims file: sym_relax/sym_relax_RP_2_RxRyMz_-Rx-RyMz.in
# Created using the Atomic Simulation Environment (ASE)
# Fri Mar 14 10:21:49 2025
#=======================================================
lattice_vector 10.0810525806406570 0.1194835776822536 0.0000000000000000 
lattice_vector 0.1194835776822536 10.0810525806406588 0.0000000000000000 
lattice_vector 0.0000000000000000 0.0000000000000000 25.5129462393064017 
atom -0.0998476444066377 -0.0997883292426326 0.2830127745224199 Ba
atom 5.1403146195629761 0.1595894332477643 0.2830127745224200 Ba
atom 0.1595301180837596 5.1403739347269619 0.2830127745224199 Ba
atom 5.0004204347548278 5.0004797499188092 0.2830127745224200 Ba
atom 0.0263480055973069 0.0262937508679192 4.9063358152512322 Ba
atom 5.0142325394524132 0.0333937832438193 4.9063358152512322 Ba
atom 0.0334480379732070 5.0141782847230152 4.9063358152512322 Ba
atom 5.1266160847587727 5.1265618300293694 4.9063358152512322 Ba
atom 2.5407965798572336 2.5408128365906499 2.3647051536622001 Zr
atom 7.5999815328911353 2.6192132881453460 2.3647051536622001 Zr
atom 2.6191970314119288 7.5999977896245499 2.3647051536622001 Zr
atom 7.6410646590186806 7.6410809157521014 2.3647051536622001 Zr
atom 2.5407965798572336 2.5408128365906499 7.4479664768402580 Zr
atom 7.5999815328911353 2.6192132881453460 7.4479664768402580 Zr
atom 2.6191970314119288 7.5999977896245499 7.4479664768402580 Zr
atom 7.6410646590186806 7.6410809157521014 7.4479664768402580 Zr
atom 2.7330758880829729 2.7330514119556870 -0.1263022478746733 S
atom 7.4077429575260938 2.4269339799196086 -0.1263022478746733 S
atom 2.4269584560468940 7.4077184813988044 -0.1263022478746733 S
atom 7.8333439672444287 7.8333194911171358 -0.1263022478746733 S
atom 2.2948676258328020 2.2948876353524286 4.9063358152512322 S
atom 7.8459067341293451 2.8651422421697750 4.9063358152512322 S
atom 2.8651222326501506 7.8459267436489659 4.9063358152512322 S
atom 7.3951357049942601 7.3951557145138755 4.9063358152512322 S
atom 2.5202011459352653 0.0298775833919325 2.2328101175526456 S
atom 7.5608346418783832 0.0896184254001448 2.6833893230785053 S
atom 2.5800501403991736 5.0704029268793409 2.6833893230785053 S
atom 7.6204692250967234 5.1301456625533843 2.2328101175526456 S
atom 2.5202011459352653 0.0298775833919325 7.5798615129498295 S
atom 7.5608346418783832 0.0896184254001448 7.1292823074239617 S
atom 2.5800501403991736 5.0704029268793409 7.1292823074239617 S
atom 7.6204692250967234 5.1301456625533843 7.5798615129498295 S
atom 0.0298642054491941 2.5203251443850623 2.2328101175526456 S
atom 5.0703914426024310 2.5799597276034039 2.6833893230785053 S
atom 0.0896069411232345 7.5607442290825979 2.6833893230785053 S
atom 5.1301322846106485 7.6205932235465177 2.2328101175526456 S
atom 0.0298642054491941 2.5203251443850623 7.5798615129498295 S
atom 5.0703914426024310 2.5799597276034039 7.1292823074239617 S
atom 0.0896069411232345 7.5607442290825979 7.1292823074239617 S
atom 5.1301322846106485 7.6205932235465177 7.5798615129498295 S
atom -0.0998476444066377 -0.0997883292426326 9.5296588559800472 Ba
atom 5.1403146195629761 0.1595894332477643 9.5296588559800472 Ba
atom 0.1595301180837596 5.1403739347269619 9.5296588559800472 Ba
atom 5.0004204347548278 5.0004797499188092 9.5296588559800472 Ba
atom 2.7330758880829729 2.7330514119556870 9.9389738783771389 S
atom 7.4077429575260938 2.4269339799196086 9.9389738783771389 S
atom 2.4269584560468940 7.4077184813988044 9.9389738783771389 S
atom 7.8333439672444287 7.8333194911171358 9.9389738783771389 S
atom 2.6499816839873662 2.6499223688233591 13.0394858941756127 Ba
atom 7.4908720006584142 2.5100281840152139 13.0394858941756127 Ba
atom 2.5100874991792232 7.4908126854944088 13.0394858941756127 Ba
atom 7.7502497631488172 7.7501904479848136 13.0394858941756127 Ba
atom 2.5237860339834230 2.5238402887128024 17.6628089349044437 Ba
atom 7.6169540807689806 2.6362238340191579 17.6628089349044437 Ba
atom 2.6361695792897755 7.6170083354983626 17.6628089349044437 Ba
atom 7.6240541131448767 7.6241083678742534 17.6628089349044437 Ba
atom 5.1096055388849591 5.1095892821515188 15.1211782733153850 Zr
atom 10.1314731664917321 5.1506724082790809 15.1211782733153850 Zr
atom 5.1506886650125168 10.1314569097583078 15.1211782733153850 Zr
atom 10.2098736180463945 10.2098573613129666 15.1211782733153850 Zr
atom 5.1096055388849591 5.1095892821515188 20.2044395964934544 Zr
atom 10.1314731664917321 5.1506724082790809 20.2044395964934544 Zr
atom 5.1506886650125168 10.1314569097583078 20.2044395964934544 Zr
atom 10.2098736180463945 10.2098573613129666 20.2044395964934544 Zr
atom 4.9173262306592100 4.9173507067864897 12.6301708717785157 S
atom 10.3237117418567710 5.3429517165048201 12.6301708717785157 S
atom 5.3429272403775441 10.3237362179840328 12.6301708717785157 S
atom 10.0175943098206908 10.0176187859479349 12.6301708717785157 S
atom 5.3555344929093778 5.3555144833897517 17.6628089349044437 S
atom 9.8855479652534743 4.9047434542546497 17.6628089349044437 S
atom 4.9047634637742812 9.8855279557338438 17.6628089349044437 S
atom 10.4558025720708372 10.4557825625511924 17.6628089349044437 S
atom 5.0703519783430107 2.5799991918628327 15.4398624427316982 S
atom 10.1109854742861156 2.6397400338710484 14.9892832372058429 S
atom 5.1302009728069171 7.6205245353502411 14.9892832372058429 S
atom 10.1706200575044541 7.6802672710242783 15.4398624427316982 S
atom 5.0703519783430107 2.5799991918628327 19.8857554270771608 S
atom 10.1109854742861156 2.6397400338710484 20.3363346326030090 S
atom 5.1302009728069171 7.6205245353502411 20.3363346326030090 S
atom 10.1706200575044541 7.6802672710242783 19.8857554270771608 S
atom 2.5800106761397457 5.0704423911387719 15.4398624427316982 S
atom 7.6205379132929911 5.1300769743571042 14.9892832372058429 S
atom 2.6397534118137864 10.1108614758363267 14.9892832372058429 S
atom 7.6802787553012024 10.1707104703002216 15.4398624427316982 S
atom 2.5800106761397457 5.0704423911387719 19.8857554270771608 S
atom 7.6205379132929911 5.1300769743571042 20.3363346326030090 S
atom 2.6397534118137864 10.1108614758363267 20.3363346326030090 S
atom 7.6802787553012024 10.1707104703002216 19.8857554270771608 S
atom 2.6499816839873662 2.6499223688233591 22.2861319756332357 Ba
atom 7.4908720006584142 2.5100281840152139 22.2861319756332357 Ba
atom 2.5100874991792232 7.4908126854944088 22.2861319756332357 Ba
atom 7.7502497631488172 7.7501904479848136 22.2861319756332357 Ba
atom 4.9173262306592100 4.9173507067864897 22.6954469980303237 S
atom 10.3237117418567710 5.3429517165048201 22.6954469980303237 S
atom 5.3429272403775441 10.3237362179840328 22.6954469980303237 S
atom 10.0175943098206908 10.0176187859479349 22.6954469980303237 S
