#=======================================================
# FHI-aims file: sym_relax/sym_relax_RP_8_00Rz1_00Rz2.in
# Created using the Atomic Simulation Environment (ASE)
# Mon Mar 17 16:01:36 2025
#=======================================================
lattice_vector 9.8983900549709283 0.0000000412445580 0.0000000000000000 
lattice_vector 0.0000000412445580 9.8983900549709016 0.0000000000000000 
lattice_vector 0.0000000000000000 0.0000000000000000 87.6218682433296578 
atom 0.0000000000000000 0.0000000000000000 0.1603596665757368 Ba
atom 4.9491950274854588 0.0000000206222788 0.1603596665757368 Ba
atom 0.0000000206222788 4.9491950274854535 0.1603596665757368 Ba
atom 4.9491950481077369 4.9491950481077325 0.1603596665757368 Ba
atom 0.0000000000000000 0.0000000000000000 5.0704739766955687 Ba
atom 4.9491950274854588 0.0000000206222788 5.0704739766955687 Ba
atom 0.0000000206222788 4.9491950274854535 5.0704739766955687 Ba
atom 4.9491950481077369 4.9491950481077325 5.0704739766955687 Ba
atom 2.4745975240538685 2.4745975240538662 2.4390226571728078 Zr
atom 7.4237925515393197 2.4745975446761439 2.4390226571728078 Zr
atom 2.4745975446761506 7.4237925515393233 2.4390226571728078 Zr
atom 7.4237925721616014 7.4237925721615969 2.4390226571728078 Zr
atom 2.4745975240538685 2.4745975240538662 7.5811607428211705 Zr
atom 7.4237925515393197 2.4745975446761439 7.5811607428211705 Zr
atom 2.4745975446761506 7.4237925515393233 7.5811607428211705 Zr
atom 7.4237925721616014 7.4237925721615969 7.5811607428211705 Zr
atom 2.4745975240538685 2.4745975240538662 -0.1044544683682384 S
atom 7.4237925515393197 2.4745975446761439 -0.1044544683682384 S
atom 2.4745975446761506 7.4237925515393233 -0.1044544683682384 S
atom 7.4237925721616014 7.4237925721615969 -0.1044544683682384 S
atom 2.4745975240538685 2.4745975240538662 5.0442628840574812 S
atom 7.4237925515393197 2.4745975446761439 5.0442628840574812 S
atom 2.4745975446761506 7.4237925515393233 5.0442628840574812 S
atom 7.4237925721616014 7.4237925721615969 5.0442628840574812 S
atom 2.0436710277115058 0.0000000099669425 2.5335867953403430 S
atom 7.8547190272594145 0.0000000312776142 2.5335867953403430 S
atom 2.9055240203962258 4.9491950381407905 2.5335867953403430 S
atom 6.9928660758192347 4.9491950580746646 2.5335867953403430 S
atom 3.0114268300451372 0.0000000093124682 7.6047357526512140 S
atom 6.8869632249257657 0.0000000319320894 7.6047357526512140 S
atom 1.9377682180625970 4.9491950387952608 7.6047357526512140 S
atom 7.9606218781528684 4.9491950574202033 7.6047357526512140 S
atom 0.0000000106553361 2.9055239997739442 2.5335867953403430 S
atom 4.9491950374523990 2.0436710483337897 2.5335867953403430 S
atom 0.0000000305892218 6.9928660551969584 2.5335867953403430 S
atom 4.9491950587630722 7.8547190478816802 2.5335867953403430 S
atom 0.0000000113098115 1.9377681974403160 7.6047357526512140 S
atom 4.9491950367979189 3.0114268506674136 7.6047357526512140 S
atom 0.0000000299347463 7.9606218575305920 7.6047357526512140 S
atom 4.9491950594175425 6.8869632455480474 7.6047357526512140 S
atom 0.0000000000000000 0.0000000000000000 10.1592538736385496 Ba
atom 4.9491950274854588 0.0000000206222788 10.1592538736385496 Ba
atom 0.0000000206222788 4.9491950274854535 10.1592538736385496 Ba
atom 4.9491950481077369 4.9491950481077325 10.1592538736385496 Ba
atom 0.0000000000000000 0.0000000000000000 15.2675349682219910 Ba
atom 4.9491950274854588 0.0000000206222788 15.2675349682219910 Ba
atom 0.0000000206222788 4.9491950274854535 15.2675349682219910 Ba
atom 4.9491950481077369 4.9491950481077325 15.2675349682219910 Ba
atom 2.4745975240538685 2.4745975240538662 12.7001905713618335 Zr
atom 7.4237925515393197 2.4745975446761439 12.7001905713618335 Zr
atom 2.4745975446761506 7.4237925515393233 12.7001905713618335 Zr
atom 7.4237925721616014 7.4237925721615969 12.7001905713618335 Zr
atom 2.4745975240538685 2.4745975240538662 17.8184387657794439 Zr
atom 7.4237925515393197 2.4745975446761439 17.8184387657794439 Zr
atom 2.4745975446761506 7.4237925515393233 17.8184387657794439 Zr
atom 7.4237925721616014 7.4237925721615969 17.8184387657794439 Zr
atom 2.4745975240538685 2.4745975240538662 10.1543190490003532 S
atom 7.4237925515393197 2.4745975446761439 10.1543190490003532 S
atom 2.4745975446761506 7.4237925515393233 10.1543190490003532 S
atom 7.4237925721616014 7.4237925721615969 10.1543190490003532 S
atom 2.4745975240538685 2.4745975240538662 15.2656061079874199 S
atom 7.4237925515393197 2.4745975446761439 15.2656061079874199 S
atom 2.4745975446761506 7.4237925515393233 15.2656061079874199 S
atom 7.4237925721616014 7.4237925721615969 15.2656061079874199 S
atom 1.9386461811863240 0.0000000108045431 12.7149179425953598 S
atom 7.9597438737845856 0.0000000304400137 12.7149179425953598 S
atom 3.0105488669214151 4.9491950373031823 12.7149179425953598 S
atom 6.8878412292940645 4.9491950589122764 12.7149179425953598 S
atom 3.0107627600254259 0.0000000097604127 17.8227385000837621 S
atom 6.8876272949454869 0.0000000314841449 17.8227385000837621 S
atom 1.9384322880823088 4.9491950383473196 17.8227385000837621 S
atom 7.9599578081331641 4.9491950578681445 17.8227385000837621 S
atom 0.0000000098177355 3.0105488462991330 12.7149179425953598 S
atom 4.9491950382899983 1.9386462018086019 12.7149179425953598 S
atom 0.0000000314268224 6.8878412086717766 12.7149179425953598 S
atom 4.9491950579254693 7.9597438944068566 12.7149179425953598 S
atom 0.0000000108618670 1.9384322674600298 17.8227385000837621 S
atom 4.9491950372458682 3.0107627806477022 17.8227385000837621 S
atom 0.0000000303826908 7.9599577875108771 17.8227385000837621 S
atom 4.9491950589696030 6.8876273155677543 17.8227385000837621 S
atom 0.0000000000000000 0.0000000000000000 20.3771786612394550 Ba
atom 4.9491950274854588 0.0000000206222788 20.3771786612394550 Ba
atom 0.0000000206222788 4.9491950274854535 20.3771786612394550 Ba
atom 4.9491950481077369 4.9491950481077325 20.3771786612394550 Ba
atom 0.0000000000000000 0.0000000000000000 25.4868223542568693 Ba
atom 4.9491950274854588 0.0000000206222788 25.4868223542568693 Ba
atom 0.0000000206222788 4.9491950274854535 25.4868223542568693 Ba
atom 4.9491950481077369 4.9491950481077325 25.4868223542568693 Ba
atom 2.4745975240538685 2.4745975240538662 22.9359185566994732 Zr
atom 7.4237925515393197 2.4745975446761439 22.9359185566994732 Zr
atom 2.4745975446761506 7.4237925515393233 22.9359185566994732 Zr
atom 7.4237925721616014 7.4237925721615969 22.9359185566994732 Zr
atom 2.4745975240538685 2.4745975240538662 28.0541667511170338 Zr
atom 7.4237925515393197 2.4745975446761439 28.0541667511170338 Zr
atom 2.4745975446761506 7.4237925515393233 28.0541667511170338 Zr
atom 7.4237925721616014 7.4237925721615969 28.0541667511170338 Zr
atom 2.4745975240538685 2.4745975240538662 20.3771786612394550 S
atom 7.4237925515393197 2.4745975446761439 20.3771786612394550 S
atom 2.4745975446761506 7.4237925515393233 20.3771786612394550 S
atom 7.4237925721616014 7.4237925721615969 20.3771786612394550 S
atom 2.4745975240538685 2.4745975240538662 25.4887512144914226 S
atom 7.4237925515393197 2.4745975446761439 25.4887512144914226 S
atom 2.4745975446761506 7.4237925515393233 25.4887512144914226 S
atom 7.4237925721616014 7.4237925721615969 25.4887512144914226 S
atom 1.9384322674600301 0.0000000108618661 22.9316188223951087 S
atom 7.9599577875108816 0.0000000303826907 22.9316188223951087 S
atom 3.0107627806477084 4.9491950372458628 22.9316188223951087 S
atom 6.8876273155677676 4.9491950589696039 22.9316188223951087 S
atom 3.0105488462991365 0.0000000098177357 28.0394393798835253 S
atom 6.8878412086717802 0.0000000314268228 28.0394393798835253 S
atom 1.9386462018086028 4.9491950382900010 28.0394393798835253 S
atom 7.9597438944068699 4.9491950579254684 28.0394393798835253 S
atom 0.0000000097604124 3.0107627600254214 22.9316188223951087 S
atom 4.9491950383473222 1.9384322880823097 22.9316188223951087 S
atom 0.0000000314841453 6.8876272949454833 22.9316188223951087 S
atom 4.9491950578681392 7.9599578081331543 22.9316188223951087 S
atom 0.0000000108045433 1.9386461811863229 28.0394393798835253 S
atom 4.9491950373031894 3.0105488669214124 28.0394393798835253 S
atom 0.0000000304400141 7.9597438737845794 28.0394393798835253 S
atom 4.9491950589122800 6.8878412292940592 28.0394393798835253 S
atom 0.0000000000000000 0.0000000000000000 30.5951034488403408 Ba
atom 4.9491950274854588 0.0000000206222788 30.5951034488403408 Ba
atom 0.0000000206222788 4.9491950274854535 30.5951034488403408 Ba
atom 4.9491950481077369 4.9491950481077325 30.5951034488403408 Ba
atom 0.0000000000000000 0.0000000000000000 35.6838833457832649 Ba
atom 4.9491950274854588 0.0000000206222788 35.6838833457832649 Ba
atom 0.0000000206222788 4.9491950274854535 35.6838833457832649 Ba
atom 4.9491950481077369 4.9491950481077325 35.6838833457832649 Ba
atom 2.4745975240538685 2.4745975240538662 33.1731965796577413 Zr
atom 7.4237925515393197 2.4745975446761439 33.1731965796577413 Zr
atom 2.4745975446761506 7.4237925515393233 33.1731965796577413 Zr
atom 7.4237925721616014 7.4237925721615969 33.1731965796577413 Zr
atom 2.4745975240538685 2.4745975240538662 38.3153346653060893 Zr
atom 7.4237925515393197 2.4745975446761439 38.3153346653060893 Zr
atom 2.4745975446761506 7.4237925515393233 38.3153346653060893 Zr
atom 7.4237925721616014 7.4237925721615969 38.3153346653060893 Zr
atom 2.4745975240538685 2.4745975240538662 30.6000382734785390 S
atom 7.4237925515393197 2.4745975446761439 30.6000382734785390 S
atom 2.4745975446761506 7.4237925515393233 30.6000382734785390 S
atom 7.4237925721616014 7.4237925721615969 30.6000382734785390 S
atom 2.4745975240538685 2.4745975240538662 35.7100944384213790 S
atom 7.4237925515393197 2.4745975446761439 35.7100944384213790 S
atom 2.4745975446761506 7.4237925515393233 35.7100944384213790 S
atom 7.4237925721616014 7.4237925721615969 35.7100944384213790 S
atom 1.9377681974403176 0.0000000113098106 33.1496215698276870 S
atom 7.9606218575305965 0.0000000299347462 33.1496215698276870 S
atom 3.0114268506674167 4.9491950367979287 33.1496215698276870 S
atom 6.8869632455480527 4.9491950594175353 33.1496215698276870 S
atom 2.9055239997739482 0.0000000106553363 38.2207705271385123 S
atom 6.9928660551969628 0.0000000305892222 38.2207705271385123 S
atom 2.0436710483337905 4.9491950374523928 38.2207705271385123 S
atom 7.8547190478816962 4.9491950587630757 38.2207705271385123 S
atom 0.0000000093124679 3.0114268300451368 33.1496215698276870 S
atom 4.9491950387952652 1.9377682180625961 33.1496215698276870 S
atom 0.0000000319320897 6.8869632249257657 33.1496215698276870 S
atom 4.9491950574202122 7.9606218781528666 33.1496215698276870 S
atom 0.0000000099669428 2.0436710277115102 38.2207705271385123 S
atom 4.9491950381407932 2.9055240203962218 38.2207705271385123 S
atom 0.0000000312776147 7.8547190272594039 38.2207705271385123 S
atom 4.9491950580746797 6.9928660758192445 38.2207705271385123 S
atom 0.0000000000000000 0.0000000000000000 40.5939976559031663 Ba
atom 4.9491950274854588 0.0000000206222788 40.5939976559031663 Ba
atom 0.0000000206222788 4.9491950274854535 40.5939976559031663 Ba
atom 4.9491950481077369 4.9491950481077325 40.5939976559031663 Ba
atom 2.4745975240538685 2.4745975240538662 40.8588117908472057 S
atom 7.4237925515393197 2.4745975446761439 40.8588117908472057 S
atom 2.4745975446761506 7.4237925515393233 40.8588117908472057 S
atom 7.4237925721616014 7.4237925721615969 40.8588117908472057 S
atom 2.4745975240538685 2.4745975240538662 43.9712914435465763 Ba
atom 7.4237925515393197 2.4745975446761439 43.9712914435465763 Ba
atom 2.4745975446761506 7.4237925515393233 43.9712914435465763 Ba
atom 7.4237925721616014 7.4237925721615969 43.9712914435465763 Ba
atom 2.4745975240538685 2.4745975240538662 48.8814859003023656 Ba
atom 7.4237925515393197 2.4745975446761439 48.8814859003023656 Ba
atom 2.4745975446761506 7.4237925515393233 48.8814859003023656 Ba
atom 7.4237925721616014 7.4237925721615969 48.8814859003023656 Ba
atom 4.9491950481077369 4.9491950481077325 46.2499924947592902 Zr
atom 9.8983900755931788 4.9491950687300079 46.2499924947592902 Zr
atom 4.9491950687300150 9.8983900755931735 46.2499924947592902 Zr
atom 9.8983900962154738 9.8983900962154650 46.2499924947592902 Zr
atom 4.9491950481077369 4.9491950481077325 51.3921249787636043 Zr
atom 9.8983900755931788 4.9491950687300079 51.3921249787636043 Zr
atom 4.9491950687300150 9.8983900755931735 51.3921249787636043 Zr
atom 9.8983900962154738 9.8983900962154650 51.3921249787636043 Zr
atom 4.9491950481077369 4.9491950481077325 43.7065093471227044 S
atom 9.8983900755931788 4.9491950687300079 43.7065093471227044 S
atom 4.9491950687300150 9.8983900755931735 43.7065093471227044 S
atom 9.8983900962154738 9.8983900962154650 43.7065093471227044 S
atom 4.9491950481077369 4.9491950481077325 48.8552254410837605 S
atom 9.8983900755931788 4.9491950687300079 48.8552254410837605 S
atom 4.9491950687300150 9.8983900755931735 48.8552254410837605 S
atom 9.8983900962154738 9.8983900962154650 48.8552254410837605 S
atom 4.5181526799347687 2.4745975337639923 46.3445735174091382 S
atom 10.3294324231438583 2.4745975555882951 46.3445735174091382 S
atom 5.3802374162806936 7.4237925624514762 46.3445735174091382 S
atom 9.4673477280425153 7.4237925818717114 46.3445735174091382 S
atom 5.4859722259438035 2.4745975335937818 51.4157151508381816 S
atom 9.3616128771348404 2.4745975557585060 51.4157151508381816 S
atom 4.4124178702716588 7.4237925626216805 51.4157151508381816 S
atom 10.4351672740515422 7.4237925817015125 51.4157151508381816 S
atom 2.4745975349660219 5.3802373956584075 46.3445735174091382 S
atom 7.4237925612494395 4.5181527005570441 46.3445735174091382 S
atom 2.4745975543862722 9.4673477074202239 46.3445735174091382 S
atom 7.4237925830737588 10.3294324437661338 46.3445735174091382 S
atom 2.4745975351362306 4.4124178496493816 51.4157151508381816 S
atom 7.4237925610792370 5.4859722465660807 51.4157151508381816 S
atom 2.4745975542160643 10.4351672534292543 51.4157151508381816 S
atom 7.4237925832439613 9.3616128977571087 51.4157151508381816 S
atom 2.4745975240538685 2.4745975240538662 53.9701985286163719 Ba
atom 7.4237925515393197 2.4745975446761439 53.9701985286163719 Ba
atom 2.4745975446761506 7.4237925515393233 53.9701985286163719 Ba
atom 7.4237925721616014 7.4237925721615969 53.9701985286163719 Ba
atom 2.4745975240538685 2.4745975240538662 59.0784891608852618 Ba
atom 7.4237925515393197 2.4745975446761439 59.0784891608852618 Ba
atom 2.4745975446761506 7.4237925515393233 59.0784891608852618 Ba
atom 7.4237925721616014 7.4237925721615969 59.0784891608852618 Ba
atom 4.9491950481077369 4.9491950481077325 56.5111436929770079 Zr
atom 9.8983900755931788 4.9491950687300079 56.5111436929770079 Zr
atom 4.9491950687300150 9.8983900755931735 56.5111436929770079 Zr
atom 9.8983900962154738 9.8983900962154650 56.5111436929770079 Zr
atom 4.9491950481077369 4.9491950481077325 61.6293646796308963 Zr
atom 9.8983900755931788 4.9491950687300079 61.6293646796308963 Zr
atom 4.9491950687300150 9.8983900755931735 61.6293646796308963 Zr
atom 9.8983900962154738 9.8983900962154650 61.6293646796308963 Zr
atom 4.9491950481077369 4.9491950481077325 53.9652782062077847 S
atom 9.8983900755931788 4.9491950687300079 53.9652782062077847 S
atom 4.9491950687300150 9.8983900755931735 53.9652782062077847 S
atom 9.8983900962154738 9.8983900962154650 53.9652782062077847 S
atom 4.9491950481077369 4.9491950481077325 59.0765497811459568 S
atom 9.8983900755931788 4.9491950687300079 59.0765497811459568 S
atom 4.9491950687300150 9.8983900755931735 59.0765497811459568 S
atom 9.8983900962154738 9.8983900962154650 59.0765497811459568 S
atom 4.4132423520483659 2.4745975348561333 56.5258736642779596 S
atom 10.4343427510302700 2.4745975544961585 56.5258736642779596 S
atom 5.4851477441671044 7.4237925613593392 56.5258736642779596 S
atom 9.3624374001561055 7.4237925829638538 56.5258736642779596 S
atom 5.4853653272980747 2.4745975338131370 61.6336683895591051 S
atom 9.3622197757805630 2.4745975555391508 61.6336683895591051 S
atom 4.4130247689173938 7.4237925624023244 61.6336683895591051 S
atom 10.4345603754058196 7.4237925819208623 61.6336683895591051 S
atom 2.4745975338738826 5.4851477235448192 56.5258736642779596 S
atom 7.4237925623415766 4.4132423726706493 56.5258736642779596 S
atom 2.4745975554784141 9.3624373795338105 56.5258736642779596 S
atom 7.4237925819816226 10.4343427716525419 56.5258736642779596 S
atom 2.4745975349168745 4.4130247482951139 61.6336683895591051 S
atom 7.4237925612985958 5.4853653479203466 61.6336683895591051 S
atom 2.4745975544354177 10.4345603547835264 61.6336683895591051 S
atom 7.4237925830246079 9.3622197964028349 61.6336683895591051 S
atom 2.4745975240538685 2.4745975240538662 64.1881127829043123 Ba
atom 7.4237925515393197 2.4745975446761439 64.1881127829043123 Ba
atom 2.4745975446761506 7.4237925515393233 64.1881127829043123 Ba
atom 7.4237925721616014 7.4237925721615969 64.1881127829043123 Ba
atom 2.4745975240538685 2.4745975240538662 69.2977364049231568 Ba
atom 7.4237925515393197 2.4745975446761439 69.2977364049231568 Ba
atom 2.4745975446761506 7.4237925515393233 69.2977364049231568 Ba
atom 7.4237925721616014 7.4237925721615969 69.2977364049231568 Ba
atom 4.9491950481077369 4.9491950481077325 66.7468608861776858 Zr
atom 9.8983900755931788 4.9491950687300079 66.7468608861776858 Zr
atom 4.9491950687300150 9.8983900755931735 66.7468608861776858 Zr
atom 9.8983900962154738 9.8983900962154650 66.7468608861776858 Zr
atom 4.9491950481077369 4.9491950481077325 71.8650818728315386 Zr
atom 9.8983900755931788 4.9491950687300079 71.8650818728315386 Zr
atom 4.9491950687300150 9.8983900755931735 71.8650818728315386 Zr
atom 9.8983900962154738 9.8983900962154650 71.8650818728315386 Zr
atom 4.9491950481077369 4.9491950481077325 64.1881127829043123 S
atom 9.8983900755931788 4.9491950687300079 64.1881127829043123 S
atom 4.9491950687300150 9.8983900755931735 64.1881127829043123 S
atom 9.8983900962154738 9.8983900962154650 64.1881127829043123 S
atom 4.9491950481077369 4.9491950481077325 69.2996757846625115 S
atom 9.8983900755931788 4.9491950687300079 69.2996757846625115 S
atom 4.9491950687300150 9.8983900755931735 69.2996757846625115 S
atom 9.8983900962154738 9.8983900962154650 69.2996757846625115 S
atom 4.4130247482951095 2.4745975349168741 66.7425571762493490 S
atom 10.4345603547835335 2.4745975544354182 66.7425571762493490 S
atom 5.4853653479203492 7.4237925612985904 66.7425571762493490 S
atom 9.3622197964028455 7.4237925830246070 66.7425571762493490 S
atom 5.4851477235448254 2.4745975338738773 71.8503519015304164 S
atom 9.3624373795338283 2.4745975554784101 71.8503519015304164 S
atom 4.4132423726706422 7.4237925623415730 71.8503519015304164 S
atom 10.4343427716525703 7.4237925819816128 71.8503519015304164 S
atom 2.4745975338131383 5.4853653272980649 66.7425571762493490 S
atom 7.4237925624023253 4.4130247689173965 66.7425571762493490 S
atom 2.4745975555391539 9.3622197757805541 66.7425571762493490 S
atom 7.4237925819208694 10.4345603754058107 66.7425571762493490 S
atom 2.4745975348561355 4.4132423520483668 71.8503519015304164 S
atom 7.4237925613593427 5.4851477441670928 71.8503519015304164 S
atom 2.4745975544961634 10.4343427510302753 71.8503519015304164 S
atom 7.4237925829638618 9.3624374001561002 71.8503519015304164 S
atom 2.4745975240538685 2.4745975240538662 74.4060270371919898 Ba
atom 7.4237925515393197 2.4745975446761439 74.4060270371919898 Ba
atom 2.4745975446761506 7.4237925515393233 74.4060270371919898 Ba
atom 7.4237925721616014 7.4237925721615969 74.4060270371919898 Ba
atom 2.4745975240538685 2.4745975240538662 79.4947396655060317 Ba
atom 7.4237925515393197 2.4745975446761439 79.4947396655060317 Ba
atom 2.4745975446761506 7.4237925515393233 79.4947396655060317 Ba
atom 7.4237925721616014 7.4237925721615969 79.4947396655060317 Ba
atom 4.9491950481077369 4.9491950481077325 76.9841005870448640 Zr
atom 9.8983900755931788 4.9491950687300079 76.9841005870448640 Zr
atom 4.9491950687300150 9.8983900755931735 76.9841005870448640 Zr
atom 9.8983900962154738 9.8983900962154650 76.9841005870448640 Zr
atom 4.9491950481077369 4.9491950481077325 82.1262330710492421 Zr
atom 9.8983900755931788 4.9491950687300079 82.1262330710492421 Zr
atom 4.9491950687300150 9.8983900755931735 82.1262330710492421 Zr
atom 9.8983900962154738 9.8983900962154650 82.1262330710492421 Zr
atom 4.9491950481077369 4.9491950481077325 74.4109473596006552 S
atom 9.8983900755931788 4.9491950687300079 74.4109473596006552 S
atom 4.9491950687300150 9.8983900755931735 74.4109473596006552 S
atom 9.8983900962154738 9.8983900962154650 74.4109473596006552 S
atom 4.9491950481077369 4.9491950481077325 79.5210001247247504 S
atom 9.8983900755931788 4.9491950687300079 79.5210001247247504 S
atom 4.9491950687300150 9.8983900755931735 79.5210001247247504 S
atom 9.8983900962154738 9.8983900962154650 79.5210001247247504 S
atom 4.4124178496493798 2.4745975351362315 76.9605104149703578 S
atom 10.4351672534292597 2.4745975542160576 76.9605104149703578 S
atom 5.4859722465660816 7.4237925610792326 76.9605104149703578 S
atom 9.3616128977571158 7.4237925832439595 76.9605104149703578 S
atom 5.3802373956584182 2.4745975349660183 82.0316520483993372 S
atom 9.4673477074202221 2.4745975543862682 82.0316520483993372 S
atom 4.5181527005570556 7.4237925612494342 82.0316520483993372 S
atom 10.3294324437661338 7.4237925830737490 82.0316520483993372 S
atom 2.4745975335937849 5.4859722259437973 76.9605104149703578 S
atom 7.4237925626216841 4.4124178702716579 76.9605104149703578 S
atom 2.4745975557585163 9.3616128771348279 76.9605104149703578 S
atom 7.4237925817015169 10.4351672740515262 76.9605104149703578 S
atom 2.4745975337639927 4.5181526799347722 82.0316520483993372 S
atom 7.4237925624514789 5.3802374162806839 82.0316520483993372 S
atom 2.4745975555883004 10.3294324231438619 82.0316520483993372 S
atom 7.4237925818717132 9.4673477280425029 82.0316520483993372 S
atom 2.4745975240538685 2.4745975240538662 84.4049341222619915 Ba
atom 7.4237925515393197 2.4745975446761439 84.4049341222619915 Ba
atom 2.4745975446761506 7.4237925515393233 84.4049341222619915 Ba
atom 7.4237925721616014 7.4237925721615969 84.4049341222619915 Ba
atom 4.9491950481077369 4.9491950481077325 84.6697162186858208 S
atom 9.8983900755931788 4.9491950687300079 84.6697162186858208 S
atom 4.9491950687300150 9.8983900755931735 84.6697162186858208 S
atom 9.8983900962154738 9.8983900962154650 84.6697162186858208 S
