#=======================================================
# FHI-aims file: sym_relax/sym_relax_RP_10_Rx0Mz_0Ry0.in
# Created using the Atomic Simulation Environment (ASE)
# Mon Mar 17 17:27:46 2025
#=======================================================
lattice_vector 10.0076464663711597 0.0000000000000000 0.0000000000000000 
lattice_vector 0.0000000000000000 10.0812213765314809 0.0000000000000000 
lattice_vector 0.0000000000000000 0.0000000000000000 105.3871215384659905 
atom -0.1664186798784359 0.0000000000000000 0.1526413282342566 Ba
atom 5.1392654121599817 0.0000000000000000 0.1469731046744416 Ba
atom 0.1354421789744107 5.0406106882657395 0.1469731046744415 Ba
atom 4.8374045533071426 5.0406106882657395 0.1526413282342566 Ba
atom -0.0698021127371546 0.0000000000000000 4.8601369479273746 Ba
atom 4.8854829611415891 -0.0000000000000000 4.7925706719012435 Ba
atom -0.1183402720439908 5.0406106882657395 4.7925706719012435 Ba
atom 4.9340211204484108 5.0406106882657395 4.8601369479273746 Ba
atom 2.4820569206312233 2.5039520436333431 2.2155005820272602 Zr
atom 7.4858801538168160 2.5366586446323991 2.2155005820272602 Zr
atom 2.4820569206312233 7.5772693328981413 2.2155005820272602 Zr
atom 7.4858801538168160 7.5445627318990933 2.2155005820272602 Zr
atom 2.5276915444830808 2.5181056045208745 7.2722064270172080 Zr
atom 7.5315147776686553 2.5225050837448753 7.2722064270172080 Zr
atom 2.5276915444830808 7.5631157720106295 7.2722064270172080 Zr
atom 7.5315147776686553 7.5587162927866212 7.2722064270172080 Zr
atom 2.4876905010707042 2.7723940883233680 -0.2692944703256262 S
atom 7.4915137342562810 2.2682165999423791 -0.2692944703256262 S
atom 2.4876905010707042 7.3088272882081320 -0.2692944703256262 S
atom 7.4915137342562810 7.8130047765891133 -0.2692944703256262 S
atom 2.5021088314103910 2.1527255615823768 4.7835659694886346 S
atom 7.5059320645959673 2.8878851266833658 4.7835659694886346 S
atom 2.5021088314103910 7.9284958149491196 4.7835659694886346 S
atom 7.5059320645959673 7.1933362498481248 4.7835659694886346 S
atom 2.4922140418340613 -0.0000000000000000 1.9892590430116202 S
atom 7.4769285796002070 -0.0000000000000000 2.6163885161113578 S
atom 2.4731053464146373 5.0406106882657395 2.6163885161113578 S
atom 7.4960372750196376 5.0406106882657395 1.9892590430116202 S
atom 2.8943515474083354 0.0000000000000000 7.6324423475817111 S
atom 7.1821054203776207 -0.0000000000000000 6.9327990003261544 S
atom 2.1782821871920524 5.0406106882657395 6.9327990003261544 S
atom 7.8981747805939264 5.0406106882657395 7.6324423475817111 S
atom -0.0168365250980335 2.5169285723490273 2.3446083555237474 S
atom 4.9869867080875379 2.5236821159167269 2.3446083555237474 S
atom -0.0168365250980335 7.5642928041824824 2.3446083555237474 S
atom 4.9869867080875379 7.5575392606147673 2.3446083555237474 S
atom 0.0229113585388466 2.1449666374508287 7.3011333654921362 S
atom 5.0267345917244333 2.8956440508149170 7.3011333654921362 S
atom 0.0229113585388466 7.9362547390806828 7.3011333654921362 S
atom 5.0267345917244333 7.1855773257165696 7.3011333654921362 S
atom 0.2309727087104092 0.0000000000000000 9.8123886405463310 Ba
atom 5.2034292865151972 0.0000000000000000 9.8009523413943516 Ba
atom 0.1996060533296320 5.0406106882657395 9.8009523413943516 Ba
atom 5.2347959418959853 5.0406106882657395 9.8123886405463310 Ba
atom -0.1885714006542837 0.0000000000000000 14.8193705037115393 Ba
atom 4.8461163152765003 0.0000000000000000 14.8164750120107556 Ba
atom -0.1577069179090651 5.0406106882657395 14.8164750120107556 Ba
atom 4.8152518325312936 5.0406106882657395 14.8193705037115393 Ba
atom 2.5270651903729284 2.5227027764747629 12.2960195820154237 Zr
atom 7.5308884235584905 2.5179079117909837 12.2960195820154237 Zr
atom 2.5270651903729284 7.5585186000567175 12.2960195820154237 Zr
atom 7.5308884235584905 7.5633134647405083 12.2960195820154237 Zr
atom 2.5223572812836079 2.5195153651847120 17.3204672598693321 Zr
atom 7.5261805144691829 2.5210953230810320 17.3204672598693321 Zr
atom 2.5223572812836079 7.5617060113467858 17.3204672598693321 Zr
atom 7.5261805144691829 7.5601260534504551 17.3204672598693321 Zr
atom 2.5160505298867841 2.8674614700071870 9.7949039827110980 S
atom 7.5198737630723551 2.1731492182585659 9.7949039827110980 S
atom 2.5160505298867841 7.2137599065243228 9.7949039827110980 S
atom 7.5198737630723551 7.9080721582729279 9.7949039827110980 S
atom 2.5294406794059823 2.1762551724545833 14.8142156884076606 S
atom 7.5332639125915684 2.8643555158111633 14.8142156884076606 S
atom 2.5294406794059823 7.9049662040769135 14.8142156884076606 S
atom 7.5332639125915684 7.2168658607203238 14.8142156884076606 S
atom 2.8922039576269376 0.0000000000000000 11.9618609788563433 S
atom 7.1599383872893654 0.0000000000000000 12.6557903292880916 S
atom 2.1561151541037953 5.0406106882657395 12.6557903292880916 S
atom 7.8960271908125153 5.0406106882657395 11.9618609788563433 S
atom 2.8929053556989430 -0.0000000000000000 17.6717861780939778 S
atom 7.1573890896360366 0.0000000000000000 16.9800493751588490 S
atom 2.1535658564504563 5.0406106882657395 16.9800493751588490 S
atom 7.8967285888845300 5.0406106882657395 17.6717861780939778 S
atom 0.0231044144234529 2.1361754216568305 12.3132667631319492 S
atom 5.0269276476090266 2.9044352666089126 12.3132667631319492 S
atom 0.0231044144234529 7.9450459548746624 12.3132667631319492 S
atom 5.0269276476090266 7.1767861099225838 12.3132667631319492 S
atom 0.0210385192318423 2.1343800944357154 17.3275160857003030 S
atom 5.0248617524174186 2.9062305938300383 17.3275160857003030 S
atom 0.0210385192318423 7.9468412820957797 17.3275160857003030 S
atom 5.0248617524174186 7.1749907827014772 17.3275160857003030 S
atom 0.2336865093019161 0.0000000000000000 19.8355842269034746 Ba
atom 5.2046320270969462 -0.0000000000000000 19.8343586144578978 Ba
atom 0.2008087939113498 5.0406106882657395 19.8343586144578978 Ba
atom 5.2375097424874912 5.0406106882657395 19.8355842269034746 Ba
atom -0.1910105323480199 0.0000000000000000 24.8554531930344034 Ba
atom 4.8462858839505438 0.0000000000000000 24.8554531930344034 Ba
atom -0.1575373492350372 5.0406106882657395 24.8554531930344034 Ba
atom 4.8128127008375605 5.0406106882657395 24.8554531930344034 Ba
atom 2.5238696349490626 2.5205152567607758 22.3438552858170176 Zr
atom 7.5276928681346496 2.5200954315049775 22.3438552858170176 Zr
atom 2.5238696349490626 7.5607061197707264 22.3438552858170176 Zr
atom 7.5276928681346496 7.5611259450265109 22.3438552858170176 Zr
atom 2.5238696349490626 2.5205152567607758 27.3670511002517820 Zr
atom 7.5276928681346496 2.5200954315049775 27.3670511002517820 Zr
atom 2.5238696349490626 7.5607061197707264 27.3670511002517820 Zr
atom 7.5276928681346496 7.5611259450265109 27.3670511002517820 Zr
atom 2.5174176143692604 2.8635335754970934 19.8347233144092776 S
atom 7.5212408475548465 2.1770771127686555 19.8347233144092776 S
atom 2.5174176143692604 7.2176878010344065 19.8347233144092776 S
atom 7.5212408475548465 7.9041442637628414 19.8347233144092776 S
atom 2.5298139653959515 2.1773988201834009 24.8554531930344034 S
atom 7.5336371985815243 2.8632118680823484 24.8554531930344034 S
atom 2.5298139653959515 7.9038225563480973 24.8554531930344034 S
atom 7.5336371985815243 7.2180095084491498 24.8554531930344034 S
atom 2.8947609823819818 -0.0000000000000000 21.9999866976131493 S
atom 7.1566373561027135 -0.0000000000000000 22.6909780548877436 S
atom 2.1528141229171265 5.0406106882657395 22.6909780548877436 S
atom 7.8985842155675590 5.0406106882657395 21.9999866976131493 S
atom 2.8947609823819809 -0.0000000000000000 27.7109196884555651 S
atom 7.1566373561027135 0.0000000000000000 27.0199283311810987 S
atom 2.1528141229171265 5.0406106882657395 27.0199283311810987 S
atom 7.8985842155675590 5.0406106882657395 27.7109196884555651 S
atom 0.0218457624591521 2.1329020824483007 22.3459183027937982 S
atom 5.0256689956447271 2.9077086058174473 22.3459183027937982 S
atom 0.0218457624591521 7.9483192940831948 22.3459183027937982 S
atom 5.0256689956447271 7.1735127707140363 22.3459183027937982 S
atom 0.0218457624591521 2.1329020824483007 27.3649880832749766 S
atom 5.0256689956447271 2.9077086058174473 27.3649880832749766 S
atom 0.0218457624591521 7.9483192940831948 27.3649880832749766 S
atom 5.0256689956447271 7.1735127707140363 27.3649880832749766 S
atom 0.2336865093019160 -0.0000000000000000 29.8753221591652469 Ba
atom 5.2046320270969462 0.0000000000000000 29.8765477716109018 Ba
atom 0.2008087939113498 5.0406106882657395 29.8765477716109018 Ba
atom 5.2375097424874912 5.0406106882657395 29.8753221591652469 Ba
atom -0.1885714006542837 -0.0000000000000000 34.8915358823572319 Ba
atom 4.8461163152765003 0.0000000000000000 34.8944313740580085 Ba
atom -0.1577069179090651 5.0406106882657395 34.8944313740580085 Ba
atom 4.8152518325312936 5.0406106882657395 34.8915358823572319 Ba
atom 2.5223572812836079 2.5195153651847120 32.3904391261994675 Zr
atom 7.5261805144691829 2.5210953230810320 32.3904391261994675 Zr
atom 2.5223572812836079 7.5617060113467858 32.3904391261994675 Zr
atom 7.5261805144691829 7.5601260534504551 32.3904391261994675 Zr
atom 2.5270651903729284 2.5227027764747629 37.4148868040533031 Zr
atom 7.5308884235584905 2.5179079117909837 37.4148868040533031 Zr
atom 2.5270651903729284 7.5585186000567175 37.4148868040533031 Zr
atom 7.5308884235584905 7.5633134647405083 37.4148868040533031 Zr
atom 2.5174176143692604 2.8635335754970934 29.8761830716594794 S
atom 7.5212408475548465 2.1770771127686555 29.8761830716594794 S
atom 2.5174176143692604 7.2176878010344065 29.8761830716594794 S
atom 7.5212408475548465 7.9041442637628414 29.8761830716594794 S
atom 2.5294406794059823 2.1762551724545833 34.8966906976610503 S
atom 7.5332639125915684 2.8643555158111633 34.8966906976610503 S
atom 2.5294406794059823 7.9049662040769135 34.8966906976610503 S
atom 7.5332639125915684 7.2168658607203238 34.8966906976610503 S
atom 2.8929053556989430 0.0000000000000000 32.0391202079748538 S
atom 7.1573890896360366 -0.0000000000000000 32.7308570109099080 S
atom 2.1535658564504563 5.0406106882657395 32.7308570109099080 S
atom 7.8967285888845300 5.0406106882657395 32.0391202079748538 S
atom 2.8922039576269376 -0.0000000000000000 37.7490454072123569 S
atom 7.1599383872893654 -0.0000000000000000 37.0551160567807685 S
atom 2.1561151541037953 5.0406106882657395 37.0551160567807685 S
atom 7.8960271908125153 5.0406106882657395 37.7490454072123569 S
atom 0.0210385192318423 2.1343800944357145 32.3833903003684114 S
atom 5.0248617524174186 2.9062305938300383 32.3833903003684114 S
atom 0.0210385192318423 7.9468412820957797 32.3833903003684114 S
atom 5.0248617524174186 7.1749907827014772 32.3833903003684114 S
atom 0.0231044144234529 2.1361754216568314 37.3976396229367509 S
atom 5.0269276476090266 2.9044352666089126 37.3976396229367509 S
atom 0.0231044144234529 7.9450459548746641 37.3976396229367509 S
atom 5.0269276476090266 7.1767861099225838 37.3976396229367509 S
atom 0.2309727087104092 -0.0000000000000000 39.8985177455225184 Ba
atom 5.2034292865151972 -0.0000000000000000 39.9099540446743717 Ba
atom 0.1996060533296320 5.0406106882657395 39.9099540446743717 Ba
atom 5.2347959418959853 5.0406106882657395 39.8985177455225184 Ba
atom -0.0698021127371546 -0.0000000000000000 44.8507694381414339 Ba
atom 4.8854829611415891 -0.0000000000000000 44.9183357141675543 Ba
atom -0.1183402720439908 5.0406106882657395 44.9183357141675543 Ba
atom 4.9340211204484108 5.0406106882657395 44.8507694381414339 Ba
atom 2.5276915444830808 2.5181056045208745 42.4386999590515472 Zr
atom 7.5315147776686553 2.5225050837448753 42.4386999590515472 Zr
atom 2.5276915444830808 7.5631157720106295 42.4386999590515472 Zr
atom 7.5315147776686553 7.5587162927866212 42.4386999590515472 Zr
atom 2.4820569206312233 2.5039520436333431 47.4954058040415248 Zr
atom 7.4858801538168160 2.5366586446323991 47.4954058040415248 Zr
atom 2.4820569206312233 7.5772693328981413 47.4954058040415248 Zr
atom 7.4858801538168160 7.5445627318990933 47.4954058040415248 Zr
atom 2.5160505298867841 2.8674614700071870 39.9160024033577017 S
atom 7.5198737630723551 2.1731492182585659 39.9160024033577017 S
atom 2.5160505298867841 7.2137599065243228 39.9160024033577017 S
atom 7.5198737630723551 7.9080721582729279 39.9160024033577017 S
atom 2.5021088314103910 2.1527255615823768 44.9273404165801082 S
atom 7.5059320645959673 2.8878851266833658 44.9273404165801082 S
atom 2.5021088314103910 7.9284958149491196 44.9273404165801082 S
atom 7.5059320645959673 7.1933362498481248 44.9273404165801082 S
atom 2.8943515474083354 -0.0000000000000000 42.0784640384870343 S
atom 7.1821054203776207 0.0000000000000000 42.7781073857426790 S
atom 2.1782821871920524 5.0406106882657395 42.7781073857426790 S
atom 7.8981747805939264 5.0406106882657395 42.0784640384870343 S
atom 2.4922140418340613 0.0000000000000000 47.7216473430571071 S
atom 7.4769285796002070 0.0000000000000000 47.0945178699573788 S
atom 2.4731053464146373 5.0406106882657395 47.0945178699573788 S
atom 7.4960372750196376 5.0406106882657395 47.7216473430571071 S
atom 0.0229113585388466 2.1449666374508287 42.4097730205767007 S
atom 5.0267345917244333 2.8956440508149170 42.4097730205767007 S
atom 0.0229113585388466 7.9362547390806828 42.4097730205767007 S
atom 5.0267345917244333 7.1855773257165696 42.4097730205767007 S
atom -0.0168365250980335 2.5169285723490273 47.3662980305450745 S
atom 4.9869867080875379 2.5236821159167269 47.3662980305450745 S
atom -0.0168365250980335 7.5642928041824824 47.3662980305450745 S
atom 4.9869867080875379 7.5575392606147673 47.3662980305450745 S
atom -0.1664186798784359 0.0000000000000000 49.5582650578345678 Ba
atom 5.1392654121599817 0.0000000000000000 49.5639332813943625 Ba
atom 0.1354421789744107 5.0406106882657395 49.5639332813943625 Ba
atom 4.8374045533071426 5.0406106882657395 49.5582650578345678 Ba
atom 2.4876905010707042 2.7723940883233680 49.9802008563944042 S
atom 7.4915137342562810 2.2682165999423791 49.9802008563944042 S
atom 2.4876905010707042 7.3088272882081320 49.9802008563944042 S
atom 7.4915137342562810 7.8130047765891133 49.9802008563944042 S
atom 2.4885104938670461 2.6811851457088398 53.0905479873725312 Ba
atom 7.4923337270526069 2.3594255425569064 53.0905479873725312 Ba
atom 2.4885104938670461 7.4000362308226579 53.0905479873725312 Ba
atom 7.4923337270526069 7.7217958339745936 53.0905479873725312 Ba
atom 2.4884714952775795 2.4987181953787303 57.7728137824379502 Ba
atom 7.4922947284631505 2.5418924928870177 57.7728137824379502 Ba
atom 2.4884714952775795 7.5825031811527772 57.7728137824379502 Ba
atom 7.4922947284631505 7.5393288836444778 57.7728137824379502 Ba
atom 5.0097427790796285 5.0406106882657395 55.1535380629703695 Zr
atom 9.9749154102698068 5.0406106882657395 55.1550015939999980 Zr
atom 4.9710921770842331 10.0812213765314791 55.1550015939999980 Zr
atom 10.0135660122652155 10.0812213765314791 55.1535380629703695 Zr
atom 4.9914745601949271 5.0406106882657395 60.1741869016117050 Zr
atom 9.9934170482548037 5.0406106882657395 60.1748629850331724 Zr
atom 4.9895938150692247 10.0812213765314791 60.1748629850331724 Zr
atom 9.9952977933805034 10.0812213765314791 60.1741869016117050 Zr
atom 4.7038361086596057 5.0406106882657395 52.6684210324680890 S
atom 10.2807276915606778 5.0406106882657395 52.6698699906027556 S
atom 5.2769044583751121 10.0812213765314791 52.6698699906027556 S
atom 9.7076593418451811 10.0812213765314791 52.6684210324680890 S
atom 5.4566818138626871 5.0406106882657395 57.6996558215199400 S
atom 9.5278948069455662 5.0406106882657395 57.7000139580489275 S
atom 4.5240715737599970 10.0812213765314791 57.7000139580489275 S
atom 10.4605050470482688 10.0812213765314791 57.6996558215199400 S
atom 4.9903339849060320 2.5203671381343984 55.2880609492749358 S
atom 9.9941572180915923 2.5202435501313500 55.2880609492749358 S
atom 4.9903339849060320 7.5608542383970994 55.2880609492749358 S
atom 9.9941572180915923 7.5609778264001308 55.2880609492749358 S
atom 4.9905015000084454 2.5202887929273921 60.1918773883105160 S
atom 9.9943247331940164 2.5203218953383533 60.1918773883105160 S
atom 4.9905015000084454 7.5609325836041039 60.1918773883105160 S
atom 9.9943247331940164 7.5608994811931476 60.1918773883105160 S
atom 2.4885495622459466 5.0406106882657395 55.6054695689615386 S
atom 7.4922991566193158 5.0406106882657395 54.8400427059774813 S
atom 2.4884759234337466 10.0812213765314791 54.8400427059774813 S
atom 7.4923727954315140 10.0812213765314791 55.6054695689615386 S
atom 2.4885370988947910 5.0406106882657395 59.7019739024148350 S
atom 7.4924148744426526 5.0406106882657395 60.6637515928386506 S
atom 2.4885916412570857 10.0812213765314791 60.6637515928386506 S
atom 7.4923603320803869 10.0812213765314791 59.7019739024148350 S
atom 2.4886648872263040 2.5238808565207762 62.6811213465434705 Ba
atom 7.4924881204118812 2.5167298317449678 62.6811213465434705 Ba
atom 2.4886648872263040 7.5573405200107215 62.6811213465434705 Ba
atom 7.4924881204118812 7.5644915447865158 62.6811213465434705 Ba
atom 2.4886380314287009 2.5164613937857956 67.6314320070807611 Ba
atom 7.4924612646142723 2.5241492944799493 67.6314320070807611 Ba
atom 2.4886380314287009 7.5647599827457102 67.6314320070807611 Ba
atom 7.4924612646142723 7.5570720820515458 67.6314320070807611 Ba
atom 4.9888324967558182 5.0406106882657395 65.1404264149933709 Zr
atom 9.9960610613450651 5.0406106882657395 65.1407502780191123 Zr
atom 4.9922378281594817 10.0812213765314791 65.1407502780191123 Zr
atom 9.9926557299413652 10.0812213765314791 65.1404264149933709 Zr
atom 4.9909824813379071 5.0406106882657395 70.1046737494551451 Zr
atom 9.9940261501358716 5.0406106882657395 70.1048118886582046 Zr
atom 4.9902029169502820 10.0812213765314791 70.1048118886582046 Zr
atom 9.9948057145235012 10.0812213765314791 70.1046737494551451 Zr
atom 4.4838990255914171 5.0406106882657395 62.6639738390224821 S
atom 10.5010791003298714 5.0406106882657395 62.6641631746401160 S
atom 5.4972558671443128 10.0812213765314791 62.6641631746401160 S
atom 9.4877222587769889 10.0812213765314791 62.6639738390224821 S
atom 5.4981158059898787 5.0406106882657395 67.6251976635768699 S
atom 9.4867957270926677 5.0406106882657395 67.6252948172333248 S
atom 4.4829724939070958 10.0812213765314791 67.6252948172333248 S
atom 10.5019390391754648 10.0812213765314791 67.6251976635768699 S
atom 4.9905491486076192 2.5202982416887898 65.1486423646584569 S
atom 9.9943723817932071 2.5203124465769537 65.1486423646584569 S
atom 4.9905491486076192 7.5609231348427084 65.1486423646584569 S
atom 9.9943723817932071 7.5609089299545369 65.1486423646584569 S
atom 4.9905908159201520 2.5203052514297477 70.1072474528249643 S
atom 9.9944140491057425 2.5203054368360065 70.1072474528249643 S
atom 4.9905908159201520 7.5609161251017580 70.1072474528249643 S
atom 9.9944140491057425 7.5609159396954819 70.1072474528249643 S
atom 2.4886470628245592 5.0406106882657395 65.6414153731504086 S
atom 7.4924791384019427 5.0406106882657395 64.6567336084653164 S
atom 2.4886559052163664 10.0812213765314791 64.6567336084653164 S
atom 7.4924702960101461 10.0812213765314791 65.6414153731504086 S
atom 2.4886641289063509 5.0406106882657395 69.6141784128433869 S
atom 7.4924957112568116 5.0406106882657395 70.6010048878996486 S
atom 2.4886724780712419 10.0812213765314791 70.6010048878996486 S
atom 7.4924873620919188 10.0812213765314791 69.6141784128433869 S
atom 2.4886885449186567 2.5232746683903646 72.5882001478330494 Ba
atom 7.4925117781042356 2.5173360198753874 72.5882001478330494 Ba
atom 2.4886885449186567 7.5579467081411398 72.5882001478330494 Ba
atom 7.4925117781042356 7.5638853566561197 72.5882001478330494 Ba
atom 2.4886708691640740 2.5175558541382586 77.5490139622673098 Ba
atom 7.4924941023496450 2.5230548341274890 77.5490139622673098 Ba
atom 2.4886708691640740 7.5636655223932401 77.5490139622673098 Ba
atom 7.4924941023496450 7.5581665424040052 77.5490139622673098 Ba
atom 4.9905185390309068 5.0406106882657395 75.0676946753411016 Zr
atom 9.9944839260856977 5.0406106882657395 75.0677302608091424 Zr
atom 4.9906606929001178 10.0812213765314791 75.0677302608091424 Zr
atom 9.9943417722164760 10.0812213765314791 75.0676946753411016 Zr
atom 4.9905185390309068 5.0406106882657395 80.0303332491934185 Zr
atom 9.9944839260856977 5.0406106882657395 80.0302976637252783 Zr
atom 4.9906606929001178 10.0812213765314791 80.0302976637252783 Zr
atom 9.9943417722164760 10.0812213765314791 80.0303332491934185 Zr
atom 4.4821568263216527 5.0406106882657395 72.5871872823035744 S
atom 10.5028761431973532 5.0406106882657395 72.5872279059149150 S
atom 5.4990529100117733 10.0812213765314791 72.5872279059149150 S
atom 9.4859800595072272 10.0812213765314791 72.5871872823035744 S
atom 5.4994010561271329 5.0406106882657395 77.5490139622673098 S
atom 9.4855766842487377 5.0406106882657395 77.5490139622673098 S
atom 4.4817534510631525 10.0812213765314791 77.5490139622673098 S
atom 10.5032242893127190 10.0812213765314791 77.5490139622673098 S
atom 4.9905893670718777 2.5202994901080049 75.0684410310305168 S
atom 9.9944126002574656 2.5203111981577417 75.0684410310305168 S
atom 4.9905893670718777 7.5609218864234853 75.0684410310305168 S
atom 9.9944126002574656 7.5609101783737547 75.0684410310305168 S
atom 4.9905893670718777 2.5202994901080049 80.0295868935041881 S
atom 9.9944126002574656 2.5203111981577417 80.0295868935041881 S
atom 4.9905893670718777 7.5609218864234853 80.0295868935041881 S
atom 9.9944126002574656 7.5609101783737547 80.0295868935041881 S
atom 2.4886746008901612 5.0406106882657395 75.5627261563841444 S
atom 7.4925093389678583 5.0406106882657395 74.5739433561494707 S
atom 2.4886861057822967 10.0812213765314791 74.5739433561494707 S
atom 7.4924978340757420 10.0812213765314791 75.5627261563841444 S
atom 2.4886746008901612 5.0406106882657395 79.5353017681504042 S
atom 7.4925093389678583 5.0406106882657395 80.5240845683849216 S
atom 2.4886861057822967 10.0812213765314791 80.5240845683849216 S
atom 7.4924978340757420 10.0812213765314791 79.5353017681504042 S
atom 2.4886885449186567 2.5232746683903646 82.5098277767016128 Ba
atom 7.4925117781042356 2.5173360198753874 82.5098277767016128 Ba
atom 2.4886885449186567 7.5579467081411398 82.5098277767016128 Ba
atom 7.4925117781042356 7.5638853566561197 82.5098277767016128 Ba
atom 2.4886380314287009 2.5164613937857956 87.4665959174539012 Ba
atom 7.4924612646142723 2.5241492944799493 87.4665959174539012 Ba
atom 2.4886380314287009 7.5647599827457102 87.4665959174539012 Ba
atom 7.4924612646142723 7.5570720820515458 87.4665959174539012 Ba
atom 4.9909824813379071 5.0406106882657395 84.9933541750795030 Zr
atom 9.9940261501358716 5.0406106882657395 84.9932160358761735 Zr
atom 4.9902029169502820 10.0812213765314791 84.9932160358761735 Zr
atom 9.9948057145235012 10.0812213765314791 84.9933541750795030 Zr
atom 4.9888324967558182 5.0406106882657395 89.9576015095411776 Zr
atom 9.9960610613450651 5.0406106882657395 89.9572776465154220 Zr
atom 4.9922378281594817 10.0812213765314791 89.9572776465154220 Zr
atom 9.9926557299413652 10.0812213765314791 89.9576015095411776 Zr
atom 4.4821568263216527 5.0406106882657395 82.5108406422311020 S
atom 10.5028761431973532 5.0406106882657395 82.5108000186196477 S
atom 5.4990529100117733 10.0812213765314791 82.5108000186196477 S
atom 9.4859800595072272 10.0812213765314791 82.5108406422311020 S
atom 5.4981158059898787 5.0406106882657395 87.4728302609576502 S
atom 9.4867957270926677 5.0406106882657395 87.4727331073009253 S
atom 4.4829724939070958 10.0812213765314791 87.4727331073009253 S
atom 10.5019390391754648 10.0812213765314791 87.4728302609576502 S
atom 4.9905908159201520 2.5203052514297477 84.9907804717094564 S
atom 9.9944140491057425 2.5203054368360065 84.9907804717094564 S
atom 4.9905908159201520 7.5609161251017580 84.9907804717094564 S
atom 9.9944140491057425 7.5609159396954819 84.9907804717094564 S
atom 4.9905491486076192 2.5202982416887898 89.9493855598761627 S
atom 9.9943723817932071 2.5203124465769537 89.9493855598761627 S
atom 4.9905491486076192 7.5609231348427084 89.9493855598761627 S
atom 9.9943723817932071 7.5609089299545369 89.9493855598761627 S
atom 2.4886641289063509 5.0406106882657395 85.4838495116912327 S
atom 7.4924957112568116 5.0406106882657395 84.4970230366348432 S
atom 2.4886724780712419 10.0812213765314791 84.4970230366348432 S
atom 7.4924873620919188 10.0812213765314791 85.4838495116912327 S
atom 2.4886470628245592 5.0406106882657395 89.4566125513840973 S
atom 7.4924791384019427 5.0406106882657395 90.4412943160692748 S
atom 2.4886559052163664 10.0812213765314791 90.4412943160692748 S
atom 7.4924702960101461 10.0812213765314791 89.4566125513840973 S
atom 2.4886648872263040 2.5238808565207762 92.4169065779912273 Ba
atom 7.4924881204118812 2.5167298317449678 92.4169065779912273 Ba
atom 2.4886648872263040 7.5573405200107215 92.4169065779912273 Ba
atom 7.4924881204118812 7.5644915447865158 92.4169065779912273 Ba
atom 2.4884714952775795 2.4987181953787303 97.3252141420965415 Ba
atom 7.4922947284631505 2.5418924928870177 97.3252141420965415 Ba
atom 2.4884714952775795 7.5825031811527772 97.3252141420965415 Ba
atom 7.4922947284631505 7.5393288836444778 97.3252141420965415 Ba
atom 4.9914745601949271 5.0406106882657395 94.9238410229230993 Zr
atom 9.9934170482548037 5.0406106882657395 94.9231649395014045 Zr
atom 4.9895938150692247 10.0812213765314791 94.9231649395014045 Zr
atom 9.9952977933805034 10.0812213765314791 94.9238410229230993 Zr
atom 5.0097427790796285 5.0406106882657395 99.9444898615640369 Zr
atom 9.9749154102698068 5.0406106882657395 99.9430263305345647 Zr
atom 4.9710921770842331 10.0812213765314791 99.9430263305345647 Zr
atom 10.0135660122652155 10.0812213765314791 99.9444898615640369 Zr
atom 4.4838990255914171 5.0406106882657395 92.4340540855120594 S
atom 10.5010791003298714 5.0406106882657395 92.4338647498943118 S
atom 5.4972558671443128 10.0812213765314791 92.4338647498943118 S
atom 9.4877222587769889 10.0812213765314791 92.4340540855120594 S
atom 5.4566818138626871 5.0406106882657395 97.3983721030145375 S
atom 9.5278948069455662 5.0406106882657395 97.3980139664856353 S
atom 4.5240715737599970 10.0812213765314791 97.3980139664856353 S
atom 10.4605050470482688 10.0812213765314791 97.3983721030145375 S
atom 4.9905015000084454 2.5202887929273921 94.9061505362238904 S
atom 9.9943247331940164 2.5203218953383533 94.9061505362238904 S
atom 4.9905015000084454 7.5609325836041039 94.9061505362238904 S
atom 9.9943247331940164 7.5608994811931476 94.9061505362238904 S
atom 4.9903339849060320 2.5203671381343984 99.8099669752595418 S
atom 9.9941572180915923 2.5202435501313500 99.8099669752595418 S
atom 4.9903339849060320 7.5608542383970994 99.8099669752595418 S
atom 9.9941572180915923 7.5609778264001308 99.8099669752595418 S
atom 2.4885370988947910 5.0406106882657395 95.3960540221196993 S
atom 7.4924148744426526 5.0406106882657395 94.4342763316961253 S
atom 2.4885916412570857 10.0812213765314791 94.4342763316961253 S
atom 7.4923603320803869 10.0812213765314791 95.3960540221196993 S
atom 2.4885495622459466 5.0406106882657395 99.4925583555732089 S
atom 7.4922991566193158 5.0406106882657395 100.2579852185568541 S
atom 2.4884759234337466 10.0812213765314791 100.2579852185568541 S
atom 7.4923727954315140 10.0812213765314791 99.4925583555732089 S
atom 2.4885104938670461 2.6811851457088398 102.0074799371623584 Ba
atom 7.4923337270526069 2.3594255425569064 102.0074799371623584 Ba
atom 2.4885104938670461 7.4000362308226579 102.0074799371623584 Ba
atom 7.4923337270526069 7.7217958339745936 102.0074799371623584 Ba
atom 4.7038361086596057 5.0406106882657395 102.4296068920664879 S
atom 10.2807276915606778 5.0406106882657395 102.4281579339319563 S
atom 5.2769044583751121 10.0812213765314791 102.4281579339319563 S
atom 9.7076593418451811 10.0812213765314791 102.4296068920664879 S
