#=======================================================
# FHI-aims file: sym_relax/sym_relax_RP_6_00Rz1_00Rz2.in
# Created using the Atomic Simulation Environment (ASE)
# Fri Mar 14 11:00:08 2025
#=======================================================
lattice_vector 9.9009266970982654 0.0000000419756469 0.0000000000000000 
lattice_vector 0.0000000419756469 9.9009266970982654 0.0000000000000000 
lattice_vector 0.0000000000000000 0.0000000000000000 67.1542990103963149 
atom 0.0000000000000000 0.0000000000000000 0.1625071991487111 Ba
atom 4.9504633485491309 0.0000000209878233 0.1625071991487111 Ba
atom 0.0000000209878233 4.9504633485491336 0.1625071991487112 Ba
atom 4.9504633695369584 4.9504633695369558 0.1625071991487112 Ba
atom 0.0000000000000000 0.0000000000000000 5.0702352886861926 Ba
atom 4.9504633485491309 0.0000000209878233 5.0702352886861926 Ba
atom 0.0000000209878233 4.9504633485491336 5.0702352886861926 Ba
atom 4.9504633695369584 4.9504633695369558 5.0702352886861926 Ba
atom 2.4752316847684792 2.4752316847684779 2.4407606571488163 Zr
atom 7.4256950333176084 2.4752317057563009 2.4407606571488163 Zr
atom 2.4752317057563022 7.4256950333176128 2.4407606571488163 Zr
atom 7.4256950543054385 7.4256950543054430 2.4407606571488163 Zr
atom 2.4752316847684792 2.4752316847684779 7.5829524390169771 Zr
atom 7.4256950333176084 2.4752317057563009 7.5829524390169771 Zr
atom 2.4752317057563022 7.4256950333176128 7.5829524390169771 Zr
atom 7.4256950543054385 7.4256950543054430 7.5829524390169771 Zr
atom 2.4752316847684792 2.4752316847684779 -0.1030646142887990 S
atom 7.4256950333176084 2.4752317057563009 -0.1030646142887990 S
atom 2.4752317057563022 7.4256950333176128 -0.1030646142887990 S
atom 7.4256950543054385 7.4256950543054430 -0.1030646142887990 S
atom 2.4752316847684792 2.4752316847684779 5.0441961387280969 S
atom 7.4256950333176084 2.4752317057563009 5.0441961387280969 S
atom 2.4752317057563022 7.4256950333176128 5.0441961387280969 S
atom 7.4256950543054385 7.4256950543054430 5.0441961387280969 S
atom 2.0459629126505972 0.0000017885291773 2.5339456340099336 S
atom 7.8549637844476576 -0.0000017465535316 2.5339456340099336 S
atom 2.9045004568863511 4.9504615810077723 2.5339456340099336 S
atom 6.9964262821875582 4.9504651580661374 2.5339456340099336 S
atom 3.0113283777538795 0.0000000757137360 7.6028770251721456 S
atom 6.8895983193443753 -0.0000000337380895 7.6028770251721456 S
atom 1.9391349917830720 4.9504632938232236 7.6028770251721456 S
atom 7.9617917472908353 4.9504634452506950 7.6028770251721456 S
atom -0.0000017675413542 2.9045004358985347 2.5339456340099336 S
atom 4.9504651370783135 2.0459629336384224 2.5339456340099336 S
atom 0.0000018095170010 6.9964262611997432 2.5339456340099336 S
atom 4.9504616019955900 7.8549638054354904 2.5339456340099336 S
atom -0.0000000547259119 1.9391349707952497 7.6028770251721456 S
atom 4.9504634242628711 3.0113283987417070 7.6028770251721456 S
atom 0.0000000967015585 7.9617917263030131 7.6028770251721456 S
atom 4.9504633148110422 6.8895983403322001 7.6028770251721456 S
atom 0.0000000000000000 0.0000000000000000 10.1573407997163141 Ba
atom 4.9504633485491309 0.0000000209878233 10.1573407997163141 Ba
atom 0.0000000209878233 4.9504633485491336 10.1573407997163141 Ba
atom 4.9504633695369584 4.9504633695369558 10.1573407997163141 Ba
atom 0.0000000000000000 0.0000000000000000 15.2623406841809803 Ba
atom 4.9504633485491309 0.0000000209878233 15.2623406841809803 Ba
atom 0.0000000209878233 4.9504633485491336 15.2623406841809803 Ba
atom 4.9504633695369584 4.9504633695369558 15.2623406841809803 Ba
atom 2.4752316847684792 2.4752316847684779 12.7024588150901216 Zr
atom 7.4256950333176084 2.4752317057563009 12.7024588150901216 Zr
atom 2.4752317057563022 7.4256950333176128 12.7024588150901216 Zr
atom 7.4256950543054385 7.4256950543054430 12.7024588150901216 Zr
atom 2.4752316847684792 2.4752316847684779 17.8222225532718745 Zr
atom 7.4256950333176084 2.4752317057563009 17.8222225532718745 Zr
atom 2.4752317057563022 7.4256950333176128 17.8222225532718745 Zr
atom 7.4256950543054385 7.4256950543054430 17.8222225532718745 Zr
atom 2.4752316847684792 2.4752316847684779 10.1526862769052038 S
atom 7.4256950333176084 2.4752317057563009 10.1526862769052038 S
atom 2.4752317057563022 7.4256950333176128 10.1526862769052038 S
atom 7.4256950543054385 7.4256950543054430 10.1526862769052038 S
atom 2.4752316847684792 2.4752316847684779 15.2623406841809803 S
atom 7.4256950333176084 2.4752317057563009 15.2623406841809803 S
atom 2.4752317057563022 7.4256950333176128 15.2623406841809803 S
atom 7.4256950543054385 7.4256950543054430 15.2623406841809803 S
atom 1.9404398107313707 0.0000000116735156 12.7104876466776719 S
atom 7.9604868863668923 0.0000000303021300 12.7104876466776719 S
atom 3.0100235588055777 4.9504633578634420 12.7104876466776719 S
atom 6.8909031802683325 4.9504633812104757 12.7104876466776719 S
atom 3.0100235378177609 0.0000000093143077 17.8141937216843189 S
atom 6.8909031592804961 0.0000000326613398 17.8141937216843189 S
atom 1.9404398317191944 4.9504633602226535 17.8141937216843189 S
atom 7.9604869073547286 4.9504633788512677 17.8141937216843189 S
atom 0.0000000093143074 3.0100235378177609 12.7104876466776719 S
atom 4.9504633602226535 1.9404398317191947 12.7104876466776719 S
atom 0.0000000326613393 6.8909031592805059 12.7104876466776719 S
atom 4.9504633788512642 7.9604869073547277 12.7104876466776719 S
atom 0.0000000116735158 1.9404398107313716 17.8141937216843189 S
atom 4.9504633578634376 3.0100235588055861 17.8141937216843189 S
atom 0.0000000303021305 7.9604868863668958 17.8141937216843189 S
atom 4.9504633812104748 6.8909031802683263 17.8141937216843189 S
atom 0.0000000000000000 0.0000000000000000 20.3673405686456661 Ba
atom 4.9504633485491309 0.0000000209878233 20.3673405686456661 Ba
atom 0.0000000209878233 4.9504633485491336 20.3673405686456661 Ba
atom 4.9504633695369584 4.9504633695369558 20.3673405686456661 Ba
atom 0.0000000000000000 0.0000000000000000 25.4544460796757868 Ba
atom 4.9504633485491309 0.0000000209878233 25.4544460796757868 Ba
atom 0.0000000209878233 4.9504633485491336 25.4544460796757868 Ba
atom 4.9504633695369584 4.9504633695369558 25.4544460796757868 Ba
atom 2.4752316847684792 2.4752316847684779 22.9417289293449720 Zr
atom 7.4256950333176084 2.4752317057563009 22.9417289293449720 Zr
atom 2.4752317057563022 7.4256950333176128 22.9417289293449720 Zr
atom 7.4256950543054385 7.4256950543054430 22.9417289293449720 Zr
atom 2.4752316847684792 2.4752316847684779 28.0839207112131390 Zr
atom 7.4256950333176084 2.4752317057563009 28.0839207112131390 Zr
atom 2.4752317057563022 7.4256950333176128 28.0839207112131390 Zr
atom 7.4256950543054385 7.4256950543054430 28.0839207112131390 Zr
atom 2.4752316847684792 2.4752316847684779 20.3719950914567960 S
atom 7.4256950333176084 2.4752317057563009 20.3719950914567960 S
atom 2.4752317057563022 7.4256950333176128 20.3719950914567960 S
atom 7.4256950543054385 7.4256950543054430 20.3719950914567960 S
atom 2.4752316847684792 2.4752316847684779 25.4804852296339028 S
atom 7.4256950333176084 2.4752317057563009 25.4804852296339028 S
atom 2.4752317057563022 7.4256950333176128 25.4804852296339028 S
atom 7.4256950543054385 7.4256950543054430 25.4804852296339028 S
atom 1.9391349707952503 -0.0000000547259127 22.9218043431897947 S
atom 7.9617917263030105 0.0000000967015584 22.9218043431897947 S
atom 3.0113283987416999 4.9504634242628711 22.9218043431897947 S
atom 6.8895983403322107 4.9504633148110448 22.9218043431897947 S
atom 2.9045004358985360 -0.0000017675413540 27.9907357343520644 S
atom 6.9964262611997370 0.0000018095170014 27.9907357343520644 S
atom 2.0459629336384215 4.9504651370783161 27.9907357343520644 S
atom 7.8549638054354904 4.9504616019955980 27.9907357343520644 S
atom 0.0000000757137357 3.0113283777538848 22.9218043431897947 S
atom 4.9504632938232183 1.9391349917830725 22.9218043431897947 S
atom -0.0000000337380891 6.8895983193443806 22.9218043431897947 S
atom 4.9504634452506897 7.9617917472908415 22.9218043431897947 S
atom 0.0000017885291775 2.0459629126505994 27.9907357343520644 S
atom 4.9504615810077777 2.9045004568863577 27.9907357343520644 S
atom -0.0000017465535312 7.8549637844476639 27.9907357343520644 S
atom 4.9504651580661347 6.9964262821875680 27.9907357343520644 S
atom 0.0000000000000000 0.0000000000000000 30.3621741692132687 Ba
atom 4.9504633485491309 0.0000000209878233 30.3621741692132687 Ba
atom 0.0000000209878233 4.9504633485491336 30.3621741692132687 Ba
atom 4.9504633695369584 4.9504633695369558 30.3621741692132687 Ba
atom 2.4752316847684792 2.4752316847684779 30.6277459826507865 S
atom 7.4256950333176084 2.4752317057563009 30.6277459826507865 S
atom 2.4752317057563022 7.4256950333176128 30.6277459826507865 S
atom 7.4256950543054385 7.4256950543054430 30.6277459826507865 S
atom 2.4752316847684792 2.4752316847684779 33.7397055095948275 Ba
atom 7.4256950333176084 2.4752317057563009 33.7397055095948275 Ba
atom 2.4752317057563022 7.4256950333176128 33.7397055095948275 Ba
atom 7.4256950543054385 7.4256950543054430 33.7397055095948275 Ba
atom 2.4752316847684792 2.4752316847684779 38.6473712237209810 Ba
atom 7.4256950333176084 2.4752317057563009 38.6473712237209810 Ba
atom 2.4752317057563022 7.4256950333176128 38.6473712237209810 Ba
atom 7.4256950543054385 7.4256950543054430 38.6473712237209810 Ba
atom 4.9504633695369584 4.9504633695369558 36.0179319316827247 Zr
atom 9.9009267180860814 4.9504633905247823 36.0179319316827247 Zr
atom 4.9504633905247699 9.9009267180860938 36.0179319316827247 Zr
atom 9.9009267390739168 9.9009267390739115 36.0179319316827247 Zr
atom 4.9504633695369584 4.9504633695369558 41.1601015309560907 Zr
atom 9.9009267180860814 4.9504633905247823 41.1601015309560907 Zr
atom 4.9504633905247699 9.9009267180860938 41.1601015309560907 Zr
atom 9.9009267390739168 9.9009267390739115 41.1601015309560907 Zr
atom 4.9504633695369584 4.9504633695369558 33.4741122718505792 S
atom 9.9009267180860814 4.9504633905247823 33.4741122718505792 S
atom 4.9504633905247699 9.9009267180860938 33.4741122718505792 S
atom 9.9009267390739168 9.9009267390739115 33.4741122718505792 S
atom 4.9504633695369584 4.9504633695369558 38.6213516646229635 S
atom 9.9009267180860814 4.9504633905247823 38.6213516646229635 S
atom 4.9504633905247699 9.9009267180860938 38.6213516646229635 S
atom 9.9009267390739168 9.9009267390739115 38.6213516646229635 S
atom 4.5212597259701734 2.4752334738135793 36.1111087010070406 S
atom 10.3301303406650522 2.4752299376990221 36.1111087010070406 S
atom 5.3796670131037425 7.4256932652603389 36.1111087010070406 S
atom 9.4717230955071052 7.4256968433505435 36.1111087010070406 S
atom 5.4865581250977460 2.4752317613497850 41.1800080407145757 S
atom 9.3648319415374708 2.4752316501628182 41.1800080407145757 S
atom 4.4143686139761673 7.4256949777241328 41.1800080407145757 S
atom 10.4370214946347026 7.4256951308867469 41.1800080407145757 S
atom 2.4752299167111946 5.3796669921159213 36.1111087010070406 S
atom 7.4256968223627071 4.5212597469579947 36.1111087010070406 S
atom 2.4752334948014063 9.4717230745193000 36.1111087010070406 S
atom 7.4256932862481566 10.3301303616528859 36.1111087010070406 S
atom 2.4752316291749921 4.4143685929883496 41.1800080407145757 S
atom 7.4256951098989159 5.4865581460855637 41.1800080407145757 S
atom 2.4752317823376129 10.4370214736468867 41.1800080407145757 S
atom 7.4256949987119416 9.3648319625253098 41.1800080407145757 S
atom 2.4752316847684792 2.4752316847684779 43.7344740565175698 Ba
atom 7.4256950333176084 2.4752317057563009 43.7344740565175698 Ba
atom 2.4752317057563022 7.4256950333176128 43.7344740565175698 Ba
atom 7.4256950543054385 7.4256950543054430 43.7344740565175698 Ba
atom 2.4752316847684792 2.4752316847684779 48.8394901893791555 Ba
atom 7.4256950333176084 2.4752317057563009 48.8394901893791555 Ba
atom 2.4752317057563022 7.4256950333176128 48.8394901893791555 Ba
atom 7.4256950543054385 7.4256950543054430 48.8394901893791555 Ba
atom 4.9504633695369584 4.9504633695369558 46.2796063340077595 Zr
atom 9.9009267180860814 4.9504633905247823 46.2796063340077595 Zr
atom 4.9504633905247699 9.9009267180860938 46.2796063340077595 Zr
atom 9.9009267390739168 9.9009267390739115 46.2796063340077595 Zr
atom 4.9504633695369584 4.9504633695369558 51.3993740447506724 Zr
atom 9.9009267180860814 4.9504633905247823 51.3993740447506724 Zr
atom 4.9504633905247699 9.9009267180860938 51.3993740447506724 Zr
atom 9.9009267390739168 9.9009267390739115 51.3993740447506724 Zr
atom 4.9504633695369584 4.9504633695369558 43.7298330243599125 S
atom 9.9009267180860814 4.9504633905247823 43.7298330243599125 S
atom 4.9504633905247699 9.9009267180860938 43.7298330243599125 S
atom 9.9009267390739168 9.9009267390739115 43.7298330243599125 S
atom 4.9504633695369584 4.9504633695369558 48.8394901893791555 S
atom 9.9009267180860814 4.9504633905247823 48.8394901893791555 S
atom 4.9504633905247699 9.9009267180860938 48.8394901893791555 S
atom 9.9009267390739168 9.9009267390739115 48.8394901893791555 S
atom 4.4156531209979173 2.4752316966022931 46.2876376897217199 S
atom 10.4357369456372986 2.4752317149103158 46.2876376897217199 S
atom 5.4852736180759933 7.4256950424716202 46.2876376897217199 S
atom 9.3661164905348695 7.4256950661392471 46.2876376897217199 S
atom 5.4852735970881676 2.4752316939224936 51.3913426890366480 S
atom 9.3661164695470447 2.4752317175901126 51.3913426890366480 S
atom 4.4156531419857386 7.4256950451514241 51.3913426890366480 S
atom 10.4357369666251252 7.4256950634594494 51.3913426890366480 S
atom 2.4752316939224910 5.4852735970881747 46.2876376897217199 S
atom 7.4256950451514232 4.4156531419857421 46.2876376897217199 S
atom 2.4752317175901153 9.3661164695470607 46.2876376897217199 S
atom 7.4256950634594538 10.4357369666251287 46.2876376897217199 S
atom 2.4752316966022896 4.4156531209979217 51.3913426890366480 S
atom 7.4256950424716210 5.4852736180759987 51.3913426890366480 S
atom 2.4752317149103145 10.4357369456373092 51.3913426890366480 S
atom 7.4256950661392462 9.3661164905348873 51.3913426890366480 S
atom 2.4752316847684792 2.4752316847684779 53.9445063222406844 Ba
atom 7.4256950333176084 2.4752317057563009 53.9445063222406844 Ba
atom 2.4752317057563022 7.4256950333176128 53.9445063222406844 Ba
atom 7.4256950543054385 7.4256950543054430 53.9445063222406844 Ba
atom 2.4752316847684792 2.4752316847684779 59.0316091550373585 Ba
atom 7.4256950333176084 2.4752317057563009 59.0316091550373585 Ba
atom 2.4752317057563022 7.4256950333176128 59.0316091550373585 Ba
atom 7.4256950543054385 7.4256950543054430 59.0316091550373585 Ba
atom 4.9504633695369584 4.9504633695369558 56.5188788478021991 Zr
atom 9.9009267180860814 4.9504633905247823 56.5188788478021991 Zr
atom 4.9504633905247699 9.9009267180860938 56.5188788478021991 Zr
atom 9.9009267390739168 9.9009267390739115 56.5188788478021991 Zr
atom 4.9504633695369584 4.9504633695369558 61.6610484470755793 Zr
atom 9.9009267180860814 4.9504633905247823 61.6610484470755793 Zr
atom 4.9504633905247699 9.9009267180860938 61.6610484470755793 Zr
atom 9.9009267390739168 9.9009267390739115 61.6610484470755793 Zr
atom 4.9504633695369584 4.9504633695369558 53.9491473543984341 S
atom 9.9009267180860814 4.9504633905247823 53.9491473543984341 S
atom 4.9504633905247699 9.9009267180860938 53.9491473543984341 S
atom 9.9009267390739168 9.9009267390739115 53.9491473543984341 S
atom 4.9504633695369584 4.9504633695369558 59.0576287141353617 S
atom 9.9009267180860814 4.9504633905247823 59.0576287141353617 S
atom 4.9504633905247699 9.9009267180860938 59.0576287141353617 S
atom 9.9009267390739168 9.9009267390739115 59.0576287141353617 S
atom 4.4143685929883478 2.4752316291749952 56.4989723380437070 S
atom 10.4370214736468743 2.4752317823376089 56.4989723380437070 S
atom 5.4865581460855655 7.4256951098989239 56.4989723380437070 S
atom 9.3648319625253134 7.4256949987119540 56.4989723380437070 S
atom 5.3796669921159159 2.4752299167112013 61.5678716777513912 S
atom 9.4717230745192769 2.4752334948014045 61.5678716777513912 S
atom 4.5212597469579947 7.4256968223627151 61.5678716777513912 S
atom 10.3301303616528806 7.4256932862481593 61.5678716777513912 S
atom 2.4752317613497827 5.4865581250977469 56.4989723380437070 S
atom 7.4256949777241337 4.4143686139761726 56.4989723380437070 S
atom 2.4752316501628182 9.3648319415374903 56.4989723380437070 S
atom 7.4256951308867469 10.4370214946347080 56.4989723380437070 S
atom 2.4752334738135828 4.5212597259701708 61.5678716777513912 S
atom 7.4256932652603345 5.3796670131037452 61.5678716777513912 S
atom 2.4752299376990217 10.3301303406650664 61.5678716777513912 S
atom 7.4256968433505453 9.4717230955071177 61.5678716777513912 S
atom 2.4752316847684792 2.4752316847684779 63.9392748691634338 Ba
atom 7.4256950333176084 2.4752317057563009 63.9392748691634338 Ba
atom 2.4752317057563022 7.4256950333176128 63.9392748691634338 Ba
atom 7.4256950543054385 7.4256950543054430 63.9392748691634338 Ba
atom 4.9504633695369584 4.9504633695369558 64.2048681069076679 S
atom 9.9009267180860814 4.9504633905247823 64.2048681069076679 S
atom 4.9504633905247699 9.9009267180860938 64.2048681069076679 S
atom 9.9009267390739168 9.9009267390739115 64.2048681069076679 S
