#=======================================================
# FHI-aims file: sym_relax/sym_relax_RP_1_00Mz1_00Mz2.in
# Created using the Atomic Simulation Environment (ASE)
# Fri Mar 14 10:20:08 2025
#=======================================================
lattice_vector 10.0137840008611132 -0.0000005818918659 0.0000000000000000 
lattice_vector -0.0000005818918659 10.0137840008611150 0.0000000000000000 
lattice_vector 0.0000000000000000 0.0000000000000000 15.6661260673144973 
atom 0.0000000000000000 0.0000000000000000 0.2276078784230649 Ba
atom 5.0068920004305557 -0.0000002909459331 0.2276078784230649 Ba
atom -0.0000002909459331 5.0068920004305575 0.2276078784230649 Ba
atom 5.0068917094846181 5.0068917094846190 0.2276078784230649 Ba
atom 0.0000000000000000 -0.0000000000000000 4.6680565176127145 Ba
atom 5.0068920004305557 -0.0000002909459331 4.6680565176127145 Ba
atom -0.0000002909459331 5.0068920004305575 4.6680565176127145 Ba
atom 5.0068917094846181 5.0068917094846190 4.6680565176127145 Ba
atom 2.5034458547423091 2.5034458547423095 2.4478321980178910 Zr
atom 7.5103378551728674 2.5034455637963777 2.4478321980178910 Zr
atom 2.5034455637963777 7.5103378551728674 2.4478321980178910 Zr
atom 7.5103375642269361 7.5103375642269334 2.4478321980178910 Zr
atom 2.5034458547423091 2.5034458547423095 -0.1067255992366845 S
atom 7.5103378551728674 2.5034455637963777 -0.1067255992366845 S
atom 2.5034455637963777 7.5103378551728674 -0.1067255992366845 S
atom 7.5103375642269361 7.5103375642269334 -0.1067255992366845 S
atom 2.5034458547423091 2.5034458547423095 5.0023899952724680 S
atom 7.5103378551728674 2.5034455637963777 5.0023899952724680 S
atom 2.5034455637963777 7.5103378551728674 5.0023899952724680 S
atom 7.5103375642269361 7.5103375642269334 5.0023899952724680 S
atom 2.5034330578422739 0.0000026751539880 2.4478321980178910 S
atom 7.5103509430188335 -0.0000032570458542 2.4478321980178910 S
atom 2.5034586516423407 5.0068890343306336 2.4478321980178910 S
atom 7.5103247673268969 5.0068943846386107 2.4478321980178910 S
atom -0.0000029660999211 2.5034589425882778 2.4478321980178910 S
atom 5.0068946755845491 2.5034327668963434 2.4478321980178910 S
atom 0.0000023842080549 7.5103250582728309 2.4478321980178910 S
atom 5.0068887433846969 7.5103506520729022 2.4478321980178910 S
atom 2.5034458547423091 2.5034458547423095 8.0606741205873398 Ba
atom 7.5103378551728674 2.5034455637963777 8.0606741205873398 Ba
atom 2.5034455637963777 7.5103378551728674 8.0606741205873398 Ba
atom 7.5103375642269361 7.5103375642269334 8.0606741205873398 Ba
atom 2.5034458547423091 2.5034458547423095 12.5011163427629484 Ba
atom 7.5103378551728674 2.5034455637963777 12.5011163427629484 Ba
atom 2.5034455637963777 7.5103378551728674 12.5011163427629484 Ba
atom 7.5103375642269361 7.5103375642269334 12.5011163427629484 Ba
atom 5.0068917094846181 5.0068917094846190 10.2808952316751405 Zr
atom 10.0137837099151810 5.0068914185386904 10.2808952316751405 Zr
atom 5.0068914185386859 10.0137837099151721 10.2808952316751405 Zr
atom 10.0137834189692363 10.0137834189692381 10.2808952316751405 Zr
atom 5.0068917094846181 5.0068917094846190 7.7263348123606450 S
atom 10.0137837099151810 5.0068914185386904 7.7263348123606450 S
atom 5.0068914185386859 10.0137837099151721 7.7263348123606450 S
atom 10.0137834189692363 10.0137834189692381 7.7263348123606450 S
atom 5.0068917094846181 5.0068917094846190 12.8354556509896440 S
atom 10.0137837099151810 5.0068914185386904 12.8354556509896440 S
atom 5.0068914185386859 10.0137837099151721 12.8354556509896440 S
atom 10.0137834189692363 10.0137834189692381 12.8354556509896440 S
atom 5.0068962301346440 2.5034471279575743 10.2808952316751405 S
atom 10.0137794802110758 2.5034439996351829 10.2808952316751405 S
atom 5.0068871888346020 7.5103362910116740 10.2808952316751405 S
atom 10.0137879396192702 7.5103388374421973 10.2808952316751405 S
atom 2.5034442905811125 5.0068874797805343 10.2808952316751405 S
atom 7.5103391283881233 5.0068959391887153 10.2808952316751405 S
atom 2.5034468370116376 10.0137882305652095 10.2808952316751405 S
atom 7.5103360000657329 10.0137791892651489 10.2808952316751405 S
