#=======================================================
# FHI-aims file: sym_relax/sym_relax_RP_4_00Rz_00Rz.in
# Created using the Atomic Simulation Environment (ASE)
# Fri Mar 14 10:26:10 2025
#=======================================================
lattice_vector 9.9060969949691131 -0.0000000011640581 -0.0000000000000000 
lattice_vector -0.0000000011640581 9.9060969949691042 -0.0000000000000000 
lattice_vector -0.0000000000000000 -0.0000000000000000 46.6837680929151091 
atom -0.0000000000000000 -0.0000000000000000 0.1663807923979947 Ba
atom 4.9530484974845557 -0.0000000005820305 0.1663807923979947 Ba
atom -0.0000000005820301 4.9530484974845548 0.1663807923979947 Ba
atom 4.9530484969025288 4.9530484969025235 0.1663807923979947 Ba
atom -0.0000000000000000 -0.0000000000000000 5.0674875802787760 Ba
atom 4.9530484974845557 -0.0000000005820310 5.0674875802787760 Ba
atom -0.0000000005820305 4.9530484974845539 5.0674875802787760 Ba
atom 4.9530484969025288 4.9530484969025235 5.0674875802787760 Ba
atom 2.4765242484512644 2.4765242484512617 2.4447115840567535 Zr
atom 7.4295727459358201 2.4765242478692322 2.4447115840567535 Zr
atom 2.4765242478692335 7.4295727459358183 2.4447115840567535 Zr
atom 7.4295727453537905 7.4295727453537843 2.4447115840567535 Zr
atom 2.4765242484512644 2.4765242484512617 7.5880726023709384 Zr
atom 7.4295727459358201 2.4765242478692322 7.5880726023709384 Zr
atom 2.4765242478692335 7.4295727459358183 7.5880726023709384 Zr
atom 7.4295727453537905 7.4295727453537843 7.5880726023709384 Zr
atom 2.4765242484512644 2.4765242484512617 -0.1004424821556908 S
atom 7.4295727459358201 2.4765242478692318 -0.1004424821556908 S
atom 2.4765242478692331 7.4295727459358183 -0.1004424821556908 S
atom 7.4295727453537905 7.4295727453537843 -0.1004424821556908 S
atom 2.4765242484512644 2.4765242484512617 5.0435639900323350 S
atom 7.4295727459358201 2.4765242478692322 5.0435639900323350 S
atom 2.4765242478692335 7.4295727459358183 5.0435639900323350 S
atom 7.4295727453537905 7.4295727453537843 5.0435639900323350 S
atom 2.0511426944768689 0.0000010083109167 2.5337244386584707 S
atom 7.8549543004922473 -0.0000010094749777 2.5337244386584707 S
atom 2.9019058024256577 4.9530474885916016 2.5337244386584707 S
atom 7.0041911913793991 4.9530495052134471 2.5337244386584707 S
atom 3.0105602548619692 -0.0000000230324699 7.5963026336390991 S
atom 6.8955367401071435 0.0000000218684089 7.5963026336390991 S
atom 1.9424882420405536 4.9530485199349981 7.5963026336390991 S
atom 7.9636087517645056 4.9530484738700542 7.5963026336390991 S
atom -0.0000010088929476 2.9019058030076854 2.5337244386584707 S
atom 4.9530495057954740 2.0511426938948381 2.5337244386584707 S
atom 0.0000010077288861 7.0041911919614233 2.5337244386584707 S
atom 4.9530474880095801 7.8549542999102115 2.5337244386584707 S
atom 0.0000000224504399 1.9424882426225840 7.5963026336390991 S
atom 4.9530484744520855 3.0105602542799379 7.5963026336390991 S
atom -0.0000000236145005 7.9636087523465280 7.5963026336390991 S
atom 4.9530485193529694 6.8955367395251121 7.5963026336390991 S
atom -0.0000000000000000 -0.0000000000000000 10.1486452375902374 Ba
atom 4.9530484974845557 -0.0000000005820310 10.1486452375902374 Ba
atom -0.0000000005820305 4.9530484974845539 10.1486452375902374 Ba
atom 4.9530484969025288 4.9530484969025235 10.1486452375902374 Ba
atom 0.0000000000000000 -0.0000000000000000 15.2298028949017112 Ba
atom 4.9530484974845557 -0.0000000005820310 15.2298028949017095 Ba
atom -0.0000000005820305 4.9530484974845539 15.2298028949017095 Ba
atom 4.9530484969025288 4.9530484969025235 15.2298028949017077 Ba
atom 2.4765242484512644 2.4765242484512617 12.7092178728095551 Zr
atom 7.4295727459358201 2.4765242478692322 12.7092178728095551 Zr
atom 2.4765242478692335 7.4295727459358183 12.7092178728095551 Zr
atom 7.4295727453537905 7.4295727453537843 12.7092178728095551 Zr
atom 2.4765242484512644 2.4765242484512617 17.8525788911237200 Zr
atom 7.4295727459358201 2.4765242478692322 17.8525788911237200 Zr
atom 2.4765242478692335 7.4295727459358183 17.8525788911237200 Zr
atom 7.4295727453537905 7.4295727453537843 17.8525788911237200 Zr
atom 2.4765242484512644 2.4765242484512617 10.1486452375902374 S
atom 7.4295727459358201 2.4765242478692322 10.1486452375902374 S
atom 2.4765242478692335 7.4295727459358183 10.1486452375902374 S
atom 7.4295727453537905 7.4295727453537843 10.1486452375902374 S
atom 2.4765242484512644 2.4765242484512617 15.2537264851481407 S
atom 7.4295727459358201 2.4765242478692322 15.2537264851481407 S
atom 2.4765242478692335 7.4295727459358183 15.2537264851481407 S
atom 7.4295727453537905 7.4295727453537843 15.2537264851481407 S
atom 1.9424882426225856 0.0000000224504399 12.7009878415413837 S
atom 7.9636087523465307 -0.0000000236145009 12.7009878415413837 S
atom 3.0105602542799388 4.9530484744520837 12.7009878415413837 S
atom 6.8955367395251184 4.9530485193529703 12.7009878415413837 S
atom 2.9019058030076876 -0.0000010088929476 17.7635660365220183 S
atom 7.0041911919614241 0.0000010077288866 17.7635660365220183 S
atom 2.0511426938948394 4.9530495057954766 17.7635660365220183 S
atom 7.8549542999102222 4.9530474880095756 17.7635660365220183 S
atom -0.0000000230324699 3.0105602548619692 12.7009878415413837 S
atom 4.9530485199349954 1.9424882420405545 12.7009878415413837 S
atom 0.0000000218684089 6.8955367401071408 12.7009878415413837 S
atom 4.9530484738700542 7.9636087517644976 12.7009878415413837 S
atom 0.0000010083109171 2.0511426944768689 17.7635660365220183 S
atom 4.9530474885916078 2.9019058024256550 17.7635660365220183 S
atom -0.0000010094749777 7.8549543004922429 17.7635660365220183 S
atom 4.9530495052134462 7.0041911913793973 17.7635660365220183 S
atom 0.0000000000000000 -0.0000000000000000 20.1309096827824838 Ba
atom 4.9530484974845557 -0.0000000005820310 20.1309096827824838 Ba
atom -0.0000000005820305 4.9530484974845539 20.1309096827824838 Ba
atom 4.9530484969025288 4.9530484969025235 20.1309096827824838 Ba
atom 2.4765242484512644 2.4765242484512617 20.3977329573361814 S
atom 7.4295727459358201 2.4765242478692322 20.3977329573361814 S
atom 2.4765242478692335 7.4295727459358183 20.3977329573361814 S
atom 7.4295727453537905 7.4295727453537843 20.3977329573361814 S
atom 2.4765242484512644 2.4765242484512617 23.5082648388555562 Ba
atom 7.4295727459358201 2.4765242478692322 23.5082648388555562 Ba
atom 2.4765242478692335 7.4295727459358183 23.5082648388555562 Ba
atom 7.4295727453537905 7.4295727453537843 23.5082648388555562 Ba
atom 2.4765242484512644 2.4765242484512617 28.4093716267363554 Ba
atom 7.4295727459358201 2.4765242478692318 28.4093716267363554 Ba
atom 2.4765242478692331 7.4295727459358183 28.4093716267363554 Ba
atom 7.4295727453537905 7.4295727453537843 28.4093716267363554 Ba
atom 4.9530484969025288 4.9530484969025235 25.7865956305143058 Zr
atom 9.9060969943870845 4.9530484963204930 25.7865956305143058 Zr
atom 4.9530484963204966 9.9060969943870738 25.7865956305143058 Zr
atom 9.9060969938050576 9.9060969938050469 25.7865956305143058 Zr
atom 4.9530484969025288 4.9530484969025235 30.9299566488284974 Zr
atom 9.9060969943870845 4.9530484963204930 30.9299566488284974 Zr
atom 4.9530484963204966 9.9060969943870738 30.9299566488284974 Zr
atom 9.9060969938050576 9.9060969938050469 30.9299566488284974 Zr
atom 4.9530484969025288 4.9530484969025235 23.2414415643018444 S
atom 9.9060969943870845 4.9530484963204930 23.2414415643018444 S
atom 4.9530484963204957 9.9060969943870738 23.2414415643018444 S
atom 9.9060969938050576 9.9060969938050469 23.2414415643018444 S
atom 4.9530484969025288 4.9530484969025235 28.3854480364898869 S
atom 9.9060969943870845 4.9530484963204930 28.3854480364898869 S
atom 4.9530484963204966 9.9060969943870738 28.3854480364898869 S
atom 9.9060969938050576 9.9060969938050469 28.3854480364898869 S
atom 4.5276669429281284 2.4765252567621792 25.8756084851160075 S
atom 10.3314785489434886 2.4765232389762870 25.8756084851160075 S
atom 5.3784300508769212 7.4295717370428722 25.8756084851160075 S
atom 9.4807154398306714 7.4295737536647080 25.8756084851160075 S
atom 5.4870845033132341 2.4765242254187951 30.9381866800966527 S
atom 9.3720609885583901 2.4765242703196719 30.9381866800966527 S
atom 4.4190124904918209 7.4295727683862598 30.9381866800966527 S
atom 10.4401330002157646 7.4295727223213159 30.9381866800966527 S
atom 2.4765232395583174 5.3784300514589507 25.8756084851160075 S
atom 7.4295737542467366 4.5276669423461007 25.8756084851160075 S
atom 2.4765252561801496 9.4807154404126965 25.8756084851160075 S
atom 7.4295717364608418 10.3314785483614671 25.8756084851160075 S
atom 2.4765242709017046 4.4190124910738477 30.9381866800966527 S
atom 7.4295727229033481 5.4870845027312001 30.9381866800966527 S
atom 2.4765242248367629 10.4401330007977968 30.9381866800966527 S
atom 7.4295727678042365 9.3720609879763579 30.9381866800966527 S
atom 2.4765242484512644 2.4765242484512617 33.4905292840478239 Ba
atom 7.4295727459358201 2.4765242478692318 33.4905292840478239 Ba
atom 2.4765242478692331 7.4295727459358183 33.4905292840478239 Ba
atom 7.4295727453537905 7.4295727453537843 33.4905292840478239 Ba
atom 2.4765242484512644 2.4765242484512617 38.5716869413592889 Ba
atom 7.4295727459358201 2.4765242478692318 38.5716869413592889 Ba
atom 2.4765242478692331 7.4295727459358183 38.5716869413592889 Ba
atom 7.4295727453537905 7.4295727453537843 38.5716869413592889 Ba
atom 4.9530484969025288 4.9530484969025235 36.0511019192671469 Zr
atom 9.9060969943870845 4.9530484963204930 36.0511019192671469 Zr
atom 4.9530484963204966 9.9060969943870738 36.0511019192671469 Zr
atom 9.9060969938050576 9.9060969938050469 36.0511019192671469 Zr
atom 4.9530484969025288 4.9530484969025235 41.1944629375812355 Zr
atom 9.9060969943870845 4.9530484963204930 41.1944629375812355 Zr
atom 4.9530484963204966 9.9060969943870738 41.1944629375812355 Zr
atom 9.9060969938050576 9.9060969938050469 41.1944629375812355 Zr
atom 4.9530484969025288 4.9530484969025235 33.4905292840478239 S
atom 9.9060969943870845 4.9530484963204930 33.4905292840478239 S
atom 4.9530484963204966 9.9060969943870738 33.4905292840478239 S
atom 9.9060969938050576 9.9060969938050469 33.4905292840478239 S
atom 4.9530484969025288 4.9530484969025235 38.5956105316057219 S
atom 9.9060969943870845 4.9530484963204930 38.5956105316057219 S
atom 4.9530484963204966 9.9060969943870738 38.5956105316057219 S
atom 9.9060969938050576 9.9060969938050469 38.5956105316057219 S
atom 4.4190124910738486 2.4765242709017028 36.0428718879989631 S
atom 10.4401330007977897 2.4765242248367643 36.0428718879989631 S
atom 5.4870845027312054 7.4295727229033455 36.0428718879989631 S
atom 9.3720609879763650 7.4295727678042303 36.0428718879989631 S
atom 5.3784300514589489 2.4765232395583161 41.1054500829795941 S
atom 9.4807154404127001 2.4765252561801492 41.1054500829795941 S
atom 4.5276669423461016 7.4295737542467393 41.1054500829795941 S
atom 10.3314785483614600 7.4295717364608374 41.1054500829795941 S
atom 2.4765242254187938 5.4870845033132323 36.0428718879989631 S
atom 7.4295727683862571 4.4190124904918209 36.0428718879989631 S
atom 2.4765242703196706 9.3720609885584079 36.0428718879989631 S
atom 7.4295727223213168 10.4401330002157700 36.0428718879989631 S
atom 2.4765252567621792 4.5276669429281311 41.1054500829795941 S
atom 7.4295717370428696 5.3784300508769185 41.1054500829795941 S
atom 2.4765232389762888 10.3314785489434939 41.1054500829795941 S
atom 7.4295737536647088 9.4807154398306768 41.1054500829795941 S
atom 2.4765242484512644 2.4765242484512617 43.4727937292400455 Ba
atom 7.4295727459358201 2.4765242478692318 43.4727937292400455 Ba
atom 2.4765242478692331 7.4295727459358183 43.4727937292400455 Ba
atom 7.4295727453537905 7.4295727453537843 43.4727937292400455 Ba
atom 4.9530484969025288 4.9530484969025235 43.7396170037937111 S
atom 9.9060969943870845 4.9530484963204930 43.7396170037937111 S
atom 4.9530484963204966 9.9060969943870738 43.7396170037937111 S
atom 9.9060969938050576 9.9060969938050469 43.7396170037937111 S
