#=======================================================
# FHI-aims file: sym_relax/sym_relax_RP_5_RxRyMz_-Rx-Ry0.in
# Created using the Atomic Simulation Environment (ASE)
# Fri Mar 14 10:57:39 2025
#=======================================================
lattice_vector 10.0194330263816695 -0.0534276905135751 0.0000379605234557 
lattice_vector -0.0534276905135752 10.0194330263816695 -0.0000379605234557 
lattice_vector 0.0003576407949341 -0.0003576407949342 55.8171925967504663 
atom 0.1185160547990545 -0.1671362046234332 0.2186883733909299 Ba
atom 5.1768527178142829 -0.1452299000558420 0.2187073536526580 Ba
atom 0.1404223593666452 4.8912004583917881 0.2186693931292019 Ba
atom 5.1015187227330960 4.8158664633106083 0.2186883733909299 Ba
atom -0.2589460782690748 0.1883063191427671 4.9978875767352084 Ba
atom 4.8214101940480631 0.2322322330122869 4.9979065569969441 Ba
atom -0.2150201643995549 5.2686625914599263 4.9978685964734790 Ba
atom 4.7240565896649640 5.1713089870768307 4.9978875767352093 Ba
atom 2.5032675213924449 2.4853609224056599 2.3929009319802699 Zr
atom 7.5073582587192362 2.4530213012848199 2.3929199122420006 Zr
atom 2.4709279002716089 7.4894516597324508 2.3928819517185405 Zr
atom 7.4862701893265031 7.4683635903397043 2.3929009319802708 Zr
atom 2.4831075577612429 2.4962953406609856 7.4443623643840464 Zr
atom 7.4964238404639119 2.4731812649160285 7.4443813446457678 Zr
atom 2.4599934820162779 7.5096116233636607 7.4443433841223232 Zr
atom 7.4661102256952914 7.4792980085950376 7.4443623643840482 Zr
atom 2.6661917861574680 2.7486359257550292 -0.1125233391488966 S
atom 7.2440832553698584 2.2900970365198043 -0.1125043588871685 S
atom 2.2076528969222267 7.3265273949674192 -0.1125423194106243 S
atom 7.6491944540915178 7.7316385936890892 -0.1125233391488967 S
atom 2.2350273335479569 2.1841730990753048 4.9502167030104829 S
atom 7.8085460820495793 2.7212614891293132 4.9502356832722034 S
atom 2.7721157236019573 7.7576918475769485 4.9501977227487597 S
atom 7.2180300014819982 7.1671757670093657 4.9502167030104838 S
atom 2.7780224537588585 -0.0101895424646477 2.2182243553667802 S
atom 7.2003815760805470 -0.0336031088432780 2.7708323786297764 S
atom 2.1639512176329174 5.0028272496043575 2.7707944181063171 S
atom 7.7610251216928967 4.9728131254694015 2.2182243553667789 S
atom 2.8899057881789005 -0.0132130381993042 7.7727552370347714 S
atom 7.1362392241543704 -0.0360833643304110 7.1470740463683642 S
atom 2.0998088657067355 5.0003469941172183 7.1470360858449151 S
atom 7.8729084561129463 4.9697896297347430 7.7727552370347741 S
atom -0.0165243027921395 2.2316940594319838 2.2182053751050494 S
atom 4.9898919315205434 2.7923376050443478 2.7708133983680523 S
atom -0.0465384269270854 7.8287679634919876 2.7707754378445935 S
atom 4.9664783651418931 7.2146967273660412 2.2182053751050503 S
atom -0.0135008070574830 2.1198107250119302 7.7727362567730474 S
atom 4.9923721870076614 2.8564799569705195 7.1470550661066410 S
atom -0.0440581714399526 7.8929103154181597 7.1470171055831901 S
atom 4.9695018608765560 7.1028133929459925 7.7727362567730491 S
atom 0.2758325852854977 -0.1816525962374863 9.9635012535832193 Ba
atom 5.1913691094283090 -0.3025464305422861 9.9635202338449744 Ba
atom 0.1549387509806980 4.7338839279053353 9.9634822733214943 Ba
atom 5.2588352532195470 4.8013500716965689 9.9635012535832228 Ba
atom -0.2756729242163309 0.1814929351683190 14.9548882985374938 Ba
atom 4.8282235780225280 0.2489590789595419 14.9549072787992205 Ba
atom -0.2082067804251069 5.2853894374071766 14.9548693182757599 Ba
atom 4.7073297437177155 5.1644956031023828 14.9548882985374902 Ba
atom 2.4915811645016137 2.4914215034324405 12.4591947760603592 Zr
atom 7.5012976776924507 2.4647076581756568 12.4592137563220859 Zr
atom 2.4648673192448225 7.5011380166232779 12.4591757957986324 Zr
atom 7.4745838324356608 7.4744241713665005 12.4591947760603592 Zr
atom 2.5000547712419783 2.4865476662038986 17.4740271877366595 Zr
atom 7.5061715149209824 2.4562340514352807 17.4740461679984307 Zr
atom 2.4697411564733640 7.4926644098829085 17.4740082074749523 Zr
atom 7.4830574391760294 7.4695503341379519 17.4740271877366666 Zr
atom 2.7585070130325793 2.8238364262553408 9.9571324342033289 S
atom 7.1688827548695535 2.1977818096446882 9.9571514144650521 S
atom 2.1324523964219280 7.2342121680923022 9.9571134539415898 S
atom 7.7415096809666348 7.8068390941893915 9.9571324342033307 S
atom 2.2246553159706428 2.1590065806095509 14.9612571179173983 S
atom 7.8337126005153372 2.7316335067066237 14.9612760981791340 S
atom 2.7972822420677108 7.7680638651542600 14.9612381376556698 S
atom 7.2076579839046868 7.1420092485436042 14.9612571179173983 S
atom 2.8831174839862794 -0.0151549395681675 12.1398960526813351 S
atom 7.1364752034645722 -0.0384324120145749 12.7785314599628244 S
atom 2.1000448450169391 4.9979979464330491 12.7784934994393780 S
atom 7.8661201519203301 4.9678477283658857 12.1398960526813386 S
atom 2.8833534632964826 -0.0175039872523316 17.7713534662758157 S
atom 7.1296868992719231 -0.0403743133834382 17.1456722756093782 S
atom 2.0932565408243216 4.9960560450641873 17.1456343150859283 S
atom 7.8663561312305221 4.9654986806817245 17.7713534662758121 S
atom -0.0115589056886196 2.1265990292045598 12.1398770724195995 S
atom 4.9947212346918315 2.8562439776603288 12.7785124797010798 S
atom -0.0417091237557881 7.8926743361079641 12.7784745191776477 S
atom 4.9714437622454408 7.1096016971386060 12.1398770724196012 S
atom -0.0092098580044561 2.1263630498943593 17.7713344860140658 S
atom 4.9966631360607145 2.8630322818529526 17.1456532953476746 S
atom -0.0397672223869248 7.8994626403005830 17.1456153348242069 S
atom 4.9737928099296038 7.1093657178284078 17.7713344860140694 S
atom 0.2591057393382420 -0.1884659802119341 19.9205019753854877 Ba
atom 5.1981824934027925 -0.2858195845950302 19.9205209556472589 Ba
atom 0.1617521349551463 4.7506107738525900 19.9204829951238160 Ba
atom 5.2421084072723021 4.7945366877221085 19.9205019753854877 Ba
atom -0.1183563937298870 0.1669765435542656 24.6997011787298248 Ba
atom 4.8427399696365727 0.0916425484730998 24.6997201589915321 Ba
atom -0.1936903888110534 5.1280729069207229 24.6996821984680999 Ba
atom 4.8646462742041567 5.1499792114883221 24.6997011787298248 Ba
atom 2.4798948076107745 2.4974820844592251 22.5254886201404396 Zr
atom 7.4952370966656705 2.4763940150664836 22.5255076004021539 Zr
atom 2.4588067382180427 7.5128243735141238 22.5254696398786827 Zr
atom 7.4628974755448301 7.4804847523932771 22.5254886201404432 Zr
atom 2.7481349954552678 2.7986699077895727 19.9681728491102461 S
atom 7.1940492733353221 2.2081538272220023 19.9681918293719498 S
atom 2.1576189148876894 7.2445841856696314 19.9681538688484892 S
atom 7.7311376633893216 7.7816725757236354 19.9681728491102390 S
atom 2.3169705428457652 2.2342070811098544 25.0309128912696259 S
atom 7.7585121000150385 2.6393182798315138 25.0309318715313474 S
atom 2.7220817415674086 7.6757486382791544 25.0308939110079187 S
atom 7.2999732107798065 7.2172097490438958 25.0309128912696259 S
atom 2.8192111113702980 -0.0199842427394644 22.1475951340143844 S
atom 7.2415702336920029 -0.0433978091180948 22.7002031572774143 S
atom 2.2051398752443667 4.9930325493295422 22.7001651967539537 S
atom 7.8022137793043580 4.9630184251945719 22.1475951340143844 S
atom -0.0067296025173232 2.1905054018205377 22.1475761537526772 S
atom 4.9996866317953543 2.7511489474328994 22.7001841770156823 S
atom -0.0367437266522681 7.7875793058805147 22.7001462164921968 S
atom 4.9762730654167315 7.1735080697545968 22.1475761537526772 S
atom 2.3732565352807597 2.6584034764292817 28.1273142846088717 Ba
atom 7.3343157046956149 2.5830322873965006 28.1273332648705932 Ba
atom 2.2978853462479845 7.6194626458441252 28.1272953043471183 Ba
atom 7.3562592032148171 7.6414061443633239 28.1273142846088824 Ba
atom 2.7508046377570459 2.3028741720406800 32.9065064087880899 Ba
atom 7.6898450090842143 2.2054841849202154 32.9065253890497331 Ba
atom 2.6534146506365865 7.2419145433678418 32.9064874285263613 Ba
atom 7.7338073056911076 7.2858768399747218 32.9065064087881041 Ba
atom 4.9715109084729265 4.9888790745766718 30.3015128126839528 Zr
atom 9.9868427744822537 4.9677805821383894 30.3015317929456707 Zr
atom 4.9504124160346548 10.0042109405860344 30.3014938324222385 Zr
atom 9.9545135764069705 9.9718817425107407 30.3015128126839457 Zr
atom 4.9917625170522522 4.9778524839216445 35.3529551446165513 Zr
atom 9.9978693651372730 4.9475289735590628 35.3529741248782798 Zr
atom 4.9614390066896519 9.9839593320067319 35.3529361643547091 Zr
atom 9.9747651849862855 9.9608551518557071 35.3529551446165584 Zr
atom 4.8085464055138436 4.7256389960700114 27.7960921244164005 S
atom 10.2500828529889265 5.1307450850974741 27.7961111046780758 S
atom 5.2136524945413045 10.1671754435451014 27.7960731441546471 S
atom 9.7915490734479018 9.7086416640040945 27.7960921244163934 S
atom 5.2398217115608414 5.2900422634372610 32.8588186589708044 S
atom 9.6856795856216493 4.6994697790504736 32.8588376392324264 S
atom 4.6492492271740353 9.7359001374981311 32.8587996787089622 S
atom 10.2228243794949130 10.2730449313713379 32.8588186589708044 S
atom 5.3107929179228295 2.4714162105976283 30.6794420705284772 S
atom 9.7331790203551041 2.4480070619894883 30.1268148979191537 S
atom 4.6967486619074714 7.4844374204371142 30.1267769373957464 S
atom 10.2937955858568699 7.4544188785316736 30.6794420705284843 S
atom 5.3750226857908796 2.4737996711584946 35.0556424555655965 S
atom 9.6214023474684574 2.4509302150170402 35.6813701148719744 S
atom 4.5849719890208407 7.4873605734646711 35.6813321543485173 S
atom 10.3580253537249458 7.4568023390925644 35.0556424555655894 S
atom 2.4848726120796374 4.6819262632020635 30.6794230902667238 S
atom 7.4912844286218379 5.2425428287038551 30.1267959176574536 S
atom 2.4548540701741977 10.2789731871514487 30.1267579571339610 S
atom 7.4678752800136898 9.6649289311361013 30.6794230902667309 S
atom 2.4824891515187724 4.6176964953340134 35.0556234753038822 S
atom 7.4883612755942828 5.3543195015904761 35.6813511346102032 S
atom 2.4519309171466488 10.3907498600381238 35.6813131740867888 S
atom 7.4654918194528088 9.6006991632680894 35.0556234753038964 S
atom 2.2160386153594702 2.6727961924627919 37.8720847379615080 Ba
atom 7.3199229886620953 2.7402502073177994 37.8721037182232152 Ba
atom 2.2834926302144689 7.7766805657654254 37.8720657576997581 Ba
atom 7.1990412832935222 7.6557988603968470 37.8720847379615080 Ba
atom 2.7674813544386945 2.3096891736071541 42.8634974109096447 Ba
atom 7.6830300075177247 2.1888074682385712 42.8635163911713732 Ba
atom 2.6465996490701098 7.2252378266861976 42.8634784306479659 Ba
atom 7.7504840223727154 7.2926918415412194 42.8634974109096447 Ba
atom 4.9832613188661066 4.9827440170020072 40.3677910744355799 Zr
atom 9.9929778320569316 4.9560301717452164 40.3678100546972729 Zr
atom 4.9565474736093069 9.9924605301928402 40.3677720941738798 Zr
atom 9.9662639868001524 9.9657466849360326 40.3677910744355799 Zr
atom 4.9747601206799397 4.9876355500823637 45.3826270042547293 Zr
atom 9.9880862989765848 4.9645313699313691 45.3826459845163583 Zr
atom 4.9516559405289620 10.0009617283789911 45.3826080239929368 Zr
atom 9.9577627886140494 9.9706382180163828 45.3826270042547151 Zr
atom 4.7163622270420591 4.6502964393129895 37.8657280023971197 S
atom 10.3254254097459501 5.2229292635692817 37.8657469826587985 S
atom 5.2889950512983157 10.2593596220168770 37.8657090221354267 S
atom 9.6993648949760853 9.6332991072470548 37.8657280023971339 S
atom 5.2501604106901505 5.3151915946910062 42.8698541464740615 S
atom 9.6605302543679041 4.6891310799211601 42.8698731267356763 S
atom 4.6240998959203274 9.7255614383687892 42.8698351662123187 S
atom 10.2331630786242211 10.2981942626250476 42.8698541464740330 S
atom 5.3747846881393508 2.4761750320818754 40.6871156580651103 S
atom 9.6281683080405163 2.4528826434745041 40.0485044513296202 S
atom 4.5917379495928632 7.4893130019221337 40.0484664908061418 S
atom 10.3577873560734375 7.4591777000159194 40.6871156580651032 S
atom 5.3815506487113671 2.4781274605393291 45.0542499945226709 S
atom 9.6279303103889671 2.4552580043978836 45.6799776538289990 S
atom 4.5914999519413362 7.4916883628455109 45.6799396933055277 S
atom 10.3645533166453880 7.4611301284733900 45.0542499945226780 S
atom 2.4801137905953969 4.6179344929855315 40.6870966778033960 S
atom 7.4864088471368095 5.3475535410184660 40.0484854710678846 S
atom 2.4499784886891880 10.3839838994661022 40.0484475105444133 S
atom 7.4631164585294458 9.6009371609195799 40.6870966778033747 S
atom 2.4781613621379317 4.6111685324135259 45.0542310142609352 S
atom 7.4840334862134386 5.3477915386699824 45.6799586735672776 S
atom 2.4476031277658050 10.3842218971176177 45.6799207130438489 S
atom 7.4611640300719886 9.5941712003475708 45.0542310142609423 S
atom 2.2327153320411073 2.6796111940292744 47.8290757400830771 Ba
atom 7.3131079870956182 2.7235734906361579 47.8290947203448127 Ba
atom 2.2766776286479935 7.7600038490837875 47.8290567598213272 Ba
atom 7.2157179999751397 7.6626138619633251 47.8290757400831055 Ba
atom 2.6102634345173872 2.3240818896406750 52.6082678642623875 Ba
atom 7.6686372914842069 2.3460253881598740 52.6082868445240450 Ba
atom 2.6322069330365929 7.3824557466074952 52.6082488840006022 Ba
atom 7.5932661024514418 7.3070845575747230 52.6082678642623875 Ba
atom 4.9950117292592831 4.9766089594273204 50.4340693361872141 Zr
atom 9.9991128896316486 4.9442797613520240 50.4340883164489640 Zr
atom 4.9626825311839875 9.9807101197996460 50.4340503559255282 Zr
atom 9.9780143971933288 9.9596116273613760 50.4340693361872283 Zr
atom 4.7267009261713593 4.6754457705667365 47.8767634899004193 S
atom 10.3002760784922138 5.2125905644399513 47.8767824701620555 S
atom 5.2638457200445767 10.2490209228875564 47.8767445096386979 S
atom 9.7097035941054024 9.6584484385008018 47.8767634899004193 S
atom 5.1579762322183633 5.2398490379339888 52.9394900244547273 S
atom 9.7358728111249864 4.7813152583929561 52.9395090047164203 S
atom 4.6994424526773200 9.8177456168405630 52.9394710441930627 S
atom 10.1409789001524437 10.2228517058680008 52.9394900244547202 S
atom 5.2697739758247515 2.4810506135668859 50.6088052114754348 S
atom 9.6921600782570270 2.4576414649587468 50.0561780388662854 S
atom 4.6557297198093668 7.4940718234063750 50.0561400783427004 S
atom 10.2527766437587768 7.4640532815009335 50.6088052114754348 S
atom 2.4752382091103748 4.7229452053001539 50.6087862312137062 S
atom 7.4816500256525673 5.2835617708019376 50.0561590586045000 S
atom 2.4452196672049373 10.3199921292495542 50.0561210980811211 S
atom 7.4582408770444300 9.7059478732341908 50.6087862312137062 S
