#=======================================================
# FHI-aims file: sym_relax/sym_relax_RP_1_RxRyMz_-Rx-RyMz.in
# Created using the Atomic Simulation Environment (ASE)
# Fri Mar 14 10:20:28 2025
#=======================================================
lattice_vector 10.0858332492610572 0.2044765239213454 0.0000000000000000 
lattice_vector 0.2044765239213456 10.0858332492610714 0.0000000000000000 
lattice_vector 0.0000000000000000 0.0000000000000000 15.5513240591988087 
atom -0.1072170444824949 -0.1072123770530238 0.2366426701518997 Ba
atom 5.1501290016835526 0.2094553064431676 0.2366426701518997 Ba
atom 0.2094506390136962 5.1501336691130293 0.2366426701518997 Ba
atom 5.0379378421087120 5.0379425095381869 0.2366426701518997 Ba
atom 0.1072170444824949 0.1072123770530237 4.6231460983477319 Ba
atom 4.9357042475775108 -0.0049787825218224 4.6231460983477319 Ba
atom -0.0049741150923510 4.9356995801480386 4.6231460983477319 Ba
atom 5.2523719310736992 5.2523672636442287 4.6231460983477319 Ba
atom 2.5725774432956023 2.5725774432956037 2.4298943842498177 Zr
atom 7.6154940679261287 2.6748157052562775 2.4298943842498177 Zr
atom 2.6748157052562744 7.6154940679261411 2.4298943842498177 Zr
atom 7.7177323298868030 7.7177323298868101 2.4298943842498177 Zr
atom 2.7865494358716831 2.7865467344208295 -0.1074772757772375 S
atom 7.4015247768009029 2.4608437126801941 -0.1074772757772375 S
atom 2.4608464141310473 7.4015220753500577 -0.1074772757772375 S
atom 7.9317043224628820 7.9317016210120324 -0.1074772757772374 S
atom 2.3586054507195193 2.3586081521703761 4.9672660442768706 S
atom 7.8294633590513492 2.8887876978323566 4.9672660442768706 S
atom 2.8887849963814971 7.8294660605022157 4.9672660442768706 S
atom 7.5037603373107205 7.5037630387615843 4.9672660442768706 S
atom 2.5214497798918973 0.0511197435639917 2.2209494738878006 S
atom 7.5643834693691643 0.1533567803573532 2.6388392946118358 S
atom 2.6237051066993082 5.0940351430272228 2.6388392946118358 S
atom 7.6666046664830994 5.1962746301551990 2.2209494738878006 S
atom 0.0511185183966808 2.5214668447386348 2.2209494738878006 S
atom 5.0940363681945158 2.6236880418525717 2.6388392946118358 S
atom 0.1533580055246643 7.5643664045224286 2.6388392946118358 S
atom 5.1962734049878820 7.6666217313298457 2.2209494738878006 S
atom 2.6797944877780986 2.6797898203486250 8.0123046997513203 Ba
atom 7.5082816908731091 2.5675986607737808 8.0123046997513203 Ba
atom 2.5676033282032535 7.5082770234436449 8.0123046997513203 Ba
atom 7.8249493743693019 7.8249447069398350 8.0123046997513203 Ba
atom 2.4653603988131017 2.4653650662425806 12.3988081279471523 Ba
atom 7.7227064449791580 2.7820327497387729 12.3988081279471523 Ba
atom 2.7820280823092984 7.7227111124086365 12.3988081279471523 Ba
atom 7.6105152854043094 7.6105199528337906 12.3988081279471523 Ba
atom 5.1451548865912047 5.1451548865912073 10.2055564138492354 Zr
atom 10.1880715112217359 5.2473931485518781 10.2055564138492354 Zr
atom 5.2473931485518746 10.1880715112217430 10.2055564138492354 Zr
atom 10.2903097731824094 10.2903097731824147 10.2055564138492354 Zr
atom 4.9311828940151221 4.9311855954659807 7.6681847538221799 S
atom 10.4020408023469493 5.4613651411279642 7.6681847538221799 S
atom 5.4613624396771030 10.4020435037978274 7.6681847538221799 S
atom 10.0763377806063126 10.0763404820571942 7.6681847538221799 S
atom 5.3591268791672819 5.3591241777164305 12.7429280738762856 S
atom 9.9741022200965102 5.0334211559757982 12.7429280738762856 S
atom 5.0334238574266514 9.9740995186456516 12.7429280738762856 S
atom 10.5042817657584955 10.5042790643076422 12.7429280738762856 S
atom 5.0940272231874948 2.6236971868595984 10.4145013242112547 S
atom 10.1369609126647706 2.7259342236529553 9.9966115034872125 S
atom 5.1962825499949066 7.6666125863228221 9.9966115034872125 S
atom 10.2391821097786959 7.7688520734508000 10.4145013242112547 S
atom 2.6236959616922806 5.0940442880342438 10.4145013242112547 S
atom 7.6666138114901203 5.1962654851481691 9.9966115034872125 S
atom 2.7259354488202674 10.1369438478180456 9.9966115034872125 S
atom 7.7688508482834857 10.2391991746254458 10.4145013242112547 S
