#=======================================================
# FHI-aims file: sym_relax/sym_relax_RP_9_RxRyMz_-Rx-Ry0.in
# Created using the Atomic Simulation Environment (ASE)
# Mon Mar 17 17:00:00 2025
#=======================================================
lattice_vector 10.0095629472117071 -0.0740449802156837 -0.0000005506142735 
lattice_vector -0.0740449802156834 10.0095629472116805 0.0000005506142735 
lattice_vector 0.0000572737242269 -0.0000572737242267 95.9670432436322471 
atom 0.1392220006932663 -0.1719759093745442 0.2108363075985159 Ba
atom 5.1767573829803961 -0.1762444908011069 0.2108360322913790 Ba
atom 0.1349534192667049 4.8655594729125582 0.2108365829056526 Ba
atom 5.1069809841912956 4.7957830741234346 0.2108363075985159 Ba
atom -0.2686862304091781 0.1908622162492873 5.0055932204976630 Ba
atom 4.8139192573565790 0.2316637403013361 5.0055929451905410 Ba
atom -0.2278847063571295 5.2734677040150073 5.0055934958048054 Ba
atom 4.6990727530888474 5.1586211997472740 5.0055932204976630 Ba
atom 2.5006495048162543 2.4752366592942630 2.3962161914674631 Zr
atom 7.4973037978096100 2.4300869885739060 2.3962159161603318 Zr
atom 2.4554998340959031 7.4718909522875858 2.3962164667746051 Zr
atom 7.4684084883142816 7.4429956427922468 2.3962161914674622 Zr
atom 2.4730551466344473 2.4895572216314839 7.4501022784372282 Zr
atom 7.4829832354723873 2.4576813467557095 7.4501020031300840 Zr
atom 2.4411792717586760 7.4994853104693995 7.4501025537443599 Zr
atom 7.4408141301324786 7.4573162051294544 7.4501022784372282 Zr
atom 2.6584127990966930 2.7353061755990988 -0.1108554101194162 S
atom 7.2372342815047705 2.2723236942934717 -0.1108556854265526 S
atom 2.1954303177910637 7.3141276580071395 -0.1108551348122791 S
atom 7.6261717825947191 7.7030651590970880 -0.1108554101194162 S
atom 2.2315437555041568 2.1797128445718936 4.9571400975856506 S
atom 7.7928276125319735 2.6991927378860048 4.9571398222785206 S
atom 2.7510236488182724 7.7409967015996779 4.9571403728927956 S
atom 7.1993027390021753 7.1474718280698912 4.9571400975856497 S
atom 2.7948742762731498 -0.0173865137400989 2.2234376700137131 S
atom 7.1748463540849601 -0.0514893796521353 2.7759355048353926 S
atom 2.1330423903712523 4.9903145840615348 2.7759360554496655 S
atom 7.7626332597711549 4.9503724697578866 2.2234376700137131 S
atom 2.8946251401238601 -0.0172625182199403 7.7840609941135943 S
atom 7.1206085433797686 -0.0512077582846045 7.1607791405114742 S
atom 2.0788045796660586 4.9905962054290782 7.1607796911257493 S
atom 7.8623841236218812 4.9504964652780590 7.7840609941135943 S
atom -0.0196359763677412 2.2099071973327034 2.2234379453208497 S
atom 4.9822258730423084 2.7976941030189075 2.7759357801425266 S
atom -0.0595780906713893 7.8394980667325989 2.7759363307568052 S
atom 4.9481230071302829 7.1776661808307018 2.2234379453208497 S
atom -0.0197599718878998 2.1101563334819873 7.7840612694207376 S
atom 4.9819442516747756 2.8519319137240968 7.1607794158186149 S
atom -0.0598597120389200 7.8937358774377673 7.1607799664328944 S
atom 4.9479990116101140 7.0779153169799942 7.7840612694207358 S
atom 0.2842932441606557 -0.1829908935987995 9.9787987578069455 Ba
atom 5.1877723672046647 -0.3213157342684949 9.9787984824998048 Ba
atom 0.1459684034909598 4.7204882294451762 9.9787990331140914 Ba
atom 5.2520522276586794 4.7847680898991776 9.9787987578069401 Ba
atom -0.2852409842813680 0.1819790900951708 14.9817864533107716 Ba
atom 4.8228023835106750 0.2482184941735244 14.9817861780036505 Ba
atom -0.2190015802030128 5.2900224578872015 14.9817867286178945 Ba
atom 4.6825179992166497 5.1497380735931539 14.9817864533107752 Ba
atom 2.4887720710492185 2.4820187490617718 12.4665487631808372 Zr
atom 7.4905217080421105 2.4419644223409485 12.4665484878736876 Zr
atom 2.4487177443284036 7.4837683860546234 12.4665490384879600 Zr
atom 7.4565310545472379 7.4497777325597507 12.4665487631808372 Zr
atom 2.4822106345742925 2.4844586670378694 17.4801264926013502 Zr
atom 7.4880817900659835 2.4485258588158700 17.4801262172942273 Zr
atom 2.4462778263522980 7.4903298225295538 17.4801267679085157 Zr
atom 7.4499696180723243 7.4522176505358706 17.4801264926013502 Zr
atom 2.7478029308734713 2.8128551625656821 9.9695761002054457 S
atom 7.1596852945381615 2.1829335625166868 9.9695758248983051 S
atom 2.1178813308244786 7.2247375262303457 9.9695763755126112 S
atom 7.7155619143715128 7.7806141460636820 9.9695761002054457 S
atom 2.2172359759997429 2.1518275472624357 14.9788208061390744 S
atom 7.8207129098414256 2.7135005173904143 14.9788205308319462 S
atom 2.7789089461277299 7.7553044811040674 14.9788210814462275 S
atom 7.1849949594977636 7.1195865307604240 14.9788208061390726 S
atom 2.8881828575116852 -0.0211853602751114 12.1603936316417105 S
atom 7.1222103233122418 -0.0555397387292669 12.7998731102336176 S
atom 2.0804063595985332 4.9862642249844011 12.7998736608478936 S
atom 7.8559418410096864 4.9465736232228785 12.1603936316417105 S
atom 2.8866707513532890 -0.0193569739022168 17.8069342049310961 S
atom 7.1225305622621207 -0.0537289924927840 17.1636585204317775 S
atom 2.0807265985484324 4.9880749712208772 17.1636590710460410 S
atom 7.8544297348513119 4.9484020095957808 17.8069342049311032 S
atom -0.0158371298327287 2.1165986160941732 12.1603939069488209 S
atom 4.9862762321194367 2.8503301337916267 12.7998733855407583 S
atom -0.0555277315942575 7.8921340975052869 12.7998739361550147 S
atom 4.9519218536652874 7.0843575995921579 12.1603939069488263 S
atom -0.0176655162056234 2.1181107222525632 17.8069344802382403 S
atom 4.9844654858829687 2.8500098948417327 17.1636587957389075 S
atom -0.0573384778307404 7.8918138585554054 17.1636593463531604 S
atom 4.9500934672924091 7.0858697057505529 17.8069344802382403 S
atom 0.2858361205863247 -0.1815023605859329 19.9881792040574950 Ba
atom 5.1862838341918049 -0.3228586106941638 19.9881789287504077 Ba
atom 0.1444798704780935 4.7189453530194996 19.9881794793646748 Ba
atom 5.2535951040843480 4.7862566229120764 19.9881792040574915 Ba
atom -0.2858092735280939 0.1814755135277023 24.9963723163950924 Ba
atom 4.8233059600781694 0.2487867834202500 24.9963720410879873 Ba
atom -0.2184980036355444 5.2905907471339342 24.9963725917022721 Ba
atom 4.6819497099699170 5.1492344970256578 24.9963723163951030 Ba
atom 2.4838929152781253 2.4838660682198785 22.4922757602263204 Zr
atom 7.4886743888839904 2.4468435781120412 22.4922754849191797 Zr
atom 2.4468704251702773 7.4886475418256992 22.4922760355334574 Zr
atom 7.4516518987761398 7.4516250517178815 22.4922757602263204 Zr
atom 2.4855751959819594 2.4832734694018783 27.5044250278512656 Zr
atom 7.4892669877019777 2.4451612974082075 27.5044247525441570 Zr
atom 2.4474630239882664 7.4869652611218838 27.5044253031584276 Zr
atom 7.4533341794799997 7.4510324528998702 27.5044250278512621 Zr
atom 2.7513547332532831 2.8169725472826639 19.9878602915944690 S
atom 7.1555679098212055 2.1793817601368870 19.9878600162873283 S
atom 2.1137639461074946 7.2211857238505637 19.9878605669016274 S
atom 7.7191137167512771 7.7847315307806610 19.9878602915944761 S
atom 2.2164310973029782 2.1507595891570843 24.9966912288581575 S
atom 7.8217808679467788 2.7143053960871817 24.9966909535510418 S
atom 2.7799769042330755 7.7561093598008490 24.9966915041653017 S
atom 7.1841900808010077 7.1185185726550833 24.9966912288581469 S
atom 2.8868933573827271 -0.0198510663533437 22.1702159257311848 S
atom 7.1226964368872387 -0.0542207609205707 22.8143350441072172 S
atom 2.0808924731735319 4.9875832027930942 22.8143355947214275 S
atom 7.8546523408807314 4.9479079171446463 22.1702159257311848 S
atom 2.8870592320078248 -0.0203428347811306 27.8208924494066210 S
atom 7.1229190429166476 -0.0547148533716975 27.1776167649072846 S
atom 2.0811150792029651 4.9870891103419659 27.1776173155215588 S
atom 7.8548182155058548 4.9474161487168562 27.8208924494066139 S
atom -0.0171714237544965 2.1178881162231282 22.1702162010382899 S
atom 4.9849572543107463 2.8498440202166320 22.8143353194143543 S
atom -0.0568467094029541 7.8916479839302944 22.8143358700286036 S
atom 4.9505875597435267 7.0856470997211236 22.1702162010382828 S
atom -0.0166796553267112 2.1177222415980212 27.8208927247137510 S
atom 4.9854513467618791 2.8496214141871952 27.1776170402144679 S
atom -0.0563526169518272 7.8914253779008527 27.1776175908287208 S
atom 4.9510793281712990 7.0854812250960215 27.8208927247137474 S
atom 0.2852678313395988 -0.1820059371534023 30.0027650671418868 Ba
atom 5.1867874107592717 -0.3222903214474393 30.0027647918347782 Ba
atom 0.1449834470455622 4.7195136422662252 30.0027653424489849 Ba
atom 5.2530268148376082 4.7857530463445812 30.0027650671418868 Ba
atom -0.2842663971024239 0.1829640465405679 35.0057527626457272 Ba
atom 4.8218174270652705 0.2472439069945803 35.0057524873386470 Ba
atom -0.2199865366484107 5.2890478707082380 35.0057530379528430 Ba
atom 4.6834925863955945 5.1507230300385549 35.0057527626457343 Ba
atom 2.4790137595070245 2.4857133873779853 32.5180027572718231 Zr
atom 7.4868270697258783 2.4517227338831313 32.5180024819646434 Zr
atom 2.4450231060121657 7.4935266975968062 32.5180030325788820 Zr
atom 7.4467727430050479 7.4534723708759802 32.5180027572718231 Zr
atom 2.4947306839217984 2.4781749148082728 37.5344492420155476 Zr
atom 7.4943655422955882 2.4360058094683703 37.5344489667083607 Zr
atom 2.4525615785818893 7.4778097731820230 37.5344495173225710 Zr
atom 7.4624896674198213 7.4459338983062731 37.5344492420155476 Zr
atom 2.7505498545564966 2.8159045891773302 30.0057307143135716 S
atom 7.1566358679265507 2.1801866388336570 30.0057304390064736 S
atom 2.1148319042128372 7.2219906025473497 30.0057309896207549 S
atom 7.7183088380545302 7.7836635726752990 30.0057307143135752 S
atom 2.2199828996827669 2.1548769738740741 35.0149754202472110 S
atom 7.8176634832298006 2.7107535937073899 35.0149751449400668 S
atom 2.7758595195160849 7.7525575574210634 35.0149756955543197 S
atom 7.1877418831807827 7.1226359573720597 35.0149754202472110 S
atom 2.8873794709577094 -0.0185320885446478 32.1846778596047827 S
atom 7.1214069367582651 -0.0528864669988029 32.8241573381967058 S
atom 2.0796029730445742 4.9889174967148850 32.8241578888109089 S
atom 7.8551384544557239 4.9492268949533331 32.1846778596047827 S
atom 2.8889812508901920 -0.0228640689893104 37.8237718293268230 S
atom 7.1149646541460916 -0.0568093090539739 37.2004899757248353 S
atom 2.0731606904323874 4.9849946546596922 37.2004905263389958 S
atom 7.8567402343882060 4.9448949145086623 37.8237718293268230 S
atom -0.0184904015631941 2.1174020026481304 32.1846781349119908 S
atom 4.9836229603889874 2.8511335203455852 32.8241576135037576 S
atom -0.0581810033247220 7.8929374840592432 32.8241581641180460 S
atom 4.9492685819348239 7.0851609861461196 32.1846781349119908 S
atom -0.0141584211185315 2.1158002227156603 37.8237721046339743 S
atom 4.9875458024441697 2.8575758029577623 37.2004902510318516 S
atom -0.0542581612695508 7.8993797666714247 37.2004908016461471 S
atom 4.9536005623794823 7.0835592062136525 37.8237721046339743 S
atom 0.2687130774674100 -0.1908890633075188 39.9789582999550106 Ba
atom 5.1956705369133527 -0.3057355675752498 39.9789580246478522 Ba
atom 0.1538665731996789 4.7360683961384238 39.9789585752621690 Ba
atom 5.2364720609654309 4.7768699201904745 39.9789582999550106 Ba
atom -0.1391951536350352 0.1719490623163134 44.7737152128540927 Ba
atom 4.8328324112895489 0.1021726635271929 44.7737149375469770 Ba
atom -0.2089715524241555 5.1439766272408560 44.7737154881612298 Ba
atom 4.8285638298629836 5.1397080458143156 44.7737152128540927 Ba
atom 2.4671363257399905 2.4924954771455012 42.5883353289852096 Zr
atom 7.4800449799583806 2.4636001676501684 42.5883350536780725 Zr
atom 2.4382410162446622 7.5054041313638447 42.5883356042923324 Zr
atom 7.4348953092380139 7.4602544606434842 42.5883353289852096 Zr
atom 2.7362420750520879 2.7880192918678643 40.0274114228669546 S
atom 7.1845211652360046 2.1944944183380706 40.0274111475597962 S
atom 2.1427172015222906 7.2362983820517455 40.0274116981740775 S
atom 7.7040010585501113 7.7557782753658531 40.0274114228669475 S
atom 2.3093730314595535 2.2324259608406574 45.0954069305720822 S
atom 7.7401144962631898 2.6213634619306045 45.0954066552649593 S
atom 2.6983105325495069 7.6631674256442830 45.0954072058792477 S
atom 7.2771320149575702 7.2001849443386350 45.0954069305720822 S
atom 2.8347434401849991 -0.0225824476217794 42.2086154650029357 S
atom 7.2147155179967957 -0.0566853135338152 42.7611132998246006 S
atom 2.1729115542831092 4.9851186501798690 42.7611138504389459 S
atom 7.8025024236830207 4.9451765358762110 42.2086154650029357 S
atom -0.0144400424860624 2.1700380334208482 42.2086157403101154 S
atom 4.9874218069239715 2.7578249391070560 42.7611135751317519 S
atom -0.0543821567897096 7.7996289028207402 42.7611141257460190 S
atom 4.9533189410119620 7.1377970169188387 42.2086157403101154 S
atom 2.3447173846728959 2.6557947705320921 48.1944096158758413 Ba
atom 7.3167456865717639 2.5860191087172550 48.1944093405687539 Ba
atom 2.2749417228580811 7.6278230724309388 48.1944098911831063 Ba
atom 7.3124763681709224 7.6235537540300902 48.1944096158758413 Ba
atom 2.7526810507758888 2.2929197473809784 52.9891812665782851 Ba
atom 7.6796207097228866 2.1780554426142880 52.9891809912711977 Ba
atom 2.6378167460091739 7.2198594063279558 52.9891815418854222 Ba
atom 7.7204400342739179 7.2606787308789604 52.9891812665782780 Ba
atom 4.9510546755218705 4.9763462306287147 50.3797817699131798 Zr
atom 9.9639532099731607 4.9474408013663114 50.3797814946060569 Zr
atom 4.9221492462594609 9.9892447650799934 50.3797820452203453 Zr
atom 9.9188136590198788 9.9441052141267239 50.3797817699131727 Zr
atom 4.9786942059298891 4.9619730868765277 55.4336852015408610 Zr
atom 9.9783263537252971 4.9198012709583141 55.4336849262337452 Zr
atom 4.9365223900116142 9.9616052346719943 55.4336854768480052 Zr
atom 9.9464531894278743 9.9297320703745520 55.4336852015408539 Zr
atom 4.7932790122402915 4.7162985166376847 47.8727123352460566 S
atom 10.2240009239641871 5.1052164646478637 47.8727120599389195 S
atom 5.1821969602505025 10.1470204283615537 47.8727126105531369 S
atom 9.7610379957382953 9.6840575001356548 47.8727123352460424 S
atom 5.2201835714699287 5.2718139309257923 52.9407197053362637 S
atom 9.6684855096760920 4.6783119054182434 52.9407194300290840 S
atom 4.6266815459623674 9.7201158691318863 52.9407199806434363 S
atom 10.1879425549679468 10.2395729144237908 52.9407197053362637 S
atom 5.3186633979808597 2.4612616286067697 50.7594954630376449 S
atom 9.6986490564869889 2.4271536879025390 50.2070114025727960 S
atom 4.6568450927732714 7.4689576516162210 50.2070119531870347 S
atom 10.2864223814788929 7.4290206121047442 50.7594954630376165 S
atom 5.3729576676863857 2.4609330051623686 55.1443871248871602 S
atom 9.5989004615294728 2.4269957115491470 55.7676461834896742 S
atom 4.5570964978157456 7.4687996752628072 55.7676467341039128 S
atom 10.3407166511844171 7.4286919886603586 55.1443871248871673 S
atom 2.4694748647833951 4.6538770591230021 50.7594957383448318 S
atom 7.4713417889856544 5.2416503841148749 50.2070116778799758 S
atom 2.4295378252719515 10.2834543478285578 50.2070122284942002 S
atom 7.4372338482814193 9.6216360426209704 50.7594957383448033 S
atom 2.4698034882277833 4.5995827894174504 55.1443874001943257 S
atom 7.4714997653390549 5.3413989790723964 55.7676464587967970 S
atom 2.4296958016253254 10.3832029427860721 55.7676470094111068 S
atom 7.4375624717258004 9.5673417729154444 55.1443874001943257 S
atom 2.1996827563859060 2.6667763398821860 57.9623994914371607 Ba
atom 7.3057641172216883 2.7310537370042618 57.9623992161300734 Ba
atom 2.2639601535079752 7.7728577007179496 57.9623997667442126 Ba
atom 7.1674417398839045 7.6345353233801747 57.9623994914371465 Ba
atom 2.7692034883653043 2.3018283286475003 62.9653745878956386 Ba
atom 7.6707121284563735 2.1615330050248582 62.9653743125884873 Ba
atom 2.6289081647426609 7.2033369687385189 62.9653748632027828 Ba
atom 7.7369624718633210 7.2695873121454992 62.9653745878956457 Ba
atom 4.9629529931623715 4.9695267113164086 60.4501237844863937 Zr
atom 9.9707727292854500 4.9355424837257909 60.4501235091791855 Zr
atom 4.9289687655717414 9.9773464474394693 60.4501240597934739 Zr
atom 9.9307119766603975 9.9372856948143991 60.4501237844864079 Zr
atom 4.9695200119999017 4.9670906876642436 65.4636841163112848 Zr
atom 9.9732087529376283 4.9289754648882509 65.4636838410041833 Zr
atom 4.9314047892239188 9.9707794286019062 65.4636843916182016 Zr
atom 9.9372789954979535 9.9348496711622243 65.4636841163112848 Zr
atom 4.7039462374682364 4.6387047849924192 57.9531668453121469 S
atom 10.3015946556094562 5.1945492394199260 57.9531665700049885 S
atom 5.2597906918957547 10.2363532031336266 57.9531671206192911 S
atom 9.6717052209662437 9.6064637684903573 57.9531668453121469 S
atom 5.2344898051847073 5.2997226138382958 62.9623919895323212 S
atom 9.6405768267635779 4.6640056717034319 62.9623917142250917 S
atom 4.5987728630498710 9.7058096354170988 62.9623922648393872 S
atom 10.2022487886827449 10.2674815973362765 62.9623919895323212 S
atom 5.3713348912106778 2.4652864936896255 60.7834487238252379 S
atom 9.6053431873501811 2.4309313870313196 60.1439856004364586 S
atom 4.5635392236364760 7.4727353507449985 60.1439861510506546 S
atom 10.3390938747086807 7.4330454771876120 60.7834487238252450 S
atom 5.3709958307627623 2.4634814331673764 65.1472302977989841 S
atom 9.6068277126974806 2.4291159992487672 65.7904947099775512 S
atom 4.5650237489837879 7.4709199629624239 65.7904952605918822 S
atom 10.3387548142607599 7.4312404166653785 65.1472302977989557 S
atom 2.4654499997005379 4.6012055658931645 60.7834489991324389 S
atom 7.4675640898568609 5.3349562532516703 60.1439858757435530 S
atom 2.4257601261431505 10.3767602169653461 60.1439864263577917 S
atom 7.4332089831985471 9.5689645493911719 60.7834489991324105 S
atom 2.4672550602227856 4.6015446263410738 65.1472305731062846 S
atom 7.4693794776394258 5.3334717279043815 65.7904949852846670 S
atom 2.4275755139257065 10.3752756916180697 65.7904955358989270 S
atom 7.4350140437207868 9.5693036098390660 65.1472305731063130 S
atom 2.1981149444802934 2.6653263475234219 67.9717295714982441 Ba
atom 7.3072141095804355 2.7326215489098624 67.9717292961913699 Ba
atom 2.2654101458667366 7.7744255126235284 67.9717298468055162 Ba
atom 7.1658739279783168 7.6330853310214062 67.9717295714983010 Ba
atom 2.7697281598001804 2.3023485151921097 72.9798651925866722 Ba
atom 7.6701919419117610 2.1610083335899857 72.9798649172794995 Ba
atom 2.6283879781980577 7.2028122973036632 72.9798654678936316 Ba
atom 7.7374871432981900 7.2701074986900949 72.9798651925866864 Ba
atom 4.9678010438892448 4.9677169231067637 70.4757973820425860 Zr
atom 9.9725825174951090 4.9306944329989264 70.4757971067352713 Zr
atom 4.9307785537813906 9.9724983967125720 70.4757976573496308 Zr
atom 9.9355600273872611 9.9354759066047649 70.4757973820425860 Zr
atom 4.9660820757785755 4.9683431585492803 75.4879106477738020 Zr
atom 9.9719562820525631 4.9324134011095815 75.4879103724667146 Zr
atom 4.9301523183388891 9.9742173648232750 75.4879109230809604 Zr
atom 9.9338410592766451 9.9361021420472166 75.4879106477738304 Zr
atom 4.7003523723766989 4.6346191809235577 67.9714009045984824 S
atom 10.3056802596783008 5.1981431045114741 67.9714006292913808 S
atom 5.2638762959646099 10.2399470682251472 67.9714011799057261 S
atom 9.6681113558747125 9.6023781644215820 67.9714009045984682 S
atom 5.2352497154018023 5.3008146652899653 72.9801938594865049 S
atom 9.6394847753119173 4.6632457614863601 72.9801935841794034 S
atom 4.5976808115982388 9.7050497252000589 72.9801941347936776 S
atom 10.2030086988998256 10.2685736487879478 72.9801938594864623 S
atom 5.3708128399005250 2.4640028257834530 70.7978415489922952 S
atom 9.6065932115916617 2.4296270567163880 70.1537526644782616 S
atom 4.5647892478779575 7.4714310204300736 70.1537532150926779 S
atom 10.3385718233985529 7.4317618092814488 70.7978415489923378 S
atom 5.3705783387947141 2.4645138832510791 75.1610995034932188 S
atom 9.6064102207294688 2.4301484493324748 75.8043639156716296 S
atom 4.5646062570157371 7.4719524130461465 75.8043644662859464 S
atom 10.3383373222927659 7.4322728667490718 75.1610995034932188 S
atom 2.4667336676067033 4.6017276172033226 70.7978418242995673 S
atom 7.4688684201717743 5.3337062290101924 70.1537529397855906 S
atom 2.4270644564580897 10.3755101927238584 70.1537534903997084 S
atom 7.4344926511047351 9.5694866007013388 70.7978418242996241 S
atom 2.4662226101390909 4.6019621183091317 75.1610997788002777 S
atom 7.4683470275557182 5.3338892198724492 75.8043641909787027 S
atom 2.4265430638420096 10.3756931835860993 75.8043647415930621 S
atom 7.4339815936370810 9.5697211018071098 75.1610997788002493 S
atom 2.1986396159151718 2.6658465340680340 77.9862201761891924 Ba
atom 7.3066939230358319 2.7320968774749925 77.9862199008820767 Ba
atom 2.2648899593221303 7.7739008411886683 77.9862204514965356 Ba
atom 7.1663985994132027 7.6336055175660054 77.9862201761892067 Ba
atom 2.7681603478945696 2.3008985228333487 82.9891952726479047 Ba
atom 7.6716419342705162 2.1625761454955814 82.9891949973406895 Ba
atom 2.6298379705568227 7.2043801092092608 82.9891955479550489 Ba
atom 7.7359193313925987 7.2686575063313308 82.9891952726479190 Ba
atom 4.9726490946161102 4.9659071348971011 80.5014709795985510 Zr
atom 9.9743923057047787 4.9258463822720620 80.5014707042914068 Zr
atom 4.9325883419910630 9.9676503459857209 80.5014712549058515 Zr
atom 9.9404080781141282 9.9336661183951040 80.5014709795985794 Zr
atom 4.9569078818486201 4.9734607593369713 85.5179095625438634 Zr
atom 9.9668386812648677 4.9415875950395360 85.5179092872367903 Zr
atom 4.9250347175511804 9.9833915587532065 85.5179098378510503 Zr
atom 9.9246668653466834 9.9412197428349920 85.5179095625438634 Zr
atom 4.7011122825937903 4.6357112323752174 77.9892027745528793 S
atom 10.3045882082266633 5.1973831942943951 77.9892024992456498 S
atom 5.2627842445129325 10.2391871580080860 77.9892030498600377 S
atom 9.6688712660917702 9.6034702158732177 77.9892027745528509 S
atom 5.2316558503102613 5.2967290612210904 82.9984279187726486 S
atom 9.6435703793807459 4.6668396265779055 82.9984276434656607 S
atom 4.6017664156670559 9.7086435902915706 82.9984281940799207 S
atom 10.1994148338083068 10.2644880447191138 82.9984279187726628 S
atom 5.3720628641420030 2.4626984954685280 80.8076086130345459 S
atom 9.6060711602815285 2.4283433888102217 80.1681454896452692 S
atom 4.5642671965677977 7.4701473525238926 80.1681460402597281 S
atom 10.3398218476400388 7.4304574789665123 80.8076086130345459 S
atom 5.3785055899627263 2.4666341709507020 85.1839480299810106 S
atom 9.6044483838058028 2.4326968773374742 85.8072070885833256 S
atom 4.5626444200921048 7.4745008410511540 85.8072076391975997 S
atom 10.3462645734607719 7.4343931544487099 85.1839480299810390 S
atom 2.4680379979216442 4.6004775929618402 80.8076088883415338 S
atom 7.4701520880779677 5.3342282803203434 80.1681457649524845 S
atom 2.4283481243642577 10.3760322440340289 80.1681463155668723 S
atom 7.4357969814196627 9.5682365764598316 80.8076088883415338 S
atom 2.4641023224394583 4.5940348671411053 85.1839483052881121 S
atom 7.4657985995507081 5.3358510567960691 85.8072073638906261 S
atom 2.4239946358370106 10.3776550205097138 85.8072079145048576 S
atom 7.4318613059374705 9.5617938506391216 85.1839483052880695 S
atom 2.2151620535045842 2.6747551153345501 87.9624134975065886 Ba
atom 7.2977853417693019 2.7155744398855610 87.9624132221995580 Ba
atom 2.2559813780556146 7.7573784035992235 87.9624137728137754 Ba
atom 7.1829210370026280 7.6425140988325282 87.9624134975065886 Ba
atom 2.6231257196075779 2.3118800921834426 92.7571851482092740 Ba
atom 7.6606603649204343 2.3076107737825966 92.7571848729020303 Ba
atom 2.6188564012067217 7.3494147374962546 92.7571854235161908 Ba
atom 7.5908847031055968 7.2796390756814127 92.7571851482092740 Ba
atom 4.9845474122566360 4.9590876155847976 90.5718129941717649 Zr
atom 9.9812118250170609 4.9139480646315317 90.5718127188646491 Zr
atom 4.9394078613033487 9.9557520283452163 90.5718132694790370 Zr
atom 9.9523063957546505 9.9268465990827899 90.5718129941717649 Zr
atom 4.7154185163085671 4.6636199152877271 88.0108750587485105 S
atom 10.2766795253141190 5.1830769605796014 88.0108747834415084 S
atom 5.2348755616004370 10.2248809242933074 88.0108753340557257 S
atom 9.6831774998065683 9.6313788987856697 88.0108750587484963 S
atom 5.1423230755382061 5.2191353295758400 93.0788824288392505 S
atom 9.7211641110260061 4.7561724013499731 93.0788821535318789 S
atom 4.6793601473123054 9.7979763650636311 93.0788827041461388 S
atom 10.1100820590362499 10.1868943130738305 93.0788824288392505 S
atom 5.2787569950052156 2.4664761945973148 90.7445828108979100 S
atom 9.6587426535113323 2.4323682538930775 90.1920987504330327 S
atom 4.6169386897976477 7.4741722176067578 90.1920993010470511 S
atom 10.2465159785032398 7.4342351780952995 90.7445828108979100 S
atom 2.4642602987928570 4.6937834620986427 90.7445830862050400 S
atom 7.4661272229951097 5.2815567870905191 90.1920990257400348 S
atom 2.4243232592814019 10.3233607508042340 90.1920995763545079 S
atom 7.4320192822908773 9.6615424455966163 90.7445830862050400 S
