#=======================================================
# FHI-aims file: sym_relax/sym_relax_RP_10_00Mz1_00Mz2.in
# Created using the Atomic Simulation Environment (ASE)
# Mon Mar 17 17:05:58 2025
#=======================================================
lattice_vector 9.9084450874094063 -0.0000000262698778 0.0000000000000000 
lattice_vector -0.0000000262698778 9.9084450874094454 0.0000000000000000 
lattice_vector 0.0000000000000000 0.0000000000000000 108.0782737089520822 
atom 0.0000000000000000 -0.0000000000000000 0.1610349198828001 Ba
atom 4.9542225437047023 -0.0000000131349391 0.1610349198828001 Ba
atom -0.0000000131349391 4.9542225437047245 0.1610349198828001 Ba
atom 4.9542225305697629 4.9542225305697762 0.1610349198828001 Ba
atom 0.0000000000000000 0.0000000000000000 5.0646366218193899 Ba
atom 4.9542225437047023 -0.0000000131349391 5.0646366218193899 Ba
atom -0.0000000131349391 4.9542225437047245 5.0646366218193899 Ba
atom 4.9542225305697629 4.9542225305697762 5.0646366218193899 Ba
atom 2.4771112652848815 2.4771112652848881 2.4342296330485103 Zr
atom 7.4313338089895797 2.4771112521499505 2.4342296330485103 Zr
atom 2.4771112521499452 7.4313338089896170 2.4342296330485103 Zr
atom 7.4313337958546501 7.4313337958546759 2.4342296330485103 Zr
atom 2.4771112652848815 2.4771112652848881 7.5723025443003067 Zr
atom 7.4313338089895797 2.4771112521499505 7.5723025443003067 Zr
atom 2.4771112521499452 7.4313338089896170 7.5723025443003067 Zr
atom 7.4313337958546501 7.4313337958546759 7.5723025443003067 Zr
atom 2.4771112652848815 2.4771112652848881 -0.1084961884025869 S
atom 7.4313338089895797 2.4771112521499505 -0.1084961884025869 S
atom 2.4771112521499452 7.4313338089896170 -0.1084961884025869 S
atom 7.4313337958546501 7.4313337958546759 -0.1084961884025869 S
atom 2.4771112652848815 2.4771112652848881 5.0353068889834658 S
atom 7.4313338089895797 2.4771112521499505 5.0353068889834658 S
atom 2.4771112521499452 7.4313338089896170 5.0353068889834658 S
atom 7.4313337958546501 7.4313337958546759 5.0353068889834658 S
atom 2.0523512313658130 -0.0000000425606388 2.5281154494329114 S
atom 7.8560938560435929 0.0000000162907606 2.5281154494329114 S
atom 2.9018712992039446 4.9542225731304326 2.5281154494329114 S
atom 7.0065737619355870 4.9542224880091386 2.5281154494329114 S
atom 2.9977762653673063 -0.0000000097783555 7.5893374368681528 S
atom 6.9106688220420915 -0.0000000164915226 7.5893374368681528 S
atom 1.9564462652024543 4.9542225403481321 7.5893374368681528 S
atom 7.9519987959370777 4.9542225207914381 7.5893374368681528 S
atom 0.0000000294256997 2.9018713123388991 2.5281154494329114 S
atom 4.9542225011440442 2.0523512182308821 2.5281154494329114 S
atom -0.0000000556955778 7.0065737750705566 2.5281154494329114 S
atom 4.9542225599954755 7.8560938429086757 2.5281154494329114 S
atom -0.0000000033565836 1.9564462783374013 7.5893374368681528 S
atom 4.9542225339263490 2.9977762522323794 7.5893374368681528 S
atom -0.0000000229132946 7.9519988090720544 7.5893374368681528 S
atom 4.9542225272131750 6.9106688089071815 7.5893374368681528 S
atom 0.0000000000000000 0.0000000000000000 10.1536292374176220 Ba
atom 4.9542225437047023 -0.0000000131349391 10.1536292374176220 Ba
atom -0.0000000131349391 4.9542225437047245 10.1536292374176220 Ba
atom 4.9542225305697629 4.9542225305697762 10.1536292374176220 Ba
atom 0.0000000000000000 0.0000000000000000 15.2624609272918583 Ba
atom 4.9542225437047023 -0.0000000131349391 15.2624609272918583 Ba
atom -0.0000000131349391 4.9542225437047245 15.2624609272918583 Ba
atom 4.9542225305697629 4.9542225305697762 15.2624609272918583 Ba
atom 2.4771112652848815 2.4771112652848881 12.6940028515714101 Zr
atom 7.4313338089895797 2.4771112521499505 12.6940028515714101 Zr
atom 2.4771112521499452 7.4313338089896170 12.6940028515714101 Zr
atom 7.4313337958546501 7.4313337958546759 12.6940028515714101 Zr
atom 2.4771112652848815 2.4771112652848881 17.8130730984089425 Zr
atom 7.4313338089895797 2.4771112521499505 17.8130730984089425 Zr
atom 2.4771112521499452 7.4313338089896170 17.8130730984089425 Zr
atom 7.4313337958546501 7.4313337958546759 17.8130730984089425 Zr
atom 2.4771112652848815 2.4771112652848881 10.1449853201020144 S
atom 7.4313338089895797 2.4771112521499505 10.1449853201020144 S
atom 2.4771112521499452 7.4313338089896170 10.1449853201020144 S
atom 7.4313337958546501 7.4313337958546759 10.1449853201020144 S
atom 2.4771112652848815 2.4771112652848881 15.2602392330458798 S
atom 7.4313338089895797 2.4771112521499505 15.2602392330458798 S
atom 2.4771112521499452 7.4313338089896170 15.2602392330458798 S
atom 7.4313337958546501 7.4313337958546759 15.2602392330458798 S
atom 2.9798432759477493 -0.0000000046819753 12.7085627975827560 S
atom 6.9286018114616521 -0.0000000215879029 12.7085627975827560 S
atom 1.9743792546220176 4.9542225352517582 12.7085627975827560 S
atom 7.9340658065175091 4.9542225258878076 12.7085627975827560 S
atom 2.9820313149868714 -0.0000000061519303 17.8196302044523662 S
atom 6.9264137724225341 -0.0000000201179479 17.8196302044523662 S
atom 1.9721912155828931 4.9542225367217165 17.8196302044523662 S
atom 7.9362538455566307 4.9542225244178537 17.8196302044523662 S
atom -0.0000000084529638 1.9743792677569645 12.7085627975827560 S
atom 4.9542225390227328 2.9798432628128229 12.7085627975827560 S
atom -0.0000000178169144 7.9340658196524760 12.7085627975827560 S
atom 4.9542225221168072 6.9286017983267500 12.7085627975827560 S
atom -0.0000000069830088 1.9721912287178420 17.8196302044523662 S
atom 4.9542225375527629 2.9820313018519440 17.8196302044523662 S
atom -0.0000000192868694 7.9362538586916020 17.8196302044523662 S
atom 4.9542225235867603 6.9264137592876223 17.8196302044523662 S
atom 0.0000000000000000 0.0000000000000000 20.3754212715587322 Ba
atom 4.9542225437047023 -0.0000000131349391 20.3754212715587322 Ba
atom -0.0000000131349391 4.9542225437047245 20.3754212715587322 Ba
atom 4.9542225305697629 4.9542225305697762 20.3754212715587322 Ba
atom 0.0000000000000000 0.0000000000000000 25.4901588936207553 Ba
atom 4.9542225437047023 -0.0000000131349391 25.4901588936207553 Ba
atom -0.0000000131349391 4.9542225437047245 25.4901588936207553 Ba
atom 4.9542225305697629 4.9542225305697762 25.4901588936207553 Ba
atom 2.4771112652848815 2.4771112652848881 22.9312059661309462 Zr
atom 7.4313338089895797 2.4771112521499505 22.9312059661309462 Zr
atom 2.4771112521499452 7.4313338089896170 22.9312059661309462 Zr
atom 7.4313337958546501 7.4313337958546759 22.9312059661309462 Zr
atom 2.4771112652848815 2.4771112652848881 28.0491118211106141 Zr
atom 7.4313338089895797 2.4771112521499505 28.0491118211106141 Zr
atom 2.4771112521499452 7.4313338089896170 28.0491118211106141 Zr
atom 7.4313337958546501 7.4313337958546759 28.0491118211106141 Zr
atom 2.4771112652848815 2.4771112652848881 20.3751829908287156 S
atom 7.4313338089895797 2.4771112521499505 20.3751829908287156 S
atom 2.4771112521499452 7.4313338089896170 20.3751829908287156 S
atom 7.4313337958546501 7.4313337958546759 20.3751829908287156 S
atom 2.4771112652848815 2.4771112652848881 25.4901588936207553 S
atom 7.4313338089895797 2.4771112521499505 25.4901588936207553 S
atom 2.4771112521499452 7.4313338089896170 25.4901588936207553 S
atom 7.4313337958546501 7.4313337958546759 25.4901588936207553 S
atom 2.9824523032998012 -0.0000000062477616 22.9332393913922381 S
atom 6.9259927841096118 -0.0000000200221166 22.9332393913922381 S
atom 1.9717702272699615 4.9542225368175474 22.9332393913922381 S
atom 7.9366748338695734 4.9542225243220281 22.9332393913922381 S
atom 2.9824523032998012 -0.0000000062477616 28.0470783958492902 S
atom 6.9259927841096118 -0.0000000200221166 28.0470783958492902 S
atom 1.9717702272699615 4.9542225368175474 28.0470783958492902 S
atom 7.9366748338695734 4.9542225243220281 28.0470783958492902 S
atom -0.0000000068871775 1.9717702404049069 22.9332393913922381 S
atom 4.9542225374569391 2.9824522901648765 22.9332393913922381 S
atom -0.0000000193827006 7.9366748470045394 22.9332393913922381 S
atom 4.9542225236825859 6.9259927709746867 22.9332393913922381 S
atom -0.0000000068871775 1.9717702404049069 28.0470783958492902 S
atom 4.9542225374569391 2.9824522901648769 28.0470783958492902 S
atom -0.0000000193827006 7.9366748470045394 28.0470783958492902 S
atom 4.9542225236825859 6.9259927709746867 28.0470783958492902 S
atom 0.0000000000000000 0.0000000000000000 30.6048965156828316 Ba
atom 4.9542225437047023 -0.0000000131349391 30.6048965156828316 Ba
atom -0.0000000131349391 4.9542225437047245 30.6048965156828316 Ba
atom 4.9542225305697629 4.9542225305697762 30.6048965156828316 Ba
atom 0.0000000000000000 0.0000000000000000 35.7178568599496558 Ba
atom 4.9542225437047023 -0.0000000131349391 35.7178568599496558 Ba
atom -0.0000000131349391 4.9542225437047245 35.7178568599496558 Ba
atom 4.9542225305697629 4.9542225305697762 35.7178568599496558 Ba
atom 2.4771112652848815 2.4771112652848881 33.1672446888326746 Zr
atom 7.4313338089895797 2.4771112521499505 33.1672446888326746 Zr
atom 2.4771112521499452 7.4313338089896170 33.1672446888326746 Zr
atom 7.4313337958546501 7.4313337958546759 33.1672446888326746 Zr
atom 2.4771112652848815 2.4771112652848881 38.2863149356701626 Zr
atom 7.4313338089895797 2.4771112521499505 38.2863149356701626 Zr
atom 2.4771112521499452 7.4313338089896170 38.2863149356701626 Zr
atom 7.4313337958546501 7.4313337958546759 38.2863149356701626 Zr
atom 2.4771112652848815 2.4771112652848881 30.6051347964128411 S
atom 7.4313338089895797 2.4771112521499505 30.6051347964128411 S
atom 2.4771112521499452 7.4313338089896170 30.6051347964128411 S
atom 7.4313337958546501 7.4313337958546759 30.6051347964128411 S
atom 2.4771112652848815 2.4771112652848881 35.7200785541956520 S
atom 7.4313338089895797 2.4771112521499505 35.7200785541956520 S
atom 2.4771112521499452 7.4313338089896170 35.7200785541956520 S
atom 7.4313337958546501 7.4313337958546759 35.7200785541956520 S
atom 2.9820313149868714 -0.0000000061519303 33.1606875827891656 S
atom 6.9264137724225341 -0.0000000201179479 33.1606875827891656 S
atom 1.9721912155828931 4.9542225367217165 33.1606875827891656 S
atom 7.9362538455566289 4.9542225244178537 33.1606875827891656 S
atom 2.9798432759477493 -0.0000000046819753 38.2717549896587599 S
atom 6.9286018114616530 -0.0000000215879029 38.2717549896587599 S
atom 1.9743792546220176 4.9542225352517582 38.2717549896587599 S
atom 7.9340658065175091 4.9542225258878076 38.2717549896587599 S
atom -0.0000000069830088 1.9721912287178420 33.1606875827891656 S
atom 4.9542225375527629 2.9820313018519440 33.1606875827891656 S
atom -0.0000000192868694 7.9362538586916020 33.1606875827891656 S
atom 4.9542225235867603 6.9264137592876223 33.1606875827891656 S
atom -0.0000000084529638 1.9743792677569645 38.2717549896587599 S
atom 4.9542225390227328 2.9798432628128233 38.2717549896587599 S
atom -0.0000000178169144 7.9340658196524760 38.2717549896587599 S
atom 4.9542225221168072 6.9286017983267500 38.2717549896587599 S
atom 0.0000000000000000 0.0000000000000000 40.8266885498238210 Ba
atom 4.9542225437047023 -0.0000000131349391 40.8266885498238210 Ba
atom -0.0000000131349391 4.9542225437047245 40.8266885498238210 Ba
atom 4.9542225305697629 4.9542225305697762 40.8266885498238210 Ba
atom 0.0000000000000000 -0.0000000000000000 45.9156811654221784 Ba
atom 4.9542225437047023 -0.0000000131349391 45.9156811654221784 Ba
atom -0.0000000131349391 4.9542225437047245 45.9156811654221784 Ba
atom 4.9542225305697629 4.9542225305697762 45.9156811654221784 Ba
atom 2.4771112652848815 2.4771112652848881 43.4080152429412465 Zr
atom 7.4313338089895797 2.4771112521499505 43.4080152429412465 Zr
atom 2.4771112521499452 7.4313338089896170 43.4080152429412465 Zr
atom 7.4313337958546501 7.4313337958546759 43.4080152429412465 Zr
atom 2.4771112652848815 2.4771112652848881 48.5460881541930362 Zr
atom 7.4313338089895797 2.4771112521499505 48.5460881541930362 Zr
atom 2.4771112521499452 7.4313338089896170 48.5460881541930362 Zr
atom 7.4313337958546501 7.4313337958546759 48.5460881541930362 Zr
atom 2.4771112652848815 2.4771112652848881 40.8353324671395512 S
atom 7.4313338089895797 2.4771112521499505 40.8353324671395512 S
atom 2.4771112521499452 7.4313338089896170 40.8353324671395512 S
atom 7.4313337958546501 7.4313337958546759 40.8353324671395512 S
atom 2.4771112652848815 2.4771112652848881 45.9450108982580687 S
atom 7.4313338089895797 2.4771112521499505 45.9450108982580687 S
atom 2.4771112521499452 7.4313338089896170 45.9450108982580687 S
atom 7.4313337958546501 7.4313337958546759 45.9450108982580687 S
atom 2.9977762653673063 -0.0000000097783555 43.3909803503733329 S
atom 6.9106688220420915 -0.0000000164915226 43.3909803503733329 S
atom 1.9564462652024543 4.9542225403481321 43.3909803503733329 S
atom 7.9519987959370777 4.9542225207914381 43.3909803503733329 S
atom 2.0523512313658130 -0.0000000425606388 48.4522023378086431 S
atom 7.8560938560435929 0.0000000162907606 48.4522023378086431 S
atom 2.9018712992039446 4.9542225731304326 48.4522023378086431 S
atom 7.0065737619355870 4.9542224880091386 48.4522023378086431 S
atom -0.0000000033565836 1.9564462783374013 43.3909803503733329 S
atom 4.9542225339263490 2.9977762522323794 43.3909803503733329 S
atom -0.0000000229132946 7.9519988090720544 43.3909803503733329 S
atom 4.9542225272131750 6.9106688089071815 43.3909803503733329 S
atom 0.0000000294256997 2.9018713123388991 48.4522023378086431 S
atom 4.9542225011440442 2.0523512182308821 48.4522023378086431 S
atom -0.0000000556955778 7.0065737750705548 48.4522023378086431 S
atom 4.9542225599954755 7.8560938429086757 48.4522023378086431 S
atom 0.0000000000000000 0.0000000000000000 50.8192828673586732 Ba
atom 4.9542225437047023 -0.0000000131349391 50.8192828673586732 Ba
atom -0.0000000131349391 4.9542225437047245 50.8192828673586732 Ba
atom 4.9542225305697629 4.9542225305697762 50.8192828673586732 Ba
atom 2.4771112652848815 2.4771112652848881 51.0888139756441007 S
atom 7.4313338089895797 2.4771112521499505 51.0888139756441007 S
atom 2.4771112521499452 7.4313338089896170 51.0888139756441007 S
atom 7.4313337958546501 7.4313337958546759 51.0888139756441007 S
atom 2.4771112652848815 2.4771112652848881 54.2000644287522704 Ba
atom 7.4313338089895797 2.4771112521499505 54.2000644287522704 Ba
atom 2.4771112521499452 7.4313338089896170 54.2000644287522704 Ba
atom 7.4313337958546501 7.4313337958546759 54.2000644287522704 Ba
atom 2.4771112652848815 2.4771112652848881 59.1036598295146334 Ba
atom 7.4313338089895797 2.4771112521499505 59.1036598295146334 Ba
atom 2.4771112521499452 7.4313338089896170 59.1036598295146334 Ba
atom 7.4313337958546501 7.4313337958546759 59.1036598295146334 Ba
atom 4.9542225305697629 4.9542225305697762 56.4732483407272099 Zr
atom 9.9084450742744554 4.9542225174348449 56.4732483407272099 Zr
atom 4.9542225174348182 9.9084450742745034 56.4732483407272099 Zr
atom 9.9084450611395258 9.9084450611395525 56.4732483407272099 Zr
atom 4.9542225305697629 4.9542225305697762 61.6113093015309090 Zr
atom 9.9084450742744554 4.9542225174348449 61.6113093015309090 Zr
atom 4.9542225174348182 9.9084450742745034 61.6113093015309090 Zr
atom 9.9084450611395258 9.9084450611395525 61.6113093015309090 Zr
atom 4.9542225305697629 4.9542225305697762 53.9305346410985393 S
atom 9.9084450742744554 4.9542225174348449 53.9305346410985393 S
atom 4.9542225174348182 9.9084450742745034 53.9305346410985393 S
atom 9.9084450611395258 9.9084450611395525 53.9305346410985393 S
atom 4.9542225305697629 4.9542225305697762 59.0743249016308454 S
atom 9.9084450742744554 4.9542225174348449 59.0743249016308454 S
atom 4.9542225174348182 9.9084450742745034 59.0743249016308454 S
atom 9.9084450611395258 9.9084450611395525 59.0743249016308454 S
atom 4.5294350184369367 2.4771112309081316 56.5671526644175913 S
atom 10.3332325995422298 2.4771112733917744 56.5671526644175913 S
atom 5.3790100427025793 7.4313338302314413 56.5671526644175913 S
atom 9.4836575490067130 7.4313337614779114 56.5671526644175913 S
atom 5.4749233666839334 2.4771112543532587 61.6283514234354328 S
atom 9.3877442512952243 2.4771112499466459 61.6283514234354328 S
atom 4.4335216944555960 7.4313338067863119 61.6283514234354328 S
atom 10.4291458972537026 7.4313337849230381 61.6283514234354328 S
atom 2.4771112865267053 5.3790100558375480 56.5671526644175913 S
atom 7.4313337746128223 4.5294350053020134 56.5671526644175913 S
atom 2.4771112177731842 9.4836575621416639 56.5671526644175913 S
atom 7.4313338170964789 10.3332325864073375 56.5671526644175913 S
atom 2.4771112630815781 4.4335217075905424 61.6283514234354328 S
atom 7.4313337980579508 5.4749233535490207 61.6283514234354328 S
atom 2.4771112412183052 10.4291459103886801 61.6283514234354328 S
atom 7.4313337936513451 9.3877442381603515 61.6283514234354328 S
atom 2.4771112652848815 2.4771112652848881 64.1926585619529249 Ba
atom 7.4313338089895797 2.4771112521499505 64.1926585619529249 Ba
atom 2.4771112521499452 7.4313338089896170 64.1926585619529249 Ba
atom 7.4313337958546501 7.4313337958546759 64.1926585619529249 Ba
atom 2.4771112652848815 2.4771112652848881 69.3014969642997158 Ba
atom 7.4313338089895797 2.4771112521499505 69.3014969642997158 Ba
atom 2.4771112521499452 7.4313338089896170 69.3014969642997158 Ba
atom 7.4313337958546501 7.4313337958546759 69.3014969642997158 Ba
atom 4.9542225305697629 4.9542225305697762 66.7330139241786355 Zr
atom 9.9084450742744554 4.9542225174348449 66.7330139241786355 Zr
atom 4.9542225174348182 9.9084450742745034 66.7330139241786355 Zr
atom 9.9084450611395258 9.9084450611395525 66.7330139241786355 Zr
atom 4.9542225305697629 4.9542225305697762 71.8521516763989609 Zr
atom 9.9084450742744554 4.9542225174348449 71.8521516763989609 Zr
atom 4.9542225174348182 9.9084450742745034 71.8521516763989609 Zr
atom 9.9084450611395258 9.9084450611395525 71.8521516763989609 Zr
atom 4.9542225305697629 4.9542225305697762 64.1839992955843286 S
atom 9.9084450742744554 4.9542225174348449 64.1839992955843286 S
atom 4.9542225174348182 9.9084450742745034 64.1839992955843286 S
atom 9.9084450611395258 9.9084450611395525 64.1839992955843286 S
atom 4.9542225305697629 4.9542225305697762 69.2992845587492070 S
atom 9.9084450742744554 4.9542225174348449 69.2992845587492070 S
atom 4.9542225174348182 9.9084450742745034 69.2992845587492070 S
atom 9.9084450611395258 9.9084450611395525 69.2992845587492070 S
atom 5.4569521214314971 2.4771112603974053 66.7475833427500334 S
atom 9.4057154965476641 2.4771112439024976 66.7475833427500334 S
atom 4.4514929397080243 7.4313338007421601 66.7475833427500334 S
atom 10.4111746520012627 7.4313337909671899 66.7475833427500334 S
atom 5.4591389848347642 2.4771112591461613 71.8587035127614371 S
atom 9.4035286331443917 2.4771112451537496 71.8587035127614371 S
atom 4.4493060763047598 7.4313338019934116 71.8587035127614371 S
atom 10.4133615154045192 7.4313337897159331 71.8587035127614371 S
atom 2.4771112570374298 4.4514929528429859 66.7475833427500334 S
atom 7.4313338041020991 5.4569521082965817 66.7475833427500334 S
atom 2.4771112472624588 10.4111746651362331 66.7475833427500334 S
atom 7.4313337876071959 9.4057154834127790 66.7475833427500334 S
atom 2.4771112582886770 4.4493060894397081 71.8587035127614371 S
atom 7.4313338028508396 5.4591389716998560 71.8587035127614371 S
atom 2.4771112460112077 10.4133615285395109 71.8587035127614371 S
atom 7.4313337888584510 9.4035286200094941 71.8587035127614371 S
atom 2.4771112652848815 2.4771112652848881 74.4144959489509432 Ba
atom 7.4313338089895797 2.4771112521499505 74.4144959489509432 Ba
atom 2.4771112521499452 7.4313338089896170 74.4144959489509432 Ba
atom 7.4313337958546501 7.4313337958546759 74.4144959489509432 Ba
atom 2.4771112652848815 2.4771112652848881 79.5292957480967999 Ba
atom 7.4313338089895797 2.4771112521499505 79.5292957480967999 Ba
atom 2.4771112521499452 7.4313338089896170 79.5292957480967999 Ba
atom 7.4313337958546501 7.4313337958546759 79.5292957480967999 Ba
atom 4.9542225305697629 4.9542225305697762 76.9703174524451583 Zr
atom 9.9084450742744554 4.9542225174348449 76.9703174524451583 Zr
atom 4.9542225174348182 9.9084450742745034 76.9703174524451583 Zr
atom 9.9084450611395258 9.9084450611395525 76.9703174524451583 Zr
atom 4.9542225305697629 4.9542225305697762 82.0882740437483847 Zr
atom 9.9084450742744554 4.9542225174348449 82.0882740437483847 Zr
atom 4.9542225174348182 9.9084450742745034 82.0882740437483847 Zr
atom 9.9084450611395258 9.9084450611395525 82.0882740437483847 Zr
atom 4.9542225305697629 4.9542225305697762 74.4142717903085753 S
atom 9.9084450742744554 4.9542225174348449 74.4142717903085753 S
atom 4.9542225174348182 9.9084450742745034 74.4142717903085753 S
atom 9.9084450611395258 9.9084450611395525 74.4142717903085753 S
atom 4.9542225305697629 4.9542225305697762 79.5292957480967999 S
atom 9.9084450742744554 4.9542225174348449 79.5292957480967999 S
atom 4.9542225174348182 9.9084450742745034 79.5292957480967999 S
atom 9.9084450611395258 9.9084450611395525 79.5292957480967999 S
atom 5.4595885895188809 2.4771112590354303 76.9723554991243901 S
atom 9.4030790284602972 2.4771112452644761 76.9723554991243901 S
atom 4.4488564716206476 7.4313338021041355 76.9723554991243901 S
atom 10.4138111200886421 7.4313337896052083 76.9723554991243901 S
atom 5.4595885895188809 2.4771112590354303 82.0862359970690818 S
atom 9.4030790284602972 2.4771112452644761 82.0862359970690818 S
atom 4.4488564716206476 7.4313338021041355 82.0862359970690818 S
atom 10.4138111200886421 7.4313337896052083 82.0862359970690818 S
atom 2.4771112583994039 4.4488564847556029 76.9723554991243901 S
atom 7.4313338027401201 5.4595885763839638 76.9723554991243901 S
atom 2.4771112459004785 10.4138111332236303 76.9723554991243901 S
atom 7.4313337889691704 9.4030790153253836 76.9723554991243901 S
atom 2.4771112583994039 4.4488564847556029 82.0862359970690818 S
atom 7.4313338027401201 5.4595885763839638 82.0862359970690818 S
atom 2.4771112459004785 10.4138111332236303 82.0862359970690818 S
atom 7.4313337889691704 9.4030790153253836 82.0862359970690818 S
atom 2.4771112652848815 2.4771112652848881 84.6440955472425429 Ba
atom 7.4313338089895797 2.4771112521499505 84.6440955472425429 Ba
atom 2.4771112521499452 7.4313338089896170 84.6440955472425429 Ba
atom 7.4313337958546501 7.4313337958546759 84.6440955472425429 Ba
atom 2.4771112652848815 2.4771112652848881 89.7570945318939124 Ba
atom 7.4313338089895797 2.4771112521499505 89.7570945318939124 Ba
atom 2.4771112521499452 7.4313338089896170 89.7570945318939124 Ba
atom 7.4313337958546501 7.4313337958546759 89.7570945318939124 Ba
atom 4.9542225305697629 4.9542225305697762 87.2064398197946673 Zr
atom 9.9084450742744554 4.9542225174348449 87.2064398197946673 Zr
atom 4.9542225174348182 9.9084450742745034 87.2064398197946673 Zr
atom 9.9084450611395258 9.9084450611395525 87.2064398197946673 Zr
atom 4.9542225305697629 4.9542225305697762 92.3255775720149074 Zr
atom 9.9084450742744554 4.9542225174348449 92.3255775720149074 Zr
atom 4.9542225174348182 9.9084450742745034 92.3255775720149074 Zr
atom 9.9084450611395258 9.9084450611395525 92.3255775720149074 Zr
atom 4.9542225305697629 4.9542225305697762 84.6443197058850956 S
atom 9.9084450742744554 4.9542225174348449 84.6443197058850956 S
atom 4.9542225174348182 9.9084450742745034 84.6443197058850956 S
atom 9.9084450611395258 9.9084450611395525 84.6443197058850956 S
atom 4.9542225305697629 4.9542225305697762 89.7593069374444070 S
atom 9.9084450742744554 4.9542225174348449 89.7593069374444070 S
atom 4.9542225174348182 9.9084450742745034 89.7593069374444070 S
atom 9.9084450611395258 9.9084450611395525 89.7593069374444070 S
atom 5.4591389848347642 2.4771112591461613 87.1998879834319922 S
atom 9.4035286331443917 2.4771112451537496 87.1998879834319922 S
atom 4.4493060763047598 7.4313338019934116 87.1998879834319922 S
atom 10.4133615154045192 7.4313337897159331 87.1998879834319922 S
atom 5.4569521214314971 2.4771112603974053 92.3110081534435665 S
atom 9.4057154965476641 2.4771112439024976 92.3110081534435665 S
atom 4.4514929397080243 7.4313338007421601 92.3110081534435665 S
atom 10.4111746520012627 7.4313337909671899 92.3110081534435665 S
atom 2.4771112582886770 4.4493060894397081 87.1998879834319922 S
atom 7.4313338028508396 5.4591389716998560 87.1998879834319922 S
atom 2.4771112460112077 10.4133615285395109 87.1998879834319922 S
atom 7.4313337888584510 9.4035286200094941 87.1998879834319922 S
atom 2.4771112570374298 4.4514929528429859 92.3110081534435665 S
atom 7.4313338041020991 5.4569521082965817 92.3110081534435665 S
atom 2.4771112472624588 10.4111746651362331 92.3110081534435665 S
atom 7.4313337876071959 9.4057154834127790 92.3110081534435665 S
atom 2.4771112652848815 2.4771112652848881 94.8659329342406465 Ba
atom 7.4313338089895797 2.4771112521499505 94.8659329342406465 Ba
atom 2.4771112521499452 7.4313338089896170 94.8659329342406465 Ba
atom 7.4313337958546501 7.4313337958546759 94.8659329342406465 Ba
atom 2.4771112652848815 2.4771112652848881 99.9549316666789736 Ba
atom 7.4313338089895797 2.4771112521499505 99.9549316666789736 Ba
atom 2.4771112521499452 7.4313338089896170 99.9549316666789736 Ba
atom 7.4313337958546501 7.4313337958546759 99.9549316666789736 Ba
atom 4.9542225305697629 4.9542225305697762 97.4472821946626624 Zr
atom 9.9084450742744554 4.9542225174348449 97.4472821946626624 Zr
atom 4.9542225174348182 9.9084450742745034 97.4472821946626624 Zr
atom 9.9084450611395258 9.9084450611395525 97.4472821946626624 Zr
atom 4.9542225305697629 4.9542225305697762 102.5853431554663047 Zr
atom 9.9084450742744554 4.9542225174348449 102.5853431554663047 Zr
atom 4.9542225174348182 9.9084450742745034 102.5853431554663047 Zr
atom 9.9084450611395258 9.9084450611395525 102.5853431554663047 Zr
atom 4.9542225305697629 4.9542225305697762 94.8745922006091860 S
atom 9.9084450742744554 4.9542225174348449 94.8745922006091860 S
atom 4.9542225174348182 9.9084450742745034 94.8745922006091860 S
atom 9.9084450611395258 9.9084450611395525 94.8745922006091860 S
atom 4.9542225305697629 4.9542225305697762 99.9842665945626266 S
atom 9.9084450742744554 4.9542225174348449 99.9842665945626266 S
atom 4.9542225174348182 9.9084450742745034 99.9842665945626266 S
atom 9.9084450611395258 9.9084450611395525 99.9842665945626266 S
atom 5.4749233666839334 2.4771112543532587 97.4302400727580533 S
atom 9.3877442512952243 2.4771112499466459 97.4302400727580533 S
atom 4.4335216944555960 7.4313338067863119 97.4302400727580533 S
atom 10.4291458972537026 7.4313337849230381 97.4302400727580533 S
atom 4.5294350184369367 2.4771112309081316 102.4914388317759517 S
atom 10.3332325995422298 2.4771112733917744 102.4914388317759517 S
atom 5.3790100427025793 7.4313338302314413 102.4914388317759517 S
atom 9.4836575490067130 7.4313337614779114 102.4914388317759517 S
atom 2.4771112630815781 4.4335217075905424 97.4302400727580533 S
atom 7.4313337980579508 5.4749233535490207 97.4302400727580533 S
atom 2.4771112412183052 10.4291459103886801 97.4302400727580533 S
atom 7.4313337936513451 9.3877442381603515 97.4302400727580533 S
atom 2.4771112865267053 5.3790100558375480 102.4914388317759517 S
atom 7.4313337746128223 4.5294350053020134 102.4914388317759517 S
atom 2.4771112177731842 9.4836575621416639 102.4914388317759517 S
atom 7.4313338170964789 10.3332325864073375 102.4914388317759517 S
atom 2.4771112652848815 2.4771112652848881 104.8585270674412584 Ba
atom 7.4313338089895797 2.4771112521499505 104.8585270674412584 Ba
atom 2.4771112521499452 7.4313338089896170 104.8585270674412584 Ba
atom 7.4313337958546501 7.4313337958546759 104.8585270674412584 Ba
atom 4.9542225305697629 4.9542225305697762 105.1280568550949539 S
atom 9.9084450742744554 4.9542225174348449 105.1280568550949539 S
atom 4.9542225174348182 9.9084450742745034 105.1280568550949539 S
atom 9.9084450611395258 9.9084450611395525 105.1280568550949539 S
