#=======================================================
# FHI-aims file: sym_relax/sym_relax_RP_3_Rx0Rz_0Ry0.in
# Created using the Atomic Simulation Environment (ASE)
# Fri Mar 14 10:23:56 2025
#=======================================================
lattice_vector 10.1029732912300734 0.0000000000000000 0.0003452462102898 
lattice_vector 0.0000000000000000 10.1029577076828971 -0.0000000000000000 
lattice_vector -0.0011490624646143 -0.0000000000000000 35.2420467964080828 
atom -0.1573285372333006 -0.0000000000000000 0.2857313632372179 Ba
atom 5.2086986599837362 -0.0000000000000000 0.2859058177056116 Ba
atom 0.1572120143687097 5.0514788538414477 0.2857331946004662 Ba
atom 4.8941581083817276 5.0514788538414477 0.2859039863423624 Ba
atom 0.0299415173764684 -0.0000000000000000 4.9297306993074130 Ba
atom 5.0210285421059222 -0.0000000000000000 4.9298228389432337 Ba
atom -0.0304581035091172 5.0514788538414477 4.9296502158380830 Ba
atom 5.0814281629915010 5.0514788538414477 4.9299033224125637 Ba
atom 2.5256047387503906 2.5116961458853804 2.3306861314067677 Zr
atom 7.5770913843654260 2.5397827079560642 2.3308587545119117 Zr
atom 2.5256047387503906 7.5912615617975083 2.3306861314067682 Zr
atom 7.5770913843654260 7.5631749997268347 2.3308587545119113 Zr
atom 2.5255039347940564 2.5257394269207238 7.3421793941375624 Zr
atom 7.5769905804090945 2.5257394269207238 7.3423520172427068 Zr
atom 2.5255039347940564 7.5772182807621702 7.3421793941375624 Zr
atom 7.5769905804090945 7.5772182807621702 7.3423520172427068 Zr
atom 2.5256970465891446 2.8840090593344709 -0.1507173134472462 S
atom 7.5771836922041835 2.1674697945069767 -0.1505446903421009 S
atom 2.5256970465891446 7.2189486483484249 -0.1507173134472462 S
atom 7.5771836922041835 7.9354879131759253 -0.1505446903421009 S
atom 2.5255638064393806 2.0518097971744012 4.8655014250831510 S
atom 7.5770504520544106 2.9996690566670496 4.8656740481883105 S
atom 2.5255638064393806 8.0511479105085044 4.8655014250831519 S
atom 7.5770504520544106 7.1032886510158511 4.8656740481883087 S
atom 2.5256311244480099 -0.0000000000000000 2.0084235532281296 S
atom 7.5770859729888151 -0.0000000000000000 2.7995935362005846 S
atom 2.5255993273737705 5.0514788538414477 2.7994209130954406 S
atom 7.5771177700630483 5.0514788538414477 2.0085961763332767 S
atom 2.5257489726613218 -0.0000000000000000 7.7938620379001566 S
atom 7.5767455425418282 -0.0000000000000000 6.8906693734801028 S
atom 2.5252588969267831 5.0514788538414477 6.8904967503749655 S
atom 7.5772356182763589 5.0514788538414477 7.7940346610052993 S
atom -0.0001367553960002 2.5257585002318197 2.4579748488743376 S
atom 5.0513498902190292 2.5257203536096222 2.4581474719794807 S
atom -0.0001367553960002 7.5771992074510752 2.4579748488743358 S
atom 5.0513498902190292 7.5772373540732652 2.4581474719794802 S
atom -0.0002393880134618 2.5254540338147224 7.3420930825849897 S
atom 5.0512472576015641 2.5260248200267261 7.3422657056901324 S
atom -0.0002393880134618 7.5775036738681720 7.3420930825849897 S
atom 5.0512472576015641 7.5769328876561621 7.3422657056901324 S
atom -0.0304202934033908 -0.0000000000000000 9.7544554658625593 Ba
atom 5.0814659730972220 -0.0000000000000000 9.7547085724370390 Ba
atom 0.0299793274821936 5.0514788538414477 9.7545359493318937 Ba
atom 5.0210663522116343 5.0514788538414477 9.7546280889677170 Ba
atom 0.1568497612063778 -0.0000000000000000 14.3984548019327505 Ba
atom 4.8937958552194099 -0.0000000000000000 14.3986255936746375 Ba
atom -0.1576907903956322 5.0514788538414477 14.3984529705695028 Ba
atom 5.2083364068214193 5.0514788538414477 14.3986274250379012 Ba
atom 2.5254031308377223 2.5397827079560633 12.3536726568683495 Zr
atom 7.5768897764527638 2.5116961458853813 12.3538452799734930 Zr
atom 2.5254031308377223 7.5631749997268347 12.3536726568683459 Zr
atom 7.5768897764527638 7.5912615617975066 12.3538452799734966 Zr
atom 2.5254440631487300 2.9996690566670487 9.8188573631919684 S
atom 7.5769307087637632 2.0518097971744012 9.8190299862970960 S
atom 2.5254440631487300 7.1032886510158493 9.8188573631919684 S
atom 7.5769307087637632 8.0511479105085044 9.8190299862970978 S
atom 2.5253108229989674 2.1674697945069759 14.8350761017223540 S
atom 7.5767974686140063 2.8840090593344700 14.8352487248274958 S
atom 2.5253108229989674 7.9354879131759217 14.8350761017223540 S
atom 7.5767974686140063 7.2189486483484258 14.8352487248274958 S
atom 2.5254085422143437 -0.0000000000000000 11.8849378751796788 S
atom 7.5768633907551344 -0.0000000000000000 12.6761078581521360 S
atom 2.5253767451401004 5.0514788538414477 12.6759352350470031 S
atom 7.5768951878293649 5.0514788538414477 11.8851104982848259 S
atom -0.0003420206309234 2.5257585002318201 12.2262113162956272 S
atom 5.0511446249841141 2.5257203536096213 12.2263839394007849 S
atom -0.0003420206309234 7.5771992074510734 12.2262113162956272 S
atom 5.0511446249841141 7.5772373540732652 12.2263839394007849 S
atom 2.5252017984220290 2.6830055306067422 17.9068408248901818 Ba
atom 7.5766884440370550 2.3684733232347126 17.9070134479952827 Ba
atom 2.5252017984220294 7.4199521770761550 17.9068408248901676 Ba
atom 7.5766884440370550 7.7344843844481970 17.9070134479952969 Ba
atom 2.5250440172608992 2.4955383950929093 22.5507963465192134 Ba
atom 7.5765306628759479 2.5559404587485410 22.5509689696243996 Ba
atom 2.5250440172608992 7.6074193125899852 22.5507963465192134 Ba
atom 7.5765306628759479 7.5470172489343650 22.5509689696243996 Ba
atom 5.0649133390901548 5.0514788538414477 19.9517960334528048 Zr
atom 10.0883149592870822 5.0514788538414477 19.9519589049692421 Zr
atom 5.0368283136720535 10.1029577076828954 19.9517862818641198 Zr
atom 10.1163999847052164 10.1029577076828954 19.9519686565579448 Zr
atom 5.0506727263692630 5.0514788538414477 24.9632891038941054 Zr
atom 10.1021593719842748 5.0514788538414477 24.9634617269992525 Zr
atom 5.0506727263692630 10.1029577076828954 24.9632891038941054 Zr
atom 10.1021593719842766 10.1029577076828954 24.9634617269992525 Zr
atom 4.6927059567333096 5.0514788538414477 17.4703809612684857 S
atom 10.4606997106636044 5.0514788538414477 17.4705711742314840 S
atom 5.4092130650485641 10.1029577076828954 17.4703985511263298 S
atom 9.7441926023483401 10.1029577076828954 17.4705535843736293 S
atom 5.5246994879890625 5.0514788538414477 22.4866262917730033 S
atom 9.6283599384505756 5.0514788538414477 22.4867592181277658 S
atom 4.5768732928355407 10.1029577076828954 22.4865865950226684 S
atom 10.5761861336040983 10.1029577076828954 22.4867989148781788 S
atom 5.0508874513544217 2.5257388667233598 20.0791574514302553 S
atom 10.1023740969694753 2.5257399871180897 20.0793300745354060 S
atom 5.0508874513544226 7.5772188409595360 20.0791574514302589 S
atom 10.1023740969694753 7.5772177205648026 20.0793300745354095 S
atom 5.0506727263692630 2.5257387917463987 24.9632891038941054 S
atom 10.1021593719842748 2.5257400620950468 24.9634617269992525 S
atom 5.0506727263692630 7.5772189159364869 24.9632891038941054 S
atom 10.1021593719842748 7.5772176455878606 24.9634617269992525 S
atom 2.5251220742072835 5.0514788538414477 20.4204256807432429 S
atom 7.5766301258776014 5.0514788538414477 19.6296290898673327 S
atom 2.5251434802625683 10.1029577076828954 19.6294564667622211 S
atom 7.5766087198223246 10.1029577076828954 20.4205983038484185 S
atom 2.5249508580851820 5.0514788538414477 24.5115071560910245 S
atom 7.5763945946533422 5.0514788538414477 25.4150710516972040 S
atom 2.5249079490383153 10.1029577076828954 25.4148984285920676 S
atom 7.5764375037002116 10.1029577076828954 24.5116797791961396 S
atom 2.5248147898625977 2.5559404587485419 27.3756092381638503 Ba
atom 7.5763014354776219 2.4955383950929084 27.3757818612689690 Ba
atom 2.5248147898625977 7.5470172489343650 27.3756092381638503 Ba
atom 7.5763014354776219 7.6074193125899852 27.3757818612689725 Ba
atom 2.5246570087014724 2.3684733232347126 32.0195647597928499 Ba
atom 7.5761436543165068 2.6830055306067431 32.0197373828979508 Ba
atom 2.5246570087014728 7.7344843844481987 32.0195647597928570 Ba
atom 7.5761436543165068 7.4199521770761567 32.0197373828979579 Ba
atom 5.0364321136483801 5.0514788538414477 29.9747821743354628 Zr
atom 10.1160037846815349 5.0514788538414477 29.9749645490292593 Zr
atom 5.0645171390664654 10.1029577076828954 29.9747919259240838 Zr
atom 10.0879187592634061 10.1029577076828954 29.9749547974405850 Zr
atom 4.5766459647494786 5.0514788538414477 27.4399519160151968 S
atom 10.5759588055180096 5.0514788538414477 27.4401642358707356 S
atom 5.5244721599029960 10.1029577076828954 27.4399916127655921 S
atom 9.6281326103645206 10.1029577076828954 27.4401245391203403 S
atom 5.4086394960052298 5.0514788538414477 32.4561972465197712 S
atom 9.7436190333050110 5.0514788538414477 32.4563522797669464 S
atom 4.6921323876899761 10.1029577076828954 32.4561796566618810 S
atom 10.4601261416202451 10.1029577076828954 32.4563698696248935 S
atom 5.0504580013841096 2.5257388667233598 29.8474207563579910 S
atom 10.1019446469991490 2.5257399871180906 29.8475933794631452 S
atom 5.0504580013841096 7.5772188409595360 29.8474207563579981 S
atom 10.1019446469991490 7.5772177205648035 29.8475933794631381 S
atom 2.5247153268609277 5.0514788538414477 30.2969491179208745 S
atom 7.5762233785312461 5.0514788538414477 29.5061525270449430 S
atom 2.5247367329162151 10.1029577076828954 29.5059799039398385 S
atom 7.5762019724759586 10.1029577076828954 30.2971217410260252 S
