#=======================================================
# FHI-aims file: sym_relax/sym_relax_RP_1_RxRyRz_-RxRy0.in
# Created using the Atomic Simulation Environment (ASE)
# Fri Mar 14 10:20:36 2025
#=======================================================
lattice_vector 10.0858336506698762 0.2044586592119609 0.0002840026633849 
lattice_vector 0.2044586592119610 10.0858336506698709 -0.0002840026633849 
lattice_vector -0.0004028692814387 0.0004028692814386 15.5513175205741252 
atom -0.1072291921438775 -0.1072095582699384 0.2366460664279723 Ba
atom 5.1501263836048583 0.2094585217498577 0.2367880677596651 Ba
atom 0.2094388878759186 5.1501460174788178 0.2365040650962800 Ba
atom 5.0379169627970457 5.0379365966709768 0.2366460664279722 Ba
atom 0.1071032954934280 0.1073354549203883 4.6231406587514350 Ba
atom 4.9355813704145524 -0.0048739658874477 4.6232826600831318 Ba
atom -0.0051061253144081 4.9358135298415053 4.6229986574197452 Ba
atom 5.2522494504343351 5.2524816098612925 4.6231406587514350 Ba
atom 2.5725101291452313 2.5726360257956848 2.4298933625897048 Zr
atom 7.6154269544801672 2.6748653554016610 2.4300353639214007 Zr
atom 2.6747394587512159 7.6155528511306185 2.4297513612580168 Zr
atom 7.7176562840861500 7.7177821807365943 2.4298933625897048 Zr
atom 2.7865653731966886 2.7865275421792375 -0.1074760073886764 S
atom 7.4015354380966043 2.4608101113502010 -0.1073340060569839 S
atom 2.4608479423676570 7.4014976070791478 -0.1076180087203687 S
atom 7.9317115281376021 7.9316736971201527 -0.1074760073886765 S
atom 2.3584548850937739 2.3587445094121287 4.9672627325680905 S
atom 7.8293184708637167 2.8889205994531220 4.9674047338997855 S
atom 2.8886309751347650 7.8296080951820786 4.9671207312364025 S
atom 7.5036010400346740 7.5038906643530510 4.9672627325680914 S
atom 2.5214107085249204 0.0511706415330816 2.2210117921805610 S
atom 7.5642970454944978 0.1534139143293286 2.6390589356622387 S
atom 2.6236095497655429 5.0941014100582844 2.6387749329988508 S
atom 7.6665568634658330 5.1963167964739911 2.2210117921805610 S
atom 0.0510586880728982 2.5215061168100155 2.2208697908488704 S
atom 5.0939615702175587 2.6237659347813480 2.6389169343305419 S
atom 0.1532740744886119 7.5644534305103086 2.6386329316671575 S
atom 5.1962048430138177 7.6666522717509356 2.2208697908488708 S
atom 2.6795871509711939 2.6799954767708556 8.0123008578042203 Ba
atom 7.5080675035049937 2.5677883335756992 8.0124428591359056 Ba
atom 2.5673800077760371 7.5084758293046496 8.0121588564725350 Ba
atom 7.8247333059121082 7.8251416317117686 8.0123008578042203 Ba
atom 2.4650302380378362 2.4656794441019443 12.3988033879493305 Ba
atom 7.7223835361739024 2.7823452465090610 12.3989453892810122 Ba
atom 2.7816960404449480 7.7230327422380238 12.3986613866176256 Ba
atom 7.6101763929787341 7.6108255990428662 12.3988033879493340 Ba
atom 5.1448817719749611 5.1454105379068666 10.2055521228767727 Zr
atom 10.1877985973099054 5.2476398675128424 10.2056941242084651 Zr
atom 5.2471111015809422 10.1883273632417968 10.2054101215450714 Zr
atom 10.2900279269158865 10.2905566928477636 10.2055521228767727 Zr
atom 4.9309810792884932 4.9313688120068617 7.6681813019379508 S
atom 10.4018403232098962 5.4615405601993228 7.6683233032696370 S
atom 5.4611528274809489 10.4022280559282816 7.6680393006062557 S
atom 10.0761272342293999 10.0765149669477747 7.6681813019379508 S
atom 5.3587824646614477 5.3594522638068609 12.7429229438155840 S
atom 9.9737568714099130 5.0337391748263576 12.7430649451472853 S
atom 5.0330693756809524 9.9744266705553031 12.7427809424839058 S
atom 10.5039286196023696 10.5045984187477526 12.7429229438155840 S
atom 5.0937568193057245 2.6239589620715824 10.4145781548597753 S
atom 10.1366942203731814 2.7261746180131818 9.9968100935571442 S
atom 5.1960067246442190 7.6668621137421384 9.9965260908937452 S
atom 10.2389029742466278 7.7691051170124998 10.4145781548597753 S
atom 2.6234165224753108 5.0943061609701257 10.4144361535280829 S
atom 7.6663470214746230 5.1965149148435907 9.9966680922254465 S
atom 2.7256595257456713 10.1372024105725558 9.9963840895620724 S
atom 7.7685626774162309 10.2394523159110555 10.4144361535280812 S
