#=======================================================
# FHI-aims file: sym_relax/sym_relax_RP_2_Rx0Mz_0-Ry0.in
# Created using the Atomic Simulation Environment (ASE)
# Fri Mar 14 10:21:26 2025
#=======================================================
lattice_vector 10.1108148770991768 0.0000000000000000 0.0000000000000000 
lattice_vector 0.0000000000000000 10.1108833121310475 0.0000000000000000 
lattice_vector 0.0000000000000000 0.0000000000000000 25.3660196054692229 
atom -0.1548056154022938 0.0000000000000000 0.2814273556102219 Ba
atom 5.2102908689287855 0.0000000000000000 0.2814110869990187 Ba
atom 0.1548834303792011 5.0554416560655202 0.2814110869990187 Ba
atom 4.9006018231472970 5.0554416560655202 0.2814273556102219 Ba
atom 0.0484502543092414 0.0000000000000000 4.8780806933594629 Ba
atom 5.0070719244207540 0.0000000000000000 4.8780806933594629 Ba
atom -0.0483355141288354 5.0554416560655202 4.8780806933594629 Ba
atom 5.1038576928588295 5.0554416560655202 4.8780806933594629 Ba
atom 2.5277494154677740 2.5154753587678838 2.3473074203251363 Zr
atom 7.5831568540173677 2.5399662972976409 2.3473074203251363 Zr
atom 2.5277494154677740 7.5954079533631678 2.3473074203251363 Zr
atom 7.5831568540173677 7.5709170148334097 2.3473074203251363 Zr
atom 2.5277494154677740 2.5154753587678838 7.4088539663937949 Zr
atom 7.5831568540173677 2.5399662972976409 7.4088539663937949 Zr
atom 2.5277494154677740 7.5954079533631678 7.4088539663937949 Zr
atom 7.5831568540173677 7.5709170148334097 7.4088539663937949 Zr
atom 2.5277289422485252 2.8831458954134188 -0.1399996659803472 S
atom 7.5831363807981242 2.1722957606521129 -0.1399996659803472 S
atom 2.5277289422485252 7.2277374167176331 -0.1399996659803472 S
atom 7.5831363807981242 7.9385875514789452 -0.1399996659803472 S
atom 2.5277509009570398 2.0900640838427238 4.8780806933594629 S
atom 7.5831583395066353 2.9653775722228009 4.8780806933594629 S
atom 2.5277509009570398 8.0208192282883317 4.8780806933594629 S
atom 7.5831583395066353 7.1455057399082591 4.8780806933594629 S
atom 2.5277465906683685 -0.0000000000000000 2.0402574610462088 S
atom 7.5831747294568155 0.0000000000000000 2.8000782338601988 S
atom 2.5277672909072333 5.0554416560655202 2.8000782338601988 S
atom 7.5831540292179564 5.0554416560655202 2.0402574610462088 S
atom 2.5277465906683685 -0.0000000000000000 7.7159039256727286 S
atom 7.5831747294568155 0.0000000000000000 6.9560831528587261 S
atom 2.5277672909072333 5.0554416560655202 6.9560831528587261 S
atom 7.5831540292179564 5.0554416560655202 7.7159039256727286 S
atom 0.0000447498393034 2.5277268183022636 2.4609327752735441 S
atom 5.0554521883888972 2.5277148377632659 2.4609327752735441 S
atom 0.0000447498393034 7.5831564938287936 2.4609327752735441 S
atom 5.0554521883888972 7.5831684743677856 2.4609327752735441 S
atom 0.0000447498393034 2.5277268183022636 7.2952286114453821 S
atom 5.0554521883888972 2.5277148377632659 7.2952286114453821 S
atom 0.0000447498393034 7.5831564938287936 7.2952286114453821 S
atom 5.0554521883888972 7.5831684743677856 7.2952286114453821 S
atom -0.1548056154022938 -0.0000000000000000 9.4747340311086958 Ba
atom 5.2102908689287855 0.0000000000000000 9.4747502997199078 Ba
atom 0.1548834303792011 5.0554416560655202 9.4747502997199078 Ba
atom 4.9006018231472970 5.0554416560655202 9.4747340311086958 Ba
atom 2.5277289422485252 2.8831458954134188 9.8961610526992878 S
atom 7.5831363807981242 2.1722957606521129 9.8961610526992878 S
atom 2.5277289422485252 7.2277374167176331 9.8961610526992878 S
atom 7.5831363807981242 7.9385875514789452 9.8961610526992878 S
atom 2.5276548409392237 2.3728748278447442 12.9644271091301668 Ba
atom 7.5830622794888134 2.6825668282207813 12.9644271091301668 Ba
atom 2.5276548409392237 7.7380084842863104 12.9644271091301668 Ba
atom 7.5830622794888134 7.4283164839102644 12.9644271091301668 Ba
atom 2.5276915220453482 2.5761089200650273 17.5610904960940708 Ba
atom 7.5830989605949357 2.4793327360004973 17.5610904960940708 Ba
atom 2.5276915220453482 7.5347743920660166 17.5610904960940708 Ba
atom 7.5830989605949357 7.6315505761305573 17.5610904960940708 Ba
atom 5.0431320086668192 5.0554416560655202 15.0303339575942996 Zr
atom 10.1230200969611346 5.0554416560655202 15.0303300171605549 Zr
atom 5.0676126584115364 10.1108833121310404 15.0303300171605549 Zr
atom 10.0985394472164121 10.1108833121310404 15.0303339575942996 Zr
atom 5.0431320086668192 5.0554416560655202 20.0918470345938616 Zr
atom 10.1230200969611346 5.0554416560655202 20.0918509750275760 Zr
atom 5.0676126584115364 10.1108833121310404 20.0918509750275760 Zr
atom 10.0985394472164121 10.1108833121310404 20.0918470345938616 Zr
atom 5.4108019974130510 5.0554416560655202 12.5430264544671175 S
atom 9.7553498245275652 5.0554416560655202 12.5430243574680986 S
atom 4.6999423859779714 10.1108833121310404 12.5430243574680986 S
atom 10.4662094359626376 10.1108833121310404 12.5430264544671175 S
atom 4.6176968799025087 5.0554416560655202 17.5610904960940708 S
atom 10.5484659813426322 5.0554416560655202 17.5610904960940708 S
atom 5.4930585427930412 10.1108833121310404 17.5610904960940708 S
atom 9.6731043184520917 10.1108833121310404 17.5610904960940708 S
atom 5.0553334716971596 2.5277214713463190 15.1439558640944227 S
atom 10.1107409102467596 2.5277201847192057 15.1439558640944227 S
atom 5.0553334716971596 7.5831618407847268 15.1439558640944227 S
atom 10.1107409102467596 7.5831631274118427 15.1439558640944227 S
atom 5.0553334716971596 2.5277214713463190 19.9782251280937473 S
atom 10.1107409102467596 2.5277201847192057 19.9782251280937473 S
atom 5.0553334716971596 7.5831618407847268 19.9782251280937473 S
atom 10.1107409102467596 7.5831631274118427 19.9782251280937473 S
atom 2.5276551396558209 5.0554416560655202 14.7232364438513450 S
atom 7.5830679081877959 5.0554416560655202 15.4831067765563954 S
atom 2.5276604696382159 10.1108833121310404 15.4831067765563954 S
atom 7.5830625782054186 10.1108833121310404 14.7232364438513450 S
atom 2.5276551396558209 5.0554416560655202 20.3989445483367930 S
atom 7.5830679081877959 5.0554416560655202 19.6390742156317373 S
atom 2.5276604696382159 10.1108833121310404 19.6390742156317373 S
atom 7.5830625782054186 10.1108833121310404 20.3989445483367930 S
atom 2.5276548409392237 2.3728748278447442 22.1577538830579925 Ba
atom 7.5830622794888134 2.6825668282207813 22.1577538830579925 Ba
atom 2.5276548409392237 7.7380084842863104 22.1577538830579925 Ba
atom 7.5830622794888134 7.4283164839102644 22.1577538830579925 Ba
atom 5.4108019974130510 5.0554416560655202 22.5791545377210241 S
atom 9.7553498245275652 5.0554416560655202 22.5791566347200430 S
atom 4.6999423859779714 10.1108833121310404 22.5791566347200430 S
atom 10.4662094359626376 10.1108833121310404 22.5791545377210241 S
