#=======================================================
# FHI-aims file: sym_relax/sym_relax_RP_4_RxRyRz_-Rx-Ry-Rz.in
# Created using the Atomic Simulation Environment (ASE)
# Fri Mar 14 10:30:59 2025
#=======================================================
lattice_vector 10.0226591366735001 0.0129890445684262 0.0116843306852541 
lattice_vector 0.0129890445684252 10.0226591366735196 -0.0116843306852541 
lattice_vector 0.0528880506220165 -0.0528880506220167 45.8281571924948139 
atom 0.0117313513154249 -0.1392009967733999 0.2410061557038415 Ba
atom 5.1505305651101381 -0.0052368290312111 0.2468483210464675 Ba
atom 0.1456955190576122 4.9995982170213509 0.2351639903612142 Ba
atom 5.0295554419363739 4.8786230938475814 0.2410061557038416 Ba
atom -0.2372457506399939 0.1924002949867630 4.9925100057350802 Ba
atom 4.8189292733499833 0.2437402729242088 4.9983521710777037 Ba
atom -0.1859057727025490 5.2485753189767728 4.9866678403924567 Ba
atom 4.7805783399809627 5.2102243856077592 4.9925100057350793 Ba
atom 2.4821019674749025 2.5240659005575865 2.3866881046643087 Zr
atom 7.5050877584001325 2.5422166454302864 2.3925302700069393 Zr
atom 2.5002527123475984 7.5470516914828538 2.3808459393216830 Zr
atom 7.4999260580958547 7.5418899911785706 2.3866881046643083 Zr
atom 2.4499051479357212 2.5512588607979145 7.4471390001638849 Zr
atom 7.4778947981598165 2.5744134649694606 7.4529811655065181 Zr
atom 2.4730597521072766 7.5792485110220325 7.4412968348212578 Zr
atom 7.4677292385566725 7.5690829514189018 7.4471390001638849 Zr
atom 2.6262138372704600 2.7346496475768980 -0.1148369329919294 S
atom 7.2945040113808215 2.3981047756347249 -0.1089947676493027 S
atom 2.2896689653282833 7.4029398216872790 -0.1206790983345568 S
atom 7.6440379278914090 7.7524737381978941 -0.1148369329919293 S
atom 2.2506224096184542 2.2513824260928583 4.9466037569478809 S
atom 7.7777712328648603 2.7736962032867418 4.9524459222904991 S
atom 2.7729361868123301 7.7785312493392960 4.9407615916052485 S
atom 7.2684465002394152 7.2692065167138500 4.9466037569478800 S
atom 2.7179593122429475 0.0295113531455906 2.2489913351506385 S
atom 7.2345258176528677 0.0400499909120690 2.7373522349371555 S
atom 2.2296907716003442 5.0448850369646294 2.7256679042519005 S
atom 7.7357834028639081 5.0473354437665829 2.2489913351506381 S
atom 2.8432582917431364 0.0336259742680044 7.7078716296398406 S
atom 7.1078744756022711 0.0431815345427338 7.2077063958652738 S
atom 2.1030394295497388 5.0480165805952923 7.1960220651800233 S
atom 7.8610823823640992 5.0514500648889911 7.7078716296398389 S
atom -0.0230168308613774 2.2933702560938123 2.2431491698080133 S
atom 4.9842686219930892 2.7946278413048500 2.7315100695945289 S
atom -0.0205664240594310 7.7994628873574126 2.7198257389092726 S
atom 4.9948072597595639 7.3111943467147951 2.2431491698080128 S
atom -0.0271314519837914 2.1680712765936168 7.7020294642972100 S
atom 4.9811370783624396 2.9212791833554497 7.2018642305226512 S
atom -0.0236979676900954 7.9261142294080109 7.1901798998373900 S
atom 4.9906926386371726 7.1858953672146217 7.7020294642972100 S
atom -0.0077086658273086 -0.0307034704455761 9.9626428679336794 Ba
atom 5.0420330387823169 0.0142031881115225 9.9684850332763091 Ba
atom 0.0371979927297881 5.0190382341640856 9.9568007025910479 Ba
atom 5.0101154247936694 4.9871206201754150 9.9626428679336794 Ba
atom 0.2153950996050285 -0.2602405552582626 14.9327757301323025 Ba
atom 5.2715701235949934 -0.2089005773208167 14.9386178954749198 Ba
atom 0.2667350775424731 4.7959344687317467 14.9269335647896604 Ba
atom 5.2332191902259844 4.7575835353627269 14.9327757301323025 Ba
atom 2.5742536654161623 2.4269103433174775 12.4781467357034881 Zr
atom 7.6022433156402496 2.4500649474890293 12.4839889010461178 Zr
atom 2.5974082695877043 7.4548999935415932 12.4723045703608637 Zr
atom 7.5920777560371082 7.4447344339384571 12.4781467357034881 Zr
atom 2.5470607051758392 2.4591071628566468 17.5385976312030571 Zr
atom 7.5700464961010727 2.4772579077293577 17.5444397965456851 Zr
atom 2.5652114500485390 7.4820929537819190 17.5327554658604043 Zr
atom 7.5648847957967984 7.4769312534776295 17.5385976312030571 Zr
atom 2.7638538388485414 2.7408590342302936 9.9626428679336794 S
atom 7.2882946247274276 2.2604647740566430 9.9684850332763091 S
atom 2.2834595786748895 7.2652998201092114 9.9568007025910479 S
atom 7.7816779294695033 7.7586831248512738 9.9626428679336794 S
atom 2.2743772307111092 2.2276276050001975 14.9786819789194894 S
atom 7.8015260539575220 2.7499413821940797 14.9845241442621173 S
atom 2.7966910079049816 7.7547764282466458 14.9728398135768632 S
atom 7.2922013213320742 7.2454516956211883 14.9786819789194894 S
atom 2.1910660812118716 -0.0501262566020582 12.2232562715701381 S
atom 7.9491090340262147 -0.0466927723083612 12.7351058360299572 S
atom 2.9442739879736992 4.9581422737442029 12.7234215053447102 S
atom 7.2088901718328389 4.9676978340189359 12.2232562715701381 S
atom 2.3163650607120636 -0.0460116354796442 17.6821365660593273 S
atom 7.8224576919756350 -0.0435612286776969 17.2054599969580764 S
atom 2.8176226459230942 4.9612738173748596 17.1937756662728418 S
atom 7.3341891513330131 4.9718124551413414 17.6821365660593273 S
atom 0.0566207788862711 2.8202634871248926 12.2174141062275154 S
atom 5.0710113852135281 2.0800446249314843 12.7292636706873239 S
atom 0.0661763391609992 7.0848796709840549 12.7175793400020769 S
atom 5.0744448695072268 7.8380875777458749 12.2174141062275154 S
atom 0.0525061577638568 2.6949645076246993 17.6762944007167349 S
atom 5.0678798415828723 2.2066959669820889 17.1996178316154413 S
atom 0.0630447955303345 7.2115310130346479 17.1879335009302103 S
atom 5.0703302483848205 7.7127885982456839 17.6762944007167349 S
atom -0.1162061921551317 -0.0112634533028427 19.6842795801634800 Ba
atom 5.0225930216395822 0.1227007144393460 19.6901217455061577 Ba
atom 0.0177579755870548 5.1275357604919130 19.6784374148208592 Ba
atom 4.9016178984658252 5.0065606373181497 19.6842795801634800 Ba
atom 2.7576444521951484 2.6032190326522153 20.0401226688593042 S
atom 7.4259346263055157 2.2666741607100338 20.0459648342019143 S
atom 2.4210995802529718 7.2715092067626008 20.0342805035166549 S
atom 7.7754685428160943 7.6210431232732105 20.0401226688593042 S
atom 2.6745570673948906 2.4707366686840655 23.1550847519512999 Ba
atom 7.5584169902736589 2.3497615455102929 23.1609269172938959 Ba
atom 2.5535819442211238 7.3545965915628662 23.1492425866086720 Ba
atom 7.6923811580158397 7.4885607593050532 23.1550847519512999 Ba
atom 2.3429557756347199 2.7197137706394852 27.9065886019825342 Ba
atom 7.3094398883182343 2.6813628372704623 27.9124307673251906 Ba
atom 2.3046048422657051 7.6861978833230236 27.9007464366399134 Ba
atom 7.3607798662556965 7.7375378612604662 27.9065886019825342 Ba
atom 5.0291142606848735 5.0181901431455564 25.3007667009117938 Zr
atom 10.0287876064331343 5.0130284428412795 25.3066088662543862 Zr
atom 5.0239525603805975 10.0178634888938536 25.2949245355691623 Zr
atom 10.0469383513058172 10.0360142337665597 25.3007667009117938 Zr
atom 5.0019213004445415 5.0503869626847449 30.3612175964113185 Zr
atom 9.9965907868939663 5.0402214030816079 30.3670597617539926 Zr
atom 4.9917557408414206 10.0450564491341723 30.3553754310686941 Zr
atom 10.0197453910655057 10.0682110533057312 30.3612175964113185 Zr
atom 4.8185305136655616 4.8740782733499977 22.7992416632555219 S
atom 10.1728994762286806 5.2236121898605967 22.8050838285981321 S
atom 5.1680644301761562 10.2284472359131744 22.7933994979129224 S
atom 9.8363546042865391 9.8919023639709671 22.7992416632555219 S
atom 5.3017977351496004 5.2496697010020110 27.8606823531953545 S
atom 9.7973080485766957 4.7403449683765579 27.8665245185379824 S
atom 4.7924730025241642 9.7451800144291294 27.8548401878527230 S
atom 10.3196218257705645 10.2674937916229911 27.8606823531953545 S
atom 4.7585523199376061 2.5160234886273423 25.6455886658419701 S
atom 10.2646449512011859 2.5184738954292869 25.1689120967407298 S
atom 5.2598099051486527 7.5233089414818624 25.1572277660555059 S
atom 9.7763764105585818 7.5338475792483477 25.6455886658419701 S
atom 4.6319009778870139 2.5191550322580043 30.1159428267701088 S
atom 10.3899439307013459 2.5225885165517092 30.6277923912299386 S
atom 5.3851088846488349 7.5274235626042705 30.6161080605446898 S
atom 9.6497250685079727 7.5369791228790080 30.1159428267701088 S
atom 2.5082951242778462 5.2706013390201187 25.6397465004993563 S
atom 7.5236688080968523 4.7823327983775110 25.1630699313981268 S
atom 2.5188337620443235 9.7871678444300851 25.1513856007128567 S
atom 7.5261192148988059 10.2884254296411406 25.6397465004993563 S
atom 2.5051635806471793 5.3972526810707189 30.1101006614275128 S
atom 7.5195541869744389 4.6570338188773253 30.6219502258873035 S
atom 2.5147191409219012 9.6618688649299092 30.6102658952020512 S
atom 7.5229876712681456 10.4150767716917123 30.1101006614275164 S
atom 2.5660595410670650 2.4901766858267935 32.8767214641811307 Ba
atom 7.5389769731309206 2.4582590718381256 32.8825636295237658 Ba
atom 2.5341419270783927 7.4630941178906900 32.8708792988384744 Ba
atom 7.5838836316880185 7.5080007764477799 32.8767214641811307 Ba
atom 2.7955966258797487 2.2670729203944591 37.8468543263797201 Ba
atom 7.7620807385632542 2.2287219870254349 37.8526964917223978 Ba
atom 2.7572456925107298 7.2335570330780037 37.8410121610371135 Ba
atom 7.8134207165007084 7.2848970110154525 37.8468543263797201 Ba
atom 5.1262698179249888 4.9260384452043029 35.3922253319509679 Zr
atom 10.1209393043743674 4.9158728856011704 35.3980674972935887 Zr
atom 5.1161042583218537 9.9207079316537516 35.3863831666083399 Zr
atom 10.1440939085459600 9.9438625358252786 35.3922253319509679 Zr
atom 5.0940729983858084 4.9532314054446331 40.4526762274505032 Zr
atom 10.0937463441340611 4.9480697051403544 40.4585183927930885 Zr
atom 5.0889112980815332 9.9529047511929125 40.4468340621078610 Zr
atom 10.1118970890067672 9.9710554960656239 40.4526762274505032 Zr
atom 4.8123211270121686 4.7364382717719220 32.8767214641811307 S
atom 10.3105394778067794 5.2298215765139906 32.8825636295237658 S
atom 5.3057044317542417 10.2346566225665487 32.8708792988384744 S
atom 9.8301452176331185 9.7542623623929217 32.8767214641811307 S
atom 5.3255525562422594 5.2259148799093511 37.8927605751669461 S
atom 9.8210628696693316 4.7165901472838963 37.8986027405095314 S
atom 4.8162278236168081 9.7214251933364615 37.8869184098243039 S
atom 10.3433766468631934 10.2437389705303605 37.8927605751669461 S
atom 5.4731355363109744 2.4292807254069206 35.6433422669347806 S
atom 9.7377517201701185 2.4388362856816403 35.1431770331602209 S
atom 4.7329166741175763 7.4436713317342056 35.1314927024749295 S
atom 10.4909596269319234 7.4471048160279096 35.6433422669347806 S
atom 5.3464841942603671 2.4324122690375751 40.1136964278628909 S
atom 9.8630506996702803 2.4429509068040565 40.6020573276494972 S
atom 4.8582156536177550 7.4477859528566119 40.5903729969642555 S
atom 10.3643082848813357 7.4502363596585681 40.1136964278628909 S
atom 2.5950378874982736 4.5560181226467611 35.6375001015922166 S
atom 7.6033064178444896 5.3092260294085882 35.1373348678175788 S
atom 2.5984713717919727 10.3140610754611473 35.1256505371323016 S
atom 7.6128619781192395 9.5738422132677652 35.6375001015922237 S
atom 2.5919063438676089 4.6826694646973541 40.1078542625202914 S
atom 7.5991917967220983 5.1839270499084016 40.5962151623069119 S
atom 2.5943567506695540 10.1887620959609553 40.5845308316216489 S
atom 7.6097304344885766 9.7004935553183671 40.1078542625202914 S
atom 2.5466195239243317 2.5986742121546200 42.5983581764109758 Ba
atom 7.4304794468031012 2.4776990889808586 42.6042003417535966 Ba
atom 2.4256444007505680 7.4825341350334185 42.5925160110682484 Ba
atom 7.5644436145452927 7.6164983027756081 42.5983581764109758 Ba
atom 4.9499611285902532 4.7426476584253088 42.9542012651067253 S
atom 10.3043300911533731 5.0921815749359141 42.9600434304493604 S
atom 5.2994950451008460 10.0970166209884802 42.9483590997641400 S
atom 9.9677852192112137 9.7604717490462995 42.9542012651067253 S
