#=======================================================
# FHI-aims file: sym_relax/sym_relax_RP_9_Rx0Mz_0RyMz.in
# Created using the Atomic Simulation Environment (ASE)
# Mon Mar 17 16:36:09 2025
#=======================================================
lattice_vector 10.0095720726526771 0.0740410592575535 -0.0000199826783074 
lattice_vector 0.0740410592575532 10.0095720726527535 0.0000199826783074 
lattice_vector -0.0001795805101520 0.0001795805101520 95.9672867938828063 
atom 0.1391928394763217 0.1720557209867954 0.2108592682947916 Ba
atom 5.1767409025349593 0.1763346700666459 0.2108458462903607 Ba
atom 0.2089753958373844 5.1441001767642547 0.2108658289686677 Ba
atom 5.1809994054314439 5.2138622869419464 0.2108592682947916 Ba
atom -0.2687581092590358 -0.1908474037611641 5.0056525445894797 Ba
atom 4.8138627843851545 -0.2316669749667484 5.0056368642205866 Ba
atom -0.1539027223124147 4.7360985317308470 5.0056568468988951 Ba
atom 4.7730484566960989 4.8509591621939965 5.0056525445894788 Ba
atom 2.5295145393398824 2.5377531859660838 2.3962501417973212 Zr
atom 7.5424247207670829 2.5666545905263694 2.3962531886596143 Zr
atom 2.5746592140695013 7.5344200972239692 2.3962731713379237 Zr
atom 7.5713211052949889 7.5795597519212405 2.3962501417973199 Zr
atom 2.5151823777579061 2.5100753872352795 7.4501627546626148 Zr
atom 7.5148221963958823 2.5522416451539729 7.4501643845419645 Zr
atom 2.5470566896983184 7.5200071518516003 7.4501843672202614 Zr
atom 7.5569889437129980 7.5518819531904482 7.4501627546626139 Zr
atom 2.2694774623970955 2.6954952366055265 -0.1108322873015140 S
atom 7.7001703931223098 2.3065799707799823 -0.1108241280499999 S
atom 2.7324048864247565 7.2743454774775760 -0.1108041453716924 S
atom 7.3112840283522100 7.7373018025606770 -0.1108322873015139 S
atom 2.8249962907893917 2.2685867303471801 4.9571869019598678 S
atom 7.2733168317527026 2.8620936180918379 4.9571898240938790 S
atom 2.3055513250551498 7.8298591247894223 4.9572098067721759 S
atom 7.8668028567444921 7.3103932963023492 4.9571869019598678 S
atom 2.7948431984886617 0.0174537731969960 2.2234591071202439 S
atom 7.1747939384773716 0.0515426764117530 2.7759580241472461 S
atom 2.2070284317798055 5.0193081831093531 2.7759780068255506 S
atom 7.8366497644437878 5.0592603391521438 2.2234591071202425 S
atom 2.8946252386234623 0.0172536474725140 7.7841097581042060 S
atom 7.1205377827097545 0.0511945317044609 7.1608481027917508 S
atom 2.1527722760121835 5.0189600384020672 7.1608680854700726 S
atom 7.9364318045785769 5.0590602134276779 7.7841097581042051 S
atom 0.0144295646718542 2.1701245165033582 2.7759649410413880 S
atom 5.0221380230859785 2.8319896417639847 2.2234736824562376 S
atom 0.0543725163884152 7.7997551484615855 2.2234936651345452 S
atom 5.0562361306269779 7.2119310824585137 2.7759649410413871 S
atom 0.0141382977476776 2.1157825340834275 7.1608770885504702 S
atom 5.0220056465044385 2.9316608656964278 7.7841031463092278 S
atom 0.0542401398068901 7.8994263723940286 7.7841231289875408 S
atom 5.0559448637027726 7.1575891000386003 7.1608770885504685 S
atom 0.2842510589821710 0.1829784256292705 9.9788768262071290 Ba
atom 5.1877349498447227 0.3212851949153274 9.9788760605710376 Ba
atom 0.2199694431471716 5.2890507016129282 9.9788960432493372 Ba
atom 5.3260576249372971 5.2247849915844302 9.9788768262071201 Ba
atom -0.2852935196823574 -0.1819343641287468 14.9818844331812056 Ba
atom 4.8227412520906183 -0.2481850663980498 14.9818301846933188 Ba
atom -0.1450242546069281 4.7195804402995529 14.9818501673716522 Ba
atom 4.7565130462727421 4.8598722018264153 14.9818844331812038 Ba
atom 2.5227103018779986 2.5257970973843356 12.4666277836849755 Zr
atom 7.5305176896191597 2.5597801642971807 12.4666193206563563 Zr
atom 2.5627521829216016 7.5275456709947850 12.4666393033346594 Zr
atom 7.5645168678331176 7.5676036633394910 12.4666277836849719 Zr
atom 2.5202694916542345 2.5193009022284438 17.4802086269914412 Zr
atom 7.5239693677824757 2.5574014466031767 17.4801912216448017 Zr
atom 2.5562038610849060 7.5251669533007668 17.4802112043231048 Zr
atom 7.5620760576093424 7.5611074681835966 17.4802086269914447 Zr
atom 2.1919102166096405 2.7848028247642471 9.9696514127271989 S
atom 7.7895575203004430 2.2289595647290628 9.9696425626193061 S
atom 2.8217920136028694 7.1967250714266555 9.9696625452975951 S
atom 7.2337167825647501 7.8266093907194119 9.9696514127271936 S
atom 2.8528862487279745 2.2543038404121831 14.9789062039416105 S
atom 7.2589888357214774 2.8899982396346946 14.9788853834413818 S
atom 2.2912233290239272 7.8577637463322949 14.9789053661197169 S
atom 7.8946928146830881 7.2961104063673421 14.9789062039416141 S
atom 2.8881277097181068 0.0211920693225780 12.1604776791759637 S
atom 7.1221516755810228 0.0555482384604190 12.7999201310375490 S
atom 2.1543861688834616 5.0233137451580321 12.7999401137158433 S
atom 7.9299342756732107 5.0629986352777419 12.1604776791759654 S
atom 2.8865882045607898 0.0194192202582273 17.8069926507478726 S
atom 7.1224460562304470 0.0537923619698251 17.1637280376959680 S
atom 2.1546805495328822 5.0215578686674247 17.1637480203742712 S
atom 7.9283947705158822 5.0612257862133907 17.8069926507478726 S
atom 0.0184612341337171 2.1174510985338024 12.7999450747388774 S
atom 5.0259145432761461 2.9252251073127278 12.1604834322207189 S
atom 0.0581490365785787 7.8929906140103192 12.1605034148990114 S
atom 5.0602678000888490 7.1592576644889521 12.7999450747388721 S
atom 0.0166408655164095 2.1178224736627946 17.1637399314675250 S
atom 5.0240757212278409 2.9237748805710342 17.8070229162465203 S
atom 0.0563102145302843 7.8915403872686376 17.8070428989247915 S
atom 5.0584474314715075 7.1596290396179665 17.1637399314675250 S
atom 0.2857777492079328 0.1815667915254206 19.9882547269356294 Ba
atom 5.1862132402436139 0.3229181901114355 19.9882267805286382 Ba
atom 0.2184477335460386 5.2906836968090403 19.9882467632069449 Ba
atom 5.3275843151630395 5.2233733574805763 19.9882547269356294 Ba
atom -0.2858619275720662 -0.1814826131612863 24.9964109576970834 Ba
atom 4.8232746540449476 -0.2487929524897481 24.9964189214257928 Ba
atom -0.1444908526526185 4.7189725542078831 24.9964389041040924 Ba
atom 4.7559446383830775 4.8603239527938618 24.9964109576970834 Ba
atom 2.5208611937955006 2.5209453721596411 22.4923328423163689 Zr
atom 7.5256472301218240 2.5579659017884211 22.4923228509771960 Zr
atom 2.5578817234242779 7.5257314084860294 22.4923428336555382 Zr
atom 7.5626677597506093 7.5627519381148067 22.4923328423163689 Zr
atom 2.5214528959367519 2.5225898420908548 27.5044570576412504 Zr
atom 7.5273250924611768 2.5585303569736695 27.5044544803096400 Zr
atom 2.5595595857636191 7.5262958636712769 27.5044744629879290 Zr
atom 7.5632594618918603 7.5643964080460115 27.5044570576412504 Zr
atom 2.1877479639368360 2.7884189007451257 19.9879332921356792 S
atom 7.7930930703253374 2.2248891861457603 19.9879168133819967 S
atom 2.8253275636277695 7.1926546928433561 19.9879367960603105 S
atom 7.2295545298919448 7.8302254667002886 19.9879332921356720 S
atom 2.8539744236541500 2.2534718435741641 24.9967323924971154 S
atom 7.2582013899183240 2.8910426174310864 24.9967288885724273 S
atom 2.2904358832207632 7.8588081241286938 24.9967488712507411 S
atom 7.8957809896092854 7.2952784095293230 24.9967323924971119 S
atom 2.8868652029659221 0.0198805003214344 22.1702812579778410 S
atom 7.1226226913226158 0.0542447373002534 22.8143644439765616 S
atom 2.1548571846250653 5.0220102439978671 22.8143844266549216 S
atom 7.9286717689210491 5.0616870662765967 22.1702812579778445 S
atom 2.8870418380581002 0.0203328756518620 27.8209176642584524 S
atom 7.1228996897277801 0.0547060173634606 27.1776530512065442 S
atom 2.1551341830301918 5.0224715240610696 27.1776730338848687 S
atom 7.9288484040132214 5.0621394416070169 27.8209176642584630 S
atom 0.0171419013316254 2.1179107310887182 22.8144001232648108 S
atom 5.0245804862593699 2.9239800132305769 22.1702655613679269 S
atom 0.0568149795617948 7.8917455199281914 22.1702855440462478 S
atom 5.0589484672867417 7.1597172970438629 22.8144001232648144 S
atom 0.0176466663631357 2.1181158637482582 27.1776427683861961 S
atom 5.0250815220745553 2.9240682706564924 27.8209257531651630 S
atom 0.0573160153770099 7.8918337773541003 27.8209457358434840 S
atom 5.0594532323182486 7.1599224297034239 27.1776427683861925 S
atom 0.2852093413182243 0.1820185424928800 30.0027812514515304 Ba
atom 5.1867466421979360 0.3223103040197360 30.0028155172611122 Ba
atom 0.2189811355003478 5.2900758107173376 30.0028354999394011 Ba
atom 5.3270159072733456 5.2238251084480325 30.0027812514515375 Ba
atom -0.2843352373463047 -0.1828942472651368 35.0057888584256318 Ba
atom 4.8217529444438378 -0.2471599572936391 35.0057696413832815 Ba
atom -0.1460125622537507 4.7206055494039676 35.0057896240616060 Ba
atom 4.7574713286088057 4.8589123186900256 35.0057888584256389 Ba
atom 2.5190120857129847 2.5160936469349586 32.5180379009477534 Zr
atom 7.5207767706244972 2.5561516392796682 32.5180263812979646 Zr
atom 2.5530112639269391 7.5239171459772782 32.5180463639763531 Zr
atom 7.5608186516681117 7.5579002128901216 32.5180379009477534 Zr
atom 2.5265400098330808 2.5318153570840045 37.5345029299700883 Zr
atom 7.5364722638477701 2.5636901584228649 37.5344813174123999 Zr
atom 2.5687067571502142 7.5314556651204532 37.5345013000907102 Zr
atom 7.5683465757881843 7.5736219230391733 37.5345029299700812 Zr
atom 2.1888361388630075 2.7875869039071142 30.0057594806911112 S
atom 7.7923056245221796 2.2259335639421507 30.0057603185130404 S
atom 2.8245401178246090 7.1936990706397648 30.0057803011913471 S
atom 7.2306427048181288 7.8293934698622696 30.0057594806911112 S
atom 2.8498121709813549 2.2570879195550377 35.0150142719055708 S
atom 7.2617369399432299 2.8869722388477856 35.0150031393350787 S
atom 2.2939714332456660 7.8547377455454050 35.0150231220133747 S
atom 7.8916187369364756 7.2988944855101874 35.0150142719055708 S
atom 2.8873362187075182 0.0185769991612690 32.1847255709169175 S
atom 7.1213601845704453 0.0529331682991094 32.8241680227785579 S
atom 2.1535946778728783 5.0206986749966962 32.8241880054567829 S
atom 7.9291427846626510 5.0603835651164291 32.1847255709169175 S
atom 2.8889501115787954 0.0229307059172268 37.8237975991626669 S
atom 7.1148626556650827 0.0568715901491733 37.2005359438502410 S
atom 2.1470971489675250 5.0246370968467744 37.2005559265285584 S
atom 7.9307566775338998 5.0647372718723833 37.8237975991626669 S
atom 0.0158078443148407 2.1166656370065762 32.8241822524119726 S
atom 5.0232611534572564 2.9244396457854953 32.1847206098939864 S
atom 0.0554956467597027 7.8922051524830952 32.1847405925722114 S
atom 5.0576144102699470 7.1584722029617289 32.8241822524119726 S
atom 0.0197167410865310 2.1102298786228699 37.2005625383234531 S
atom 5.0275840898433080 2.9261082102358613 37.8237885960822950 S
atom 0.0598185831457423 7.8938737169334701 37.8238085787605911 S
atom 5.0615233070416474 7.1520364445780338 37.2005625383234531 S
atom 0.2686739308949025 0.1909315821252972 39.9790131400432642 Ba
atom 5.1956251099033883 0.3057922125884346 39.9790088377338009 Ba
atom 0.2278596032058348 5.2735577192860479 39.9790288204121396 Ba
atom 5.3104804968500110 5.2327381480804620 39.9790131400432784 Ba
atom -0.1392770178404555 -0.1719715426226614 44.7738064163379761 Ba
atom 4.8327469917535995 -0.1022094324449586 44.7737998556640235 Ba
atom -0.1350185149439644 4.8655560742526509 44.7738198383423764 Ba
atom 4.9025295481146447 4.8698350233325032 44.7738064163379761 Ba
atom 2.5122078482511170 2.5041375583532028 42.5884155428353921 Zr
atom 7.5088697394765953 2.5492772130504715 42.5883925132948846 Zr
atom 2.5411042327790341 7.5170427197480851 42.5884124959731665 Zr
atom 7.5540144142062431 7.5459441243083534 42.5884155428353921 Zr
atom 2.2167260968015920 2.7733040139721132 40.0274787826728513 S
atom 7.7779776284909570 2.2538381854850091 40.0274558778605183 S
atom 2.8102121217933882 7.2216036921826214 40.0274758605388712 S
atom 7.2585326627567159 7.8151105799272660 40.0274787826728513 S
atom 2.7722449251938803 2.3463955077137730 45.0954979719343001 S
atom 7.3511240671213347 2.8093518327968630 45.0954698300044470 S
atom 2.3833585604237797 7.7771173394944650 45.0954898126826791 S
atom 7.8140514911490051 7.3882020736689267 45.0954979719343001 S
atom 2.8346939558111788 0.0225825612099345 42.2086876778071698 S
atom 7.2146446957998709 0.0566714644246909 42.7611865948342569 S
atom 2.2468791891023159 5.0244369711222943 42.7612065775124819 S
atom 7.8765005217662907 5.0643891271651009 42.2086876778071698 S
atom 0.0195843645050053 2.2099011025553086 42.7611920021764575 S
atom 5.0272928229191152 2.8717662278159368 42.2087007435913435 S
atom 0.0595273162215662 7.8395317345135300 42.2087207262696253 S
atom 5.0613909304601314 7.2517076685104662 42.7611920021764575 S
atom 2.3487577717356931 2.3818002337563291 48.1945026652363211 Ba
atom 7.3862853886109594 2.3860587366528239 48.1944892432319349 Ba
atom 2.4185198819133786 7.3538242433504140 48.1945092259103163 Ba
atom 7.3905643376908046 7.4236067997114983 48.1945026652363211 Ba
atom 2.7116608964836435 2.7897511824916887 52.9892959415309548 Ba
atom 7.7942870336443653 2.7489368548026278 52.9892802611622855 Ba
atom 2.8265215269467823 7.7167023615002348 52.9893002438405176 Ba
atom 7.7534674624387652 7.8315577484468424 52.9892959415309548 Ba
atom 5.0248668727115380 5.0332850998479248 50.3798935387388482 Zr
atom 10.0377720341063874 5.0621814843758477 50.3798965856011591 Zr
atom 5.0700065274088137 10.0299469910734622 50.3799165682793983 Zr
atom 10.0666734386666583 10.0750916658030967 50.3798935387388482 Zr
atom 5.0525446714423410 5.0476172614298864 55.4338061516041520 Zr
atom 10.0521849794787688 5.0897840087470057 55.4338077814835302 Zr
atom 5.0844194727811987 10.0575495154446344 55.4338277641618191 Zr
atom 10.0943512373974364 10.0894238273850618 55.4338061516041520 Zr
atom 4.8671248220721042 5.2933221767906824 47.8728111096400610 S
atom 10.2978466538527798 4.9044358120205889 47.8728192688916110 S
atom 5.3300811471551830 9.8722013187182007 47.8728392515698431 S
atom 9.9089313880272005 10.3351287427458551 47.8728111096400610 S
atom 5.2940333283304248 4.7378033483984039 52.9408302989014601 S
atom 9.7423330065408980 5.3312893733902005 52.9408332210354615 S
atom 4.7745674998433500 10.2990548800878123 52.9408532037137718 S
atom 10.3358398942855718 9.7796099143535358 52.9408302989014601 S
atom 4.7306304169136295 2.5406616161017954 50.2071170793978183 S
atom 10.3602610488717843 2.5806045678183565 50.7595883553046505 S
atom 5.3924955421742693 7.5483700745159501 50.7596083379829466 S
atom 9.7724369828687490 7.5824681820569486 50.2071170793978183 S
atom 4.6309591929812095 2.5407939926833247 55.7677465432508939 S
atom 10.4146030312917368 2.5808958347425253 55.1445005028137629 S
atom 5.4468375245941738 7.5486613414401464 55.1445204854919808 S
atom 9.6727657589363201 7.5826005586384753 55.7677465432508939 S
atom 2.5433118755682811 5.3557712074079857 50.7596214037671487 S
atom 7.5451662854805956 4.7679564406990966 50.2071025040618011 S
atom 2.5774007787830393 9.7357219473967014 50.2071224867401753 S
atom 7.5851184415234139 10.3975777733631638 50.7596214037671558 S
atom 2.5436600202755799 5.4100273631755966 55.1445114824116516 S
atom 7.5453664112050767 4.6681744005643235 55.7677531550456891 S
atom 2.5776009045075265 9.6359399072619532 55.7677731377240349 S
atom 7.5854665862307042 10.4518339291307605 55.1445114824116445 S
atom 2.3378350670932107 2.2367420142504879 57.9625202231485446 Ba
atom 7.2413348637622805 2.3750646893430405 57.9625194575126557 Ba
atom 2.2735693570647211 7.3428301960406470 57.9625394401909517 Ba
atom 7.3796416330483403 7.2785485802056353 57.9625202231485446 Ba
atom 2.7027478568512278 2.8062865929150145 62.9655278301227241 Ba
atom 7.8108051250756612 2.7400583870971378 62.9654735816349316 Ba
atom 2.8430396183780764 7.7078238937947576 62.9654935643132703 Ba
atom 7.7445544228063330 7.8480931588701859 62.9655278301227312 Ba
atom 5.0368229612933000 5.0400893373097837 60.4502711806265509 Zr
atom 10.0446464603355388 5.0740885155237541 60.4502627175979441 Zr
atom 5.0768809536380015 10.0418540222213579 60.4502827002761975 Zr
atom 10.0786295272483652 10.0818959032649857 60.4502711806265509 Zr
atom 5.0433191564491651 5.0425301475335695 65.4638520239329864 Zr
atom 10.0470251780295481 5.0806368373604229 65.4638346185864464 Zr
atom 5.0792596713320046 10.0484023440580579 65.4638546012647566 Zr
atom 10.0851257224043014 10.0843367134887529 65.4638520239330148 Zr
atom 4.7778172339133613 5.3708894225781689 57.9532948096688116 S
atom 10.3754670599037002 4.8150486848424556 57.9532859595609224 S
atom 5.4077015532061443 9.7828141915401297 57.9533059422392327 S
atom 9.8196237998684541 10.4126959885333203 57.9532948096688045 S
atom 5.3083162182654302 4.7099133904598087 62.9625496008833210 S
atom 9.7144283849980670 5.3456173694214257 62.9625287803829963 S
atom 4.7466628783004881 10.3133828761189950 62.9625487630612639 S
atom 10.3501227842205470 9.7517199564149859 62.9625496008833210 S
atom 4.6373949513648975 2.5368850959116278 60.1441268291623103 S
atom 10.4129344668413673 2.5765728983564880 60.7835684890020786 S
atom 5.4451689601438185 7.5443384050540976 60.7835884716803605 S
atom 9.6792015173200188 7.5786916618667854 60.1441268291623246 S
atom 4.6388451781066005 2.5387239179599197 65.7906663131882397 S
atom 10.4125630917123768 2.5783932669737952 65.1473633457307670 S
atom 5.4447975850148147 7.5461587736714035 65.1473833284091199 S
atom 9.6806517440616773 7.5805304839150978 65.7906663131882539 S
atom 2.5393063135196221 5.4084134703043381 60.7835835106574081 S
atom 7.5414279893550136 4.6746719294696852 60.1441210761174787 S
atom 2.5736624826574577 9.6424374361672847 60.1441410587957321 S
atom 7.5811128794747473 10.4502200362594913 60.7835835106574081 S
atom 2.5410621900102082 5.4081190896549165 65.1473914173158875 S
atom 7.5432008384193709 4.6762114346270156 65.7906360476895458 S
atom 2.5754353317218115 9.6439769413246026 65.7906560303678276 S
atom 7.5828687559653192 10.4499256556100928 65.1473914173158590 S
atom 2.3392467011970695 2.2352153240247183 67.9718981238772670 Ba
atom 7.2397018685661694 2.3765863989441653 67.9718701774703220 Ba
atom 2.2719363618685953 7.3443519056417754 67.9718901601486607 Ba
atom 7.3810532671521711 7.2770218899798884 67.9718981238772670 Ba
atom 2.7022961058837645 2.8068550008047248 72.9800543546386820 Ba
atom 7.8114130111673354 2.7395249851428383 72.9800623183673736 Ba
atom 2.8436475044697818 7.7072904918404310 72.9800823010455701 Ba
atom 7.7441026718388777 7.8486615667598834 72.9800543546386820 Ba
atom 5.0416746865179700 5.0419384453923062 70.4759762392581166 Zr
atom 10.0464607228443175 5.0789589750210702 70.4759662479189046 Zr
atom 5.0786952161467527 10.0467244817186998 70.4759862305972149 Zr
atom 10.0834812524731063 10.0837450113474798 70.4759762392581166 Zr
atom 5.0400302165867688 5.0413467432510428 75.4881004545829626 Zr
atom 10.0458962676590566 5.0772811126817263 75.4880978772511355 Zr
atom 5.0781307609614972 10.0450466193792955 75.4881178599294174 Zr
atom 10.0818367825418616 10.0831533092061942 75.4881004545829910 Zr
atom 4.7742011579324872 5.3750516752509752 67.9715766890773097 S
atom 10.3795374384869739 4.8115131348175533 67.9715602103234460 S
atom 5.4117719317894277 9.7792786415152015 67.9715801930018131 S
atom 9.8160077238876315 10.4168582412061053 67.9715766890772954 S
atom 5.3091482151034679 4.7088252155336185 72.9803757894386536 S
atom 9.7133840072016433 5.3464048152245987 72.9803722855140791 S
atom 4.7456185005040714 10.3141703219221483 72.9803922681924035 S
atom 10.3509547810585723 9.7506317814888028 72.9803757894386820 S
atom 4.6386400454470520 2.5382191529284199 70.1539089583096427 S
atom 10.4124748342864741 2.5778922311585823 70.7980235375278539 S
atom 5.4447093275888907 7.5456577378561898 70.7980435202062637 S
atom 9.6804466114021466 7.5800257188835625 70.1539089583096427 S
atom 4.6385517880211307 2.5377181171131982 75.8045691501066727 S
atom 10.4122697016268795 2.5773874661270746 75.1612661826494133 S
atom 5.4445041949293476 7.5451529728246882 75.1612861653276525 S
atom 9.6803583539762368 7.5795246830683629 75.8045691501066727 S
atom 2.5406098146797738 5.4079424545627459 70.7980278235964136 S
atom 7.5427395583561658 4.6759344362218620 70.1539246549194502 S
atom 2.5749740516586050 9.6436999429194881 70.1539446375978599 S
atom 7.5824163806348936 10.4497490205178938 70.7980278235964136 S
atom 2.5401485346165766 5.4076654561575861 75.1613164308264317 S
atom 7.5422871830257465 4.6757578011296834 75.8045610612002037 S
atom 2.5745216763281662 9.6435233078272979 75.8045810438784144 S
atom 7.5819551005716903 10.4494720221127402 75.1613164308264317 S
atom 2.3387949502296035 2.2357837319144345 77.9864246483930827 Ba
atom 7.2403097546578632 2.3760529969898605 77.9864589142027853 Ba
atom 2.2725442479603104 7.3438185036874613 77.9864788968812235 Ba
atom 7.3806015161847505 7.2775902978695752 77.9864246483930827 Ba
atom 2.7037077399876153 2.8053283105789553 82.9894322553673618 Ba
atom 7.8097800159712385 2.7410466947439645 82.9894130383250825 Ba
atom 2.8420145092736688 7.7088122014415426 82.9894330210033218 Ba
atom 7.7455143059427218 7.8471348765341293 82.9894322553673618 Ba
atom 5.0465264117426489 5.0437875534748082 80.5016812978893768 Zr
atom 10.0482749853530766 5.0838294345184183 80.5016697782397017 Zr
atom 5.0805094786555145 10.0515949412159955 80.5016897609180262 Zr
atom 10.0883329776977551 10.0855941194299685 80.5016812978893768 Zr
atom 5.0308047015936088 5.0362596293547162 85.5181463269117472 Zr
atom 10.0407364662098413 5.0681339412951409 85.5181247143543288 Zr
atom 5.0729709595123280 10.0358994479927794 85.5181446970325396 Zr
atom 10.0726112675487514 10.0780661953098694 85.5181463269117330 Zr
atom 4.7750331547705080 5.3739635003247948 77.9894028776326707 S
atom 10.3784930606905803 4.8123005806207289 77.9894037154546140 S
atom 5.4107275539930075 9.7800660873183265 77.9894236981328390 S
atom 9.8168397207255911 10.4157700662799400 77.9894028776326707 S
atom 5.3055321391225823 4.7129874682064230 82.9986576688473150 S
atom 9.7174543857849649 5.3428692651996856 82.9986465362767802 S
atom 4.7496888790873770 10.3106347718972575 82.9986665189549626 S
atom 10.3473387050777106 9.7547940341615913 82.9986576688473150 S
atom 4.6381804128921313 2.5395384857305090 80.1683640068352616 S
atom 10.4137199283685984 2.5792262881753625 80.8078056666753213 S
atom 5.4459544216710318 7.5469917948729783 80.8078256493534752 S
atom 9.6799869788472535 7.5813450516856760 80.1683640068352616 S
atom 4.6365118484417520 2.5352155493444588 85.8074319930238119 S
atom 10.4201556867522989 2.5753173914036807 85.1841859525867164 S
atom 5.4523901800547394 7.5430828981012787 85.1842059352651262 S
atom 9.6783184143968839 7.5770221152996333 85.8074319930238119 S
atom 2.5419213836809229 5.4092049613149191 80.8078314023982074 S
atom 7.5440430595163290 4.6754634204802743 80.1683689678583278 S
atom 2.5762775528187771 9.6432289271778515 80.1683889505366807 S
atom 7.5837279496360477 10.4510115272700812 80.8078314023981932 S
atom 2.5379829618308611 5.4157024902202755 85.1841993234701675 S
atom 7.5396893527603615 4.6738495276089997 85.8074409961040487 S
atom 2.5719238460627998 9.6416150343065716 85.8074609787824443 S
atom 7.5797895277859872 10.4575090561754180 85.1841993234701675 S
atom 2.3298819105971815 2.2523191423377624 87.9626565369846389 Ba
atom 7.2568278460891573 2.3671745292843687 87.9626522346753461 Ba
atom 2.2890623393916005 7.3349400359819663 87.9626722173534574 Ba
atom 7.3716884765522988 7.2941257082929116 87.9626565369846389 Ba
atom 2.6927850353451399 2.6602700910731110 92.7574498132795782 Ba
atom 7.6648294911225427 2.7300526474341731 92.7574432526055546 Ba
atom 2.6970639844249962 7.6978181541318005 92.7574632352839643 Ba
atom 7.7345916013002514 7.7020766570282762 92.7574498132795782 Ba
atom 5.0584825003244287 5.0505917909366786 90.5720589397769373 Zr
atom 10.0551494115822244 5.0957364656663033 90.5720359102364796 Zr
atom 5.0873839048846863 10.0635019723639143 90.5720558929147757 Zr
atom 10.1002890662794993 10.0923983568918523 90.5720589397769373 Zr
atom 4.7893160447055196 5.3460735423861916 88.0111221796145315 S
atom 10.3505884391477068 4.8266285766519523 88.0110992748020919 S
atom 5.3828229324501544 9.7943940833495589 88.0111192574804164 S
atom 9.8311226106605947 10.3878801083413919 88.0111221796145315 S
atom 5.2162245509638163 4.7905547139939122 93.0791413688758666 S
atom 9.7950747918358729 5.2534821380215710 93.0791132269459780 S
atom 4.8273092851383170 10.2212476447191563 93.0791332096242598 S
atom 10.2580311169189553 9.8323612799490796 93.0791413688758666 S
atom 4.6908538308616832 2.5355068162686374 90.1923441405328674 S
atom 10.3204844628198789 2.5754497679852060 90.7448154164397494 S
atom 5.3527189561223114 7.5432152746827921 90.7448353991180738 S
atom 9.7326603968168257 7.5773133822238261 90.1923441405328674 S
atom 2.5381830875553484 5.3159204500854909 90.7448499744538850 S
atom 7.5400374974676643 4.7281056833765991 90.1923310747488216 S
atom 2.5722719907701075 9.6958711900742180 90.1923510574271603 S
atom 7.5799896535104576 10.3577270160406680 90.7448499744538850 S
