#=======================================================
# FHI-aims file: sym_relax/sym_relax_RP_5_RxRyMz_-Rx-Ry-Mz.in
# Created using the Atomic Simulation Environment (ASE)
# Fri Mar 14 10:56:33 2025
#=======================================================
lattice_vector 10.0204470837181070 -0.0520323269142539 -0.0150103975558049 
lattice_vector -0.0520323269142539 10.0204470837181052 0.0150103975558049 
lattice_vector -0.0841262049123542 0.0841262049123542 55.8279991603359136 
atom 0.0751447180189820 -0.1299333735000124 0.2251784059491455 Ba
atom 5.1401569153590572 -0.1011608814761070 0.2176732071712426 Ba
atom 0.1039172100428851 4.9350788238400742 0.2326836047270471 Ba
atom 5.0593520964209011 4.8542740049019137 0.2251784059491455 Ba
atom -0.2879490014453870 0.2181193731534774 5.0023533603603108 Ba
atom 4.7921041687055697 0.2619328379882590 4.9948481615824072 Ba
atom -0.2441355366106039 5.2981725433044291 5.0098585591382179 Ba
atom 4.6962583769565311 5.2023267515554057 5.0023533603603099 Ba
atom 2.4693565199524312 2.5198149004986541 2.3954322607174050 Zr
atom 7.4746160197623226 2.4888346949923590 2.3879270619395059 Zr
atom 2.4383763144461472 7.5250744003085375 2.4029374594953068 Zr
atom 7.4535638983543606 7.5040222789005666 2.3954322607174046 Zr
atom 2.4573139518034846 2.5233113229339157 7.4471820438606171 Zr
atom 7.4711195973270677 2.5008772631413114 7.4396768450827109 Zr
atom 2.4348798920108821 7.5371169684574904 7.4546872426385118 Zr
atom 7.4415213302054060 7.5075187013358278 7.4471820438606162 Zr
atom 2.6302746632718219 2.7838916285334099 -0.1091760961536540 S
atom 7.2105392917275672 2.3279165516729736 -0.1166812949315570 S
atom 2.1742995864113883 7.3641562569891539 -0.1016708973757520 S
atom 7.6144820416737575 7.7680990069353104 -0.1091760961536540 S
atom 2.2056035276755970 2.2149086895956134 4.9531607277288900 S
atom 7.7795222306653553 2.7525876872692008 4.9456555289509980 S
atom 2.7432825253491897 7.7888273925853717 4.9606659265067963 S
atom 7.1898109060775139 7.1991160679975357 4.9531607277288909 S
atom 2.7397223351817219 0.0245580337178808 2.2183003968365256 S
atom 7.1697707874375780 0.0011908053365471 2.7625494793418901 S
atom 2.1335310821213884 5.0374305106527260 2.7775598768976968 S
atom 7.7239297135836651 5.0087654121197964 2.2183003968365256 S
atom 2.8637058507961868 0.0129675208911148 7.7712797644365477 S
atom 7.1109660779583121 -0.0082120870547943 7.1391983682324121 S
atom 2.0747263726421501 5.0280276182613823 7.1542087657882218 S
atom 7.8479132291981015 4.9971748992930491 7.7712797644365468 S
atom -0.0505741971750075 2.2705012066773214 2.2258055956144260 S
atom 4.9570004096082556 2.8246601328234076 2.7700546781197981 S
atom -0.0792392957079265 7.8608998381395674 2.7850650756755986 S
atom 4.9336331812269139 7.2547085850792410 2.2258055956144265 S
atom -0.0389836843482418 2.1465176910628623 7.7787849632144592 S
atom 4.9664033019995903 2.8834648423026472 7.1467035670103218 S
atom -0.0698364033165850 7.9197045476188235 7.1617139645661352 S
atom 4.9452236940536851 7.1307250694647841 7.7787849632144601 S
atom 0.2527005446516667 -0.1588846745179623 9.9655614555647691 Ba
atom 5.1691082163770128 -0.2787167081087925 9.9580562567868807 Ba
atom 0.1328685110608358 4.7575229972073894 9.9730666543426700 Ba
atom 5.2369079230535940 4.8253227038839643 9.9655614555647674 Ba
atom -0.2902568861303959 0.1964410159966909 14.9576524552994670 Ba
atom 4.8137825258623570 0.2642407226732685 14.9501472565215678 Ba
atom -0.2224571794538168 5.3004804279894406 14.9651576540773750 Ba
atom 4.6939504922715365 5.1806483943986210 14.9576524552994670 Ba
atom 2.4733255184615985 2.5108818599403229 12.4616069554321136 Zr
atom 7.4835490603206338 2.4848656964832001 12.4541017566542234 Zr
atom 2.4473093550044744 7.5211054017993666 12.4691121542100287 Zr
atom 7.4575328968635173 7.4950892383422500 12.4616069554321136 Zr
atom 2.4893370851197107 2.4984523969467358 17.4760318670036199 Zr
atom 7.4959785233142426 2.4688541298250901 17.4685266682257101 Zr
atom 2.4597388179980633 7.5050938351412535 17.4835370657815190 Zr
atom 7.4735444635216464 7.4826597753486492 17.4760318670036199 Zr
atom 2.7367992634573359 2.8474339839985774 9.9598570851922688 S
atom 7.1469969362623980 2.2213919514874534 9.9523518864143590 S
atom 2.1107572309462208 7.2576316568036390 9.9673622839701768 S
atom 7.7210066418592627 7.8316413624004939 9.9598570851922723 S
atom 2.2098517734658518 2.1743297358820737 14.9633568256719673 S
atom 7.8201011843789008 2.7483394414789371 14.9558516268940664 S
atom 2.7838614790627201 7.7845791467951075 14.9708620244498629 S
atom 7.1940591518677852 7.1585371142839991 14.9633568256719656 S
atom 2.8633071137263770 0.0045007859925308 12.1378223038133495 S
atom 7.1195836285129959 -0.0189767714280548 12.7703812094950813 S
atom 2.0833439231968067 5.0172629338881176 12.7853916070508866 S
atom 7.8475144921283073 4.9887081643944597 12.1378223038133459 S
atom 2.8719246642810443 -0.0062638983807294 17.7690051450760294 S
atom 7.1191848914431812 -0.0274435063266383 17.1369237488718795 S
atom 2.0829451861270067 5.0087961989895389 17.1519341464276920 S
atom 7.8561320426829706 4.9779434800211959 17.7690051450760329 S
atom -0.0305169494496576 2.1469164281326689 12.1453275025912628 S
atom 4.9771679863728551 2.8748472917479848 12.7778864082729946 S
atom -0.0590717189433236 7.9110869970641637 12.7928968058288017 S
atom 4.9536904289522710 7.1311238065345810 12.1453275025912628 S
atom -0.0197522650763967 2.1382988775780025 17.7765103438539356 S
atom 4.9856347212714383 2.8752460288177875 17.1444289476497929 S
atom -0.0506049840447401 7.9114857341339695 17.1594393452056018 S
atom 4.9644551133255330 7.1225062559799142 17.7765103438539356 S
atom 0.2503926599666577 -0.1805630316747491 19.9208605505039529 Ba
atom 5.1907865735338046 -0.2764088234237828 19.9133553517260822 Ba
atom 0.1545468682176225 4.7598308818924018 19.9283657492818556 Ba
atom 5.2346000383685718 4.8036443467271646 19.9208605505039529 Ba
atom -0.1127010594977108 0.1674897149787406 24.6980355049150901 Ba
atom 4.8427338268802913 0.0866848960405847 24.6905303061371839 Ba
atom -0.1935058784358665 5.1229246013567602 24.7055407036930070 Ba
atom 4.8715063189042214 5.1516970933806547 24.6980355049150866 Ba
atom 2.4772945169707570 2.5019488193819988 22.5277816501468635 Zr
atom 7.4924821008789726 2.4808966979740377 22.5202764513689395 Zr
atom 2.4562423955627914 7.5171364032902028 22.5352868489247555 Zr
atom 7.4615018953726757 7.4861561977839290 22.5277816501468635 Zr
atom 2.7410475092475952 2.8068550302850368 19.9700531831353949 S
atom 7.1875758899759292 2.2171437056972034 19.9625479843575171 S
atom 2.1513361846597605 7.2533834110133713 19.9775583819133011 S
atom 7.7252548876495348 7.7910624086869591 19.9700531831353949 S
atom 2.3163763736513734 2.2378720913472425 25.0323900070179199 S
atom 7.7565588289137324 2.6418148412934204 25.0248848082400066 S
atom 2.7203191235975526 7.6780545466096006 25.0398952057958191 S
atom 7.3005837520532912 7.2220794697491701 25.0323900070179199 S
atom 2.8131199548018113 -0.0156667907720717 22.1456540339665828 S
atom 7.2431684070576505 -0.0390340191534046 22.6899031164719140 S
atom 2.2069287017414685 4.9972056861627721 22.7049135140277372 S
atom 7.7973273332037119 4.9685405876298647 22.1456540339665793 S
atom -0.0103493726850546 2.1971035870572502 22.1531592327444606 S
atom 4.9972252340982015 2.7512625132033262 22.6974083152498274 S
atom -0.0390144712179740 7.7875022185195011 22.7124187128056256 S
atom 4.9738580057168686 7.1813109654591649 22.1531592327444606 S
atom 2.5799739602447955 2.4590220736381561 28.1391779861171152 Ba
atom 7.5354088466228157 2.3782172546999982 28.1316727873392232 Ba
atom 2.4991691413066444 7.4144569600161692 28.1466831848950072 Ba
atom 7.5641813386467227 7.4432294520400824 28.1391779861171116 Ba
atom 2.2319212135913098 2.8221157931025282 32.9163529405282986 Ba
atom 7.1723151271584502 2.7262700013534888 32.9088477417502929 Ba
atom 2.1360754218422771 7.7625097066696593 32.9238581393061480 Ba
atom 7.2161285919932343 7.8063231715044390 32.9163529405282986 Ba
atom 4.9144330646480618 5.0490176501066273 30.3094318408853347 Zr
atom 9.9296206485562521 5.0279655286986591 30.3019266421074640 Zr
atom 4.8933809432400963 10.0642052340148442 30.3169370396632374 Zr
atom 9.8986404430500023 10.0332250285085571 30.3094318408853347 Zr
atom 4.9109366422127900 5.0610602182555819 35.3611816240285606 Zr
atom 9.9175780804073206 5.0314619511339167 35.3536764252507183 Zr
atom 4.8813383750911354 10.0677016564500974 35.3686868228064526 Zr
atom 9.8951440206147172 10.0452675966575153 35.3611816240285606 Zr
atom 4.6503563366133003 4.8880995067872313 27.8048234840142925 S
atom 10.0905387918756606 5.2920422567334136 27.7973182852364076 S
atom 5.0542990865594932 10.3282819620495943 27.8123286827921739 S
atom 9.6345637150152132 9.8723068851891806 27.8048234840142925 S
atom 5.2193392755510892 5.3127706423834704 32.8671603078967820 S
atom 9.6658676562794241 4.7230593177956326 32.8596551091189042 S
atom 4.6296279509632488 9.7592990231117920 32.8746655066747664 S
atom 10.2035466539530422 10.2969780207853692 32.8671603078967820 S
atom 4.6095878323233155 2.5613737604508033 30.6840542582877482 S
atom 10.1999864637855584 2.5327086619178916 30.1247947782265726 S
atom 5.1637467584693946 7.5689483672340625 30.1398051757823637 S
atom 9.5937952107252151 7.5455811388527252 30.6840542582877482 S
atom 4.5507831228440683 2.5519708680594677 35.0607031471782520 S
atom 10.3239699794000419 2.5211181490911283 35.6777741458266107 S
atom 5.2877302740838523 7.5573578544072966 35.6927845433824800 S
atom 9.5349905012459839 7.5361782464613967 35.0607031471782520 S
atom 2.3968174544939878 5.3848430879376616 30.6915594570656438 S
atom 7.4096899314288205 4.7786518348773397 30.1322999770044824 S
atom 2.3734502261126549 9.8148915401935053 30.1473103745602735 S
atom 7.3810248328959132 10.3690504663396119 30.6915594570656474 S
atom 2.4062203468853314 5.4436477974169133 35.0682083459561724 S
atom 7.4212804442555917 4.6546683192628766 35.6852793446045666 S
atom 2.3850407389394226 9.6909080245790680 35.7002897421603507 S
atom 7.3904277252872443 10.4278551758188129 35.0682083459561724 S
atom 2.6089252612627498 2.2814662470054738 37.8795610357327348 Ba
atom 7.7129646732555104 2.3492659536820470 37.8720558369548499 Ba
atom 2.6767249679393270 7.3855056589982198 37.8870662345106126 Ba
atom 7.5931326396646703 7.2656736254074028 37.8795610357327348 Ba
atom 2.2535995707480949 2.8244236777875273 42.8716520354674060 Ba
atom 7.1700072424734360 2.7045916441967042 42.8641468366895779 Ba
atom 2.1337675371572686 7.7408313495128755 42.8791572342453122 Ba
atom 7.2378069491500137 7.8086310561894532 42.8716520354674060 Ba
atom 4.9233661052063775 5.0450486515974671 40.3756065356000917 Zr
atom 9.9335896470654195 5.0190324881403328 40.3681013368221926 Zr
atom 4.8973499417492627 10.0552721934565135 40.3831117343779695 Zr
atom 9.9075734836083011 10.0292560299993738 40.3756065356000917 Zr
atom 4.9357955681999695 5.0290370849393469 45.3900314471715589 Zr
atom 9.9496012137235414 5.0066030251467435 45.3825262483936953 Zr
atom 4.9133615084073776 10.0428427304629153 45.3975366459494154 Zr
atom 9.9200029466018922 10.0132444633412554 45.3900314471715589 Zr
atom 4.5868139811481372 4.7815749066017270 37.8738566653603144 S
atom 10.1970633920611746 5.3555846121985748 37.8663514665824579 S
atom 5.1608236867449984 10.3918243175147555 37.8813618641381851 S
atom 9.5710213595500200 9.7657822850036453 37.8738566653603144 S
atom 5.2599182292646418 5.3085223965931938 42.8773564058398904 S
atom 9.6701159020696892 4.6824803640820880 42.8698512070619557 S
atom 4.6338761967535183 9.7187200693982607 42.8848616046177753 S
atom 10.2441256076665628 10.2927297749951485 42.8773564058398904 S
atom 4.5594006733987253 2.5412061836862092 40.6918859884409514 S
atom 10.3235712423302122 2.5126514141925407 40.0443166852033983 S
atom 5.2873315370140421 7.5488911195087240 40.0593270827592391 S
atom 9.5436080518006570 7.5254135620881302 40.6918859884409443 S
atom 4.5590019363289231 2.5327394487876282 45.0584285278177390 S
atom 10.3321887928848799 2.5018867298192875 45.6754995264660693 S
atom 5.2959490875687036 7.5381264351354673 45.6905099240218817 S
atom 9.5432093147308343 7.5169468271895523 45.0584285278177461 S
atom 2.4169850312585854 5.4350302468622527 40.6993911872189074 S
atom 7.4297471791541811 4.6550670563326655 40.0518218839813116 S
atom 2.3935074738380040 9.6913067616488462 40.0668322815370956 S
atom 7.4011924096605206 10.4192376252641630 40.6993911872189074 S
atom 2.4254517661571713 5.4354289839320442 45.0659337265956381 S
atom 7.4405118635274459 4.6464495057780075 45.6830047252440039 S
atom 2.4042721582112621 9.6826892110941749 45.6980151227997737 S
atom 7.4096591445591082 10.4196363623339803 45.0659337265956381 S
atom 2.6306036184195323 2.2837741316904787 47.8348601306718706 Ba
atom 7.7106567885704917 2.3275875965252641 47.8273549318940496 Ba
atom 2.6744170832543208 7.3638273018414475 47.8423653294498550 Ba
atom 7.6148109968214612 7.2679815100924001 47.8348601306718706 Ba
atom 2.2825508717660492 2.6468678511548434 52.6120350850830292 Ba
atom 7.3475630691061209 2.6756403431787561 52.6045298863051585 Ba
atom 2.3113233637899557 7.7118800484949288 52.6195402838609780 Ba
atom 7.2667582501679844 7.6310752295567656 52.6120350850830292 Ba
atom 4.9322991457647136 5.0410796530882909 50.4417812303148096 Zr
atom 9.9375586455746117 5.0100994475820118 50.4342760315369745 Zr
atom 4.9013189402584167 10.0463391528981738 50.4492864290927514 Zr
atom 9.9165065241666461 10.0252870314902047 50.4417812303148168 Zr
atom 4.6273929348616791 4.7773266608114628 47.8840527633033304 S
atom 10.2013116378514397 5.3150056584850462 47.8765475645254028 S
atom 5.1650719325352643 10.3512453638012367 47.8915579620811940 S
atom 9.6116003132636099 9.7615340392133785 47.8840527633033304 S
atom 5.1963758737994707 5.2019977964076878 52.9463895871858554 S
atom 9.7766405022552156 4.7460227195472449 52.9388843884080060 S
atom 4.7404007969390332 9.7822624248634416 52.9538947859638256 S
atom 10.1805832522013997 10.1862051748095901 52.9463895871858554 S
atom 4.6829854519433809 2.5211489359608610 50.6114078954177344 S
atom 10.2733840834056416 2.4924838374279417 50.0521484153565979 S
atom 5.2371443780894626 7.5287235427441166 50.0671588129124387 S
atom 9.6671928303452894 7.5053563143627819 50.6114078954177344 S
atom 2.4370422789839328 5.3114454683176033 50.6189130941956620 S
atom 7.4499147559187824 4.7052542152572654 50.0596536141345112 S
atom 2.4136750506026057 9.7414939205734257 50.0746640116902952 S
atom 7.4212496573858600 10.2956528467195145 50.6189130941956620 S
