#=======================================================
# FHI-aims file: sym_relax/sym_relax_RP_4_RxRyMz_RxRyMz.in
# Created using the Atomic Simulation Environment (ASE)
# Fri Mar 14 10:29:32 2025
#=======================================================
lattice_vector 10.0264918163595826 -0.0378873949639030 -0.0000000000000000 
lattice_vector -0.0378873949639029 10.0264918163595773 -0.0000000000000000 
lattice_vector -0.0000000000000000 -0.0000000000000000 45.7601674851528628 
atom 0.1048447278713864 -0.1656660065484117 0.2242172154686226 Ba
atom 5.1789119147281966 -0.1237884253533388 0.2242172154686226 Ba
atom 0.1467223090664599 4.9084011803084113 0.2242172154686226 Ba
atom 5.0991469385692234 4.8286362041494266 0.2242172154686226 Ba
atom -0.2479077635666696 0.1834983982665824 4.9894225607364158 Ba
atom 4.8297475099132061 0.2289640660847182 4.9894225607364158 Ba
atom -0.2024420957485333 5.2611536717464560 4.9894225607364158 Ba
atom 4.7463944471311628 5.1778006089644215 4.9894225607364158 Ba
atom 2.5077149362655038 2.4902341795651548 2.3899362134695266 Zr
atom 7.5173139393124746 2.4676435769503811 2.3899362134695266 Zr
atom 2.4851243336507305 7.4998331826121216 2.3899362134695266 Zr
atom 7.5020171469633423 7.4845363902629876 2.3899362134695266 Zr
atom 2.4948758530600670 2.4977075669914077 7.4405555845292515 Zr
atom 7.5098405518862208 2.4804826601558219 7.4405555845292515 Zr
atom 2.4776509462244771 7.5126722658175611 7.4405555845292515 Zr
atom 7.4891780637579100 7.4920097776892449 7.4405555845292515 Zr
atom 2.6745675633982695 2.7549552224716498 -0.1144486703321866 S
atom 7.2525928964059734 2.3007909498176158 -0.1144486703321866 S
atom 2.2204032907442368 7.3329805554793523 -0.1144486703321866 S
atom 7.6688697740961080 7.7492574331694826 -0.1144486703321866 S
atom 2.2411760308657627 2.1855062339656892 4.9447687613528091 S
atom 7.8220418849119344 2.7341824823501253 4.9447687613528091 S
atom 2.7898522792501992 7.7663720880118587 4.9447687613528091 S
atom 7.2354782415635999 7.1798084446635224 4.9447687613528091 S
atom 2.7669114466737903 -0.0075579665685095 2.2141570595280289 S
atom 7.2235348811993383 -0.0230009875040239 2.7654563409522286 S
atom 2.1913452755376004 5.0091886181577125 2.7654563409522286 S
atom 7.7612136573716235 4.9867442441293317 2.2141570595280289 S
atom 2.8899399825105956 -0.0133049741883384 7.7607222860881837 S
atom 7.1497213241175217 -0.0278629476726737 7.1361773407875786 S
atom 2.1175317184557803 5.0043266579890711 7.1361773407875786 S
atom 7.8842421932084390 4.9809972365095021 7.7607222860881837 S
atom -0.0113857309134417 2.2463344615059935 2.2141570595280289 S
atom 4.9983595007199151 2.7840132376782822 2.7654563409522286 S
atom -0.0338301049418310 7.8162028433400250 2.7654563409522286 S
atom 4.9829164797843983 7.2406366722038342 2.2141570595280289 S
atom -0.0056387232936128 2.1233059256691935 7.7607222860881837 S
atom 5.0032214608885646 2.8578267947601081 7.1361773407875786 S
atom -0.0289681447731813 7.8900164004218531 7.1361773407875786 S
atom 4.9886634874042235 7.1176081363670267 7.7607222860881837 S
atom 0.2719504301914184 -0.1837996559988282 9.9478624967723572 Ba
atom 5.1970455641786257 -0.2908941276733697 9.9478624967723572 Ba
atom 0.1648559585168770 4.7412954779883689 9.9478624967723572 Ba
atom 5.2662526408892560 4.8105025546990037 9.9478624967723572 Ba
atom -0.2479077635666697 0.1834983982665824 14.9063024328083031 Ba
atom 4.8297475099132061 0.2289640660847182 14.9063024328083031 Ba
atom -0.2024420957485333 5.2611536717464560 14.9063024328083031 Ba
atom 4.7463944471311628 5.1778006089644215 14.9063024328083031 Ba
atom 2.4948758530600670 2.4977075669914077 12.4551694090154665 Zr
atom 7.5098405518862208 2.4804826601558219 12.4551694090154665 Zr
atom 2.4776509462244771 7.5126722658175611 12.4551694090154665 Zr
atom 7.4891780637579100 7.4920097776892449 12.4551694090154665 Zr
atom 2.5077149362655038 2.4902341795651548 17.5057887800751892 Zr
atom 7.5173139393124746 2.4676435769503811 17.5057887800751892 Zr
atom 2.4851243336507305 7.4998331826121216 17.5057887800751892 Zr
atom 7.5020171469633423 7.4845363902629876 17.5057887800751892 Zr
atom 2.7672185265912348 2.8271922947205916 9.9478624967723572 S
atom 7.1803558241570347 2.2081399866246505 9.9478624967723572 S
atom 2.1481662184952985 7.2403295922863977 9.9478624967723572 S
atom 7.7615207372890733 7.8214945054184248 9.9478624967723572 S
atom 2.2411760308657627 2.1855062339656892 14.9509562321919010 S
atom 7.8220418849119344 2.7341824823501253 14.9509562321919010 S
atom 2.7898522792501992 7.7663720880118587 14.9509562321919010 S
atom 7.2354782415635999 7.1798084446635224 14.9509562321919010 S
atom 2.8899399825105956 -0.0133049741883384 12.1350027074565450 S
atom 7.1497213241175217 -0.0278629476726737 12.7595476527571545 S
atom 2.1175317184557803 5.0043266579890711 12.7595476527571545 S
atom 7.8842421932084390 4.9809972365095021 12.1350027074565450 S
atom 2.7669114466737903 -0.0075579665685095 17.6815679340166980 S
atom 7.2235348811993383 -0.0230009875040239 17.1302686525924948 S
atom 2.1913452755376004 5.0091886181577125 17.1302686525924948 S
atom 7.7612136573716235 4.9867442441293317 17.6815679340166980 S
atom -0.0056387232936128 2.1233059256691935 12.1350027074565450 S
atom 5.0032214608885646 2.8578267947601081 12.7595476527571545 S
atom -0.0289681447731813 7.8900164004218531 12.7595476527571545 S
atom 4.9886634874042235 7.1176081363670267 12.1350027074565450 S
atom -0.0113857309134417 2.2463344615059935 17.6815679340166980 S
atom 4.9983595007199151 2.7840132376782822 17.1302686525924948 S
atom -0.0338301049418310 7.8162028433400250 17.1302686525924948 S
atom 4.9829164797843983 7.2406366722038342 17.6815679340166980 S
atom 0.1048447278713865 -0.1656660065484117 19.6715077780761014 Ba
atom 5.1789119147281975 -0.1237884253533383 19.6715077780761014 Ba
atom 0.1467223090664603 4.9084011803084113 19.6715077780761014 Ba
atom 5.0991469385692234 4.8286362041494266 19.6715077780761014 Ba
atom 2.6745675633982708 2.7549552224716498 20.0101736638769019 S
atom 7.2525928964059752 2.3007909498176167 20.0101736638769019 S
atom 2.2204032907442377 7.3329805554793523 20.0101736638769019 S
atom 7.6688697740961080 7.7492574331694817 20.0101736638769019 S
atom 2.6019958332203039 2.3314850988005058 23.1043009580450303 Ba
atom 7.6760630200771187 2.3733626799955827 23.1043009580450303 Ba
atom 2.6438734144153768 7.4055522856573255 23.1043009580450303 Ba
atom 7.5962980439181340 7.3257873094983541 23.1043009580450303 Ba
atom 2.2492433417822473 2.6806495036155011 27.8695063033128356 Ba
atom 7.3268986152621309 2.7261151714336367 27.8695063033128356 Ba
atom 2.2947090096003864 7.7583047770953790 27.8695063033128356 Ba
atom 7.2435455524800840 7.6749517143133366 27.8695063033128356 Ba
atom 5.0048660416144175 4.9873852849140672 25.2700199560459495 Zr
atom 10.0144650446613923 4.9647946822993028 25.2700199560459495 Zr
atom 4.9822754389996584 9.9969842879610553 25.2700199560459495 Zr
atom 9.9991682523122520 9.9816874956119133 25.2700199560459495 Zr
atom 4.9920269584089834 4.9948586723403237 30.3206393271056740 Zr
atom 10.0069916572351385 4.9776337655047387 30.3206393271056740 Zr
atom 4.9748020515734028 10.0098233711664779 30.3206393271056740 Zr
atom 9.9863291691068099 9.9891608830381582 30.3206393271056740 Zr
atom 5.1717186687471903 5.2521063278205622 22.7656350722442262 S
atom 9.7497440017548840 4.7979420551665308 22.7656350722442262 S
atom 4.7175543960931590 9.8301316608282630 22.7656350722442262 S
atom 10.1660208794450231 10.2464085385184092 22.7656350722442262 S
atom 4.7383271362146822 4.6826573393146029 27.8248525039292396 S
atom 10.3191929902608557 5.2313335876990372 27.8248525039292396 S
atom 5.2870033845991093 10.2635231933607916 27.8248525039292396 S
atom 9.7326293469125247 9.6769595500124463 27.8248525039292396 S
atom 5.2640625520227040 2.4895931387804122 25.0942408021044265 S
atom 9.7206859865482613 2.4741501178448999 25.6455400835286973 S
atom 4.6884963808865141 7.5063397235066356 25.6455400835286973 S
atom 10.2583647627205323 7.4838953494782530 25.0942408021044265 S
atom 5.3870910878595151 2.4838461311605804 30.6408060286645920 S
atom 9.6468724294664341 2.4692881576762473 30.0162610833640393 S
atom 4.6146828238047020 7.5014777633379870 30.0162610833640393 S
atom 10.3813932985573416 7.4781483418584207 30.6408060286645920 S
atom 2.4857653744354775 4.7434855668549156 25.0942408021044265 S
atom 7.4955106060688248 5.2811643430272079 25.6455400835286973 S
atom 2.4633210004070856 10.3133539486889525 25.6455400835286973 S
atom 7.4800675851333098 9.7377877775527608 25.0942408021044265 S
atom 2.4915123820553022 4.6204570310181090 30.6408060286645920 S
atom 7.5003725662374752 5.3549779001090272 30.0162610833640393 S
atom 2.4681829605757351 10.3871675057707797 30.0162610833640393 S
atom 7.4858145927531430 9.6147592417159533 30.6408060286645920 S
atom 2.7691015355403388 2.3133514493500904 32.8279462393488046 Ba
atom 7.6941966695275354 2.2062569776755518 32.8279462393488046 Ba
atom 2.6620070638657944 7.2384465833372866 32.8279462393488046 Ba
atom 7.7634037462381773 7.3076536600479285 32.8279462393488046 Ba
atom 2.2492433417822473 2.6806495036155011 37.7863861753846706 Ba
atom 7.3268986152621309 2.7261151714336367 37.7863861753846706 Ba
atom 2.2947090096003864 7.7583047770953790 37.7863861753846706 Ba
atom 7.2435455524800840 7.6749517143133366 37.7863861753846706 Ba
atom 4.9920269584089834 4.9948586723403237 35.3352531515919353 Zr
atom 10.0069916572351385 4.9776337655047387 35.3352531515919353 Zr
atom 4.9748020515734028 10.0098233711664779 35.3352531515919353 Zr
atom 9.9863291691068099 9.9891608830381582 35.3352531515919353 Zr
atom 5.0048660416144175 4.9873852849140672 40.3858725226515958 Zr
atom 10.0144650446613923 4.9647946822993028 40.3858725226515958 Zr
atom 4.9822754389996584 9.9969842879610553 40.3858725226515958 Zr
atom 9.9991682523122520 9.9816874956119133 40.3858725226515958 Zr
atom 5.2643696319401583 5.3243434000695089 32.8279462393488046 S
atom 9.6775069295059701 4.7052910919735664 32.8279462393488046 S
atom 4.6453173238442131 9.7374806976353110 32.8279462393488046 S
atom 10.2586718426379964 10.3186456107673497 32.8279462393488046 S
atom 4.7383271362146822 4.6826573393146029 37.8310399747683448 S
atom 10.3191929902608557 5.2313335876990372 37.8310399747683448 S
atom 5.2870033845991093 10.2635231933607916 37.8310399747683448 S
atom 9.7326293469125247 9.6769595500124463 37.8310399747683448 S
atom 5.3870910878595151 2.4838461311605804 35.0150864500329604 S
atom 9.6468724294664341 2.4692881576762473 35.6396313953335806 S
atom 4.6146828238047020 7.5014777633379870 35.6396313953335806 S
atom 10.3813932985573416 7.4781483418584207 35.0150864500329604 S
atom 5.2640625520227040 2.4895931387804122 40.5616516765931792 S
atom 9.7206859865482613 2.4741501178448999 40.0103523951689439 S
atom 4.6884963808865141 7.5063397235066356 40.0103523951689439 S
atom 10.2583647627205323 7.4838953494782530 40.5616516765931792 S
atom 2.4915123820553022 4.6204570310181090 35.0150864500329604 S
atom 7.5003725662374752 5.3549779001090272 35.6396313953335806 S
atom 2.4681829605757346 10.3871675057707797 35.6396313953335806 S
atom 7.4858145927531430 9.6147592417159533 35.0150864500329604 S
atom 2.4857653744354775 4.7434855668549156 40.5616516765931792 S
atom 7.4955106060688248 5.2811643430272079 40.0103523951689439 S
atom 2.4633210004070856 10.3133539486889525 40.0103523951689439 S
atom 7.4800675851333098 9.7377877775527608 40.5616516765931792 S
atom 2.6019958332203035 2.3314850988005058 42.5515915206525577 Ba
atom 7.6760630200771187 2.3733626799955836 42.5515915206525577 Ba
atom 2.6438734144153773 7.4055522856573255 42.5515915206525577 Ba
atom 7.5962980439181340 7.3257873094983541 42.5515915206525577 Ba
atom 5.1717186687471939 5.2521063278205640 42.8902574064533297 S
atom 9.7497440017548840 4.7979420551665308 42.8902574064533297 S
atom 4.7175543960931607 9.8301316608282630 42.8902574064533297 S
atom 10.1660208794450231 10.2464085385184092 42.8902574064533297 S
