#=======================================================
# FHI-aims file: sym_relax/sym_relax_RP_5_RxRyMz_RxRy0.in
# Created using the Atomic Simulation Environment (ASE)
# Fri Mar 14 10:57:14 2025
#=======================================================
lattice_vector 10.0134781019986772 -0.0600446921457153 0.0000183648808499 
lattice_vector -0.0600446921457154 10.0134781019986736 -0.0000183648808499 
lattice_vector 0.0002144971028253 -0.0002144971028252 55.8954934453954664 
atom 0.0889638974783392 -0.1797280876330720 0.2209340621088189 Ba
atom 5.1864671386323939 -0.1189862435511976 0.2209432445492439 Ba
atom 0.1497057415602129 4.9177751535210099 0.2209248796683942 Ba
atom 5.0656806024048082 4.7969886172934197 0.2209340621088189 Ba
atom -0.2620485234133858 0.1862471422864697 5.0046623181104204 Ba
atom 4.8204919087128779 0.2320261773405294 5.0046715005508347 Ba
atom -0.2162694883593270 5.2687875744127428 5.0046531356699893 Ba
atom 4.7146681815130842 5.1629638472129491 5.0046623181104213 Ba
atom 2.4869729762238211 2.4788770227979446 2.4025116107680042 Zr
atom 7.5045787331278593 2.4597213826297968 2.4025207932084305 Zr
atom 2.4678173360556679 7.4964827797019939 2.4025024283275807 Zr
atom 7.4636896811502869 7.4555937277244420 2.4025116107680038 Zr
atom 2.4810811479648756 2.4927089547128118 7.4589717010506940 Zr
atom 7.4907468012129979 2.4656132108887481 7.4589808834911207 Zr
atom 2.4539854041408087 7.5023746079609639 7.4589625186102779 Zr
atom 7.4577978528913489 7.4694256596392998 7.4589717010506940 Zr
atom 2.6133986941078162 2.7007277570193273 -0.1040619996880359 S
atom 7.2827279989064664 2.3332956647458074 -0.1040528172476108 S
atom 2.2459666018343007 7.3700570618180077 -0.1040711821284605 S
atom 7.5901153990342944 7.6774444619458313 -0.1040619996880359 S
atom 2.2376238843583232 2.1914818438025501 4.9630372403654537 S
atom 7.7919739121232707 2.7090704744952991 4.9630464228058750 S
atom 2.7552125150510745 7.7458318715675052 4.9630280579250270 S
atom 7.2143405892847916 7.1681985487290261 4.9630372403654555 S
atom 2.7948745332437195 -0.0096545745948253 2.2465551031013216 S
atom 7.1939876318169897 -0.0367372448690319 2.7552883025690766 S
atom 2.1572262347448152 5.0000241522031690 2.7552699376882268 S
atom 7.7715912381701857 4.9670621303316675 2.2465551031013198 S
atom 2.8947204328609275 -0.0148338824337346 7.7828475530348742 S
atom 7.1252253519547759 -0.0414077392579971 7.1651048957198036 S
atom 2.0884639548825894 4.9953536578142126 7.1650865308389493 S
atom 7.8714371377874031 4.9618828224927478 7.7828475530348724 S
atom -0.0203677714780318 2.2118645177556107 2.2465459206608958 S
atom 4.9834316037226367 2.7894681241088102 2.7552791201286508 S
atom -0.0533297933495417 7.8262295211810251 2.7552607552477979 S
atom 4.9563489334484379 7.1885812226821040 2.2465459206608966 S
atom -0.0151884636391227 2.1120186181384075 7.7828383705944510 S
atom 4.9881020981116038 2.8582304039710422 7.1650957132793831 S
atom -0.0486592989605765 7.8949918010432425 7.1650773483985297 S
atom 4.9615282412873523 7.0887353230648946 7.7828383705944493 S
atom 0.2783177253232544 -0.1824812129034369 9.9788470033698591 Ba
atom 5.1892202639027731 -0.3083400713961139 9.9788561858102689 Ba
atom 0.1524588668305778 4.7284213256760985 9.9788378209294102 Ba
atom 5.2550344302497338 4.7942354920230423 9.9788470033698573 Ba
atom -0.2782219676880642 0.1823854552682470 14.9744982847531105 Ba
atom 4.8243535957310719 0.2481996216152085 14.9745074671935203 Ba
atom -0.2124078013411043 5.2849610186874214 14.9744891023126812 Ba
atom 4.6984947372383994 5.1591021601947427 14.9744982847531123 Ba
atom 2.4884062312808353 2.4883104736456492 12.4766726440614715 Zr
atom 7.4951452822801583 2.4582881275727919 12.4766818265018884 Zr
atom 2.4583838852079709 7.4950495246449975 12.4766634616210492 Zr
atom 7.4651229362073108 7.4650271785721349 12.4766726440614715 Zr
atom 2.4957313145967910 2.4839119925784838 17.4943735870722357 Zr
atom 7.4995437633473232 2.4509630442568362 17.4943827695126437 Zr
atom 2.4627823662751358 7.4877244413290374 17.4943644046318241 Zr
atom 7.4724480195232612 7.4606286975049780 17.4943735870722357 Zr
atom 2.7526355039278854 2.8168786208150656 9.9731654680324020 S
atom 7.1665771351107637 2.1940588549257298 9.9731746504728296 S
atom 2.1298157380385598 7.2308202519979412 9.9731562855919673 S
atom 7.7293522088543520 7.7935953257415544 9.9731654680324020 S
atom 2.2241769586337754 2.1597423264762354 14.9801798200905552 S
atom 7.8237134294495565 2.7225174002198540 14.9801890025309756 S
atom 2.7869520323773846 7.7592787972920618 14.9801706376501045 S
atom 7.2008936635602447 7.1364590314027314 14.9801798200905534 S
atom 2.8861500533189868 -0.0166199358491481 12.1593009949604074 S
atom 7.1274238063148623 -0.0435205139317571 12.7940626580433623 S
atom 2.0906624092426709 4.9932408831404569 12.7940442931625409 S
atom 7.8628667582454614 4.9600967690773272 12.1593009949604127 S
atom 2.8883485076790718 -0.0187327105229082 17.7882587572840478 S
atom 7.1188534267729180 -0.0453065673471707 17.1705160999689603 S
atom 2.0820920297007266 4.9914548297250381 17.1704977350881052 S
atom 7.8650652126055327 4.9579839944035804 17.7882587572840478 S
atom -0.0134024102237091 2.1205889976803483 12.1592918125199851 S
atom 4.9902148727853897 2.8560319496109550 12.7940534756029543 S
atom -0.0465465242868160 7.8927933466831668 12.7940351107221080 S
atom 4.9633142947027507 7.0973057026068407 12.1592918125199816 S
atom -0.0112896355499495 2.1183905433202628 17.7882495748436043 S
atom 4.9920009262007836 2.8646023291528953 17.1705069175285274 S
atom -0.0447604708714025 7.9013637262251075 17.1704885526476509 S
atom 4.9654270693765330 7.0951072482467463 17.7882495748436078 S
atom 0.2621442810485760 -0.1863428999216593 19.9486829700125341 Ba
atom 5.1930819509209831 -0.2921666271214350 19.9486921524529244 Ba
atom 0.1563205538488013 4.7445947699507673 19.9486737875721118 Ba
atom 5.2388609859750481 4.7903738050048386 19.9486829700125341 Ba
atom -0.0888681398431495 0.1796323299978822 24.7324112260141398 Ba
atom 4.8271067210014422 0.0588457937702924 24.7324204084545620 Ba
atom -0.2096546760707394 5.0956071908425020 24.7324020435737104 Ba
atom 4.8878485650833206 5.1563490349243706 24.7324112260141398 Ba
atom 2.4898394863378401 2.4977439244933501 22.5508336773549232 Zr
atom 7.4857118314324573 2.4568548725157862 22.5508428597953312 Zr
atom 2.4489504343602744 7.4936162695879958 22.5508244949144867 Zr
atom 7.4665561912642939 7.4744606294198528 22.5508336773549232 Zr
atom 2.7391885782033270 2.7851391034887558 19.9903080477575017 S
atom 7.1983166524370583 2.2075057806502860 19.9903172301978991 S
atom 2.1615552553648691 7.2442671777224845 19.9902988653170759 S
atom 7.7159052831298052 7.7618558084152394 19.9903080477575017 S
atom 2.3634137684538450 2.2758931902719768 25.0574072878109781 S
atom 7.7075625656538387 2.5832805903997786 25.0574164702513897 S
atom 2.6708011685816500 7.6200419874719874 25.0573981053705772 S
atom 7.3401304733803094 7.2526098951984537 25.0574072878109781 S
atom 2.8195862278168393 -0.0234032049118732 22.1980753504347064 S
atom 7.2186993263901265 -0.0504858751860800 22.7068085499025010 S
atom 2.1819379293179386 4.9862755218861183 22.7067901850216032 S
atom 7.7963029327433118 4.9533135000146160 22.1980753504347064 S
atom -0.0066191411609844 2.1871528231824899 22.1980661679942983 S
atom 4.9971802340397007 2.7647564295356859 22.7067993674620432 S
atom -0.0395811630324933 7.8015178266078955 22.7067810025812058 S
atom 4.9700975637654787 7.1638695281089806 22.1980661679942983 S
atom 2.3087808868696302 2.5772352401289664 28.1686787301133492 Ba
atom 7.4062205157968464 2.6379134719839974 28.1686879125537857 Ba
atom 2.3694591187246590 7.6746748690562123 28.1686695476729518 Ba
atom 7.2854975917960942 7.5539519450554513 28.1686787301133528 Ba
atom 2.6747480366775154 2.2262001109977456 32.9524252628424819 Ba
atom 7.7572556449280636 2.2719463221761127 32.9524344452829681 Ba
atom 2.7204942478558718 7.3087077192483250 32.9524160804021378 Ba
atom 7.6514647416039718 7.2029168159242403 32.9524252628424819 Ba
atom 4.9673720464464353 4.9752111586895227 30.3502674343228378 Zr
atom 9.9849613021627857 4.9560390173336595 30.3502766167632672 Zr
atom 4.9481999050905721 9.9928004144058473 30.3502582518824298 Zr
atom 9.9440887513729450 9.9519278636160102 30.3502674343228307 Zr
atom 4.9811866845227062 4.9693377080626062 35.4067291895854268 Zr
atom 9.9908347527896755 4.9422243792573877 35.4067383720258206 Zr
atom 4.9540733557174956 9.9789857763295817 35.4067200071449690 Zr
atom 9.9579033894491698 9.9460544129891275 35.4067291895854410 Zr
atom 5.1892111123573930 5.1016368278962707 27.8436973206560836 S
atom 9.8585356329560412 4.7341999514227133 27.8437065030965201 S
atom 4.8217742358838320 9.7709613484948967 27.8436881382156436 S
atom 10.1659278172838548 10.0783535328227654 27.8436973206560943 S
atom 4.6799895889625489 4.7258593523395938 32.9107906303121993 S
atom 10.2343131085126906 5.2434214748175458 32.9107998127526145 S
atom 5.1975517114405214 10.2801828718897497 32.9107814478717842 S
atom 9.6567062938890231 9.7025760572660875 32.9107906303121993 S
atom 4.7003262125750931 2.4678492661372089 30.1943321942394469 S
atom 10.3147801831380423 2.4348898576382161 30.7030510494607363 S
atom 5.2780187860658483 7.4716512547104195 30.7030326845799486 S
atom 9.6770429175015753 7.4445659710637058 30.1943321942394469 S
atom 4.6005224564907854 2.4730406665097675 35.7305659388632932 S
atom 10.3834828363562526 2.4395721439641651 35.1128899712864424 S
atom 5.3467214392840621 7.4763335410363654 35.1128716064056121 S
atom 9.5772391614172552 7.4497573714362666 35.7305659388632861 S
atom 2.4788450927164161 5.2831295433507206 30.1943230117990211 S
atom 7.4885212061418676 4.6453922777142491 30.7030418670203709 S
atom 2.4517598090696890 9.6821536747864503 30.7030235021395157 S
atom 7.4555617976428810 10.2598462482772099 30.1943230117990247 S
atom 2.4736536923438450 5.3829332994350469 35.7305567564229136 S
atom 7.4838389198159305 4.5766896244960300 35.1128807888459491 S
atom 2.4470775227437445 9.6134510215682401 35.1128624239651614 S
atom 7.4503703972703175 10.3596500043615070 35.7305567564228994 S
atom 2.3060291485255009 2.7665098443682257 37.9265614068101300 Ba
atom 7.2169459115575805 2.6406652103281303 37.9265705892505594 Ba
atom 2.1801845144853966 7.6774266074003288 37.9265522243696296 Ba
atom 7.2827458534519547 7.7432265492947288 37.9265614068101371 Ba
atom 2.6709978111389892 2.2098966058202469 42.9222773267082047 Ba
atom 7.7735591501055561 2.2756965477146380 42.9222865091487122 Ba
atom 2.7367977530333705 7.3124579447868570 42.9222681442678677 Ba
atom 7.6477145160654461 7.1866133107467460 42.9222773267082260 Ba
atom 4.9768718322954717 4.9765615775574839 40.4244193667592455 Zr
atom 9.9836108832948138 4.9465392314846248 40.4244285491996607 Zr
atom 4.9468494862226269 9.9833006285568349 40.4244101843187593 Zr
atom 9.9535885372219521 9.9532782824839749 40.4244193667592455 Zr
atom 4.9725569800682328 4.9837854470523686 45.4421095439330358 Zr
atom 9.9763870137998989 4.9508540837118478 45.4421187263733941 Zr
atom 4.9396256167277350 9.9876154807840880 45.4421003614925780 Zr
atom 9.9492736849947363 9.9605021519788277 45.4421095439330216 Zr
atom 5.3053904452794862 5.2408204572932249 37.9209156536729921 S
atom 9.7193520035590968 4.6180206185006210 37.9209248361133646 S
atom 4.6825906064868903 9.6547820155728168 37.9209064712325699 S
atom 10.2821071502059826 10.2175371622197027 37.9209156536729921 S
atom 4.6483532193114785 4.7123026978217402 42.9279230798453568 S
atom 10.2478697630305184 5.2750578444686429 42.9279322622858501 S
atom 5.2111083659583661 10.3118192415408441 42.9279138974049985 S
atom 9.6250699242379270 9.6890194027482597 42.9279230798453426 S
atom 4.6090867515735123 2.4747599812642789 40.1070651716432565 S
atom 10.3814183100896464 2.4416017767784739 40.7417919267560364 S
atom 5.3446569130174391 7.4783631738506706 40.7417735618751564 S
atom 9.5858034564999635 7.4514766861907891 40.1070651716432565 S
atom 4.6070222253068929 2.4767896140785992 45.7359671271128292 S
atom 10.3899826051723618 2.4433210915329835 45.1182911595358860 S
atom 5.3532212081001775 7.4800824886051887 45.1182727946550628 S
atom 9.5837389302333769 7.4535063190050961 45.7359671271128292 S
atom 2.4719343775893425 5.3743690043522925 40.1070559892027845 S
atom 7.4818092870016324 4.5787541507626655 40.7417827443155858 S
atom 2.4450478899294299 9.6155155478348568 40.7417643794347057 S
atom 7.4486510825158119 10.3510857092788093 40.1070559892027987 S
atom 2.4699047447750302 5.3764335306189208 45.7359579446723856 S
atom 7.4800899722470984 4.5701898556799296 45.1182819770955277 S
atom 2.4433285751749185 9.6069512527521326 45.1182636122146334 S
atom 7.4466214497015084 10.3531502355454155 45.7359579446723856 S
atom 2.3022789229869720 2.7502063391907265 47.8964134706758600 Ba
atom 7.2332494167350934 2.6444154358666490 47.8964226531163533 Ba
atom 2.1964880196628962 7.6811768329388510 47.8964042882355088 Ba
atom 7.2789956279134502 7.7269230441172176 47.8964134706758600 Ba
atom 2.6682460727948594 2.3991712100595102 52.6801600034049002 Ba
atom 7.5842845458662840 2.2784482860587696 52.6801691858453225 Ba
atom 2.5475231487941117 7.3152096831309716 52.6801508209645206 Ba
atom 7.6449627777213305 7.3758879149859959 52.6801600034049002 Ba
atom 4.9863716181445028 4.9779119964254548 50.4985712991955396 Zr
atom 9.9822604644268367 4.9370394456355946 50.4985804816360115 Zr
atom 4.9454990673546533 9.9738008427078206 50.4985621167551244 Zr
atom 9.9630883230709557 9.9546287013519255 50.4985712991955396 Zr
atom 5.2737540756283945 5.2272638027753802 47.9380481032061567 S
atom 9.7329086580768998 4.6496569881517118 47.9380572856465292 S
atom 4.6961472610047377 9.6864183852239041 47.9380389207657487 S
atom 10.2504707805548865 10.2039805077018695 47.9380481032061496 S
atom 4.7645325522335558 4.8514863272187059 53.0051414128621943 S
atom 10.1086861336335918 5.1588785115465514 53.0051505953027089 S
atom 5.0719247365614057 10.1956399086187552 53.0051322304218218 S
atom 9.7412492571600300 9.8282030321451774 53.0051414128621872 S
atom 4.6757248785250969 2.4814719004045438 50.1458060489384181 S
atom 10.2901788490880488 2.4485124919055536 50.6545249041598211 S
atom 5.2534174520158476 7.4852738889777655 50.6545065392789695 S
atom 9.6524415834515533 7.4581886053310358 50.1458060489384181 S
atom 2.4652224584490776 5.3077308774007195 50.1457968664980598 S
atom 7.4748985718745322 4.6699936117642444 50.6545157217193207 S
atom 2.4381371748023528 9.7067550088364474 50.6544973568385331 S
atom 7.4419391633755527 10.2844475823272088 50.1457968664980598 S
