#=======================================================
# FHI-aims file: sym_relax/sym_relax_RP_8_RxRyMz_RxRy-Mz.in
# Created using the Atomic Simulation Environment (ASE)
# Mon Mar 17 16:18:06 2025
#=======================================================
lattice_vector 10.0116684340043669 -0.0702508866718952 -0.0000000000000000 
lattice_vector -0.0702508866718951 10.0116684340043687 -0.0000000000000000 
lattice_vector -0.0000000000000000 -0.0000000000000000 85.9457916426296578 
atom 0.0807220737806326 -0.1223124244307522 0.2194259431301054 Ba
atom 5.1281466414329255 -0.1158475171165791 0.2194259431301054 Ba
atom 0.0871869810948052 4.9251121432215443 0.2194259431301054 Ba
atom 5.0514308474468574 4.8483963492354833 0.2194259431301053 Ba
atom -0.3156035229672768 0.2393558688558460 5.0090513540421560 Ba
atom 4.7664783481463200 0.2804780796313308 5.0090513540421560 Ba
atom -0.2744813121917923 5.3214377399694532 5.0090513540421560 Ba
atom 4.6551052506989530 5.2100646425220809 5.0090513540421560 Ba
atom 2.4517587352474073 2.5260013734361078 2.3989021223359726 Zr
atom 7.4505416172322958 2.4838245950828779 2.3989021223359726 Zr
atom 2.4095819568941783 7.5247842554210145 2.3989021223359726 Zr
atom 7.4224675089136314 7.4967101471023527 2.3989021223359726 Zr
atom 2.4257203728367078 2.5400090559702098 7.4527777857628710 Zr
atom 7.4365339346981862 2.5098629574935809 7.4527777857628710 Zr
atom 2.3955742743600723 7.5508226178317095 7.4527777857628710 Zr
atom 7.3964291465029319 7.5107178296364543 7.4527777857628710 Zr
atom 2.6118836904047034 2.7834158416690369 -0.1072486193749295 S
atom 7.1931271489993804 2.3236996399255867 -0.1072486193749295 S
atom 2.1521674886612536 7.3646593002637113 -0.1072486193749295 S
atom 7.5825924640709292 7.7541246153352699 -0.1072486193749295 S
atom 2.1835455832428967 2.2299559760314174 4.9599512228437383 S
atom 7.7465870146370008 2.7520377470873969 4.9599512228437383 S
atom 2.7056273542988660 7.7929974074255206 4.9599512228437383 S
atom 7.1542543569091199 7.2006647496976512 4.9599512228437383 S
atom 2.7393002211036261 0.0331526132965067 2.2276828633316770 S
atom 7.1317248483843994 0.0011534358376396 2.7783870700996500 S
atom 2.0907651880462650 5.0421130961757648 2.7783870700996500 S
atom 7.7100089947698462 5.0038613869627442 2.2276828633316770 S
atom 2.8448926189689083 0.0325269911824480 7.7863040110830202 S
atom 7.0747853531140992 0.0006462969519351 7.1626394409872951 S
atom 2.0338256927759946 5.0416059572900709 7.1626394409872951 S
atom 7.8156013926351262 5.0032357648486983 7.7863040110830202 S
atom -0.0682780566324548 2.2665339958985520 2.2276828633316770 S
atom 4.9344298944926468 2.8448181422840260 2.7783870700996500 S
atom -0.1065297658454807 7.8857778026221554 2.7783870700996500 S
atom 4.9024307170337709 7.2372427695647916 2.2276828633316770 S
atom -0.0676524345183961 2.1609415980332751 7.7863040110830202 S
atom 4.9349370333783362 2.9017576375542964 7.1626394409872951 S
atom -0.1060226269597763 7.9427172978924334 7.1626394409872951 S
atom 4.9030563391478266 7.1316503716995099 7.7863040110830202 S
atom 0.2338541880410297 -0.1336401372035999 9.9807389740358143 Ba
atom 5.1394743542057659 -0.2689796313769769 9.9807389740358143 Ba
atom 0.0985146938676527 4.7719800289611518 9.9807389740358143 Ba
atom 5.2045629617072526 4.8370686364626430 9.9807389740358143 Ba
atom -0.3327664561407278 0.2305712814934042 14.9824688957706371 Ba
atom 4.7752629355087617 0.2976410128047821 14.9824688957706371 Ba
atom -0.2656967248293498 5.3386006731429108 14.9824688957706371 Ba
atom 4.6379423175254981 5.2012800551596463 14.9824688957706371 Ba
atom 2.4409990482806503 2.5325206541897605 12.4685175124598970 Zr
atom 7.4440223364786400 2.4945842820496389 12.4685175124598970 Zr
atom 2.4030626761405203 7.5355439423877746 12.4685175124598970 Zr
atom 7.4117078219468757 7.5032294278560014 12.4685175124598970 Zr
atom 2.4352738847261870 2.5347235776388941 17.4814678245054118 Zr
atom 7.4418194130294983 2.5003094456040986 17.4814678245054118 Zr
atom 2.4008597526913933 7.5412691059422405 17.4814678245054118 Zr
atom 7.4059826583924053 7.5054323513051315 17.4814678245054118 Zr
atom 2.7010198279598523 2.8642086352786298 9.9713573199527428 S
atom 7.1123343553897778 2.2345635023704369 9.9713573199527428 S
atom 2.0713746950516563 7.2755231627085672 9.9713573199527428 S
atom 7.6717286016260866 7.8349174089448823 9.9713573199527428 S
atom 2.1689911821604464 2.2013404346397314 14.9795250510185483 S
atom 7.7752025560286784 2.7665921481698361 14.9795250510185483 S
atom 2.7342428956905533 7.8075518085079700 14.9795250510185483 S
atom 7.1396999558266776 7.1720492083059693 14.9795250510185483 S
atom 2.8380221063268691 0.0287676045586824 12.1609453087784942 S
atom 7.0763282472373996 -0.0035592340020525 12.8011595615069176 S
atom 2.0353685868992764 5.0374004263360765 12.8011595615069176 S
atom 7.8087308799930932 4.9994763782249265 12.1609453087784942 S
atom 2.8368405929581848 0.0302905416620560 17.8067510040572223 S
atom 7.0768526116198185 -0.0020325458412278 17.1628332901897060 S
atom 2.0358929512817014 5.0389271144969072 17.1628332901897060 S
atom 7.8075493666244151 5.0009993153282988 17.8067510040572223 S
atom -0.0638930478946306 2.1678121106753099 12.1609453087784942 S
atom 4.9391425643323359 2.9002147434310146 12.8011595615069176 S
atom -0.1018170960057888 7.9411744037691392 12.8011595615069176 S
atom 4.9068157257715868 7.1385208843415437 12.1609453087784942 S
atom -0.0654159849980042 2.1689936240439907 17.8067510040572223 S
atom 4.9376158761715105 2.8996903790485868 17.1628332901897060 S
atom -0.1033437841666135 7.9406500393867221 17.1628332901897060 S
atom 4.9052927886682225 7.1397023977102299 17.8067510040572223 S
atom 0.2353146689987771 -0.1323264788582614 19.9873934052627114 Ba
atom 5.1381606958604387 -0.2704401123347235 19.9873934052627114 Ba
atom 0.0972010355223139 4.7705195480034188 19.9873934052627114 Ba
atom 5.2060234426649865 4.8383822948079862 19.9873934052627114 Ba
atom -0.3327664561407278 0.2305712814934042 24.9923179147547785 Ba
atom 4.7752629355087617 0.2976410128047821 24.9923179147547785 Ba
atom -0.2656967248293498 5.3386006731429116 24.9923179147547785 Ba
atom 4.6379423175254981 5.2012800551596463 24.9923179147547785 Ba
atom 2.4352738847261870 2.5347235776388941 22.4933189860200109 Zr
atom 7.4418194130294983 2.5003094456040986 22.4933189860200109 Zr
atom 2.4008597526913933 7.5412691059422405 22.4933189860200109 Zr
atom 7.4059826583924053 7.5054323513051315 22.4933189860200109 Zr
atom 2.4409990482806503 2.5325206541897605 27.5062692980654795 Zr
atom 7.4440223364786400 2.4945842820496389 27.5062692980654795 Zr
atom 2.4030626761405203 7.5355439423877746 27.5062692980654795 Zr
atom 7.4117078219468757 7.5032294278560014 27.5062692980654795 Zr
atom 2.7044772028114057 2.8681070828802073 19.9873934052627114 S
atom 7.1084359077882047 2.2311061275188795 19.9873934052627114 S
atom 2.0674762474500818 7.2720657878570201 19.9873934052627114 S
atom 7.6751859764776285 7.8388158565464447 19.9873934052627114 S
atom 2.1689911821604464 2.2013404346397314 24.9952617595068354 S
atom 7.7752025560286784 2.7665921481698361 24.9952617595068354 S
atom 2.7342428956905533 7.8075518085079700 24.9952617595068354 S
atom 7.1396999558266776 7.1720492083059675 24.9952617595068354 S
atom 2.8368405929581848 0.0302905416620560 22.1680358064681613 S
atom 7.0768526116198185 -0.0020325458412278 22.8119535203357415 S
atom 2.0358929512817014 5.0389271144969072 22.8119535203357415 S
atom 7.8075493666244151 5.0009993153282988 22.1680358064681613 S
atom 2.8380221063268691 0.0287676045586824 27.8138415017469178 S
atom 7.0763282472373996 -0.0035592340020525 27.1736272490184554 S
atom 2.0353685868992755 5.0374004263360765 27.1736272490184554 S
atom 7.8087308799930932 4.9994763782249265 27.8138415017469178 S
atom -0.0654159849980042 2.1689936240439907 22.1680358064681613 S
atom 4.9376158761715105 2.8996903790485868 22.8119535203357415 S
atom -0.1033437841666135 7.9406500393867221 22.8119535203357415 S
atom 4.9052927886682225 7.1397023977102299 22.1680358064681613 S
atom -0.0638930478946306 2.1678121106753099 27.8138415017469178 S
atom 4.9391425643323359 2.9002147434310146 27.1736272490184554 S
atom -0.1018170960057888 7.9411744037691392 27.1736272490184554 S
atom 4.9068157257715868 7.1385208843415437 27.8138415017469178 S
atom 0.2338541880410297 -0.1336401372035999 29.9940478364895711 Ba
atom 5.1394743542057659 -0.2689796313769769 29.9940478364895711 Ba
atom 0.0985146938676527 4.7719800289611518 29.9940478364895711 Ba
atom 5.2045629617072526 4.8370686364626430 29.9940478364895711 Ba
atom -0.3156035229672768 0.2393558688558460 34.9657354564832801 Ba
atom 4.7664783481463200 0.2804780796313308 34.9657354564832801 Ba
atom -0.2744813121917923 5.3214377399694532 34.9657354564832801 Ba
atom 4.6551052506989521 5.2100646425220809 34.9657354564832801 Ba
atom 2.4257203728367078 2.5400090559702098 32.5220090247624967 Zr
atom 7.4365339346981862 2.5098629574935809 32.5220090247624967 Zr
atom 2.3955742743600723 7.5508226178317095 32.5220090247624967 Zr
atom 7.3964291465029319 7.5107178296364543 32.5220090247624967 Zr
atom 2.4517587352474073 2.5260013734361078 37.5758846881894470 Zr
atom 7.4505416172322958 2.4838245950828779 37.5758846881894470 Zr
atom 2.4095819568941783 7.5247842554210145 37.5758846881894470 Zr
atom 7.4224675089136314 7.4967101471023527 37.5758846881894470 Zr
atom 2.7010198279598523 2.8642086352786298 30.0034294905727243 S
atom 7.1123343553897778 2.2345635023704369 30.0034294905727243 S
atom 2.0713746950516563 7.2755231627085672 30.0034294905727243 S
atom 7.6717286016260866 7.8349174089448823 30.0034294905727243 S
atom 2.1835455832428967 2.2299559760314174 35.0148355876816879 S
atom 7.7465870146370008 2.7520377470873969 35.0148355876816879 S
atom 2.7056273542988660 7.7929974074255206 35.0148355876816879 S
atom 7.1542543569091199 7.2006647496976512 35.0148355876816879 S
atom 2.8448926189689083 0.0325269911824480 32.1884827994424185 S
atom 7.0747853531140992 0.0006462969519351 32.8121473695381383 S
atom 2.0338256927759946 5.0416059572900709 32.8121473695381383 S
atom 7.8156013926351262 5.0032357648486983 32.1884827994424185 S
atom 2.7393002211036261 0.0331526132965067 37.7471039471937075 S
atom 7.1317248483843994 0.0011534358376396 37.1963997404257185 S
atom 2.0907651880462650 5.0421130961757648 37.1963997404257185 S
atom 7.7100089947698462 5.0038613869627442 37.7471039471937075 S
atom -0.0676524345183961 2.1609415980332751 32.1884827994424185 S
atom 4.9349370333783362 2.9017576375542964 32.8121473695381383 S
atom -0.1060226269597763 7.9427172978924334 32.8121473695381383 S
atom 4.9030563391478266 7.1316503716995099 32.1884827994424185 S
atom -0.0682780566324548 2.2665339958985520 37.7471039471937075 S
atom 4.9344298944926468 2.8448181422840260 37.1963997404257185 S
atom -0.1065297658454807 7.8857778026221554 37.1963997404257185 S
atom 4.9024307170337709 7.2372427695647916 37.7471039471937075 S
atom 0.0807220737806327 -0.1223124244307522 39.7553608673953960 Ba
atom 5.1281466414329255 -0.1158475171165791 39.7553608673953960 Ba
atom 0.0871869810948052 4.9251121432215443 39.7553608673953960 Ba
atom 5.0514308474468566 4.8483963492354833 39.7553608673953960 Ba
atom 2.6118836904047034 2.7834158416690360 40.0820354299003085 S
atom 7.1931271489993804 2.3236996399255867 40.0820354299003085 S
atom 2.1521674886612536 7.3646593002637113 40.0820354299003085 S
atom 7.5825924640709292 7.7541246153352699 40.0820354299003085 S
atom 2.3630419624023582 2.5660764606137443 43.1923217644449053 Ba
atom 7.4104665300546433 2.5725413679279301 43.1923217644449053 Ba
atom 2.3695068697165369 7.6135010282660582 43.1923217644449053 Ba
atom 7.3337507360685921 7.5367852342799919 43.1923217644449053 Ba
atom 2.7247102556889584 2.1697508638658478 47.9819471753569502 Ba
atom 7.8067921268025620 2.2108730746413263 47.9819471753569502 Ba
atom 2.7658324664644387 7.2518327349794607 47.9819471753569502 Ba
atom 7.6954190293551763 7.1404596375320883 47.9819471753569502 Ba
atom 5.0113557602692103 4.9371131220805333 45.3717979436508045 Zr
atom 10.0101386422541090 4.8949363437272995 45.3717979436508045 Zr
atom 4.9691789819159853 9.9358960040654321 45.3717979436508045 Zr
atom 9.9820645339354535 9.9078218957467765 45.3717979436508045 Zr
atom 5.0253634428033180 4.9110747596698294 50.4256736070778118 Zr
atom 10.0361770046648076 4.8809286611931828 50.4256736070778118 Zr
atom 4.9952173443266901 9.9218883215313252 50.4256736070778118 Zr
atom 9.9960722164695586 9.8817835333360637 50.4256736070778118 Zr
atom 5.2687702285021443 5.0972380772378330 42.8656472019398365 S
atom 9.8500136870968014 4.6375218754943832 42.8656472019398365 S
atom 4.8090540267586643 9.6784815358325087 42.8656472019398365 S
atom 10.2394790021683804 10.0679468509040664 42.8656472019398365 S
atom 4.7153103628645159 4.6688999700760245 47.9328470441585637 S
atom 10.2783517942586027 5.1909817411319992 47.9328470441585637 S
atom 5.2373921339204941 10.2319414014701096 47.9328470441585637 S
atom 9.6860191365307440 9.6396087437422562 47.9328470441585637 S
atom 4.7518883827316607 2.4170763302006666 45.2005786846463948 S
atom 10.3711321894552420 2.3788246209876420 45.7512828914144620 S
atom 5.3301725291171262 7.4197842813257768 45.7512828914144620 S
atom 9.7225971563978781 7.3877851038669169 45.2005786846463948 S
atom 4.6462959848663772 2.4177019523147250 50.7591998323977762 S
atom 10.4280716847255075 2.3793317598733497 50.1355352623020707 S
atom 5.3871120243874060 7.4202914202114805 50.1355352623020707 S
atom 9.6170047585325804 7.3884107259809557 50.7591998323977762 S
atom 2.5185070001296221 5.2246546079367491 45.2005786846463948 S
atom 7.5274674830088726 4.5761195748793924 45.7512828914144620 S
atom 2.4865078226707489 9.6170792352175223 45.7512828914144620 S
atom 7.4892157737958502 10.1953633816029772 45.2005786846463948 S
atom 2.5178813780155584 5.3302470058020264 50.7591998323977762 S
atom 7.5269603441231823 4.5191800796091108 50.1355352623020707 S
atom 2.4860006837850404 9.5601397399472390 50.1355352623020707 S
atom 7.4885901516817857 10.3009557794682749 50.7591998323977762 S
atom 2.3517142496295085 2.7192085748741528 52.9536347953505953 Ba
atom 7.2573344157942676 2.5838690807007758 52.9536347953505953 Ba
atom 2.2163747554561306 7.6248287410389013 52.9536347953505953 Ba
atom 7.3224230232957428 7.6899173485403889 52.9536347953505953 Ba
atom 2.7159256683265149 2.1525879306923921 57.9553647170854873 Ba
atom 7.8239550599760159 2.2196576620037685 57.9553647170854873 Ba
atom 2.7829953996378904 7.2606173223419068 57.9553647170854873 Ba
atom 7.6866344419927533 7.1232967043586379 57.9553647170854873 Ba
atom 5.0178750410228696 4.9263534351137652 55.4414133337747472 Zr
atom 10.0208983292208735 4.8884170629736499 55.4414133337747472 Zr
atom 4.9799386688827454 9.9293767233117833 55.4414133337747472 Zr
atom 9.9885838146890578 9.8970622087800137 55.4414133337747472 Zr
atom 5.0200779644720122 4.9206282715593108 60.4543636458202158 Zr
atom 10.0266234927752933 4.8862141395245082 60.4543636458202158 Zr
atom 4.9856638324372069 9.9271737998626488 60.4543636458202158 Zr
atom 9.9907867381382012 9.8913370452255602 60.4543636458202158 Zr
atom 5.3495630221117487 5.1863742147929752 52.9442531412675592 S
atom 9.7608775495416769 4.5567290818847690 52.9442531412675592 S
atom 4.7199178892035407 9.5976887422229158 52.9442531412675592 S
atom 10.3202717957779431 10.1570829884592051 52.9442531412675592 S
atom 4.6866948214728161 4.6543455689935715 57.9524208723333487 S
atom 10.2929061953410894 5.2195972825236865 57.9524208723333487 S
atom 5.2519465350029488 10.2605569428618182 57.9524208723333487 S
atom 9.6574035951390478 9.6250543426598067 57.9524208723333487 S
atom 4.6531664975084075 2.4214613389384922 55.1338411300932663 S
atom 10.4265287906022213 2.3835372908273316 55.7740553828216861 S
atom 5.3855691302641064 7.4244969511654704 55.7740553828216861 S
atom 9.6238752711746312 7.3921701126047221 55.1338411300932663 S
atom 4.6543480108770954 2.4199384018351160 60.7796468253720761 S
atom 10.4260044262197979 2.3820106026665107 60.1357291115044887 S
atom 5.3850447658816964 7.4229702630046468 60.1357291115044887 S
atom 9.6250567845433181 7.3906471755013579 60.7796468253720761 S
atom 2.5141219913917987 5.3233764931599978 55.1338411300932663 S
atom 7.5227548131691808 4.5207229737324024 55.7740553828216861 S
atom 2.4817951528310589 9.5616826340705554 55.7740553828216861 S
atom 7.4848307650580326 10.2940852668262437 55.1338411300932663 S
atom 2.5156449284951696 5.3221949797913082 60.7796468253720761 S
atom 7.5242815013300071 4.5212473381148266 60.1357291115044887 S
atom 2.4833218409918842 9.5622069984529698 60.1357291115044887 S
atom 7.4863537021613915 10.2929037534575603 60.7796468253720761 S
atom 2.3530279079748535 2.7206690558318960 62.9602892265775438 Ba
atom 7.2558739348365089 2.5825554223554326 62.9602892265775438 Ba
atom 2.2149142744983852 7.6235150826935705 62.9602892265775438 Ba
atom 7.3237366816410852 7.6913778294981272 62.9602892265775438 Ba
atom 2.7159256683265149 2.1525879306923921 67.9652137360695008 Ba
atom 7.8239550599760159 2.2196576620037685 67.9652137360695008 Ba
atom 2.7829953996378904 7.2606173223419068 67.9652137360695008 Ba
atom 7.6866344419927515 7.1232967043586379 67.9652137360695008 Ba
atom 5.0200779644720122 4.9206282715593108 65.4662148073348789 Zr
atom 10.0266234927752933 4.8862141395245082 65.4662148073348789 Zr
atom 4.9856638324372069 9.9271737998626488 65.4662148073348789 Zr
atom 9.9907867381382012 9.8913370452255602 65.4662148073348789 Zr
atom 5.0178750410228696 4.9263534351137652 70.4791651193803546 Zr
atom 10.0208983292208735 4.8884170629736499 70.4791651193803546 Zr
atom 4.9799386688827454 9.9293767233117833 70.4791651193803546 Zr
atom 9.9885838146890578 9.8970622087800137 70.4791651193803546 Zr
atom 5.3534614697133147 5.1898315896445233 62.9602892265775438 S
atom 9.7574201746901128 4.5528306342831995 62.9602892265775438 S
atom 4.7164605143519882 9.5937902946213285 62.9602892265775438 S
atom 10.3241702433795428 10.1605403633107763 62.9602892265775438 S
atom 4.6866948214728161 4.6543455689935715 67.9681575808216394 S
atom 10.2929061953410894 5.2195972825236865 67.9681575808216394 S
atom 5.2519465350029488 10.2605569428618182 67.9681575808216394 S
atom 9.6574035951390478 9.6250543426598067 67.9681575808216394 S
atom 4.6543480108770954 2.4199384018351160 65.1409316277829049 S
atom 10.4260044262197979 2.3820106026665107 65.7848493416505704 S
atom 5.3850447658816964 7.4229702630046468 65.7848493416505704 S
atom 9.6250567845433146 7.3906471755013579 65.1409316277829049 S
atom 4.6531664975084075 2.4214613389384922 70.7867373230616579 S
atom 10.4265287906022213 2.3835372908273316 70.1465230703332452 S
atom 5.3855691302641064 7.4244969511654704 70.1465230703332452 S
atom 9.6238752711746312 7.3921701126047221 70.7867373230616579 S
atom 2.5156449284951696 5.3221949797913082 65.1409316277829049 S
atom 7.5242815013300071 4.5212473381148266 65.7848493416505704 S
atom 2.4833218409918842 9.5622069984529698 65.7848493416505704 S
atom 7.4863537021613915 10.2929037534575603 65.1409316277829049 S
atom 2.5141219913917987 5.3233764931599978 70.7867373230616579 S
atom 7.5227548131691808 4.5207229737324024 70.1465230703332452 S
atom 2.4817951528310589 9.5616826340705554 70.1465230703332452 S
atom 7.4848307650580326 10.2940852668262437 70.7867373230616579 S
atom 2.3517142496295085 2.7192085748741528 72.9669436578044355 Ba
atom 7.2573344157942676 2.5838690807007758 72.9669436578044355 Ba
atom 2.2163747554561306 7.6248287410389013 72.9669436578044355 Ba
atom 7.3224230232957428 7.6899173485403889 72.9669436578044355 Ba
atom 2.7247102556889584 2.1697508638658478 77.9386312777982937 Ba
atom 7.8067921268025620 2.2108730746413263 77.9386312777982937 Ba
atom 2.7658324664644387 7.2518327349794607 77.9386312777982937 Ba
atom 7.6954190293551763 7.1404596375320883 77.9386312777982937 Ba
atom 5.0253634428033180 4.9110747596698294 75.4949048460774179 Zr
atom 10.0361770046648076 4.8809286611931828 75.4949048460774179 Zr
atom 4.9952173443266901 9.9218883215313252 75.4949048460774179 Zr
atom 9.9960722164695586 9.8817835333360637 75.4949048460774179 Zr
atom 5.0113557602692103 4.9371131220805333 80.5487805095041836 Zr
atom 10.0101386422541090 4.8949363437272995 80.5487805095041836 Zr
atom 4.9691789819159853 9.9358960040654321 80.5487805095041836 Zr
atom 9.9820645339354535 9.9078218957467765 80.5487805095041836 Zr
atom 5.3495630221117487 5.1863742147929752 72.9763253118874218 S
atom 9.7608775495416769 4.5567290818847690 72.9763253118874218 S
atom 4.7199178892035407 9.5976887422229158 72.9763253118874218 S
atom 10.3202717957779431 10.1570829884592051 72.9763253118874218 S
atom 4.7153103628645159 4.6688999700760245 77.9877314089965381 S
atom 10.2783517942586027 5.1909817411319992 77.9877314089965381 S
atom 5.2373921339204941 10.2319414014701096 77.9877314089965381 S
atom 9.6860191365307440 9.6396087437422562 77.9877314089965381 S
atom 4.6462959848663772 2.4177019523147250 75.1613786207572190 S
atom 10.4280716847255075 2.3793317598733497 75.7850431908529032 S
atom 5.3871120243874060 7.4202914202114805 75.7850431908529032 S
atom 9.6170047585325804 7.3884107259809557 75.1613786207572190 S
atom 4.7518883827316607 2.4170763302006666 80.7199997685087141 S
atom 10.3711321894552420 2.3788246209876420 80.1692955617405687 S
atom 5.3301725291171262 7.4197842813257768 80.1692955617405687 S
atom 9.7225971563978781 7.3877851038669169 80.7199997685087141 S
atom 2.5178813780155584 5.3302470058020264 75.1613786207572190 S
atom 7.5269603441231823 4.5191800796091108 75.7850431908529032 S
atom 2.4860006837850404 9.5601397399472390 75.7850431908529032 S
atom 7.4885901516817857 10.3009557794682749 75.1613786207572190 S
atom 2.5185070001296221 5.2246546079367491 80.7199997685087141 S
atom 7.5274674830088726 4.5761195748793924 80.1692955617405687 S
atom 2.4865078226707489 9.6170792352175223 80.1692955617405687 S
atom 7.4892157737958502 10.1953633816029772 80.7199997685087141 S
atom 2.3630419624023582 2.5660764606137447 82.7282566887101325 Ba
atom 7.4104665300546433 2.5725413679279301 82.7282566887101325 Ba
atom 2.3695068697165369 7.6135010282660582 82.7282566887101325 Ba
atom 7.3337507360685921 7.5367852342799919 82.7282566887101325 Ba
atom 5.2687702285021443 5.0972380772378330 83.0549312512152511 S
atom 9.8500136870968014 4.6375218754943832 83.0549312512152511 S
atom 4.8090540267586643 9.6784815358325087 83.0549312512152511 S
atom 10.2394790021683804 10.0679468509040664 83.0549312512152511 S
