#=======================================================
# FHI-aims file: sym_relax/sym_relax_RP_10_RxRyMz_RxRy0.in
# Created using the Atomic Simulation Environment (ASE)
# Mon Mar 17 18:45:30 2025
#=======================================================
lattice_vector 10.0085024594469107 -0.0762024130565557 -0.0000000000000000 
lattice_vector -0.0762024130565560 10.0085024594469161 -0.0000000000000000 
lattice_vector 0.0000000000000000 -0.0000000000000000 105.9992395150267015 
atom 0.1413650986922640 -0.1724733448124682 0.2099084973941766 Ba
atom 5.1767245745359327 -0.1794663052205429 0.2099084973941766 Ba
atom 0.1343721382841895 4.8628861310311819 0.2099084973941765 Ba
atom 5.1075151218874382 4.7936766783826998 0.2099084973941766 Ba
atom -0.2696788914206081 0.1911705937884940 5.0062589003267179 Ba
atom 4.8130806359349627 0.2315776848923290 5.0062589003267162 Ba
atom -0.2292718003167721 5.2739301211440637 5.0062589003267162 Ba
atom 4.6964711317745627 5.1573206169836787 5.0062589003267179 Ba
atom 2.5003452591975219 2.4741697869408488 2.3965470870435621 Zr
atom 7.4962314659777913 2.4277035574693704 2.3965470870435617 Zr
atom 2.4538790297260435 7.4700559937211031 2.3965470870435617 Zr
atom 7.4664952823926960 7.4403198101360237 2.3965470870435621 Zr
atom 2.4720796312058031 2.4888331582712939 7.4508013264801738 Zr
atom 7.4815680946473382 2.4559691854610977 7.4508013264801756 Zr
atom 2.4392156583956011 7.4983216217128321 7.4508013264801756 Zr
atom 7.4382296544009616 7.4549831814664822 7.4508013264801738 Zr
atom 2.6575428126864229 2.7338229721537473 -0.1107692666848987 S
atom 7.2365782807648857 2.2705060039804685 -0.1107692666848987 S
atom 2.1942258445131468 7.3128584402322110 -0.1107692666848987 S
atom 7.6236928358816023 7.6999729953489116 -0.1107692666848987 S
atom 2.2312073666807160 2.1793415031132679 4.9577707230360009 S
atom 7.7910597498053695 2.6968414499861746 4.9577707230360009 S
atom 2.7487073135536289 7.7391938862379055 4.9577707230360009 S
atom 7.1973573898759060 7.1454915263084340 4.9577707230360009 S
atom 2.7965872302409438 -0.0181367567973837 2.2238814152398723 S
atom 7.1722045398882397 -0.0533606147919522 2.7762803034870833 S
atom 2.1298521036365070 4.9889918214597682 2.7762803034870833 S
atom 7.7627372534361134 4.9480132663977887 2.2238814152398723 S
atom 2.8951453906695908 -0.0176804537433157 7.7849277935882171 S
atom 7.1188547647314628 -0.0527874696651308 7.1621261039996806 S
atom 2.0765023284797373 4.9895649665865998 7.1621261039996806 S
atom 7.8612954138647675 4.9484695694518601 7.7849277935882171 S
atom -0.0199644497308939 2.2076639994825054 2.2238814152398723 S
atom 4.9814094314588440 2.7981967130303880 2.7762803034870842 S
atom -0.0609430047928833 7.8405491492821238 2.7762803034870842 S
atom 4.9461855734642679 7.1738140226776865 2.2238814152398723 S
atom -0.0204207527849620 2.1091058390538651 7.7849277935882188 S
atom 4.9808362863320319 2.8515464881871675 7.1621261039996824 S
atom -0.0615161499197049 7.8938989244389006 7.1621261039996824 S
atom 4.9457292704102169 7.0752558622490582 7.7849277935882188 S
atom 0.2850329961732542 -0.1831606700393151 9.9800268186366132 Ba
atom 5.1874118997627647 -0.3231342027015331 9.9800268186366168 Ba
atom 0.1450594635110364 4.7192182335502117 9.9800268186366168 Ba
atom 5.2511830193684226 4.7829893531558714 9.9800268186366132 Ba
atom -0.2861828318300098 0.1822987332044483 14.9836595133705277 Ba
atom 4.8219524965190121 0.2480816253017307 14.9836595133705277 Ba
atom -0.2203999397327272 5.2904340615534702 14.9836595133705277 Ba
atom 4.6799671913651562 5.1484487563996169 14.9836595133705277 Ba
atom 2.4880721143674096 2.4812468819447240 12.4676676784823748 Zr
atom 7.4891543709739032 2.4399767022994925 12.4676676784823712 Zr
atom 2.4468019347221635 7.4823291385512150 12.4676676784823712 Zr
atom 7.4542221375625708 7.4473969051399012 12.4676676784823748 Zr
atom 2.4809080809889306 2.4839182593765137 17.4815617001522945 Zr
atom 7.4864829935421193 2.4471407356779631 17.4815617001522945 Zr
atom 2.4441305572903809 7.4894931719297038 17.4815617001522945 Zr
atom 7.4470581041841015 7.4500682825716895 17.4815617001522945 Zr
atom 2.7464684100828909 2.8115565757012457 9.9708235432256060 S
atom 7.1588446772173899 2.1815804065840148 9.9708235432256025 S
atom 2.1164922409656528 7.2239328428357537 9.9708235432256025 S
atom 7.7126184332780721 7.7777065988964171 9.9708235432256060 S
atom 2.2167480270199835 2.1516483132334407 14.9806697229188064 S
atom 7.8187529396851900 2.7113007896469083 14.9806697229188028 S
atom 2.7764005034334551 7.7536532258986437 14.9806697229188028 S
atom 7.1828980502151643 7.1177983364286153 14.9806697229188064 S
atom 2.8887923951791006 -0.0216650938610191 12.1623859053310532 S
atom 7.1204891520672557 -0.0571792641965315 12.8013936812095395 S
atom 2.0781367158155164 4.9851731720552017 12.8013936812095395 S
atom 7.8549424183742564 4.9444849293341600 12.1623859053310532 S
atom 2.8869871839793504 -0.0195902756445509 17.8092791842077389 S
atom 7.1206590193996862 -0.0551107785807354 17.1663998929108104 S
atom 2.0783065831479557 4.9872416576709941 17.1663998929108104 S
atom 7.8531372071745160 4.9465597475506353 17.8092791842077389 S
atom -0.0164361126672586 2.1154588345443557 12.1623859053310497 S
atom 4.9852280808634291 2.8499121008513790 12.8013936812095395 S
atom -0.0571243553883042 7.8922645371031148 12.8013936812095395 S
atom 4.9497139105279198 7.0816088577395382 12.1623859053310497 S
atom -0.0185109308837268 2.1172640457441037 17.8092791842077354 S
atom 4.9831595952476366 2.8497422335189473 17.1663998929108210 S
atom -0.0591928410041002 7.8920946697706915 17.1663998929108210 S
atom 4.9476390923114399 7.0834140689392742 17.8092791842077354 S
atom 0.2865013167707606 -0.1814770781916681 19.9907440870557309 Ba
atom 5.1857283079151228 -0.3246025232990393 19.9907440870557380 Ba
atom 0.1433758716633900 4.7177499129526925 19.9907440870557380 Ba
atom 5.2526513399659294 4.7846729450035079 19.9907440870557309 Ba
atom -0.2869607374242303 0.1816750871082256 24.9998206403364733 Ba
atom 4.8225761426152234 0.2488595308959520 24.9998206403364733 Ba
atom -0.2197762936365031 5.2912119671476701 24.9998206403364733 Ba
atom 4.6791892857709554 5.1478251103034021 24.9998206403364733 Ba
atom 2.4834696652933914 2.4830574673524222 22.4938633529522676 Zr
atom 7.4873437855662042 2.4445791513735129 22.4938633529522676 Zr
atom 2.4449913493144759 7.4869315876252376 22.4938633529522676 Zr
atom 7.4496196884885713 7.4492074905475993 22.4938633529522676 Zr
atom 2.4834696652933914 2.4830574673524222 27.5057779277206045 Zr
atom 7.4873437855662042 2.4445791513735129 27.5057779277206116 Zr
atom 2.4449913493144759 7.4869315876252376 27.5057779277206116 Zr
atom 7.4496196884885713 7.4492074905475993 27.5057779277206045 Zr
atom 2.7499890210915257 2.8158996412079866 19.9903375731358572 S
atom 7.1545016117106401 2.1780597955753760 19.9903375731358572 S
atom 2.1121491754589115 7.2204122318271118 19.9903375731358572 S
atom 7.7161390442866962 7.7820496644031660 19.9903375731358572 S
atom 2.2156520622510438 2.1503401531059656 24.9998206403364733 S
atom 7.8200610998126647 2.7123967544158485 24.9998206403364733 S
atom 2.7777086635609334 7.7547491906675825 24.9998206403364733 S
atom 7.1818020854462317 7.1164901763011388 24.9998206403364733 S
atom 2.8873656055958286 -0.0203526021183238 22.1737518043327526 S
atom 7.1210880113035628 -0.0558877516105731 22.8176904207700417 S
atom 2.0787355750518328 4.9864646846411524 22.8176904207700417 S
atom 7.8535156287910128 4.9457974210768523 22.1737518043327526 S
atom 2.8873656055958277 -0.0203526021183238 27.8258894763402722 S
atom 7.1210880113035628 -0.0558877516105731 27.1819508599029618 S
atom 2.0787355750518328 4.9864646846411524 27.1819508599029618 S
atom 7.8535156287910128 4.9457974210768523 27.8258894763402722 S
atom -0.0177486044099539 2.1168856241276162 22.1737518043327491 S
atom 4.9839365682774721 2.8493132416150662 22.8176904207700488 S
atom -0.0584158679742626 7.8916656778668060 22.8176904207700488 S
atom 4.9484014187852159 7.0830356473227924 22.1737518043327491 S
atom -0.0177486044099539 2.1168856241276162 27.8258894763402687 S
atom 4.9839365682774721 2.8493132416150662 27.1819508599029760 S
atom -0.0584158679742625 7.8916656778668060 27.1819508599029760 S
atom 4.9484014187852159 7.0830356473227916 27.8258894763402687 S
atom 0.2865013167707606 -0.1814770781916681 30.0088971936172086 Ba
atom 5.1857283079151228 -0.3246025232990392 30.0088971936171944 Ba
atom 0.1433758716633900 4.7177499129526925 30.0088971936171944 Ba
atom 5.2526513399659294 4.7846729450035079 30.0088971936172086 Ba
atom -0.2861828318300097 0.1822987332044483 35.0159817673024563 Ba
atom 4.8219524965190121 0.2480816253017308 35.0159817673024563 Ba
atom -0.2203999397327272 5.2904340615534702 35.0159817673024563 Ba
atom 4.6799671913651562 5.1484487563996169 35.0159817673024563 Ba
atom 2.4809080809889306 2.4839182593765137 32.5180795805206344 Zr
atom 7.4864829935421193 2.4471407356779631 32.5180795805206344 Zr
atom 2.4441305572903809 7.4894931719297038 32.5180795805206344 Zr
atom 7.4470581041841015 7.4500682825716895 32.5180795805206344 Zr
atom 2.4880721143674096 2.4812468819447240 37.5319736021905896 Zr
atom 7.4891543709739032 2.4399767022994925 37.5319736021905896 Zr
atom 2.4468019347221635 7.4823291385512150 37.5319736021905896 Zr
atom 7.4542221375625708 7.4473969051399012 37.5319736021905896 Zr
atom 2.7499890210915257 2.8158996412079866 30.0093037075370503 S
atom 7.1545016117106401 2.1780597955753760 30.0093037075370503 S
atom 2.1121491754589115 7.2204122318271118 30.0093037075370503 S
atom 7.7161390442866962 7.7820496644031660 30.0093037075370503 S
atom 2.2167480270199835 2.1516483132334407 35.0189715577541776 S
atom 7.8187529396851900 2.7113007896469083 35.0189715577541776 S
atom 2.7764005034334551 7.7536532258986437 35.0189715577541776 S
atom 7.1828980502151643 7.1177983364286153 35.0189715577541776 S
atom 2.8869871839793504 -0.0195902756445509 32.1903620964652788 S
atom 7.1206590193996862 -0.0551107785807354 32.8332413877621150 S
atom 2.0783065831479557 4.9872416576709941 32.8332413877621150 S
atom 7.8531372071745160 4.9465597475506353 32.1903620964652788 S
atom 2.8887923951791006 -0.0216650938610190 37.8372553753418828 S
atom 7.1204891520672557 -0.0571792641965315 37.1982475994634498 S
atom 2.0781367158155164 4.9851731720552026 37.1982475994634498 S
atom 7.8549424183742564 4.9444849293341600 37.8372553753418828 S
atom -0.0185109308837268 2.1172640457441037 32.1903620964652646 S
atom 4.9831595952476366 2.8497422335189473 32.8332413877621150 S
atom -0.0591928410041002 7.8920946697706915 32.8332413877621150 S
atom 4.9476390923114399 7.0834140689392742 32.1903620964652646 S
atom -0.0164361126672586 2.1154588345443548 37.8372553753418686 S
atom 4.9852280808634291 2.8499121008513790 37.1982475994634498 S
atom -0.0571243553883042 7.8922645371031148 37.1982475994634498 S
atom 4.9497139105279198 7.0816088577395382 37.8372553753418686 S
atom 0.2850329961732542 -0.1831606700393151 40.0196144620363938 Ba
atom 5.1874118997627647 -0.3231342027015331 40.0196144620363796 Ba
atom 0.1450594635110364 4.7192182335502117 40.0196144620363796 Ba
atom 5.2511830193684226 4.7829893531558714 40.0196144620363938 Ba
atom -0.2696788914206080 0.1911705937884940 44.9933823803461834 Ba
atom 4.8130806359349627 0.2315776848923290 44.9933823803461834 Ba
atom -0.2292718003167721 5.2739301211440637 44.9933823803461834 Ba
atom 4.6964711317745627 5.1573206169836787 44.9933823803461834 Ba
atom 2.4720796312058031 2.4888331582712939 42.5488399541928430 Zr
atom 7.4815680946473382 2.4559691854610977 42.5488399541928430 Zr
atom 2.4392156583956011 7.4983216217128321 42.5488399541928430 Zr
atom 7.4382296544009616 7.4549831814664822 42.5488399541928430 Zr
atom 2.5003452591975219 2.4741697869408488 47.6030941936294312 Zr
atom 7.4962314659777913 2.4277035574693704 47.6030941936294454 Zr
atom 2.4538790297260435 7.4700559937211031 47.6030941936294454 Zr
atom 7.4664952823926960 7.4403198101360237 47.6030941936294312 Zr
atom 2.7464684100828909 2.8115565757012457 40.0288177374473619 S
atom 7.1588446772173899 2.1815804065840148 40.0288177374473619 S
atom 2.1164922409656528 7.2239328428357537 40.0288177374473619 S
atom 7.7126184332780721 7.7777065988964171 40.0288177374473619 S
atom 2.2312073666807160 2.1793415031132679 45.0418705576369902 S
atom 7.7910597498053695 2.6968414499861755 45.0418705576369902 S
atom 2.7487073135536289 7.7391938862379055 45.0418705576369902 S
atom 7.1973573898759060 7.1454915263084340 45.0418705576369902 S
atom 2.8951453906695908 -0.0176804537433157 42.2147134870846870 S
atom 7.1188547647314628 -0.0527874696651308 42.8375151766731932 S
atom 2.0765023284797373 4.9895649665865998 42.8375151766731932 S
atom 7.8612954138647675 4.9484695694518601 42.2147134870846870 S
atom 2.7965872302409438 -0.0181367567973837 47.7757598654330309 S
atom 7.1722045398882397 -0.0533606147919522 47.2233609771858553 S
atom 2.1298521036365070 4.9889918214597682 47.2233609771858553 S
atom 7.7627372534361134 4.9480132663977887 47.7757598654330309 S
atom -0.0204207527849620 2.1091058390538651 42.2147134870847012 S
atom 4.9808362863320319 2.8515464881871675 42.8375151766731932 S
atom -0.0615161499197049 7.8938989244389006 42.8375151766731932 S
atom 4.9457292704102169 7.0752558622490582 42.2147134870847012 S
atom -0.0199644497308939 2.2076639994825054 47.7757598654330309 S
atom 4.9814094314588440 2.7981967130303889 47.2233609771858553 S
atom -0.0609430047928833 7.8405491492821238 47.2233609771858553 S
atom 4.9461855734642679 7.1738140226776865 47.7757598654330309 S
atom 0.1413650986922640 -0.1724733448124682 49.7897327832787724 Ba
atom 5.1767245745359327 -0.1794663052205429 49.7897327832787724 Ba
atom 0.1343721382841895 4.8628861310311819 49.7897327832787724 Ba
atom 5.1075151218874382 4.7936766783826998 49.7897327832787724 Ba
atom 2.6575428126864229 2.7338229721537473 50.1104105473578159 S
atom 7.2365782807648857 2.2705060039804685 50.1104105473578159 S
atom 2.1942258445131468 7.3128584402322110 50.1104105473578159 S
atom 7.6236928358816023 7.6999729953489116 50.1104105473578159 S
atom 2.6243885140200280 2.3106690472732319 53.2096558375691302 Ba
atom 7.6597322056453869 2.3036603026468638 53.2096558375691302 Ba
atom 2.6173797693936622 7.3460127388985974 53.2096558375691302 Ba
atom 7.5905385372152114 7.2768190704684139 53.2096558375691302 Ba
atom 2.2133515618316468 2.6742794749505334 58.0059848637954190 Ba
atom 7.2961217779680902 2.7146972548352521 58.0059848637954190 Ba
atom 2.2537693417163642 7.7570496910869782 58.0059848637954190 Ba
atom 7.1795015850268262 7.6404294981457186 58.0059848637954190 Ba
atom 4.9833761499944993 4.9572881994463280 55.3962866407724874 Zr
atom 9.9792630766674790 4.9108226898675715 55.3962866407724732 Zr
atom 4.9369106404157419 9.9531751261193211 55.3962866407724732 Zr
atom 9.9495261731896658 9.9234382226414990 55.3962866407724874 Zr
atom 4.9551151003224421 4.9719345915537190 60.4505162080262579 Zr
atom 9.9646166845600650 4.9390837395396323 60.4505162080262437 Zr
atom 4.9222642483083421 9.9814361757913730 60.4505162080262437 Zr
atom 9.9212651235176175 9.9380846147489077 60.4505162080262579 Zr
atom 5.1405926236239754 5.2169312800979961 52.8889700002984426 S
atom 9.7196199960158065 4.7536062162381088 52.8889700002984426 S
atom 4.6772675597640774 9.7959586524898246 52.8889700002984426 S
atom 10.1067426468191517 10.1830813032931928 52.8889700002984426 S
atom 4.7142367334772377 4.6624397625857643 57.9574937060338016 S
atom 10.2741115135280303 5.1799621063848287 57.9574937060338016 S
atom 5.2317590772763021 10.2223145426365711 57.9574937060338016 S
atom 9.6803867566724122 9.6285897857809442 57.9574937060338016 S
atom 5.2795955782138471 2.4649865037927841 55.2236226907256338 S
atom 9.6552241295076406 2.4297574724029078 55.7760116760529883 S
atom 4.6128716932559133 7.4721099086546419 55.7760116760529883 S
atom 10.2457456014090358 7.4311365269879772 55.2236226907256338 S
atom 5.3781745285801312 2.4654234738198966 60.7846538652634010 S
atom 9.6019243386060253 2.4303226301568834 60.1618213166747680 S
atom 4.5595719023542900 7.4726750664086117 60.1618213166747680 S
atom 10.3443245517753297 7.4315734970150755 60.7846538652634010 S
atom 2.4630623128741185 4.6908056747047873 55.2236226907256338 S
atom 7.4644413674591608 5.2813271466061718 55.7760116760529883 S
atom 2.4220889312074361 10.3236795828579169 55.7760116760529883 S
atom 7.4292123360692734 9.6569556978999511 55.2236226907256338 S
atom 2.4626253428470064 4.5922267243384800 60.7846538652634578 S
atom 7.4638762097051998 5.3346269375077968 60.1618213166747822 S
atom 2.4215237734534636 10.3769793737595375 60.1618213166747822 S
atom 7.4287753660421778 9.5583767475336590 60.7846538652634578 S
atom 2.7680838071629035 2.2999177444009575 62.9797232670784837 Ba
atom 7.6704835085176759 2.1599650095039866 62.9797232670784837 Ba
atom 2.6281310722659437 7.2023174457557282 62.9797232670784837 Ba
atom 7.7342338303580798 7.2660677675961294 62.9797232670784837 Ba
atom 2.1969743144650917 2.6653009215395151 67.9833046240070900 Ba
atom 7.3051003313791139 2.7310745022018064 67.9833046240070615 Ba
atom 2.2627478951273878 7.7734269384535422 67.9833046240070615 Ba
atom 7.1631243376602596 7.6314509447346968 67.9833046240070900 Ba
atom 4.9711460558035094 4.9643106991587684 65.4673567038172166 Zr
atom 9.9722405769550555 4.9230527840585765 65.4673567038172166 Zr
atom 4.9298881407033086 9.9654052203103110 65.4673567038172166 Zr
atom 9.9372960789986706 9.9304607223539509 65.4673567038172166 Zr
atom 4.9641383265998051 4.9668563865135571 70.4812205086719388 Zr
atom 9.9696948896002215 4.9300605132622497 70.4812205086719672 Zr
atom 4.9273424533485342 9.9724129495140090 70.4812205086719672 Zr
atom 9.9302883497949423 9.9330064097087210 70.4812205086719388 Zr
atom 5.2295474934556374 5.2946531381648194 62.9705217630519627 S
atom 9.6418981379489903 4.6646513464064503 62.9705217630519769 S
atom 4.5995457016972567 9.7070037826581839 62.9705217630519769 S
atom 10.1956975166508172 10.2608031613599966 62.9705217630519627 S
atom 4.6998961034486140 4.6346334110753604 67.9803411147785965 S
atom 10.3019178650384298 5.1943027364134355 67.9803411147786534 S
atom 5.2595654287867113 10.2366551726651895 67.9803411147786534 S
atom 9.6660461266437885 9.6007834342705412 67.9803411147785965 S
atom 5.3718566593093220 2.4613833561061464 65.1620645548810842 S
atom 9.6036305946496938 2.4258760755023978 65.8010657244186632 S
atom 4.5612781583979762 7.4682285117541323 65.8010657244186632 S
atom 10.3380066825045116 7.4275333793013276 65.1620645548810842 S
atom 5.3702228288740095 2.4633521323538625 70.8089300423873595 S
atom 9.6038372253883679 2.4278226322459076 70.1660340776365103 S
atom 4.5614847891366157 7.4701750684976496 70.1660340776365103 S
atom 10.3363728520691946 7.4295021555490575 70.8089300423873595 S
atom 2.4666654605607485 4.5985445936093114 65.1620645548811126 S
atom 7.4683227643596810 5.3329206814640866 65.8010657244186632 S
atom 2.4259703281079417 10.3752731177158140 65.8010657244186632 S
atom 7.4328154837559408 9.5646946168044575 65.1620645548811126 S
atom 2.4646966843130285 4.6001784240446266 70.8089300423873595 S
atom 7.4663762076161548 5.3327140507254684 70.1660340776365672 S
atom 2.4240237713644368 10.3750664869772162 70.1660340776365672 S
atom 7.4308467075082074 9.5663284472397763 70.8089300423873595 S
atom 2.7697499928370779 2.3014260328374112 72.9903852961368074 Ba
atom 7.6689752200812134 2.1582988238298069 72.9903852961368358 Ba
atom 2.6266227838294842 7.2006512600815364 72.9903852961368358 Ba
atom 7.7359000160322680 7.2675760560326035 72.9903852961368074 Ba
atom 2.1962796608478397 2.6645635198499815 77.9994403978497957 Ba
atom 7.3058377330686293 2.7317691558190567 77.9994403978497957 Ba
atom 2.2634852968169095 7.7741215920707987 77.9994403978497957 Ba
atom 7.1624296840430093 7.6307135430451698 77.9994403978497957 Ba
atom 4.9667183423664403 4.9659555189598299 75.4934902124007579 Zr
atom 9.9705957571539550 4.9274804974956430 75.4934902124007863 Zr
atom 4.9282433209022356 9.9698329337473659 75.4934902124007863 Zr
atom 9.9328683655616246 9.9321055421550266 75.4934902124007579 Zr
atom 4.9667183423664403 4.9659555189598299 80.5053905832988050 Zr
atom 9.9705957571539550 4.9274804974956430 80.5053905832987198 Zr
atom 4.9282433209022356 9.9698329337473659 80.5053905832987198 Zr
atom 9.9328683655616246 9.9321055421550266 80.5053905832988050 Zr
atom 5.2332413115456804 5.2988232732427791 72.9899758939739058 S
atom 9.6377280028710306 4.6609575283163913 72.9899758939738774 S
atom 4.5953755666193024 9.7033099645681329 72.9899758939738774 S
atom 10.1993913347408558 10.2649732964379563 72.9899758939739058 S
atom 4.6989057573400386 4.6332202981150523 77.9994403978497957 S
atom 10.3033309779987530 5.1952930825220394 77.9994403978497957 S
atom 5.2609785417470230 10.2376455187737569 77.9994403978497957 S
atom 9.6650557805352157 9.5993703213102126 77.9994403978497957 S
atom 5.3705948466515174 2.4625458263829203 75.1733743535118180 S
atom 9.6043571197482240 2.4270144511314844 75.8173229048107657 S
atom 4.5620046834964807 7.4693668873832157 75.8173229048107657 S
atom 10.3367448698467008 7.4286958495781139 75.1733743535118180 S
atom 5.3705948466515174 2.4625458263829203 80.8255064421878160 S
atom 9.6043571197482240 2.4270144511314844 80.1815578908889677 S
atom 4.5620046834964807 7.4693668873832157 80.1815578908889677 S
atom 10.3367448698467008 7.4286958495781139 80.8255064421878160 S
atom 2.4655029902839747 4.5998064062671009 75.1733743535117895 S
atom 7.4671843887305913 5.3321941563655813 75.8173229048107942 S
atom 2.4248319524788489 10.3745465926173157 75.8173229048107942 S
atom 7.4316530134791376 9.5659564294622932 75.1733743535117895 S
atom 2.4655029902839747 4.5998064062671009 80.8255064421878444 S
atom 7.4671843887305913 5.3321941563655813 80.1815578908889108 S
atom 2.4248319524788489 10.3745465926173157 80.1815578908889108 S
atom 7.4316530134791376 9.5659564294622932 80.8255064421878444 S
atom 2.7697499928370779 2.3014260328374112 83.0084954995627413 Ba
atom 7.6689752200812134 2.1582988238298069 83.0084954995627697 Ba
atom 2.6266227838294842 7.2006512600815364 83.0084954995627697 Ba
atom 7.7359000160322680 7.2675760560326035 83.0084954995627413 Ba
atom 2.1969743144650917 2.6653009215395151 88.0155761716923450 Ba
atom 7.3051003313791139 2.7310745022018064 88.0155761716923166 Ba
atom 2.2627478951273878 7.7734269384535422 88.0155761716923166 Ba
atom 7.1631243376602596 7.6314509447346968 88.0155761716923450 Ba
atom 4.9641383265998051 4.9668563865135571 85.5176602870275531 Zr
atom 9.9696948896002215 4.9300605132622497 85.5176602870275246 Zr
atom 4.9273424533485342 9.9724129495140090 85.5176602870275246 Zr
atom 9.9302883497949423 9.9330064097087210 85.5176602870275531 Zr
atom 4.9711460558035094 4.9643106991587684 90.5315240918821473 Zr
atom 9.9722405769550555 4.9230527840585765 90.5315240918821473 Zr
atom 4.9298881407033086 9.9654052203103110 90.5315240918821473 Zr
atom 9.9372960789986706 9.9304607223539509 90.5315240918821473 Zr
atom 5.2332413115456804 5.2988232732427791 83.0089049017256571 S
atom 9.6377280028710306 4.6609575283163913 83.0089049017256002 S
atom 4.5953755666193024 9.7033099645681329 83.0089049017256002 S
atom 10.1993913347408558 10.2649732964379563 83.0089049017256571 S
atom 4.6998961034486140 4.6346334110753604 88.0185396809211653 S
atom 10.3019178650384298 5.1943027364134355 88.0185396809211369 S
atom 5.2595654287867113 10.2366551726651895 88.0185396809211369 S
atom 9.6660461266437885 9.6007834342705412 88.0185396809211653 S
atom 5.3702228288740095 2.4633521323538625 85.1899507533122176 S
atom 9.6038372253883679 2.4278226322459076 85.8328467180632373 S
atom 4.5614847891366157 7.4701750684976496 85.8328467180632373 S
atom 10.3363728520691946 7.4295021555490575 85.1899507533122176 S
atom 5.3718566593093220 2.4613833561061464 90.8368162408183650 S
atom 9.6036305946496938 2.4258760755023978 90.1978150712808429 S
atom 4.5612781583979762 7.4682285117541323 90.1978150712808429 S
atom 10.3380066825045116 7.4275333793013276 90.8368162408183650 S
atom 2.4646966843130285 4.6001784240446266 85.1899507533121891 S
atom 7.4663762076161548 5.3327140507254684 85.8328467180632657 S
atom 2.4240237713644368 10.3750664869772162 85.8328467180632657 S
atom 7.4308467075082074 9.5663284472397763 85.1899507533121891 S
atom 2.4666654605607485 4.5985445936093114 90.8368162408183366 S
atom 7.4683227643596810 5.3329206814640866 90.1978150712808429 S
atom 2.4259703281079417 10.3752731177158140 90.1978150712808429 S
atom 7.4328154837559408 9.5646946168044575 90.8368162408183366 S
atom 2.7680838071629035 2.2999177444009575 93.0191575286210224 Ba
atom 7.6704835085176759 2.1599650095039866 93.0191575286210224 Ba
atom 2.6281310722659437 7.2023174457557282 93.0191575286210224 Ba
atom 7.7342338303580798 7.2660677675961294 93.0191575286210224 Ba
atom 2.2133515618316468 2.6742794749505334 97.9928959319042008 Ba
atom 7.2961217779680902 2.7146972548352521 97.9928959319042008 Ba
atom 2.2537693417163642 7.7570496910869782 97.9928959319042008 Ba
atom 7.1795015850268262 7.6404294981457186 97.9928959319042008 Ba
atom 4.9551151003224421 4.9719345915537190 95.5483645876733902 Zr
atom 9.9646166845600650 4.9390837395396323 95.5483645876733334 Zr
atom 4.9222642483083421 9.9814361757913730 95.5483645876733334 Zr
atom 9.9212651235176175 9.9380846147489077 95.5483645876733902 Zr
atom 4.9833761499944993 4.9572881994463280 100.6025941549271039 Zr
atom 9.9792630766674790 4.9108226898675715 100.6025941549270470 Zr
atom 4.9369106404157419 9.9531751261193211 100.6025941549270470 Zr
atom 9.9495261731896658 9.9234382226414990 100.6025941549271039 Zr
atom 5.2295474934556374 5.2946531381648194 93.0283590326478276 S
atom 9.6418981379489903 4.6646513464064503 93.0283590326477992 S
atom 4.5995457016972567 9.7070037826581839 93.0283590326477992 S
atom 10.1956975166508172 10.2608031613599966 93.0283590326478276 S
atom 4.7142367334772377 4.6624397625857643 98.0413870896657613 S
atom 10.2741115135280303 5.1799621063848287 98.0413870896657897 S
atom 5.2317590772763021 10.2223145426365711 98.0413870896657897 S
atom 9.6803867566724122 9.6285897857809442 98.0413870896657613 S
atom 5.3781745285801312 2.4654234738198966 95.2142269304361122 S
atom 9.6019243386060253 2.4303226301568834 95.8370594790246457 S
atom 4.5595719023542900 7.4726750664086117 95.8370594790246457 S
atom 10.3443245517753297 7.4315734970150755 95.2142269304361122 S
atom 5.2795955782138471 2.4649865037927841 100.7752581049740002 S
atom 9.6552241295076406 2.4297574724029078 100.2228691196465888 S
atom 4.6128716932559133 7.4721099086546419 100.2228691196465888 S
atom 10.2457456014090358 7.4311365269879772 100.7752581049740002 S
atom 2.4626253428470064 4.5922267243384800 95.2142269304360696 S
atom 7.4638762097051998 5.3346269375077968 95.8370594790246173 S
atom 2.4215237734534636 10.3769793737595375 95.8370594790246173 S
atom 7.4287753660421778 9.5583767475336590 95.2142269304360696 S
atom 2.4630623128741185 4.6908056747047873 100.7752581049740002 S
atom 7.4644413674591608 5.2813271466061718 100.2228691196465888 S
atom 2.4220889312074361 10.3236795828579169 100.2228691196465888 S
atom 7.4292123360692734 9.6569556978999511 100.7752581049740002 S
atom 2.6243885140200280 2.3106690472732319 102.7892249581304327 Ba
atom 7.6597322056453869 2.3036603026468638 102.7892249581304611 Ba
atom 2.6173797693936622 7.3460127388985974 102.7892249581304611 Ba
atom 7.5905385372152114 7.2768190704684139 102.7892249581304327 Ba
atom 5.1405926236239754 5.2169312800979961 103.1099107954011771 S
atom 9.7196199960158065 4.7536062162381088 103.1099107954011771 S
atom 4.6772675597640774 9.7959586524898246 103.1099107954011771 S
atom 10.1067426468191517 10.1830813032931928 103.1099107954011771 S
