#=======================================================
# FHI-aims file: sym_relax/sym_relax_RP_9_00Mz1_00Mz2.in
# Created using the Atomic Simulation Environment (ASE)
# Mon Mar 17 16:29:13 2025
#=======================================================
lattice_vector 9.9086248608688745 -0.0000000226116251 0.0000000000000000 
lattice_vector -0.0000000226116251 9.9086248608688496 0.0000000000000000 
lattice_vector 0.0000000000000000 0.0000000000000000 97.8450254243700925 
atom -0.0000000000000000 0.0000000000000000 0.1613788739186246 Ba
atom 4.9543124304344328 -0.0000000113058127 0.1613788739186246 Ba
atom -0.0000000113058127 4.9543124304344222 0.1613788739186246 Ba
atom 4.9543124191286116 4.9543124191286037 0.1613788739186246 Ba
atom -0.0000000000000000 0.0000000000000000 5.0648110659572518 Ba
atom 4.9543124304344328 -0.0000000113058127 5.0648110659572518 Ba
atom -0.0000000113058127 4.9543124304344222 5.0648110659572518 Ba
atom 4.9543124191286116 4.9543124191286037 5.0648110659572518 Ba
atom 2.4771562095643058 2.4771562095643018 2.4346318604293509 Zr
atom 7.4314686399987364 2.4771561982584918 2.4346318604293509 Zr
atom 2.4771561982584966 7.4314686399987213 2.4346318604293509 Zr
atom 7.4314686286929215 7.4314686286929179 2.4346318604293509 Zr
atom 2.4771562095643058 2.4771562095643018 7.5727916467423757 Zr
atom 7.4314686399987364 2.4771561982584918 7.5727916467423757 Zr
atom 2.4771561982584966 7.4314686399987213 7.5727916467423757 Zr
atom 7.4314686286929215 7.4314686286929179 7.5727916467423757 Zr
atom 2.4771562095643058 2.4771562095643018 -0.1081648205513602 S
atom 7.4314686399987364 2.4771561982584918 -0.1081648205513603 S
atom 2.4771561982584966 7.4314686399987213 -0.1081648205513602 S
atom 7.4314686286929215 7.4314686286929179 -0.1081648205513602 S
atom 2.4771562095643058 2.4771562095643018 5.0355255233372063 S
atom 7.4314686399987364 2.4771561982584918 5.0355255233372063 S
atom 2.4771561982584966 7.4314686399987213 5.0355255233372063 S
atom 7.4314686286929215 7.4314686286929179 5.0355255233372063 S
atom 2.0524828583086889 -0.0000001113922968 2.5283333757281090 S
atom 7.8561420025601683 0.0000000887806713 2.5283333757281090 S
atom 2.9018295608199338 4.9543125305209035 2.5283333757281090 S
atom 7.0067952774373143 4.9543123077363074 2.5283333757281090 S
atom 2.9978422496583943 0.0000000012945916 7.5893743811601091 S
atom 6.9107826112104567 -0.0000000239062171 7.5893743811601091 S
atom 1.9564701694702167 4.9543124178340161 7.5893743811601091 S
atom 7.9521546687870215 4.9543124204232036 7.5893743811601091 S
atom 0.0000001000864841 2.9018295721257354 2.5283333757281090 S
atom 4.9543123190421339 2.0524828470028726 2.5283333757281090 S
atom -0.0000001226981095 7.0067952887431089 2.5283333757281090 S
atom 4.9543125192151081 7.8561419912543400 2.5283333757281090 S
atom -0.0000000126004044 1.9564701807760270 7.5893743811601091 S
atom 4.9543124317290230 2.9978422383525767 7.5893743811601091 S
atom -0.0000000100112211 7.9521546800928196 7.5893743811601091 S
atom 4.9543124065282091 6.9107825999046382 7.5893743811601091 S
atom 0.0000000000000000 -0.0000000000000000 10.1537418494963099 Ba
atom 4.9543124304344328 -0.0000000113058127 10.1537418494963099 Ba
atom -0.0000000113058127 4.9543124304344222 10.1537418494963099 Ba
atom 4.9543124191286116 4.9543124191286037 10.1537418494963099 Ba
atom 0.0000000000000000 0.0000000000000000 15.2624404456755283 Ba
atom 4.9543124304344328 -0.0000000113058127 15.2624404456755283 Ba
atom -0.0000000113058127 4.9543124304344222 15.2624404456755283 Ba
atom 4.9543124191286116 4.9543124191286037 15.2624404456755283 Ba
atom 2.4771562095643058 2.4771562095643018 12.6946363860167288 Zr
atom 7.4314686399987364 2.4771561982584918 12.6946363860167288 Zr
atom 2.4771561982584966 7.4314686399987213 12.6946363860167288 Zr
atom 7.4314686286929215 7.4314686286929179 12.6946363860167288 Zr
atom 2.4771562095643058 2.4771562095643018 17.8139426601303299 Zr
atom 7.4314686399987364 2.4771561982584918 17.8139426601303299 Zr
atom 2.4771561982584966 7.4314686399987213 17.8139426601303299 Zr
atom 7.4314686286929215 7.4314686286929179 17.8139426601303299 Zr
atom 2.4771562095643058 2.4771562095643018 10.1451014403517021 S
atom 7.4314686399987364 2.4771561982584918 10.1451014403517021 S
atom 2.4771561982584966 7.4314686399987213 10.1451014403517021 S
atom 7.4314686286929215 7.4314686286929179 10.1451014403517021 S
atom 2.4771562095643058 2.4771562095643018 15.2602426386329739 S
atom 7.4314686399987364 2.4771561982584918 15.2602426386329739 S
atom 2.4771561982584966 7.4314686399987213 15.2602426386329739 S
atom 7.4314686286929215 7.4314686286929179 15.2602426386329739 S
atom 2.9798434586628244 -0.0000000028640331 12.7084029583361939 S
atom 6.9287814022060461 -0.0000000197475923 12.7084029583361939 S
atom 1.9744689604657961 4.9543124219926442 12.7084029583361939 S
atom 7.9341558777914356 4.9543124162645755 12.7084029583361939 S
atom 2.9819425960942425 -0.0000000053749794 17.8191849570588197 S
atom 6.9266822647746116 -0.0000000172366460 17.8191849570588197 S
atom 1.9723698230343740 4.9543124245035939 17.8191849570588197 S
atom 7.9362550152228692 4.9543124137536223 17.8191849570588197 S
atom -0.0000000084417796 1.9744689717716015 12.7084029583361939 S
atom 4.9543124275703976 2.9798434473570028 12.7084029583361939 S
atom -0.0000000141698459 7.9341558890972284 12.7084029583361939 S
atom 4.9543124106868346 6.9287813909002107 12.7084029583361939 S
atom -0.0000000059308333 1.9723698343401836 17.8191849570588197 S
atom 4.9543124250594461 2.9819425847884222 17.8191849570588197 S
atom -0.0000000166807922 7.9362550265286584 17.8191849570588197 S
atom 4.9543124131977860 6.9266822534687860 17.8191849570588197 S
atom -0.0000000000000000 0.0000000000000000 20.3751488683369786 Ba
atom 4.9543124304344328 -0.0000000113058127 20.3751488683369786 Ba
atom -0.0000000113058127 4.9543124304344222 20.3751488683369786 Ba
atom 4.9543124191286116 4.9543124191286037 20.3751488683369786 Ba
atom -0.0000000000000000 0.0000000000000000 25.4897067993365205 Ba
atom 4.9543124304344328 -0.0000000113058127 25.4897067993365205 Ba
atom -0.0000000113058127 4.9543124304344222 25.4897067993365205 Ba
atom 4.9543124191286116 4.9543124191286037 25.4897067993365205 Ba
atom 2.4771562095643058 2.4771562095643018 22.9324278338367478 Zr
atom 7.4314686399987364 2.4771561982584918 22.9324278338367478 Zr
atom 2.4771561982584966 7.4314686399987213 22.9324278338367478 Zr
atom 7.4314686286929215 7.4314686286929179 22.9324278338367478 Zr
atom 2.4771562095643058 2.4771562095643018 28.0509130075431869 Zr
atom 7.4314686399987364 2.4771561982584918 28.0509130075431869 Zr
atom 2.4771561982584966 7.4314686399987213 28.0509130075431869 Zr
atom 7.4314686286929215 7.4314686286929179 28.0509130075431869 Zr
atom 2.4771562095643058 2.4771562095643018 20.3750490940240709 S
atom 7.4314686399987364 2.4771561982584918 20.3750490940240709 S
atom 2.4771561982584966 7.4314686399987213 20.3750490940240709 S
atom 7.4314686286929215 7.4314686286929179 20.3750490940240709 S
atom 2.4771562095643058 2.4771562095643018 25.4898065736494317 S
atom 7.4314686399987364 2.4771561982584918 25.4898065736494317 S
atom 2.4771561982584966 7.4314686399987213 25.4898065736494317 S
atom 7.4314686286929215 7.4314686286929179 25.4898065736494317 S
atom 2.9825062630881534 -0.0000000053713714 22.9324278338367478 S
atom 6.9261185977807109 -0.0000000172402541 22.9324278338367478 S
atom 1.9718061560404656 4.9543124244999808 22.9324278338367478 S
atom 7.9368186822167814 4.9543124137572407 22.9324278338367478 S
atom 2.9819425960942425 -0.0000000053749794 28.0456707106146723 S
atom 6.9266822647746116 -0.0000000172366460 28.0456707106146723 S
atom 1.9723698230343740 4.9543124245035939 28.0456707106146723 S
atom 7.9362550152228692 4.9543124137536223 28.0456707106146723 S
atom -0.0000000059344414 1.9718061673462728 22.9324278338367478 S
atom 4.9543124250630584 2.9825062517823344 22.9324278338367478 S
atom -0.0000000166771841 7.9368186935225680 22.9324278338367478 S
atom 4.9543124131941729 6.9261185864748844 22.9324278338367478 S
atom -0.0000000059308333 1.9723698343401836 28.0456707106146723 S
atom 4.9543124250594461 2.9819425847884222 28.0456707106146723 S
atom -0.0000000166807922 7.9362550265286584 28.0456707106146723 S
atom 4.9543124131977860 6.9266822534687860 28.0456707106146723 S
atom 0.0000000000000000 0.0000000000000000 30.6024152219979939 Ba
atom 4.9543124304344328 -0.0000000113058127 30.6024152219979939 Ba
atom -0.0000000113058127 4.9543124304344222 30.6024152219979939 Ba
atom 4.9543124191286116 4.9543124191286037 30.6024152219979939 Ba
atom 0.0000000000000000 0.0000000000000000 35.7111138181772105 Ba
atom 4.9543124304344328 -0.0000000113058127 35.7111138181772105 Ba
atom -0.0000000113058127 4.9543124304344222 35.7111138181772105 Ba
atom 4.9543124191286116 4.9543124191286037 35.7111138181772105 Ba
atom 2.4771562095643058 2.4771562095643018 33.1702192816568697 Zr
atom 7.4314686399987364 2.4771561982584918 33.1702192816568697 Zr
atom 2.4771561982584966 7.4314686399987213 33.1702192816568697 Zr
atom 7.4314686286929215 7.4314686286929179 33.1702192816568697 Zr
atom 2.4771562095643058 2.4771562095643018 38.2920640209311571 Zr
atom 7.4314686399987364 2.4771561982584918 38.2920640209311571 Zr
atom 2.4771561982584966 7.4314686399987213 38.2920640209311571 Zr
atom 7.4314686286929215 7.4314686286929179 38.2920640209311571 Zr
atom 2.4771562095643058 2.4771562095643018 30.6046130290405607 S
atom 7.4314686399987364 2.4771561982584918 30.6046130290405607 S
atom 2.4771561982584966 7.4314686399987213 30.6046130290405607 S
atom 7.4314686286929215 7.4314686286929179 30.6046130290405607 S
atom 2.4771562095643058 2.4771562095643018 35.7197542273218360 S
atom 7.4314686399987364 2.4771561982584918 35.7197542273218360 S
atom 2.4771561982584966 7.4314686399987213 35.7197542273218360 S
atom 7.4314686286929215 7.4314686286929179 35.7197542273218360 S
atom 2.9798434586628244 -0.0000000028640331 33.1564527093373016 S
atom 6.9287814022060461 -0.0000000197475923 33.1564527093373016 S
atom 1.9744689604657961 4.9543124219926442 33.1564527093373016 S
atom 7.9341558777914356 4.9543124162645755 33.1564527093373016 S
atom 2.9978422496583943 0.0000000012945916 38.2754812865133758 S
atom 6.9107826112104567 -0.0000000239062171 38.2754812865133758 S
atom 1.9564701694702167 4.9543124178340161 38.2754812865133758 S
atom 7.9521546687870215 4.9543124204232036 38.2754812865133758 S
atom -0.0000000084417796 1.9744689717716015 33.1564527093373016 S
atom 4.9543124275703976 2.9798434473570028 33.1564527093373016 S
atom -0.0000000141698459 7.9341558890972284 33.1564527093373016 S
atom 4.9543124106868346 6.9287813909002107 33.1564527093373016 S
atom -0.0000000126004044 1.9564701807760270 38.2754812865133758 S
atom 4.9543124317290230 2.9978422383525767 38.2754812865133758 S
atom -0.0000000100112211 7.9521546800928196 38.2754812865133758 S
atom 4.9543124065282091 6.9107825999046382 38.2754812865133758 S
atom -0.0000000000000000 0.0000000000000000 40.8000446017162588 Ba
atom 4.9543124304344328 -0.0000000113058127 40.8000446017162588 Ba
atom -0.0000000113058127 4.9543124304344222 40.8000446017162588 Ba
atom 4.9543124191286116 4.9543124191286037 40.8000446017162588 Ba
atom -0.0000000000000000 -0.0000000000000000 45.7034767937548381 Ba
atom 4.9543124304344328 -0.0000000113058127 45.7034767937548381 Ba
atom -0.0000000113058127 4.9543124304344222 45.7034767937548381 Ba
atom 4.9543124191286116 4.9543124191286037 45.7034767937548381 Ba
atom 2.4771562095643058 2.4771562095643018 43.4302238072441043 Zr
atom 7.4314686399987364 2.4771561982584918 43.4302238072441043 Zr
atom 2.4771561982584966 7.4314686399987213 43.4302238072441043 Zr
atom 7.4314686286929215 7.4314686286929179 43.4302238072441043 Zr
atom 2.4771562095643058 2.4771562095643018 40.8293301443362964 S
atom 7.4314686399987364 2.4771561982584918 40.8293301443362964 S
atom 2.4771561982584966 7.4314686399987213 40.8293301443362964 S
atom 7.4314686286929215 7.4314686286929179 40.8293301443362964 S
atom 2.4771562095643058 2.4771562095643018 45.9730204882248259 S
atom 7.4314686399987364 2.4771561982584918 45.9730204882248259 S
atom 2.4771561982584966 7.4314686399987213 45.9730204882248259 S
atom 7.4314686286929215 7.4314686286929179 45.9730204882248259 S
atom 2.0524828583086889 -0.0000001113922968 43.3365222919453927 S
atom 7.8561420025601683 0.0000000887806713 43.3365222919453927 S
atom 2.9018295608199338 4.9543125305209035 43.3365222919453927 S
atom 7.0067952774373143 4.9543123077363074 43.3365222919453927 S
atom 0.0000001000864841 2.9018295721257354 43.3365222919453927 S
atom 4.9543123190421339 2.0524828470028726 43.3365222919453927 S
atom -0.0000001226981095 7.0067952887431089 43.3365222919453927 S
atom 4.9543125192151081 7.8561419912543400 43.3365222919453927 S
atom 2.4771562095643058 2.4771562095643018 49.0842464202430833 Ba
atom 7.4314686399987364 2.4771561982584918 49.0842464202430833 Ba
atom 2.4771561982584966 7.4314686399987213 49.0842464202430833 Ba
atom 7.4314686286929215 7.4314686286929179 49.0842464202430833 Ba
atom 2.4771562095643058 2.4771562095643018 53.9876619267283502 Ba
atom 7.4314686399987364 2.4771561982584918 53.9876619267283502 Ba
atom 2.4771561982584966 7.4314686399987213 53.9876619267283502 Ba
atom 7.4314686286929215 7.4314686286929179 53.9876619267283502 Ba
atom 4.9543124191286116 4.9543124191286037 51.3574756610788370 Zr
atom 9.9086248495630525 4.9543124078227958 51.3574756610788370 Zr
atom 4.9543124078228029 9.9086248495630329 51.3574756610788370 Zr
atom 9.9086248382572233 9.9086248382572073 51.3574756610788370 Zr
atom 4.9543124191286116 4.9543124191286037 56.4955533857086678 Zr
atom 9.9086248495630525 4.9543124078227958 56.4955533857086678 Zr
atom 4.9543124078228029 9.9086248495630329 56.4955533857086678 Zr
atom 9.9086248382572233 9.9086248382572073 56.4955533857086678 Zr
atom 4.9543124191286116 4.9543124191286037 48.8146905366088930 S
atom 9.9086248495630525 4.9543124078227958 48.8146905366088930 S
atom 4.9543124078228029 9.9086248495630329 48.8146905366088930 S
atom 9.9086248382572233 9.9086248382572073 48.8146905366088930 S
atom 4.9543124191286116 4.9543124191286037 53.9583418238360366 S
atom 9.9086248495630525 4.9543124078227958 53.9583418238360366 S
atom 4.9543124078228029 9.9086248495630329 53.9583418238360366 S
atom 9.9086248382572233 9.9086248382572073 53.9583418238360366 S
atom 4.5296499238082406 2.4771560540399160 51.4511997887831569 S
atom 10.3332873561892509 2.4771563424770675 51.4511997887831569 S
atom 5.3789749144489978 7.4314687842173033 51.4511997887831569 S
atom 9.4839623429368611 7.4314684731685157 51.4511997887831569 S
atom 5.4749220386222390 2.4771562072559430 56.5121639827733091 S
atom 9.3880152413752338 2.4771561892610396 56.5121639827733091 S
atom 4.4337027996350020 7.4314686310012750 56.5121639827733091 S
atom 10.4292344577508551 7.4314686263845431 56.5121639827733091 S
atom 2.4771563537828865 5.3789749257548074 51.4511997887831569 S
atom 7.4314684844743493 4.5296499125024123 51.4511997887831569 S
atom 2.4771560427341059 9.4839623542426423 51.4511997887831569 S
atom 7.4314687729115096 10.3332873448834004 51.4511997887831569 S
atom 2.4771562005668541 4.4337028109408019 56.5121639827733091 S
atom 7.4314686376903767 5.4749220273164205 56.5121639827733091 S
atom 2.4771561959501383 10.4292344690566470 56.5121639827733091 S
atom 7.4314686196954831 9.3880152300694082 56.5121639827733091 S
atom 2.4771562095643058 2.4771562095643018 59.0764699740461836 Ba
atom 7.4314686399987364 2.4771561982584918 59.0764699740461836 Ba
atom 2.4771561982584966 7.4314686399987213 59.0764699740461836 Ba
atom 7.4314686286929215 7.4314686286929179 59.0764699740461836 Ba
atom 2.4771562095643058 2.4771562095643018 64.1850970517683805 Ba
atom 7.4314686399987364 2.4771561982584918 64.1850970517683805 Ba
atom 2.4771561982584966 7.4314686399987213 64.1850970517683805 Ba
atom 7.4314686286929215 7.4314686286929179 64.1850970517683805 Ba
atom 4.9543124191286116 4.9543124191286037 61.6172995343321261 Zr
atom 9.9086248495630525 4.9543124078227958 61.6172995343321261 Zr
atom 4.9543124078228029 9.9086248495630329 61.6172995343321261 Zr
atom 9.9086248382572233 9.9086248382572073 61.6172995343321261 Zr
atom 4.9543124191286116 4.9543124191286037 66.7365406227938536 Zr
atom 9.9086248495630525 4.9543124078227958 66.7365406227938536 Zr
atom 4.9543124078228029 9.9086248495630329 66.7365406227938536 Zr
atom 9.9086248382572233 9.9086248382572073 66.7365406227938536 Zr
atom 4.9543124191286116 4.9543124191286037 59.0678284104697013 S
atom 9.9086248495630525 4.9543124078227958 59.0678284104697013 S
atom 4.9543124078228029 9.9086248495630329 59.0678284104697013 S
atom 9.9086248382572233 9.9086248382572073 59.0678284104697013 S
atom 4.9543124191286116 4.9543124191286037 64.1828845751127801 S
atom 9.9086248495630525 4.9543124078227958 64.1828845751127801 S
atom 4.9543124078228029 9.9086248495630329 64.1828845751127801 S
atom 9.9086248382572233 9.9086248382572073 64.1828845751127801 S
atom 5.4569705159724116 2.4771562067900468 61.6310839108648949 S
atom 9.4059667640250790 2.4771561897269336 61.6310839108648949 S
atom 4.4516543222848215 7.4314686314671610 61.6310839108648949 S
atom 10.4112829351010259 7.4314686259186518 61.6310839108648949 S
atom 5.4590858103733435 2.4771562042044555 66.7417948664434419 S
atom 9.4038514696241400 2.4771561923125316 66.7417948664434419 S
atom 4.4495390278838860 7.4314686340527505 66.7417948664434419 S
atom 10.4133982295019614 7.4314686233330596 66.7417948664434419 S
atom 2.4771562010327530 4.4516543335906293 61.6310839108648949 S
atom 7.4314686372244765 5.4569705046665851 61.6310839108648949 S
atom 2.4771561954842425 10.4112829464068142 61.6310839108648949 S
atom 7.4314686201613727 9.4059667527192374 61.6310839108648949 S
atom 2.4771562036183452 4.4495390391896974 66.7417948664434419 S
atom 7.4314686346388878 5.4590857990675135 66.7417948664434419 S
atom 2.4771561928986414 10.4133982408077603 66.7417948664434419 S
atom 7.4314686227469595 9.4038514583183019 66.7417948664434419 S
atom 2.4771562095643058 2.4771562095643018 69.2977180417722707 Ba
atom 7.4314686399987364 2.4771561982584918 69.2977180417722707 Ba
atom 2.4771561982584966 7.4314686399987213 69.2977180417722707 Ba
atom 7.4314686286929215 7.4314686286929179 69.2977180417722707 Ba
atom 2.4771562095643058 2.4771562095643018 74.4121630502713032 Ba
atom 7.4314686399987364 2.4771561982584918 74.4121630502713032 Ba
atom 2.4771561982584966 7.4314686399987213 74.4121630502713032 Ba
atom 7.4314686286929215 7.4314686286929179 74.4121630502713032 Ba
atom 4.9543124191286116 4.9543124191286037 71.8549405460217514 Zr
atom 9.9086248495630525 4.9543124078227958 71.8549405460217514 Zr
atom 4.9543124078228029 9.9086248495630329 71.8549405460217514 Zr
atom 9.9086248382572233 9.9086248382572073 71.8549405460217514 Zr
atom 4.9543124191286116 4.9543124191286037 76.9733404692498482 Zr
atom 9.9086248495630525 4.9543124078227958 76.9733404692498482 Zr
atom 4.9543124078228029 9.9086248495630329 76.9733404692498482 Zr
atom 9.9086248382572233 9.9086248382572073 76.9733404692498482 Zr
atom 4.9543124191286116 4.9543124191286037 69.2976049532393858 S
atom 9.9086248495630525 4.9543124078227958 69.2976049532393858 S
atom 4.9543124078228029 9.9086248495630329 69.2976049532393858 S
atom 9.9086248382572233 9.9086248382572073 69.2976049532393858 S
atom 4.9543124191286116 4.9543124191286037 74.4122761388043159 S
atom 9.9086248495630525 4.9543124078227958 74.4122761388043159 S
atom 4.9543124078228029 9.9086248495630329 74.4122761388043159 S
atom 9.9086248382572233 9.9086248382572073 74.4122761388043159 S
atom 5.4596234078425638 2.4771562041842410 71.8549405460217514 S
atom 9.4033138721549054 2.4771561923327399 71.8549405460217514 S
atom 4.4490014304146612 7.4314686340729716 71.8549405460217514 S
atom 10.4139358269711959 7.4314686233128473 71.8549405460217514 S
atom 5.4590858103733435 2.4771562042044555 76.9680862256003735 S
atom 9.4038514696241400 2.4771561923125316 76.9680862256003735 S
atom 4.4495390278838860 7.4314686340527505 76.9680862256003735 S
atom 10.4133982295019614 7.4314686233330596 76.9680862256003735 S
atom 2.4771562036385584 4.4490014417204717 71.8549405460217514 S
atom 7.4314686346186791 5.4596233965367471 71.8549405460217514 S
atom 2.4771561928784327 10.4139358382769807 71.8549405460217514 S
atom 7.4314686227671798 9.4033138608490674 71.8549405460217514 S
atom 2.4771562036183452 4.4495390391896974 76.9680862256003735 S
atom 7.4314686346388878 5.4590857990675135 76.9680862256003735 S
atom 2.4771561928986414 10.4133982408077603 76.9680862256003735 S
atom 7.4314686227469595 9.4038514583183019 76.9680862256003735 S
atom 2.4771562095643058 2.4771562095643018 79.5247840402752928 Ba
atom 7.4314686399987364 2.4771561982584918 79.5247840402752928 Ba
atom 2.4771561982584966 7.4314686399987213 79.5247840402752928 Ba
atom 7.4314686286929215 7.4314686286929179 79.5247840402752928 Ba
atom 2.4771562095643058 2.4771562095643018 84.6334111179975110 Ba
atom 7.4314686399987364 2.4771561982584918 84.6334111179975110 Ba
atom 2.4771561982584966 7.4314686399987213 84.6334111179975110 Ba
atom 7.4314686286929215 7.4314686286929179 84.6334111179975110 Ba
atom 4.9543124191286116 4.9543124191286037 82.0925815577114975 Zr
atom 9.9086248495630525 4.9543124078227958 82.0925815577114975 Zr
atom 4.9543124078228029 9.9086248495630329 82.0925815577114975 Zr
atom 9.9086248382572233 9.9086248382572073 82.0925815577114975 Zr
atom 4.9543124191286116 4.9543124191286037 87.2143277063347568 Zr
atom 9.9086248495630525 4.9543124078227958 87.2143277063347568 Zr
atom 4.9543124078228029 9.9086248495630329 87.2143277063347568 Zr
atom 9.9086248382572233 9.9086248382572073 87.2143277063347568 Zr
atom 4.9543124191286116 4.9543124191286037 79.5269965169308080 S
atom 9.9086248495630525 4.9543124078227958 79.5269965169308080 S
atom 4.9543124078228029 9.9086248495630329 79.5269965169308080 S
atom 9.9086248382572233 9.9086248382572073 79.5269965169308080 S
atom 4.9543124191286116 4.9543124191286037 84.6420526815740288 S
atom 9.9086248495630525 4.9543124078227958 84.6420526815740288 S
atom 4.9543124078228029 9.9086248495630329 84.6420526815740288 S
atom 9.9086248382572233 9.9086248382572073 84.6420526815740288 S
atom 5.4569705159724116 2.4771562067900468 82.0787971811786292 S
atom 9.4059667640250790 2.4771561897269336 82.0787971811786292 S
atom 4.4516543222848215 7.4314686314671610 82.0787971811786292 S
atom 10.4112829351010259 7.4314686259186518 82.0787971811786292 S
atom 5.4749220386222390 2.4771562072559430 87.1977171092703429 S
atom 9.3880152413752338 2.4771561892610396 87.1977171092703429 S
atom 4.4337027996350020 7.4314686310012750 87.1977171092703429 S
atom 10.4292344577508551 7.4314686263845431 87.1977171092703429 S
atom 2.4771562010327530 4.4516543335906293 82.0787971811786292 S
atom 7.4314686372244765 5.4569705046665851 82.0787971811786292 S
atom 2.4771561954842425 10.4112829464068142 82.0787971811786292 S
atom 7.4314686201613727 9.4059667527192374 82.0787971811786292 S
atom 2.4771562005668541 4.4337028109408019 87.1977171092703429 S
atom 7.4314686376903767 5.4749220273164205 87.1977171092703429 S
atom 2.4771561959501383 10.4292344690566470 87.1977171092703429 S
atom 7.4314686196954831 9.3880152300694082 87.1977171092703429 S
atom 2.4771562095643058 2.4771562095643018 89.7222191653152237 Ba
atom 7.4314686399987364 2.4771561982584918 89.7222191653152237 Ba
atom 2.4771561982584966 7.4314686399987213 89.7222191653152237 Ba
atom 7.4314686286929215 7.4314686286929179 89.7222191653152237 Ba
atom 2.4771562095643058 2.4771562095643018 94.6256346718005830 Ba
atom 7.4314686399987364 2.4771561982584918 94.6256346718005830 Ba
atom 2.4771561982584966 7.4314686399987213 94.6256346718005830 Ba
atom 7.4314686286929215 7.4314686286929179 94.6256346718005830 Ba
atom 4.9543124191286116 4.9543124191286037 92.3524054309649074 Zr
atom 9.9086248495630525 4.9543124078227958 92.3524054309649074 Zr
atom 4.9543124078228029 9.9086248495630329 92.3524054309649074 Zr
atom 9.9086248382572233 9.9086248382572073 92.3524054309649074 Zr
atom 4.9543124191286116 4.9543124191286037 89.7515392682075515 S
atom 9.9086248495630525 4.9543124078227958 89.7515392682075515 S
atom 4.9543124078228029 9.9086248495630329 89.7515392682075515 S
atom 9.9086248382572233 9.9086248382572073 89.7515392682075515 S
atom 4.9543124191286116 4.9543124191286037 94.8951905554346524 S
atom 9.9086248495630525 4.9543124078227958 94.8951905554346524 S
atom 4.9543124078228029 9.9086248495630329 94.8951905554346524 S
atom 9.9086248382572233 9.9086248382572073 94.8951905554346524 S
atom 4.5296499238082406 2.4771560540399160 92.2586813032606159 S
atom 10.3332873561892509 2.4771563424770675 92.2586813032606159 S
atom 5.3789749144489978 7.4314687842173033 92.2586813032606159 S
atom 9.4839623429368611 7.4314684731685157 92.2586813032606159 S
atom 2.4771563537828865 5.3789749257548074 92.2586813032606159 S
atom 7.4314684844743493 4.5296499125024123 92.2586813032606159 S
atom 2.4771560427341059 9.4839623542426423 92.2586813032606159 S
atom 7.4314687729115096 10.3332873448834004 92.2586813032606159 S
