#=======================================================
# FHI-aims file: sym_relax/sym_relax_RP_6_RxRyMz_RxRyMz.in
# Created using the Atomic Simulation Environment (ASE)
# Fri Mar 14 11:06:29 2025
#=======================================================
lattice_vector 10.0154263295003894 -0.0618600431934740 0.0000000000000000 
lattice_vector -0.0618600431934739 10.0154263295004107 0.0000000000000000 
lattice_vector 0.0000000000000000 0.0000000000000000 65.8604038950032589 
atom 0.1277247176687016 -0.1698932217812387 0.2156198524499447 Ba
atom 5.1776063865314210 -0.1586547392654389 0.2156198524499447 Ba
atom 0.1389632001845014 4.8799884470814838 0.2156198524499447 Ba
atom 5.1045078608221583 4.8068899213722185 0.2156198524499448 Ba
atom -0.2624414813090005 0.1886586718936983 5.0013318786732555 Ba
atom 4.8190544928564920 0.2315114597122626 5.0013318786732555 Ba
atom -0.2195886934904347 5.2701546460591890 5.0013318786732555 Ba
atom 4.7143416618444567 5.1654418150471511 5.0013318786732555 Ba
atom 2.5029355395697337 2.4805152714825605 2.3942650758177950 Zr
atom 7.5039810364210915 2.4429175819869799 2.3942650758177950 Zr
atom 2.4653378500741514 7.4815607683339023 2.3942650758177950 Zr
atom 7.4797186827231839 7.4572984146360062 2.3942650758177950 Zr
atom 2.4793923450317648 2.4930206239719062 7.4465526750429909 Zr
atom 7.4914756839317409 2.4664607765249644 7.4465526750429909 Zr
atom 2.4528324975848088 7.5051039628718845 7.4465526750429909 Zr
atom 7.4561754881852105 7.4698037671253612 7.4465526750429909 Zr
atom 2.6637895216902097 2.7426262002968080 -0.1117460374695608 S
atom 7.2418701076068377 2.2820635998665089 -0.1117460374695608 S
atom 2.2032269212599083 7.3207067862134361 -0.1117460374695608 S
atom 7.6405726648436589 7.7194093434502520 -0.1117460374695608 S
atom 2.2341450746116820 2.1815407055858413 4.9531747416355554 S
atom 7.8029556023178124 2.7117080469450343 4.9531747416355554 S
atom 2.7643124159708745 7.7503512332919531 4.9531747416355554 S
atom 7.2109282177651410 7.1583238487392924 4.9531747416355554 S
atom 2.7856968332495224 -0.0138404541810964 2.2204224160493840 S
atom 7.1905714564725374 -0.0416052613395363 2.7731918563445053 S
atom 2.1519282701256137 4.9970379250073957 2.7731918563445053 S
atom 7.7624799764029717 4.9629426889723520 2.2204224160493840 S
atom 2.8926408672536366 -0.0154721026617861 7.7779580227442446 S
atom 7.1305411969883874 -0.0428669193829460 7.1527571739793245 S
atom 2.0918980106414562 4.9957762669639800 7.1527571739793245 S
atom 7.8694240104070881 4.9613110404916769 7.7779580227442446 S
atom -0.0170895674156403 2.2220163315006642 2.2204224160493840 S
atom 4.9874583828962509 2.7939248514311044 2.7731918563445053 S
atom -0.0511848034506752 7.8325680377780360 2.7731918563445053 S
atom 4.9596935757378198 7.1987994746541286 2.2204224160493840 S
atom -0.0154579189349506 2.1150722974965532 7.7779580227442446 S
atom 4.9887200409396675 2.8539551109152650 7.1527571739793245 S
atom -0.0499231454072655 7.8925982972622002 7.1527571739793245 S
atom 4.9613252242184913 7.0918554406500132 7.7779580227442446 S
atom 0.2801955792880685 -0.1826587512549121 9.9711059192386085 Ba
atom 5.1903719160051089 -0.3111256008848052 9.9711059192386085 Ba
atom 0.1517287296581758 4.7275175854621292 9.9711059192386085 Ba
atom 5.2569787224415165 4.7941243918985439 9.9711059192386085 Ba
atom -0.2791774369357893 0.1807955962146253 14.9682736125007434 Ba
atom 4.8269175685355536 0.2482474153390522 14.9682736125007434 Ba
atom -0.2117256178113620 5.2868906016859807 14.9682736125007434 Ba
atom 4.6976057062176615 5.1575787393680805 14.9682736125007434 Ba
atom 2.4920153822436273 2.4865068406121020 12.4614568200906550 Zr
atom 7.4979894672915410 2.4538377393130899 12.4614568200906550 Zr
atom 2.4593462809446107 7.4924809256600273 12.4614568200906550 Zr
atom 7.4687985253970748 7.4632899837655584 12.4614568200906550 Zr
atom 2.4920153822436273 2.4865068406121020 17.4750904049108513 Zr
atom 7.4979894672915410 2.4538377393130899 17.4750904049108513 Zr
atom 2.4593462809446107 7.4924809256600273 17.4750904049108513 Zr
atom 7.4687985253970748 7.4632899837655584 17.4750904049108513 Zr
atom 2.7551500206677391 2.8192070575878807 9.9621803004549907 S
atom 7.1652892503157686 2.1907031008889803 9.9621803004549907 S
atom 2.1266460639688334 7.2293462872359067 9.9621803004549907 S
atom 7.7319331638211848 7.7959902007413238 9.9621803004549907 S
atom 2.2210508411427297 2.1542897326355321 14.9682736125007434 S
atom 7.8302065752681171 2.7248022804139844 14.9682736125007434 S
atom 2.7915633889211913 7.7634454667609116 14.9682736125007434 S
atom 7.1978339842961896 7.1310728757889832 14.9682736125007434 S
atom 2.8853400281363126 -0.0184562610863512 12.1485875766382154 S
atom 7.1317818172559502 -0.0462685813151370 12.7892163906905534 S
atom 2.0931386309090194 4.9923746050317970 12.7892163906905534 S
atom 7.8621231712897854 4.9583268820671025 12.1485875766382154 S
atom 2.8853400281363126 -0.0184562610863512 17.7879596483632270 S
atom 7.1317818172559502 -0.0462685813151370 17.1473308343108926 S
atom 2.0931386309090194 4.9923746050317970 17.1473308343108926 S
atom 7.8621231712897854 4.9583268820671025 17.7879596483632270 S
atom -0.0124737605103855 2.1223731366138789 12.1485875766382154 S
atom 4.9921217028718567 2.8527144906477022 12.7892163906905534 S
atom -0.0465214834750745 7.8913576769946276 12.7892163906905534 S
atom 4.9643093826430755 7.0991562797673167 12.1485875766382154 S
atom -0.0124737605103855 2.1223731366138789 17.7879596483632270 S
atom 4.9921217028718567 2.8527144906477022 17.1473308343108926 S
atom -0.0465214834750745 7.8913576769946276 17.1473308343108926 S
atom 4.9643093826430755 7.0991562797673167 17.7879596483632270 S
atom 0.2801955792880686 -0.1826587512549121 19.9654413057627984 Ba
atom 5.1903719160051089 -0.3111256008848052 19.9654413057627984 Ba
atom 0.1517287296581758 4.7275175854621292 19.9654413057627984 Ba
atom 5.2569787224415165 4.7941243918985439 19.9654413057627984 Ba
atom -0.2624414813090005 0.1886586718936983 24.9352153463282491 Ba
atom 4.8190544928564920 0.2315114597122626 24.9352153463282491 Ba
atom -0.2195886934904347 5.2701546460591890 24.9352153463282491 Ba
atom 4.7143416618444567 5.1654418150471511 24.9352153463282491 Ba
atom 2.4793923450317648 2.4930206239719062 22.4899945499584817 Zr
atom 7.4914756839317409 2.4664607765249644 22.4899945499584817 Zr
atom 2.4528324975848088 7.5051039628718845 22.4899945499584817 Zr
atom 7.4561754881852105 7.4698037671253612 22.4899945499584817 Zr
atom 2.5029355395697337 2.4805152714825605 27.5422821491836345 Zr
atom 7.5039810364210915 2.4429175819869799 27.5422821491836345 Zr
atom 2.4653378500741514 7.4815607683339023 27.5422821491836345 Zr
atom 7.4797186827231839 7.4572984146360062 27.5422821491836345 Zr
atom 2.7551500206677391 2.8192070575878807 19.9743669245465085 S
atom 7.1652892503157686 2.1907031008889803 19.9743669245465085 S
atom 2.1266460639688334 7.2293462872359067 19.9743669245465085 S
atom 7.7319331638211848 7.7959902007413238 19.9743669245465085 S
atom 2.2341450746116820 2.1815407055858413 24.9833724833659261 S
atom 7.8029556023178124 2.7117080469450343 24.9833724833659261 S
atom 2.7643124159708745 7.7503512332919531 24.9833724833659261 S
atom 7.2109282177651410 7.1583238487392924 24.9833724833659261 S
atom 2.8926408672536366 -0.0154721026617861 22.1585892022572111 S
atom 7.1305411969883874 -0.0428669193829460 22.7837900510221374 S
atom 2.0918980106414562 4.9957762669639800 22.7837900510221374 S
atom 7.8694240104070881 4.9613110404916769 22.1585892022572111 S
atom 2.7856968332495224 -0.0138404541810964 27.7161248089521060 S
atom 7.1905714564725374 -0.0416052613395363 27.1633553686569726 S
atom 2.1519282701256137 4.9970379250073957 27.1633553686569726 S
atom 7.7624799764029717 4.9629426889723520 27.7161248089521060 S
atom -0.0154579189349506 2.1150722974965532 22.1585892022572111 S
atom 4.9887200409396675 2.8539551109152650 22.7837900510221374 S
atom -0.0499231454072655 7.8925982972622002 22.7837900510221374 S
atom 4.9613252242184913 7.0918554406500132 22.1585892022572111 S
atom -0.0170895674156403 2.2220163315006642 27.7161248089521060 S
atom 4.9874583828962509 2.7939248514311044 27.1633553686569726 S
atom -0.0511848034506752 7.8325680377780360 27.1633553686569726 S
atom 4.9596935757378198 7.1987994746541286 27.7161248089521060 S
atom 0.1277247176687016 -0.1698932217812387 29.7209273725515004 Ba
atom 5.1776063865314219 -0.1586547392654384 29.7209273725515004 Ba
atom 0.1389632001845019 4.8799884470814838 29.7209273725515004 Ba
atom 5.1045078608221583 4.8068899213722185 29.7209273725515004 Ba
atom 2.6637895216902097 2.7426262002968080 30.0482932624710415 S
atom 7.2418701076068377 2.2820635998665080 30.0482932624710415 S
atom 2.2032269212599083 7.3207067862134352 30.0482932624710415 S
atom 7.6405726648436572 7.7194093434502502 30.0482932624710415 S
atom 2.6161162892454271 2.3184983497954872 33.1458217999516123 Ba
atom 7.6659979581081599 2.3297368323112901 33.1458217999516123 Ba
atom 2.6273547717612282 7.3683800186582138 33.1458217999516123 Ba
atom 7.5928994323988759 7.2952814929489413 33.1458217999516123 Ba
atom 2.2259500902677276 2.6770502434704220 37.9315338261748352 Ba
atom 7.3074460644332122 2.7199030312889931 37.9315338261748352 Ba
atom 2.2688028780862965 7.7585462176359199 37.9315338261748352 Ba
atom 7.2027332334211795 7.6538333866238810 37.9315338261748352 Ba
atom 4.9913271111464752 4.9689068430592860 35.3244670233193787 Zr
atom 9.9923726079978099 4.9313091535637072 35.3244670233193787 Zr
atom 4.9537294216508894 9.9699523399106340 35.3244670233193787 Zr
atom 9.9681102542999227 9.9456899862127237 35.3244670233193787 Zr
atom 4.9677839166084743 4.9814121955486454 40.3767546225445457 Zr
atom 9.9798672555084558 4.9548523481016931 40.3767546225445457 Zr
atom 4.9412240691615317 9.9934955344486038 40.3767546225445457 Zr
atom 9.9445670597619475 9.9581953387020778 40.3767546225445457 Zr
atom 5.1521810932669343 5.2310177718735371 32.8184559100321493 S
atom 9.7302616791835383 4.7704551714432277 32.8184559100321493 S
atom 4.6916184928366400 9.8090983577901660 32.8184559100321493 S
atom 10.1289642364204013 10.2078009150270130 32.8184559100321493 S
atom 4.7225366461884102 4.6699322771625749 37.8833766891372221 S
atom 10.2913471738945148 5.2000996185217607 37.8833766891372221 S
atom 5.2527039875475978 10.2387428048686981 37.8833766891372221 S
atom 9.6993197893418621 9.6467154203160455 37.8833766891372221 S
atom 5.2740884048262444 2.4745511173956301 35.1506243635510813 S
atom 9.6789630280492673 2.4467863102371914 35.7033938038460903 S
atom 4.6403198417023486 7.4854294965841213 35.7033938038460903 S
atom 10.2508715479797168 7.4513342605490882 35.1506243635510813 S
atom 5.3810324388303465 2.4729194689149403 40.7081599702459016 S
atom 9.6189327685650845 2.4455246521937846 40.0829591214809469 S
atom 4.5802895822181826 7.4841678385407047 40.0829591214809469 S
atom 10.3578155819838145 7.4497026120684060 40.7081599702459016 S
atom 2.4713020041610871 4.7104079030773969 35.1506243635510813 S
atom 7.4758499544729853 5.2823164230078259 35.7033938038460903 S
atom 2.4372067681260501 10.3209596093547695 35.7033938038460903 S
atom 7.4480851473145435 9.6871910462308435 35.1506243635510813 S
atom 2.4729336526417791 4.6034638690732859 40.7081599702459016 S
atom 7.4771116125163912 5.3423466824919927 40.0829591214809469 S
atom 2.4384684261694600 10.3809898688389382 40.0829591214809469 S
atom 7.4497167957952266 9.5802470122267280 40.7081599702459016 S
atom 2.7685871508647981 2.3057328203218130 42.9013078667402823 Ba
atom 7.6787634875818433 2.1772659706919231 42.9013078667402823 Ba
atom 2.6401203012349064 7.2159091570388476 42.9013078667402823 Ba
atom 7.7453702940182447 7.2825159634752650 42.9013078667402823 Ba
atom 2.2092141346409391 2.6691871677913519 47.8984755600023604 Ba
atom 7.3153091401122863 2.7366389869157830 47.8984755600023604 Ba
atom 2.2766659537653635 7.7752821732627000 47.8984755600023604 Ba
atom 7.1859972777943915 7.6459703109448069 47.8984755600023604 Ba
atom 4.9804069538203519 4.9748984121888356 45.3916587675922898 Zr
atom 9.9863810388682701 4.9422293108898208 45.3916587675922898 Zr
atom 4.9477378525213398 9.9808724972367280 45.3916587675922898 Zr
atom 9.9571900969738234 9.9516815553422937 45.3916587675922898 Zr
atom 4.9804069538203519 4.9748984121888356 50.4052923524124523 Zr
atom 9.9863810388682701 4.9422293108898208 50.4052923524124523 Zr
atom 4.9477378525213398 9.9808724972367280 50.4052923524124523 Zr
atom 9.9571900969738234 9.9516815553422937 50.4052923524124523 Zr
atom 5.2435415922444593 5.3075986291646116 42.8923822479566326 S
atom 9.6536808218925056 4.6790946724657054 42.8923822479566326 S
atom 4.6150376355455673 9.7177378588126242 42.8923822479566326 S
atom 10.2203247353979396 10.2843817723180564 42.8923822479566326 S
atom 4.7094424127194650 4.6426813042122523 47.8984755600023604 S
atom 10.3185981468448560 5.2131938519907086 47.8984755600023604 S
atom 5.2799549604979186 10.2518370383376514 47.8984755600023604 S
atom 9.6862255558729071 9.6194644473657007 47.8984755600023604 S
atom 5.3737315997130564 2.4699353104903765 45.0787895241398786 S
atom 9.6201733888326562 2.4421229902615909 45.7194183381921633 S
atom 4.5815302024857436 7.4807661766085225 45.7194183381921633 S
atom 10.3505147428665030 7.4467184536438271 45.0787895241398786 S
atom 5.3737315997130564 2.4699353104903765 50.7181615958649346 S
atom 9.6201733888326562 2.4421229902615909 50.0775327818125433 S
atom 4.5815302024857436 7.4807661766085225 50.0775327818125433 S
atom 10.3505147428665030 7.4467184536438271 50.7181615958649346 S
atom 2.4759178110663425 4.6107647081905982 45.0787895241398786 S
atom 7.4805132744485734 5.3411060622244273 45.7194183381921633 S
atom 2.4418700881016471 10.3797492485713629 45.7194183381921633 S
atom 7.4527009542197948 9.5875478513440520 45.0787895241398786 S
atom 2.4759178110663425 4.6107647081905982 50.7181615958649346 S
atom 7.4805132744485734 5.3411060622244273 50.0775327818125433 S
atom 2.4418700881016471 10.3797492485713629 50.0775327818125433 S
atom 7.4527009542197948 9.5875478513440520 50.7181615958649346 S
atom 2.7685871508647981 2.3057328203218130 52.8956432532645167 Ba
atom 7.6787634875818433 2.1772659706919231 52.8956432532645167 Ba
atom 2.6401203012349064 7.2159091570388476 52.8956432532645167 Ba
atom 7.7453702940182447 7.2825159634752650 52.8956432532645167 Ba
atom 2.2259500902677276 2.6770502434704220 57.8654172938298998 Ba
atom 7.3074460644332122 2.7199030312889936 57.8654172938298998 Ba
atom 2.2688028780862965 7.7585462176359199 57.8654172938298998 Ba
atom 7.2027332334211795 7.6538333866238810 57.8654172938298998 Ba
atom 4.9677839166084743 4.9814121955486454 55.4201964974601822 Zr
atom 9.9798672555084558 4.9548523481016931 55.4201964974601822 Zr
atom 4.9412240691615317 9.9934955344486038 55.4201964974601822 Zr
atom 9.9445670597619475 9.9581953387020778 55.4201964974601822 Zr
atom 4.9913271111464752 4.9689068430592860 60.4724840966853279 Zr
atom 9.9923726079978099 4.9313091535637072 60.4724840966853279 Zr
atom 4.9537294216508894 9.9699523399106340 60.4724840966853279 Zr
atom 9.9681102542999227 9.9456899862127237 60.4724840966853279 Zr
atom 5.2435415922444593 5.3075986291646116 52.9045688720481451 S
atom 9.6536808218925056 4.6790946724657054 52.9045688720481451 S
atom 4.6150376355455673 9.7177378588126242 52.9045688720481451 S
atom 10.2203247353979396 10.2843817723180564 52.9045688720481451 S
atom 4.7225366461884102 4.6699322771625749 57.9135744308674987 S
atom 10.2913471738945148 5.2000996185217607 57.9135744308674987 S
atom 5.2527039875475978 10.2387428048686981 57.9135744308674987 S
atom 9.6993197893418621 9.6467154203160455 57.9135744308674987 S
atom 5.3810324388303465 2.4729194689149403 55.0887911497587979 S
atom 9.6189327685650845 2.4455246521937846 55.7139919985238521 S
atom 4.5802895822181826 7.4841678385407047 55.7139919985238521 S
atom 10.3578155819838145 7.4497026120684060 55.0887911497587979 S
atom 5.2740884048262462 2.4745511173956301 60.6463267564537105 S
atom 9.6789630280492673 2.4467863102371914 60.0935573161586305 S
atom 4.6403198417023486 7.4854294965841213 60.0935573161586305 S
atom 10.2508715479797168 7.4513342605490882 60.6463267564537105 S
atom 2.4729336526417791 4.6034638690732859 55.0887911497587979 S
atom 7.4771116125163912 5.3423466824919927 55.7139919985238521 S
atom 2.4384684261694600 10.3809898688389382 55.7139919985238521 S
atom 7.4497167957952266 9.5802470122267280 55.0887911497587979 S
atom 2.4713020041610871 4.7104079030773969 60.6463267564537105 S
atom 7.4758499544729853 5.2823164230078259 60.0935573161586305 S
atom 2.4372067681260501 10.3209596093547695 60.0935573161586305 S
atom 7.4480851473145435 9.6871910462308435 60.6463267564537105 S
atom 2.6161162892454271 2.3184983497954872 62.6511293200532151 Ba
atom 7.6659979581081599 2.3297368323112906 62.6511293200532151 Ba
atom 2.6273547717612287 7.3683800186582138 62.6511293200532151 Ba
atom 7.5928994323988759 7.2952814929489413 62.6511293200532151 Ba
atom 5.1521810932669325 5.2310177718735353 62.9784952099726354 S
atom 9.7302616791835383 4.7704551714432277 62.9784952099726354 S
atom 4.6916184928366400 9.8090983577901660 62.9784952099726354 S
atom 10.1289642364204013 10.2078009150270095 62.9784952099726354 S
