#=======================================================
# FHI-aims file: sym_relax/sym_relax_RP_8_00Rz_00Rz.in
# Created using the Atomic Simulation Environment (ASE)
# Mon Mar 17 16:00:21 2025
#=======================================================
lattice_vector 9.8983881998758037 0.0000000545066499 0.0000000000000000 
lattice_vector 0.0000000545066499 9.8983881998757752 0.0000000000000000 
lattice_vector 0.0000000000000000 0.0000000000000000 87.6217692874373455 
atom -0.0000000000000000 0.0000000000000000 0.1603589751101282 Ba
atom 4.9491940999379009 0.0000000272533235 0.1603589751101282 Ba
atom 0.0000000272533239 4.9491940999378849 0.1603589751101282 Ba
atom 4.9491941271912268 4.9491941271912143 0.1603589751101283 Ba
atom -0.0000000000000000 0.0000000000000000 5.0705026233250132 Ba
atom 4.9491940999379009 0.0000000272533230 5.0705026233250132 Ba
atom 0.0000000272533235 4.9491940999378841 5.0705026233250132 Ba
atom 4.9491941271912268 4.9491941271912143 5.0705026233250132 Ba
atom 2.4745970635956134 2.4745970635956072 2.4390479111853831 Zr
atom 7.4237911635335196 2.4745970908489276 2.4390479111853831 Zr
atom 2.4745970908489405 7.4237911635334966 2.4390479111853831 Zr
atom 7.4237911907868384 7.4237911907868188 2.4390479111853831 Zr
atom 2.4745970635956134 2.4745970635956072 7.5811706663215208 Zr
atom 7.4237911635335196 2.4745970908489276 7.5811706663215208 Zr
atom 2.4745970908489405 7.4237911635334966 7.5811706663215208 Zr
atom 7.4237911907868384 7.4237911907868188 7.5811706663215208 Zr
atom 2.4745970635956134 2.4745970635956072 -0.1044355203174683 S
atom 7.4237911635335196 2.4745970908489272 -0.1044355203174683 S
atom 2.4745970908489401 7.4237911635334966 -0.1044355203174683 S
atom 7.4237911907868384 7.4237911907868188 -0.1044355203174683 S
atom 2.4745970635956134 2.4745970635956072 5.0442743809837021 S
atom 7.4237911635335196 2.4745970908489276 5.0442743809837021 S
atom 2.4745970908489405 7.4237911635334966 5.0442743809837021 S
atom 7.4237911907868384 7.4237911907868188 5.0442743809837021 S
atom 2.0436284351634675 0.0000022563240804 2.5336189574393950 S
atom 7.8547597647123366 -0.0000022018174334 2.5336189574393950 S
atom 2.9055656920277588 4.9491918708671392 2.5336189574393950 S
atom 6.9928225623546938 4.9491963835152868 2.5336189574393950 S
atom 3.0114158877928197 0.0000000993059297 7.6047547441141781 S
atom 6.8869723120829827 -0.0000000447992828 7.6047547441141781 S
atom 1.9377782393984073 4.9491940278852775 7.6047547441141781 S
atom 7.9606100149840469 4.9491942264971494 7.6047547441141781 S
atom -0.0000022290707573 2.9055656647744272 2.5336189574393950 S
atom 4.9491963562619841 2.0436284624167884 2.5336189574393950 S
atom 0.0000022835774039 6.9928225351013484 2.5336189574393950 S
atom 4.9491918981204677 7.8547597919656393 2.5336189574393950 S
atom -0.0000000720526058 1.9377782121450799 7.6047547441141781 S
atom 4.9491941992438413 3.0114159150461326 7.6047547441141781 S
atom 0.0000001265592532 7.9606099877306988 7.6047547441141781 S
atom 4.9491940551386140 6.8869723393362934 7.6047547441141781 S
atom -0.0000000000000000 0.0000000000000000 10.1592777396367602 Ba
atom 4.9491940999379009 0.0000000272533230 10.1592777396367602 Ba
atom 0.0000000272533235 4.9491940999378841 10.1592777396367602 Ba
atom 4.9491941271912268 4.9491941271912143 10.1592777396367602 Ba
atom -0.0000000000000000 0.0000000000000000 15.2674871348765073 Ba
atom 4.9491940999379009 0.0000000272533230 15.2674871348765073 Ba
atom 0.0000000272533235 4.9491940999378841 15.2674871348765073 Ba
atom 4.9491941271912268 4.9491941271912143 15.2674871348765073 Ba
atom 2.4745970635956134 2.4745970635956072 12.7001853471958359 Zr
atom 7.4237911635335196 2.4745970908489276 12.7001853471958359 Zr
atom 2.4745970908489405 7.4237911635334966 12.7001853471958359 Zr
atom 7.4237911907868384 7.4237911907868188 12.7001853471958359 Zr
atom 2.4745970635956134 2.4745970635956072 17.8184112075498078 Zr
atom 7.4237911635335196 2.4745970908489276 17.8184112075498078 Zr
atom 2.4745970908489405 7.4237911635334966 17.8184112075498078 Zr
atom 7.4237911907868384 7.4237911907868188 17.8184112075498078 Zr
atom 2.4745970635956134 2.4745970635956072 10.1543295005558054 S
atom 7.4237911635335196 2.4745970908489276 10.1543295005558054 S
atom 2.4745970908489405 7.4237911635334966 10.1543295005558054 S
atom 7.4237911907868384 7.4237911907868188 10.1543295005558054 S
atom 2.4745970635956134 2.4745970635956072 15.2655857437639604 S
atom 7.4237911635335196 2.4745970908489276 15.2655857437639604 S
atom 2.4745970908489405 7.4237911635334966 15.2655857437639604 S
atom 7.4237911907868384 7.4237911907868188 15.2655857437639604 S
atom 1.9387090223476913 0.0000000157654859 12.7149141170863640 S
atom 7.9596791775281144 0.0000000387411610 12.7149141170863640 S
atom 3.0104851048435308 4.9491941114257267 12.7149141170863640 S
atom 6.8879031495389187 4.9491941429567019 12.7149141170863640 S
atom 3.0107976588829048 0.0000000123664101 17.8226995117932887 S
atom 6.8875905409929015 0.0000000421402368 17.8226995117932887 S
atom 1.9383964683083226 4.9491941148247980 17.8226995117932887 S
atom 7.9599917860741369 4.9491941395576244 17.8226995117932887 S
atom 0.0000000114878371 3.0104850775901983 12.7149141170863640 S
atom 4.9491941157033938 1.9387090496010102 12.7149141170863640 S
atom 0.0000000430188094 6.8879031222855742 12.7149141170863640 S
atom 4.9491941386790588 7.9596792047814207 12.7149141170863640 S
atom 0.0000000148869138 1.9383964410549956 17.8226995117932887 S
atom 4.9491941123043190 3.0107976861362160 17.8226995117932887 S
atom 0.0000000396197336 7.9599917588207818 17.8226995117932887 S
atom 4.9491941420781407 6.8875905682462122 17.8226995117932887 S
atom 0.0000000000000000 0.0000000000000000 20.3771556482412670 Ba
atom 4.9491940999379009 0.0000000272533230 20.3771556482412670 Ba
atom 0.0000000272533235 4.9491940999378841 20.3771556482412670 Ba
atom 4.9491941271912268 4.9491941271912143 20.3771556482412670 Ba
atom 0.0000000000000000 0.0000000000000000 25.4868241616059876 Ba
atom 4.9491940999379009 0.0000000272533230 25.4868241616059876 Ba
atom 0.0000000272533235 4.9491940999378841 25.4868241616059876 Ba
atom 4.9491941271912268 4.9491941271912143 25.4868241616059876 Ba
atom 2.4745970635956134 2.4745970635956072 22.9359000889327120 Zr
atom 7.4237911635335196 2.4745970908489276 22.9359000889327120 Zr
atom 2.4745970908489405 7.4237911635334966 22.9359000889327120 Zr
atom 7.4237911907868384 7.4237911907868188 22.9359000889327120 Zr
atom 2.4745970635956134 2.4745970635956072 28.0541259492866892 Zr
atom 7.4237911635335196 2.4745970908489276 28.0541259492866892 Zr
atom 2.4745970908489405 7.4237911635334966 28.0541259492866892 Zr
atom 7.4237911907868384 7.4237911907868188 28.0541259492866892 Zr
atom 2.4745970635956134 2.4745970635956072 20.3771556482412670 S
atom 7.4237911635335196 2.4745970908489276 20.3771556482412670 S
atom 2.4745970908489405 7.4237911635334966 20.3771556482412670 S
atom 7.4237911907868384 7.4237911907868188 20.3771556482412670 S
atom 2.4745970635956134 2.4745970635956072 25.4887255527185594 S
atom 7.4237911635335196 2.4745970908489276 25.4887255527185594 S
atom 2.4745970908489405 7.4237911635334966 25.4887255527185594 S
atom 7.4237911907868384 7.4237911907868188 25.4887255527185594 S
atom 1.9383964410550003 0.0000000148869138 22.9316117846892418 S
atom 7.9599917588208058 0.0000000396197332 22.9316117846892418 S
atom 3.0107976861362236 4.9491941123043031 22.9316117846892418 S
atom 6.8875905682462228 4.9491941420781229 22.9316117846892418 S
atom 3.0104850775902077 0.0000000114878371 28.0393971793961825 S
atom 6.8879031222855982 0.0000000430188090 28.0393971793961825 S
atom 1.9387090496010151 4.9491941157033779 28.0393971793961825 S
atom 7.9596792047814420 4.9491941386790472 28.0393971793961825 S
atom 0.0000000123664097 3.0107976588828955 22.9316117846892418 S
atom 4.9491941148248184 1.9383964683083177 22.9316117846892418 S
atom 0.0000000421402368 6.8875905409928802 22.9316117846892418 S
atom 4.9491941395576351 7.9599917860741085 22.9316117846892418 S
atom 0.0000000157654864 1.9387090223476862 28.0393971793961825 S
atom 4.9491941114257418 3.0104851048435233 28.0393971793961825 S
atom 0.0000000387411606 7.9596791775280913 28.0393971793961825 S
atom 4.9491941429567152 6.8879031495388938 28.0393971793961825 S
atom -0.0000000000000000 0.0000000000000000 30.5950335568457312 Ba
atom 4.9491940999379009 0.0000000272533230 30.5950335568457312 Ba
atom 0.0000000272533235 4.9491940999378841 30.5950335568457312 Ba
atom 4.9491941271912268 4.9491941271912143 30.5950335568457312 Ba
atom -0.0000000000000000 0.0000000000000000 35.6838086731575075 Ba
atom 4.9491940999379009 0.0000000272533230 35.6838086731575075 Ba
atom 0.0000000272533235 4.9491940999378841 35.6838086731575075 Ba
atom 4.9491941271912268 4.9491941271912143 35.6838086731575075 Ba
atom 2.4745970635956134 2.4745970635956072 33.1731406301609582 Zr
atom 7.4237911635335196 2.4745970908489276 33.1731406301609582 Zr
atom 2.4745970908489405 7.4237911635334966 33.1731406301609582 Zr
atom 7.4237911907868384 7.4237911907868188 33.1731406301609582 Zr
atom 2.4745970635956134 2.4745970635956072 38.3152633852971150 Zr
atom 7.4237911635335196 2.4745970908489276 38.3152633852971150 Zr
atom 2.4745970908489405 7.4237911635334966 38.3152633852971150 Zr
atom 7.4237911907868384 7.4237911907868188 38.3152633852971150 Zr
atom 2.4745970635956134 2.4745970635956072 30.5999817959267375 S
atom 7.4237911635335196 2.4745970908489276 30.5999817959267375 S
atom 2.4745970908489405 7.4237911635334966 30.5999817959267375 S
atom 7.4237911907868384 7.4237911907868188 30.5999817959267375 S
atom 2.4745970635956134 2.4745970635956072 35.7100369154988257 S
atom 7.4237911635335196 2.4745970908489276 35.7100369154988257 S
atom 2.4745970908489405 7.4237911635334966 35.7100369154988257 S
atom 7.4237911907868384 7.4237911907868188 35.7100369154988257 S
atom 1.9377782121450839 -0.0000000720526058 33.1495565523683808 S
atom 7.9606099877307237 0.0000001265592528 33.1495565523683808 S
atom 3.0114159150461437 4.9491941992438271 33.1495565523683808 S
atom 6.8869723393363129 4.9491940551385980 33.1495565523683808 S
atom 2.9055656647744339 -0.0000022290707573 38.2206923390431044 S
atom 6.9928225351013689 0.0000022835774034 38.2206923390431044 S
atom 2.0436284624167924 4.9491963562619645 38.2206923390431044 S
atom 7.8547597919656642 4.9491918981204561 38.2206923390431044 S
atom 0.0000000993059293 3.0114158877928077 33.1495565523683808 S
atom 4.9491940278852944 1.9377782393984007 33.1495565523683808 S
atom -0.0000000447992828 6.8869723120829658 33.1495565523683808 S
atom 4.9491942264971618 7.9606100149840193 33.1495565523683808 S
atom 0.0000022563240808 2.0436284351634644 38.2206923390431044 S
atom 4.9491918708671445 2.9055656920277482 38.2206923390431044 S
atom -0.0000022018174339 7.8547597647123117 38.2206923390431044 S
atom 4.9491963835153072 6.9928225623546760 38.2206923390431044 S
atom -0.0000000000000000 0.0000000000000000 40.5939523213723916 Ba
atom 4.9491940999379009 0.0000000272533230 40.5939523213723916 Ba
atom 0.0000000272533235 4.9491940999378841 40.5939523213723916 Ba
atom 4.9491941271912268 4.9491941271912143 40.5939523213723916 Ba
atom 2.4745970635956134 2.4745970635956072 40.8587468167999717 S
atom 7.4237911635335196 2.4745970908489276 40.8587468167999717 S
atom 2.4745970908489405 7.4237911635334966 40.8587468167999717 S
atom 7.4237911907868384 7.4237911907868188 40.8587468167999717 S
atom 2.4745970635956134 2.4745970635956072 43.9712436188288294 Ba
atom 7.4237911635335196 2.4745970908489276 43.9712436188288294 Ba
atom 2.4745970908489405 7.4237911635334966 43.9712436188288294 Ba
atom 7.4237911907868384 7.4237911907868188 43.9712436188288294 Ba
atom 2.4745970635956134 2.4745970635956072 48.8813872670436922 Ba
atom 7.4237911635335196 2.4745970908489272 48.8813872670436922 Ba
atom 2.4745970908489401 7.4237911635334966 48.8813872670436922 Ba
atom 7.4237911907868384 7.4237911907868188 48.8813872670436922 Ba
atom 4.9491941271912268 4.9491941271912143 46.2499325549040776 Zr
atom 9.8983882271291268 4.9491941544445321 46.2499325549040776 Zr
atom 4.9491941544445526 9.8983882271290984 46.2499325549040776 Zr
atom 9.8983882543824535 9.8983882543824286 46.2499325549040776 Zr
atom 4.9491941271912268 4.9491941271912143 51.3920553100402060 Zr
atom 9.8983882271291268 4.9491941544445321 51.3920553100402060 Zr
atom 4.9491941544445526 9.8983882271290984 51.3920553100402060 Zr
atom 9.8983882543824535 9.8983882543824286 51.3920553100402060 Zr
atom 4.9491941271912268 4.9491941271912143 43.7064491234011783 S
atom 9.8983882271291268 4.9491941544445321 43.7064491234011783 S
atom 4.9491941544445517 9.8983882271290984 43.7064491234011783 S
atom 9.8983882543824535 9.8983882543824286 43.7064491234011783 S
atom 4.9491941271912268 4.9491941271912143 48.8551590247023881 S
atom 9.8983882271291268 4.9491941544445321 48.8551590247023881 S
atom 4.9491941544445526 9.8983882271290984 48.8551590247023881 S
atom 9.8983882543824535 9.8983882543824286 48.8551590247023881 S
atom 4.5182254987590795 2.4745993199196854 46.3445036011581024 S
atom 10.3293568283079402 2.4745948617781743 46.3445036011581024 S
atom 5.3801627556233749 7.4237889344627455 46.3445036011581024 S
atom 9.4674196259503116 7.4237934471108993 46.3445036011581024 S
atom 5.4860129513884290 2.4745971629015360 51.4156393878328544 S
atom 9.3615693756785934 2.4745970187963247 51.4156393878328544 S
atom 4.4123753029940227 7.4237910914808909 51.4156393878328544 S
atom 10.4352070785796585 7.4237912900927547 51.4156393878328544 S
atom 2.4745948345248574 5.3801627283700348 46.3445036011581024 S
atom 7.4237934198575912 4.5182255260123902 46.3445036011581024 S
atom 2.4745993471730188 9.4674195986969707 46.3445036011581024 S
atom 7.4237889617160917 10.3293568555612456 46.3445036011581024 S
atom 2.4745969915430091 4.4123752757406898 51.4156393878328544 S
atom 7.4237912628394538 5.4860129786417389 51.4156393878328544 S
atom 2.4745971901548698 10.4352070513263122 51.4156393878328544 S
atom 7.4237911187342291 9.3615694029318970 51.4156393878328544 S
atom 2.4745970635956134 2.4745970635956072 53.9701623833554649 Ba
atom 7.4237911635335196 2.4745970908489272 53.9701623833554649 Ba
atom 2.4745970908489401 7.4237911635334966 53.9701623833554649 Ba
atom 7.4237911907868384 7.4237911907868188 53.9701623833554649 Ba
atom 2.4745970635956134 2.4745970635956072 59.0783717785952405 Ba
atom 7.4237911635335196 2.4745970908489272 59.0783717785952405 Ba
atom 2.4745970908489401 7.4237911635334966 59.0783717785952405 Ba
atom 7.4237911907868384 7.4237911907868188 59.0783717785952405 Ba
atom 4.9491941271912268 4.9491941271912143 56.5110699909145637 Zr
atom 9.8983882271291268 4.9491941544445321 56.5110699909145637 Zr
atom 4.9491941544445526 9.8983882271290984 56.5110699909145637 Zr
atom 9.8983882543824535 9.8983882543824286 56.5110699909145637 Zr
atom 4.9491941271912268 4.9491941271912143 61.6292958512685516 Zr
atom 9.8983882271291268 4.9491941544445321 61.6292958512685516 Zr
atom 4.9491941544445526 9.8983882271290984 61.6292958512685516 Zr
atom 9.8983882543824535 9.8983882543824286 61.6292958512685516 Zr
atom 4.9491941271912268 4.9491941271912143 53.9652141442745048 S
atom 9.8983882271291268 4.9491941544445321 53.9652141442745048 S
atom 4.9491941544445526 9.8983882271290984 53.9652141442745048 S
atom 9.8983882543824535 9.8983882543824286 53.9652141442745048 S
atom 4.9491941271912268 4.9491941271912143 59.0764703874826651 S
atom 9.8983882271291268 4.9491941544445321 59.0764703874826651 S
atom 4.9491941544445526 9.8983882271290984 59.0764703874826651 S
atom 9.8983882543824535 9.8983882543824286 59.0764703874826651 S
atom 4.4133060859432991 2.4745970793610912 56.5257987608050101 S
atom 10.4342762411237420 2.4745971023367677 56.5257987608050101 S
atom 5.4850821684391482 7.4237911750213339 56.5257987608050101 S
atom 9.3625002131345152 7.4237912065523117 56.5257987608050101 S
atom 5.4853947224785156 2.4745970759620182 61.6335841555120041 S
atom 9.3621876045885237 2.4745971057358407 61.6335841555120041 S
atom 4.4129935319039300 7.4237911784204114 61.6335841555120041 S
atom 10.4345888496697299 7.4237912031532307 61.6335841555120041 S
atom 2.4745970750834547 5.4850821411858055 56.5257987608050101 S
atom 7.4237911792990099 4.4133061131966107 56.5257987608050101 S
atom 2.4745971066144210 9.3625001858811654 56.5257987608050101 S
atom 7.4237912022746801 10.4342762683770385 56.5257987608050101 S
atom 2.4745970784825277 4.4129935046505997 61.6335841555120041 S
atom 7.4237911758999262 5.4853947497318289 61.6335841555120041 S
atom 2.4745971032153489 10.4345888224163907 61.6335841555120041 S
atom 7.4237912056737514 9.3621876318418256 61.6335841555120041 S
atom 2.4745970635956134 2.4745970635956072 64.1880402919599931 Ba
atom 7.4237911635335196 2.4745970908489272 64.1880402919599931 Ba
atom 2.4745970908489401 7.4237911635334966 64.1880402919599931 Ba
atom 7.4237911907868384 7.4237911907868188 64.1880402919599931 Ba
atom 2.4745970635956134 2.4745970635956072 69.2977088053247456 Ba
atom 7.4237911635335196 2.4745970908489272 69.2977088053247456 Ba
atom 2.4745970908489401 7.4237911635334966 69.2977088053247456 Ba
atom 7.4237911907868384 7.4237911907868188 69.2977088053247456 Ba
atom 4.9491941271912268 4.9491941271912143 66.7467847326513919 Zr
atom 9.8983882271291268 4.9491941544445321 66.7467847326513919 Zr
atom 4.9491941544445526 9.8983882271290984 66.7467847326513919 Zr
atom 9.8983882543824535 9.8983882543824286 66.7467847326513919 Zr
atom 4.9491941271912268 4.9491941271912143 71.8650105930053229 Zr
atom 9.8983882271291268 4.9491941544445321 71.8650105930053229 Zr
atom 4.9491941544445526 9.8983882271290984 71.8650105930053229 Zr
atom 9.8983882543824535 9.8983882543824286 71.8650105930053229 Zr
atom 4.9491941271912268 4.9491941271912143 64.1880402919599931 S
atom 9.8983882271291268 4.9491941544445321 64.1880402919599931 S
atom 4.9491941544445526 9.8983882271290984 64.1880402919599931 S
atom 9.8983882543824535 9.8983882543824286 64.1880402919599931 S
atom 4.9491941271912268 4.9491941271912143 69.2996101964372428 S
atom 9.8983882271291268 4.9491941544445321 69.2996101964372428 S
atom 4.9491941544445526 9.8983882271290984 69.2996101964372428 S
atom 9.8983882543824535 9.8983882543824286 69.2996101964372428 S
atom 4.4129935046506166 2.4745970784825193 66.7424964284079323 S
atom 10.4345888224164138 2.4745971032153409 66.7424964284079323 S
atom 5.4853947497318396 7.4237911758999093 66.7424964284079323 S
atom 9.3621876318418451 7.4237912056737345 66.7424964284079323 S
atom 5.4850821411858295 2.4745970750834441 71.8502818231149263 S
atom 9.3625001858811956 2.4745971066144139 71.8502818231149263 S
atom 4.4133061131966258 7.4237911792989850 71.8502818231149263 S
atom 10.4342762683770545 7.4237912022746526 71.8502818231149263 S
atom 2.4745970759620275 5.4853947224785058 66.7424964284079323 S
atom 7.4237911784204300 4.4129935319039202 66.7424964284079323 S
atom 2.4745971057358513 9.3621876045885113 66.7424964284079323 S
atom 7.4237912031532467 10.4345888496697032 66.7424964284079323 S
atom 2.4745970793610965 4.4133060859432902 71.8502818231149263 S
atom 7.4237911750213499 5.4850821684391322 71.8502818231149263 S
atom 2.4745971023367748 10.4342762411237171 71.8502818231149263 S
atom 7.4237912065523268 9.3625002131344903 71.8502818231149263 S
atom 2.4745970635956134 2.4745970635956072 74.4059182005644004 Ba
atom 7.4237911635335196 2.4745970908489272 74.4059182005644004 Ba
atom 2.4745970908489401 7.4237911635334966 74.4059182005644004 Ba
atom 7.4237911907868384 7.4237911907868188 74.4059182005644004 Ba
atom 2.4745970635956134 2.4745970635956072 79.4946933168761660 Ba
atom 7.4237911635335196 2.4745970908489272 79.4946933168761660 Ba
atom 2.4745970908489401 7.4237911635334966 79.4946933168761660 Ba
atom 7.4237911907868384 7.4237911907868188 79.4946933168761660 Ba
atom 4.9491941271912268 4.9491941271912143 76.9840252738797091 Zr
atom 9.8983882271291268 4.9491941544445321 76.9840252738797091 Zr
atom 4.9491941544445526 9.8983882271290984 76.9840252738797091 Zr
atom 9.8983882543824535 9.8983882543824286 76.9840252738797091 Zr
atom 4.9491941271912268 4.9491941271912143 82.1261480290159085 Zr
atom 9.8983882271291268 4.9491941544445321 82.1261480290159085 Zr
atom 4.9491941544445526 9.8983882271290984 82.1261480290159085 Zr
atom 9.8983882543824535 9.8983882543824286 82.1261480290159085 Zr
atom 4.9491941271912268 4.9491941271912143 74.4108664396453463 S
atom 9.8983882271291268 4.9491941544445321 74.4108664396453463 S
atom 4.9491941544445526 9.8983882271290984 74.4108664396453463 S
atom 9.8983882543824535 9.8983882543824286 74.4108664396453463 S
atom 4.9491941271912268 4.9491941271912143 79.5209215592175553 S
atom 9.8983882271291268 4.9491941544445321 79.5209215592175553 S
atom 4.9491941544445526 9.8983882271290984 79.5209215592175553 S
atom 9.8983882543824535 9.8983882543824286 79.5209215592175553 S
atom 4.4123752757406933 2.4745969915429979 76.9604411960870038 S
atom 10.4352070513263389 2.4745971901548605 76.9604411960870038 S
atom 5.4860129786417513 7.4237912628394342 76.9604411960870038 S
atom 9.3615694029319183 7.4237911187342087 76.9604411960870038 S
atom 5.3801627283700491 2.4745948345248485 82.0315769827619334 S
atom 9.4674195986969902 2.4745993471730108 82.0315769827619334 S
atom 4.5182255260124027 7.4237934198575681 82.0315769827619334 S
atom 10.3293568555612634 7.4237889617160597 82.0315769827619334 S
atom 2.4745971629015413 5.4860129513884166 76.9604411960870038 S
atom 7.4237910914809042 4.4123753029940112 76.9604411960870038 S
atom 2.4745970187963309 9.3615693756785774 76.9604411960870038 S
atom 7.4237912900927725 10.4352070785796318 76.9604411960870038 S
atom 2.4745993199196934 4.5182254987590680 82.0315769827619334 S
atom 7.4237889344627623 5.3801627556233598 82.0315769827619334 S
atom 2.4745948617781779 10.3293568283079171 82.0315769827619334 S
atom 7.4237934471109268 9.4674196259502867 82.0315769827619334 S
atom 2.4745970635956134 2.4745970635956072 84.4048369650909507 Ba
atom 7.4237911635335196 2.4745970908489272 84.4048369650909507 Ba
atom 2.4745970908489401 7.4237911635334966 84.4048369650909507 Ba
atom 7.4237911907868384 7.4237911907868188 84.4048369650909507 Ba
atom 4.9491941271912268 4.9491941271912143 84.6696314605185876 S
atom 9.8983882271291268 4.9491941544445321 84.6696314605185876 S
atom 4.9491941544445526 9.8983882271290984 84.6696314605185876 S
atom 9.8983882543824535 9.8983882543824286 84.6696314605185876 S
