#=======================================================
# FHI-aims file: sym_relax/sym_relax_RP_6_RxRy0_RxRy0.in
# Created using the Atomic Simulation Environment (ASE)
# Fri Mar 14 11:00:36 2025
#=======================================================
lattice_vector 10.0705832575399938 0.1042003404185588 0.0000000000000000 
lattice_vector 0.1042003404185586 10.0705832575399921 -0.0000000000000000 
lattice_vector 0.0000000000000000 -0.0000000000000000 65.1350975497490055 
atom -0.0845675155680145 -0.0845675155680144 0.2703847052383919 Ba
atom 5.1198591443380135 0.1366676857772935 0.2703847052383919 Ba
atom 0.1366676857772941 5.1198591443380064 0.2703847052383919 Ba
atom 5.0028242834112646 5.0028242834112531 0.2703847052383919 Ba
atom -0.0069230744593048 -0.0069230744593057 4.9431241404412134 Ba
atom 5.0422147032292948 0.0590232446685845 4.9431241404412134 Ba
atom 0.0590232446685852 5.0422147032292921 4.9431241404412134 Ba
atom 5.0804687245199771 5.0804687245199673 4.9431241404412134 Ba
atom 2.5373330340634208 2.5373330340634181 2.3321947576235482 Zr
atom 7.5853503936858502 2.6021589351251322 2.3321947576235482 Zr
atom 2.6021589351251317 7.5853503936858431 2.3321947576235482 Zr
atom 7.6247248330426993 7.6247248330426807 2.3321947576235482 Zr
atom 2.5454057131573560 2.5454057131573538 7.3547258209197821 Zr
atom 7.5772777145919008 2.5940862560311921 7.3547258209197821 Zr
atom 2.5940862560311970 7.5772777145918955 7.3547258209197821 Zr
atom 7.6327975121366380 7.6327975121366238 7.3547258209197821 Zr
atom 2.7774337900532964 2.7774337900532933 -0.1538002412784063 S
atom 7.3452496376959830 2.3620581791352495 -0.1538002412784063 S
atom 2.3620581791352553 7.3452496376959653 -0.1538002412784063 S
atom 7.8648255890325665 7.8648255890325531 -0.1538002412784063 S
atom 2.2290890896146176 2.2290890896146123 4.8784092103010215 S
atom 7.8935943381346476 2.9104028795739305 4.8784092103010215 S
atom 2.9104028795739363 7.8935943381346405 4.8784092103010215 S
atom 7.3164808885938912 7.3164808885938761 4.8784092103010215 S
atom 2.5176458143849989 0.0260500851046398 2.1651372718610085 S
atom 7.5529374431549892 0.0781502553139185 2.7100750044897346 S
atom 2.5697459845942752 5.0613417138746302 2.7100750044897346 S
atom 7.6050376133642690 5.1134418840839064 2.1651372718610085 S
atom 2.5176458143849989 0.0260500851046398 7.7093065395892211 S
atom 7.5529374431549892 0.0781502553139185 7.0180471652885474 S
atom 2.5697459845942752 5.0613417138746302 7.0180471652885474 S
atom 7.6050376133642690 5.1134418840839064 7.7093065395892211 S
atom 0.0260500851046398 2.5176458143849954 2.1651372718610085 S
atom 5.0613417138746417 2.5697459845942765 2.7100750044897346 S
atom 0.0781502553139193 7.5529374431549821 2.7100750044897346 S
atom 5.1134418840839144 7.6050376133642583 2.1651372718610085 S
atom 0.0260500851046398 2.5176458143849954 7.7093065395892211 S
atom 5.0613417138746417 2.5697459845942765 7.0180471652885474 S
atom 0.0781502553139193 7.5529374431549821 7.0180471652885474 S
atom 5.1134418840839144 7.6050376133642583 7.7093065395892211 S
atom 0.0334892454736277 0.0334892454736269 9.8512573128112741 Ba
atom 5.0018023832963712 0.0186109247356520 9.8512573128112741 Ba
atom 0.0186109247356527 5.0018023832963561 9.8512573128112741 Ba
atom 5.1208810444528980 5.1208810444528945 9.8512573128112741 Ba
atom -0.0342205701740155 -0.0342205701740164 14.8034312613065673 Ba
atom 5.0695121989440111 0.0863207403832951 14.8034312613065673 Ba
atom 0.0863207403832959 5.0695121989440066 14.8034312613065673 Ba
atom 5.0531712288052635 5.0531712288052493 14.8034312613065673 Ba
atom 2.5440670528730949 2.5440670528730909 12.3213289510462616 Zr
atom 7.5786163748761721 2.5954249163154568 12.3213289510462616 Zr
atom 2.5954249163154608 7.5786163748761641 12.3213289510462616 Zr
atom 7.6314588518523747 7.6314588518523587 12.3213289510462616 Zr
atom 2.5440670528730949 2.5440670528730909 17.2855335715668623 Zr
atom 7.5786163748761721 2.5954249163154568 17.2855335715668623 Zr
atom 2.5954249163154608 7.5786163748761641 17.2855335715668623 Zr
atom 7.6314588518523747 7.6314588518523587 17.2855335715668623 Zr
atom 2.8948413191866047 2.8948413191865994 9.8435444207147427 S
atom 7.2278421085626636 2.2446506500019492 9.8435444207147427 S
atom 2.2446506500019492 7.2278421085626503 9.8435444207147427 S
atom 7.9822331181658779 7.9822331181658690 9.8435444207147427 S
atom 2.1891973657108128 2.1891973657108097 14.8034312613065673 S
atom 7.9334860620384511 2.9502946034777344 14.8034312613065673 S
atom 2.9502946034777451 7.9334860620384386 14.8034312613065673 S
atom 7.2765891646900904 7.2765891646900780 14.8034312613065673 S
atom 2.5176458143849989 0.0260500851046398 11.9622648742874471 S
atom 7.5529374431549892 0.0781502553139185 12.6890680401525540 S
atom 2.5697459845942752 5.0613417138746302 12.6890680401525540 S
atom 7.6050376133642690 5.1134418840839064 11.9622648742874471 S
atom 2.5176458143849989 0.0260500851046398 17.6445976483256857 S
atom 7.5529374431549892 0.0781502553139185 16.9177944824605646 S
atom 2.5697459845942752 5.0613417138746302 16.9177944824605646 S
atom 7.6050376133642690 5.1134418840839064 17.6445976483256857 S
atom 0.0260500851046398 2.5176458143849954 11.9622648742874471 S
atom 5.0613417138746417 2.5697459845942765 12.6890680401525540 S
atom 0.0781502553139193 7.5529374431549821 12.6890680401525540 S
atom 5.1134418840839144 7.6050376133642583 11.9622648742874471 S
atom 0.0260500851046398 2.5176458143849954 17.6445976483256857 S
atom 5.0613417138746417 2.5697459845942765 16.9177944824605646 S
atom 0.0781502553139193 7.5529374431549821 16.9177944824605646 S
atom 5.1134418840839144 7.6050376133642583 17.6445976483256857 S
atom 0.0334892454736277 0.0334892454736269 19.7556052098018569 Ba
atom 5.0018023832963712 0.0186109247356520 19.7556052098018569 Ba
atom 0.0186109247356526 5.0018023832963561 19.7556052098018569 Ba
atom 5.1208810444528980 5.1208810444528945 19.7556052098018569 Ba
atom -0.0069230744593048 -0.0069230744593057 24.6637383821719176 Ba
atom 5.0422147032292948 0.0590232446685845 24.6637383821719176 Ba
atom 0.0590232446685852 5.0422147032292921 24.6637383821719176 Ba
atom 5.0804687245199771 5.0804687245199673 24.6637383821719176 Ba
atom 2.5454057131573560 2.5454057131573538 22.2521367016933489 Zr
atom 7.5772777145919008 2.5940862560311921 22.2521367016933489 Zr
atom 2.5940862560311970 7.5772777145918955 22.2521367016933489 Zr
atom 7.6327975121366380 7.6327975121366238 22.2521367016933489 Zr
atom 2.5373330340634208 2.5373330340634181 27.2746677649895801 Zr
atom 7.5853503936858502 2.6021589351251322 27.2746677649895801 Zr
atom 2.6021589351251317 7.5853503936858431 27.2746677649895801 Zr
atom 7.6247248330426993 7.6247248330426807 27.2746677649895801 Zr
atom 2.8948413191866047 2.8948413191865994 19.7633181018983777 S
atom 7.2278421085626636 2.2446506500019492 19.7633181018983777 S
atom 2.2446506500019492 7.2278421085626503 19.7633181018983777 S
atom 7.9822331181658779 7.9822331181658690 19.7633181018983777 S
atom 2.2290890896146176 2.2290890896146123 24.7284533123120944 S
atom 7.8935943381346476 2.9104028795739305 24.7284533123120944 S
atom 2.9104028795739363 7.8935943381346405 24.7284533123120944 S
atom 7.3164808885938912 7.3164808885938761 24.7284533123120944 S
atom 2.5176458143849989 0.0260500851046398 21.8975559830239241 S
atom 7.5529374431549892 0.0781502553139185 22.5888153573245880 S
atom 2.5697459845942752 5.0613417138746302 22.5888153573245880 S
atom 7.6050376133642690 5.1134418840839064 21.8975559830239241 S
atom 2.5176458143849989 0.0260500851046398 27.4417252507521461 S
atom 7.5529374431549892 0.0781502553139185 26.8967875181234035 S
atom 2.5697459845942752 5.0613417138746302 26.8967875181234035 S
atom 7.6050376133642690 5.1134418840839064 27.4417252507521461 S
atom 0.0260500851046398 2.5176458143849954 21.8975559830239241 S
atom 5.0613417138746417 2.5697459845942765 22.5888153573245880 S
atom 0.0781502553139193 7.5529374431549821 22.5888153573245880 S
atom 5.1134418840839144 7.6050376133642583 21.8975559830239241 S
atom 0.0260500851046398 2.5176458143849954 27.4417252507521461 S
atom 5.0613417138746417 2.5697459845942765 26.8967875181234035 S
atom 0.0781502553139193 7.5529374431549821 26.8967875181234035 S
atom 5.1134418840839144 7.6050376133642583 27.4417252507521461 S
atom -0.0845675155680144 -0.0845675155680144 29.3364778173747567 Ba
atom 5.1198591443380135 0.1366676857772930 29.3364778173747567 Ba
atom 0.1366676857772941 5.1198591443380064 29.3364778173747567 Ba
atom 5.0028242834112646 5.0028242834112531 29.3364778173747567 Ba
atom 2.7774337900532959 2.7774337900532933 29.7606627638915384 S
atom 7.3452496376959822 2.3620581791352495 29.7606627638915384 S
atom 2.3620581791352544 7.3452496376959662 29.7606627638915384 S
atom 7.8648255890325629 7.8648255890325522 29.7606627638915384 S
atom 2.4591283839216223 2.4591283839216214 32.8379334801128309 Ba
atom 7.6635550438276407 2.6803635852669223 32.8379334801128309 Ba
atom 2.6803635852669307 7.6635550438276381 32.8379334801128309 Ba
atom 7.5465201829008963 7.5465201829008848 32.8379334801128309 Ba
atom 2.5367728250303356 2.5367728250303268 37.5106729153156238 Ba
atom 7.5859106027189354 2.6027191441582156 37.5106729153156238 Ba
atom 2.6027191441582227 7.5859106027189203 37.5106729153156238 Ba
atom 7.6241646240096124 7.6241646240095946 37.5106729153156238 Ba
atom 5.0810289335530516 5.0810289335530490 34.8997435324979932 Zr
atom 10.1290462931755005 5.1458548346147630 34.8997435324979932 Zr
atom 5.1458548346147737 10.1290462931754828 34.8997435324979932 Zr
atom 10.1684207325323346 10.1684207325323310 34.8997435324979932 Zr
atom 5.0891016126470081 5.0891016126469948 39.9222745957942635 Zr
atom 10.1209736140815192 5.1377821555208198 39.9222745957942635 Zr
atom 5.1377821555208287 10.1209736140815139 39.9222745957942635 Zr
atom 10.1764934116262911 10.1764934116262733 39.9222745957942635 Zr
atom 5.3211296895429205 5.3211296895429223 32.4137485335960278 S
atom 9.8889455371856112 4.9057540786248897 32.4137485335960278 S
atom 4.9057540786248941 9.8889455371855970 32.4137485335960278 S
atom 10.4085214885221955 10.4085214885221973 32.4137485335960278 S
atom 4.7727849891042515 4.7727849891042444 37.4459579851755109 S
atom 10.4372902376242909 5.4540987790635693 37.4459579851755109 S
atom 5.4540987790635782 10.4372902376242713 37.4459579851755109 S
atom 9.8601767880835229 9.8601767880835247 37.4459579851755109 S
atom 5.0613417138746408 2.5697459845942765 34.7326860467355374 S
atom 10.0966333426446280 2.6218461548035523 35.2776237793641911 S
atom 5.1134418840839144 7.6050376133642574 35.2776237793641911 S
atom 10.1487335128539051 7.6571377835735426 34.7326860467355374 S
atom 5.0613417138746408 2.5697459845942765 40.2768553144636812 S
atom 10.0966333426446280 2.6218461548035523 39.5855959401629462 S
atom 5.1134418840839144 7.6050376133642574 39.5855959401629462 S
atom 10.1487335128539051 7.6571377835735426 40.2768553144636812 S
atom 2.5697459845942752 5.0613417138746302 34.7326860467355374 S
atom 7.6050376133642699 5.1134418840839064 35.2776237793641911 S
atom 2.6218461548035537 10.0966333426446244 35.2776237793641911 S
atom 7.6571377835735408 10.1487335128538874 34.7326860467355374 S
atom 2.5697459845942752 5.0613417138746302 40.2768553144636812 S
atom 7.6050376133642699 5.1134418840839064 39.5855959401629462 S
atom 2.6218461548035537 10.0966333426446244 39.5855959401629462 S
atom 7.6571377835735408 10.1487335128538874 40.2768553144636812 S
atom 2.5771851449632659 2.5771851449632597 42.4188060876857875 Ba
atom 7.5454982827860038 2.5623068242252853 42.4188060876857875 Ba
atom 2.5623068242252929 7.5454982827859993 42.4188060876857875 Ba
atom 7.6645769439425413 7.6645769439425262 42.4188060876857875 Ba
atom 2.5094753293156216 2.5094753293156180 47.3709800361810025 Ba
atom 7.6132080984336508 2.6300166398729310 47.3709800361810025 Ba
atom 2.6300166398729319 7.6132080984336374 47.3709800361810025 Ba
atom 7.5968671282948943 7.5968671282948881 47.3709800361810025 Ba
atom 5.0877629523627359 5.0877629523627306 44.8888777259207501 Zr
atom 10.1223122743658198 5.1391208158050814 44.8888777259207501 Zr
atom 5.1391208158050974 10.1223122743658092 44.8888777259207501 Zr
atom 10.1751547513419851 10.1751547513419709 44.8888777259207501 Zr
atom 5.0877629523627359 5.0877629523627306 49.8530823464412762 Zr
atom 10.1223122743658198 5.1391208158050814 49.8530823464412762 Zr
atom 5.1391208158050974 10.1223122743658092 49.8530823464412762 Zr
atom 10.1751547513419851 10.1751547513419709 49.8530823464412762 Zr
atom 5.4385372186762533 5.4385372186762329 42.4110931955892312 S
atom 9.7715380080523051 4.7883465494915765 42.4110931955892312 S
atom 4.7883465494915791 9.7715380080522873 42.4110931955892312 S
atom 10.5259290176555158 10.5259290176554963 42.4110931955892312 S
atom 4.7328932652004587 4.7328932652004472 47.3709800361810025 S
atom 10.4771819615280926 5.4939905029673675 47.3709800361810025 S
atom 5.4939905029673817 10.4771819615280730 47.3709800361810025 S
atom 9.8202850641797461 9.8202850641797141 47.3709800361810025 S
atom 5.0613417138746408 2.5697459845942765 44.5298136491618664 S
atom 10.0966333426446280 2.6218461548035523 45.2566168150269448 S
atom 5.1134418840839144 7.6050376133642574 45.2566168150269448 S
atom 10.1487335128539051 7.6571377835735426 44.5298136491618664 S
atom 5.0613417138746408 2.5697459845942765 50.2121464232002097 S
atom 10.0966333426446280 2.6218461548035523 49.4853432573351384 S
atom 5.1134418840839144 7.6050376133642574 49.4853432573351384 S
atom 10.1487335128539051 7.6571377835735426 50.2121464232002097 S
atom 2.5697459845942752 5.0613417138746302 44.5298136491618664 S
atom 7.6050376133642699 5.1134418840839064 45.2566168150269448 S
atom 2.6218461548035537 10.0966333426446244 45.2566168150269448 S
atom 7.6571377835735408 10.1487335128538874 44.5298136491618664 S
atom 2.5697459845942752 5.0613417138746302 50.2121464232002097 S
atom 7.6050376133642699 5.1134418840839064 49.4853432573351384 S
atom 2.6218461548035537 10.0966333426446244 49.4853432573351384 S
atom 7.6571377835735408 10.1487335128538874 50.2121464232002097 S
atom 2.5771851449632659 2.5771851449632597 52.3231539846762885 Ba
atom 7.5454982827860038 2.5623068242252853 52.3231539846762885 Ba
atom 2.5623068242252929 7.5454982827859993 52.3231539846762885 Ba
atom 7.6645769439425413 7.6645769439425262 52.3231539846762885 Ba
atom 2.5367728250303356 2.5367728250303268 57.2312871570463741 Ba
atom 7.5859106027189354 2.6027191441582156 57.2312871570463741 Ba
atom 2.6027191441582227 7.5859106027189203 57.2312871570463741 Ba
atom 7.6241646240096124 7.6241646240095946 57.2312871570463741 Ba
atom 5.0891016126470081 5.0891016126469948 54.8196854765677912 Zr
atom 10.1209736140815192 5.1377821555208198 54.8196854765677912 Zr
atom 5.1377821555208287 10.1209736140815139 54.8196854765677912 Zr
atom 10.1764934116262911 10.1764934116262733 54.8196854765677912 Zr
atom 5.0810289335530516 5.0810289335530490 59.8422165398640402 Zr
atom 10.1290462931755005 5.1458548346147630 59.8422165398640402 Zr
atom 5.1458548346147737 10.1290462931754828 59.8422165398640402 Zr
atom 10.1684207325323346 10.1684207325323310 59.8422165398640402 Zr
atom 5.4385372186762533 5.4385372186762329 52.3308668767728093 S
atom 9.7715380080523051 4.7883465494915765 52.3308668767728093 S
atom 4.7883465494915791 9.7715380080522873 52.3308668767728093 S
atom 10.5259290176555158 10.5259290176554963 52.3308668767728093 S
atom 4.7727849891042515 4.7727849891042453 57.2960020871865012 S
atom 10.4372902376242909 5.4540987790635693 57.2960020871865012 S
atom 5.4540987790635782 10.4372902376242713 57.2960020871865012 S
atom 9.8601767880835229 9.8601767880835247 57.2960020871865012 S
atom 5.0613417138746408 2.5697459845942765 54.4651047578983665 S
atom 10.0966333426446280 2.6218461548035523 55.1563641321991014 S
atom 5.1134418840839144 7.6050376133642574 55.1563641321991014 S
atom 10.1487335128539051 7.6571377835735426 54.4651047578983665 S
atom 5.0613417138746408 2.5697459845942765 60.0092740256265387 S
atom 10.0966333426446280 2.6218461548035523 59.4643362929978849 S
atom 5.1134418840839144 7.6050376133642574 59.4643362929978849 S
atom 10.1487335128539051 7.6571377835735426 60.0092740256265387 S
atom 2.5697459845942752 5.0613417138746302 54.4651047578983665 S
atom 7.6050376133642699 5.1134418840839064 55.1563641321991014 S
atom 2.6218461548035537 10.0966333426446244 55.1563641321991014 S
atom 7.6571377835735408 10.1487335128538874 54.4651047578983665 S
atom 2.5697459845942752 5.0613417138746302 60.0092740256265387 S
atom 7.6050376133642699 5.1134418840839064 59.4643362929978849 S
atom 2.6218461548035537 10.0966333426446244 59.4643362929978849 S
atom 7.6571377835735408 10.1487335128538874 60.0092740256265387 S
atom 2.4591283839216218 2.4591283839216214 61.9040265922492452 Ba
atom 7.6635550438276407 2.6803635852669223 61.9040265922492452 Ba
atom 2.6803635852669307 7.6635550438276372 61.9040265922492452 Ba
atom 7.5465201829008963 7.5465201829008848 61.9040265922492452 Ba
atom 5.3211296895429196 5.3211296895429223 62.3282115387659914 S
atom 9.8889455371856112 4.9057540786248897 62.3282115387659914 S
atom 4.9057540786248932 9.8889455371855970 62.3282115387659914 S
atom 10.4085214885221955 10.4085214885221973 62.3282115387659914 S
