#=======================================================
# FHI-aims file: sym_relax/sym_relax_RP_3_Rx0Mz_0RyMz.in
# Created using the Atomic Simulation Environment (ASE)
# Fri Mar 14 10:23:12 2025
#=======================================================
lattice_vector 10.1029652880135430 -0.0000057229621448 -0.0000064319055816 
lattice_vector -0.0000057229621447 10.1029652880135430 0.0000064319055817 
lattice_vector -0.0000088143624938 0.0000088143624941 35.2420324981171262 
atom -0.1572481090985369 -0.0000003413916698 0.2857339185960477 Ba
atom 5.2087370896253322 0.0000048777108988 0.2857202420020400 Ba
atom 0.1572515841375099 5.0514903831987308 0.2857266739076219 Ba
atom 4.8942316734271456 5.0514794411339992 0.2857339185960480 Ba
atom 0.0302293300143235 0.0000223863793832 4.9296781208657627 Ba
atom 5.0212954239627443 -0.0000371940974107 4.9296886303729472 Ba
atom -0.0301900815250671 5.0514483113904225 4.9296950622785296 Ba
atom 5.0817091125399978 5.0515021689050768 4.9296781208657627 Ba
atom 2.5257540590093992 2.5117199260602101 2.3305946727903621 Zr
atom 7.5772312539380389 2.5397866149172894 2.3305925382608956 Zr
atom 2.5257457484502086 7.5912721204051214 2.3305989701664767 Zr
atom 7.5772338415350751 7.5631997085859028 2.3305946727903621 Zr
atom 2.5257380549373161 2.5257417275883638 7.3420901037743889 Zr
atom 7.5772206989440614 2.5257388661072917 7.3420868878216039 Zr
atom 2.5257351934562440 7.5772243715951237 7.3420933197271854 Zr
atom 7.5772178374629942 7.5772215101140601 7.3420901037743898 Zr
atom 2.5257388770256179 2.8840007505091214 -0.1508076978180585 S
atom 7.5772096734429546 2.1674672299665052 -0.1508063548304839 S
atom 2.5257241679551510 7.2189527354543408 -0.1507999229249024 S
atom 7.5772186595512938 7.9354805330348270 -0.1508076978180585 S
atom 2.5257562339454980 2.0518555309842421 4.8654103326357605 S
atom 7.5772318762601296 2.9996684995044580 4.8654089634379263 S
atom 2.5257463707723029 8.0511540049922754 4.8654153953435051 S
atom 7.5772360164711774 7.1033353135099242 4.8654103326357605 S
atom 2.5257519627514107 0.0000102485606547 2.0083609674390961 S
atom 7.5772390145542916 0.0000075666346022 2.7993116122107420 S
atom 2.5257535090664729 5.0514930721224234 2.7993180441163190 S
atom 7.5772317452770750 5.0514900310863418 2.0083609674390965 S
atom 2.5256634137263876 -0.0000012562805172 7.7937815485651543 S
atom 7.5772982016360917 -0.0000007940305875 6.8903922270780473 S
atom 2.5258126961482543 5.0514847114572481 6.8903986589836403 S
atom 7.5771431962520470 5.0514785262451660 7.7937815485651551 S
atom 0.0000083288044505 2.5257491284727331 2.4579706355119497 S
atom 5.0514916163976897 2.5257496004328606 2.4579491517794283 S
atom 0.0000061109098744 7.5772351059206962 2.4579555836850142 S
atom 5.0514881113301158 7.5772289109984259 2.4579706355119502 S
atom -0.0000043708703336 2.5258259435006329 7.3421023911742225 S
atom 5.0514804807449680 2.5256575116760915 7.3420778163745632 S
atom -0.0000050247428503 7.5771430171639116 7.3420842482801438 S
atom 5.0514754116553435 7.5773057260263235 7.3421023911742234 S
atom -0.0302330026653632 -0.0000187137283435 9.7545020866830292 Ba
atom 5.0816661913997105 0.0000351437863061 9.7544851452702801 Ba
atom 0.0301806859118830 5.0515206492741394 9.7544915771758518 Ba
atom 5.0212467798603093 5.0514610687973542 9.7545020866830328 Ba
atom 0.1572444364474980 0.0000040140427091 14.3984462889527371 Ba
atom 4.8942245257371404 -0.0000069280220043 14.3984535336411685 Ba
atom -0.1572609797506933 5.0514785774658302 14.3984599655467278 Ba
atom 5.2087242189731739 5.0514837965684034 14.3984462889527371 Ba
atom 2.5257220508652409 2.5397635291165166 12.3535855347584089 Zr
atom 7.5772101439501105 2.5116911172972975 12.3535812373823113 Zr
atom 2.5257246384622749 7.5631766227851243 12.3535876692878901 Zr
atom 7.5772018333908990 7.5912433116421862 12.3535855347584089 Zr
atom 2.5257198759291377 2.9996279241924815 9.8187698749130128 S
atom 7.5772095216279993 2.0518092327101205 9.8187648122052735 S
atom 2.5257240161401882 7.1032947381979517 9.8187712441108452 S
atom 7.5771996584548118 8.0511077067181773 9.8187698749130110 S
atom 2.5257372328490115 2.1674827046676031 14.8349879053668570 S
atom 7.5772317244451521 2.8840105022480746 14.8349801304736815 S
atom 2.5257462189573485 7.9354960077359014 14.8349865623792692 S
atom 7.5772170153746927 7.2189624871932887 14.8349879053668552 S
atom 2.5257226008081615 -0.0000096169457069 11.8848621634324623 S
atom 7.5772096526110539 -0.0000122988717601 12.6758128082041104 S
atom 2.5257241471232255 5.0514732066160724 12.6758192401096874 S
atom 7.5772023833338391 5.0514701655799925 11.8848621634324605 S
atom -0.0000155065230585 2.5257338547438697 12.2262310557693432 S
atom 5.0514677810701745 2.5257343267039887 12.2262095720368311 S
atom -0.0000177244176343 7.5772198321918287 12.2262160039424046 S
atom 5.0514642760026156 7.5772136372695620 12.2262310557693414 S
atom 2.5257358254732636 2.6829924075426237 17.9067501676545966 Ba
atom 7.5772103888963755 2.3684869913444344 17.9067364910606024 Ba
atom 2.5257248834085546 7.4199724968322736 17.9067429229661776 Ba
atom 7.5772156079989399 7.7344721900683124 17.9067501676545966 Ba
atom 2.5257130977022095 2.4955149684297635 22.5506943699242761 Ba
atom 7.5772524607046714 2.5559286570070112 22.5507048794314962 Ba
atom 2.5257669552168536 7.6074141624948561 22.5507113113370785 Ba
atom 7.5771928802278792 7.5469947509554567 22.5506943699242761 Ba
atom 5.0654953405470486 5.0514700219603537 19.9516109218489461 Zr
atom 10.0889084342156359 5.0514726095574201 19.9516087873194721 Zr
atom 5.0374229287278443 10.1029581150452454 19.9516152192250438 Zr
atom 10.1169751230727449 10.1029498044860340 19.9516109218489461 Zr
atom 5.0514735390189101 5.0514860260324550 24.9631063528329413 Zr
atom 10.1029561830256682 5.0514831645513922 24.9631031368801573 Zr
atom 5.0514706775378500 10.1029686700392070 24.9631095687857041 Zr
atom 10.1029533215446001 10.1029658085581406 24.9631063528329413 Zr
atom 4.6932145160981582 5.0514852039441456 17.4702085512404999 S
atom 10.4612278191664387 5.0514941900524821 17.4702098942280948 S
atom 5.4097423136786125 10.1029796955402915 17.4702163261336487 S
atom 9.7446942986238394 10.1029649864698392 17.4702085512404999 S
atom 5.5253597356230264 5.0514678470242762 22.4864265816942996 S
atom 9.6290265496284970 5.0514719872353160 22.4864252124964779 S
atom 4.5775410441406770 10.1029574927231529 22.4864316444021028 S
atom 10.5768395181486916 10.1029476295499698 22.4864265816942996 S
atom 5.0514656661744120 2.5257324645720733 20.0789654008380332 S
atom 10.1029516436223492 2.5257302466774934 20.0789804526649398 S
atom 5.0514661381345514 7.5772157521653254 20.0789868845705506 S
atom 10.1029454487000958 7.5772122470977532 20.0789654008380332 S
atom 5.0515577549311823 2.5257436002247973 24.9630940654331255 S
atom 10.1028748285944765 2.5257429463522811 24.9631122083271357 S
atom 5.0513893231066360 7.5772284518401065 24.9631186402327572 S
atom 10.1030375374568369 7.5772233827504811 24.9630940654331255 S
atom 2.5257221944848398 5.0514705719033000 20.4203342931748750 S
atom 7.5772050180466115 5.0514721182183653 19.6293772164976765 S
atom 2.5257195125587932 10.1029576237061871 19.6293836484032234 S
atom 7.5772019770105263 10.1029503544289891 20.4203342931748750 S
atom 2.5257305551500333 5.0514113848215070 24.5114149080421946 S
atom 7.5772165228877926 5.0515606672434048 25.4147977976236561 S
atom 2.5257310173999636 10.1030461727312222 25.4148042295292278 S
atom 7.5772103376756981 10.1028911673472059 24.5114149080421946 S
atom 2.5257541978099396 2.5559773011094551 27.3755183357415390 Ba
atom 7.5771801228209581 2.4955578895700601 27.3755013943287757 Ba
atom 2.5256946173331456 7.5470433950578997 27.3755078262343865 Ba
atom 7.5772339803356052 7.6074570836351469 27.3755183357415390 Ba
atom 2.5257314700388833 2.3684998619965962 32.0194625380112612 Ba
atom 7.5772221946292788 2.6829995552326436 32.0194697826997583 Ba
atom 2.5257366891414539 7.7344850607204698 32.0194762146053122 Ba
atom 7.5772112525645481 7.4199796445222814 32.0194625380112612 Ba
atom 5.0374517374907501 5.0515020301045501 29.9746017838169507 Zr
atom 10.1170039318356562 5.0514937195453422 29.9745974864408709 Zr
atom 5.0655184263478299 10.1029792250331916 29.9746039183464390 Zr
atom 10.0889315200164340 10.1029818126302313 29.9746017838169507 Zr
atom 4.5775873424147955 5.0515042050406240 27.4397861239715759 S
atom 10.5768858164228163 5.0514943418674489 27.4397810612638082 S
atom 5.5254003109350105 10.1029798473552468 27.4397874931693799 S
atom 9.6290671249404447 10.1029839875663416 27.4397861239715759 S
atom 5.4097325619396752 5.0514868481207609 32.4560041544254361 S
atom 9.7446845468848551 5.0514721390502881 32.4559963795322375 S
atom 4.6931990413970741 10.1029576445381295 32.4560028114378625 S
atom 10.4612123444653342 10.1029666306464403 32.4560041544254361 S
atom 5.0514809399032794 2.5257562998995891 29.8472258210953605 S
atom 10.1029669173512300 2.5257540820050046 29.8472408729223027 S
atom 5.0514814118634170 7.5772395874928291 29.8472473048278673 S
atom 10.1029607224289713 7.5772360824252667 29.8472258210953605 S
atom 2.5257420599912082 5.0514999338465421 30.2968354891682132 S
atom 7.5772248835529661 5.0515014801616154 29.5058784124909792 S
atom 2.5257393780651554 10.1029869856494354 29.5058848443966077 S
atom 7.5772218425168809 10.1029797163722375 30.2968354891682132 S
