#=======================================================
# FHI-aims file: sym_relax/sym_relax_RP_6_Rx0Rz_0Ry0.in
# Created using the Atomic Simulation Environment (ASE)
# Fri Mar 14 11:04:52 2025
#=======================================================
lattice_vector 9.9987908641332854 -0.0000000000000000 0.0139645378670660 
lattice_vector -0.0000000000000000 10.0888237336604440 0.0000000000000000 
lattice_vector 0.0919794151765298 0.0000000000000000 65.5570304769974399 
atom -0.1994496310170080 0.0000000000000000 0.1836709246893981 Ba
atom 5.0881296861228531 -0.0000000000000000 0.1884338233800112 Ba
atom 0.0887342540562044 5.0444118668302238 0.1814515544464780 Ba
atom 4.7999458010496374 5.0444118668302238 0.1906531936229310 Ba
atom -0.1099839963010193 0.0000000000000000 4.8758876158198969 Ba
atom 4.8389319238210060 0.0000000000000000 4.8499807858137345 Ba
atom -0.1604635082456389 5.0444118668302238 4.8429985168801970 Ba
atom 4.8894114357656147 5.0444118668302238 4.8828698847534309 Ba
atom 2.4408917664788463 2.5084511203695419 2.2513580746628779 Zr
atom 7.4402871985454802 2.5359607464606859 2.2583403435964100 Zr
atom 2.4408917664788463 7.5803726132909093 2.2513580746628779 Zr
atom 7.4402871985454802 7.5528629871997657 2.2583403435964091 Zr
atom 2.4600167546964937 2.5065242136240142 7.3239529432879058 Zr
atom 7.4594121867631449 2.5378876532062087 7.3309352122214326 Zr
atom 2.4600167546964937 7.5822995200364307 7.3239529432879058 Zr
atom 7.4594121867631449 7.5509360804542354 7.3309352122214335 Zr
atom 2.4507455517788692 2.7567764608560452 -0.2343864329538596 S
atom 7.4501409838455226 2.2876354059741857 -0.2274041640203260 S
atom 2.4507455517788692 7.3320472728044148 -0.2343864329538595 S
atom 7.4501409838455235 7.8011883276862601 -0.2274041640203261 S
atom 2.4620564511931931 2.2140344007070536 4.8274706407342016 S
atom 7.4614518832598300 2.8303774661231693 4.8344529096677400 S
atom 2.4620564511931922 7.8747893329533998 4.8274706407342016 S
atom 7.4614518832598318 7.2584462675372770 4.8344529096677418 S
atom 2.4367014421012514 0.0000000000000000 2.0680186836582970 S
atom 7.4414631699850489 0.0000000000000000 2.6319079863275676 S
atom 2.4420677379183933 5.0444118668302238 2.6249257173940328 S
atom 7.4360968741679043 5.0444118668302238 2.0750009525918252 S
atom 2.9151264114034037 0.0000000000000000 7.5918732292242774 S
atom 7.0668371675128219 0.0000000000000000 7.0931725278439943 S
atom 2.0674417354461796 5.0444118668302238 7.0861902589104560 S
atom 7.9145218434700482 5.0444118668302238 7.5988554981577972 S
atom -0.0557535435000516 2.5313990368686139 2.3728980636419061 S
atom 4.9436418885665825 2.5130128299616157 2.3798803325754374 S
atom -0.0557535435000516 7.5574246967918333 2.3728980636419053 S
atom 4.9436418885665825 7.5758109036988355 2.3798803325754379 S
atom -0.0302332617430908 2.0794880742869353 7.3434897605942959 S
atom 4.9691621703235542 2.9649237925432899 7.3504720295278263 S
atom -0.0302332617430908 8.0093356593734999 7.3434897605942924 S
atom 4.9691621703235542 7.1238999411171688 7.3504720295278281 S
atom -0.0715949016066846 0.0000000000000000 9.8516864936551425 Ba
atom 5.0881688650408243 0.0000000000000000 9.8851571680891119 Ba
atom 0.0887734329741898 5.0444118668302238 9.8781748991555691 Ba
atom 4.9278005304599519 5.0444118668302238 9.8586687625886622 Ba
atom 0.1009120520392497 0.0000000000000000 14.9049875167063792 Ba
atom 4.9402922051076343 0.0000000000000000 14.9006449690441389 Ba
atom -0.0591032269590092 5.0444118668302238 14.8936627001105890 Ba
atom 5.1003074841058869 5.0444118668302238 14.9119697856399309 Ba
atom 2.5112984814839261 2.5246407237210393 12.3744746169461060 Zr
atom 7.5106939135505630 2.5197711431091943 12.3814568858796488 Zr
atom 2.5112984814839261 7.5641830099394127 12.3744746169461060 Zr
atom 7.5106939135505630 7.5690525905512711 12.3814568858796488 Zr
atom 2.5299057756629622 2.5246407237210398 17.4311578688044229 Zr
atom 7.5293012077295867 2.5197711431091943 17.4381401377379426 Zr
atom 2.5299057756629622 7.5641830099394127 17.4311578688044229 Zr
atom 7.5293012077295867 7.5690525905512711 17.4381401377379426 Zr
atom 2.4872362033486071 2.7687558912675700 9.8576048049604168 S
atom 7.4866316354152493 2.2756559755626538 9.8645870738939525 S
atom 2.4872362033486071 7.3200678423928851 9.8576048049604168 S
atom 7.4866316354152493 7.8131677580977810 9.8645870738939525 S
atom 2.5206021285734392 2.3073565423458056 14.9028162428752680 S
atom 7.5199975606400855 2.7370553244844249 14.9097985118087966 S
atom 2.5206021285734392 7.7814671913146478 14.9028162428752680 S
atom 7.5199975606400855 7.3517684091760387 14.9097985118087966 S
atom 2.0693004711938956 0.0000000000000000 12.1950491474450828 S
atom 7.9578930266604084 0.0000000000000000 12.5768376294354400 S
atom 2.9584975945937519 5.0444118668302238 12.5698553605019168 S
atom 7.0686959032605499 5.0444118668302238 12.2020314163786168 S
atom 2.9719037859529895 0.0000000000000000 17.6105833383054673 S
atom 7.0821020946197706 0.0000000000000000 17.2427593941821371 S
atom 2.0827066625531274 5.0444118668302238 17.2357771252485783 S
atom 7.9712992180196238 5.0444118668302238 17.6175656072389586 S
atom 0.0090578870216169 2.9864337761650366 12.3822669127912555 S
atom 5.0084533190882521 2.0579780906651899 12.3892491817247858 S
atom 0.0090578870216169 7.1023899574954124 12.3822669127912555 S
atom 5.0084533190882521 8.0308456429952582 12.3892491817247858 S
atom 0.0327509380586229 2.0579780906651899 17.4163833040257359 S
atom 5.0321463701252718 2.9864337761650375 17.4233655729592662 S
atom 0.0327509380586229 8.0308456429952582 17.4163833040257359 S
atom 5.0321463701252718 7.1023899574954124 17.4233655729592662 S
atom -0.0469646078939504 0.0000000000000000 19.9204753176613707 Ba
atom 5.1127991587535728 0.0000000000000000 19.9539459920954094 Ba
atom 0.1134037266869245 5.0444118668302238 19.9469637231618613 Ba
atom 4.9524308241726978 5.0444118668302238 19.9274575865949082 Ba
atom 0.2022723333258794 0.0000000000000000 24.9556516999367730 Ba
atom 5.1511882534479163 0.0000000000000000 24.9297448699306159 Ba
atom 0.1517928213812591 5.0444118668302238 24.9227626009970962 Ba
atom 5.2016677653925179 5.0444118668302238 24.9626339688703069 Ba
atom 2.5811875024503843 2.5065242136240116 22.4816795424626008 Zr
atom 7.5805829345170261 2.5378876532062078 22.4886618113961170 Zr
atom 2.5811875024503843 7.5822995200364325 22.4816795424626008 Zr
atom 7.5805829345170261 7.5509360804542336 22.4886618113961170 Zr
atom 2.6003124906680464 2.5084511203695419 27.5542744110876257 Zr
atom 7.5997079227346775 2.5359607464606859 27.5612566800211702 Zr
atom 2.6003124906680464 7.5803726132909102 27.5542744110876257 Zr
atom 7.5997079227346775 7.5528629871997657 27.5612566800211702 Zr
atom 2.5539680537982710 2.7687558912675700 19.9480276807901618 S
atom 7.5533634858649048 2.2756559755626538 19.9550099497236779 S
atom 2.5539680537982710 7.3200678423928851 19.9480276807901618 S
atom 7.5533634858649048 7.8131677580977810 19.9550099497236779 S
atom 2.5791478059536899 2.2140344007070545 24.9781618450162988 S
atom 7.5785432380203304 2.8303774661231711 24.9851441139498363 S
atom 2.5791478059536899 7.8747893329533998 24.9781618450162988 S
atom 7.5785432380203304 7.2584462675372770 24.9851441139498363 S
atom 2.1260778457434761 0.0000000000000000 22.2137592565262558 S
atom 7.9731579537673358 0.0000000000000000 22.7264244957736139 S
atom 2.9737625217007051 5.0444118668302238 22.7194422268400480 S
atom 7.1254732778101229 5.0444118668302238 22.2207415254597684 S
atom 2.6045028150456244 0.0000000000000000 27.7376138020922092 S
atom 7.5985319512951248 0.0000000000000000 27.1876890372899993 S
atom 2.5991365192284799 5.0444118668302238 27.1807067683564654 S
atom 7.6038982471122489 5.0444118668302238 27.7445960710257467 S
atom 0.0720420868233309 2.9649237925432899 22.4551604562226643 S
atom 5.0714375188899652 2.0794880742869335 22.4621427251562089 S
atom 0.0720420868233309 7.1238999411171688 22.4551604562226643 S
atom 5.0714375188899652 8.0093356593734999 22.4621427251562089 S
atom 0.0975623685802925 2.5130128299616148 27.4257521531750683 S
atom 5.0969578006469423 2.5313990368686139 27.4327344221085987 S
atom 0.0975623685802925 7.5758109036988337 27.4257521531750683 S
atom 5.0969578006469423 7.5574246967918333 27.4327344221085987 S
atom -0.0469254289759640 0.0000000000000000 29.6171986623705514 Ba
atom 5.2406538881638882 0.0000000000000000 29.6219615610611555 Ba
atom 0.2412584560972488 5.0444118668302238 29.6149792921276287 Ba
atom 4.9524700030906761 5.0444118668302238 29.6241809313040498 Ba
atom 2.5904587053680039 2.7567764608560470 30.0400189187043729 S
atom 7.5898541374346440 2.2876354059741848 30.0470011876379033 S
atom 2.5904587053680035 7.3320472728044139 30.0400189187043729 S
atom 7.5898541374346440 7.8011883276862592 30.0470011876379033 S
atom 2.5871497315655168 2.6828317906182138 33.1488595265232391 Ba
atom 7.5865451636321461 2.3615800762120140 33.1558417954567588 Ba
atom 2.5871497315655168 7.4059919430422498 33.1488595265232391 Ba
atom 7.5865451636321461 7.7272436574484313 33.1558417954567588 Ba
atom 2.5805334225994025 2.5008556067317271 37.8298770778637206 Ba
atom 7.5799288546660408 2.5435562600984984 37.8368593467972545 Ba
atom 2.5805334225994025 7.5879681269287227 37.8298770778637206 Ba
atom 7.5799288546660408 7.5452674735619647 37.8368593467972545 Ba
atom 5.1029304583152024 5.0444118668302238 35.2164695683282005 Zr
atom 10.0643603811735520 5.0444118668302238 35.2227610133175943 Zr
atom 5.0649649491069404 10.0888237336604476 35.2157787443839680 Zr
atom 10.1023258903818220 10.0888237336604476 35.2234518372617771 Zr
atom 5.0776038651273110 5.0444118668302238 40.2359386470923255 Zr
atom 10.0753454596465613 5.0444118668302238 40.2425947448086987 Zr
atom 5.0759500275799336 10.0888237336604476 40.2356124758751861 Zr
atom 10.0769992971939590 10.0888237336604476 40.2429209160257813 Zr
atom 4.7974616658911735 5.0444118668302238 32.7301887582424840 S
atom 10.3766750832803929 5.0444118668302238 32.7372877616546774 S
atom 5.3772796512137546 10.0888237336604476 32.7303054927211932 S
atom 9.7968570979578029 10.0888237336604476 32.7371710271759824 S
atom 5.5486453083804061 5.0444118668302238 37.7611190051680268 S
atom 9.6114195552025663 5.0444118668302238 37.7666169267886502 S
atom 4.6120241231359644 10.0888237336604476 37.7596346578550452 S
atom 10.5480407404470533 10.0888237336604476 37.7681012741017028 S
atom 5.0838318007028160 2.5221824047675332 35.3485961233047661 S
atom 10.0832272327694561 2.5222294620626915 35.3555783922383853 S
atom 5.0838318007028160 7.5666413288929188 35.3485961233047661 S
atom 10.0832272327694561 7.5665942715977552 35.3555783922383853 S
atom 5.0767641378423729 2.5222079121418401 40.2512871293097589 S
atom 10.0761595699089987 2.5222039546883854 40.2582693982432573 S
atom 5.0767641378423729 7.5666158215186154 40.2512871293097589 S
atom 10.0761595699089987 7.5666197789720728 40.2582693982432573 S
atom 2.5835915848094282 5.0444118668302238 35.6665394097774708 S
atom 7.5840991076993083 5.0444118668302238 34.8999195429021825 S
atom 2.5847036756326665 10.0888237336604476 34.8929372739686343 S
atom 7.5829870168760678 10.0888237336604476 35.6735216787110261 S
atom 2.5777873457255795 5.0444118668302238 39.7557902788757147 S
atom 7.5757980730462551 5.0444118668302238 40.7297599116050506 S
atom 2.5764026409796061 10.0888237336604476 40.7227776426713604 S
atom 7.5771827777922089 10.0888237336604476 39.7627725478091349 S
atom 2.5735238941643659 2.5258852123196074 42.7367572499229311 Ba
atom 7.5729193262309877 2.5185266545106222 42.7437395188564082 Ba
atom 2.5735238941643659 7.5629385213408478 42.7367572499229311 Ba
atom 7.5729193262309877 7.5702970791498387 42.7437395188564082 Ba
atom 2.5665918361617011 2.5173586831847645 47.6813314813739382 Ba
atom 7.5659872682283451 2.5270531836454584 47.6883137503074863 Ba
atom 2.5665918361617011 7.5714650504756831 47.6813314813739382 Ba
atom 7.5659872682283451 7.5617705500149981 47.6883137503074863 Ba
atom 5.0684880219200972 5.0444118668302238 45.2021157909481843 Zr
atom 10.0704735049088505 5.0444118668302238 45.2088975466948924 Zr
atom 5.0710780728422051 10.0888237336604476 45.2019152777614295 Zr
atom 10.0678834539867381 10.0888237336604476 45.2090980598817254 Zr
atom 5.0615010315478601 5.0444118668302238 50.1677299539200305 Zr
atom 10.0634865145366064 5.0444118668302238 50.1745117096667883 Zr
atom 5.0640910824699530 10.0888237336604476 50.1675294407332899 Zr
atom 10.0608964636144886 10.0888237336604476 50.1747122228535645 Zr
atom 4.5656219574908397 5.0444118668302238 42.7233833410303845 S
atom 10.5802727685423488 5.0444118668302238 42.7316848240769644 S
atom 5.5808773364756838 10.0888237336604476 42.7247025551435158 S
atom 9.5650173895575001 10.0888237336604476 42.7303656099639397 S
atom 5.5738287781882994 5.0444118668302238 47.6855771389000651 S
atom 9.5581457582683971 5.0444118668302238 47.6910503617148649 S
atom 4.5587503262017570 10.0888237336604476 47.6840680927813381 S
atom 10.5732242102549492 10.0888237336604476 47.6925594078336132 S
atom 5.0697531981560022 2.5222054447893152 45.2072018337105277 S
atom 10.0691486302226281 2.5222064220409175 45.2141841026440190 S
atom 5.0697531981560022 7.5666182888711377 45.2072018337105277 S
atom 10.0691486302226245 7.5666173116195337 45.2141841026440190 S
atom 5.0628259062340488 2.5222064220409162 50.1624433979709465 S
atom 10.0622213383006827 2.5222054447893134 50.1694256669044591 S
atom 5.0628259062340488 7.5666173116195345 50.1624433979709465 S
atom 10.0622213383006827 7.5666182888711377 50.1694256669044591 S
atom 2.5693707867180393 5.0444118668302238 45.6976690668512120 S
atom 7.5701428281292928 5.0444118668302238 44.7173044473505357 S
atom 2.5707473960626306 10.0888237336604476 44.7103221784170231 S
atom 7.5687662187846776 10.0888237336604476 45.7046513357847388 S
atom 2.5638128856053601 5.0444118668302238 49.6649938958967354 S
atom 7.5618317083274187 5.0444118668302238 50.6593230532643801 S
atom 2.5624362762607715 10.0888237336604476 50.6523407843308320 S
atom 7.5632083176720215 10.0888237336604476 49.6719761648301770 S
atom 2.5596597781590429 2.5258852123196074 52.6259057128249381 Ba
atom 7.5590552102257051 2.5185266545106231 52.6328879817585431 Ba
atom 2.5596597781590429 7.5629385213408495 52.6259057128249381 Ba
atom 7.5590552102257051 7.5702970791498387 52.6328879817585431 Ba
atom 2.5526502497240156 2.5008556067317267 57.5327858848841771 Ba
atom 7.5520456817906521 2.5435562600984993 57.5397681538176968 Ba
atom 2.5526502497240156 7.5879681269287236 57.5327858848841771 Ba
atom 7.5520456817906521 7.5452674735619629 57.5397681538176968 Ba
atom 5.0566290768101192 5.0444118668302238 55.1340327558062455 Zr
atom 10.0543706713293712 5.0444118668302238 55.1406888535227750 Zr
atom 5.0549752392627303 10.0888237336604476 55.1337065845891985 Zr
atom 10.0560245088767495 10.0888237336604476 55.1410150247398789 Zr
atom 5.0676141552831222 5.0444118668302238 60.1538664872973001 Zr
atom 10.0290440781415064 5.0444118668302238 60.1601579322866939 Zr
atom 5.0296486460748486 10.0888237336604476 60.1531756633531316 Zr
atom 10.0670095873497853 10.0888237336604476 60.1608487562309477 Zr
atom 4.5517017679143521 5.0444118668302238 52.6449426765379300 S
atom 10.5663525789658124 5.0444118668302238 52.6532441595845739 S
atom 5.5669571468992061 10.0888237336604476 52.6462618906510329 S
atom 9.5510971999810170 10.0888237336604476 52.6519249454714853 S
atom 5.5205549812540848 5.0444118668302238 57.6100105738264148 S
atom 9.5833292280762610 5.0444118668302238 57.6155084954467540 S
atom 4.5839337960096387 10.0888237336604476 57.6085262265132272 S
atom 10.5199504133207675 10.0888237336604476 57.6169928427598634 S
atom 5.0558149665476773 2.5222039546883845 55.1183581023716940 S
atom 10.0552103986143280 2.5222079121418401 55.1253403713051355 S
atom 5.0558149665476773 7.5666197789720746 55.1183581023717082 S
atom 10.0552103986143280 7.5666158215186154 55.1253403713051355 S
atom 5.0487473036872244 2.5222294620626933 60.0210491083766513 S
atom 10.0481427357538511 2.5221824047675332 60.0280313773101497 S
atom 5.0487473036872244 7.5665942715977552 60.0210491083766513 S
atom 10.0481427357538511 7.5666413288929206 60.0280313773101497 S
atom 2.5553963265978399 5.0444118668302238 55.6068726838722824 S
atom 7.5561764634104343 5.0444118668302238 54.6468675890099931 S
atom 2.5567810313438084 10.0888237336604476 54.6398853200764165 S
atom 7.5547917586644742 10.0888237336604476 55.6138549528057524 S
atom 2.5495920875139886 5.0444118668302238 59.6961235529704268 S
atom 7.5478754287573810 5.0444118668302238 60.4767079577126907 S
atom 2.5484799966907401 10.0888237336604476 60.4697256887791781 S
atom 7.5489875195806269 10.0888237336604476 59.7031058219039892 S
atom 2.5460339407578942 2.6828317906182133 62.2138034362247367 Ba
atom 7.5454293728245494 2.3615800762120149 62.2207857051582351 Ba
atom 2.5460339407578942 7.4059919430422498 62.2138034362247367 Ba
atom 7.5454293728245494 7.7272436574484331 62.2207857051582351 Ba
atom 4.7552994531762875 5.0444118668302238 62.6393397389602455 S
atom 10.3345128705655185 5.0444118668302238 62.6464387423725100 S
atom 5.3351174384988962 10.0888237336604476 62.6394564734390116 S
atom 9.7546948852429285 10.0888237336604476 62.6463220078938647 S
