#=======================================================
# FHI-aims file: sym_relax/sym_relax_RP_7_RxRy0_RxRy0.in
# Created using the Atomic Simulation Environment (ASE)
# Mon Mar 17 15:42:26 2025
#=======================================================
lattice_vector 10.0669419044300934 0.0944689546952604 0.0000000000000000 
lattice_vector 0.0944689546952602 10.0669419044300952 -0.0000000000000000 
lattice_vector 0.0000000000000000 -0.0000000000000000 75.1459993214884747 
atom -0.0988991505168677 -0.0988991505168678 0.2790207924219449 Ba
atom 5.1323701027319135 0.1461336278644977 0.2790207924219449 Ba
atom 0.1461336278644977 5.1323701027319153 0.2790207924219449 Ba
atom 4.9818062790458031 4.9818062790458075 0.2790207924219449 Ba
atom -0.0078086478089473 -0.0078086478089474 4.9551046206831426 Ba
atom 5.0412796000239988 0.0550431251565774 4.9551046206831426 Ba
atom 0.0550431251565772 5.0412796000239855 4.9551046206831426 Ba
atom 5.0728967817537276 5.0728967817537240 4.9551046206831426 Ba
atom 2.5274805034831354 2.5274805034831309 2.3449903550413129 Zr
atom 7.5866958782945799 2.6004594034271715 2.3449903550413129 Zr
atom 2.6004594034271715 7.5866958782945844 2.3449903550413129 Zr
atom 7.6081859330458146 7.6081859330457986 2.3449903550413129 Zr
atom 2.5424143562425745 2.5424143562425754 7.3714448056457673 Zr
atom 7.5717620255351372 2.5855255506677284 7.3714448056457673 Zr
atom 2.5855255506677297 7.5717620255351390 7.3714448056457673 Zr
atom 7.6231197858052484 7.6231197858052528 7.3714448056457673 Zr
atom 2.7280924385642575 2.7280924385642580 -0.1391204802486202 S
atom 7.3860839432134577 2.3998474683460445 -0.1391204802486202 S
atom 2.3998474683460471 7.3860839432134542 -0.1391204802486202 S
atom 7.8087978681269314 7.8087978681269314 -0.1391204802486202 S
atom 2.2323437518125346 2.2323437518125364 4.8943479325603763 S
atom 7.8818326299651922 2.8955961550977682 4.8943479325603763 S
atom 2.8955961550977682 7.8818326299651904 4.8943479325603763 S
atom 7.3130491813752032 7.3130491813751997 4.8943479325603763 S
atom 2.5167354761075216 0.0236172386738150 2.1933853868818152 S
atom 7.5502064283225661 0.0708517160214437 2.7006801535063825 S
atom 2.5639699534551545 5.0570881908888552 2.7006801535063825 S
atom 7.5974409056701946 5.1043226682364855 2.1933853868818152 S
atom 2.5167354761075216 0.0236172386738150 7.7244586283959045 S
atom 7.5502064283225661 0.0708517160214437 7.0362942707283498 S
atom 2.5639699534551545 5.0570881908888552 7.0362942707283498 S
atom 7.5974409056701946 5.1043226682364855 7.7244586283959045 S
atom 0.0236172386738149 2.5167354761075207 2.1933853868818152 S
atom 5.0570881908888543 2.5639699534551514 2.7006801535063825 S
atom 0.0708517160214440 7.5502064283225652 2.7006801535063825 S
atom 5.1043226682364837 7.5974409056701910 2.1933853868818152 S
atom 0.0236172386738149 2.5167354761075207 7.7244586283959045 S
atom 5.0570881908888543 2.5639699534551514 7.0362942707283498 S
atom 0.0708517160214440 7.5502064283225652 7.0362942707283498 S
atom 5.1043226682364837 7.5974409056701910 7.7244586283959045 S
atom 0.0345554182221796 0.0345554182221795 9.8682188611094972 Ba
atom 4.9989155339928608 0.0126790591254504 9.8682188611094972 Ba
atom 0.0126790591254504 4.9989155339928670 9.8682188611094972 Ba
atom 5.1152608477848540 5.1152608477848558 9.8682188611094972 Ba
atom -0.0356555236391079 -0.0356555236391079 14.8253204536190317 Ba
atom 5.0691264758541648 0.0828900009867380 14.8253204536190317 Ba
atom 0.0828900009867379 5.0691264758541550 14.8253204536190317 Ba
atom 5.0450499059235563 5.0450499059235598 14.8253204536190317 Ba
atom 2.5407843350816282 2.5407843350816273 12.3390352211937167 Zr
atom 7.5733920466960898 2.5871555718286778 12.3390352211937167 Zr
atom 2.5871555718286752 7.5733920466960898 12.3390352211937167 Zr
atom 7.6214897646443021 7.6214897646442994 12.3390352211937167 Zr
atom 2.5403527147813350 2.5403527147813376 17.3033551069217104 Zr
atom 7.5738236669963861 2.5875871921289670 17.3033551069217104 Zr
atom 2.5875871921289688 7.5738236669963799 17.3033551069217104 Zr
atom 7.6210581443440057 7.6210581443440049 17.3033551069217104 Zr
atom 2.8899524248276665 2.8899524248276656 9.8612522840551176 S
atom 7.2242239569500466 2.2379874820826386 9.8612522840551176 S
atom 2.2379874820826382 7.2242239569500430 9.8612522840551176 S
atom 7.9706578543903372 7.9706578543903444 9.8612522840551176 S
atom 2.1866848836211501 2.1866848836211528 14.8224100118788744 S
atom 7.9274914981565541 2.9412550232891510 14.8224100118788744 S
atom 2.9412550232891514 7.9274914981565674 14.8224100118788744 S
atom 7.2673903131838369 7.2673903131838253 14.8224100118788744 S
atom 2.5167354761075216 0.0236172386738150 11.9806219972600054 S
atom 7.5502064283225661 0.0708517160214437 12.7082472442423402 S
atom 2.5639699534551545 5.0570881908888552 12.7082472442423402 S
atom 7.5974409056701946 5.1043226682364855 11.9806219972600054 S
atom 2.5167354761075216 0.0236172386738150 17.6680683648301944 S
atom 7.5502064283225661 0.0708517160214437 16.9386418490131945 S
atom 2.5639699534551545 5.0570881908888552 16.9386418490131945 S
atom 7.5974409056701946 5.1043226682364855 17.6680683648301944 S
atom 0.0236172386738149 2.5167354761075207 11.9806219972600054 S
atom 5.0570881908888543 2.5639699534551514 12.7082472442423402 S
atom 0.0708517160214440 7.5502064283225652 12.7082472442423402 S
atom 5.1043226682364837 7.5974409056701910 11.9806219972600054 S
atom 0.0236172386738149 2.5167354761075207 17.6680683648301944 S
atom 5.0570881908888543 2.5639699534551514 16.9386418490131945 S
atom 0.0708517160214440 7.5502064283225652 16.9386418490131945 S
atom 5.1043226682364837 7.5974409056701910 17.6680683648301944 S
atom 0.0356555236391088 0.0356555236391089 19.7813897602243571 Ba
atom 4.9978154285759322 0.0115789537085211 19.7813897602243571 Ba
atom 0.0115789537085210 4.9978154285759260 19.7813897602243571 Ba
atom 5.1163609532017844 5.1163609532017853 19.7813897602243571 Ba
atom -0.0345554182221787 -0.0345554182221786 24.7384913527338988 Ba
atom 5.0680263704372246 0.0817898955698088 24.7384913527338988 Ba
atom 0.0817898955698087 5.0680263704372237 24.7384913527338988 Ba
atom 5.0461500113404947 5.0461500113404902 24.7384913527338988 Ba
atom 2.5399210944810493 2.5399210944810493 22.2676749926496527 Zr
atom 7.5742552872966726 2.5880188124292545 22.2676749926496527 Zr
atom 2.5880188124292567 7.5742552872966771 22.2676749926496527 Zr
atom 7.6206265240437130 7.6206265240437148 22.2676749926496527 Zr
atom 2.5382910733201003 2.5382910733200994 27.2352654081976304 Zr
atom 7.5758853084576261 2.5896488335902030 27.2352654081976304 Zr
atom 2.5896488335902030 7.5758853084576216 27.2352654081976304 Zr
atom 7.6189965028827684 7.6189965028827666 27.2352654081976304 Zr
atom 2.8940205459415216 2.8940205459415234 19.7843002019645127 S
atom 7.2201558358361968 2.2339193609687844 19.7843002019645127 S
atom 2.2339193609687849 7.2201558358361915 19.7843002019645127 S
atom 7.9747259755042004 7.9747259755041915 19.7843002019645127 S
atom 2.1907530047350092 2.1907530047350079 24.7454579297882979 S
atom 7.9234233770427140 2.9371869021752919 24.7454579297882979 S
atom 2.9371869021752932 7.9234233770427132 24.7454579297882979 S
atom 7.2714584342976814 7.2714584342976716 24.7454579297882979 S
atom 2.5167354761075216 0.0236172386738150 21.8984629696010629 S
atom 7.5502064283225661 0.0708517160214437 22.6260882165833905 S
atom 2.5639699534551545 5.0570881908888552 22.6260882165833905 S
atom 7.5974409056701946 5.1043226682364855 21.8984629696010629 S
atom 2.5167354761075216 0.0236172386738150 27.5704159431150408 S
atom 7.5502064283225661 0.0708517160214437 26.8822515854474631 S
atom 2.5639699534551545 5.0570881908888552 26.8822515854474631 S
atom 7.5974409056701946 5.1043226682364855 27.5704159431150408 S
atom 0.0236172386738149 2.5167354761075207 21.8984629696010629 S
atom 5.0570881908888543 2.5639699534551514 22.6260882165833905 S
atom 0.0708517160214440 7.5502064283225652 22.6260882165833905 S
atom 5.1043226682364837 7.5974409056701910 21.8984629696010629 S
atom 0.0236172386738149 2.5167354761075207 27.5704159431150408 S
atom 5.0570881908888543 2.5639699534551514 26.8822515854474631 S
atom 0.0708517160214440 7.5502064283225652 26.8822515854474631 S
atom 5.1043226682364837 7.5974409056701910 27.5704159431150408 S
atom 0.0078086478089482 0.0078086478089482 29.6516055931602409 Ba
atom 5.0256623044061053 0.0394258295386818 29.6516055931602409 Ba
atom 0.0394258295386817 5.0256623044061008 29.6516055931602409 Ba
atom 5.0885140773716220 5.0885140773716158 29.6516055931602409 Ba
atom 0.0988991505168685 0.0988991505168687 34.3276894214214394 Ba
atom 4.9345718016981746 -0.0516646731692391 34.3276894214214394 Ba
atom -0.0516646731692389 4.9345718016981754 34.3276894214214394 Ba
atom 5.1796045800795474 5.1796045800795421 34.3276894214214394 Ba
atom 2.5532249260795394 2.5532249260795408 32.2617198588020173 Zr
atom 7.5609514556981781 2.5747149808307634 32.2617198588020173 Zr
atom 2.5747149808307666 7.5609514556981754 32.2617198588020173 Zr
atom 7.6339303556422102 7.6339303556422102 32.2617198588020173 Zr
atom 2.8483616777501424 2.8483616777501366 29.7123622812829993 S
atom 7.2658147040275720 2.2795782291601632 29.7123622812829993 S
atom 2.2795782291601610 7.2658147040275702 29.7123622812829993 S
atom 7.9290671073128083 7.9290671073128189 29.7123622812829993 S
atom 2.3526129909984150 2.3526129909984181 34.7458306940920281 S
atom 7.7615633907793047 2.7753269159118883 34.7458306940920281 S
atom 2.7753269159118892 7.7615633907793029 34.7458306940920281 S
atom 7.4333184205610845 7.4333184205610845 34.7458306940920281 S
atom 2.5167354761075216 0.0236172386738150 31.9060300603370273 S
atom 7.5502064283225661 0.0708517160214437 32.4133248269615848 S
atom 2.5639699534551545 5.0570881908888552 32.4133248269615848 S
atom 7.5974409056701946 5.1043226682364855 31.9060300603370202 S
atom 0.0236172386738149 2.5167354761075207 31.9060300603370273 S
atom 5.0570881908888543 2.5639699534551514 32.4133248269615848 S
atom 0.0708517160214440 7.5502064283225652 32.4133248269615848 S
atom 5.1043226682364837 7.5974409056701910 31.9060300603370273 S
atom 2.4414535642644735 2.4414535642644686 37.8520204531662117 Ba
atom 7.6727228175132351 2.6864863426458334 37.8520204531662117 Ba
atom 2.6864863426458307 7.6727228175132440 37.8520204531662117 Ba
atom 7.5221589938271460 7.5221589938271425 37.8520204531662117 Ba
atom 2.5325440669723873 2.5325440669723860 42.5281042814274244 Ba
atom 7.5816323148053213 2.5953958399379129 42.5281042814274244 Ba
atom 2.5953958399379182 7.5816323148053240 42.5281042814274244 Ba
atom 7.6132494965350714 7.6132494965350599 42.5281042814274244 Ba
atom 5.0678332182644716 5.0678332182644663 39.9179900157856196 Zr
atom 10.1270485930759087 5.1408121182085091 39.9179900157856196 Zr
atom 5.1408121182085100 10.1270485930759122 39.9179900157856196 Zr
atom 10.1485386478271522 10.1485386478271522 39.9179900157856196 Zr
atom 5.0827670710239188 5.0827670710239223 44.9444444663900313 Zr
atom 10.1121147403164784 5.1258782654490558 44.9444444663900313 Zr
atom 5.1258782654490576 10.1121147403164784 44.9444444663900313 Zr
atom 10.1634725005865647 10.1634725005865754 44.9444444663900313 Zr
atom 5.2684451533456045 5.2684451533456000 37.4338791804955591 S
atom 9.9264366579948149 4.9402001831273816 37.4338791804955591 S
atom 4.9402001831273772 9.9264366579947900 37.4338791804955591 S
atom 10.3491505829082602 10.3491505829082602 37.4338791804955591 S
atom 4.7726964665938683 4.7726964665938665 42.4673475933046021 S
atom 10.4221853447465218 5.4359488698791028 42.4673475933046021 S
atom 5.4359488698791072 10.4221853447465147 42.4673475933046021 S
atom 9.8534018961565408 9.8534018961565355 42.4673475933046021 S
atom 5.0570881908888543 2.5639699534551514 39.7663850476260947 S
atom 10.0905591431039099 2.6112044308027795 40.2736798142506274 S
atom 5.1043226682364837 7.5974409056701901 40.2736798142506274 S
atom 10.1377936204515393 7.6446753830178187 39.7663850476260947 S
atom 5.0570881908888543 2.5639699534551514 45.2974582891401454 S
atom 10.0905591431039099 2.6112044308027795 44.6092939314726351 S
atom 5.1043226682364837 7.5974409056701901 44.6092939314726351 S
atom 10.1377936204515393 7.6446753830178187 45.2974582891401454 S
atom 2.5639699534551545 5.0570881908888561 39.7663850476260947 S
atom 7.5974409056701946 5.1043226682364855 40.2736798142506274 S
atom 2.6112044308027813 10.0905591431039010 40.2736798142506274 S
atom 7.6446753830178213 10.1377936204515269 39.7663850476260947 S
atom 2.5639699534551545 5.0570881908888561 45.2974582891401454 S
atom 7.5974409056701946 5.1043226682364855 44.6092939314726351 S
atom 2.6112044308027813 10.0905591431039010 44.6092939314726351 S
atom 7.6446753830178213 10.1377936204515269 45.2974582891401454 S
atom 2.5749081330035191 2.5749081330035173 47.4412185218537061 Ba
atom 7.5392682487741993 2.5530317739067860 47.4412185218537061 Ba
atom 2.5530317739067816 7.5392682487742011 47.4412185218537061 Ba
atom 7.6556135625661899 7.6556135625661916 47.4412185218537061 Ba
atom 2.5046971911422258 2.5046971911422249 52.3983201143632868 Ba
atom 7.6094791906354891 2.6232427157680753 52.3983201143632868 Ba
atom 2.6232427157680775 7.6094791906354944 52.3983201143632868 Ba
atom 7.5854026207048930 7.5854026207048930 52.3983201143632868 Ba
atom 5.0811370498629636 5.0811370498629644 49.9120348819379842 Zr
atom 10.1137447614774327 5.1275082866100030 49.9120348819379842 Zr
atom 5.1275082866100128 10.1137447614774327 49.9120348819379842 Zr
atom 10.1618424794256033 10.1618424794256370 49.9120348819379842 Zr
atom 5.0807054295626690 5.0807054295626743 54.8763547676659513 Zr
atom 10.1141763817777086 5.1279399069103029 54.8763547676659513 Zr
atom 5.1279399069103091 10.1141763817777122 54.8763547676659513 Zr
atom 10.1614108591253380 10.1614108591253487 54.8763547676659513 Zr
atom 5.4303051396090103 5.4303051396090005 47.4342519447993780 S
atom 9.7645766717314064 4.7783401968639740 47.4342519447993780 S
atom 4.7783401968639723 9.7645766717313869 47.4342519447993780 S
atom 10.5110105691716811 10.5110105691716775 47.4342519447993780 S
atom 4.7270375984024922 4.7270375984024877 52.3954096726230887 S
atom 10.4678442129379121 5.4816077380704833 52.3954096726230887 S
atom 5.4816077380704895 10.4678442129379068 52.3954096726230887 S
atom 9.8077430279651487 9.8077430279651558 52.3954096726230887 S
atom 5.0570881908888543 2.5639699534551514 49.5536216580042890 S
atom 10.0905591431039099 2.6112044308027795 50.2812469049866095 S
atom 5.1043226682364837 7.5974409056701901 50.2812469049866095 S
atom 10.1377936204515393 7.6446753830178187 49.5536216580042890 S
atom 5.0570881908888543 2.5639699534551514 55.2410680255744637 S
atom 10.0905591431039099 2.6112044308027795 54.5116415097574247 S
atom 5.1043226682364837 7.5974409056701901 54.5116415097574247 S
atom 10.1377936204515393 7.6446753830178187 55.2410680255744637 S
atom 2.5639699534551545 5.0570881908888561 49.5536216580042890 S
atom 7.5974409056701946 5.1043226682364855 50.2812469049866095 S
atom 2.6112044308027813 10.0905591431039010 50.2812469049866095 S
atom 7.6446753830178213 10.1377936204515269 49.5536216580042890 S
atom 2.5639699534551545 5.0570881908888561 55.2410680255744637 S
atom 7.5974409056701946 5.1043226682364855 54.5116415097574247 S
atom 2.6112044308027813 10.0905591431039010 54.5116415097574247 S
atom 7.6446753830178213 10.1377936204515269 55.2410680255744637 S
atom 2.5760082384204446 2.5760082384204459 57.3543894209686655 Ba
atom 7.5381681433572698 2.5519316684898556 57.3543894209686655 Ba
atom 2.5519316684898561 7.5381681433572627 57.3543894209686655 Ba
atom 7.6567136679831211 7.6567136679831203 57.3543894209686655 Ba
atom 2.5057972965591562 2.5057972965591553 62.3114910134781681 Ba
atom 7.6083790852185604 2.6221426103511480 62.3114910134781681 Ba
atom 2.6221426103511454 7.6083790852185613 62.3114910134781681 Ba
atom 7.5865027261218305 7.5865027261218270 62.3114910134781681 Ba
atom 5.0802738092623834 5.0802738092623780 59.8406746533938616 Zr
atom 10.1146080020780147 5.1283715272105956 59.8406746533938616 Zr
atom 5.1283715272105965 10.1146080020780058 59.8406746533938616 Zr
atom 10.1609792388250693 10.1609792388250622 59.8406746533938616 Zr
atom 5.0786437881014317 5.0786437881014308 64.8082650689420205 Zr
atom 10.1162380232389513 5.1300015483715464 64.8082650689420205 Zr
atom 5.1300015483715500 10.1162380232389619 64.8082650689420205 Zr
atom 10.1593492176641007 10.1593492176641149 64.8082650689420205 Zr
atom 5.4343732607228485 5.4343732607228556 57.3572998627087856 S
atom 9.7605085506175211 4.7742720757501216 57.3572998627087856 S
atom 4.7742720757501234 9.7605085506175193 57.3572998627087856 S
atom 10.5150786902855451 10.5150786902855504 57.3572998627087856 S
atom 4.7311057195163420 4.7311057195163384 62.3184575905325246 S
atom 10.4637760918240534 5.4775396169566317 62.3184575905325246 S
atom 5.4775396169566308 10.4637760918240392 62.3184575905325246 S
atom 9.8118111490790270 9.8118111490790074 62.3184575905325246 S
atom 5.0570881908888543 2.5639699534551514 59.4714626303453073 S
atom 10.0905591431039099 2.6112044308027795 60.1990878773276989 S
atom 5.1043226682364837 7.5974409056701901 60.1990878773276989 S
atom 10.1377936204515393 7.6446753830178187 59.4714626303453073 S
atom 5.0570881908888543 2.5639699534551514 65.1434156038593244 S
atom 10.0905591431039099 2.6112044308027795 64.4552512461917075 S
atom 5.1043226682364837 7.5974409056701901 64.4552512461917075 S
atom 10.1377936204515393 7.6446753830178187 65.1434156038593244 S
atom 2.5639699534551545 5.0570881908888561 59.4714626303453073 S
atom 7.5974409056701946 5.1043226682364855 60.1990878773276989 S
atom 2.6112044308027813 10.0905591431039010 60.1990878773276989 S
atom 7.6446753830178213 10.1377936204515269 59.4714626303453073 S
atom 2.5639699534551545 5.0570881908888561 65.1434156038593244 S
atom 7.5974409056701946 5.1043226682364855 64.4552512461917075 S
atom 2.6112044308027813 10.0905591431039010 64.4552512461917075 S
atom 7.6446753830178213 10.1377936204515269 65.1434156038593244 S
atom 2.5481613625902853 2.5481613625902848 67.2246052539045422 Ba
atom 7.5660150191874322 2.5797785443200154 67.2246052539045422 Ba
atom 2.5797785443200190 7.5660150191874349 67.2246052539045422 Ba
atom 7.6288667921529507 7.6288667921529525 67.2246052539045422 Ba
atom 2.6392518652982044 2.6392518652982013 71.9006890821655702 Ba
atom 7.4749245164795042 2.4886880416120984 71.9006890821655702 Ba
atom 2.4886880416120962 7.4749245164795131 71.9006890821655702 Ba
atom 7.7199572948608832 7.7199572948608690 71.9006890821655702 Ba
atom 5.0935776408608824 5.0935776408608771 69.8347195195463826 Zr
atom 10.1013041704795192 5.1150676956120966 69.8347195195463826 Zr
atom 5.1150676956121020 10.1013041704795246 69.8347195195463826 Zr
atom 10.1742830704235363 10.1742830704235310 69.8347195195463826 Zr
atom 5.3887143925314804 5.3887143925314733 67.2853619420274072 S
atom 9.8061674188089025 4.8199309439414924 67.2853619420274072 S
atom 4.8199309439414950 9.8061674188089238 67.2853619420274072 S
atom 10.4694198220941512 10.4694198220941459 67.2853619420274072 S
atom 4.8929657057797451 4.8929657057797513 72.3188303548362228 S
atom 10.3019161055606379 5.3156796306932268 72.3188303548362228 S
atom 5.3156796306932312 10.3019161055606343 72.3188303548362228 S
atom 9.9736711353424283 9.9736711353424266 72.3188303548362228 S
atom 5.0570881908888543 2.5639699534551514 69.4790297210813037 S
atom 10.0905591431039099 2.6112044308027795 69.9863244877059145 S
atom 5.1043226682364837 7.5974409056701901 69.9863244877059145 S
atom 10.1377936204515393 7.6446753830178187 69.4790297210813037 S
atom 2.5639699534551545 5.0570881908888561 69.4790297210813037 S
atom 7.5974409056701946 5.1043226682364855 69.9863244877059145 S
atom 2.6112044308027813 10.0905591431039010 69.9863244877059145 S
atom 7.6446753830178213 10.1377936204515269 69.4790297210813037 S
