#=======================================================
# FHI-aims file: sym_relax/sym_relax_RP_5_RxRy0_RxRy0.in
# Created using the Atomic Simulation Environment (ASE)
# Fri Mar 14 10:49:01 2025
#=======================================================
lattice_vector 10.0703547058953493 0.0993680110103247 -0.0000000000000000 
lattice_vector 0.0993680110103246 10.0703547058953635 0.0000000000000000 
lattice_vector -0.0000000000000000 0.0000000000000000 55.2857272952819159 
atom -0.0999689792378136 -0.0999689792378138 0.2816479597074812 Ba
atom 5.1351463321854895 0.1496529847429762 0.2816479597074811 Ba
atom 0.1496529847429759 5.1351463321854993 0.2816479597074812 Ba
atom 4.9848923792150241 4.9848923792150304 0.2816479597074812 Ba
atom -0.0069400604810704 -0.0069400604810703 4.9558879296981493 Ba
atom 5.0421174134287421 0.0566240659862325 4.9558879296981493 Ba
atom 0.0566240659862325 5.0421174134287501 4.9558879296981493 Ba
atom 5.0779212979717743 5.0779212979717823 4.9558879296981493 Ba
atom 2.5294594898841969 2.5294594898842031 2.3466647261217028 Zr
atom 7.5905792215163261 2.6050858740738079 2.3466647261217028 Zr
atom 2.6050858740738012 7.5905792215163386 2.3466647261217028 Zr
atom 7.6143208483370310 7.6143208483370497 2.3466647261217028 Zr
atom 2.5446728730502670 2.5446728730502683 7.3726157041811007 Zr
atom 7.5753658383502529 2.5898724909077377 7.3726157041811007 Zr
atom 2.5898724909077342 7.5753658383502636 7.3726157041811007 Zr
atom 7.6295342315030990 7.6295342315031194 7.3726157041811007 Zr
atom 2.7313843330905274 2.7313843330905367 -0.1371457607225222 S
atom 7.3886543783099734 2.4031610308674729 -0.1371457607225222 S
atom 2.4031610308674662 7.3886543783099938 -0.1371457607225222 S
atom 7.8162456915433705 7.8162456915433909 -0.1371457607225222 S
atom 2.2337127037125271 2.2337127037125297 4.8950267202474542 S
atom 7.8863260076879875 2.9008326602454790 4.8950267202474542 S
atom 2.9008326602454737 7.8863260076880097 4.8950267202474542 S
atom 7.3185740621653528 7.3185740621653723 4.8950267202474542 S
atom 2.5175886764738369 0.0248420027525811 2.1940750523569741 S
atom 7.5527660294215142 0.0745260082577419 2.7022021041514264 S
atom 2.5672726819789968 5.0600193557002680 2.7022021041514264 S
atom 7.6024500349266715 5.1097033612054235 2.1940750523569741 S
atom 2.5175886764738369 0.0248420027525811 7.7231713266691333 S
atom 7.5527660294215142 0.0745260082577419 7.0361764345440676 S
atom 2.5672726819789968 5.0600193557002680 7.0361764345440676 S
atom 7.6024500349266715 5.1097033612054235 7.7231713266691333 S
atom 0.0248420027525811 2.5175886764738440 2.1940750523569741 S
atom 5.0600193557002546 2.5672726819790022 2.7022021041514264 S
atom 0.0745260082577423 7.5527660294215355 2.7022021041514264 S
atom 5.1097033612054101 7.6024500349266928 2.1940750523569741 S
atom 0.0248420027525811 2.5175886764738440 7.7231713266691333 S
atom 5.0600193557002546 2.5672726819790022 7.0361764345440676 S
atom 0.0745260082577423 7.5527660294215355 7.0361764345440676 S
atom 5.1097033612054101 7.6024500349266928 7.7231713266691333 S
atom 0.0334219589959287 0.0334219589959287 9.8646719520966641 Ba
atom 5.0017553939517487 0.0162620465092334 9.8646719520966641 Ba
atom 0.0162620465092335 5.0017553939517549 9.8646719520966641 Ba
atom 5.1182833174487747 5.1182833174487801 9.8646719520966641 Ba
atom -0.0334219589959278 -0.0334219589959279 14.8164563047256532 Ba
atom 5.0685993119436095 0.0831059645010901 14.8164563047256532 Ba
atom 0.0831059645010902 5.0685993119436192 14.8164563047256532 Ba
atom 5.0514393994569060 5.0514393994569140 14.8164563047256532 Ba
atom 2.5424306792264200 2.5424306792264253 12.3405641284111578 Zr
atom 7.5776080321740924 2.5921146847315839 12.3405641284111578 Zr
atom 2.5921146847315817 7.5776080321741146 12.3405641284111578 Zr
atom 7.6272920376792568 7.6272920376792719 12.3405641284111578 Zr
atom 2.5401884854025774 2.5401884854025769 17.3085125526412078 Zr
atom 7.5798502259979452 2.5943568785554350 17.3085125526412078 Zr
atom 2.5943568785554274 7.5798502259979594 17.3085125526412078 Zr
atom 7.6250498438554031 7.6250498438554253 17.3085125526412078 Zr
atom 2.8921215454717766 2.8921215454717810 9.8608221655622401 S
atom 7.2279171659287362 2.2424238184862291 9.8608221655622401 S
atom 2.2424238184862246 7.2279171659287584 9.8608221655622401 S
atom 7.9769829039246112 7.9769829039246272 9.8608221655622401 S
atom 2.1927398129810598 2.1927398129810682 14.8203060912600648 S
atom 7.9272988984194619 2.9418055509769419 14.8203060912600648 S
atom 2.9418055509769361 7.9272988984194761 14.8203060912600648 S
atom 7.2776011714338926 7.2776011714339139 14.8203060912600648 S
atom 2.5175886764738369 0.0248420027525811 11.9787334512801902 S
atom 7.5527660294215142 0.0745260082577419 12.7023948055421041 S
atom 2.5672726819789968 5.0600193557002680 12.7023948055421041 S
atom 7.6024500349266715 5.1097033612054235 11.9787334512801902 S
atom 2.5175886764738369 0.0248420027525811 17.6449518222782622 S
atom 7.5527660294215142 0.0745260082577419 16.9579569301532089 S
atom 2.5672726819789968 5.0600193557002680 16.9579569301532089 S
atom 7.6024500349266715 5.1097033612054235 17.6449518222782622 S
atom 0.0248420027525811 2.5175886764738440 11.9787334512801902 S
atom 5.0600193557002546 2.5672726819790022 12.7023948055421041 S
atom 0.0745260082577423 7.5527660294215355 12.7023948055421041 S
atom 5.1097033612054101 7.6024500349266928 11.9787334512801902 S
atom 0.0248420027525811 2.5175886764738440 17.6449518222782622 S
atom 5.0600193557002546 2.5672726819790022 16.9579569301532089 S
atom 0.0745260082577423 7.5527660294215355 16.9579569301532089 S
atom 5.1097033612054101 7.6024500349266928 17.6449518222782622 S
atom 0.0069400604810713 0.0069400604810713 19.7252403271241548 Ba
atom 5.0282372924666099 0.0427439450240909 19.7252403271241548 Ba
atom 0.0427439450240908 5.0282372924666214 19.7252403271241548 Ba
atom 5.0918014189339047 5.0918014189339145 19.7252403271241548 Ba
atom 0.0999689792378145 0.0999689792378147 24.3994802971148204 Ba
atom 4.9352083737098615 -0.0502849737326531 24.3994802971148204 Ba
atom -0.0502849737326525 4.9352083737098686 24.3994802971148204 Ba
atom 5.1848303376906548 5.1848303376906637 24.3994802971148204 Ba
atom 2.5554018685686426 2.5554018685686448 22.3344635307005994 Zr
atom 7.5646368428318764 2.5791434953893648 22.3344635307005994 Zr
atom 2.5791434953893599 7.5646368428318853 22.3344635307005994 Zr
atom 7.6402632270214834 7.6402632270214941 22.3344635307005994 Zr
atom 2.8511486547403111 2.8511486547403209 19.7861015365748685 S
atom 7.2688900566602008 2.2833967092176888 19.7861015365748685 S
atom 2.2833967092176812 7.2688900566602150 19.7861015365748685 S
atom 7.9360100131931475 7.9360100131931661 19.7861015365748685 S
atom 2.3534770253623112 2.3534770253623098 24.8182740175448302 S
atom 7.7665616860382123 2.7810683385956976 24.8182740175448302 S
atom 2.7810683385956887 7.7665616860382301 24.8182740175448302 S
atom 7.4383383838151378 7.4383383838151547 24.8182740175448302 S
atom 2.5175886764738369 0.0248420027525811 21.9789261526708728 S
atom 7.5527660294215142 0.0745260082577419 22.4870532044653473 S
atom 2.5672726819789968 5.0600193557002680 22.4870532044653473 S
atom 7.6024500349266715 5.1097033612054235 21.9789261526708728 S
atom 0.0248420027525811 2.5175886764738440 21.9789261526708728 S
atom 5.0600193557002546 2.5672726819790022 22.4870532044653473 S
atom 0.0745260082577423 7.5527660294215355 22.4870532044653473 S
atom 5.1097033612054101 7.6024500349266928 21.9789261526708728 S
atom 2.4424616999886077 2.4424616999886104 27.9245116073484567 Ba
atom 7.6775770114119037 2.6920836639693997 27.9245116073484567 Ba
atom 2.6920836639693917 7.6775770114119233 27.9245116073484567 Ba
atom 7.5273230584414392 7.5273230584414605 27.9245116073484567 Ba
atom 2.5354906187453476 2.5354906187453508 32.5987515773391863 Ba
atom 7.5845480926551643 2.5990547452126549 32.5987515773391863 Ba
atom 2.5990547452126513 7.5845480926551758 32.5987515773391863 Ba
atom 7.6203519771981867 7.6203519771982053 32.5987515773391863 Ba
atom 5.0718901691106133 5.0718901691106257 29.9895283737626954 Zr
atom 10.1330099007427421 5.1475165533002389 29.9895283737626954 Zr
atom 5.1475165533002309 10.1330099007427492 29.9895283737626954 Zr
atom 10.1567515275634559 10.1567515275634737 29.9895283737626954 Zr
atom 5.0871035522766768 5.0871035522767034 35.0154793518220444 Zr
atom 10.1177965175766591 5.1323031701341630 35.0154793518220444 Zr
atom 5.1323031701341568 10.1177965175766786 35.0154793518220444 Zr
atom 10.1719649107295194 10.1719649107295318 35.0154793518220444 Zr
atom 5.2738150123169536 5.2738150123169607 27.5057178869184433 S
atom 9.9310850575363681 4.9455917100938933 27.5057178869184433 S
atom 4.9455917100938835 9.9310850575364071 27.5057178869184433 S
atom 10.3586763707698175 10.3586763707698193 27.5057178869184433 S
atom 4.7761433829389386 4.7761433829389519 32.5378903678884228 S
atom 10.4287566869144008 5.4432633394719074 32.5378903678884228 S
atom 5.4432633394718852 10.4287566869144168 32.5378903678884228 S
atom 9.8610047413917847 9.8610047413918114 32.5378903678884228 S
atom 5.0600193557002546 2.5672726819790022 29.8369386999979724 S
atom 10.0951967086479382 2.6169566874841657 30.3450657517923936 S
atom 5.1097033612054101 7.6024500349266919 30.3450657517923936 S
atom 10.1448807141530839 7.6521340404318527 29.8369386999979724 S
atom 5.0600193557002546 2.5672726819790022 35.3660349743101321 S
atom 10.0951967086479382 2.6169566874841657 34.6790400821851037 S
atom 5.1097033612054101 7.6024500349266919 34.6790400821851037 S
atom 10.1448807141530839 7.6521340404318527 35.3660349743101321 S
atom 2.5672726819789968 5.0600193557002688 29.8369386999979724 S
atom 7.6024500349266715 5.1097033612054235 30.3450657517923936 S
atom 2.6169566874841603 10.0951967086479488 30.3450657517923936 S
atom 7.6521340404318403 10.1448807141531123 29.8369386999979724 S
atom 2.5672726819789968 5.0600193557002688 35.3660349743101321 S
atom 7.6024500349266715 5.1097033612054235 34.6790400821851037 S
atom 2.6169566874841603 10.0951967086479488 34.6790400821851037 S
atom 7.6521340404318403 10.1448807141531123 35.3660349743101321 S
atom 2.5758526382223446 2.5758526382223490 37.5075355997376434 Ba
atom 7.5441860731781647 2.5586927257356620 37.5075355997376434 Ba
atom 2.5586927257356540 7.5441860731781789 37.5075355997376434 Ba
atom 7.6607139966751863 7.6607139966752005 37.5075355997376434 Ba
atom 2.5090087202304963 2.5090087202305003 42.4593199523666485 Ba
atom 7.6110299911700245 2.6255366437275134 42.4593199523666485 Ba
atom 2.6255366437275041 7.6110299911700450 42.4593199523666485 Ba
atom 7.5938700786833202 7.5938700786833371 42.4593199523666485 Ba
atom 5.0848613584528390 5.0848613584528497 39.9834277760521104 Zr
atom 10.1200387114005093 5.1345453639580043 39.9834277760521104 Zr
atom 5.1345453639579937 10.1200387114005377 39.9834277760521104 Zr
atom 10.1697227169056781 10.1697227169056994 39.9834277760521104 Zr
atom 5.0826191646289915 5.0826191646290049 44.9513762002821977 Zr
atom 10.1222809052243612 5.1367875577818580 44.9513762002821977 Zr
atom 5.1367875577818412 10.1222809052243861 44.9513762002821977 Zr
atom 10.1674805230818244 10.1674805230818528 44.9513762002821977 Zr
atom 5.4345522246981925 5.4345522246982023 37.5036858132031554 S
atom 9.7703478451551629 4.7848544977126490 37.5036858132031554 S
atom 4.7848544977126393 9.7703478451551664 37.5036858132031554 S
atom 10.5194135831510405 10.5194135831510547 37.5036858132031554 S
atom 4.7351704922074767 4.7351704922074926 42.4631697389010725 S
atom 10.4697295776458663 5.4842362302033676 42.4631697389010725 S
atom 5.4842362302033516 10.4697295776458894 42.4631697389010725 S
atom 9.8200318506602979 9.8200318506603299 42.4631697389010725 S
atom 5.0600193557002546 2.5672726819790022 39.6215970989211641 S
atom 10.0951967086479382 2.6169566874841657 40.3452584531831064 S
atom 5.1097033612054101 7.6024500349266919 40.3452584531831064 S
atom 10.1448807141530839 7.6521340404318527 39.6215970989211641 S
atom 5.0600193557002546 2.5672726819790022 45.2878154699191811 S
atom 10.0951967086479382 2.6169566874841657 44.6008205777941100 S
atom 5.1097033612054101 7.6024500349266919 44.6008205777941100 S
atom 10.1448807141530839 7.6521340404318527 45.2878154699191811 S
atom 2.5672726819789968 5.0600193557002688 39.6215970989211641 S
atom 7.6024500349266715 5.1097033612054235 40.3452584531831064 S
atom 2.6169566874841603 10.0951967086479488 40.3452584531831064 S
atom 7.6521340404318403 10.1448807141531123 39.6215970989211641 S
atom 2.5672726819789968 5.0600193557002688 45.2878154699191811 S
atom 7.6024500349266715 5.1097033612054235 44.6008205777941100 S
atom 2.6169566874841603 10.0951967086479488 44.6008205777941100 S
atom 7.6521340404318403 10.1448807141531123 45.2878154699191811 S
atom 2.5493707397074892 2.5493707397074954 47.3681039747651482 Ba
atom 7.5706679716930223 2.5851746242505151 47.3681039747651482 Ba
atom 2.5851746242505134 7.5706679716930436 47.3681039747651482 Ba
atom 7.6342320981603313 7.6342320981603358 47.3681039747651482 Ba
atom 2.6423996584642349 2.6423996584642357 52.0423439447557783 Ba
atom 7.4776390529362757 2.4921457054937721 52.0423439447557783 Ba
atom 2.4921457054937659 7.4776390529363033 52.0423439447557783 Ba
atom 7.7272610169170655 7.7272610169170841 52.0423439447557783 Ba
atom 5.0978325477950603 5.0978325477950728 49.9773271783415822 Zr
atom 10.1070675220583119 5.1215741746157795 49.9773271783415822 Zr
atom 5.1215741746157759 10.1070675220583031 49.9773271783415822 Zr
atom 10.1826939062478932 10.1826939062479234 49.9773271783415822 Zr
atom 5.3935793339667368 5.3935793339667448 47.4289651842158690 S
atom 9.8113207358866266 4.8258273884441101 47.4289651842158690 S
atom 4.8258273884441039 9.8113207358866514 47.4289651842158690 S
atom 10.4784406924195643 10.4784406924195821 47.4289651842158690 S
atom 4.8959077045887227 4.8959077045887325 52.4611376651858521 S
atom 10.3089923652646416 5.3234990178221251 52.4611376651858521 S
atom 5.3234990178221153 10.3089923652646700 52.4611376651858521 S
atom 9.9807690630415458 9.9807690630415724 52.4611376651858521 S
atom 5.0600193557002546 2.5672726819790022 49.6217898003118805 S
atom 10.0951967086479382 2.6169566874841657 50.1299168521063123 S
atom 5.1097033612054101 7.6024500349266919 50.1299168521063123 S
atom 10.1448807141530839 7.6521340404318527 49.6217898003118805 S
atom 2.5672726819789968 5.0600193557002688 49.6217898003118805 S
atom 7.6024500349266715 5.1097033612054235 50.1299168521063123 S
atom 2.6169566874841603 10.0951967086479488 50.1299168521063123 S
atom 7.6521340404318403 10.1448807141531123 49.6217898003118805 S
