#=======================================================
# FHI-aims file: sym_relax/sym_relax_RP_10_RxRyRz_-RxRy0.in
# Created using the Atomic Simulation Environment (ASE)
# Mon Mar 17 18:50:40 2025
#=======================================================
lattice_vector 9.9711718684336219 -0.0329811537398493 -0.0066901042195179 
lattice_vector -0.0329811537398497 9.9711718684336219 0.0066901042195178 
lattice_vector -0.0690402664252648 0.0690402664252628 106.8156027647755906 
atom 0.0059169605229917 -0.0895181158745726 0.1011017963044545 Ba
atom 5.0751040500913938 -0.0224075373929169 0.0977567441946955 Ba
atom 0.0730275390046476 4.9796689736938351 0.1044468484142132 Ba
atom 4.9750123178698908 4.8795772414723224 0.1011017963044545 Ba
atom -0.3054106019951993 0.2307905011848286 4.9180840482699049 Ba
atom 4.7547954330320019 0.2889200251252747 4.9147389961601506 Ba
atom -0.2472810780547531 5.2909965362120142 4.9214291003796591 Ba
atom 4.6636847553517056 5.1998858585317187 4.9180840482699049 Ba
atom 2.4171863199195958 2.5460986526920486 2.2979207925999239 Zr
atom 7.4085826388716880 2.5354184605573824 2.2945757404901634 Zr
atom 2.4065061277849091 7.5374949716441053 2.3012658447096901 Zr
atom 7.3862816772665107 7.5151940100389396 2.2979207925999239 Zr
atom 2.3760475867096607 2.5561672596640839 7.3860467202981859 Zr
atom 7.3985140318996434 2.5765571937673069 7.3827016681884263 Zr
atom 2.3964375208128907 7.5786337048540497 7.3893917724079454 Zr
atom 7.3451429440565796 7.5252626170109629 7.3860467202981859 Zr
atom 2.5304794485696425 2.7359180711496283 -0.2143200072925847 S
atom 7.2187632204140773 2.4221253319073321 -0.2176650594023440 S
atom 2.2166867093273535 7.4242018429940630 -0.2109749551828257 S
atom 7.4995748059165308 7.7050134284965273 -0.2143200072925847 S
atom 2.2108010368433217 2.3247665128279560 4.8780554913736225 S
atom 7.6299147787357597 2.7418037436336480 4.8747104392638700 S
atom 2.6278382676490102 7.7438802547203824 4.8814005434833927 S
atom 7.1798963941902194 7.2938618701748581 4.8780554913736243 S
atom 2.7348163641469556 0.0654000375197271 2.1817672226262053 S
atom 7.0739781837364193 0.0509492384193861 2.6150094916776947 S
atom 2.0719016726496835 5.0530257495061326 2.6216995958972187 S
atom 7.7039117214938466 5.0344953948666049 2.1817672226262061 S
atom 2.9033433084593048 0.0688863257187645 7.6021369495920865 S
atom 6.9590476687928859 0.0527838080244091 7.2132915537779949 S
atom 1.9569711577061393 5.0548603191111612 7.2199816579975211 S
atom 7.8724386658061904 5.0379816830656612 7.6021369495920839 S
atom -0.0818906143896520 2.2507695700698762 2.1851122747359630 S
atom 4.9016555420575800 2.8807031078273044 2.6183545437874560 S
atom -0.1004209690291619 7.8827796189140544 2.6250446480069729 S
atom 4.8872047429572456 7.2198649274167721 2.1851122747359617 S
atom -0.0853769025886897 2.0822426257575284 7.6054820017018550 S
atom 4.8998209724525692 2.9956336227708285 7.2166366058877554 S
atom -0.1022555386341844 7.9977101338575869 7.2233267101072718 S
atom 4.8837184547582222 7.0513379831044150 7.6054820017018567 S
atom -0.0170441426279528 -0.0548644409451368 9.9428834803708845 Ba
atom 5.0404503751619565 0.0005535657580276 9.9395384282611356 Ba
atom 0.0383738640752118 5.0026300768447634 9.9462285324806601 Ba
atom 4.9520512147189342 4.9142309164017650 9.9428834803708863 Ba
atom 0.0342195403419399 0.0251691223698351 15.0189154244757805 Ba
atom 4.9604168118469927 -0.0507101172118650 15.0155703723660174 Ba
atom -0.0416596992397600 4.9513663938748769 15.0222604765855525 Ba
atom 5.0033148976888588 4.9942644797167128 15.0189154244757823 Ba
atom 2.4711125298585466 2.5100748888735915 12.4666755850549276 Zr
atom 7.4446064026901198 2.4814922506184209 12.4633305329451662 Zr
atom 2.4425298916033795 7.4835687617051718 12.4700206371646747 Zr
atom 7.4402078872054496 7.4791702462204777 12.4666755850549276 Zr
atom 2.4671198016218483 2.5018875565802312 17.5563862923684368 Zr
atom 7.4527937349834845 2.4854849788551201 17.5530412402586933 Zr
atom 2.4507172238967394 7.4875614899418634 17.5597313444782017 Zr
atom 7.4362151589687526 7.4709829139271173 17.5563862923684404 Zr
atom 2.5438166603003651 2.6900279562992373 9.9382887855333948 S
atom 7.2646533352644722 2.4087881201766188 9.9349437334236157 S
atom 2.2625768241777315 7.4108646312633608 9.9416338376431330 S
atom 7.5129120176472490 7.6591233136461438 9.9382887855333983 S
atom 2.3918241698629026 2.4744879153304349 15.0188986028100171 S
atom 7.4801933762332764 2.5607806106140751 15.0155535507002540 S
atom 2.4781168651465322 7.5628571217008140 15.0222436549197695 S
atom 7.3609195272097834 7.4435832726773512 15.0188986028100171 S
atom 1.9839390666689880 0.0203910994715914 12.4146016775240149 S
atom 7.9735487012201531 0.0055319588090254 12.5446801907430885 S
atom 2.9714721901334107 5.0076084698957795 12.5513702949626023 S
atom 6.9530344240159145 4.9894864568184909 12.4146016775240220 S
atom 2.9854848638307767 0.0151100654103216 17.5875582503457792 S
atom 6.9474451673800424 -0.0020544004428894 17.5335030364724815 S
atom 1.9453686562932817 5.0000221106438518 17.5401931406919545 S
atom 7.9545802211776913 4.9842054227572161 17.5875582503457792 S
atom -0.0368816763415162 3.0016468675478190 12.4179467296337709 S
atom 4.9470728216679358 1.9811325903435548 12.5480252428528640 S
atom -0.0550036894188011 6.9832091014302922 12.5547153470723636 S
atom 4.9322136810053818 7.9707422248947211 12.4179467296337709 S
atom -0.0316006422802467 2.0001010703860480 17.5909033024555086 S
atom 4.9546591809198626 3.0072361241836836 17.5368480885821860 S
atom -0.0474173301668858 8.0093126352704314 17.5435381928017406 S
atom 4.9374947150666557 6.9691964277329079 17.5909033024555015 S
atom -0.0261382299938974 0.0010117098154893 20.1050558003584321 Ba
atom 4.9845742244013254 0.0096476531239722 20.1017107482486956 Ba
atom -0.0175022866854141 5.0117241642107242 20.1084008524681899 Ba
atom 4.9429571273529689 4.9701070671623828 20.1050558003584285 Ba
atom -0.0067496437814084 0.0258165196267348 25.1923591426357909 Ba
atom 4.9597694145900819 -0.0097409330885167 25.1890140905260260 Ba
atom -0.0423070964966597 4.9923355779982179 25.1957041947455700 Ba
atom 4.9623457135655000 4.9949118769736280 25.1923591426357909 Ba
atom 2.4671801680435261 2.5020912985662203 22.6470634429948348 Zr
atom 7.4525899929974964 2.4854246124334396 22.6437183908850805 Zr
atom 2.4505134819107530 7.4875011235201869 22.6504084951046281 Zr
atom 7.4362755253904353 7.4711866559131286 22.6470634429948419 Zr
atom 2.4695251351580740 2.4997463314516732 27.7376548422767257 Zr
atom 7.4549349601120509 2.4830796453188939 27.7343097901670319 Zr
atom 2.4528584490253000 7.4851561564056386 27.7409998943865084 Zr
atom 7.4386204925049819 7.4688416887985696 27.7376548422767186 Zr
atom 2.4837375053455704 2.5343649940396746 20.1051434523643309 S
atom 7.4203162975240593 2.4688672751314016 20.1017984002545838 S
atom 2.4182397864372951 7.4709437862181280 20.1084885044741064 S
atom 7.4528328626924569 7.5034603513865665 20.1051434523643273 S
atom 2.4493760208851612 2.4819421842933003 25.1923591426357909 S
atom 7.4727391072704403 2.5032287595918139 25.1890140905260260 S
atom 2.4706625961836739 7.5053052706785506 25.1957041947455700 S
atom 7.4184713782320779 7.4510375416401873 25.1923591426357909 S
atom 1.9626468864893407 0.0100656624521454 22.6321426296566912 S
atom 7.9732881224551813 -0.0058755382349152 22.6599353841081772 S
atom 2.9712116113684512 4.9962009728518124 22.6666254883276892 S
atom 6.9317422438362346 4.9791610197990401 22.6321426296566912 S
atom 2.9903728843193416 0.0060099240860727 27.7492306035051541 S
atom 6.9509035167871209 -0.0110300289667167 27.7147477448340993 S
atom 1.9488270057003800 4.9910464821200646 27.7214378490536575 S
atom 7.9594682416662383 4.9751052814329775 27.7492306035051755 S
atom -0.0265562393220704 3.0229390477274807 22.6354876817663850 S
atom 4.9584803187119189 1.9813931691085191 22.6632804362179598 S
atom -0.0435961923748606 6.9834696801952578 22.6699705404374825 S
atom 4.9425391180248290 7.9920344050743743 22.6354876817664099 S
atom -0.0225005009559979 1.9952130498974843 27.7525756556149794 S
atom 4.9636348094436746 3.0037777747765841 27.7180927969438713 S
atom -0.0384417016430586 8.0058542858633182 27.7247829011634259 S
atom 4.9465948563908988 6.9643084072443830 27.7525756556149652 S
atom -0.0315544535926541 0.0064279334142460 30.2796624849131781 Ba
atom 4.9791580008025766 0.0150638767227288 30.2763174328033671 Ba
atom -0.0229185102841708 5.0171403878094765 30.2830075370229252 Ba
atom 4.9375409037542264 4.9755232907611484 30.2796624849131781 Ba
atom -0.0073970410383084 0.0667857037500831 35.3658028607959025 Ba
atom 4.9188002304667338 -0.0090935358316168 35.3624578086861518 Ba
atom -0.0832762806200081 4.9929829752551251 35.3691479129057029 Ba
atom 4.9616983163085902 5.0358810610969833 35.3658028607959025 Ba
atom 2.4693213931720930 2.4996859650299874 32.8283319929031450 Zr
atom 7.4549953265337390 2.4832833873048812 32.8249869407933588 Zr
atom 2.4529188154469783 7.4853598983916392 32.8316770450128814 Zr
atom 7.4384167505190097 7.4687813223768735 32.8283319929031379 Zr
atom 2.4775087254654418 2.5036786932666897 37.9180427002167306 Zr
atom 7.4510025982970411 2.4750960550115209 37.9146976481068378 Zr
atom 2.4489260872102818 7.4771725660982726 37.9213877523264031 Zr
atom 7.4466040828123514 7.4727740506135856 37.9180427002167306 Zr
atom 2.5017988306315342 2.5163036687537157 30.2795748329072545 S
atom 7.4383776228100134 2.4508059498454440 30.2762297807975180 S
atom 2.4363011117232567 7.4528824609321953 30.2829198850169767 S
atom 7.4708941879784376 7.4853990261006089 30.2795748329072474 S
atom 2.4419217519222998 2.4243903332710368 35.3658196824616482 S
atom 7.5302909582926780 2.5106830285546713 35.3624746303518194 S
atom 2.5282144472059387 7.5127595396414115 35.3691647345714060 S
atom 7.4110171092692019 7.3934856906179318 35.3658196824616553 S
atom 1.9675349069779058 0.0009655211278966 32.7938149828162366 S
atom 7.9767464718623051 -0.0148511667587427 32.8411800924700117 S
atom 2.9746699607755485 4.9872253443279968 32.8478701966894135 S
atom 6.9366302643248057 4.9700608784747899 32.7938149828162366 S
atom 2.9690807041396892 -0.0043155129333732 37.9667715556378482 S
atom 6.9506429380221659 -0.0224375260106575 37.8300029381992431 S
atom 1.9485664269354193 4.9796389850760718 37.8366930424187657 S
atom 7.9381760614865646 4.9647798444135232 37.9667715556378482 S
atom -0.0174560979978216 3.0180510272389185 32.7971600349259020 S
atom 4.9674559472357203 1.9779348197014193 32.8445251445797126 S
atom -0.0346205638510333 6.9800113307881713 32.8512152487991784 S
atom 4.9516392593490952 7.9871463845858051 32.7971600349259020 S
atom -0.0121750639365521 2.0165052300771409 37.9701166077475918 S
atom 4.9750423064876470 3.0040383535415591 37.8333479903089298 S
atom -0.0270342045991179 8.0061148646282998 37.8400380945285448 S
atom 4.9569202934103522 6.9856005874240381 37.9701166077476060 S
atom -0.0874306043532799 0.0155220207801906 40.4418348049007363 Ba
atom 4.9700639134366158 0.0709400274833549 40.4384897527909430 Ba
atom -0.0320125976501157 5.0730165385700987 40.4451798570104657 Ba
atom 4.8816647529935979 4.9846173781270950 40.4418348049007292 Ba
atom 0.1982243377766845 -0.2728444385870571 45.4666342370015570 Ba
atom 5.2584303728038888 -0.2147149146466104 45.4632891848918348 Ba
atom 0.2563538617171311 4.7873615964401433 45.4699792891113361 Ba
atom 5.1673196951235649 4.6962509187598425 45.4666342370015570 Ba
atom 2.5236010962559505 2.4086137501177993 42.9986715649734208 Zr
atom 7.5460675414459191 2.4290036842210236 42.9953265128635636 Zr
atom 2.5439910303591668 7.4310801953077750 43.0020166170832212 Zr
atom 7.4926964536028224 7.3777091074647068 42.9986715649734208 Zr
atom 2.5135324892839122 2.4497524833277371 48.0867974926716499 Zr
atom 7.5049288082359702 2.4390722911930633 48.0834524405619277 Zr
atom 2.5028522971492437 7.4411488022798018 48.0901425447814432 Zr
atom 7.4826278466308045 7.4188478406746441 48.0867974926716499 Zr
atom 2.6574617928911022 2.5763828237084963 40.4464294997382083 S
atom 7.3782984678552177 2.2951429875858689 40.4430844476285216 S
atom 2.3762219567684686 7.2972194986726073 40.4497745518480301 S
atom 7.6265571502380309 7.5454781810553815 40.4464294997382083 S
atom 2.2922003494198124 2.2433672002514666 45.5066627938978883 S
atom 7.7113140913122313 2.6604044310571497 45.5033177417881447 S
atom 2.7092375802255089 7.6624809421439108 45.5100078460077100 S
atom 7.2612957067667061 7.2124625575983714 45.5066627938978883 S
atom 2.0496764623493693 -0.0528107391805462 42.7792362835698512 S
atom 7.9651439704494580 -0.0696893752260414 43.1613915751643020 S
atom 2.9630674593626884 4.9323871358607150 43.1680816793838247 S
atom 7.0187718196962772 4.9162846181663555 42.7792362835698512 S
atom 2.2182034066617304 -0.0493244509815087 48.1996060105356605 S
atom 7.8502134555059042 -0.0678548056210180 47.7596736372647470 S
atom 2.8481369444191431 4.9342217054657214 47.7663637414842555 S
atom 7.1872987640086441 4.9197709063653816 48.1996060105356534 S
atom 0.0363201623106214 2.9359094718674434 42.7825813356796019 S
atom 5.0222941557029959 1.9895373211142733 43.1647366272741309 S
atom 0.0202176446162652 6.9916138322010219 43.1714267314935896 S
atom 5.0054155196575136 7.9050048292143336 42.7825813356796019 S
atom 0.0328338741115836 2.7673825275550841 48.2029510626453188 S
atom 5.0204595860979904 2.1044678360578102 47.7630186893745048 S
atom 0.0183830750112423 7.1065443471445473 47.7697087935939777 S
atom 5.0019292314584805 7.7364778849019764 48.2029510626453188 S
atom -0.1220842792827160 0.0384831239311351 50.2836164889672048 Ba
atom 4.9471028102856884 0.1055937024127908 50.2802714368574470 Ba
atom -0.0549737008010601 5.1076702134995360 50.2869615410768986 Ba
atom 4.8470110780641829 5.0075784812780268 50.2836164889672048 Ba
atom 2.7033519077414780 2.5630456119777740 50.5990382925642450 S
atom 7.3916356795859235 2.2492528727354877 50.5956932404544588 S
atom 2.3895591684991908 7.2513293838222310 50.6023833446740881 S
atom 7.6724472650883788 7.5321409693246615 50.5990382925642450 S
atom 2.6304142966309936 2.4219771763455578 53.7206628265539763 Ba
atom 7.5327041152181700 2.3221904838459806 53.7173177744441617 Ba
atom 2.5306276041314009 7.3242669949327217 53.7240078786636346 Ba
atom 7.5995096539778970 7.3910725336924434 53.7206628265539763 Ba
atom 2.2794057330926170 2.7598571606960003 58.5309004661467966 Ba
atom 7.1948241308677128 2.6731990473843528 58.5275554140371028 Ba
atom 2.1927476197809774 7.6752755584711112 58.5342455182566042 Ba
atom 7.2485010904395200 7.7289525180428926 58.5309004661467966 Ba
atom 4.9534703541486680 4.9915888941299675 55.9191282203880817 Zr
atom 9.9321877547806690 4.9682297836751976 55.9157831682782671 Zr
atom 4.9301112436939221 9.9703062947619703 55.9224732724977969 Zr
atom 9.9225657114955634 9.9606842514768399 55.9191282203880888 Zr
atom 4.9436191463790111 4.9990395536835956 60.9883956699737553 Zr
atom 9.9247370952270124 4.9780809914448545 60.9850506178640259 Zr
atom 4.9226605841402868 9.9801575025315916 60.9917407220835273 Zr
atom 9.9127145037259208 9.9681349110304911 60.9883956699737553 Zr
atom 4.7455750293252263 4.8615585439021860 53.4063027970338808 S
atom 10.0622181050084212 5.1761251084986268 53.4029577449240875 S
atom 5.0601415939216832 10.1782016195853497 53.4096478491435391 S
atom 9.7146703866721644 9.8306539012490575 53.4063027970338808 S
atom 5.2303452656715264 5.2384060628768196 58.4888015194999724 S
atom 9.6853705860338106 4.6913548721523295 58.4854564673902217 S
atom 4.6832940749470797 9.6934313832390782 58.4921465716097231 S
atom 10.1994406230184413 10.2075014202236947 58.4888015194999724 S
atom 4.6142799955816729 2.5083083122323711 56.2674266451218870 S
atom 10.2443477942009924 2.4887392125563434 55.7649996452975643 S
atom 5.2422712831142242 7.4908157236430881 55.7716897495170372 S
atom 9.5833753529285790 7.4774036695792665 56.2674266451218799 S
atom 4.5567145674570231 2.5014893787502221 60.7085289225803564 S
atom 10.3484362122528655 2.4808940802654864 61.3064411392682587 S
atom 5.3463597011661168 7.4829705913522160 61.3131312434877103 S
atom 9.5258099248039336 7.4705847360971083 60.7085289225803422 S
atom 2.4442964682446053 5.3404012959820699 56.2707716972316305 S
atom 7.4329609252675253 4.6794288547096512 55.7683446974073789 S
atom 2.4308844141807775 9.6815053657963706 55.7750348016268163 S
atom 7.4133918255914875 10.3094966533289529 56.2707716972316163 S
atom 2.4511154017267400 5.3979667241066958 60.7118739746901426 S
atom 7.4408060575583921 4.5753404366577550 61.3097861913780235 S
atom 2.4387295464716359 9.5774169477444993 61.3164762955976173 S
atom 7.4202107590736412 10.3670620814535628 60.7118739746901568 S
atom 2.6446704347048451 2.2341064773647004 63.5238773723939758 Ba
atom 7.7205748141990131 2.3079343457721122 63.5205323202842109 Ba
atom 2.7184983031122676 7.3100108568588578 63.5272224245036483 Ba
atom 7.6137657920517503 7.2032018347116020 63.5238773723939687 Ba
atom 2.2912528090602420 2.7709471477974108 68.5440038231125612 Ba
atom 7.1837341437663280 2.6613519714167415 68.5406587710027537 Ba
atom 2.1816576326795687 7.6634284825034813 68.5473488752220277 Ba
atom 7.2603481664071223 7.7400425051443014 68.5440038231125328 Ba
atom 4.9536117125330925 4.9812328320948129 66.0185348394099805 Zr
atom 9.9425438168158404 4.9680884252907775 66.0151897873002582 Zr
atom 4.9404673057290482 9.9701649363774880 66.0218798915198306 Zr
atom 9.9227070698799693 9.9503281894417110 66.0185348394099947 Zr
atom 4.9556258293708817 4.9877156225854842 71.0467978712967891 Zr
atom 9.9360610263251452 4.9660743084529733 71.0434528191869106 Zr
atom 4.9339845152383726 9.9681508195397068 71.0501429234066109 Zr
atom 9.9247211867177967 9.9568109799323743 71.0467978712967891 Zr
atom 4.6365074226917011 4.7264373003097795 63.5153581352283751 S
atom 10.1973393486008437 5.2851927151321600 63.5120130831185463 S
atom 5.1952628375140755 10.2872692262188803 63.5187031873380121 S
atom 9.6056027800386428 9.6955326576566776 63.5153581352283680 S
atom 5.2686564339985784 5.2482405979867517 68.5385798525292955 S
atom 9.6755360509238333 4.6530437038253067 68.5352348004194738 S
atom 4.6734595398371273 9.6551202149120137 68.5419249046390462 S
atom 10.2377517913454934 10.2173359553336507 68.5385798525292955 S
atom 4.5635125133863657 2.4935759591861912 66.3425971063416000 S
atom 10.3430701191495960 2.4741362951354242 65.7173980295414282 S
atom 5.3409936080628579 7.4762128062221755 65.7240881337609721 S
atom 9.5326078707332158 7.4626713165330818 66.3425971063415574 S
atom 4.5630920860572566 2.4927822474573524 70.7472849126620247 S
atom 10.3530345836761448 2.4726750186160449 71.3547257087103333 S
atom 5.3509580725893953 7.4747515297027878 71.3614158129297493 S
atom 9.5321874434041689 7.4618776048042399 70.7472849126620105 S
atom 2.4590288212907718 5.3911687781773621 66.3459421584513365 S
atom 7.4475638426884245 4.5807065297609908 65.7207430816510367 S
atom 2.4454873316016963 9.5827830408477563 65.7274331858705381 S
atom 7.4281241786376873 10.3602641355242415 66.3459421584512938 S
atom 2.4598225330196097 5.3915892055064738 70.7506299647717469 S
atom 7.4490251192078194 4.5707420652344739 71.3580707608200981 S
atom 2.4469486081210818 9.5728185763211950 71.3647608650396279 S
atom 7.4289178903665185 10.3606845628533666 70.7506299647717469 S
atom 2.6500595141096488 2.2328830523558811 73.5715406016327478 Ba
atom 7.7217982392078488 2.3025452663673183 73.5681955495229971 Ba
atom 2.7197217281210939 7.3046217774540629 73.5748856537426974 Ba
atom 7.6191548714565558 7.2019784097027655 73.5715406016327620 Ba
atom 2.4245588408677268 2.5261652707011333 78.6001605250237390 Ba
atom 7.4285160208625962 2.5280459396092372 78.5968154729139457 Ba
atom 2.4264395097758391 7.5301224506959885 78.6035055771333901 Ba
atom 7.3936541982146213 7.4952606280480198 78.6001605250237390 Ba
atom 4.9756850152931600 4.9469976391562280 76.0791843434247852 Zr
atom 9.9767790097543809 4.9460151225306905 76.0758392913149777 Zr
atom 4.9747024986676562 9.9480916336174605 76.0825293955347064 Zr
atom 9.9447803726400270 9.9160929965031688 76.0791843434247994 Zr
atom 4.8453912093228260 5.0772914451265692 81.1211367066224511 Zr
atom 9.8464852037840522 5.0763089285010450 81.1177916545129278 Zr
atom 4.8444086926972876 10.0783854395877555 81.1244817587324292 Zr
atom 9.8144865666697410 10.0463868024734779 81.1211367066224511 Zr
atom 4.6600287328438839 4.7340265483241026 73.5633145934904604 S
atom 10.1897501005865276 5.2616714049800022 73.5599695413806671 S
atom 5.1876735894997585 10.2637479160667127 73.5666596456002964 S
atom 9.6291240901907802 9.7031219056710167 73.5633145934904746 S
atom 5.1530548366313749 5.2546612664647476 78.6001605250237390 S
atom 9.6691153824458986 4.7686453011925085 78.5968154729139457 S
atom 4.6670388713591029 9.7707218122792820 78.6035055771333901 S
atom 10.1221501939782552 10.2237566238116191 78.6001605250237390 S
atom 4.5926693040412339 2.4777971187556465 76.3346019030624205 S
atom 10.3687733631079819 2.4588321849591162 75.8142495448913962 S
atom 5.3666968520212128 7.4609086960458706 75.8209396491108549 S
atom 9.5617646613881462 7.4468924761025352 76.3346019030624205 S
atom 5.2604055576890838 2.5764140915547245 80.8623740948751646 S
atom 9.4554733670560154 2.5623978716114091 81.3760363488267160 S
atom 4.4533968559692330 7.5644743826981546 81.3827264530463026 S
atom 10.2295009150359419 7.5455094489016137 80.8623740948751646 S
atom 2.4748076617213259 5.3620119875224779 76.3379469551722849 S
atom 7.4628679528647428 4.5550032858026501 75.8175945970012606 S
atom 2.4607914417780026 9.5570797968893633 75.8242847012205630 S
atom 7.4439030190682276 10.3311073448693858 76.3379469551722849 S
atom 2.3761906889222395 4.6942757338746475 80.8657191469849153 S
atom 7.3593022662124596 5.4683032818546309 81.3793814009365377 S
atom 2.3572257551257194 10.4703797929414115 81.3860715051560391 S
atom 7.3452860462691216 9.6633710912215260 80.8657191469849153 S
atom 2.1312766225224720 2.7516659439430544 83.6287804484147443 Ba
atom 7.2030153476206538 2.8213281579545066 83.6254353963050221 Ba
atom 2.2009388365339135 7.8234046690412393 83.6321255005244666 Ba
atom 7.1003719798693767 7.7207613012899570 83.6287804484147728 Ba
atom 2.6693407179640007 2.3928592388936409 88.6563172269350730 Ba
atom 7.5618220526701014 2.2832640625129668 88.6529721748250807 Ba
atom 2.5597455415833297 7.2853405735997114 88.6596622790446673 Ba
atom 7.6384360753108904 7.3619545962405235 88.6563172269350730 Ba
atom 4.8861091927520812 5.0572322592043060 86.1535231787506319 Zr
atom 9.8665443897063110 5.0355909450717853 86.1501781266408244 Zr
atom 4.8644678786195765 10.0376674561585162 86.1568682308604963 Zr
atom 9.8552045500989855 10.0263276165511890 86.1535231787506035 Zr
atom 4.8796264022614055 5.0552181423665044 91.1817862106373127 Zr
atom 9.8685585065440673 5.0420737355624627 91.1784411585275336 Zr
atom 4.8664819954573755 10.0441502466492203 91.1851312627470776 Zr
atom 9.8487217596082868 10.0243134997134238 91.1817862106373127 Zr
atom 4.6324201184907041 4.7616351626772735 83.6370064565569606 S
atom 10.1621414862333328 5.2892800193331739 83.6336614044472100 S
atom 5.1600649751465912 10.2913565304199039 83.6403515086667539 S
atom 9.6015154758375711 9.7307305200242080 83.6370064565569749 S
atom 5.1466341681533656 5.3702628638319823 88.6617411975181398 S
atom 9.5535137850786178 4.7750659696705240 88.6583961454082612 S
atom 4.5514372739918949 9.7771424807572416 88.6650862496279615 S
atom 10.1157295255002566 10.3393582211788697 88.6617411975181540 S
atom 5.2899827756730735 2.5614289628530211 86.4496910852756315 S
atom 9.4712121464878134 2.5485550379544897 85.8355601850079779 S
atom 4.4691356354010789 7.5506315490412188 85.8422502892274366 S
atom 10.2590781330199512 7.5305243201999037 86.4496910852756173 S
atom 5.2895623483439582 2.5606352511241872 90.8543788915961414 S
atom 9.4811766110143552 2.5470937614351050 91.4728878641768119 S
atom 4.4791000999275914 7.5491702725218310 91.4795779683965407 S
atom 10.2586577056908510 7.5297306084710778 90.8543788915961414 S
atom 2.3911758176239584 4.6646985158906462 86.4530361373853822 S
atom 7.3731450998693928 5.4525645024228062 85.8389052371176575 S
atom 2.3710685887826326 10.4546410135095549 85.8455953413371304 S
atom 7.3602711749708494 9.6337938732375452 86.4530361373853822 S
atom 2.3919695293527892 4.6651189432197508 90.8577239437060911 S
atom 7.3746063763888037 5.4426000378962751 91.4762329162864916 S
atom 2.3725298653020208 10.4446765489829865 91.4829230205062061 S
atom 7.3610648866996824 9.6342143005666472 90.8577239437060769 S
atom 2.1325000475312961 2.7462768645382587 93.6764436776533955 Ba
atom 7.2084044270254779 2.8201047329456750 93.6730986255436591 Ba
atom 2.2063279159387181 7.8221812440324188 93.6797887297630467 Ba
atom 7.1015954048781937 7.7153722218851550 93.6764436776533955 Ba
atom 2.6582507308625787 2.3810121629260306 98.6694205839006173 Ba
atom 7.5736691286376869 2.2943540496143831 98.6660755317906961 Ba
atom 2.5715926175509503 7.2964305607011148 98.6727656360104106 Ba
atom 7.6273460882094994 7.3501075202729025 98.6694205839005889 Ba
atom 4.8974331238501865 5.0452255762124043 96.2119253800736658 Zr
atom 9.8785510726981922 5.0242670139736791 96.2085803279639862 Zr
atom 4.8764745616114729 10.0263435250603941 96.2152704321834449 Zr
atom 9.8665284811971112 10.0143209335593024 96.2119253800736374 Zr
atom 4.8899824642965397 5.0550767839820869 101.2811928296594601 Zr
atom 9.8686998649285460 5.0317176735273064 101.2778477775498089 Zr
atom 4.8666233538417920 10.0337941846140648 101.2845378817692676 Zr
atom 9.8590778216434654 10.0241721413289504 101.2811928296594601 Zr
atom 4.6248308704763819 4.7381138525251041 93.6849629148191099 S
atom 10.1856627963855288 5.2968692673474882 93.6816178627092029 S
atom 5.1835862852987491 10.2989457784342253 93.6883079669289316 S
atom 9.5939262278232693 9.7072092098719924 93.6849629148191383 S
atom 5.1367996330434158 5.3319516955049266 98.7115195305473492 S
atom 9.5918249534056965 4.7849005047804534 98.7081744784375275 S
atom 4.5897484423189425 9.7869770158671887 98.7148645826569577 S
atom 10.1058949903903486 10.3010470528518194 98.7115195305473492 S
atom 5.2963602942732866 2.5527218315601536 96.4884470753572145 S
atom 9.4758105179111336 2.5403359763050402 95.8838447544500241 S
atom 4.4737340068243530 7.5424124873917933 95.8905348586694828 S
atom 10.2654556516201723 7.5218171889070522 96.4884470753572288 S
atom 5.2387948661486421 2.5459028980779932 100.9295493528158261 S
atom 9.5798989359630085 2.5324908440141778 101.4252862484205764 S
atom 4.5778224248762420 7.5345673551009247 101.4319763526402909 S
atom 10.2078902234955713 7.5149982554249126 100.9295493528158261 S
atom 2.3998829489168156 4.6583209972904269 96.4917921274668231 S
atom 7.3813641615188290 5.4479661309995127 95.8871898065596326 S
atom 2.3792876504320799 10.4500426420862826 95.8938799107791482 S
atom 7.3689783062637284 9.6274163546373437 96.4917921274668373 S
atom 2.4067018823989641 4.7158864254150670 100.9328944049257331 S
atom 7.3892092938096940 5.3438777129476316 101.4286313005302986 S
atom 2.3871327827229423 10.3459542240344042 101.4353214047497289 S
atom 7.3757972397458582 9.6849817827619589 100.9328944049257615 S
atom 2.3203707465121508 2.7320207264644090 103.4796582234935016 Ba
atom 7.2226605650993339 2.6322340339648123 103.4763131713838362 Ba
atom 2.2205840540125847 7.6343105450515685 103.4830032756032381 Ba
atom 7.2894661038590547 7.7011160838112955 103.4796582234935158 Ba
atom 4.7599521140687688 4.8471814591586515 103.7940182530136468 S
atom 10.0765951897519255 5.1617480237550932 103.7906732009037114 S
atom 5.0745186786652265 10.1638245348418490 103.7973633051232838 S
atom 9.7290474714156758 9.8162768165055585 103.7940182530136468 S
