#=======================================================
# FHI-aims file: sym_relax/sym_relax_RP_2_Rx0Mz_0RyMz.in
# Created using the Atomic Simulation Environment (ASE)
# Fri Mar 14 10:21:03 2025
#=======================================================
lattice_vector 10.0975472648832980 0.0000051473955380 0.0000000000000000 
lattice_vector 0.0000051473955380 10.0975472648833016 0.0000000000000000 
lattice_vector -0.0000000000000000 0.0000000000000000 25.4732648699591131 
atom -0.1651834349697106 -0.0000062611391610 0.2875295959759803 Ba
atom 5.2139756297249376 0.0000168977110499 0.2875112010349711 Ba
atom 0.1652045709810620 5.0487879564549152 0.2875112010349711 Ba
atom 4.8835927711697069 5.0487699450002559 0.2875295959759803 Ba
atom 0.0440492591383410 0.0000414572447497 4.8987047826844350 Ba
atom 5.0047344565485199 0.0000081621545066 4.8987047826844350 Ba
atom -0.0440366021953719 5.0487792208983873 4.8987047826844350 Ba
atom 5.0928254652777500 5.0488176633841624 4.8987047826844350 Ba
atom 2.5243937608959972 2.5043133510950222 2.3639453853967356 Zr
atom 7.5731691010400182 2.5444158562189609 2.3639624691737522 Zr
atom 2.5243980422961418 7.5931869149628337 2.3639624691737522 Zr
atom 7.5731699670354207 7.5530895572344363 2.3639453853967356 Zr
atom 2.5243937608959972 2.5043133510950222 7.4334641799721473 Zr
atom 7.5731691010400182 2.5444158562189609 7.4334470961951231 Zr
atom 2.5243980422961418 7.5931869149628337 7.4334470961951231 Zr
atom 7.5731699670354207 7.5530895572344363 7.4334641799721473 Zr
atom 2.5243774307567888 2.8072726983558760 -0.1225365645017627 S
atom 7.5731537406828018 2.2414540150231939 -0.1225197775377430 S
atom 2.5243826819389157 7.2902250737670746 -0.1225197775377430 S
atom 7.5731536368962020 7.8560489044952870 -0.1225365645017627 S
atom 2.5243837131686595 2.1093402167956925 4.8987047826844350 S
atom 7.5731506019762058 2.9394028582248368 4.8987047826844350 S
atom 2.5243795432323317 7.9881739169687078 4.8987047826844350 S
atom 7.5731599193080781 7.1581164229351160 4.8987047826844350 S
atom 2.5243948024404461 -0.0000014881057720 2.0833944685320427 S
atom 7.5731632206480395 0.0000063987282541 2.7784414258337558 S
atom 2.5243921619041694 5.0487774574721254 2.7784414258337558 S
atom 7.5731710085798598 5.0487747180336457 2.0833944685320427 S
atom 2.5243948024404461 -0.0000014881057720 7.7140150968368308 S
atom 7.5731632206480395 0.0000063987282541 7.0189681395351240 S
atom 2.5243921619041694 5.0487774574721254 7.0189681395351240 S
atom 7.5731710085798598 5.0487747180336457 7.7140150968368308 S
atom 0.0000061621104006 2.5244431053520184 2.4788056786493997 S
atom 5.0487743843423054 2.5244465401720761 2.4788217420810930 S
atom 0.0000033255984257 7.5732175989159476 2.4788217420810930 S
atom 5.0487823682498192 7.5732193114914326 2.4788056786493997 S
atom 0.0000061621104006 2.5244431053520184 7.3186038867194849 S
atom 5.0487743843423054 2.5244465401720761 7.3185878232877934 S
atom 0.0000033255984257 7.5732175989159476 7.3185878232877934 S
atom 5.0487823682498192 7.5732193114914326 7.3186038867194849 S
atom -0.1651834349697106 -0.0000062611391610 9.5098799693929053 Ba
atom 5.2139756297249376 0.0000168977110499 9.5098983643339068 Ba
atom 0.1652045709810620 5.0487879564549152 9.5098983643339068 Ba
atom 4.8835927711697069 5.0487699450002559 9.5098799693929053 Ba
atom 2.5243774307567888 2.8072726983558760 9.9199461298706595 S
atom 7.5731537406828018 2.2414540150231939 9.9199293429066220 S
atom 2.5243826819389157 7.2902250737670746 9.9199293429066220 S
atom 7.5731536368962020 7.8560489044952870 9.9199461298706595 S
atom 2.5243943642088684 2.6895715380394196 13.0241620309555159 Ba
atom 7.5731474114980761 2.3591886794841845 13.0241436360145268 Ba
atom 2.5243763527541963 7.4079597382280582 13.0241436360145268 Ba
atom 7.5731705703482861 7.7383477441788271 13.0241620309555159 Ba
atom 2.5243466458249579 2.4803388439313658 17.6353372176639986 Ba
atom 7.5731561470546103 2.5684298526606182 17.6353372176639986 Ba
atom 2.5243850883107362 7.6172009114044918 17.6353372176639986 Ba
atom 7.5731228519643752 7.5291150500707786 17.6353372176639986 Ba
atom 5.0688509581141021 5.0487705483131187 15.1005778203762819 Zr
atom 10.0775246591295673 5.0487714143085185 15.1005949041533079 Zr
atom 5.0287536003856932 10.0975424730523908 15.1005949041533079 Zr
atom 10.1176271642535340 10.0975467544525461 15.1005778203762819 Zr
atom 5.0688509581141021 5.0487705483131187 20.1700966149517029 Zr
atom 10.0775246591295673 5.0487714143085185 20.1700795311746681 Zr
atom 5.0287536003856932 10.0975424730523908 20.1700795311746681 Zr
atom 10.1176271642535340 10.0975467544525461 20.1700966149517029 Zr
atom 4.7658916108532399 5.0487868784523409 12.6140958704777884 S
atom 10.3804865003253504 5.0487867746657340 12.6141126574417957 S
atom 5.3317154415814585 10.0975578334096081 12.6141126574417957 S
atom 9.8146678169926567 10.0975630845917514 12.6140958704777884 S
atom 5.4638240924134349 5.0487805960404479 17.6353372176639986 S
atom 9.6825376571236959 5.0487899133723344 17.6353372176639986 S
atom 4.6337665983798253 10.0975609721161899 17.6353372176639986 S
atom 10.5126002985528544 10.0975568021798594 17.6353372176639986 S
atom 5.0487177690370562 2.5243899248668220 15.2154541770606571 S
atom 10.0974922626009977 2.5243870883548505 15.2154381136289576 S
atom 5.0487212038571005 7.5731581470987175 15.2154381136289576 S
atom 10.0974939751764659 7.5731661310062393 15.2154541770606571 S
atom 5.0487177690370562 2.5243899248668220 20.0552202582673331 S
atom 10.0974922626009977 2.5243870883548505 20.0552363216990379 S
atom 5.0487212038571005 7.5731581470987175 20.0552363216990379 S
atom 10.0974939751764659 7.5731661310062393 20.0552202582673331 S
atom 2.5243868517369839 5.0487721473049616 15.5150738608133096 S
atom 7.5731657973148980 5.0487695067686733 14.8200269035115841 S
atom 2.5243947385710119 10.0975405655125527 14.8200269035115841 S
atom 7.5731630578764140 10.0975483534443491 15.5150738608133096 S
atom 2.5243868517369839 5.0487721473049616 19.7556005745146486 S
atom 7.5731657973148980 5.0487695067686733 20.4506475318163332 S
atom 2.5243947385710119 10.0975405655125527 20.4506475318163332 S
atom 7.5731630578764140 10.0975483534443491 19.7556005745146486 S
atom 2.5243943642088684 2.6895715380394196 22.2465124043724565 Ba
atom 7.5731474114980761 2.3591886794841845 22.2465307993134793 Ba
atom 2.5243763527541963 7.4079597382280582 22.2465307993134793 Ba
atom 7.5731705703482861 7.7383477441788271 22.2465124043724565 Ba
atom 4.7658916108532399 5.0487868784523409 22.6565785648502178 S
atom 10.3804865003253504 5.0487867746657340 22.6565617778861466 S
atom 5.3317154415814585 10.0975578334096081 22.6565617778861466 S
atom 9.8146678169926567 10.0975630845917514 22.6565785648502178 S
