#=======================================================
# FHI-aims file: sym_relax/sym_relax_RP_3_Rx00_0Ry0.in
# Created using the Atomic Simulation Environment (ASE)
# Fri Mar 14 10:22:42 2025
#=======================================================
lattice_vector 10.0942945744689077 -0.0000000000000004 0.0000000000000000 
lattice_vector -0.0000000000000004 10.0942945744689077 0.0000000000000000 
lattice_vector 0.0000000000000000 0.0000000000000000 35.3517884332504053 
atom -0.1710982072256910 0.0000000000000000 0.2938671386035477 Ba
atom 5.2182454944601426 -0.0000000000000000 0.2938671386035477 Ba
atom 0.1710982072256911 5.0471472872344503 0.2938671386035477 Ba
atom 4.8760490800087570 5.0471472872344503 0.2938671386035477 Ba
atom 0.0278442643277838 -0.0000000000000000 4.9475543660254457 Ba
atom 5.0193030229066631 0.0000000000000000 4.9475543660254457 Ba
atom -0.0278442643277838 5.0471472872344503 4.9475543660254457 Ba
atom 5.0749915515622330 5.0471472872344503 4.9475543660254457 Ba
atom 2.5235736436172251 2.5004653608191396 2.3490392927883903 Zr
atom 7.5707209308516772 2.5466819264153124 2.3490392927883903 Zr
atom 2.5235736436172251 7.5938292136497578 2.3490392927883903 Zr
atom 7.5707209308516772 7.5476126480535939 2.3490392927883903 Zr
atom 2.5235736436172251 2.5235736436172251 7.3649559235938353 Zr
atom 7.5707209308516772 2.5235736436172251 7.3649559235938353 Zr
atom 2.5235736436172251 7.5707209308516772 7.3649559235938353 Zr
atom 7.5707209308516772 7.5707209308516772 7.3649559235938353 Zr
atom 2.5235736436172251 2.8126205088174321 -0.1306241254392031 S
atom 7.5707209308516772 2.2345267784170169 -0.1306241254392030 S
atom 2.5235736436172251 7.2816740656514600 -0.1306241254392031 S
atom 7.5707209308516772 7.8597677960518810 -0.1306241254392030 S
atom 2.5235736436172251 2.0578340318613493 4.8871844331303613 S
atom 7.5707209308516772 2.9893132553731041 4.8871844331303613 S
atom 2.5235736436172251 8.0364605426075535 4.8871844331303613 S
atom 7.5707209308516772 7.1049813190958000 4.8871844331303613 S
atom 2.5235736436172251 0.0000000000000000 2.0438742112990171 S
atom 7.5707209308516772 0.0000000000000000 2.7829659671448201 S
atom 2.5235736436172251 5.0471472872344503 2.7829659671448201 S
atom 7.5707209308516772 5.0471472872344503 2.0438742112990171 S
atom 2.5235736436172251 0.0000000000000000 7.8162372543080600 S
atom 7.5707209308516772 0.0000000000000000 6.9136745928796088 S
atom 2.5235736436172251 5.0471472872344503 6.9136745928796088 S
atom 7.5707209308516772 5.0471472872344503 7.8162372543080600 S
atom -0.0000000000000000 2.5235736436172251 2.4797102342525545 S
atom 5.0471472872344503 2.5235736436172251 2.4797102342525545 S
atom -0.0000000000000000 7.5707209308516772 2.4797102342525545 S
atom 5.0471472872344503 7.5707209308516772 2.4797102342525545 S
atom -0.0000000000000000 2.5235736436172251 7.3649559235938353 S
atom 5.0471472872344503 2.5235736436172251 7.3649559235938353 S
atom -0.0000000000000000 7.5707209308516772 7.3649559235938353 S
atom 5.0471472872344503 7.5707209308516772 7.3649559235938353 S
atom -0.0278442643277838 0.0000000000000000 9.7823574811622258 Ba
atom 5.0749915515622330 -0.0000000000000000 9.7823574811622258 Ba
atom 0.0278442643277838 5.0471472872344503 9.7823574811622258 Ba
atom 5.0193030229066631 5.0471472872344503 9.7823574811622258 Ba
atom 0.1710982072256911 -0.0000000000000000 14.4360447085841237 Ba
atom 4.8760490800087570 0.0000000000000000 14.4360447085841237 Ba
atom -0.1710982072256910 5.0471472872344503 14.4360447085841237 Ba
atom 5.2182454944601426 5.0471472872344503 14.4360447085841237 Ba
atom 2.5235736436172251 2.5466819264153124 12.3808725543992768 Zr
atom 7.5707209308516772 2.5004653608191396 12.3808725543992768 Zr
atom 2.5235736436172251 7.5476126480535939 12.3808725543992768 Zr
atom 7.5707209308516772 7.5938292136497578 12.3808725543992768 Zr
atom 2.5235736436172251 2.9893132553731041 9.8427274140573111 S
atom 7.5707209308516772 2.0578340318613488 9.8427274140573111 S
atom 2.5235736436172251 7.1049813190958000 9.8427274140573111 S
atom 7.5707209308516772 8.0364605426075535 9.8427274140573111 S
atom 2.5235736436172251 2.2345267784170160 14.8605359726268684 S
atom 7.5707209308516772 2.8126205088174321 14.8605359726268684 S
atom 2.5235736436172251 7.8597677960518810 14.8605359726268702 S
atom 7.5707209308516772 7.2816740656514600 14.8605359726268684 S
atom 2.5235736436172251 0.0000000000000000 11.9469458800428452 S
atom 7.5707209308516772 0.0000000000000000 12.6860376358886509 S
atom 2.5235736436172251 5.0471472872344503 12.6860376358886509 S
atom 7.5707209308516772 5.0471472872344503 11.9469458800428452 S
atom -0.0000000000000000 2.5235736436172251 12.2502016129351059 S
atom 5.0471472872344503 2.5235736436172251 12.2502016129351059 S
atom -0.0000000000000000 7.5707209308516772 12.2502016129351059 S
atom 5.0471472872344503 7.5707209308516772 12.2502016129351059 S
atom 2.5235736436172251 2.3524754363915319 17.9697613552287585 Ba
atom 7.5707209308516772 2.6946718508429135 17.9697613552287585 Ba
atom 2.5235736436172251 7.7418191380773651 17.9697613552287585 Ba
atom 7.5707209308516772 7.3996227236259786 17.9697613552287585 Ba
atom 2.5235736436172251 2.5514179079450066 22.6234485826506422 Ba
atom 7.5707209308516772 2.4957293792894419 22.6234485826506422 Ba
atom 2.5235736436172251 7.5428766665238882 22.6234485826506422 Ba
atom 7.5707209308516772 7.5985651951794626 22.6234485826506422 Ba
atom 5.0240390044363679 5.0471472872344503 20.0249335094135859 Zr
atom 10.1174028572669865 5.0471472872344503 20.0249335094135859 Zr
atom 5.0702555700325291 10.0942945744689005 20.0249335094135859 Zr
atom 10.0711862916708110 10.0942945744689005 20.0249335094135859 Zr
atom 5.0471472872344503 5.0471472872344503 25.0408501402190389 Zr
atom 10.0942945744689005 5.0471472872344503 25.0408501402190389 Zr
atom 5.0471472872344503 10.0942945744689005 25.0408501402190389 Zr
atom 10.0942945744689005 10.0942945744689005 25.0408501402190389 Zr
atom 5.3361941524346568 5.0471472872344503 17.5452700911860227 S
atom 9.8052477092686825 5.0471472872344494 17.5452700911860227 S
atom 4.7581004220342420 10.0942945744689005 17.5452700911860227 S
atom 10.3833414396691008 10.0942945744689005 17.5452700911860227 S
atom 4.5814076754785722 5.0471472872344503 22.5630786497555711 S
atom 10.5600341862247706 5.0471472872344503 22.5630786497555711 S
atom 5.5128868989903230 10.0942945744689005 22.5630786497555711 S
atom 9.6285549627130091 10.0942945744689005 22.5630786497555711 S
atom 5.0471472872344503 2.5235736436172251 20.1556044508777603 S
atom 10.0942945744689005 2.5235736436172251 20.1556044508777603 S
atom 5.0471472872344503 7.5707209308516772 20.1556044508777603 S
atom 10.0942945744689005 7.5707209308516772 20.1556044508777603 S
atom 5.0471472872344503 2.5235736436172251 25.0408501402190389 S
atom 10.0942945744689005 2.5235736436172251 25.0408501402190389 S
atom 5.0471472872344503 7.5707209308516772 25.0408501402190389 S
atom 10.0942945744689005 7.5707209308516772 25.0408501402190389 S
atom 2.5235736436172251 5.0471472872344503 19.7197684279242296 S
atom 7.5707209308516772 5.0471472872344503 20.4588601837700246 S
atom 2.5235736436172251 10.0942945744689005 20.4588601837700246 S
atom 7.5707209308516772 10.0942945744689005 19.7197684279242296 S
atom 2.5235736436172251 5.0471472872344503 25.4921314709332698 S
atom 7.5707209308516772 5.0471472872344503 24.5895688095048079 S
atom 2.5235736436172251 10.0942945744689005 24.5895688095048079 S
atom 7.5707209308516772 10.0942945744689005 25.4921314709332698 S
atom 2.5235736436172251 2.4957293792894419 27.4582516977874498 Ba
atom 7.5707209308516772 2.5514179079450066 27.4582516977874498 Ba
atom 2.5235736436172251 7.5985651951794626 27.4582516977874498 Ba
atom 7.5707209308516772 7.5428766665238882 27.4582516977874498 Ba
atom 2.5235736436172251 2.6946718508429135 32.1119389252093157 Ba
atom 7.5707209308516772 2.3524754363915319 32.1119389252093157 Ba
atom 2.5235736436172251 7.3996227236259786 32.1119389252093157 Ba
atom 7.5707209308516772 7.7418191380773651 32.1119389252093157 Ba
atom 5.0702555700325291 5.0471472872344503 30.0567667710244706 Zr
atom 10.0711862916708110 5.0471472872344503 30.0567667710244706 Zr
atom 5.0240390044363679 10.0942945744689005 30.0567667710244706 Zr
atom 10.1174028572669865 10.0942945744689005 30.0567667710244706 Zr
atom 5.5128868989903230 5.0471472872344503 27.5186216306824889 S
atom 9.6285549627130091 5.0471472872344503 27.5186216306824889 S
atom 4.5814076754785722 10.0942945744689005 27.5186216306824889 S
atom 10.5600341862247706 10.0942945744689005 27.5186216306824889 S
atom 4.7581004220342420 5.0471472872344503 32.5364301892521155 S
atom 10.3833414396691008 5.0471472872344503 32.5364301892521155 S
atom 5.3361941524346568 10.0942945744689005 32.5364301892521155 S
atom 9.8052477092686825 10.0942945744689005 32.5364301892521155 S
atom 5.0471472872344503 2.5235736436172251 29.9260958295603068 S
atom 10.0942945744689005 2.5235736436172251 29.9260958295603068 S
atom 5.0471472872344503 7.5707209308516772 29.9260958295603068 S
atom 10.0942945744689005 7.5707209308516772 29.9260958295603068 S
atom 2.5235736436172251 5.0471472872344503 29.6228400966680532 S
atom 7.5707209308516772 5.0471472872344503 30.3619318525138624 S
atom 2.5235736436172251 10.0942945744689005 30.3619318525138624 S
atom 7.5707209308516772 10.0942945744689005 29.6228400966680532 S
