#=======================================================
# FHI-aims file: sym_relax/sym_relax_RP_2_RxRyMz_RxRy0.in
# Created using the Atomic Simulation Environment (ASE)
# Fri Mar 14 10:22:02 2025
#=======================================================
lattice_vector 10.0884012287954370 0.1463865490264560 0.0000000000000000 
lattice_vector 0.1463865490264560 10.0884012287954317 -0.0000000000000000 
lattice_vector 0.0000000000000000 -0.0000000000000000 25.4317947160230737 
atom -0.0907223702370563 -0.0910974564030958 0.2763052998108744 Ba
atom 5.1352980708008111 0.1639156447502844 0.2763052998108743 Ba
atom 0.1642907309163235 5.1349229846347795 0.2763052998108743 Ba
atom 5.0266715186738962 5.0262964325078432 0.2763052998108741 Ba
atom 0.0269800812253548 0.0279272347919209 4.8907297530813612 Ba
atom 5.0162733796058028 0.0462131932878728 4.8907297530813612 Ba
atom 0.0452660397213066 5.0172205331723614 4.8907297530813612 Ba
atom 5.1443739701363027 5.1453211237028684 4.8907297530813612 Ba
atom 2.5545608151430050 2.5545676942558009 2.3530532089013532 Zr
atom 7.6070268090528641 2.6360263482811708 2.3530532089013532 Zr
atom 2.6360194691683776 7.6070336881656546 2.3530532089013532 Zr
atom 7.6719547040539604 7.6719615831667580 2.3530532089013532 Zr
atom 2.5545608151430050 2.5545676942558009 7.4284062972613718 Zr
atom 7.6070268090528641 2.6360263482811708 7.4284062972613718 Zr
atom 2.6360194691683776 7.6070336881656528 7.4284062972613718 Zr
atom 7.6719547040539604 7.6719615831667562 7.4284062972613718 Zr
atom 2.7923949883705590 2.7925533548771404 -0.1389143316895667 S
atom 7.3690411484315339 2.3981921750536159 -0.1389143316895667 S
atom 2.3980338085470376 7.3691995149381011 -0.1389143316895667 S
atom 7.9097888772815148 7.9099472437880891 -0.1389143316895667 S
atom 2.2829147987645735 2.2827038994496403 4.8907297530813612 S
atom 7.8788906038590181 2.9076723646595974 4.8907297530813612 S
atom 2.9078832639745338 7.8786797045440853 4.8907297530813612 S
atom 7.4003086876755200 7.4000977883605907 4.8907297530813612 S
atom 2.5225720182886513 0.0365965769231066 2.1965268619234015 S
atom 7.5657571198624209 0.1098056284501435 2.7015029336219913 S
atom 2.5947497799779362 5.0808129683346399 2.7015029336219913 S
atom 7.6399659071995965 5.1539904658340525 2.1965268619234015 S
atom 2.5225720182886513 0.0365965769231065 7.5849326442393261 S
atom 7.5657571198624209 0.1098056284501435 7.0799565725407341 S
atom 2.5947497799779362 5.0808129683346399 7.0799565725407341 S
atom 7.6399659071995965 5.1539904658340525 7.5849326442393261 S
atom 0.0365966975901211 2.5216285961090654 2.1965268619234015 S
atom 5.0807815349740322 2.5958373834462396 2.7015029336219913 S
atom 0.1097741950895399 7.5668447233307292 2.7015029336219913 S
atom 5.1539905865010622 7.6390224850200124 2.1965268619234015 S
atom 0.0365966975901211 2.5216285961090654 7.5849326442393261 S
atom 5.0807815349740322 2.5958373834462396 7.0799565725407341 S
atom 0.1097741950895399 7.5668447233307292 7.0799565725407341 S
atom 5.1539905865010622 7.6390224850200124 7.5849326442393261 S
atom -0.0907223702370564 -0.0910974564030958 9.5051542063518557 Ba
atom 5.1352980708008111 0.1639156447502844 9.5051542063518557 Ba
atom 0.1642907309163236 5.1349229846347795 9.5051542063518557 Ba
atom 5.0266715186738962 5.0262964325078432 9.5051542063518557 Ba
atom 2.7923949883705590 2.7925533548771404 9.9203738378522868 S
atom 7.3690411484315339 2.3981921750536159 9.9203738378522868 S
atom 2.3980338085470376 7.3691995149381011 9.9203738378522868 S
atom 7.9097888772815148 7.9099472437880891 9.9203738378522868 S
atom 2.4678326951871181 2.4677543506591482 12.9922229813251935 Ba
atom 7.6938401526495177 2.7227544682370577 12.9922229813251935 Ba
atom 2.7228328127650259 7.6937618081215469 12.9922229813251935 Ba
atom 7.5852265840980611 7.5851482395700938 12.9922229813251935 Ba
atom 2.5861421246153178 2.5862082970770826 17.6066271110929122 Ba
atom 7.5753862062315713 2.6044450388088478 17.6066271110929122 Ba
atom 2.6043788663470848 7.5754523786933436 17.6066271110929122 Ba
atom 7.7035360135262696 7.7036021859880179 17.6066271110929122 Ba
atom 5.1132882638915502 5.1132370034015278 15.0689611210244969 Zr
atom 10.1657513888180713 5.1946927884435494 15.0689611210244969 Zr
atom 5.1947440489335897 10.1657001283280408 15.0689611210244969 Zr
atom 10.2306821528024976 10.2306308923124796 15.0689611210244969 Zr
atom 5.1132882638915502 5.1132370034015278 20.1442931011613950 Zr
atom 10.1657513888180713 5.1946927884435494 20.1442931011613950 Zr
atom 5.1947440489335897 10.1657001283280408 20.1442931011613950 Zr
atom 10.2306821528024976 10.2306308923124796 20.1442931011613950 Zr
atom 5.3511554768017380 5.3511289436189431 12.5769935775830497 S
atom 9.9278594486006835 4.9568255755333830 12.5769935775830497 S
atom 4.9568521087161681 9.9278329154178788 12.5769935775830497 S
atom 10.4685493657126951 10.4685228325298780 12.5769935775830497 S
atom 4.8415689645676689 4.8414519963448788 17.6066271110929122 S
atom 10.4375363958747087 5.4664120877674405 17.6066271110929122 S
atom 5.4665290559902324 10.4374194276519638 17.6066271110929122 S
atom 9.9589628534785941 9.9588458852558439 17.6066271110929122 S
atom 5.0808963580831117 2.5952678723227631 14.9124653480318869 S
atom 10.1249145006964021 2.6684638092084350 15.4173970677150631 S
atom 5.1539071608119009 7.6394711490929295 15.4173970677150631 S
atom 10.1982902469940537 7.7126617612337078 14.9124653480318869 S
atom 5.0808963580831117 2.5952678723227631 20.3007888741538913 S
atom 10.1249145006964021 2.6684638092084350 19.7958571544708022 S
atom 5.1539071608119009 7.6394711490929295 19.7958571544708022 S
atom 10.1982902469940537 7.7126617612337078 20.3007888741538913 S
atom 2.5953192911014136 5.0806981452255657 14.9124653480318869 S
atom 7.6395172431266802 5.1540738915232094 15.4173970677150631 S
atom 2.6685099032421924 10.1250812314076892 15.4173970677150631 S
atom 7.7127131800123543 10.1980920341365149 14.9124653480318869 S
atom 2.5953192911014136 5.0806981452255657 20.3007888741538913 S
atom 7.6395172431266802 5.1540738915232094 19.7958571544708022 S
atom 2.6685099032421924 10.1250812314076892 19.7958571544708022 S
atom 7.7127131800123543 10.1980920341365149 20.3007888741538913 S
atom 2.4678326951871181 2.4677543506591482 22.2210312408605972 Ba
atom 7.6938401526495177 2.7227544682370577 22.2210312408605972 Ba
atom 2.7228328127650259 7.6937618081215469 22.2210312408605972 Ba
atom 7.5852265840980611 7.5851482395700938 22.2210312408605972 Ba
atom 5.3511554768017380 5.3511289436189413 22.6362606446027748 S
atom 9.9278594486006835 4.9568255755333830 22.6362606446027748 S
atom 4.9568521087161681 9.9278329154178788 22.6362606446027748 S
atom 10.4685493657126951 10.4685228325298780 22.6362606446027748 S
