#=======================================================
# FHI-aims file: sym_relax/sym_relax_RP_6_RxRyMz_-Rx-Ry0.in
# Created using the Atomic Simulation Environment (ASE)
# Fri Mar 14 11:10:40 2025
#=======================================================
lattice_vector 10.0107053659207175 -0.0667231796236147 0.0000000000000000 
lattice_vector -0.0667231796236143 10.0107053659207317 0.0000000000000000 
lattice_vector -0.0000000000000000 0.0000000000000000 65.9338680427707828 
atom 0.0960510704134438 -0.1825200824666060 0.2185646783624667 Ba
atom 5.1878727654269614 -0.1294126602252521 0.2185646783624667 Ba
atom 0.1491584926547978 4.9093016125469280 0.2185646783624667 Ba
atom 5.0680421635620014 4.7894710106819689 0.2185646783624667 Ba
atom -0.2638390567583726 0.1853956722459739 5.0069115096566135 Ba
atom 4.8199570107143970 0.2304774669465652 5.0069115096566135 Ba
atom -0.2187572620577808 5.2691917397187549 5.0069115096566135 Ba
atom 4.7081520363901879 5.1573867653945511 5.0069115096566135 Ba
atom 2.4873004139712509 2.4744438560810260 2.4030764947050347 Zr
atom 7.5028999200279110 2.4513290893655082 2.4030764947050347 Zr
atom 2.4641856472557313 7.4900433621377092 2.4030764947050347 Zr
atom 7.4592915071198078 7.4464349492296016 2.4030764947050347 Zr
atom 2.4791468562023207 2.4892387064434049 7.4599146962344838 Zr
atom 7.4881050696655116 2.4594826471344420 7.4599146962344838 Zr
atom 2.4493907968933528 7.4981969199066327 7.4599146962344838 Zr
atom 7.4511379493508771 7.4612297995919841 7.4599146962344838 Zr
atom 2.6121175356613762 2.6954720624395150 -0.1038542615925669 S
atom 7.2818717136694193 2.3265119676753847 -0.1038542615925670 S
atom 2.2431574408972446 7.3652262404475595 -0.1038542615925669 S
atom 7.5841086288099344 7.6674631555880888 -0.1038542615925669 S
atom 2.2377777136799866 2.1884648789912569 4.9649825027906562 S
atom 7.7888788971176730 2.7008517896567734 4.9649825027906562 S
atom 2.7501646243455031 7.7395660624289677 4.9649825027906562 S
atom 7.2097688068285573 7.1604559721398306 4.9649825027906562 S
atom 2.8012786951739486 -0.0132110360981158 2.2480688397190614 S
atom 7.1879853407023262 -0.0437357439885243 2.7567987298275911 S
atom 2.1492710679301537 4.9949785287836619 2.7567987298275911 S
atom 7.7732697883225015 4.9587800570504585 2.2480688397190614 S
atom 2.8977976980550322 -0.0176036009607166 7.7868380267345305 S
atom 7.1222083740985394 -0.0477533726869458 7.1691183084318642 S
atom 2.0834941013263668 4.9909609000852448 7.1691183084318642 S
atom 7.8697887912035922 4.9543874921878688 7.7868380267345305 S
atom -0.0201505537136913 2.2040739877864204 2.2480688397190614 S
atom 4.9823652473252773 2.7893584354066014 2.7567987298275911 S
atom -0.0563490254468998 7.8280727081787980 2.7567987298275911 S
atom 4.9518405394348681 7.1760650809350031 2.2480688397190614 S
atom -0.0157579888510905 2.1075549849053492 7.7868380267345305 S
atom 4.9863828760236979 2.8551354020103825 7.1691183084318642 S
atom -0.0523313967484781 7.8938496747825813 7.1691183084318642 S
atom 4.9562331042974597 7.0795460780539230 7.7868380267345305 S
atom 0.2829821206269499 -0.1842081860229243 9.9846537115439471 Ba
atom 5.1895608689832828 -0.3163437104387574 9.9846537115439471 Ba
atom 0.1508465962111170 4.7223705623334382 9.9846537115439471 Ba
atom 5.2549732137755027 4.7877829071256599 9.9846537115439471 Ba
atom -0.2801044120750902 0.1804813546692855 14.9849700097206355 Ba
atom 4.8248713282910778 0.2467428222632826 14.9849700097206355 Ba
atom -0.2138429444810928 5.2854570950354720 14.9849700097206355 Ba
atom 4.6918866810734663 5.1524724478178614 14.9849700097206355 Ba
atom 2.4903530226182418 2.4831887155045900 12.4771205765160715 Zr
atom 7.4941550606043537 2.4482764807185289 12.4771205765160715 Zr
atom 2.4554407878321740 7.4869907534907147 12.4771205765160715 Zr
atom 7.4623441157668067 7.4551798086531607 12.4771205765160715 Zr
atom 2.4903530226182418 2.4831887155045900 17.4928194429251818 Zr
atom 7.4941550606043537 2.4482764807185289 17.4928194429251818 Zr
atom 2.4554407878321740 7.4869907534907147 17.4928194429251818 Zr
atom 7.4623441157668067 7.4551798086531607 17.4928194429251818 Zr
atom 2.7514636314669283 2.8127506707109355 9.9766434925334870 S
atom 7.1645931053980050 2.1871658718698308 9.9766434925334870 S
atom 2.1258788326258187 7.2258801446420202 9.9766434925334870 S
atom 7.7234547246154870 7.7847417638595111 9.9766434925334870 S
atom 2.2211914383438822 2.1533175890874685 14.9849700097206355 S
atom 7.8240261870214702 2.7174380649928986 14.9849700097206355 S
atom 2.7853119142492897 7.7561523377650907 14.9849700097206355 S
atom 7.1931825314924360 7.1253086822360325 14.9849700097206355 S
atom 2.8886486765063877 -0.0204795313886919 12.1654714384097158 S
atom 7.1258376533020087 -0.0509572335067504 12.8033642168234216 S
atom 2.0871233805298397 4.9877570392654551 12.8033642168234216 S
atom 7.8606397696549406 4.9515115617598919 12.1654714384097158 S
atom 2.8886486765063877 -0.0204795313886919 17.8044685810315002 S
atom 7.1258376533020087 -0.0509572335067505 17.1665758026178210 S
atom 2.0871233805298397 4.9877570392654551 17.1665758026178210 S
atom 7.8606397696549406 4.9515115617598919 17.8044685810315002 S
atom -0.0128820584231152 2.1167040064539870 12.1654714384097158 S
atom 4.9895867368434939 2.8515061228069269 12.8033642168234216 S
atom -0.0491275359286734 7.8902203955791244 12.8033642168234216 S
atom 4.9591090347254259 7.0886950996025648 12.1654714384097158 S
atom -0.0128820584231152 2.1167040064539870 17.8044685810315002 S
atom 4.9895867368434939 2.8515061228069269 17.1665758026178210 S
atom -0.0491275359286734 7.8902203955791244 17.1665758026178210 S
atom 4.9591090347254259 7.0886950996025648 17.8044685810315002 S
atom 0.2829821206269499 -0.1842081860229243 19.9852863078972867 Ba
atom 5.1895608689832828 -0.3163437104387574 19.9852863078972867 Ba
atom 0.1508465962111171 4.7223705623334382 19.9852863078972867 Ba
atom 5.2549732137755027 4.7877829071256599 19.9852863078972867 Ba
atom -0.2638390567583726 0.1853956722459739 24.9630285097846212 Ba
atom 4.8199570107143970 0.2304774669465652 24.9630285097846212 Ba
atom -0.2187572620577808 5.2691917397187549 24.9630285097846212 Ba
atom 4.7081520363901879 5.1573867653945511 24.9630285097846212 Ba
atom 2.4791468562023207 2.4892387064434049 22.5100253232067544 Zr
atom 7.4881050696655116 2.4594826471344420 22.5100253232067544 Zr
atom 2.4493907968933528 7.4981969199066327 22.5100253232067544 Zr
atom 7.4511379493508771 7.4612297995919841 22.5100253232067544 Zr
atom 2.4873004139712509 2.4744438560810260 27.5668635247362310 Zr
atom 7.5028999200279110 2.4513290893655082 27.5668635247362310 Zr
atom 2.4641856472557313 7.4900433621377092 27.5668635247362310 Zr
atom 7.4592915071198078 7.4464349492296016 27.5668635247362310 Zr
atom 2.7514636314669283 2.8127506707109355 19.9932965269078373 S
atom 7.1645931053980050 2.1871658718698308 19.9932965269078373 S
atom 2.1258788326258187 7.2258801446420202 19.9932965269078373 S
atom 7.7234547246154870 7.7847417638595111 19.9932965269078373 S
atom 2.2377777136799866 2.1884648789912569 25.0049575166506131 S
atom 7.7888788971176730 2.7008517896567734 25.0049575166506131 S
atom 2.7501646243455031 7.7395660624289677 25.0049575166506131 S
atom 7.2097688068285573 7.1604559721398306 25.0049575166506131 S
atom 2.8977976980550322 -0.0176036009607166 22.1831019927067068 S
atom 7.1222083740985394 -0.0477533726869458 22.8008217110094158 S
atom 2.0834941013263668 4.9909609000852448 22.8008217110094158 S
atom 7.8697887912035922 4.9543874921878688 22.1831019927067068 S
atom 2.8012786951739486 -0.0132110360981158 27.7218711797221893 S
atom 7.1879853407023262 -0.0437357439885243 27.2131412896136524 S
atom 2.1492710679301537 4.9949785287836619 27.2131412896136524 S
atom 7.7732697883225015 4.9587800570504585 27.7218711797221893 S
atom -0.0157579888510905 2.1075549849053492 22.1831019927067068 S
atom 4.9863828760236979 2.8551354020103834 22.8008217110094158 S
atom -0.0523313967484781 7.8938496747825813 22.8008217110094158 S
atom 4.9562331042974597 7.0795460780539230 22.1831019927067068 S
atom -0.0201505537136913 2.2040739877864204 27.7218711797221893 S
atom 4.9823652473252773 2.7893584354066014 27.2131412896136524 S
atom -0.0563490254468997 7.8280727081787980 27.2131412896136524 S
atom 4.9518405394348681 7.1760650809350031 27.7218711797221893 S
atom 0.0960510704134438 -0.1825200824666060 29.7513753410787913 Ba
atom 5.1878727654269614 -0.1294126602252521 29.7513753410787913 Ba
atom 0.1491584926547978 4.9093016125469280 29.7513753410787913 Ba
atom 5.0680421635620014 4.7894710106819689 29.7513753410787913 Ba
atom 2.6121175356613762 2.6954720624395150 30.0737942810337806 S
atom 7.2818717136694193 2.3265119676753847 30.0737942810337806 S
atom 2.2431574408972446 7.3652262404475595 30.0737942810337806 S
atom 7.5841086288099344 7.6674631555880888 30.0737942810337806 S
atom 2.6684930226905048 2.3899791436196978 33.1854678051275656 Ba
atom 7.5873646324892476 2.2701364806462521 33.1854678051275656 Ba
atom 2.5486503597170631 7.3088507534184446 33.1854678051275656 Ba
atom 7.6404841158390608 7.3619702367682773 33.1854678051275656 Ba
atom 2.3005872093967352 2.7498273034254765 37.9738441857783044 Ba
atom 7.2275164726834600 2.6380422939400252 37.9738441857783044 Ba
atom 2.1888021999112794 7.6767565667122106 37.9738441857783044 Ba
atom 7.2725783025453064 7.7218183965740446 37.9738441857783044 Ba
atom 4.9835142237942227 4.9707262901854934 35.3700027995356407 Zr
atom 9.9786085790720076 4.9271063726910871 35.3700027995356407 Zr
atom 4.9398943062998271 9.9658206454632907 35.3700027995356407 Zr
atom 9.9555053169427854 9.9427173833340721 35.3700027995356407 Zr
atom 4.9687668949844053 4.9788158842456927 40.4268525688092382 Zr
atom 9.9705189850118110 4.9418537015009161 40.4268525688092382 Zr
atom 4.9318047122396340 9.9805679742731215 40.4268525688092382 Zr
atom 9.9407579881329617 9.9508069773942598 40.4268525688092382 Zr
atom 4.7625685311522021 4.8459588571348187 32.8630574860197342 S
atom 10.1033760121226912 5.1480520653331325 32.8630574860197342 S
atom 5.0646617393505080 10.1867663381053148 32.8630574860197342 S
atom 9.7345596243007773 9.8179499502834062 32.8630574860197342 S
atom 5.2694993092769575 5.2201802609194212 37.9319160593675093 S
atom 9.7291546083380549 4.6411212872083647 37.9319160593675093 S
atom 4.6904403355659054 9.6798355599805816 37.9319160593675093 S
atom 10.2414904024255051 10.1921713540680052 37.9319160593675093 S
atom 4.6685829198148285 2.4756450917682238 35.7236722330706584 S
atom 10.2926461091761059 2.4394541254029241 35.2150722005477519 S
atom 5.2539318364039245 7.4781683981751170 35.2150722005477519 S
atom 9.6405740129634001 7.4476361849167949 35.7236722330706584 S
atom 4.6028721570817250 2.4715855828696323 40.1360618041018711 S
atom 10.3891511411032784 2.4350081798729262 40.7537920648000167 S
atom 5.3504368683311014 7.4737224526450969 40.7537920648000167 S
atom 9.5748632502302886 7.4435766760182149 40.1360618041018711 S
atom 2.4629844115685411 5.3087608562941089 35.7236722330706584 S
atom 7.4711664710823902 4.6566887600814137 35.2150722005477519 S
atom 2.4324521983102199 9.6954030328536085 35.2150722005477519 S
atom 7.4349755047171096 10.2807519494426884 35.7236722330706584 S
atom 2.4670439204671206 5.3744716190272133 40.1360618041018711 S
atom 7.4756124166124094 4.5601837281542403 40.7537920648000167 S
atom 2.4368981438402195 9.5988980009264520 40.7537920648000167 S
atom 7.4390350136156709 10.3464627121758035 40.1360618041018711 S
atom 2.6702205510961372 2.2029900688350654 42.9515726609568986 Ba
atom 7.7743537072738764 2.2684089522406241 42.9515726609568986 Ba
atom 2.7356394345017017 7.3071232250128073 42.9515726609568986 Ba
atom 7.6422116442447043 7.1749811619836343 42.9515726609568986 Ba
atom 2.3055207924279415 2.7660743768264617 47.9519040311059754 Ba
atom 7.2112693992824672 2.6331087109088234 47.9519040311059754 Ba
atom 2.1725551265103031 7.6718229836810128 47.9519040311059754 Ba
atom 7.2775118855764962 7.7380654699750400 47.9519040311059754 Ba
atom 4.9748112484913367 4.9676186512037894 45.4440452783697495 Zr
atom 9.9817162180537142 4.9358093479939988 45.4440452783697495 Zr
atom 4.9430019452815364 9.9745236207661883 45.4440452783697495 Zr
atom 9.9468023416398790 9.9396097443523548 45.4440452783697495 Zr
atom 4.9748112484913367 4.9676186512037894 50.4597627838422227 Zr
atom 9.9817162180537142 4.9358093479939988 50.4597627838422227 Zr
atom 4.9430019452815364 9.9745236207661883 50.4597627838422227 Zr
atom 9.9468023416398790 9.9396097443523548 50.4597627838422227 Zr
atom 4.6452589078149691 4.7065123538632303 42.9435775631710541 S
atom 10.2428225153942822 5.2653616886703629 42.9435775631710541 S
atom 5.2041082426220813 10.3040759614425905 42.9435775631710541 S
atom 9.6172500009634998 9.6785034470118045 42.9435775631710541 S
atom 5.3046533753298570 5.2367790538309889 47.9519040311059754 S
atom 9.7125558154265299 4.6059672211554705 47.9519040311059754 S
atom 4.6738415426543547 9.6446814939276653 47.9519040311059754 S
atom 10.2766444684784073 10.2087701469795391 47.9519040311059754 S
atom 4.6065042719760738 2.4683882256206680 45.7702725859077191 S
atom 10.3799972986517712 2.4321408844944541 45.1323804213775830 S
atom 5.3412830258796093 7.4708551572666480 45.1323804213775830 S
atom 9.5784953651246365 7.4403793187692377 45.7702725859077191 S
atom 4.6065042719760738 2.4683882256206680 50.1335354763043313 S
atom 10.3799972986517712 2.4321408844944541 50.7714276408343395 S
atom 5.3412830258796093 7.4708551572666480 50.7714276408343395 S
atom 9.5784953651246365 7.4403793187692377 50.1335354763043313 S
atom 2.4702412777161009 5.3708395041328538 45.7702725859077191 S
atom 7.4784797119908664 4.5693375706057191 45.1323804213775830 S
atom 2.4397654392186960 9.6080518433779147 45.1323804213775830 S
atom 7.4422323708646534 10.3428305972814432 45.7702725859077191 S
atom 2.4702412777161009 5.3708395041328538 50.1335354763043313 S
atom 7.4784797119908664 4.5693375706057191 50.7714276408343395 S
atom 2.4397654392186960 9.6080518433779147 50.7714276408343395 S
atom 7.4422323708646534 10.3428305972814432 50.1335354763043313 S
atom 2.6702205510961372 2.2029900688350654 52.9522354012552157 Ba
atom 7.7743537072738764 2.2684089522406241 52.9522354012552157 Ba
atom 2.7356394345017017 7.3071232250128073 52.9522354012552157 Ba
atom 7.6422116442447043 7.1749811619836343 52.9522354012552157 Ba
atom 2.3005872093967352 2.7498273034254765 57.9299638764336322 Ba
atom 7.2275164726834600 2.6380422939400252 57.9299638764336322 Ba
atom 2.1888021999112794 7.6767565667122106 57.9299638764336322 Ba
atom 7.2725783025453064 7.7218183965740446 57.9299638764336322 Ba
atom 4.9687668949844053 4.9788158842456927 55.4769554934027198 Zr
atom 9.9705189850118110 4.9418537015009161 55.4769554934027198 Zr
atom 4.9318047122396340 9.9805679742731215 55.4769554934027198 Zr
atom 9.9407579881329653 9.9508069773942598 55.4769554934027198 Zr
atom 4.9835142237942227 4.9707262901854934 60.5338052626762746 Zr
atom 9.9786085790720076 4.9271063726910871 60.5338052626762746 Zr
atom 4.9398943062998271 9.9658206454632907 60.5338052626762746 Zr
atom 9.9555053169427854 9.9427173833340721 60.5338052626762746 Zr
atom 4.6452589078149691 4.7065123538632303 52.9602304990409678 S
atom 10.2428225153942822 5.2653616886703629 52.9602304990409678 S
atom 5.2041082426220813 10.3040759614425905 52.9602304990409678 S
atom 9.6172500009634998 9.6785034470118045 52.9602304990409678 S
atom 5.2694993092769575 5.2201802609194212 57.9718920028444984 S
atom 9.7291546083380549 4.6411212872083647 57.9718920028444984 S
atom 4.6904403355659054 9.6798355599805816 57.9718920028444984 S
atom 10.2414904024255051 10.1921713540680052 57.9718920028444984 S
atom 4.6028721570817250 2.4715855828696323 55.7677462581100798 S
atom 10.3891511411032784 2.4350081798729262 55.1500159974120336 S
atom 5.3504368683311014 7.4737224526450969 55.1500159974120336 S
atom 9.5748632502302886 7.4435766760182149 55.7677462581100798 S
atom 4.6685829198148285 2.4756450917682238 60.1801358291413067 S
atom 10.2926461091761059 2.4394541254029241 60.6887358616642416 S
atom 5.2539318364039245 7.4781683981751188 60.6887358616642416 S
atom 9.6405740129634001 7.4476361849167949 60.1801358291413067 S
atom 2.4670439204671206 5.3744716190272133 55.7677462581100798 S
atom 7.4756124166124094 4.5601837281542403 55.1500159974120336 S
atom 2.4368981438402195 9.5988980009264520 55.1500159974120336 S
atom 7.4390350136156709 10.3464627121758035 55.7677462581100798 S
atom 2.4629844115685411 5.3087608562941089 60.1801358291413067 S
atom 7.4711664710823902 4.6566887600814137 60.6887358616642416 S
atom 2.4324521983102199 9.6954030328536085 60.6887358616642416 S
atom 7.4349755047171096 10.2807519494426884 60.1801358291413067 S
atom 2.6684930226905048 2.3899791436196978 62.7183402570844848 Ba
atom 7.5873646324892476 2.2701364806462521 62.7183402570844848 Ba
atom 2.5486503597170631 7.3088507534184446 62.7183402570844848 Ba
atom 7.6404841158390608 7.3619702367682773 62.7183402570844848 Ba
atom 4.7625685311522021 4.8459588571348187 63.0407505761922593 S
atom 10.1033760121226912 5.1480520653331325 63.0407505761922593 S
atom 5.0646617393505080 10.1867663381053148 63.0407505761922593 S
atom 9.7345596243007773 9.8179499502834062 63.0407505761922593 S
