#=======================================================
# FHI-aims file: sym_relax/sym_relax_RP_5_Rx0Mz_0-Ry0.in
# Created using the Atomic Simulation Environment (ASE)
# Fri Mar 14 10:53:39 2025
#=======================================================
lattice_vector 10.0802576345639476 -0.0000000000000000 -0.0042778358103002 
lattice_vector -0.0000000000000000 10.0854615950332551 -0.0000000000000000 
lattice_vector -0.0252034772645617 -0.0000000000000002 55.1970621636516370 
atom -0.1546640309078202 -0.0000000000000000 0.2857229182478672 Ba
atom 5.2227699612867138 -0.0000000000000000 0.2853907844898731 Ba
atom 0.1826411440047370 5.0427307975166293 0.2875297023950233 Ba
atom 4.8854647863741549 5.0427307975166293 0.2835840003427176 Ba
atom 0.0654819302215465 -0.0000000000000000 4.9444787480965466 Ba
atom 5.0529001627475809 -0.0000000000000000 4.9628650854358609 Ba
atom 0.0127713454655926 5.0427307975166293 4.9650040033410132 Ba
atom 5.1056107475034995 5.0427307975166293 4.9423398301914023 Ba
atom 2.5368178881770391 2.4994942262772133 2.3356668680034027 Zr
atom 7.5769467054590134 2.5432365712394107 2.3335279500982566 Zr
atom 2.5368178881770382 7.5859673687560463 2.3356668680034036 Zr
atom 7.5769467054590134 7.5422250237938409 2.3335279500982540 Zr
atom 2.5329890019867816 2.5204938427162822 7.3534698223965291 Zr
atom 7.5731178192687603 2.5222369548003454 7.3513309044913804 Zr
atom 2.5329890019867825 7.5649677523169760 7.3534698223965309 Zr
atom 7.5731178192687585 7.5632246402329120 7.3513309044913822 Zr
atom 2.5335691262529467 2.8066147042915692 -0.1434442349187639 S
atom 7.5736979435349250 2.2361160932250526 -0.1455831528239143 S
atom 2.5335691262529467 7.2788468907416908 -0.1434442349187639 S
atom 7.5736979435349268 7.8493455018082026 -0.1455831528239143 S
atom 2.5315018594522138 2.0614333799601572 4.8806801020882542 S
atom 7.5716306767341850 2.9812974175564722 4.8785411841831028 S
atom 2.5315018594522138 8.0240282150730735 4.8806801020882542 S
atom 7.5716306767341850 7.1041641774767905 4.8785411841831046 S
atom 2.5326445422276480 -0.0000000000000000 2.0403780259531459 S
atom 7.5799397681473009 -0.0000000000000000 2.7718568358480407 S
atom 2.5398109508653359 5.0427307975166293 2.7739957537531885 S
atom 7.5727733595096085 5.0427307975166293 2.0382391080479962 S
atom 2.4234834144870008 -0.0000000000000000 7.8185959345120075 S
atom 7.6558006457173109 -0.0000000000000000 6.8998301581412074 S
atom 2.6156718284353340 5.0427307975166293 6.9019690760463490 S
atom 7.4636122317689635 5.0427307975166293 7.8164570166068410 S
atom 0.0156036580438170 2.5222745361608969 2.4736385286706946 S
atom 5.0557324753257813 2.5204562613557333 2.4714996107655365 S
atom 0.0156036580438170 7.5631870588723586 2.4736385286706963 S
atom 5.0557324753257813 7.5650053336775303 2.4714996107655365 S
atom 0.0075168602934520 2.6337872096813513 7.3690357890514413 S
atom 5.0476456775754253 2.4089435878352834 7.3668968711463059 S
atom 0.0075168602934520 7.4516743853519261 7.3690357890514457 S
atom 5.0476456775754253 7.6765180071979744 7.3668968711462979 S
atom -0.0083169624174008 -0.0000000000000000 9.9026930476392376 Ba
atom 5.0508759449507838 -0.0000000000000000 9.8000950688432322 Ba
atom 0.0107471276688152 5.0427307975166293 9.8022339867483748 Ba
atom 5.0318118548645652 5.0427307975166293 9.9005541297340756 Ba
atom -0.0029345899328503 -0.0000000000000001 14.7388525611337773 Ba
atom 5.0181301372629052 -0.0000000000000001 14.8371727041195030 Ba
atom -0.0219986800190658 5.0427307975166293 14.8393116220246633 Ba
atom 5.0371942273491257 5.0427307975166293 14.7367136432286312 Ba
atom 2.5144386324658545 2.5213653987583147 12.3197033454339433 Zr
atom 7.5545674497478448 2.5213653987583147 12.3175644275287812 Zr
atom 2.5144386324658545 7.5640961962749378 12.3197033454339433 Zr
atom 7.5545674497478448 7.5640961962749378 12.3175644275287812 Zr
atom 2.4958882629449359 2.5222369548003472 17.2859368684713495 Zr
atom 7.5360170802269018 2.5204938427162822 17.2837979505661963 Zr
atom 2.4958882629449359 7.5632246402329120 17.2859368684713495 Zr
atom 7.5360170802269018 7.5649677523169743 17.2837979505661963 Zr
atom 2.5198274439832620 3.0194116871933412 9.8408916836433526 S
atom 7.5599562612652313 2.0233191103232926 9.8387527657382119 S
atom 2.5198274439832629 7.0660499078399059 9.8408916836433562 S
atom 7.5599562612652305 8.0621424847099874 9.8387527657382083 S
atom 2.5090498209484640 2.0233191103232926 14.7985150072245215 S
atom 7.5491786382304218 3.0194116871933412 14.7963760893193754 S
atom 2.5090498209484640 8.0621424847099874 14.7985150072245126 S
atom 7.5491786382304227 7.0660499078399059 14.7963760893193754 S
atom 2.6121602711311387 -0.0000000000000001 11.8504906876677794 S
atom 7.4568458110825775 -0.0000000000000001 12.7867770852949203 S
atom 2.4167169938005895 5.0427307975166293 12.7889160032000646 S
atom 7.6522890884130961 5.0427307975166293 11.8483517697626386 S
atom 2.4132054364963835 -0.0000000000000001 17.7374376148215411 S
atom 7.6455226677266959 -0.0000000000000001 16.8186718384507508 S
atom 2.6053938504447189 5.0427307975166293 16.8208107563559430 S
atom 7.4533342537783502 5.0427307975166293 17.7352986969163666 S
atom -0.0056257761751253 2.4026538576987306 12.3207728043865252 S
atom 5.0345030411068565 2.6400769398178894 12.3186338864813631 S
atom -0.0056257761751253 7.6828077373345236 12.3207728043865252 S
atom 5.0345030411068565 7.4453846552153653 12.3186338864813631 S
atom -0.0187684126437025 2.6337872096813504 17.2725098197216376 S
atom 5.0213604046382629 2.4089435878352834 17.2703709018164773 S
atom -0.0187684126437025 7.4516743853519243 17.2725098197216447 S
atom 5.0213604046382629 7.6765180071979744 17.2703709018164844 S
atom -0.0767334825717972 -0.0000000000000001 19.6970668606764754 Ba
atom 5.0161059194661197 -0.0000000000000001 19.6744026875269071 Ba
atom -0.0240228978158430 5.0427307975166293 19.6765416054320568 Ba
atom 4.9633953347101585 5.0427307975166293 19.6949279427713293 Ba
atom 0.1434124785575692 -0.0000000000000001 24.3558226905251480 Ba
atom 4.8462361209269780 -0.0000000000000001 24.3518769884728457 Ba
atom -0.1938926963549877 5.0427307975166293 24.3540159063779669 Ba
atom 5.1835412958395288 5.0427307975166293 24.3536837726200162 Ba
atom 2.4920593767546850 2.5432365712394134 22.3037398228644932 Zr
atom 7.5321881940366442 2.4994942262772160 22.3016009049593613 Zr
atom 2.4920593767546850 7.5422250237938391 22.3037398228644932 Zr
atom 7.5321881940366442 7.5859673687560463 22.3016009049593613 Zr
atom 2.4973754054795059 2.9812974175564730 19.7587265887796626 S
atom 7.5375042227614824 2.0614333799601572 19.7565876708745023 S
atom 2.4973754054795059 7.1041641774767905 19.7587265887796626 S
atom 7.5375042227614815 8.0240282150730735 19.7565876708745058 S
atom 2.4953081386787628 2.2361160932250526 24.7828509257865974 S
atom 7.5354369559607335 2.8066147042915692 24.7807120078814584 S
atom 2.4953081386787628 7.8493455018082026 24.7828509257865974 S
atom 7.5354369559607335 7.2788468907416908 24.7807120078814584 S
atom 2.4890663140663776 -0.0000000000000001 21.8654109371146497 S
atom 7.5363615399860473 -0.0000000000000001 22.5968897470095946 S
atom 2.4962327227040739 5.0427307975166293 22.5990286649147372 S
atom 7.5291951313483523 5.0427307975166293 21.8632720192094823 S
atom -0.0268552103940675 2.5222745361608960 22.1679070801022782 S
atom 5.0132736068878980 2.5204562613557333 22.1657681621971960 S
atom -0.0268552103940675 7.5631870588723586 22.1679070801022746 S
atom 5.0132736068878980 7.5650053336775285 22.1657681621971960 S
atom 2.4968437143265878 2.3521715720765908 27.8938873271081071 Ba
atom 7.5369725316085665 2.6905592254400394 27.8917484092029824 Ba
atom 2.4968437143265878 7.7332900229566608 27.8938873271081214 Ba
atom 7.5369725316085665 7.3949023695932121 27.8917484092029753 Ba
atom 2.4987396174078857 2.5483270037857366 32.5640424336378302 Ba
atom 7.5388684346898618 2.4944037937308945 32.5619035157327019 Ba
atom 2.4987396174078871 7.5371345912475443 32.5640424336378231 Ba
atom 7.5388684346898618 7.5910578013023615 32.5619035157326948 Ba
atom 4.9958692646541625 5.0427307975166293 29.9424912993741579 Zr
atom 10.0798114066053710 5.0427307975166293 29.9398470807828616 Zr
atom 5.0396825893233830 10.0854615950332587 29.9419859986880397 Zr
atom 10.0359980819361141 10.0854615950332587 29.9403523814689514 Zr
atom 5.0194055637323052 5.0427307975166293 34.9569459815654398 Zr
atom 10.0604431696747234 5.0427307975166293 34.9546439097031723 Zr
atom 5.0203143523927709 10.0854615950332587 34.9567828276082437 Zr
atom 10.0595343810142754 10.0854615950332587 34.9548070636603043 Zr
atom 5.3041257109311788 5.0427307975166293 27.4635397071679925 S
atom 9.7693996795023246 5.0427307975166293 27.4611344414273759 S
atom 4.7292708622203286 10.0854615950332587 27.4632733593325362 S
atom 10.3442545282131277 10.0854615950332587 27.4614007892628678 S
atom 4.5521171767164663 5.0427307975166293 32.4861364574631821 S
atom 10.5255289599076551 5.0427307975166293 32.4835042829173233 S
atom 5.4854001426256955 10.0854615950332587 32.4856432008223805 S
atom 9.5922459939984268 10.0854615950332587 32.4839975395579330 S
atom 5.0177588371209252 2.5213421087476542 30.0802066671574515 S
atom 10.0578876544029043 2.5213886887689743 30.0780677492523587 S
atom 5.0177588371209252 7.5641194862855894 30.0802066671574657 S
atom 10.0578876544029043 7.5640729062642951 30.0780677492523658 S
atom 5.0198138809863817 2.5213713455551852 34.9738723655180053 S
atom 10.0599426982683475 2.5213594519614455 34.9717334476128556 S
atom 5.0198138809863817 7.5640902494780811 34.9738723655179982 S
atom 10.0599426982683475 7.5641021430718123 34.9717334476128698 S
atom 2.4975503362181346 5.0427307975166293 29.6426009583085559 S
atom 7.5380168268117433 5.0427307975166293 30.3830192269146409 S
atom 2.4978880095297655 10.0854615950332587 30.3851581448197834 S
atom 7.5376791535001013 10.0854615950332587 29.6404620404033743 S
atom 2.4999700838076766 5.0427307975166293 35.4314943943648117 S
atom 7.5396818711798126 5.0427307975166293 34.4950430004642925 S
atom 2.4995530538978508 10.0854615950332587 34.4971819183693356 S
atom 7.5400989010896398 10.0854615950332587 35.4293554764596621 S
atom 2.5008517776887822 2.5130112045864337 37.4545862480823146 Ba
atom 7.5409805949707573 2.5297195929301930 37.4524473301771437 Ba
atom 2.5008517776887822 7.5724503904468108 37.4545862480822862 Ba
atom 7.5409805949707600 7.5557420021030657 37.4524473301771579 Ba
atom 2.5028220099783671 2.5297195929301930 42.3818826064370882 Ba
atom 7.5429508272603396 2.5130112045864328 42.3797436885321233 Ba
atom 2.5028220099783671 7.5557420021030675 42.3818826064371166 Ba
atom 7.5429508272603396 7.5724503904468126 42.3797436885321233 Ba
atom 5.0219013024745651 5.0427307975166293 39.9171649683071053 Zr
atom 10.0620301197565336 5.0427307975166293 39.9150260504020054 Zr
atom 5.0219013024745651 10.0854615950332587 39.9171649683071053 Zr
atom 10.0620301197565318 10.0854615950332587 39.9150260504020054 Zr
atom 5.0243970412168055 5.0427307975166293 44.8773839550488418 Zr
atom 10.0636170698383367 5.0427307975166293 44.8754081911009024 Zr
atom 5.0234882525563700 10.0854615950332587 44.8775471090060449 Zr
atom 10.0645258584987971 10.0854615950332587 44.8752450371437348 Zr
atom 5.5285691223510440 5.0427307975166293 37.4412714740440862 S
atom 9.5533347811952058 5.0427307975166293 37.4395274215110661 S
atom 4.5132059639132445 10.0854615950332587 37.4416663394162015 S
atom 10.5686979396330099 10.0854615950332587 37.4391325561389650 S
atom 4.5152334825980649 5.0427307975166293 42.3930584625702238 S
atom 10.5707254583178649 5.0427307975166293 42.3905246792929660 S
atom 5.5305966410358778 10.0854615950332587 42.3926635971981298 S
atom 9.5553622998800236 10.0854615950332587 42.3909195446650315 S
atom 5.0219013024745651 2.5213689622024531 39.9171649683071053 S
atom 10.0620301197565336 2.5213618353141825 39.9150260504020054 S
atom 5.0219013024745651 7.5640926328308202 39.9171649683071053 S
atom 10.0620301197565336 7.5640997597190749 39.9150260504020054 S
atom 5.0239887239627476 2.5213713455551852 44.8604575710962976 S
atom 10.0641175412447268 2.5213594519614446 44.8583186531911267 S
atom 5.0239887239627459 7.5640902494780757 44.8604575710962976 S
atom 10.0641175412447232 7.5641021430718052 44.8583186531911267 S
atom 2.5016448351536149 5.0427307975166293 39.4399157878234803 S
atom 7.5421577697955078 5.0427307975166293 40.3944141487908652 S
atom 2.5020289525135464 10.0854615950332587 40.3965530666960291 S
atom 7.5417736524355821 10.0854615950332587 39.4377768699183093 S
atom 2.5041207337693021 5.0427307975166293 45.3392869361501596 S
atom 7.5438325211414483 5.0427307975166293 44.4028355422495125 S
atom 2.5037037038594789 10.0854615950332587 44.4049744601547189 S
atom 7.5442495510512897 10.0854615950332587 45.3371480182448465 S
atom 2.5049341702592667 2.4944037937308927 47.2724264208817004 Ba
atom 7.5450629875412254 2.5483270037857357 47.2702875029765437 Ba
atom 2.5049341702592667 7.5910578013023624 47.2724264208816933 Ba
atom 7.5450629875412236 7.5371345912475407 47.2702875029765366 Ba
atom 2.5068300733405637 2.6905592254400377 51.9425815274113205 Ba
atom 7.5469588906225296 2.3521715720765863 51.9404426095061709 Ba
atom 2.5068300733405637 7.3949023695932121 51.9425815274113205 Ba
atom 7.5469588906225296 7.7332900229566590 51.9404426095061709 Ba
atom 5.0479333402949562 5.0427307975166293 49.8918386372402409 Zr
atom 10.0442488329077069 5.0427307975166293 49.8902050200211917 Zr
atom 5.0041200156257437 10.0854615950332587 49.8923439379264764 Zr
atom 10.0880621575769727 10.0854615950332587 49.8896997193350771 Zr
atom 5.4916854282326693 5.0427307975166293 47.3481934791511065 S
atom 9.5985312796053925 5.0427307975166293 47.3465478178867727 S
atom 4.5584024623234329 10.0854615950332587 47.3486867357920076 S
atom 10.5318142455146493 10.0854615950332587 47.3460545612460777 S
atom 4.7396768940179443 5.0427307975166293 52.3707902294462642 S
atom 10.3546605600107107 5.0427307975166293 52.3689176593766206 S
atom 5.3145317427287946 10.0854615950332587 52.3710565772817773 S
atom 9.7798057112999288 10.0854615950332587 52.3686513115411145 S
atom 5.0260437678281988 2.5213421087476546 49.7541232694568336 S
atom 10.0661725851101487 2.5213886887689725 49.7519843515516840 S
atom 5.0260437678281988 7.5641194862855876 49.7541232694568194 S
atom 10.0661725851101487 7.5640729062642915 49.7519843515516982 S
atom 2.5057857781373958 5.0427307975166293 49.4513107096995768 S
atom 7.5462522687309894 5.0427307975166293 50.1917289783057186 S
atom 2.5061234514490129 10.0854615950332587 50.1938678962109535 S
atom 7.5459145954193421 10.0854615950332587 49.4491717917944271 S
