#=======================================================
# FHI-aims file: sym_relax/sym_relax_RP_8_000_000.in
# Created using the Atomic Simulation Environment (ASE)
# Mon Mar 17 15:58:34 2025
#=======================================================
lattice_vector 10.0662460283968755 0.0000000000000000 -0.0000000000000000 
lattice_vector 0.0000000000000000 10.0662460283968773 -0.0000000000000000 
lattice_vector 0.0000000000000000 -0.0000000000000001 85.9146421342590543 
atom -0.0000000000000000 -0.0000000000000000 0.2853456457064942 Ba
atom 5.0331230141984351 -0.0000000000000000 0.2853456457064943 Ba
atom -0.0000000000000000 5.0331230141984387 0.2853456457064942 Ba
atom 5.0331230141984351 5.0331230141984387 0.2853456457064941 Ba
atom 0.0000000000000000 -0.0000000000000000 5.0603342462881011 Ba
atom 5.0331230141984351 -0.0000000000000000 5.0603342462881011 Ba
atom 0.0000000000000000 5.0331230141984387 5.0603342462881011 Ba
atom 5.0331230141984351 5.0331230141984387 5.0603342462881011 Ba
atom 2.5165615070992176 2.5165615070992193 2.3085437683473957 Zr
atom 7.5496845212976549 2.5165615070992193 2.3085437683473957 Zr
atom 2.5165615070992176 7.5496845212976638 2.3085437683473957 Zr
atom 7.5496845212976549 7.5496845212976638 2.3085437683473957 Zr
atom 2.5165615070992176 2.5165615070992193 7.3871895508231624 Zr
atom 7.5496845212976549 2.5165615070992193 7.3871895508231624 Zr
atom 2.5165615070992176 7.5496845212976638 7.3871895508231624 Zr
atom 7.5496845212976549 7.5496845212976638 7.3871895508231624 Zr
atom 2.5165615070992176 2.5165615070992193 -0.1828780080044085 S
atom 7.5496845212976549 2.5165615070992193 -0.1828780080044085 S
atom 2.5165615070992176 7.5496845212976638 -0.1828780080044085 S
atom 7.5496845212976549 7.5496845212976638 -0.1828780080044085 S
atom 2.5165615070992176 2.5165615070992193 4.8967402427563691 S
atom 7.5496845212976549 2.5165615070992193 4.8967402427563691 S
atom 2.5165615070992176 7.5496845212976638 4.8967402427563691 S
atom 7.5496845212976549 7.5496845212976638 4.8967402427563691 S
atom 2.5165615070992176 -0.0000000000000000 2.4390590893727779 S
atom 7.5496845212976549 -0.0000000000000000 2.4390590893727779 S
atom 2.5165615070992176 5.0331230141984387 2.4390590893727779 S
atom 7.5496845212976549 5.0331230141984387 2.4390590893727779 S
atom 2.5165615070992176 -0.0000000000000000 7.4220777692806754 S
atom 7.5496845212976549 -0.0000000000000000 7.4220777692806754 S
atom 2.5165615070992176 5.0331230141984387 7.4220777692806754 S
atom 7.5496845212976549 5.0331230141984387 7.4220777692806754 S
atom -0.0000000000000000 2.5165615070992193 2.4390590893727779 S
atom 5.0331230141984351 2.5165615070992193 2.4390590893727779 S
atom -0.0000000000000000 7.5496845212976638 2.4390590893727779 S
atom 5.0331230141984351 7.5496845212976638 2.4390590893727779 S
atom -0.0000000000000000 2.5165615070992193 7.4220777692806754 S
atom 5.0331230141984351 2.5165615070992193 7.4220777692806754 S
atom -0.0000000000000000 7.5496845212976638 7.4220777692806754 S
atom 5.0331230141984351 7.5496845212976638 7.4220777692806754 S
atom 0.0000000000000000 -0.0000000000000000 9.9969775372970258 Ba
atom 5.0331230141984351 -0.0000000000000000 9.9969775372970258 Ba
atom -0.0000000000000000 5.0331230141984387 9.9969775372970258 Ba
atom 5.0331230141984351 5.0331230141984387 9.9969775372970258 Ba
atom 0.0000000000000000 -0.0000000000000000 14.9818951165179683 Ba
atom 5.0331230141984351 -0.0000000000000000 14.9818951165179683 Ba
atom 0.0000000000000000 5.0331230141984387 14.9818951165179683 Ba
atom 5.0331230141984351 5.0331230141984387 14.9818951165179683 Ba
atom 2.5165615070992176 2.5165615070992193 12.4280156819290788 Zr
atom 7.5496845212976549 2.5165615070992193 12.4280156819290788 Zr
atom 2.5165615070992176 7.5496845212976638 12.4280156819290788 Zr
atom 7.5496845212976549 7.5496845212976638 12.4280156819290788 Zr
atom 2.5165615070992176 2.5165615070992193 17.4633082668750212 Zr
atom 7.5496845212976549 2.5165615070992193 17.4633082668750212 Zr
atom 2.5165615070992176 7.5496845212976638 17.4633082668750212 Zr
atom 7.5496845212976549 7.5496845212976638 17.4633082668750212 Zr
atom 2.5165615070992176 2.5165615070992193 9.9242772382935573 S
atom 7.5496845212976549 2.5165615070992193 9.9242772382935573 S
atom 2.5165615070992176 7.5496845212976638 9.9242772382935573 S
atom 7.5496845212976549 7.5496845212976638 9.9242772382935573 S
atom 2.5165615070992176 2.5165615070992193 14.9518280176474079 S
atom 7.5496845212976549 2.5165615070992193 14.9518280176474079 S
atom 2.5165615070992176 7.5496845212976638 14.9518280176474079 S
atom 7.5496845212976549 7.5496845212976638 14.9518280176474079 S
atom 2.5165615070992176 -0.0000000000000000 12.4441428882152021 S
atom 7.5496845212976549 -0.0000000000000000 12.4441428882152021 S
atom 2.5165615070992176 5.0331230141984387 12.4441428882152021 S
atom 7.5496845212976549 5.0331230141984387 12.4441428882152021 S
atom 2.5165615070992176 -0.0000000000000000 17.4671370997729696 S
atom 7.5496845212976549 -0.0000000000000000 17.4671370997729696 S
atom 2.5165615070992176 5.0331230141984387 17.4671370997729696 S
atom 7.5496845212976549 5.0331230141984387 17.4671370997729696 S
atom 0.0000000000000000 2.5165615070992193 12.4441428882152021 S
atom 5.0331230141984351 2.5165615070992193 12.4441428882152021 S
atom 0.0000000000000000 7.5496845212976638 12.4441428882152021 S
atom 5.0331230141984351 7.5496845212976638 12.4441428882152021 S
atom -0.0000000000000000 2.5165615070992193 17.4671370997729696 S
atom 5.0331230141984351 2.5165615070992193 17.4671370997729696 S
atom -0.0000000000000000 7.5496845212976638 17.4671370997729696 S
atom 5.0331230141984351 7.5496845212976638 17.4671370997729696 S
atom 0.0000000000000000 -0.0000000000000000 19.9801493335486100 Ba
atom 5.0331230141984351 -0.0000000000000000 19.9801493335486100 Ba
atom 0.0000000000000000 5.0331230141984387 19.9801493335486100 Ba
atom 5.0331230141984351 5.0331230141984387 19.9801493335486100 Ba
atom 0.0000000000000000 -0.0000000000000000 24.9784035505792055 Ba
atom 5.0331230141984351 -0.0000000000000000 24.9784035505792055 Ba
atom 0.0000000000000000 5.0331230141984387 24.9784035505792055 Ba
atom 5.0331230141984351 5.0331230141984387 24.9784035505792055 Ba
atom 2.5165615070992176 2.5165615070992193 22.4969904002221988 Zr
atom 7.5496845212976549 2.5165615070992193 22.4969904002221988 Zr
atom 2.5165615070992176 7.5496845212976638 22.4969904002221988 Zr
atom 7.5496845212976549 7.5496845212976638 22.4969904002221988 Zr
atom 2.5165615070992176 2.5165615070992193 27.5322829851681483 Zr
atom 7.5496845212976549 2.5165615070992193 27.5322829851681483 Zr
atom 2.5165615070992176 7.5496845212976638 27.5322829851681483 Zr
atom 7.5496845212976549 7.5496845212976638 27.5322829851681483 Zr
atom 2.5165615070992176 2.5165615070992193 19.9801493335486100 S
atom 7.5496845212976549 2.5165615070992193 19.9801493335486100 S
atom 2.5165615070992176 7.5496845212976638 19.9801493335486100 S
atom 7.5496845212976549 7.5496845212976638 19.9801493335486100 S
atom 2.5165615070992176 2.5165615070992193 25.0084706494497837 S
atom 7.5496845212976549 2.5165615070992193 25.0084706494497837 S
atom 2.5165615070992176 7.5496845212976638 25.0084706494497837 S
atom 7.5496845212976549 7.5496845212976638 25.0084706494497837 S
atom 2.5165615070992176 -0.0000000000000000 22.4931615673242433 S
atom 7.5496845212976549 -0.0000000000000000 22.4931615673242433 S
atom 2.5165615070992176 5.0331230141984387 22.4931615673242433 S
atom 7.5496845212976549 5.0331230141984387 22.4931615673242433 S
atom 2.5165615070992176 -0.0000000000000000 27.5161557788820126 S
atom 7.5496845212976549 -0.0000000000000000 27.5161557788820126 S
atom 2.5165615070992176 5.0331230141984387 27.5161557788820126 S
atom 7.5496845212976549 5.0331230141984387 27.5161557788820126 S
atom -0.0000000000000000 2.5165615070992193 22.4931615673242433 S
atom 5.0331230141984351 2.5165615070992193 22.4931615673242433 S
atom -0.0000000000000000 7.5496845212976638 22.4931615673242433 S
atom 5.0331230141984351 7.5496845212976638 22.4931615673242433 S
atom -0.0000000000000000 2.5165615070992193 27.5161557788820126 S
atom 5.0331230141984351 2.5165615070992193 27.5161557788820126 S
atom -0.0000000000000000 7.5496845212976638 27.5161557788820126 S
atom 5.0331230141984351 7.5496845212976638 27.5161557788820126 S
atom -0.0000000000000000 -0.0000000000000001 29.9633211298002067 Ba
atom 5.0331230141984351 -0.0000000000000001 29.9633211298002067 Ba
atom -0.0000000000000000 5.0331230141984387 29.9633211298002067 Ba
atom 5.0331230141984351 5.0331230141984387 29.9633211298002067 Ba
atom 0.0000000000000000 -0.0000000000000001 34.8999644208091553 Ba
atom 5.0331230141984351 -0.0000000000000001 34.8999644208091553 Ba
atom 0.0000000000000000 5.0331230141984387 34.8999644208091553 Ba
atom 5.0331230141984351 5.0331230141984387 34.8999644208091553 Ba
atom 2.5165615070992176 2.5165615070992193 32.5731091162740896 Zr
atom 7.5496845212976549 2.5165615070992193 32.5731091162740896 Zr
atom 2.5165615070992176 7.5496845212976638 32.5731091162740896 Zr
atom 7.5496845212976549 7.5496845212976638 32.5731091162740896 Zr
atom 2.5165615070992176 2.5165615070992193 37.6517548987497932 Zr
atom 7.5496845212976549 2.5165615070992193 37.6517548987497932 Zr
atom 2.5165615070992176 7.5496845212976638 37.6517548987497932 Zr
atom 7.5496845212976549 7.5496845212976638 37.6517548987497932 Zr
atom 2.5165615070992176 2.5165615070992193 30.0360214288036929 S
atom 7.5496845212976549 2.5165615070992193 30.0360214288036929 S
atom 2.5165615070992176 7.5496845212976638 30.0360214288036929 S
atom 7.5496845212976549 7.5496845212976638 30.0360214288036929 S
atom 2.5165615070992176 2.5165615070992193 35.0635584243408402 S
atom 7.5496845212976549 2.5165615070992193 35.0635584243408402 S
atom 2.5165615070992176 7.5496845212976638 35.0635584243408402 S
atom 7.5496845212976549 7.5496845212976638 35.0635584243408402 S
atom 2.5165615070992176 -0.0000000000000001 32.5382208978164940 S
atom 7.5496845212976549 -0.0000000000000001 32.5382208978164940 S
atom 2.5165615070992176 5.0331230141984387 32.5382208978164940 S
atom 7.5496845212976549 5.0331230141984387 32.5382208978164940 S
atom 2.5165615070992176 -0.0000000000000001 37.5212395777243941 S
atom 7.5496845212976549 -0.0000000000000001 37.5212395777243941 S
atom 2.5165615070992176 5.0331230141984387 37.5212395777243941 S
atom 7.5496845212976549 5.0331230141984387 37.5212395777243941 S
atom -0.0000000000000000 2.5165615070992193 32.5382208978164940 S
atom 5.0331230141984351 2.5165615070992193 32.5382208978164940 S
atom -0.0000000000000000 7.5496845212976638 32.5382208978164940 S
atom 5.0331230141984351 7.5496845212976638 32.5382208978164940 S
atom -0.0000000000000000 2.5165615070992193 37.5212395777243941 S
atom 5.0331230141984351 2.5165615070992193 37.5212395777243941 S
atom -0.0000000000000000 7.5496845212976638 37.5212395777243941 S
atom 5.0331230141984351 7.5496845212976638 37.5212395777243941 S
atom -0.0000000000000000 -0.0000000000000001 39.6749530213907065 Ba
atom 5.0331230141984351 -0.0000000000000001 39.6749530213907065 Ba
atom -0.0000000000000000 5.0331230141984387 39.6749530213907065 Ba
atom 5.0331230141984351 5.0331230141984387 39.6749530213907065 Ba
atom 2.5165615070992176 2.5165615070992193 40.1431766751016141 S
atom 7.5496845212976549 2.5165615070992193 40.1431766751016141 S
atom 2.5165615070992176 7.5496845212976638 40.1431766751016141 S
atom 7.5496845212976549 7.5496845212976638 40.1431766751016141 S
atom 2.5165615070992176 2.5165615070992193 43.2426667128359909 Ba
atom 7.5496845212976549 2.5165615070992193 43.2426667128359909 Ba
atom 2.5165615070992176 7.5496845212976638 43.2426667128359909 Ba
atom 7.5496845212976549 7.5496845212976638 43.2426667128359909 Ba
atom 2.5165615070992176 2.5165615070992193 48.0176553134175919 Ba
atom 7.5496845212976549 2.5165615070992193 48.0176553134175919 Ba
atom 2.5165615070992176 7.5496845212976638 48.0176553134175919 Ba
atom 7.5496845212976549 7.5496845212976638 48.0176553134175919 Ba
atom 5.0331230141984351 5.0331230141984387 45.2658648354769539 Zr
atom 10.0662460283968702 5.0331230141984387 45.2658648354769539 Zr
atom 5.0331230141984351 10.0662460283968773 45.2658648354769539 Zr
atom 10.0662460283968702 10.0662460283968773 45.2658648354769539 Zr
atom 5.0331230141984351 5.0331230141984387 50.3445106179526576 Zr
atom 10.0662460283968702 5.0331230141984387 50.3445106179526576 Zr
atom 5.0331230141984351 10.0662460283968773 50.3445106179526576 Zr
atom 10.0662460283968702 10.0662460283968773 50.3445106179526576 Zr
atom 5.0331230141984351 5.0331230141984387 42.7744430591250904 S
atom 10.0662460283968702 5.0331230141984387 42.7744430591250904 S
atom 5.0331230141984351 10.0662460283968773 42.7744430591250904 S
atom 10.0662460283968702 10.0662460283968773 42.7744430591250904 S
atom 5.0331230141984351 5.0331230141984387 47.8540613098858785 S
atom 10.0662460283968702 5.0331230141984387 47.8540613098858785 S
atom 5.0331230141984351 10.0662460283968773 47.8540613098858785 S
atom 10.0662460283968702 10.0662460283968773 47.8540613098858785 S
atom 5.0331230141984351 2.5165615070992193 45.3963801565022962 S
atom 10.0662460283968702 2.5165615070992193 45.3963801565022962 S
atom 5.0331230141984351 7.5496845212976638 45.3963801565022962 S
atom 10.0662460283968702 7.5496845212976638 45.3963801565022962 S
atom 5.0331230141984351 2.5165615070992193 50.3793988364102105 S
atom 10.0662460283968702 2.5165615070992193 50.3793988364102105 S
atom 5.0331230141984351 7.5496845212976638 50.3793988364102105 S
atom 10.0662460283968702 7.5496845212976638 50.3793988364102105 S
atom 2.5165615070992176 5.0331230141984387 45.3963801565022962 S
atom 7.5496845212976549 5.0331230141984387 45.3963801565022962 S
atom 2.5165615070992176 10.0662460283968773 45.3963801565022962 S
atom 7.5496845212976549 10.0662460283968773 45.3963801565022962 S
atom 2.5165615070992176 5.0331230141984387 50.3793988364102105 S
atom 7.5496845212976549 5.0331230141984387 50.3793988364102105 S
atom 2.5165615070992176 10.0662460283968773 50.3793988364102105 S
atom 7.5496845212976549 10.0662460283968773 50.3793988364102105 S
atom 2.5165615070992176 2.5165615070992193 52.9542986044265902 Ba
atom 7.5496845212976549 2.5165615070992193 52.9542986044265902 Ba
atom 2.5165615070992176 7.5496845212976638 52.9542986044265902 Ba
atom 7.5496845212976549 7.5496845212976638 52.9542986044265902 Ba
atom 2.5165615070992176 2.5165615070992193 57.9392161836474386 Ba
atom 7.5496845212976549 2.5165615070992193 57.9392161836474386 Ba
atom 2.5165615070992176 7.5496845212976638 57.9392161836474386 Ba
atom 7.5496845212976549 7.5496845212976638 57.9392161836474386 Ba
atom 5.0331230141984351 5.0331230141984387 55.3853367490586095 Zr
atom 10.0662460283968702 5.0331230141984387 55.3853367490586095 Zr
atom 5.0331230141984351 10.0662460283968773 55.3853367490586095 Zr
atom 10.0662460283968702 10.0662460283968773 55.3853367490586095 Zr
atom 5.0331230141984351 5.0331230141984387 60.4206293340045164 Zr
atom 10.0662460283968702 5.0331230141984387 60.4206293340045164 Zr
atom 5.0331230141984351 10.0662460283968773 60.4206293340045164 Zr
atom 10.0662460283968702 10.0662460283968773 60.4206293340045164 Zr
atom 5.0331230141984351 5.0331230141984387 52.8815983054230898 S
atom 10.0662460283968702 5.0331230141984387 52.8815983054230898 S
atom 5.0331230141984351 10.0662460283968773 52.8815983054230898 S
atom 10.0662460283968702 10.0662460283968773 52.8815983054230898 S
atom 5.0331230141984351 5.0331230141984387 57.9091490847769421 S
atom 10.0662460283968702 5.0331230141984387 57.9091490847769421 S
atom 5.0331230141984351 10.0662460283968773 57.9091490847769421 S
atom 10.0662460283968702 10.0662460283968773 57.9091490847769421 S
atom 5.0331230141984351 2.5165615070992193 55.4014639553446813 S
atom 10.0662460283968702 2.5165615070992193 55.4014639553446813 S
atom 5.0331230141984351 7.5496845212976638 55.4014639553446813 S
atom 10.0662460283968702 7.5496845212976638 55.4014639553446813 S
atom 5.0331230141984351 2.5165615070992193 60.4244581669025180 S
atom 10.0662460283968702 2.5165615070992193 60.4244581669025180 S
atom 5.0331230141984351 7.5496845212976638 60.4244581669025180 S
atom 10.0662460283968702 7.5496845212976638 60.4244581669025180 S
atom 2.5165615070992176 5.0331230141984387 55.4014639553446813 S
atom 7.5496845212976549 5.0331230141984387 55.4014639553446813 S
atom 2.5165615070992176 10.0662460283968773 55.4014639553446813 S
atom 7.5496845212976549 10.0662460283968773 55.4014639553446813 S
atom 2.5165615070992176 5.0331230141984387 60.4244581669025180 S
atom 7.5496845212976549 5.0331230141984387 60.4244581669025180 S
atom 2.5165615070992176 10.0662460283968773 60.4244581669025180 S
atom 7.5496845212976549 10.0662460283968773 60.4244581669025180 S
atom 2.5165615070992176 2.5165615070992193 62.9374704006781087 Ba
atom 7.5496845212976549 2.5165615070992193 62.9374704006781087 Ba
atom 2.5165615070992176 7.5496845212976638 62.9374704006781087 Ba
atom 7.5496845212976549 7.5496845212976638 62.9374704006781087 Ba
atom 2.5165615070992176 2.5165615070992193 67.9357246177087575 Ba
atom 7.5496845212976549 2.5165615070992193 67.9357246177087575 Ba
atom 2.5165615070992176 7.5496845212976638 67.9357246177087575 Ba
atom 7.5496845212976549 7.5496845212976638 67.9357246177087575 Ba
atom 5.0331230141984351 5.0331230141984387 65.4543114673517152 Zr
atom 10.0662460283968702 5.0331230141984387 65.4543114673517152 Zr
atom 5.0331230141984351 10.0662460283968773 65.4543114673517152 Zr
atom 10.0662460283968702 10.0662460283968773 65.4543114673517152 Zr
atom 5.0331230141984351 5.0331230141984387 70.4896040522976932 Zr
atom 10.0662460283968702 5.0331230141984387 70.4896040522976932 Zr
atom 5.0331230141984351 10.0662460283968773 70.4896040522976932 Zr
atom 10.0662460283968702 10.0662460283968773 70.4896040522976932 Zr
atom 5.0331230141984351 5.0331230141984387 62.9374704006781087 S
atom 10.0662460283968702 5.0331230141984387 62.9374704006781087 S
atom 5.0331230141984351 10.0662460283968773 62.9374704006781087 S
atom 10.0662460283968702 10.0662460283968773 62.9374704006781087 S
atom 5.0331230141984351 5.0331230141984387 67.9657917165792895 S
atom 10.0662460283968702 5.0331230141984387 67.9657917165792895 S
atom 5.0331230141984351 10.0662460283968773 67.9657917165792895 S
atom 10.0662460283968702 10.0662460283968773 67.9657917165792895 S
atom 5.0331230141984351 2.5165615070992193 65.4504826344536923 S
atom 10.0662460283968702 2.5165615070992193 65.4504826344536923 S
atom 5.0331230141984351 7.5496845212976638 65.4504826344536923 S
atom 10.0662460283968702 7.5496845212976638 65.4504826344536923 S
atom 5.0331230141984351 2.5165615070992193 70.4734768460114793 S
atom 10.0662460283968702 2.5165615070992193 70.4734768460114793 S
atom 5.0331230141984351 7.5496845212976638 70.4734768460114793 S
atom 10.0662460283968702 7.5496845212976638 70.4734768460114793 S
atom 2.5165615070992176 5.0331230141984387 65.4504826344536923 S
atom 7.5496845212976549 5.0331230141984387 65.4504826344536923 S
atom 2.5165615070992176 10.0662460283968773 65.4504826344536923 S
atom 7.5496845212976549 10.0662460283968773 65.4504826344536923 S
atom 2.5165615070992176 5.0331230141984387 70.4734768460114793 S
atom 7.5496845212976549 5.0331230141984387 70.4734768460114793 S
atom 2.5165615070992176 10.0662460283968773 70.4734768460114793 S
atom 7.5496845212976549 10.0662460283968773 70.4734768460114793 S
atom 2.5165615070992176 2.5165615070992193 72.9206421969297054 Ba
atom 7.5496845212976549 2.5165615070992193 72.9206421969297054 Ba
atom 2.5165615070992176 7.5496845212976638 72.9206421969297054 Ba
atom 7.5496845212976549 7.5496845212976638 72.9206421969297054 Ba
atom 2.5165615070992176 2.5165615070992193 77.8572854879386966 Ba
atom 7.5496845212976549 2.5165615070992193 77.8572854879386966 Ba
atom 2.5165615070992176 7.5496845212976638 77.8572854879386966 Ba
atom 7.5496845212976549 7.5496845212976638 77.8572854879386966 Ba
atom 5.0331230141984351 5.0331230141984387 75.5304301834035243 Zr
atom 10.0662460283968702 5.0331230141984387 75.5304301834035243 Zr
atom 5.0331230141984351 10.0662460283968773 75.5304301834035243 Zr
atom 10.0662460283968702 10.0662460283968773 75.5304301834035243 Zr
atom 5.0331230141984351 5.0331230141984387 80.6090759658793559 Zr
atom 10.0662460283968702 5.0331230141984387 80.6090759658793559 Zr
atom 5.0331230141984351 10.0662460283968773 80.6090759658793559 Zr
atom 10.0662460283968702 10.0662460283968773 80.6090759658793559 Zr
atom 5.0331230141984351 5.0331230141984387 72.9933424959330921 S
atom 10.0662460283968702 5.0331230141984387 72.9933424959330921 S
atom 5.0331230141984351 10.0662460283968773 72.9933424959330921 S
atom 10.0662460283968702 10.0662460283968773 72.9933424959330921 S
atom 5.0331230141984351 5.0331230141984387 78.0208794914703816 S
atom 10.0662460283968702 5.0331230141984387 78.0208794914703816 S
atom 5.0331230141984351 10.0662460283968773 78.0208794914703816 S
atom 10.0662460283968702 10.0662460283968773 78.0208794914703816 S
atom 5.0331230141984351 2.5165615070992193 75.4955419649460140 S
atom 10.0662460283968702 2.5165615070992193 75.4955419649460140 S
atom 5.0331230141984351 7.5496845212976638 75.4955419649460140 S
atom 10.0662460283968702 7.5496845212976638 75.4955419649460140 S
atom 5.0331230141984351 2.5165615070992193 80.4785606448538289 S
atom 10.0662460283968702 2.5165615070992193 80.4785606448538289 S
atom 5.0331230141984351 7.5496845212976638 80.4785606448538289 S
atom 10.0662460283968702 7.5496845212976638 80.4785606448538289 S
atom 2.5165615070992176 5.0331230141984387 75.4955419649460140 S
atom 7.5496845212976549 5.0331230141984387 75.4955419649460140 S
atom 2.5165615070992176 10.0662460283968773 75.4955419649460140 S
atom 7.5496845212976549 10.0662460283968773 75.4955419649460140 S
atom 2.5165615070992176 5.0331230141984387 80.4785606448538289 S
atom 7.5496845212976549 5.0331230141984387 80.4785606448538289 S
atom 2.5165615070992176 10.0662460283968773 80.4785606448538289 S
atom 7.5496845212976549 10.0662460283968773 80.4785606448538289 S
atom 2.5165615070992176 2.5165615070992193 82.6322740885201910 Ba
atom 7.5496845212976549 2.5165615070992193 82.6322740885201910 Ba
atom 2.5165615070992176 7.5496845212976638 82.6322740885201910 Ba
atom 7.5496845212976549 7.5496845212976638 82.6322740885201910 Ba
atom 5.0331230141984351 5.0331230141984387 83.1004977422311697 S
atom 10.0662460283968702 5.0331230141984387 83.1004977422311697 S
atom 5.0331230141984351 10.0662460283968773 83.1004977422311697 S
atom 10.0662460283968702 10.0662460283968773 83.1004977422311697 S
