#=======================================================
# FHI-aims file: sym_relax/sym_relax_RP_7_RxRyMz_RxRyMz.in
# Created using the Atomic Simulation Environment (ASE)
# Mon Mar 17 15:51:00 2025
#=======================================================
lattice_vector 10.0095890904185847 -0.0701961777681295 -0.0088055731171566 
lattice_vector -0.0701961777681297 10.0095890904185598 0.0088055731171566 
lattice_vector -0.0670738749233104 0.0670738749233104 75.9775308462967871 
atom 0.0627110385688037 -0.1492265148401571 0.2238691889759834 Ba
atom 5.1540210600494660 -0.0978091274528672 0.2194664024174052 Ba
atom 0.1141284259560934 4.9420835066404791 0.2282719755345621 Ba
atom 5.0324074948940476 4.8204699414850625 0.2238691889759834 Ba
atom -0.2925589492544601 0.2135927678471328 5.0122424444502940 Ba
atom 4.7912017773621729 0.2574608603703945 5.0078396578917230 Ba
atom -0.2486908567311979 5.2973534944637501 5.0166452310088641 Ba
atom 4.6771375070707775 5.1832892241723467 5.0122424444502949 Ba
atom 2.4566483162611519 2.5033457724630210 2.4055904029060557 Zr
atom 7.4711452290715066 2.4779500511800117 2.4011876163474777 Zr
atom 2.4312525949781421 7.5178426852733509 2.4099931894646343 Zr
atom 7.4263447725864067 7.4730422287882421 2.4055904029060553 Zr
atom 2.4517902875913831 2.5139907947162690 7.4632081122443781 Zr
atom 7.4605002068182626 2.4828080798497814 7.4588053256858053 Zr
atom 2.4206075727248924 7.5227007139431272 7.4676108988029677 Zr
atom 7.4214867439166223 7.4836872510414860 7.4632081122443790 Zr
atom 2.5800385553441987 2.7222947824397461 -0.1006437127573700 S
atom 7.2521962190947926 2.3545598120969591 -0.1050464993159481 S
atom 2.2123035850014205 7.3944524461903081 -0.0962409261987915 S
atom 7.5497350116694388 7.6919912387649614 -0.1006437127573701 S
atom 2.2097633695401973 2.2160820422820176 4.9690112187390714 S
atom 7.7584089592525158 2.7248349979009636 4.9646084321805057 S
atom 2.7185163251591513 7.7647276319943019 4.9734140052976468 S
atom 7.1794598258654316 7.1857784986072293 4.9690112187390723 S
atom 2.7673464224881847 0.0163743056123657 2.2507295184283915 S
atom 7.1567136129951248 -0.0163704486991588 2.7539362781195762 S
atom 2.1168209789017443 5.0235221853941958 2.7627418512367288 S
atom 7.7370428788134316 4.9860707619375813 2.2507295184283911 S
atom 2.8730797578556206 0.0071232857552295 7.7891904533091942 S
atom 7.0943027843649098 -0.0243355226362708 7.1683468793437086 S
atom 2.0544101502715240 5.0155571114570892 7.1771524524608772 S
atom 7.8427762141808515 4.9768197420804503 7.7891904533091942 S
atom -0.0514723944964296 2.2374481227211049 2.2551323049869731 S
atom 4.9509688161403265 2.8177773885394175 2.7583390646781560 S
atom -0.0889238179530363 7.8576700226327532 2.7671446377953108 S
atom 4.9182240618288162 7.2071445790463269 2.2551323049869731 S
atom -0.0422213746392933 2.1317147873536748 7.7935932398677847 S
atom 4.9589338900774456 2.8801882171696351 7.1727496659022894 S
atom -0.0809587440159241 7.9200808512629832 7.1815552390194517 S
atom 4.9274750816859436 7.1014112436789025 7.7935932398677847 S
atom 0.2609903635222443 -0.1608952511212888 9.9895163002856240 Ba
atom 5.1656897963305983 -0.2960884524063064 9.9851135137270628 Ba
atom 0.1257971622372253 4.7438041816870280 9.9939190868442118 Ba
atom 5.2306868198474943 4.8088012052039355 9.9895163002856240 Ba
atom -0.3012010447738142 0.1994915130286617 14.9932818480314278 Ba
atom 4.8053030321806425 0.2661029558897486 14.9888790614728578 Ba
atom -0.2345896019127268 5.3059955899830982 14.9976846345899926 Ba
atom 4.6684954115514321 5.1691879693538736 14.9932818480314332 Ba
atom 2.4689623975037422 2.5029699575905906 12.4803451286845188 Zr
atom 7.4715210439439241 2.4656359699374213 12.4759423421259434 Zr
atom 2.4316284098505623 7.5055286040307720 12.4847479152431191 Zr
atom 7.4386588538289820 7.4726664139158210 12.4803451286845171 Zr
atom 2.4694035859105345 2.5002928704146918 17.4948261817131439 Zr
atom 7.4741981311198478 2.4651947815306214 17.4904233951545613 Zr
atom 2.4343054970264779 7.5050874156239757 17.4992289682717335 Zr
atom 7.4391000422357720 7.4699893267398974 17.4948261817131439 Zr
atom 2.7264171784363298 2.8346912529534878 9.9816187854580498 S
atom 7.1397997485810292 2.2081811890048386 9.9772159988994904 S
atom 2.0999071144876762 7.2480738230981991 9.9860215720166341 S
atom 7.6961136347615566 7.8043877092787115 9.9816187854580498 S
atom 2.2005587760203209 2.1707552690020977 14.9904092746644331 S
atom 7.8037357325324246 2.7340395914208391 14.9860064881058701 S
atom 2.7638430984390627 7.7739322255141756 14.9948120612230174 S
atom 7.1702552323455535 7.1404517253273170 14.9904092746644348 S
atom 2.8679310411897334 0.0000056780098863 12.1691507714911271 S
atom 7.1029243585868773 -0.0328696021960163 12.8038563563833918 S
atom 2.0630317244935075 5.0070230318973463 12.8126619295005408 S
atom 7.8376274975149736 4.9697021343351144 12.1691507714911289 S
atom 2.8712474095764264 -0.0037561208387050 17.8131747083486971 S
atom 7.1074523963380205 -0.0355507724252681 17.1676720819604007 S
atom 2.0675597622446578 5.0043418616680677 17.1764776550775515 S
atom 7.8409438659016706 4.9659403354865201 17.8131747083487006 S
atom -0.0351037668939501 2.1368635040195620 12.1735535580497096 S
atom 4.9674679696371955 2.8715666429476521 12.8082591429419725 S
atom -0.0724246644561786 7.9114592770410104 12.8170647160591411 S
atom 4.9345926894313017 7.1065599603447787 12.1735535580497114 S
atom -0.0313419680453588 2.1335471356328655 17.8175774949073293 S
atom 4.9701491398664555 2.8670386051965044 17.1720748685190081 S
atom -0.0697434942269254 7.9069312392898530 17.1808804416361198 S
atom 4.9383544882798729 7.1032435919580807 17.8175774949073222 S
atom 0.2703117602696583 -0.1686022285245048 19.9963705153948546 Ba
atom 5.1733967737338009 -0.3054098491537226 19.9919677288362578 Ba
atom 0.1335041396404414 4.7344827849396225 20.0007733019534193 Ba
atom 5.2400082165948918 4.8010942278007152 19.9963705153948546 Ba
atom -0.2918796480263991 0.1917845356254457 25.0001360631406229 Ba
atom 4.8130100095838646 0.2567815591423339 24.9957332765820510 Ba
atom -0.2268826245095110 5.2966741932356953 25.0045388496992089 Ba
atom 4.6778168082988385 5.1614809919506595 25.0001360631406229 Ba
atom 2.4698447743173442 2.4976157832387744 22.5093072347416836 Zr
atom 7.4768752182957527 2.4647535931238220 22.5049044481831260 Zr
atom 2.4369825842023829 7.5046462272171874 22.5137100213002839 Zr
atom 7.4395412306425737 7.4673122395639941 22.5093072347416800 Zr
atom 2.4870168842297078 2.4865949461131049 27.5264442511819176 Zr
atom 7.4878960554214222 2.4475814832114673 27.5220414646233529 Zr
atom 2.4480034213280595 7.4874741173048083 27.5308470377404610 Zr
atom 7.4567133405549439 7.4562914024383202 27.5264442511819176 Zr
atom 2.7382483958007544 2.8298304718272767 19.9992430887618262 S
atom 7.1446605297072612 2.1963499716404042 19.9948403022032473 S
atom 2.1047678956138900 7.2362426057337634 20.0036458753203910 S
atom 7.7079448521260137 7.7995269281524937 19.9992430887618262 S
atom 2.2123899933847615 2.1658944878758866 25.0080335779682166 S
atom 7.8085965136586513 2.7222083740564034 25.0036307914096660 S
atom 2.7687038795652796 7.7621010081497523 25.0124363645267991 S
atom 7.1820864497099928 7.1355909442011001 25.0080335779682166 S
atom 2.8757754473275754 -0.0064372910679573 22.1769904339257451 S
atom 7.1107687647247104 -0.0393125712738594 22.8116960188179583 S
atom 2.0708761306313481 5.0005800628194859 22.8205015919351197 S
atom 7.8454719036528138 4.9632591652572673 22.1769904339257451 S
atom 2.8843970215495549 -0.0149713706277027 27.8124999109654105 S
atom 7.1056200480588370 -0.0464301790192027 27.1916563369999125 S
atom 2.0657274139654715 4.9934624550741420 27.2004619101170810 S
atom 7.8540934778747848 4.9547250856975102 27.8124999109654105 S
atom -0.0286607978161073 2.1290190978817218 22.1813932204843631 S
atom 4.9739109387150364 2.8637222368098136 22.8160988053765337 S
atom -0.0659816953783343 7.9036148709031719 22.8249043784937200 S
atom 4.9410356585091426 7.0987155542069234 22.1813932204843631 S
atom -0.0201267182563619 2.1203975236597352 27.8169026975239717 S
atom 4.9810285464603732 2.8688709534756978 27.1960591235585056 S
atom -0.0588640876329908 7.9087635875690498 27.2048646966756777 S
atom 4.9495697380688695 7.0900939799849576 27.8169026975239753 S
atom 0.2616696647503047 -0.1827034833429756 29.9774099189759617 Ba
atom 5.1874980285522758 -0.2967677536343676 29.9730071324174112 Ba
atom 0.1476053944589125 4.7431248804589838 29.9818127055345336 Ba
atom 5.2313661210755473 4.7869929729822536 29.9774099189759617 Ba
atom -0.0936003230729588 0.1801157993443140 34.7657831744503056 Ba
atom 4.8246787458649782 0.0585022341888943 34.7613803878916841 Ba
atom -0.2152138882283788 5.0983948682822469 34.7701859610088491 Ba
atom 4.8760961332522772 5.1498122556695405 34.7657831744503056 Ba
atom 2.4821588555599292 2.4972399683663515 32.5840619605201738 Zr
atom 7.4772510331681943 2.4524395118812365 32.5796591739615522 Zr
atom 2.4373583990748120 7.4923321459745829 32.5884647470787598 Zr
atom 7.4518553118851694 7.4669364246915659 32.5840619605201738 Zr
atom 2.7290438022808821 2.7845036985473670 30.0206411446871826 S
atom 7.1899873029871824 2.2055545651602810 30.0162383581286214 S
atom 2.1500946688937947 7.2454471992536309 30.0250439312457651 S
atom 7.6987402586061293 7.7542001548725690 30.0206411446871826 S
atom 2.3587686164768851 2.2782909583896278 35.0902960761836908 S
atom 7.6962000431449056 2.5758297509642820 35.0858932896249911 S
atom 2.6563074090515357 7.6157223850576381 35.0946988627421419 S
atom 7.3284650728021319 7.2479874147148502 35.0902960761836908 S
atom 2.8219861929193399 -0.0229364445648148 32.2269105121895691 S
atom 7.2113533834262782 -0.0556811988763388 32.7301172718807578 S
atom 2.1714607493328977 4.9842114352170155 32.7389228449979157 S
atom 7.7916826492445717 4.9467600117603983 32.2269105121895691 S
atom -0.0121616443192499 2.1828083522899639 32.2313132987481623 S
atom 4.9902795663175139 2.7631376181082707 32.7345200584393154 S
atom -0.0496130677758546 7.8030302522016086 32.7433256315563952 S
atom 4.9575348120059921 7.1525048086151877 32.2313132987481623 S
atom 2.5140223292697685 2.3691586507841067 38.2126346121244964 Ba
atom 7.6053323507504196 2.4205760381713990 38.2082318255659388 Ba
atom 2.5654397166570577 7.4604686722647342 38.2170373986831109 Ba
atom 7.4837187855950136 7.3388551071093175 38.2126346121244964 Ba
atom 2.1587523414465033 2.7319779334713941 43.0010078675988581 Ba
atom 7.2425130680631487 2.7758460259946518 42.9966050810402720 Ba
atom 2.2026204339697717 7.8157386600880052 43.0054106541574157 Ba
atom 7.1284487977717426 7.7016743897966151 43.0010078675988581 Ba
atom 4.9079596069621267 5.0217309380872930 40.3943558260546283 Zr
atom 9.9224565197724512 4.9963352168042707 40.3899530394960422 Zr
atom 4.8825638856790903 10.0362278508976051 40.3987586126131788 Zr
atom 9.8776560632873522 9.9914273944125007 40.3943558260546283 Zr
atom 4.9031015782923566 5.0323759603405405 45.4519735353928738 Zr
atom 9.9118114975192579 5.0011932454740533 45.4475707488342664 Zr
atom 4.8719188634258730 10.0410858795673796 45.4563763219514598 Zr
atom 9.8727980346176096 10.0020724166657491 45.4519735353928738 Zr
atom 5.0313498460451731 5.2406799480640105 37.8881217103911538 S
atom 9.7035075097957382 4.8729449777212190 37.8837189238326104 S
atom 4.6636148757023745 9.9128376118145667 37.8925244969498110 S
atom 10.0010463023704048 10.2103764043892369 37.8881217103911538 S
atom 4.6610746602411730 4.7344672079062731 42.9577766418875484 S
atom 10.2097202499534614 5.2432201635252289 42.9533738553290050 S
atom 5.1698276158601164 10.2831127976185908 42.9621794284462410 S
atom 9.6307711165663754 9.7041636642314870 42.9577766418875484 S
atom 5.2186577131891507 2.5347594712366313 40.2394949415768792 S
atom 9.6080249036960819 2.5020147169251006 40.7427017012680963 S
atom 4.5681322696027200 7.5419073510184571 40.7515072743852542 S
atom 10.1883541695143798 7.5044559275618505 40.2394949415768792 S
atom 5.3243910485565795 2.5255084513794905 45.7779558764577743 S
atom 9.5456140750658420 2.4940496429879961 45.1571123024922016 S
atom 4.5057214409725015 7.5339422770813416 45.1659178756093311 S
atom 10.2940875048818228 7.4952049077047143 45.7779558764577743 S
atom 2.3998388962045301 4.7558332883453716 40.2438977281354582 S
atom 7.4022801068413067 5.3361625541636677 40.7471044878266326 S
atom 2.3623874727479328 10.3760551882570251 40.7559100609438261 S
atom 7.3695353525297778 9.7255297446705988 40.2438977281354582 S
atom 2.4090899160616717 4.6500999529779534 45.7823586630163391 S
atom 7.4102451807784036 5.3985733827938951 45.1615150890507735 S
atom 2.3703525466850457 10.4384660168872596 45.1703206621679527 S
atom 7.3787863723869158 9.6197964093031541 45.7823586630163391 S
atom 2.7123016542232081 2.3574899145029713 47.9782817234342005 Ba
atom 7.6170010870315430 2.2222967132179585 47.9738789368756642 Ba
atom 2.5771084529381940 7.2621893473113026 47.9826845099927795 Ba
atom 7.6819981105484567 7.3271863708282003 47.9782817234342005 Ba
atom 2.1501102459271522 2.7178766786529232 52.9820472711798942 Ba
atom 7.2566143228816156 2.7844881215140083 52.9776444846213366 Ba
atom 2.2167216887882359 7.8243807556073532 52.9864500577384732 Ba
atom 7.1198067022523928 7.6875731349781420 52.9820472711798942 Ba
atom 4.9202736882047056 5.0213551232148692 50.4691105518330190 Zr
atom 9.9228323346449034 4.9840211355616910 50.4647077652744969 Zr
atom 4.8829397005515123 10.0239137696550333 50.4735133383916832 Zr
atom 9.8899701445299311 9.9910515795400787 50.4691105518330190 Zr
atom 4.9207148766114921 5.0186780360389527 55.4835916048616511 Zr
atom 9.9255094218208004 4.9835799471548894 55.4791888183030153 Zr
atom 4.8856167877274324 10.0234725812482175 55.4879943914202158 Zr
atom 9.8904113329367558 9.9883744923641480 55.4835916048616511 Zr
atom 5.1777284691372865 5.3530764185777668 47.9703842086066174 S
atom 9.5911110392820014 4.7265663546291101 47.9659814220480598 S
atom 4.5512184051886315 9.7664589887224516 47.9747869951651822 S
atom 10.1474249254625324 10.3227728749029648 47.9703842086066174 S
atom 4.6518700667212851 4.6891404346263688 52.9791746978128941 S
atom 10.2550470232334092 5.2524247570451061 52.9747719112543791 S
atom 5.2151543891400332 10.2923173911384431 52.9835774843714802 S
atom 9.6215665230465355 9.6588368909515641 52.9791746978128941 S
atom 5.3192423318906945 2.5183908436341520 50.1579161946396255 S
atom 9.5542356492878397 2.4855155634282489 50.7926217795319275 S
atom 4.5143430151944717 7.5254081975216014 50.8014273526490499 S
atom 10.2889387882159404 7.4880872999593722 50.1579161946396255 S
atom 5.3225587002773898 2.5146290447855626 55.8019401314972470 S
atom 9.5587636870389989 2.4828343931989929 55.1564375051088902 S
atom 4.5188710529456202 7.5227270272923317 55.1652430782260197 S
atom 10.2922551566026623 7.4843255011107859 55.8019401314972328 S
atom 2.4162075238070106 4.6552486696438224 50.1623189811982115 S
atom 7.4187792603381739 5.3899518085719240 50.7970245660904993 S
atom 2.3788866262447916 10.4298444426652548 50.8058301392076146 S
atom 7.3859039801322552 9.6249451259690382 50.1623189811982115 S
atom 2.4199693226556032 4.6519323012571263 55.8063429180558046 S
atom 7.4214604305674028 5.3854237708207799 55.1608402916675118 S
atom 2.3815677964740471 10.4253164049141471 55.1696458647846484 S
atom 7.3896657789808424 9.6216287575823429 55.8063429180558046 S
atom 2.7216230509706265 2.3497829370997607 57.9851359385433867 Ba
atom 7.6247080644347758 2.2129753164705463 57.9807331519848361 Ba
atom 2.5848154303414055 7.2528679505638873 57.9895387251019727 Ba
atom 7.6913195072958711 7.3194793934249684 57.9851359385433938 Ba
atom 2.1594316426745630 2.7101697012497135 62.9889014862890946 Ba
atom 7.2643213002848253 2.7751667247665961 62.9844986997305583 Ba
atom 2.2244286661914501 7.8150593588599566 62.9933042728477304 Ba
atom 7.1291280989998089 7.6798661575749181 62.9889014862890946 Ba
atom 4.9211560650183017 5.0160009488630317 60.4980726578902406 Zr
atom 9.9281865089967134 4.9831387587480940 60.4936698713316616 Zr
atom 4.8882938749033542 10.0230313928414230 60.5024754444488480 Zr
atom 9.8908525213435432 9.9856974051882599 60.4980726578902406 Zr
atom 4.9383281749306578 5.0049801117373613 65.5152096743305208 Zr
atom 9.9392073461224246 4.9659666488357352 65.5108068877717642 Zr
atom 4.8993147120290210 10.0058592829290696 65.5196124608889647 Zr
atom 9.9080246312559073 9.9746765680625824 65.5152096743305208 Zr
atom 5.1895596865017248 5.3482156374515455 57.9880085119103583 S
atom 9.5959718204082112 4.7147351372646673 57.9836057253518007 S
atom 4.5560791863148546 9.7546277713580274 57.9924112984689373 S
atom 10.1592561428269370 10.3179120937767763 57.9880085119103583 S
atom 4.6637012840857279 4.6842796535001412 62.9967990011167416 S
atom 10.2599078043596226 5.2405935396806740 62.9923962145581697 S
atom 5.2200151702662421 10.2804861737740190 63.0012017876752708 S
atom 9.6333977404109685 9.6539761098253614 62.9967990011167416 S
atom 5.3270867380285489 2.5119478745563106 60.1657558570742594 S
atom 9.5620800554256462 2.4790725943503991 60.8004614419664762 S
atom 4.5221874213323252 7.5189652284437472 60.8092670150837620 S
atom 10.2967831943537949 7.4816443308815188 60.1657558570742594 S
atom 5.3357083122505209 2.5034137949965611 65.8012653341138929 S
atom 9.5569313387597834 2.4719549866050605 65.1804217601485050 S
atom 4.5170387046664384 7.5118476206984104 65.1892273332654639 S
atom 10.3054047685757766 7.4731102513217786 65.8012653341138929 S
atom 2.4226504928848556 4.6474042635059805 60.1701586436328029 S
atom 7.4252222294159944 5.3821074024340838 60.8048642285251120 S
atom 2.3853295953226303 10.4220000365274412 60.8136698016422272 S
atom 7.3923469492101006 9.6171007198312015 60.1701586436328029 S
atom 2.4311845724446051 4.6387826892840085 65.8056681206726068 S
atom 7.4323398371613338 5.3872561190999599 65.1848245467069489 S
atom 2.3924472030679773 10.4271487531933165 65.1936301198241352 S
atom 7.4008810287698390 9.6084791456092091 65.8056681206726068 S
atom 2.7129809554512665 2.3356816822812947 67.9661753421245862 Ba
atom 7.6388093192532542 2.2216174119898913 67.9617725555658581 Ba
atom 2.5989166851598764 7.2615100460832416 67.9705781286832007 Ba
atom 7.6826774117765178 7.3053781386065131 67.9661753421245862 Ba
atom 2.3577109676280008 2.6985009649685803 72.7545485975988839 Ba
atom 7.2759900365659442 2.5768873998131592 72.7501458110402979 Ba
atom 2.2360974024725877 7.6167800339065135 72.7589513841573847 Ba
atom 7.3274074239532343 7.6681974212938062 72.7545485975988839 Ba
atom 4.9334701462608912 5.0156251339906079 70.5728273836686668 Zr
atom 9.9285623238691354 4.9708246775055001 70.5684245971101092 Zr
atom 4.8886696897757851 10.0107173115988264 70.5772301702272102 Zr
atom 9.9031666025861433 9.9853215903158290 70.5728273836686668 Zr
atom 5.1803550929818574 5.3028888641716270 68.0094065678356117 S
atom 9.6412985936881608 4.7239397307845508 68.0050037812771109 S
atom 4.6014059595947794 9.7638323648778584 68.0138093543942404 S
atom 10.1500515493071060 10.2725853204968463 68.0094065678356117 S
atom 4.8100799071778351 4.7966761240138878 73.0790614993321554 S
atom 10.1475113338458751 5.0942149165885535 73.0746587127736404 S
atom 5.1076186997525079 10.1341075506818576 73.0834642858907557 S
atom 9.7797763635030925 9.7663725803391070 73.0790614993321554 S
atom 5.2732974836202908 2.4954487210594536 70.2156759353380124 S
atom 9.6626646741272193 2.4627039667479274 70.7188826950293219 S
atom 4.6227720400338619 7.5025966008412750 70.7276882681464372 S
atom 10.2429939399455083 7.4651451773846649 70.2156759353380124 S
atom 2.4391496463817113 4.7011935179142412 70.2200787218965843 S
atom 7.4415908570184692 5.2815227837325267 70.7232854815879222 S
atom 2.4016982229251145 10.3214154178258646 70.7320910547051227 S
atom 7.4088461027069537 9.6708899742394347 70.2200787218965843 S
