#=======================================================
# FHI-aims file: sym_relax/sym_relax_RP_1_Rx0Rz_0Ry0.in
# Created using the Atomic Simulation Environment (ASE)
# Fri Mar 14 10:20:21 2025
#=======================================================
lattice_vector 10.1083879406627855 0.0000000000000000 0.0002416211105360 
lattice_vector 0.0000000000000000 10.1084182862196652 -0.0000000000000000 
lattice_vector -0.0002690134767976 -0.0000000000000000 15.5284617907241991 
atom -0.1566176483590252 -0.0000000000000000 0.2394832968074653 Ba
atom 5.2108215563400995 -0.0000000000000000 0.2396356981274390 Ba
atom 0.1566275860087056 5.0542091431098299 0.2395148875721712 Ba
atom 4.8975763219723687 5.0542091431098299 0.2396041073627333 Ba
atom 0.1565335816475260 -0.0000000000000000 4.6131610127938449 Ba
atom 4.8974823176111864 -0.0000000000000000 4.6132502325844138 Ba
atom -0.1567116527202053 5.0542091431098299 4.6131294220291457 Ba
atom 5.2107275519789171 5.0542091431098299 4.6132818233491122 Ba
atom 2.5270549518099461 2.5271045715549150 2.4263825600782911 Zr
atom 7.5812489221413406 2.5271045715549150 2.4265033706335584 Zr
atom 2.5270549518099461 7.5813137146647422 2.4263825600782911 Zr
atom 7.5812489221413406 7.5813137146647422 2.4265033706335584 Zr
atom 2.5271212197696284 2.8451010140620605 -0.1069764106205996 S
atom 7.5813151901010158 2.2091081290477685 -0.1068556000653316 S
atom 2.5271212197696284 7.2633172721575914 -0.1069764106205996 S
atom 7.5813151901010158 7.8993101571718904 -0.1068556000653315 S
atom 2.5269886838502620 2.2091081290477685 4.9597415307771788 S
atom 7.5811826541816574 2.8451010140620601 4.9598623413324532 S
atom 2.5269886838502620 7.8993101571718904 4.9597415307771788 S
atom 7.5811826541816574 7.2633172721575923 4.9598623413324532 S
atom 2.5270559772143448 -0.0000000000000000 2.1155778581906675 S
atom 7.5812478967369490 -0.0000000000000000 2.7373080725211811 S
atom 2.5270539264055518 5.0542091431098299 2.7371872619659103 S
atom 7.5812499475457322 5.0542091431098299 2.1156986687459343 S
atom -0.0000420333557498 2.5271108797172421 2.4263221548006562 S
atom 5.0541519369756394 2.5270982633925865 2.4264429653559274 S
atom -0.0000420333557498 7.5813074065024191 2.4263221548006562 S
atom 5.0541519369756394 7.5813200228270690 2.4264429653559274 S
atom 2.5269799877182342 2.6837258779051365 8.0037789734705651 Ba
atom 7.5811739580496216 2.3704832652046899 8.0038997840258261 Ba
atom 2.5269799877182342 7.4246924083145203 8.0037789734705651 Ba
atom 7.5811739580496216 7.7379350210149598 8.0038997840258297 Ba
atom 2.5268609024248629 2.3704832652046908 12.3774479374102135 Ba
atom 7.5810548727562610 2.6837258779051369 12.3775687479654923 Ba
atom 2.5268609024248629 7.7379350210149598 12.3774479374102135 Ba
atom 7.5810548727562610 7.4246924083145203 12.3775687479654923 Ba
atom 5.0540174302372440 5.0542091431098299 10.1906738607180287 Zr
atom 10.1082114005686385 5.0542091431098299 10.1907946712732915 Zr
atom 5.0540174302372440 10.1084182862196599 10.1906738607180287 Zr
atom 10.1082114005686403 10.1084182862196599 10.1907946712732915 Zr
atom 4.7360575162395957 5.0542091431098299 7.6572987281280458 S
atom 10.4262543930796667 5.0542091431098299 7.6574325950858135 S
atom 5.3720604227482838 10.1084182862196599 7.6573117845305498 S
atom 9.7902514865710053 10.1084182862196599 7.6574195386833113 S
atom 5.3719773442349039 5.0542091431098299 12.7240489933080223 S
atom 9.7901684080575890 5.0542091431098299 12.7241567474607624 S
atom 4.7359744377262043 10.1084182862196599 12.7240359369054890 S
atom 10.4261713145662895 10.1084182862196599 12.7241698038632869 S
atom 5.0540174302372440 2.5270999023877545 10.1906738607180287 S
atom 10.1082114005686385 2.5271092407220737 10.1907946712732915 S
atom 5.0540174302372440 7.5813183838318992 10.1906738607180287 S
atom 10.1082114005686385 7.5813090454975898 10.1907946712732915 S
atom 2.5269168736980183 5.0542091431098299 10.5014079604494110 S
atom 7.5811179867764631 5.0542091431098299 9.8799397609866375 S
atom 2.5269240164450784 10.1084182862196599 9.8798189504313836 S
atom 7.5811108440294230 10.1084182862196599 10.5015287710046756 S
