#=======================================================
# FHI-aims file: sym_relax/sym_relax_RP_10_00Mz_000.in
# Created using the Atomic Simulation Environment (ASE)
# Mon Mar 17 17:05:08 2025
#=======================================================
lattice_vector 10.0044121472876437 -0.0000000000000004 0.0000000000000000 
lattice_vector -0.0000000000000004 10.0044121472876437 0.0000000000000000 
lattice_vector -0.0000000000000000 0.0000000000000001 106.7875961038432564 
atom 0.0000000000000000 0.0000000000000000 0.1319159373367878 Ba
atom 5.0022060736438272 0.0000000000000000 0.1319159373367878 Ba
atom -0.0000000000000000 5.0022060736438272 0.1319159373367878 Ba
atom 5.0022060736438272 5.0022060736438272 0.1319159373367878 Ba
atom 0.0000000000000000 0.0000000000000000 4.8966409312813326 Ba
atom 5.0022060736438272 0.0000000000000000 4.8966409312813326 Ba
atom -0.0000000000000000 5.0022060736438272 4.8966409312813326 Ba
atom 5.0022060736438272 5.0022060736438272 4.8966409312813326 Ba
atom 2.5011030368219136 2.5011030368219136 2.2698164492557105 Zr
atom 7.5033091104657421 2.5011030368219136 2.2698164492557105 Zr
atom 2.5011030368219136 7.5033091104657421 2.2698164492557105 Zr
atom 7.5033091104657421 7.5033091104657421 2.2698164492557105 Zr
atom 2.5011030368219136 2.5011030368219136 7.3837568167826992 Zr
atom 7.5033091104657421 2.5011030368219136 7.3837568167826992 Zr
atom 2.5011030368219136 7.5033091104657421 7.3837568167826992 Zr
atom 7.5033091104657421 7.5033091104657421 7.3837568167826992 Zr
atom 2.5011030368219136 2.5011030368219136 -0.2400651434338518 S
atom 7.5033091104657421 2.5011030368219136 -0.2400651434338518 S
atom 2.5011030368219136 7.5033091104657421 -0.2400651434338518 S
atom 7.5033091104657421 7.5033091104657421 -0.2400651434338518 S
atom 2.5011030368219136 2.5011030368219136 4.8726316063323178 S
atom 7.5033091104657421 2.5011030368219136 4.8726316063323178 S
atom 2.5011030368219136 7.5033091104657421 4.8726316063323178 S
atom 7.5033091104657421 7.5033091104657421 4.8726316063323178 S
atom 2.2197355601998185 0.0000000000000005 2.3956944485102758 S
atom 7.7846765870878398 -0.0000000000000000 2.3956944485102749 S
atom 2.7824705134440113 5.0022060736438272 2.3956944485102749 S
atom 7.2219416338436551 5.0022060736438272 2.3956944485102758 S
atom 2.9945125495968550 0.0000000000000005 7.4074560276456678 S
atom 7.0098995976908016 -0.0000000000000000 7.4074560276456669 S
atom 2.0076935240469758 5.0022060736438272 7.4074560276456669 S
atom 7.9967186232406791 5.0022060736438272 7.4074560276456678 S
atom -0.0000000000000000 2.7824705134440122 2.3956944485102758 S
atom 5.0022060736438272 2.2197355601998194 2.3956944485102758 S
atom 0.0000000000000000 7.2219416338436551 2.3956944485102758 S
atom 5.0022060736438272 7.7846765870878407 2.3956944485102758 S
atom -0.0000000000000000 2.0076935240469740 7.4074560276456678 S
atom 5.0022060736438272 2.9945125495968559 7.4074560276456669 S
atom 0.0000000000000000 7.9967186232406791 7.4074560276456669 S
atom 5.0022060736438272 7.0098995976907998 7.4074560276456678 S
atom -0.0000000000000000 0.0000000000000000 9.9567687793729807 Ba
atom 5.0022060736438272 0.0000000000000000 9.9567687793729807 Ba
atom -0.0000000000000000 5.0022060736438272 9.9567687793729807 Ba
atom 5.0022060736438272 5.0022060736438272 9.9567687793729807 Ba
atom -0.0000000000000000 0.0000000000000000 15.0279985524501480 Ba
atom 5.0022060736438272 0.0000000000000000 15.0279985524501480 Ba
atom -0.0000000000000000 5.0022060736438272 15.0279985524501480 Ba
atom 5.0022060736438272 5.0022060736438272 15.0279985524501480 Ba
atom 2.5011030368219136 2.5011030368219136 12.4729219087894414 Zr
atom 7.5033091104657421 2.5011030368219136 12.4729219087894414 Zr
atom 2.5011030368219136 7.5033091104657421 12.4729219087894414 Zr
atom 7.5033091104657421 7.5033091104657421 12.4729219087894414 Zr
atom 2.5011030368219136 2.5011030368219136 17.5590681895198131 Zr
atom 7.5033091104657421 2.5011030368219136 17.5590681895198131 Zr
atom 2.5011030368219136 7.5033091104657421 17.5590681895198131 Zr
atom 7.5033091104657421 7.5033091104657421 17.5590681895198131 Zr
atom 2.5011030368219136 2.5011030368219136 9.9446502516878699 S
atom 7.5033091104657421 2.5011030368219136 9.9446502516878699 S
atom 2.5011030368219136 7.5033091104657421 9.9446502516878699 S
atom 7.5033091104657421 7.5033091104657421 9.9446502516878699 S
atom 2.5011030368219136 2.5011030368219136 15.0251362316125121 S
atom 7.5033091104657421 2.5011030368219136 15.0251362316125121 S
atom 2.5011030368219136 7.5033091104657421 15.0251362316125121 S
atom 7.5033091104657421 7.5033091104657421 15.0251362316125121 S
atom 2.9657047040112681 0.0000000000000005 12.4938864251456891 S
atom 7.0387074432764001 -0.0000000000000000 12.4938864251456891 S
atom 2.0365013696325684 5.0022060736438272 12.4938864251456891 S
atom 7.9679107776550966 5.0022060736438272 12.4938864251456891 S
atom 2.9696366914829819 0.0000000000000005 17.5678905123069136 S
atom 7.0347754558046818 -0.0000000000000000 17.5678905123069136 S
atom 2.0325693821608484 5.0022060736438272 17.5678905123069136 S
atom 7.9718427651268220 5.0022060736438272 17.5678905123069136 S
atom -0.0000000000000000 2.0365013696325676 12.4938864251456963 S
atom 5.0022060736438272 2.9657047040112703 12.4938864251456891 S
atom 0.0000000000000000 7.9679107776550939 12.4938864251456891 S
atom 5.0022060736438272 7.0387074432764019 12.4938864251456963 S
atom -0.0000000000000000 2.0325693821608484 17.5678905123069136 S
atom 5.0022060736438272 2.9696366914829841 17.5678905123069207 S
atom 0.0000000000000000 7.9718427651268255 17.5678905123069207 S
atom 5.0022060736438272 7.0347754558046836 17.5678905123069136 S
atom -0.0000000000000000 0.0000000000000000 20.1055142152103379 Ba
atom 5.0022060736438272 0.0000000000000000 20.1055142152103379 Ba
atom -0.0000000000000000 5.0022060736438272 20.1055142152103379 Ba
atom 5.0022060736438272 5.0022060736438272 20.1055142152103379 Ba
atom 0.0000000000000000 0.0000000000000000 25.1857537980762380 Ba
atom 5.0022060736438272 0.0000000000000000 25.1857537980762380 Ba
atom -0.0000000000000000 5.0022060736438272 25.1857537980762380 Ba
atom 5.0022060736438272 5.0022060736438272 25.1857537980762380 Ba
atom 2.5011030368219136 2.5011030368219136 22.6436519506915417 Zr
atom 7.5033091104657421 2.5011030368219136 22.6436519506915417 Zr
atom 2.5011030368219136 7.5033091104657421 22.6436519506915417 Zr
atom 7.5033091104657421 7.5033091104657421 22.6436519506915417 Zr
atom 2.5011030368219136 2.5011030368219136 27.7278556454608989 Zr
atom 7.5033091104657421 2.5011030368219136 27.7278556454608989 Zr
atom 2.5011030368219136 7.5033091104657421 27.7278556454608989 Zr
atom 7.5033091104657421 7.5033091104657421 27.7278556454608989 Zr
atom 2.5011030368219136 2.5011030368219136 20.1053514733620311 S
atom 7.5033091104657421 2.5011030368219136 20.1053514733620311 S
atom 2.5011030368219136 7.5033091104657421 20.1053514733620311 S
atom 7.5033091104657421 7.5033091104657421 20.1053514733620311 S
atom 2.5011030368219136 2.5011030368219136 25.1857537980762380 S
atom 7.5033091104657421 2.5011030368219136 25.1857537980762380 S
atom 2.5011030368219136 7.5033091104657421 25.1857537980762380 S
atom 7.5033091104657421 7.5033091104657421 25.1857537980762380 S
atom 2.9703202762087035 0.0000000000000005 22.6463877305748653 S
atom 7.0340918710789451 -0.0000000000000000 22.6463877305748653 S
atom 2.0318857974351241 5.0022060736438272 22.6463877305748653 S
atom 7.9725263498525472 5.0022060736438272 22.6463877305748653 S
atom 2.9703202762087035 0.0000000000000005 27.7251198655775148 S
atom 7.0340918710789451 0.0000000000000000 27.7251198655775148 S
atom 2.0318857974351241 5.0022060736438272 27.7251198655775148 S
atom 7.9725263498525472 5.0022060736438272 27.7251198655775148 S
atom -0.0000000000000000 2.0318857974351228 22.6463877305748653 S
atom 5.0022060736438272 2.9703202762087053 22.6463877305748724 S
atom 0.0000000000000000 7.9725263498525454 22.6463877305748724 S
atom 5.0022060736438272 7.0340918710789451 22.6463877305748653 S
atom -0.0000000000000000 2.0318857974351228 27.7251198655775148 S
atom 5.0022060736438272 2.9703202762087053 27.7251198655775077 S
atom 0.0000000000000000 7.9725263498525454 27.7251198655775077 S
atom 5.0022060736438272 7.0340918710789451 27.7251198655775148 S
atom -0.0000000000000000 0.0000000000000000 30.2659933809420814 Ba
atom 5.0022060736438272 0.0000000000000000 30.2659933809420814 Ba
atom -0.0000000000000000 5.0022060736438272 30.2659933809420814 Ba
atom 5.0022060736438272 5.0022060736438272 30.2659933809420814 Ba
atom 0.0000000000000000 0.0000000000000000 35.3435090437023263 Ba
atom 5.0022060736438272 0.0000000000000000 35.3435090437023263 Ba
atom -0.0000000000000000 5.0022060736438272 35.3435090437023263 Ba
atom 5.0022060736438272 5.0022060736438272 35.3435090437023263 Ba
atom 2.5011030368219136 2.5011030368219136 32.8124394066326275 Zr
atom 7.5033091104657421 2.5011030368219136 32.8124394066326275 Zr
atom 2.5011030368219136 7.5033091104657421 32.8124394066326275 Zr
atom 7.5033091104657421 7.5033091104657421 32.8124394066326275 Zr
atom 2.5011030368219136 2.5011030368219136 37.8985856873629885 Zr
atom 7.5033091104657421 2.5011030368219136 37.8985856873629885 Zr
atom 2.5011030368219136 7.5033091104657421 37.8985856873629885 Zr
atom 7.5033091104657421 7.5033091104657421 37.8985856873629885 Zr
atom 2.5011030368219136 2.5011030368219136 30.2661561227904166 S
atom 7.5033091104657421 2.5011030368219136 30.2661561227904166 S
atom 2.5011030368219136 7.5033091104657421 30.2661561227904166 S
atom 7.5033091104657421 7.5033091104657421 30.2661561227904166 S
atom 2.5011030368219136 2.5011030368219136 35.3463713645399054 S
atom 7.5033091104657421 2.5011030368219136 35.3463713645399054 S
atom 2.5011030368219136 7.5033091104657421 35.3463713645399054 S
atom 7.5033091104657421 7.5033091104657421 35.3463713645399054 S
atom 2.9696366914829819 0.0000000000000005 32.8036170838454808 S
atom 7.0347754558046818 0.0000000000000000 32.8036170838454808 S
atom 2.0325693821608484 5.0022060736438272 32.8036170838454808 S
atom 7.9718427651268220 5.0022060736438272 32.8036170838454808 S
atom 2.9657047040112681 0.0000000000000005 37.8776211710066875 S
atom 7.0387074432764001 0.0000000000000000 37.8776211710066875 S
atom 2.0365013696325684 5.0022060736438272 37.8776211710066875 S
atom 7.9679107776550966 5.0022060736438272 37.8776211710066875 S
atom -0.0000000000000000 2.0325693821608484 32.8036170838454666 S
atom 5.0022060736438272 2.9696366914829841 32.8036170838454595 S
atom 0.0000000000000000 7.9718427651268255 32.8036170838454595 S
atom 5.0022060736438272 7.0347754558046836 32.8036170838454666 S
atom -0.0000000000000000 2.0365013696325676 37.8776211710066875 S
atom 5.0022060736438272 2.9657047040112703 37.8776211710066875 S
atom 0.0000000000000000 7.9679107776550939 37.8776211710066875 S
atom 5.0022060736438272 7.0387074432764019 37.8776211710066875 S
atom -0.0000000000000000 0.0000000000000000 40.4147388167794688 Ba
atom 5.0022060736438272 0.0000000000000000 40.4147388167794688 Ba
atom -0.0000000000000000 5.0022060736438272 40.4147388167794688 Ba
atom 5.0022060736438272 5.0022060736438272 40.4147388167794688 Ba
atom 0.0000000000000000 0.0000000000000000 45.4748666648710795 Ba
atom 5.0022060736438272 0.0000000000000000 45.4748666648710795 Ba
atom -0.0000000000000000 5.0022060736438272 45.4748666648710795 Ba
atom 5.0022060736438272 5.0022060736438272 45.4748666648710795 Ba
atom 2.5011030368219136 2.5011030368219136 42.9877507793697404 Zr
atom 7.5033091104657421 2.5011030368219136 42.9877507793697404 Zr
atom 2.5011030368219136 7.5033091104657421 42.9877507793697404 Zr
atom 7.5033091104657421 7.5033091104657421 42.9877507793697404 Zr
atom 2.5011030368219136 2.5011030368219136 48.1016911468967550 Zr
atom 7.5033091104657421 2.5011030368219136 48.1016911468967550 Zr
atom 2.5011030368219136 7.5033091104657421 48.1016911468967550 Zr
atom 7.5033091104657421 7.5033091104657421 48.1016911468967550 Zr
atom 2.5011030368219136 2.5011030368219136 40.4268573444646222 S
atom 7.5033091104657421 2.5011030368219136 40.4268573444646222 S
atom 2.5011030368219136 7.5033091104657421 40.4268573444646222 S
atom 7.5033091104657421 7.5033091104657421 40.4268573444646222 S
atom 2.5011030368219136 2.5011030368219136 45.4988759898201565 S
atom 7.5033091104657421 2.5011030368219136 45.4988759898201565 S
atom 2.5011030368219136 7.5033091104657421 45.4988759898201565 S
atom 7.5033091104657421 7.5033091104657421 45.4988759898201565 S
atom 2.9945125495968550 0.0000000000000005 42.9640515685068110 S
atom 7.0098995976908016 0.0000000000000000 42.9640515685068110 S
atom 2.0076935240469758 5.0022060736438272 42.9640515685068110 S
atom 7.9967186232406791 5.0022060736438272 42.9640515685068110 S
atom 2.2197355601998177 0.0000000000000005 47.9758131476421639 S
atom 7.7846765870878398 -0.0000000000000000 47.9758131476421639 S
atom 2.7824705134440113 5.0022060736438272 47.9758131476421639 S
atom 7.2219416338436551 5.0022060736438272 47.9758131476421639 S
atom -0.0000000000000000 2.0076935240469740 42.9640515685068038 S
atom 5.0022060736438272 2.9945125495968559 42.9640515685068110 S
atom 0.0000000000000000 7.9967186232406791 42.9640515685068110 S
atom 5.0022060736438272 7.0098995976907998 42.9640515685068038 S
atom -0.0000000000000000 2.7824705134440122 47.9758131476421639 S
atom 5.0022060736438272 2.2197355601998194 47.9758131476421639 S
atom 0.0000000000000000 7.2219416338436551 47.9758131476421639 S
atom 5.0022060736438272 7.7846765870878407 47.9758131476421639 S
atom -0.0000000000000000 0.0000000000000000 50.2395916588155984 Ba
atom 5.0022060736438272 0.0000000000000000 50.2395916588155984 Ba
atom -0.0000000000000000 5.0022060736438272 50.2395916588155984 Ba
atom 5.0022060736438272 5.0022060736438272 50.2395916588155984 Ba
atom 2.5011030368219136 2.5011030368219136 50.6115727395863146 S
atom 7.5033091104657421 2.5011030368219136 50.6115727395863146 S
atom 2.5011030368219136 7.5033091104657421 50.6115727395863146 S
atom 7.5033091104657421 7.5033091104657421 50.6115727395863146 S
atom 2.5011030368219136 2.5011030368219136 53.7446185816873125 Ba
atom 7.5033091104657421 2.5011030368219136 53.7446185816873125 Ba
atom 2.5011030368219136 7.5033091104657421 53.7446185816873125 Ba
atom 7.5033091104657421 7.5033091104657421 53.7446185816873125 Ba
atom 2.5011030368219136 2.5011030368219136 58.5555132214213430 Ba
atom 7.5033091104657421 2.5011030368219136 58.5555132214213430 Ba
atom 2.5011030368219136 7.5033091104657421 58.5555132214213430 Ba
atom 7.5033091104657421 7.5033091104657421 58.5555132214213430 Ba
atom 5.0022060736438272 5.0022060736438272 55.8136284804732625 Zr
atom 10.0044121472876544 5.0022060736438272 55.8136284804732625 Zr
atom 5.0022060736438272 10.0044121472876544 55.8136284804732625 Zr
atom 10.0044121472876544 10.0044121472876544 55.8136284804732625 Zr
atom 5.0022060736438272 5.0022060736438272 60.9031041326551374 Zr
atom 10.0044121472876544 5.0022060736438272 60.9031041326551374 Zr
atom 5.0022060736438272 10.0044121472876544 60.9031041326551374 Zr
atom 10.0044121472876544 10.0044121472876544 60.9031041326551374 Zr
atom 5.0022060736438272 5.0022060736438272 53.3077993097427481 S
atom 10.0044121472876544 5.0022060736438272 53.3077993097427481 S
atom 5.0022060736438272 10.0044121472876544 53.3077993097427481 S
atom 10.0044121472876544 10.0044121472876544 53.3077993097427481 S
atom 5.0022060736438272 5.0022060736438272 58.3987948293436574 S
atom 10.0044121472876544 5.0022060736438272 58.3987948293436574 S
atom 5.0022060736438272 10.0044121472876544 58.3987948293436574 S
atom 10.0044121472876544 10.0044121472876544 58.3987948293436574 S
atom 5.0022060736438272 2.5010955300519111 55.9234356880871175 S
atom 10.0044121472876544 2.5011105435919259 55.9234356880871175 S
atom 5.0022060736438272 7.5033166172357557 55.9234356880871175 S
atom 10.0044121472876544 7.5033016036957347 55.9234356880871175 S
atom 5.0022060736438272 2.5011039088334561 60.9294957960979673 S
atom 10.0044121472876544 2.5011021648103826 60.9294957960979673 S
atom 5.0022060736438272 7.5033082384542062 60.9294957960979673 S
atom 10.0044121472876544 7.5033099824772842 60.9294957960979673 S
atom 2.5011105435919236 5.0022060736438272 55.9234356880871175 S
atom 7.5033016036957321 5.0022060736438272 55.9234356880871175 S
atom 2.5010955300519089 10.0044121472876544 55.9234356880871175 S
atom 7.5033166172357548 10.0044121472876544 55.9234356880871175 S
atom 2.5011021648103791 5.0022060736438272 60.9294957960979673 S
atom 7.5033099824772824 5.0022060736438272 60.9294957960979673 S
atom 2.5011039088334552 10.0044121472876544 60.9294957960979673 S
atom 7.5033082384542036 10.0044121472876544 60.9294957960979673 S
atom 2.5011030368219136 2.5011030368219136 63.5134585834797250 Ba
atom 7.5033091104657421 2.5011030368219136 63.5134585834797250 Ba
atom 2.5011030368219136 7.5033091104657421 63.5134585834797250 Ba
atom 7.5033091104657421 7.5033091104657421 63.5134585834797250 Ba
atom 2.5011030368219136 2.5011030368219136 68.5217362109323034 Ba
atom 7.5033091104657421 2.5011030368219136 68.5217362109323034 Ba
atom 2.5011030368219136 7.5033091104657421 68.5217362109323034 Ba
atom 7.5033091104657421 7.5033091104657421 68.5217362109323034 Ba
atom 5.0022060736438272 5.0022060736438272 65.9584188316179194 Zr
atom 10.0044121472876544 5.0022060736438272 65.9584188316179194 Zr
atom 5.0022060736438272 10.0044121472876544 65.9584188316179194 Zr
atom 10.0044121472876544 10.0044121472876544 65.9584188316179194 Zr
atom 5.0022060736438272 5.0022060736438272 71.0084171747588613 Zr
atom 10.0044121472876544 5.0022060736438272 71.0084171747588613 Zr
atom 5.0022060736438272 10.0044121472876544 71.0084171747588613 Zr
atom 10.0044121472876544 10.0044121472876544 71.0084171747588613 Zr
atom 5.0022060736438272 5.0022060736438272 63.4434238674465050 S
atom 10.0044121472876544 5.0022060736438272 63.4434238674465050 S
atom 5.0022060736438272 10.0044121472876544 63.4434238674465050 S
atom 10.0044121472876544 10.0044121472876544 63.4434238674465050 S
atom 5.0022060736438272 5.0022060736438272 68.4880850766046194 S
atom 10.0044121472876544 5.0022060736438272 68.4880850766046194 S
atom 5.0022060736438272 10.0044121472876544 68.4880850766046194 S
atom 10.0044121472876544 10.0044121472876544 68.4880850766046194 S
atom 5.0022060736438272 2.5011030827864213 65.9698631287637056 S
atom 10.0044121472876544 2.5011029908574161 65.9698631287637056 S
atom 5.0022060736438272 7.5033090645012441 65.9698631287637056 S
atom 10.0044121472876544 7.5033091564302481 65.9698631287637056 S
atom 5.0022060736438272 2.5011030216488495 71.0114533374204910 S
atom 10.0044121472876544 2.5011030519949831 71.0114533374204910 S
atom 5.0022060736438272 7.5033091256388147 71.0114533374204910 S
atom 10.0044121472876544 7.5033090952926793 71.0114533374204910 S
atom 2.5011029908574134 5.0022060736438272 65.9698631287637056 S
atom 7.5033091564302490 5.0022060736438272 65.9698631287637056 S
atom 2.5011030827864182 10.0044121472876544 65.9698631287637056 S
atom 7.5033090645012441 10.0044121472876544 65.9698631287637056 S
atom 2.5011030519949813 5.0022060736438272 71.0114533374204910 S
atom 7.5033090952926802 5.0022060736438272 71.0114533374204910 S
atom 2.5011030216488468 10.0044121472876544 71.0114533374204910 S
atom 7.5033091256388111 10.0044121472876544 71.0114533374204910 S
atom 2.5011030368219136 2.5011030368219136 73.5465346543534224 Ba
atom 7.5033091104657421 2.5011030368219136 73.5465346543534224 Ba
atom 2.5011030368219136 7.5033091104657421 73.5465346543534224 Ba
atom 7.5033091104657421 7.5033091104657421 73.5465346543534224 Ba
atom 2.5011030368219136 2.5011030368219136 78.5795518499976708 Ba
atom 7.5033091104657421 2.5011030368219136 78.5795518499976708 Ba
atom 2.5011030368219136 7.5033091104657421 78.5795518499976708 Ba
atom 7.5033091104657421 7.5033091104657421 78.5795518499976708 Ba
atom 5.0022060736438272 5.0022060736438272 76.0560567326266295 Zr
atom 10.0044121472876544 5.0022060736438272 76.0560567326266295 Zr
atom 5.0022060736438272 10.0044121472876544 76.0560567326266295 Zr
atom 10.0044121472876544 10.0044121472876544 76.0560567326266295 Zr
atom 5.0022060736438272 5.0022060736438272 81.1030469673689680 Zr
atom 10.0044121472876544 5.0022060736438272 81.1030469673689680 Zr
atom 5.0022060736438272 10.0044121472876544 81.1030469673689680 Zr
atom 10.0044121472876544 10.0044121472876544 81.1030469673689680 Zr
atom 5.0022060736438272 5.0022060736438272 73.5335950729825072 S
atom 10.0044121472876544 5.0022060736438272 73.5335950729825072 S
atom 5.0022060736438272 10.0044121472876544 73.5335950729825072 S
atom 10.0044121472876544 10.0044121472876544 73.5335950729825072 S
atom 5.0022060736438272 5.0022060736438272 78.5795518499976708 S
atom 10.0044121472876544 5.0022060736438272 78.5795518499976708 S
atom 5.0022060736438272 10.0044121472876544 78.5795518499976708 S
atom 10.0044121472876544 10.0044121472876544 78.5795518499976708 S
atom 5.0022060736438272 2.5011030373189986 76.0565846730499260 S
atom 10.0044121472876544 2.5011030363248361 76.0565846730499260 S
atom 5.0022060736438272 7.5033091099686589 76.0565846730499260 S
atom 10.0044121472876544 7.5033091109628245 76.0565846730499260 S
atom 5.0022060736438272 2.5011030373189973 81.1025190269455862 S
atom 10.0044121472876544 2.5011030363248348 81.1025190269455862 S
atom 5.0022060736438272 7.5033091099686562 81.1025190269455862 S
atom 10.0044121472876544 7.5033091109628218 81.1025190269455862 S
atom 2.5011030363248352 5.0022060736438272 76.0565846730499260 S
atom 7.5033091109628227 5.0022060736438272 76.0565846730499260 S
atom 2.5011030373189977 10.0044121472876544 76.0565846730499260 S
atom 7.5033091099686589 10.0044121472876544 76.0565846730499260 S
atom 2.5011030363248370 5.0022060736438272 81.1025190269455862 S
atom 7.5033091109628227 5.0022060736438272 81.1025190269455862 S
atom 2.5011030373189986 10.0044121472876544 81.1025190269455862 S
atom 7.5033091099686562 10.0044121472876544 81.1025190269455862 S
atom 2.5011030368219136 2.5011030368219136 83.6125690456421751 Ba
atom 7.5033091104657421 2.5011030368219136 83.6125690456421751 Ba
atom 2.5011030368219136 7.5033091104657421 83.6125690456421751 Ba
atom 7.5033091104657421 7.5033091104657421 83.6125690456421751 Ba
atom 2.5011030368219136 2.5011030368219136 88.6373674890632941 Ba
atom 7.5033091104657421 2.5011030368219136 88.6373674890632941 Ba
atom 2.5011030368219136 7.5033091104657421 88.6373674890632941 Ba
atom 7.5033091104657421 7.5033091104657421 88.6373674890632941 Ba
atom 5.0022060736438272 5.0022060736438272 86.1506865252366509 Zr
atom 10.0044121472876544 5.0022060736438272 86.1506865252366509 Zr
atom 5.0022060736438272 10.0044121472876544 86.1506865252366509 Zr
atom 10.0044121472876544 10.0044121472876544 86.1506865252366509 Zr
atom 5.0022060736438272 5.0022060736438272 91.2006848683774365 Zr
atom 10.0044121472876544 5.0022060736438272 91.2006848683774365 Zr
atom 5.0022060736438272 10.0044121472876544 91.2006848683774365 Zr
atom 10.0044121472876544 10.0044121472876544 91.2006848683774365 Zr
atom 5.0022060736438272 5.0022060736438272 83.6255086270129055 S
atom 10.0044121472876544 5.0022060736438272 83.6255086270129055 S
atom 5.0022060736438272 10.0044121472876544 83.6255086270129055 S
atom 10.0044121472876544 10.0044121472876544 83.6255086270129055 S
atom 5.0022060736438272 5.0022060736438272 88.6710186233909354 S
atom 10.0044121472876544 5.0022060736438272 88.6710186233909354 S
atom 5.0022060736438272 10.0044121472876544 88.6710186233909354 S
atom 10.0044121472876544 10.0044121472876544 88.6710186233909354 S
atom 5.0022060736438272 2.5011030216488446 86.1476503625750638 S
atom 10.0044121472876544 2.5011030519949782 86.1476503625750638 S
atom 5.0022060736438272 7.5033091256388138 86.1476503625750638 S
atom 10.0044121472876544 7.5033090952926784 86.1476503625750638 S
atom 5.0022060736438272 2.5011030827864160 91.1892405712318066 S
atom 10.0044121472876544 2.5011029908574107 91.1892405712318066 S
atom 5.0022060736438272 7.5033090645012415 91.1892405712318066 S
atom 10.0044121472876544 7.5033091564302454 91.1892405712318066 S
atom 2.5011030519949831 5.0022060736438272 86.1476503625750638 S
atom 7.5033090952926793 5.0022060736438272 86.1476503625750638 S
atom 2.5011030216488459 10.0044121472876544 86.1476503625750638 S
atom 7.5033091256388120 10.0044121472876544 86.1476503625750638 S
atom 2.5011029908574134 5.0022060736438272 91.1892405712318066 S
atom 7.5033091564302463 5.0022060736438272 91.1892405712318066 S
atom 2.5011030827864182 10.0044121472876544 91.1892405712318066 S
atom 7.5033090645012415 10.0044121472876544 91.1892405712318066 S
atom 2.5011030368219136 2.5011030368219136 93.6456451165155812 Ba
atom 7.5033091104657421 2.5011030368219136 93.6456451165155812 Ba
atom 2.5011030368219136 7.5033091104657421 93.6456451165155812 Ba
atom 7.5033091104657421 7.5033091104657421 93.6456451165155812 Ba
atom 2.5011030368219136 2.5011030368219136 98.6035904785740911 Ba
atom 7.5033091104657421 2.5011030368219136 98.6035904785740911 Ba
atom 2.5011030368219136 7.5033091104657421 98.6035904785740911 Ba
atom 7.5033091104657421 7.5033091104657421 98.6035904785740911 Ba
atom 5.0022060736438272 5.0022060736438272 96.2559995673403108 Zr
atom 10.0044121472876544 5.0022060736438272 96.2559995673403108 Zr
atom 5.0022060736438272 10.0044121472876544 96.2559995673403108 Zr
atom 10.0044121472876544 10.0044121472876544 96.2559995673403108 Zr
atom 5.0022060736438272 5.0022060736438272 101.3454752195222710 Zr
atom 10.0044121472876544 5.0022060736438272 101.3454752195222710 Zr
atom 5.0022060736438272 10.0044121472876544 101.3454752195222710 Zr
atom 10.0044121472876544 10.0044121472876544 101.3454752195222710 Zr
atom 5.0022060736438272 5.0022060736438272 93.7156798325490428 S
atom 10.0044121472876544 5.0022060736438272 93.7156798325490428 S
atom 5.0022060736438272 10.0044121472876544 93.7156798325490428 S
atom 10.0044121472876544 10.0044121472876544 93.7156798325490428 S
atom 5.0022060736438272 5.0022060736438272 98.7603088706518122 S
atom 10.0044121472876544 5.0022060736438272 98.7603088706518122 S
atom 5.0022060736438272 10.0044121472876544 98.7603088706518122 S
atom 10.0044121472876544 10.0044121472876544 98.7603088706518122 S
atom 5.0022060736438272 2.5011039088334508 96.2296079038976870 S
atom 10.0044121472876544 2.5011021648103777 96.2296079038976870 S
atom 5.0022060736438272 7.5033082384542045 96.2296079038976870 S
atom 10.0044121472876544 7.5033099824772815 96.2296079038976870 S
atom 5.0022060736438272 2.5010955300519067 101.2356680119082597 S
atom 10.0044121472876544 2.5011105435919214 101.2356680119082597 S
atom 5.0022060736438272 7.5033166172357530 101.2356680119082597 S
atom 10.0044121472876544 7.5033016036957321 101.2356680119082597 S
atom 2.5011021648103782 5.0022060736438272 96.2296079038976870 S
atom 7.5033099824772860 5.0022060736438272 96.2296079038976870 S
atom 2.5011039088334526 10.0044121472876544 96.2296079038976870 S
atom 7.5033082384542054 10.0044121472876544 96.2296079038976870 S
atom 2.5011105435919236 5.0022060736438272 101.2356680119082597 S
atom 7.5033016036957338 5.0022060736438272 101.2356680119082597 S
atom 2.5010955300519084 10.0044121472876544 101.2356680119082597 S
atom 7.5033166172357557 10.0044121472876544 101.2356680119082597 S
atom 2.5011030368219136 2.5011030368219136 103.4144851183081499 Ba
atom 7.5033091104657421 2.5011030368219136 103.4144851183081499 Ba
atom 2.5011030368219136 7.5033091104657421 103.4144851183081499 Ba
atom 7.5033091104657421 7.5033091104657421 103.4144851183081499 Ba
atom 5.0022060736438272 5.0022060736438272 103.8513043902527215 S
atom 10.0044121472876544 5.0022060736438272 103.8513043902527215 S
atom 5.0022060736438272 10.0044121472876544 103.8513043902527215 S
atom 10.0044121472876544 10.0044121472876544 103.8513043902527215 S
