#=======================================================
# FHI-aims file: sym_relax/sym_relax_RP_3_RxRyRz_-RxRy0.in
# Created using the Atomic Simulation Environment (ASE)
# Fri Mar 14 10:25:41 2025
#=======================================================
lattice_vector 10.0410164480959931 -0.0044719600949253 -0.0131784768473285 
lattice_vector -0.0044719600949256 10.0410164480959914 0.0131784768473285 
lattice_vector -0.0489333476796304 0.0489333476796300 35.6922906496785970 
atom 0.0448060238051898 -0.1333714158006675 0.2378725501849088 Ba
atom 5.1538796398486735 -0.0470420038526529 0.2312833117612449 Ba
atom 0.1311354357532049 4.9757022002428055 0.2444617886085738 Ba
atom 5.0630782678057393 4.8849008281998660 0.2378725501849089 Ba
atom -0.2465841676585606 0.1958677694724885 4.9753458223737796 Ba
atom 4.8246404545755261 0.2443481876110979 4.9687565839501158 Ba
atom -0.1981037495199516 5.2670923917065515 4.9819350607974480 Ba
atom 4.7716880763419951 5.2141400134730382 4.9753458223737796 Ba
atom 2.4910807035909364 2.5265299309488372 2.3866605374456502 Zr
atom 7.5122505370997219 2.5249555603621410 2.3800712990219890 Zr
atom 2.4895063330042477 7.5476997644576063 2.3932497758693190 Zr
atom 7.5093529475914664 7.5448021749493748 2.3866605374456502 Zr
atom 2.4989416745670114 2.5193305694335240 7.4358938853496594 Zr
atom 7.5194498986150160 2.5170945893860672 7.4293046469259973 Zr
atom 2.4967056945195578 7.5398387934815263 7.4424831237733331 Zr
atom 7.5172139185675553 7.5376028134340629 7.4358938853496594 Zr
atom 2.6650286192938335 2.7930319753737192 -0.1152466457525938 S
atom 7.2457484926748323 2.3510076446592496 -0.1218358841762577 S
atom 2.2230042885793586 7.3737518487547113 -0.1086574073289293 S
atom 7.6833008632943871 7.8113042193742563 -0.1152466457525938 S
atom 2.2339856142551686 2.2131293309385103 4.9367713854594779 S
atom 7.8256511371100261 2.7820506496979109 4.9301821470358211 S
atom 2.8029069330145622 7.8047948537933847 4.9433606238831453 S
atom 7.2522578582557138 7.2314015749390608 4.9367713854594779 S
atom 2.7156293687378397 0.0244146816094273 2.2059798577454770 S
atom 7.2449080737917964 0.0254449187294619 2.7447510317111781 S
atom 2.2221638696963253 5.0481891228249269 2.7579295085585058 S
atom 7.7339016127383875 5.0426869256099636 2.2059798577454770 S
atom 2.8712124161702506 0.0058041979896466 7.7368170586661096 S
atom 7.1494151370592487 0.0101127367819401 7.1217922351858967 S
atom 2.1266709329637790 5.0328569408774113 7.1349707120332253 S
atom 7.8894846601708020 5.0240764419901875 7.7368170586661096 S
atom -0.0266506616568898 2.3048788553101600 2.2125690961691440 S
atom 4.9905913452236090 2.7938723942567507 2.7513402701348388 S
atom -0.0321528588718508 7.8166165983522289 2.7645187469821675 S
atom 4.9916215823436580 7.3231510993106967 2.2125690961691440 S
atom -0.0080401780371088 2.1492958078777527 7.7434062970897708 S
atom 5.0059235271711362 2.8893653309892913 7.1283814736095561 S
atom -0.0168206769243287 7.9121095350847730 7.1415599504568945 S
atom 5.0102320659634394 7.1675680518782947 7.7434062970897717 S
atom 0.2261952727920478 -0.1754788746059765 9.8964419483255526 Ba
atom 5.1959870986539825 -0.2284312528395112 9.8898527099018700 Ba
atom 0.1732428945585136 4.7943129512559652 9.9030311867491942 Ba
atom 5.2444675167925832 4.8427933693945713 9.8964419483255508 Ba
atom -0.0651949186717022 0.1537603106671798 14.6339152205144103 Ba
atom 4.8667479133808182 0.0629589386242391 14.6273259820907455 Ba
atom -0.1559962907146426 5.0857031427197033 14.6405044589380751 Ba
atom 4.9530773253288389 5.1720325546677239 14.6339152205144103 Ba
atom 2.5068026455430981 2.5121312079182125 12.4851272332536851 Zr
atom 7.5266492601303270 2.5092336184099864 12.4785379948300292 Zr
atom 2.5039050560348626 7.5319778225054570 12.4917164716773286 Zr
atom 7.5250748895436379 7.5304034519187573 12.4851272332536851 Zr
atom 2.7638977348788658 2.8255318079285376 9.9350163852398481 S
atom 7.2132486601200068 2.2521385290742142 9.9284271468161620 S
atom 2.1905044560245410 7.2748827331696715 9.9416056236634898 S
atom 7.7821699788794074 7.8438040519290730 9.9350163852398499 S
atom 2.3328547298402014 2.2456291634933327 14.9870344164519302 S
atom 7.7931513045552183 2.6831815341128804 14.9804451780282744 S
atom 2.7704071004597477 7.7059257382083493 14.9936236548755915 S
atom 7.3511269738407297 7.2639014074938739 14.9870344164519302 S
atom 2.7757194794377047 -0.0095279839578748 12.1138582621408339 S
atom 7.3049981844916623 -0.0084977468378409 12.6526294361065030 S
atom 2.2822539803961885 5.0142464572576246 12.6658079129538343 S
atom 7.7939917234382587 5.0087442600426524 12.1138582621408339 S
atom 0.0072920039104125 2.2447887446103008 12.1204475005645111 S
atom 5.0245340107909175 2.7337822835568932 12.6592186745301643 S
atom 0.0017898066954515 7.7565264876523505 12.6723971513775044 S
atom 5.0255642479109461 7.2630609886108424 12.1204475005645129 S
atom 2.6180357134754804 2.4888188037367236 18.0840533434324264 Ba
atom 7.5499616643118177 2.3980005504776036 18.0774641050087581 Ba
atom 2.5272174602163533 7.4207447545730734 18.0906425818560876 Ba
atom 7.6363079574760153 7.5070910477372710 18.0840533434324264 Ba
atom 2.2888060959562484 2.7801727076810696 22.8214680332743285 Ba
atom 7.2586077603674699 2.7272301679968374 22.8148787948506424 Ba
atom 2.2358635562720042 7.7499743720922947 22.8280572716979790 Ba
atom 7.3070783399567913 7.7984449516816277 22.8214680332743285 Ba
atom 4.9763701634833311 5.0608434657864096 20.2328168690154975 Zr
atom 9.9962092462626959 5.0579383444702728 20.2262276305918576 Zr
atom 4.9734650421672066 10.0806825485657718 20.2394061074391907 Zr
atom 9.9946424074838927 10.0791157097869437 20.2328168690155010 Zr
atom 4.9836111227274742 5.0529333652736153 25.2820392101888736 Zr
atom 10.0041193467754841 5.0506973852261448 25.2754499717652408 Zr
atom 4.9813751426800135 10.0734415893215967 25.2886284486125525 Zr
atom 10.0018833667280180 10.0712056092741733 25.2820392101888736 Zr
atom 4.7098374507109551 4.8868531071446260 17.7309179602887284 S
atom 10.1701996049044840 5.3244710572426666 17.7243287218650956 S
atom 5.1474554008090081 10.3472152613381514 17.7375071987123931 S
atom 9.7281096947115060 9.9051253511451645 17.7309179602887284 S
atom 5.2898398869631436 5.3179187753217683 22.7829171536133046 S
atom 9.7391339367273293 4.7444686209904736 22.7763279151896150 S
atom 4.7163897326318507 9.7672128250859522 22.7895063920369516 S
atom 10.3081121309636927 10.3361910193222748 22.7829171536133046 S
atom 4.7091622081840558 2.5613026562667733 20.5974959539245290 S
atom 10.2207549573829546 2.5558026220599763 20.0455152111969710 S
atom 5.1980107532874875 7.5785468261554474 20.0586936880442899 S
atom 9.7274344521845872 7.5795749002673123 20.5974959539245290 S
atom 4.6135998927994395 2.5459534644060460 24.9744701790040082 S
atom 10.3763665567509609 2.5371690620457077 25.5764297645264271 S
atom 5.3536223526554956 7.5599132661411783 25.5896082413737496 S
atom 9.6318721367999789 7.5642257084065925 24.9744701790040118 S
atom 2.4547336076863084 5.3296182598644890 20.6040851923482009 S
atom 7.4785058858936422 4.8362977546661332 20.0521044496206784 S
atom 2.4557616817981747 9.8590419587615798 20.0652829264679760 S
atom 7.4730058516868469 10.3478905038650524 20.6040851923482009 S
atom 2.4700827995470327 5.4251805752491098 24.9810594174276837 S
atom 7.4971394459079166 4.6806861552981083 25.5830190029500493 S
atom 2.4743952418124437 9.7034303593936002 25.5961974797974143 S
atom 7.4883550435475659 10.4434528192496430 24.9810594174276908 S
atom 2.6601439054981544 2.3074217788656113 27.7426103871034293 Ba
atom 7.7313586891829402 2.3558923584549194 27.7360211486797645 Ba
atom 2.7086144850874700 7.3786365625503789 27.7491996255270728 Ba
atom 7.6784161494986929 7.3256940228661440 27.7426103871034293 Ba
atom 2.3309142879789242 2.5987756828099542 32.4800250769452248 Ba
atom 7.4400047852385995 2.6851219759741523 32.4734358385215742 Ba
atom 2.4172605811431240 7.7078661800696162 32.4866143153689606 Ba
atom 7.3491865319794591 7.6170479268105016 32.4800250769452248 Ba
atom 4.9908520819715889 5.0450232647608315 30.3312615513622390 Zr
atom 10.0120294472882403 5.0434564259820256 30.3246723129385920 Zr
atom 4.9892852431928096 10.0662006300774571 30.3378507897859180 Zr
atom 10.0091243259721594 10.0632955087613585 30.3312615513622390 Zr
atom 4.6773823584917853 4.7879479552254756 27.7811612667644674 S
atom 10.2691047568236211 5.3569261494618337 27.7745720283407742 S
atom 5.2463605527281540 10.3796703535572856 27.7877505051880789 S
atom 9.6956546024923433 9.8062201992259848 27.7811612667644674 S
atom 5.2573847947439898 5.2190136234025948 32.8331604600890543 S
atom 9.8380390886464735 4.7769237132096265 32.8265712216653611 S
atom 4.8152948845510206 9.7996679173050953 32.8397496985126693 S
atom 10.2756570387445070 10.2372858674031484 32.8331604600890472 S
atom 4.7692114921674564 2.5273199043917765 30.5053847323334217 S
atom 10.2808042413663649 2.5218198701849888 29.9534039896058708 S
atom 5.2580600372708890 7.5445640742804461 29.9665824664531897 S
atom 9.7874837361680171 7.5455921483923154 30.5053847323334217 S
atom 2.4887163595613027 5.2695689758810920 30.5119739707570794 S
atom 7.5124886377686462 4.7762484706827211 29.9599932280295214 S
atom 2.4897444336731627 9.7989926747781855 29.9731717048768580 S
atom 7.5069886035618341 10.2878412198816580 30.5119739707570723 S
