#=======================================================
# FHI-aims file: sym_relax/sym_relax_RP_8_Rx00_0-Ry0.in
# Created using the Atomic Simulation Environment (ASE)
# Mon Mar 17 16:03:45 2025
#=======================================================
lattice_vector 10.0790081438019090 -0.0000000000000004 -0.0000000000000000 
lattice_vector -0.0000000000000004 10.0790081438019090 0.0000000000000000 
lattice_vector 0.0000000000000000 0.0000000000000000 84.9204786463310484 
atom -0.1683515097705695 0.0000000000000000 0.2889857617299612 Ba
atom 5.2078555816715326 -0.0000000000000000 0.2889857617299611 Ba
atom 0.1683515097705696 5.0395040719009581 0.2889857617299611 Ba
atom 4.8711525621303915 5.0395040719009581 0.2889857617299612 Ba
atom 0.0263144775347534 -0.0000000000000000 4.9618871697364764 Ba
atom 5.0131895943662048 0.0000000000000000 4.9618871697364764 Ba
atom -0.0263144775347534 5.0395040719009581 4.9618871697364764 Ba
atom 5.0658185494357157 5.0395040719009581 4.9618871697364764 Ba
atom 2.5197520359504790 2.4979624322499761 2.3388385193929175 Zr
atom 7.5592561078514393 2.5415416396509842 2.3388385193929175 Zr
atom 2.5197520359504790 7.5810457115519547 2.3388385193929175 Zr
atom 7.5592561078514393 7.5374665041509239 2.3388385193929175 Zr
atom 2.5197520359504790 2.5189125159086463 7.3540548454622403 Zr
atom 7.5592561078514393 2.5205915559923158 7.3540548454622403 Zr
atom 2.5197520359504790 7.5600956278932792 7.3540548454622403 Zr
atom 7.5592561078514393 7.5584165878096030 7.3540548454622403 Zr
atom 2.5197520359504790 2.8056811950511058 -0.1400967898740555 S
atom 7.5592561078514393 2.2338228768498478 -0.1400967898740555 S
atom 2.5197520359504790 7.2733269487508148 -0.1400967898740555 S
atom 7.5592561078514393 7.8451852669520639 -0.1400967898740555 S
atom 2.5197520359504790 2.0541286320310843 4.8839740134098095 S
atom 7.5592561078514393 2.9853754398698791 4.8839740134098095 S
atom 2.5197520359504790 8.0248795117708394 4.8839740134098095 S
atom 7.5592561078514393 7.0936327039320437 4.8839740134098095 S
atom 2.5197520359504790 0.0000000000000000 2.0404355603909901 S
atom 7.5592561078514393 0.0000000000000000 2.7808896572355062 S
atom 2.5197520359504790 5.0395040719009581 2.7808896572355062 S
atom 7.5592561078514393 5.0395040719009581 2.0404355603909901 S
atom 2.5197520359504790 0.0000000000000000 7.8311132571866731 S
atom 7.5592561078514393 0.0000000000000000 6.8957536254207836 S
atom 2.5197520359504790 5.0395040719009581 6.8957536254207836 S
atom 7.5592561078514393 5.0395040719009581 7.8311132571866731 S
atom 0.0000000000000000 2.5197520359504790 2.4778682555557414 S
atom 5.0395040719009581 2.5197520359504790 2.4778682555557414 S
atom -0.0000000000000000 7.5592561078514393 2.4778682555557414 S
atom 5.0395040719009581 7.5592561078514393 2.4778682555557414 S
atom 0.0000000000000000 2.5197520359504790 7.3737522207562982 S
atom 5.0395040719009581 2.5197520359504790 7.3737522207562982 S
atom -0.0000000000000000 7.5592561078514393 7.3737522207562982 S
atom 5.0395040719009581 7.5592561078514393 7.3737522207562982 S
atom -0.0069254466555983 0.0000000000000000 9.8594261574156086 Ba
atom 5.0464295185565646 0.0000000000000000 9.8594261574156086 Ba
atom 0.0069254466555983 5.0395040719009581 9.8594261574156086 Ba
atom 5.0325786252453542 5.0395040719009581 9.8594261574156086 Ba
atom 0.0067960695115498 0.0000000000000000 14.8009035181983553 Ba
atom 5.0327080023894091 0.0000000000000000 14.8009035181983553 Ba
atom -0.0067960695115498 5.0395040719009581 14.8009035181983553 Ba
atom 5.0463001414125177 5.0395040719009581 14.8009035181983553 Ba
atom 2.5197520359504790 2.5213944223561007 12.3135717540446983 Zr
atom 7.5592561078514393 2.5181096495448587 12.3135717540446983 Zr
atom 2.5197520359504790 7.5576137214458230 12.3135717540446983 Zr
atom 7.5592561078514393 7.5608984942570574 12.3135717540446983 Zr
atom 2.5197520359504790 2.5194577660385256 17.2707610420993873 Zr
atom 7.5592561078514393 2.5200463058624338 17.2707610420993873 Zr
atom 2.5197520359504790 7.5595503777633946 17.2707610420993873 Zr
atom 7.5592561078514393 7.5589618379394867 17.2707610420993873 Zr
atom 2.5197520359504790 3.0274944417715415 9.8409213362794627 S
atom 7.5592561078514393 2.0120096301294201 9.8409213362794627 S
atom 2.5197520359504790 7.0515137020303813 9.8409213362794627 S
atom 7.5592561078514393 8.0669985136724929 9.8409213362794627 S
atom 2.5197520359504790 2.0107511229813384 14.7945304725580424 S
atom 7.5592561078514393 3.0287529489196250 14.7945304725580424 S
atom 2.5197520359504790 8.0682570208205728 14.7945304725580424 S
atom 7.5592561078514393 7.0502551948822960 14.7945304725580424 S
atom 2.5197520359504790 0.0000000000000000 11.8418339435532349 S
atom 7.5592561078514393 0.0000000000000000 12.8019413786249636 S
atom 2.5197520359504790 5.0395040719009581 12.8019413786249636 S
atom 7.5592561078514393 5.0395040719009581 11.8418339435532349 S
atom 2.5197520359504790 0.0000000000000000 17.7538367745322105 S
atom 7.5592561078514393 0.0000000000000000 16.7917604576805211 S
atom 2.5197520359504790 5.0395040719009581 16.7917604576805211 S
atom 7.5592561078514393 5.0395040719009581 17.7538367745322105 S
atom -0.0000000000000000 2.5197520359504790 12.3219448595332803 S
atom 5.0395040719009581 2.5197520359504790 12.3219448595332803 S
atom 0.0000000000000000 7.5592561078514393 12.3219448595332803 S
atom 5.0395040719009581 7.5592561078514393 12.3219448595332803 S
atom -0.0000000000000000 2.5197520359504790 17.2723480674760381 S
atom 5.0395040719009581 2.5197520359504790 17.2723480674760381 S
atom -0.0000000000000000 7.5592561078514393 17.2723480674760381 S
atom 5.0395040719009581 7.5592561078514393 17.2723480674760381 S
atom -0.0061642334029622 0.0000000000000000 19.7489485224025714 Ba
atom 5.0456683053039253 0.0000000000000000 19.7489485224025714 Ba
atom 0.0061642334029622 5.0395040719009581 19.7489485224025714 Ba
atom 5.0333398384979970 5.0395040719009581 19.7489485224025714 Ba
atom 0.0067960695115498 0.0000000000000000 24.6969935266067750 Ba
atom 5.0327080023894091 0.0000000000000000 24.6969935266067750 Ba
atom -0.0067960695115498 5.0395040719009581 24.6969935266067750 Ba
atom 5.0463001414125177 5.0395040719009581 24.6969935266067750 Ba
atom 2.5197520359504790 2.5194577660385256 22.2271360027057554 Zr
atom 7.5592561078514393 2.5200463058624338 22.2271360027057554 Zr
atom 2.5197520359504790 7.5595503777633946 22.2271360027057554 Zr
atom 7.5592561078514393 7.5589618379394867 22.2271360027057554 Zr
atom 2.5197520359504790 2.5213944223561007 27.1843252907604267 Zr
atom 7.5592561078514393 2.5181096495448587 27.1843252907604267 Zr
atom 2.5197520359504790 7.5576137214458230 27.1843252907604267 Zr
atom 7.5592561078514393 7.5608984942570574 27.1843252907604267 Zr
atom 2.5197520359504790 3.0292146897276928 19.7489485224025714 S
atom 7.5592561078514393 2.0102893821732724 19.7489485224025714 S
atom 2.5197520359504790 7.0497934540742264 19.7489485224025714 S
atom 7.5592561078514393 8.0687187616286575 19.7489485224025714 S
atom 2.5197520359504790 2.0107511229813384 24.7033665722470914 S
atom 7.5592561078514393 3.0287529489196250 24.7033665722470914 S
atom 2.5197520359504790 8.0682570208205728 24.7033665722470914 S
atom 7.5592561078514393 7.0502551948822960 24.7033665722470914 S
atom 2.5197520359504790 0.0000000000000000 21.7440602702729073 S
atom 7.5592561078514393 0.0000000000000000 22.7061365871246146 S
atom 2.5197520359504790 5.0395040719009581 22.7061365871246146 S
atom 7.5592561078514393 5.0395040719009581 21.7440602702729073 S
atom 2.5197520359504790 0.0000000000000000 27.6560631012518954 S
atom 7.5592561078514393 0.0000000000000000 26.6959556661801720 S
atom 2.5197520359504790 5.0395040719009581 26.6959556661801720 S
atom 7.5592561078514393 5.0395040719009581 27.6560631012518954 S
atom -0.0000000000000000 2.5197520359504790 22.2255489773290975 S
atom 5.0395040719009581 2.5197520359504790 22.2255489773290975 S
atom -0.0000000000000000 7.5592561078514393 22.2255489773290975 S
atom 5.0395040719009581 7.5592561078514393 22.2255489773290975 S
atom 0.0000000000000000 2.5197520359504790 27.1759521852718642 S
atom 5.0395040719009581 2.5197520359504790 27.1759521852718642 S
atom 0.0000000000000000 7.5592561078514393 27.1759521852718642 S
atom 5.0395040719009581 7.5592561078514393 27.1759521852718642 S
atom -0.0069254466555983 0.0000000000000000 29.6384708873895093 Ba
atom 5.0464295185565646 0.0000000000000000 29.6384708873895093 Ba
atom 0.0069254466555983 5.0395040719009581 29.6384708873895093 Ba
atom 5.0325786252453542 5.0395040719009581 29.6384708873895093 Ba
atom 0.0263144775347534 0.0000000000000000 34.5360098750686504 Ba
atom 5.0131895943662048 0.0000000000000000 34.5360098750686504 Ba
atom -0.0263144775347534 5.0395040719009581 34.5360098750686504 Ba
atom 5.0658185494357157 5.0395040719009581 34.5360098750686504 Ba
atom 2.5197520359504790 2.5189125159086463 32.1438421993429202 Zr
atom 7.5592561078514393 2.5205915559923158 32.1438421993429202 Zr
atom 2.5197520359504790 7.5600956278932792 32.1438421993429202 Zr
atom 7.5592561078514393 7.5584165878096030 32.1438421993429202 Zr
atom 2.5197520359504790 2.4979624322499761 37.1590585254121706 Zr
atom 7.5592561078514393 2.5415416396509842 37.1590585254121706 Zr
atom 2.5197520359504790 7.5810457115519547 37.1590585254121706 Zr
atom 7.5592561078514393 7.5374665041509239 37.1590585254121706 Zr
atom 2.5197520359504790 3.0274944417715415 29.6569757085256533 S
atom 7.5592561078514393 2.0120096301294201 29.6569757085256533 S
atom 2.5197520359504790 7.0515137020303813 29.6569757085256533 S
atom 7.5592561078514393 8.0669985136724929 29.6569757085256533 S
atom 2.5197520359504790 2.0541286320310843 34.6139230313953377 S
atom 7.5592561078514393 2.9853754398698791 34.6139230313953377 S
atom 2.5197520359504790 8.0248795117708394 34.6139230313953377 S
atom 7.5592561078514393 7.0936327039320437 34.6139230313953377 S
atom 2.5197520359504790 0.0000000000000000 31.6667837876184599 S
atom 7.5592561078514393 0.0000000000000000 32.6021434193843334 S
atom 2.5197520359504790 5.0395040719009581 32.6021434193843334 S
atom 7.5592561078514393 5.0395040719009581 31.6667837876184599 S
atom 2.5197520359504790 0.0000000000000000 37.4574614844141323 S
atom 7.5592561078514393 0.0000000000000000 36.7170073875696090 S
atom 2.5197520359504790 5.0395040719009581 36.7170073875696090 S
atom 7.5592561078514393 5.0395040719009581 37.4574614844141323 S
atom 0.0000000000000000 2.5197520359504790 32.1241448240488481 S
atom 5.0395040719009581 2.5197520359504790 32.1241448240488481 S
atom -0.0000000000000000 7.5592561078514393 32.1241448240488481 S
atom 5.0395040719009581 7.5592561078514393 32.1241448240488481 S
atom 0.0000000000000000 2.5197520359504790 37.0200287892493876 S
atom 5.0395040719009581 2.5197520359504790 37.0200287892493876 S
atom -0.0000000000000000 7.5592561078514393 37.0200287892493876 S
atom 5.0395040719009581 7.5592561078514393 37.0200287892493876 S
atom -0.1683515097705695 0.0000000000000000 39.2089112830752455 Ba
atom 5.2078555816715326 0.0000000000000000 39.2089112830752455 Ba
atom 0.1683515097705696 5.0395040719009581 39.2089112830752455 Ba
atom 4.8711525621303915 5.0395040719009581 39.2089112830752455 Ba
atom 2.5197520359504790 2.8056811950511058 39.6379938346792144 S
atom 7.5592561078514393 2.2338228768498478 39.6379938346792144 S
atom 2.5197520359504790 7.2733269487508148 39.6379938346792144 S
atom 7.5592561078514393 7.8451852669520639 39.6379938346792144 S
atom 2.5197520359504790 2.6881035457210491 42.7492250848954498 Ba
atom 7.5592561078514393 2.3514005261799120 42.7492250848954498 Ba
atom 2.5197520359504790 7.3909045980808710 42.7492250848954498 Ba
atom 7.5592561078514393 7.7276076176220094 42.7492250848954498 Ba
atom 2.5197520359504790 2.4934375584157267 47.4221264929019739 Ba
atom 7.5592561078514393 2.5460665134852349 47.4221264929019739 Ba
atom 2.5197520359504790 7.5855705853861899 47.4221264929019739 Ba
atom 7.5592561078514393 7.5329416303166834 47.4221264929019739 Ba
atom 5.0612936756014699 5.0395040719009581 44.7990778425585106 Zr
atom 10.0572185401014167 5.0395040719009581 44.7990778425585106 Zr
atom 5.0177144682004489 10.0790081438019161 44.7990778425585106 Zr
atom 10.1007977475024262 10.0790081438019161 44.7990778425585106 Zr
atom 5.0403435919428050 5.0395040719009581 49.8142941686277467 Zr
atom 10.0781686237601011 5.0395040719009581 49.8142941686277467 Zr
atom 5.0386645518591244 10.0790081438019161 49.8142941686277467 Zr
atom 10.0798476638437489 10.0790081438019161 49.8142941686277467 Zr
atom 4.7535749128003371 5.0395040719009581 42.3201425332914809 S
atom 10.3649373029025522 5.0395040719009581 42.3201425332914809 S
atom 5.3254332310015888 10.0790081438019161 42.3201425332914809 S
atom 9.7930789847012853 10.0790081438019161 42.3201425332914809 S
atom 5.5051274758203554 5.0395040719009581 47.3442133365752795 S
atom 9.6133847398825427 5.0395040719009581 47.3442133365752795 S
atom 4.5738806679815625 10.0790081438019161 47.3442133365752795 S
atom 10.5446315477213037 10.0790081438019161 47.3442133365752795 S
atom 5.0395040719009581 2.5197520359504790 44.9381075787212438 S
atom 10.0790081438019161 2.5197520359504790 44.9381075787212438 S
atom 5.0395040719009581 7.5592561078514393 44.9381075787212438 S
atom 10.0790081438019161 7.5592561078514393 44.9381075787212438 S
atom 5.0395040719009581 2.5197520359504790 49.8339915439217833 S
atom 10.0790081438019161 2.5197520359504790 49.8339915439217833 S
atom 5.0395040719009581 7.5592561078514393 49.8339915439217833 S
atom 10.0790081438019161 7.5592561078514393 49.8339915439217833 S
atom 2.5197520359504790 5.0395040719009581 45.2411289804010863 S
atom 7.5592561078514393 5.0395040719009581 44.5006748835565276 S
atom 2.5197520359504790 10.0790081438019161 44.5006748835565276 S
atom 7.5592561078514393 10.0790081438019161 45.2411289804010863 S
atom 2.5197520359504790 5.0395040719009581 49.3559929485862980 S
atom 7.5592561078514393 5.0395040719009581 50.2913525803522603 S
atom 2.5197520359504790 10.0790081438019161 50.2913525803522603 S
atom 7.5592561078514393 10.0790081438019161 49.3559929485862980 S
atom 2.5197520359504790 2.5266774826060781 52.3196654805812358 Ba
atom 7.5592561078514393 2.5128265892948805 52.3196654805812358 Ba
atom 2.5197520359504790 7.5523306611958407 52.3196654805812358 Ba
atom 7.5592561078514393 7.5661815545070468 52.3196654805812358 Ba
atom 2.5197520359504790 2.5129559664389318 57.2611428413639203 Ba
atom 7.5592561078514393 2.5265481054620307 57.2611428413639203 Ba
atom 2.5197520359504790 7.5660521773629998 57.2611428413639203 Ba
atom 7.5592561078514393 7.5524600383398877 57.2611428413639203 Ba
atom 5.0378616854953391 5.0395040719009581 54.7738110772102402 Zr
atom 10.0806505302075404 5.0395040719009581 54.7738110772102402 Zr
atom 5.0411464583065753 10.0790081438019161 54.7738110772102402 Zr
atom 10.0773657573963078 10.0790081438019161 54.7738110772102402 Zr
atom 5.0397983418129142 5.0395040719009581 59.7310003652648902 Zr
atom 10.0787138738899618 5.0395040719009581 59.7310003652648902 Zr
atom 5.0392098019890055 10.0790081438019161 59.7310003652648902 Zr
atom 10.0793024137138740 10.0790081438019161 59.7310003652648902 Zr
atom 4.5317616660798956 5.0395040719009581 52.3011606594449532 S
atom 10.5867505496229803 5.0395040719009581 52.3011606594449532 S
atom 5.5472464777220223 10.0790081438019161 52.3011606594449532 S
atom 9.5712657379808732 10.0790081438019161 52.3011606594449532 S
atom 5.5485049848701120 5.0395040719009581 57.2547697957236110 S
atom 9.5700072308327879 5.0395040719009581 57.2547697957236110 S
atom 4.5305031589318165 10.0790081438019161 57.2547697957236110 S
atom 10.5880090567710550 10.0790081438019161 57.2547697957236110 S
atom 5.0395040719009581 2.5197520359504790 54.7821841826988134 S
atom 10.0790081438019161 2.5197520359504790 54.7821841826988134 S
atom 5.0395040719009581 7.5592561078514393 54.7821841826988134 S
atom 10.0790081438019161 7.5592561078514393 54.7821841826988134 S
atom 5.0395040719009581 2.5197520359504790 59.7325873906415197 S
atom 10.0790081438019161 2.5197520359504790 59.7325873906415197 S
atom 5.0395040719009581 7.5592561078514393 59.7325873906415197 S
atom 10.0790081438019161 7.5592561078514393 59.7325873906415197 S
atom 2.5197520359504790 5.0395040719009581 55.2621807017905269 S
atom 7.5592561078514393 5.0395040719009581 54.3020732667187502 S
atom 2.5197520359504790 10.0790081438019161 54.3020732667187502 S
atom 7.5592561078514393 10.0790081438019161 55.2621807017905269 S
atom 2.5197520359504790 5.0395040719009581 59.2519997808460346 S
atom 7.5592561078514393 5.0395040719009581 60.2140760976977560 S
atom 2.5197520359504790 10.0790081438019161 60.2140760976977560 S
atom 7.5592561078514393 10.0790081438019161 59.2519997808460346 S
atom 2.5197520359504790 2.5259162693534396 62.2091878455680884 Ba
atom 7.5592561078514393 2.5135878025475225 62.2091878455680884 Ba
atom 2.5197520359504790 7.5530918744484730 62.2091878455680884 Ba
atom 7.5592561078514393 7.5654203412544030 62.2091878455680884 Ba
atom 2.5197520359504790 2.5129559664389318 67.1572328497721713 Ba
atom 7.5592561078514393 2.5265481054620307 67.1572328497721713 Ba
atom 2.5197520359504790 7.5660521773629998 67.1572328497721713 Ba
atom 7.5592561078514393 7.5524600383398877 67.1572328497721713 Ba
atom 5.0397983418129142 5.0395040719009581 64.6873753258713720 Zr
atom 10.0787138738899618 5.0395040719009581 64.6873753258713720 Zr
atom 5.0392098019890055 10.0790081438019161 64.6873753258713720 Zr
atom 10.0793024137138740 10.0790081438019161 64.6873753258713720 Zr
atom 5.0378616854953391 5.0395040719009581 69.6445646139258940 Zr
atom 10.0806505302075404 5.0395040719009581 69.6445646139258940 Zr
atom 5.0411464583065753 10.0790081438019161 69.6445646139258940 Zr
atom 10.0773657573963078 10.0790081438019161 69.6445646139258940 Zr
atom 4.5300414181237496 5.0395040719009581 62.2091878455680884 S
atom 10.5884707975791343 5.0395040719009581 62.2091878455680884 S
atom 5.5489667256781683 10.0790081438019161 62.2091878455680884 S
atom 9.5695454900246997 10.0790081438019161 62.2091878455680884 S
atom 5.5485049848701120 5.0395040719009581 67.1636058954127719 S
atom 9.5700072308327879 5.0395040719009581 67.1636058954127719 S
atom 4.5305031589318165 10.0790081438019161 67.1636058954127719 S
atom 10.5880090567710550 10.0790081438019161 67.1636058954127719 S
atom 5.0395040719009581 2.5197520359504790 64.6857883004946927 S
atom 10.0790081438019161 2.5197520359504790 64.6857883004946927 S
atom 5.0395040719009581 7.5592561078514393 64.6857883004946927 S
atom 10.0790081438019161 7.5592561078514393 64.6857883004946927 S
atom 5.0395040719009581 2.5197520359504790 69.6361915084373919 S
atom 10.0790081438019161 2.5197520359504790 69.6361915084373919 S
atom 5.0395040719009581 7.5592561078514393 69.6361915084373919 S
atom 10.0790081438019161 7.5592561078514393 69.6361915084373919 S
atom 2.5197520359504790 5.0395040719009581 65.1663759102901281 S
atom 7.5592561078514393 5.0395040719009581 64.2042995934384351 S
atom 2.5197520359504790 10.0790081438019161 64.2042995934384351 S
atom 7.5592561078514393 10.0790081438019161 65.1663759102901281 S
atom 2.5197520359504790 5.0395040719009581 69.1561949893457495 S
atom 7.5592561078514393 5.0395040719009581 70.1163024244175119 S
atom 2.5197520359504790 10.0790081438019161 70.1163024244175119 S
atom 7.5592561078514393 10.0790081438019161 69.1561949893457495 S
atom 2.5197520359504790 2.5266774826060781 72.0987102105549837 Ba
atom 7.5592561078514393 2.5128265892948805 72.0987102105549837 Ba
atom 2.5197520359504790 7.5523306611958407 72.0987102105549837 Ba
atom 7.5592561078514393 7.5661815545070468 72.0987102105549837 Ba
atom 2.5197520359504790 2.4934375584157267 76.9962491982341959 Ba
atom 7.5592561078514393 2.5460665134852349 76.9962491982341959 Ba
atom 2.5197520359504790 7.5855705853861899 76.9962491982341959 Ba
atom 7.5592561078514393 7.5329416303166834 76.9962491982341959 Ba
atom 5.0403435919428050 5.0395040719009581 74.6040815225084231 Zr
atom 10.0781686237601011 5.0395040719009581 74.6040815225084231 Zr
atom 5.0386645518591244 10.0790081438019161 74.6040815225084231 Zr
atom 10.0798476638437489 10.0790081438019161 74.6040815225084231 Zr
atom 5.0612936756014699 5.0395040719009581 79.6192978485777019 Zr
atom 10.0572185401014167 5.0395040719009581 79.6192978485777019 Zr
atom 5.0177144682004489 10.0790081438019161 79.6192978485777019 Zr
atom 10.1007977475024262 10.0790081438019161 79.6192978485777019 Zr
atom 4.5317616660798956 5.0395040719009581 72.1172150316913445 S
atom 10.5867505496229803 5.0395040719009581 72.1172150316913445 S
atom 5.5472464777220223 10.0790081438019161 72.1172150316913445 S
atom 9.5712657379808732 10.0790081438019161 72.1172150316913445 S
atom 5.5051274758203554 5.0395040719009581 77.0741623545606700 S
atom 9.6133847398825427 5.0395040719009581 77.0741623545606700 S
atom 4.5738806679815625 10.0790081438019161 77.0741623545606700 S
atom 10.5446315477213037 10.0790081438019161 77.0741623545606700 S
atom 5.0395040719009581 2.5197520359504790 74.5843841472142657 S
atom 10.0790081438019161 2.5197520359504790 74.5843841472142657 S
atom 5.0395040719009581 7.5592561078514393 74.5843841472142657 S
atom 10.0790081438019161 7.5592561078514393 74.5843841472142657 S
atom 5.0395040719009581 2.5197520359504790 79.4802681124149615 S
atom 10.0790081438019161 2.5197520359504790 79.4802681124149615 S
atom 5.0395040719009581 7.5592561078514393 79.4802681124149615 S
atom 10.0790081438019161 7.5592561078514393 79.4802681124149615 S
atom 2.5197520359504790 5.0395040719009581 75.0623827425498860 S
atom 7.5592561078514393 5.0395040719009581 74.1270231107840090 S
atom 2.5197520359504790 10.0790081438019161 74.1270231107840090 S
atom 7.5592561078514393 10.0790081438019161 75.0623827425498860 S
atom 2.5197520359504790 5.0395040719009581 79.1772467107352185 S
atom 7.5592561078514393 5.0395040719009581 79.9177008075795925 S
atom 2.5197520359504790 10.0790081438019161 79.9177008075795925 S
atom 7.5592561078514393 10.0790081438019161 79.1772467107352185 S
atom 2.5197520359504790 2.6881035457210491 81.6691506062405637 Ba
atom 7.5592561078514393 2.3514005261799120 81.6691506062405637 Ba
atom 2.5197520359504790 7.3909045980808710 81.6691506062405637 Ba
atom 7.5592561078514393 7.7276076176220094 81.6691506062405637 Ba
atom 4.7535749128003371 5.0395040719009581 82.0982331578447173 S
atom 10.3649373029025522 5.0395040719009581 82.0982331578447173 S
atom 5.3254332310015888 10.0790081438019161 82.0982331578447173 S
atom 9.7930789847012853 10.0790081438019161 82.0982331578447173 S
