#=======================================================
# FHI-aims file: sym_relax/sym_relax_RP_3_00Mz1_00Mz2.in
# Created using the Atomic Simulation Environment (ASE)
# Fri Mar 14 10:22:30 2025
#=======================================================
lattice_vector 9.9102526489616256 0.0000147695549981 0.0000000000000000 
lattice_vector 0.0000147695549981 9.9102526489616221 0.0000000000000000 
lattice_vector 0.0000000000000000 0.0000000000000000 36.4536316254184598 
atom 0.0000000000000000 0.0000000000000000 0.1681665709491879 Ba
atom 4.9551263244808101 0.0000073847774989 0.1681665709491879 Ba
atom 0.0000073847774989 4.9551263244808075 0.1681665709491879 Ba
atom 4.9551337092583072 4.9551337092583028 0.1681665709491879 Ba
atom 0.0000000000000000 0.0000000000000000 5.0644122811039969 Ba
atom 4.9551263244808101 0.0000073847774989 5.0644122811039969 Ba
atom 0.0000073847774989 4.9551263244808075 5.0644122811039969 Ba
atom 4.9551337092583072 4.9551337092583028 5.0644122811039969 Ba
atom 2.4775668546291536 2.4775668546291514 2.4502804986499331 Zr
atom 7.4326931791099682 2.4775742394066516 2.4502804986499331 Zr
atom 2.4775742394066529 7.4326931791099620 2.4502804986499331 Zr
atom 7.4327005638874608 7.4327005638874590 2.4502804986499331 Zr
atom 2.4775668546291536 2.4775668546291514 7.5945065886288470 Zr
atom 7.4326931791099682 2.4775742394066516 7.5945065886288470 Zr
atom 2.4775742394066529 7.4326931791099620 7.5945065886288470 Zr
atom 7.4327005638874608 7.4327005638874590 7.5945065886288470 Zr
atom 2.4775668546291536 2.4775668546291514 -0.0969059509090610 S
atom 7.4326931791099682 2.4775742394066516 -0.0969059509090610 S
atom 2.4775742394066529 7.4326931791099620 -0.0969059509090610 S
atom 7.4327005638874608 7.4327005638874590 -0.0969059509090610 S
atom 2.4775668546291536 2.4775668546291514 5.0437221896319109 S
atom 7.4326931791099682 2.4775742394066516 5.0437221896319109 S
atom 2.4775742394066529 7.4326931791099620 5.0437221896319109 S
atom 7.4327005638874608 7.4327005638874590 5.0437221896319109 S
atom 2.0542919890360651 0.0000039447111446 2.5328634718134477 S
atom 7.8559606599255494 0.0000108248438532 2.5328634718134477 S
atom 2.9008417202222456 4.9551297645471628 2.5328634718134477 S
atom 7.0094256982943719 4.9551376539694472 2.5328634718134477 S
atom 3.0118488021744767 0.0000056959936416 7.5945065886288470 S
atom 6.8984038467871409 0.0000090735613562 7.5945065886288470 S
atom 1.9432849070838303 4.9551280132646616 7.5945065886288470 S
atom 7.9669825114327857 4.9551394052519475 7.5945065886288470 S
atom 0.0000034400663543 2.9008343354447437 2.5328634718134477 S
atom 4.9551302691919501 2.0542993738135635 2.5328634718134477 S
atom 0.0000113294886435 7.0094183135168642 2.5328634718134477 S
atom 4.9551371493246661 7.8559680447030473 2.5328634718134477 S
atom 0.0000016887838573 1.9432775223063301 7.5945065886288470 S
atom 4.9551320204744549 3.0118561869519769 7.5945065886288470 S
atom 0.0000130807711405 7.9669751266552851 7.5945065886288470 S
atom 4.9551353980421684 6.8984112315646353 7.5945065886288470 S
atom 0.0000000000000000 0.0000000000000000 10.1246008961536855 Ba
atom 4.9551263244808101 0.0000073847774989 10.1246008961536855 Ba
atom 0.0000073847774989 4.9551263244808075 10.1246008961536855 Ba
atom 4.9551337092583072 4.9551337092583028 10.1246008961536855 Ba
atom 0.0000000000000000 0.0000000000000000 15.0208466063084902 Ba
atom 4.9551263244808101 0.0000073847774989 15.0208466063084902 Ba
atom 0.0000073847774989 4.9551263244808075 15.0208466063084902 Ba
atom 4.9551337092583072 4.9551337092583028 15.0208466063084902 Ba
atom 2.4775668546291536 2.4775668546291514 12.7387326786077608 Zr
atom 7.4326931791099682 2.4775742394066516 12.7387326786077608 Zr
atom 2.4775742394066529 7.4326931791099620 12.7387326786077608 Zr
atom 7.4327005638874608 7.4327005638874590 12.7387326786077608 Zr
atom 2.4775668546291536 2.4775668546291514 10.1452909876257618 S
atom 7.4326931791099682 2.4775742394066516 10.1452909876257618 S
atom 2.4775742394066529 7.4326931791099620 10.1452909876257618 S
atom 7.4327005638874608 7.4327005638874590 10.1452909876257618 S
atom 2.4775668546291536 2.4775668546291514 15.2859191281667517 S
atom 7.4326931791099682 2.4775742394066516 15.2859191281667517 S
atom 2.4775742394066529 7.4326931791099620 15.2859191281667517 S
atom 7.4327005638874608 7.4327005638874590 15.2859191281667517 S
atom 2.0542919890360651 0.0000039447111446 12.6561497054442498 S
atom 7.8559606599255494 0.0000108248438532 12.6561497054442498 S
atom 2.9008417202222456 4.9551297645471628 12.6561497054442498 S
atom 7.0094256982943719 4.9551376539694472 12.6561497054442498 S
atom 0.0000034400663543 2.9008343354447437 12.6561497054442498 S
atom 4.9551302691919501 2.0542993738135635 12.6561497054442498 S
atom 0.0000113294886435 7.0094183135168642 12.6561497054442498 S
atom 4.9551371493246661 7.8559680447030473 12.6561497054442498 S
atom 2.4775668546291536 2.4775668546291514 18.3949489959618830 Ba
atom 7.4326931791099682 2.4775742394066516 18.3949489959618830 Ba
atom 2.4775742394066529 7.4326931791099620 18.3949489959618830 Ba
atom 7.4327005638874608 7.4327005638874590 18.3949489959618830 Ba
atom 2.4775668546291536 2.4775668546291514 23.2912261233051936 Ba
atom 7.4326931791099682 2.4775742394066516 23.2912261233051936 Ba
atom 2.4775742394066529 7.4326931791099620 23.2912261233051936 Ba
atom 7.4327005638874608 7.4327005638874590 23.2912261233051936 Ba
atom 4.9551337092583072 4.9551337092583028 20.6770781038003477 Zr
atom 9.9102600337391262 4.9551410940358078 20.6770781038003477 Zr
atom 4.9551410940358114 9.9102600337391209 20.6770781038003477 Zr
atom 9.9102674185166144 9.9102674185166055 20.6770781038003477 Zr
atom 4.9551337092583072 4.9551337092583028 25.8213224013380724 Zr
atom 9.9102600337391262 4.9551410940358078 25.8213224013380724 Zr
atom 4.9551410940358114 9.9102600337391209 25.8213224013380724 Zr
atom 9.9102674185166144 9.9102674185166055 25.8213224013380724 Zr
atom 4.9551337092583072 4.9551337092583028 18.1298818551739487 S
atom 9.9102600337391262 4.9551410940358078 18.1298818551739487 S
atom 4.9551410940358114 9.9102600337391209 18.1298818551739487 S
atom 9.9102674185166144 9.9102674185166055 18.1298818551739487 S
atom 4.9551337092583072 4.9551337092583028 23.2705236851735400 S
atom 9.9102600337391262 4.9551410940358078 23.2705236851735400 S
atom 4.9551410940358114 9.9102600337391209 23.2705236851735400 S
atom 9.9102674185166144 9.9102674185166055 23.2705236851735400 S
atom 4.5318423051854442 2.4775719682606643 20.7596631555156534 S
atom 10.3335440530344957 2.4775765105526402 20.7596631555156534 S
atom 5.3784251133311693 7.4326954502559479 20.7596631555156534 S
atom 9.4869760144437549 7.4327056775189666 20.7596631555156534 S
atom 5.4894055278490228 2.4775722420528736 25.8213224013380724 S
atom 9.3759808303709029 2.4775762367604290 25.8213224013380724 S
atom 4.4208618906675987 7.4326951764637403 25.8213224013380724 S
atom 10.4445392371073318 7.4327059513111742 25.8213224013380724 S
atom 2.4775691257751422 5.3784177285536785 20.7596631555156534 S
atom 7.4326982927414837 4.5318496899629341 20.7596631555156534 S
atom 2.4775793530381613 9.4869686296662454 20.7596631555156534 S
atom 7.4327028350334468 10.3335514378119697 20.7596631555156534 S
atom 2.4775688519829280 4.4208545058900874 25.8213224013380724 S
atom 7.4326985665336824 5.4894129126265216 25.8213224013380724 S
atom 2.4775796268303725 10.4445318523298258 25.8213224013380724 S
atom 7.4327025612412427 9.3759882151483964 25.8213224013380724 S
atom 2.4775668546291536 2.4775668546291514 28.3514186793709335 Ba
atom 7.4326931791099682 2.4775742394066516 28.3514186793709335 Ba
atom 2.4775742394066529 7.4326931791099620 28.3514186793709335 Ba
atom 7.4327005638874608 7.4327005638874590 28.3514186793709335 Ba
atom 2.4775668546291536 2.4775668546291514 33.2476958067143187 Ba
atom 7.4326931791099682 2.4775742394066516 33.2476958067143187 Ba
atom 2.4775742394066529 7.4326931791099620 33.2476958067143187 Ba
atom 7.4327005638874608 7.4327005638874590 33.2476958067143187 Ba
atom 4.9551337092583072 4.9551337092583028 30.9655666988758291 Zr
atom 9.9102600337391262 4.9551410940358078 30.9655666988758291 Zr
atom 4.9551410940358114 9.9102600337391209 30.9655666988758291 Zr
atom 9.9102674185166144 9.9102674185166055 30.9655666988758291 Zr
atom 4.9551337092583072 4.9551337092583028 28.3721211175026014 S
atom 9.9102600337391262 4.9551410940358078 28.3721211175026014 S
atom 4.9551410940358114 9.9102600337391209 28.3721211175026014 S
atom 9.9102674185166144 9.9102674185166055 28.3721211175026014 S
atom 4.9551337092583072 4.9551337092583028 33.5127629475021820 S
atom 9.9102600337391262 4.9551410940358078 33.5127629475021820 S
atom 4.9551410940358114 9.9102600337391209 33.5127629475021820 S
atom 9.9102674185166144 9.9102674185166055 33.5127629475021820 S
atom 4.5318423051854442 2.4775719682606643 30.8829816471604843 S
atom 10.3335440530344957 2.4775765105526402 30.8829816471604843 S
atom 5.3784251133311693 7.4326954502559479 30.8829816471604843 S
atom 9.4869760144437549 7.4327056775189666 30.8829816471604843 S
atom 2.4775691257751422 5.3784177285536785 30.8829816471604843 S
atom 7.4326982927414837 4.5318496899629341 30.8829816471604843 S
atom 2.4775793530381613 9.4869686296662454 30.8829816471604843 S
atom 7.4327028350334468 10.3335514378119697 30.8829816471604843 S
