#=======================================================
# FHI-aims file: sym_relax/sym_relax_RP_4_RxRy0_-Rx-Ry0.in
# Created using the Atomic Simulation Environment (ASE)
# Fri Mar 14 10:27:01 2025
#=======================================================
lattice_vector 10.0732780223876617 0.1037525525400659 -0.0000000000000000 
lattice_vector 0.1037525525400661 10.0732780223876617 0.0000000000000000 
lattice_vector -0.0000000000000000 0.0000000000000000 45.3555976865422181 
atom -0.1008591113833485 -0.1008591113833485 0.2835072916541951 Ba
atom 5.1374981225771856 0.1527353876533799 0.2835072916542019 Ba
atom 0.1527353876533819 5.1374981225771874 0.2835072916542019 Ba
atom 4.9876561760805274 4.9876561760805158 0.2835072916541951 Ba
atom -0.0059436652174621 -0.0059436652174625 4.9540331752589379 Ba
atom 5.0425826764112962 0.0578199414874939 4.9540331752589379 Ba
atom 0.0578199414874962 5.0425826764112909 4.9540331752589379 Ba
atom 5.0825716222464177 5.0825716222464070 4.9540331752589379 Ba
atom 2.5311997759264058 2.5311997759264044 2.3484167518680574 Zr
atom 7.5939545227313054 2.6091917878074948 2.3484167518680574 Zr
atom 2.6091917878074993 7.5939545227312912 2.3484167518680574 Zr
atom 7.6197150633902861 7.6197150633902710 2.3484167518680574 Zr
atom 2.5467454735827513 2.5467454735827446 7.3744659377247253 Zr
atom 7.5784088250749715 2.5936460901511538 7.3744659377247253 Zr
atom 2.5936460901511569 7.5784088250749564 7.3744659377247253 Zr
atom 7.6352607610466130 7.6352607610466059 7.3744659377247253 Zr
atom 2.7341515738934938 2.7341515738934863 -0.1354059084661139 S
atom 7.3910027247642311 2.4062399898404077 -0.1354059084661069 S
atom 2.4062399898404121 7.3910027247642160 -0.1354059084661069 S
atom 7.8226668613573640 7.8226668613573498 -0.1354059084661139 S
atom 2.2353142285652448 2.2353142285652421 4.8957144792650027 S
atom 7.8898400700924682 2.9050773351686563 4.8957144792650027 S
atom 2.9050773351686643 7.8898400700924549 4.8957144792650027 S
atom 7.3238295160291225 7.3238295160291038 4.8957144792650027 S
atom 2.5183195055969154 0.0259381381350157 2.1947459056767418 S
atom 7.5549585167907605 0.0778144144050471 2.7030936683328690 S
atom 2.5701957818669547 5.0625771493288481 2.7030936683328690 S
atom 7.6068347930607931 5.1144534255988798 2.1947459056767418 S
atom 2.5183195055969154 0.0259381381350157 7.7194778678833753 S
atom 7.5549585167907605 0.0778144144050471 7.0357231536818947 S
atom 2.5701957818669547 5.0625771493288481 7.0357231536818947 S
atom 7.6068347930607931 5.1144534255988798 7.7194778678833753 S
atom 0.0259381381350171 2.5183195055969172 2.1947459056767418 S
atom 5.0625771493288552 2.5701957818669472 2.7030936683328690 S
atom 0.0778144144050503 7.5549585167907498 2.7030936683328690 S
atom 5.1144534255988869 7.6068347930607807 2.1947459056767418 S
atom 0.0259381381350171 2.5183195055969172 7.7194778678833753 S
atom 5.0625771493288552 2.5701957818669472 7.0357231536818947 S
atom 0.0778144144050503 7.5549585167907498 7.0357231536818947 S
atom 5.1144534255988869 7.6068347930607807 7.7194778678833753 S
atom 0.0315822537711769 0.0315822537711765 9.8599125405526635 Ba
atom 5.0050567574226630 0.0202940224988549 9.8599125405526635 Ba
atom 0.0202940224988572 5.0050567574226585 9.8599125405526635 Ba
atom 5.1200975412350536 5.1200975412350509 9.8599125405526635 Ba
atom -0.0059436652174621 -0.0059436652174625 14.7657919058463953 Ba
atom 5.0425826764112971 0.0578199414874940 14.7657919058463953 Ba
atom 0.0578199414874962 5.0425826764112909 14.7657919058463953 Ba
atom 5.0825716222464177 5.0825716222464070 14.7657919058463953 Ba
atom 2.5467454735827513 2.5467454735827446 12.3453591433806036 Zr
atom 7.5784088250749715 2.5936460901511538 12.3453591433806036 Zr
atom 2.5936460901511569 7.5784088250749564 12.3453591433806036 Zr
atom 7.6352607610466130 7.6352607610466059 12.3453591433806036 Zr
atom 2.5311997759264058 2.5311997759264044 17.3714083292372550 Zr
atom 7.5939545227313054 2.6091917878074948 17.3714083292372550 Zr
atom 2.6091917878074993 7.5939545227312912 17.3714083292372550 Zr
atom 7.6197150633902861 7.6197150633902710 17.3714083292372550 Zr
atom 2.8901394860246756 2.8901394860246707 9.8599125405526635 S
atom 7.2350148126330431 2.2502520777092290 9.8599125405526635 S
atom 2.2502520777092307 7.2350148126330316 9.8599125405526635 S
atom 7.9786547734885476 7.9786547734885334 9.8599125405526635 S
atom 2.2353142285652448 2.2353142285652421 14.8241106018403297 S
atom 7.8898400700924682 2.9050773351686563 14.8241106018403297 S
atom 2.9050773351686643 7.8898400700924549 14.8241106018403297 S
atom 7.3238295160291225 7.3238295160291038 14.8241106018403297 S
atom 2.5183195055969154 0.0259381381350157 12.0003472132219464 S
atom 7.5549585167907605 0.0778144144050471 12.6841019274234377 S
atom 2.5701957818669547 5.0625771493288481 12.6841019274234377 S
atom 7.6068347930607931 5.1144534255988798 12.0003472132219464 S
atom 2.5183195055969154 0.0259381381350157 17.5250791754286155 S
atom 7.5549585167907605 0.0778144144050471 17.0167314127724580 S
atom 2.5701957818669547 5.0625771493288481 17.0167314127724580 S
atom 7.6068347930607931 5.1144534255988798 17.5250791754286155 S
atom 0.0259381381350171 2.5183195055969172 12.0003472132219464 S
atom 5.0625771493288552 2.5701957818669472 12.6841019274234377 S
atom 0.0778144144050503 7.5549585167907498 12.6841019274234377 S
atom 5.1144534255988869 7.6068347930607807 12.0003472132219464 S
atom 0.0259381381350171 2.5183195055969172 17.5250791754286155 S
atom 5.0625771493288552 2.5701957818669472 17.0167314127724580 S
atom 0.0778144144050503 7.5549585167907498 17.0167314127724580 S
atom 5.1144534255988869 7.6068347930607807 17.5250791754286155 S
atom -0.1008591113833481 -0.1008591113833485 19.4363177894511416 Ba
atom 5.1374981225771856 0.1527353876533799 19.4363177894511416 Ba
atom 0.1527353876533823 5.1374981225771874 19.4363177894511416 Ba
atom 4.9876561760805274 4.9876561760805158 19.4363177894511416 Ba
atom 2.7341515738934938 2.7341515738934863 19.8552309895714600 S
atom 7.3910027247642311 2.4062399898404077 19.8552309895714600 S
atom 2.4062399898404121 7.3910027247642160 19.8552309895714600 S
atom 7.8226668613573640 7.8226668613573498 19.8552309895714600 S
atom 2.6451167551152830 2.6451167551152786 22.9613061349253158 Ba
atom 7.4800375435424211 2.4952748086186203 22.9613061349253087 Ba
atom 2.4952748086186261 7.4800375435424176 22.9613061349253087 Ba
atom 7.7336320425791527 7.7336320425791474 22.9613061349253158 Ba
atom 2.5502013089494002 2.5502013089493945 27.6318320185300514 Ba
atom 7.5749529897083230 2.5901902547845030 27.6318320185300514 Ba
atom 2.5901902547845097 7.5749529897083088 27.6318320185300514 Ba
atom 7.6387165964132748 7.6387165964132571 27.6318320185300514 Ba
atom 5.1015731552694019 5.1015731552693939 25.0262155951391705 Zr
atom 10.1120964308521799 5.1273336959283737 25.0262155951391705 Zr
atom 5.1273336959283746 10.1120964308521639 25.0262155951391705 Zr
atom 10.1900884427332876 10.1900884427332610 25.0262155951391705 Zr
atom 5.0860274576130688 5.0860274576130617 30.0522647809958521 Zr
atom 10.1276421285085068 5.1428793935847024 30.0522647809958521 Zr
atom 5.1428793935847130 10.1276421285085050 30.0522647809958521 Zr
atom 10.1745427450769252 10.1745427450769217 30.0522647809958521 Zr
atom 4.8986213573023232 4.8986213573023178 22.5423929348049903 S
atom 10.3150482288192524 5.3302854938954489 22.5423929348049832 S
atom 5.3302854938954605 10.3150482288192560 22.5423929348049832 S
atom 9.9871366447661867 9.9871366447661742 22.5423929348049903 S
atom 5.3974587026305674 5.3974587026305532 27.5735133225360975 S
atom 9.8162108834910242 4.8314481485672083 27.5735133225360975 S
atom 4.8314481485672127 9.8162108834910082 27.5735133225360975 S
atom 10.4859739900944504 10.4859739900944184 27.5735133225360975 S
atom 5.0625771493288552 2.5701957818669472 25.3808925116039994 S
atom 10.0992161605226975 2.6220720581369803 24.8725447489478491 S
atom 5.1144534255988869 7.6068347930607807 24.8725447489478491 S
atom 10.1510924367927302 7.6587110693308107 25.3808925116039994 S
atom 5.0625771493288552 2.5701957818669472 29.7135219969529913 S
atom 10.0992161605226975 2.6220720581369803 30.3972767111544790 S
atom 5.1144534255988869 7.6068347930607807 30.3972767111544790 S
atom 10.1510924367927302 7.6587110693308107 29.7135219969529913 S
atom 2.5701957818669552 5.0625771493288481 25.3808925116039994 S
atom 7.6068347930607949 5.1144534255988798 24.8725447489478491 S
atom 2.6220720581369905 10.0992161605226869 24.8725447489478491 S
atom 7.6587110693308222 10.1510924367927071 25.3808925116039994 S
atom 2.5701957818669552 5.0625771493288481 29.7135219969529913 S
atom 7.6068347930607949 5.1144534255988798 30.3972767111544790 S
atom 2.6220720581369905 10.0992161605226869 30.3972767111544790 S
atom 7.6587110693308222 10.1510924367927071 29.7135219969529913 S
atom 2.5126753899607608 2.5126753899607581 32.5377113838237690 Ba
atom 7.6124789086969660 2.6277161737731376 32.5377113838237690 Ba
atom 2.6277161737731443 7.6124789086969455 32.5377113838237690 Ba
atom 7.6011906774246256 7.6011906774246221 32.5377113838237690 Ba
atom 2.5502013089493998 2.5502013089493945 37.4435907491175399 Ba
atom 7.5749529897083230 2.5901902547845030 37.4435907491175399 Ba
atom 2.5901902547845097 7.5749529897083088 37.4435907491175399 Ba
atom 7.6387165964132748 7.6387165964132571 37.4435907491175399 Ba
atom 5.0860274576130688 5.0860274576130617 35.0231579866517606 Zr
atom 10.1276421285085068 5.1428793935847024 35.0231579866517606 Zr
atom 5.1428793935847130 10.1276421285085050 35.0231579866517606 Zr
atom 10.1745427450769252 10.1745427450769217 35.0231579866517606 Zr
atom 5.1015731552694019 5.1015731552693939 40.0492071725083605 Zr
atom 10.1120964308521799 5.1273336959283737 40.0492071725083605 Zr
atom 5.1273336959283746 10.1120964308521639 40.0492071725083605 Zr
atom 10.1900884427332876 10.1900884427332610 40.0492071725083605 Zr
atom 4.7426334451711361 4.7426334451711316 32.5377113838237690 S
atom 10.4710361409504440 5.4862734060266316 32.5377113838237690 S
atom 5.4862734060266423 10.4710361409504387 32.5377113838237690 S
atom 9.8311487326350040 9.8311487326349969 32.5377113838237690 S
atom 5.3974587026305674 5.3974587026305532 37.5019094451113872 S
atom 9.8162108834910242 4.8314481485672083 37.5019094451113872 S
atom 4.8314481485672127 9.8162108834910082 37.5019094451113872 S
atom 10.4859739900944504 10.4859739900944184 37.5019094451113872 S
atom 5.0625771493288552 2.5701957818669472 35.3619007706945183 S
atom 10.0992161605226975 2.6220720581369803 34.6781460564930768 S
atom 5.1144534255988869 7.6068347930607807 34.6781460564930768 S
atom 10.1510924367927302 7.6587110693308107 35.3619007706945183 S
atom 5.0625771493288552 2.5701957818669472 39.6945302560435778 S
atom 10.0992161605226975 2.6220720581369803 40.2028780186996499 S
atom 5.1144534255988869 7.6068347930607807 40.2028780186996499 S
atom 10.1510924367927302 7.6587110693308107 39.6945302560435778 S
atom 2.5701957818669552 5.0625771493288481 35.3619007706945183 S
atom 7.6068347930607949 5.1144534255988798 34.6781460564930768 S
atom 2.6220720581369905 10.0992161605226869 34.6781460564930768 S
atom 7.6587110693308222 10.1510924367927071 35.3619007706945183 S
atom 2.5701957818669552 5.0625771493288481 39.6945302560435778 S
atom 7.6068347930607949 5.1144534255988798 40.2028780186996499 S
atom 2.6220720581369905 10.0992161605226869 40.2028780186996499 S
atom 7.6587110693308222 10.1510924367927071 39.6945302560435778 S
atom 2.6451167551152834 2.6451167551152790 42.1141166327222649 Ba
atom 7.4800375435424229 2.4952748086186198 42.1141166327222649 Ba
atom 2.4952748086186265 7.4800375435424176 42.1141166327222649 Ba
atom 7.7336320425791545 7.7336320425791474 42.1141166327222649 Ba
atom 4.8986213573023232 4.8986213573023178 42.5330298328425158 S
atom 10.3150482288192542 5.3302854938954489 42.5330298328425158 S
atom 5.3302854938954605 10.3150482288192560 42.5330298328425158 S
atom 9.9871366447661885 9.9871366447661742 42.5330298328425158 S
