#=======================================================
# FHI-aims file: sym_relax/sym_relax_RP_8_Rx1Ry20_Rx2Ry10.in
# Created using the Atomic Simulation Environment (ASE)
# Mon Mar 17 16:03:18 2025
#=======================================================
lattice_vector 10.0790204339956624 0.0378171474902587 0.0000000000000000 
lattice_vector 0.0378171474902588 10.0790204339956677 0.0000000000000000 
lattice_vector 0.0000000000000000 0.0000000000000000 84.8649042640529387 
atom -0.0112778001185581 -0.1489134166537407 0.2744830999125418 Ba
atom 5.0507880171164015 0.1678219903988698 0.2744830999125418 Ba
atom 0.0301863738636874 5.1884236336515901 0.2744830999125418 Ba
atom 5.0471409906244000 4.9095053740892327 0.2744830999125418 Ba
atom -0.0309113666564926 0.0255684337007472 4.9385760230648197 Ba
atom 5.0704215836543209 -0.0066598599556180 4.9385760230648197 Ba
atom 0.0498199404016218 5.0139417832970974 4.9385760230648197 Ba
atom 5.0275074240864770 5.0839872244437307 4.9385760230648197 Ba
atom 2.5172685250982880 2.5254076132104339 2.3228613018378219 Zr
atom 7.5806604826425037 2.5519197512776719 2.3228613018378219 Zr
atom 2.5600588393898041 7.5725213945304093 2.3228613018378219 Zr
atom 7.5756873158412485 7.5838264039533962 2.3228613018378219 Zr
atom 2.5282993676129761 2.5339311236453592 7.3372349560604651 Zr
atom 7.5696296401278111 2.5433962408427466 7.3372349560604651 Zr
atom 2.5490279968751137 7.5639978840954774 7.3372349560604651 Zr
atom 7.5867181583559447 7.5923499143883317 7.3372349560604651 Zr
atom 2.8759697819626697 2.5864494241165010 -0.1598564265964678 S
atom 7.2219592257781260 2.4908779403716017 -0.1598564265964678 S
atom 2.2013575825254210 7.5114795836243227 -0.1598564265964678 S
atom 7.9343885727056280 7.6448682148594793 -0.1598564265964678 S
atom 2.0698936250898288 2.4262474702071568 4.8651727152228048 S
atom 8.0280353826509536 2.6510798942809566 4.8651727152228048 S
atom 3.0074337393982677 7.6716815375336775 4.8651727152228048 S
atom 7.1283124158327906 7.4846662609501333 4.8651727152228048 S
atom 2.5197551084989152 0.0094542868725646 2.3701678759841158 S
atom 7.5592653254967450 0.0283628606176937 2.5356612482847569 S
atom 2.5386636822440418 5.0489645038704136 2.5356612482847569 S
atom 7.5781738992418779 5.0678730776155465 2.3701678759841158 S
atom 2.5197551084989152 0.0094542868725646 7.4979563557108060 S
atom 7.5592653254967450 0.0283628606176937 7.2010388904891629 S
atom 2.5386636822440418 5.0489645038704136 7.2010388904891629 S
atom 7.5781738992418779 5.0678730776155465 7.4979563557108060 S
atom 0.0094542868725646 2.5197551084989258 2.0167138805071505 S
atom 5.0489645038703905 2.5386636822440494 2.7922259055244338 S
atom 0.0283628606176938 7.5592653254967752 2.7922259055244338 S
atom 5.0678730776155154 7.5781738992419001 2.0167138805071505 S
atom 0.0094542868725646 2.5197551084989258 7.8024614079047003 S
atom 5.0489645038703905 2.5386636822440494 6.8912851190946078 S
atom 0.0283628606176938 7.5592653254967752 6.8912851190946078 S
atom 5.0678730776155154 7.5781738992419001 7.8024614079047003 S
atom 0.0636526742561309 -0.0049217805186133 9.8349179182393076 Ba
atom 4.9758575427417027 0.0238303542637424 9.8349179182393076 Ba
atom -0.0447441005110015 5.0444319975164706 9.8349179182393076 Ba
atom 5.1220714649990935 5.0534970102243593 9.8349179182393076 Ba
atom -0.0716474996466113 0.0031580699111771 14.7823454113595076 Ba
atom 5.1111577166444500 0.0157505038339520 14.7823454113595076 Ba
atom 0.0905560733917404 5.0363521470866779 14.7823454113595076 Ba
atom 4.9867712910963400 5.0615768606541502 14.7823454113595076 Ba
atom 2.5305314640623773 2.5273418396769745 12.2983797420543830 Zr
atom 7.5673975436784042 2.5499855248111349 12.2983797420543830 Zr
atom 2.5467959004257081 7.5705871680638532 12.2983797420543830 Zr
atom 7.5889502548053516 7.5857606304199496 12.2983797420543830 Zr
atom 2.5290023705419120 2.5297179264937557 17.2570608459783692 Zr
atom 7.5689266371988806 2.5476094379943586 17.2570608459783692 Zr
atom 2.5483249939461792 7.5682110812470809 17.2570608459783692 Zr
atom 7.5874211612848743 7.5881367172367229 17.2570608459783692 Zr
atom 3.0149705641843725 2.6812516007997242 9.8237816011676422 S
atom 7.0829584435564268 2.3960757636883883 9.8237816011676422 S
atom 2.0623568003037129 7.4166774069411083 9.8237816011676422 S
atom 8.0733893549273308 7.7396703915427087 9.8237816011676422 S
atom 2.0494459436574575 2.3514307513314399 14.7794088491601183 S
atom 8.0484830640833387 2.7258966131566673 14.7794088491601183 S
atom 3.0278814208306328 7.7464982564093949 14.7794088491601183 S
atom 7.1078647344004224 7.4098495420744257 14.7794088491601183 S
atom 2.5197551084989152 0.0094542868725646 12.1092476711596628 S
atom 7.5592653254967450 0.0283628606176937 12.4964064177805767 S
atom 2.5386636822440418 5.0489645038704136 12.4964064177805767 S
atom 7.5781738992418779 5.0678730776155465 12.1092476711596628 S
atom 2.5197551084989152 0.0094542868725646 17.4685589440942799 S
atom 7.5592653254967450 0.0283628606176937 17.0464050443798456 S
atom 2.5386636822440418 5.0489645038704136 17.0464050443798456 S
atom 7.5781738992418779 5.0678730776155465 17.4685589440942799 S
atom 0.0094542868725646 2.5197551084989258 11.8429725030275712 S
atom 5.0489645038703905 2.5386636822440494 12.7680530981489095 S
atom 0.0283628606176938 7.5592653254967752 12.7680530981489095 S
atom 5.0678730776155154 7.5781738992419001 11.8429725030275712 S
atom 0.0094542868725646 2.5197551084989258 17.7185194596125690 S
atom 5.0489645038703905 2.5386636822440494 16.7987489696492283 S
atom 0.0283628606176938 7.5592653254967752 16.7987489696492283 S
atom 5.0678730776155154 7.5781738992419001 17.7185194596125690 S
atom 0.0732583782876981 -0.0019875283911497 19.7360242474541892 Ba
atom 4.9662518387101366 0.0208961021362789 19.7360242474541892 Ba
atom -0.0543498045425690 5.0414977453890035 19.7360242474541892 Ba
atom 5.1316771690306577 5.0564312623518326 19.7360242474541892 Ba
atom -0.0716474996466113 0.0031580699111771 24.6897030835488209 Ba
atom 5.1111577166444500 0.0157505038339520 24.6897030835488209 Ba
atom 0.0905560733917403 5.0363521470866779 24.6897030835488209 Ba
atom 4.9867712910963400 5.0615768606541502 24.6897030835488209 Ba
atom 2.5290023705419120 2.5297179264937557 22.2149876489300198 Zr
atom 7.5689266371988806 2.5476094379943586 22.2149876489300198 Zr
atom 2.5483249939461792 7.5682110812470809 22.2149876489300198 Zr
atom 7.5874211612848743 7.5881367172367229 22.2149876489300198 Zr
atom 2.5305314640623773 2.5273418396769745 27.1736687528539704 Zr
atom 7.5673975436784042 2.5499855248111349 27.1736687528539704 Zr
atom 2.5467959004257081 7.5705871680638532 27.1736687528539704 Zr
atom 7.5889502548053516 7.5857606304199496 27.1736687528539704 Zr
atom 3.0066232807734363 2.7144529570687306 19.7360242474541892 S
atom 7.0913057269673461 2.3628744074193744 19.7360242474541892 S
atom 2.0707040837146580 7.3834760506721118 19.7360242474541892 S
atom 8.0650420715164000 7.7728717478117062 19.7360242474541892 S
atom 2.0494459436574575 2.3514307513314399 24.6926396457482724 S
atom 8.0484830640833387 2.7258966131566673 24.6926396457482724 S
atom 3.0278814208306328 7.7464982564093949 24.6926396457482724 S
atom 7.1078647344004224 7.4098495420744257 24.6926396457482724 S
atom 2.5197551084989152 0.0094542868725646 22.0034895508140629 S
atom 7.5592653254967450 0.0283628606176937 22.4256434505285576 S
atom 2.5386636822440418 5.0489645038704136 22.4256434505285576 S
atom 7.5781738992418779 5.0678730776155465 22.0034895508140629 S
atom 2.5197551084989152 0.0094542868725646 27.3628008237487137 S
atom 7.5592653254967450 0.0283628606176937 26.9756420771278265 S
atom 2.5386636822440418 5.0489645038704136 26.9756420771278265 S
atom 7.5781738992418779 5.0678730776155465 27.3628008237487137 S
atom 0.0094542868725646 2.5197551084989258 21.7535290352958057 S
atom 5.0489645038703905 2.5386636822440494 22.6732995252591323 S
atom 0.0283628606176938 7.5592653254967752 22.6732995252591323 S
atom 5.0678730776155154 7.5781738992419001 21.7535290352958057 S
atom 0.0094542868725646 2.5197551084989258 27.6290759918807716 S
atom 5.0489645038703905 2.5386636822440494 26.7039953967594634 S
atom 0.0283628606176938 7.5592653254967752 26.7039953967594634 S
atom 5.0678730776155154 7.5781738992419001 27.6290759918807716 S
atom 0.0636526742561309 -0.0049217805186133 29.6371305766690583 Ba
atom 4.9758575427417027 0.0238303542637424 29.6371305766690583 Ba
atom -0.0447441005110015 5.0444319975164706 29.6371305766690583 Ba
atom 5.1220714649990935 5.0534970102243593 29.6371305766690583 Ba
atom -0.0309113666564926 0.0255684337007472 34.5334724718436021 Ba
atom 5.0704215836543209 -0.0066598599556180 34.5334724718436021 Ba
atom 0.0498199404016218 5.0139417832970974 34.5334724718436021 Ba
atom 5.0275074240864770 5.0839872244437307 34.5334724718436021 Ba
atom 2.5282993676129761 2.5339311236453592 32.1348135388479790 Zr
atom 7.5696296401278111 2.5433962408427466 32.1348135388479790 Zr
atom 2.5490279968751137 7.5639978840954774 32.1348135388479790 Zr
atom 7.5867181583559447 7.5923499143883317 32.1348135388479790 Zr
atom 2.5172685250982880 2.5254076132104339 37.1491871930705386 Zr
atom 7.5806604826425037 2.5519197512776719 37.1491871930705386 Zr
atom 2.5600588393898041 7.5725213945304093 37.1491871930705386 Zr
atom 7.5756873158412485 7.5838264039533962 37.1491871930705386 Zr
atom 3.0149705641843725 2.6812516007997242 29.6482668937407077 S
atom 7.0829584435564268 2.3960757636883883 29.6482668937407077 S
atom 2.0623568003037129 7.4166774069411083 29.6482668937407077 S
atom 8.0733893549273308 7.7396703915427087 29.6482668937407077 S
atom 2.0698936250898288 2.4262474702071568 34.6068757796855806 S
atom 8.0280353826509536 2.6510798942809566 34.6068757796855806 S
atom 3.0074337393982677 7.6716815375336775 34.6068757796855806 S
atom 7.1283124158327906 7.4846662609501333 34.6068757796855806 S
atom 2.5197551084989152 0.0094542868725646 31.9740921391975377 S
atom 7.5592653254967450 0.0283628606176937 32.2710096044191985 S
atom 2.5386636822440418 5.0489645038704136 32.2710096044191985 S
atom 7.5781738992418779 5.0678730776155465 31.9740921391975377 S
atom 2.5197551084989152 0.0094542868725646 37.1018806189242198 S
atom 7.5592653254967450 0.0283628606176937 36.9363872466236529 S
atom 2.5386636822440418 5.0489645038704136 36.9363872466236529 S
atom 7.5781738992418779 5.0678730776155465 37.1018806189242198 S
atom 0.0094542868725646 2.5197551084989258 31.6695870870036842 S
atom 5.0489645038703905 2.5386636822440494 32.5807633758137598 S
atom 0.0283628606176938 7.5592653254967752 32.5807633758137598 S
atom 5.0678730776155154 7.5781738992419001 31.6695870870036842 S
atom 0.0094542868725646 2.5197551084989258 37.4553346144011741 S
atom 5.0489645038703905 2.5386636822440494 36.6798225893839316 S
atom 0.0283628606176938 7.5592653254967752 36.6798225893839316 S
atom 5.0678730776155154 7.5781738992419001 37.4553346144011741 S
atom -0.0112778001185581 -0.1489134166537408 39.1975653949958627 Ba
atom 5.0507880171164015 0.1678219903988698 39.1975653949958627 Ba
atom 0.0301863738636873 5.1884236336515901 39.1975653949958627 Ba
atom 5.0471409906244000 4.9095053740892327 39.1975653949958627 Ba
atom 2.8759697819626697 2.5864494241165010 39.6319049215048977 S
atom 7.2219592257781260 2.4908779403716017 39.6319049215048977 S
atom 2.2013575825254210 7.5114795836243227 39.6319049215048977 S
atom 7.9343885727056280 7.6448682148594793 39.6319049215048977 S
atom 2.3802959787177431 2.5179315952529309 42.7069352319390418 Ba
atom 7.7176330290230579 2.5593957692351754 42.7069352319390418 Ba
atom 2.6970313857703467 7.5799974124879030 42.7069352319390418 Ba
atom 7.4387147694606917 7.5763503859959007 42.7069352319390418 Ba
atom 2.5547778290722332 2.4982980287149950 47.3710281550913876 Ba
atom 7.5431511786685670 2.5790293357731131 47.3710281550913876 Ba
atom 2.5225495354158660 7.5996309790258243 47.3710281550913876 Ba
atom 7.6131966198152012 7.5567168194579866 47.3710281550913876 Ba
atom 5.0546170085818973 5.0464779204697940 44.7553134338643090 Zr
atom 10.1017307899018434 5.0892682347613016 44.7553134338643090 Zr
atom 5.0811291466491566 10.1098698780140150 44.7553134338643090 Zr
atom 10.1130357993248854 10.1048967112127741 44.7553134338643090 Zr
atom 5.0631405190168213 5.0575087629844759 49.7696870880869469 Zr
atom 10.0932072794669185 5.0782373922466126 49.7696870880869469 Zr
atom 5.0726056362142318 10.0988390354993527 49.7696870880869469 Zr
atom 10.1215593097597694 10.1159275537274489 49.7696870880869469 Zr
atom 5.1156588194879786 5.4051791773341744 42.2725957054299712 S
atom 10.0406889789957745 4.7305669778969150 42.2725957054299712 S
atom 5.0200873357430886 9.7511686211496471 42.2725957054299712 S
atom 10.1740776102309312 10.4635979680771332 42.2725957054299712 S
atom 4.9554568655786264 4.5991030204613246 47.2976248472492671 S
atom 10.2008909329051320 5.5366431347697684 47.2976248472492671 S
atom 5.1802892896524213 10.5572447780224845 47.2976248472492671 S
atom 10.0138756563215843 9.6575218112043064 47.2976248472492671 S
atom 5.0489645038703905 2.5386636822440494 44.4491660125337447 S
atom 10.0884747208682342 2.5575722559891818 45.2246780375509374 S
atom 5.0678730776155154 7.5781738992419001 45.2246780375509374 S
atom 10.1073832946133475 7.5970824729870374 44.4491660125337447 S
atom 5.0489645038703905 2.5386636822440494 50.2349135399312416 S
atom 10.0884747208682342 2.5575722559891818 49.3237372511210950 S
atom 5.0678730776155154 7.5781738992419001 49.3237372511210950 S
atom 10.1073832946133475 7.5970824729870374 50.2349135399312416 S
atom 2.5386636822440418 5.0489645038704136 44.8026200080105710 S
atom 7.5781738992418779 5.0678730776155465 44.9681133803111948 S
atom 2.5575722559891778 10.0884747208682608 44.9681133803111948 S
atom 7.5970824729870117 10.1073832946133866 44.8026200080105710 S
atom 2.5386636822440418 5.0489645038704136 49.9304084877372816 S
atom 7.5781738992418779 5.0678730776155465 49.6334910225156207 S
atom 2.5575722559891778 10.0884747208682608 49.6334910225156207 S
atom 7.5970824729870117 10.1073832946133866 49.9304084877372816 S
atom 2.5242876148528670 2.5928620696276194 52.2673700502658605 Ba
atom 7.5736413928879305 2.4844652948604855 52.2673700502658605 Ba
atom 2.5530397496352211 7.5050669381132078 52.2673700502658605 Ba
atom 7.5827064055958164 7.6512808603705995 52.2673700502658605 Ba
atom 2.5323674652826602 2.4575618957248793 57.2147975433860196 Ba
atom 7.5655615424581404 2.6197654687632292 57.2147975433860196 Ba
atom 2.5449598992054288 7.6403671120159453 57.2147975433860196 Ba
atom 7.5907862560256261 7.5159806864678531 57.2147975433860196 Ba
atom 5.0565512350484489 5.0597408594338846 54.7308318740809483 Zr
atom 10.0997965634352891 5.0760052957971986 54.7308318740809483 Zr
atom 5.0791949201826094 10.0966069390499555 54.7308318740809483 Zr
atom 10.1149700257914184 10.1181596501768425 54.7308318740809483 Zr
atom 5.0589273218652178 5.0582117659134083 59.6895129780049132 Zr
atom 10.0974204766185451 5.0775343893176714 59.6895129780049132 Zr
atom 5.0768188333658220 10.0981360325703911 59.6895129780049132 Zr
atom 10.1173461126081659 10.1166305566564052 59.6895129780049132 Zr
atom 5.2104609961711885 5.5441799595558718 52.2562337331941080 S
atom 9.9458868023125664 4.5915661956752212 52.2562337331941080 S
atom 4.9252851590598627 9.6121678389279221 52.2562337331941080 S
atom 10.2688797869141357 10.6025987502988546 52.2562337331941080 S
atom 4.8806401467029099 4.5786553390289599 57.2118609811866250 S
atom 10.2757076517808521 5.5570908162021260 57.2118609811866250 S
atom 5.2551060085281440 10.5776924594548500 57.2118609811866250 S
atom 9.9390589374458482 9.6370741297719498 57.2118609811866250 S
atom 5.0489645038703905 2.5386636822440494 54.2754246350540512 S
atom 10.0884747208682342 2.5575722559891818 55.2005052301754446 S
atom 5.0678730776155154 7.5781738992419001 55.2005052301754446 S
atom 10.1073832946133475 7.5970824729870374 54.2754246350540512 S
atom 5.0489645038703905 2.5386636822440494 60.1509715916391130 S
atom 10.0884747208682342 2.5575722559891818 59.2312011016757651 S
atom 5.0678730776155154 7.5781738992419001 59.2312011016757651 S
atom 10.1073832946133475 7.5970824729870374 60.1509715916391130 S
atom 2.5386636822440418 5.0489645038704136 54.5416998031861269 S
atom 7.5781738992418779 5.0678730776155465 54.9288585498070958 S
atom 2.5575722559891778 10.0884747208682608 54.9288585498070958 S
atom 7.5970824729870117 10.1073832946133866 54.5416998031861269 S
atom 2.5386636822440418 5.0489645038704136 59.9010110761208736 S
atom 7.5781738992418779 5.0678730776155465 59.4788571764064073 S
atom 2.5575722559891778 10.0884747208682608 59.4788571764064073 S
atom 7.5970824729870117 10.1073832946133866 59.9010110761208736 S
atom 2.5272218669803315 2.6024677736591890 62.1684763794806656 Ba
atom 7.5707071407604651 2.4748595908289128 62.1684763794806656 Ba
atom 2.5501054975077557 7.4954612340816498 62.1684763794806656 Ba
atom 7.5856406577232960 7.6608865644021629 62.1684763794806656 Ba
atom 2.5323674652826602 2.4575618957248793 67.1221552155753614 Ba
atom 7.5655615424581404 2.6197654687632292 67.1221552155753614 Ba
atom 2.5449598992054288 7.6403671120159453 67.1221552155753614 Ba
atom 7.5907862560256261 7.5159806864678531 67.1221552155753614 Ba
atom 5.0589273218652178 5.0582117659134083 64.6474397809565033 Zr
atom 10.0974204766185451 5.0775343893176714 64.6474397809565033 Zr
atom 5.0768188333658220 10.0981360325703911 64.6474397809565033 Zr
atom 10.1173461126081659 10.1166305566564052 64.6474397809565033 Zr
atom 5.0565512350484489 5.0597408594338846 69.6061208848803545 Zr
atom 10.0997965634352891 5.0760052957971986 69.6061208848803545 Zr
atom 5.0791949201826094 10.0966069390499555 69.6061208848803545 Zr
atom 10.1149700257914184 10.1181596501768425 69.6061208848803545 Zr
atom 5.2436623524401877 5.5358326761449392 62.1684763794806656 S
atom 9.9126854460435645 4.5999134790861529 62.1684763794806656 S
atom 4.8920838027908564 9.6205151223388672 62.1684763794806656 S
atom 10.3020811431831838 10.5942514668879095 62.1684763794806656 S
atom 4.8806401467029099 4.5786553390289599 67.1250917777748839 S
atom 10.2757076517808521 5.5570908162021260 67.1250917777748839 S
atom 5.2551060085281440 10.5776924594548500 67.1250917777748839 S
atom 9.9390589374458482 9.6370741297719498 67.1250917777748839 S
atom 5.0489645038703905 2.5386636822440494 64.1859811673221685 S
atom 10.0884747208682342 2.5575722559891818 65.1057516572855945 S
atom 5.0678730776155154 7.5781738992419001 65.1057516572855945 S
atom 10.1073832946133475 7.5970824729870374 64.1859811673221685 S
atom 5.0489645038703905 2.5386636822440494 70.0615281239074221 S
atom 10.0884747208682342 2.5575722559891818 69.1364475287859221 S
atom 5.0678730776155154 7.5781738992419001 69.1364475287859221 S
atom 10.1073832946133475 7.5970824729870374 70.0615281239074221 S
atom 2.5386636822440418 5.0489645038704136 64.4359416828406495 S
atom 7.5781738992418779 5.0678730776155465 64.8580955825549523 S
atom 2.5575722559891778 10.0884747208682608 64.8580955825549523 S
atom 7.5970824729870117 10.1073832946133866 64.4359416828406495 S
atom 2.5386636822440418 5.0489645038704136 69.7952529557750836 S
atom 7.5781738992418779 5.0678730776155465 69.4080942091543562 S
atom 2.5575722559891778 10.0884747208682608 69.4080942091543562 S
atom 7.5970824729870117 10.1073832946133866 69.7952529557750836 S
atom 2.5242876148528670 2.5928620696276194 72.0695827086954921 Ba
atom 7.5736413928879305 2.4844652948604855 72.0695827086954921 Ba
atom 2.5530397496352211 7.5050669381132078 72.0695827086954921 Ba
atom 7.5827064055958164 7.6512808603705995 72.0695827086954921 Ba
atom 2.5547778290722332 2.4982980287149950 76.9659246038700360 Ba
atom 7.5431511786685670 2.5790293357731131 76.9659246038700360 Ba
atom 2.5225495354158660 7.5996309790258243 76.9659246038700360 Ba
atom 7.6131966198152012 7.5567168194579866 76.9659246038700360 Ba
atom 5.0631405190168213 5.0575087629844759 74.5672656708744341 Zr
atom 10.0932072794669185 5.0782373922466126 74.5672656708744341 Zr
atom 5.0726056362142318 10.0988390354993527 74.5672656708744341 Zr
atom 10.1215593097597694 10.1159275537274489 74.5672656708744341 Zr
atom 5.0546170085818973 5.0464779204697940 79.5816393250970009 Zr
atom 10.1017307899018434 5.0892682347613016 79.5816393250970009 Zr
atom 5.0811291466491566 10.1098698780140150 79.5816393250970009 Zr
atom 10.1130357993248854 10.1048967112127741 79.5816393250970009 Zr
atom 5.2104609961711885 5.5441799595558718 72.0807190257672801 S
atom 9.9458868023125664 4.5915661956752212 72.0807190257672801 S
atom 4.9252851590598627 9.6121678389279221 72.0807190257672801 S
atom 10.2688797869141357 10.6025987502988546 72.0807190257672801 S
atom 4.9554568655786264 4.5991030204613246 77.0393279117121210 S
atom 10.2008909329051320 5.5366431347697684 77.0393279117121210 S
atom 5.1802892896524213 10.5572447780224845 77.0393279117121210 S
atom 10.0138756563215843 9.6575218112043064 77.0393279117121210 S
atom 5.0489645038703905 2.5386636822440494 74.1020392190302601 S
atom 10.0884747208682342 2.5575722559891818 75.0132155078403429 S
atom 5.0678730776155154 7.5781738992419001 75.0132155078403429 S
atom 10.1073832946133475 7.5970824729870374 74.1020392190302601 S
atom 5.0489645038703905 2.5386636822440494 79.8877867464277500 S
atom 10.0884747208682342 2.5575722559891818 79.1122747214104152 S
atom 5.0678730776155154 7.5781738992419001 79.1122747214104152 S
atom 10.1073832946133475 7.5970824729870374 79.8877867464277500 S
atom 2.5386636822440418 5.0489645038704136 74.4065442712239928 S
atom 7.5781738992418779 5.0678730776155465 74.7034617364457603 S
atom 2.5575722559891778 10.0884747208682608 74.7034617364457603 S
atom 7.5970824729870117 10.1073832946133866 74.4065442712239928 S
atom 2.5386636822440418 5.0489645038704136 79.5343327509507390 S
atom 7.5781738992418779 5.0678730776155465 79.3688393786502644 S
atom 2.5575722559891778 10.0884747208682608 79.3688393786502644 S
atom 7.5970824729870117 10.1073832946133866 79.5343327509507390 S
atom 2.3802959787177431 2.5179315952529309 81.6300175270224173 Ba
atom 7.7176330290230579 2.5593957692351754 81.6300175270224173 Ba
atom 2.6970313857703467 7.5799974124879030 81.6300175270224173 Ba
atom 7.4387147694606917 7.5763503859959007 81.6300175270224173 Ba
atom 5.1156588194879786 5.4051791773341744 82.0643570535313529 S
atom 10.0406889789957745 4.7305669778969150 82.0643570535313529 S
atom 5.0200873357430886 9.7511686211496471 82.0643570535313529 S
atom 10.1740776102309312 10.4635979680771332 82.0643570535313529 S
