#=======================================================
# FHI-aims file: sym_relax/sym_relax_RP_9_RxRyRz_RxRy0.in
# Created using the Atomic Simulation Environment (ASE)
# Mon Mar 17 17:01:37 2025
#=======================================================
lattice_vector 9.9751779056696286 -0.0419406014918965 -0.0031895126834321 
lattice_vector -0.0419406014918958 9.9751779056696215 0.0031895126834321 
lattice_vector -0.0292992724053605 0.0292992724053621 96.6455981035343541 
atom 0.0293302577972080 -0.1110138998113536 0.1108347932212759 Ba
atom 5.0986028526461560 -0.0503005585431568 0.1092400368795600 Ba
atom 0.0900435990654056 4.9582586950376237 0.1124295495629921 Ba
atom 4.9959489098860779 4.8556047522775145 0.1108347932212759 Ba
atom -0.2925315584413020 0.2147866041828545 4.9263290507177535 Ba
atom 4.7728023486519584 0.2715612576953555 4.9247342943760346 Ba
atom -0.2357569049288017 5.2801205112761176 4.9279238070594777 Ba
atom 4.6740870936475458 5.1814052562717263 4.9263290507177535 Ba
atom 2.4348232828687730 2.5258441684742636 2.3066966837298430 Zr
atom 7.4283634364493949 2.5108250684741469 2.3051019273881299 Zr
atom 2.4198041828686563 7.5193843220549157 2.3082914400715620 Zr
atom 7.4014419349576359 7.4924628205631167 2.3066966837298426 Zr
atom 2.3913782860125639 2.5380388999704349 7.3932676785135945 Zr
atom 7.4161687049532627 2.5542700653303569 7.3916729221718676 Zr
atom 2.4076094513724855 7.5628293189111186 7.3948624348553160 Zr
atom 7.3579969381014472 7.5046575520592942 7.3932676785135927 Zr
atom 2.5478860016203693 2.7166841184137160 -0.2051588211431652 S
atom 7.2375234865099571 2.3977623497225404 -0.2067535774848807 S
atom 2.2289642329292088 7.4063216033033035 -0.2035640648014490 S
atom 7.5145046537092410 7.6833027705025891 -0.2051588211431652 S
atom 2.2264915978896336 2.3037426497786551 4.8857604994990789 S
atom 7.6504649551450097 2.7191567534532792 4.8841657431573671 S
atom 2.6419057015642564 7.7277160070340507 4.8873552558407987 S
atom 7.1931102499785178 7.2703613018675428 4.8857604994990780 S
atom 2.7546610041278621 0.0445442545119567 2.1897282425954621 S
atom 7.0955281862265407 0.0256152296473455 2.6278758931754838 S
atom 2.0869689326457768 5.0341744832280977 2.6310654058589114 S
atom 7.7212796562167210 5.0111629066008359 2.1897282425954621 S
atom 2.9195095394819193 0.0499485718848336 7.6119868656894978 S
atom 6.9805664836045080 0.0290507768041538 7.2204627997543955 S
atom 1.9720072300237421 5.0376100303849238 7.2236523124378316 S
atom 7.8861281915707844 5.0165672239737109 7.6119868656894978 S
atom -0.0655145552579047 2.2329279487069558 2.1913229989371801 S
atom 4.9200331216955773 2.8586794186971463 2.6294706495172000 S
atom -0.0885261318851888 7.8672386722779155 2.6326601622006303 S
atom 4.9011040968309665 7.1995466007958298 2.1913229989371792 S
atom -0.0709188726307801 2.0680794133528897 7.6135816220312114 S
atom 4.9165975745387565 2.9736411213191722 7.2220575560961002 S
atom -0.0919616790419971 7.9822003748999526 7.2252470687795300 S
atom 4.8956997794581003 7.0346980654417424 7.6135816220312131 S
atom 0.0031005974288792 -0.0729022078712282 9.9489288226221486 Ba
atom 5.0604911607060137 -0.0240708981748271 9.9473340662804155 Ba
atom 0.0519319071252809 4.9844883554059338 9.9505235789638462 Ba
atom 4.9697192495177385 4.8937164442176471 9.9489288226221486 Ba
atom 0.0507039916888795 0.0070795310268127 15.0235397634422334 Ba
atom 4.9805094218080015 -0.0716742924348273 15.0219450071005252 Ba
atom -0.0280498317727598 4.9368849611459460 15.0251345197839683 Ba
atom 5.0173226437777467 4.9736981831156877 15.0235397634422316 Ba
atom 2.4869040495431163 2.4921522512035592 12.4727187038731859 Zr
atom 7.4620553537201229 2.4587443017998023 12.4711239475314990 Zr
atom 2.4534961001393567 7.4673035553805684 12.4743134602149244 Zr
atom 7.4535227016319769 7.4587709032924332 12.4727187038731859 Zr
atom 2.4802435165880397 2.4862060660552916 17.5614499223192659 Zr
atom 7.4680015388683936 2.4654048347548718 17.5598551659775381 Zr
atom 2.4594422852876292 7.4739640883356273 17.5630446786609724 Zr
atom 7.4468621686769012 7.4528247181441554 17.5614499223192624 Zr
atom 2.5586429338295331 2.6736287419308975 9.9443124121195243 S
atom 7.2805788629927610 2.3870054175133797 9.9427176557778161 S
atom 2.2720196094120220 7.3955646710941521 9.9459071684612468 S
atom 7.5252615859183889 7.6402473940197568 9.9443124121195243 S
atom 2.4068811931318401 2.4607332238332806 15.0235950547763260 S
atom 7.4934743810903699 2.5387671582110811 15.0220002984345875 S
atom 2.4849151275096339 7.5473264117918424 15.0251898111180573 S
atom 7.3734998452207243 7.4273518759221648 15.0235950547763260 S
atom 2.0033331343497478 0.0017051312170211 12.4210532143506196 S
atom 7.9924964333209889 -0.0173599910342386 12.5520263893952375 S
atom 2.9839371797402277 4.9911992625465222 12.5552159020786558 S
atom 6.9699517864386138 4.9683237833058849 12.4210532143506178 S
atom 3.0000062828067864 -0.0013402961676482 17.5899551046257763 S
atom 6.9659867780116569 -0.0231598211583494 17.5418820208100179 S
atom 1.9574275244309114 4.9853994324224145 17.5450715334935197 S
atom 7.9666249348956644 4.9652783559212077 17.5899551046257763 S
atom -0.0226754319629688 2.9842558184850589 12.4226479706923545 S
atom 4.9630083423771563 1.9617111716026936 12.5536211457369564 S
atom -0.0455509112036044 6.9702704251834540 12.5568106584203942 S
atom 4.9439432201259121 7.9508744705739227 12.4226479706923492 S
atom -0.0196300045782981 1.9875826700280337 17.5915498609675112 S
atom 4.9688081725012552 2.9882208269120119 17.5434767771517954 S
atom -0.0397510810794938 7.9967800804927851 17.5466662898352013 S
atom 4.9469886475105680 6.9542013221168855 17.5915498609675147 S
atom -0.0138422413852207 -0.0105160816479686 20.1083868371860817 Ba
atom 4.9981050344827800 -0.0071280593607271 20.1067920808443183 Ba
atom -0.0104542190979783 5.0014311942200358 20.1099815935277704 Ba
atom 4.9527764107036401 4.9561025704408950 20.1083868371860781 Ba
atom 0.0001082074452079 0.0242501155879822 25.1942372738456406 Ba
atom 4.9633388372468383 -0.0210785081911556 25.1926425175038879 Ba
atom -0.0452204163339289 4.9874807453896075 25.1958320301873506 Ba
atom 4.9667268595340639 4.9908687676768482 25.1942372738456442 Ba
atom 2.4764423090744305 2.4901763430144421 22.6513120555158345 Zr
atom 7.4640312619092297 2.4692060422684943 22.6497172991741209 Zr
atom 2.4554720083284800 7.4777652958492506 22.6529068118575374 Zr
atom 7.4430609611633081 7.4567949951033032 22.6513120555158345 Zr
atom 2.4726411015608019 2.4941466199735927 27.7411741887124172 Zr
atom 7.4600609849500961 2.4730072497821127 27.7395794323706788 Zr
atom 2.4515017313693264 7.4815665033628749 27.7427689450541379 Zr
atom 7.4392597536496972 7.4607652720624387 27.7411741887124172 Zr
atom 2.4941767387588154 2.5174627384236232 20.1084835096955494 S
atom 7.4367448665000246 2.4514716125841001 20.1068887533538607 S
atom 2.4281856129192971 7.4600308661648587 20.1100782660373056 S
atom 7.4607953908476823 7.4840813905125039 20.1084835096955494 S
atom 2.4587078793900345 2.4628899476052566 25.1941406013360663 S
atom 7.4913176573184224 2.4869404719528845 25.1925458449943491 S
atom 2.4827584037376678 7.4954997255336506 25.1957353576777798 S
atom 7.4253265314789001 7.4295085996941097 25.1941406013360627 S
atom 1.9755947578516171 -0.0039693605734984 22.6353028555021538 S
atom 7.9858491138779799 -0.0242372069783839 22.6641317428460773 S
atom 2.9772898602972360 4.9843220466023732 22.6673212555295542 S
atom 6.9422134099404866 4.9626492915153735 22.6353028555021503 S
atom 2.9954570937179423 -0.0050467463935333 27.7575525775381848 S
atom 6.9614375889228253 -0.0268662713842341 27.7094794937224584 S
atom 1.9528783353420764 4.9816929821965328 27.7126690064058891 S
atom 7.9620757458068026 4.9615719056953393 27.7575525775381848 S
atom -0.0170009401724489 3.0119941949832003 22.6368976118437715 S
atom 4.9698855583213053 1.9683584910456828 22.6657264991878371 S
atom -0.0386736952594592 6.9769177446264674 22.6689160118712749 S
atom 4.9496177119164289 7.9786128470720463 22.6368976118437750 S
atom -0.0159235543524145 1.9921318591168711 27.7591473338798735 S
atom 4.9725146227271546 2.9927700160008448 27.7110742500641472 S
atom -0.0360446308536091 8.0013292695816265 27.7142637627475779 S
atom 4.9506950977364470 6.9587505112057464 27.7591473338798806 S
atom -0.0644380256288923 0.0066545029132010 30.2790843475894675 Ba
atom 4.9809344499216222 0.0434677248829448 30.2774895912477291 Ba
atom -0.0276248036591475 5.0520269784637151 30.2806791039311491 Ba
atom 4.9021806264599848 4.9732731550020599 30.2790843475894675 Ba
atom -0.0168346313688920 0.0866362418112418 35.3536952884095115 Ba
atom 4.9009527110235833 -0.0041356693770554 35.3521005320678370 Ba
atom -0.1076065425571882 5.0044235842036988 35.3552900447512783 Ba
atom 4.9497840207199815 5.0532548939001076 35.3536952884095044 Ba
atom 2.4659805686057341 2.4882004348253184 32.8299054071584777 Zr
atom 7.4660071700983588 2.4796677827371796 32.8283106508166824 Zr
atom 2.4574479165176024 7.4882270363179426 32.8315001635000598 Zr
atom 7.4325992206946045 7.4548190869141937 32.8299054071584777 Zr
atom 2.5615063321362941 2.4423137860584432 37.9093564325180452 Zr
atom 7.5118938188652429 2.3841420192066298 37.9077616761763281 Zr
atom 2.5033345652844785 7.3927012727873871 37.9109511888597481 Zr
atom 7.5281249842251547 7.4089324381473203 37.9093564325180452 Zr
atom 2.5460034250170134 2.5196194621956018 30.2790290562553643 S
atom 7.4345881427280984 2.3996449263259074 30.2774342999136152 S
atom 2.4260288891473243 7.4082041799066625 30.2806238125970779 S
atom 7.5126220771058714 7.4862381142844567 30.2790290562553643 S
atom 2.3942416843193146 2.3067239440979850 35.3583116989122175 S
atom 7.6474836608257055 2.5514066670236062 35.3567169425704719 S
atom 2.6389244072449380 7.5599659206043643 35.3599064552538564 S
atom 7.3608603364081997 7.2733425961868479 35.3583116989122175 S
atom 1.9689474384086285 -0.0108465765176436 32.7474082089530398 S
atom 7.9581107373798305 -0.0299116987689034 32.8783813839976915 S
atom 2.9495514837990933 4.9786475548118547 32.8815708966810689 S
atom 6.9355660904974856 4.9557720755712209 32.7474082089530398 S
atom 2.9808773881251045 -0.0572573443560366 38.0789717985939191 S
atom 7.0419343322476697 -0.0781551394367160 37.6874477326587467 S
atom 2.0333750786669222 4.9304041141440447 37.6906372453421668 S
atom 7.9474960402139745 4.9093613077328380 38.0789717985939191 S
atom -0.0101237242283036 3.0186415144261889 32.7490029652947641 S
atom 4.9755600501118264 1.9960968675438233 32.8799761403394157 S
atom -0.0329992034689393 7.0046561211245804 32.8831656530228429 S
atom 4.9564949278605699 7.9852601665150464 32.7490029652947641 S
atom 0.0362870436100887 2.0067115647097058 38.0805665549356291 S
atom 5.0238034907796303 2.9122732726759959 37.6890424890004638 S
atom 0.0152442371988728 7.9208325262567598 37.6922320016838981 S
atom 5.0029056956989510 6.9733302167985523 38.0805665549356291 S
atom 0.2787975245012903 -0.2010525702428416 40.3762950603138933 Ba
atom 5.1886415230776475 -0.2997678252472375 40.3747003039721619 Ba
atom 0.1800822694968945 4.7087914283335222 40.3778898166555891 Ba
atom 5.2454161765901723 4.7655660818460168 40.3762950603138933 Ba
atom -0.0430642917372216 0.1247479337513669 45.1917893178104535 Ba
atom 4.8628410190834552 0.0220939909912741 45.1901945614687435 Ba
atom -0.1457182344973128 5.0306532445720435 45.1933840741521990 Ba
atom 4.9235543603516403 5.0913665858402251 45.1917893178104535 Ba
atom 2.5180613352800738 2.4545085175546193 42.9959274273017584 Zr
atom 7.4996990873690645 2.4275870160628426 42.9943326709599916 Zr
atom 2.4911398337883051 7.4361462696436105 42.9975221836435253 Zr
atom 7.4846799873689545 7.4211271696434835 42.9959274273017584 Zr
atom 2.7263930202592235 2.6766100362502239 40.4168636115326052 S
atom 7.2775975686734800 2.2192553310837004 40.4152688551908597 S
atom 2.2690383150926987 7.2278145846644639 40.4184583678743579 S
atom 7.6930116723480664 7.6432286883390761 40.4168636115326052 S
atom 2.4049986165284745 2.2636685676151629 45.5077829321748553 S
atom 7.6905390373085316 2.5406497348144432 45.5061881758331808 S
atom 2.6819797837277455 7.5492089883952129 45.5093776885166079 S
atom 7.3716172686173413 7.2302872197040289 45.5077829321748553 S
atom 2.8659156855030767 -0.0538217971992277 42.6715587051727425 S
atom 7.2067828676017553 -0.0727508220638390 43.1097063557528273 S
atom 2.1982236140209892 4.9358084315169286 43.1128958684363255 S
atom 7.8325343375919454 4.9127968548896366 42.6715587051727425 S
atom 0.0328514964532806 2.1216732673317344 42.6731534615145165 S
atom 5.0183991734067703 2.7474247373219325 43.1113011120945515 S
atom 0.0098399198259964 7.7559839909026866 43.1144906247779858 S
atom 4.9994701485421347 7.0882919194206062 42.6731534615145094 S
atom 2.5464227900316128 2.3386759505342782 48.6294772739911210 Ba
atom 7.6155316543893967 2.3992255613113098 48.6278825176494749 Ba
atom 2.6069724008086350 7.4077848148920591 48.6310720303327955 Ba
atom 7.5130414421204819 7.3052946026231380 48.6294772739911281 Ba
atom 2.1995564863010482 2.6945302637290935 53.4381409562706011 Ba
atom 7.2596773411945712 2.7460918650418735 53.4365461999288769 Ba
atom 2.2511180876138259 7.7546511186226255 53.4397357126123680 Ba
atom 7.1661751383899013 7.6611489158179475 53.4381409562706153 Ba
atom 4.9405258833476315 4.9857060996408569 50.8271749091450857 Zr
atom 9.9351201573716779 4.9717411200841433 50.8255801528034610 Zr
atom 4.9265609037909295 9.9803003736649281 50.8287696654868100 Zr
atom 9.9071445354365224 9.9523247517297193 50.8271749091450999 Zr
atom 4.9309922150982715 4.9979207798658161 55.8953145954287152 Zr
atom 9.9229054771466867 4.9812747883335176 55.8937198390870051 Zr
atom 4.9143462235659774 9.9898340419142748 55.8969093517704749 Zr
atom 9.8976108671871348 9.9645394319547123 55.8953145954287010 Zr
atom 5.0698091931145903 5.1939273790306437 48.3146822640893063 S
atom 9.7268988779818617 4.8424578103171685 48.3130875077475466 S
atom 4.7183396244011320 9.8510170638979417 48.3162770204310306 S
atom 10.0364278452034341 10.1605460311195390 48.3146822640892992 S
atom 4.6927704261063488 4.7090568672052155 53.3960681567290152 S
atom 10.2117693898073174 5.2194965773254367 53.3944734003871986 S
atom 5.2032101362265575 10.2280558309061931 53.3976629130706328 S
atom 9.6593890781952130 9.6756755192940815 53.3960681567290152 S
atom 5.2554864360875779 2.5055502841794297 50.6765582056414630 S
atom 9.5975488614614992 2.4876657643081028 51.1752570393468247 S
atom 4.5889896078807393 7.4962250178888672 51.1784465520302945 S
atom 10.2221050881764164 7.4721689362683010 50.6765582056414701 S
atom 5.3560047335881809 2.4998959693477469 56.2182189716639016 S
atom 9.5389473346326099 2.4825988614873977 55.6130868563344407 S
atom 4.5303880810518704 7.4911581150681439 55.6162763690178608 S
atom 10.3226233856770513 7.4665146214366178 56.2182189716638945 S
atom 2.4400980671634929 4.6987211688361095 50.6781529619832156 S
atom 7.4246012391236658 5.3232773955510462 51.1768517956885063 S
atom 2.4160419855429187 10.3318366491317963 51.1800413083719334 S
atom 7.4067167192523291 9.6653398209249737 50.6781529619832085 S
atom 2.4457523819951690 4.5982028713354834 56.2198137280056969 S
atom 7.4296681419443917 5.3818789223799151 55.6146816126762147 S
atom 2.4211088883636274 10.3904381759606892 55.6178711253596560 S
atom 7.4123710340840319 9.5648215234243565 56.2198137280056827 S
atom 2.7303577120582068 2.3288346968612919 58.4293928364422399 Ba
atom 7.6253729080623840 2.2152906392847180 58.4277980801005441 Ba
atom 2.6168136544816214 7.2238498928654815 58.4309875927839784 Ba
atom 7.6969763641470541 7.2954533489501685 58.4293928364422541 Ba
atom 2.1853460779997231 2.6865557383480456 63.4455521523732244 Ba
atom 7.2676518665756502 2.7603022733431870 63.4439573960315712 Ba
atom 2.2590926129948725 7.7688615269239660 63.4471469087149913 Ba
atom 7.1519647300885900 7.6531743904369192 63.4455521523732244 Ba
atom 4.9462136277879720 4.9897686915589210 60.9241889148520031 Zr
atom 9.9310575654536297 4.9660533756438294 60.9225941585103001 Zr
atom 4.9224983118728298 9.9746126292245805 60.9257836711936775 Zr
atom 9.9128322798767829 9.9563873436477710 60.9241889148520173 Zr
atom 4.9418787449540043 4.9903002497878495 65.9499061973765350 Zr
atom 9.9305260072247048 4.9703882584778061 65.9483114410351021 Zr
atom 4.9219667536439307 9.9789475120585873 65.9515009537184369 Zr
atom 9.9084973970428578 9.9569189018767474 65.9499061973765635 Zr
atom 5.2024499962910022 5.3075410803320411 58.4212255004145931 S
atom 9.6132851766805008 4.7098170071407823 58.4196307440728617 S
atom 4.6047259230997239 9.7183762607215360 58.4228202567562676 S
atom 10.1690686483798842 10.2741597324209089 58.4212255004145788 S
atom 4.6775569221444222 4.6710705917798965 63.4427013200851988 S
atom 10.2497556652326800 5.2347100812873775 63.4411065637436025 S
atom 5.2411964116518854 10.2432693348681738 63.4442960764269799 S
atom 9.6441755742332536 9.6376892438687705 63.4427013200851988 S
atom 5.3486903576887554 2.4948158876249549 60.6244713320419564 S
atom 9.5447597238068322 2.4768214587040722 61.2482251188698541 S
atom 4.5362004702260750 7.4853807122848357 61.2514146315532528 S
atom 10.3153090097776303 7.4614345397138280 60.6244713320419706 S
atom 5.3484941172249076 2.4947790076239480 66.2692104353140792 S
atom 9.5465501004824969 2.4771763912165441 65.6379971163049873 S
atom 4.5379908469017352 7.4857356447973000 65.6411866289882653 S
atom 10.3151127693137497 7.4613976597127989 66.2692104353140792 S
atom 2.4508324637179633 4.6055172472349124 60.6260660883836593 S
atom 7.4354455447277275 5.3760665332057194 61.2498198752114931 S
atom 2.4268862911469569 10.3846257867864935 61.2530093878949344 S
atom 7.4174511158068270 9.5721358993237811 60.6260660883836593 S
atom 2.4508693437189755 4.6057134876987771 66.2708051916559384 S
atom 7.4350906122152489 5.3742761565300317 65.6395918726467329 S
atom 2.4265313586344810 10.3828354101108111 65.6427813853301245 S
atom 7.4174879958078508 9.5723321397876635 66.2708051916559526 S
atom 2.7355539891415543 2.3267903539858312 68.4638579442365511 Ba
atom 7.6274172509378273 2.2100943622013705 68.4622631878948482 Ba
atom 2.6188579973570847 7.2186536157821477 68.4654527005781972 Ba
atom 7.7021726412304004 7.2934090060747145 68.4638579442365511 Ba
atom 2.1880313566019307 2.6828616044484095 73.4843642703293796 Ba
atom 7.2713460004752788 2.7576169947409768 73.4827695139875630 Ba
atom 2.2627867468945109 7.7661762483217354 73.4859590266711251 Ba
atom 7.1546500086908207 7.6494802565372799 73.4843642703293654 Ba
atom 4.9451019989161908 4.9881353052615545 70.9741111072830790 Zr
atom 9.9326909517510025 4.9671650045156044 70.9725163509411630 Zr
atom 4.9241316981702248 9.9757242580963723 70.9757058636246114 Zr
atom 9.9117206510050568 9.9547539573504231 70.9741111072830790 Zr
atom 4.9483252528783668 4.9859703607352701 75.9983160171891257 Zr
atom 9.9348558962773073 4.9639417505534142 75.9967212608476501 Zr
atom 4.9262966426965376 9.9725010041342017 75.9999107735310560 Zr
atom 9.9149439049672345 9.9525890128241219 75.9983160171891257 Zr
atom 5.2103352295294600 5.3096760103680198 68.4637441393343948 S
atom 9.6111502466445522 4.7019317739023165 68.4621493829928340 S
atom 4.6025909930637834 9.7104910274830996 68.4653388956763251 S
atom 10.1769538816183100 10.2762946624568592 68.4637441393344233 S
atom 4.6798687683028808 4.6665946001551015 73.4844780752313227 S
atom 10.2542316568574154 5.2323982351288940 73.4828833188896198 S
atom 5.2456724032766919 10.2409574887096557 73.4860728315731393 S
atom 9.6464874203917450 9.6332132522439853 73.4844780752313227 S
atom 5.3501538900575323 2.4928574686299028 70.6577901258020660 S
atom 9.5486093613555738 2.4748538883124458 71.2872425760803452 S
atom 4.5400501077748299 7.4834131418932079 71.2904320887637368 S
atom 10.3167725421464027 7.4594761207187625 70.6577901258020660 S
atom 5.3522131509306154 2.4905349657258080 76.3070355855775659 S
atom 9.5502691341882429 2.4729323493184001 75.6758222665683178 S
atom 4.5417098806074367 7.4814916028991734 75.6790117792518089 S
atom 10.3188318030194743 7.4571536178146793 76.3070355855775659 S
atom 2.4527908827130172 4.6040537148661693 70.6593848821438684 S
atom 7.4374131151193383 5.3722168956569618 71.2888373324221334 S
atom 2.4288538615385820 10.3807761492376969 71.2920268451053829 S
atom 7.4194095348018747 9.5706723669550353 70.6593848821438968 S
atom 2.4551133856171168 4.6019944539930613 76.3086303419192689 S
atom 7.4393346541133676 5.3705571228243469 75.6774170229099070 S
atom 2.4307754005326303 10.3791163764050722 75.6806065355935544 S
atom 7.4217320377059739 9.5686131060819442 76.3086303419192404 S
atom 2.7382392677437704 2.3230962200862022 78.5026700621927489 Ba
atom 7.6311113848374781 2.2074090835991549 78.5010753058510460 Ba
atom 2.6225521312567164 7.2159683371799197 78.5042648185343523 Ba
atom 7.7048579198326363 7.2897148721750709 78.5026700621927773 Ba
atom 2.1932276336852961 2.6808172615729422 83.5188293781235558 Ba
atom 7.2733903433507336 2.7524207176576243 83.5172346217819808 Ba
atom 2.2648310897699755 7.7609799712383980 83.5204241344653866 Ba
atom 7.1598462857741501 7.6474359136618233 83.5188293781235558 Ba
atom 4.9439903700443919 4.9865019189641808 81.0240332997138069 Zr
atom 9.9343243380483326 4.9682766333874024 81.0224385433720755 Zr
atom 4.9257650844676215 9.9768358869681659 81.0256280560556092 Zr
atom 9.9106090221332828 9.9531205710530593 81.0240332997138069 Zr
atom 4.9592117827340712 4.9783498306573035 86.0529076191371587 Zr
atom 9.9424764263552845 4.9530552206976974 86.0513128627954416 Zr
atom 4.9339171727744793 9.9616144742784876 86.0545023754791600 Zr
atom 9.9258304348229505 9.9449684827461358 86.0529076191371587 Zr
atom 5.2126470756879373 5.3052000187432116 78.5055208944805685 S
atom 9.6156262382693320 4.6996199277438331 78.5039261381389935 S
atom 4.6070669846885899 9.7081791813246205 78.5071156508223567 S
atom 10.1792657277768370 10.2718186708321095 78.5055208944805827 S
atom 4.6877540015413519 4.6687295301910643 83.5269967141510818 S
atom 10.2520967268214775 5.2245130018904495 83.5254019578092795 S
atom 5.2435374732407141 10.2330722554712210 83.5285914704928274 S
atom 9.6543726536302099 9.6353481822799445 83.5269967141510818 S
atom 5.3540035276062801 2.4908898982382790 80.6968075830123723 S
atom 9.5500728937243604 2.4728954693173835 81.3205613698405472 S
atom 4.5415136401435747 7.4814547228981603 81.3237508825238677 S
atom 10.3206221796951585 7.4575085503271508 80.6968075830123723 S
atom 5.3598159167804758 2.4851124954549446 86.3319458455479207 S
atom 9.5427585178249270 2.4678153875946052 85.7268137302184527 S
atom 4.5341992642441884 7.4763746411753500 85.7300032429020007 S
atom 10.3264345688693542 7.4517311475438337 86.3319458455479207 S
atom 2.4547584531046529 4.6002040773174029 80.6984023393541605 S
atom 7.4393715341143913 5.3707533632881947 81.3221561261823922 S
atom 2.4308122805336363 10.3793126168689884 81.3253456388657554 S
atom 7.4213771051934865 9.5668227294062582 80.6984023393542031 S
atom 2.4605358558879735 4.5943916881432081 86.3335406018898368 S
atom 7.4444516158371892 5.3780677391876246 85.7284084865602694 S
atom 2.4358923622564186 10.3866269927683810 85.7315979992436610 S
atom 7.4271545079768018 9.5610103402320270 86.3335406018898368 S
atom 2.7240288594424511 2.3151216947051512 88.5100812582953012 Ba
atom 7.6390859102185242 2.2216194919004759 88.5084865019534988 Ba
atom 2.6305266566377687 7.2301787454812452 88.5116760146368762 Ba
atom 7.6906475115313047 7.2817403467940203 88.5100812582953012 Ba
atom 2.3771625557118807 2.6709760078999589 93.3187449405749447 Ba
atom 7.2832315970237156 2.5684857956310423 93.3171501842334123 Ba
atom 2.2746723434429543 7.5770450492118062 93.3203396969167898 Ba
atom 7.3437812078007392 7.6375946599888298 93.3187449405749305 Ba
atom 4.9496781144847279 4.9905645108822378 91.1210473054207881 Zr
atom 9.9302617461302685 4.9625888889470726 91.1194525490789715 Zr
atom 4.9217024925495405 9.9711481425278414 91.1226420617624626 Zr
atom 9.9162967665735930 9.9571831629711323 91.1210473054207881 Zr
atom 5.1974335717260036 5.2672137433178969 88.5521540578373560 S
atom 9.6536125136946449 4.7148334317057863 88.5505593014953831 S
atom 4.6450532601138956 9.7233926852865409 88.5537488141788174 S
atom 10.1640522238148883 10.2338323954067345 88.5521540578373418 S
atom 4.8203948047177541 4.7823432314924661 93.6335399504764752 S
atom 10.1384830255200953 5.0918721987140430 93.6319451941348007 S
atom 5.1299237719393469 10.1004314522947833 93.6351347068182491 S
atom 9.7870134568066067 9.7489618835813125 93.6335399504764752 S
atom 5.3012143899516140 2.4800455926342395 90.7697756625355794 S
atom 9.6432768153255068 2.4621610727629171 91.2684744962409837 S
atom 4.6347175617447700 7.4707203263436721 91.2716640089243469 S
atom 10.2678330420404453 7.4466642447231104 90.7697756625355794 S
atom 2.4656027587086822 4.6529932149720832 90.7713704188772681 S
atom 7.4501059306688848 5.2775494416869986 91.2700692525825588 S
atom 2.4415466770881080 10.2861086952677603 91.2732587652659930 S
atom 7.4322214107975357 9.6196118670609430 90.7713704188772539 S
