#=======================================================
# FHI-aims file: sym_relax/sym_relax_RP_6_RxRy0_-Rx-Ry0.in
# Created using the Atomic Simulation Environment (ASE)
# Fri Mar 14 11:01:24 2025
#=======================================================
lattice_vector 10.0683602476400296 0.0964836052695002 -0.0000000000000000 
lattice_vector 0.0964836052695003 10.0683602476400260 0.0000000000000000 
lattice_vector -0.0000000000000000 0.0000000000000000 65.2159085621540697 
atom -0.0993579567907292 -0.0993579567907294 0.2801497962219034 Ba
atom 5.1335380806107418 0.1475997594254778 0.2801497962219034 Ba
atom 0.1475997594254794 5.1335380806107356 0.2801497962219035 Ba
atom 4.9830639696640393 4.9830639696640331 0.2801497962219035 Ba
atom -0.0075164249268772 -0.0075164249268776 4.9555556133556840 Ba
atom 5.0416965487468932 0.0557582275616261 4.9555556133556840 Ba
atom 0.0557582275616284 5.0416965487468923 4.9555556133556840 Ba
atom 5.0749055015278843 5.0749055015278781 4.9555556133556840 Ba
atom 2.5282908712271071 2.5282908712271008 2.3456718004804040 Zr
atom 7.5883111790476789 2.6023728578624064 2.3456718004804040 Zr
atom 2.6023728578624108 7.5883111790476701 2.3456718004804040 Zr
atom 7.6107127976818534 7.6107127976818560 2.3456718004804040 Zr
atom 2.5433186251559663 2.5433186251559650 7.3718323010880642 Zr
atom 7.5732834251187962 2.5873451039335436 7.3718323010880642 Zr
atom 2.5873451039335493 7.5732834251188015 7.3718323010880642 Zr
atom 7.6257405516107406 7.6257405516107397 7.3718323010880642 Zr
atom 2.7294715189766539 2.7294715189766552 -0.1382912004148721 S
atom 7.3871305312981201 2.4011922101128524 -0.1382912004148721 S
atom 2.4011922101128604 7.3871305312981113 -0.1382912004148721 S
atom 7.8118934454314202 7.8118934454314219 -0.1382912004148722 S
atom 2.2328238927883759 2.2328238927883692 4.8946525654540718 S
atom 7.8837781574863968 2.8978398363011371 4.8946525654540718 S
atom 2.8978398363011397 7.8837781574863950 4.8946525654540718 S
atom 7.3152458192431382 7.3152458192431302 4.8946525654540718 S
atom 2.5170900619100069 0.0241209013173743 2.1936508816593965 S
atom 7.5512701857300186 0.0723627039521228 2.7013616245024252 S
atom 2.5653318645447616 5.0583010251373848 2.7013616245024252 S
atom 7.5995119883647728 5.1065428277721319 2.1936508816593965 S
atom 2.5170900619100069 0.0241209013173743 7.7242158696310552 S
atom 7.5512701857300186 0.0723627039521228 7.0361876074110983 S
atom 2.5653318645447616 5.0583010251373848 7.0361876074110983 S
atom 7.5995119883647728 5.1065428277721319 7.7242158696310552 S
atom 0.0241209013173756 2.5170900619100052 2.1936508816593965 S
atom 5.0583010251373866 2.5653318645447549 2.7013616245024252 S
atom 0.0723627039521259 7.5512701857300160 2.7013616245024252 S
atom 5.1065428277721381 7.5995119883647684 2.1936508816593965 S
atom 0.0241209013173756 2.5170900619100052 7.7242158696310552 S
atom 5.0583010251373866 2.5653318645447549 7.0361876074110983 S
atom 0.0723627039521259 7.5512701857300160 7.0361876074110983 S
atom 5.1065428277721381 7.5995119883647684 7.7242158696310552 S
atom 0.0341988048121672 0.0341988048121667 9.8677176014746788 Ba
atom 4.9999813190078495 0.0140429978225818 9.8677176014746788 Ba
atom 0.0140429978225840 4.9999813190078468 9.8677176014746788 Ba
atom 5.1166207312669316 5.1166207312669254 9.8677176014746788 Ba
atom -0.0349542342272138 -0.0349542342272142 14.8217974004895670 Ba
atom 5.0691343580472319 0.0831960368619628 14.8217974004895670 Ba
atom 0.0831960368619648 5.0691343580472230 14.8217974004895670 Ba
atom 5.0474676922275421 5.0474676922275448 14.8217974004895670 Ba
atom 2.5415145439253926 2.5415145439253921 12.3393520573529525 Zr
atom 7.5750875063493854 2.5891491851641200 12.3393520573529525 Zr
atom 2.5891491851641222 7.5750875063493837 12.3393520573529525 Zr
atom 7.6239364703801442 7.6239364703801451 12.3393520573529525 Zr
atom 2.5415145439253926 2.5415145439253921 17.3042427436261725 Zr
atom 7.5750875063493854 2.5891491851641200 17.3042427436261725 Zr
atom 2.5891491851641222 7.5750875063493837 17.3042427436261725 Zr
atom 7.6239364703801442 7.6239364703801451 17.3042427436261725 Zr
atom 2.8909754216558055 2.8909754216558046 9.8610048716714989 S
atom 7.2256266286189659 2.2396883074337048 9.8610048716714989 S
atom 2.2396883074337088 7.2256266286189605 9.8610048716714989 S
atom 7.9733973481105691 7.9733973481105673 9.8610048716714989 S
atom 2.1877617055056606 2.1877617055056575 14.8217974004895670 S
atom 7.9288403447691218 2.9429020235838510 14.8217974004895670 S
atom 2.9429020235838492 7.9288403447691094 14.8217974004895670 S
atom 7.2701836319604345 7.2701836319604149 14.8217974004895670 S
atom 2.5170900619100069 0.0241209013173743 11.9800686848031201 S
atom 7.5512701857300186 0.0723627039521228 12.7066286748403829 S
atom 2.5653318645447616 5.0583010251373848 12.7066286748403829 S
atom 7.5995119883647728 5.1065428277721319 11.9800686848031201 S
atom 2.5170900619100069 0.0241209013173743 17.6635261161759836 S
atom 7.5512701857300186 0.0723627039521228 16.9369661261387350 S
atom 2.5653318645447616 5.0583010251373848 16.9369661261387350 S
atom 7.5995119883647728 5.1065428277721319 17.6635261161759836 S
atom 0.0241209013173756 2.5170900619100052 11.9800686848031201 S
atom 5.0583010251373866 2.5653318645447549 12.7066286748403829 S
atom 0.0723627039521259 7.5512701857300160 12.7066286748403829 S
atom 5.1065428277721381 7.5995119883647684 11.9800686848031201 S
atom 0.0241209013173756 2.5170900619100052 17.6635261161759836 S
atom 5.0583010251373866 2.5653318645447549 16.9369661261387350 S
atom 0.0723627039521259 7.5512701857300160 16.9369661261387350 S
atom 5.1065428277721381 7.5995119883647684 17.6635261161759836 S
atom 0.0341988048121671 0.0341988048121667 19.7758771995044320 Ba
atom 4.9999813190078495 0.0140429978225818 19.7758771995044320 Ba
atom 0.0140429978225840 4.9999813190078468 19.7758771995044320 Ba
atom 5.1166207312669316 5.1166207312669254 19.7758771995044320 Ba
atom -0.0075164249268772 -0.0075164249268776 24.6880391876234242 Ba
atom 5.0416965487468932 0.0557582275616261 24.6880391876234242 Ba
atom 0.0557582275616284 5.0416965487468923 24.6880391876234242 Ba
atom 5.0749055015278843 5.0749055015278781 24.6880391876234242 Ba
atom 2.5433186251559663 2.5433186251559650 22.2717624998911035 Zr
atom 7.5732834251187962 2.5873451039335436 22.2717624998911035 Zr
atom 2.5873451039335493 7.5732834251188015 22.2717624998911035 Zr
atom 7.6257405516107406 7.6257405516107397 22.2717624998911035 Zr
atom 2.5282908712271071 2.5282908712271008 27.2979230004987237 Zr
atom 7.5883111790476789 2.6023728578624064 27.2979230004987237 Zr
atom 2.6023728578624108 7.5883111790476701 27.2979230004987237 Zr
atom 7.6107127976818534 7.6107127976818560 27.2979230004987237 Zr
atom 2.8909754216558055 2.8909754216558046 19.7825899293076048 S
atom 7.2256266286189659 2.2396883074337048 19.7825899293076048 S
atom 2.2396883074337088 7.2256266286189605 19.7825899293076048 S
atom 7.9733973481105691 7.9733973481105673 19.7825899293076048 S
atom 2.2328238927883759 2.2328238927883701 24.7489422355250390 S
atom 7.8837781574863968 2.8978398363011371 24.7489422355250390 S
atom 2.8978398363011397 7.8837781574863950 24.7489422355250390 S
atom 7.3152458192431382 7.3152458192431302 24.7489422355250390 S
atom 2.5170900619100069 0.0241209013173743 21.9193789313480636 S
atom 7.5512701857300186 0.0723627039521228 22.6074071935680045 S
atom 2.5653318645447616 5.0583010251373848 22.6074071935680045 S
atom 7.5995119883647728 5.1065428277721319 21.9193789313480636 S
atom 2.5170900619100069 0.0241209013173743 27.4499439193197148 S
atom 7.5512701857300186 0.0723627039521228 26.9422331764766909 S
atom 2.5653318645447616 5.0583010251373848 26.9422331764766909 S
atom 7.5995119883647728 5.1065428277721319 27.4499439193197148 S
atom 0.0241209013173756 2.5170900619100052 21.9193789313480636 S
atom 5.0583010251373866 2.5653318645447549 22.6074071935680045 S
atom 0.0723627039521259 7.5512701857300160 22.6074071935680045 S
atom 5.1065428277721381 7.5995119883647684 21.9193789313480636 S
atom 0.0241209013173756 2.5170900619100052 27.4499439193197148 S
atom 5.0583010251373866 2.5653318645447549 26.9422331764766909 S
atom 0.0723627039521259 7.5512701857300160 26.9422331764766909 S
atom 5.1065428277721381 7.5995119883647684 27.4499439193197148 S
atom -0.0993579567907288 -0.0993579567907294 29.3634450047572422 Ba
atom 5.1335380806107418 0.1475997594254778 29.3634450047572422 Ba
atom 0.1475997594254799 5.1335380806107356 29.3634450047572422 Ba
atom 4.9830639696640393 4.9830639696640331 29.3634450047572422 Ba
atom 2.7294715189766530 2.7294715189766552 29.7818860013940068 S
atom 7.3871305312981193 2.4011922101128524 29.7818860013940068 S
atom 2.4011922101128600 7.3871305312981113 29.7818860013940068 S
atom 7.8118934454314184 7.8118934454314219 29.7818860013940068 S
atom 2.6405689200181124 2.6405689200181097 32.8881040772990332 Ba
atom 7.4760331302566598 2.4900948090713992 32.8881040772990332 Ba
atom 2.4900948090714015 7.4760331302566554 32.8881040772990332 Ba
atom 7.7229908464728716 7.7229908464728680 32.8881040772990332 Ba
atom 2.5487273881542576 2.5487273881542571 37.5635098944327410 Ba
atom 7.5678746621205093 2.5819363409352518 37.5635098944327410 Ba
atom 2.5819363409352549 7.5678746621205057 37.5635098944327410 Ba
atom 7.6311493146090221 7.6311493146090168 37.5635098944327410 Ba
atom 5.0953420184550433 5.0953420184550380 34.9536260815574309 Zr
atom 10.1036819582744926 5.1177436370892293 34.9536260815574309 Zr
atom 5.1177436370892302 10.1036819582744890 34.9536260815574309 Zr
atom 10.1777639449097990 10.1777639449097936 34.9536260815574309 Zr
atom 5.0803142645261676 5.0803142645261632 39.9797865821650831 Zr
atom 10.1187097122033620 5.1327713910181041 39.9797865821650831 Zr
atom 5.1327713910181068 10.1187097122033585 39.9797865821650831 Zr
atom 10.1627361909809508 10.1627361909809366 39.9797865821650831 Zr
atom 4.8941613707054881 4.8941613707054792 32.4696630806621442 S
atom 10.3048626060240576 5.3189242848387881 32.4696630806621442 S
atom 5.3189242848387819 10.3048626060240380 32.4696630806621442 S
atom 9.9765832971602570 9.9765832971602411 32.4696630806621442 S
atom 5.3908089968937674 5.3908089968937656 37.5026068465310729 S
atom 9.8082149798357694 4.8222766586504955 37.5026068465310729 S
atom 4.8222766586505035 9.8082149798357694 37.5026068465310729 S
atom 10.4732309233485346 10.4732309233485257 37.5026068465310729 S
atom 5.0583010251373866 2.5653318645447549 35.3093159055794388 S
atom 10.0924811489573880 2.6135736671795033 34.8016051627364575 S
atom 5.1065428277721381 7.5995119883647684 34.8016051627364575 S
atom 10.1407229515921475 7.6477537909995119 35.3093159055794388 S
atom 5.0583010251373866 2.5653318645447549 39.6441418884881358 S
atom 10.0924811489573880 2.6135736671795033 40.3321701507080945 S
atom 5.1065428277721381 7.5995119883647684 40.3321701507080945 S
atom 10.1407229515921475 7.6477537909995119 39.6441418884881358 S
atom 2.5653318645447620 5.0583010251373848 35.3093159055794388 S
atom 7.5995119883647746 5.1065428277721319 34.8016051627364575 S
atom 2.6135736671795065 10.0924811489573933 34.8016051627364575 S
atom 7.6477537909995252 10.1407229515921511 35.3093159055794388 S
atom 2.5653318645447620 5.0583010251373848 39.6441418884881358 S
atom 7.5995119883647746 5.1065428277721319 40.3321701507080945 S
atom 2.6135736671795065 10.0924811489573933 40.3321701507080945 S
atom 7.6477537909995252 10.1407229515921511 39.6441418884881358 S
atom 2.5070121584152210 2.5070121584152121 42.4756718825516941 Ba
atom 7.6095898918595672 2.6236515706742911 42.4756718825516941 Ba
atom 2.6236515706742951 7.6095898918595610 42.4756718825516941 Ba
atom 7.5894340848699757 7.5894340848699704 42.4756718825516941 Ba
atom 2.5761651974545936 2.5761651974545949 47.4297516815666000 Ba
atom 7.5404368528201795 2.5544985316349176 47.4297516815666000 Ba
atom 2.5544985316349207 7.5404368528201742 47.4297516815666000 Ba
atom 7.6585871239093608 7.6585871239093599 47.4297516815666000 Ba
atom 5.0821183457567569 5.0821183457567445 44.9473063384299323 Zr
atom 10.1169056309727754 5.1309673097875175 44.9473063384299323 Zr
atom 5.1309673097875237 10.1169056309727701 44.9473063384299323 Zr
atom 10.1645402722115126 10.1645402722115161 44.9473063384299323 Zr
atom 5.0821183457567569 5.0821183457567445 49.9121970247032323 Zr
atom 10.1169056309727754 5.1309673097875175 49.9121970247032323 Zr
atom 5.1309673097875237 10.1169056309727701 49.9121970247032323 Zr
atom 10.1645402722115126 10.1645402722115161 49.9121970247032323 Zr
atom 4.7326574680263382 4.7326574680263294 42.4689591527485746 S
atom 10.4663665087031958 5.4804281875179344 42.4689591527485746 S
atom 5.4804281875179406 10.4663665087031852 42.4689591527485746 S
atom 9.8150793944811117 9.8150793944810957 42.4689591527485746 S
atom 5.4358711841764773 5.4358711841764764 47.4297516815666000 S
atom 9.7631527925530506 4.7772144713677935 47.4297516815666000 S
atom 4.7772144713677971 9.7631527925530470 47.4297516815666000 S
atom 10.5182931106312552 10.5182931106312356 47.4297516815666000 S
atom 5.0583010251373866 2.5653318645447549 45.3145829559174089 S
atom 10.0924811489573880 2.6135736671795033 44.5880229658801710 S
atom 5.1065428277721381 7.5995119883647684 44.5880229658801710 S
atom 10.1407229515921475 7.6477537909995119 45.3145829559174089 S
atom 5.0583010251373866 2.5653318645447549 49.5449204072157414 S
atom 10.0924811489573880 2.6135736671795033 50.2714803972530220 S
atom 5.1065428277721381 7.5995119883647684 50.2714803972530220 S
atom 10.1407229515921475 7.6477537909995119 49.5449204072157414 S
atom 2.5653318645447620 5.0583010251373848 45.3145829559174089 S
atom 7.5995119883647746 5.1065428277721319 44.5880229658801710 S
atom 2.6135736671795065 10.0924811489573933 44.5880229658801710 S
atom 7.6477537909995252 10.1407229515921511 45.3145829559174089 S
atom 2.5653318645447620 5.0583010251373848 49.5449204072157414 S
atom 7.5995119883647746 5.1065428277721319 50.2714803972530220 S
atom 2.6135736671795065 10.0924811489573933 50.2714803972530220 S
atom 7.6477537909995252 10.1407229515921511 49.5449204072157414 S
atom 2.5070121584152210 2.5070121584152121 52.3838314805814917 Ba
atom 7.6095898918595672 2.6236515706742911 52.3838314805814917 Ba
atom 2.6236515706742951 7.6095898918595610 52.3838314805814917 Ba
atom 7.5894340848699757 7.5894340848699704 52.3838314805814917 Ba
atom 2.5487273881542576 2.5487273881542571 57.2959934687004662 Ba
atom 7.5678746621205093 2.5819363409352518 57.2959934687004662 Ba
atom 2.5819363409352549 7.5678746621205057 57.2959934687004662 Ba
atom 7.6311493146090221 7.6311493146090168 57.2959934687004662 Ba
atom 5.0803142645261676 5.0803142645261632 54.8797167809681810 Zr
atom 10.1187097122033620 5.1327713910181041 54.8797167809681810 Zr
atom 5.1327713910181068 10.1187097122033585 54.8797167809681810 Zr
atom 10.1627361909809508 10.1627361909809366 54.8797167809681810 Zr
atom 5.0953420184550433 5.0953420184550380 59.9058772815757479 Zr
atom 10.1036819582744926 5.1177436370892293 59.9058772815757479 Zr
atom 5.1177436370892302 10.1036819582744890 59.9058772815757479 Zr
atom 10.1777639449097990 10.1777639449097936 59.9058772815757479 Zr
atom 4.7326574680263382 4.7326574680263294 52.3905442103846255 S
atom 10.4663665087031958 5.4804281875179344 52.3905442103846255 S
atom 5.4804281875179406 10.4663665087031852 52.3905442103846255 S
atom 9.8150793944811117 9.8150793944810957 52.3905442103846255 S
atom 5.3908089968937674 5.3908089968937656 57.3568965166021556 S
atom 9.8082149798357694 4.8222766586504955 57.3568965166021556 S
atom 4.8222766586505044 9.8082149798357694 57.3568965166021556 S
atom 10.4732309233485346 10.4732309233485257 57.3568965166021556 S
atom 5.0583010251373866 2.5653318645447549 55.2153614746450927 S
atom 10.0924811489573880 2.6135736671795033 54.5273332124251127 S
atom 5.1065428277721381 7.5995119883647684 54.5273332124251127 S
atom 10.1407229515921475 7.6477537909995119 55.2153614746450927 S
atom 5.0583010251373866 2.5653318645447549 59.5501874575537897 S
atom 10.0924811489573880 2.6135736671795033 60.0578982003967425 S
atom 5.1065428277721381 7.5995119883647684 60.0578982003967425 S
atom 10.1407229515921475 7.6477537909995119 59.5501874575537897 S
atom 2.5653318645447620 5.0583010251373848 55.2153614746450927 S
atom 7.5995119883647746 5.1065428277721319 54.5273332124251127 S
atom 2.6135736671795065 10.0924811489573933 54.5273332124251127 S
atom 7.6477537909995252 10.1407229515921511 55.2153614746450927 S
atom 2.5653318645447620 5.0583010251373848 59.5501874575537897 S
atom 7.5995119883647746 5.1065428277721319 60.0578982003967425 S
atom 2.6135736671795065 10.0924811489573933 60.0578982003967425 S
atom 7.6477537909995252 10.1407229515921511 59.5501874575537897 S
atom 2.6405689200181124 2.6405689200181097 61.9713992858342095 Ba
atom 7.4760331302566607 2.4900948090713992 61.9713992858342095 Ba
atom 2.4900948090714019 7.4760331302566554 61.9713992858342095 Ba
atom 7.7229908464728734 7.7229908464728680 61.9713992858342095 Ba
atom 4.8941613707054881 4.8941613707054792 62.3898402824710487 S
atom 10.3048626060240576 5.3189242848387881 62.3898402824710487 S
atom 5.3189242848387810 10.3048626060240380 62.3898402824710487 S
atom 9.9765832971602570 9.9765832971602411 62.3898402824710487 S
