#=======================================================
# FHI-aims file: sym_relax/sym_relax_RP_5_RxRyRz_RxRyRz.in
# Created using the Atomic Simulation Environment (ASE)
# Fri Mar 14 10:55:00 2025
#=======================================================
lattice_vector 9.9847989211040797 0.0049933270589131 0.0054603271750394 
lattice_vector 0.0049933270589131 9.9847989211040691 -0.0054603271750394 
lattice_vector 0.0317436684067356 -0.0317436684067360 56.2239271720484481 
atom 0.0246836725096101 -0.1305156564498683 0.2200668669167777 Ba
atom 5.1229151170019165 -0.0221870089801536 0.2227970305042971 Ba
atom 0.1330123199793246 4.9677157880424323 0.2173367033292581 Ba
atom 5.0195797965911009 4.8643804676316345 0.2200668669167777 Ba
atom -0.2418167748418764 0.1849856430655828 5.0081397504825231 Ba
atom 4.8074138174864540 0.2443134383713322 5.0108699140700450 Ba
atom -0.1824889795361261 5.2342162353939274 5.0054095868950004 Ba
atom 4.7530793492396075 5.1798817671470880 5.0081397504825240 Ba
atom 2.4716316500509663 2.5157436801176476 2.3941351592565172 Zr
atom 7.4715519045158958 2.5257611375599915 2.3968653228440355 Zr
atom 2.4816491074933156 7.5156639345825784 2.3914049956689976 Zr
atom 7.4665277741324667 7.5106398041991422 2.3941351592565177 Zr
atom 2.4298198992928772 2.5309138724797009 7.4768591063165433 Zr
atom 7.4563817121538563 2.5675728883180731 7.4795892699040767 Zr
atom 2.4664789151312529 7.5574756853406670 7.4741289427290276 Zr
atom 7.4247160233743772 7.5258099965611924 7.4768591063165424 Zr
atom 2.6011272724739580 2.7102378538275982 -0.1150613270376404 S
atom 7.2770577308059465 2.3962655151370043 -0.1123311634501202 S
atom 2.2871549337833539 7.3861683121595920 -0.1177914906251601 S
atom 7.5960233965554487 7.7051339779090879 -0.1150613270376403 S
atom 2.2598457220339729 2.2837761322807064 4.9678802309724102 S
atom 7.7035194523528316 2.7375470655769774 4.9706103945599374 S
atom 2.7136166553302492 7.7274498625995705 4.9651500673848963 S
atom 7.2547418461154622 7.2786722563622055 4.9678802309724102 S
atom 2.7456960803254007 0.0301287887955099 2.2746916699801099 S
atom 7.1648607851528086 0.0359036355307023 2.7222654171438387 S
atom 2.1749579881302208 5.0258064325533001 2.7168050899688003 S
atom 7.7405922044069104 5.0250249128770097 2.2746916699801107 S
atom 2.9315043881303362 0.0357296111651637 7.6939571593076268 S
atom 7.0222221388000063 0.0394921819444737 7.2971500355051955 S
atom 2.0323193417774190 5.0293949789670709 7.2916897083301633 S
atom 7.9264005122118437 5.0306257352466606 7.6939571593076268 S
atom -0.0276321252660531 2.2467033802266450 2.2719615063925911 S
atom 4.9614891520802553 2.8224347994807326 2.7195352535563200 S
atom -0.0284136449423347 7.8123375965033288 2.7140749263812833 S
atom 4.9672639988154463 7.2415995043081356 2.2719615063925915 S
atom -0.0332329476357079 2.0608950724217050 7.6912269957201111 S
atom 4.9579006056664880 2.9650734458335393 7.2944198719176825 S
atom -0.0320021913561070 7.9549762428561293 7.2889595447426343 S
atom 4.9616631764457910 7.0557911965032023 7.6912269957201120 S
atom -0.0156238092249535 -0.0771339866307355 10.0237249924666276 Ba
atom 5.0695334471827760 0.0181204727544098 10.0264551560541513 Ba
atom 0.0796306501601921 5.0080232697770075 10.0209948288791093 Ba
atom 4.9792723148565461 4.9177621374507599 10.0237249924666312 Ba
atom 0.0297950897636756 0.0629627060920148 15.0762424950550589 Ba
atom 4.9294367544600401 -0.0272984262342195 15.0789726586425648 Ba
atom -0.0604660425625589 4.9626043707883722 15.0735123314675459 Ba
atom 5.0246912138451760 5.0578588301735081 15.0762424950550624 Ba
atom 2.5045337023101095 2.4903624217713962 12.5499837437608370 Zr
atom 7.4969331628621552 2.4928590853008452 12.5527139073483642 Zr
atom 2.5070303658395727 7.4827618823234445 12.5472535801733134 Zr
atom 7.4994298263916077 7.4852585458528926 12.5499837437608370 Zr
atom 2.5792475053273414 2.4498109710630800 17.6231083812051637 Zr
atom 7.5374846135704763 2.4181452822836116 17.6258385447926749 Zr
atom 2.5475818165478818 7.4080480793061971 17.6203782176176205 Zr
atom 7.5741436294088560 7.4447070951445804 17.6231083812051601 Zr
atom 2.6302920138073453 2.6740354824908943 10.0171105367888646 S
atom 7.3132601021426522 2.3671007738036067 10.0198407003763936 S
atom 2.3233573051200604 7.3570035708262047 10.0143803732013499 S
atom 7.6251881378888529 7.6689316065723894 10.0171105367888646 S
atom 2.3787753908128737 2.3066893610518839 15.0828569507328343 S
atom 7.6806062235816599 2.6186173967980815 15.0855871143203508 S
atom 2.6907034265590712 7.6085201938206710 15.0801267871453000 S
atom 7.3736715148943768 7.3015854851333879 15.0828569507328343 S
atom 2.0303786482004411 -0.0061692416838575 12.4398764127423860 S
atom 7.9685915534423577 -0.0030087117959521 12.6655514019543336 S
atom 2.9786887564197779 4.9868940852266448 12.6600910747792987 S
atom 7.0252747722819482 4.9887268823976338 12.4398764127423860 S
atom 2.9767480628428071 -0.0486701354242844 17.8082777791914744 S
atom 7.0674658135124684 -0.0449075646449734 17.4114706553890741 S
atom 2.0775630164898820 4.9449952323776198 17.4060103282140197 S
atom 7.9716441869242987 4.9462259886572246 17.8082777791914744 S
atom 0.0086659052133142 2.9620208123515956 12.4371462491548694 S
atom 5.0004014994069008 2.0187040311911786 12.6628212383668224 S
atom 0.0104987023843187 7.0086068282137655 12.6573609111917893 S
atom 5.0035620292948026 7.9569169364331005 12.4371462491548641 S
atom 0.0511667989537395 2.0156513977092487 17.8055476156039525 S
atom 5.0423003522559302 2.9198297711210732 17.4087404918015345 S
atom 0.0523975552333407 7.9097325681436628 17.4032801646265121 S
atom 5.0460629230352492 7.0105475217907429 17.8055476156039525 S
atom 0.2559880553805989 -0.1991569236043033 20.0918277370391891 Ba
atom 5.1915563841563426 -0.2534913918511426 20.0945579006266932 Ba
atom 0.2016535871337591 4.7364114051714408 20.0890975734516637 Ba
atom 5.2508841794621128 4.7957392004771950 20.0918277370391891 Ba
atom -0.0105123919708877 0.1163443759111479 24.8799006206048716 Ba
atom 4.8760550846409014 0.0130090555003439 24.8826307841924148 Ba
atom -0.1138477123816922 5.0029118525229350 24.8771704570173462 Ba
atom 4.9843837321106221 5.1112404999926531 24.8799006206048716 Ba
atom 2.5374357545692514 2.4649811634251315 22.7058323282652132 Zr
atom 7.5223144212084199 2.4599570330417064 22.7085624918527103 Zr
atom 2.5324116241858188 7.4498598300642911 22.7031021646776665 Zr
atom 7.5323318786507585 7.4598772875066333 22.7058323282652168 Zr
atom 2.7492216825862457 2.6969487112620731 20.1320872565492621 S
atom 7.2903468733714778 2.2481711050247086 20.1348174201367840 S
atom 2.3004440763488772 7.2380739020472911 20.1293570929617900 S
atom 7.7441178066677594 7.6918448353435638 20.1320872565492621 S
atom 2.4079401321462672 2.2704869897151827 25.2150288145593429 S
atom 7.7168085949183656 2.5894526554646813 25.2177589781468932 S
atom 2.7269057978957769 7.5793554524872739 25.2122986509718174 S
atom 7.4028362562277810 7.2653831137966733 25.2150288145593429 S
atom 2.8341094164899947 -0.0450815890105120 22.3831623975528551 S
atom 7.2532741213173955 -0.0393067422753192 22.8307361447165924 S
atom 2.2633713242948210 4.9505960547472707 22.8252758175415735 S
atom 7.8290055405714956 4.9498145350709919 22.3831623975528551 S
atom 0.0475782525399678 2.1582900440620465 22.3804322339653794 S
atom 5.0366995298862705 2.7340214633161319 22.8280059811290741 S
atom 0.0467967328636863 7.7239242603387206 22.8225456539540232 S
atom 5.0424743766214792 7.1531861681435354 22.3804322339653794 S
atom 2.5380035687537261 2.3510605713875194 28.3320304529410798 Ba
atom 7.6362350132460222 2.4593892188572308 28.3347606165285875 Ba
atom 2.6463322162234411 7.4492920158798208 28.3293002893535508 Ba
atom 7.5328996928352376 7.3459566954690150 28.3320304529410798 Ba
atom 2.2715031214022381 2.6665618709029641 33.1201033365068440 Ba
atom 7.3207337137305748 2.7258896662087104 33.1228335000943446 Ba
atom 2.3308309167079946 7.7157924632313035 33.1173731729193221 Ba
atom 7.2663992454837416 7.6614579949844659 33.1201033365068440 Ba
atom 4.9849515462950853 4.9973199079550259 30.5060987452807773 Zr
atom 9.9848718007600077 5.0073373653973761 30.5088289088683169 Zr
atom 4.9949690037374461 9.9972401624199669 30.5033685816932660 Zr
atom 9.9798476703765626 9.9922160320365325 30.5060987452807773 Zr
atom 4.9431397955370002 5.0124901003170761 35.5888226923407771 Zr
atom 9.9697016083979282 5.0491491161554638 35.5915528559282990 Zr
atom 4.9797988113753835 10.0390519131780422 35.5860925287532481 Zr
atom 9.9380359196184909 10.0073862243985960 35.5888226923407771 Zr
atom 5.1144471687180779 5.1918140816649752 27.9969022589866547 S
atom 9.7903776270500433 4.8778417429743932 27.9996324225741624 S
atom 4.8004748300274827 9.8677445399969628 27.9941720953991151 S
atom 10.1093432927995934 10.1867102057465022 27.9969022589866547 S
atom 4.7731656182780950 4.7653523601180892 33.0798438169966644 S
atom 10.2168393485969400 5.2191232934143672 33.0825739805841152 S
atom 5.2269365515743562 10.2090260904369714 33.0771136534091355 S
atom 9.7680617423595582 9.7602484841996056 33.0798438169966644 S
atom 5.2590159765695166 2.5117050166328920 30.3866552560044099 S
atom 9.6781806813969116 2.5174798633680857 30.8342290031681294 S
atom 4.6882778843743438 7.5073826603906681 30.8287686759930750 S
atom 10.2539121006509930 7.5066011407143893 30.3866552560044099 S
atom 5.4448242843744596 2.5173058390025465 35.8059207453318820 S
atom 9.5355420350441396 2.5210684097818539 35.4091136215295066 S
atom 4.5456392380215398 7.5109712068044505 35.4036532943544984 S
atom 10.4397204084559387 7.5122019630840535 35.8059207453318820 S
atom 2.4856877709780663 4.7282796080640308 30.3839250924169129 S
atom 7.4748090483243779 5.3040110273181025 30.8314988395806253 S
atom 2.4849062513017812 10.2939138243407129 30.8260385124055603 S
atom 7.4805838950595662 9.7231757321455579 30.3839250924169129 S
atom 2.4800869486084087 4.5424713002590735 35.8031905817444667 S
atom 7.4712205019105893 5.4466496736709233 35.4063834579419776 S
atom 2.4813177048880117 10.4365524706934956 35.4009231307669268 S
atom 7.4749830726899171 9.5373674243406139 35.8031905817444596 S
atom 2.4976960870191616 2.4044422412066453 38.1356885784909636 Ba
atom 7.5828533434269030 2.4996967005917923 38.1384187420784286 Ba
atom 2.5929505464043059 7.4895994976143845 38.1329584149033991 Ba
atom 7.4925922111006686 7.3993383652881421 38.1356885784909636 Ba
atom 2.5431149860077977 2.5445389339293962 43.1882060810793149 Ba
atom 7.4427566507041458 2.4542778016031628 43.1909362446668368 Ba
atom 2.4528538536815607 7.4441805986257510 43.1854759174917930 Ba
atom 7.5380111100893075 7.5394350580108922 43.1882060810793149 Ba
atom 5.0178535985542263 4.9719386496087674 40.6619473297851073 Zr
atom 10.0102530591062528 4.9744353131382253 40.6646774933726647 Zr
atom 5.0203502620836815 9.9643381101608206 40.6592171661976138 Zr
atom 10.0127497226357214 9.9668347736902643 40.6619473297851073 Zr
atom 5.0925674015714550 4.9313871989004676 45.7350719672295014 Zr
atom 10.0508045098145899 4.8997215101209930 45.7378021308170091 Zr
atom 5.0609017127919875 9.8896243071435901 45.7323418036419085 Zr
atom 10.0874635256529483 9.9262833229819556 45.7350719672295014 Zr
atom 5.1436119100514546 5.1556117103282730 38.1290741228131012 S
atom 9.8265799983867694 4.8486770016409917 38.1318042864006088 S
atom 4.8366772013641839 9.8385797986635897 38.1263439592256077 S
atom 10.1385080341329541 10.1505078344097974 38.1290741228131012 S
atom 4.8920952870570051 4.7882655888892689 43.1948205367571276 S
atom 10.1939261198257949 5.1001936246354695 43.1975507003446566 S
atom 5.2040233228031854 10.0900964216580480 43.1920903731696484 S
atom 9.8869914111385047 9.7831617129707524 43.1948205367571276 S
atom 4.5436985444445606 2.4754069861535237 40.5518399987666385 S
atom 10.4819114496864660 2.4785675160414335 40.7775149879785843 S
atom 5.4920086526638849 7.4684703130640280 40.7720546608036258 S
atom 9.5385946685260663 7.4703031102350268 40.5518399987666385 S
atom 5.4900679590869190 2.4329060924130945 45.9202413652157944 S
atom 9.5807857097565936 2.4366686631924073 45.5234342414133266 S
atom 4.5908829127340072 7.4265714602149968 45.5179739142383895 S
atom 10.4849640831684194 7.4278022164945954 45.9202413652157944 S
atom 2.5219858014574332 5.4435970401889824 40.5491098351790811 S
atom 7.5137213956510358 4.5002802590285649 40.7747848243911264 S
atom 2.5238185986284378 9.4901830560511335 40.7693244972160613 S
atom 7.5168819255389243 10.4384931642704597 40.5491098351790811 S
atom 2.5644866951978540 4.4972276255466204 45.9175112016282938 S
atom 7.5556202485000679 5.4014059989584560 45.5207040778258758 S
atom 2.5657174514774672 10.3913087959810344 45.5152437506508321 S
atom 7.5593828192793593 9.4921237496281332 45.9175112016282938 S
atom 2.7693079516247132 2.2824193042330769 48.2037913230634061 Ba
atom 7.7048762804004776 2.2280848359862455 48.2065214866508853 Ba
atom 2.7149734833778787 7.2179876330088124 48.2010611594759126 Ba
atom 7.7642040757062158 7.2773154283145862 48.2037913230634061 Ba
atom 2.5028075042732283 2.5979206037485301 52.9918642066292378 Ba
atom 7.3893749808850124 2.4945852833377282 52.9945943702167384 Ba
atom 2.3994721838624282 7.4844880803603164 52.9891340430417586 Ba
atom 7.4977036283547296 7.5928167278300354 52.9918642066292378 Ba
atom 5.0507556508133780 4.9465573912625160 50.8177959142893698 Zr
atom 10.0356343174525371 4.9415332608790790 50.8205260778769343 Zr
atom 5.0457315204299418 9.9314360579016583 50.8150657507018408 Zr
atom 10.0456517748948642 9.9414535153440031 50.8177959142893698 Zr
atom 5.2625415788303691 5.1785249390994466 48.2440508425736070 S
atom 9.8036667696156066 4.7297473328620852 48.2467810061610791 S
atom 4.8137639725929908 9.7196501298846449 48.2413206789860993 S
atom 10.2574377029118686 10.1734210631809479 48.2440508425736070 S
atom 4.9212600283904040 4.7520632175525623 53.3269924005836273 S
atom 10.2301284911625068 5.0710288833020600 53.3297225641712060 S
atom 5.2402256941398955 10.0609316803246553 53.3242622369961055 S
atom 9.9161561524718920 9.7469593416340476 53.3269924005836273 S
atom 5.3474293127341115 2.4364946388268685 50.4951259835771964 S
atom 9.7665940175615535 2.4422694855620675 50.9426997307408982 S
atom 4.7766912205389440 7.4321722825846530 50.9372394035658260 S
atom 10.3423254368156101 7.4313907629083671 50.4951259835771964 S
atom 2.5608981487840849 4.6398662718994226 50.4923958199896603 S
atom 7.5500194261303859 5.2155976911535138 50.9399695671533621 S
atom 2.5601166291078052 10.2055004881760851 50.9345092399783184 S
atom 7.5557942728655876 9.6347623959809390 50.4923958199896603 S
