#=======================================================
# FHI-aims file: sym_relax/sym_relax_RP_1_RxRy0_-Rx-Ry0.in
# Created using the Atomic Simulation Environment (ASE)
# Fri Mar 14 10:20:13 2025
#=======================================================
lattice_vector 10.0858357384187798 0.2044694477215603 0.0000000000000000 
lattice_vector 0.2044694477215603 10.0858357384187780 -0.0000000000000000 
lattice_vector -0.0000000000000000 0.0000000000000000 15.5513211932600655 
atom 0.1072130170173372 0.1072130170173373 0.2366428571656780 Ba
atom 4.9357048521920550 -0.0049782931565587 0.2366428571656780 Ba
atom -0.0049782931565568 4.9357048521920603 0.2366428571656780 Ba
atom 5.2523656100875096 5.2523656100875025 0.2366428571656780 Ba
atom -0.1072130170173372 -0.1072130170173373 4.6231450157280909 Ba
atom 5.1501308862267248 0.2094477408781159 4.6231450157280909 Ba
atom 0.2094477408781175 5.1501308862267239 4.6231450157280909 Ba
atom 5.0379395760528389 5.0379395760528354 4.6231450157280909 Ba
atom 2.5725762965350865 2.5725762965350851 2.4298939364468843 Zr
atom 7.6154941657444821 2.6748110203958642 2.4298939364468843 Zr
atom 2.6748110203958673 7.6154941657444741 2.4298939364468843 Zr
atom 7.7177288896052598 7.7177288896052518 2.4298939364468843 Zr
atom 2.3586053317214284 2.3586053317214271 -0.1074757717879248 S
atom 7.8294651305581349 2.8887819852095191 -0.1074757717879248 S
atom 2.8887819852095227 7.8294651305581278 -0.1074757717879248 S
atom 7.5037579247916071 7.5037579247915973 -0.1074757717879248 S
atom 2.7865472613487459 2.7865472613487410 4.9672636446816929 S
atom 7.4015232009308214 2.4608400555822048 4.9672636446816929 S
atom 2.4608400555822092 7.4015232009308178 4.9672636446816929 S
atom 7.9316998544189170 7.9316998544189081 4.9672636446816929 S
atom 2.5214589346046958 0.0511173619303893 2.6388430996358458 S
atom 7.5643768038140911 0.1533520857911679 2.2209447732579264 S
atom 2.6236936584654771 5.0940352311397810 2.2209447732579264 S
atom 7.6666115276748688 5.1962699550005622 2.6388430996358458 S
atom 0.0511173619303902 2.5214589346046949 2.6388430996358458 S
atom 5.0940352311397818 2.6236936584654731 2.2209447732579264 S
atom 0.1533520857911706 7.5643768038140857 2.2209447732579264 S
atom 5.1962699550005578 7.6666115276748688 2.6388430996358458 S
atom 2.4653632795177503 2.4653632795177467 8.0123034537957114 Ba
atom 7.7227071827618081 2.7820240374132004 8.0123034537957114 Ba
atom 2.7820240374132053 7.7227071827618072 8.0123034537957114 Ba
atom 7.6105158725879294 7.6105158725879205 8.0123034537957114 Ba
atom 2.6797893135524262 2.6797893135524222 12.3988056123581263 Ba
atom 7.5082811487271446 2.5675980033785240 12.3988056123581263 Ba
atom 2.5675980033785302 7.5082811487271393 12.3988056123581263 Ba
atom 7.8249419066225929 7.8249419066225876 12.3988056123581263 Ba
atom 5.1451525930701729 5.1451525930701703 10.2055545330769153 Zr
atom 10.1880704622795637 5.2473873169309462 10.2055545330769153 Zr
atom 5.2473873169309542 10.1880704622795619 10.2055545330769153 Zr
atom 10.2903051861403458 10.2903051861403405 10.2055545330769153 Zr
atom 5.3591235578838274 5.3591235578838239 7.6681848248421103 S
atom 9.9740994974659056 5.0334163521172934 7.6681848248421103 S
atom 5.0334163521172908 9.9740994974659003 7.6681848248421103 S
atom 10.5042761509540021 10.5042761509540021 7.6681848248421103 S
atom 4.9311816282565157 4.9311816282565140 12.7429242413117354 S
atom 10.4020414270932235 5.4613582817446034 12.7429242413117354 S
atom 5.4613582817446122 10.4020414270932218 12.7429242413117354 S
atom 10.0763342213266966 10.0763342213266878 12.7429242413117354 S
atom 5.0940352311397818 2.6236936584654731 9.9966053698879520 S
atom 10.1369531003491780 2.7259283823262521 10.4145036962658786 S
atom 5.1962699550005578 7.6666115276748688 10.4145036962658786 S
atom 10.2391878242099512 7.7688462515356438 9.9966053698879520 S
atom 2.6236936584654771 5.0940352311397810 9.9966053698879520 S
atom 7.6666115276748688 5.1962699550005622 10.4145036962658786 S
atom 2.7259283823262583 10.1369531003491726 10.4145036962658786 S
atom 7.7688462515356456 10.2391878242099477 9.9966053698879520 S
