#=======================================================
# FHI-aims file: sym_relax/sym_relax_RP_9_RxRyRz_-Rx-RyRz.in
# Created using the Atomic Simulation Environment (ASE)
# Mon Mar 17 16:53:12 2025
#=======================================================
lattice_vector 9.9420904141137516 -0.0047215994835223 0.0000000000000000 
lattice_vector -0.0047215994835221 9.9420904141137072 0.0000000000000000 
lattice_vector 0.0000000000000000 0.0000000000000000 97.2106732594730829 
atom 0.0741297661449026 -0.1124387414259387 0.1872289983021994 Ba
atom 5.0834839484828009 -0.0764905658866633 0.1872289983021995 Ba
atom 0.1100779416841785 4.8969154409119442 0.1872289983021994 Ba
atom 5.0428141734600107 4.8562456658891566 0.1872289983021994 Ba
atom -0.2616036768463031 0.1989422678196427 5.0212396364674872 Ba
atom 4.7721029392372110 0.2592428771045413 5.0212396364674872 Ba
atom -0.2013030675614053 5.2326488839031553 5.0212396364674872 Ba
atom 4.7070807304687854 5.1676266751347226 5.0212396364674872 Ba
atom 2.4650995960270681 2.5146452847004457 2.3970815840741055 Zr
atom 7.4250843296715168 2.5012240115462605 2.3970815840741055 Zr
atom 2.4516783228729033 7.4746300183448735 2.3970815840741055 Zr
atom 7.4337840033421596 7.4833296920155457 2.3970815840741055 Zr
atom 2.4067995367775135 2.5254050144465743 7.4921887071312723 Zr
atom 7.4143245999254015 2.5595240707958222 7.4921887071312723 Zr
atom 2.4409185931267596 7.5329300775944246 7.4921887071312723 Zr
atom 7.3754839440926068 7.4940894217616467 7.4921887071312723 Zr
atom 2.6178125739618738 2.7337378818898004 -0.1209501985800039 S
atom 7.2059917324821603 2.3485110336114632 -0.1209501985800039 S
atom 2.2325857256835344 7.3219170404100655 -0.1209501985800039 S
atom 7.5864969812769854 7.7024222892048799 -0.1209501985800039 S
atom 2.2385092774365858 2.2904092461264223 4.9792400851291587 S
atom 7.6493203682455535 2.7278143301367463 4.9792400851291587 S
atom 2.6759143614469103 7.7012203369353527 4.9792400851291587 S
atom 7.2071936847516955 7.2590936534415098 4.9792400851291587 S
atom 2.7613485853167252 0.0349470819502880 2.2625082294345793 S
atom 7.0669247579411465 0.0357089900905983 2.7375813434452434 S
atom 2.0935187511425233 5.0091149968892088 2.7375813434452434 S
atom 7.7300329926318438 5.0036314892653682 2.2625082294345793 S
atom 2.9336226789974025 0.0459060779093031 7.7076358366772126 S
atom 6.9596712506471610 0.0443890878269208 7.3267955883189977 S
atom 1.9862652438485329 5.0177950946255185 7.3267955883189977 S
atom 7.9023070863125060 5.0145904852243914 7.7076358366772126 S
atom -0.0373078816920495 2.2096966217401457 2.2625082294345793 S
atom 4.9306146174827568 2.8728048564308049 2.7375813434452434 S
atom -0.0427913893158824 7.8462108632294019 2.7375813434452434 S
atom 4.9313765256230582 7.1783810290552230 2.2625082294345793 S
atom -0.0482668776510649 2.0374225280594565 7.7076358366772126 S
atom 4.9219345197464435 2.9800583637247984 7.3267955883189977 S
atom -0.0514714870522052 7.9534643705234025 7.3267955883189977 S
atom 4.9204175296640411 7.0061069353745413 7.7076358366772126 S
atom 0.0021177414664640 -0.0785247692093180 10.0538673222135806 Ba
atom 5.0495699762661852 -0.0044785412082254 10.0538673222135806 Ba
atom 0.0761639694675571 4.9689274655903795 10.0538673222135806 Ba
atom 4.9708021487815746 4.8901596381057715 10.0538673222135806 Ba
atom 0.0507941866719433 0.0095793812373262 15.1404057564482653 Ba
atom 4.9614658258195430 -0.0531549864137044 15.1404057564482653 Ba
atom -0.0119401809790875 4.9202510203849057 15.1404057564482653 Ba
atom 5.0194785939870457 4.9782637885524137 15.1404057564482653 Ba
atom 2.4923354216694174 2.4880569709562605 12.5830913804954214 Zr
atom 7.4516726434156997 2.4739881859039174 12.5830913804954214 Zr
atom 2.4782666366170645 7.4473941927025118 12.5830913804954214 Zr
atom 7.4610198289845373 7.4567413782713539 12.5830913804954214 Zr
atom 2.4860667243368226 2.4827263265689021 17.6829888629715626 Zr
atom 7.4570032878030474 2.4802568832365126 17.6829888629715626 Zr
atom 2.4835972810044313 7.4536628900351225 17.6829888629715626 Zr
atom 7.4547511316519266 7.4514107338839901 17.6829888629715626 Zr
atom 2.5700725992285327 2.6571553414459728 10.0496508022192597 S
atom 7.2825742729259817 2.3962510083447923 10.0496508022192597 S
atom 2.3091682661273563 7.3696570151433995 10.0496508022192597 S
atom 7.5387570065436522 7.6258397487610621 10.0496508022192597 S
atom 2.4175121405046673 2.4486508039221371 15.1400060717441391 S
atom 7.4910788104498200 2.5488114670686661 15.1400060717441391 S
atom 2.5176728036511911 7.5222174738672747 15.1400060717441391 S
atom 7.3861965478197789 7.4173352112372255 15.1400060717441391 S
atom 1.9882019184750133 0.0040223208952091 12.5337898002980221 S
atom 7.9843219012495661 0.0027956818676709 12.6637277380565365 S
atom 3.0109158944509371 4.9762016886662739 12.6637277380565365 S
atom 6.9568863257901228 4.9727067282102908 12.5337898002980221 S
atom 3.0063933515580694 0.0012424584270231 17.7176368820713570 S
atom 6.9360218946656866 -0.0012772203473460 17.6612073863411254 S
atom 1.9626158878670636 4.9721287864512638 17.6612073863411254 S
atom 7.9750777588731854 4.9699268657421030 17.7176368820713570 S
atom -0.0063831206369704 2.9828432885818383 12.5337898002980221 S
atom 4.9635279257056837 1.9554077131223941 12.6637277380565365 S
atom -0.0098780810929549 6.9288137199210054 12.6637277380565365 S
atom 4.9623012866781302 7.9515276958969174 12.5337898002980221 S
atom -0.0036032581687844 1.9646518554987880 17.7176368820713570 S
atom 4.9676008279206894 3.0037077197062612 17.6612073863411254 S
atom -0.0058051788779378 7.9771137265048706 17.6612073863411254 S
atom 4.9650811491463234 6.9333362628138548 17.7176368820713570 S
atom -0.0119462781311061 -0.0174688435129199 20.2356112377376434 Ba
atom 4.9885140505697905 0.0095854783893446 20.2356112377376434 Ba
atom 0.0151080437711588 4.9829914851879513 20.2356112377376434 Ba
atom 4.9567381291839983 4.9512155638021600 20.2356112377376434 Ba
atom 0.0119462781311061 0.0174688435129199 25.3318918526403358 Ba
atom 4.9535763635439523 -0.0143070778728673 25.3318918526403358 Ba
atom -0.0198296432546812 4.9590989289257372 25.3318918526403358 Ba
atom 4.9806306854462035 4.9861532508280133 25.3318918526403358 Ba
atom 2.4843422036575524 2.4843422036575427 22.7837515451890127 Zr
atom 7.4553874107144154 2.4819814039157828 22.7837515451890127 Zr
atom 2.4819814039157921 7.4553874107143905 22.7837515451890127 Zr
atom 7.4530266109726542 7.4530266109726258 22.7837515451890127 Zr
atom 2.4826176829782862 2.4859580807461761 27.8845142274064841 Zr
atom 7.4537715336257735 2.4837059245950512 27.8845142274064841 Zr
atom 2.4803655268271507 7.4571119313936576 27.8845142274064841 Zr
atom 7.4513020902933951 7.4546424880612685 27.8845142274064841 Zr
atom 2.5100901894150280 2.5172612487653967 20.2356241811576609 S
atom 7.4224683656065586 2.4562334181583019 20.2356241811576609 S
atom 2.4490623588079452 7.4296394249568873 20.2356241811576609 S
atom 7.4787745967301351 7.4859456560804842 20.2356241811576609 S
atom 2.4585942179000715 2.4514231585496882 25.3318789092203893 S
atom 7.4883064558222676 2.5077293896732571 25.3318789092203893 S
atom 2.5149004490236391 7.4811353964718723 25.3318789092203893 S
atom 7.4272786252151679 7.4201075658647708 25.3318789092203893 S
atom 1.9642427864828946 -0.0012223189307267 22.7618004117583190 S
atom 7.9778476276308377 -0.0034992805527969 22.8057026786197241 S
atom 3.0044416208322064 4.9699067262457968 22.8057026786197241 S
atom 6.9329271937980108 4.9674620883843632 22.7618004117583190 S
atom 3.0060685194480383 -0.0034443791361766 27.9062957040369284 S
atom 6.9356970625556356 -0.0059640579105457 27.8498662083066399 S
atom 1.9622910557570339 4.9674419488880686 27.8498662083066399 S
atom 7.9747529267631370 4.9652400281789140 27.9062957040369284 S
atom -0.0011384808110346 3.0068024205739552 22.7618004117583190 S
atom 4.9698228881261528 1.9618819867411292 22.8057026786197241 S
atom -0.0035831186724870 6.9352879935397400 22.8057026786197241 S
atom 4.9675459265040551 7.9754868278890392 22.7618004117583190 S
atom 0.0010835793944148 1.9649766876088202 27.9062957040369284 S
atom 4.9722876654838881 3.0040325518162976 27.8498662083066399 S
atom -0.0011183413147381 7.9774385586149181 27.8498662083066399 S
atom 4.9697679867095150 6.9336610949239121 27.9062957040369284 S
atom -0.0507941866719433 -0.0095793812373262 30.4270973339297903 Ba
atom 4.9806245882941997 0.0484333869301816 30.4270973339297903 Ba
atom 0.0072185814955650 5.0218393937287766 30.4270973339297903 Ba
atom 4.9178902206431747 4.9591050260777587 30.4270973339297903 Ba
atom -0.0021177414664640 0.0785247692093180 35.5136357681645194 Ba
atom 4.8925204378475620 -0.0002430582752972 35.5136357681645194 Ba
atom -0.0808855689510794 4.9731629485233153 35.5136357681645194 Ba
atom 4.9665666658486352 5.0472091765243992 35.5136357681645194 Ba
atom 2.4763489856456826 2.4806274363588212 32.9844117098826075 Zr
atom 7.4591021780131488 2.4899746219276460 32.9844117098826075 Zr
atom 2.4856961712145118 7.4633806287262532 32.9844117098826075 Zr
atom 7.4450333929607888 7.4493118436738994 32.9844117098826075 Zr
atom 2.5618848705376003 2.4432793928685128 38.0753143832468268 Zr
atom 7.4964502215034443 2.4044387370357359 38.0753143832468268 Zr
atom 2.5230442147048135 7.3778447438343582 38.0753143832468268 Zr
atom 7.5305692778527069 7.4119638001836048 38.0753143832468268 Zr
atom 2.5511722668104349 2.5200336033929429 30.4274970186339075 S
atom 7.4196960109790195 2.4151513407628893 30.4274970186339075 S
atom 2.4462900041803959 7.3885573475615010 30.4274970186339075 S
atom 7.5198566741255508 7.4887180107080358 30.4274970186339075 S
atom 2.3986118080865655 2.3115290658691054 35.5178522881588634 S
atom 7.6282005485028659 2.5677117994867675 35.5178522881588634 S
atom 2.6547945417042240 7.5411178062853645 35.5178522881588634 S
atom 7.3672962154016739 7.2802134731842028 35.5178522881588634 S
atom 1.9577685128641635 -0.0075172813511932 32.9037753523214604 S
atom 7.9538884956387088 -0.0087439203787326 33.0337132900799659 S
atom 2.9804824888400914 4.9646620864198727 33.0337132900799659 S
atom 6.9264529201792753 4.9611671259638905 32.9037753523214604 S
atom 2.9824191634665733 -0.0491106873104435 38.2407075020590526 S
atom 7.0084677351163265 -0.0506276773928258 37.8598672537008767 S
atom 2.0350617283177050 4.9227783294057756 37.8598672537008767 S
atom 7.9511035707816706 4.9195737200046485 38.2407075020590526 S
atom 0.0051564816094324 3.0132766941926912 32.9037753523214604 S
atom 4.9750675279520786 1.9858411187332432 33.0337132900799659 S
atom 0.0016615211534488 6.9592471255318609 33.0337132900799659 S
atom 4.9738408889245402 7.9819611015077809 32.9037753523214604 S
atom 0.0467498875686822 1.9886260435902876 38.2407075020590526 S
atom 5.0169512849661775 2.9312618792556262 37.8598672537008767 S
atom 0.0435452781675424 7.9046678860542272 37.8598672537008767 S
atom 5.0154342948837796 6.9573104509053696 38.2407075020590526 S
atom 0.2616036768463031 -0.1989422678196428 40.5462634539104982 Ba
atom 5.1699874748764998 -0.2639644765880640 40.5462634539104982 Ba
atom 0.1965814680778827 4.7094415302105359 40.5462634539104982 Ba
atom 5.2302880841614288 4.7697421394954445 40.5462634539104982 Ba
atom -0.0741297661449026 0.1124387414259387 45.3802740920757586 Ba
atom 4.8586064656309285 0.0717689664031409 45.3802740920757586 Ba
atom -0.1147995411677008 5.0451749732017586 45.3802740920757586 Ba
atom 4.8945546411701963 5.0811231487410033 45.3802740920757586 Ba
atom 2.5035848112880377 2.4540391226146405 43.1704215063039527 Zr
atom 7.4856904917573290 2.4627387962852998 43.1704215063039527 Zr
atom 2.5122844849586907 7.4361448030839030 43.1704215063039527 Zr
atom 7.4722692186031514 7.4227235299297147 43.1704215063039527 Zr
atom 2.7301751298785155 2.6782751611886582 40.5882630052488338 S
atom 7.2614544531832825 2.2361484776948197 40.5882630052488338 S
atom 2.2880484463846735 7.2095544844934256 40.5882630052488338 S
atom 7.6988595371936235 7.6469595685037541 40.5882630052488338 S
atom 2.3508718333532279 2.2349465254252867 45.6884532889580726 S
atom 7.7047830889466722 2.6154517742201029 45.6884532889580726 S
atom 2.7313770821480521 7.5888577810187039 45.6884532889580726 S
atom 7.3195562406683479 7.2036309327403716 45.6884532889580726 S
atom 2.8751656561725794 -0.0404305895741205 42.8299217469327402 S
atom 7.1807418287970073 -0.0396686814338115 43.3049948609433670 S
atom 2.2073358219983885 4.9337373253647971 43.3049948609433670 S
atom 7.8438500634876833 4.9282538177409636 42.8299217469327402 S
atom 0.0380697898323600 2.0958795508842742 42.8299217469327402 S
atom 5.0059922890071542 2.7589877855749418 43.3049948609433670 S
atom 0.0325862822085280 7.7323937923735535 43.3049948609433670 S
atom 5.0067541971474716 7.0645639581993658 42.8299217469327402 S
atom 2.4102124375126488 2.5967809450834887 48.7925656280388083 Ba
atom 7.3429486692884893 2.5561111700606838 48.7925656280388083 Ba
atom 2.3695426624898541 7.5295171768592937 48.7925656280388083 Ba
atom 7.3788968448277474 7.5654653523985633 48.7925656280388083 Ba
atom 2.7459458805038564 2.2853999358379018 53.6265762662040615 Ba
atom 7.6543296785340695 2.2203777270694780 53.6265762662040615 Ba
atom 2.6809236717354379 7.1937837338680772 53.6265762662040615 Ba
atom 7.7146302878189665 7.2540843431529867 53.6265762662040615 Ba
atom 4.9879270149455905 4.9383813262721672 51.0024182138106141 Zr
atom 9.9700326954148686 4.9470809999428322 51.0024182138106141 Zr
atom 4.9966266886162582 9.9204870067414497 51.0024182138106141 Zr
atom 9.9566114222606945 9.9070657335872720 51.0024182138106141 Zr
atom 5.0462270741951443 4.9276215965260564 56.0975253368677471 Zr
atom 9.9807924251609847 4.8887809406932687 56.0975253368677471 Zr
atom 5.0073864183623682 9.8621869474918817 56.0975253368677471 Zr
atom 10.0149114815102660 9.8963060038411435 56.0975253368677471 Zr
atom 4.8352140370107870 4.7192887290828276 48.4843864311564587 S
atom 10.1891252926042135 5.0997939778776509 48.4843864311564587 S
atom 5.2157192858056032 10.0731999846762488 48.4843864311564587 S
atom 9.8038984443258848 9.6879731363979236 48.4843864311564587 S
atom 5.2145173335360671 5.1626173648462101 53.5845767148657046 S
atom 9.7457966568408434 4.7204906813523655 53.5845767148657046 S
atom 4.7723906500422126 9.6938966881509678 53.5845767148657046 S
atom 10.1832017408511479 10.1313017721613114 53.5845767148657046 S
atom 5.3595078598301340 2.4439116140834209 51.3429179731819332 S
atom 9.6650840324545726 2.4446735222237312 50.8678448591711643 S
atom 4.6916780256559338 7.4180795290223402 50.8678448591711643 S
atom 10.3281922671452602 7.4125960213985174 51.3429179731819332 S
atom 5.4667613671241115 2.4352315163470997 55.9321322180556209 S
atom 9.4928099387738794 2.4337145262647222 56.3129724664136617 S
atom 4.5194039319752628 7.4071205330633187 56.3129724664136617 S
atom 10.4354457744392679 7.4039159236621943 55.9321322180556209 S
atom 2.5224119934899059 4.5802217545418236 51.3429179731819332 S
atom 7.4903344926647071 5.2433299892324881 50.8678448591711643 S
atom 2.5169284858660856 10.2167359960310851 50.8678448591711643 S
atom 7.4910964008050245 9.5489061618569142 51.3429179731819332 S
atom 2.5310920912262431 4.4729682472478274 55.9321322180556209 S
atom 7.5012934886237197 5.4156040829131573 56.3129724664136617 S
atom 2.5278874818250920 10.3890100897117676 56.3129724664136617 S
atom 7.4997764985413404 9.4416526545628994 55.9321322180556209 S
atom 2.4822244621910912 2.5628669728668654 58.6592039519501185 Ba
atom 7.3768626415050997 2.4840991453822387 58.6592039519501185 Ba
atom 2.4034566347064721 7.4575051521808575 58.6592039519501185 Ba
atom 7.4509088695061836 7.5315513801819503 58.6592039519501185 Ba
atom 2.4335480169856005 2.4747628224202161 63.7457423861848085 Ba
atom 7.4649667919517428 2.5327755905877276 63.7457423861848085 Ba
atom 2.4915607851531156 7.5061815973863242 63.7457423861848085 Ba
atom 7.4022324243007249 7.4434472297353018 63.7457423861848085 Ba
atom 4.9606911893032342 4.9649696400163545 61.1884280102320375 Zr
atom 9.9434443816707052 4.9743168255851922 61.1884280102320375 Zr
atom 4.9700383748720656 9.9477228323837874 61.1884280102320375 Zr
atom 9.9293755966183195 9.9336540473314408 61.1884280102320375 Zr
atom 4.9669598866358395 4.9703002844037263 66.2883254927080117 Zr
atom 9.9381137372833255 4.9680481282525895 66.2883254927080117 Zr
atom 4.9647077304847134 9.9414541350511989 66.2883254927080117 Zr
atom 9.9356442939509435 9.9389846917187921 66.2883254927080117 Zr
atom 4.8829540117441192 4.7958712695266543 58.6549874319558384 S
atom 10.1125427521604276 5.0520540031443009 58.6549874319558384 S
atom 5.1391367453617676 10.0254600099429503 58.6549874319558384 S
atom 9.8516384190592010 9.7645556768417077 58.6549874319558384 S
atom 5.0355144704680042 5.0043758070504838 63.7453427014806735 S
atom 9.9040382146365786 4.8994935444204355 63.7453427014806735 S
atom 4.9306322078379408 9.8728995512190423 63.7453427014806735 S
atom 10.0041988777831072 9.9730602143655744 63.7453427014806735 S
atom 4.4421107165217233 2.4768249223063505 61.2690643677931135 S
atom 10.4382306992962803 2.4755982832788117 61.1391264300346364 S
atom 5.4648246924976478 7.4490042900774158 61.1391264300346364 S
atom 9.4107951238368415 7.4455093296214301 61.2690643677931135 S
atom 5.4904107231055939 2.4808978245213686 66.2665440160777592 S
atom 9.4200392662132337 2.4783781457469982 66.3229735118080441 S
atom 4.4466332594145861 7.4517841525455992 66.3229735118080441 S
atom 10.4590951304206854 7.4495822318364509 66.2665440160777592 S
atom 2.4894986852669816 5.4976188978502316 61.2690643677931135 S
atom 7.4594097316096333 4.4701833223907848 61.1391264300346364 S
atom 2.4860037248109923 9.4435893291893862 61.1391264300346364 S
atom 7.4581830925820922 10.4663033051653009 61.2690643677931135 S
atom 2.4854257830519630 4.4493188912663610 66.2665440160777592 S
atom 7.4566298691414383 5.4883747554738509 66.3229735118080441 S
atom 2.4832238623428196 10.4617807622724346 66.3229735118080441 S
atom 7.4541101903670697 9.4180032985814695 66.2665440160777592 S
atom 2.4962884817886635 2.5018110471704622 68.8409478674742275 Ba
atom 7.4379185672014998 2.4700351257846718 68.8409478674742275 Ba
atom 2.4645125604028748 7.4434411325832848 68.8409478674742275 Ba
atom 7.4649728891037679 7.4704954544855493 68.8409478674742275 Ba
atom 2.4723959255264445 2.4668733601446262 73.9372284823768666 Ba
atom 7.4728562542273469 2.4939276820468885 73.9372284823768666 Ba
atom 2.4994502474287112 7.4673336888454944 73.9372284823768666 Ba
atom 7.4410803328415485 7.4355577674597058 73.9372284823768666 Ba
atom 4.9686844073151049 4.9686844073150853 71.3890881749254191 Zr
atom 9.9397296143719522 4.9663236075733215 71.3890881749254191 Zr
atom 4.9663236075733455 9.9397296143719203 71.3890881749254191 Zr
atom 9.9373688146302097 9.9373688146301706 71.3890881749254191 Zr
atom 4.9704089279943702 4.9670685302264435 76.4898508571430966 Zr
atom 9.9413454914606216 4.9645990868940562 76.4898508571430966 Zr
atom 4.9679394846619749 9.9380050936926736 76.4898508571430966 Zr
atom 9.9390933353094777 9.9357529375415297 76.4898508571430966 Zr
atom 4.9429364215576168 4.9357653622072357 68.8409608108942166 S
atom 9.9726486594798427 4.9920715933308060 68.8409608108942166 S
atom 4.9992426526812039 9.9654776001294074 68.8409608108942166 S
atom 9.9116208288727279 9.9044497695223086 68.8409608108942166 S
atom 4.9944323930725965 5.0016034524229394 73.9372155389568348 S
atom 9.9068105692641222 4.9405756218158414 73.9372155389568348 S
atom 4.9334045624654905 9.9139816286144455 73.9372155389568348 S
atom 9.9631168003876702 9.9702878597380344 73.9372155389568348 S
atom 4.4485849901404437 2.4831198847268210 71.4110393083564077 S
atom 10.4621898312883665 2.4808429231047415 71.3671370414948996 S
atom 5.4887838244897518 7.4542489299033452 71.3671370414948996 S
atom 9.4172693974555663 7.4518042920419107 71.4110393083564077 S
atom 5.4907355552156405 2.4855846620845647 76.4552028380430926 S
atom 9.4203640983232564 2.4830649833101939 76.5116323337734343 S
atom 4.4469580915246150 7.4564709901088033 76.5116323337734343 S
atom 10.4594199625306974 7.4542690693996496 76.4552028380430926 S
atom 2.4832037228465200 5.4911446242314854 71.4110393083564077 S
atom 7.4541650917837021 4.4462241903986799 71.3671370414948996 S
atom 2.4807590849850700 9.4196301971973000 71.3671370414948996 S
atom 7.4518881301616116 10.4598290315465885 71.4110393083564077 S
atom 2.4807389454887643 4.4489940591563144 76.4552028380430926 S
atom 7.4519430315782449 5.4880499233638051 76.5116323337734343 S
atom 2.4785370247796177 10.4614559301624030 76.5116323337734343 S
atom 7.4494233528038745 9.4176784664714255 76.4552028380430926 S
atom 2.5351363903295003 2.4939215848948701 79.0324339636663495 Ba
atom 7.4458080294770923 2.4311872172438331 79.0324339636663495 Ba
atom 2.4724020226784624 7.4045932240424532 79.0324339636663495 Ba
atom 7.5038207976445888 7.4626059922099470 79.0324339636663495 Ba
atom 2.4864599451240132 2.4058174344482186 84.1189723979010751 Ba
atom 7.5339121799237310 2.4798636624493233 84.1189723979010751 Ba
atom 2.5605061731251211 7.4532696692479208 84.1189723979010751 Ba
atom 7.4551443524391283 7.3745018417633084 84.1189723979010751 Ba
atom 4.9766776253269791 4.9723991746138205 81.5897483396190211 Zr
atom 9.9360148470732259 4.9583303895614490 81.5897483396190211 Zr
atom 4.9626088402746138 9.9317363963600727 81.5897483396190211 Zr
atom 9.9453620326420609 9.9410835819288987 81.5897483396190211 Zr
atom 4.8911417404350512 5.0097472181041205 86.6806510129832617 Zr
atom 9.8986668035829641 5.0438662744533698 86.6806510129832617 Zr
atom 4.9252607967843236 10.0172722812519819 86.6806510129832617 Zr
atom 9.8598261477501872 9.9784316254191907 86.6806510129832617 Zr
atom 4.9018543441622207 4.9329930075796788 79.0328336483705982 S
atom 9.9754210141073525 5.0331536707262066 79.0328336483705982 S
atom 5.0020150073087501 10.0065596775248231 79.0328336483705982 S
atom 9.8705387514773033 9.9016774148947810 79.0328336483705982 S
atom 5.0544148028860834 5.1414975451035234 84.1231889178955043 S
atom 9.7669164765835337 4.8805932120023439 84.1231889178955043 S
atom 4.7935104697849225 9.8539992188009240 84.1231889178955043 S
atom 10.0230992102012255 10.1101819524185963 84.1231889178955043 S
atom 4.4725441221325672 2.4883645245527477 81.6390499198165287 S
atom 10.4686641049071216 2.4871378855252102 81.5091119820580019 S
atom 5.4952580981084944 7.4605438923238196 81.5091119820580019 S
atom 9.4412285294476703 7.4570489318678375 81.6390499198165287 S
atom 5.4179648826549522 2.5302482815668408 86.4652038834372831 S
atom 9.4440134543046632 2.5287312914844655 86.8460441317956509 S
atom 4.4706074475060893 7.5021372982830554 86.8460441317956509 S
atom 10.3866492899700820 7.4989326888819248 86.4652038834372831 S
atom 2.4779590830205924 5.4671854922393894 81.6390499198165287 S
atom 7.4478701293632232 4.4397499167799284 81.5091119820580019 S
atom 2.4744641225646014 9.4131559235785520 81.5091119820580019 S
atom 7.4466434903356893 10.4358698995544383 81.6390499198165287 S
atom 2.4360753260064918 4.5217647317169956 86.4652038834372831 S
atom 7.4062767234039892 5.4644005673823424 86.8460441317956509 S
atom 2.4328707166053447 10.4378065741809714 86.8460441317956509 S
atom 7.4047597333215922 9.4904491390320924 86.4652038834372831 S
atom 2.2227385268112534 2.6832844714771866 89.1516000836470539 Ba
atom 7.2564451428947860 2.7435850807620819 89.1516000836470539 Ba
atom 2.2830391360961415 7.7169910875606949 89.1516000836470539 Ba
atom 7.1914229341263383 7.6519688787922711 89.1516000836470539 Ba
atom 2.5584719698024507 2.3719034622316029 93.9856107218122787 Ba
atom 7.5678261521403414 2.4078516377708801 93.9856107218122787 Ba
atom 2.5944201453417342 7.3812576445694784 93.9856107218122787 Ba
atom 7.5271563771175645 7.3405878695466962 93.9856107218122787 Ba
atom 4.9494417996846147 4.9989874883579910 91.7757581360404942 Zr
atom 9.9094265333290608 4.9855662152038231 91.7757581360404942 Zr
atom 4.9360205265304264 9.9589722220023997 91.7757581360404942 Zr
atom 9.9181262069997498 9.9676718956730603 91.7757581360404942 Zr
atom 4.7228514810941533 4.7747514497839658 89.1935996349854463 S
atom 10.1336625719031126 5.2121565337942828 89.1935996349854463 S
atom 5.1602565651044729 10.1855625405929011 89.1935996349854463 S
atom 9.6915358884092448 9.7434358570990476 89.1935996349854463 S
atom 5.1021547776194334 5.2180800855473404 94.2937899186946993 S
atom 9.6903339361397123 4.8328532372689947 94.2937899186946993 S
atom 4.7169279293410726 9.8062592440676291 94.2937899186946993 S
atom 10.0708391849345276 10.1867644928624177 94.2937899186946993 S
atom 5.2456907889742670 2.5192892856078317 91.9103314906800222 S
atom 9.5512669615987260 2.5200511937481362 91.4352583766694096 S
atom 4.5778609548000775 7.4934572005467466 91.4352583766694096 S
atom 10.2143751962893692 7.4879736929229095 91.9103314906800222 S
atom 2.4470343219655044 4.6940388253976861 91.9103314906800222 S
atom 7.4149568211403043 5.3571470600883471 91.4352583766694096 S
atom 2.4415508143416704 10.3305530668869441 91.4352583766694096 S
atom 7.4157187292806155 9.6627232327127608 91.9103314906800222 S
