#=======================================================
# FHI-aims file: sym_relax/sym_relax_RP_1_Rx0Rz_0-RyRz.in
# Created using the Atomic Simulation Environment (ASE)
# Fri Mar 14 10:20:19 2025
#=======================================================
lattice_vector 10.0712828800347385 -0.0000047196367221 0.0002191685112612 
lattice_vector -0.0000047196367221 10.0712828800347420 0.0002191685112612 
lattice_vector -0.0003381890536623 -0.0003381890536623 15.6175396692540431 
atom -0.1383488865912766 0.0000034997177962 0.2385641768094477 Ba
atom 5.1739804173092558 -0.0000095903179636 0.2386804635930113 Ba
atom 0.1383366174735246 5.0356342095177729 0.2386804635930113 Ba
atom 4.8972901936077262 5.0356425799168028 0.2387833453207087 Ba
atom 0.1382432025120076 -0.0001091837970651 4.6419169698324403 Ba
atom 4.8971967786462081 -0.0001008133980283 4.6420198515601436 Ba
atom -0.1384470211895158 5.0355429864377097 4.6420198515601436 Ba
atom 5.1738822827110109 5.0355298964019672 4.6421361383436990 Ba
atom 2.5177666980598716 2.5177666980598783 2.4403501575765736 Zr
atom 7.5534081380772298 2.5177643382415127 2.4404597418322043 Zr
atom 2.5177643382415087 7.5534081380772600 2.4404597418322043 Zr
atom 7.5534057782588695 7.5534057782588890 2.4405693260878381 Zr
atom 2.5178072495046284 2.7383918402919298 -0.0977440294329494 S
atom 7.5534748249333958 2.2972538684124642 -0.0976445831961017 S
atom 2.5178310250976654 7.3328976682482061 -0.0976445831961017 S
atom 7.5534463297036449 7.7740309204909446 -0.0975248609216883 S
atom 2.5177261466151051 2.2971415558278196 4.9784443445861006 S
atom 7.5533414512210673 2.7382748080705626 4.9785640668605113 S
atom 2.5176976513853484 7.7739186079062899 4.9785640668605113 S
atom 7.5533652268141065 7.3327806360268371 4.9786635130973584 S
atom 2.5177707573694561 -0.0000488532755388 2.2110708693952565 S
atom 7.5534064385860100 -0.0000615504404520 2.6696294457578915 S
atom 2.5177626387502823 5.0355822493952846 2.6696294457578911 S
atom 7.5534098375684584 5.0355902269234756 2.2112900379065175 S
atom -0.0000541802629398 2.5177698063853251 2.4403128886772052 S
atom 5.0355875763826754 2.5177635897344244 2.4403874264759438 S
atom -0.0000562234530516 7.5534073895701646 2.4403874264759433 S
atom 5.0355848999360751 7.5534088865843314 2.4405320571884666 S
atom 2.5176539452904665 2.3793015589814028 8.0474435956920942 Ba
atom 7.5532846550904322 2.6559870630461986 8.0475598824756460 Ba
atom 2.5176408552547089 7.6916308628819472 8.0475598824756460 Ba
atom 7.5532930254894701 7.4149406391804229 8.0476627642033485 Ba
atom 2.5175412617756039 2.6558936480846889 12.4507963887150819 Ba
atom 7.5531934320103717 2.3792034243831606 12.4508992704428039 Ba
atom 2.5175496321746418 7.4148472242189003 12.4508992704428039 Ba
atom 7.5531803419746160 7.6915327282837067 12.4510155572263503 Ba
atom 5.0354171436325386 5.0354171436325554 10.2492295764592267 Zr
atom 10.0710585836499025 5.0354147838141889 10.2493391607148538 Zr
atom 5.0354147838141801 10.0710585836499309 10.2493391607148521 Zr
atom 10.0710562238315458 10.0710562238315546 10.2494487449704881 Zr
atom 5.2560422858645932 5.0354576950773229 7.7111353894497032 S
atom 9.8505481138208530 5.0354814706703603 7.7112348356865485 S
atom 4.8149043139851351 10.0711252705060890 7.7112348356865485 S
atom 10.2916813660636013 10.0710967752763221 7.7113545579609593 S
atom 4.8147920014004830 5.0353765921877827 12.7873237634687555 S
atom 10.2915690534789714 5.0353480969580300 12.7874434857431538 S
atom 5.2559252536432304 10.0709918967937675 12.7874434857431538 S
atom 9.8504310815994831 10.0710156723868085 12.7875429319800187 S
atom 5.0354202519579934 2.5175962653097383 10.2491923075598557 S
atom 10.0710578351428417 2.5175942221196257 10.2492668453585889 S
atom 5.0354140353070953 7.5532380219553659 10.2492668453585924 S
atom 10.0710593321569934 7.5532353455087611 10.2494114760711188 S
atom 2.5176015922971353 5.0354212029421355 10.0199502882779115 S
atom 7.5532326949679502 5.0354130843229621 10.4785088646405438 S
atom 2.5175888951322185 10.0710568841586827 10.4785088646405420 S
atom 7.5532406724961358 10.0710602831411720 10.0201694567891693 S
