#=======================================================
# FHI-aims file: sym_relax/sym_relax_RP_6_RxRyRz_-Rx-Ry-Rz.in
# Created using the Atomic Simulation Environment (ASE)
# Fri Mar 14 11:09:40 2025
#=======================================================
lattice_vector 9.9650210286281311 -0.0021849547118070 0.0017348272240604 
lattice_vector -0.0021849547118075 9.9650210286282004 -0.0017348272240604 
lattice_vector 0.0145345393682509 -0.0145345393682527 66.5333861585873478 
atom 0.0334352885822483 -0.1262026739776371 0.2078521465350981 Ba
atom 5.1087131882917065 -0.0345277659381513 0.2087195601471277 Ba
atom 0.1251101966217332 4.9490752257318587 0.2069847329230675 Ba
atom 5.0148533255404120 4.8552153629805561 0.2078521465350981 Ba
atom -0.2485535058922088 0.1862971578834799 5.0181340883713750 Ba
atom 4.7962133564305809 0.2474610285363066 5.0190015019834018 Ba
atom -0.1873896352393824 5.2310640202063077 5.0172666747593375 Ba
atom 4.7328645310659452 5.1677151948416773 5.0181340883713750 Ba
atom 2.4636910358506419 2.5120890136862917 2.4007040880433306 Zr
atom 7.4518395375859550 2.5166345237516277 2.4015715016553609 Zr
atom 2.4682365459159890 7.5002375154216399 2.3998366744312989 Zr
atom 7.4451090728088056 7.4935070506444985 2.4007040880433315 Zr
atom 2.4218500361004791 2.5242707459912332 7.4916268572798170 Zr
atom 7.4396578052810103 2.5584755235017926 7.4924942708918492 Zr
atom 2.4560548136110496 7.5420785151717897 7.4907594436677805 Zr
atom 7.4032680730586495 7.5056887829494192 7.4916268572798170 Zr
atom 2.5867480993355625 2.6991746561108281 -0.1130248851584153 S
atom 7.2647538951614239 2.3935774602667221 -0.1121574715463854 S
atom 2.2811509034914548 7.3771804519367352 -0.1138922987704457 S
atom 7.5681661362937103 7.6805926930690278 -0.1130248851584153 S
atom 2.2566727750799047 2.2925451497898899 4.9800101907382954 S
atom 7.6713834014823377 2.7236527845223719 4.9808776043503222 S
atom 2.6877804098123770 7.7072557761923770 4.9791427771262562 S
atom 7.2380908120380756 7.2739631867480750 4.9800101907382954 S
atom 2.7632823948657816 0.0313339277460621 2.2862805732820672 S
atom 7.1208488695024803 0.0332130034660861 2.7199246220462836 S
atom 2.1372458778325094 5.0168159951360929 2.7181897948222242 S
atom 7.7447004318239250 5.0127519647042575 2.2862805732820672 S
atom 2.9417881670053379 0.0375198670800075 7.7019855497876470 S
atom 6.9917206180182374 0.0372866368186779 7.3232190055930273 S
atom 2.0081176263482887 5.0208896284886855 7.3214841783689639 S
atom 7.9232062039634847 5.0189379040382196 7.7019855497876470 S
atom -0.0324264051019643 2.2192281194482990 2.2854131596700391 S
atom 4.9471125561361697 2.8430796817697717 2.7190572084342506 S
atom -0.0364904355337966 7.8266826734397679 2.7173223812101903 S
atom 4.9489916318561926 7.2006461564065063 2.2854131596700396 S
atom -0.0386123444359108 2.0407223473087428 7.7011181361756149 S
atom 4.9430389227835851 2.9722079332539888 7.3223515919809845 S
atom -0.0405640688863880 7.9558109249239859 7.3206167647569398 S
atom 4.9428056925222386 7.0221403842669563 7.7011181361756149 S
atom 0.0024462239249328 -0.0846097933817100 10.0464253477351715 Ba
atom 5.0671203076957614 -0.0035387012808362 10.0472927613471850 Ba
atom 0.0835173160258068 4.9800642903891692 10.0455579341231278 Ba
atom 4.9838642608830916 4.8968082435764870 10.0464253477351750 Ba
atom 0.0493821059634403 0.0427754971596905 15.1212241269517325 Ba
atom 4.9397350171543808 -0.0504745833193443 15.1220915405637815 Ba
atom -0.0438679745155940 4.9331284083506688 15.1203567133397208 Ba
atom 5.0308001429215912 5.0241935341178818 15.1212241269517325 Ba
atom 2.5018749620779599 2.4901154213552088 12.5753848358639306 Zr
atom 7.4738131299170458 2.4784505975243172 12.5762522494759494 Zr
atom 2.4902101382470687 7.4620535891943396 12.5745174222518834 Zr
atom 7.4832929990361157 7.4715334583134041 12.5753848358639324 Zr
atom 2.4967220301589390 2.4952683532742279 17.6670634180395609 Zr
atom 7.4686601979980161 2.4836035294433296 17.6679308316515744 Zr
atom 2.4850572063280447 7.4672065211133489 17.6661960044275723 Zr
atom 7.4781400671171037 7.4766863902324205 17.6670634180395609 Zr
atom 2.5920684804613701 2.6598392550132215 10.0409921269077866 S
atom 7.3040892962590256 2.3882570791409106 10.0418595405198303 S
atom 2.3204863045890600 7.3718600708109046 10.0401247132957483 S
atom 7.5734865174195329 7.6412572919714297 10.0409921269077866 S
atom 2.4147668785180216 2.4081602697142825 15.1212241269517325 S
atom 7.5557682815579534 2.5655586810842550 15.1220915405637815 S
atom 2.5721652898879852 7.5491616727542530 15.1203567133397208 S
atom 7.3961849154761765 7.3895783066724832 15.1212241269517325 S
atom 2.0090483970723820 -0.0021857024180315 12.5087721458034729 S
atom 7.9930447627804471 -0.0024795035186710 12.6599848363069167 S
atom 3.0094417711104740 4.9811234881513391 12.6582500090828667 S
atom 6.9904664340305622 4.9792323345401632 12.5087721458034729 S
atom 2.9800687260454248 -0.0055133837416219 17.7345435217119949 S
atom 6.9610933889655104 -0.0074045373527898 17.5850656584326401 S
atom 1.9774903972955327 4.9761984543172160 17.5833308312086203 S
atom 7.9614867630035748 4.9759046532165847 17.7345435217119949 S
atom 0.0010932250621277 2.9734621172417013 12.5079047321914683 S
atom 4.9828050631209386 1.9708837884917976 12.6591174226949210 S
atom -0.0007979285490397 6.9544867801618029 12.6573825954708461 S
atom 4.9825112620202852 7.9548801541998877 12.5079047321914700 S
atom 0.0044209063857188 2.0024417882686527 17.7336761080999885 S
atom 4.9877300969550431 3.0028351623067451 17.5841982448206124 S
atom 0.0041271052850786 7.9864381539767493 17.5824634175965429 S
atom 4.9858389433438681 6.9838598252268591 17.7336761080999885 S
atom -0.0780031845779599 -0.0041603848788172 20.1960229061682917 Ba
atom 4.9866708991928945 0.0769107072220564 20.1968903197802909 Ba
atom 0.0030679075229130 5.0605136988920618 20.1951554925562711 Ba
atom 4.9034148523802052 4.9772576520793859 20.1960229061682952 Ba
atom 0.1929037666872292 -0.2551601146959602 25.2243141655320784 Ba
atom 5.2376706290100374 -0.1939962440431338 25.2251815791441309 Ba
atom 0.2540676373400551 4.7896067476268556 25.2234467519200578 Ba
atom 5.1743218036453884 4.7262579222622323 25.2243141655320784 Ba
atom 2.5308773547949652 2.4152434272967480 22.7508213966236816 Zr
atom 7.5486851239754698 2.4494482048073154 22.7516888102357093 Zr
atom 2.5650821323055246 7.4330511964773303 22.7499539830116397 Zr
atom 7.5122953917531134 7.3966614642549571 22.7508213966236816 Zr
atom 2.5186956224900281 2.4570844270469174 27.8417441658601383 Zr
atom 7.5068441242253350 2.4616299371122583 27.8426115794721838 Zr
atom 2.5232411325553668 7.4452329287822563 27.8408767522481284 Zr
atom 7.5001136594481919 7.4385024640051105 27.8417441658601383 Zr
atom 2.6664458638169464 2.5854618716576376 20.2014561269957369 S
atom 7.3784666796146112 2.3138796957853254 20.2023235406077539 S
atom 2.3948636879446314 7.2974826874553296 20.2005887133836914 S
atom 7.6478639007751017 7.5668799086158405 20.2014561269957369 S
atom 2.2991517585936236 2.2500661662761678 25.2624380631652237 S
atom 7.7138623849960615 2.6811738010086552 25.2633054767771874 S
atom 2.7302593933261066 7.6647767926786550 25.2615706495531533 S
atom 7.2805697955517745 7.2314842032343840 25.2624380631652201 S
atom 2.0473289561124837 -0.0452189532396612 22.5413301177278704 S
atom 7.9624175337276668 -0.0471706776901382 22.9218314891465091 S
atom 2.9788145420577266 4.9364323139798767 22.9200966619224680 S
atom 7.0287469930706363 4.9361990837185248 22.5413301177278669 S
atom 2.2258347282520332 -0.0390330139057151 27.9570350942333974 S
atom 7.8332892822434559 -0.0430970443375466 27.5251258726933088 S
atom 2.8496862905735032 4.9405059473324604 27.5233910454691895 S
atom 7.2072527652102183 4.9423850230524842 27.9570350942333974 S
atom 0.0441264758837575 2.9351815582016054 22.5404627041158143 S
atom 5.0274962372924001 2.0015110175445492 22.9209640755345134 S
atom 0.0438932456224271 6.9851140092145512 22.9192292483104403 S
atom 5.0255445128419263 7.9165995951597958 22.5404627041158108 S
atom 0.0379405365498107 2.7566757860620523 27.9561676806214372 S
atom 5.0234226039398013 2.1306392690287694 27.5242584590812598 S
atom 0.0398196122698352 7.1142422606987807 27.5225236318571902 S
atom 5.0193585735079678 7.7380938230202299 27.9561676806214372 S
atom -0.1195960651738867 0.0268286797784980 30.0345961073683902 Ba
atom 4.9556818345355715 0.1185035878179828 30.0354635209804073 Ba
atom -0.0279211571344020 5.1021065794879856 30.0337286937564052 Ba
atom 4.8618219717842850 5.0082467167366822 30.0345961073683902 Ba
atom 2.7057812649145525 2.5801414905318283 30.3554731390618713 S
atom 7.3837870607404268 2.2745442946877175 30.3563405526738990 S
atom 2.4001840690704523 7.2581472863577234 30.3546057254498614 S
atom 7.6871993018727247 7.5615595274900089 30.3554731390618713 S
atom 2.6241789621408360 2.4500064602127214 33.4745452258289404 Ba
atom 7.5139220910595084 2.3561465974614335 33.4754126394410392 Ba
atom 2.5303190993895499 7.3397495891314231 33.4736778122169554 Ba
atom 7.6055969990990056 7.4314244971709282 33.4745452258289404 Ba
atom 2.3116791302797193 2.7319952546871829 38.2848271676651848 Ba
atom 7.2319332965850620 2.6686464293225454 38.2856945812772054 Ba
atom 2.2483303049151004 7.6522494209925664 38.2839597540531074 Ba
atom 7.2930971672378844 7.7134132916453879 38.2848271676651848 Ba
atom 4.9673053114350854 5.0011687499025070 35.6673971673370787 Zr
atom 9.9441778383279189 4.9944382851253541 35.6682645809491774 Zr
atom 4.9605748466579334 9.9780412767953575 35.6665297537251078 Zr
atom 9.9487233483932780 9.9825867868607006 35.6673971673370787 Zr
atom 4.9551235791301576 5.0430097496526658 40.7583199365736633 Zr
atom 9.9023368385777673 5.0066200174302997 40.7591873501857194 Zr
atom 4.9187338469077906 9.9902230091002888 40.7574525229616427 Zr
atom 9.9365416160883253 10.0244277866108575 40.7583199365736633 Zr
atom 4.7802196690105552 4.8781116864176042 33.1536681941353919 S
atom 10.0672349018128067 5.1815239275499074 33.1545356077474480 S
atom 5.0836319101428531 10.1651269192199045 33.1528007805233429 S
atom 9.7616377059686883 9.8595297233758163 33.1536681941353919 S
atom 5.1868491753314974 5.2081870106732362 38.2467032700321141 S
atom 9.7371595775571826 4.7748944212289546 38.2475706836441702 S
atom 4.7535565858872193 9.7584974128989845 38.2458358564201433 S
atom 10.1682672122896545 10.1896050476314244 38.2467032700321141 S
atom 4.6363146433516240 2.5177472296169672 35.9857502877280382 S
atom 10.2437691973430329 2.5136831991851363 35.5538410661879780 S
atom 5.2601662056730740 7.4972861908551334 35.5521062389638658 S
atom 9.6177326803097767 7.4991652665751589 35.9857502877280382 S
atom 4.5071863918673918 2.5218208629695478 40.5890446712748485 S
atom 10.4222749694825882 2.5198691385190743 40.9695460426935227 S
atom 5.4386719778126285 7.5034721301891008 40.9678112154694745 S
atom 9.4886044288255693 7.5032388999277462 40.5890446712748485 S
atom 2.4625783299853117 5.3276139079206448 35.9848828741159750 S
atom 7.4480603973753041 4.7015773908873779 35.5529736525759432 S
atom 2.4644574057053337 9.6851803825573821 35.5512388253517884 S
atom 7.4439963669434839 10.3090319448788481 35.9848828741159750 S
atom 2.4585046966327235 5.4567421594048717 40.5881772576627995 S
atom 7.4418744580413501 4.5230716187478137 40.9686786290814808 S
atom 2.4582714663713956 9.5066746104178090 40.9669438018574397 S
atom 7.4399227335908842 10.4381601963630555 40.5881772576627995 S
atom 2.5825860815449166 2.4809955248700422 43.3131184270290817 Ba
atom 7.4829330264021987 2.3977394780573564 43.3139858406410880 Ba
atom 2.4993300347322340 7.3813424697273584 43.3122510134170042 Ba
atom 7.5640041185030666 7.4624135618282343 43.3131184270290817 Ba
atom 2.4552007910035174 2.4340596428315293 48.3879172062455396 Ba
atom 7.5298689084407213 2.5251247685987632 48.3887846198575389 Ba
atom 2.5462659167707407 7.5087277602687559 48.3870497926335403 Ba
atom 7.4366188279616878 7.4154776797897410 48.3879172062455396 Ba
atom 4.9892789037661798 4.9629848236751997 45.8420779151577875 Zr
atom 9.9823617645552503 4.9724646927942810 45.8429453287698152 Zr
atom 4.9987587728852452 9.9560676844642746 45.8412105015457882 Zr
atom 9.9706969407243573 9.9444028606333923 45.8420779151577875 Zr
atom 4.9841259718471633 4.9681377555942143 50.9337564973332775 Zr
atom 9.9772088326362134 4.9776176247132886 50.9346239109453975 Zr
atom 4.9936058409662438 9.9612206163833026 50.9328890837214132 Zr
atom 9.9655440088053382 9.9495557925524274 50.9337564973332846 Zr
atom 4.8195550701081507 4.8727913052917815 43.3076852062015689 S
atom 10.0725552829386746 5.1421885264522844 43.3085526198135895 S
atom 5.0889522912686704 10.1257915181223108 43.3068177925895839 S
atom 9.8009731070663086 9.8542093422500052 43.3076852062015689 S
atom 5.0712340554071034 5.0500929072351344 48.3879172062455396 S
atom 9.8952536809952800 4.8905095411533477 48.3887846198575460 S
atom 4.9116506893253202 9.8741125328233608 48.3870497926335403 S
atom 10.0526520923652551 10.0315109441933501 48.3879172062455396 S
atom 5.5085105366295926 2.4820547226322023 45.9258105019887850 S
atom 9.4895351995496284 2.4801635690210388 45.7763326387093485 S
atom 4.5059322078797122 7.4637665606910319 45.7745978114853287 S
atom 10.4899285735877328 7.4634727595903980 45.9258105019887850 S
atom 4.4765591628146302 2.4771296887980956 50.8508913241143929 S
atom 10.4605555285226899 2.4768358876974457 51.0021040146178350 S
atom 5.4769525368527212 7.4604388793674623 51.0003691873937441 S
atom 9.4579771997728219 7.4585477257562838 50.8508913241143929 S
atom 2.4982708369700775 4.4554180146426718 45.9249430883766436 S
atom 7.4815800275394047 5.4558113886807593 45.7754652250973209 S
atom 2.4979770358694298 10.4394143803507866 45.7737303978733294 S
atom 7.4796888739282288 9.4368360516008529 45.9249430883766436 S
atom 2.5031958708041833 5.4873693884576333 50.8500239105023795 S
atom 7.4849077088629867 4.4847910597077298 51.0012366010057789 S
atom 2.5013047171930225 9.4683940513776950 50.9995017737817520 S
atom 7.4846139077623501 10.4687874254158029 50.8500239105023795 S
atom 2.5021366730420302 2.5614449333729357 53.4627159854621183 Ba
atom 7.4024836178993247 2.4781888865602517 53.4635833990741460 Ba
atom 2.4188806262293494 7.4617918782302439 53.4618485718500622 Ba
atom 7.4835547100001900 7.5428629703311234 53.4627159854621183 Ba
atom 2.7531364028591638 2.2905379821077352 58.4910072448259086 Ba
atom 7.6733905691644999 2.2271891567431115 58.4918746584380003 Ba
atom 2.6897875774945383 7.2107921484131143 58.4901398312139023 Ba
atom 7.7345544398173400 7.2719560190659358 58.4910072448259086 Ba
atom 5.0641508978246286 4.9339824309581966 56.0175144759174515 Zr
atom 10.0113641572722241 4.8975926987358189 56.0183818895295147 Zr
atom 5.0277611656022607 9.8811956904058391 56.0166470623054025 Zr
atom 10.0455689347827839 9.9154004679164025 56.0175144759174515 Zr
atom 5.0223098980744725 4.9461641632631279 61.1084372451540432 Zr
atom 9.9991824249672785 4.9394336984859724 61.1093046587660425 Zr
atom 5.0155794332973374 9.9230366901559766 61.1075698315419302 Zr
atom 10.0037279350326465 9.9275822002213179 61.1084372451540432 Zr
atom 4.8939324534637505 4.7984139219361959 53.4681492062894819 S
atom 10.1469326662942212 5.0678111430967183 53.4690166199015096 S
atom 5.1633296746242614 10.0514141347667181 53.4672817926775465 S
atom 9.8753504904219156 9.7798319588943681 53.4681492062894819 S
atom 5.2293281588452087 5.1657080271595390 58.5291311424590077 S
atom 9.7796385610708949 4.7324154377152476 58.5299985560709928 S
atom 4.7960355694009174 9.7160184293852616 58.5282637288469729 S
atom 10.2107461958033738 10.1471260641177157 58.5291311424590077 S
atom 5.4778833075768425 2.4373635484607394 56.1876571548282016 S
atom 9.5278157585897745 2.4371303181994088 55.8088906106336893 S
atom 4.5442127669197863 7.4207333098694033 55.8071557834096055 S
atom 10.4593013445349889 7.4187815854189294 56.1876571548282016 S
atom 5.3487550560925907 2.4414371818133276 60.7909515383750829 S
atom 9.7063215307293333 2.4433162575333474 61.2245955871392624 S
atom 4.7227185390593540 7.4269192492033467 61.2228607599151999 S
atom 10.3301730930507762 7.4228552187715184 60.7909515383750829 S
atom 2.5429620111415314 4.4860452436954201 56.1867897412162307 S
atom 7.5246132783610324 5.4175308296406710 55.8080231970216118 S
atom 2.5410102866910540 10.4011338213106654 55.8062883697976062 S
atom 7.5243800480997081 9.4674632806536092 56.1867897412162307 S
atom 2.5388883777889508 4.6151734951796444 60.7900841247630979 S
atom 7.5184273390270757 5.2390250575011104 61.2237281735272845 S
atom 2.5348243473571164 10.2226280491711297 61.2219933463032078 S
atom 7.5203064147470933 9.5965915321378557 60.7900841247631050 S
atom 2.4711476083847068 2.6030378139688541 63.3012891866621885 Ba
atom 7.3608907373033823 2.5091779512175720 63.3021566002741594 Ba
atom 2.3772877456334247 7.4927809428875802 63.3004217730501608 Ba
atom 7.4525656453428688 7.5844558509270517 63.3012891866621885 Ba
atom 4.8992528345895661 4.7590785208385897 63.6221662183557726 S
atom 10.1862680673918309 5.0624907619708912 63.6230336319677718 S
atom 5.2026650757218480 10.0460937536409034 63.6212988047437094 S
atom 9.8806708715477232 9.7404965577967744 63.6221662183557726 S
