#=======================================================
# FHI-aims file: sym_relax/sym_relax_RP_6_RxRyMz_-Rx-Ry-Mz.in
# Created using the Atomic Simulation Environment (ASE)
# Fri Mar 14 11:09:09 2025
#=======================================================
lattice_vector 10.0106915384174435 -0.0667210904531743 0.0000000000000000 
lattice_vector -0.0667210904531741 10.0106915384174915 0.0000000000000000 
lattice_vector 0.0000000000000000 0.0000000000000000 65.9336563580318398 
atom 0.0960322795760191 -0.1825091901637506 0.2185441178047093 Ba
atom 5.1878549593724799 -0.1293928248026068 0.2185441178047093 Ba
atom 0.1491486449371626 4.9093134896327326 0.2185441178047093 Ba
atom 5.0680175035581501 4.7894760338184019 0.2185441178047093 Ba
atom -0.2638272125717354 0.1853913804067293 5.0068791670579671 Ba
atom 4.8199543888019889 0.2304666673451488 5.0068791670579671 Ba
atom -0.2187519256333160 5.2691729817804953 5.0068791670579671 Ba
atom 4.7081580114103900 5.1573766043888911 5.0068791670579671 Ba
atom 2.4872584767919608 2.4744659224626426 2.4030610514031423 Zr
atom 7.5028650707282187 2.4513662019635936 2.4030610514031423 Zr
atom 2.4641587562929028 7.4900725163989215 2.4030610514031423 Zr
atom 7.4592437007740990 7.4464511464448018 2.4030610514031423 Zr
atom 2.4791741553930535 2.4892215439030192 7.4598832322131177 Zr
atom 7.4881094492878502 2.4594505233625084 7.4598832322131177 Zr
atom 2.4494031348525409 7.4981568377978487 7.4598832322131177 Zr
atom 7.4511593793751842 7.4612067678851792 7.4598832322131177 Zr
atom 2.6120432018698292 2.6954512212362647 -0.1038798071153375 S
atom 7.2818797719545953 2.3265814768857318 -0.1038798071153375 S
atom 2.2431734575192923 7.3652877913210695 -0.1038798071153375 S
atom 7.5840284258519661 7.6674364452184252 -0.1038798071153375 S
atom 2.2377882949684262 2.1884759298831535 4.9649506944593060 S
atom 7.7888550633077109 2.7008363837871343 4.9649506944593060 S
atom 2.7501487488724070 7.7395426982224640 4.9649506944593060 S
atom 7.2097735189505645 7.1604611538653113 4.9649506944593060 S
atom 2.8013070643368745 -0.0131864130892969 2.2481002390500757 S
atom 7.1879430232710950 -0.0437143657213875 2.7567404442580692 S
atom 2.1492367088357800 4.9949919487139383 2.7567404442580692 S
atom 7.7732922883190145 4.9587988108928576 2.2481002390500757 S
atom 2.8977608821272973 -0.0176192182035726 7.7868154199084225 S
atom 7.1222510955259999 -0.0477715741754873 7.1690722230026322 S
atom 2.0835447810906786 4.9909347402598456 7.1690722230026322 S
atom 7.8697461061094369 4.9543660057785823 7.7868154199084225 S
atom -0.0201741321372904 2.2040387048718606 2.2481002390500748 S
atom 4.9823390444769355 2.7893879699197863 2.7567404442580692 S
atom -0.0563672699583748 7.8280942843551209 2.7567404442580692 S
atom 4.9518110918448501 7.1760239288540211 2.2481002390500757 S
atom -0.0157413270230147 2.1075848870814395 7.7868154199084225 S
atom 4.9863962529310362 2.8550798976648797 7.1690722230026322 S
atom -0.0523100615042749 7.8937862121002134 7.1690722230026322 S
atom 4.9562438969591271 7.0795701110635987 7.7868154199084225 S
atom 0.2829962936844923 -0.1842070492320510 9.9845836599648070 Ba
atom 5.1895528184407773 -0.3163568389110815 9.9845836599648070 Ba
atom 0.1508465040054636 4.7223494755242532 9.9845836599648070 Ba
atom 5.2549815176666224 4.7877781747501063 9.9845836599648070 Ba
atom -0.2800969291993572 0.1804808351913004 14.9849218995526954 Ba
atom 4.8248649340174339 0.2467363839727708 14.9849218995526954 Ba
atom -0.2138413804178869 5.2854426984080964 14.9849218995526954 Ba
atom 4.6918882947827703 5.1524660591734524 14.9849218995526954 Ba
atom 2.4903509888202264 2.4831816368458894 12.4770711920126196 Zr
atom 7.4941493563449857 2.4482736899353372 12.4770711920126196 Zr
atom 2.4554430419096764 7.4869800043706682 12.4770711920126196 Zr
atom 7.4623362128023638 7.4551668608280446 12.4770711920126196 Zr
atom 2.4903509888202264 2.4831816368458894 17.4927726070927427 Zr
atom 7.4941493563449857 2.4482736899353372 17.4927726070927427 Zr
atom 2.4554430419096764 7.4869800043706682 17.4927726070927427 Zr
atom 7.4623362128023638 7.4551668608280446 17.4927726070927427 Zr
atom 2.7514840242448551 2.8127352375596080 9.9765977865171074 S
atom 7.1645957556312680 2.1871406545107011 9.9765977865171074 S
atom 2.1258894411959526 7.2258469689460343 9.9765977865171074 S
atom 7.7234692482269978 7.7847204615417622 9.9765977865171074 S
atom 2.2212117667701117 2.1533183999186951 14.9849218995526954 S
atom 7.8240125932721742 2.7174129119854520 14.9849218995526954 S
atom 2.7853062788368645 7.7561192264207746 14.9849218995526954 S
atom 7.1931969907522495 7.1253036239008596 14.9849218995526954 S
atom 2.8886556989362120 -0.0204862767787255 12.1654122653962311 S
atom 7.1258338538106951 -0.0509567495246531 12.8032964315336351 S
atom 2.0871275393753761 4.9877495649106764 12.8032964315336351 S
atom 7.8606409229183347 4.9514989472034268 12.1654122653962311 S
atom 2.8886556989362120 -0.0204862767787255 17.8044315337091348 S
atom 7.1258338538106951 -0.0509567495246531 17.1665473675717735 S
atom 2.0871275393753761 4.9877495649106764 17.1665473675717735 S
atom 7.8606409229183347 4.9514989472034268 17.8044315337091348 S
atom -0.0128742684478618 2.1166900702725191 12.1654122653962311 S
atom 4.9895814282802036 2.8514971393801809 12.8032964315336351 S
atom -0.0491248861551091 7.8902034538155066 12.8032964315336351 S
atom 4.9591109555342721 7.0886752942546742 12.1654122653962311 S
atom -0.0128742684478618 2.1166900702725191 17.8044315337091348 S
atom 4.9895814282802036 2.8514971393801809 17.1665473675717735 S
atom -0.0491248861551091 7.8902034538155066 17.1665473675717735 S
atom 4.9591109555342721 7.0886752942546742 17.8044315337091348 S
atom 0.2829962936844923 -0.1842070492320510 19.9852601391405891 Ba
atom 5.1895528184407773 -0.3163568389110815 19.9852601391405891 Ba
atom 0.1508465040054636 4.7223494755242532 19.9852601391405891 Ba
atom 5.2549815176666224 4.7877781747501063 19.9852601391405891 Ba
atom -0.2638272125717354 0.1853913804067293 24.9629646320474876 Ba
atom 4.8199543888019889 0.2304666673451488 24.9629646320474876 Ba
atom -0.2187519256333159 5.2691729817804953 24.9629646320474876 Ba
atom 4.7081580114103900 5.1573766043888911 24.9629646320474876 Ba
atom 2.4791741553930535 2.4892215439030192 22.5099605668922749 Zr
atom 7.4881094492878502 2.4594505233625084 22.5099605668922749 Zr
atom 2.4494031348525409 7.4981568377978487 22.5099605668922749 Zr
atom 7.4511593793751842 7.4612067678851792 22.5099605668922749 Zr
atom 2.4872584767919608 2.4744659224626426 27.5667827477022698 Zr
atom 7.5028650707282187 2.4513662019635936 27.5667827477022698 Zr
atom 2.4641587562929028 7.4900725163989215 27.5667827477022698 Zr
atom 7.4592437007740990 7.4464511464448018 27.5667827477022698 Zr
atom 2.7514840242448551 2.8127352375596080 19.9932460125883189 S
atom 7.1645957556312680 2.1871406545107011 19.9932460125883189 S
atom 2.1258894411959526 7.2258469689460343 19.9932460125883189 S
atom 7.7234692482269978 7.7847204615417622 19.9932460125883189 S
atom 2.2377882949684262 2.1884759298831535 25.0048931046461185 S
atom 7.7888550633077109 2.7008363837871343 25.0048931046461185 S
atom 2.7501487488724070 7.7395426982224640 25.0048931046461185 S
atom 7.2097735189505645 7.1604611538653113 25.0048931046461185 S
atom 2.8977608821272973 -0.0176192182035726 22.1830283791969975 S
atom 7.1222510955259999 -0.0477715741754873 22.8007715761027505 S
atom 2.0835447810906786 4.9909347402598456 22.8007715761027505 S
atom 7.8697461061094369 4.9543660057785823 22.1830283791969975 S
atom 2.8013070643368745 -0.0131864130892969 27.7217435600552946 S
atom 7.1879430232710950 -0.0437143657213875 27.2131033548473056 S
atom 2.1492367088357800 4.9949919487139383 27.2131033548473056 S
atom 7.7732922883190145 4.9587988108928576 27.7217435600552946 S
atom -0.0157413270230147 2.1075848870814395 22.1830283791969975 S
atom 4.9863962529310362 2.8550798976648797 22.8007715761027505 S
atom -0.0523100615042749 7.8937862121002134 22.8007715761027505 S
atom 4.9562438969591271 7.0795701110635987 22.1830283791969975 S
atom -0.0201741321372904 2.2040387048718606 27.7217435600552946 S
atom 4.9823390444769355 2.7893879699197863 27.2131033548473056 S
atom -0.0563672699583748 7.8280942843551209 27.2131033548473056 S
atom 4.9518110918448501 7.1760239288540211 27.7217435600552946 S
atom 0.0960322795760191 -0.1825091901637506 29.7512996813006794 Ba
atom 5.1878549593724799 -0.1293928248026068 29.7512996813006794 Ba
atom 0.1491486449371626 4.9093134896327326 29.7512996813006794 Ba
atom 5.0680175035581501 4.7894760338184019 29.7512996813006794 Ba
atom 2.6120432018698292 2.6954512212362647 30.0737236062207245 S
atom 7.2818797719545953 2.3265814768857309 30.0737236062207245 S
atom 2.2431734575192923 7.3652877913210695 30.0737236062207245 S
atom 7.5840284258519661 7.6674364452184252 30.0737236062207245 S
atom 2.6685018021548204 2.3899603324150580 33.1853722968206668 Ba
atom 7.5873706607758074 2.2701228766007433 33.1853722968206668 Ba
atom 2.5486643463404977 7.3088291910360663 33.1853722968206668 Ba
atom 7.6404870261369551 7.3619455563972203 33.1853722968206668 Ba
atom 2.3006012315843427 2.7498198245628180 37.9737073460739936 Ba
atom 7.2275111686280473 2.6380234471712209 37.9737073460739936 Ba
atom 2.1888048541927452 7.6767297616065546 37.9737073460739936 Ba
atom 7.2725864555664836 7.7218050485449767 37.9737073460739936 Ba
atom 4.9835119135105694 4.9707193591812553 35.3698892304191261 Zr
atom 9.9785968579917768 4.9270979892271383 35.3698892304191261 Zr
atom 4.9398905435564462 9.9658043036624626 35.3698892304191261 Zr
atom 9.9554971374926939 9.9427045831633993 35.3698892304191261 Zr
atom 4.9687562920702044 4.9788036805801843 40.4267114112290784 Zr
atom 9.9705125365928460 4.9418536106675148 40.4267114112290784 Zr
atom 4.9318062221575349 9.9805599251028383 40.4267114112290784 Zr
atom 9.9407415160523396 9.9507889045623319 40.4267114112290784 Zr
atom 4.7625266147369389 4.8459346341034024 32.8629483719005577 S
atom 10.1033815830696181 5.1480832880007625 32.8629483719005577 S
atom 5.0646752686342991 10.1867896024361002 32.8629483719005577 S
atom 9.7345118387190777 9.8179198580855349 32.8629483719005577 S
atom 5.2695019060900581 5.2201895410048014 37.9317788734752810 S
atom 9.7291266761682209 4.6411079966476434 37.9317788734752810 S
atom 4.6904203617329170 9.6798143110829855 37.9317788734752810 S
atom 10.2414871300721835 10.1921747649869641 37.9317788734752810 S
atom 4.6685898660534288 2.4756387914962783 35.7235686232739909 S
atom 10.2926454455366834 2.4394456536751994 35.2149284180660445 S
atom 5.2539391311013564 7.4781519681105166 35.2149284180660445 S
atom 9.6405750900355756 7.4476240154784339 35.7235686232739909 S
atom 4.6028979383083382 2.4715815830421768 40.1359004020185637 S
atom 10.3890992633270702 2.4350128485609148 40.7536435989243273 S
atom 5.3503929488917787 7.4737191629962432 40.7536435989243273 S
atom 9.5748831622904742 7.4435668070243386 40.1359004020185637 S
atom 2.4629858872592871 5.3087411271374503 35.7235686232739909 S
atom 7.4711642490625083 4.6566707716363496 35.2149284180660445 S
atom 2.4324579346271911 9.6953770860716713 35.2149284180660445 S
atom 7.4349711112414179 10.2807263511195881 35.7235686232739909 S
atom 2.4670430957133855 5.3744330548825499 40.1359004020185637 S
atom 7.4755970541767791 4.5602169538459290 40.7536435989243273 S
atom 2.4368907397414645 9.5989232682812737 40.7536435989243273 S
atom 7.4390283196955123 10.3464182788647214 40.1359004020185637 S
atom 2.6701996612231209 2.2029963183065870 42.9514118389807251 Ba
atom 7.7743346748842868 2.2684250175324401 42.9514118389807251 Ba
atom 2.7356283604489704 7.3071313319677760 42.9514118389807251 Ba
atom 7.6421848852052507 7.1749815422887471 42.9514118389807251 Ba
atom 2.3055117767997673 2.7660895411904396 47.9517500785686295 Ba
atom 7.2112414520004275 2.6331129019557911 47.9517500785686295 Ba
atom 2.1725351375651196 7.6718192163911167 47.9517500785686295 Ba
atom 7.2774970007819038 7.7380747651725921 47.9517500785686295 Ba
atom 4.9747961991273311 4.9676268471530003 45.4438993710285644 Zr
atom 9.9816893700200264 4.9358137036103802 45.4438993710285644 Zr
atom 4.9429830555847012 9.9745200180457072 45.4438993710285644 Zr
atom 9.9467814231094493 9.9396120711351550 45.4438993710285644 Zr
atom 4.9747961991273311 4.9676268471530003 50.4596007861086804 Zr
atom 9.9816893700200264 4.9358137036103802 50.4596007861086804 Zr
atom 4.9429830555847012 9.9745200180457072 50.4596007861086804 Zr
atom 9.9467814231094493 9.9396120711351550 50.4596007861086804 Zr
atom 4.6452425984136099 4.7064938117283663 42.9434259655330592 S
atom 10.2428224054446506 5.2653673043240934 42.9434259655330592 S
atom 5.2041160910093396 10.3040736187594426 42.9434259655330592 S
atom 9.6172278223957370 9.6784790357105361 42.9434259655330592 S
atom 5.3046594360545196 5.2367660692031164 47.9517500785686295 S
atom 9.7125501479699174 4.6059504666831810 47.9517500785686295 S
atom 4.6738438335345922 9.6446567811185240 47.9517500785686295 S
atom 10.2766446600366432 10.2087512931852658 47.9517500785686295 S
atom 4.6064806965930378 2.4683964076930112 45.7701246105495940 S
atom 10.3799940801359938 2.4321457899857637 45.1322404444121830 S
atom 5.3412877657006890 7.4708521044210956 45.1322404444121830 S
atom 9.5784659205751606 7.4403816316751694 45.7701246105495940 S
atom 4.6064806965930378 2.4683964076930112 50.1333755465877005 S
atom 10.3799940801359938 2.4321457899857637 50.7712597127250476 S
atom 5.3412877657006890 7.4708521044210956 50.7712597127250476 S
atom 9.5784659205751606 7.4403816316751694 50.1333755465877005 S
atom 2.4702282710625463 5.3708502965978537 45.7701246105495940 S
atom 7.4784641127519320 4.5693221370370045 45.1322404444121830 S
atom 2.4397577983166157 9.6080284514723555 45.1322404444121830 S
atom 7.4422134950446877 10.3428355205800084 45.7701246105495940 S
atom 2.4702282710625463 5.3708502965978537 50.1333755465877005 S
atom 7.4784641127519320 4.5693221370370045 50.7712597127250476 S
atom 2.4397577983166157 9.6080284514723555 50.7712597127250476 S
atom 7.4422134950446877 10.3428355205800084 50.1333755465877005 S
atom 2.6701996612231209 2.2029963183065870 52.9520883181565196 Ba
atom 7.7743346748842868 2.2684250175324401 52.9520883181565196 Ba
atom 2.7356283604489704 7.3071313319677760 52.9520883181565196 Ba
atom 7.6421848852052507 7.1749815422887471 52.9520883181565196 Ba
atom 2.3006012315843427 2.7498198245628180 57.9297928110632938 Ba
atom 7.2275111686280473 2.6380234471712209 57.9297928110632938 Ba
atom 2.1888048541927452 7.6767297616065546 57.9297928110632938 Ba
atom 7.2725864555664836 7.7218050485449767 57.9297928110632938 Ba
atom 4.9687562920702044 4.9788036805801843 55.4767887459081379 Zr
atom 9.9705125365928460 4.9418536106675148 55.4767887459081379 Zr
atom 4.9318062221575349 9.9805599251028383 55.4767887459081379 Zr
atom 9.9407415160523396 9.9507889045623319 55.4767887459081379 Zr
atom 4.9835119135105694 4.9707193591812553 60.5336109267181257 Zr
atom 9.9785968579917768 4.9270979892271383 60.5336109267181257 Zr
atom 4.9398905435564462 9.9658043036624626 60.5336109267181257 Zr
atom 9.9554971374926939 9.9427045831633993 60.5336109267181257 Zr
atom 4.6452425984136099 4.7064938117283663 52.9600741916042779 S
atom 10.2428224054446506 5.2653673043240934 52.9600741916042779 S
atom 5.2041160910093396 10.3040736187594426 52.9600741916042779 S
atom 9.6172278223957370 9.6784790357105361 52.9600741916042779 S
atom 5.2695019060900581 5.2201895410048014 57.9717212836620774 S
atom 9.7291266761682209 4.6411079966476434 57.9717212836620774 S
atom 4.6904203617329170 9.6798143110829855 57.9717212836620774 S
atom 10.2414871300721835 10.1921747649869641 57.9717212836620774 S
atom 4.6028979383083382 2.4715815830421768 55.7675997551187592 S
atom 10.3890992633270702 2.4350128485609148 55.1498565582129245 S
atom 5.3503929488917787 7.4737191629962432 55.1498565582129245 S
atom 9.5748831622904742 7.4435668070243386 55.7675997551187592 S
atom 4.6685898660534288 2.4756387914962783 60.1799315338632894 S
atom 10.2926454455366834 2.4394456536751994 60.6885717390712855 S
atom 5.2539391311013564 7.4781519681105166 60.6885717390712855 S
atom 9.6405750900355756 7.4476240154784339 60.1799315338632894 S
atom 2.4670430957133855 5.3744330548825499 55.7675997551187592 S
atom 7.4755970541767791 4.5602169538459290 55.1498565582129245 S
atom 2.4368907397414645 9.5989232682812737 55.1498565582129245 S
atom 7.4390283196955123 10.3464182788647214 55.7675997551187592 S
atom 2.4629858872592871 5.3087411271374503 60.1799315338632894 S
atom 7.4711642490625083 4.6566707716363496 60.6885717390712855 S
atom 2.4324579346271911 9.6953770860716713 60.6885717390712855 S
atom 7.4349711112414179 10.2807263511195881 60.1799315338632894 S
atom 2.6685018021548204 2.3899603324150585 62.7181278603166206 Ba
atom 7.5873706607758074 2.2701228766007433 62.7181278603166206 Ba
atom 2.5486643463404977 7.3088291910360663 62.7181278603166206 Ba
atom 7.6404870261369551 7.3619455563972203 62.7181278603166206 Ba
atom 4.7625266147369389 4.8459346341034024 63.0405517852367225 S
atom 10.1033815830696181 5.1480832880007625 63.0405517852367225 S
atom 5.0646752686342991 10.1867896024361002 63.0405517852367225 S
atom 9.7345118387190777 9.8179198580855331 63.0405517852367225 S
