#=======================================================
# FHI-aims file: sym_relax/sym_relax_RP_6_RxRyRz_-Rx-RyRz.in
# Created using the Atomic Simulation Environment (ASE)
# Fri Mar 14 11:08:47 2025
#=======================================================
lattice_vector 9.9638950064663838 -0.0035907921116658 -0.0000000000000000 
lattice_vector -0.0035907921116664 9.9638950064664531 -0.0000000000000000 
lattice_vector 0.0000000000000000 -0.0000000000000000 66.5347921465116485 
atom 0.0331553951650543 -0.1225869377007549 0.2023739990989161 Ba
atom 5.1045344409339455 -0.0349507912208873 0.2023739990989160 Ba
atom 0.1207915416449211 4.9487921080681838 0.2023739990989160 Ba
atom 5.0133075023424105 4.8575651694766524 0.2023739990989161 Ba
atom -0.2550264922098497 0.1912394015917139 5.0172591564631821 Ba
atom 4.7907081016414583 0.2532310961540193 5.0172591564631821 Ba
atom -0.1930347976475445 5.2369739954431056 5.0172591564631821 Ba
atom 4.7251256149674949 5.1713915087691298 5.0172591564631821 Ba
atom 2.4581188101416660 2.5162995002825035 2.4004250782315077 Zr
atom 7.4458001101280722 2.5202379009798870 2.4004250782315077 Zr
atom 2.4620572108390477 7.5039808002689599 2.4004250782315077 Zr
atom 7.4382709173190298 7.4964516074599032 2.4004250782315077 Zr
atom 2.4167483604045477 2.5279612851859872 7.4913249354818330 Zr
atom 7.4341383252245761 2.5616083507170062 7.4913249354818330 Zr
atom 2.4503954259355663 7.5453512500060738 7.4913249354818330 Zr
atom 7.3969004675819132 7.5081133923633914 7.4913249354818330 Zr
atom 2.5790617609862885 2.7063171965512574 -0.1141801149460298 S
atom 7.2557824138593077 2.3992949501352583 -0.1141801149460298 S
atom 2.2720395145702947 7.3830378494243458 -0.1141801149460298 S
atom 7.5592138681636323 7.6864693037286607 -0.1141801149460298 S
atom 2.2512847901123108 2.2967928512118720 4.9792309978693217 S
atom 7.6653067591987005 2.7270719210092431 4.9792309978693217 S
atom 2.6815638599096689 7.7108148202983129 4.9792309978693217 S
atom 7.2314368972896705 7.2769449583892749 4.9792309978693217 S
atom 2.7658568718477290 0.0356741272586252 2.2839084824410563 S
atom 7.1105132441983070 0.0367962367644738 2.7176072501520472 S
atom 2.1267703449093065 5.0205391360535518 2.7176072501520472 S
atom 7.7460089790250901 5.0158262344360436 2.2839084824410563 S
atom 2.9375733992052875 0.0416091521328631 7.7009208462964640 S
atom 6.9861706538214152 0.0406764974205424 7.3216844176164706 S
atom 2.0024277545323854 5.0244193967096233 7.3216844176164706 S
atom 7.9177255063826459 5.0217612593102787 7.7009208462964640 S
atom -0.0374695233144576 2.2160906313854847 2.2839084824410563 S
atom 4.9415604743570372 2.8515863662122500 2.7176072501520472 S
atom -0.0421824249319737 7.8353292655013291 2.7176072501520472 S
atom 4.9426825838628785 7.1962427385629022 2.2839084824410563 S
atom -0.0434045481886956 2.0443741040279195 7.7009208462964640 S
atom 4.9376802137009799 2.9759289565891662 7.3216844176164706 S
atom -0.0460626855880418 7.9596718558782449 7.3216844176164706 S
atom 4.9367475589886567 7.0245262112053402 7.7009208462964640 S
atom -0.0009044546404592 -0.0808418997838428 10.0460661017943753 Ba
atom 5.0627894030170291 -0.0008909414153739 10.0460661017943753 Ba
atom 0.0790465037280089 4.9828519578737094 10.0460661017943753 Ba
atom 4.9792476525368841 4.8993102073935697 10.0460661017943753 Ba
atom 0.0457550339040459 0.0457550339040464 15.1215436696616994 Ba
atom 4.9361924693291419 -0.0475504299598795 15.1215436696616994 Ba
atom -0.0475504299598789 4.9361924693291934 15.1215436696616994 Ba
atom 5.0259071410813965 5.0259071410814622 15.1215436696616994 Ba
atom 2.4976219061635558 2.4931698288458071 12.5755016053404169 Zr
atom 7.4689297815647473 2.4807348049579958 12.5755016053404169 Zr
atom 2.4851868822757388 7.4644777042470665 12.5755016053404169 Zr
atom 7.4777740133409267 7.4733219360232290 12.5755016053404169 Zr
atom 2.4931698288457844 2.4976219061635807 17.6675857339830387 Zr
atom 7.4644777042469945 2.4851868822757699 17.6675857339830387 Zr
atom 2.4807348049579678 7.4689297815648361 17.6675857339830387 Zr
atom 7.4733219360231384 7.4777740133410022 17.6675857339830387 Zr
atom 2.5866166395702561 2.6627515442672682 10.0408224721163855 S
atom 7.2993480661433026 2.3917400715512867 10.0408224721163855 S
atom 2.3156051668542865 7.3754829708403671 10.0408224721163855 S
atom 7.5667687467476119 7.6429036514446791 10.0408224721163855 S
atom 2.4118701840676464 2.4118701840676864 15.1215436696616994 S
atom 7.5502294263428968 2.5664865270538924 15.1215436696616994 S
atom 2.5664865270538679 7.5502294263429777 15.1215436696616994 S
atom 7.3920222912449995 7.3920222912450884 15.1215436696616994 S
atom 2.0045614147599697 0.0011064037998182 12.5092577077694163 S
atom 7.9893559959666529 0.0001274024712574 12.6577616142264731 S
atom 3.0056130966776067 4.9838703017603425 12.6577616142264731 S
atom 6.9847135219373317 4.9812585109772360 12.5092577077694163 S
atom 2.9773860884732208 -0.0029017998556513 17.7338296315540056 S
atom 6.9564865137329415 -0.0055135906387573 17.5853257250969541 S
atom 1.9727436144439121 4.9782293086503131 17.5853257250969541 S
atom 7.9575381956505780 4.9772503073217482 17.7338296315540056 S
atom -0.0029017998556512 2.9773860884732568 12.5092577077694163 S
atom 4.9782293086502536 1.9727436144439379 12.6577616142264731 S
atom -0.0055135906387579 6.9564865137330054 12.6577616142264731 S
atom 4.9772503073216994 7.9575381956506552 12.5092577077694163 S
atom 0.0011064037998182 2.0045614147599897 17.7338296315540056 S
atom 4.9838703017602821 3.0056130966776444 17.5853257250969541 S
atom 0.0001274024712572 7.9893559959667364 17.5853257250969541 S
atom 4.9812585109771739 6.9847135219374099 17.7338296315540056 S
atom -0.0808418997838419 -0.0009044546404592 20.1970212375290714 Ba
atom 4.9828519578736454 0.0790465037280096 20.1970212375290714 Ba
atom -0.0008909414153738 5.0627894030170886 20.1970212375290714 Ba
atom 4.8993102073935093 4.9792476525369471 20.1970212375290714 Ba
atom 0.1912394015917117 -0.2550264922098525 25.2258281828602335 Ba
atom 5.2369739954430523 -0.1930347976475472 25.2258281828602335 Ba
atom 0.2532310961540163 4.7907081016415205 25.2258281828602335 Ba
atom 5.1713915087690774 4.7251256149675438 25.2258281828602335 Ba
atom 2.5279612851859570 2.4167483604045765 22.7517624038416066 Zr
atom 7.5453512500059920 2.4503954259355933 22.7517624038416066 Zr
atom 2.5616083507169725 7.4341383252246747 22.7517624038416066 Zr
atom 7.5081133923633132 7.3969004675820003 22.7517624038416066 Zr
atom 2.5162995002824751 2.4581188101416931 27.8426622610918884 Zr
atom 7.5039808002688853 2.4620572108390752 27.8426622610918884 Zr
atom 2.5202379009798586 7.4458001101281521 27.8426622610918884 Zr
atom 7.4964516074598198 7.4382709173191008 27.8426622610918884 Zr
atom 2.6627515442672314 2.5866166395702894 20.2022648672070275 S
atom 7.3754829708402747 2.3156051668543092 20.2022648672070275 S
atom 2.3917400715512676 7.2993480661433878 20.2022648672070275 S
atom 7.6429036514445929 7.5667687467477034 20.2022648672070275 S
atom 2.2967928512118454 2.2512847901123378 25.2638563414540975 S
atom 7.7108148202982232 2.6815638599097062 25.2638563414540975 S
atom 2.7270719210092134 7.6653067591987938 25.2638563414540975 S
atom 7.2769449583891976 7.2314368972897487 25.2638563414540975 S
atom 2.0443741040278955 -0.0434045481886961 22.5421664930269756 S
atom 7.9596718558781561 -0.0460626855880422 22.9214029217069459 S
atom 2.9759289565891320 4.9376802137010332 22.9214029217069459 S
atom 7.0245262112052478 4.9367475589887269 22.5421664930269756 S
atom 2.2160906313854589 -0.0374695233144585 27.9591788568823709 S
atom 7.8353292655012394 -0.0421824249319734 27.5254800891713742 S
atom 2.8515863662122114 4.9415604743571002 27.5254800891713742 S
atom 7.1962427385628169 4.9426825838629442 27.9591788568823709 S
atom 0.0416091521328625 2.9375733992053239 22.5421664930269756 S
atom 5.0244193967095647 2.0024277545324112 22.9214029217069459 S
atom 0.0406764974205411 6.9861706538214881 22.9214029217069459 S
atom 5.0217612593102166 7.9177255063827365 22.5421664930269756 S
atom 0.0356741272586247 2.7658568718477587 27.9591788568823709 S
atom 5.0205391360535012 2.1267703449093229 27.5254800891713742 S
atom 0.0367962367644730 7.1105132441984109 27.5254800891713742 S
atom 5.0158262344359859 7.7460089790251745 27.9591788568823709 S
atom -0.1225869377007540 0.0331553951650542 30.0407133402244746 Ba
atom 4.9487921080681225 0.1207915416449220 30.0407133402244746 Ba
atom -0.0349507912208873 5.1045344409339979 30.0407133402244746 Ba
atom 4.8575651694765911 5.0133075023424727 30.0407133402244746 Ba
atom 2.7063171965512320 2.5790617609863222 30.3572674542694436 S
atom 7.3830378494242508 2.2720395145703209 30.3572674542694436 S
atom 2.3992949501352312 7.2557824138594000 30.3572674542694436 S
atom 7.6864693037285807 7.5592138681637300 30.3572674542694436 S
atom 2.4569206584236269 2.6126629912894597 33.4697700723545850 Ba
atom 7.3494366191211027 2.5214360526979238 33.4697700723545850 Ba
atom 2.3656937198320898 7.5051789519870065 33.4697700723545850 Ba
atom 7.4370727656009761 7.5928150984668683 33.4697700723545850 Ba
atom 2.7451025457985230 2.2988366519969943 38.2846552297190641 Ba
atom 7.6632629584135810 2.2332541653230229 38.2846552297190641 Ba
atom 2.6795200591245494 7.2169970646120891 38.2846552297190641 Ba
atom 7.7252546529758837 7.2789887591743927 38.2846552297190641 Ba
atom 5.0121093506243612 4.9539286604836166 35.6678211514872459 Zr
atom 9.9883230571043313 4.9463994676745555 35.6678211514872459 Zr
atom 5.0045801578153197 9.9301423669636435 35.6678211514872459 Zr
atom 9.9922614578017281 9.9340807676610350 35.6678211514872459 Zr
atom 5.0534798003614698 4.9422668755801311 40.7587210087375524 Zr
atom 9.9999848420078195 4.9050290179374656 40.7587210087375524 Zr
atom 5.0162419427187963 9.8887719172265278 40.7587210087375524 Zr
atom 10.0336319075388261 9.9224189827575415 40.7587210087375524 Zr
atom 4.8911663997797534 4.7639109642148671 33.1532159583097439 S
atom 10.1783407533730976 5.0673424185191855 33.1532159583097439 S
atom 5.1945978540840585 10.0510853178082833 33.1532159583097439 S
atom 9.8713185069571221 9.7440630713922651 33.1532159583097439 S
atom 5.2189433706537134 5.1734353095542511 38.2466270711250544 S
atom 9.7688164080337110 4.7395654476452096 38.2466270711250544 S
atom 4.7850735087446772 9.7233083469343136 38.2466270711250544 S
atom 10.1990954778310563 10.1535874167316464 38.2466270711250544 S
atom 5.3434578158567314 2.4496890247125633 35.9850033234078381 S
atom 9.6881141882073152 2.4508111342184145 35.5513045556968237 S
atom 4.7043712889183027 7.4345540335074851 35.5513045556968237 S
atom 10.3236099230340841 7.4298411318899777 35.9850033234078381 S
atom 5.4678004062336418 2.4458087640564998 40.5890804908722416 S
atom 9.5163976608497727 2.4448761093441775 40.9683169195522439 S
atom 4.5326547615607380 7.4286190086332571 40.9683169195522439 S
atom 10.4479525134110069 7.4259608712339027 40.5890804908722416 S
atom 2.5286676864089825 4.6186417945538620 35.9850033234078381 S
atom 7.5076976840804948 5.2541375293806327 35.5513045556968237 S
atom 2.5239547847914703 10.2378804286697136 35.5513045556968237 S
atom 7.5088197935863485 9.5987939017312858 35.9850033234078381 S
atom 2.5325479470650500 4.4942992041769498 40.5890804908722416 S
atom 7.5136327089547326 5.4258540567382054 40.9683169195522439 S
atom 2.5298898096657099 10.4095969560272632 40.9683169195522439 S
atom 7.5127000542423987 9.4744513113543505 40.5890804908722416 S
atom 2.4909805082291392 2.5709179533725472 43.3134621750501339 Ba
atom 7.3911816570380173 2.4873762028924125 43.3134621750501339 Ba
atom 2.4074387577489991 7.4711191021814916 43.3134621750501339 Ba
atom 7.4711326154064936 7.5510700605499599 43.3134621750501339 Ba
atom 2.4443210196846339 2.4443210196846632 48.3889397429174508 Ba
atom 7.5177785907259089 2.5340356914369129 48.3889397429174508 Ba
atom 2.5340356914368858 7.5177785907259924 48.3889397429174437 Ba
atom 7.4244731268619901 7.4244731268620727 48.3889397429174508 Ba
atom 4.9726062546024643 4.9770583319203041 45.8428976785961950 Zr
atom 9.9651933856676482 4.9859025636964631 45.8428976785961950 Zr
atom 4.9814504863786384 9.9696454629855378 45.8428976785961950 Zr
atom 9.9527583617798303 9.9572104390977128 45.8428976785961950 Zr
atom 4.9770583319202295 4.9726062546025327 50.9349818072387208 Zr
atom 9.9696454629854117 4.9814504863786890 50.9349818072387208 Zr
atom 4.9859025636964027 9.9651933856677601 50.9349818072387208 Zr
atom 9.9572104390976239 9.9527583617799458 50.9349818072387208 Zr
atom 4.8836115211957711 4.8074766164988478 43.3082185453721564 S
atom 10.1347751010890725 5.0748972971031590 43.3082185453721564 S
atom 5.1510322018000849 10.0586401963922185 43.3082185453721564 S
atom 9.8637636283731229 9.7876287236762796 43.3082185453721564 S
atom 5.0583579766983915 5.0583579766984483 48.3889397429174508 S
atom 9.8838937408895422 4.9001508416005608 48.3889397429174508 S
atom 4.9001508416004862 9.8838937408896559 48.3889397429174437 S
atom 10.0385100838756998 10.0385100838758170 48.3889397429174508 S
atom 4.4646150640884130 2.4863578590057802 45.9251576874821339 S
atom 10.4494096452950842 2.4853788576772242 45.7766537810251322 S
atom 5.4656667460060513 7.4691217569662935 45.7766537810251322 S
atom 9.4447671712657701 7.4665099661831844 45.9251576874821339 S
atom 5.4974845463221316 2.4919988521157972 50.8527217983526896 S
atom 9.4765849715818415 2.4893870613326903 51.0012257048098192 S
atom 4.4928420722928264 7.4731299606217698 51.0012257048098192 S
atom 10.4776366534994505 7.4721509592932094 50.8527217983526896 S
atom 2.4919988521157683 5.4974845463221920 45.9251576874821339 S
atom 7.4731299606216828 4.4928420722928664 45.7766537810251322 S
atom 2.4893870613326525 9.4765849715819463 45.7766537810251322 S
atom 7.4721509592931197 10.4776366534995802 45.9251576874821339 S
atom 2.4863578590057540 4.4646150640884752 50.8527217983526896 S
atom 7.4691217569662012 5.4656667460061232 51.0012257048098192 S
atom 2.4853788576771874 10.4494096452952068 51.0012257048098192 S
atom 7.4665099661830974 9.4447671712659034 50.8527217983526896 S
atom 2.5709179533725184 2.4909805082291667 53.4644173107848033 Ba
atom 7.4711191021814027 2.4074387577490315 53.4644173107848033 Ba
atom 2.4873762028923827 7.3911816570381061 53.4644173107848033 Ba
atom 7.5510700605498755 7.4711326154065834 53.4644173107848033 Ba
atom 2.2988366519969645 2.7451025457985589 58.4932242561159370 Ba
atom 7.2169970646120030 2.6795200591245854 58.4932242561159370 Ba
atom 2.2332541653229994 7.6632629584136751 58.4932242561159370 Ba
atom 7.2789887591743119 7.7252546529759742 58.4932242561159370 Ba
atom 4.9422668755800858 5.0534798003615302 56.0191584770973847 Zr
atom 9.8887719172263893 5.0162419427188611 56.0191584770973847 Zr
atom 4.9050290179373981 9.9999848420079349 56.0191584770973847 Zr
atom 9.9224189827574190 10.0336319075389415 56.0191584770973847 Zr
atom 4.9539286604835722 5.0121093506244305 61.1100583343477055 Zr
atom 9.9301423669635085 5.0045801578153712 61.1100583343477055 Zr
atom 4.9463994676745022 9.9883230571044468 61.1100583343477055 Zr
atom 9.9340807676609124 9.9922614578018401 61.1100583343477055 Zr
atom 4.8074766164988008 4.8836115211958351 53.4696609404627736 S
atom 10.0586401963921102 5.1510322018001347 53.4696609404627736 S
atom 5.0748972971031030 10.1347751010891951 53.4696609404627736 S
atom 9.7876287236761836 9.8637636283732313 53.4696609404627736 S
atom 5.1734353095541890 5.2189433706537747 58.5312524147097761 S
atom 9.7233083469342017 4.7850735087447420 58.5312524147097761 S
atom 4.7395654476451483 9.7688164080338247 58.5312524147097761 S
atom 10.1535874167315487 10.1990954778311735 58.5312524147097761 S
atom 4.4942992041768939 2.5325479470650798 56.1887989949627169 S
atom 10.4095969560271406 2.5298898096657347 55.8095625662827075 S
atom 5.4258540567381370 7.5136327089548178 55.8095625662827075 S
atom 9.4744513113542546 7.5127000542424964 56.1887989949627169 S
atom 4.6186417945538087 2.5286676864090185 60.7928761624270777 S
atom 10.2378804286696017 2.5239547847914983 61.2265749301381064 S
atom 5.2541375293805830 7.5076976840805791 61.2265749301381064 S
atom 9.5987939017311490 7.5088197935864365 60.7928761624270777 S
atom 2.4458087640564719 5.4678004062337067 56.1887989949627169 S
atom 7.4286190086331745 4.5326547615608010 55.8095625662827075 S
atom 2.4448761093441531 9.5163976608498722 55.8095625662827075 S
atom 7.4259608712338228 10.4479525134111260 56.1887989949627169 S
atom 2.4496890247125336 5.3434578158567794 60.7928761624270777 S
atom 7.4345540335074043 4.7043712889183551 61.2265749301381064 S
atom 2.4508111342183847 9.6881141882074395 61.2265749301381064 S
atom 7.4298411318898898 10.3236099230342049 60.7928761624270777 S
atom 2.6126629912894290 2.4569206584236554 63.3081094134802669 Ba
atom 7.5051789519869123 2.3656937198321213 63.3081094134802669 Ba
atom 2.5214360526978985 7.3494366191211942 63.3081094134802669 Ba
atom 7.5928150984667786 7.4370727656010560 63.3081094134802669 Ba
atom 4.7639109642148112 4.8911663997798103 63.6246635275251577 S
atom 10.0510853178081518 5.1945978540841304 63.6246635275251577 S
atom 5.0673424185191278 10.1783407533732007 63.6246635275251577 S
atom 9.7440630713921585 9.8713185069572145 63.6246635275251577 S
