#=======================================================
# FHI-aims file: sym_relax/sym_relax_RP_5_Rx00_0Ry0.in
# Created using the Atomic Simulation Environment (ASE)
# Fri Mar 14 10:48:44 2025
#=======================================================
lattice_vector 10.0851565031464290 -0.0000000000000004 0.0000000000000000 
lattice_vector -0.0000000000000004 10.0851565031464290 -0.0000000000000000 
lattice_vector -0.0000000000000000 -0.0000000000000000 55.1728149013276763 
atom -0.1697112348160061 0.0000000000000000 0.2927151787787388 Ba
atom 5.2122894863892171 -0.0000000000000000 0.2927151787787389 Ba
atom 0.1697112348160060 5.0425782515732136 0.2927151787787389 Ba
atom 4.8728670167572066 5.0425782515732136 0.2927151787787389 Ba
atom 0.0273176708891732 -0.0000000000000000 4.9622026524557343 Ba
atom 5.0152605806840374 0.0000000000000000 4.9622026524557343 Ba
atom -0.0273176708891732 5.0425782515732136 4.9622026524557343 Ba
atom 5.0698959224623872 5.0425782515732136 4.9622026524557343 Ba
atom 2.5212891257866068 2.4992101775811495 2.3410920639747097 Zr
atom 7.5638673773598226 2.5433680739920654 2.3410920639747097 Zr
atom 2.5212891257866068 7.5859463255652804 2.3410920639747097 Zr
atom 7.5638673773598226 7.5417884291543711 2.3410920639747097 Zr
atom 2.5212891257866068 2.5208405993260699 7.3554408055555047 Zr
atom 7.5638673773598226 2.5217376522471433 7.3554408055555047 Zr
atom 2.5212891257866068 7.5643159038203542 7.3554408055555047 Zr
atom 7.5638673773598226 7.5634188508992892 7.3554408055555047 Zr
atom 2.5212891257866068 2.8086720898778692 -0.1373524067446919 S
atom 7.5638673773598226 2.2339061616953435 -0.1373524067446919 S
atom 2.5212891257866068 7.2764844132685642 -0.1373524067446919 S
atom 7.5638673773598226 7.8512503414510810 -0.1373524067446919 S
atom 2.5212891257866068 2.0547239444351852 4.8847643351071293 S
atom 7.5638673773598226 2.9878543071380284 4.8847643351071293 S
atom 2.5212891257866068 8.0304325587112348 4.8847643351071293 S
atom 7.5638673773598226 7.0973021960083900 4.8847643351071293 S
atom 2.5212891257866068 -0.0000000000000000 2.0415295323708542 S
atom 7.5638673773598226 -0.0000000000000000 2.7823804630298650 S
atom 2.5212891257866068 5.0425782515732136 2.7823804630298650 S
atom 7.5638673773598226 5.0425782515732136 2.0415295323708542 S
atom 2.5212891257866068 -0.0000000000000000 7.8282259390988109 S
atom 7.5638673773598226 -0.0000000000000000 6.8956416677124679 S
atom 2.5212891257866068 5.0425782515732136 6.8956416677124679 S
atom 7.5638673773598226 5.0425782515732136 7.8282259390988109 S
atom 0.0000000000000000 2.5212891257866068 2.4794512620835185 S
atom 5.0425782515732136 2.5212891257866068 2.4794512620835185 S
atom 0.0000000000000000 7.5638673773598226 2.4794512620835185 S
atom 5.0425782515732136 7.5638673773598226 2.4794512620835185 S
atom 0.0000000000000000 2.5212891257866068 7.3726369188036722 S
atom 5.0425782515732136 2.5212891257866068 7.3726369188036722 S
atom 0.0000000000000000 7.5638673773598226 7.3726369188036722 S
atom 5.0425782515732136 7.5638673773598226 7.3726369188036722 S
atom -0.0086069241429770 0.0000000000000000 9.8520510628399087 Ba
atom 5.0511851757161850 -0.0000000000000000 9.8520510628399087 Ba
atom 0.0086069241429770 5.0425782515732136 9.8520510628399087 Ba
atom 5.0339713274302387 5.0425782515732136 9.8520510628399087 Ba
atom 0.0086069241429770 -0.0000000000000000 14.7786698752527919 Ba
atom 5.0339713274302387 0.0000000000000000 14.7786698752527919 Ba
atom -0.0086069241429770 5.0425782515732136 14.7786698752527919 Ba
atom 5.0511851757161850 5.0425782515732136 14.7786698752527919 Ba
atom 2.5212891257866068 2.5212891257866068 12.3153604690463538 Zr
atom 7.5638673773598226 2.5212891257866068 12.3153604690463538 Zr
atom 2.5212891257866068 7.5638673773598226 12.3153604690463538 Zr
atom 7.5638673773598226 7.5638673773598226 12.3153604690463538 Zr
atom 2.5212891257866068 2.5217376522471433 17.2752801325371905 Zr
atom 7.5638673773598226 2.5208405993260699 17.2752801325371905 Zr
atom 2.5212891257866068 7.5634188508992892 17.2752801325371905 Zr
atom 7.5638673773598226 7.5643159038203542 17.2752801325371905 Zr
atom 2.5212891257866068 3.0289956160394693 9.8399002417505699 S
atom 7.5638673773598226 2.0135826355337421 9.8399002417505699 S
atom 2.5212891257866068 7.0561608871069508 9.8399002417505699 S
atom 7.5638673773598226 8.0715738676126776 9.8399002417505699 S
atom 2.5212891257866068 2.0135826355337412 14.7908206963421129 S
atom 7.5638673773598226 3.0289956160394693 14.7908206963421129 S
atom 2.5212891257866068 8.0715738676126776 14.7908206963421129 S
atom 7.5638673773598226 7.0561608871069508 14.7908206963421129 S
atom 2.5212891257866068 -0.0000000000000000 11.8379014526775386 S
atom 7.5638673773598226 -0.0000000000000000 12.7928194854151673 S
atom 2.5212891257866068 5.0425782515732136 12.7928194854151673 S
atom 7.5638673773598226 5.0425782515732136 11.8379014526775386 S
atom 2.5212891257866068 -0.0000000000000000 17.7350792703802433 S
atom 7.5638673773598226 -0.0000000000000000 16.8024949989938897 S
atom 2.5212891257866068 5.0425782515732136 16.8024949989938897 S
atom 7.5638673773598226 5.0425782515732136 17.7350792703802433 S
atom 0.0000000000000000 2.5212891257866068 12.3153604690463538 S
atom 5.0425782515732136 2.5212891257866068 12.3153604690463538 S
atom 0.0000000000000000 7.5638673773598226 12.3153604690463538 S
atom 5.0425782515732136 7.5638673773598226 12.3153604690463538 S
atom 0.0000000000000000 2.5212891257866068 17.2580840192890292 S
atom 5.0425782515732136 2.5212891257866068 17.2580840192890292 S
atom 0.0000000000000000 7.5638673773598226 17.2580840192890292 S
atom 5.0425782515732136 7.5638673773598226 17.2580840192890292 S
atom -0.0273176708891732 0.0000000000000000 19.6685182856369778 Ba
atom 5.0698959224623872 -0.0000000000000000 19.6685182856369778 Ba
atom 0.0273176708891732 5.0425782515732136 19.6685182856369778 Ba
atom 5.0152605806840374 5.0425782515732136 19.6685182856369778 Ba
atom 0.1697112348160060 -0.0000000000000000 24.3380057593139583 Ba
atom 4.8728670167572066 0.0000000000000000 24.3380057593139583 Ba
atom -0.1697112348160061 5.0425782515732136 24.3380057593139583 Ba
atom 5.2122894863892171 5.0425782515732136 24.3380057593139583 Ba
atom 2.5212891257866068 2.5433680739920654 22.2896288741179838 Zr
atom 7.5638673773598226 2.4992101775811495 22.2896288741179838 Zr
atom 2.5212891257866068 7.5417884291543711 22.2896288741179838 Zr
atom 7.5638673773598226 7.5859463255652804 22.2896288741179838 Zr
atom 2.5212891257866068 2.9878543071380284 19.7459566029855509 S
atom 7.5638673773598226 2.0547239444351852 19.7459566029855509 S
atom 2.5212891257866068 7.0973021960083900 19.7459566029855509 S
atom 7.5638673773598226 8.0304325587112348 19.7459566029855509 S
atom 2.5212891257866068 2.2339061616953435 24.7680733448374042 S
atom 7.5638673773598226 2.8086720898778692 24.7680733448374042 S
atom 2.5212891257866068 7.8512503414510810 24.7680733448374042 S
atom 7.5638673773598226 7.2764844132685642 24.7680733448374042 S
atom 2.5212891257866068 -0.0000000000000000 21.8483404750628125 S
atom 7.5638673773598226 -0.0000000000000000 22.5891914057218379 S
atom 2.5212891257866068 5.0425782515732136 22.5891914057218379 S
atom 7.5638673773598226 5.0425782515732136 21.8483404750628125 S
atom -0.0000000000000000 2.5212891257866068 22.1512696760091963 S
atom 5.0425782515732136 2.5212891257866068 22.1512696760091963 S
atom -0.0000000000000000 7.5638673773598226 22.1512696760091963 S
atom 5.0425782515732136 7.5638673773598226 22.1512696760091963 S
atom 2.5212891257866068 2.3515778909706038 27.8791226294425520 Ba
atom 7.5638673773598226 2.6910003606026121 27.8791226294425520 Ba
atom 2.5212891257866068 7.7335786121758314 27.8791226294425520 Ba
atom 7.5638673773598226 7.3941561425438183 27.8791226294425520 Ba
atom 2.5212891257866068 2.5486067966757782 32.5486101031195716 Ba
atom 7.5638673773598226 2.4939714548974319 32.5486101031195716 Ba
atom 2.5212891257866068 7.5365497064706455 32.5486101031195716 Ba
atom 7.5638673773598226 7.5911850482489900 32.5486101031195716 Ba
atom 5.0204993033677576 5.0425782515732136 29.9274995146385550 Zr
atom 10.1072354513518938 5.0425782515732136 29.9274995146385550 Zr
atom 5.0646571997786713 10.0851565031464272 29.9274995146385550 Zr
atom 10.0630775549409606 10.0851565031464272 29.9274995146385550 Zr
atom 5.0421297251126784 5.0425782515732136 34.9418482562193233 Zr
atom 10.0856050296069650 5.0425782515732136 34.9418482562193233 Zr
atom 5.0430267780337505 10.0851565031464272 34.9418482562193233 Zr
atom 10.0847079766858876 10.0851565031464272 34.9418482562193233 Zr
atom 5.3299612156644747 5.0425782515732136 27.4490550439191416 S
atom 9.7977735390551715 5.0425782515732127 27.4490550439191416 S
atom 4.7551952874819534 10.0851565031464272 27.4490550439191416 S
atom 10.3725394672376812 10.0851565031464272 27.4490550439191416 S
atom 4.5760130702217916 5.0425782515732136 32.4711717857709630 S
atom 10.5517216844978350 5.0425782515732136 32.4711717857709630 S
atom 5.5091434329246400 10.0851565031464272 32.4711717857709630 S
atom 9.6185913217950070 10.0851565031464272 32.4711717857709630 S
atom 5.0425782515732136 2.5212891257866068 30.0658587127473460 S
atom 10.0851565031464272 2.5212891257866068 30.0658587127473460 S
atom 5.0425782515732136 7.5638673773598226 30.0658587127473460 S
atom 10.0851565031464272 7.5638673773598226 30.0658587127473460 S
atom 5.0425782515732136 2.5212891257866068 34.9590443694675344 S
atom 10.0851565031464272 2.5212891257866068 34.9590443694675344 S
atom 5.0425782515732136 7.5638673773598226 34.9590443694675344 S
atom 10.0851565031464272 7.5638673773598226 34.9590443694675344 S
atom 2.5212891257866068 5.0425782515732136 29.6279369830347221 S
atom 7.5638673773598226 5.0425782515732136 30.3687879136937084 S
atom 2.5212891257866068 10.0851565031464272 30.3687879136937084 S
atom 7.5638673773598226 10.0851565031464272 29.6279369830347221 S
atom 2.5212891257866068 5.0425782515732136 35.4146333897626349 S
atom 7.5638673773598226 5.0425782515732136 34.4820491183763025 S
atom 2.5212891257866068 10.0851565031464272 34.4820491183763025 S
atom 7.5638673773598226 10.0851565031464272 35.4146333897626349 S
atom 2.5212891257866068 2.5126822016436292 37.4384585135038179 Ba
atom 7.5638673773598226 2.5298960499295848 37.4384585135038179 Ba
atom 2.5212891257866068 7.5724743015027967 37.4384585135038179 Ba
atom 7.5638673773598226 7.5552604532168486 37.4384585135038179 Ba
atom 2.5212891257866068 2.5298960499295848 42.3650773259165874 Ba
atom 7.5638673773598226 2.5126822016436292 42.3650773259165874 Ba
atom 2.5212891257866068 7.5552604532168486 42.3650773259165874 Ba
atom 7.5638673773598226 7.5724743015027967 42.3650773259165874 Ba
atom 5.0425782515732136 5.0425782515732136 39.9017679197102382 Zr
atom 10.0851565031464272 5.0425782515732136 39.9017679197102382 Zr
atom 5.0425782515732136 10.0851565031464272 39.9017679197102382 Zr
atom 10.0851565031464272 10.0851565031464272 39.9017679197102382 Zr
atom 5.0430267780337505 5.0425782515732136 44.8616875832010678 Zr
atom 10.0847079766858876 5.0425782515732136 44.8616875832010678 Zr
atom 5.0421297251126784 10.0851565031464272 44.8616875832010678 Zr
atom 10.0856050296069650 10.0851565031464272 44.8616875832010678 Zr
atom 5.5502847418260810 5.0425782515732136 37.4263076924144116 S
atom 9.5774500128935856 5.0425782515732127 37.4263076924144116 S
atom 4.5348717613203533 10.0851565031464272 37.4263076924144116 S
atom 10.5928629933992831 10.0851565031464272 37.4263076924144116 S
atom 4.5348717613203533 5.0425782515732136 42.3772281470059724 S
atom 10.5928629933992831 5.0425782515732136 42.3772281470059724 S
atom 5.5502847418260810 10.0851565031464272 42.3772281470059724 S
atom 9.5774500128935856 10.0851565031464272 42.3772281470059724 S
atom 5.0425782515732136 2.5212891257866068 39.9017679197102382 S
atom 10.0851565031464272 2.5212891257866068 39.9017679197102382 S
atom 5.0425782515732136 7.5638673773598226 39.9017679197102382 S
atom 10.0851565031464272 7.5638673773598226 39.9017679197102382 S
atom 5.0425782515732136 2.5212891257866068 44.8444914699528638 S
atom 10.0851565031464272 2.5212891257866068 44.8444914699528638 S
atom 5.0425782515732136 7.5638673773598226 44.8444914699528638 S
atom 10.0851565031464272 7.5638673773598226 44.8444914699528638 S
atom 2.5212891257866068 5.0425782515732136 39.4243089033414122 S
atom 7.5638673773598226 5.0425782515732136 40.3792269360790002 S
atom 2.5212891257866068 10.0851565031464272 40.3792269360790002 S
atom 7.5638673773598226 10.0851565031464272 39.4243089033414122 S
atom 2.5212891257866068 5.0425782515732136 45.3214867210440886 S
atom 7.5638673773598226 5.0425782515732136 44.3889024496577491 S
atom 2.5212891257866068 10.0851565031464272 44.3889024496577491 S
atom 7.5638673773598226 10.0851565031464272 45.3214867210440886 S
atom 2.5212891257866068 2.4939714548974319 47.2549257363008195 Ba
atom 7.5638673773598226 2.5486067966757782 47.2549257363008195 Ba
atom 2.5212891257866068 7.5911850482489900 47.2549257363008195 Ba
atom 7.5638673773598226 7.5365497064706455 47.2549257363008195 Ba
atom 2.5212891257866068 2.6910003606026121 51.9244132099777502 Ba
atom 7.5638673773598226 2.3515778909706038 51.9244132099777502 Ba
atom 2.5212891257866068 7.3941561425438183 51.9244132099777502 Ba
atom 7.5638673773598226 7.7335786121758314 51.9244132099777502 Ba
atom 5.0646571997786713 5.0425782515732136 49.8760363247818006 Zr
atom 10.0630775549409606 5.0425782515732136 49.8760363247818006 Zr
atom 5.0204993033677576 10.0851565031464272 49.8760363247818006 Zr
atom 10.1072354513518938 10.0851565031464272 49.8760363247818006 Zr
atom 5.5091434329246383 5.0425782515732136 47.3323640536494281 S
atom 9.6185913217950070 5.0425782515732136 47.3323640536494281 S
atom 4.5760130702217925 10.0851565031464272 47.3323640536494281 S
atom 10.5517216844978350 10.0851565031464272 47.3323640536494281 S
atom 4.7551952874819534 5.0425782515732136 52.3544807955012388 S
atom 10.3725394672376812 5.0425782515732136 52.3544807955012388 S
atom 5.3299612156644747 10.0851565031464272 52.3544807955012388 S
atom 9.7977735390551715 10.0851565031464272 52.3544807955012388 S
atom 5.0425782515732136 2.5212891257866068 49.7376771266730060 S
atom 10.0851565031464272 2.5212891257866068 49.7376771266730060 S
atom 5.0425782515732136 7.5638673773598226 49.7376771266730060 S
atom 10.0851565031464272 7.5638673773598226 49.7376771266730060 S
atom 2.5212891257866068 5.0425782515732136 49.4347479257266968 S
atom 7.5638673773598226 5.0425782515732136 50.1755988563857116 S
atom 2.5212891257866068 10.0851565031464272 50.1755988563857116 S
atom 7.5638673773598226 10.0851565031464272 49.4347479257266968 S
