#=======================================================
# FHI-aims file: sym_relax/sym_relax_RP_6_Rx0Rz_0RyRz.in
# Created using the Atomic Simulation Environment (ASE)
# Fri Mar 14 11:02:48 2025
#=======================================================
lattice_vector 9.9954449856578531 -0.0001274829495526 0.0146123838213515 
lattice_vector -0.0001274829495526 9.9954449856578105 -0.0146123838213515 
lattice_vector 0.0965804843776211 -0.0965804843776211 66.1343117760561512 
atom -0.1922136791123825 -0.0435470243730082 0.2567645093935030 Ba
atom 5.0682681325684813 -0.0438643848676846 0.2612584415588001 Ba
atom 0.0704818982647789 4.9539218494359920 0.2466460577374485 Ba
atom 4.8054450722417785 4.9541117269811110 0.2567645093935033 Ba
atom -0.0993285397330773 -0.0370712440137219 4.9575048510980944 Ba
atom 4.8496192552062771 -0.0372279912020068 4.9361446684830961 Ba
atom -0.1481669790974101 4.9605582431016764 4.9215322846617369 Ba
atom 4.8983302116210687 4.9605875073404055 4.9575048510980944 Ba
atom 2.4391876724505734 2.4484935354141859 2.3382589172487651 Zr
atom 7.4368792213331947 2.4677988190645705 2.3446363242764012 Zr
atom 2.4390929870294853 7.4655850533682360 2.3300239404550500 Zr
atom 7.4368464238047300 7.4461522867682977 2.3382589172487647 Zr
atom 2.4637256595188819 2.4497317422094467 7.4240550260348925 Zr
atom 7.4613841651646453 2.4815327628247634 7.4308449147824982 Zr
atom 2.4635979308609501 7.4793189971284564 7.4162325309611443 Zr
atom 7.4613844108730500 7.4473904935635860 7.4240550260348916 Zr
atom 2.4492386015799839 2.6859184728148180 -0.1566977264564698 S
atom 7.4474956836369595 2.2234676529577220 -0.1495455360799316 S
atom 2.4497094493332670 7.2212538872613985 -0.1641579199012832 S
atom 7.4468973529341334 7.6835772241689480 -0.1566977264564698 S
atom 2.4618981019583268 2.1657727742768094 4.9187322551857466 S
atom 7.4586931820103572 2.7582430454078581 4.9249706534214370 S
atom 2.4609069477066514 7.7560292797115427 4.9103582696000831 S
atom 7.4595568533124812 7.1634315256309442 4.9187322551857457 S
atom 2.4157808391749516 -0.0409552756857423 2.1517106419572847 S
atom 7.4589851957227706 -0.0401475516906960 2.7243748313068936 S
atom 2.4611989614190906 4.9576386826129824 2.7097624474855393 S
atom 7.4134395905291068 4.9567034756683794 2.1517106419572856 S
atom 2.9561549711615611 -0.0328056547568140 7.6763005405610514 S
atom 7.0403400867845196 -0.0335797549458005 7.2084680343067076 S
atom 2.0425538524808182 4.9642064793578839 7.1938556504853413 S
atom 7.9538137225157142 4.9648530965973103 7.6763005405610558 S
atom -0.0562858551225823 2.4875977409854344 2.4521759703139314 S
atom 4.9414865186207688 2.4289481232103722 2.4587692477591996 S
atom -0.0562997156829310 7.4267343575140563 2.4441568639378453 S
atom 4.9413728962315657 7.4852564923395661 2.4521759703139314 S
atom -0.0258797343804598 2.0028615443980424 7.4407948402577579 S
atom 4.9718351604868856 2.9286642415537902 7.4475673161764675 S
atom -0.0259510738168184 7.9264504758574663 7.4329549323551189 S
atom 4.9717790169736880 7.0005202957521728 7.4407948402577579 S
atom -0.0588609498057407 -0.0291700408920301 9.9672874496645854 Ba
atom 5.0934635867655853 -0.0293312842182997 9.9891939758682824 Ba
atom 0.0956773524618849 4.9684549500853903 9.9745815920469347 Ba
atom 4.9387978015483984 4.9684887104621014 9.9672874496645889 Ba
atom 0.0960380347903867 -0.0220809058130753 15.0327513597993079 Ba
atom 4.9455846782101762 -0.0218830558333469 15.0356056394096242 Ba
atom -0.0522015560935160 4.9759031784703405 15.0209932555882695 Ba
atom 5.0936967861445464 4.9755778455410438 15.0327513597993079 Ba
atom 2.5132679104706552 2.4755831635274554 12.4929300030110486 Zr
atom 7.5110304472592890 2.4707682546433656 12.4999260282331797 Zr
atom 2.5132442129555854 7.4685544889470385 12.4853136444118391 Zr
atom 7.5109266618247936 7.4732419148815845 12.4929300030110433 Zr
atom 2.5282510170954353 2.4829265350643488 17.5684309709757471 Zr
atom 7.5260135538840771 2.4781116261802532 17.5754269961978267 Zr
atom 2.5282273195803651 7.4758978604839292 17.5608146123765003 Zr
atom 7.5259097684496030 7.4805852864184699 17.5684309709757471 Zr
atom 2.4880039319316727 2.6882830273156122 9.9658246743636028 S
atom 7.4863138516994319 2.2505566474863685 9.9736393154186143 S
atom 2.4885276173957416 7.2483428817900579 9.9590269315972577 S
atom 7.4856626832858302 7.6859417786697355 9.9658246743636045 S
atom 2.5209388572704201 2.2930789101962459 15.0308435920610073 S
atom 7.5183426070842865 2.6606158795114605 15.0375134071479302 S
atom 2.5205563727805931 7.6584021138151410 15.0229010233265825 S
atom 7.5185976086245878 7.2907376615503621 15.0308435920610108 S
atom 2.0408011163764597 -0.0258748220363068 12.3418741838794901 S
atom 7.9899971552843470 -0.0254629449625473 12.6747301670362003 S
atom 2.9922109209806589 4.9723232893411309 12.6601177832148437 S
atom 7.0384598677306114 4.9717839293178212 12.3418741838794830 S
atom 3.0008215966241045 -0.0180891396101152 17.7264828153294296 S
atom 7.0470705433740664 -0.0186284996334274 17.4082392159940582 S
atom 2.0492843090703561 4.9791577346702489 17.3936268321727034 S
atom 7.9984803479782585 4.9795696117440205 17.7264828153294260 S
atom 0.0115577922357205 2.9544459397368010 12.4984745431496869 S
atom 5.0092759512826062 1.9921168884536122 12.5068676851306417 S
atom 0.0114897169789024 6.9899031227572994 12.4922553013092834 S
atom 5.0092165435898952 7.9521046910909199 12.4984745431496869 S
atom 0.0322786864611492 1.9993763329204630 17.5552700722379207 S
atom 5.0300055130721031 2.9615779012540959 17.5614893140782939 S
atom 0.0322192787684159 7.9593641355577658 17.5468769302569818 S
atom 5.0299374378152848 6.9970350842745690 17.5552700722379207 S
atom -0.0518408737650144 -0.0146326774281217 20.0791630233406835 Ba
atom 5.1004836628063224 -0.0147939207543919 20.1010695495443343 Ba
atom 0.1026974285026111 4.9829923135492855 20.0864571657230400 Ba
atom 4.9458178775891319 4.9830260739260037 20.0791630233406835 Ba
atom 0.1920034577942806 -0.0067359704444149 25.1322123307258423 Ba
atom 5.1409512527336476 -0.0068927176326997 25.1108521481108369 Ba
atom 0.1431650184299477 4.9908935166709734 25.0962397642894786 Ba
atom 5.1896622091484348 4.9909227809097017 25.1322123307258458 Ba
atom 2.5778972991900737 2.4721620268829381 22.6375120844264437 Zr
atom 7.5755558048358358 2.5039630474982615 22.6443019731740662 Zr
atom 2.5777695705321388 7.5017492818019296 22.6296895893526759 Zr
atom 7.5755560505442023 7.4698207782370636 22.6375120844264437 Zr
atom 2.6024022430215297 2.4858959706431420 27.7237206749325225 Zr
atom 7.6000937919041451 2.5052012542935218 27.7300980819601754 Zr
atom 2.6023075576004513 7.5029874885972063 27.7154856981388562 Zr
atom 7.6000609943756636 7.4835547219972742 27.7237206749325225 Zr
atom 2.5529676126552836 2.7031381422213303 20.0947176837903214 S
atom 7.5512775324230521 2.2654117623920995 20.1025323248453205 S
atom 2.5534912981193516 7.2631979966957712 20.0879199410239622 S
atom 7.5506263640094442 7.7007968935754665 20.0947176837903250 S
atom 2.5805882823443635 2.1954517442998416 25.1433863457875120 S
atom 7.5773833623963993 2.7879220154308921 25.1496247440231819 S
atom 2.5795971280926961 7.7857082497345784 25.1350123602017987 S
atom 7.5782470336985108 7.1931104956539764 25.1433863457875120 S
atom 2.0854677418390009 -0.0111583068896078 22.3920564586478754 S
atom 7.9967276118738937 -0.0105116896501735 22.8745013487235553 S
atom 2.9989413775701990 4.9872745446534950 22.8598889649022219 S
atom 7.0831264931931521 4.9865004444645296 22.3920564586478754 S
atom 2.6258418738256193 -0.0030086859606791 27.9166463572516186 S
atom 7.5780825029356276 -0.0039438929052782 27.3585945517233426 S
atom 2.5802962686319333 4.9938423413983966 27.3439821679019843 S
atom 7.6235006251797701 4.9946500653934489 27.9166463572516186 S
atom 0.0697162130773304 2.9509607282592092 22.6129497751298523 S
atom 5.0674463038678335 2.0250305481539153 22.6207896830325055 S
atom 0.0696600695641368 7.0228167824575891 22.6061772992111329 S
atom 5.0673749644314778 7.9486194796133320 22.6129497751298523 S
atom 0.1001223338194529 2.4662245316718296 27.6015686450736766 S
atom 5.0977949457339538 2.5247466664973364 27.6095877514497552 S
atom 0.1000087114302503 7.5225329008010178 27.5949753676283720 S
atom 5.0977810851736063 7.4638832830259485 27.6015686450736766 S
atom -0.0266454195679084 -0.0000995767787372 29.8070985576501215 Ba
atom 5.2338363921129609 -0.0004169372734133 29.8115924898154248 Ba
atom 0.2360501578092531 4.9973692970302732 29.7969801059941197 Ba
atom 4.9710133317862502 4.9975591745753993 29.8070985576501215 Ba
atom 2.5917857807177382 2.7302271367499906 30.2179025352888715 S
atom 7.5900428627747294 2.2677763168928906 30.2250547256653590 S
atom 2.5922566284710289 7.2655625511965454 30.2104423418440113 S
atom 7.5894445320719095 7.7278858881041224 30.2179025352888715 S
atom 2.5906666422388893 2.6427528126006354 33.3239203974215670 Ba
atom 7.5886427540877301 2.3799297522739269 33.3284143295868702 Ba
atom 2.5908565197840194 7.3777159865776092 33.3138019457655190 Ba
atom 7.5883253935930481 7.6404115639547703 33.3239203974215670 Ba
atom 2.5841908618796117 2.5498676732213301 38.0246607391261975 Ba
atom 7.5820063604220449 2.5985786296361137 38.0033005565111850 Ba
atom 2.5842201261183382 7.5963648639397867 37.9886881726898835 Ba
atom 7.5818496132337598 7.5475264245754676 38.0246607391261975 Ba
atom 5.0962848338058420 5.0090102123918330 35.4054148052768696 Zr
atom 10.0746383015095944 5.0089774148633586 35.4117922123045687 Zr
atom 5.0768520672059108 10.0067636491670466 35.3971798284832175 Zr
atom 10.0939435851599928 10.0066689637459820 35.4054148052768696 Zr
atom 5.0950466270105625 4.9844722253235307 40.4912109140630321 Zr
atom 10.0609043577494148 4.9844724710318831 40.4980008028105658 Zr
atom 5.0631181234456939 9.9822587053355818 40.4833884189892501 Zr
atom 10.0927053783647374 9.9821309766776114 40.4912109140630179 Zr
atom 4.8588598964052023 4.9989592832624101 32.9104581615715475 S
atom 10.3189694676164443 4.9983609525595796 32.9176103519481842 S
atom 5.3211832333127509 9.9961471868632703 32.9029979681267548 S
atom 9.8565186477593532 9.9966180346165388 32.9104581615715475 S
atom 5.3790055949432123 4.9862997828840783 37.9858881432138062 S
atom 9.7841940751663046 4.9871634541861987 37.9921265414496006 S
atom 4.7864078408626165 9.9849496884898663 37.9775141576282849 S
atom 10.3766643462973356 9.9839585342382193 37.9858881432138062 S
atom 5.1158302460096436 2.5067113662216340 35.5259251357873183 S
atom 10.0549668625382935 2.5066975056612817 35.5339442421633223 S
atom 5.0571806282345824 7.5044837399649627 35.5193318583419781 S
atom 10.1134889973638291 7.5043701175757702 35.5259251357873111 S
atom 4.6161141276662310 2.4763627243555204 40.5147232042045360 S
atom 10.5397030591256939 2.4762913849191657 40.5225631121071501 S
atom 5.5419168248219925 7.4740776192228351 40.5079507282858060 S
atom 9.6137728790203862 7.4740214757096357 40.5147232042045360 S
atom 2.5871396866070251 4.9869989234232994 35.7769183355136278 S
atom 7.5857336449057726 5.0324170456674517 35.2188665299854478 S
atom 2.5879474106020708 10.0302032799711416 35.2042541461639971 S
atom 7.5847984379611670 9.9846576747774183 35.7769183355136278 S
atom 2.5805718898621346 5.4056440323615762 40.2610115385134151 S
atom 7.5775840239768550 4.4920429136808311 40.7434564285890772 S
atom 2.5797977896731368 9.4898291479845192 40.7288440447677473 S
atom 7.5782306412162725 10.4033027837157057 40.2610115385134151 S
atom 2.5762896587579163 2.5094000832939947 43.0344433376927498 Ba
atom 7.5741096534383505 2.3547342980768171 43.0563498638963651 Ba
atom 2.5763234191346314 7.3525205323804892 43.0417374800749997 Ba
atom 7.5739484101120693 7.5070588346481353 43.0344433376927498 Ba
atom 2.5692005236789628 2.3545010986978716 48.0999072478274030 Ba
atom 7.5666614250533746 2.5026132066322182 48.1027615274376643 Ba
atom 2.5688751907496901 7.5003994409359072 48.0881491436164126 Ba
atom 7.5668592750331216 7.3521598500519865 48.0999072478273959 Ba
atom 5.0691952056925711 4.9349299743717410 45.5600858910392006 Zr
atom 10.0716688659308051 4.9348261889372624 45.5670819162612162 Zr
atom 5.0738826316271117 9.9326124232409132 45.5524695324399289 Zr
atom 10.0668539570467406 9.9325887257258678 45.5600858910391935 Zr
atom 5.0618518341556626 4.9199468677469556 50.6355868590037872 Zr
atom 10.0643254943939109 4.9198430823124726 50.6425828842259733 Zr
atom 5.0665392600902219 9.9176293166161482 50.6279705004045937 Zr
atom 10.0595105855098481 9.9176056191010833 50.6355868590037872 Zr
atom 4.8564953419044086 4.9601939529107311 43.0329805623916215 S
atom 10.2918804730877884 4.9595427844971027 43.0407952034467272 S
atom 5.2940942387841048 9.9573290188007828 43.0261828196253191 S
atom 9.8541540932585701 9.9578527042648748 43.0329805623916215 S
atom 5.2516994590237571 4.9272590275719645 48.0979994800891006 S
atom 9.8818212410627186 4.9275140291122446 48.1046692951760306 S
atom 4.8840350067590208 9.9253002634159238 48.0900569113546510 S
atom 10.2493582103779239 9.9249177789260994 48.0979994800891006 S
atom 5.5526614807664219 2.4389219335598020 45.5740235731586623 S
atom 9.5881186637869131 2.4388538583029842 45.5802428149991528 S
atom 4.5903324294832020 7.4366400926066722 45.5656304311776950 S
atom 10.5503202321205620 7.4365806849139258 45.5740235731586552 S
atom 4.5832004679659200 2.4181923717702847 50.6286452021063624 S
atom 10.5431882706032845 2.4181329640775573 50.6370383440873368 S
atom 5.5454020362995946 7.4159191983812365 50.6224259602659927 S
atom 9.5808592193200983 7.4158511231244173 50.6286452021063624 S
atom 2.5724550798788854 4.4559869638617498 45.7272736712429122 S
atom 7.5706531912563495 5.4073967684659223 45.4090300719075515 S
atom 2.5728669569526303 10.4051830027695917 45.3944176880863139 S
atom 7.5701138312330274 9.4536457152158704 45.7272736712429051 S
atom 2.5656206345497625 5.3989135757720117 50.4607827202008465 S
atom 7.5628675088301511 4.4473762882182735 50.7936387033575443 S
atom 2.5650812745264493 9.4451625225219793 50.7790263195361931 S
atom 7.5632793859039023 10.3965723271261652 50.4607827202008465 S
atom 2.5617522952940064 2.5023800072532647 53.1463189113686951 Ba
atom 7.5595722899744331 2.3477142220360938 53.1682254375723602 Ba
atom 2.5617860556707259 7.3455004563397557 53.1536130537510445 Ba
atom 7.5594110466481457 7.5000387586074160 53.1463189113686951 Ba
atom 2.5538555883102947 2.2585356756939725 58.1993682187538752 Ba
atom 7.5516710868527381 2.3072466321087552 58.1780080361389764 Ba
atom 2.5538848525490279 7.3050328664124278 58.1633956523175755 Ba
atom 7.5515143396644531 7.2561944270481051 58.1993682187538752 Ba
atom 5.0726163423370867 4.8703005856523243 55.7046679724544234 Zr
atom 10.0384740730759159 4.8703008313606810 55.7114578612021347 Zr
atom 5.0406878387722296 9.8680870656643744 55.6968454773807551 Zr
atom 10.0702750936912171 9.8679593370064378 55.7046679724544234 Zr
atom 5.0588823985768805 4.8457956418208576 60.7908765629605554 Zr
atom 10.0372358662806764 4.8457628442924001 60.7972539699881764 Zr
atom 5.0394496319769395 9.8435490785960713 60.7826415861668181 Zr
atom 10.0565411499310571 9.8434543931750014 60.7908765629605554 Zr
atom 4.8416402269986900 4.8952302721871161 53.1618735718184254 S
atom 10.2770253581820796 4.8945791037734896 53.1696882128734032 S
atom 5.2792391238783747 9.8923653380771643 53.1550758290520804 S
atom 9.8392989783528453 9.8928890235412297 53.1618735718184254 S
atom 5.3493266249201801 4.8676096024980087 58.2105422338155449 S
atom 9.7545151051432573 4.8684732738001362 58.2167806320512753 S
atom 4.7567288708395790 9.8662595081037985 58.2021682482299028 S
atom 10.3469853762743487 9.8652683538521622 58.2105422338155449 S
atom 5.5197478210661135 2.3807515809745659 55.6879455710605242 S
atom 9.5916038752645072 2.3806954374613678 55.6947180469792897 S
atom 4.5938176409608076 7.3784816717650532 55.6801056631579243 S
atom 10.5174065724202386 7.3784103323286949 55.6879455710605242 S
atom 5.0200317027226902 2.3504029391084518 60.6767436394777917 S
atom 10.0763400718518827 2.3502893167192469 60.6833369169231105 S
atom 5.0785538375482107 7.3480755510229478 60.6687245331017664 S
atom 10.0176904540768348 7.3480616904625746 60.6767436394777917 S
atom 2.5575038245665040 4.4492565072721977 55.9270448529303223 S
atom 7.5559366761096305 5.3627301430033709 55.4592123466759617 S
atom 2.5581504418059455 10.3605163773070359 55.4445999628546176 S
atom 7.5551625759206535 9.4469152586262961 55.9270448529303223 S
atom 2.5509360278216087 4.8679016162104674 60.4111380559301381 S
atom 7.5477870551807049 4.8223560110167698 60.9838022452796693 S
atom 2.5500008208770186 9.8201422453204259 60.9691898614583181 S
atom 7.5485947791757635 9.8655603675646173 60.4111380559301381 S
atom 2.5472191946446214 2.4771845530561669 62.8742544456782397 Ba
atom 7.5451953064934543 2.2143614927294504 62.8787483778435217 Ba
atom 2.5474090721897440 7.2121477270331313 62.8641359940221847 Ba
atom 7.5448779459987740 7.4748433044102844 62.8742544456782397 Ba
atom 4.8145512324700350 4.8564121041246429 63.2850584233169187 S
atom 10.2746608036812681 4.8558137734217963 63.2922106136934843 S
atom 5.2768745693775783 9.8536000077254791 63.2775982298721615 S
atom 9.8122099838241805 9.8540708554787795 63.2850584233169187 S
