#=======================================================
# FHI-aims file: sym_relax/sym_relax_RP_5_RxRyRz_RxRy0.in
# Created using the Atomic Simulation Environment (ASE)
# Fri Mar 14 10:58:06 2025
#=======================================================
lattice_vector 10.0013907479854645 -0.0266419180864379 -0.0016504359258604 
lattice_vector -0.0266419180864378 10.0013907479854538 0.0016504359258604 
lattice_vector -0.0092584231233906 0.0092584231233906 56.0481133723258154 
atom 0.0172457429472426 -0.1181250090220107 0.1948833423619716 Ba
atom 5.1188203830147625 -0.0305667019904617 0.1940581243990417 Ba
atom 0.1048040499787919 4.9834496310454979 0.1957085603249018 Ba
atom 5.0046201578967482 4.8692494059274960 0.1948833423619715 Ba
atom -0.2767430636638134 0.2085434384359832 4.9814965366137542 Ba
atom 4.7921519355567392 0.2634221046205943 4.9806713186508160 Ba
atom -0.2218643974792021 5.2774384376565617 4.9823217545766783 Ba
atom 4.7106313512856675 5.1959178533855042 4.9814965366137542 Ba
atom 2.4492358943789676 2.5295083027542198 2.3674087564685524 Zr
atom 7.4585614861880272 2.5248175615273141 2.3665835385056213 Zr
atom 2.4445451531520734 7.5388338945632762 2.3682339744314858 Zr
atom 7.4366103093284819 7.5168827177037345 2.3674087564685524 Zr
atom 2.4078417031357993 2.5442638907930557 7.4440135345968041 Zr
atom 7.4438058981491837 2.5662117527704860 7.4431883166338828 Zr
atom 2.4297895651132362 7.5802280858064375 7.4448387525597317 Zr
atom 7.3952161180853135 7.5316383057425629 7.4440135345968050 Zr
atom 2.5709045132561941 2.7310047009269671 -0.1393938304291591 S
atom 7.2570650880152758 2.4031489426501009 -0.1402190483920889 S
atom 2.2430487549793154 7.4171652756860471 -0.1385686124662285 S
atom 7.5582789282056986 7.7183791158765054 -0.1393938304291592 S
atom 2.2365704922625520 2.2908343182622541 4.9379737655749292 S
atom 7.6972354706799981 2.7374829636437412 4.9371485476119918 S
atom 2.6832191376440333 7.7514992966797074 4.9387989835378585 S
atom 7.2239449072120472 7.2782087332117680 4.9379737655749292 S
atom 2.7354156679838302 0.0415328361369056 2.2422492250548509 S
atom 7.1560124834002679 0.0306995244878392 2.6949536592147134 S
atom 2.1419961503643119 5.0447158575237978 2.6966040951405805 S
atom 7.7227900829333329 5.0289072510864266 2.2422492250548514 S
atom 2.9108535006919527 0.0443708029560730 7.6661372696828849 S
atom 7.0252316058101689 0.0320509566793158 7.2527454358194570 S
atom 2.0112152727742365 5.0460672897152792 7.2543958717453112 S
atom 7.8982279156414554 5.0317452179055886 7.6661372696828858 S
atom -0.0548537951801251 2.2652797060088909 2.2430744430177798 S
atom 4.9433539314184536 2.8320573055419778 2.6957788771776494 S
atom -0.0706624016174966 7.8460736385779262 2.6974293131035090 S
atom 4.9325206197693898 7.2526541209584092 2.2430744430177789 S
atom -0.0576917619992916 2.0898418733007831 7.6669624876458107 S
atom 4.9420024992269846 2.9628381831320549 7.2535706537823890 S
atom -0.0720138338089731 7.9768545161680064 7.2552210897082468 S
atom 4.9296826529502029 7.0772162882503098 7.6669624876458116 S
atom -0.0190864536781822 -0.0662138509737703 9.9879011917274401 Ba
atom 5.0669092249665040 0.0057654946349632 9.9870759737645223 Ba
atom 0.0528928919305511 5.0197818276709114 9.9887264096903650 Ba
atom 4.9682879612713240 4.9211605639757554 9.9879011917274418 Ba
atom 0.0149532290695257 0.0703470755824268 15.0335779923465989 Ba
atom 4.9303482984103111 -0.0282741881127450 15.0327527743836651 Ba
atom -0.0836680346256457 4.9857421449232069 15.0344032103095344 Ba
atom 5.0023276440190321 5.0577214905319412 15.0335779923465953 Ba
atom 2.4916205951704238 2.4957538197790812 12.5107395920370177 Zr
atom 7.4923159691631591 2.4824328607358641 12.5099143740740857 Zr
atom 2.4782996361272063 7.4964491937718245 12.5115648099999444 Zr
atom 7.4789950101199381 7.4831282347286114 12.5107395920370177 Zr
atom 2.5753994872050519 2.4472437487651209 17.5774656494772401 Zr
atom 7.5408260401771150 2.3986539687012427 17.5766404315142992 Zr
atom 2.5268097071411710 7.4126703017371911 17.5782908674401419 Zr
atom 7.5627739021545626 7.4346181637146449 17.5774656494772401 Zr
atom 2.6152115448731834 2.6871848638846019 9.9806774866563313 S
atom 7.3008849250576411 2.3588419110331023 9.9798522686933921 S
atom 2.2868685920216922 7.3728582440690706 9.9815027046192455 S
atom 7.6025859598226893 7.6745592788341028 9.9806774866563295 S
atom 2.3680296454676699 2.3043227756735689 15.0408016974177183 S
atom 7.6837470132686594 2.6060238104386331 15.0399764794547881 S
atom 2.6697306802327163 7.6200401434745695 15.0416269153806521 S
atom 7.3554040604171735 7.2916971906230925 15.0408016974177183 S
atom 2.0348112853923350 -0.0051647173938271 12.3978820827981764 S
atom 7.9624462379844685 -0.0173439760839543 12.6219466653500305 S
atom 2.9484299049485148 4.9966723569520051 12.6235971012758803 S
atom 7.0221857003418622 4.9822096975556844 12.3978820827981764 S
atom 2.9720259175666222 -0.0545596501570975 17.7670833123287508 S
atom 7.0864040226848548 -0.0668794964338550 17.3536914784652687 S
atom 2.0723876896489108 4.9471368366020974 17.3553419143911256 S
atom 7.9594003325161360 4.9328147647924077 17.7670833123287508 S
atom -0.0081562416493924 2.9658840886003897 12.3987073007610675 S
atom 4.9913974319902543 2.0256235509577802 12.6227718833129554 S
atom -0.0226189010457032 7.0396398839937477 12.6244223192388230 S
atom 4.9792181733001186 7.9532585035499075 12.3987073007610711 S
atom 0.0412386911138783 2.0286694564261163 17.7679085302916491 S
atom 5.0409329523401496 2.9016657662573846 17.3545166964282096 S
atom 0.0269166193041977 7.9156820992933552 17.3561671323540452 S
atom 5.0286131060633892 7.0160438713756390 17.7679085302916526 S
atom 0.2726098390551568 -0.2044102138273265 20.0399826474602811 Ba
atom 5.2051055878200643 -0.2859307980983762 20.0391574294973687 Ba
atom 0.1910892547841077 4.7280855349375646 20.0408078654232185 Ba
atom 5.2599842540046646 4.7829642011221747 20.0399826474602811 Ba
atom -0.0213789675558992 0.1222582336306674 24.8265958417120451 Ba
atom 4.8784371403620659 0.0080580085126799 24.8257706237491433 Ba
atom -0.1355791926738863 5.0220743415486382 24.8274210596750180 Ba
atom 4.9659954473936203 5.1096326485801900 24.8265958417120451 Ba
atom 2.5340052959618853 2.4619993368039461 22.6540704276054434 Zr
atom 7.5260704521382982 2.4400481599444159 22.6532452096425381 Zr
atom 2.5120541191023484 7.4540644929803692 22.6548956455684021 Zr
atom 7.5213797109113862 7.4493737517534706 22.6540704276054505 Zr
atom 2.7466706980782991 2.7006733212959224 20.0835054184991151 S
atom 7.2873964676463325 2.2273827578279999 20.0826802005361813 S
atom 2.2733801346103757 7.2413990908639407 20.0843306364620346 S
atom 7.7340451130278014 7.6880477362454425 20.0835054184991151 S
atom 2.4123366770846646 2.2605029386312032 25.1608730145031920 S
atom 7.7275668503110406 2.5617167788216268 25.1600477965402511 S
atom 2.7135505172750971 7.5757331118575966 25.1616982324661009 S
atom 7.3997110920341678 7.2478773535807148 25.1608730145031920 S
atom 2.8412450399765441 -0.0532082179656206 22.3248750889334886 S
atom 7.2618418553929773 -0.0640415296146872 22.7775795230933298 S
atom 2.2478255223570183 4.9499748034212656 22.7792299590191867 S
atom 7.8286194549260442 4.9341661969839015 22.3248750889334850 S
atom 0.0398872589224019 2.1594503340161957 22.3257003068964295 S
atom 5.0380949855209689 2.7262279335492723 22.7784047410562813 S
atom 0.0240786524850298 7.7402442665852229 22.7800551769821098 S
atom 5.0272616738719123 7.1468247489657122 22.3257003068964295 S
atom 2.5535664296109748 2.3334570873033336 28.2785469333720094 Ba
atom 7.6546127016389063 2.4204870262953291 28.2777217154091112 Ba
atom 2.6405963686029583 7.4345033593312806 28.2793721513349787 Ba
atom 7.5409408445604784 7.3208315022528598 28.2785469333720130 Ba
atom 2.2375129016807458 2.6841172158811175 33.0584133043156143 Ba
atom 7.3039525730611210 2.7365405542255417 33.0575880863526166 Ba
atom 2.2899362400251655 7.7505568872615003 33.0592385222785197 Ba
atom 7.2248873166302481 7.6714916308306211 33.0584133043156356 Ba
atom 4.9750607142130203 4.9895031733422979 30.4537701958630649 Zr
atom 9.9859410305494745 4.9863671566427943 30.4529449779001311 Zr
atom 4.9719246975134830 10.0003834896787556 30.4545954138259809 Zr
atom 9.9624351291625040 9.9768775882918330 30.4537701958630613 Zr
atom 4.9727270282234368 4.9993093605104786 35.5139098400432758 Zr
atom 9.9761348433812778 4.9887008426323574 35.5130846220803775 Zr
atom 4.9621185103453218 10.0027171756683231 35.5147350580062948 Zr
atom 9.9601014431729524 9.9866837754600031 35.5139098400432758 Zr
atom 5.1100171655056839 5.2058073287020195 27.9467940243814716 S
atom 9.7696368751897271 4.8514107053501165 27.9459688064185521 S
atom 4.7556205421537738 9.8654270383860698 27.9476192423443699 S
atom 10.0973915804552146 10.1931817436515288 27.9467940243814645 S
atom 4.7260453786751393 4.7019105959438532 33.0166967006419370 S
atom 10.2735336079479040 5.2353824921806513 33.0158714826790316 S
atom 5.2595172749119463 10.2493988252166197 33.0175219186049134 S
atom 9.7134197936246576 9.6892850108933342 33.0166967006419441 S
atom 5.2602838041563285 2.5026971759927301 30.3003389787606814 S
atom 9.6775439135146524 2.4927850606590143 30.8045966858791758 S
atom 4.6635275804787133 7.5068013936949534 30.8062471218050398 S
atom 10.2476582191058387 7.4900715909422431 30.3003389787606956 S
atom 5.3776714738224003 2.4943770627646935 35.8351470823785334 S
atom 9.6026428782146258 2.4854420571864768 35.2207605907483554 S
atom 4.5886265451786512 7.4994583902224266 35.2224110266742443 S
atom 10.3650458887718688 7.4817514777141954 35.8351470823785334 S
atom 2.4713562799135622 4.7277859847859167 30.3011641967236649 S
atom 7.4686428101968048 5.2979002903770755 30.8054219038420989 S
atom 2.4546264771608346 10.3119166234130777 30.8070723397679807 S
atom 7.4587306948630738 9.7151603997354314 30.3011641967236720 S
atom 2.4796763931416073 4.6103983151198484 35.8359723003413748 S
atom 7.4759858136693440 5.3728013256771385 35.2215858087113816 S
atom 2.4619694806333823 10.3868176587130829 35.2232362446371852 S
atom 7.4670508080911224 9.5977727300693996 35.8359723003413819 S
atom 2.7527859770072807 2.3218860103467995 38.0354964828224595 Ba
atom 7.6661837785954345 2.2212674788990228 38.0346712648595329 Ba
atom 2.6521674455594884 7.2352838119349734 38.0363217007854146 Ba
atom 7.7401603919567918 7.3092604252963209 38.0354964828224666 Ba
atom 2.2211967902101883 2.6788800523347640 43.0340960735774587 Ba
atom 7.3091897366074816 2.7528566656961062 43.0332708556145107 Ba
atom 2.2951734035715297 7.7668729987320591 43.0349212915403427 Ba
atom 7.2085712051597008 7.6662544672842703 43.0340960735774587 Ba
atom 4.9806785910834908 4.9940702388155414 40.5347962781999342 Zr
atom 9.9813739650762372 4.9807492797723212 40.5339710602370218 Zr
atom 4.9673576320402644 9.9947656128082762 40.5356214961629178 Zr
atom 9.9680530060330028 9.9814446537650579 40.5347962781999342 Zr
atom 4.9886301539435332 4.9888311171206077 45.5556827163565430 Zr
atom 9.9866130867711398 4.9727977169122850 45.5548574983936447 Zr
atom 4.9725967537352105 9.9868140499482259 45.5565079343195265 Zr
atom 9.9760045688930337 9.9762055320701002 45.5556827163565572 Zr
atom 5.2469906142262612 5.3201148686271429 38.0297295364345729 S
atom 9.6553293352646303 4.7144372566295356 38.0289043184717102 S
atom 4.6413130022286531 9.7284535896654951 38.0305547543975280 S
atom 10.2343650291757768 10.3074892835766949 38.0297295364345871 S
atom 4.7143665679407070 4.6680256090039247 43.0398630199653738 S
atom 10.3074185948878263 5.2470613029150872 43.0390378020024897 S
atom 5.2934022618518908 10.2610776359510520 43.0406882379282223 S
atom 9.7017409828902252 9.6554000239534314 43.0398630199653880 S
atom 5.3691358048462874 2.4918098599291052 40.2187438852581352 S
atom 9.6062377103566430 2.4823142846660224 40.8491982352158942 S
atom 4.5922213773206977 7.4963306177019753 40.8508486711417547 S
atom 10.3565102197957906 7.4791842748786026 40.2187438852581494 S
atom 5.3727306369883143 2.4886820874086504 45.8471815297256953 S
atom 9.5977020413805647 2.4797470818304390 45.2327950380954533 S
atom 4.5836857083445990 7.4937634148663950 45.2344454740213564 S
atom 10.3601050519377846 7.4760565023581709 45.8471815297256882 S
atom 2.4822435959771920 4.6189339840959693 40.2195691032210689 S
atom 7.4791135861897748 5.3692064935351063 40.8500234531788067 S
atom 2.4650972531538344 10.3832228265710533 40.8516738891047453 S
atom 7.4696180109267054 9.6063083990454956 40.2195691032210547 S
atom 2.4853713684976531 4.6153391519539353 45.8480067476885793 S
atom 7.4816807890253632 5.3777421625112298 45.2336202560584582 S
atom 2.4676644559894272 10.3917584955471582 45.2352706919843328 S
atom 7.4727457834471469 9.6027135669034571 45.8480067476885793 S
atom 2.7364698655367214 2.3166488468004394 48.0111792520843323 Ba
atom 7.6714209421418138 2.2375835903695744 48.0103540341214412 Ba
atom 2.6574046091058583 7.2515999234055259 48.0120044700472164 Ba
atom 7.7238442804862313 7.3040232617499603 48.0111792520843323 Ba
atom 2.4204163376064924 2.6673089753782260 52.7910456230278839 Ba
atom 7.3207608135640250 2.5536371182998017 52.7902204050649715 Ba
atom 2.3067444805280743 7.5676534513357527 52.7918708409908604 Ba
atom 7.4077907525560027 7.6546833903277411 52.7910456230278839 Ba
atom 4.9862964679539665 4.9986373042887715 50.6158223605368462 Zr
atom 9.9768068996029449 4.9751314029018561 50.6149971425739267 Zr
atom 4.9627905665670360 9.9891477359377916 50.6166475784997516 Zr
atom 9.9736708829034608 9.9860117192382951 50.6158223605368605 Zr
atom 5.2353118034918475 5.2862298816872171 48.0528958557579529 S
atom 9.6892143222044975 4.7261160673639901 48.0520706377950120 S
atom 4.6751979891685744 9.7401324003998973 48.0537210737208795 S
atom 10.2226862184413161 10.2736042966367638 48.0528958557579529 S
atom 4.8513400166612994 4.7823331489290597 53.1227985320184288 S
atom 10.1931110549627153 5.1100878541945178 53.1219733140555164 S
atom 5.1790947219267407 10.1241041872304756 53.1236237499813555 S
atom 9.8387144316107751 9.7697075638785620 53.1227985320184359 S
atom 5.2978296016882602 2.4813390839361178 50.2633454345949175 S
atom 9.7150897110466090 2.4714269686023993 50.7676031417132592 S
atom 4.7010733780106380 7.4854433016383544 50.7692535776392120 S
atom 10.2852040166377865 7.4687134988856307 50.2633454345949175 S
atom 2.4927143719701808 4.6902401872539841 50.2641706525577732 S
atom 7.4900009022534100 5.2603544928451607 50.7684283596762853 S
atom 2.4759845692174571 10.2743708258811299 50.7700787956021244 S
atom 7.4800887869197004 9.6776146022034624 50.2641706525577874 S
