#=======================================================
# FHI-aims file: sym_relax/sym_relax_RP_3_RxRyRz_RxRy0.in
# Created using the Atomic Simulation Environment (ASE)
# Fri Mar 14 10:25:32 2025
#=======================================================
lattice_vector 10.0297147538039066 -0.0218656730355419 -0.0095864890902276 
lattice_vector -0.0218656730355423 10.0297147538038978 0.0095864890902276 
lattice_vector -0.0355380779804015 0.0355380779804009 35.7906283269939394 
atom 0.0355998986583431 -0.1522806539981882 0.2373690702705115 Ba
atom 5.1671380309001469 -0.0465327351761140 0.2325758257253980 Ba
atom 0.1413478174804167 4.9792574782436443 0.2421623148156256 Ba
atom 5.0395244390425340 4.8516438863860145 0.2373690702705115 Ba
atom -0.2507755346734740 0.1925288388487045 4.9875750262640901 Ba
atom 4.8223285380532417 0.2398426981557034 4.9827817817189635 Ba
atom -0.2034616753664750 5.2656329115754419 4.9923682708091972 Ba
atom 4.7531490057107124 5.1964533792329171 4.9875750262640892 Ba
atom 2.4796993674383097 2.5100658208189097 2.3997456843330984 Zr
atom 7.5087160964672641 2.5132923364281137 2.3949524397879811 Zr
atom 2.4829258830475136 7.5390825498478469 2.4045389288782082 Zr
atom 7.4836239078225040 7.5139903612030894 2.3997456843330984 Zr
atom 2.4945585039461715 2.5093660364380184 7.4563809014570639 Zr
atom 7.5094158808481266 2.4984331999202443 7.4515876569119479 Zr
atom 2.4836256674284032 7.5242234133399908 7.4611741460021719 Zr
atom 7.4984830443303654 7.5132905768222153 7.4563809014570639 Zr
atom 2.6149265001058426 2.7326118509948665 -0.1041506974826577 S
atom 7.2861700662912980 2.3780652037605803 -0.1089439420277714 S
atom 2.2603798528715604 7.4038554171803197 -0.0993574529375438 S
atom 7.6188510404900338 7.7365363913790519 -0.1041506974826577 S
atom 2.2400677959220929 2.2158533669557072 4.9540753363567251 S
atom 7.8029285503304413 2.7529239079443322 4.9492820918116029 S
atom 2.7771383369107152 7.7787141213640725 4.9588685809018376 S
atom 7.2439923363062864 7.2197779073398989 4.9540753363567251 S
atom 2.7442155187348982 0.0162108566613955 2.2388046159709072 S
atom 7.2287758770641526 0.0081277514948861 2.7354881025812161 S
atom 2.2029856636444292 5.0339179649146324 2.7450745916714472 S
atom 7.7481400591190654 5.0201353970455918 2.2388046159709076 S
atom 2.8848486911325337 -0.0008221341717632 7.7504611562012284 S
atom 7.1300585301795296 -0.0062360063719453 7.1527141576226692 S
atom 2.1042683167598151 5.0195542070478130 7.1623006467128949 S
atom 7.8887732315167280 5.0031024062124381 7.7504611562012293 S
atom -0.0271436931791663 2.2706418581670698 2.2435978605160196 S
atom 4.9848639523715237 2.7900060402219986 2.7402813471263339 S
atom -0.0409262610482001 7.8157962536417394 2.7498678362165587 S
atom 4.9767808472050357 7.2745663985512676 2.2435978605160205 S
atom -0.0101107023460075 2.1300086857694285 7.7552544007463400 S
atom 4.9992277102383538 2.8887233871066078 7.1575074021677834 S
atom -0.0265625031813686 7.9145136005263632 7.1670938912580100 S
atom 4.9938138380381867 7.1339332261536272 7.7552544007463373 S
atom 0.2359680021816405 -0.1777213063568712 9.9251867766500368 Ba
atom 5.1925786832588479 -0.2469008386994124 9.9203935321049244 Ba
atom 0.1667884698390989 4.7788893747203360 9.9299800211951439 Ba
atom 5.2398925425658236 4.8262032340273260 9.9251867766500368 Ba
atom -0.0504074311501774 0.1670881864900219 14.6753927326436280 Ba
atom 4.8477691904119427 0.0394745946324054 14.6705994880984960 Ba
atom -0.1780210230077927 5.0652648080521541 14.6801859771887262 Ba
atom 4.9535171092340118 5.1710127268742241 14.6753927326436280 Ba
atom 2.5094176404540343 2.5086662520571315 12.5130161185810334 Zr
atom 7.5101156652290131 2.4835740634123828 12.5082228740359191 Zr
atom 2.4843254518092990 7.5093642768321311 12.5178093631261458 Zr
atom 7.5133421808382321 7.5125907924413378 12.5130161185810334 Zr
atom 2.7490492119702568 2.8028787059203304 9.9586864665574151 S
atom 7.2159032113658137 2.2439424918961604 9.9538932220122973 S
atom 2.1901129979460960 7.2697327053159064 9.9634797111025240 S
atom 7.7529737523544382 7.8068032463045274 9.9586864665574151 S
atom 2.3741905077865044 2.2861202218811707 15.0169125003967903 S
atom 7.7326616954049712 2.6188011960799118 15.0121192558516636 S
atom 2.7068714819852495 7.6445914094996654 15.0217057449419080 S
atom 7.3781150481706952 7.2900447622653708 15.0169125003967903 S
atom 2.7861313442479174 -0.0151858920385941 12.1676872112426704 S
atom 7.2706917025771887 -0.0232689972051042 12.6643706978530002 S
atom 2.2449014891574586 5.0025212162146442 12.6739571869432233 S
atom 7.7900558846320971 4.9887386483456186 12.1676872112426704 S
atom 0.0042530555208232 2.2287260326540372 12.1724804557877757 S
atom 5.0162607010715234 2.7480902147089648 12.6691639423981091 S
atom -0.0095295123482106 7.7738804281287086 12.6787504314883375 S
atom 5.0081775959050177 7.2326505730382440 12.1724804557877757 S
atom 2.5197932415466671 2.3674639684144845 18.1326539169460474 Ba
atom 7.6513179488716609 2.4731984623197478 18.1278606724009173 Ba
atom 2.6255277354519371 7.4989886757395015 18.1374471614911350 Ba
atom 7.5237177819308592 7.3713885087986881 18.1326539169460439 Ba
atom 2.2334335505449174 2.7122631685003462 22.8829244537427350 Ba
atom 7.3065187487857974 2.7595581533214966 22.8781312091976048 Ba
atom 2.2807285353660762 7.7853483667412462 22.8877176982878296 Ba
atom 7.2373580909291091 7.7161877088845614 22.8829244537427314 Ba
atom 4.9638871139863729 5.0298078737659804 20.2950486170988889 Zr
atom 9.9928985839043580 5.0330291302642305 20.2902553725537480 Zr
atom 4.9671083704846568 10.0588193436839415 20.2998418616440013 Zr
atom 9.9678116543705766 10.0337324141501636 20.2950486170988853 Zr
atom 4.9787517351480730 5.0290973456203165 25.3516950649540149 Zr
atom 9.9936091120500272 5.0181645091025517 25.3469018204088918 Zr
atom 4.9678188986302940 10.0439547225222867 25.3564883094991345 Zr
atom 9.9826762755322420 10.0330218860045228 25.3516950649540149 Zr
atom 5.0990801981156553 5.2523569441361664 17.7911464523213461 S
atom 9.7703495135341818 4.8978360461349526 17.7863532077762230 S
atom 4.7445593001144424 9.9236262595547089 17.7959396968664905 S
atom 10.1030047384998465 10.2562814845203523 17.7911464523213354 S
atom 4.7242604529377816 4.7355914081680206 22.8493873598779160 S
atom 10.2871150495023365 5.2726557913128351 22.8445941153328036 S
atom 5.2613248360825988 10.2984460047325843 22.8541806044230640 S
atom 9.7281849933219569 9.7395159485522225 22.8493873598779160 S
atom 5.2284372831310142 2.5359467122745718 20.1341133339193412 S
atom 9.7129547243049785 2.5278624521441526 20.6308122891865509 S
atom 4.6871645108852809 7.5536526655639076 20.6403987782767899 S
atom 10.2323618235152054 7.5398712526587772 20.1341133339193341 S
atom 5.3690250983977581 2.5189036348506746 25.6457487076405499 S
atom 9.6142685853180847 2.5135008429702181 25.0480549331772586 S
atom 4.5884783718984012 7.5392910563899607 25.0576414222674764 S
atom 10.3729496387819609 7.5228281752348645 25.6457487076405499 S
atom 2.4570449915918475 4.7903446341551508 20.1389065784644146 S
atom 7.4690537921064442 5.3097517333653448 20.6356055337316668 S
atom 2.4432635786867234 10.3355419467851171 20.6451920228218810 S
atom 7.4609695319760281 9.7942691745393322 20.1389065784644181 S
atom 2.4740880690157465 4.6497568188884015 25.6505419521856624 S
atom 7.4834154012803937 5.4084378723522333 25.0528481777223888 S
atom 2.4576251878606592 10.4342280857719949 25.0624346668125995 S
atom 7.4780126093999240 9.6536813592725892 25.6505419521856588 S
atom 2.7201453793670236 2.3420069823560996 27.8204656761653126 Ba
atom 7.6767749349300596 2.2728463244993899 27.8156724316201860 Ba
atom 2.6509847215103295 7.2986365379191396 27.8252589207104037 Ba
atom 7.7240699197512113 7.3459315227402895 27.8204656761653162 Ba
atom 2.4337856883652873 2.6868061824419507 32.5707362129618971 Ba
atom 7.3319757348441925 2.5592060155011453 32.5659429684169055 Ba
atom 2.3061855214244726 7.5849962289208852 32.5755294575071090 Ba
atom 7.4377102287494674 7.6907307228261619 32.5707362129618971 Ba
atom 4.9936163563097589 5.0283868174746686 30.4083415128091659 Zr
atom 9.9943196401957000 5.0032998879408597 30.4035482682640570 Zr
atom 4.9685294267759597 10.0290901013606124 30.4131347573542712 Zr
atom 9.9975408966939074 10.0323113578588732 30.4083415128091659 Zr
atom 5.2332430173583546 5.3226032830726151 27.8540027700300712 S
atom 9.7001031745977286 4.7636732268922648 27.8492095254849907 S
atom 4.6743129611779910 9.7894634403120300 27.8587960145752263 S
atom 10.2371675577425219 10.3265278234568463 27.8540027700300712 S
atom 4.8584232721804872 4.8058377471044729 32.9122436775867513 S
atom 10.2168687105658496 5.1384929720701304 32.9074504330415820 S
atom 5.1910784971461412 10.1642831854898787 32.9170369221318495 S
atom 9.8623478125646837 9.8097622874886774 32.9122436775867584 S
atom 5.2703389594108376 2.5045420256767352 30.0629913516312470 S
atom 9.7548564005848473 2.4964577655463192 30.5596903068985171 S
atom 4.7290661871651292 7.5222479789660692 30.5692767959887526 S
atom 10.2742634997950635 7.5084665660609478 30.0629913516312541 S
atom 2.4884496781896868 4.7484429578752971 30.0677845961763772 S
atom 7.5004584787042736 5.2678500570855045 30.5644835514436224 S
atom 2.4746682652845546 10.2936402705052643 30.5740700405338401 S
atom 7.4923742185738842 9.7523674982594617 30.0677845961763772 S
