#=======================================================
# FHI-aims file: sym_relax/sym_relax_RP_5_Rx0Mz_0Ry0.in
# Created using the Atomic Simulation Environment (ASE)
# Fri Mar 14 10:52:39 2025
#=======================================================
lattice_vector 10.0873272051375711 -0.0000000000000000 0.0032784654399704 
lattice_vector -0.0000000000000000 10.0904188321350645 0.0000000000000000 
lattice_vector 0.0179702471554056 0.0000000000000000 55.0815381974960516 
atom -0.1642735565968274 0.0000000000000000 0.2796747401512809 Ba
atom 5.1877643214907989 -0.0000000000000000 0.2804660775137213 Ba
atom 0.1441007189220221 5.0452094160675278 0.2788268447937354 Ba
atom 4.8793900459719675 5.0452094160675278 0.2813139728712654 Ba
atom 0.0014775081001642 0.0000000000000000 4.9463455444342417 Ba
atom 4.9884877199573161 -0.0000000000000000 4.9369316602778399 Ba
atom -0.0551758826114650 5.0452094160675278 4.9352924275578633 Ba
atom 5.0451411106689310 5.0452094160675278 4.9479847771542227 Ba
atom 2.5097809297637630 2.5099132416097043 2.3203451035669822 Zr
atom 7.5534445323325405 2.5352961744578186 2.3219843362869690 Zr
atom 2.5097809297637630 7.5805055905253491 2.3203451035669831 Zr
atom 7.5534445323325405 7.5551226576772237 2.3219843362869699 Zr
atom 2.5114090386675176 2.5214861877768429 7.3328947702025253 Zr
atom 7.5550726412362952 2.5237232282906801 7.3345340029225161 Zr
atom 2.5114090386675167 7.5689326443582114 7.3328947702025271 Zr
atom 7.5550726412362952 7.5666956038443622 7.3345340029225179 Zr
atom 2.5120642370547297 2.8774374144140245 -0.1605958601899820 S
atom 7.5557278396235219 2.1677720016535034 -0.1589566274699967 S
atom 2.5120642370547288 7.2129814177210205 -0.1605958601899819 S
atom 7.5557278396235228 7.9226468304815443 -0.1589566274699966 S
atom 2.5135079245385796 2.0516840437682333 4.8616513909008550 S
atom 7.5571715271073820 2.9935253722992861 4.8632906236208440 S
atom 2.5135079245385805 8.0387347883668241 4.8616513909008550 S
atom 7.5571715271073820 7.0968934598357674 4.8632906236208422 S
atom 2.5125812338864528 -0.0000000000000000 2.0062227515888424 S
atom 7.5504645240254922 -0.0000000000000000 2.7974115365879380 S
atom 2.5068009214566991 5.0452094160675278 2.7957723038679596 S
atom 7.5562448364552344 5.0452094160675278 2.0078619843088297 S
atom 2.5880488682602008 0.0000000000000000 7.8036549421634627 S
atom 7.5013288744562132 -0.0000000000000000 6.8815506908186741 S
atom 2.4576652718874277 5.0452094160675278 6.8799114580986966 S
atom 7.6317124708289983 5.0452094160675278 7.8052941748834410 S
atom -0.0113459577144470 2.5215602809135538 2.4535025451652697 S
atom 5.0323176448543467 2.5236491351539732 2.4551417778852533 S
atom -0.0113459577144470 7.5688585512214761 2.4535025451652697 S
atom 5.0323176448543467 7.5667696969810869 2.4551417778852533 S
atom -0.0058859424912582 2.4449210617414336 7.3452539679241333 S
atom 5.0377776600775332 2.6002883543260933 7.3468932006441161 S
atom -0.0058859424912582 7.6454977703935931 7.3452539679241351 S
atom 5.0377776600775332 7.4901304778089735 7.3468932006441161 S
atom -0.0164372406110014 0.0000000000000000 9.7859799222494583 Ba
atom 5.0467794695894028 0.0000000000000000 9.8729549319293994 Ba
atom 0.0031158670206152 5.0452094160675278 9.8713156992094202 Ba
atom 5.0272263619577666 5.0452094160675278 9.7876191549694305 Ba
atom 0.0244596723768071 0.0000000000000000 14.8039924873469975 Ba
atom 5.0485701673139856 0.0000000000000000 14.7202959431070060 Ba
atom 0.0049065647451911 5.0452094160675278 14.7186567103870480 Ba
atom 5.0681232749455845 5.0452094160675278 14.8056317200669767 Ba
atom 2.5258430171673005 2.5226047080337639 12.2958058211582308 Zr
atom 7.5695066197360745 2.5226047080337639 12.2974450538782119 Zr
atom 2.5258430171673005 7.5678141241012824 12.2958058211582308 Zr
atom 7.5695066197360745 7.5678141241012824 12.2974450538782119 Zr
atom 2.5402769956670723 2.5237232282906792 17.2587168721139079 Zr
atom 7.5839405982358725 2.5214861877768406 17.2603561048339138 Zr
atom 2.5402769956670723 7.5666956038443622 17.2587168721139044 Zr
atom 7.5839405982358725 7.5689326443582132 17.2603561048339138 Zr
atom 2.5216309110128590 3.0244743084335863 9.8185848788668828 S
atom 7.5652945135816569 2.0207351076339402 9.8202241115868816 S
atom 2.5216309110128590 7.0659445237014555 9.8185848788668864 S
atom 7.5652945135816587 8.0696837245011164 9.8202241115868780 S
atom 2.5300551233217443 2.0207351076339393 14.7730267634495451 S
atom 7.5737187258905196 3.0244743084335837 14.7746659961695368 S
atom 2.5300551233217448 8.0696837245011199 14.7730267634495380 S
atom 7.5737187258905196 7.0659445237014555 14.7746659961695403 S
atom 2.4352415065046835 0.0000000000000000 11.8248984457155348 S
atom 7.6601081303986946 0.0000000000000000 12.7683524293208972 S
atom 2.6164445278299127 5.0452094160675278 12.7667131966009215 S
atom 7.4789051090734837 5.0452094160675278 11.8265376784355123 S
atom 2.5940207624471627 0.0000000000000000 17.7117001842177295 S
atom 7.5073007686431712 0.0000000000000000 16.7895959328730022 S
atom 2.4636371660743892 5.0452094160675278 16.7879567001530141 S
atom 7.6376843650159651 5.0452094160675278 17.7133394169376892 S
atom 0.0040112158829032 2.6315871240094650 12.2949862047982368 S
atom 5.0476748184516973 2.4136222920580526 12.2966254375182213 S
atom 0.0040112158829032 7.4588317081255742 12.2949862047982368 S
atom 5.0476748184516973 7.6767965400769853 12.2966254375182213 S
atom 0.0139083742570645 2.4449210617414328 17.2447184416723331 S
atom 5.0575719768258587 2.6002883543260924 17.2463576743923497 S
atom 0.0139083742570645 7.6454977703935931 17.2447184416723367 S
atom 5.0575719768258587 7.4901304778089717 17.2463576743923497 S
atom 0.0065449236656418 0.0000000000000000 19.6436268651621724 Ba
atom 5.1068619169460581 0.0000000000000000 19.6563192147585717 Ba
atom 0.0631983143772714 5.0452094160675278 19.6546799820385729 Ba
atom 5.0502085262344343 5.0452094160675278 19.6452660978821783 Ba
atom 0.1722959883626337 0.0000000000000000 24.3102976694451627 Ba
atom 4.9075853154125673 0.0000000000000000 24.3127847975226814 Ba
atom -0.1360782871562159 5.0452094160675278 24.3111455648027110 Ba
atom 5.2159595909314298 5.0452094160675278 24.3119369021651508 Ba
atom 2.5419051045708350 2.5352961744578200 22.2712665387494475 Zr
atom 7.5855687071396307 2.5099132416097065 22.2729057714694214 Zr
atom 2.5419051045708350 7.5551226576772246 22.2712665387494475 Zr
atom 7.5855687071396307 7.5805055905253473 22.2729057714694214 Zr
atom 2.5381781097960117 2.9935253722992843 19.7299602514155659 S
atom 7.5818417123647874 2.0516840437682333 19.7315994841355185 S
atom 2.5381781097960117 7.0968934598357709 19.7299602514155730 S
atom 7.5818417123647874 8.0387347883668241 19.7315994841355185 S
atom 2.5396217972798647 2.1677720016535025 24.7522075025063977 S
atom 7.5832853998486680 2.8774374144140227 24.7538467352263822 S
atom 2.5396217972798651 7.9226468304815443 24.7522075025063977 S
atom 7.5832853998486689 7.2129814177210214 24.7538467352263822 S
atom 2.5448851128778913 0.0000000000000000 21.7958393384485021 S
atom 7.5827684030169369 0.0000000000000000 22.5870281234475208 S
atom 2.5391048004481473 5.0452094160675278 22.5853888907275504 S
atom 7.5885487154466844 5.0452094160675278 21.7974785711684618 S
atom 0.0193683894802534 2.5215602809135511 22.1364698644312128 S
atom 5.0630319920490416 2.5236491351539714 22.1381090971511760 S
atom 0.0193683894802534 7.5688585512214779 22.1364698644312128 S
atom 5.0630319920490416 7.5667696969810851 22.1381090971511760 S
atom 2.5388027145350174 2.6770812689501504 27.8267650691584514 Ba
atom 7.5824663171037958 2.3681281471173810 27.8284043018784324 Ba
atom 2.5388027145350178 7.4133375631849034 27.8267650691584585 Ba
atom 7.5824663171037958 7.7222906850176747 27.8284043018784324 Ba
atom 2.5372879347040498 2.4941109475424144 32.4894834619944604 Ba
atom 7.5809515372728349 2.5510984685251192 32.4911226947144485 Ba
atom 2.5372879347040498 7.5963078845926315 32.4894834619944746 Ba
atom 7.5809515372728349 7.5393203636099413 32.4911226947144485 Ba
atom 5.0727455311892120 5.0452094160675278 29.8673647648376139 Zr
atom 10.0908932053013221 5.0452094160675278 29.8692727126371338 Zr
atom 5.0472296027325276 10.0904188321350556 29.8676334799171173 Zr
atom 10.1164091337579940 10.0904188321350556 29.8690039975576624 Zr
atom 5.0592501165077932 5.0452094160675278 34.8783180323172459 Zr
atom 10.1011855709068517 5.0452094160675278 34.8800309361917940 Zr
atom 5.0575219683380892 10.0904188321350556 34.8783917034719266 Zr
atom 10.1029137190766019 10.0904188321350556 34.8799572650373335 Zr
atom 4.7052778414177894 5.0452094160675278 27.3864504814735348 S
atom 10.4599126147161332 5.0452094160675278 27.3886039413892171 S
atom 5.4162490121473610 10.0904188321350556 27.3869647086692005 S
atom 9.7489414439865705 10.0904188321350556 27.3880897141934767 S
atom 5.5333361391367033 5.0452094160675278 32.4082780899102900 S
atom 9.6285195928554135 5.0452094160675278 32.4096578017487005 S
atom 4.5848559902866093 10.0904188321350556 32.4080185690287266 S
atom 10.5769997417054711 10.0904188321350556 32.4099173226302781 S
atom 5.0599273100126991 2.5226167707072999 30.0020086252095339 S
atom 10.1035909125815238 2.5225926453602279 30.0036478579295718 S
atom 5.0599273100126991 7.5678020614277370 30.0020086252095339 S
atom 10.1035909125815238 7.5678261867748198 30.0036478579295647 S
atom 5.0582085805212547 2.5226002653711070 34.8936386505942693 S
atom 10.1018721830900322 2.5226091506964128 34.8952778833142148 S
atom 5.0582085805212547 7.5678185667639326 34.8936386505942693 S
atom 10.1018721830900322 7.5678096814386437 34.8952778833141863 S
atom 2.5379975399555863 5.0452094160675278 30.3436347185246937 S
atom 7.5819044650850973 5.0452094160675278 29.5515371384468075 S
atom 2.5382408625163100 10.0904188321350556 29.5498979057268834 S
atom 7.5816611425243750 10.0904188321350556 30.3452739512447138 S
atom 2.5366115192250525 5.0452094160675278 34.4195509865966613 S
atom 7.5799803314157863 5.0452094160675278 35.3547067429130593 S
atom 2.5363167288470012 10.0904188321350556 35.3530675101930143 S
atom 7.5802751217938464 10.0904188321350556 34.4211902193166992 S
atom 2.5357027423196885 2.5317994841306755 37.3747719758516084 Ba
atom 7.5793663448884709 2.5134099319368497 37.3764112085715396 Ba
atom 2.5357027423196885 7.5586193480043713 37.3747719758516084 Ba
atom 7.5793663448884709 7.5770089001981908 37.3764112085715539 Ba
atom 2.5339535391703230 2.5134099319368497 42.2983778639608943 Ba
atom 7.5776171417391112 2.5317994841306737 42.3000170966809534 Ba
atom 2.5339535391703230 7.5770089001981908 42.2983778639609227 Ba
atom 7.5776171417391076 7.5586193480043713 42.3000170966809463 Ba
atom 5.0566599420293805 5.0452094160675278 39.8373945362662170 Zr
atom 10.1003235445981776 5.0452094160675278 39.8390337689862122 Zr
atom 5.0566599420293805 10.0904188321350556 39.8373945362662170 Zr
atom 10.1003235445981758 10.0904188321350556 39.8390337689862122 Zr
atom 5.0540697675510025 5.0452094160675278 44.7964710402152804 Zr
atom 10.0994615182895089 5.0452094160675278 44.7980366017806304 Zr
atom 5.0557979157207091 10.0904188321350556 44.7963973690606281 Zr
atom 10.0977333701197658 10.0904188321350556 44.7981102729351690 Zr
atom 4.5494851375907865 5.0452094160675278 37.3621305407744728 S
atom 10.6091729550714646 5.0452094160675278 37.3641189249824208 S
atom 5.5655093525026809 10.0904188321350556 37.3624796922624185 S
atom 9.5931487401595881 10.0904188321350556 37.3637697734944609 S
atom 5.5638347464680038 5.0452094160675278 42.3126585317580393 S
atom 9.5914741341248693 5.0452094160675278 42.3139486129900106 S
atom 4.5478105315561175 10.0904188321350556 42.3123093802700865 S
atom 10.6074983490368062 10.0904188321350556 42.3142977644779918 S
atom 5.0566599420293805 2.5226017254468354 39.8373945362662170 S
atom 10.1003235445981776 2.5226076906206818 39.8390337689862122 S
atom 5.0566599420293805 7.5678171066882172 39.8373945362662170 S
atom 10.1003235445981776 7.5678111415143654 39.8390337689862122 S
atom 5.0551113035375206 2.5226002653711053 44.7811504219382215 S
atom 10.0987749061063212 2.5226091506964141 44.7827896546582451 S
atom 5.0551113035375206 7.5678185667639308 44.7811504219382357 S
atom 10.0987749061063212 7.5678096814386420 44.7827896546582167 S
atom 2.5346665895617115 5.0452094160675278 40.3134112419772421 S
atom 7.5786532944970819 5.0452094160675278 39.3613778305553339 S
atom 2.5349896919282915 10.0904188321350556 39.3597385978352747 S
atom 7.5783301921305064 10.0904188321350556 40.3150504746972373 S
atom 2.5333395526430005 5.0452094160675278 44.3200823296194102 S
atom 7.5767083648337330 5.0452094160675278 45.2552380859359005 S
atom 2.5330447622649523 10.0904188321350556 45.2535988532158697 S
atom 7.5770031552117771 10.0904188321350556 44.3217215623394267 S
atom 2.5323683467859475 2.5510984685251183 47.1836663778179997 Ba
atom 7.5760319493547303 2.4941109475424139 47.1853056105380517 Ba
atom 2.5323683467859475 7.5393203636099413 47.1836663778180139 Ba
atom 7.5760319493547303 7.5963078845926280 47.1853056105380517 Ba
atom 2.5308535669549883 2.3681281471173801 51.8463847706538701 Ba
atom 7.5745171695237774 2.6770812689501495 51.8480240033739577 Ba
atom 2.5308535669549883 7.7222906850176765 51.8463847706538701 Ba
atom 7.5745171695237774 7.4133375631849017 51.8480240033739435 Ba
atom 5.0405743528695792 5.0452094160675278 49.8074243076947951 Zr
atom 10.1097538838950367 5.0452094160675278 49.8087948253353403 Zr
atom 5.0660902813262467 10.0904188321350556 49.8071555926152669 Zr
atom 10.0842379554383630 10.0904188321350556 49.8090635404148330 Zr
atom 4.5799837449220977 5.0452094160675278 47.2665109826221865 S
atom 10.5721274963409453 5.0452094160675278 47.2684097362237594 S
atom 5.5284638937721819 10.0904188321350556 47.2667705035036931 S
atom 9.6236473474908966 10.0904188321350556 47.2681502153421889 S
atom 5.4080420426410010 5.0452094160675278 52.2883385910590093 S
atom 9.7407344744802540 5.0452094160675278 52.2894635965832109 S
atom 4.6970708719114285 10.0904188321350556 52.2878243638632014 S
atom 10.4517056452097936 10.0904188321350556 52.2899778237790116 S
atom 5.0533925740460930 2.5226167707072999 49.6727804473229000 S
atom 10.0970561766148617 2.5225926453602296 49.6744196800428739 S
atom 5.0533925740460930 7.5678020614277406 49.6727804473229000 S
atom 10.0970561766148617 7.5678261867748180 49.6744196800428739 S
atom 2.5314154189736882 5.0452094160675278 50.1232519340856655 S
atom 7.5753223441032072 5.0452094160675278 49.3311543540078432 S
atom 2.5316587415344092 10.0904188321350556 49.3295151212878764 S
atom 7.5750790215424813 10.0904188321350556 50.1248911668057318 S
