#=======================================================
# FHI-aims file: sym_relax/sym_relax_RP_10_RxRy0_-Rx-Ry0.in
# Created using the Atomic Simulation Environment (ASE)
# Mon Mar 17 17:12:32 2025
#=======================================================
lattice_vector 10.0644344584144587 0.0909408501032978 -0.0000000000000000 
lattice_vector 0.0909408501032979 10.0644344584144783 0.0000000000000004 
lattice_vector -0.0000000000000000 0.0000000000000040 104.9353838736267193 
atom -0.0981496926565874 -0.0981496926565874 0.2768796669846336 Ba
atom 5.1303669218638150 0.1436201177082346 0.2768796669846336 Ba
atom 0.1436201177082364 5.1303669218638079 0.2768796669846338 Ba
atom 4.9795379616022899 4.9795379616022899 0.2768796669846337 Ba
atom -0.0083081401034086 -0.0083081401034084 4.9540909254282104 Ba
atom 5.0405253693106378 0.0537785651550561 4.9540909254282104 Ba
atom 0.0537785651550572 5.0405253693106395 4.9540909254282104 Ba
atom 5.0693795141554627 5.0693795141554521 4.9540909254282104 Ba
atom 2.5260340270786661 2.5260340270786608 2.3438166227524313 Zr
atom 7.5838708563874420 2.5971240522318566 2.3438166227524313 Zr
atom 2.5971240522318606 7.5838708563874313 2.3438166227524313 Zr
atom 7.6037216813375492 7.6037216813375359 2.3438166227524313 Zr
atom 2.5408446662248529 2.5408446662248481 7.3708800547088371 Zr
atom 7.5690602172412680 2.5823134130856666 7.3708800547088345 Zr
atom 2.5823134130856702 7.5690602172412502 7.3708800547088345 Zr
atom 7.6185323204837188 7.6185323204837134 7.3708800547088362 Zr
atom 2.7256454412593718 2.7256454412593665 -0.1406424205497338 S
atom 7.3842594422067442 2.3975126380511504 -0.1406424205497338 S
atom 2.3975126380511598 7.3842594422067300 -0.1406424205497336 S
atom 7.8033330955182398 7.8033330955182301 -0.1406424205497336 S
atom 2.2315483417993414 2.2315483417993369 4.8937028728167178 S
atom 7.8783565416667756 2.8916097375111787 4.8937028728167205 S
atom 2.8916097375111840 7.8783565416667631 4.8937028728167205 S
atom 7.3092359960582129 7.3092359960582014 4.8937028728167196 S
atom 2.5161086146036151 0.0227352125258237 2.1927580333411996 S
atom 7.5483258438108507 0.0682056375774711 2.6992747787242095 S
atom 2.5615790396552640 5.0549524417330485 2.6992747787242095 S
atom 7.5937962688624943 5.1004228667846903 2.1927580333412000 S
atom 2.5161086146036151 0.0227352125258239 7.7244283753710929 S
atom 7.5483258438108507 0.0682056375774713 7.0363892786538518 S
atom 2.5615790396552640 5.0549524417330485 7.0363892786538536 S
atom 7.5937962688624943 5.1004228667846903 7.7244283753710929 S
atom 0.0227352125258241 2.5161086146036147 2.1927580333412000 S
atom 5.0549524417330574 2.5615790396552613 2.6992747787242095 S
atom 0.0682056375774732 7.5483258438108383 2.6992747787242100 S
atom 5.1004228667846956 7.5937962688624827 2.1927580333412000 S
atom 0.0227352125258241 2.5161086146036147 7.7244283753710929 S
atom 5.0549524417330574 2.5615790396552613 7.0363892786538536 S
atom 0.0682056375774732 7.5483258438108383 7.0363892786538536 S
atom 5.1004228667846956 7.5937962688624827 7.7244283753710929 S
atom 0.0349537025709218 0.0349537025709221 9.8684007370522568 Ba
atom 4.9972635266363072 0.0105167224807259 9.8684007370522586 Ba
atom 0.0105167224807268 4.9972635266363046 9.8684007370522586 Ba
atom 5.1126413568297959 5.1126413568297906 9.8684007370522639 Ba
atom -0.0361791429629351 -0.0361791429629346 14.8268367758261714 Ba
atom 5.0683963721701746 0.0816495680145831 14.8268367758261785 Ba
atom 0.0816495680145838 5.0683963721701604 14.8268367758261785 Ba
atom 5.0415085112959455 5.0415085112959304 14.8268367758261714 Ba
atom 2.5393725311518875 2.5393725311518831 12.3390236214205036 Zr
atom 7.5705323523142178 2.5837855481586365 12.3390236214205018 Zr
atom 2.5837855481586436 7.5705323523142170 12.3390236214205018 Zr
atom 7.6170601854107653 7.6170601854107538 12.3390236214205036 Zr
atom 2.5386387567590938 2.5386387567590911 17.3036041693880378 Zr
atom 7.5712661267070125 2.5845193225514285 17.3036041693880414 Zr
atom 2.5845193225514351 7.5712661267069983 17.3036041693880485 Zr
atom 7.6163264110179689 7.6163264110179618 17.3036041693880449 Zr
atom 2.8878062384496723 2.8878062384496626 9.8615095570243128 S
atom 7.2220986450164331 2.2353518408608566 9.8615095570243145 S
atom 2.2353518408608566 7.2220986450164233 9.8615095570243181 S
atom 7.9654938927085626 7.9654938927085484 9.8615095570243128 S
atom 2.1856019954626760 2.1856019954626706 14.8236335771265075 S
atom 7.9243028880034334 2.9375560838478498 14.8236335771265040 S
atom 2.9375560838478543 7.9243028880034290 14.8236335771265075 S
atom 7.2632896497215498 7.2632896497215382 14.8236335771265111 S
atom 2.5161086146036151 0.0227352125258241 11.9817043123534148 S
atom 7.5483258438108507 0.0682056375774715 12.7094735769634894 S
atom 2.5615790396552640 5.0549524417330485 12.7094735769634894 S
atom 7.5937962688624943 5.1004228667846903 11.9817043123534148 S
atom 2.5161086146036151 0.0227352125258243 17.6713536359407719 S
atom 7.5483258438108507 0.0682056375774717 16.9406553766163270 S
atom 2.5615790396552640 5.0549524417330485 16.9406553766163270 S
atom 7.5937962688624943 5.1004228667846903 17.6713536359407719 S
atom 0.0227352125258241 2.5161086146036151 11.9817043123534148 S
atom 5.0549524417330574 2.5615790396552618 12.7094735769634894 S
atom 0.0682056375774732 7.5483258438108383 12.7094735769634894 S
atom 5.1004228667846956 7.5937962688624827 11.9817043123534148 S
atom 0.0227352125258241 2.5161086146036151 17.6713536359407719 S
atom 5.0549524417330574 2.5615790396552618 16.9406553766163270 S
atom 0.0682056375774732 7.5483258438108383 16.9406553766163270 S
atom 5.1004228667846956 7.5937962688624827 17.6713536359407719 S
atom 0.0367006624546037 0.0367006624546044 19.7866922066334396 Ba
atom 4.9955165667526291 0.0087697625970443 19.7866922066334396 Ba
atom 0.0087697625970448 4.9955165667526185 19.7866922066334396 Ba
atom 5.1143883167134891 5.1143883167134838 19.7866922066334396 Ba
atom -0.0368042254785715 -0.0368042254785706 24.7489112909496676 Ba
atom 5.0690214546858092 0.0822746505302198 24.7489112909496676 Ba
atom 0.0822746505302202 5.0690214546857968 24.7489112909496676 Ba
atom 5.0408834287803073 5.0408834287803037 24.7489112909496676 Ba
atom 2.5388986847002202 2.5388986847002104 22.2672289122575222 Zr
atom 7.5710061987658968 2.5842593946103127 22.2672289122575151 Zr
atom 2.5842593946103123 7.5710061987658879 22.2672289122575151 Zr
atom 7.6165863389590891 7.6165863389590909 22.2672289122575222 Zr
atom 2.5388986847002202 2.5388986847002109 27.2305936696418449 Zr
atom 7.5710061987658968 2.5842593946103132 27.2305936696418449 Zr
atom 2.5842593946103123 7.5710061987658879 27.2305936696418520 Zr
atom 7.6165863389590891 7.6165863389590909 27.2305936696418520 Zr
atom 2.8927098115399894 2.8927098115399836 19.7863589758007485 S
atom 7.2171950719261186 2.2304482677705311 19.7863589758007556 S
atom 2.2304482677705364 7.2171950719261071 19.7863589758007556 S
atom 7.9703974657988743 7.9703974657988557 19.7863589758007485 S
atom 2.1848165813265097 2.1848165813265030 24.7489112909496676 S
atom 7.9250883021396064 2.9383414979840166 24.7489112909496676 S
atom 2.9383414979840228 7.9250883021396010 24.7489112909496676 S
atom 7.2625042355853813 7.2625042355853653 24.7489112909496676 S
atom 2.5161086146036151 0.0227352125258245 21.9019664366842051 S
atom 7.5483258438108507 0.0682056375774719 22.6337842688123914 S
atom 2.5615790396552640 5.0549524417330494 22.6337842688123914 S
atom 7.5937962688624943 5.1004228667846911 21.9019664366841980 S
atom 2.5161086146036151 0.0227352125258247 27.5958561452151621 S
atom 7.5483258438108507 0.0682056375774720 26.8640383130869829 S
atom 2.5615790396552640 5.0549524417330494 26.8640383130869829 S
atom 7.5937962688624943 5.1004228667846911 27.5958561452151621 S
atom 0.0227352125258241 2.5161086146036156 21.9019664366841980 S
atom 5.0549524417330574 2.5615790396552622 22.6337842688123914 S
atom 0.0682056375774732 7.5483258438108392 22.6337842688123914 S
atom 5.1004228667846956 7.5937962688624836 21.9019664366842051 S
atom 0.0227352125258241 2.5161086146036156 27.5958561452151621 S
atom 5.0549524417330574 2.5615790396552622 26.8640383130869829 S
atom 0.0682056375774732 7.5483258438108392 26.8640383130869829 S
atom 5.1004228667846956 7.5937962688624836 27.5958561452151621 S
atom 0.0367006624546037 0.0367006624546048 29.7111303752658991 Ba
atom 4.9955165667526282 0.0087697625970447 29.7111303752658920 Ba
atom 0.0087697625970448 4.9955165667526185 29.7111303752658920 Ba
atom 5.1143883167134891 5.1143883167134838 29.7111303752658991 Ba
atom -0.0361791429629351 -0.0361791429629338 34.6709858060732117 Ba
atom 5.0683963721701746 0.0816495680145839 34.6709858060732259 Ba
atom 0.0816495680145838 5.0683963721701604 34.6709858060732401 Ba
atom 5.0415085112959455 5.0415085112959304 34.6709858060732117 Ba
atom 2.5386387567590942 2.5386387567590911 32.1942184125112476 Zr
atom 7.5712661267070125 2.5845193225514285 32.1942184125112476 Zr
atom 2.5845193225514356 7.5712661267069992 32.1942184125112476 Zr
atom 7.6163264110179689 7.6163264110179627 32.1942184125112476 Zr
atom 2.5393725311518875 2.5393725311518835 37.1587989604787836 Zr
atom 7.5705323523142178 2.5837855481586369 37.1587989604787836 Zr
atom 2.5837855481586436 7.5705323523142170 37.1587989604787836 Zr
atom 7.6170601854107653 7.6170601854107538 37.1587989604787836 Zr
atom 2.8927098115399894 2.8927098115399845 29.7114636060986079 S
atom 7.2171950719261186 2.2304482677705315 29.7114636060986044 S
atom 2.2304482677705360 7.2171950719261071 29.7114636060986044 S
atom 7.9703974657988743 7.9703974657988557 29.7114636060986079 S
atom 2.1856019954626760 2.1856019954626720 34.6741890047728631 S
atom 7.9243028880034334 2.9375560838478498 34.6741890047728631 S
atom 2.9375560838478552 7.9243028880034299 34.6741890047728631 S
atom 7.2632896497215498 7.2632896497215391 34.6741890047728631 S
atom 2.5161086146036151 0.0227352125258249 31.8264689459585348 S
atom 7.5483258438108507 0.0682056375774723 32.5571672052829868 S
atom 2.5615790396552640 5.0549524417330494 32.5571672052829868 S
atom 7.5937962688624943 5.1004228667846911 31.8264689459585348 S
atom 2.5161086146036151 0.0227352125258251 37.5161182695459416 S
atom 7.5483258438108507 0.0682056375774724 36.7883490049358315 S
atom 2.5615790396552640 5.0549524417330494 36.7883490049358315 S
atom 7.5937962688624943 5.1004228667846911 37.5161182695459416 S
atom 0.0227352125258241 2.5161086146036160 31.8264689459585348 S
atom 5.0549524417330574 2.5615790396552627 32.5571672052829868 S
atom 0.0682056375774732 7.5483258438108392 32.5571672052829868 S
atom 5.1004228667846956 7.5937962688624836 31.8264689459585348 S
atom 0.0227352125258241 2.5161086146036160 37.5161182695459416 S
atom 5.0549524417330574 2.5615790396552627 36.7883490049358315 S
atom 0.0682056375774732 7.5483258438108392 36.7883490049358315 S
atom 5.1004228667846956 7.5937962688624836 37.5161182695459416 S
atom 0.0349537025709218 0.0349537025709232 39.6294218448470943 Ba
atom 4.9972635266363072 0.0105167224807270 39.6294218448471014 Ba
atom 0.0105167224807267 4.9972635266363055 39.6294218448470872 Ba
atom 5.1126413568297959 5.1126413568297915 39.6294218448471085 Ba
atom -0.0083081401034087 -0.0083081401034069 44.5437316564711807 Ba
atom 5.0405253693106378 0.0537785651550576 44.5437316564711736 Ba
atom 0.0537785651550572 5.0405253693106422 44.5437316564711736 Ba
atom 5.0693795141554627 5.0693795141554538 44.5437316564711807 Ba
atom 2.5408446662248529 2.5408446662248503 42.1269425271905078 Zr
atom 7.5690602172412680 2.5823134130856689 42.1269425271905078 Zr
atom 2.5823134130856702 7.5690602172412511 42.1269425271905078 Zr
atom 7.6185323204837188 7.6185323204837134 42.1269425271905078 Zr
atom 2.5260340270786661 2.5260340270786625 47.1540059591469571 Zr
atom 7.5838708563874420 2.5971240522318579 47.1540059591469571 Zr
atom 2.5971240522318606 7.5838708563874331 47.1540059591469571 Zr
atom 7.6037216813375492 7.6037216813375377 47.1540059591469571 Zr
atom 2.8878062384496723 2.8878062384496639 39.6363130248750579 S
atom 7.2220986450164331 2.2353518408608579 39.6363130248750579 S
atom 2.2353518408608566 7.2220986450164242 39.6363130248750579 S
atom 7.9654938927085626 7.9654938927085501 39.6363130248750579 S
atom 2.2315483417993414 2.2315483417993383 44.6041197090827168 S
atom 7.8783565416667765 2.8916097375111800 44.6041197090827168 S
atom 2.8916097375111840 7.8783565416667649 44.6041197090827168 S
atom 7.3092359960582121 7.3092359960582023 44.6041197090827168 S
atom 2.5161086146036151 0.0227352125258252 41.7733942065281951 S
atom 7.5483258438108507 0.0682056375774726 42.4614333032454638 S
atom 2.5615790396552640 5.0549524417330494 42.4614333032454638 S
atom 7.5937962688624943 5.1004228667846911 41.7733942065281951 S
atom 2.5161086146036151 0.0227352125258254 47.3050645485581214 S
atom 7.5483258438108507 0.0682056375774728 46.7985478031750972 S
atom 2.5615790396552640 5.0549524417330503 46.7985478031750972 S
atom 7.5937962688624943 5.1004228667846920 47.3050645485581214 S
atom 0.0227352125258241 2.5161086146036160 41.7733942065281951 S
atom 5.0549524417330574 2.5615790396552627 42.4614333032454638 S
atom 0.0682056375774731 7.5483258438108392 42.4614333032454638 S
atom 5.1004228667846956 7.5937962688624836 41.7733942065281951 S
atom 0.0227352125258241 2.5161086146036160 47.3050645485581214 S
atom 5.0549524417330574 2.5615790396552627 46.7985478031750972 S
atom 0.0682056375774732 7.5483258438108400 46.7985478031750972 S
atom 5.1004228667846956 7.5937962688624845 47.3050645485581214 S
atom -0.0981496926565874 -0.0981496926565855 49.2209429149147084 Ba
atom 5.1303669218638159 0.1436201177082365 49.2209429149147084 Ba
atom 0.1436201177082360 5.1303669218638097 49.2209429149147084 Ba
atom 4.9795379616022899 4.9795379616022917 49.2209429149147084 Ba
atom 2.7256454412593727 2.7256454412593678 49.6384650024490810 S
atom 7.3842594422067460 2.3975126380511522 49.6384650024490810 S
atom 2.3975126380511602 7.3842594422067318 49.6384650024490810 S
atom 7.8033330955182407 7.8033330955182318 49.6384650024490810 S
atom 2.6369935197860359 2.6369935197860270 52.7445716037979864 Ba
atom 7.4729113636800912 2.4861645595244952 52.7445716037979864 Ba
atom 2.4861645595244983 7.4729113636800726 52.7445716037979864 Ba
atom 7.7146811740449017 7.7146811740448911 52.7445716037979864 Ba
atom 2.5471519672328502 2.5471519672328466 57.4217828622415496 Ba
atom 7.5627529162332516 2.5760061120776752 57.4217828622415496 Ba
atom 2.5760061120776787 7.5627529162332525 57.4217828622415496 Ba
atom 7.6248396214917262 7.6248396214917236 57.4217828622415496 Ba
atom 5.0904974543096513 5.0904974543096460 54.8115085595657163 Zr
atom 10.0970950834153541 5.1103482792597497 54.8115085595657163 Zr
atom 5.1103482792597585 10.0970950834153239 54.8115085595657163 Zr
atom 10.1681851085685331 10.1681851085685206 54.8115085595657163 Zr
atom 5.0756868151634693 5.0756868151634693 59.8385719915221514 Zr
atom 10.1119057225615308 5.1251589184059254 59.8385719915221514 Zr
atom 5.1251589184059334 10.1119057225615041 59.8385719915221514 Zr
atom 10.1533744694223476 10.1533744694223405 59.8385719915221514 Zr
atom 4.8908860401289473 4.8908860401289465 52.3270495162635854 S
atom 10.2967064975960447 5.3099596934404456 52.3270495162635854 S
atom 5.3099596934404536 10.2967064975960270 52.3270495162635854 S
atom 9.9685736943878034 9.9685736943878158 52.3270495162635854 S
atom 5.3849831395889804 5.3849831395889742 57.3613948096300206 S
atom 9.8026093981360098 4.8158625939804152 57.3613948096300206 S
atom 4.8158625939804169 9.8026093981359939 57.3613948096300206 S
atom 10.4626707938478649 10.4626707938478472 57.3613948096300206 S
atom 5.0549524417330565 2.5615790396552631 55.1669667155375478 S
atom 10.0871696709402929 2.6070494647069089 54.6604499701545592 S
atom 5.1004228667846965 7.5937962688624845 54.6604499701545592 S
atom 10.1326400959919454 7.6392666939141325 55.1669667155375478 S
atom 5.0549524417330565 2.5615790396552631 59.5040812154671741 S
atom 10.0871696709402929 2.6070494647069089 60.1921203121844215 S
atom 5.1004228667846965 7.5937962688624854 60.1921203121844215 S
atom 10.1326400959919454 7.6392666939141334 59.5040812154671741 S
atom 2.5615790396552645 5.0549524417330503 55.1669667155375478 S
atom 7.5937962688624934 5.1004228667846920 54.6604499701545592 S
atom 2.6070494647069107 10.0871696709402752 54.6604499701545592 S
atom 7.6392666939141334 10.1326400959919241 55.1669667155375478 S
atom 2.5615790396552645 5.0549524417330511 59.5040812154671741 S
atom 7.5937962688624934 5.1004228667846929 60.1921203121844215 S
atom 2.6070494647069107 10.0871696709402752 60.1921203121844215 S
atom 7.6392666939141334 10.1326400959919241 59.5040812154671741 S
atom 2.5038901245585183 2.5038901245585170 62.3360926738656076 Ba
atom 7.6060147589075946 2.6192679547520075 62.3360926738656147 Ba
atom 2.6192679547520079 7.6060147589075795 62.3360926738656147 Ba
atom 7.5815777788173948 7.5815777788173921 62.3360926738656076 Ba
atom 2.5750229700923741 2.5750229700923746 67.2945287126393055 Ba
atom 7.5348819133737335 2.5481351092181512 67.2945287126393197 Ba
atom 2.5481351092181512 7.5348819133737219 67.2945287126393197 Ba
atom 7.6527106243512542 7.6527106243512524 67.2945287126393055 Ba
atom 5.0771589502364352 5.0771589502364325 64.8067155582338614 Zr
atom 10.1104335874885756 5.1236867833329702 64.8067155582338614 Zr
atom 5.1236867833329782 10.1104335874885436 64.8067155582338614 Zr
atom 10.1548466044953081 10.1548466044952885 64.8067155582338614 Zr
atom 5.0778927246292280 5.0778927246292191 69.7712961062013193 Zr
atom 10.1096998130957836 5.1229530089401702 69.7712961062013193 Zr
atom 5.1229530089401765 10.1096998130957640 69.7712961062013193 Zr
atom 10.1555803788880770 10.1555803788880805 69.7712961062013193 Zr
atom 4.7287252429386353 4.7287252429386388 62.3292014938376084 S
atom 10.4588672947863301 5.4721204906307568 62.3292014938376084 S
atom 5.4721204906307621 10.4588672947863248 62.3292014938376084 S
atom 9.8064128971975340 9.8064128971975144 62.3292014938376084 S
atom 5.4309294859256489 5.4309294859256436 67.2913255139398672 S
atom 9.7566630517993644 4.7699162476437547 67.2913255139398672 S
atom 4.7699162476437582 9.7566630517993396 67.2913255139398672 S
atom 10.5086171401845210 10.5086171401845014 67.2913255139398672 S
atom 5.0549524417330565 2.5615790396552631 65.1771655137768704 S
atom 10.0871696709402929 2.6070494647069089 64.4493962491667389 S
atom 5.1004228667846965 7.5937962688624854 64.4493962491667389 S
atom 10.1326400959919454 7.6392666939141334 65.1771655137768704 S
atom 5.0549524417330565 2.5615790396552640 69.4083473134296725 S
atom 10.0871696709402929 2.6070494647069098 70.1390455727539859 S
atom 5.1004228667846965 7.5937962688624854 70.1390455727539859 S
atom 10.1326400959919454 7.6392666939141334 69.4083473134296725 S
atom 2.5615790396552645 5.0549524417330511 65.1771655137768704 S
atom 7.5937962688624934 5.1004228667846929 64.4493962491667389 S
atom 2.6070494647069107 10.0871696709402752 64.4493962491667389 S
atom 7.6392666939141334 10.1326400959919241 65.1771655137768704 S
atom 2.5615790396552645 5.0549524417330511 69.4083473134296725 S
atom 7.5937962688624934 5.1004228667846929 70.1390455727539859 S
atom 2.6070494647069107 10.0871696709402752 70.1390455727539859 S
atom 7.6392666939141334 10.1326400959919241 69.4083473134296725 S
atom 2.5021431646748327 2.5021431646748336 72.2543841434467993 Ba
atom 7.6077617187912709 2.6210149146356900 72.2543841434468135 Ba
atom 2.6210149146356923 7.6077617187912683 72.2543841434468135 Ba
atom 7.5798308189337114 7.5798308189337025 72.2543841434467993 Ba
atom 2.5756480526080092 2.5756480526080114 77.2166032277629739 Ba
atom 7.5342568308581077 2.5475100267025153 77.2166032277629739 Ba
atom 2.5475100267025157 7.5342568308580917 77.2166032277629739 Ba
atom 7.6533357068668826 7.6533357068668835 77.2166032277629739 Ba
atom 5.0776327966880981 5.0776327966881007 74.7349208490708321 Zr
atom 10.1099597410369135 5.1232129368812966 74.7349208490708321 Zr
atom 5.1232129368812975 10.1099597410368691 74.7349208490708321 Zr
atom 10.1553204509469754 10.1553204509469719 74.7349208490708321 Zr
atom 5.0776327966880981 5.0776327966881007 79.6982856064550731 Zr
atom 10.1099597410369135 5.1232129368812966 79.6982856064550731 Zr
atom 5.1232129368812975 10.1099597410368691 79.6982856064550731 Zr
atom 10.1553204509469754 10.1553204509469719 79.6982856064550731 Zr
atom 4.7238216698483271 4.7238216698483226 72.2540509126140194 S
atom 10.4637708678766721 5.4770240637210783 72.2540509126140194 S
atom 5.4770240637210765 10.4637708678766472 72.2540509126140194 S
atom 9.8015093241072044 9.8015093241071849 72.2540509126140194 S
atom 5.4317149000618192 5.4317149000618192 77.2166032277629739 S
atom 9.7558776376632075 4.7691308335075826 77.2166032277629739 S
atom 4.7691308335075826 9.7558776376631577 77.2166032277629739 S
atom 10.5094025543207099 10.5094025543206708 77.2166032277629739 S
atom 5.0549524417330565 2.5615790396552645 75.1014762056257297 S
atom 10.0871696709402929 2.6070494647069102 74.3696583734976002 S
atom 5.1004228667846965 7.5937962688624854 74.3696583734976002 S
atom 10.1326400959919454 7.6392666939141334 75.1014762056257297 S
atom 5.0549524417330565 2.5615790396552645 79.3317302499001897 S
atom 10.0871696709402929 2.6070494647069102 80.0635480820283760 S
atom 5.1004228667846965 7.5937962688624854 80.0635480820283760 S
atom 10.1326400959919454 7.6392666939141334 79.3317302499001897 S
atom 2.5615790396552645 5.0549524417330511 75.1014762056257297 S
atom 7.5937962688624934 5.1004228667846929 74.3696583734976002 S
atom 2.6070494647069107 10.0871696709402752 74.3696583734976002 S
atom 7.6392666939141334 10.1326400959919241 75.1014762056257297 S
atom 2.5615790396552645 5.0549524417330511 79.3317302499001897 S
atom 7.5937962688624934 5.1004228667846929 80.0635480820283760 S
atom 2.6070494647069107 10.0871696709402752 80.0635480820283760 S
atom 7.6392666939141334 10.1326400959919241 79.3317302499001897 S
atom 2.5021431646748327 2.5021431646748336 82.1788223120791912 Ba
atom 7.6077617187912709 2.6210149146356900 82.1788223120791912 Ba
atom 2.6210149146356923 7.6077617187912683 82.1788223120791912 Ba
atom 7.5798308189337114 7.5798308189337025 82.1788223120791912 Ba
atom 2.5750229700923741 2.5750229700923759 87.1386777428865145 Ba
atom 7.5348819133737335 2.5481351092181526 87.1386777428865287 Ba
atom 2.5481351092181512 7.5348819133737219 87.1386777428865287 Ba
atom 7.6527106243512542 7.6527106243512515 87.1386777428865145 Ba
atom 5.0778927246292280 5.0778927246292191 84.6619103493246286 Zr
atom 10.1096998130957836 5.1229530089401702 84.6619103493246143 Zr
atom 5.1229530089401765 10.1096998130957640 84.6619103493246143 Zr
atom 10.1555803788880770 10.1555803788880805 84.6619103493246286 Zr
atom 5.0771589502364334 5.0771589502364307 89.6264908972920722 Zr
atom 10.1104335874885756 5.1236867833329702 89.6264908972920722 Zr
atom 5.1236867833329782 10.1104335874885436 89.6264908972920722 Zr
atom 10.1548466044953081 10.1548466044952885 89.6264908972920722 Zr
atom 4.7238216698483271 4.7238216698483226 82.1791555429120280 S
atom 10.4637708678766721 5.4770240637210783 82.1791555429120137 S
atom 5.4770240637210765 10.4637708678766490 82.1791555429120137 S
atom 9.8015093241072044 9.8015093241071867 82.1791555429120280 S
atom 5.4309294859256489 5.4309294859256436 87.1418809415861233 S
atom 9.7566630517993644 4.7699162476437547 87.1418809415861233 S
atom 4.7699162476437582 9.7566630517993378 87.1418809415861233 S
atom 10.5086171401845210 10.5086171401845014 87.1418809415861233 S
atom 5.0549524417330565 2.5615790396552645 85.0248591420962896 S
atom 10.0871696709402929 2.6070494647069102 84.2941608827719335 S
atom 5.1004228667846965 7.5937962688624854 84.2941608827719335 S
atom 10.1326400959919454 7.6392666939141334 85.0248591420962896 S
atom 5.0549524417330565 2.5615790396552649 89.2560409417490916 S
atom 10.0871696709402929 2.6070494647069107 89.9838102063592657 S
atom 5.1004228667846965 7.5937962688624854 89.9838102063592657 S
atom 10.1326400959919454 7.6392666939141334 89.2560409417490916 S
atom 2.5615790396552645 5.0549524417330511 85.0248591420962896 S
atom 7.5937962688624934 5.1004228667846929 84.2941608827719335 S
atom 2.6070494647069107 10.0871696709402752 84.2941608827719335 S
atom 7.6392666939141334 10.1326400959919241 85.0248591420962896 S
atom 2.5615790396552645 5.0549524417330511 89.2560409417490916 S
atom 7.5937962688624934 5.1004228667846929 89.9838102063592657 S
atom 2.6070494647069107 10.0871696709402769 89.9838102063592657 S
atom 7.6392666939141334 10.1326400959919258 89.2560409417490916 S
atom 2.5038901245585183 2.5038901245585188 92.0971137816603829 Ba
atom 7.6060147589075946 2.6192679547520092 92.0971137816603829 Ba
atom 2.6192679547520079 7.6060147589075795 92.0971137816603829 Ba
atom 7.5815777788173948 7.5815777788173921 92.0971137816603829 Ba
atom 2.5471519672328502 2.5471519672328489 97.0114235932844053 Ba
atom 7.5627529162332516 2.5760061120776765 97.0114235932844053 Ba
atom 2.5760061120776787 7.5627529162332534 97.0114235932844053 Ba
atom 7.6248396214917262 7.6248396214917245 97.0114235932844053 Ba
atom 5.0756868151634693 5.0756868151634684 94.5946344640038603 Zr
atom 10.1119057225615308 5.1251589184059254 94.5946344640038603 Zr
atom 5.1251589184059334 10.1119057225615059 94.5946344640038603 Zr
atom 10.1533744694223476 10.1533744694223422 94.5946344640038603 Zr
atom 5.0904974543096513 5.0904974543096477 99.6216978959603239 Zr
atom 10.0970950834153541 5.1103482792597514 99.6216978959603239 Zr
atom 5.1103482792597585 10.0970950834153257 99.6216978959603239 Zr
atom 10.1681851085685331 10.1681851085685224 99.6216978959603239 Zr
atom 4.7287252429386353 4.7287252429386397 92.1040049616882754 S
atom 10.4588672947863301 5.4721204906307577 92.1040049616882612 S
atom 5.4721204906307621 10.4588672947863284 92.1040049616882612 S
atom 9.8064128971975357 9.8064128971975162 92.1040049616882754 S
atom 5.3849831395889804 5.3849831395889751 97.0718116458958633 S
atom 9.8026093981360098 4.8158625939804169 97.0718116458958491 S
atom 4.8158625939804178 9.8026093981359956 97.0718116458958491 S
atom 10.4626707938478649 10.4626707938478489 97.0718116458958633 S
atom 5.0549524417330565 2.5615790396552649 94.9291252400587382 S
atom 10.0871696709402929 2.6070494647069107 94.2410861433415477 S
atom 5.1004228667846965 7.5937962688624854 94.2410861433415477 S
atom 10.1326400959919454 7.6392666939141334 94.9291252400587382 S
atom 5.0549524417330565 2.5615790396552649 99.2662397399885208 S
atom 10.0871696709402929 2.6070494647069107 99.7727564853714739 S
atom 5.1004228667846965 7.5937962688624863 99.7727564853714739 S
atom 10.1326400959919454 7.6392666939141343 99.2662397399885208 S
atom 2.5615790396552645 5.0549524417330511 94.9291252400587382 S
atom 7.5937962688624934 5.1004228667846929 94.2410861433415477 S
atom 2.6070494647069107 10.0871696709402769 94.2410861433415477 S
atom 7.6392666939141334 10.1326400959919258 94.9291252400587382 S
atom 2.5615790396552645 5.0549524417330520 99.2662397399885208 S
atom 7.5937962688624934 5.1004228667846938 99.7727564853714739 S
atom 2.6070494647069107 10.0871696709402769 99.7727564853714739 S
atom 7.6392666939141334 10.1326400959919258 99.2662397399885208 S
atom 2.6369935197860350 2.6369935197860288 101.6886348517279970 Ba
atom 7.4729113636800895 2.4861645595244970 101.6886348517279970 Ba
atom 2.4861645595244983 7.4729113636800744 101.6886348517279970 Ba
atom 7.7146811740449008 7.7146811740448928 101.6886348517279970 Ba
atom 4.8908860401289473 4.8908860401289482 102.1061569392625188 S
atom 10.2967064975960447 5.3099596934404474 102.1061569392625188 S
atom 5.3099596934404545 10.2967064975960287 102.1061569392625188 S
atom 9.9685736943878034 9.9685736943878176 102.1061569392625188 S
