#=======================================================
# FHI-aims file: sym_relax/sym_relax_RP_2_Rx0Mz_0-RyMz.in
# Created using the Atomic Simulation Environment (ASE)
# Fri Mar 14 10:21:11 2025
#=======================================================
lattice_vector 10.1108485361053102 -0.0000033894305515 -0.0000000000000000 
lattice_vector -0.0000033894305515 10.1108485361053102 0.0000000000000000 
lattice_vector 0.0000000000000000 0.0000000000000000 25.3660284948795187 
atom -0.1548415827848346 0.0000088939200917 0.2814478422099397 Ba
atom 5.2102677458708602 0.0000106240093087 0.2814115846602750 Ba
atom 0.1548417831029198 5.0554365867772431 0.2814115846602750 Ba
atom 4.9005809905525499 5.0554314672574785 0.2814478422099397 Ba
atom 0.0484189143466285 0.0000236592689898 4.8780824028614438 Ba
atom 5.0070576555352657 -0.0000170269909601 4.8780824028614438 Ba
atom -0.0483683072326783 5.0554089357769749 4.8780824028614438 Ba
atom 5.1038414876840079 5.0554462326063758 4.8780824028614438 Ba
atom 2.5277104791689013 2.5154808152833583 2.3473199154638582 Zr
atom 7.5831292418226424 2.5399674969927184 2.3473273718316565 Zr
atom 2.5277032790547036 7.5953934597606434 2.3473273718316565 Zr
atom 7.5831330525062937 7.5709033886207440 2.3473199154638582 Zr
atom 2.5277104791689013 2.5154808152833583 7.4088448902590240 Zr
atom 7.5831292418226424 2.5399674969927184 7.4088374338912315 Zr
atom 2.5277032790547036 7.5953934597606434 7.4088374338912315 Zr
atom 7.5831330525062937 7.5709033886207440 7.4088448902590240 Zr
atom 2.5277204115282257 2.8831292609076447 -0.1399944021564797 S
atom 7.5831390708131785 2.1723001976522975 -0.1399811826324429 S
atom 2.5277131080452437 7.2277261604202341 -0.1399811826324429 S
atom 7.5831429848656091 7.9385518342450343 -0.1399944021564797 S
atom 2.5277289502978997 2.0900092255263703 4.8780824028614438 S
atom 7.5831326615959034 2.9653629876704541 4.8780824028614438 S
atom 2.5277066988279677 8.0207889504383871 4.8780824028614438 S
atom 7.5831515236352924 7.1454317988637630 4.8780824028614438 S
atom 2.5277017607724082 -0.0000020128640435 2.0402569242419060 S
atom 7.5831208157269003 -0.0000079533080423 2.8001080598109240 S
atom 2.5276948529589562 5.0554180094598964 2.8001080598109240 S
atom 7.5831243341097947 5.0554205604733360 2.0402569242419060 S
atom 2.5277017607724082 -0.0000020128640435 7.7159078814809829 S
atom 7.5831208157269003 -0.0000079533080423 6.9560567459119689 S
atom 2.5276948529589562 5.0554180094598964 6.9560567459119689 S
atom 7.5831243341097947 5.0554205604733360 7.7159078814809829 S
atom -0.0000044074360611 2.5276927304613217 2.4609528421888287 S
atom 5.0554191951964489 2.5276921560461632 2.4609417805532168 S
atom -0.0000067675714894 7.5831181188140970 2.4609417805532168 S
atom 5.0554181659013269 7.5831153037987082 2.4609528421888287 S
atom -0.0000044074360611 2.5276927304613217 7.2952119635340686 S
atom 5.0554191951964489 2.5276921560461632 7.2952230251696770 S
atom -0.0000067675714894 7.5831181188140970 7.2952230251696770 S
atom 5.0554181659013269 7.5831153037987082 7.2952119635340686 S
atom -0.1548415827848346 0.0000088939200917 9.4747169635129556 Ba
atom 5.2102677458708602 0.0000106240093088 9.4747532210626240 Ba
atom 0.1548417831029198 5.0554365867772431 9.4747532210626240 Ba
atom 4.9005809905525499 5.0554314672574785 9.4747169635129556 Ba
atom 2.5277204115282257 2.8831292609076447 9.8961592078793625 S
atom 7.5831390708131785 2.1723001976522975 9.8961459883553360 S
atom 2.5277131080452437 7.2277261604202341 9.8961459883553360 S
atom 7.5831429848656091 7.9385518342450343 9.8961592078793625 S
atom 2.5277201805887857 2.3728697038838571 12.9644620896496896 Ba
atom 7.5831478734459372 2.6825530697716102 12.9644258321000336 Ba
atom 2.5277219106780024 7.7379790325395517 12.9644258321000336 Ba
atom 7.5831427539261744 7.4282922772212494 12.9644620896496896 Ba
atom 2.5277349459376834 2.5761302010153257 17.5610966503011987 Ba
atom 7.5831202224456682 2.4793429794360158 17.5610966503011987 Ba
atom 2.5276942596777348 7.5347689422039474 17.5610966503011987 Ba
atom 7.5831575192750735 7.6315527743527038 17.5610966503011987 Ba
atom 5.0431921019520507 5.0554217658376048 15.0303341629035963 Zr
atom 10.1231047464293376 5.0554145657234004 15.0303416192714110 Zr
atom 5.0676787836614006 10.1108405284913481 15.0303416192714110 Zr
atom 10.0986146752894648 10.1108443391749852 15.0303341629035963 Zr
atom 5.0431921019520507 5.0554217658376048 20.0918591376988012 Zr
atom 10.1231047464293376 5.0554145657234004 20.0918516813309580 Zr
atom 5.0676787836614006 10.1108405284913481 20.0918516813309580 Zr
atom 10.0986146752894648 10.1108443391749852 20.0918591376988012 Zr
atom 5.4108405475763481 5.0554316981969079 12.5430198452832826 S
atom 9.7554374470889211 5.0554243947139303 12.5430330648073092 S
atom 4.7000114843209921 10.1108503574818656 12.5430330648073092 S
atom 10.4662631209137054 10.1108542715343113 12.5430198452832826 S
atom 4.6177205121950786 5.0554402369666018 17.5610966503011987 S
atom 10.5485002371070777 5.0554179854966623 17.5610966503011987 S
atom 5.4930742743391487 10.1108439482646162 17.5610966503011987 S
atom 9.6731430855324447 10.1108628103039973 17.5610966503011987 S
atom 5.0554040171300096 2.5277068792326318 15.1439670896285783 S
atom 10.1108294054827947 2.5277045190971990 15.1439560279929619 S
atom 5.0554034427148524 7.5831304818651484 15.1439560279929619 S
atom 10.1108265904674113 7.5831294525700139 15.1439670896285783 S
atom 5.0554040171300096 2.5277068792326318 19.9782262109737978 S
atom 10.1108294054827947 2.5277045190971990 19.9782372726094373 S
atom 5.0554034427148524 7.5831304818651484 19.9782372726094373 S
atom 10.1108265904674113 7.5831294525700139 19.9782262109737978 S
atom 2.5277092738046432 5.0554130474410934 14.7232711716816755 S
atom 7.5831292961285861 5.0554061396276584 15.4831223072506905 S
atom 2.5277033333606500 10.1108321023955909 15.4831223072506905 S
atom 7.5831318471420239 10.1108356207784897 14.7232711716816755 S
atom 2.5277092738046432 5.0554130474410934 20.3989221289207023 S
atom 7.5831292961285861 5.0554061396276584 19.6390709933517300 S
atom 2.5277033333606500 10.1108321023955909 19.6390709933517300 S
atom 7.5831318471420239 10.1108356207784897 20.3989221289207023 S
atom 2.5277201805887857 2.3728697038838571 22.1577312109526829 Ba
atom 7.5831478734459372 2.6825530697716102 22.1577674685023460 Ba
atom 2.5277219106780024 7.7379790325395517 22.1577674685023460 Ba
atom 7.5831427539261744 7.4282922772212494 22.1577312109526829 Ba
atom 5.4108405475763481 5.0554316981969079 22.5791734553191539 S
atom 9.7554374470889211 5.0554243947139303 22.5791602357950900 S
atom 4.7000114843209921 10.1108503574818656 22.5791602357950900 S
atom 10.4662631209137054 10.1108542715343113 22.5791734553191539 S
