#=======================================================
# FHI-aims file: sym_relax/sym_relax_RP_6_Rx0Mz_0RyMz.in
# Created using the Atomic Simulation Environment (ASE)
# Fri Mar 14 11:02:19 2025
#=======================================================
lattice_vector 10.0106845834546334 -0.0667220899779652 -0.0000000000000000 
lattice_vector -0.0667220899779650 10.0106845834546938 -0.0000000000000000 
lattice_vector -0.0000000000000000 -0.0000000000000000 65.9336705592893111 
atom 0.0960020022913766 -0.1825198314900108 0.2185479609796052 Ba
atom 5.1878145291272340 -0.1293568051493352 0.2185628984455508 Ba
atom 0.1491111924109378 4.9093465315669889 0.2185628984455508 Ba
atom 5.0679832490297105 4.7894614152483550 0.2185479609796052 Ba
atom -0.2638473035013549 0.1853565751219610 5.0068753678180302 Ba
atom 4.8199184832061848 0.2304113000219440 5.0068798907532672 Ba
atom -0.2187848535101287 5.2691146367382737 5.0068798907532672 Ba
atom 4.7081339432369846 5.1573378218603265 5.0068753678180302 Ba
atom 2.4872349997204695 2.4744374365363981 2.4030526394935565 Zr
atom 7.5028409691802675 2.4513300148938253 2.4030434221702714 Zr
atom 2.4641376324639674 7.4900333516101734 2.4030434221702714 Zr
atom 7.4592162464587979 7.4464186832747616 2.4030526394935565 Zr
atom 2.4791407607471467 2.4891799265250709 7.4598923861153335 Zr
atom 7.4880654401317370 2.4594184261383161 7.4598762122270195 Zr
atom 2.4493621034154387 7.4981217628546561 7.4598762122270195 Zr
atom 7.4511220074854627 7.4611611732634451 7.4598923861153335 Zr
atom 2.6120434849181682 2.6954215951532392 -0.1038799136591809 S
atom 7.2818604670561182 2.3265430716641551 -0.1038891186181077 S
atom 2.2431571303398168 7.3652464083804876 -0.1038891186181077 S
atom 7.5840247316565002 7.6674028418916045 -0.1038799136591809 S
atom 2.2377831754468356 2.1884582203131204 4.9649522709580411 S
atom 7.7888377025892375 2.7007817052776675 4.9649456292941592 S
atom 2.7501343658729440 7.7394850419939951 4.9649456292941592 S
atom 7.2097644221851604 7.1604394670514857 4.9649522709580411 S
atom 2.8012550776712843 -0.0132149921027546 2.2481228191927944 S
atom 7.1879399956873211 -0.0437419666935587 2.7567499326567311 S
atom 2.1492366589710343 4.9949613700227653 2.7567499326567311 S
atom 7.7732363244096199 4.9587662546356066 2.2481228191927944 S
atom 2.8977729153951182 -0.0176511219888893 7.7868058999763470 S
atom 7.1221717379586398 -0.0478004670626623 7.1691247035778627 S
atom 2.0834684012423317 4.9909028696536604 7.1691247035778627 S
atom 7.8697541621334510 4.9543301247494780 7.7868058999763470 S
atom -0.0201908330924958 2.2040493283147709 2.2480628106917684 S
atom 4.9823212363058058 2.7893300953057611 2.7567253499603939 S
atom -0.0563821004104885 7.8280334320220826 2.7567253499603939 S
atom 4.9517904136458490 7.1760305750531330 2.2480628106917684 S
atom -0.0157785349581460 2.1075208477135265 7.7868107753478384 S
atom 4.9863550558453849 2.8551061660093144 7.1690866519736840 S
atom -0.0523482808709122 7.8938095027256390 7.1690866519736840 S
atom 4.9562027117801781 7.0795020944518932 7.7868107753478384 S
atom 0.2829413243560878 -0.1842190759074408 9.9845957937714029 Ba
atom 5.1895380803921460 -0.3163740851077937 9.9845958819555314 Ba
atom 0.1508347436758545 4.7223292516085262 9.9845958819555314 Ba
atom 5.2549225710944336 4.7877621708309190 9.9845957937714029 Ba
atom -0.2801467982955433 0.1804552582417159 14.9849251271111861 Ba
atom 4.8248771973420324 0.2467180195004356 14.9849251271111861 Ba
atom -0.2138261393742626 5.2854213562167702 14.9849251271111861 Ba
atom 4.6918344484427843 5.1524365049800780 14.9849251271111861 Ba
atom 2.4903087888035489 2.4831265690672626 12.4770732440472383 Zr
atom 7.4940923527630554 2.4482455872084032 12.4770683435299734 Zr
atom 2.4553890160467544 7.4869489239247313 12.4770683435299734 Zr
atom 7.4622900355418977 7.4551078158056203 12.4770732440472383 Zr
atom 2.4903087888035489 2.4831265690672626 17.4927770101751570 Zr
atom 7.4940923527630554 2.4482455872084032 17.4927819106924005 Zr
atom 2.4553890160467544 7.4869489239247313 17.4927819106924005 Zr
atom 7.4622900355418977 7.4551078158056203 17.4927770101751570 Zr
atom 2.7514566854251354 2.8126522670498963 9.9766029615806548 S
atom 7.1645633399338928 2.1871631936650915 9.9765991765009172 S
atom 2.1258600032176083 7.2258665303814267 9.9765991765009172 S
atom 7.7234379321634767 7.7846335137882585 9.9766029615806548 S
atom 2.2211922326648925 2.1532686461380739 14.9849251271111861 S
atom 7.8239695419923638 2.7173824624494713 14.9849251271111861 S
atom 2.7852662052760619 7.7560857991658132 14.9849251271111861 S
atom 7.1931734794032254 7.1252498928764441 14.9849251271111861 S
atom 2.8886449525145963 -0.0205131386305057 12.1654136408835409 S
atom 7.1257992704720712 -0.0509935649146539 12.8032465177493329 S
atom 2.0870959337557804 4.9877097718016890 12.8032465177493329 S
atom 7.8606261992529340 4.9514681081078518 12.1654136408835409 S
atom 2.8886449525145963 -0.0205131386305057 17.8044366133388934 S
atom 7.1257992704720712 -0.0509935649146539 17.1666037364730144 S
atom 2.0870959337557804 4.9877097718016890 17.1666037364730144 S
atom 7.8606261992529340 4.9514681081078518 17.8044366133388934 S
atom -0.0129074279156445 2.1166708570525405 12.1654086025050248 S
atom 4.9895511992392736 2.8514922999643373 12.8033091703616719 S
atom -0.0491521374770296 7.8901956366806774 12.8033091703616719 S
atom 4.9590738188226853 7.0886521037908974 12.1654086025050248 S
atom -0.0129074279156445 2.1166708570525405 17.8044416517173509 S
atom 4.9895511992392736 2.8514922999643373 17.1665410838607322 S
atom -0.0491521374770296 7.8901956366806774 17.1665410838607322 S
atom 4.9590738188226853 7.0886521037908974 17.8044416517173509 S
atom 0.2829413243560878 -0.1842190759074408 19.9852544604509603 Ba
atom 5.1895380803921460 -0.3163740851077937 19.9852543722669118 Ba
atom 0.1508347436758545 4.7223292516085262 19.9852543722669118 Ba
atom 5.2549225710944336 4.7877621708309190 19.9852544604509603 Ba
atom -0.2638473035013548 0.1853565751219610 24.9629748864043499 Ba
atom 4.8199184832061848 0.2304113000219440 24.9629703634691467 Ba
atom -0.2187848535101287 5.2691146367382737 24.9629703634691467 Ba
atom 4.7081339432369846 5.1573378218603265 24.9629748864043499 Ba
atom 2.4791407607471467 2.4891799265250709 22.5099578681070263 Zr
atom 7.4880654401317370 2.4594184261383161 22.5099740419953882 Zr
atom 2.4493621034154387 7.4981217628546561 22.5099740419953882 Zr
atom 7.4511220074854627 7.4611611732634451 22.5099578681070263 Zr
atom 2.4872349997204695 2.4744374365363981 27.5667976147288130 Zr
atom 7.5028409691802675 2.4513300148938253 27.5668068320521122 Zr
atom 2.4641376324639683 7.4900333516101734 27.5668068320521122 Zr
atom 7.4592162464587979 7.4464186832747616 27.5667976147288130 Zr
atom 2.7514566854251354 2.8126522670498963 19.9932472926416835 S
atom 7.1645633399338928 2.1871631936650915 19.9932510777214496 S
atom 2.1258600032176083 7.2258665303814267 19.9932510777214496 S
atom 7.7234379321634767 7.7846335137882585 19.9932472926416835 S
atom 2.2377831754468356 2.1884582203131204 25.0048979832643354 S
atom 7.7888377025892375 2.7007817052776675 25.0049046249282370 S
atom 2.7501343658729440 7.7394850419939951 25.0049046249282370 S
atom 7.2097644221851604 7.1604394670514857 25.0048979832643354 S
atom 2.8977729153951182 -0.0176511219888893 22.1830443542459932 S
atom 7.1221717379586398 -0.0478004670626623 22.8007255506445574 S
atom 2.0834684012423317 4.9909028696536604 22.8007255506445574 S
atom 7.8697541621334510 4.9543301247494780 22.1830443542459932 S
atom 2.8012550776712843 -0.0132149921027546 27.7217274350296137 S
atom 7.1879399956873211 -0.0437419666935587 27.2131003215656158 S
atom 2.1492366589710343 4.9949613700227653 27.2131003215656158 S
atom 7.7732363244096199 4.9587662546356066 27.7217274350296137 S
atom -0.0157785349581460 2.1075208477135265 22.1830394788744911 S
atom 4.9863550558453849 2.8551061660093144 22.8007636022486757 S
atom -0.0523482808709122 7.8938095027256390 22.8007636022486757 S
atom 4.9562027117801781 7.0795020944518932 22.1830394788744911 S
atom -0.0201908330924958 2.2040493283147709 27.7217874435305873 S
atom 4.9823212363058058 2.7893300953057611 27.2131249042619956 S
atom -0.0563821004104885 7.8280334320220826 27.2131249042619956 S
atom 4.9517904136458490 7.1760305750531330 27.7217874435305873 S
atom 0.0960020022913766 -0.1825198314900108 29.7513022932427944 Ba
atom 5.1878145291272340 -0.1293568051493352 29.7512873557768245 Ba
atom 0.1491111924109378 4.9093465315669889 29.7512873557768245 Ba
atom 5.0679832490297105 4.7894614152483550 29.7513022932427944 Ba
atom 2.6120434849181682 2.6954215951532392 30.0737301678815854 S
atom 7.2818604670561182 2.3265430716641551 30.0737393728404854 S
atom 2.2431571303398168 7.3652464083804876 30.0737393728404854 S
atom 7.5840247316565002 7.6674028418916045 30.0737301678815854 S
atom 2.6685104548591747 2.3899886210778063 33.1853832406241622 Ba
atom 7.5873286752568374 2.2701573409802744 33.1853981780901606 Ba
atom 2.5486253385405395 7.3088606776966056 33.1853981780901606 Ba
atom 7.6404917015975018 7.3619698678161596 33.1853832406241622 Ba
atom 2.3006340482472103 2.7498379268705393 37.9737106474626884 Ba
atom 7.2275605700855605 2.6380533869013476 37.9737151703978881 Ba
atom 2.1888572333692573 7.6767567236176610 37.9737151703978881 Ba
atom 7.2726152949855365 7.7218191736089050 37.9737106474626884 Ba
atom 4.9835344335711396 4.9707368703870545 35.3698879191381792 Zr
atom 9.9786231019520280 4.9271121476655892 35.3698787018148408 Zr
atom 4.9399197652357287 9.9658154843819382 35.3698787018148408 Zr
atom 9.9555156803094462 9.9427181171254055 35.3698879191381792 Zr
atom 4.9687919435824428 4.9788311093603870 40.4267276657599197 Zr
atom 9.9705346907075274 4.9418876767141198 40.4267114918715791 Zr
atom 4.9318313539912255 9.9805910134304447 40.4267114918715791 Zr
atom 9.9407731903207583 9.9508123560987212 40.4267276657599197 Zr
atom 4.7625502749542816 4.8459283851893646 32.8629553659854565 S
atom 10.1034100451817110 5.1480926497897492 32.8629461610265423 S
atom 5.0647067084653914 10.1867959865060591 32.8629461610265423 S
atom 9.7345315216926007 9.8179096319277264 32.8629553659854565 S
atom 5.2695136497944084 5.2201886946607070 37.9317875506026567 S
atom 9.7291714115681760 4.6411154142566176 37.9317809089388689 S
atom 4.6904680748518928 9.6798187509729328 37.9317809089388689 S
atom 10.2414948965327461 10.1921699413990243 37.9317875506026567 S
atom 4.6686417748017455 2.4756506338017021 35.7235606296050676 S
atom 10.2926258785090248 2.4394593664837085 35.2148980903363196 S
atom 5.2539225417927353 7.4781627032000388 35.2148980903363196 S
atom 9.6406230215400779 7.4476318805400661 35.7235606296050676 S
atom 4.6028657040982273 2.4716168142621298 40.1359219316184124 S
atom 10.3891543591102913 2.4350470683493648 40.7536460549924300 S
atom 5.3504510223939796 7.4737504050656840 40.7536460549924300 S
atom 9.5748469508365464 7.4435980610004906 40.1359219316184124 S
atom 2.4630105000847555 5.3087352111365069 35.7235852123013515 S
atom 7.4711868622102564 4.6567167924362289 35.2149580988374424 S
atom 2.4324835254939590 9.6954201291525486 35.2149580988374424 S
atom 7.4349917468230853 10.2807164578748456 35.7235852123013515 S
atom 2.4670690004538600 5.3745034688651900 40.1359599832224703 S
atom 7.4756229920963753 4.5601989547123889 40.7536411796210345 S
atom 2.4369196553800889 9.5989022914287094 40.7536411796210345 S
atom 7.4390502471922035 10.3464847156035589 40.1359599832224703 S
atom 2.6702096992766053 2.2030492990130845 42.9514310734160460 Ba
atom 7.7743459552153080 2.2684337897153593 42.9514311616001052 Ba
atom 2.7356426184989959 7.3071371264316900 42.9514311616001052 Ba
atom 7.6421909460149422 7.1750305457514489 42.9514310734160460 Ba
atom 2.3055353651274517 2.7661374216647312 47.9517604067557528 Ba
atom 7.2112538506070560 2.6330946727654858 47.9517604067557528 Ba
atom 2.1725505138907653 7.6717980094817966 47.9517604067557528 Ba
atom 7.2775166118657975 7.7381186684030991 47.9517604067557528 Ba
atom 4.9748453010402658 4.9676630813039697 45.4439085236918672 Zr
atom 9.9817075296374238 4.9358607640828041 45.4439036231745348 Zr
atom 4.9430041929211592 9.9745641007991495 45.4439036231745348 Zr
atom 9.9468265477786169 9.9396443280423146 45.4439085236918672 Zr
atom 4.9748453010402658 4.9676630813039697 50.4596122898197237 Zr
atom 9.9817075296374238 4.9358607640828041 50.4596171903370916 Zr
atom 4.9430041929211592 9.9745641007991495 50.4596171903370916 Zr
atom 9.9468265477786169 9.9396443280423146 50.4596122898197237 Zr
atom 4.6453196030576178 4.7065151846823801 42.9434382412253086 S
atom 10.2427899231807391 5.2653897769119515 42.9434344561454822 S
atom 5.2040865864644497 10.3040931136282961 42.9434344561454822 S
atom 9.6173008497959280 9.6784964314207311 42.9434382412253086 S
atom 5.3047032239694394 5.2367796374426305 47.9517604067557528 S
atom 9.7125706543963979 4.6059835748534876 47.9517604067557528 S
atom 4.6738673176800871 9.6446869115698259 47.9517604067557528 S
atom 10.2766844707077798 10.2087608841810003 47.9517604067557528 S
atom 4.6064795701431960 2.4684206708682410 45.7701444500062991 S
atom 10.3800043497712728 2.4321759613068554 45.1322438821496590 S
atom 5.3413010130549781 7.4708792980231991 45.1322438821496590 S
atom 9.5784608168815009 7.4404019176066134 45.7701444500062991 S
atom 4.6064795701431960 2.4684206708682410 50.1333763635053344 S
atom 10.3800043497712728 2.4321759613068554 50.7712769313620029 S
atom 5.3413010130549781 7.4708792980231991 50.7712769313620029 S
atom 9.5784608168815009 7.4404019176066134 50.1333763635053344 S
atom 2.4702620983058465 5.3708759363517524 45.7700817973939422 S
atom 7.4784850087380059 4.5693269175929210 45.1322489205282054 S
atom 2.4397816720217067 9.6080302543092468 45.1322489205282054 S
atom 7.4422433450441989 10.3428571830900946 45.7700817973939422 S
atom 2.4702620983058465 5.3708759363517524 50.1334390161176557 S
atom 7.4784850087380059 4.5693269175929210 50.7712718929834850 S
atom 2.4397816720217067 9.6080302543092468 50.7712718929834850 S
atom 7.4422433450441989 10.3428571830900946 50.1334390161176557 S
atom 2.6702096992766053 2.2030492990130845 52.9520897400955306 Ba
atom 7.7743459552153080 2.2684337897153593 52.9520896519113720 Ba
atom 2.7356426184989959 7.3071371264316900 52.9520896519113720 Ba
atom 7.6421909460149422 7.1750305457514489 52.9520897400955306 Ba
atom 2.3006340482472103 2.7498379268705393 57.9298101660489948 Ba
atom 7.2275605700855605 2.6380533869013476 57.9298056431137312 Ba
atom 2.1888572333692573 7.6767567236176610 57.9298056431137312 Ba
atom 7.2726152949855365 7.7218191736089050 57.9298101660489948 Ba
atom 4.9687919435824428 4.9788311093603870 55.4767931477516711 Zr
atom 9.9705346907075274 4.9418876767141198 55.4768093216399834 Zr
atom 4.9318313539912255 9.9805910134304447 55.4768093216399834 Zr
atom 9.9407731903207583 9.9508123560987212 55.4767931477516711 Zr
atom 4.9835344335711396 4.9707368703870545 60.5336328943734046 Zr
atom 9.9786231019520280 4.9271121476655892 60.5336421116967003 Zr
atom 4.9399197652357287 9.9658154843819382 60.5336421116967003 Zr
atom 9.9555156803094462 9.9427181171254055 60.5336328943734046 Zr
atom 4.6453196030576178 4.7065151846823801 52.9600825722864172 S
atom 10.2427899231807391 5.2653897769119515 52.9600863573660874 S
atom 5.2040865864644497 10.3040931136282961 52.9600863573660874 S
atom 9.6173008497959280 9.6784964314207311 52.9600825722864172 S
atom 5.2695136497944084 5.2201886946607070 57.9717332629089341 S
atom 9.7291714115681760 4.6411154142566176 57.9717399045727433 S
atom 4.6904680748518928 9.6798187509729328 57.9717399045727433 S
atom 10.2414948965327461 10.1921699413990243 57.9717332629089341 S
atom 4.6028657040982273 2.4716168142621298 55.7675988818932282 S
atom 10.3891543591102913 2.4350470683493648 55.1498747585191538 S
atom 5.3504510223939796 7.4737504050656840 55.1498747585191538 S
atom 9.5748469508365464 7.4435980610004906 55.7675988818932282 S
atom 4.6686417748017455 2.4756506338017021 60.1799601839066582 S
atom 10.2926258785090248 2.4394593664837085 60.6886227231752216 S
atom 5.2539225417927353 7.4781627032000388 60.6886227231752216 S
atom 9.6406230215400779 7.4476318805400661 60.1799601839066582 S
atom 2.4670690004538600 5.3745034688651900 55.7675608302891135 S
atom 7.4756229920963753 4.5601989547123889 55.1498796338906629 S
atom 2.4369196553800889 9.5989022914287094 55.1498796338906629 S
atom 7.4390502471922035 10.3464847156035589 55.7675608302891135 S
atom 2.4630105000847555 5.3087352111365069 60.1799356012102109 S
atom 7.4711868622102564 4.6567167924362289 60.6885627146741555 S
atom 2.4324835254939590 9.6954201291525486 60.6885627146741555 S
atom 7.4349917468230853 10.2807164578748456 60.1799356012102109 S
atom 2.6685104548591747 2.3899886210778063 62.7181375728873860 Ba
atom 7.5873286752568374 2.2701573409802744 62.7181226354213592 Ba
atom 2.5486253385405395 7.3088606776966056 62.7181226354213592 Ba
atom 7.6404917015975018 7.3619698678161596 62.7181375728873860 Ba
atom 4.7625502749542816 4.8459283851893646 63.0405654475261628 S
atom 10.1034100451817110 5.1480926497897492 63.0405746524849988 S
atom 5.0647067084653914 10.1867959865060591 63.0405746524849988 S
atom 9.7345315216926007 9.8179096319277264 63.0405654475261628 S
