#=======================================================
# FHI-aims file: sym_relax/sym_relax_RP_5_RxRyRz_-Rx-RyRz.in
# Created using the Atomic Simulation Environment (ASE)
# Fri Mar 14 10:56:14 2025
#=======================================================
lattice_vector 9.9960881885920490 0.0160403132006623 0.0000000000000000 
lattice_vector 0.0160403132006624 9.9960881885920401 0.0000000000000000 
lattice_vector 0.0000000000000000 0.0000000000000000 56.0743112238560215 
atom 0.0239907900117533 -0.1007183901444534 0.2187708522745921 Ba
atom 5.0987624844404573 -0.0159706334114226 0.2187708522745921 Ba
atom 0.1087385467447839 4.9740533042842712 0.2187708522745921 Ba
atom 5.0300550409081000 4.9053458607519058 0.2187708522745921 Ba
atom -0.2577474192564825 0.2063484824796424 4.9938893478010336 Ba
atom 4.7916956118163823 0.2657675758568142 4.9938893478010336 Ba
atom -0.1983283258793114 5.2557915135525137 4.9938893478010336 Ba
atom 4.7483168316398707 5.2124127333759880 4.9938893478010336 Ba
atom 2.4673308673083190 2.5441146298701049 2.3786230670277928 Zr
atom 7.4599937153222733 2.5467535401883659 2.3786230670277928 Zr
atom 2.4699697776265794 7.5367774778840539 2.3786230670277928 Zr
atom 7.4733951182046754 7.5501788807664543 2.3786230670277928 Zr
atom 2.4188885632607802 2.5527495046127471 7.4515655027869556 Zr
atom 7.4513588405796316 2.5951958442359055 7.4515655027869556 Zr
atom 2.4613349028839351 7.5852197819315919 7.4515655027869556 Zr
atom 7.4249528141571313 7.5588137555091004 7.4515655027869556 Zr
atom 2.6355754044038289 2.7867201841140190 -0.1276798919503927 S
atom 7.2173881610783557 2.3785090030928595 -0.1276798919503926 S
atom 2.2273642233826587 7.3685329407885485 -0.1276798919503927 S
atom 7.6416396553001862 7.7927844350103728 -0.1276798919503927 S
atom 2.2329099042841598 2.2850420993511880 4.9467329315458102 S
atom 7.7190662458411836 2.7811745032125281 4.9467329315458102 S
atom 2.7290423081454986 7.7711984409082202 4.9467329315458102 S
atom 7.2389741551805038 7.2911063502475448 4.9467329315458102 S
atom 2.6986419691211188 0.0510173115010006 2.2315196194831528 S
atom 7.1693777910626073 0.0624879705600869 2.7347675532288220 S
atom 2.1793538533669232 5.0525119082557746 2.7347675532288220 S
atom 7.7047062200174832 5.0570815623973511 2.2315196194831528 S
atom 2.9024864453556818 0.0530494300693096 7.6820690459302075 S
atom 7.0300387511470754 0.0632002165713800 7.2534007159174427 S
atom 2.0400148134513922 5.0532241542670695 7.2534007159174427 S
atom 7.9085506962520187 5.0591136809656634 7.6820690459302075 S
atom -0.0429971549006697 2.2994021251749048 2.2315196194831528 S
atom 4.9515964369366028 2.8347305541297665 2.7347675532288220 S
atom -0.0384275007590942 7.8247544918254555 2.7347675532288220 S
atom 4.9630670959956822 7.3054663760712524 2.2315196194831528 S
atom -0.0450292734689786 2.0955576489403445 7.6820690459302075 S
atom 4.9508841909253043 2.9740695940452917 7.2534007159174427 S
atom -0.0391397467703870 7.9640935317409873 7.2534007159174427 S
atom 4.9610349774273752 7.1016218998367098 7.6820690459302075 S
atom -0.0299459687838806 -0.0620032535758433 9.9956208302058140 Ba
atom 5.0600473478718602 0.0379661253842116 9.9956208302058140 Ba
atom 0.0700234101761742 5.0279900630798986 9.9956208302058140 Ba
atom 4.9761182821124672 4.9440609973205119 9.9956208302058140 Ba
atom 0.0299459687838806 0.0620032535758434 15.0375538233013675 Ba
atom 4.9360408407201790 -0.0219258121835497 15.0375538233013675 Ba
atom -0.0539830969755122 4.9680981255121521 15.0375538233013675 Ba
atom 5.0360102196802341 5.0680675044722028 15.0375538233013675 Ba
atom 2.5030321254481769 2.5030321254481751 12.5165873267535837 Zr
atom 7.5010762197441911 2.5110522820485066 12.5165873267535837 Zr
atom 2.5110522820485079 7.5010762197442080 12.5165873267535837 Zr
atom 7.5090963763445311 7.5090963763445293 12.5165873267535837 Zr
atom 2.5871756876355749 2.4533147462836080 17.5816091507202010 Zr
atom 7.5507935989087587 2.4269087198611099 17.5816091507202010 Zr
atom 2.5607696612130777 7.4169326575568091 17.5816091507202010 Zr
atom 7.5932399385319318 7.4593789971799644 17.5816091507202010 Zr
atom 2.6409456010796108 2.7048005794534276 9.9874599092686491 S
atom 7.2993077657389369 2.3731388064170682 9.9874599092686491 S
atom 2.3092838280432604 7.3631627441127705 9.9874599092686491 S
atom 7.6470098519759606 7.7108648303497853 9.9874599092686491 S
atom 2.3651186498167402 2.3012636714429289 15.0457147442385128 S
atom 7.7028446737494516 2.6489657576799468 15.0457147442385128 S
atom 2.7128207360537617 7.6389896953756340 15.0457147442385128 S
atom 7.3711829007130918 7.3073279223392813 15.0457147442385128 S
atom 2.0399370421806724 0.0038795119721003 12.3897011918559361 S
atom 7.9561511464113703 0.0121608012285608 12.6434734616512259 S
atom 2.9661272087156840 5.0021847389242593 12.6434734616512259 S
atom 7.0460012930770217 5.0099437628684464 12.3897011918559361 S
atom 2.9660494374449589 -0.0471599033707181 17.7797739375897557 S
atom 7.0936017432363832 -0.0370091168686477 17.3511056075769439 S
atom 2.1035778055406751 4.9530148208270424 17.3511056075769439 S
atom 7.9721136883413015 4.9589043475256371 17.7797739375897557 S
atom 0.0041406446282307 2.9581070521153534 12.3897011918559361 S
atom 5.0019236062681154 2.0479571987810057 12.6434734616512259 S
atom 0.0118996685724322 7.0379811364766924 12.6434734616512259 S
atom 5.0102048955245921 7.9641713030116996 12.3897011918559361 S
atom 0.0551800599710486 2.0319946568510643 17.7797739375897557 S
atom 5.0510935243653279 2.9105066019560146 17.3511056075769439 S
atom 0.0610695866696404 7.9005305396516929 17.3511056075769439 S
atom 5.0612443108673952 7.0380589077474172 17.7797739375897557 S
atom 0.2577474192564824 -0.2063484824796424 20.0392853057061266 Ba
atom 5.2043925767756507 -0.2497272626561527 20.0392853057061266 Ba
atom 0.2143686390799729 4.7402966750395388 20.0392853057061266 Ba
atom 5.2638116701528226 4.7997157684167231 20.0392853057061266 Ba
atom -0.0239907900117533 0.1007183901444535 24.8144038012325581 Ba
atom 4.8973257041515650 0.0320109466120845 24.8144038012325581 Ba
atom -0.0926982335441226 5.0220348843077751 24.8144038012325581 Ba
atom 4.9820734608845934 5.1067826410408088 24.8144038012325581 Ba
atom 2.5387333835880357 2.4619496210262528 22.6545515864793714 Zr
atom 7.5421587241661197 2.4753510239086518 22.6545515864793714 Zr
atom 2.5521347864704316 7.4653749616043443 22.6545515864793714 Zr
atom 7.5447976344843646 7.4680138719226070 22.6545515864793714 Zr
atom 2.7731543466121944 2.7210221515451680 20.0864417219613429 S
atom 7.2830861936472076 2.2409300608844944 20.0864417219613429 S
atom 2.2930622559515177 7.2309539985801745 20.0864417219613429 S
atom 7.7792185975085442 7.7270864024415182 20.0864417219613429 S
atom 2.3704888464925231 2.2193440667823325 25.1608545454575427 S
atom 7.7847642784100417 2.6435955610041595 25.1608545454575427 S
atom 2.7947403407143443 7.6336194986998516 25.1608545454575427 S
atom 7.3765530973888742 7.2254083176786894 25.1608545454575427 S
atom 2.8267103975294359 -0.0464476573594247 22.2984071002783111 S
atom 7.2974462194709160 -0.0349769983003396 22.8016550340240158 S
atom 2.3074222817752328 4.9550469393953502 22.8016550340240158 S
atom 7.8327746484257812 4.9596165935369338 22.2984071002783111 S
atom 0.0544678139597561 2.1713336967665895 22.2984071002783111 S
atom 5.0490614057970173 2.7066621257214485 22.8016550340240158 S
atom 0.0590374681013325 7.6966860634171468 22.8016550340240158 S
atom 5.0605320648561110 7.1773979476629410 22.2984071002783111 S
atom 2.4790413354364196 2.6037505155926333 28.2559264642026484 Ba
atom 7.4003578295997539 2.5350430720602661 28.2559264642026484 Ba
atom 2.4103338919040529 7.5250670097559498 28.2559264642026484 Ba
atom 7.4851055863327778 7.6098147664889781 28.2559264642026484 Ba
atom 2.7607795447046590 2.2966836429685373 33.0310449597290443 Ba
atom 7.7074247022238289 2.2533048627920236 33.0310449597290443 Ba
atom 2.7174007645281497 7.2433288004877134 33.0310449597290443 Ba
atom 7.7668437956010203 7.3027478938648951 33.0310449597290443 Ba
atom 5.0417655090362006 4.9649817464744315 30.4157786789558031 Zr
atom 10.0451908496142899 4.9783831493568265 30.4157786789558031 Zr
atom 5.0551669119186027 9.9684070870525350 30.4157786789558031 Zr
atom 10.0478297599325792 9.9710459973707959 30.4157786789558031 Zr
atom 5.0902078130837562 4.9563468717317889 35.4887211147149415 Zr
atom 10.0538257243569653 4.9299408453092894 35.4887211147149415 Zr
atom 5.0638017866612586 9.9199647830049713 35.4887211147149415 Zr
atom 10.0962720639801056 9.9624111226281435 35.4887211147149415 Zr
atom 4.8735209719407031 4.7223761922305130 27.9094757199776211 S
atom 10.2877964038582377 5.1466276864523310 27.9094757199776211 S
atom 5.2977724661625230 10.1366516241480333 27.9094757199776211 S
atom 9.8795852228370613 9.7284404431268658 27.9094757199776247 S
atom 5.2761864720603695 5.2240542769933436 32.9838885434738955 S
atom 9.7861183190954062 4.7439621863326655 32.9838885434738955 S
atom 4.7960943813997066 9.7339861240283465 32.9838885434738955 S
atom 10.2822507229567428 10.2301185278896885 32.9838885434738955 S
atom 5.3297425229776056 2.4565844680887521 30.7719231651568634 S
atom 9.8004783449191066 2.4680551271478359 30.2686752314111445 S
atom 4.8104544072233955 7.4580790648435338 30.2686752314111445 S
atom 10.3358067738739674 7.4626487189851085 30.7719231651568634 S
atom 5.4690815628931437 2.4558722220774580 35.2905563278455290 S
atom 9.5966338686845489 2.4660230085795329 35.7192246578582200 S
atom 4.6066099309888742 7.4560469462752152 35.7192246578582200 S
atom 10.4751458137894833 7.4619364729738189 35.2905563278455290 S
atom 2.5574999394079305 4.6743658222147602 30.7719231651568634 S
atom 7.5520935312452000 5.2096942511696334 30.2686752314111445 S
atom 2.5620695935495106 10.1997181888653099 30.2686752314111445 S
atom 7.5635641903042847 9.6804300731111255 30.7719231651568634 S
atom 2.5582121854192277 4.5350267822992310 35.2905563278455290 S
atom 7.5541256498135017 5.4135387274041724 35.7192246578582200 S
atom 2.5641017121178136 10.4035626650998747 35.7192246578582200 S
atom 7.5642764363155708 9.5410910331955936 35.2905563278455290 S
atom 2.5329780942320563 2.5650353790240237 38.0327764421338017 Ba
atom 7.4390729661683617 2.4811063132646267 38.0327764421338017 Ba
atom 2.4490490284726607 7.4711302509603295 38.0327764421338017 Ba
atom 7.5390423451284008 7.5710996299203819 38.0327764421338017 Ba
atom 2.4730861566643005 2.4410288718723301 43.0747094352293729 Ba
atom 7.5630794733200455 2.5409982508323843 43.0747094352293729 Ba
atom 2.5730555356243516 7.5310221885280830 43.0747094352293729 Ba
atom 7.4791504075606579 7.4470931227686821 43.0747094352293729 Ba
atom 5.0060642508963538 5.0060642508963502 40.5537429386815873 Zr
atom 10.0041083451923534 5.0140844074966839 40.5537429386815873 Zr
atom 5.0140844074966813 10.0041083451923836 40.5537429386815873 Zr
atom 10.0121285017927075 10.0121285017927004 40.5537429386815873 Zr
atom 4.9219206887089602 5.0557816300609160 45.6187647626482971 Zr
atom 9.9543909660277983 5.0982279696840802 45.6187647626482971 Zr
atom 4.9643670283321137 10.0882519073797834 45.6187647626482971 Zr
atom 9.9279849396053024 10.0618458809572893 45.6187647626482971 Zr
atom 4.8681507752649216 4.8042957968910986 38.0246155211966794 S
atom 10.2058767991976271 5.1519978831281206 38.0246155211966794 S
atom 5.2158528615019435 10.1420218208238335 38.0246155211966794 S
atom 9.8742150261612398 9.8103600477874640 38.0246155211966794 S
atom 5.1439777265277886 5.2078327049016133 43.0828703561665307 S
atom 9.8023398911871134 4.8761709318652526 43.0828703561665307 S
atom 4.8123159534914262 9.8661948695609283 43.0828703561665307 S
atom 10.1500419774241681 10.2138969557979724 43.0828703561665307 S
atom 4.5429691676288488 2.5069116374202807 40.6806290735792899 S
atom 10.4591832718595388 2.5151929266767383 40.4268568037838989 S
atom 5.4691593341638596 7.5052168643724375 40.4268568037838989 S
atom 9.5490334185251982 7.5129758883166193 40.6806290735792899 S
atom 5.4055185708038396 2.5560815555174878 45.3882612195049262 S
atom 9.5330708765952625 2.5662323420195570 45.8169295495176740 S
atom 4.5430469388995673 7.5562562797152433 45.8169295495176740 S
atom 10.4115828217002058 7.5621458064138434 45.3882612195049262 S
atom 2.5071727700764033 5.4611391775635241 40.6806290735792899 S
atom 7.5049557317162927 4.5509893242291852 40.4268568037838989 S
atom 2.5149317940206042 9.5410132619248671 40.4268568037838989 S
atom 7.5132370209727668 10.4672034284598858 40.6806290735792899 S
atom 2.4580028519792028 4.5985897743885369 45.3882612195049262 S
atom 7.4539163163734852 5.4771017194934659 45.8169295495176740 S
atom 2.4638923786777829 10.4671256571891576 45.8169295495176740 S
atom 7.4640671028755490 9.6046540252848782 45.3882612195049262 S
atom 2.2452847061916925 2.7093806079278173 48.0764409176341445 Ba
atom 7.2947277372645587 2.7687997013049968 48.0764409176341445 Ba
atom 2.3047037995688693 7.7588236390006866 48.0764409176341445 Ba
atom 7.2513489570880454 7.7154448588241724 48.0764409176341445 Ba
atom 2.5270229154599329 2.4023137353037205 52.8515594131606647 Ba
atom 7.6017946098886515 2.4870614920367520 52.8515594131606647 Ba
atom 2.6117706721929599 7.4770854297324414 52.8515594131606647 Ba
atom 7.5330871663562879 7.4083779862000840 52.8515594131606647 Ba
atom 4.9703629927564972 5.0471467553182796 50.6917071984074994 Zr
atom 9.9630258407704826 5.0497856656365361 50.6917071984074994 Zr
atom 4.9730019030747581 10.0398096033322464 50.6917071984074994 Zr
atom 9.9764272436528323 10.0532110062146316 50.6917071984074994 Zr
atom 4.7359420297323247 4.7880742247993657 48.1235973338893217 S
atom 10.2220983712893503 5.2842066286607032 48.1235973338893217 S
atom 5.2320744335936649 10.2742305663564224 48.1235973338893217 S
atom 9.7420062806286847 9.7941384756957426 48.1235973338893217 S
atom 5.1386075298519946 5.2897523095621981 53.1980101573855890 S
atom 9.7204202865265152 4.8815411285410271 53.1980101573855890 S
atom 4.7303963488308369 9.8715650662367054 53.1980101573855890 S
atom 10.1446717807483591 10.2958165604585528 53.1980101573855890 S
atom 5.2016740945692970 2.5540494369491777 50.8388106459520941 S
atom 9.6724099165107997 2.5655200960082647 50.3355627122063467 S
atom 4.6823859788151045 7.5555440337039652 50.3355627122063467 S
atom 10.2077383454656498 7.5601136878455293 50.8388106459520941 S
atom 2.4600349705475066 4.8024342506230697 50.8388106459520941 S
atom 7.4546285623847774 5.3377626795779447 50.3355627122063467 S
atom 2.4646046246890805 10.3277866172736434 50.3355627122063467 S
atom 7.4660992214438666 9.8084985015194288 50.8388106459520941 S
