#=======================================================
# FHI-aims file: sym_relax/sym_relax_RP_1_Rx00_0-Ry0.in
# Created using the Atomic Simulation Environment (ASE)
# Fri Mar 14 10:20:12 2025
#=======================================================
lattice_vector 10.1084006710985719 -0.0000000000000004 -0.0000000000000000 
lattice_vector -0.0000000000000004 10.1084006710985719 0.0000000000000000 
lattice_vector 0.0000000000000000 0.0000000000000000 15.5284693453638898 
atom -0.1566268862451227 0.0000000000000000 0.2394937652486850 Ba
atom 5.2108272217944105 -0.0000000000000000 0.2394937652486850 Ba
atom 0.1566268862451227 5.0542003355492868 0.2394937652486850 Ba
atom 4.8975734493041667 5.0542003355492868 0.2394937652486850 Ba
atom 0.1566268862451227 -0.0000000000000000 4.6131529051775315 Ba
atom 4.8975734493041667 0.0000000000000000 4.6131529051775315 Ba
atom -0.1566268862451227 5.0542003355492868 4.6131529051775315 Ba
atom 5.2108272217944105 5.0542003355492868 4.6131529051775315 Ba
atom 2.5271001677746434 2.5271001677746434 2.4263233352131075 Zr
atom 7.5813005033239351 2.5271001677746434 2.4263233352131075 Zr
atom 2.5271001677746434 7.5813005033239351 2.4263233352131075 Zr
atom 7.5813005033239351 7.5813005033239351 2.4263233352131075 Zr
atom 2.5271001677746434 2.8450937405446286 -0.1070441971409678 S
atom 7.5813005033239351 2.2091065950046591 -0.1070441971409678 S
atom 2.5271001677746434 7.2633069305539468 -0.1070441971409678 S
atom 7.5813005033239351 7.8992940760939234 -0.1070441971409678 S
atom 2.5271001677746434 2.2091065950046591 4.9596908675671791 S
atom 7.5813005033239351 2.8450937405446286 4.9596908675671791 S
atom 2.5271001677746434 7.8992940760939234 4.9596908675671791 S
atom 7.5813005033239351 7.2633069305539468 4.9596908675671791 S
atom 2.5271001677746434 0.0000000000000000 2.1155300711347662 S
atom 7.5813005033239351 0.0000000000000000 2.7371165992914466 S
atom 2.5271001677746434 5.0542003355492868 2.7371165992914466 S
atom 7.5813005033239351 5.0542003355492868 2.1155300711347662 S
atom -0.0000000000000000 2.5271001677746434 2.4263233352131075 S
atom 5.0542003355492868 2.5271001677746434 2.4263233352131075 S
atom -0.0000000000000000 7.5813005033239351 2.4263233352131075 S
atom 5.0542003355492868 7.5813005033239351 2.4263233352131075 S
atom 2.5271001677746434 2.6837270540197689 8.0037284379306293 Ba
atom 7.5813005033239351 2.3704732815295197 8.0037284379306293 Ba
atom 2.5271001677746434 7.4246736170788097 8.0037284379306293 Ba
atom 7.5813005033239351 7.7379273895690543 8.0037284379306293 Ba
atom 2.5271001677746434 2.3704732815295197 12.3773875778594782 Ba
atom 7.5813005033239351 2.6837270540197689 12.3773875778594782 Ba
atom 2.5271001677746434 7.7379273895690543 12.3773875778594782 Ba
atom 7.5813005033239351 7.4246736170788097 12.3773875778594782 Ba
atom 5.0542003355492868 5.0542003355492868 10.1905580078950528 Zr
atom 10.1084006710985737 5.0542003355492868 10.1905580078950528 Zr
atom 5.0542003355492868 10.1084006710985737 10.1905580078950528 Zr
atom 10.1084006710985737 10.1084006710985737 10.1905580078950528 Zr
atom 4.7362067627793039 5.0542003355492868 7.6571904755409737 S
atom 10.4263942438685593 5.0542003355492868 7.6571904755409737 S
atom 5.3721939083192725 10.1084006710985737 7.6571904755409737 S
atom 9.7904070983285898 10.1084006710985737 7.6571904755409737 S
atom 5.3721939083192725 5.0542003355492868 12.7239255402491338 S
atom 9.7904070983285898 5.0542003355492868 12.7239255402491338 S
atom 4.7362067627793039 10.1084006710985737 12.7239255402491338 S
atom 10.4263942438685593 10.1084006710985737 12.7239255402491338 S
atom 5.0542003355492868 2.5271001677746434 10.1905580078950528 S
atom 10.1084006710985737 2.5271001677746434 10.1905580078950528 S
atom 5.0542003355492868 7.5813005033239351 10.1905580078950528 S
atom 10.1084006710985737 7.5813005033239351 10.1905580078950528 S
atom 2.5271001677746434 5.0542003355492868 10.5013512719733981 S
atom 7.5813005033239351 5.0542003355492868 9.8797647438167040 S
atom 2.5271001677746434 10.1084006710985737 9.8797647438167040 S
atom 7.5813005033239351 10.1084006710985737 10.5013512719733981 S
