#=======================================================
# FHI-aims file: sym_relax/sym_relax_RP_10_RxRyMz_RxRy-Mz.in
# Created using the Atomic Simulation Environment (ASE)
# Mon Mar 17 18:37:02 2025
#=======================================================
lattice_vector 10.0091202366536827 -0.0754244911846979 -0.0000000000000000 
lattice_vector -0.0754244911846980 10.0091202366536578 -0.0000000000000000 
lattice_vector -0.0000000000000000 -0.0000000000000000 106.0118952717623699 
atom 0.0836116018111891 -0.1214607353812269 0.2175725005773835 Ba
atom 5.1260208537080700 -0.1213238474035376 0.2175725005773835 Ba
atom 0.0837484897888783 4.9209485165156410 0.2175725005773834 Ba
atom 5.0504594745456934 4.8453871373532449 0.2175725005773834 Ba
atom -0.3198612964952537 0.2419971119539178 5.0109250544097677 Ba
atom 4.7625630063729245 0.2821490509029030 5.0109250544097677 Ba
atom -0.2797093575462682 5.3244214148220799 5.0109250544097677 Ba
atom 4.6469865762392413 5.2088449846883957 5.0109250544097677 Ba
atom 2.4490089106637685 2.5254400086445461 2.3999524636558816 Zr
atom 7.4459679824167688 2.4801267164783587 2.3999524636558816 Zr
atom 2.4036956184975846 7.5223990803975411 2.3999524636558816 Zr
atom 7.4158567833982509 7.4922878813790295 2.3999524636558816 Zr
atom 2.4214828149591039 2.5401544928542799 7.4546648094982739 Zr
atom 7.4312534982070408 2.5076528121830255 7.4546648094982739 Zr
atom 2.3889811342878593 7.5499251761022164 7.4546648094982739 Zr
atom 7.3883306876935837 7.5070023655887601 7.4546648094982739 Zr
atom 2.6077906262268313 2.7818822922932029 -0.1067295738191237 S
atom 7.1895256987681275 2.3213450009152954 -0.1067295738191237 S
atom 2.1472533348489344 7.3636173648344787 -0.1067295738191237 S
atom 7.5746384989613205 7.7487301650276645 -0.1067295738191237 S
atom 2.1808036934464519 2.2309379894465078 4.9617517882627151 S
atom 7.7404700016148196 2.7483319336956740 4.9617517882627151 S
atom 2.6981976376956140 7.7906042976148555 4.9617517882627151 S
atom 7.1476515661809445 7.1977858621809814 4.9617517882627151 S
atom 2.7413291763999807 0.0333623528706756 2.2290823191292088 S
atom 7.1234444670606480 -0.0013380306545441 2.7795268293945132 S
atom 2.0811721031414661 5.0409343332646301 2.7795268293945132 S
atom 7.7081770491344681 5.0002102256051559 2.2290823191292088 S
atom 2.8441300259000633 0.0334170947601909 7.7887375784863870 S
atom 7.0687715351203391 -0.0012635366636709 7.1660955332357119 S
atom 2.0264991712011406 5.0410088272555038 7.1660955332357119 S
atom 7.8109778986345715 5.0002649674946635 7.7887375784863870 S
atom -0.0710745984630247 2.2632309419268508 2.2290823191292088 S
atom 4.9304736577966883 2.8479635240006616 2.7795268293945132 S
atom -0.1117987061225027 7.8902358879198431 2.7795268293945132 S
atom 4.8957732742714741 7.2300788146613302 2.2290823191292088 S
atom -0.0711293403525398 2.1604300924267617 7.7887375784863870 S
atom 4.9303991638058182 2.9026364559409887 7.1660955332357119 S
atom -0.1118732001133761 7.9449088198601663 7.1660955332357119 S
atom 4.8957185323819550 7.1272779651612321 7.7887375784863870 S
atom 0.2338412167268192 -0.1321813630237694 9.9839367997312429 Ba
atom 5.1367414813505992 -0.2715534623191678 9.9839367997312429 Ba
atom 0.0944691174314206 4.7707189016000120 9.9839367997312429 Ba
atom 5.2006890894613091 4.8346665097107140 9.9839367997312429 Ba
atom -0.3367418789707590 0.2330362694517432 14.9872126044293807 Ba
atom 4.7715238488750851 0.2990296333784087 14.9872126044293807 Ba
atom -0.2707485150440925 5.3413019972975748 14.9872126044293807 Ba
atom 4.6301059937637428 5.1998841421862263 14.9872126044293807 Ba
atom 2.4375399681052183 2.5324673416643160 12.4713309455651640 Zr
atom 7.4389406493970132 2.4915956590369133 12.4713309455651640 Zr
atom 2.3966682854778165 7.5338680229560993 12.4713309455651640 Zr
atom 7.4043878408396999 7.4993152143987896 12.4713309455651640 Zr
atom 2.4304782447809368 2.5350610399710862 17.4849725519299035 Zr
atom 7.4363469510902220 2.4986573823611997 17.4849725519299035 Zr
atom 2.3940745871710409 7.5409297462803755 17.4849725519299035 Zr
atom 7.3973261175154201 7.5019089127055727 17.4849725519299035 Zr
atom 2.6960561985229674 2.8630025757407833 9.9746029804976590 S
atom 7.1084054153205409 2.2330794286191615 9.9746029804976590 S
atom 2.0661330514013425 7.2753517925383395 9.9746029804976590 S
atom 7.6629040712574561 7.8298504484752494 9.9746029804976590 S
atom 2.1660456922628804 2.2025716208223107 14.9841973392840231 S
atom 7.7688363702389980 2.7630899348792477 14.9841973392840231 S
atom 2.7265640063198129 7.8053622987984213 14.9841973392840231 S
atom 7.1328935649973699 7.1694194935568056 14.9841973392840231 S
atom 2.8376374046083774 0.0293920870240622 12.1659690258680637 S
atom 7.0704744080399946 -0.0056957544411422 12.8051500848405055 S
atom 2.0282020441208060 5.0365766094780238 12.8051500848405055 S
atom 7.8044852773428639 4.9962399597585350 12.1659690258680637 S
atom 2.8359001246911530 0.0313876169986761 17.8128083939022233 S
atom 7.0707478849898120 -0.0037174918212063 17.1696508993478503 S
atom 2.0284755210706322 5.0385548720979738 17.1696508993478503 S
atom 7.8027479974256373 4.9982354897331529 17.8128083939022233 S
atom -0.0671043326164110 2.1669227137184466 12.1659690258680637 S
atom 4.9348313815832823 2.9009335830213141 12.8051500848405055 S
atom -0.1074409823359048 7.9432059469404841 12.8051500848405055 S
atom 4.8997435401180880 7.1337705864529335 12.1659690258680637 S
atom -0.0690998625910249 2.1686599936356825 17.8128083939022233 S
atom 4.9328531189633527 2.9006601060714976 17.1696508993478503 S
atom -0.1094192449558404 7.9429324699906712 17.1696508993478503 S
atom 4.8977480101434585 7.1355078663701672 17.8128083939022233 S
atom 0.2354405485982541 -0.1305704611967663 19.9940016950025914 Ba
atom 5.1351305795236186 -0.2731527941906025 19.9940016950025914 Ba
atom 0.0928582156044179 4.7691195697285753 19.9940016950025914 Ba
atom 5.2022884213327405 4.8362774115377034 19.9940016950025914 Ba
atom -0.3374845456627503 0.2323448953496953 25.0028054886231921 Ba
atom 4.7722152229771426 0.2997723000704004 25.0028054886231921 Ba
atom -0.2700571409420444 5.3420446639895776 25.0028054886231921 Ba
atom 4.6293633270717471 5.1991927680841741 25.0028054886231921 Ba
atom 2.4330193027080664 2.5342078289748056 22.4969908247446497 Zr
atom 7.4372001620865316 2.4961163244340607 22.4969908247446497 Zr
atom 2.3949277981673291 7.5383886883532325 22.4969908247446497 Zr
atom 7.3998671754425782 7.5010557017092845 22.4969908247446497 Zr
atom 2.4330193027080664 2.5342078289748056 27.5086201525016989 Zr
atom 7.4372001620865316 2.4961163244340607 27.5086201525016989 Zr
atom 2.3949277981673291 7.5383886883532325 27.5086201525016989 Zr
atom 7.3998671754425782 7.5010557017092845 27.5086201525016989 Zr
atom 2.6997672611484793 2.8673470610722105 19.9935953444584023 S
atom 7.1040609299891093 2.2293683659936598 19.9935953444584023 S
atom 2.0617885660699180 7.2716407299128276 19.9935953444584023 S
atom 7.6666151338829645 7.8341949338066854 19.9935953444584023 S
atom 2.1649742323688450 2.2011547445415878 25.0028054886231921 S
atom 7.7702532465197347 2.7641613947732866 25.0028054886231921 S
atom 2.7279808826005487 7.8064337586924522 25.0028054886231921 S
atom 7.1318221051033461 7.1680026172760698 25.0028054886231921 S
atom 2.8362679029535691 0.0306164608631260 22.1767128697606140 S
atom 7.0712109891801704 -0.0044890400535868 22.8209645871550890 S
atom 2.0289386252609818 5.0377833238655843 22.8209645871550890 S
atom 7.8031157756880596 4.9974643335976054 22.1767128697606140 S
atom 2.8362679029535691 0.0306164608631260 27.8288981074858093 S
atom 7.0712109891801704 -0.0044890400535868 27.1846463900912951 S
atom 2.0289386252609818 5.0377833238655843 27.1846463900912951 S
atom 7.8031157756880605 4.9974643335976054 27.8288981074858093 S
atom -0.0683287064554750 2.1682922153732602 22.1767128697606140 S
atom 4.9336246671957298 2.9001970018811543 22.8209645871550890 S
atom -0.1086476967234601 7.9424693658003314 22.8209645871550890 S
atom 4.8985191662790131 7.1351400881077378 22.1767128697606140 S
atom -0.0683287064554750 2.1682922153732602 27.8288981074858093 S
atom 4.9336246671957298 2.9001970018811543 27.1846463900912951 S
atom -0.1086476967234601 7.9424693658003314 27.1846463900912951 S
atom 4.8985191662790131 7.1351400881077378 27.8288981074858093 S
atom 0.2354405485982540 -0.1305704611967663 30.0116092822437182 Ba
atom 5.1351305795236186 -0.2731527941906025 30.0116092822437182 Ba
atom 0.0928582156044179 4.7691195697285753 30.0116092822437182 Ba
atom 5.2022884213327405 4.8362774115377034 30.0116092822437182 Ba
atom -0.3367418789707591 0.2330362694517432 35.0183983728170176 Ba
atom 4.7715238488750851 0.2990296333784087 35.0183983728170176 Ba
atom -0.2707485150440925 5.3413019972975748 35.0183983728170176 Ba
atom 4.6301059937637428 5.1998841421862263 35.0183983728170176 Ba
atom 2.4304782447809368 2.5350610399710862 32.5206384253164202 Zr
atom 7.4363469510902220 2.4986573823611997 32.5206384253164202 Zr
atom 2.3940745871710409 7.5409297462803755 32.5206384253164202 Zr
atom 7.3973261175154201 7.5019089127055727 32.5206384253164202 Zr
atom 2.4375399681052183 2.5324673416643160 37.5342800316811989 Zr
atom 7.4389406493970132 2.4915956590369133 37.5342800316811989 Zr
atom 2.3966682854778165 7.5338680229560993 37.5342800316811989 Zr
atom 7.4043878408396999 7.4993152143987896 37.5342800316811989 Zr
atom 2.6997672611484793 2.8673470610722105 30.0120156327879606 S
atom 7.1040609299891093 2.2293683659936598 30.0120156327879606 S
atom 2.0617885660699180 7.2716407299128276 30.0120156327879606 S
atom 7.6666151338829645 7.8341949338066854 30.0120156327879606 S
atom 2.1660456922628804 2.2025716208223107 35.0214136379623753 S
atom 7.7688363702389980 2.7630899348792477 35.0214136379623753 S
atom 2.7265640063198129 7.8053622987984213 35.0214136379623753 S
atom 7.1328935649973699 7.1694194935568056 35.0214136379623753 S
atom 2.8359001246911526 0.0313876169986761 32.1928025833441538 S
atom 7.0707478849898120 -0.0037174918212063 32.8359600778984344 S
atom 2.0284755210706322 5.0385548720979738 32.8359600778984344 S
atom 7.8027479974256373 4.9982354897331529 32.1928025833441538 S
atom 2.8376374046083774 0.0293920870240622 37.8396419513783542 S
atom 7.0704744080399946 -0.0056957544411422 37.2004608924058289 S
atom 2.0282020441208060 5.0365766094780238 37.2004608924058289 S
atom 7.8044852773428639 4.9962399597585350 37.8396419513783542 S
atom -0.0690998625910249 2.1686599936356825 32.1928025833441538 S
atom 4.9328531189633527 2.9006601060714976 32.8359600778984344 S
atom -0.1094192449558404 7.9429324699906712 32.8359600778984344 S
atom 4.8977480101434585 7.1355078663701672 32.1928025833441538 S
atom -0.0671043326164110 2.1669227137184466 37.8396419513783542 S
atom 4.9348313815832823 2.9009335830213141 37.2004608924058289 S
atom -0.1074409823359048 7.9432059469404841 37.2004608924058289 S
atom 4.8997435401180880 7.1337705864529335 37.8396419513783542 S
atom 0.2338412167268192 -0.1321813630237694 40.0216741775150808 Ba
atom 5.1367414813505992 -0.2715534623191680 40.0216741775150808 Ba
atom 0.0944691174314206 4.7707189016000120 40.0216741775150808 Ba
atom 5.2006890894613091 4.8346665097107140 40.0216741775150808 Ba
atom -0.3198612964952537 0.2419971119539178 44.9946859228366307 Ba
atom 4.7625630063729245 0.2821490509029030 44.9946859228366307 Ba
atom -0.2797093575462684 5.3244214148220799 44.9946859228366307 Ba
atom 4.6469865762392413 5.2088449846883957 44.9946859228366307 Ba
atom 2.4214828149591039 2.5401544928542799 42.5509461677481085 Zr
atom 7.4312534982070408 2.5076528121830255 42.5509461677481085 Zr
atom 2.3889811342878593 7.5499251761022164 42.5509461677481085 Zr
atom 7.3883306876935837 7.5070023655887601 42.5509461677481085 Zr
atom 2.4490089106637685 2.5254400086445461 47.6056585135904768 Zr
atom 7.4459679824167688 2.4801267164783587 47.6056585135904768 Zr
atom 2.4036956184975846 7.5223990803975411 47.6056585135904768 Zr
atom 7.4158567833982509 7.4922878813790295 47.6056585135904768 Zr
atom 2.6960561985229674 2.8630025757407833 40.0310079967487411 S
atom 7.1084054153205409 2.2330794286191615 40.0310079967487411 S
atom 2.0661330514013425 7.2753517925383395 40.0310079967487411 S
atom 7.6629040712574561 7.8298504484752494 40.0310079967487411 S
atom 2.1808036934464519 2.2309379894465078 45.0438591889835394 S
atom 7.7404700016148196 2.7483319336956740 45.0438591889835394 S
atom 2.6981976376956140 7.7906042976148555 45.0438591889835394 S
atom 7.1476515661809445 7.1977858621809814 45.0438591889835394 S
atom 2.8441300259000633 0.0334170947601908 42.2168733987599722 S
atom 7.0687715351203391 -0.0012635366636709 42.8395154440106509 S
atom 2.0264991712011406 5.0410088272555038 42.8395154440106509 S
atom 7.8109778986345715 5.0002649674946635 42.2168733987599722 S
atom 2.7413291763999807 0.0333623528706757 47.7765286581170869 S
atom 7.1234444670606480 -0.0013380306545441 47.2260841478517932 S
atom 2.0811721031414661 5.0409343332646301 47.2260841478517932 S
atom 7.7081770491344681 5.0002102256051559 47.7765286581170869 S
atom -0.0711293403525398 2.1604300924267617 42.2168733987599722 S
atom 4.9303991638058182 2.9026364559409887 42.8395154440106509 S
atom -0.1118732001133761 7.9449088198601663 42.8395154440106509 S
atom 4.8957185323819550 7.1272779651612321 42.2168733987599722 S
atom -0.0710745984630247 2.2632309419268508 47.7765286581170869 S
atom 4.9304736577966883 2.8479635240006616 47.2260841478517932 S
atom -0.1117987061225027 7.8902358879198431 47.2260841478517932 S
atom 4.8957732742714741 7.2300788146613302 47.7765286581170869 S
atom 0.0836116018111891 -0.1214607353812269 49.7880384766690298 Ba
atom 5.1260208537080700 -0.1213238474035377 49.7880384766690298 Ba
atom 0.0837484897888783 4.9209485165156410 49.7880384766690298 Ba
atom 5.0504594745456934 4.8453871373532449 49.7880384766690298 Ba
atom 2.6077906262268313 2.7818822922932029 50.1123405510654791 S
atom 7.1895256987681275 2.3213450009152954 50.1123405510654791 S
atom 2.1472533348489344 7.3636173648344787 50.1123405510654791 S
atom 7.5746384989613205 7.7487301650276645 50.1123405510654791 S
atom 2.3619632009860192 2.5670355381784278 53.2235201364585109 Ba
atom 7.4043724528828889 2.5671724261561115 53.2235201364585109 Ba
atom 2.3621000889637083 7.6094447900752904 53.2235201364585109 Ba
atom 7.3288110737205026 7.5338834109129031 53.2235201364585109 Ba
atom 2.7254210483211634 2.1635626398719885 58.0168726902909100 Ba
atom 7.8078453511893438 2.2037145788209762 58.0168726902909100 Ba
atom 2.7655729872701462 7.2459869427401502 58.0168726902909100 Ba
atom 7.6922689210556650 7.1304105126064616 58.0168726902909100 Ba
atom 5.0088639450118109 4.9324328470310093 55.4059000995370283 Zr
atom 10.0058230167648041 4.8871195548648219 55.4059000995370283 Zr
atom 4.9635506528456252 9.9293919187839901 55.4059000995370283 Zr
atom 9.9757118177462925 9.8992807197654802 55.4059000995370283 Zr
atom 5.0235784292215495 4.9049067513263225 60.4606124453794038 Zr
atom 10.0333491124694731 4.8724050706550859 60.4606124453794038 Zr
atom 4.9910767485502987 9.9146774345742532 60.4606124453794038 Zr
atom 9.9904263019560346 9.8717546240608236 60.4606124453794038 Zr
atom 5.2653062286604460 5.0912145625940628 52.8992180620620047 S
atom 9.8470413012017399 4.6306772712161743 52.8992180620620047 S
atom 4.8047689372825602 9.6729496351353532 52.8992180620620047 S
atom 10.2321541013949346 10.0580624353285408 52.8992180620620047 S
atom 4.7143619258137672 4.6642276298136780 57.9676994241439019 S
atom 10.2740282339821558 5.1816215740628602 57.9676994241439019 S
atom 5.2317558700629387 10.2238939379820373 57.9676994241439019 S
atom 9.6812097985482435 9.6310755025481374 57.9676994241439019 S
atom 4.7466548782941089 2.4123493379042102 55.2350299550104182 S
atom 10.3736598242871292 2.3716252302447391 55.7854744652757120 S
atom 5.3313874603679334 7.4138975941639167 55.7854744652757120 S
atom 9.7135027510285834 7.3791972106386980 55.2350299550104182 S
atom 4.6438540287939940 2.4122945960147035 60.7946852143675684 S
atom 10.4283327562274266 2.3715507362538646 60.1720431691168116 S
atom 5.3860603923082495 7.4138231001730404 60.1720431691168116 S
atom 9.6107019015284951 7.3791424687491842 60.7946852143675684 S
atom 2.5167862892379222 5.2247531127672096 55.2350299550104182 S
atom 7.5243582696318851 4.5645960395086940 55.7854744652757120 S
atom 2.4820859057127027 9.6068684034278871 55.7854744652757120 S
atom 7.4836341619724083 10.1916009855017045 55.2350299550104182 S
atom 2.5168410311274383 5.3275539622673165 60.7946852143675684 S
atom 7.5244327636227721 4.5099231075683708 60.1720431691168116 S
atom 2.4821603997035782 9.5521954714875683 60.1720431691168116 S
atom 7.4836889038619283 10.2944018350017856 60.7946852143675684 S
atom 2.3512425733434781 2.7172651530940612 62.9898844356124314 Ba
atom 7.2541428379672732 2.5778930537986584 62.9898844356124314 Ba
atom 2.2118704740480699 7.6201654177178284 62.9898844356124314 Ba
atom 7.3180904460779725 7.6841130258285242 62.9898844356124314 Ba
atom 2.7164602058189891 2.1466820573964829 67.9931602403105870 Ba
atom 7.8247259336648467 2.2126754213231483 67.9931602403105870 Ba
atom 2.7824535697456572 7.2549477852423125 67.9931602403105870 Ba
atom 7.6833080785534795 7.1135299301309658 67.9931602403105870 Ba
atom 5.0158912780315728 4.9209639044724476 65.4772785814463418 Zr
atom 10.0172919593233658 4.8800922218450564 65.4772785814463418 Zr
atom 4.9750195954041843 9.9223645857642442 65.4772785814463418 Zr
atom 9.9827391507660383 9.8878117772069416 65.4772785814463418 Zr
atom 5.0184849763383435 4.9139021811481713 70.4909201878111276 Zr
atom 10.0243536826476287 4.8774985235382795 70.4909201878111276 Zr
atom 4.9820813187284587 9.9197708874574619 70.4909201878111276 Zr
atom 9.9853328490728099 9.8807500538826325 70.4909201878111276 Zr
atom 5.3464265121080530 5.1794801348901975 62.9805506163788209 S
atom 9.7587757289056043 4.5495569877685895 62.9805506163788209 S
atom 4.7165033649864272 9.5918293516877249 62.9805506163788209 S
atom 10.3132743848425292 10.1463280076246924 62.9805506163788209 S
atom 4.6859955571895862 4.6494696286301096 67.9901449751652791 S
atom 10.2887862351656842 5.2099879426870430 67.9901449751652791 S
atom 5.2465138712465080 10.2522603066062246 67.9901449751652791 S
atom 9.6528434299240793 9.6163175013645716 67.9901449751652791 S
atom 4.6503466500857149 2.4163196037508219 65.1719166617491510 S
atom 10.4266298833077773 2.3759829540313362 65.8110977207217189 S
atom 5.3843575193885806 7.4182553179505071 65.8110977207217189 S
atom 9.6171945228201938 7.3831674764853119 65.1719166617491510 S
atom 4.6520839300029362 2.4143240737762155 70.8187560297833727 S
atom 10.4263564063579484 2.3740046914113977 70.1755985352289997 S
atom 5.3840840424387686 7.4162770553305695 70.1755985352289997 S
atom 9.6189318027374249 7.3811719465106860 70.8187560297833727 S
atom 2.5128160233913110 5.3210613409756160 65.1719166617491510 S
atom 7.5200005458452877 4.5116259804880512 65.8110977207217189 S
atom 2.4777281819261003 9.5538983444072390 65.8110977207217189 S
atom 7.4796638961257997 10.2879092137100869 65.1719166617491510 S
atom 2.5148115533659192 5.3193240610583805 70.8187560297833727 S
atom 7.5219788084652350 4.5118994574378606 70.1755985352289997 S
atom 2.4797064445460437 9.5541718213570501 70.1755985352289997 S
atom 7.4816594261004257 10.2861719337928488 70.8187560297833727 S
atom 2.3528534751704835 2.7188644849654904 72.9999493308837657 Ba
atom 7.2525435060958419 2.5762821519716543 72.9999493308837657 Ba
atom 2.2102711421766448 7.6185545158908319 72.9999493308837657 Ba
atom 7.3197013479049566 7.6857123576999680 72.9999493308837657 Ba
atom 2.7157688317169346 2.1459393907044904 78.0087531245043948 Ba
atom 7.8254686003568432 2.2133667954252010 78.0087531245043948 Ba
atom 2.7831962364376426 7.2556391593443763 78.0087531245043948 Ba
atom 7.6826167044514486 7.1127872634389684 78.0087531245043948 Ba
atom 5.0176317653420641 4.9164432390753037 75.5029384606259981 Zr
atom 10.0218126247205088 4.8783517345345597 75.5029384606259981 Zr
atom 4.9795402608013042 9.9206240984537182 75.5029384606259981 Zr
atom 9.9844796380765608 9.8832911118097648 75.5029384606259981 Zr
atom 5.0176317653420641 4.9164432390753037 80.5145677883827915 Zr
atom 10.0218126247205088 4.8783517345345597 80.5145677883827915 Zr
atom 4.9795402608013042 9.9206240984537182 80.5145677883827915 Zr
atom 9.9844796380765608 9.8832911118097648 80.5145677883827915 Zr
atom 5.3507709974394730 5.1831911975157103 72.9995429803395268 S
atom 9.7550646662800897 4.5452125024371588 72.9995429803395268 S
atom 4.7127923023609108 9.5874848663563306 72.9995429803395268 S
atom 10.3176188701739733 10.1500390702502017 72.9995429803395268 S
atom 4.6845786809088548 4.6483981687360814 78.0087531245043948 S
atom 10.2898576950597374 5.2114048189677904 78.0087531245043948 S
atom 5.2475853311405372 10.2536771828869337 78.0087531245043948 S
atom 9.6514265536433470 9.6152460414705878 78.0087531245043948 S
atom 4.6517161517405237 2.4150952299117638 75.1826605056416923 S
atom 10.4258933021676015 2.3747762396437828 75.8269122230363593 S
atom 5.3836209382484084 7.4170486035629706 75.8269122230363593 S
atom 9.6185640244750168 7.3819431026462414 75.1826605056416923 S
atom 4.6517161517405237 2.4150952299117638 80.8348457433669125 S
atom 10.4258933021676015 2.3747762396437828 80.1905940259724446 S
atom 5.3836209382484084 7.4170486035629706 80.1905940259724446 S
atom 9.6185640244750168 7.3819431026462414 80.8348457433669125 S
atom 2.5140403972303722 5.3196918393208081 75.1826605056416923 S
atom 7.5212072602328490 4.5123625616282084 75.8269122230363593 S
atom 2.4789348963136573 9.5546349255474006 75.8269122230363593 S
atom 7.4808882699648622 10.2865397120552782 75.1826605056416923 S
atom 2.5140403972303722 5.3196918393208081 80.8348457433669125 S
atom 7.5212072602328490 4.5123625616282084 80.1905940259724446 S
atom 2.4789348963136573 9.5546349255474006 80.1905940259724446 S
atom 7.4808882699648622 10.2865397120552782 80.8348457433669125 S
atom 2.3528534751704835 2.7188644849654904 83.0175569181250097 Ba
atom 7.2525435060958419 2.5762821519716543 83.0175569181250097 Ba
atom 2.2102711421766448 7.6185545158908319 83.0175569181250097 Ba
atom 7.3197013479049566 7.6857123576999680 83.0175569181250097 Ba
atom 2.7164602058189891 2.1466820573964829 88.0243460086982594 Ba
atom 7.8247259336648467 2.2126754213231483 88.0243460086982594 Ba
atom 2.7824535697456572 7.2549477852423125 88.0243460086982594 Ba
atom 7.6833080785534795 7.1135299301309658 88.0243460086982594 Ba
atom 5.0184849763383435 4.9139021811481713 85.5265860611975768 Zr
atom 10.0243536826476287 4.8774985235382795 85.5265860611975768 Zr
atom 4.9820813187284587 9.9197708874574619 85.5265860611975768 Zr
atom 9.9853328490728099 9.8807500538826325 85.5265860611975768 Zr
atom 5.0158912780315728 4.9209639044724476 90.5402276675623483 Zr
atom 10.0172919593233658 4.8800922218450564 90.5402276675623483 Zr
atom 4.9750195954041843 9.9223645857642442 90.5402276675623483 Zr
atom 9.9827391507660383 9.8878117772069416 90.5402276675623483 Zr
atom 5.3507709974394730 5.1831911975157103 83.0179632686691065 S
atom 9.7550646662800897 4.5452125024371588 83.0179632686691065 S
atom 4.7127923023609108 9.5874848663563306 83.0179632686691065 S
atom 10.3176188701739733 10.1500390702502017 83.0179632686691065 S
atom 4.6859955571895862 4.6494696286301096 88.0273612738434394 S
atom 10.2887862351656842 5.2099879426870430 88.0273612738434394 S
atom 5.2465138712465080 10.2522603066062246 88.0273612738434394 S
atom 9.6528434299240793 9.6163175013645716 88.0273612738434394 S
atom 4.6520839300029362 2.4143240737762155 85.1987502192253032 S
atom 10.4263564063579484 2.3740046914113977 85.8419077137795909 S
atom 5.3840840424387686 7.4162770553305695 85.8419077137795909 S
atom 9.6189318027374249 7.3811719465106860 85.1987502192253032 S
atom 4.6503466500857149 2.4163196037508219 90.8455895872593686 S
atom 10.4266298833077773 2.3759829540313362 90.2064085282871133 S
atom 5.3843575193885806 7.4182553179505071 90.2064085282871133 S
atom 9.6171945228201938 7.3831674764853119 90.8455895872593686 S
atom 2.5148115533659192 5.3193240610583805 85.1987502192253032 S
atom 7.5219788084652350 4.5118994574378606 85.8419077137795909 S
atom 2.4797064445460437 9.5541718213570501 85.8419077137795909 S
atom 7.4816594261004257 10.2861719337928488 85.1987502192253032 S
atom 2.5128160233913110 5.3210613409756160 90.8455895872593686 S
atom 7.5200005458452877 4.5116259804880512 90.2064085282871133 S
atom 2.4777281819261003 9.5538983444072390 90.2064085282871133 S
atom 7.4796638961257997 10.2879092137100869 90.8455895872593686 S
atom 2.3512425733434781 2.7172651530940612 93.0276218133961379 Ba
atom 7.2541428379672732 2.5778930537986584 93.0276218133961379 Ba
atom 2.2118704740480699 7.6201654177178284 93.0276218133961379 Ba
atom 7.3180904460779725 7.6841130258285242 93.0276218133961379 Ba
atom 2.7254210483211634 2.1635626398719885 98.0006335587178512 Ba
atom 7.8078453511893438 2.2037145788209762 98.0006335587178512 Ba
atom 2.7655729872701462 7.2459869427401502 98.0006335587178512 Ba
atom 7.6922689210556650 7.1304105126064616 98.0006335587178512 Ba
atom 5.0235784292215495 4.9049067513263225 95.5568938036291087 Zr
atom 10.0333491124694731 4.8724050706550859 95.5568938036291087 Zr
atom 4.9910767485502987 9.9146774345742532 95.5568938036291087 Zr
atom 9.9904263019560346 9.8717546240608236 95.5568938036291087 Zr
atom 5.0088639450118109 4.9324328470310093 100.6116061494716547 Zr
atom 10.0058230167648041 4.8871195548648219 100.6116061494716547 Zr
atom 4.9635506528456252 9.9293919187839901 100.6116061494716547 Zr
atom 9.9757118177462925 9.8992807197654802 100.6116061494716547 Zr
atom 5.3464265121080548 5.1794801348901975 93.0369556326298408 S
atom 9.7587757289056043 4.5495569877685895 93.0369556326298408 S
atom 4.7165033649864272 9.5918293516877249 93.0369556326298408 S
atom 10.3132743848425292 10.1463280076246924 93.0369556326298408 S
atom 4.7143619258137672 4.6642276298136780 98.0498068248646888 S
atom 10.2740282339821558 5.1816215740628602 98.0498068248646888 S
atom 5.2317558700629387 10.2238939379820373 98.0498068248646888 S
atom 9.6812097985482435 9.6310755025481374 98.0498068248646888 S
atom 4.6438540287939931 2.4122945960147035 95.2228210346409867 S
atom 10.4283327562274266 2.3715507362538646 95.8454630798916298 S
atom 5.3860603923082495 7.4138231001730404 95.8454630798916298 S
atom 9.6107019015284951 7.3791424687491842 95.2228210346409867 S
atom 4.7466548782941089 2.4123493379042102 100.7824762939982151 S
atom 10.3736598242871292 2.3716252302447391 100.2320317837328503 S
atom 5.3313874603679334 7.4138975941639167 100.2320317837328503 S
atom 9.7135027510285834 7.3791972106386980 100.7824762939982151 S
atom 2.5168410311274383 5.3275539622673165 95.2228210346409867 S
atom 7.5244327636227712 4.5099231075683708 95.8454630798916298 S
atom 2.4821603997035782 9.5521954714875683 95.8454630798916298 S
atom 7.4836889038619283 10.2944018350017856 95.2228210346409867 S
atom 2.5167862892379222 5.2247531127672096 100.7824762939982151 S
atom 7.5243582696318851 4.5645960395086940 100.2320317837328503 S
atom 2.4820859057127027 9.6068684034278871 100.2320317837328503 S
atom 7.4836341619724083 10.1916009855017045 100.7824762939982151 S
atom 2.3619632009860192 2.5670355381784278 102.7939861125501153 Ba
atom 7.4043724528828889 2.5671724261561115 102.7939861125501153 Ba
atom 2.3621000889637083 7.6094447900752904 102.7939861125501153 Ba
atom 7.3288110737205026 7.5338834109129031 102.7939861125501153 Ba
atom 5.2653062286604460 5.0912145625940628 103.1182881869467849 S
atom 9.8470413012017399 4.6306772712161743 103.1182881869467849 S
atom 4.8047689372825602 9.6729496351353532 103.1182881869467849 S
atom 10.2321541013949346 10.0580624353285408 103.1182881869467849 S
