#=======================================================
# FHI-aims file: sym_relax/sym_relax_RP_7_RxRyMz_-Rx-Ry0.in
# Created using the Atomic Simulation Environment (ASE)
# Mon Mar 17 15:56:44 2025
#=======================================================
lattice_vector 10.0127910214101910 -0.0673858370307496 0.0000082859090782 
lattice_vector -0.0673858370307494 10.0127910214101608 -0.0000082859090782 
lattice_vector 0.0001541393039064 -0.0001541393039063 75.8986714113025727 
atom 0.1326427941273707 -0.1705177368501213 0.2134939511089760 Ba
atom 5.1769132475552038 -0.1663357126427458 0.2134980940635155 Ba
atom 0.1368248183347473 4.8737527165777106 0.2134898081544369 Ba
atom 5.1053453863170972 4.8021848553395836 0.2134939511089761 Ba
atom -0.2656473232708554 0.1899980176673376 5.0033877836261702 Ba
atom 4.8163974930377442 0.2319544047554799 5.0033919265807123 Ba
atom -0.2236909361827111 5.2720428339759327 5.0033836406716432 Ba
atom 4.7070552689188512 5.1627006098570343 5.0033877836261720 Ba
atom 2.5015531266888353 2.4784828548333646 2.3951643602845696 Zr
atom 7.5006152480614299 2.4374565469855098 2.3951685032391077 Zr
atom 2.4605268188409632 7.4775449762059765 2.3951602173300346 Zr
atom 7.4742557188785375 7.4511854470230752 2.3951643602845696 Zr
atom 2.4761166222404181 2.4918267462956023 7.4481178764014802 Zr
atom 7.4872713565992033 2.4628930514339169 7.4481220193560267 Zr
atom 2.4471829273787282 7.5029814806543822 7.4481137334469469 Zr
atom 7.4488192144301273 7.4645293384853186 7.4481178764014819 Zr
atom 2.6609974921858268 2.7396837713772357 -0.1112944209281919 S
atom 7.2394143315175485 2.2780121814885019 -0.1112902779736527 S
atom 2.1993259022970970 7.3181006107089681 -0.1112985638827310 S
atom 7.6337000843755467 7.7123863635669458 -0.1112944209281919 S
atom 2.2326068807862978 2.1810110433529322 4.9550442849695342 S
atom 7.7980870595418628 2.7064027928880456 4.9550484279240727 S
atom 2.7579986303214010 7.7464912221084994 4.9550401420149939 S
atom 7.2053094729759932 7.1537136355426574 4.9550442849695351 S
atom 2.7895745207179328 -0.0150959486427477 2.2218679692089598 S
atom 7.1830481049847137 -0.0457296664522275 2.7745477495379762 S
atom 2.1429596757642488 4.9943587627682193 2.7745394636288943 S
atom 7.7622771129076558 4.9576066435469501 2.2218679692089607 S
atom 2.8931739288827183 -0.0159279530838468 7.7809395720964840 S
atom 7.1257465855072653 -0.0462909836846837 7.1565041716192503 S
atom 2.0856581562868244 4.9937974455357796 7.1564958857101804 S
atom 7.8658765210724315 4.9567746391058671 7.7809395720964858 S
atom -0.0185969698726264 2.2168209899871529 2.2218638262544230 S
atom 4.9847393401265778 2.7960499979100852 2.7745436065834364 S
atom -0.0553490890938971 7.8361384271305417 2.7745353206743597 S
atom 4.9541056223170949 7.1895235821768528 2.2218638262544239 S
atom -0.0177649654315273 2.1132215818223763 7.7809354291419535 S
atom 4.9853006573590157 2.8533515173875155 7.1565000286647242 S
atom -0.0547877718614409 7.8934399466079661 7.1564917427556471 S
atom 4.9549376267581744 7.0859241740120797 7.7809354291419552 S
atom 0.2817756261828175 -0.1824040525289313 9.9748237542488383 Ba
atom 5.1887995632340180 -0.3154685446981911 9.9748278972033706 Ba
atom 0.1487111340135571 4.7246198845222640 9.9748196112942757 Ba
atom 5.2544782183725216 4.7902985396607711 9.9748237542488347 Ba
atom -0.2825263736011059 0.1815247373038625 14.9755822491187267 Ba
atom 4.8248707734012299 0.2488334550857305 14.9755863920732537 Ba
atom -0.2152176558192368 5.2889218843061849 14.9755781061641553 Ba
atom 4.6901762185886096 5.1542273294935530 14.9755822491187267 Ba
atom 2.4904186618078734 2.4847306101080586 12.4635697987568310 Zr
atom 7.4943674927867381 2.4485910118664651 12.4635739417113758 Zr
atom 2.4542790635662750 7.4886794410869140 12.4635656558022880 Zr
atom 7.4631212539975724 7.4574332022977607 12.4635697987568310 Zr
atom 2.4863867886977267 2.4863158034919777 17.4766677591815167 Zr
atom 7.4927822994028030 2.4526228849766132 17.4766719021360508 Zr
atom 2.4526938701823524 7.4927113141970674 17.4766636162269684 Zr
atom 7.4590893808874261 7.4590183956816976 17.4766677591815167 Zr
atom 2.7515585861925298 2.8167881487353195 9.9656218468946562 S
atom 7.1623099541594568 2.1874510874818132 9.9656259898492010 S
atom 2.1222215249390208 7.2275395167022580 9.9656177039401275 S
atom 7.7242611783822248 7.7894907409250225 9.9656218468946545 S
atom 2.2186505038437043 2.1531011968853484 14.9729981472740938 S
atom 7.8259969060094567 2.7203591698306346 14.9730022902286208 S
atom 2.7859084767889883 7.7604475990511137 14.9729940043195562 S
atom 7.1913530960334002 7.1258037890750430 14.9729981472740938 S
atom 2.8862367502707720 -0.0193774132317625 12.1540185255110487 S
atom 7.1269488412108650 -0.0501539704284548 12.7945335588962017 S
atom 2.0868604119904060 4.9899344587920016 12.7945252729871495 S
atom 7.8589393424604594 4.9533251789579431 12.1540185255110469 S
atom 2.8851995631464047 -0.0183298048846036 17.7983087815307393 S
atom 7.1276624434695002 -0.0491270173518925 17.1550350227413695 S
atom 2.0875740142490549 4.9909614118685628 17.1550267368322515 S
atom 7.8579021553361148 4.9543727873051102 17.7983087815307357 S
atom -0.0143155052836117 2.1201587604343213 12.1540143825565146 S
atom 4.9891636441028009 2.8521492616839246 12.7945294159416978 S
atom -0.0509247851176698 7.8922376909043939 12.7945211300326047 S
atom 4.9583870869061046 7.0928613526240394 12.1540143825565146 S
atom -0.0153631136307705 2.1211959475586681 17.7983046385762442 S
atom 4.9881366910262210 2.8514356594252890 17.1550308797868212 S
atom -0.0519517381942319 7.8915240886457383 17.1550225938777565 S
atom 4.9573394785589340 7.0938985397483769 17.7983046385762442 S
atom 0.2825973588068517 -0.1815957225096086 19.9777532692443387 Ba
atom 5.1879912332146692 -0.3162902773222266 19.9777574121988657 Ba
atom 0.1479028039942339 4.7237981518982313 19.9777491262897904 Ba
atom 5.2552999509965481 4.7911068696801120 19.9777532692443387 Ba
atom -0.2817046409770714 0.1823330673231849 24.9785117641142165 Ba
atom 4.8240624433818784 0.2480117224616955 24.9785159070687293 Ba
atom -0.2160259858385599 5.2881001516821540 24.9785076211596859 Ba
atom 4.6909979512126361 5.1550356595129045 24.9785117641142165 Ba
atom 2.4823549155875817 2.4879009968759047 22.4897657196062042 Zr
atom 7.4911971060188840 2.4566547580867470 22.4897698625607738 Zr
atom 2.4511086767984280 7.4967431873071959 22.4897615766516736 Zr
atom 7.4550575077772949 7.4606035890656104 22.4897657196061971 Zr
atom 2.4966569551550339 2.4808048606883557 27.5052176419615577 Zr
atom 7.4982932422064357 2.4423527185193001 27.5052217849160883 Zr
atom 2.4582048129859704 7.4824411477397552 27.5052134990070449 Zr
atom 7.4693595473447498 7.4535074528780649 27.5052176419615648 Zr
atom 2.7541230735517472 2.8195304100986052 19.9803373710889538 S
atom 7.1595676927961751 2.1848866001225815 19.9803415140434950 S
atom 2.1194792635757174 7.2249750293430299 19.9803332281343948 S
atom 7.7268256657414671 7.7922330022883308 19.9803373710889538 S
atom 2.2212149912029271 2.1558434582486434 24.9877136714684092 S
atom 7.8232546446461537 2.7177946824713977 24.9877178144229504 S
atom 2.7831662154256867 7.7578831116918670 24.9877095285138502 S
atom 7.1939175833926425 7.1285460504383398 24.9877136714684021 S
atom 2.8859131654050505 -0.0173028518080416 22.1588102453759213 S
atom 7.1266252563451493 -0.0480794090047337 22.7993252787610743 S
atom 2.0865368271246947 4.9920090202157255 22.7993169928519492 S
atom 7.8586157575947588 4.9553997403816741 22.1588102453759248 S
atom 2.8871154211086316 -0.0211658385518128 27.7968396326528300 S
atom 7.1196880777332066 -0.0515288691526494 27.1724042321756301 S
atom 2.0795996485127421 4.9885595600677952 27.1723959462665441 S
atom 7.8598180132983453 4.9515367536378863 27.7968396326528300 S
atom -0.0163900667073335 2.1204823453000299 22.1588061024213232 S
atom 4.9870890826790619 2.8524728465496381 22.7993211358065260 S
atom -0.0529993465413906 7.8925612757700812 22.7993128498974578 S
atom 4.9563125254823719 7.0931849374897471 22.1588061024213161 S
atom -0.0125270799635624 2.1192800895964528 27.7968354896982461 S
atom 4.9905385428269815 2.8594100251615884 27.1724000892210640 S
atom -0.0495498863934751 7.8994984543820603 27.1723918033120313 S
atom 4.9601755122261411 7.0919826817861544 27.7968354896982461 S
atom 0.2657183084766005 -0.1900690028730843 29.9499477347368703 Ba
atom 5.1964645135781540 -0.2994112269919760 29.9499518776914293 Ba
atom 0.1563760843577092 4.7406772022284827 29.9499435917823078 Ba
atom 5.2384209006663074 4.7826335893166139 29.9499477347368703 Ba
atom -0.1325718089216246 0.1704467516443752 34.7398415672539755 Ba
atom 4.8359487590606962 0.0988788904062496 34.7398457102085061 Ba
atom -0.2041396701597499 5.1389673196267163 34.7398374242994663 Ba
atom 4.8401307832680773 5.1431493438340965 34.7398415672539755 Ba
atom 2.4712204507066295 2.4941487521505881 32.5581711580785438 Zr
atom 7.4849493507441940 2.4677892229676939 32.5581753010330246 Zr
atom 2.4448609215237349 7.5078776521881574 32.5581670151239919 Zr
atom 7.4439230428963450 7.4668513443403022 32.5581711580785438 Zr
atom 2.7401666966091565 2.7916205636310232 29.9982912333935410 S
atom 7.1874775392637575 2.1988429770651745 29.9982953763480573 S
atom 2.1473891100433060 7.2389314062856327 29.9982870904390140 S
atom 7.7128692887988519 7.7643231558207422 29.9982912333935410 S
atom 2.3117760852096247 2.2329478356067218 35.0646299392912084 S
atom 7.7461502672880522 2.6272335884647129 35.0646340822458100 S
atom 2.7060618380676096 7.6673220176851720 35.0646257963366992 S
atom 7.2844786773993260 7.2056504277964262 35.0646299392912084 S
atom 2.8298139016312072 -0.0217271557842690 32.1787960547341996 S
atom 7.2232874858979645 -0.0523608735937484 32.7314758350632431 S
atom 2.1831990566775192 4.9877275556267149 32.7314675491541180 S
atom 7.8025164938208995 4.9509754364054492 32.1787960547341996 S
atom -0.0119657627311062 2.1765816090738781 32.1787919117796477 S
atom 4.9913705472680814 2.7558106169968033 32.7314716921086699 S
atom -0.0487178819523760 7.7958990462172757 32.7314634061995804 S
atom 4.9607368294585896 7.1492842012635807 32.1787919117796477 S
atom 2.3538569049827882 2.6567152666475313 38.1628552392338065 Ba
atom 7.3223828362472423 2.5851527686915370 38.1628593821883584 Ba
atom 2.2822944070268001 7.6252411979120067 38.1628510962792831 Ba
atom 7.3265594971724823 7.6294178588372352 38.1628552392338136 Ba
atom 2.7521818743794557 2.2961893090094128 42.9527117712145099 Ba
atom 7.6829087938853755 2.1868277992948788 42.9527159141690262 Ba
atom 2.6428203646649147 7.2269162285153250 42.9527076282600007 Ba
atom 7.7248844665691418 7.2688919011991215 42.9527117712145312 Ba
atom 4.9576157765269855 4.9804457953651831 40.3445148767514326 Zr
atom 9.9713548997192909 4.9540964893370640 40.3445190197059702 Zr
atom 4.9312664704988274 9.9941849185575080 40.3445107337969233 Zr
atom 9.9303183687166907 9.9531483875548883 40.3445148767514326 Zr
atom 4.9831412495083001 4.9670344972742768 45.3974450482686791 Zr
atom 9.9847661978101829 4.9285710163557290 45.3974491912232594 Zr
atom 4.9446777685897487 9.9686594455761970 45.3974409053140917 Zr
atom 9.9558438416979858 9.9397370894640176 45.3974450482686720 Zr
atom 4.7981524245284826 4.7192276350700553 37.8380667564724078 S
atom 10.2325730600144187 5.1135598413355359 37.8380708994270023 S
atom 5.1924846307939800 10.1536482705559941 37.8380626135179625 S
atom 9.7708550167182064 9.6919302272597623 37.8380667564724078 S
atom 5.2266401191596881 5.2778618875266714 42.9043822487292204 S
atom 9.6739388075578105 4.6850721467043375 42.9043863916837438 S
atom 4.6338503783373577 9.7251605759247841 42.9043781057746969 S
atom 10.1993427113494093 10.2505644797163864 42.9043822487292346 S
atom 5.3162640768739013 2.4645626776048091 40.7239218575112929 S
atom 9.7097111233418190 2.4339337167032897 40.1712258061810843 S
atom 4.6696226941213457 7.4740221459237386 40.1712175202720374 S
atom 10.2889666690635622 7.4372652697945183 40.7239218575112645 S
atom 5.3735626807212906 2.4650664168289973 45.1058222805366782 S
atom 9.6061436944332499 2.4347024675477824 45.7302678038037271 S
atom 4.5660552652128361 7.4747908967682370 45.7302595178946447 S
atom 10.3462652729109585 7.4377690090187070 45.1058222805366640 S
atom 2.4744469960695188 4.6628340260208825 40.7239177145566345 S
atom 7.4777785491607425 5.2420895717426861 40.1712216632265964 S
atom 2.4376901199402892 10.2821780009631283 40.1712133773174713 S
atom 7.4471495882592142 9.6355366182105620 40.7239177145566416 S
atom 2.4739432568453372 4.6055354221734950 45.1058181375821903 S
atom 7.4770097983162485 5.3456570006512090 45.7302636608491966 S
atom 2.4369213690958009 10.3857454298716707 45.7302553749401000 S
atom 7.4466458490350318 9.5782380143632366 45.1058181375821903 S
atom 2.2047609350686752 2.6685873523218726 47.9241261520334163 Ba
atom 7.3105107505729201 2.7342487386056398 47.9241302949880108 Ba
atom 2.2704223213524592 7.7743371678261113 47.9241220090789142 Ba
atom 7.1774635272583751 7.6412899445115654 47.9241261520334163 Ba
atom 2.7690312101003376 2.3046817920583695 52.9248930961671817 Ba
atom 7.6744163108364294 2.1699784635739996 52.9248972391217194 Ba
atom 2.6343278816159610 7.2100668927944547 52.9248889532127009 Ba
atom 7.7417338022900406 7.2773843842480730 52.9248930961671959 Ba
atom 4.9688267973464892 4.9741443959392377 50.4128951254122342 Zr
atom 9.9776562991452504 4.9428854685175461 50.4128992683668784 Zr
atom 4.9375678699248002 9.9829738977380043 50.4128909824576965 Zr
atom 9.9415293895361874 9.9468469881289643 50.4128951254122200 Zr
atom 4.9728151544445316 4.9725900299348833 55.4260034648328102 Zr
atom 9.9792106651496333 4.9388971114195055 55.4260076077873833 Zr
atom 4.9391222359291440 9.9789855406399735 55.4259993218782725 Zr
atom 9.9455177466342573 9.9452926221245814 55.4260034648328102 Zr
atom 4.7076790228971808 4.6420976161939285 47.9149470461648050 S
atom 10.3097030788905606 5.2040332429668563 47.9149511891194209 S
atom 5.2696146496700926 10.2441216721873314 47.9149429032103740 S
atom 9.6803816150868549 9.6148002083836204 47.9149470461647908 S
atom 5.2405517523158327 5.3057983940672919 52.9223247086258795 S
atom 9.6460023010172051 4.6711605135482106 52.9223288515803674 S
atom 4.6059138717967389 9.7112489427686608 52.9223205656712565 S
atom 10.2132543445055450 10.2785009862569900 52.9223247086258866 S
atom 5.3723329210720587 2.4689561918754359 50.7438475654856873 S
atom 9.6130421870648650 2.4381743800108278 50.1033423665135658 S
atom 4.5729537578444184 7.4782628092312855 50.1033340806045118 S
atom 10.3450355132617791 7.4416587840651562 50.7438475654856873 S
atom 5.3715976795005362 2.4679442092387345 55.1043455676875951 S
atom 9.6141210586090189 2.4371474214105704 55.7476696478871148 S
atom 4.5740326293885385 7.4772358506310219 55.7476613619780252 S
atom 10.3443002716902068 7.4406468014284517 55.1043455676875880 S
atom 2.4700534817988928 4.6067651818227349 50.7438434225311568 S
atom 7.4735378858532009 5.3387585080196205 50.1033382235589784 S
atom 2.4334494566327423 10.3788469372400929 50.1033299376499173 S
atom 7.4427560739885976 9.5794677740124303 50.7438434225311497 S
atom 2.4710654644355965 4.6075004233942556 55.1043414247330077 S
atom 7.4745648444534751 5.3376796364755057 55.7476655049326340 S
atom 2.4344764152330196 10.3777680656959443 55.7476572190234023 S
atom 7.4437680566252924 9.5802030155840061 55.1043414247330219 S
atom 2.2038965065990173 2.6677956756216856 57.9271138334984528 Ba
atom 7.3113024272731009 2.7351131670753075 57.9271179764529194 Ba
atom 2.2712139980526507 7.7752015962957657 57.9271096905439222 Ba
atom 7.1765990987887269 7.6404982678114033 57.9271138334984457 Ba
atom 2.7681667816306774 2.3038901153581870 62.9278807776321685 Ba
atom 7.6752079875366013 2.1708428920436589 62.9278849205866706 Ba
atom 2.6351195583161462 7.2109313212641037 62.9278766346776592 Ba
atom 7.7408693738203969 7.2765927075478825 62.9278807776321614 Ba
atom 4.9768035115425997 4.9710356639305084 60.4391118042533648 Zr
atom 9.9807650311539682 4.9349087543214498 60.4391159472079380 Zr
atom 4.9406766019335260 9.9749971835419142 60.4391076612988485 Zr
atom 9.9495061037322827 9.9437382561202305 60.4391118042533506 Zr
atom 4.9624890593807773 4.9781455625954782 65.4545618813971259 Zr
atom 9.9736551324890375 4.9492232064832669 65.4545660243516068 Zr
atom 4.9335667032685775 9.9893116357037162 65.4545577384423609 Zr
atom 9.9351916515704772 9.9508481547851630 65.4545618813971117 Zr
atom 4.7050785565732420 4.6393816658024543 57.9296822210398261 S
atom 10.3124190292820259 5.2066337092908022 57.9296863639943211 S
atom 5.2723306000615819 10.2467221385112559 57.9296780780852814 S
atom 9.6777811487629464 9.6120842579921852 57.9296822210398332 S
atom 5.2379512859918886 5.3030824436758275 62.9370598835007797 S
atom 9.6487182514086509 4.6737609798721369 62.9370640264553458 S
atom 4.6086298221882256 9.7138494090925889 62.9370557405461852 S
atom 10.2106538781816116 10.2757850358655229 62.9370598835007797 S
atom 5.3726765510446590 2.4669172506384665 60.7486728490611867 S
atom 9.6133858170374662 2.4361354387738667 60.1081676500890154 S
atom 4.5732973878170338 7.4762238679943032 60.1081593641799401 S
atom 10.3453791432343678 7.4396198428281748 60.7486728490612151 S
atom 5.3795750436762422 2.4703891631015145 65.1217474117710680 S
atom 9.6121560573882352 2.4400252138203120 65.7461929350379535 S
atom 4.5720676281677752 7.4801136430407578 65.7461846491287645 S
atom 10.3522776358659705 7.4430917552912383 65.1217474117710822 S
atom 2.4720924230358610 4.6064215518501266 60.7486687061066917 S
atom 7.4755768270901815 5.3384148780470202 60.1081635071345417 S
atom 2.4354883978697108 10.3785033072675077 60.1081552212254380 S
atom 7.4447950152255613 9.5791241440398291 60.7486687061066917 S
atom 2.4686205105728201 4.5995230592185559 65.1217432688166156 S
atom 7.4716870520437517 5.3396446376962574 65.7461887920834158 S
atom 2.4315986228232722 10.3797330669166907 65.7461805061744826 S
atom 7.4413231027625253 9.5722256514082655 65.1217432688166156 S
atom 2.2207458423199080 2.6762881586706375 67.8992951584511815 Ba
atom 7.3028099442241503 2.7182638313544283 67.8992993014057902 Ba
atom 2.2627215150036926 7.7583522605748865 67.8992910154966722 Ba
atom 7.1934484345096141 7.6489907508603574 67.8992951584511673 Ba
atom 2.6190708117165746 2.3157622010325247 72.6891516904318138 Ba
atom 7.6633359018622720 2.3199388619577590 72.6891558333863372 Ba
atom 2.6232474726418102 7.3600272911782127 72.6891475474773188 Ba
atom 7.5917734039062807 7.2884647932222348 72.6891516904318138 Ba
atom 4.9880145323620804 4.9647342645045764 70.5074920529140741 Zr
atom 9.9870664305799437 4.9236977335019594 70.5074961958685833 Zr
atom 4.9469780013594988 9.9637861627224016 70.5074879099596359 Zr
atom 9.9607171245517865 9.9374368566942675 70.5074920529140741 Zr
atom 4.7189901897293858 4.6673181723430801 67.9476246809363715 S
atom 10.2844825227414383 5.1927220761346806 67.9476288238908666 S
atom 5.2443940935209499 10.2328105053551521 67.9476205379817344 S
atom 9.6916927819190697 9.6400207645328049 67.9476246809363431 S
atom 5.1474778843605753 5.2259524247997167 73.0139401731929780 S
atom 9.7258482702847733 4.7642343815034645 73.0139443161475867 S
atom 4.6857598410643213 9.8043228107239386 73.0139360302385541 S
atom 10.1201804765502779 10.1986550169894077 73.0139401731929922 S
atom 5.2760076147677175 2.4711579139460107 70.6807894093937392 S
atom 9.6694546612356209 2.4405289530444976 70.1280933580635377 S
atom 4.6293662320151627 7.4806173822649447 70.1280850721544908 S
atom 10.2487102069574085 7.4438605061357324 70.6807894093937392 S
atom 2.4678517597283309 4.7030904881270725 70.6807852664392158 S
atom 7.4711833128195639 5.2823460338488779 70.1280892151090001 S
atom 2.4310948835990858 10.3224344630693370 70.1280809291999532 S
atom 7.4405543519180224 9.6757930803168044 70.6807852664391731 S
