#=======================================================
# FHI-aims file: sym_relax/sym_relax_RP_2_RxRyRz_RxRyRz.in
# Created using the Atomic Simulation Environment (ASE)
# Fri Mar 14 10:21:40 2025
#=======================================================
lattice_vector 10.0883903084759261 0.1462339846142190 0.0005794360248778 
lattice_vector 0.1462339846142190 10.0883903084759261 -0.0005794360248778 
lattice_vector -0.0015295395289652 0.0015295395289652 25.4318616773689250 
atom -0.0908902311856329 -0.0908833311006158 0.2763118075265030 Ba
atom 5.1350784853385774 0.1640072234927412 0.2766015255389415 Ba
atom 0.1640003234077252 5.1350853854236016 0.2760220895140639 Ba
atom 5.0264219153594292 5.0264288154444525 0.2763118075265029 Ba
atom 0.0271509842616180 0.0277392686958349 4.8907426302632535 Ba
atom 5.0164558855421175 0.0459660080454907 4.8910323482756990 Ba
atom 0.0453777236112738 5.0170441699763346 4.8904529122508205 Ba
atom 5.1444631308066846 5.1450514152409053 4.8907426302632535 Ba
atom 2.5543888261645868 2.5546594947136536 2.3530604030771078 Zr
atom 7.6068478060693838 2.6360403126875869 2.3533501210895476 Zr
atom 2.6357696441385214 7.6071184746184342 2.3527706850646681 Zr
atom 7.6717009727096590 7.6719716412587218 2.3530604030771065 Zr
atom 2.5540712102794307 2.5549771105988106 7.4284248574494045 Zr
atom 7.6065301901842215 2.6363579285727421 7.4287145754618402 Zr
atom 2.6354520282533671 7.6074360905036036 7.4281351394369635 Zr
atom 7.6713833568245029 7.6722892571438797 7.4284248574494045 Zr
atom 2.7924026049142077 2.7923992998516418 -0.1389098943049078 S
atom 7.3691080009313863 2.3980265339379709 -0.1386201762924691 S
atom 2.3980298390005377 7.3691046958688249 -0.1391996123173472 S
atom 7.9097147514592736 7.9097114463967140 -0.1389098943049078 S
atom 2.2824996014382903 2.2830878858725070 4.8907426302632535 S
atom 7.8784194149105122 2.9079295374138887 4.8910323482756990 S
atom 2.9073412529796703 7.8790076993447347 4.8904529122508205 S
atom 7.3998117479833621 7.4004000324175889 4.8907426302632535 S
atom 2.5219960711974760 0.0366868821674181 2.1967058599859608 S
atom 7.5661122510069445 0.1098339495474450 2.7019202922077499 S
atom 2.5950340890760955 5.0809121114783107 2.7013408561828709 S
atom 7.6393082177425518 5.1539990287124917 2.1967058599859612 S
atom 2.5216107986062695 0.0370183945739077 7.5850691185529904 S
atom 7.5658849272727151 0.1101053118080974 7.0804341223560732 S
atom 2.5948067653418581 5.0811834737389523 7.0798546863311893 S
atom 7.6389229451513367 5.1543305411189673 7.5850691185529904 S
atom 0.0364301101396904 2.5221990830404879 2.1964161419735229 S
atom 5.0805951893047236 2.5953950497760796 2.7016305741953097 S
atom 0.1095170273738815 7.5664732117069331 2.7010511381704343 S
atom 5.1537422566847502 7.6395112295855547 2.1964161419735229 S
atom 0.0360985977332007 2.5225843556316976 7.5847794005405520 S
atom 5.0803238270440882 2.5956223735103165 7.0801444043436428 S
atom 0.1092456651132281 7.5667005354411714 7.0795649683187598 S
atom 5.1534107442782737 7.6398965021767706 7.5847794005405520 S
atom -0.0914716155348331 -0.0903019467514157 9.5051734530000100 Ba
atom 5.1344971009893863 0.1645886078419416 9.5054631710124475 Ba
atom 0.1634189390585247 5.1356667697727953 9.5048837349875761 Ba
atom 5.0258405310102292 5.0270101997936534 9.5051734530000100 Ba
atom 2.7918110154174229 2.7929908893484243 9.9203951548314180 S
atom 7.3685164114346007 2.3986181234347566 9.9206848728438572 S
atom 2.3974382495037485 7.3696962853656149 9.9201054368189858 S
atom 7.9091231619624960 7.9103030358934987 9.9203951548314180 S
atom 2.4670010723224172 2.4685375119364035 12.9922426462109719 Ba
atom 7.6929697888466322 2.7234280665297610 12.9925323642234041 Ba
atom 2.7218916269157778 7.6945062284606216 12.9919529281985362 Ba
atom 7.5843132188674840 7.5858496584814716 12.9922426462109719 Ba
atom 2.5850422877696699 2.5871601117328518 17.6066734689477116 Ba
atom 7.5743471890501803 2.6053868510825051 17.6069631869601579 Ba
atom 2.6032690271193237 7.5764650130133617 17.6063837509352759 Ba
atom 7.7023544343147323 7.7044722582779253 17.6066734689477116 Ba
atom 5.1122801296726488 5.1140803377506661 15.0689912417615748 Zr
atom 10.1647391095774253 5.1954611557246073 15.0692809597740105 Zr
atom 5.1936609476465865 10.1665393176554648 15.0687015237491391 Zr
atom 10.2295922762177103 10.2313924842957409 15.0689912417615748 Zr
atom 5.1119625137874882 5.1143979536358346 20.1443556961338786 Zr
atom 10.1644214936922541 5.1957787716097643 20.1446454141463285 Zr
atom 5.1933433317614126 10.1668569335406076 20.1440659781214606 Zr
atom 10.2292746603325639 10.2317101001808961 20.1443556961338786 Zr
atom 5.3502939084222501 5.3518201428886645 12.5770209443795533 S
atom 9.9269993044394500 4.9574473769749883 12.5773106623919961 S
atom 4.9559211425085863 9.9285255389058271 12.5767312263671247 S
atom 10.4676060549673249 10.4691322894337180 12.5770209443795533 S
atom 4.8403909049463412 4.8425087289095323 17.6066734689477116 S
atom 10.4363107184185608 5.4673503804509007 17.6069631869601579 S
atom 5.4652325564877193 10.4384285423817467 17.6063837509352759 S
atom 9.9577030514914178 9.9598208754546143 17.6066734689477116 S
atom 5.0798873747055309 2.5961077252044351 14.9126366986704255 S
atom 10.1240035545150189 2.6692547925844643 15.4178511308922328 S
atom 5.1529253925841489 7.6403329545153253 15.4172716948673454 S
atom 10.1971995212505728 7.7134198717495108 14.9126366986704255 S
atom 5.0795021021143150 2.5964392376109258 20.3009999572374511 S
atom 10.1237762307807593 2.6695261548451126 19.7963649610405632 S
atom 5.1526980688499133 7.6406043167759679 19.7957855250156776 S
atom 10.1968142486593809 7.7137513841559908 20.3009999572374511 S
atom 2.5943214136477408 5.0816199260774990 14.9123469806579916 S
atom 7.6384864928127767 5.1548158928131000 15.4175614128797758 S
atom 2.6674083308819361 10.1258940547439504 15.4169819768549097 S
atom 7.7116335601928041 10.1989320726225863 14.9123469806579916 S
atom 2.5939899012412497 5.0820051986687096 20.3007102392250012 S
atom 7.6382151305521333 5.1550432165473339 19.7960752430281062 S
atom 2.6671369686212771 10.1261213784781887 19.7954958070032241 S
atom 7.7113020477863357 10.1993173452137764 20.3007102392249976 S
atom 2.4664196879732181 2.4691188962856012 22.2211042916844477 Ba
atom 7.6923884044974278 2.7240094508789645 22.2213940096968869 Ba
atom 2.7213102425665761 7.6950876128098198 22.2208145736720084 Ba
atom 7.5837318345182760 7.5864310428306707 22.2211042916844477 Ba
atom 5.3497023189254795 5.3524117323854359 22.6363259935158823 S
atom 9.9264077149426395 4.9580389664717766 22.6366157115283215 S
atom 4.9553295530118113 9.9291171284026216 22.6360362755034288 S
atom 10.4670144654705091 10.4697238789305374 22.6363259935158787 S
