#=======================================================
# FHI-aims file: sym_relax/sym_relax_RP_7_Rx0Mz_0-Ry0.in
# Created using the Atomic Simulation Environment (ASE)
# Mon Mar 17 15:49:49 2025
#=======================================================
lattice_vector 10.0297167166323735 -0.0000000000000000 0.0043749590403493 
lattice_vector -0.0000000000000000 10.0831230704150183 0.0000000000000000 
lattice_vector 0.0333277365743260 0.0000000000000000 75.3331308958724009 
atom -0.1750915042556421 0.0000000000000000 0.2186407508672391 Ba
atom 5.1518940911070352 -0.0000000000000000 0.2150303247823813 Ba
atom 0.1370357327908903 5.0415615352075074 0.2128428452622066 Ba
atom 4.8397668540605192 5.0415615352075074 0.2208282303874138 Ba
atom -0.0687182986562826 0.0000000000000000 4.9232693880901870 Ba
atom 4.8972350468581487 0.0000000000000000 4.8559814120469769 Ba
atom -0.1176233114580141 5.0415615352075074 4.8537939325268002 Ba
atom 4.9461400596598688 5.0415615352075074 4.9254568676103707 Ba
atom 2.4829400363965912 2.5031206186497652 2.2781379529206180 Zr
atom 7.4977983947127473 2.5384409165577417 2.2803254324407960 Zr
atom 2.4829400363965908 7.5800024517652576 2.2781379529206185 Zr
atom 7.4977983947127473 7.5446821538572770 2.2803254324407956 Zr
atom 2.5236178883811689 2.5184942860650898 7.3257989317924794 Zr
atom 7.5384762466973250 2.5230672491424135 7.3279864113126525 Zr
atom 2.5236178883811689 7.5646287843499307 7.3257989317924777 Zr
atom 7.5384762466973250 7.5600558212725897 7.3279864113126525 Zr
atom 2.4896086794184749 2.7826968163621273 -0.2050663596508465 S
atom 7.5044670377346234 2.2588647188453743 -0.2028788801306720 S
atom 2.4896086794184757 7.3004262540528906 -0.2050663596508464 S
atom 7.5044670377346234 7.8242583515696378 -0.2028788801306720 S
atom 2.5001022273568605 2.1305468949405513 4.8402587247549551 S
atom 7.5149605856729984 2.9110146402669530 4.8424462042751415 S
atom 2.5001022273568605 7.9525761754744577 4.8402587247549551 S
atom 7.5149605856729984 7.1721084301480591 4.8424462042751415 S
atom 2.4931639751282817 0.0000000000000000 2.0336611956691466 S
atom 7.4908126279709455 0.0000000000000000 2.6918690442081719 S
atom 2.4759542696547783 5.0415615352075074 2.6896815646879997 S
atom 7.5080223334444458 5.0415615352075074 2.0358486751893210 S
atom 2.8522921351702029 0.0000000000000000 7.7104475265131454 S
atom 7.2255802837926915 0.0000000000000000 6.9610820172801304 S
atom 2.2107219254765260 5.0415615352075074 6.9588945377599529 S
atom 7.8671504934863696 5.0415615352075074 7.7126350060333282 S
atom -0.0213861824206010 2.5184398853809964 2.4071164101073554 S
atom 4.9934721758955600 2.5231216498265105 2.4093038896275312 S
atom -0.0213861824206010 7.5646831850340144 2.4071164101073554 S
atom 4.9934721758955600 7.5600014205885033 2.4093038896275312 S
atom 0.0141494740660998 2.1833314196332267 7.3511172282127433 S
atom 5.0290078323822636 2.8582301155742851 7.3533047077329066 S
atom 0.0141494740660998 7.8997916507817862 7.3511172282127406 S
atom 5.0290078323822636 7.2248929548407386 7.3533047077329066 S
atom 0.1879240168028519 0.0000000000000000 9.8566901842961752 Ba
atom 5.1897407841882641 0.0000000000000000 9.8487878067630472 Ba
atom 0.1748824258720986 5.0415615352075074 9.8466003272428626 Ba
atom 5.2027823751189963 5.0415615352075074 9.8588776638163562 Ba
atom -0.1690553331217532 0.0000000000000000 14.8476930236900841 Ba
atom 4.8574862177157572 0.0000000000000000 14.8491296689061087 Ba
atom -0.1573721406003916 5.0415615352075074 14.8469421893859295 Ba
atom 4.8458030251943924 5.0415615352075074 14.8498805032102830 Ba
atom 2.5197442407871735 2.5228045439302860 12.3363084036565578 Zr
atom 7.5346025991033274 2.5187569912772161 12.3384958831767442 Zr
atom 2.5197442407871726 7.5603185264847212 12.3363084036565542 Zr
atom 7.5346025991033274 7.5643660791378018 12.3384958831767442 Zr
atom 2.5151033290271640 2.5207807676037537 17.3475383539412356 Zr
atom 7.5299616873433202 2.5207807676037537 17.3497258334614166 Zr
atom 2.5151033290271640 7.5623423028112615 17.3475383539412356 Zr
atom 7.5299616873433202 7.5623423028112615 17.3497258334614166 Zr
atom 2.5160687396928663 2.9036332132374296 9.8396456603058731 S
atom 7.5309270980090286 2.1379283219700724 9.8418331398260754 S
atom 2.5160687396928672 7.1794898571775843 9.8396456603058802 S
atom 7.5309270980090286 7.9451947484449308 9.8418331398260754 S
atom 2.5173673444815523 2.1407862313595087 14.8445777371472261 S
atom 7.5322257027977129 2.9007753038479960 14.8467652166674089 S
atom 2.5173673444815523 7.9423368390554936 14.8445777371472296 S
atom 7.5322257027977129 7.1823477665670268 14.8467652166674071 S
atom 2.8492080479753170 0.0000000000000000 11.9709913196559459 S
atom 7.1994668191238240 0.0000000000000000 12.7228603477520128 S
atom 2.1846084608076710 5.0415615352075074 12.7206728682318531 S
atom 7.8640664062914798 5.0415615352075074 11.9731787991761482 S
atom 2.8473451221293500 0.0000000000000000 17.7220119132115173 S
atom 7.1977198942411258 0.0000000000000000 16.9752522741910639 S
atom 2.1828615359249834 5.0415615352075074 16.9730647946709432 S
atom 7.8622034804455128 5.0415615352075074 17.7241993927316841 S
atom 0.0106661069697832 2.1731748017546297 12.3477153322265973 S
atom 5.0255244652859350 2.8683867334528812 12.3499028117467553 S
atom 0.0106661069697832 7.9099482686603855 12.3477153322265973 S
atom 5.0255244652859350 7.2147363369621340 12.3499028117467571 S
atom 0.0076741498690880 2.1729324453570147 17.3464446141811379 S
atom 5.0225325081852494 2.8686290898504931 17.3486320937012941 S
atom 0.0076741498690880 7.9101906250580054 17.3464446141811379 S
atom 5.0225325081852494 7.2144939805645274 17.3486320937012941 S
atom 0.1844036328599297 0.0000000000000000 19.8451962046721704 Ba
atom 5.1875787986547239 0.0000000000000000 19.8481345184964724 Ba
atom 0.1727204403385669 5.0415615352075074 19.8459470389762380 Ba
atom 5.1992619911760958 5.0415615352075074 19.8473836841923337 Ba
atom -0.1725757170646757 0.0000000000000000 24.8361990440661131 Ba
atom 4.8553242321822241 0.0000000000000000 24.8484763806395499 Ba
atom -0.1595341261339214 5.0415615352075074 24.8462889011193901 Ba
atom 4.8422826412514750 5.0415615352075074 24.8383865235862977 Ba
atom 2.5104624172671652 2.5187569912772148 22.3587683042258334 Zr
atom 7.5253207755833129 2.5228045439302855 22.3609557837459754 Zr
atom 2.5104624172671652 7.5643660791378018 22.3587683042258298 Zr
atom 7.5253207755833129 7.5603185264847221 22.3609557837459754 Zr
atom 2.5065887696731650 2.5230672491424140 27.3692777760899943 Zr
atom 7.5214471279893127 2.5184942860650890 27.3714652556101576 Zr
atom 2.5065887696731650 7.5600558212725897 27.3692777760900015 Zr
atom 7.5214471279893127 7.5646287843499271 27.3714652556101576 Zr
atom 2.5128393135727798 2.9007753038479960 19.8504989707351527 S
atom 7.5276976718889372 2.1407862313595087 19.8526864502553444 S
atom 2.5128393135727798 7.1823477665670268 19.8504989707351527 S
atom 7.5276976718889372 7.9423368390554936 19.8526864502553444 S
atom 2.5141379183614658 2.1379283219700715 24.8554310475765732 S
atom 7.5289962766776188 2.9036332132374305 24.8576185270967400 S
atom 2.5141379183614654 7.9451947484449308 24.8554310475765732 S
atom 7.5289962766776188 7.1794898571775843 24.8576185270967365 S
atom 2.8455981972466535 0.0000000000000000 21.9744038396505772 S
atom 7.1958569683951694 0.0000000000000000 22.7262728677466193 S
atom 2.1809986100790120 5.0415615352075074 22.7240853882264346 S
atom 7.8604565555628270 5.0415615352075074 21.9765913191707867 S
atom 2.8194847325778021 0.0000000000000000 27.7361821701224649 S
atom 7.1927728812002787 0.0000000000000000 26.9868166608894988 S
atom 2.1779145228841381 5.0415615352075074 26.9846291813693249 S
atom 7.8343430908939533 5.0415615352075074 27.7383696496426566 S
atom 0.0046821927683929 2.1731748017546306 22.3451738961356874 S
atom 5.0195405510845514 2.8683867334528821 22.3473613756558152 S
atom 0.0046821927683929 7.9099482686603855 22.3451738961356874 S
atom 5.0195405510845514 7.2147363369621340 22.3473613756558152 S
atom 0.0011988256720771 2.1833314196332254 27.3417720001495077 S
atom 5.0160571839882211 2.8582301155742860 27.3439594796696710 S
atom 0.0011988256720771 7.8997916507817880 27.3417720001495077 S
atom 5.0160571839882211 7.2248929548407386 27.3439594796696710 S
atom 0.0840665983944588 0.0000000000000000 29.7696198402721066 Ba
atom 5.1478299695123404 0.0000000000000000 29.8412827753556193 Ba
atom 0.1329716111961902 5.0415615352075074 29.8390952958354490 Ba
atom 5.0989249567106061 5.0415615352075074 29.7718073197922735 Ba
atom 0.1904398039938183 0.0000000000000000 34.4742484774950029 Ba
atom 4.8931709252634432 0.0000000000000000 34.4822338626202480 Ba
atom -0.1216874330527140 5.0415615352075074 34.4800463831000599 Ba
atom 5.2052981623099699 5.0415615352075074 34.4764359570151839 Ba
atom 2.5472666216577484 2.5384409165577417 32.4169387549618619 Zr
atom 7.5621249799738850 2.5031206186497661 32.4191262344819648 Zr
atom 2.5472666216577484 7.5446821538572770 32.4169387549618619 Zr
atom 7.5621249799738850 7.5800024517652558 32.4191262344819648 Zr
atom 2.5301044306974729 2.9110146402669548 29.8548179831275036 S
atom 7.5449627890136313 2.1305468949405513 29.8570054626476598 S
atom 2.5301044306974729 7.1721084301480591 29.8548179831275036 S
atom 7.5449627890136313 7.9525761754744595 29.8570054626476598 S
atom 2.5405979786358683 2.2588647188453752 34.9001430675332998 S
atom 7.5554563369520231 2.7826968163621273 34.9023305470535874 S
atom 2.5405979786358683 7.8242583515696413 34.9001430675332998 S
atom 7.5554563369520231 7.3004262540528924 34.9023305470535874 S
atom 2.5542523883995467 0.0000000000000000 32.0053951431944768 S
atom 7.5519010412422256 0.0000000000000000 32.6636029917335691 S
atom 2.5370426829260455 5.0415615352075074 32.6614155122134235 S
atom 7.5691107467157019 5.0415615352075074 32.0075826227146578 S
atom 0.0367344821587770 2.5184398853809964 32.2857728182549337 S
atom 5.0515928404749344 2.5231216498265114 32.2879602977750437 S
atom 0.0367344821587770 7.5646831850340144 32.2857728182549479 S
atom 5.0515928404749344 7.5600014205885033 32.2879602977750437 S
atom 2.5387091804921238 2.3572647893894203 38.0108422389404979 Ba
atom 7.5535675388082728 2.6842967458180937 38.0130297184606860 Ba
atom 2.5387091804921238 7.7258582810255998 38.0108422389404979 Ba
atom 7.5535675388082728 7.3988263245969259 38.0130297184606860 Ba
atom 2.5370097291771545 2.5439105878456969 42.6894767837130402 Ba
atom 7.5518680874933022 2.4976509473618180 42.6916642632332426 Ba
atom 2.5370097291771545 7.5392124825693330 42.6894767837130402 Ba
atom 7.5518680874933022 7.5854721230531936 42.6916642632332426 Ba
atom 5.0252094480561826 5.0415615352075074 40.0702451517167049 Zr
atom 10.0802751516103690 5.0415615352075074 40.0739423438614466 Zr
atom 5.0654167932942027 10.0831230704150148 40.0717548643412727 Zr
atom 10.0400678063723419 10.0831230704150148 40.0724326312369570 Zr
atom 5.0424613917058272 5.0415615352075074 45.0889183367761817 Zr
atom 10.0590576294668992 5.0415615352075074 45.0917515506155411 Zr
atom 5.0441992711507222 10.0831230704150148 45.0895640710953529 Zr
atom 10.0573197500220068 10.0831230704150148 45.0911058162964338 Zr
atom 5.3334223397785596 5.0415615352075074 37.5872492259749009 S
atom 9.7742674026709651 5.0415615352075074 37.5906507657400866 S
atom 4.7594090443548369 10.0831230704150148 37.5884632862198558 S
atom 10.3482806980946922 10.0831230704150148 37.5894367054950322 S
atom 4.5777540687544445 5.0415615352075074 42.6155309242480129 S
atom 10.5259780522051152 5.0415615352075074 42.6184400520848286 S
atom 5.5111196938889826 10.0831230704150148 42.6162525725646688 S
atom 9.5926124270705913 10.0831230704150148 42.6177184037681869 S
atom 5.0453225978788527 2.5208445459587856 40.2061117160225905 S
atom 10.0601809561950066 2.5207169892487222 40.2082991955427076 S
atom 5.0453225978788527 7.5622785244562234 40.2061117160225905 S
atom 10.0601809561950066 7.5624060811662996 40.2082991955426934 S
atom 5.0433833272124531 2.5207626985982521 45.1066130483293222 S
atom 10.0582416855285928 2.5207988366092526 45.1088005278494819 S
atom 5.0433833272124531 7.5623603718167693 45.1066130483293222 S
atom 10.0582416855285928 7.5623242338057644 45.1088005278494961 S
atom 2.5380612074007036 5.0415615352075074 39.7595970572095894 S
atom 7.5525276631148204 5.0415615352075074 40.5204420975683988 S
atom 2.5376693047986718 10.0831230704150148 40.5182546180481680 S
atom 7.5529195657168513 10.0831230704150148 39.7617845367297988 S
atom 2.5357183233639042 5.0415615352075074 45.5733265159131804 S
atom 7.5510363198106294 5.0415615352075074 44.6215144050084476 S
atom 2.5361779614944697 10.0831230704150148 44.6193269254882239 S
atom 7.5505766816800532 10.0831230704150148 45.5755139954333757 S
atom 2.5348426029871316 2.5160481160135801 47.5936504178583490 Ba
atom 7.5497009613032802 2.5255134191939255 47.5958378973784519 Ba
atom 2.5348426029871316 7.5670749544014306 47.5936504178583490 Ba
atom 7.5497009613032802 7.5576096512210835 47.5958378973784519 Ba
atom 2.5328308888528706 2.5258955707249222 52.5397871660279705 Ba
atom 7.5476892471690187 2.5156659644825914 52.5419746455480592 Ba
atom 2.5328308888528701 7.5572274996900939 52.5397871660279776 Ba
atom 7.5476892471690205 7.5674571059324194 52.5419746455480734 Ba
atom 5.0428482010098641 5.0415615352075074 50.0528734695606516 Zr
atom 10.0545829325553431 5.0415615352075074 50.0553161218483780 Zr
atom 5.0397245742392247 10.0831230704150148 50.0531286423281117 Zr
atom 10.0577065593260233 10.0831230704150148 50.0550609490808043 Zr
atom 5.0391963764724146 5.0415615352075074 55.0151975416374626 Zr
atom 10.0540547347885472 5.0415615352075074 55.0173850211576720 Zr
atom 5.0391963764724146 10.0831230704150148 55.0151975416374626 Zr
atom 10.0540547347885472 10.0831230704150148 55.0173850211576720 Zr
atom 5.5495685207962424 5.0415615352075074 47.5774338886970298 S
atom 9.5498177256061840 5.0415615352075074 47.5793688405257669 S
atom 4.5349593672900470 10.0831230704150148 47.5771813610055645 S
atom 10.5644268791124087 10.0831230704150148 47.5796213682171327 S
atom 4.5324118138484275 5.0415615352075074 52.5353444785845056 S
atom 10.5629722724376176 5.0415615352075074 52.5380120891478342 S
atom 5.5481139141214442 10.0831230704150148 52.5358246096277028 S
atom 9.5472701721645912 10.0831230704150148 52.5375319581047791 S
atom 5.0412579140709433 2.5207741526677250 50.0599314339930359 S
atom 10.0561162723870954 2.5207873825397824 50.0621189135132028 S
atom 5.0412579140709415 7.5623489177472774 50.0599314339930359 S
atom 10.0561162723870954 7.5623356878752332 50.0621189135132028 S
atom 5.0391963764724146 2.5207773589459319 55.0151975416374626 S
atom 10.0540547347885472 2.5207841762615750 55.0173850211576720 S
atom 5.0391963764724146 7.5623457114690771 55.0151975416374626 S
atom 10.0540547347885472 7.5623388941534389 55.0173850211576720 S
atom 2.5340272199744853 5.0415615352075074 49.5709430385651544 S
atom 7.5484940165065826 5.0415615352075074 50.5499473231470731 S
atom 2.5336356581904411 10.0831230704150148 50.5477598436268565 S
atom 7.5488855782906406 10.0831230704150148 49.5731305180854349 S
atom 2.5315492504046961 5.0415615352075074 55.5025732791499351 S
atom 7.5468435025401250 5.0415615352075074 54.5278218041249261 S
atom 2.5319851442239658 10.0831230704150148 54.5256343246048729 S
atom 7.5464076087208678 10.0831230704150148 55.5047607586701446 S
atom 2.5307035057757901 2.5156659644825923 57.4884204377267949 Ba
atom 7.5455618640919528 2.5258955707249195 57.4906079172470328 Ba
atom 2.5307035057757901 7.5674571059324194 57.4884204377268091 Ba
atom 7.5455618640919528 7.5572274996900939 57.4906079172470612 Ba
atom 2.5286917916415335 2.5255134191939246 62.4345571858964448 Ba
atom 7.5435501499576834 2.5160481160135784 62.4367446654166045 Ba
atom 2.5286917916415335 7.5576096512210853 62.4345571858964590 Ba
atom 7.5435501499576834 7.5670749544014289 62.4367446654166045 Ba
atom 5.0355445519349553 5.0415615352075074 59.9775216137144440 Zr
atom 10.0535265370217477 5.0415615352075074 59.9794539204670443 Zr
atom 5.0386681787055805 10.0831230704150148 59.9772664409468703 Zr
atom 10.0504029102511261 10.0831230704150148 59.9797090932344474 Zr
atom 5.0359313612389736 5.0415615352075074 64.9414767464988358 Zr
atom 10.0490518401102538 5.0415615352075074 64.9430184916997320 Zr
atom 5.0341934817940839 10.0831230704150148 64.9408310121796148 Zr
atom 10.0507897195551248 10.0831230704150148 64.9436642260191803 Zr
atom 5.5459809390963946 5.0415615352075074 57.4950506046903840 S
atom 9.5451371971395229 5.0415615352075074 57.4967579531675526 S
atom 4.5302788388233752 10.0831230704150148 57.4945704736473502 S
atom 10.5608392974125529 10.0831230704150148 57.4972380842106148 S
atom 4.5288242321485841 5.0415615352075074 62.4529611945779735 S
atom 10.5582917439709281 5.0415615352075074 62.4554012017896270 S
atom 5.5434333856547662 10.0831230704150148 62.4532137222693606 S
atom 9.5436825904647282 10.0831230704150148 62.4551486740980977 S
atom 5.0371348388738699 2.5207741526677259 59.9704636492819674 S
atom 10.0519931971900185 2.5207873825397815 59.9726511288020703 S
atom 5.0371348388738699 7.5623489177472791 59.9704636492819816 S
atom 10.0519931971900185 7.5623356878752332 59.9726511288020703 S
atom 5.0350094257323512 2.5207626985982521 64.9237820349455745 S
atom 10.0498677840485460 2.5207988366092517 64.9259695144659617 S
atom 5.0350094257323512 7.5623603718167693 64.9237820349455745 S
atom 10.0498677840485460 7.5623242338057626 64.9259695144659617 S
atom 2.5298987364382124 5.0415615352075074 59.4804477601278947 S
atom 7.5443655329703212 5.0415615352075074 60.4594520447098134 S
atom 2.5295071746541709 10.0831230704150148 60.4572645651895542 S
atom 7.5447570947543827 10.0831230704150148 59.4826352396481894 S
atom 2.5273564331341891 5.0415615352075074 65.4088806782664989 S
atom 7.5426744295809076 5.0415615352075074 64.4570685673618726 S
atom 2.5278160712647453 10.0831230704150148 64.4548810878416134 S
atom 7.5422147914503421 10.0831230704150148 65.4110681577868149 S
atom 2.5265246654515066 2.4976509473618163 67.3387308200418033 Ba
atom 7.5413830237676720 2.5439105878456969 67.3409182995618352 Ba
atom 2.5265246654515066 7.5854721230531936 67.3387308200418033 Ba
atom 7.5413830237676720 7.5392124825693312 67.3409182995618352 Ba
atom 2.5248252141365470 2.6842967458180946 72.0173653648142675 Ba
atom 7.5396835724527138 2.3572647893894221 72.0195528443343704 Ba
atom 2.5248252141365470 7.3988263245969259 72.0173653648142675 Ba
atom 7.5396835724527138 7.7258582810255998 72.0195528443343704 Ba
atom 5.0531833048886243 5.0415615352075074 69.9601499315579218 Zr
atom 10.0278343179667697 5.0415615352075074 69.9608276984536417 Zr
atom 5.0129759596506069 10.0831230704150148 69.9586402189336951 Zr
atom 10.0680416632047915 10.0831230704150148 69.9623374110781100 Zr
atom 5.5006386841903634 5.0415615352075074 67.4148641590271467 S
atom 9.5821314173719969 5.0415615352075074 67.4163299902304232 S
atom 4.5672730590558297 10.0831230704150148 67.4141425107100360 S
atom 10.5154970425065315 10.0831230704150148 67.4170516385472212 S
atom 4.7449704131662553 5.0415615352075074 72.4431458573001521 S
atom 10.3338420669061417 5.0415615352075074 72.4441192765753215 S
atom 5.3189837085899772 10.0831230704150148 72.4419317970551759 S
atom 9.7598287714824163 10.0831230704150148 72.4453333368202124 S
atom 5.0330701550659569 2.5208445459587856 69.8242833672525194 S
atom 10.0479285133821072 2.5207169892487213 69.8264708467726365 S
atom 5.0330701550659569 7.5622785244562252 69.8242833672525194 S
atom 10.0479285133821072 7.5624060811662979 69.8264708467726365 S
atom 2.5258650898299866 5.0415615352075074 69.5099529857063914 S
atom 7.5403315455441078 5.0415615352075074 70.2707980260654779 S
atom 2.5254731872279579 10.0831230704150148 70.2686105465453608 S
atom 7.5407234481461396 10.0831230704150148 69.5121404652266506 S
