#=======================================================
# FHI-aims file: sym_relax/sym_relax_RP_9_RxRyRz_RxRy-Rz.in
# Created using the Atomic Simulation Environment (ASE)
# Mon Mar 17 16:50:56 2025
#=======================================================
lattice_vector 9.9354676141649314 -0.0079468171941749 -0.0000000000000000 
lattice_vector -0.0079468171941752 9.9354676141649385 -0.0000000000000000 
lattice_vector 0.0000000000000000 -0.0000000000000000 97.3342352751513573 
atom 0.0489030932398770 -0.1221974017401556 0.1856224132738145 Ba
atom 5.0899312088226294 -0.0528765018369641 0.1856224132738143 Ba
atom 0.1182239931430672 4.9188307138425964 0.1856224132738143 Ba
atom 5.0126634917252524 4.8415629967452229 0.1856224132738143 Ba
atom -0.2523138644034502 0.1855809831274882 5.0316198766337736 Ba
atom 4.7821528239549647 0.2483404558063637 5.0316198766337736 Ba
atom -0.1895543917245751 5.2200476714859176 5.0316198766337736 Ba
atom 4.7114465340819160 5.1493413816128770 5.0316198766337736 Ba
atom 2.4552213674406547 2.5051857166938487 2.4088544859257888 Zr
atom 7.4263084888739739 2.5045656224476343 2.4088544859257888 Zr
atom 2.4546012731944300 7.4762728381272048 2.4088544859257888 Zr
atom 7.4189817659260306 7.4689461151792438 2.4088544859257888 Zr
atom 2.4108893172854229 2.5176633609056434 7.5115923913856602 Zr
atom 7.4138308446621926 2.5488976726028651 7.5115923913856602 Zr
atom 2.4421236289826451 7.5206048882824232 7.5115923913856602 Zr
atom 7.3746497157707971 7.4814237593910189 7.5115923913856602 Zr
atom 2.5694085961820412 2.6813138539823176 -0.1124842105767682 S
atom 7.2501803515855112 2.3903783937062602 -0.1124842105767682 S
atom 2.2784731359059784 7.3620856093858160 -0.1124842105767682 S
atom 7.5331689946674203 7.6450742524677029 -0.1124842105767682 S
atom 2.2560849549858202 2.3033448577104036 4.9951426362527682 S
atom 7.6281493478574385 2.7037020349024701 4.9951426362527682 S
atom 2.6564421321778848 7.6754092505820273 4.9951426362527682 S
atom 7.2198453534711877 7.2671052561957836 4.9951426362527682 S
atom 2.7943191703000192 0.0310649582692034 2.3019765619620771 S
atom 7.0590056300216135 0.0297956167877971 2.7146756843860889 S
atom 2.0872984143420741 5.0015028324673638 2.7146756843860889 S
atom 7.7580795687853907 4.9948253567545908 2.3019765619620771 S
atom 2.9466916476724156 0.0401299228853664 7.7131821583234395 S
atom 6.9510125130710527 0.0366005261319721 7.3594300415732068 S
atom 1.9793052973915035 5.0083077418115334 7.3594300415732068 S
atom 7.9104520461577996 5.0038903213707577 7.7131821583234395 S
atom -0.0350383668662907 2.1734146367824474 2.3019765619620771 S
atom 4.9299913731004894 2.8724885755462193 2.7146756843860889 S
atom -0.0417158425790598 7.8441957912257783 2.7146756843860889 S
atom 4.9287220316190821 7.1371750352678394 2.3019765619620771 S
atom -0.0441033314824530 2.0210421594100465 7.7131821583234395 S
atom 4.9231864637563278 2.9804816924967916 7.3594300415732086 S
atom -0.0485207519232356 7.9521889081763488 7.3594300415732086 S
atom 4.9196570670029098 6.9848025578954260 7.7131821583234395 S
atom 0.0042225909922078 -0.0796866389713564 10.0752012310624313 Ba
atom 5.0474204460538230 -0.0081959995892953 10.0752012310624313 Ba
atom 0.0757132303742684 4.9635112160902599 10.0752012310624313 Ba
atom 4.9679829894775862 4.8840737595140391 10.0752012310624313 Ba
atom 0.0465947940610269 0.0068575768258550 15.1658355130080302 Ba
atom 4.9608762302566074 -0.0505682026581146 15.1658355130080302 Ba
atom -0.0108309854229427 4.9211390130214498 15.1658355130080302 Ba
atom 5.0103551925463981 4.9706179753112432 15.1658355130080302 Ba
atom 2.4903626801238712 2.4838727647064478 12.6067864750473593 Zr
atom 7.4476214408614023 2.4694243097644231 12.6067864750473593 Zr
atom 2.4759142251818465 7.4411315254439749 12.6067864750473593 Zr
atom 7.4541230786092418 7.4476331631918287 12.6067864750473593 Zr
atom 2.4837818719559341 2.4800220510306614 17.7094916753368139 Zr
atom 7.4514721545371669 2.4760051179323561 17.7094916753368139 Zr
atom 2.4797649388576324 7.4477123336119080 17.7094916753368139 Zr
atom 7.4475422704412937 7.4437824495160472 17.7094916753368139 Zr
atom 2.5614161163127376 2.6407682175521199 10.0714471785480679 S
atom 7.2907259880157103 2.3983708735755487 10.0714471785480679 S
atom 2.3190187723361686 7.3700780892551192 10.0714471785480679 S
atom 7.5251765147980825 7.6045286160375065 10.0714471785480679 S
atom 2.4235021669196199 2.4511197716889890 15.1651748145950211 S
atom 7.4803744338788434 2.5362848229686703 15.1651748145950211 S
atom 2.5086672181992973 7.5079920386482293 15.1651748145950211 S
atom 7.3872625654049866 7.4148801701743627 15.1651748145950211 S
atom 1.9818808815707043 0.0018998488398302 12.5643881999743527 S
atom 7.9830867147554043 -0.0009711104959491 12.6802429654067126 S
atom 3.0113794990758569 4.9707361051836072 12.6802429654067126 S
atom 6.9456412800560638 4.9656602473252169 12.5643881999743527 S
atom 3.0077150845998148 -0.0000819867823984 17.7393653734632153 S
atom 6.9289801109890892 -0.0042909948008826 17.6925464833169954 S
atom 1.9572728953095451 4.9674162208786861 17.6925464833169954 S
atom 7.9714754830851984 4.9636784117029871 17.7393653734632153 S
atom -0.0058732574369174 2.9858529255117592 12.5643881999743527 S
atom 4.9607581003842363 1.9484074908124269 12.6802429654067090 S
atom -0.0109491152953135 6.9201147064919830 12.6802429654067126 S
atom 4.9578871410484524 7.9496133239971627 12.5643881999743527 S
atom -0.0038914218146885 1.9600187224826549 17.7393653734632153 S
atom 4.9640779846891503 3.0025140945787494 17.6925464833169954 S
atom -0.0076292309903810 7.9742213102582920 17.6925464833169954 S
atom 4.9598689766706867 6.9237791209680246 17.7393653734632153 S
atom -0.0090061151667228 -0.0147974206180229 20.2634083169244974 Ba
atom 4.9825312277004770 0.0050327065696353 20.2634083169244974 Ba
atom 0.0108240120209351 4.9767399222491910 20.2634083169244974 Ba
atom 4.9547542833186444 4.9489629778673692 20.2634083169244974 Ba
atom 0.0090061151667228 0.0147974206180229 25.3620144683027391 Ba
atom 4.9529363864644314 -0.0129795237638105 25.3620144683027391 Ba
atom -0.0187708292151107 4.9587276919157608 25.3620144683027391 Ba
atom 4.9727665136520951 4.9785578191034059 25.3620144683027391 Ba
atom 2.4818801992426853 2.4818801992426924 22.8127113926136289 Zr
atom 7.4496140063251479 2.4779067906456027 22.8127113926136289 Zr
atom 2.4779067906455992 7.4496140063251630 22.8127113926136289 Zr
atom 7.4456405977280520 7.4456405977280760 22.8127113926136289 Zr
atom 2.4799785265294334 2.4837383474547252 27.9159311098903942 Zr
atom 7.4477558581131076 2.4798084633588537 27.9159311098903942 Zr
atom 2.4760486424335695 7.4515156790384234 27.9159311098903942 Zr
atom 7.4437389250148067 7.4474987459401083 27.9159311098903942 Zr
atom 2.5022437265450335 2.5085918050252483 20.2633691574828347 S
atom 7.4229024005425837 2.4575432633432577 20.2633691574828347 S
atom 2.4511951848630336 7.4292504790228184 20.2633691574828347 S
atom 7.4660041250304134 7.4723522035106402 20.2633691574828347 S
atom 2.4615166719403363 2.4551685934601375 25.3620536277443946 S
atom 7.4763256121077015 2.4982703179479477 25.3620536277443946 S
atom 2.5046183964281585 7.4699775336275156 25.3620536277443946 S
atom 7.4252770704257154 7.4189289919455197 25.3620536277443946 S
atom 1.9601576027909564 -0.0020668692187907 22.7954170549014030 S
atom 7.9753100113739599 -0.0058799479753838 22.8300057303258264 S
atom 3.0036027956944129 4.9658272677041655 22.8300057303258264 S
atom 6.9239180012763342 4.9616935292666016 22.7954170549014030 S
atom 3.0064875031758227 -0.0036558223932927 27.9328763019101984 S
atom 6.9277525295650868 -0.0078648304117768 27.8860574117639928 S
atom 1.9560453138855656 4.9638423852677800 27.8860574117639928 S
atom 7.9702479016612076 4.9601045760920908 27.9328763019101984 S
atom -0.0019065393782967 3.0075762042915142 22.7954170549014030 S
atom 4.9656669378636726 1.9561841941938738 22.8300057303258264 S
atom -0.0060402778158792 6.9278914098734390 22.8300057303258264 S
atom 4.9618538591070767 7.9713366027768915 22.7954170549014030 S
atom -0.0003175862037952 1.9612463039066401 27.9328763019101984 S
atom 4.9676518203000652 3.0037416760027278 27.8860574117639928 S
atom -0.0040553953794866 7.9754488916822970 27.8860574117639928 S
atom 4.9634428122815955 6.9250067023920323 27.9328763019101984 S
atom -0.0465947940610268 -0.0068575768258550 30.4595872722191814 Ba
atom 4.9745913839083071 0.0426213854639394 30.4595872722191814 Ba
atom 0.0028841682287672 5.0143286011434922 30.4595872722191814 Ba
atom 4.9171656044243406 4.9569028216595212 30.4595872722191814 Ba
atom -0.0042225909922078 0.0796866389713564 35.5502215541647431 Ba
atom 4.8880471681111031 0.0002491823951200 35.5502215541647431 Ba
atom -0.0836600475684441 4.9719563980746875 35.5502215541647431 Ba
atom 4.9595378074931586 5.0434470374567395 35.5502215541647431 Ba
atom 2.4733977183614981 2.4798876337789397 33.0186363101797724 Zr
atom 7.4516065717889006 2.4863892715267890 33.0186363101797724 Zr
atom 2.4798993561093563 7.4580964872063440 33.0186363101797724 Zr
atom 7.4371581168468799 7.4436480322643268 33.0186363101797724 Zr
atom 2.5528710811999438 2.4460970375797424 38.1138303938415817 Zr
atom 7.4853971679880980 2.4069159086883429 38.1138303938415817 Zr
atom 2.5136899523085505 7.3786231243679010 38.1138303938415817 Zr
atom 7.5166314796853300 7.4098574360651224 38.1138303938415817 Zr
atom 2.5402582315657440 2.5126406267963959 30.4602479706321603 S
atom 7.4188535787714285 2.4195287583225413 30.4602479706321603 S
atom 2.4471463630918908 7.3912359740020976 30.4602479706321603 S
atom 7.5040186300511111 7.4764010252817803 30.4602479706321603 S
atom 2.4023442821726371 2.3229921809332676 35.5539756066791526 S
atom 7.6085020246345776 2.5574427077156558 35.5539756066791526 S
atom 2.6367948089550266 7.5291499233952077 35.5539756066791526 S
atom 7.3661046806580082 7.2867525794186445 35.5539756066791526 S
atom 1.9523808994095102 -0.0069757066982261 32.9451798198204244 S
atom 7.9535867325942293 -0.0098466660340046 33.0610345852528553 S
atom 2.9818795169146677 4.9618605496455519 33.0610345852528553 S
atom 6.9161412978948720 4.9567846917871616 32.9451798198204244 S
atom 2.9844551010938596 -0.0445473433261475 38.2659927436540102 S
atom 6.9887759664924998 -0.0480767400795416 37.9122406269038379 S
atom 2.0170687508129626 4.9236304756000155 37.9122406269038379 S
atom 7.9482154995792289 4.9192130551592337 38.2659927436540102 S
atom 0.0030022981011380 3.0153529076729502 32.9451798198204244 S
atom 4.9696336559222951 1.9779074729736223 33.0610345852528553 S
atom -0.0020735597572584 6.9496146886531660 33.0610345852528553 S
atom 4.9667626965865113 7.9791133061583519 32.9451798198204244 S
atom 0.0405739347290595 1.9832787059885988 38.2659927436540102 S
atom 5.0078637299678359 2.9427182390753384 37.9122406269038379 S
atom 0.0361565142882778 7.9144254547549053 37.9122406269038379 S
atom 5.0043343332144259 6.9470391044739772 38.2659927436540102 S
atom 0.2523138644034502 -0.1855809831274882 40.5938029085934105 Ba
atom 5.1533147902099401 -0.2562872730005388 40.5938029085934105 Ba
atom 0.1816075745303997 4.7154199426790218 40.5938029085934105 Ba
atom 5.2160742628888217 4.7781794153578874 40.5938029085934105 Ba
atom -0.0489030932398769 0.1221974017401555 45.4398003719534316 Ba
atom 4.8455364053422940 0.0449296846427890 45.4398003719534316 Ba
atom -0.1261708103372426 5.0166369003223537 45.4398003719534316 Ba
atom 4.9148573052455093 5.0859578002255503 45.4398003719534316 Ba
atom 2.5085390310447182 2.4585746817915353 43.2165682993014215 Zr
atom 7.4729195237763051 2.4512479588435725 43.2165682993014215 Zr
atom 2.5012123080967599 7.4229551745231266 43.2165682993014215 Zr
atom 7.4722994295300929 7.4223350802769117 43.2165682993014215 Zr
atom 2.7076754434995460 2.6604155407749852 40.6302801489744567 S
atom 7.2710786647928547 2.2521115463887424 40.6302801489744567 S
atom 2.2993714491133068 7.2238187620683014 40.6302801489744567 S
atom 7.6714358419849162 7.6241759392603665 40.6302801489744567 S
atom 2.3943518023033330 2.2824465445030677 45.7379069958039963 S
atom 7.6490476610647677 2.5654351875849564 45.7379069958039963 S
atom 2.6773404453852194 7.5371424032645118 45.7379069958039963 S
atom 7.3581122007887014 7.2462069429884517 45.7379069958039963 S
atom 2.8764619841432992 -0.0377424339819726 42.9107471008410428 S
atom 7.1411484438649007 -0.0390117754633779 43.3234462232652007 S
atom 2.1694412281853568 4.9326954402161762 43.3234462232652007 S
atom 7.8402223826286788 4.9260179645034166 42.9107471008410428 S
atom 0.0337690253848843 2.0912718229391625 42.9107471008410428 S
atom 4.9987987653516610 2.7903457617029330 43.3234462232652007 S
atom 0.0270915496721149 7.7620529773824929 43.3234462232652007 S
atom 4.9975294238702572 7.0550322214245478 42.9107471008410428 S
atom 2.3596827975025332 2.5307832924825711 48.8527400508494907 Ba
atom 7.4007109130852733 2.6001041923857597 48.8527400508494907 Ba
atom 2.4290036974057236 7.5718114080653312 48.8527400508494907 Ba
atom 7.3234431959878954 7.4945436909679577 48.8527400508494907 Ba
atom 2.6674611823701775 2.2295663348392369 53.6987375142094621 Ba
atom 7.7019278707285928 2.2923258075181097 53.6987375142094621 Ba
atom 2.7302206550490595 7.2640330231976673 53.6987375142094621 Ba
atom 7.6312215808555495 7.1933267333246302 53.6987375142094621 Ba
atom 4.9870659159365269 4.9371015666833484 51.0759721235014581 Zr
atom 9.9581530373698559 4.9364814724371264 51.0759721235014581 Zr
atom 4.9864458216903245 9.9081886881167112 51.0759721235014581 Zr
atom 9.9508263144219047 9.9008619651687368 51.0759721235014581 Zr
atom 4.9995435601483225 4.8927695165281202 56.1787100289613477 Zr
atom 10.0024850875251055 4.9240038282253362 56.1787100289613477 Zr
atom 5.0307778718455491 9.8957110439049032 56.1787100289613477 Zr
atom 9.9633039586336842 9.8565299150135033 56.1787100289613477 Zr
atom 5.1631940532249905 5.0512887954247327 48.5546334269988833 S
atom 9.8439658086284805 4.7603533351486726 48.5546334269988833 S
atom 4.8722585929489277 9.7320605508282334 48.5546334269988833 S
atom 10.1269544517103522 10.0150491939101141 48.5546334269988833 S
atom 4.7852250569530783 4.7379651542285188 53.6622602738284513 S
atom 10.1572894498246988 5.1383223314205884 53.6622602738284513 S
atom 5.1855822341451505 10.1100295471001722 53.6622602738284513 S
atom 9.7489854554384667 9.7017255527139010 53.6622602738284513 S
atom 4.6552948360251198 2.4468418323764016 50.9690941995376789 S
atom 10.3260759904684498 2.4401643566636309 51.3817933219618297 S
atom 5.3543687747888855 7.4118715723431903 51.3817933219618297 S
atom 9.6190552345105083 7.4106022308617820 50.9690941995376789 S
atom 4.5029223586527367 2.4377768677602414 56.3802997958991341 S
atom 10.4340691074189991 2.4333594473194626 56.0265476791489263 S
atom 5.4623618917394765 7.4050666629990349 56.0265476791489263 S
atom 9.4666827571380932 7.4015372662456267 56.3802997958991341 S
atom 2.5129451575118895 5.2761993695427130 50.9690941995376789 S
atom 7.4833830317100487 4.5691786135847599 51.3817933219618297 S
atom 2.5116758160304800 9.5408858292643295 51.3817933219618297 S
atom 7.4767055559972571 10.2399597680280987 50.9690941995376789 S
atom 2.5220101221280435 5.4285718469151192 56.3802997958991341 S
atom 7.4901879410542014 4.4611854966342017 56.0265476791489263 S
atom 2.5184807253746579 9.4328927123137802 56.0265476791489263 S
atom 7.4857705206134204 10.3923322454005138 56.3802997958991341 S
atom 2.4021935602713311 2.4861027902349013 58.7423188686381224 Ba
atom 7.4453914153329350 2.5575934296169609 58.7423188686381224 Ba
atom 2.4736841996533956 7.5293006452965097 58.7423188686381224 Ba
atom 7.3659539587567036 7.4498631887202809 58.7423188686381224 Ba
atom 2.4887377760685334 2.5284749933037256 63.8329531505836343 Ba
atom 7.4030192122641179 2.4710492138197537 63.8329531505836343 Ba
atom 2.4313119965845686 7.4427564294993021 63.8329531505836343 Ba
atom 7.4524981745539005 7.4922353917891042 63.8329531505836343 Ba
atom 4.9657529639491145 4.9722428793665676 61.2739041126231498 Zr
atom 9.9230117246866456 4.9577944244245495 61.2739041126231498 Zr
atom 4.9513045090070964 9.9295016401040890 61.2739041126231498 Zr
atom 9.9295133624345180 9.9360032778519365 61.2739041126231498 Zr
atom 4.9619022502733463 4.9656620711986417 66.3766093129127057 Zr
atom 9.9295925328545760 4.9616451381003142 66.3766093129127057 Zr
atom 4.9578853171750348 9.9333523537798705 66.3766093129127057 Zr
atom 9.9256626487587063 9.9294224696840114 66.3766093129127057 Zr
atom 5.1226484167947994 5.0432963155554225 58.7385648161237484 S
atom 9.8519582884977943 4.8008989715788681 58.7385648161237484 S
atom 4.8802510728182309 9.7726061872584111 58.7385648161237484 S
atom 10.0864088152801550 10.0070567140408340 58.7385648161237484 S
atom 4.9329999709316716 4.9053823661623115 63.8322924521706483 S
atom 9.9898722378908786 4.9905474174420021 63.8322924521706483 S
atom 5.0181650222113428 9.9622546331215531 63.8322924521706483 S
atom 9.8967603694170432 9.8691427646477106 63.8322924521706483 S
atom 5.4677331247544609 2.4760069418057782 61.2315058375500598 S
atom 9.4019949057346821 2.4709310839473764 61.3473606029823912 S
atom 4.4302876900551018 7.4426382996269451 61.3473606029823912 S
atom 10.4314935232397925 7.4397673402911559 61.2315058375500598 S
atom 4.4418989217253158 2.4779887774280001 66.4064830110389437 S
atom 10.4561015095009608 2.4742509682523131 66.3596641208925604 S
atom 5.4843942938214285 7.4459581839318663 66.3596641208925604 S
atom 9.4056593202106882 7.4417491759133885 66.4064830110389437 S
atom 2.4837800480825134 4.4637610808133896 61.2315058375500598 S
atom 7.4526163044262725 5.4932596983185595 61.3473606029823912 S
atom 2.4809090887467318 10.4649669139981292 61.3473606029823912 S
atom 7.4475404465678956 9.4275214792987967 61.2315058375500598 S
atom 2.4817982124602884 5.4895952838425215 66.4064830110389437 S
atom 7.4492964201213576 4.4391530945522382 66.3596641208925604 S
atom 2.4775892044418000 9.4108603102318007 66.3596641208925604 S
atom 7.4455586109456595 10.4533556823278921 66.4064830110389437 S
atom 2.4670827786246621 2.4728740840759702 68.9305259545001121 Ba
atom 7.4586201214918777 2.4927042112636340 68.9305259545001121 Ba
atom 2.4869129058123232 7.4644114269431894 68.9305259545001121 Ba
atom 7.4308431771100407 7.4366344825613631 68.9305259545001121 Ba
atom 2.4966776198607095 2.4908863144094133 74.0291321058783893 Ba
atom 7.4406078911584341 2.4631093700275777 74.0291321058783893 Ba
atom 2.4689006754788809 7.4348165857071455 74.0291321058783893 Ba
atom 7.4604380183460774 7.4546467128947906 74.0291321058783893 Ba
atom 4.9637603984853707 4.9637603984853849 71.4798290301894781 Zr
atom 9.9314942055678319 4.9597869898883005 71.4798290301894781 Zr
atom 4.9597869898882827 9.9314942055678586 71.4798290301894781 Zr
atom 9.9275207969707413 9.9275207969707697 71.4798290301894781 Zr
atom 4.9656185466974012 4.9618587257721209 76.5830487474661368 Zr
atom 9.9333958782810647 4.9579288416762681 76.5830487474661368 Zr
atom 4.9616886626015333 9.9296360573558164 76.5830487474661368 Zr
atom 9.9293789451827887 9.9256191242575138 76.5830487474661368 Zr
atom 4.9904720042679305 4.9841239257877366 68.9304867950586697 S
atom 9.9111306782654900 4.9330753841057362 68.9304867950586697 S
atom 4.9394234625859399 9.9047825997852836 68.9304867950586697 S
atom 9.9542324027533002 9.9478843242731205 68.9304867950586697 S
atom 4.9370487927028028 4.9433968711830341 74.0291712653201017 S
atom 9.9518577328701880 4.9864985956708532 74.0291712653201017 S
atom 4.9801505171906273 9.9582058113504033 74.0291712653201017 S
atom 9.9008091911882072 9.9071572696684225 74.0291712653201017 S
atom 5.4894564035341853 2.4799736598643936 71.4625346924770355 S
atom 9.4097716091161061 2.4758399214268141 71.4971233679016791 S
atom 4.4380643934365489 7.4475471371063806 71.4971233679016791 S
atom 10.4532168020195613 7.4437340583497758 71.4625346924770355 S
atom 4.4431265031493119 2.4815626130388964 76.5999939394857989 S
atom 10.4573290909249668 2.4778248038632102 76.5531750493396146 S
atom 5.4856218752454309 7.4495320195427599 76.5531750493396146 S
atom 9.4068869016346799 7.4453230115242892 76.5999939394857989 S
atom 2.4798133300238949 4.4420378020336617 71.4625346924770355 S
atom 7.4477074669468273 5.4854829949371151 71.4971233679016791 S
atom 2.4760002512672954 10.4571902106166785 71.4971233679016791 S
atom 7.4435737285092722 9.4057982005190350 71.4625346924770355 S
atom 2.4782243768493912 5.4883677024185218 76.5999939394857989 S
atom 7.4457225845104595 4.4379255131282429 76.5531750493396146 S
atom 2.4740153688309094 9.4096327288078196 76.5531750493396146 S
atom 7.4419847753347481 10.4521281009039075 76.5999939394857989 S
atom 2.4750226224168279 2.4352854051816655 79.1267049097947250 Ba
atom 7.4962088003861691 2.4847643674714575 79.1267049097947250 Ba
atom 2.5245015847066306 7.4564715831510320 79.1267049097947250 Ba
atom 7.4387830209021928 7.3990458036670601 79.1267049097947250 Ba
atom 2.5615668382140351 2.4776576082504924 84.2173391917405638 Ba
atom 7.4538365973173377 2.3982201516742503 84.2173391917405638 Ba
atom 2.4821293816378018 7.3699273673538057 84.2173391917405638 Ba
atom 7.5253272366994031 7.4414180067358711 84.2173391917405638 Ba
atom 4.9617678330216206 4.9552779176042074 81.6857539477555150 Zr
atom 9.9399766864490129 4.9617795553520434 81.6857539477555150 Zr
atom 4.9682694707694752 9.9334867710316352 81.6857539477555150 Zr
atom 9.9255282315069717 9.9190383160896065 81.6857539477555150 Zr
atom 4.9279772368224144 5.0347512804426460 86.7809480314173385 Zr
atom 9.8605033236105406 4.9955701515512434 86.7809480314173385 Zr
atom 4.8887961079310305 9.9672773672308050 86.7809480314173385 Zr
atom 9.8917376353078144 9.9985116789280202 86.7809480314173385 Zr
atom 4.9945208260390626 5.0221384308084565 79.1273656082078674 S
atom 9.8731161732448047 4.9290265623345908 79.1273656082078674 S
atom 4.9014089575652262 9.9007337780141622 79.1273656082078674 S
atom 9.9582812245244305 9.9858988292938200 79.1273656082078674 S
atom 4.8048723801759374 4.8842244814153437 84.2210932442549307 S
atom 10.0110301226378944 5.1186750081977186 84.2210932442549307 S
atom 5.0393229069583345 10.0903822238772953 84.2210932442549307 S
atom 9.7686327786612992 9.8479848799007090 84.2210932442549307 S
atom 5.4972331069156395 2.4848824973438295 81.6122974573962949 S
atom 9.4314948878958642 2.4798066394854388 81.7281522228285553 S
atom 4.4597876722163070 7.4515138551650013 81.7281522228285553 S
atom 10.4609935054010030 7.4486428958292139 81.6122974573962949 S
atom 4.4651589052312870 2.5224541339717486 86.9331103812295254 S
atom 10.3963056539976080 2.5180367135309671 86.5793582644793247 S
atom 5.4245984383180197 7.4897439292105190 86.5793582644793247 S
atom 9.4289193037166807 7.4862145324571445 86.9331103812295254 S
atom 2.4749044925444608 4.4342610986521995 81.6122974573962949 S
atom 7.4437407488882172 5.4637597161573837 81.7281522228285553 S
atom 2.4720335332086822 10.4354669318369151 81.7281522228285553 S
atom 7.4386648910298385 9.3980214971376022 81.6122974573962949 S
atom 2.4373328559165439 5.4663353003365609 86.9331103812295254 S
atom 7.4055106748426924 4.4989489500556550 86.5793582644793247 S
atom 2.4338034591631512 9.4706561657352122 86.5793582644793247 S
atom 7.4010932544019097 10.4300956988219120 86.9331103812295254 S
atom 2.2962992161151901 2.7341940636461488 89.2609205461691175 Ba
atom 7.1973001419216942 2.6634877737731020 89.2609205461691175 Ba
atom 2.2255929262421450 7.6351949894526676 89.2609205461691175 Ba
atom 7.2600596146005625 7.6979544621315226 89.2609205461691175 Ba
atom 2.6040776009828326 2.4329771060028142 94.1069180095290392 Ba
atom 7.4985170995650190 2.3557093889054501 94.1069180095290392 Ba
atom 2.5268098838854760 7.3274166045849993 94.1069180095290392 Ba
atom 7.5678379994682246 7.3967375044882022 94.1069180095290392 Ba
atom 4.9404548810342028 4.9904192302874169 91.8836859368772565 Zr
atom 9.9048353737657866 4.9830925073394656 91.8836859368772565 Zr
atom 4.9331281580862534 9.9547997230190148 91.8836859368772565 Zr
atom 9.9042152795195815 9.9541796287727973 91.8836859368772565 Zr
atom 5.1422957400176532 5.1895556427422456 89.2973977865501354 S
atom 9.7056989613109490 4.7812516483560135 89.2973977865501354 S
atom 4.7339917456314344 9.7529588640355449 89.2973977865501354 S
atom 10.1060561385030443 10.1533160412276509 89.2973977865501354 S
atom 4.7643267437457499 4.8762320015460316 94.4050246333797531 S
atom 10.0190226025071691 5.1592206446279221 94.4050246333797531 S
atom 5.0473153868276386 10.1309278603074606 94.4050246333797531 S
atom 9.7280871422311233 9.8399924000313970 94.4050246333797531 S
atom 4.5731520221818478 2.5156492246275755 91.5778647384169062 S
atom 10.2439331766251609 2.5089717489148069 91.9905638608409078 S
atom 5.2722259609456215 7.4806789645943645 91.9905638608409078 S
atom 9.5369124206672105 7.4794096231129554 91.5778647384169062 S
atom 2.4441377652607099 5.3583421833860045 91.5778647384169062 S
atom 7.4145756394588496 4.6513214274280488 91.9905638608409078 S
atom 2.4428684237793017 9.6230286431076326 91.9905638608409078 S
atom 7.4078981637460837 10.3221025818713876 91.5778647384169062 S
