#=======================================================
# FHI-aims file: sym_relax/sym_relax_RP_3_Rx0Rz_0-Ry0.in
# Created using the Atomic Simulation Environment (ASE)
# Fri Mar 14 10:24:15 2025
#=======================================================
lattice_vector 10.0930131019723017 -0.0000000000000000 0.0019736117206033 
lattice_vector -0.0000000000000000 10.0943244368825962 0.0000000000000000 
lattice_vector 0.0055397899423248 0.0000000000000000 35.3555293989756478 
atom -0.1747969447458011 0.0000000000000000 0.2937894314685920 Ba
atom 5.2131506435259931 0.0000000000000000 0.2927775244010247 Ba
atom 0.1666440925398333 5.0471622184412972 0.2917907185407225 Ba
atom 4.8717096062403442 5.0471622184412972 0.2947762373288939 Ba
atom 0.0067461229538652 0.0000000000000000 4.9572730006139558 Ba
atom 4.9977944164633845 0.0000000000000000 4.9356167756363778 Ba
atom -0.0487121345227760 5.0471622184412972 4.9346299697760792 Ba
atom 5.0532526739400190 5.0471622184412972 4.9582598064742580 Ba
atom 2.5172908179970257 2.5006257210222902 2.3489686238211513 Zr
atom 7.5637973689831925 2.5465364974190008 2.3499554296814575 Zr
atom 2.5172908179970257 7.5936987158602891 2.3489686238211531 Zr
atom 7.5637973689831925 7.5477879394635954 2.3499554296814575 Zr
atom 2.5244073983977318 2.5235811092206486 7.3662286943834010 Zr
atom 7.5709139493838764 2.5235811092206486 7.3672155002436925 Zr
atom 2.5244073983977318 7.5707433276619494 7.3662286943834010 Zr
atom 7.5709139493838764 7.5707433276619494 7.3672155002436925 Zr
atom 2.5195465772370547 2.8118247032038659 -0.1309373797679566 S
atom 7.5660531282232037 2.2353375152374273 -0.1299505739076550 S
atom 2.5195465772370542 7.2824997336787218 -0.1309373797679567 S
atom 7.5660531282232037 7.8589869216451742 -0.1299505739076550 S
atom 2.5208107593390512 2.0607595817832225 4.8876688272720994 S
atom 7.5673173103251976 2.9864026366580783 4.8886556331324060 S
atom 2.5208107593390512 8.0335648550993799 4.8876688272720994 S
atom 7.5673173103251994 7.1079218002245268 4.8886556331324043 S
atom 2.5202369764409709 0.0000000000000000 2.0455597139910249 S
atom 7.5638105158993607 0.0000000000000000 2.7826314639342287 S
atom 2.5173039649132085 5.0471622184412972 2.7816446580739260 S
atom 7.5667435274271133 5.0471622184412972 2.0465465198513253 S
atom 2.5921688692447429 0.0000000000000000 7.8144141576997290 S
atom 7.5031524785368608 0.0000000000000000 6.9190300369273618 S
atom 2.4566459275507140 5.0471622184412972 6.9180432310670561 S
atom 7.6386754202308875 5.0471622184412972 7.8154009635600294 S
atom -0.0048799330079402 2.5240628808576102 2.4784301278061567 S
atom 5.0416266179782125 2.5230993375836785 2.4794169336664531 S
atom -0.0048799330079402 7.5702615560249740 2.4784301278061567 S
atom 5.0416266179782125 7.5712250992989159 2.4794169336664522 S
atom 0.0011541229046505 2.4475617653821198 7.3657352914532481 S
atom 5.0476606738907988 2.5996004530591761 7.3667220973135521 S
atom 0.0011541229046505 7.6467626715004826 7.3657352914532481 S
atom 5.0476606738907988 7.4947239838234143 7.3667220973135521 S
atom -0.0044378771445629 0.0000000000000000 9.7741975822925191 Ba
atom 5.0975269313182263 0.0000000000000000 9.7978274189907140 Ba
atom 0.0510203803320769 5.0471622184412972 9.7968406131303905 Ba
atom 5.0420686738415865 5.0471622184412972 9.7751843881528231 Ba
atom 0.1771051905551034 0.0000000000000000 14.4376811514379089 Ba
atom 4.8821707042556115 0.0000000000000000 14.4406666702260669 Ba
atom -0.1643358467305316 5.0471622184412972 14.4396798643657700 Ba
atom 5.2236117415412462 5.0471622184412972 14.4386679572981951 Ba
atom 2.5315239787984298 2.5465364974190008 12.3834887649456249 Zr
atom 7.5780305297845620 2.5006257210222911 12.3844755708059147 Zr
atom 2.5315239787984298 7.5477879394635945 12.3834887649456249 Zr
atom 7.5780305297845620 7.5936987158602918 12.3844755708059182 Zr
atom 2.5280040374563959 2.9864026366580800 9.8447885614947044 S
atom 7.5745105884425490 2.0607595817832225 9.8457753673550030 S
atom 2.5280040374563959 7.1079218002245268 9.8447885614947044 S
atom 7.5745105884425490 8.0335648550993799 9.8457753673550030 S
atom 2.5292682195584000 2.2353375152374273 14.8633947685347430 S
atom 7.5757747705445588 2.8118247032038668 14.8643815743950558 S
atom 2.5292682195584000 7.8589869216451742 14.8633947685347430 S
atom 7.5757747705445588 7.2824997336787218 14.8643815743950576 S
atom 2.5315108318822395 0.0000000000000000 11.9508127306928493 S
atom 7.5750843713406368 0.0000000000000000 12.6878844806360522 S
atom 2.5285778203544931 5.0471622184412972 12.6868976747757856 S
atom 7.5780173828683868 5.0471622184412972 11.9517995365531551 S
atom 0.0071881788172412 2.5240628808576111 12.2530404551002974 S
atom 5.0536947298033894 2.5230993375836777 12.2540272609606333 S
atom 0.0071881788172412 7.5702615560249740 12.2530404551002974 S
atom 5.0536947298033894 7.5712250992989159 12.2540272609606333 S
atom 2.5284825774725617 2.3526236060095003 17.9725680183879746 Ba
atom 7.5749891284587116 2.6945386124318018 17.9735548242482643 Ba
atom 2.5284825774725617 7.7417008308730919 17.9725680183879781 Ba
atom 7.5749891284587116 7.3997858244507846 17.9735548242482643 Ba
atom 2.5276292354277308 2.5513155701871564 22.6264631402891858 Ba
atom 7.5741357864138701 2.4958466482541413 22.6274499461494898 Ba
atom 2.5276292354277308 7.5430088666954287 22.6264631402891787 Ba
atom 7.5741357864138701 7.5984777886284558 22.6274499461494898 Ba
atom 5.0282855451427659 5.0471622184412972 20.0282923661184711 Zr
atom 10.1209186750876334 5.0471622184412972 20.0297013755461748 Zr
atom 5.0744121241014719 10.0943244368825944 20.0287145696858495 Zr
atom 10.0747920961289221 10.0943244368825944 20.0292791719787822 Zr
atom 5.0504305688619668 5.0471622184412972 25.0444867968013156 Zr
atom 10.0969371198481088 5.0471622184412972 25.0454736026616551 Zr
atom 5.0504305688619668 10.0943244368825944 25.0444867968013156 Zr
atom 10.0969371198481106 10.0943244368825944 25.0454736026616551 Zr
atom 5.3409086179971119 5.0471622184412972 17.5485681398436135 S
atom 9.8092915441078468 5.0471622184412972 17.5498909063343334 S
atom 4.7627849931216737 10.0943244368825944 17.5489041004740400 S
atom 10.3874151689832495 10.0943244368825944 17.5495549457038962 S
atom 4.5851250416911533 5.0471622184412972 22.5665376721833724 S
atom 10.5632155409892619 5.0471622184412972 22.5677557271834814 S
atom 5.5167089900031252 10.0943244368825944 22.5667689213231633 S
atom 9.6316315926773139 10.0943244368825944 22.5675244780437225 S
atom 5.0513882747598826 2.5235960418629189 20.1590429824131725 S
atom 10.0978948257460193 2.5235661765783823 20.1600297882735262 S
atom 5.0513882747598826 7.5707283950196720 20.1590429824131725 S
atom 10.0978948257460193 7.5707582603042116 20.1600297882735262 S
atom 5.0504305688619668 2.5235683017811286 25.0444867968013156 S
atom 10.0969371198481088 2.5235939166601682 25.0454736026616551 S
atom 5.0504305688619668 7.5707561351014787 25.0444867968013156 S
atom 10.0969371198481088 7.5707305202224120 25.0454736026616551 S
atom 2.5281824400369159 5.0471622184412972 19.7225514877078467 S
atom 7.5745350520273940 5.0471622184412972 20.4631065407572450 S
atom 2.5280285010412333 10.0943244368825944 20.4621197348969446 S
atom 7.5746889910230681 10.0943244368825944 19.7235382935681685 S
atom 2.5270781278808476 5.0471622184412972 25.4954827661676084 S
atom 7.5737830098430896 5.0471622184412972 24.5934908274350690 S
atom 2.5272764588569316 10.0943244368825944 24.5925040215747543 S
atom 7.5735846788669958 10.0943244368825944 25.4964695720279408 S
atom 2.5267253513100534 2.4958466482541413 27.4615236474532054 Ba
atom 7.5732319022962056 2.5513155701871555 27.4625104533135165 Ba
atom 2.5267253513100525 7.5984777886284558 27.4615236474532090 Ba
atom 7.5732319022962056 7.5430088666954287 27.4625104533135165 Ba
atom 2.5258720092652256 2.6945386124318018 32.1154187693543705 Ba
atom 7.5723785602513765 2.3526236060095012 32.1164055752146140 Ba
atom 2.5258720092652256 7.3997858244507846 32.1154187693543705 Ba
atom 7.5723785602513765 7.7417008308730937 32.1164055752146140 Ba
atom 5.0725755925811651 5.0471622184412972 30.0606812274841992 Zr
atom 10.0729555646085966 5.0471622184412972 30.0612458297771212 Zr
atom 5.0264490136224547 10.0943244368825944 30.0602590239168528 Zr
atom 10.1190821435673346 10.0943244368825944 30.0616680333445032 Zr
atom 5.5157360960327804 5.0471622184412972 27.5224359214192589 S
atom 9.6306586987069647 5.0471622184412972 27.5231914781398181 S
atom 4.5841521477208005 10.0943244368825944 27.5222046722795319 S
atom 10.5622426470189055 10.0943244368825944 27.5234227272796090 S
atom 4.7599525197268058 5.0471622184412972 32.5404054537590710 S
atom 10.3845826955884206 5.0471622184412972 32.5410562989888916 S
atom 5.3380761446022600 10.0943244368825944 32.5400694931286267 S
atom 9.8064590707129700 10.0943244368825944 32.5413922596193430 S
atom 5.0494728629640511 2.5235960418629171 29.9299306111894907 S
atom 10.0959794139502019 2.5235661765783814 29.9309174170498409 S
atom 5.0494728629640511 7.5707283950196711 29.9299306111894907 S
atom 10.0959794139502019 7.5707582603042116 29.9309174170498409 S
atom 2.5263260856965410 5.0471622184412972 29.6258670528454751 S
atom 7.5726786976870111 5.0471622184412972 30.3664221058948627 S
atom 2.5261721467008611 10.0943244368825944 30.3654353000345303 S
atom 7.5728326366826986 10.0943244368825944 29.6268538587057684 S
