#=======================================================
# FHI-aims file: sym_relax/sym_relax_RP_1_Rx0Mz_0-Ry0.in
# Created using the Atomic Simulation Environment (ASE)
# Fri Mar 14 10:20:22 2025
#=======================================================
lattice_vector 10.1083930123313692 0.0000000000000000 -0.0001835265168256 
lattice_vector 0.0000000000000000 10.1084024447040761 -0.0000000000000000 
lattice_vector 0.0002908397635862 -0.0000000000000000 15.5284620784447238 
atom 0.1566532061356065 -0.0000000000000000 0.2395001874720371 Ba
atom 4.8975842928610618 0.0000000000000000 0.2394050256172753 Ba
atom -0.1566122133046248 5.0542012223520372 0.2394967888756880 Ba
atom 5.2108497123012922 5.0542012223520372 0.2394084242136245 Ba
atom -0.1565623187094856 -0.0000000000000000 4.6131442120419512 Ba
atom 5.2108996068964251 -0.0000000000000000 4.6130558473798793 Ba
atom 0.1567031007307449 5.0542012223520372 4.6131476106382960 Ba
atom 4.8976341874562053 5.0542012223520372 4.6130524487835416 Ba
atom 2.5271436967959016 2.5271006111760186 2.4262763181277864 Zr
atom 7.5813402029615906 2.5271006111760186 2.4261845548693750 Zr
atom 2.5271436967959016 7.5813018335280544 2.4262763181277864 Zr
atom 7.5813402029615906 7.5813018335280544 2.4261845548693750 Zr
atom 2.5271013039937666 2.2091157242285315 -0.1070877707319442 S
atom 7.5812978101594526 2.8450854981235096 -0.1071795339903569 S
atom 2.5271013039937666 7.8992867204755504 -0.1070877707319442 S
atom 7.5812978101594526 7.2633169465805638 -0.1071795339903569 S
atom 2.5271860895980325 2.8450854981235105 4.9596404069875142 S
atom 7.5813825957637366 2.2091157242285324 4.9595486437290965 S
atom 2.5271860895980325 7.2633169465805638 4.9596404069875142 S
atom 7.5813825957637366 7.8992867204755504 4.9595486437290965 S
atom 2.5271478809014942 -0.0000000000000000 2.7370765577861174 S
atom 7.5813360188559971 -0.0000000000000000 2.1153843152110410 S
atom 2.5271395126903053 5.0542012223520372 2.1154760784694528 S
atom 7.5813443870671797 5.0542012223520372 2.7369847945277055 S
atom 0.0000454437130602 2.5271015151909646 2.4263221997569921 S
atom 5.0542419498787412 2.5270997071610783 2.4262304364985772 S
atom 0.0000454437130602 7.5813009295131160 2.4263221997569921 S
atom 5.0542419498787412 7.5813027375430053 2.4262304364985776 S
atom 2.5272449389811169 2.3704710895362093 8.0036747548177427 Ba
atom 7.5814414451467957 2.6837301328158301 8.0035829915593357 Ba
atom 2.5272449389811169 7.7379313551678743 8.0036747548177427 Ba
atom 7.5814414451467957 7.4246723118882514 8.0035829915593357 Ba
atom 2.5273332943742712 2.6837301328158309 12.3773399598825655 Ba
atom 7.5815298005399576 2.3704710895362102 12.3772481966241621 Ba
atom 2.5273332943742712 7.4246723118882523 12.3773399598825673 Ba
atom 7.5815298005399576 7.7379313551678743 12.3772481966241621 Ba
atom 5.0543873697605379 5.0542012223520372 10.1904614757209533 Zr
atom 10.1085838759262217 5.0542012223520372 10.1903697124625445 Zr
atom 5.0543873697605379 10.1084024447040743 10.1904614757209533 Zr
atom 10.1085838759262234 10.1084024447040743 10.1903697124625445 Zr
atom 5.3723299152210791 5.0542012223520372 7.6570835129041086 S
atom 9.7905641427269181 5.0542012223520372 7.6570078798844685 S
atom 4.7363676365612344 10.1084024447040743 7.6570996431428879 S
atom 10.4265264213867557 10.1084024447040743 7.6569917496456972 S
atom 4.7364448242999906 5.0542012223520372 12.7238394385377998 S
atom 10.4266036091255039 5.0542012223520372 12.7237315450406179 S
atom 5.3724071029598370 10.1084024447040743 12.7238233082990284 S
atom 9.7906413304656787 10.1084024447040743 12.7237476752793910 S
atom 5.0543873697605379 2.5270998347513731 10.1904614757209533 S
atom 10.1085838759262217 2.5271013876006645 10.1903697124625445 S
atom 5.0543873697605379 7.5813026099527034 10.1904614757209533 S
atom 10.1085838759262217 7.5813010571034196 10.1903697124625445 S
atom 2.5272841206804717 5.0542012223520372 9.8797085157958016 S
atom 7.5814906188405953 5.0542012223520372 10.5012144356461175 S
atom 2.5272941126749164 10.1084024447040743 10.5013061989045227 S
atom 7.5814806268461581 10.1084024447040743 9.8796167525373875 S
