#=======================================================
# FHI-aims file: sym_relax/sym_relax_RP_9_Rx0Mz_0Ry0.in
# Created using the Atomic Simulation Environment (ASE)
# Mon Mar 17 16:42:36 2025
#=======================================================
lattice_vector 10.0239098718727622 -0.0000000000000000 0.0035504992117456 
lattice_vector -0.0000000000000000 10.0834475804782091 0.0000000000000000 
lattice_vector 0.0341780743100741 0.0000000000000001 95.2107170663952331 
atom -0.1575396709257701 0.0000000000000000 0.1791516646565496 Ba
atom 5.1343317204111312 -0.0000000000000000 0.1749605419459037 Ba
atom 0.1223767844747517 5.0417237902390992 0.1731852923400308 Ba
atom 4.8544152650106005 5.0417237902390992 0.1809269142624224 Ba
atom -0.0612301347871686 0.0000000000000000 4.8805213093039663 Ba
atom 4.8982924156506753 0.0000000000000000 4.8128960414063533 Ba
atom -0.1136625202856890 5.0417237902390992 4.8111207918004864 Ba
atom 4.9507248011492004 5.0417237902390992 4.8822965589098439 Ba
atom 2.4830959628204878 2.5130503275825387 2.2331522547651437 Zr
atom 7.4950508987568574 2.5286734626565583 2.2349275043710146 Zr
atom 2.4830959628204878 7.5703972528956580 2.2331522547651428 Zr
atom 7.4950508987568574 7.5547741178216414 2.2349275043710146 Zr
atom 2.5245954845108995 2.5178893016158730 7.2780999490053144 Zr
atom 7.5365504204472789 2.5238344886232249 7.2798751986111920 Zr
atom 2.5245954845108995 7.5655582788623263 7.2780999490053144 Zr
atom 7.5365504204472789 7.5596130918549722 7.2798751986111920 Zr
atom 2.4892616301514634 2.8543326100973010 -0.2524334974605968 S
atom 7.5012165660878338 2.1873911801417920 -0.2506582478547237 S
atom 2.4892616301514652 7.2291149703808992 -0.2524334974605967 S
atom 7.5012165660878338 7.8960564003363993 -0.2506582478547235 S
atom 2.4993299877046935 2.1197038455714732 4.7932720186878628 S
atom 7.5112849236410728 2.9220199446676345 4.7950472682937360 S
atom 2.4993299877046935 7.9637437349067355 4.7932720186878628 S
atom 7.5112849236410728 7.1614276358105649 4.7950472682937360 S
atom 2.4930313424985724 0.0000000000000000 1.9680307679582103 S
atom 7.4871165927992624 0.0000000000000000 2.6865691602664317 S
atom 2.4751616568628849 5.0417237902390992 2.6847939106605625 S
atom 7.5049862784349424 5.0417237902390992 1.9698060175640826 S
atom 2.8487769741684201 0.0000000000000000 7.6684474023706510 S
atom 7.2297862843411069 0.0000000000000000 6.9131917335558857 S
atom 2.2178313484047449 5.0417237902390992 6.9114164839500045 S
atom 7.8607319101047892 5.0417237902390992 7.6702226519765206 S
atom -0.0200574708775146 2.5183464557903465 2.3589285934086663 S
atom 4.9918974650588668 2.5233773344487509 2.3607038430145360 S
atom -0.0200574708775146 7.5651011246878603 2.3589285934086663 S
atom 4.9918974650588668 7.5600702460294373 2.3607038430145360 S
atom 0.0162598823884394 2.1882992982738010 7.3035859074122271 S
atom 5.0282148183248028 2.8534244919652916 7.3053611570180887 S
atom 0.0162598823884394 7.8951482822043992 7.3035859074122254 S
atom 5.0282148183248028 7.2300230885128922 7.3053611570180870 S
atom 0.1907646566834231 0.0000000000000000 9.8100859919250247 Ba
atom 5.1891801925533780 0.0000000000000000 9.8025751478945189 Ba
atom 0.1772252566170067 5.0417237902390992 9.8007998982886662 Ba
atom 5.2027195926198075 5.0417237902390992 9.8118612415309059 Ba
atom -0.1745202935935431 0.0000000000000000 14.8047998121237345 Ba
atom 4.8532882011798568 0.0000000000000000 14.8057587155133277 Ba
atom -0.1586667347565068 5.0417237902390992 14.8039834659074732 Ba
atom 4.8374346423428332 5.0417237902390992 14.8065750617295961 Ba
atom 2.5198543166341598 2.5233363433007669 12.2892862708405133 Zr
atom 7.5318092525705334 2.5183874469383367 12.2910615204463696 Zr
atom 2.5198543166341598 7.5601112371774271 12.2892862708405133 Zr
atom 7.5318092525705334 7.5650601335398830 12.2910615204463731 Zr
atom 2.5150878495577569 2.5201897728459932 17.3027778692318215 Zr
atom 7.5270427854941220 2.5215340173931104 17.3045531188376209 Zr
atom 2.5150878495577569 7.5632578076321986 17.3027778692318215 Zr
atom 7.5270427854941220 7.5619135630850991 17.3045531188376209 Zr
atom 2.5165087576341350 2.9018840198982243 9.7934130433106770 S
atom 7.5284636935705187 2.1398397703408802 9.7951882929165457 S
atom 2.5165087576341350 7.1815635605799786 9.7934130433106770 S
atom 7.5284636935705187 7.9436078101373209 9.7951882929165457 S
atom 2.5188486161376522 2.1485615059983818 14.8009870414548921 S
atom 7.5308035520740191 2.8931622842407192 14.8027622910607786 S
atom 2.5188486161376522 7.9348860744798069 14.8009870414548921 S
atom 7.5308035520740191 7.1902852962374952 14.8027622910607750 S
atom 2.8550327848652217 0.0000000000000000 11.9311822797858209 S
atom 7.1899467366410788 0.0000000000000000 12.6741892983878177 S
atom 2.1779918007046910 5.0417237902390992 12.6724140487819490 S
atom 7.8669877208015917 5.0417237902390992 11.9329575293916861 S
atom 2.8591406172245657 0.0000000000000000 17.6747279266203812 S
atom 7.1851377243235595 0.0000000000000000 16.9417944965018066 S
atom 2.1731827883871748 5.0417237902390992 16.9400192468959112 S
atom 7.8710955531609352 5.0417237902390992 17.6765031762262446 S
atom 0.0124441602109164 2.1664630131484977 12.3030213999127636 S
atom 5.0243990961472758 2.8752607770906007 12.3047966495186358 S
atom 0.0124441602109164 7.9169845673296981 12.3030213999127636 S
atom 5.0243990961472758 7.2081868033876084 12.3047966495186341 S
atom 0.0095489257935410 2.1618285855349244 17.3069698775390357 S
atom 5.0215038617299133 2.8798952047041770 17.3087451271448458 S
atom 0.0095489257935410 7.9216189949432705 17.3069698775390357 S
atom 5.0215038617299133 7.2035523757740201 17.3087451271448458 S
atom 0.1974112343223567 0.0000000000000000 19.8105183161440621 Ba
atom 5.1907628006790834 0.0000000000000000 19.8119057688723181 Ba
atom 0.1788078647426974 5.0417237902390992 19.8101305192664334 Ba
atom 5.2093661702587326 5.0417237902390992 19.8122935657499468 Ba
atom -0.1813902619895101 0.0000000000000000 24.8195053087286333 Ba
atom 4.8491680435265279 0.0000000000000000 24.8216683552121893 Ba
atom -0.1627868924098504 5.0417237902390992 24.8198931056063330 Ba
atom 4.8305646739468688 5.0417237902390992 24.8212805583344611 Ba
atom 2.5139879541346084 2.5208618951195496 22.3158994372393025 Zr
atom 7.5259428900709988 2.5208618951195496 22.3176746868451232 Zr
atom 2.5139879541346084 7.5625856853586537 22.3158994372393025 Zr
atom 7.5259428900709988 7.5625856853586537 22.3176746868451232 Zr
atom 2.5128880587114648 2.5215340173931087 27.3290210052468403 Zr
atom 7.5248429946478268 2.5201897728459941 27.3307962548526611 Zr
atom 2.5128880587114648 7.5619135630851044 27.3290210052468403 Zr
atom 7.5248429946478268 7.5632578076321968 27.3307962548526540 Zr
atom 2.5123817199875691 2.8909047095028062 19.8108385149840096 S
atom 7.5243366559239382 2.1508190807363001 19.8126137645898517 S
atom 2.5123817199875691 7.1925428709753909 19.8108385149840167 S
atom 7.5243366559239382 7.9326284997419023 19.8126137645898375 S
atom 2.5155941882816490 2.1508190807363010 24.8209603594945598 S
atom 7.5275491242180319 2.8909047095028053 24.8227356091004054 S
atom 2.5155941882816490 7.9326284997419023 24.8209603594945598 S
atom 7.5275491242180337 7.1925428709753909 24.8227356091004268 S
atom 2.8593630223432140 0.0000000000000000 21.9495203336875981 S
atom 7.1805678218623834 0.0000000000000000 22.6840537903968240 S
atom 2.1686128859260068 5.0417237902390992 22.6822785407910104 S
atom 7.8713179582795938 5.0417237902390992 21.9512955832934793 S
atom 2.8547931198820402 0.0000000000000000 27.6917796275826014 S
atom 7.1807902269810464 0.0000000000000000 26.9588461974641014 S
atom 2.1688352910446582 5.0417237902390992 26.9570709478582309 S
atom 7.8667480558184124 5.0417237902390992 27.6935548771884683 S
atom 0.0080104861664240 2.1596233915267220 22.3150118124363281 S
atom 5.0199654221027936 2.8821003987123808 22.3167870620422342 S
atom 0.0080104861664240 7.9238241889514738 22.3150118124363281 S
atom 5.0199654221027936 7.2013471817658097 22.3167870620422342 S
atom 0.0064720465393060 2.1618285855349244 27.3230537473337236 S
atom 5.0184269824756802 2.8798952047041779 27.3248289969395444 S
atom 0.0064720465393060 7.9216189949432705 27.3230537473337165 S
atom 5.0184269824756802 7.2035523757740201 27.3248289969395515 S
atom 0.1905412659263900 0.0000000000000000 29.8252238127489520 Ba
atom 5.1866426430257295 0.0000000000000000 29.8278154085711478 Ba
atom 0.1746877070893550 5.0417237902390992 29.8260401589652488 Ba
atom 5.2024962018627701 5.0417237902390992 29.8269990623548686 Ba
atom -0.1747436843505758 0.0000000000000000 34.8199376329475712 Ba
atom 4.8507506516522199 0.0000000000000000 34.8309989761899175 Ba
atom -0.1612042842841586 5.0417237902390992 34.8292237265840825 Ba
atom 4.8372112515858037 5.0417237902390992 34.8217128825534488 Ba
atom 2.5081215916350614 2.5183874469383341 32.3425126036380490 Zr
atom 7.5200765275714314 2.5233363433007652 32.3442878532438343 Zr
atom 2.5081215916350614 7.5650601335398813 32.3425126036380490 Zr
atom 7.5200765275714314 7.5601112371774271 32.3442878532438343 Zr
atom 2.5033804237583182 2.5238344886232249 37.3536989254732887 Zr
atom 7.5153353596946806 2.5178893016158721 37.3554741750791237 Zr
atom 2.5033804237583182 7.5596130918549704 37.3536989254732887 Zr
atom 7.5153353596946806 7.5655582788623228 37.3554741750791237 Zr
atom 2.5091272921315713 2.8931622842407201 29.8308118330236809 S
atom 7.5210822280679395 2.1485615059983836 29.8325870826295301 S
atom 2.5091272921315713 7.1902852962374935 29.8308118330236809 S
atom 7.5210822280679395 7.9348860744798051 29.8325870826295301 S
atom 2.5114671506350730 2.1398397703408802 34.8383858311679617 S
atom 7.5234220865714585 2.9018840198982225 34.8401610807738820 S
atom 2.5114671506350730 7.9436078101373209 34.8383858311679617 S
atom 7.5234220865714585 7.1815635605799821 34.8401610807738820 S
atom 2.8499841075645267 0.0000000000000000 31.9593848256965600 S
atom 7.1848980593403677 0.0000000000000000 32.7023918442986599 S
atom 2.1729431234039822 5.0417237902390992 32.7006165946927254 S
atom 7.8619390435008913 5.0417237902390992 31.9611600753024874 S
atom 2.8101445598644825 0.0000000000000001 37.7203823905285418 S
atom 7.1911538700371684 0.0000000000000001 36.9651267217138368 S
atom 2.1791989341008020 5.0417237902390992 36.9633514721079450 S
atom 7.8220994958008543 5.0417237902390992 37.7221576401343412 S
atom 0.0035768121219316 2.1664630131484959 32.3270022249598128 S
atom 5.0155317480583159 2.8752607770906011 32.3287774745657686 S
atom 0.0035768121219316 7.9169845673296981 32.3270022249598128 S
atom 5.0155317480583159 7.2081868033876084 32.3287774745657615 S
atom -0.0002389100555914 2.1882992982738019 37.3264377174605144 S
atom 5.0117160258807765 2.8534244919652916 37.3282129670663068 S
atom -0.0002389100555914 7.8951482822043992 37.3264377174605144 S
atom 5.0117160258807765 7.2300230885128922 37.3282129670663068 S
atom 0.0772511071200154 0.0000000000000001 39.7495023155687264 Ba
atom 5.1416384285549022 0.0000000000000001 39.8206780826780502 Ba
atom 0.1296834926185361 5.0417237902390992 39.8189028330721797 Ba
atom 5.0892060430563886 5.0417237902390992 39.7512775651746324 Ba
atom 0.1735606432586169 0.0000000000000001 44.4508719602161619 Ba
atom 4.9055991237944836 0.0000000000000001 44.4586135821383905 Ba
atom -0.1063558121419036 5.0417237902390992 44.4568383325326053 Ba
atom 5.1855155791949867 5.0417237902390992 44.4526472098220893 Ba
atom 2.5448799454487383 2.5286734626565557 42.3986466197134106 Zr
atom 7.5568348813851216 2.5130503275825395 42.4004218693192882 Zr
atom 2.5448799454487383 7.5547741178216397 42.3986466197134106 Zr
atom 7.5568348813851216 7.5703972528956580 42.4004218693192954 Zr
atom 2.5286459205645313 2.9220199446676336 39.8385268557906826 S
atom 7.5406008565008831 2.1197038455714745 39.8403021053966100 S
atom 2.5286459205645313 7.1614276358105684 39.8385268557906826 S
atom 7.5406008565008831 7.9637437349067373 39.8403021053966100 S
atom 2.5387142781177587 2.1873911801417920 44.8842323719392056 S
atom 7.5506692140541318 2.8543326100973028 44.8860076215450690 S
atom 2.5387142781177587 7.8960564003364011 44.8842323719392056 S
atom 7.5506692140541318 7.2291149703809010 44.8860076215450690 S
atom 2.5528142514063332 0.0000000000000001 41.9470049638179958 S
atom 7.5468995017070188 0.0000000000000001 42.6655433561262356 S
atom 2.5349445657706511 5.0417237902390992 42.6637681065202585 S
atom 7.5647691873427032 5.0417237902390992 41.9487802134238166 S
atom 0.0360784432103617 2.5183464557903483 42.2710950314639717 S
atom 5.0480333791467231 2.5233773344487505 42.2728702810700128 S
atom 0.0360784432103617 7.5651011246878603 42.2710950314639717 S
atom 5.0480333791467231 7.5600702460294373 42.2728702810700128 S
atom 2.5390535826377048 2.6688652338451186 47.9626800257907036 Ba
atom 7.5510085185740747 2.3728585563939806 47.9644552753964462 Ba
atom 2.5390535826377048 7.4145823466330931 47.9626800257907178 Ba
atom 7.5510085185740747 7.7105890240842205 47.9644552753964604 Ba
atom 2.5372465516898233 2.4971642488035086 52.6385781314815375 Ba
atom 7.5492014876262052 2.5445595414355897 52.6403533810874364 Ba
atom 2.5372465516898224 7.5862833316746894 52.6385781314815517 Ba
atom 7.5492014876262052 7.5388880390426154 52.6403533810874222 Ba
atom 5.0558522392035243 5.0417237902390992 50.0174090501147077 Zr
atom 10.0446765723313831 5.0417237902390992 50.0208145733663514 Zr
atom 5.0327216363949976 10.0834475804781984 50.0190393237604525 Zr
atom 10.0678071751398903 10.0834475804781984 50.0191842997205924 Zr
atom 5.0437933010153095 5.0417237902390992 55.0343974117486638 Zr
atom 10.0531564051698759 5.0417237902390992 55.0369138793192931 Zr
atom 5.0412014692335116 10.0834475804781984 55.0351386297133729 Zr
atom 10.0557482369516897 10.0834475804781984 55.0361726613546338 Zr
atom 4.6978609253233490 5.0417237902390992 47.5311401989846516 S
atom 10.4042665800972003 5.0417237902390992 47.5346746224114298 S
atom 5.3923116441608183 10.0834475804781984 47.5328993728056446 S
atom 9.7098158612596883 10.0834475804781984 47.5329154485905150 S
atom 5.5157359919697555 5.0417237902390992 52.5612168226042371 S
atom 9.5827351655437774 5.0417237902390992 52.5630314749281169 S
atom 4.5707802296074433 10.0834475804781984 52.5612562253222961 S
atom 10.5276909279061108 10.0834475804781984 52.5629920722101645 S
atom 5.0441980576624292 2.5209297424522488 50.1493436819238525 S
atom 10.0561529935988148 2.5207940477868540 50.1511189315296235 S
atom 5.0441980576624292 7.5625178380259488 50.1493436819238383 S
atom 10.0561529935988148 7.5626535326913560 50.1511189315296235 S
atom 5.0424392684500070 2.5208447584688574 55.0507760610664292 S
atom 10.0543942043863961 2.5208790317702472 55.0525513106722642 S
atom 5.0424392684500070 7.5626028220093442 55.0507760610664150 S
atom 10.0543942043863961 7.5625685487079508 55.0525513106722642 S
atom 2.5381814410274401 5.0417237902390992 50.4992269375791096 S
atom 7.5503501469588388 5.0417237902390992 49.6931793682043619 S
atom 2.5383952110224630 10.0834475804781984 49.6914041185985198 S
atom 7.5501363769638221 10.0834475804781984 50.5010021871849872 S
atom 2.5365932926104642 5.0417237902390992 54.5662696899029456 S
atom 7.5482527034614524 5.0417237902390992 55.5245898932301643 S
atom 2.5362977675250855 10.0834475804781984 55.5228146436243932 S
atom 7.5485482285468466 10.0834475804781984 54.5680449395088587 S
atom 2.5356313874560459 2.5256472276750181 57.5412019000600097 Ba
atom 7.5475863233924114 2.5160765625640775 57.5429771496658589 Ba
atom 2.5356313874560459 7.5578003528031932 57.5412019000600097 Ba
atom 7.5475863233924114 7.5673710179141196 57.5429771496658589 Ba
atom 2.5337624945468749 2.5163120324612223 62.4882505284912781 Ba
atom 7.5457174304832284 2.5254117577778770 62.4900257780972197 Ba
atom 2.5337624945468757 7.5671355480169797 62.4882505284912853 Ba
atom 7.5457174304832284 7.5580358227003224 62.4900257780972339 Ba
atom 5.0390430468989003 5.0417237902390992 59.9988670950621596 Zr
atom 10.0542167873083361 5.0417237902390992 60.0010021463708156 Zr
atom 5.0422618513719737 10.0834475804781984 59.9992268967648101 Zr
atom 10.0509979828352751 10.0834475804781984 60.0006423446679733 Zr
atom 5.0392104993034756 5.0417237902390992 64.9611372977687438 Zr
atom 10.0504871670609113 5.0417237902390992 64.9630623955397226 Zr
atom 5.0385322311245444 10.0834475804781984 64.9612871459337526 Zr
atom 10.0511654352398434 10.0834475804781984 64.9629125473745006 Zr
atom 4.5348555394170109 5.0417237902390992 57.5231552596173330 S
atom 10.5603224716742794 5.0417237902390992 57.5255043658356016 S
atom 5.5483675357379125 10.0834475804781984 57.5237291162298447 S
atom 9.5468104753533805 10.0834475804781984 57.5249305092231893 S
atom 5.5479359987398045 5.0417237902390992 62.4827021347147067 S
atom 9.5435048171039991 5.0417237902390992 62.4842145652016896 S
atom 4.5315498811675878 10.0834475804781984 62.4824393155957480 S
atom 10.5598909346762095 10.0834475804781984 62.4844773843205417 S
atom 5.0406735786554702 2.5208529211058313 60.0069429696524708 S
atom 10.0526285145918397 2.5208708691332715 60.0087182192583981 S
atom 5.0406735786554702 7.5625946593723699 60.0069429696524708 S
atom 10.0526285145918397 7.5625767113449260 60.0087182192584123 S
atom 5.0388570852776189 2.5208555951333764 64.9632823755623718 S
atom 10.0508120212140106 2.5208681951057232 64.9650576251684271 S
atom 5.0388570852776189 7.5625919853448256 64.9632823755623434 S
atom 10.0508120212140106 7.5625793853724961 64.9650576251684271 S
atom 2.5345220503867187 5.0417237902390992 60.4960348556248135 S
atom 7.5468493950844442 5.0417237902390992 59.5192029110165350 S
atom 2.5348944591480729 10.0834475804781984 59.5174276614107001 S
atom 7.5464769863230998 10.0834475804781984 60.4978101052306982 S
atom 2.5330460560480108 5.0417237902390992 64.4721146661214703 S
atom 7.5446588593623849 5.0417237902390992 65.4553811780343722 S
atom 2.5327039234260056 10.0834475804781984 65.4536059284283738 S
atom 7.5450009919843772 10.0834475804781984 64.4738899157270993 S
atom 2.5319900909258455 2.5245328530009705 67.4423718707715381 Ba
atom 7.5439450268622217 2.5171909372381260 67.4441471203773659 Ba
atom 2.5319900909258455 7.5589147274772461 67.4423718707715665 Ba
atom 7.5439450268622217 7.5662566432400569 67.4441471203773659 Ba
atom 2.5301638916534439 2.5171909372381265 72.4001440701021437 Ba
atom 7.5421188275898121 2.5245328530009696 72.4019193197080142 Ba
atom 2.5301638916534439 7.5662566432400542 72.4001440701021437 Ba
atom 7.5421188275898121 7.5589147274772461 72.4019193197080426 Ba
atom 5.0370544592578375 5.0417237902390992 69.9221455952398117 Zr
atom 10.0490093951942239 5.0417237902390992 69.9239208448456964 Zr
atom 5.0370544592578375 10.0834475804781984 69.9221455952398117 Zr
atom 10.0490093951942239 10.0834475804781984 69.9239208448456964 Zr
atom 5.0348984192122135 5.0417237902390992 74.8831538927109364 Zr
atom 10.0475316233274761 5.0417237902390992 74.8847792941517412 Zr
atom 5.0355766873911261 10.0834475804781984 74.8830040445457286 Zr
atom 10.0468533551485830 10.0834475804781984 74.8849291423166648 Zr
atom 4.5287742991078179 5.0417237902390992 67.4421523891855514 S
atom 10.5591019842219467 5.0417237902390992 67.4443252082786557 S
atom 5.5471470482855612 10.0834475804781984 67.4425499586727568 S
atom 9.5407292350441892 10.0834475804781984 67.4439276387912940 S
atom 5.5453346194078552 5.0417237902390992 72.4021388012939866 S
atom 9.5389168061664513 5.0417237902390992 72.4035164814128223 S
atom 4.5269618702301209 10.0834475804781984 72.4017412318068097 S
atom 10.5572895553442407 10.0834475804781984 72.4039140508997860 S
atom 5.0370544592578375 2.5208584125897047 69.9221455952398117 S
atom 10.0490093951942239 2.5208653776493928 69.9239208448456964 S
atom 5.0370544592578375 7.5625891678885004 69.9221455952398117 S
atom 10.0490093951942239 7.5625822028288061 69.9239208448456964 S
atom 5.0352518332380400 2.5208555951333755 74.8810088149170525 S
atom 10.0472067691743945 2.5208681951057232 74.8827840645229372 S
atom 5.0352518332380400 7.5625919853448238 74.8810088149170241 S
atom 10.0472067691743945 7.5625793853724961 74.8827840645229230 S
atom 2.5308960416590365 5.0417237902390992 70.4128534883702031 S
atom 7.5432128768566367 5.0417237902390992 69.4314377021092639 S
atom 2.5312579409202685 10.0834475804781984 69.4296624525033792 S
atom 7.5428509775954105 10.0834475804781984 70.4146287379762157 S
atom 2.5294500591532807 5.0417237902390992 74.3889100124452227 S
atom 7.5410628624676557 5.0417237902390992 75.3721765243583803 S
atom 2.5291079265312888 10.0834475804781984 75.3704012747524814 S
atom 7.5414049950896542 10.0834475804781984 74.3906852620508658 S
atom 2.5283914880324199 2.5254117577778783 77.3542654123824889 Ba
atom 7.5403464239688107 2.5163120324612214 77.3560406619883025 Ba
atom 2.5283914880324199 7.5580358227003206 77.3542654123824605 Ba
atom 7.5403464239688107 7.5671355480169797 77.3560406619883025 Ba
atom 2.5265225951232448 2.5160765625640775 82.3013140408134660 Ba
atom 7.5384775310596295 2.5256472276750199 82.3030892904195923 Ba
atom 2.5265225951232440 7.5673710179141196 82.3013140408134660 Ba
atom 7.5384775310596295 7.5578003528031950 82.3030892904195923 Ba
atom 5.0350658716167631 5.0417237902390992 79.8454240954174708 Zr
atom 10.0438020030800725 5.0417237902390992 79.8468395433204989 Zr
atom 5.0318470671437057 10.0834475804781984 79.8450642937147990 Zr
atom 10.0470208075531637 10.0834475804781984 79.8471993450232560 Zr
atom 5.0303156175003467 5.0417237902390992 84.8098937787310518 Zr
atom 10.0448623852185115 5.0417237902390992 84.8109278103721209 Zr
atom 5.0329074492821526 10.0834475804781984 84.8091525607660799 Zr
atom 10.0422705534367314 10.0834475804781984 84.8116690283367802 Zr
atom 4.5261729197758527 5.0417237902390992 77.3615890557647958 S
atom 10.5545139732844202 5.0417237902390992 77.3636271244896818 S
atom 5.5425590373480738 10.0834475804781984 77.3618518748837829 S
atom 9.5381278557122116 10.0834475804781984 77.3633643053706805 S
atom 5.5392533790986560 5.0417237902390992 82.3211359308621553 S
atom 9.5376963187141452 5.0417237902390992 82.3223373238555780 S
atom 4.5257413827777597 10.0834475804781984 82.3205620742497217 S
atom 10.5512083150350158 10.0834475804781984 82.3229111804681537 S
atom 5.0334353398602039 2.5208529211058348 79.8373482208269962 S
atom 10.0453902757965619 2.5208708691332733 79.8391234704329946 S
atom 5.0334353398602039 7.5625946593723707 79.8373482208269962 S
atom 10.0453902757965619 7.5625767113449260 79.8391234704329946 S
atom 5.0316696500656644 2.5208447584688582 84.7935151294130662 S
atom 10.0436245860020481 2.5208790317702467 84.7952903790188657 S
atom 5.0316696500656644 7.5626028220093460 84.7935151294130662 S
atom 10.0436245860020481 7.5625685487079544 84.7952903790188657 S
atom 2.5272595234312303 5.0417237902390992 80.3250882794631309 S
atom 7.5395868681289535 5.0417237902390992 79.3482563348546819 S
atom 2.5276319321925755 10.0834475804781984 79.3464810852486266 S
atom 7.5392144593676109 10.0834475804781984 80.3268635290689019 S
atom 2.5258562150542092 5.0417237902390992 84.3197012972491109 S
atom 7.5375156259052041 5.0417237902390992 85.2780215005766564 S
atom 2.5255606899688336 10.0834475804781984 85.2762462509707575 S
atom 7.5378111509905850 10.0834475804781984 84.3214765468550098 S
atom 2.5249074308894763 2.5445595414355888 87.2039378093922863 Ba
atom 7.5368623668258330 2.4971642488035068 87.2057130589978868 Ba
atom 2.5249074308894763 7.5388880390426136 87.2039378093922863 Ba
atom 7.5368623668258330 7.5862833316746894 87.2057130589979153 Ba
atom 2.5231003999415842 2.3728585563939806 91.8798359150828361 Ba
atom 7.5350553358779679 2.6688652338451204 91.8816111646888771 Ba
atom 2.5231003999415842 7.7105890240842223 91.8798359150828361 Ba
atom 7.5350553358779679 7.4145823466330949 91.8816111646888771 Ba
atom 5.0182566793121497 5.0417237902390992 89.8268821403647024 Zr
atom 10.0533422180570451 5.0417237902390992 89.8270271163248992 Zr
atom 5.0413872821206631 10.0834475804781984 89.8252518667189577 Zr
atom 10.0302116152485130 10.0834475804781984 89.8286573899707861 Zr
atom 4.5583729265459230 5.0417237902390992 87.2830743678754430 S
atom 10.5152836248446135 5.0417237902390992 87.2848102147629277 S
atom 5.5033286889082200 10.0834475804781984 87.2830349651571282 S
atom 9.5703278624823138 10.0834475804781984 87.2848496174812993 S
atom 5.3762479931923286 5.0417237902390992 92.3131509914949220 S
atom 9.6937522102912101 5.0417237902390992 92.3131670672797782 S
atom 4.6817972743548513 10.0834475804781984 92.3113918176737940 S
atom 10.3882029291287203 10.0834475804781984 92.3149262411008067 S
atom 5.0299108608532297 2.5209297424522470 89.6949475085556429 S
atom 10.0418657967895957 2.5207940477868540 89.6967227581614992 S
atom 5.0299108608532297 7.5625178380259452 89.6949475085556429 S
atom 10.0418657967895957 7.5626535326913542 89.6967227581614992 S
atom 2.5237587715568397 5.0417237902390992 90.1511118222752685 S
atom 7.5359274774882241 5.0417237902390992 89.3450642529004710 S
atom 2.5239725415518550 10.0834475804781984 89.3432890032946005 S
atom 7.5357137074931924 10.0834475804781984 90.1528870718808406 S
