#=======================================================
# FHI-aims file: sym_relax/sym_relax_RP_10_00Rz1_00Rz2.in
# Created using the Atomic Simulation Environment (ASE)
# Mon Mar 17 17:08:26 2025
#=======================================================
lattice_vector 9.8969056908275554 0.0000000344541665 0.0000000000000000 
lattice_vector 0.0000000344541665 9.8969056908275057 0.0000000000000000 
lattice_vector 0.0000000000000000 0.0000000000000000 108.0877515423377702 
atom 0.0000000000000000 0.0000000000000000 0.1588751655353893 Ba
atom 4.9484528454137724 0.0000000172270831 0.1588751655353894 Ba
atom 0.0000000172270831 4.9484528454137520 0.1588751655353893 Ba
atom 4.9484528626408606 4.9484528626408322 0.1588751655353893 Ba
atom 0.0000000000000000 0.0000000000000000 5.0704318747857631 Ba
atom 4.9484528454137724 0.0000000172270831 5.0704318747857631 Ba
atom 0.0000000172270831 4.9484528454137520 5.0704318747857631 Ba
atom 4.9484528626408606 4.9484528626408322 5.0704318747857631 Ba
atom 2.4742264313204303 2.4742264313204161 2.4381420580526969 Zr
atom 7.4226792767342022 2.4742264485475003 2.4381420580526969 Zr
atom 2.4742264485475092 7.4226792767341676 2.4381420580526969 Zr
atom 7.4226792939612860 7.4226792939612469 2.4381420580526969 Zr
atom 2.4742264313204303 2.4742264313204161 7.5804288054822369 Zr
atom 7.4226792767342022 2.4742264485475003 7.5804288054822369 Zr
atom 2.4742264485475092 7.4226792767341676 7.5804288054822369 Zr
atom 7.4226792939612860 7.4226792939612469 7.5804288054822369 Zr
atom 2.4742264313204303 2.4742264313204161 -0.1053245177393689 S
atom 7.4226792767342022 2.4742264485475003 -0.1053245177393689 S
atom 2.4742264485475092 7.4226792767341676 -0.1053245177393689 S
atom 7.4226792939612860 7.4226792939612469 -0.1053245177393689 S
atom 2.4742264313204303 2.4742264313204161 5.0441386949292228 S
atom 7.4226792767342022 2.4742264485475003 5.0441386949292228 S
atom 2.4742264485475092 7.4226792767341676 5.0441386949292228 S
atom 7.4226792939612860 7.4226792939612469 5.0441386949292228 S
atom 2.0421874405290037 0.0000000167874363 2.5331758943821931 S
atom 7.8547182502985375 0.0000000176667290 2.5331758943821931 S
atom 2.9062654221118533 4.9484528458533914 2.5331758943821931 S
atom 6.9906403031698661 4.9484528794282703 2.5331758943821931 S
atom 3.0114729623003598 0.0000000050100323 7.6054197769494678 S
atom 6.8854327285271877 0.0000000294441339 7.6054197769494678 S
atom 1.9369799003404948 4.9484528576308042 7.6054197769494678 S
atom 7.9599258249412150 4.9484528676508663 7.6054197769494678 S
atom 0.0000000004396466 2.9062654048847536 2.5331758943821931 S
atom 4.9484528622012096 2.0421874577560835 2.5331758943821931 S
atom 0.0000000340145198 6.9906402859427521 2.5331758943821931 S
atom 4.9484528630804956 7.8547182675255796 2.5331758943821931 S
atom 0.0000000122170517 1.9369798831134033 7.6054197769494678 S
atom 4.9484528504238003 3.0114729795274280 7.6054197769494678 S
atom 0.0000000222371145 7.9599258077140878 7.6054197769494678 S
atom 4.9484528748579066 6.8854327457542359 7.6054197769494678 S
atom 0.0000000000000000 0.0000000000000000 10.1600264835411167 Ba
atom 4.9484528454137724 0.0000000172270831 10.1600264835411167 Ba
atom 0.0000000172270831 4.9484528454137520 10.1600264835411167 Ba
atom 4.9484528626408606 4.9484528626408322 10.1600264835411167 Ba
atom 0.0000000000000000 0.0000000000000000 15.2692050706604086 Ba
atom 4.9484528454137724 0.0000000172270831 15.2692050706604086 Ba
atom 0.0000000172270831 4.9484528454137520 15.2692050706604086 Ba
atom 4.9484528626408606 4.9484528626408322 15.2692050706604086 Ba
atom 2.4742264313204303 2.4742264313204161 12.6994445868181263 Zr
atom 7.4226792767342022 2.4742264485475003 12.6994445868181263 Zr
atom 2.4742264485475092 7.4226792767341676 12.6994445868181263 Zr
atom 7.4226792939612860 7.4226792939612469 12.6994445868181263 Zr
atom 2.4742264313204303 2.4742264313204161 17.8174186063323106 Zr
atom 7.4226792767342022 2.4742264485475003 17.8174186063323106 Zr
atom 2.4742264485475092 7.4226792767341676 17.8174186063323106 Zr
atom 7.4226792939612860 7.4226792939612469 17.8174186063323106 Zr
atom 2.4742264313204303 2.4742264313204161 10.1549875910947556 S
atom 7.4226792767342022 2.4742264485475003 10.1549875910947556 S
atom 2.4742264485475092 7.4226792767341676 10.1549875910947556 S
atom 7.4226792939612860 7.4226792939612469 10.1549875910947556 S
atom 2.4742264313204303 2.4742264313204161 15.2671243817113655 S
atom 7.4226792767342022 2.4742264485475003 15.2671243817113655 S
atom 2.4742264485475092 7.4226792767341676 15.2671243817113655 S
atom 7.4226792939612860 7.4226792939612469 15.2671243817113655 S
atom 1.9378856118180425 0.0000000088651026 12.7166918688168060 S
atom 7.9590200790095000 0.0000000255890626 12.7166918688168060 S
atom 3.0105672508228092 4.9484528537757253 12.7166918688168060 S
atom 6.8863384744589018 4.9484528715059382 12.7166918688168060 S
atom 3.0108633650421948 0.0000000081744134 17.8259132450043438 S
atom 6.8860423257853451 0.0000000262797527 17.8259132450043438 S
atom 1.9375894975986603 4.9484528544664279 17.8259132450043438 S
atom 7.9593162276830594 4.9484528708152435 17.8259132450043438 S
atom 0.0000000083619802 3.0105672335957143 12.7166918688168060 S
atom 4.9484528542788748 1.9378856290451165 12.7166918688168060 S
atom 0.0000000260921861 6.8863384572317807 12.7166918688168060 S
atom 4.9484528710028322 7.9590200962365492 12.7166918688168060 S
atom 0.0000000090526705 1.9375894803715674 17.8259132450043438 S
atom 4.9484528535881882 3.0108633822692599 17.8259132450043438 S
atom 0.0000000254014957 7.9593162104559312 17.8259132450043438 S
atom 4.9484528716935312 6.8860423430123969 17.8259132450043438 S
atom 0.0000000000000000 0.0000000000000000 20.3800874396328027 Ba
atom 4.9484528454137724 0.0000000172270831 20.3800874396328027 Ba
atom 0.0000000172270831 4.9484528454137520 20.3800874396328027 Ba
atom 4.9484528626408606 4.9484528626408322 20.3800874396328027 Ba
atom 0.0000000000000000 0.0000000000000000 25.4923942316834165 Ba
atom 4.9484528454137724 0.0000000172270831 25.4923942316834165 Ba
atom 0.0000000172270831 4.9484528454137520 25.4923942316834165 Ba
atom 4.9484528626408606 4.9484528626408322 25.4923942316834165 Ba
atom 2.4742264313204303 2.4742264313204161 22.9341735194563547 Zr
atom 7.4226792767342022 2.4742264485475003 22.9341735194563547 Zr
atom 2.4742264485475092 7.4226792767341676 22.9341735194563547 Zr
atom 7.4226792939612860 7.4226792939612469 22.9341735194563547 Zr
atom 2.4742264313204303 2.4742264313204161 28.0506149439105066 Zr
atom 7.4226792767342022 2.4742264485475003 28.0506149439105066 Zr
atom 2.4742264485475092 7.4226792767341676 28.0506149439105066 Zr
atom 7.4226792939612860 7.4226792939612469 28.0506149439105066 Zr
atom 2.4742264313204303 2.4742264313204161 20.3797395739964742 S
atom 7.4226792767342022 2.4742264485475003 20.3797395739964742 S
atom 2.4742264485475092 7.4226792767341676 20.3797395739964742 S
atom 7.4226792939612860 7.4226792939612469 20.3797395739964742 S
atom 2.4742264313204303 2.4742264313204161 25.4923942316834165 S
atom 7.4226792767342022 2.4742264485475003 25.4923942316834165 S
atom 2.4742264485475092 7.4226792767341676 25.4923942316834165 S
atom 7.4226792939612860 7.4226792939612469 25.4923942316834165 S
atom 1.9372472328424843 0.0000000090551158 22.9367750101782377 S
atom 7.9596584579850651 0.0000000253990495 22.9367750101782377 S
atom 3.0112056297983756 4.9484528535857173 22.9367750101782377 S
atom 6.8857000954833332 4.9484528716959497 22.9367750101782377 S
atom 3.0112056125712900 0.0000000081719673 28.0480134531885987 S
atom 6.8857000782562521 0.0000000262821997 28.0480134531885987 S
atom 1.9372472500695685 4.9484528544688651 28.0480134531885987 S
atom 7.9596584752121569 4.9484528708127975 28.0480134531885987 S
atom 0.0000000081719671 3.0112056125712732 22.9367750101782377 S
atom 4.9484528544688855 1.9372472500695574 22.9367750101782377 S
atom 0.0000000262821993 6.8857000782562210 22.9367750101782377 S
atom 4.9484528708128259 7.9596584752121080 22.9367750101782377 S
atom 0.0000000090551160 1.9372472328424739 28.0480134531885987 S
atom 4.9484528535857413 3.0112056297983600 28.0480134531885987 S
atom 0.0000000253990499 7.9596584579850278 28.0480134531885987 S
atom 4.9484528716959728 6.8857000954833048 28.0480134531885987 S
atom 0.0000000000000000 0.0000000000000000 30.6047010237340373 Ba
atom 4.9484528454137724 0.0000000172270831 30.6047010237340373 Ba
atom 0.0000000172270831 4.9484528454137520 30.6047010237340373 Ba
atom 4.9484528626408606 4.9484528626408322 30.6047010237340373 Ba
atom 0.0000000000000000 0.0000000000000000 35.7155833927063995 Ba
atom 4.9484528454137724 0.0000000172270831 35.7155833927063995 Ba
atom 0.0000000172270831 4.9484528454137520 35.7155833927063995 Ba
atom 4.9484528626408606 4.9484528626408322 35.7155833927063995 Ba
atom 2.4742264313204303 2.4742264313204161 33.1673698570344513 Zr
atom 7.4226792767342022 2.4742264485475003 33.1673698570344513 Zr
atom 2.4742264485475092 7.4226792767341676 33.1673698570344513 Zr
atom 7.4226792939612860 7.4226792939612469 33.1673698570344513 Zr
atom 2.4742264313204303 2.4742264313204161 38.2853438765486942 Zr
atom 7.4226792767342022 2.4742264485475003 38.2853438765486942 Zr
atom 2.4742264485475092 7.4226792767341676 38.2853438765486942 Zr
atom 7.4226792939612860 7.4226792939612469 38.2853438765486942 Zr
atom 2.4742264313204303 2.4742264313204161 30.6050488893703445 S
atom 7.4226792767342022 2.4742264485475003 30.6050488893703445 S
atom 2.4742264485475092 7.4226792767341676 30.6050488893703445 S
atom 7.4226792939612860 7.4226792939612469 30.6050488893703445 S
atom 2.4742264313204303 2.4742264313204161 35.7176640816554709 S
atom 7.4226792767342022 2.4742264485475003 35.7176640816554709 S
atom 2.4742264485475092 7.4226792767341676 35.7176640816554709 S
atom 7.4226792939612860 7.4226792939612469 35.7176640816554709 S
atom 1.9375894803715779 0.0000000090526696 33.1588752183625033 S
atom 7.9593162104559685 0.0000000254014956 33.1588752183625033 S
atom 3.0108633822692776 4.9484528535881589 33.1588752183625033 S
atom 6.8860423430124378 4.9484528716935099 33.1588752183625033 S
atom 3.0105672335957268 0.0000000083619805 38.2680965945500660 S
atom 6.8863384572318163 0.0000000260921865 38.2680965945500660 S
atom 1.9378856290451252 4.9484528542788562 38.2680965945500660 S
atom 7.9590200962365847 4.9484528710028099 38.2680965945500660 S
atom 0.0000000081744131 3.0108633650421797 33.1588752183625033 S
atom 4.9484528544664332 1.9375894975986494 33.1588752183625033 S
atom 0.0000000262797530 6.8860423257853078 33.1588752183625033 S
atom 4.9484528708152711 7.9593162276830167 33.1588752183625033 S
atom 0.0000000088651028 1.9378856118180341 38.2680965945500660 S
atom 4.9484528537757395 3.0105672508227994 38.2680965945500660 S
atom 0.0000000255890631 7.9590200790094610 38.2680965945500660 S
atom 4.9484528715059648 6.8863384744588707 38.2680965945500660 S
atom 0.0000000000000000 0.0000000000000000 40.8247619798257304 Ba
atom 4.9484528454137724 0.0000000172270831 40.8247619798257304 Ba
atom 0.0000000172270831 4.9484528454137520 40.8247619798257304 Ba
atom 4.9484528626408606 4.9484528626408322 40.8247619798257304 Ba
atom 0.0000000000000000 0.0000000000000000 45.9143565885811071 Ba
atom 4.9484528454137724 0.0000000172270831 45.9143565885811071 Ba
atom 0.0000000172270831 4.9484528454137520 45.9143565885811071 Ba
atom 4.9484528626408606 4.9484528626408322 45.9143565885811071 Ba
atom 2.4742264313204303 2.4742264313204161 43.4043596578845623 Zr
atom 7.4226792767342022 2.4742264485475003 43.4043596578845623 Zr
atom 2.4742264485475092 7.4226792767341676 43.4043596578845623 Zr
atom 7.4226792939612860 7.4226792939612469 43.4043596578845623 Zr
atom 2.4742264313204303 2.4742264313204161 48.5466464053141209 Zr
atom 7.4226792767342022 2.4742264485475003 48.5466464053141209 Zr
atom 2.4742264485475092 7.4226792767341676 48.5466464053141209 Zr
atom 7.4226792939612860 7.4226792939612469 48.5466464053141209 Zr
atom 2.4742264313204303 2.4742264313204161 40.8298008722720880 S
atom 7.4226792767342022 2.4742264485475003 40.8298008722720880 S
atom 2.4742264485475092 7.4226792767341676 40.8298008722720880 S
atom 7.4226792939612860 7.4226792939612469 40.8298008722720880 S
atom 2.4742264313204303 2.4742264313204161 45.9406497684376731 S
atom 7.4226792767342022 2.4742264485475003 45.9406497684376731 S
atom 2.4742264485475092 7.4226792767341676 45.9406497684376731 S
atom 7.4226792939612860 7.4226792939612469 45.9406497684376731 S
atom 1.9369798831134117 0.0000000122170508 43.3793686864173438 S
atom 7.9599258077141242 0.0000000222371144 43.3793686864173438 S
atom 3.0114729795274435 4.9484528504237817 43.3793686864173438 S
atom 6.8854327457542821 4.9484528748578809 43.3793686864173438 S
atom 2.9062654048847709 0.0000000004396468 48.4516125689847073 S
atom 6.9906402859427814 0.0000000340145202 48.4516125689847073 S
atom 2.0421874577560897 4.9484528622011856 48.4516125689847073 S
atom 7.8547182675256311 4.9484528630804778 48.4516125689847073 S
atom 0.0000000050100319 3.0114729623003460 43.3793686864173438 S
atom 4.9484528576308158 1.9369799003404895 43.3793686864173438 S
atom 0.0000000294441342 6.8854327285271495 43.3793686864173438 S
atom 4.9484528676508885 7.9599258249411786 43.3793686864173438 S
atom 0.0000000167874365 2.0421874405289966 48.4516125689847073 S
atom 4.9484528458534101 2.9062654221118320 48.4516125689847073 S
atom 0.0000000176667294 7.8547182502984931 48.4516125689847073 S
atom 4.9484528794282987 6.9906403031698305 48.4516125689847073 S
atom 0.0000000000000000 0.0000000000000000 50.8259132978314270 Ba
atom 4.9484528454137724 0.0000000172270831 50.8259132978314270 Ba
atom 0.0000000172270831 4.9484528454137520 50.8259132978314270 Ba
atom 4.9484528626408606 4.9484528626408322 50.8259132978314270 Ba
atom 2.4742264313204303 2.4742264313204161 51.0901129811061807 S
atom 7.4226792767342022 2.4742264485475003 51.0901129811061807 S
atom 2.4742264485475092 7.4226792767341676 51.0901129811061807 S
atom 7.4226792939612860 7.4226792939612469 51.0901129811061807 S
atom 2.4742264313204303 2.4742264313204161 54.2029251487276724 Ba
atom 7.4226792767342022 2.4742264485475003 54.2029251487276724 Ba
atom 2.4742264485475092 7.4226792767341676 54.2029251487276724 Ba
atom 7.4226792939612860 7.4226792939612469 54.2029251487276724 Ba
atom 2.4742264313204303 2.4742264313204161 59.1144307692034587 Ba
atom 7.4226792767342022 2.4742264485475003 59.1144307692034587 Ba
atom 2.4742264485475092 7.4226792767341676 59.1144307692034587 Ba
atom 7.4226792939612860 7.4226792939612469 59.1144307692034587 Ba
atom 4.9484528626408606 4.9484528626408322 56.4821599458769157 Zr
atom 9.8969057080546285 4.9484528798679204 56.4821599458769157 Zr
atom 4.9484528798679435 9.8969057080545788 56.4821599458769157 Zr
atom 9.8969057252817212 9.8969057252816643 56.4821599458769157 Zr
atom 4.9484528626408606 4.9484528626408322 61.6244159803414391 Zr
atom 9.8969057080546285 4.9484528798679204 61.6244159803414391 Zr
atom 4.9484528798679435 9.8969057080545788 61.6244159803414391 Zr
atom 9.8969057252817212 9.8969057252816643 61.6244159803414391 Zr
atom 4.9484528626408606 4.9484528626408322 53.9387024541128781 S
atom 9.8969057080546285 4.9484528798679204 53.9387024541128781 S
atom 4.9484528798679435 9.8969057080545788 53.9387024541128781 S
atom 9.8969057252817212 9.8969057252816643 53.9387024541128781 S
atom 4.9484528626408606 4.9484528626408322 59.0881432237345621 S
atom 9.8969057080546285 4.9484528798679204 59.0881432237345621 S
atom 4.9484528798679435 9.8969057080545788 59.0881432237345621 S
atom 9.8969057252817212 9.8969057252816643 59.0881432237345621 S
atom 4.5164741229459642 2.4742264506304630 56.5772041368763894 S
atom 10.3288844305224448 2.4742264464645367 56.5772041368763894 S
atom 5.3804316023357419 7.4226792746511991 56.5772041368763894 S
atom 9.4649269855868159 7.4226793132713009 56.5772041368763894 S
atom 5.4856953947498033 2.4742264365922177 61.6494072595961882 S
atom 9.3596631587185897 2.4742264605027819 61.6494072595961882 S
atom 4.4112103305319081 7.4226792886894408 61.6494072595961882 S
atom 10.4341482573906639 7.4226792992330610 61.6494072595961882 S
atom 2.4742264292374663 5.3804315851086475 56.5772041368763894 S
atom 7.4226792960442403 4.5164741401730186 56.5772041368763894 S
atom 2.4742264678575543 9.4649269683596984 56.5772041368763894 S
atom 7.4226792918783202 10.3288844477494806 56.5772041368763894 S
atom 2.4742264432757128 4.4112103133048119 61.6494072595961882 S
atom 7.4226792820060101 5.4856954119768542 61.6494072595961882 S
atom 2.4742264538193104 10.4341482401635250 61.6494072595961882 S
atom 7.4226793059165637 9.3596631759456450 61.6494072595961882 S
atom 2.4742264313204303 2.4742264313204161 64.2039945157427354 Ba
atom 7.4226792767342022 2.4742264485475003 64.2039945157427354 Ba
atom 2.4742264485475092 7.4226792767341676 64.2039945157427354 Ba
atom 7.4226792939612860 7.4226792939612469 64.2039945157427354 Ba
atom 2.4742264313204303 2.4742264313204161 69.3131700027112601 Ba
atom 7.4226792767342022 2.4742264485475003 69.3131700027112601 Ba
atom 2.4742264485475092 7.4226792767341676 69.3131700027112601 Ba
atom 7.4226792939612860 7.4226792939612469 69.3131700027112601 Ba
atom 4.9484528626408606 4.9484528626408322 66.7434138733297715 Zr
atom 9.8969057080546285 4.9484528798679204 66.7434138733297715 Zr
atom 4.9484528798679435 9.8969057080545788 66.7434138733297715 Zr
atom 9.8969057252817212 9.8969057252816643 66.7434138733297715 Zr
atom 4.9484528626408606 4.9484528626408322 71.8613662952017904 Zr
atom 9.8969057080546285 4.9484528798679204 71.8613662952017904 Zr
atom 4.9484528798679435 9.8969057080545788 71.8613662952017904 Zr
atom 9.8969057252817212 9.8969057252816643 71.8613662952017904 Zr
atom 4.9484528626408606 4.9484528626408322 64.1989631392483915 S
atom 9.8969057080546285 4.9484528798679204 64.1989631392483915 S
atom 4.9484528798679435 9.8969057080545788 64.1989631392483915 S
atom 9.8969057252817212 9.8969057252816643 64.1989631392483915 S
atom 4.9484528626408606 4.9484528626408322 69.3110805458517518 S
atom 9.8969057080546285 4.9484528798679204 69.3110805458517518 S
atom 4.9484528798679435 9.8969057080545788 69.3110805458517518 S
atom 9.8969057252817212 9.8969057252816643 69.3110805458517518 S
atom 4.4121057948234803 2.4742264401631142 66.7606586294623980 S
atom 10.4332527586449082 2.4742264569318824 66.7606586294623980 S
atom 5.4847999304582222 7.4226792851185541 66.7606586294623980 S
atom 9.3605586574643489 7.4226793028039459 66.7606586294623980 S
atom 5.4850887709318412 2.4742264394934192 71.8698602864248386 S
atom 9.3602697825365571 2.4742264576015858 71.8698602864248386 S
atom 4.4118169543498658 7.4226792857882549 71.8698602864248386 S
atom 10.4335416335727071 7.4226793021342417 71.8698602864248386 S
atom 2.4742264397048128 5.4847999132311260 66.7606586294623980 S
atom 7.4226792855768986 4.4121058120505481 66.7606586294623980 S
atom 2.4742264573902135 9.3605586402371941 66.7606586294623980 S
atom 7.4226793023456734 10.4332527758719671 66.7606586294623980 S
atom 2.4742264403745122 4.4118169371227669 71.8698602864248386 S
atom 7.4226792849071970 5.4850887881588957 71.8698602864248386 S
atom 2.4742264567205092 10.4335416163455665 71.8698602864248386 S
atom 7.4226793030153750 9.3602697997636035 71.8698602864248386 S
atom 2.4742264313204303 2.4742264313204161 74.4240278410025553 Ba
atom 7.4226792767342022 2.4742264485475003 74.4240278410025553 Ba
atom 2.4742264485475092 7.4226792767341676 74.4240278410025553 Ba
atom 7.4226792939612860 7.4226792939612469 74.4240278410025553 Ba
atom 2.4742264313204303 2.4742264313204161 79.5362700028522482 Ba
atom 7.4226792767342022 2.4742264485475003 79.5362700028522482 Ba
atom 2.4742264485475092 7.4226792767341676 79.5362700028522482 Ba
atom 7.4226792939612860 7.4226792939612469 79.5362700028522482 Ba
atom 4.9484528626408606 4.9484528626408322 76.9780854337643206 Zr
atom 9.8969057080546285 4.9484528798679204 76.9780854337643206 Zr
atom 4.9484528798679435 9.8969057080545788 76.9780854337643206 Zr
atom 9.8969057252817212 9.8969057252816643 76.9780854337643206 Zr
atom 4.9484528626408606 4.9484528626408322 82.0944545719401191 Zr
atom 9.8969057080546285 4.9484528798679204 82.0944545719401191 Zr
atom 4.9484528798679435 9.8969057080545788 82.0944545719401191 Zr
atom 9.8969057252817212 9.8969057252816643 82.0944545719401191 Zr
atom 4.9484528626408606 4.9484528626408322 74.4236653084531099 S
atom 9.8969057080546285 4.9484528798679204 74.4236653084531099 S
atom 4.9484528798679435 9.8969057080545788 74.4236653084531099 S
atom 9.8969057252817212 9.8969057252816643 74.4236653084531099 S
atom 4.9484528626408606 4.9484528626408322 79.5362700028522482 S
atom 9.8969057080546285 4.9484528798679204 79.5362700028522482 S
atom 4.9484528798679435 9.8969057080545788 79.5362700028522482 S
atom 9.8969057252817212 9.8969057252816643 79.5362700028522482 S
atom 4.4115050653373258 2.4742264403763894 76.9806900938640126 S
atom 10.4338534881310689 2.4742264567186081 76.9806900938640126 S
atom 5.4854006599443803 7.4226792849052794 76.9806900938640126 S
atom 9.3599579279782024 7.4226793030172198 76.9806900938640126 S
atom 5.4854006427173019 2.4742264394915261 82.0918499118404554 S
atom 9.3599579107511008 2.4742264576034771 82.0918499118404554 S
atom 4.4115050825644069 7.4226792857901378 82.0918499118404554 S
atom 10.4338535053581651 7.4226793021323596 82.0918499118404554 S
atom 2.4742264394915359 5.4854006427172726 76.9806900938640126 S
atom 7.4226792857901671 4.4115050825643953 76.9806900938640126 S
atom 2.4742264576034843 9.3599579107510582 76.9806900938640126 S
atom 7.4226793021324013 10.4338535053580994 76.9806900938640126 S
atom 2.4742264403764040 4.4115050653373107 82.0918499118404554 S
atom 7.4226792849053087 5.4854006599443537 82.0918499118404554 S
atom 2.4742264567186205 10.4338534881310281 82.0918499118404554 S
atom 7.4226793030172633 9.3599579279781526 82.0918499118404554 S
atom 2.4742264313204303 2.4742264313204161 84.6485121647019838 Ba
atom 7.4226792767342022 2.4742264485475003 84.6485121647019838 Ba
atom 2.4742264485475092 7.4226792767341676 84.6485121647019838 Ba
atom 7.4226792939612860 7.4226792939612469 84.6485121647019838 Ba
atom 2.4742264313204303 2.4742264313204161 89.7593700029933785 Ba
atom 7.4226792767342022 2.4742264485475003 89.7593700029933785 Ba
atom 2.4742264485475092 7.4226792767341676 89.7593700029933785 Ba
atom 7.4226792939612860 7.4226792939612469 89.7593700029933785 Ba
atom 4.9484528626408606 4.9484528626408322 87.2111737105026918 Zr
atom 9.8969057080546285 4.9484528798679204 87.2111737105026918 Zr
atom 4.9484528798679435 9.8969057080545788 87.2111737105026918 Zr
atom 9.8969057252817212 9.8969057252816643 87.2111737105026918 Zr
atom 4.9484528626408606 4.9484528626408322 92.3291261323747534 Zr
atom 9.8969057080546285 4.9484528798679204 92.3291261323747534 Zr
atom 4.9484528798679435 9.8969057080545788 92.3291261323747534 Zr
atom 9.8969057252817212 9.8969057252816643 92.3291261323747534 Zr
atom 4.9484528626408606 4.9484528626408322 84.6488746972514434 S
atom 9.8969057080546285 4.9484528798679204 84.6488746972514434 S
atom 4.9484528798679435 9.8969057080545788 84.6488746972514434 S
atom 9.8969057252817212 9.8969057252816643 84.6488746972514434 S
atom 4.9484528626408606 4.9484528626408322 89.7614594598527731 S
atom 9.8969057080546285 4.9484528798679204 89.7614594598527731 S
atom 4.9484528798679435 9.8969057080545788 89.7614594598527731 S
atom 9.8969057252817212 9.8969057252816643 89.7614594598527731 S
atom 4.4118169371227873 2.4742264403744989 87.2026797192796295 S
atom 10.4335416163456021 2.4742264567204968 87.2026797192796295 S
atom 5.4850887881589170 7.4226792849071597 87.2026797192796295 S
atom 9.3602697997636568 7.4226793030153315 87.2026797192796295 S
atom 5.4847999132311429 2.4742264397048030 92.3118813762422548 S
atom 9.3605586402372438 2.4742264573901993 92.3118813762422548 S
atom 4.4121058120505676 7.4226792855768586 92.3118813762422548 S
atom 10.4332527758720151 7.4226793023456343 92.3118813762422548 S
atom 2.4742264394934281 5.4850887709318155 87.2026797192796295 S
atom 7.4226792857882824 4.4118169543498462 87.2026797192796295 S
atom 2.4742264576015973 9.3602697825365144 87.2026797192796295 S
atom 7.4226793021342772 10.4335416335726467 87.2026797192796295 S
atom 2.4742264401631271 4.4121057948234679 92.3118813762422548 S
atom 7.4226792851185914 5.4847999304582062 92.3118813762422548 S
atom 2.4742264569318935 10.4332527586448851 92.3118813762422548 S
atom 7.4226793028039850 9.3605586574642849 92.3118813762422548 S
atom 2.4742264313204303 2.4742264313204161 94.8685454899616332 Ba
atom 7.4226792767342022 2.4742264485475003 94.8685454899616332 Ba
atom 2.4742264485475092 7.4226792767341676 94.8685454899616332 Ba
atom 7.4226792939612860 7.4226792939612469 94.8685454899616332 Ba
atom 2.4742264313204303 2.4742264313204161 99.9581092365011017 Ba
atom 7.4226792767342022 2.4742264485475003 99.9581092365011017 Ba
atom 2.4742264485475092 7.4226792767341676 99.9581092365011017 Ba
atom 7.4226792939612860 7.4226792939612469 99.9581092365011017 Ba
atom 4.9484528626408606 4.9484528626408322 97.4481240253630290 Zr
atom 9.8969057080546285 4.9484528798679204 97.4481240253630290 Zr
atom 4.9484528798679435 9.8969057080545788 97.4481240253630290 Zr
atom 9.8969057252817212 9.8969057252816643 97.4481240253630290 Zr
atom 4.9484528626408606 4.9484528626408322 102.5903800598274955 Zr
atom 9.8969057080546285 4.9484528798679204 102.5903800598274955 Zr
atom 4.9484528798679435 9.8969057080545788 102.5903800598274955 Zr
atom 9.8969057252817212 9.8969057252816643 102.5903800598274955 Zr
atom 4.9484528626408606 4.9484528626408322 94.8735768664560766 S
atom 9.8969057080546285 4.9484528798679204 94.8735768664560766 S
atom 4.9484528798679435 9.8969057080545788 94.8735768664560766 S
atom 9.8969057252817212 9.8969057252816643 94.8735768664560766 S
atom 4.9484528626408606 4.9484528626408322 99.9843967819699486 S
atom 9.8969057080546285 4.9484528798679204 99.9843967819699486 S
atom 4.9484528798679435 9.8969057080545788 99.9843967819699486 S
atom 9.8969057252817212 9.8969057252816643 99.9843967819699486 S
atom 4.4112103133048262 2.4742264432756955 97.4231327461083083 S
atom 10.4341482401635606 2.4742264538193015 97.4231327461083083 S
atom 5.4856954119768773 7.4226792820059790 97.4231327461083083 S
atom 9.3596631759456947 7.4226793059165255 97.4231327461083083 S
atom 5.3804315851086626 2.4742264292374530 102.4953358688279934 S
atom 9.4649269683597250 2.4742264678575481 102.4953358688279934 S
atom 4.5164741401730435 7.4226792960442181 102.4953358688279934 S
atom 10.3288844477495321 7.4226792918782802 102.4953358688279934 S
atom 2.4742264365922257 5.4856953947497749 97.4231327461083083 S
atom 7.4226792886894684 4.4112103305318895 97.4231327461083083 S
atom 2.4742264605027935 9.3596631587185506 97.4231327461083083 S
atom 7.4226792992330939 10.4341482573906070 97.4231327461083083 S
atom 2.4742264506304763 4.5164741229459375 102.4953358688279934 S
atom 7.4226792746512382 5.3804316023357250 102.4953358688279934 S
atom 2.4742264464645447 10.3288844305223932 102.4953358688279934 S
atom 7.4226793132713382 9.4649269855867750 102.4953358688279934 S
atom 2.4742264313204303 2.4742264313204161 104.8696148569769093 Ba
atom 7.4226792767342022 2.4742264485475003 104.8696148569769093 Ba
atom 2.4742264485475092 7.4226792767341676 104.8696148569769093 Ba
atom 7.4226792939612860 7.4226792939612469 104.8696148569769093 Ba
atom 4.9484528626408606 4.9484528626408322 105.1338375515916681 S
atom 9.8969057080546285 4.9484528798679204 105.1338375515916681 S
atom 4.9484528798679435 9.8969057080545788 105.1338375515916681 S
atom 9.8969057252817212 9.8969057252816643 105.1338375515916681 S
