#=======================================================
# FHI-aims file: sym_relax/sym_relax_RP_8_00Mz1_00Mz2.in
# Created using the Atomic Simulation Environment (ASE)
# Mon Mar 17 15:59:56 2025
#=======================================================
lattice_vector 9.9088396216454058 -0.0000000165626581 0.0000000000000000 
lattice_vector -0.0000000165626581 9.9088396216453383 0.0000000000000000 
lattice_vector 0.0000000000000000 0.0000000000000000 87.6116237411319503 
atom 0.0000000000000000 -0.0000000000000000 0.1620578771296997 Ba
atom 4.9544198108227038 -0.0000000082813292 0.1620578771296997 Ba
atom -0.0000000082813292 4.9544198108226656 0.1620578771296997 Ba
atom 4.9544198025413761 4.9544198025413362 0.1620578771296997 Ba
atom 0.0000000000000000 -0.0000000000000000 5.0652964151626332 Ba
atom 4.9544198108227038 -0.0000000082813292 5.0652964151626332 Ba
atom -0.0000000082813292 4.9544198108226656 5.0652964151626332 Ba
atom 4.9544198025413761 4.9544198025413362 5.0652964151626332 Ba
atom 2.4772099012706881 2.4772099012706681 2.4354159248656799 Zr
atom 7.4316297120933967 2.4772098929893378 2.4354159248656799 Zr
atom 2.4772098929893547 7.4316297120933372 2.4354159248656799 Zr
atom 7.4316297038120593 7.4316297038120096 2.4354159248656799 Zr
atom 2.4772099012706881 2.4772099012706681 7.5736685804174666 Zr
atom 7.4316297120933967 2.4772098929893378 7.5736685804174666 Zr
atom 2.4772098929893547 7.4316297120933372 7.5736685804174666 Zr
atom 7.4316297038120593 7.4316297038120096 7.5736685804174666 Zr
atom 2.4772099012706881 2.4772099012706681 -0.1074954128244417 S
atom 7.4316297120933967 2.4772098929893378 -0.1074954128244417 S
atom 2.4772098929893547 7.4316297120933372 -0.1074954128244417 S
atom 7.4316297038120593 7.4316297038120096 -0.1074954128244417 S
atom 2.4772099012706881 2.4772099012706681 5.0360196118426428 S
atom 7.4316297120933967 2.4772098929893378 5.0360196118426428 S
atom 2.4772098929893547 7.4316297120933372 5.0360196118426428 S
atom 7.4316297038120593 7.4316297038120096 5.0360196118426428 S
atom 2.0526573855777932 -0.0000003668738592 2.5288403580755805 S
atom 7.8561822360676219 0.0000003503112008 2.5288403580755805 S
atom 2.9017624169635772 4.9544201694151990 2.5288403580755805 S
atom 7.0070771881191787 4.9544194356674813 2.5288403580755805 S
atom 2.9977857113288788 -0.0000000353528892 7.5895870316043244 S
atom 6.9110539103165260 0.0000000187902308 7.5895870316043244 S
atom 1.9566340912124909 4.9544198378942266 7.5895870316043244 S
atom 7.9522055138702532 4.9544197671884502 7.5895870316043244 S
atom 0.0000003585925300 2.9017624252448861 2.5288403580755805 S
atom 4.9544194439488383 2.0526573772964518 2.5288403580755805 S
atom -0.0000003751551884 7.0070771964004441 2.5288403580755805 S
atom 4.9544201611339034 7.8561822277862268 2.5288403580755805 S
atom 0.0000000270715600 1.9566340994938070 7.5895870316043244 S
atom 4.9544197754698098 2.9977857030475255 7.5895870316043244 S
atom -0.0000000436342185 7.9522055221515329 7.5895870316043244 S
atom 4.9544198296129300 6.9110539020351469 7.5895870316043244 S
atom 0.0000000000000000 0.0000000000000000 10.1539918834393248 Ba
atom 4.9544198108227038 -0.0000000082813292 10.1539918834393248 Ba
atom -0.0000000082813292 4.9544198108226656 10.1539918834393248 Ba
atom 4.9544198025413761 4.9544198025413362 10.1539918834393248 Ba
atom 0.0000000000000000 0.0000000000000000 15.2623924040499794 Ba
atom 4.9544198108227038 -0.0000000082813292 15.2623924040499794 Ba
atom -0.0000000082813292 4.9544198108226656 15.2623924040499794 Ba
atom 4.9544198025413761 4.9544198025413362 15.2623924040499794 Ba
atom 2.4772099012706881 2.4772099012706681 12.6956684206437238 Zr
atom 7.4316297120933967 2.4772098929893378 12.6956684206437238 Zr
atom 2.4772098929893547 7.4316297120933372 12.6956684206437238 Zr
atom 7.4316297038120593 7.4316297038120096 12.6956684206437238 Zr
atom 2.4772099012706881 2.4772099012706681 17.8152940153071420 Zr
atom 7.4316297120933967 2.4772098929893378 17.8152940153071420 Zr
atom 2.4772098929893547 7.4316297120933372 17.8152940153071420 Zr
atom 7.4316297038120593 7.4316297038120096 17.8152940153071420 Zr
atom 2.4772099012706881 2.4772099012706681 10.1453763276530253 S
atom 7.4316297120933967 2.4772098929893378 10.1453763276530253 S
atom 2.4772098929893547 7.4316297120933372 10.1453763276530253 S
atom 7.4316297038120593 7.4316297038120096 10.1453763276530253 S
atom 2.4772099012706881 2.4772099012706681 15.2602921157310440 S
atom 7.4316297120933967 2.4772098929893378 15.2602921157310440 S
atom 2.4772098929893547 7.4316297120933372 15.2602921157310440 S
atom 7.4316297038120593 7.4316297038120096 15.2602921157310440 S
atom 2.9797955197355246 -0.0000000029407418 12.7081959562316982 S
atom 6.9290441019098781 -0.0000000136219167 12.7081959562316982 S
atom 1.9746242828058491 4.9544198054820781 12.7081959562316982 S
atom 7.9342153222769092 4.9544197996005996 12.7081959562316982 S
atom 2.9819828019253158 -0.0000000033445416 17.8185287650889777 S
atom 6.9268568197200846 -0.0000000132181168 17.8185287650889777 S
atom 1.9724370006160550 4.9544198058858786 17.8185287650889777 S
atom 7.9364026044666947 4.9544197991968053 17.8185287650889777 S
atom -0.0000000053405874 1.9746242910871632 12.7081959562316982 S
atom 4.9544198078819495 2.9797955114541721 12.7081959562316982 S
atom -0.0000000112220710 7.9342153305581711 12.7081959562316982 S
atom 4.9544197972007797 6.9290440936285025 12.7081959562316982 S
atom -0.0000000049367876 1.9724370088973699 17.8185287650889777 S
atom 4.9544198074781614 2.9819827936439669 17.8185287650889777 S
atom -0.0000000116258709 7.9364026127479637 17.8185287650889777 S
atom 4.9544197976045865 6.9268568114387161 17.8185287650889777 S
atom 0.0000000000000000 0.0000000000000000 20.3747962188679068 Ba
atom 4.9544198108227038 -0.0000000082813292 20.3747962188679068 Ba
atom -0.0000000082813292 4.9544198108226656 20.3747962188679068 Ba
atom 4.9544198025413761 4.9544198025413362 20.3747962188679068 Ba
atom 0.0000000000000000 0.0000000000000000 25.4872000336858306 Ba
atom 4.9544198108227038 -0.0000000082813292 25.4872000336858306 Ba
atom -0.0000000082813292 4.9544198108226656 25.4872000336858306 Ba
atom 4.9544198025413761 4.9544198025413362 25.4872000336858306 Ba
atom 2.4772099012706881 2.4772099012706681 22.9342984224287072 Zr
atom 7.4316297120933967 2.4772098929893378 22.9342984224287072 Zr
atom 2.4772098929893547 7.4316297120933372 22.9342984224287072 Zr
atom 7.4316297038120593 7.4316297038120096 22.9342984224287072 Zr
atom 2.4772099012706881 2.4772099012706681 28.0539240170920969 Zr
atom 7.4316297120933967 2.4772098929893378 28.0539240170920969 Zr
atom 2.4772098929893547 7.4316297120933372 28.0539240170920969 Zr
atom 7.4316297038120593 7.4316297038120096 28.0539240170920969 Zr
atom 2.4772099012706881 2.4772099012706681 20.3747962188679068 S
atom 7.4316297120933967 2.4772098929893378 20.3747962188679068 S
atom 2.4772098929893547 7.4316297120933372 20.3747962188679068 S
atom 7.4316297038120593 7.4316297038120096 20.3747962188679068 S
atom 2.4772099012706881 2.4772099012706681 25.4893003220047838 S
atom 7.4316297120933967 2.4772098929893378 25.4893003220047838 S
atom 2.4772098929893547 7.4316297120933372 25.4893003220047838 S
atom 7.4316297038120593 7.4316297038120096 25.4893003220047838 S
atom 2.9819828019253158 -0.0000000033445416 22.9310636726468395 S
atom 6.9268568197200846 -0.0000000132181168 22.9310636726468395 S
atom 1.9724370006160550 4.9544198058858786 22.9310636726468395 S
atom 7.9364026044666947 4.9544197991968053 22.9310636726468395 S
atom 2.9797955197355246 -0.0000000029407418 28.0413964815041616 S
atom 6.9290441019098781 -0.0000000136219167 28.0413964815041616 S
atom 1.9746242828058491 4.9544198054820781 28.0413964815041616 S
atom 7.9342153222769092 4.9544197996005996 28.0413964815041616 S
atom -0.0000000049367876 1.9724370088973699 22.9310636726468395 S
atom 4.9544198074781614 2.9819827936439669 22.9310636726468395 S
atom -0.0000000116258709 7.9364026127479637 22.9310636726468395 S
atom 4.9544197976045865 6.9268568114387161 22.9310636726468395 S
atom -0.0000000053405874 1.9746242910871632 28.0413964815041616 S
atom 4.9544198078819495 2.9797955114541721 28.0413964815041616 S
atom -0.0000000112220710 7.9342153305581711 28.0413964815041616 S
atom 4.9544197972007797 6.9290440936285025 28.0413964815041616 S
atom 0.0000000000000000 0.0000000000000000 30.5956005542965102 Ba
atom 4.9544198108227038 -0.0000000082813292 30.5956005542965102 Ba
atom -0.0000000082813292 4.9544198108226656 30.5956005542965102 Ba
atom 4.9544198025413761 4.9544198025413362 30.5956005542965102 Ba
atom -0.0000000000000000 0.0000000000000000 35.6842960225731716 Ba
atom 4.9544198108227038 -0.0000000082813292 35.6842960225731716 Ba
atom -0.0000000082813292 4.9544198108226656 35.6842960225731716 Ba
atom 4.9544198025413761 4.9544198025413362 35.6842960225731716 Ba
atom 2.4772099012706881 2.4772099012706681 33.1759238573183239 Zr
atom 7.4316297120933967 2.4772098929893378 33.1759238573183239 Zr
atom 2.4772098929893547 7.4316297120933372 33.1759238573183239 Zr
atom 7.4316297038120593 7.4316297038120096 33.1759238573183239 Zr
atom 2.4772099012706881 2.4772099012706681 38.3141765128701550 Zr
atom 7.4316297120933967 2.4772098929893378 38.3141765128701550 Zr
atom 2.4772098929893547 7.4316297120933372 38.3141765128701550 Zr
atom 7.4316297038120593 7.4316297038120096 38.3141765128701550 Zr
atom 2.4772099012706881 2.4772099012706681 30.6042161100828096 S
atom 7.4316297120933967 2.4772098929893378 30.6042161100828096 S
atom 2.4772098929893547 7.4316297120933372 30.6042161100828096 S
atom 7.4316297038120593 7.4316297038120096 30.6042161100828096 S
atom 2.4772099012706881 2.4772099012706681 35.7135728258931522 S
atom 7.4316297120933967 2.4772098929893378 35.7135728258931522 S
atom 2.4772098929893547 7.4316297120933372 35.7135728258931522 S
atom 7.4316297038120593 7.4316297038120096 35.7135728258931522 S
atom 2.9977857113288788 -0.0000000353528892 33.1600054061314822 S
atom 6.9110539103165260 0.0000000187902308 33.1600054061314822 S
atom 1.9566340912124904 4.9544198378942266 33.1600054061314822 S
atom 7.9522055138702532 4.9544197671884502 33.1600054061314822 S
atom 2.0526573855777932 -0.0000003668738592 38.2207520796602580 S
atom 7.8561822360676219 0.0000003503112008 38.2207520796602580 S
atom 2.9017624169635772 4.9544201694151990 38.2207520796602580 S
atom 7.0070771881191787 4.9544194356674813 38.2207520796602580 S
atom 0.0000000270715600 1.9566340994938070 33.1600054061314822 S
atom 4.9544197754698098 2.9977857030475255 33.1600054061314822 S
atom -0.0000000436342185 7.9522055221515329 33.1600054061314822 S
atom 4.9544198296129300 6.9110539020351469 33.1600054061314822 S
atom 0.0000003585925300 2.9017624252448861 38.2207520796602580 S
atom 4.9544194439488383 2.0526573772964518 38.2207520796602580 S
atom -0.0000003751551884 7.0070771964004441 38.2207520796602580 S
atom 4.9544201611339034 7.8561822277862268 38.2207520796602580 S
atom 0.0000000000000000 0.0000000000000000 40.5875345606061018 Ba
atom 4.9544198108227038 -0.0000000082813292 40.5875345606061018 Ba
atom -0.0000000082813292 4.9544198108226656 40.5875345606061018 Ba
atom 4.9544198025413761 4.9544198025413362 40.5875345606061018 Ba
atom 2.4772099012706881 2.4772099012706681 40.8570878505602479 S
atom 7.4316297120933967 2.4772098929893378 40.8570878505602479 S
atom 2.4772098929893547 7.4316297120933372 40.8570878505602479 S
atom 7.4316297038120593 7.4316297038120096 40.8570878505602479 S
atom 2.4772099012706881 2.4772099012706681 43.9682278654315581 Ba
atom 7.4316297120933967 2.4772098929893378 43.9682278654315581 Ba
atom 2.4772098929893547 7.4316297120933372 43.9682278654315581 Ba
atom 7.4316297038120593 7.4316297038120096 43.9682278654315581 Ba
atom 2.4772099012706881 2.4772099012706681 48.8714273094172995 Ba
atom 7.4316297120933967 2.4772098929893378 48.8714273094172995 Ba
atom 2.4772098929893547 7.4316297120933372 48.8714273094172995 Ba
atom 7.4316297038120593 7.4316297038120096 48.8714273094172995 Ba
atom 4.9544198025413761 4.9544198025413362 46.2415526365976106 Zr
atom 9.9088396133640906 4.9544197942600086 46.2415526365976106 Zr
atom 4.9544197942600485 9.9088396133640000 46.2415526365976106 Zr
atom 9.9088396050827523 9.9088396050826724 46.2415526365976106 Zr
atom 4.9544198025413761 4.9544198025413362 51.3797431762828296 Zr
atom 9.9088396133640906 4.9544197942600086 51.3797431762828296 Zr
atom 4.9544197942600485 9.9088396133640000 51.3797431762828296 Zr
atom 9.9088396050827523 9.9088396050826724 51.3797431762828296 Zr
atom 4.9544198025413761 4.9544198025413362 43.6986619528971190 S
atom 9.9088396133640906 4.9544197942600086 43.6986619528971190 S
atom 4.9544197942600485 9.9088396133640000 43.6986619528971190 S
atom 9.9088396050827523 9.9088396050826724 43.6986619528971190 S
atom 4.9544198025413761 4.9544198025413362 48.8421300407817611 S
atom 9.9088396133640906 4.9544197942600086 48.8421300407817611 S
atom 4.9544197942600485 9.9088396133640000 48.8421300407817611 S
atom 9.9088396050827523 9.9088396050826724 48.8421300407817611 S
atom 4.5298731941062318 2.4772095450905685 46.3349960973917661 S
atom 10.3333862300805350 2.4772102408881098 46.3349960973917661 S
atom 5.3789664109765161 7.4316300599921075 46.3349960973917661 S
atom 9.4842929966476035 7.4316293476319144 46.3349960973917661 S
atom 5.4749631537921930 2.4772098738552044 51.3956738108574456 S
atom 9.3882962703945800 2.4772099121234707 51.3956738108574456 S
atom 4.4338764512905495 7.4316297312274715 51.3956738108574456 S
atom 10.4293829563335532 7.4316296763965486 51.3956738108574456 S
atom 2.4772102491694601 5.3789664192577993 46.3349960973917661 S
atom 7.4316293559132944 4.5298731858248757 46.3349960973917661 S
atom 2.4772095368092582 9.4842930049288743 46.3349960973917661 S
atom 7.4316300517108367 10.3333862217991364 46.3349960973917661 S
atom 2.4772099204048179 4.4338764595718612 51.3956738108574456 S
atom 7.4316296846779313 5.4749631455108201 51.3956738108574456 S
atom 2.4772098655738950 10.4293829646148097 51.3956738108574456 S
atom 7.4316297229461981 9.3882962621131956 51.3956738108574456 S
atom 2.4772099012706881 2.4772099012706681 53.9600408487915786 Ba
atom 7.4316297120933967 2.4772098929893378 53.9600408487915786 Ba
atom 2.4772098929893547 7.4316297120933372 53.9600408487915786 Ba
atom 7.4316297038120593 7.4316297038120096 53.9600408487915786 Ba
atom 2.4772099012706881 2.4772099012706681 59.0683447176918150 Ba
atom 7.4316297120933967 2.4772098929893378 59.0683447176918150 Ba
atom 2.4772098929893547 7.4316297120933372 59.0683447176918150 Ba
atom 7.4316297038120593 7.4316297038120096 59.0683447176918150 Ba
atom 4.9544198025413761 4.9544198025413362 56.5016581948271011 Zr
atom 9.9088396133640906 4.9544197942600086 56.5016581948271011 Zr
atom 4.9544197942600485 9.9088396133640000 56.5016581948271011 Zr
atom 9.9088396050827523 9.9088396050826724 56.5016581948271011 Zr
atom 4.9544198025413761 4.9544198025413362 61.6211692024366045 Zr
atom 9.9088396133640906 4.9544197942600086 61.6211692024366045 Zr
atom 4.9544197942600485 9.9088396133640000 61.6211692024366045 Zr
atom 9.9088396050827523 9.9088396050826724 61.6211692024366045 Zr
atom 4.9544198025413761 4.9544198025413362 53.9514213812436410 S
atom 9.9088396133640906 4.9544197942600086 53.9514213812436410 S
atom 4.9544197942600485 9.9088396133640000 53.9514213812436410 S
atom 9.9088396050827523 9.9088396050826724 53.9514213812436410 S
atom 4.9544198025413761 4.9544198025413362 59.0662317684913276 S
atom 9.9088396133640906 4.9544197942600086 59.0662317684913276 S
atom 4.9544197942600485 9.9088396133640000 59.0662317684913276 S
atom 9.9088396050827523 9.9088396050826724 59.0662317684913276 S
atom 5.4569585090008399 2.4772098975957797 56.5142030969336489 S
atom 9.4063009151859234 2.4772098883828990 56.5142030969336489 S
atom 4.4518810960819071 7.4316297074869011 56.5142030969336489 S
atom 10.4113783115422223 7.4316297001371181 56.5142030969336489 S
atom 5.4591634094905812 2.4772098978650958 61.6244119709549594 S
atom 9.4040960146961883 2.4772098881135856 61.6244119709549594 S
atom 4.4496761955921684 7.4316297072175788 61.6244119709549594 S
atom 10.4135832120319538 7.4316297004064360 61.6244119709549594 S
atom 2.4772098966642440 4.4518811043632089 56.5142030969336489 S
atom 7.4316297084184901 5.4569585007194616 56.5142030969336489 S
atom 2.4772098893144689 10.4113783198234700 56.5142030969336489 S
atom 7.4316296992056268 9.4063009069045318 56.5142030969336489 S
atom 2.4772098963949323 4.4496762038734623 61.6244119709549594 S
atom 7.4316297086878187 5.4591634012092101 61.6244119709549594 S
atom 2.4772098895837837 10.4135832203132086 61.6244119709549594 S
atom 7.4316296989363098 9.4040960064148056 61.6244119709549594 S
atom 2.4772099012706881 2.4772099012706681 64.1806080894339317 Ba
atom 7.4316297120933967 2.4772098929893378 64.1806080894339317 Ba
atom 2.4772098929893547 7.4316297120933372 64.1806080894339317 Ba
atom 7.4316297038120593 7.4316297038120096 64.1806080894339317 Ba
atom 2.4772099012706881 2.4772099012706681 69.2928714611760341 Ba
atom 7.4316297120933967 2.4772098929893378 69.2928714611760341 Ba
atom 2.4772098929893547 7.4316297120933372 69.2928714611760341 Ba
atom 7.4316297038120593 7.4316297038120096 69.2928714611760341 Ba
atom 4.9544198025413761 4.9544198025413362 66.7400469764312163 Zr
atom 9.9088396133640906 4.9544197942600086 66.7400469764312163 Zr
atom 4.9544197942600485 9.9088396133640000 66.7400469764312163 Zr
atom 9.9088396050827523 9.9088396050826724 66.7400469764312163 Zr
atom 4.9544198025413761 4.9544198025413362 71.8595579840407765 Zr
atom 9.9088396133640906 4.9544197942600086 71.8595579840407765 Zr
atom 4.9544197942600485 9.9088396133640000 71.8595579840407765 Zr
atom 9.9088396050827523 9.9088396050826724 71.8595579840407765 Zr
atom 4.9544198025413761 4.9544198025413362 64.1806080894339317 S
atom 9.9088396133640906 4.9544197942600086 64.1806080894339317 S
atom 4.9544197942600485 9.9088396133640000 64.1806080894339317 S
atom 9.9088396050827523 9.9088396050826724 64.1806080894339317 S
atom 4.9544198025413761 4.9544198025413362 69.2949844103764718 S
atom 9.9088396133640906 4.9544197942600086 69.2949844103764718 S
atom 4.9544197942600485 9.9088396133640000 69.2949844103764718 S
atom 9.9088396050827523 9.9088396050826724 69.2949844103764718 S
atom 5.4591634094905812 2.4772098978650958 66.7368042079128543 S
atom 9.4040960146961883 2.4772098881135856 66.7368042079128543 S
atom 4.4496761955921684 7.4316297072175788 66.7368042079128543 S
atom 10.4135832120319538 7.4316297004064360 66.7368042079128543 S
atom 5.4569585090008399 2.4772098975957797 71.8470130819342216 S
atom 9.4063009151859234 2.4772098883828990 71.8470130819342216 S
atom 4.4518810960819071 7.4316297074869011 71.8470130819342216 S
atom 10.4113783115422223 7.4316297001371181 71.8470130819342216 S
atom 2.4772098963949323 4.4496762038734623 66.7368042079128543 S
atom 7.4316297086878187 5.4591634012092101 66.7368042079128543 S
atom 2.4772098895837837 10.4135832203132086 66.7368042079128543 S
atom 7.4316296989363098 9.4040960064148056 66.7368042079128543 S
atom 2.4772098966642440 4.4518811043632089 71.8470130819342216 S
atom 7.4316297084184901 5.4569585007194616 71.8470130819342216 S
atom 2.4772098893144689 10.4113783198234700 71.8470130819342216 S
atom 7.4316296992056268 9.4063009069045318 71.8470130819342216 S
atom 2.4772099012706881 2.4772099012706681 74.4011753300763132 Ba
atom 7.4316297120933967 2.4772098929893378 74.4011753300763132 Ba
atom 2.4772098929893547 7.4316297120933372 74.4011753300763132 Ba
atom 7.4316297038120593 7.4316297038120096 74.4011753300763132 Ba
atom 2.4772099012706881 2.4772099012706681 79.4897888694503649 Ba
atom 7.4316297120933967 2.4772098929893378 79.4897888694503649 Ba
atom 2.4772098929893547 7.4316297120933372 79.4897888694503649 Ba
atom 7.4316297038120593 7.4316297038120096 79.4897888694503649 Ba
atom 4.9544198025413761 4.9544198025413362 76.9814730025850906 Zr
atom 9.9088396133640906 4.9544197942600086 76.9814730025850906 Zr
atom 4.9544197942600485 9.9088396133640000 76.9814730025850906 Zr
atom 9.9088396050827523 9.9088396050826724 76.9814730025850906 Zr
atom 4.9544198025413761 4.9544198025413362 82.1196635422701178 Zr
atom 9.9088396133640906 4.9544197942600086 82.1196635422701178 Zr
atom 4.9544197942600485 9.9088396133640000 82.1196635422701178 Zr
atom 9.9088396050827523 9.9088396050826724 82.1196635422701178 Zr
atom 4.9544198025413761 4.9544198025413362 74.4097947976240164 S
atom 9.9088396133640906 4.9544197942600086 74.4097947976240164 S
atom 4.9544197942600485 9.9088396133640000 74.4097947976240164 S
atom 9.9088396050827523 9.9088396050826724 74.4097947976240164 S
atom 4.9544198025413761 4.9544198025413362 79.5190861380860667 S
atom 9.9088396133640906 4.9544197942600086 79.5190861380860667 S
atom 4.9544197942600485 9.9088396133640000 79.5190861380860667 S
atom 9.9088396050827523 9.9088396050826724 79.5190861380860667 S
atom 5.4749631537921930 2.4772098738552044 76.9655423680104036 S
atom 9.3882962703945800 2.4772099121234707 76.9655423680104036 S
atom 4.4338764512905495 7.4316297312274715 76.9655423680104036 S
atom 10.4293829563335532 7.4316296763965486 76.9655423680104036 S
atom 4.5298731941062318 2.4772095450905685 82.0262200814761115 S
atom 10.3333862300805350 2.4772102408881098 82.0262200814761115 S
atom 5.3789664109765161 7.4316300599921075 82.0262200814761115 S
atom 9.4842929966476035 7.4316293476319144 82.0262200814761115 S
atom 2.4772099204048179 4.4338764595718612 76.9655423680104036 S
atom 7.4316296846779313 5.4749631455108201 76.9655423680104036 S
atom 2.4772098655738950 10.4293829646148097 76.9655423680104036 S
atom 7.4316297229461981 9.3882962621131956 76.9655423680104036 S
atom 2.4772102491694601 5.3789664192577993 82.0262200814761115 S
atom 7.4316293559132944 4.5298731858248757 82.0262200814761115 S
atom 2.4772095368092582 9.4842930049288743 82.0262200814761115 S
atom 7.4316300517108367 10.3333862217991364 82.0262200814761115 S
atom 2.4772099012706881 2.4772099012706681 84.3929883134362768 Ba
atom 7.4316297120933967 2.4772098929893378 84.3929883134362768 Ba
atom 2.4772098929893547 7.4316297120933372 84.3929883134362768 Ba
atom 7.4316297038120593 7.4316297038120096 84.3929883134362768 Ba
atom 4.9544198025413761 4.9544198025413362 84.6625542259707800 S
atom 9.9088396133640906 4.9544197942600086 84.6625542259707800 S
atom 4.9544197942600485 9.9088396133640000 84.6625542259707800 S
atom 9.9088396050827523 9.9088396050826724 84.6625542259707800 S
