#=======================================================
# FHI-aims file: sym_relax/sym_relax_RP_1_Rx0Rz_0RyRz.in
# Created using the Atomic Simulation Environment (ASE)
# Fri Mar 14 10:20:16 2025
#=======================================================
lattice_vector 10.1083997533924030 0.0000243595787116 0.0003358439916411 
lattice_vector 0.0000243595787116 10.1083997533923871 -0.0003358439916411 
lattice_vector -0.0005100181927883 0.0005100181927883 15.5284656698153842 
atom -0.1566317399493284 -0.0000138641437931 0.2394899847630482 Ba
atom 5.2108164529990297 0.0000405145221433 0.2396666873996423 Ba
atom 0.1566287560921831 5.0542282114289661 0.2393308434080013 Ba
atom 4.8975803165362253 5.0541981923417421 0.2394899847630482 Ba
atom 0.1564723592640820 0.0001732448290394 4.6131555370542712 Ba
atom 4.8974239197081229 0.0001432257418144 4.6133146784093180 Ba
atom -0.1567637771987176 5.0543309226486430 4.6129788344176763 Ba
atom 5.2106844157496353 5.0543853013145839 4.6131555370542712 Ba
atom 2.5270263379001583 2.5271857185853941 2.4263227609086599 Zr
atom 7.5812262145963620 2.5271978983747490 2.4264906829044799 Zr
atom 2.5270385176895145 7.5813855952815743 2.4261548389128413 Zr
atom 7.5812383943857107 7.5813977750709363 2.4263227609086604 Zr
atom 2.5271361710203482 2.8450968526272189 -0.1070557350131322 S
atom 7.5812908167460407 2.2091206900834659 -0.1068654829139476 S
atom 2.5271031198391927 7.2633083869902890 -0.1072013269055886 S
atom 7.5813482275059050 7.8993089091127553 -0.1070557350131322 S
atom 2.5269165047799560 2.2092745845435680 4.9597012568304537 S
atom 7.5811616124466790 2.8452751066660289 4.9598468487229148 S
atom 2.5269739155398265 7.8994628035728534 4.9595110047312598 S
atom 7.5811285612655110 7.2634866410291110 4.9597012568304537 S
atom 2.5270284068621778 0.0000760384696447 2.1156140146683118 S
atom 7.5812119658449753 0.0001077017943130 2.7373673511406507 S
atom 2.5270242689381353 5.0542953987011474 2.7370315071490081 S
atom 7.5812404633477382 5.0542880949551785 2.1156140146683104 S
atom -0.0000742030281254 2.5271815463702438 2.4262171553488563 S
atom 5.0541268788284306 2.5271898908005430 2.4264283664684649 S
atom -0.0000608180784085 7.5813775877073688 2.4260925224768224 S
atom 5.0541378534574264 7.5813936028557816 2.4262171553488563 S
atom 2.5268648832901759 2.6839927772884939 8.0037228196707542 Ba
atom 7.5810225611097994 2.3707566408256908 8.0038995223073712 Ba
atom 2.5268348642029528 7.4249443377325219 8.0035636783157145 Ba
atom 7.5810769397757358 7.7382048337740326 8.0037228196707542 Ba
atom 2.5266777743173434 2.3708886780750817 12.3773883719619828 Ba
atom 7.5809198498901269 2.6841491741165897 12.3775475133170314 Ba
atom 2.5267321529832807 7.7383368710234235 12.3772116693253729 Ba
atom 7.5808898308028905 7.4251007345606244 12.3773883719619846 Ba
atom 5.0538773570465372 5.0545467559245552 10.1905555958163667 Zr
atom 10.1080772337427547 5.0545589357139100 10.1907235178121880 Zr
atom 5.0538895368358911 10.1087466326207309 10.1903876738205454 Zr
atom 10.1080894135320936 10.1087588124100964 10.1905555958163667 Zr
atom 4.7359662230047190 5.0544369228043537 7.6571770998945743 S
atom 10.4261544420340275 5.0544943335642261 7.6573673519937673 S
atom 5.3719667451271897 10.1086820304710443 7.6570315080021185 S
atom 9.7901782794902825 10.1086489792899279 7.6571770998945743 S
atom 5.3717884910883722 5.0546565890447601 12.7239340917381583 S
atom 9.7900000254514428 5.0546235378635931 12.7240796836306114 S
atom 4.7358123285446041 10.1088112347704264 12.7237438396389653 S
atom 10.4260005475739099 10.1088686455302970 12.7239340917381583 S
atom 5.0538731848313923 2.5274462149962824 10.1906612013761713 S
atom 10.1080692261685297 2.5274595999459994 10.1907858342482083 S
atom 5.0538815292616892 7.5816472968528323 10.1904499902565675 S
atom 10.1080852413169584 7.5816582714818193 10.1906612013761713 S
atom 2.5267676769307834 5.0545488248865809 10.5012643420567162 S
atom 7.5809870371622985 5.0545446869625374 9.8798468495760083 S
atom 2.5267993402554443 10.1087323838693663 9.8795110055843800 S
atom 7.5809797334163385 10.1087608813721097 10.5012643420567162 S
