#=======================================================
# FHI-aims file: sym_relax/sym_relax_RP_4_00Rz1_00Rz2.in
# Created using the Atomic Simulation Environment (ASE)
# Fri Mar 14 10:26:23 2025
#=======================================================
lattice_vector 9.9060917181972759 0.0000000030200516 0.0000000000000000 
lattice_vector 0.0000000030200516 9.9060917181972670 0.0000000000000000 
lattice_vector 0.0000000000000000 0.0000000000000000 46.6838135421723308 
atom 0.0000000000000000 0.0000000000000000 0.1663964885321538 Ba
atom 4.9530458590986397 0.0000000015100256 0.1663964885321537 Ba
atom 0.0000000015100256 4.9530458590986290 0.1663964885321538 Ba
atom 4.9530458606086709 4.9530458606086558 0.1663964885321538 Ba
atom 0.0000000000000000 0.0000000000000000 5.0674891511320697 Ba
atom 4.9530458590986397 0.0000000015100256 5.0674891511320697 Ba
atom 0.0000000015100256 4.9530458590986290 5.0674891511320697 Ba
atom 4.9530458606086709 4.9530458606086558 5.0674891511320697 Ba
atom 2.4765229303043355 2.4765229303043279 2.4447224928425224 Zr
atom 7.4295687894029818 2.4765229318143538 2.4447224928425224 Zr
atom 2.4765229318143587 7.4295687894029534 2.4447224928425224 Zr
atom 7.4295687909130033 7.4295687909129819 2.4447224928425224 Zr
atom 2.4765229303043355 2.4765229303043279 7.5880834677204660 Zr
atom 7.4295687894029818 2.4765229318143538 7.5880834677204660 Zr
atom 2.4765229318143587 7.4295687894029534 7.5880834677204660 Zr
atom 7.4295687909130033 7.4295687909129819 7.5880834677204660 Zr
atom 2.4765229303043355 2.4765229303043279 -0.1004344541268848 S
atom 7.4295687894029818 2.4765229318143538 -0.1004344541268848 S
atom 2.4765229318143587 7.4295687894029534 -0.1004344541268848 S
atom 7.4295687909130033 7.4295687909129819 -0.1004344541268848 S
atom 2.4765229303043355 2.4765229303043279 5.0435697861059827 S
atom 7.4295687894029818 2.4765229318143538 5.0435697861059827 S
atom 2.4765229318143587 7.4295687894029534 5.0435697861059827 S
atom 7.4295687909130033 7.4295687909129819 5.0435697861059827 S
atom 2.0511403329190872 -0.0000001320034280 2.5337416277372546 S
atom 7.8549513852782020 0.0000001350234783 2.5337416277372546 S
atom 2.9019055276895798 4.9530459926120765 2.5337416277372546 S
atom 7.0041861935277590 4.9530457286052272 2.5337416277372546 S
atom 3.0105569756122228 -0.0000000533410352 7.5963022394282573 S
atom 6.8955347425850579 0.0000000563610864 7.5963022394282573 S
atom 1.9424888849964457 4.9530459139496879 7.5963022394282573 S
atom 7.9636028362208977 4.9530458072676193 7.5963022394282573 S
atom 0.0000001335134533 2.9019055261795446 2.5337416277372546 S
atom 4.9530457270952182 2.0511403344291086 2.5337416277372546 S
atom -0.0000001304934019 7.0041861920177064 2.5337416277372546 S
atom 4.9530459941221219 7.8549513867882066 2.5337416277372546 S
atom 0.0000000548510617 1.9424888834864129 7.5963022394282573 S
atom 4.9530458057576103 3.0105569771222358 7.5963022394282573 S
atom -0.0000000518310104 7.9636028347108452 7.5963022394282573 S
atom 4.9530459154597368 6.8955347440950652 7.5963022394282573 S
atom 0.0000000000000000 0.0000000000000000 10.1486551178635533 Ba
atom 4.9530458590986397 0.0000000015100256 10.1486551178635533 Ba
atom 0.0000000015100256 4.9530458590986290 10.1486551178635533 Ba
atom 4.9530458606086709 4.9530458606086558 10.1486551178635533 Ba
atom 0.0000000000000000 0.0000000000000000 15.2298210845950308 Ba
atom 4.9530458590986397 0.0000000015100256 15.2298210845950308 Ba
atom 0.0000000015100256 4.9530458590986290 15.2298210845950308 Ba
atom 4.9530458606086709 4.9530458606086558 15.2298210845950308 Ba
atom 2.4765229303043355 2.4765229303043279 12.7092267680066282 Zr
atom 7.4295687894029818 2.4765229318143538 12.7092267680066282 Zr
atom 2.4765229318143587 7.4295687894029534 12.7092267680066282 Zr
atom 7.4295687909130033 7.4295687909129819 12.7092267680066282 Zr
atom 2.4765229303043355 2.4765229303043279 17.8525877428845554 Zr
atom 7.4295687894029818 2.4765229318143538 17.8525877428845554 Zr
atom 2.4765229318143587 7.4295687894029534 17.8525877428845554 Zr
atom 7.4295687909130033 7.4295687909129819 17.8525877428845554 Zr
atom 2.4765229303043355 2.4765229303043279 10.1486551178635533 S
atom 7.4295687894029818 2.4765229318143538 10.1486551178635533 S
atom 2.4765229318143587 7.4295687894029534 10.1486551178635533 S
atom 7.4295687909130033 7.4295687909129819 10.1486551178635533 S
atom 2.4765229303043355 2.4765229303043279 15.2537404496211035 S
atom 7.4295687894029818 2.4765229318143538 15.2537404496211035 S
atom 2.4765229318143587 7.4295687894029534 15.2537404496211035 S
atom 7.4295687909130033 7.4295687909129819 15.2537404496211035 S
atom 1.9424888834864200 0.0000000548510608 12.7010079962988378 S
atom 7.9636028347108745 -0.0000000518310105 12.7010079962988378 S
atom 3.0105569771222487 4.9530458057575943 12.7010079962988378 S
atom 6.8955347440950918 4.9530459154597120 12.7010079962988378 S
atom 2.9019055261795539 0.0000001335134536 17.7635686079898250 S
atom 7.0041861920177357 -0.0000001304934015 17.7635686079898250 S
atom 2.0511403344291188 4.9530457270952013 17.7635686079898250 S
atom 7.8549513867882350 4.9530459941221059 17.7635686079898250 S
atom -0.0000000533410355 3.0105569756122121 12.7010079962988378 S
atom 4.9530459139497003 1.9424888849964383 12.7010079962988378 S
atom 0.0000000563610867 6.8955347425850375 12.7010079962988378 S
atom 4.9530458072676327 7.9636028362208684 12.7010079962988378 S
atom -0.0000001320034277 2.0511403329190809 17.7635686079898250 S
atom 4.9530459926120898 2.9019055276895700 17.7635686079898250 S
atom 0.0000001350234787 7.8549513852781798 17.7635686079898250 S
atom 4.9530457286052432 7.0041861935277367 17.7635686079898250 S
atom 0.0000000000000000 0.0000000000000000 20.1309137471949562 Ba
atom 4.9530458590986397 0.0000000015100256 20.1309137471949562 Ba
atom 0.0000000015100256 4.9530458590986290 20.1309137471949562 Ba
atom 4.9530458606086709 4.9530458606086558 20.1309137471949562 Ba
atom 2.4765229303043355 2.4765229303043279 20.3977446898539938 S
atom 7.4295687894029818 2.4765229318143538 20.3977446898539938 S
atom 2.4765229318143587 7.4295687894029534 20.3977446898539938 S
atom 7.4295687909130033 7.4295687909129819 20.3977446898539938 S
atom 2.4765229303043355 2.4765229303043279 23.5082991723564483 Ba
atom 7.4295687894029818 2.4765229318143538 23.5082991723564483 Ba
atom 2.4765229318143587 7.4295687894029534 23.5082991723564483 Ba
atom 7.4295687909130033 7.4295687909129819 23.5082991723564483 Ba
atom 2.4765229303043355 2.4765229303043279 28.4093885670794712 Ba
atom 7.4295687894029818 2.4765229318143538 28.4093885670794712 Ba
atom 2.4765229318143587 7.4295687894029534 28.4093885670794712 Ba
atom 7.4295687909130033 7.4295687909129819 28.4093885670794712 Ba
atom 4.9530458606086709 4.9530458606086558 25.7866195512594700 Zr
atom 9.9060917197073213 4.9530458621186773 25.7866195512594700 Zr
atom 4.9530458621187003 9.9060917197072857 25.7866195512594700 Zr
atom 9.9060917212173418 9.9060917212173116 25.7866195512594700 Zr
atom 4.9530458606086709 4.9530458606086558 30.9299836657637996 Zr
atom 9.9060917197073213 4.9530458621186773 30.9299836657637996 Zr
atom 4.9530458621187003 9.9060917197072857 30.9299836657637996 Zr
atom 9.9060917212173418 9.9060917212173116 30.9299836657637996 Zr
atom 4.9530458606086709 4.9530458606086558 23.2414690469769596 S
atom 9.9060917197073213 4.9530458621186773 23.2414690469769596 S
atom 4.9530458621187003 9.9060917197072857 23.2414690469769596 S
atom 9.9060917212173418 9.9060917212173116 23.2414690469769596 S
atom 4.9530458606086709 4.9530458606086558 28.3854710729440178 S
atom 9.9060917197073213 4.9530458621186773 28.3854710729440178 S
atom 4.9530458621187003 9.9060917197072857 28.3854710729440178 S
atom 9.9060917212173418 9.9060917212173116 28.3854710729440178 S
atom 4.5276679051420512 2.4765228037924252 25.8756410163982764 S
atom 10.3314696736639089 2.4765230598362802 25.8756410163982764 S
atom 5.3784238160752889 7.4295689174248780 25.8756410163982764 S
atom 9.4807137657507230 7.4295686644010805 25.8756410163982764 S
atom 5.4870846274214715 2.4765228768892373 30.9382039414245504 S
atom 9.3720529513844966 2.4765229867394662 30.9382039414245504 S
atom 4.4190070937958676 7.4295688443280659 30.9382039414245504 S
atom 10.4401304880301389 7.4295687374978918 30.9382039414245504 S
atom 2.4765230583262623 5.3784238145652479 25.8756410163982764 S
atom 7.4295686628910786 4.5276679066520567 25.8756410163982764 S
atom 2.4765228053024582 9.4807137642406616 25.8756410163982764 S
atom 7.4295689189349288 10.3314696751738975 25.8756410163982764 S
atom 2.4765229852294461 4.4190070922858293 30.9382039414245504 S
atom 7.4295687359878952 5.4870846289314743 30.9382039414245504 S
atom 2.4765228783992734 10.4401304865200668 30.9382039414245504 S
atom 7.4295688458381210 9.3720529528944780 30.9382039414245504 S
atom 2.4765229303043355 2.4765229303043279 33.4905618889496708 Ba
atom 7.4295687894029818 2.4765229318143538 33.4905618889496708 Ba
atom 2.4765229318143587 7.4295687894029534 33.4905618889496708 Ba
atom 7.4295687909130033 7.4295687909129819 33.4905618889496708 Ba
atom 2.4765229303043355 2.4765229303043279 38.5717352108199805 Ba
atom 7.4295687894029818 2.4765229318143538 38.5717352108199805 Ba
atom 2.4765229318143587 7.4295687894029534 38.5717352108199805 Ba
atom 7.4295687909130033 7.4295687909129819 38.5717352108199805 Ba
atom 4.9530458606086709 4.9530458606086558 36.0511401121356698 Zr
atom 9.9060917197073213 4.9530458621186773 36.0511401121356698 Zr
atom 4.9530458621187003 9.9060917197072857 36.0511401121356698 Zr
atom 9.9060917212173418 9.9060917212173116 36.0511401121356698 Zr
atom 4.9530458606086709 4.9530458606086558 41.1945042266399213 Zr
atom 9.9060917197073213 4.9530458621186773 41.1945042266399213 Zr
atom 4.9530458621187003 9.9060917197072857 41.1945042266399213 Zr
atom 9.9060917212173418 9.9060917212173116 41.1945042266399213 Zr
atom 4.9530458606086709 4.9530458606086558 33.4905618889496708 S
atom 9.9060917197073213 4.9530458621186773 33.4905618889496708 S
atom 4.9530458621187003 9.9060917197072857 33.4905618889496708 S
atom 9.9060917212173418 9.9060917212173116 33.4905618889496708 S
atom 4.9530458606086709 4.9530458606086558 38.5956527049553557 S
atom 9.9060917197073213 4.9530458621186773 38.5956527049553557 S
atom 4.9530458621187003 9.9060917197072857 38.5956527049553557 S
atom 9.9060917212173418 9.9060917212173116 38.5956527049553557 S
atom 4.4190070922858435 2.4765229852294399 36.0429198364749013 S
atom 10.4401304865201059 2.4765228783992663 36.0429198364749013 S
atom 5.4870846289314947 7.4295687359878704 36.0429198364749013 S
atom 9.3720529528945242 7.4295688458380864 36.0429198364749013 S
atom 5.3784238145652727 2.4765230583262516 41.1054827615010723 S
atom 9.4807137642406918 2.4765228053024479 41.1054827615010723 S
atom 4.5276679066520682 7.4295686628910538 41.1054827615010723 S
atom 10.3314696751739419 7.4295689189349021 41.1054827615010723 S
atom 2.4765228768892462 5.4870846274214484 36.0429198364749013 S
atom 7.4295688443280907 4.4190070937958579 36.0429198364749013 S
atom 2.4765229867394716 9.3720529513844681 36.0429198364749013 S
atom 7.4295687374979158 10.4401304880300998 36.0429198364749013 S
atom 2.4765228037924363 4.5276679051420317 41.1054827615010723 S
atom 7.4295689174249064 5.3784238160752729 41.1054827615010723 S
atom 2.4765230598362913 10.3314696736638805 41.1054827615010723 S
atom 7.4295686644011045 9.4807137657506804 41.1054827615010723 S
atom 2.4765229303043355 2.4765229303043279 43.4728246055430105 Ba
atom 7.4295687894029818 2.4765229318143538 43.4728246055430105 Ba
atom 2.4765229318143587 7.4295687894029534 43.4728246055430105 Ba
atom 7.4295687909130033 7.4295687909129819 43.4728246055430105 Ba
atom 4.9530458606086709 4.9530458606086558 43.7396547309224459 S
atom 9.9060917197073213 4.9530458621186773 43.7396547309224459 S
atom 4.9530458621187003 9.9060917197072857 43.7396547309224459 S
atom 9.9060917212173418 9.9060917212173116 43.7396547309224459 S
