#=======================================================
# FHI-aims file: sym_relax/sym_relax_RP_8_Rx0Rz_0-RyRz.in
# Created using the Atomic Simulation Environment (ASE)
# Mon Mar 17 16:10:38 2025
#=======================================================
lattice_vector 9.9767127197124719 0.0000763228223878 0.0125830542954460 
lattice_vector 0.0000763228223878 9.9767127197124825 0.0125830542954460 
lattice_vector 0.1091306638545960 0.1091306638545959 86.4977578867770944 
atom -0.1777499166159149 0.0505307481667625 0.2409924360664779 Ba
atom 5.0426427635279403 0.0506285251689967 0.2449472253045593 Ba
atom 0.0543245650829006 5.0389467236140337 0.2449472253045593 Ba
atom 4.8106446046515012 5.0389252694341806 0.2535754903619236 Ba
atom -0.1043800048774364 0.0445294204107416 4.9448221290666021 Ba
atom 4.8372723632209373 0.0445748365097880 4.9218506487459770 Ba
atom -0.1510458352241159 5.0328930349548369 4.9218506487459770 Ba
atom 4.8840145163899837 5.0329239416781517 4.9574051833620398 Ba
atom 2.4304824587778340 2.5408671220309680 2.3312056957449268 Zr
atom 7.4188405018846151 2.5433814200095850 2.3363980987714656 Zr
atom 2.4305223034395782 7.5316996184546028 2.3363980987714648 Zr
atom 7.4188769800452494 7.5292616432983897 2.3437887500403756 Zr
atom 2.4567079870223250 2.5180700057059582 7.4195387128220682 Zr
atom 7.4450961820922279 2.5532617973336169 7.4253271885375378 Zr
atom 2.4567779836471848 7.5415799957786787 7.4253271885375352 Zr
atom 7.4451025082897555 7.5064645269733949 7.4321217671175246 Zr
atom 2.4381266599308753 2.8377663753588367 -0.1661372094669920 S
atom 7.4263261471242217 2.2527460440158116 -0.1616572890771747 S
atom 2.4380079486791812 7.2410642424608556 -0.1616572890771747 S
atom 7.4265211811983107 7.8261608966262646 -0.1535541551715457 S
atom 2.4499619705855920 2.2330641628040060 4.9124208193805741 S
atom 7.4385204273484389 2.8444981985526776 4.9192555637487017 S
atom 2.4502022289033922 7.8328163969977149 4.9192555637487034 S
atom 7.4383564918530167 7.2214586840714254 4.9250038736760144 S
atom 2.4235656198259727 0.0481876405523597 2.1148722560637783 S
atom 7.4211906679282018 0.0474999925697214 2.7506273586543410 S
atom 2.4328724694831618 5.0358181910147470 2.7506273586543410 S
atom 7.4119601410934060 5.0365821618197932 2.1274553103592293 S
atom 2.9584587067058417 0.0411121904041223 7.6657738137241838 S
atom 7.0182592592565767 0.0417222095309409 7.2012645307635728 S
atom 2.0299410608115429 5.0300404079759851 7.2012645307635728 S
atom 7.9468532279732864 5.0295067116715471 7.6783568680196383 S
atom -0.0614309033560676 2.5526277628054088 2.4417837890973670 S
atom 4.9270042591952059 2.5313204087043482 2.4482052469207725 S
atom -0.0613139392498363 7.5196386071493908 2.4482052469207733 S
atom 4.9269636179113618 7.5410222840728247 2.4543668433928132 S
atom -0.0299405276510711 2.0658058297350075 7.4380222477225511 S
atom 4.9583951202246288 3.0052349471878346 7.4453648082607637 S
atom -0.0299230782204026 7.9935531456328626 7.4453648082607637 S
atom 4.9584539936163541 7.0542003510024252 7.4506053020179976 S
atom -0.0486129267286105 0.0381343546543244 9.9618734816978716 Ba
atom 5.0859266897363904 0.0382422175655416 9.9810989271123010 Ba
atom 0.0976084912913778 5.0265604160105806 9.9810989271122992 Ba
atom 4.9397815945388208 5.0265288759217501 9.9744565359933350 Ba
atom 0.0897661623673463 0.0319252068521875 15.0387254022070724 Ba
atom 4.9556900431164355 0.0318190903913702 15.0428246133058110 Ba
atom -0.0326281553286037 5.0201372888363993 15.0428246133058146 Ba
atom 5.0781606836347715 5.0203197281196088 15.0513084565025075 Ba
atom 2.5069823551549981 2.5328124604777886 12.4955201858060043 Zr
atom 7.4953344865958442 2.5256549365102647 12.5014775660103741 Zr
atom 2.5070162881508193 7.5139731349552843 12.5014775660103705 Zr
atom 7.4953768764224282 7.5212069817452125 12.5081032401014465 Zr
atom 2.5165771224932358 2.5221753236485731 17.5797301573646152 Zr
atom 7.5048965940623527 2.5235064290900557 17.5857913679914972 Zr
atom 2.5165783956173149 7.5118246275351011 17.5857913679914901 Zr
atom 7.5049716437606513 7.5105698449159917 17.5923132116600662 Zr
atom 2.4764554648479749 2.7344351455323141 9.9683366250010472 S
atom 7.4647025238335534 2.3303930056838533 9.9739692028138531 S
atom 2.4763843253885196 7.3187112041288778 9.9739692028138531 S
atom 7.4648499861153956 7.7228296667997300 9.9809196792964769 S
atom 2.5021571416219741 2.3848855379410123 15.0426051848744144 S
atom 7.4906075893467996 2.6671558233607722 15.0491605049172517 S
atom 2.5022893909017596 7.6554740218058068 15.0491605049172517 S
atom 7.4905516628893878 7.3732800592084349 15.0551882391698548 S
atom 2.0207748055933057 0.0351942670539798 12.3685309554531369 S
atom 7.9908523127100732 0.0348784863568619 12.6503783476743585 S
atom 3.0025341142650381 5.0231966848018867 12.6503783476743550 S
atom 7.0091693268607305 5.0235887883213977 12.3811140097485612 S
atom 3.0170757232784835 0.0285122187901097 17.6874047976864617 S
atom 7.0054860776019785 0.0288147163229683 17.4798045128145816 S
atom 2.0171678791569372 5.0171329147679984 17.4798045128145816 S
atom 8.0054702445459007 5.0169067400575234 17.6999878519819269 S
atom 0.0069871277275907 3.0236100432488819 12.5076492159540802 S
atom 4.9953399623768870 2.0347404472613349 12.5127662553044079 S
atom 0.0070217639318452 7.0230586457063886 12.5127662553044061 S
atom 4.9953816489950151 8.0120045645162978 12.5202322702495312 S
atom 0.0204359273676681 2.0205605770984882 17.5791007999984998 S
atom 5.0087864581487596 3.0252046067713714 17.5865361986374467 S
atom 0.0204682597036984 8.0135228052164109 17.5865361986374502 S
atom 5.0088304486350888 7.0089550983659068 17.5916838542939900 S
atom -0.0302668063427451 0.0254257178880211 20.1142950412098180 Ba
atom 5.0693816145034525 0.0253708918276345 20.1235117821133365 Ba
atom 0.0810634160584017 5.0136890902726572 20.1235117821133365 Ba
atom 4.9581277149246725 5.0138202391554527 20.1268780955052193 Ba
atom 0.0834247650442607 0.0189775193242848 25.1949822100173471 Ba
atom 4.9493486457933580 0.0188714028634680 25.1990814211160874 Ba
atom -0.0389695526516894 5.0071896013085135 25.1990814211160910 Ba
atom 5.0718192863116922 5.0073720405917079 25.2075652643127839 Ba
atom 2.5226127353657728 2.5156847018930160 22.6645985096270586 Zr
atom 7.5109322069348980 2.5170158073345070 22.6706597202539193 Zr
atom 2.5226140084898474 7.5053340057795337 22.6706597202539157 Zr
atom 7.5110072566331958 7.5040792231604270 22.6771815639224883 Zr
atom 2.5321748428322630 2.5135361944728256 27.7489123116082297 Zr
atom 7.5205269742731193 2.5063786705052924 27.7548696918125941 Zr
atom 2.5322087758280842 7.4946968689503413 27.7548696918125906 Zr
atom 7.5205693640996900 7.5019307157402446 27.7614953659036416 Zr
atom 2.5196757716354941 2.6452705084981356 20.1222490924913764 S
atom 7.5078335577926110 2.3939206224849370 20.1281407851272043 S
atom 2.5195153593475839 7.3822388209299623 20.1281407851272043 S
atom 7.5080702929029028 7.6336650297655524 20.1348321467868097 S
atom 2.5369017400813201 2.3720353076223026 25.2012293727013024 S
atom 7.5253521878061544 2.6543055930420687 25.2077846927441733 S
atom 2.5370339893611100 7.6426237914871065 25.2077846927441698 S
atom 7.5252962613487471 7.3604298288897239 25.2138124269967498 S
atom 2.0220390848822163 0.0222843909255462 22.5504020256366537 S
atom 8.0103414502711594 0.0220582162150760 22.7705853648040097 S
atom 3.0220232518261438 5.0103764146601204 22.7705853648040133 S
atom 7.0104336061496380 5.0106789121929864 22.5629850799320941 S
atom 3.0183400025673919 0.0156023426616767 27.8692758678700052 S
atom 7.0249752151630958 0.0159944461811820 27.6000115299442363 S
atom 2.0366570167180513 5.0043126446262276 27.6000115299442363 S
atom 8.0067345238348295 5.0039968639291015 27.8818589221654953 S
atom 0.0303606823479888 3.0185542310622075 22.6587060233246227 S
atom 5.0187228712793814 2.0139865242117021 22.6638536789810949 S
atom 0.0304046728343467 7.0023047226567403 22.6638536789810949 S
atom 5.0187552036154299 8.0069487523296061 22.6712890776200737 S
atom 0.0438094819880662 2.0155047649118099 27.7301576073690477 S
atom 5.0321693670512282 3.0044506837217413 27.7376236223141852 S
atom 0.0438511686061991 7.9927688821667591 27.7376236223141852 S
atom 5.0322040032555044 7.0038992861792275 27.7427406616645023 S
atom -0.0468118815757207 0.0125543921501143 30.2567078962107985 Ba
atom 5.0877277348893006 0.0126622550613317 30.2759333416252723 Ba
atom 0.0994095364442684 5.0009804535063651 30.2759333416252794 Ba
atom 4.9415826396917142 5.0009489134175418 30.2692909505062531 Ba
atom 0.2018424449397734 0.0062217732058680 35.3159561745770958 Ba
atom 5.1434948130381253 0.0062671893049144 35.2929846942566741 Ba
atom 0.1551766145930932 4.9945853877499529 35.2929846942566741 Ba
atom 5.1902369662071886 4.9946162944732970 35.3285392288725504 Ba
atom 2.5824131473358976 2.4859293336494552 32.8250626890810224 Zr
atom 7.5708013424057778 2.5211211252771131 32.8308511647963854 Zr
atom 2.5824831439607552 7.5094393237221340 32.8308511647963925 Zr
atom 7.5708076686033126 7.4743238549168707 32.8376457433764273 Zr
atom 2.6086688275435002 2.4958097109734934 37.9139917788471053 Zr
atom 7.5970268706502964 2.4983240089521201 37.9191841818736179 Zr
atom 2.6087086722052582 7.4866422073971517 37.9191841818736179 Zr
atom 7.5970633488109343 7.4842042322409306 37.9265748331425527 Zr
atom 2.5628068055945592 2.7087981252992246 30.2764206748047293 S
atom 7.5510538645801502 2.3047559854507580 30.2820532526175299 S
atom 2.5627356661351088 7.2930741838958104 30.2820532526175299 S
atom 7.5512013268619738 7.6971926465666538 30.2890037291001519 S
atom 2.5889889020796857 2.1946929324304048 35.3311343138698675 S
atom 7.5775473588425157 2.8061269681790679 35.3379690582380235 S
atom 2.5892291603974917 7.7944451666241132 35.3379690582380235 S
atom 7.5773834233471140 7.1830874536978246 35.3437173681654215 S
atom 2.0806561014548572 0.0096844193115336 32.5720330095988828 S
atom 7.9975682686165870 0.0091507230071034 33.0491253468550070 S
atom 3.0092500701715443 4.9974689214521399 33.0491253468550070 S
atom 7.0690506227222709 4.9980789405789512 32.5846160638943161 S
atom 2.6155491883347133 0.0026089691632958 38.1229345672593638 S
atom 7.5946368599449503 0.0033729399683220 37.4997625189642108 S
atom 2.6063186614999241 4.9916911384133549 37.4997625189642108 S
atom 7.6039437096021656 4.9910034904307121 38.1355176215548255 S
atom 0.0807371373667281 2.9733089784256794 32.7997845756005404 S
atom 5.0691142092034909 2.0339561837952509 32.8050250693578107 S
atom 0.0807960107584470 7.0222743822402744 32.8050250693578036 S
atom 5.0691316586341522 7.9617034996931064 32.8123676298959737 S
atom 0.1122275130717243 2.4864870453552870 37.7960230342257759 S
atom 5.1005050702329129 2.5078707222787249 37.8021846306978091 S
atom 0.1121868717878820 7.4961889207237631 37.8021846306978091 S
atom 5.1006220343391666 7.4748815666227246 37.8086060885212447 S
atom -0.0035279553672447 0.0001680845466592 39.9928595980186046 Ba
atom 5.2168647247766193 0.0002658615488940 39.9968143872566628 Ba
atom 0.2285465263315722 4.9885840599939364 39.9968143872566628 Ba
atom 4.9848665659001776 4.9885626058140939 40.0054426523141018 Ba
atom 2.6011831823038971 2.7864450869672637 40.4120471666957286 S
atom 7.5893826694972466 2.2014247556242443 40.4165270870855480 S
atom 2.6010644710522102 7.1897429540692741 40.4165270870855480 S
atom 7.5895777035713188 7.7748396082346840 40.4246302209911832 S
atom 2.5992933407277676 2.3710126759450922 43.4961629066027342 Ba
atom 7.5877093161750446 2.6030871576439094 43.5001176958408209 Ba
atom 2.5993911177300104 7.5914053560889503 43.5001176958408209 Ba
atom 7.5876878619951897 7.3594071972125192 43.5087459608982243 Ba
atom 2.5932920129717503 2.4443825876835663 48.1999925996027372 Ba
atom 7.5816556275158309 2.3977167573368914 48.1770211192823083 Ba
atom 2.5933374290707976 7.3860349557819278 48.1770211192823012 Ba
atom 7.5816865342391830 7.4327771089510026 48.2125756538982415 Ba
atom 5.0896297145919727 4.9792450513388262 45.5863761662812337 Zr
atom 10.0804622110156377 4.9792848960005909 45.5915685693077464 Zr
atom 5.0921440125705955 9.9676030944455913 45.5915685693077535 Zr
atom 10.0780242358594485 9.9676395726062772 45.5989592205767238 Zr
atom 5.0668325982669877 5.0054705795833430 50.6747091833583525 Zr
atom 10.0903425883396771 5.0055405762081966 50.6804976590737226 Zr
atom 5.1020243898946402 9.9938587746532335 50.6804976590737226 Zr
atom 10.0552271195344041 9.9938651008507566 50.6872922376538639 Zr
atom 5.3865289679198538 4.9868892524918875 43.0890332610692752 S
atom 9.7898268350218540 4.9867705412401815 43.0935131814590378 S
atom 4.8015086365768296 9.9750887396852015 43.0935131814590378 S
atom 10.3749234891873119 9.9752837737593261 43.1016163153647156 S
atom 4.7818267553650262 4.9987245631466095 48.1675912899169418 S
atom 10.3815789895587649 4.9989648214644218 48.1744260342849060 S
atom 5.3932607911137103 9.9872830199094267 48.1744260342848776 S
atom 9.7702212766324532 9.9871190844140294 48.1801743442124035 S
atom 5.1013903553664068 2.4873316892049360 45.6969542596336211 S
atom 10.0684011997104008 2.4874486533111648 45.7033757174569857 S
atom 5.0800830012653702 7.4757668517562275 45.7033757174569857 S
atom 10.0897848766338498 7.4757262104723479 45.7095373139290899 S
atom 4.6145684222960170 2.5188220649099393 50.6931927182589064 S
atom 10.5423157381938850 2.5188395143406055 50.7005352787970480 S
atom 5.5539975397488348 7.5071577127856379 50.7005352787970551 S
atom 9.6029629435634654 7.5072165861773561 50.7057757725542828 S
atom 2.5969502331133651 4.9723282123869890 45.3700427266000403 S
atom 7.5845807835757597 4.9816350620441714 46.0057978291906480 S
atom 2.5962625851307335 9.9699532604892163 46.0057978291906480 S
atom 7.5853447543808041 9.9607227336544284 45.3826257808954878 S
atom 2.5898747829651341 5.5072212992668694 50.9209442842604219 S
atom 7.5788030005370013 4.5787036533725409 50.4564350012998091 S
atom 2.5904848020919484 9.5670218518175751 50.4564350012998091 S
atom 7.5782693042325517 10.4956158205342636 50.9335273385559262 S
atom 2.5868969472153287 2.5001496658323985 53.2170439522341212 Ba
atom 7.5753230085715915 2.6463710838523893 53.2362693976485843 Ba
atom 2.5870048101265573 7.6346892822974066 53.2362693976485843 Ba
atom 7.5752914684827717 7.4885441870998282 53.2296270065295545 Ba
atom 2.5806877994132003 2.6385287549283492 58.2938958727433274 Ba
atom 7.5688998813974226 2.5161344372324064 58.2979950838421530 Ba
atom 2.5805816829523782 7.5044526356774384 58.2979950838421459 Ba
atom 7.5690823206806259 7.6269232761957824 58.3064789270388104 Ba
atom 5.0815750530388053 5.0557449477160166 55.7506906563423215 Zr
atom 10.0627357275163245 5.0557788807118218 55.7566480365466006 Zr
atom 5.0744175290712628 10.0440970791568986 55.7566480365466006 Zr
atom 10.0699695743062172 10.0441394689834365 55.7632737106377192 Zr
atom 5.0709379162095853 5.0653397150542450 60.8349006279009075 Zr
atom 10.0605872200961191 5.0653409881783125 60.8409618385277824 Zr
atom 5.0722690216510671 10.0536591866233636 60.8409618385277824 Zr
atom 10.0593324374770354 10.0537342363216862 60.8474836821963976 Zr
atom 5.2831977380933379 5.0252180574089733 53.2235070955373430 S
atom 9.8674737966898967 5.0251469179495389 53.2291396733500832 S
atom 4.8791555982448509 10.0134651163945616 53.2291396733500974 S
atom 10.2715922593607605 10.0136125786763905 53.2360901498327976 S
atom 4.9336481305020214 5.0509197341829779 58.2977756554106747 S
atom 10.2042366143668630 5.0510519834627576 58.3043309754536594 S
atom 5.2159184159218048 10.0393701819078434 58.3043309754536594 S
atom 9.9220426517694342 10.0393142554504156 58.3103587097061862 S
atom 5.5723726358098853 2.5557497202885964 55.7628196864903956 S
atom 9.5718212382673844 2.5557843564928526 55.7679367258407055 S
atom 4.5835030398223582 7.5441025549378882 55.7679367258406984 S
atom 10.5607671570773327 7.5441442415560180 55.7754027407858217 S
atom 4.5693231696595058 2.5691985199286864 60.8342712705347211 S
atom 10.5622853977773890 2.5692308522647065 60.8417066691737745 S
atom 5.5739671993323858 7.5575490507097456 60.8417066691737887 S
atom 9.5577176909269177 7.5575930411960872 60.8468543248301614 S
atom 2.5839568596149864 4.5695373981542939 55.6237014259894025 S
atom 7.5719592773629030 5.5512967068260419 55.9055488182106686 S
atom 2.5836410789178794 10.5396149052710904 55.9055488182106686 S
atom 7.5723513808824077 9.5579319194217369 55.6362844802848429 S
atom 2.5772748113511228 5.5658383158394900 60.9425752682227539 S
atom 7.5658955073290155 4.5659304717179374 60.7349749833508810 S
atom 2.5775773088839862 9.5542486701629805 60.7349749833508739 S
atom 7.5656693326185298 10.5542328371069090 60.9551583225182085 S
atom 2.5741883104490317 2.5184957862182635 63.3694655117461352 Ba
atom 7.5624516828336859 2.6298260086194030 63.3786822526495826 Ba
atom 2.5741334843886432 7.6181442070644572 63.3786822526495754 Ba
atom 7.5625828317164663 7.5068903074856888 63.3820485660415187 Ba
atom 2.5677401118853025 2.6321873576052699 68.4501526805536287 Ba
atom 7.5559521938695307 2.5097930399093245 68.4542518916523903 Ba
atom 2.5676339954244813 7.4981112383543573 68.4542518916523903 Ba
atom 7.5561346331527188 7.6205818788726845 68.4627357348490477 Ba
atom 5.0644472944540189 5.0713753279267646 65.9197689801632549 Zr
atom 10.0540965983405659 5.0713766010508508 65.9258301907902791 Zr
atom 5.0657783998955148 10.0596947994958903 65.9258301907902649 Zr
atom 10.0528418157214858 10.0597698491941792 65.9323520344588871 Zr
atom 5.0622987870338276 5.0809374353932508 71.0040827821443656 Zr
atom 10.0434594615113735 5.0809713683890898 71.0100401623489148 Zr
atom 5.0551412630663082 10.0692895668341329 71.0100401623489148 Zr
atom 10.0506933083012875 10.0693319566606885 71.0166658364399268 Zr
atom 5.1940331010591496 5.0684383641964974 63.3774195630275869 S
atom 9.9310014134909874 5.0682779519086036 63.3833112556634930 S
atom 4.9426832150459470 10.0565961503536272 63.3833112556634930 S
atom 10.1824276223265713 10.0568328854639315 63.3900026173230415 S
atom 4.9207979001833104 5.0856643326423434 68.4563998432375627 S
atom 10.1913863840481049 5.0857965819221187 68.4629551632805402 S
atom 5.2030681856030769 10.0741147803671307 68.4629551632805402 S
atom 9.9091924214507241 10.0740588539097171 68.4689828975329675 S
atom 5.5673168236232184 2.5791232749089987 65.9138764938609540 S
atom 9.5510673152177699 2.5791672653953519 65.9190241495175826 S
atom 4.5627491167727188 7.5674854638403772 65.9190241495175684 S
atom 10.5557113448906446 7.5675177961764382 65.9264595481564299 S
atom 4.5642673574728256 2.5925720745490675 70.9853280779052653 S
atom 10.5415314747277939 2.5926137611672084 70.9927940928504313 S
atom 5.5532132762827420 7.5809319596122391 70.9927940928504313 S
atom 9.5526618787402811 7.5809665958164967 70.9979111322006418 S
atom 2.5710469834865486 4.5708016774432094 65.8055724961728572 S
atom 7.5591390072211206 5.5707858443871485 66.0257558353401492 S
atom 2.5708208087760971 10.5591040428321925 66.0257558353401208 S
atom 7.5594415047539814 9.5591961987106497 65.8181555504684326 S
atom 2.5643649352226840 5.5671025951284019 71.1244463384063010 S
atom 7.5530752371872323 4.5854196092790360 70.8551820004804256 S
atom 2.5647570387421923 9.5737378077240951 70.8551820004804256 S
atom 7.5527594564901097 10.5554971163958378 71.1370293927017059 S
atom 2.5613169847111226 2.5019507109852896 73.5118783667471405 Ba
atom 7.5497430460673609 2.6481721290052755 73.5311038121614189 Ba
atom 2.5614248476223405 7.6364903274503062 73.5311038121614189 Ba
atom 7.5497115059785695 7.4903452322527233 73.5244614210425738 Ba
atom 2.5549843657668814 2.7506050375007809 78.5711266451134236 Ba
atom 7.5433479803109842 2.7039392071541064 78.5481551647928029 Ba
atom 2.5550297818659242 7.6922574055991388 78.5481551647928029 Ba
atom 7.5433788870343168 7.7389995587682066 78.5837096994089848 Ba
atom 5.0346919262104679 5.1311757398968876 76.0802331596172507 Zr
atom 10.0582019162831688 5.1312457365217545 76.0860216353329122 Zr
atom 5.0698837178381222 10.1195639349667736 76.0860216353329122 Zr
atom 10.0230864474779224 10.1195702611643412 76.0928162139127835 Zr
atom 5.0445723035345038 5.1574314201045155 81.1691622493835041 Zr
atom 10.0354047999581297 5.1574712647662562 81.1743546524100736 Zr
atom 5.0470866015131213 10.1457894632112851 81.1743546524100736 Zr
atom 10.0329668248019086 10.1458259413719318 81.1817453036788663 Zr
atom 5.2575607178602537 5.1115693981555586 73.5315911453410251 S
atom 9.8418367764567876 5.1114982586961091 73.5372237231537298 S
atom 4.8535185780117596 10.0998164571411415 73.5372237231537440 S
atom 10.2459552391277029 10.0999639194229918 73.5441741996363305 S
atom 4.7434555249913961 5.1377514946406961 78.5863047844061811 S
atom 10.3432077591850931 5.1379917529584818 78.5931395287743726 S
atom 5.3548895607400748 10.1263099514035346 78.5931395287743726 S
atom 9.7318500462588311 10.1261460159081356 78.5988878387016001 S
atom 5.5220715709866939 2.6294997299277321 76.0549550461367971 S
atom 9.5710369748012916 2.6295586033194520 76.0601955398941669 S
atom 4.5827187763562742 7.6178768017645089 76.0601955398941669 S
atom 10.5104660922541182 7.6178942511951426 76.0675381004322730 S
atom 5.0352496379163112 2.6609901056327292 81.0511935047620540 S
atom 10.0449515132847935 2.6609494643488909 81.0573551012340516 S
atom 5.0566333148397389 7.6492676627939167 81.0573551012340516 S
atom 10.0236441591837284 7.6493846269001500 81.0637765590574446 S
atom 2.5584470118725418 4.6294186940158317 75.8272034801351680 S
atom 7.5462315140131615 5.5580126627325592 76.3042958173913064 S
atom 2.5579133155681131 10.5463308611775926 76.3042958173913064 S
atom 7.5468415331399488 9.6178132152832880 75.8397865344306155 S
atom 2.5513715617243071 5.1643117808957308 81.3781050377956916 S
atom 7.5404537309743782 5.1550812540609225 80.7549329895006167 S
atom 2.5521355325293338 10.1433994525059799 80.7549329895006167 S
atom 7.5397660829917292 10.1527063021631410 81.3906880920910680 S
atom 2.5489306771076610 2.5452346371937629 83.2480300685548400 Ba
atom 7.5373466525549402 2.7773091188925760 83.2519848577930475 Ba
atom 2.5490284541099073 7.7656273173376116 83.2519848577930475 Ba
atom 7.5373251983750906 7.5336291584611752 83.2606131228504154 Ba
atom 5.3352076795282732 5.1499457748649036 83.6672176372320138 S
atom 9.7385055466302841 5.1498270636132117 83.6716975576219113 S
atom 4.7501873481852455 10.1381452620582486 83.6716975576219113 S
atom 10.3236022007957402 10.1383402961323164 83.6798006915274755 S
