#=======================================================
# FHI-aims file: sym_relax/sym_relax_RP_9_RxRyRz_-Rx-Ry-Rz.in
# Created using the Atomic Simulation Environment (ASE)
# Mon Mar 17 16:57:11 2025
#=======================================================
lattice_vector 9.9426267015654428 -0.0041314812401346 -0.0028183809892156 
lattice_vector -0.0041314812401352 9.9426267015654002 0.0028183809892155 
lattice_vector -0.0195385294650743 0.0195385294650758 97.2171778513344407 
atom 0.0584891750001944 -0.1015022225234745 0.1920045151851668 Ba
atom 5.0728155733061762 -0.0605549156202607 0.1905953246905589 Ba
atom 0.0994364819034069 4.9128241757825002 0.1934137056797742 Ba
atom 5.0277367851628290 4.8677453876391654 0.1920045151851668 Ba
atom -0.2706534438851646 0.2087009844821615 5.0239597530039557 Ba
atom 4.7626123663005249 0.2685877032650976 5.0225505625093358 Ba
atom -0.2107667251022279 5.2419667946678539 5.0253689434985516 Ba
atom 4.6985941662774700 5.1779485946448043 5.0239597530039557 Ba
atom 2.4547010726403502 2.5253860139349604 2.3989965522131791 Zr
atom 7.4151749470104029 2.5124807969022140 2.3975873617185748 Zr
atom 2.4417958556076100 7.4858598883049829 2.4004057427077918 Zr
atom 7.4239486828029770 7.4946336240975739 2.3989965522131795 Zr
atom 2.3979825171358118 2.5348505978033207 7.4943516049831080 Zr
atom 7.4057103631420294 2.5691993524067529 7.4929424144884846 Zr
atom 2.4323312717392587 7.5425784438095196 7.4957607954777137 Zr
atom 7.3672301272984519 7.5040982079659377 7.4943516049831089 Zr
atom 2.6079397713027266 2.7436903419785290 -0.1185672460993636 S
atom 7.1968706189668090 2.3592420982398394 -0.1199764365939714 S
atom 2.2234915275640370 7.3326211896425901 -0.1171580556047560 S
atom 7.5771873814653912 7.7129379521411838 -0.1185672460993637 S
atom 2.2291088256304712 2.3005764666236250 4.9815481255214511 S
atom 7.6399844943216877 2.7380730439120988 4.9801389350268535 S
atom 2.6666054029189414 7.7114521353148762 4.9829573160160630 S
atom 7.1983564357931229 7.2698240767862794 4.9815481255214529 S
atom 2.7471676199988337 0.0459017870766562 2.2647757700355782 S
atom 7.0582111919032808 0.0468696784530513 2.7377918583646861 S
atom 2.0848321005005084 5.0202487698558125 2.7406102393539036 S
atom 7.7164152301614637 5.0151493972392940 2.2647757700355773 S
atom 2.9245375282253332 0.0550644312983843 7.7090267336844756 S
atom 6.9510867419027580 0.0539769261802322 7.3270314038560196 S
atom 1.9777076504999800 5.0273560175830037 7.3298497848452273 S
atom 7.8937851383879485 5.0243120414610196 7.7090267336844756 S
atom -0.0479675276967231 2.2241457307838775 2.2661849605301838 S
atom 4.9203121910895105 2.8823497690420607 2.7392010488592939 S
atom -0.0530669003132521 7.8557288604448212 2.7420194298485057 S
atom 4.9212800824659171 7.1933933409465025 2.2661849605301834 S
atom -0.0571301719184510 2.0467758225573762 7.7104359241790688 S
atom 4.9132049433623335 2.9894742190425831 7.3284405943506297 S
atom -0.0601741480404333 7.9628533104453529 7.3312589753398294 S
atom 4.9121174382441870 7.0160234327200266 7.7104359241790688 S
atom -0.0065648140043091 -0.0700552440662718 10.0560371679734484 Ba
atom 5.0413685948489784 0.0044990733842422 10.0546279774788445 Ba
atom 0.0679895034462050 4.9778781647870129 10.0574463584680487 Ba
atom 4.9626827961583242 4.8991923660963677 10.0560371679734484 Ba
atom 0.0440792751902173 0.0168313329943595 15.1422300657135853 Ba
atom 4.9544820177883482 -0.0461450158102834 15.1408208752189779 Ba
atom -0.0188970736144264 4.9272340755924793 15.1436392562081963 Ba
atom 5.0133268853528614 4.9860789431569863 15.1422300657135871 Ba
atom 2.4849695209921792 2.4959689229415631 12.5850226133799996 Zr
atom 7.4445920380037771 2.4822123485503895 12.5836134228853869 Zr
atom 2.4712129466009989 7.4555914399531504 12.5864318038746088 Zr
atom 7.4542171311548255 7.4652165331042060 12.5850226133799978 Zr
atom 2.4803128304691211 2.4890929733839755 17.6847050711296916 Zr
atom 7.4514679875613581 2.4868690390734627 17.6832958806351144 Zr
atom 2.4780888961585830 7.4602481304762174 17.6861142616243328 Zr
atom 7.4495604406317444 7.4583405835466134 17.6847050711296916 Zr
atom 2.5623173630013558 2.6659909847343979 10.0517501972999899 S
atom 7.2745699762109606 2.4048645065412062 10.0503410068054073 S
atom 2.3011908848081766 7.3782435979439889 10.0531593877946346 S
atom 7.5315649731639942 7.6352385948970216 10.0517501972999899 S
atom 2.4104357859234296 2.4552443950060101 15.1418616950470124 S
atom 7.4853165659393142 2.5567460836191462 15.1404525045524192 S
atom 2.5119374745365572 7.5301251750219151 15.1432708855416251 S
atom 7.3796833960860591 7.4244920051686440 15.1418616950470142 S
atom 1.9809908839932813 0.0118232039712102 12.5348618405448970 S
atom 7.9767031133278810 0.0108299543442603 12.6638469070125286 S
atom 3.0033240219251027 4.9842090457470141 12.6666652880017416 S
atom 6.9502384941559043 4.9810708141338536 12.5348618405448935 S
atom 3.0001948990159044 0.0074498188053935 17.7190027510812023 S
atom 6.9304911307258985 0.0052541803940645 17.6604569269660061 S
atom 1.9571120393231283 4.9786332717968476 17.6632753079552494 S
atom 7.9694425091785179 4.9766974289680261 17.7190027510812058 S
atom -0.0138889445912770 2.9903224667894222 12.5362710310395116 S
atom 4.9563519151983249 1.9638578476174722 12.6652560975071129 S
atom -0.0170271762044614 6.9372369390202246 12.6680744784963526 S
atom 4.9553586655713566 7.9595700769520672 12.5362710310395133 S
atom -0.0095155594254604 1.9711184517667990 17.7204119415757724 S
atom 4.9619276891484994 3.0100698302194333 17.6618661174606224 S
atom -0.0114514022542653 7.9834489216222204 17.6646844984498479 S
atom 4.9597320507371849 6.9403660619294234 17.7204119415757688 S
atom -0.0176099706525438 -0.0123510116003101 20.2372190532485234 Ba
atom 4.9836643623830197 0.0155442300324778 20.2358098627539391 Ba
atom 0.0102852709802432 4.9889233214352560 20.2386282437431184 Ba
atom 4.9516376395100767 4.9568965985623192 20.2372190532485270 Ba
atom 0.0084512849657897 0.0215096972870647 25.3333330645644494 Ba
atom 4.9498036534956302 -0.0105170255858562 25.3319238740698651 Ba
atom -0.0235754379071314 4.9628620658169069 25.3347422550590657 Ba
atom 4.9776988951284364 4.9907573074497007 25.3333330645644423 Ba
atom 2.4800444622379456 2.4892031479247012 22.7852760589064935 Zr
atom 7.4513578130206426 2.4871374073046320 22.7838668684118844 Zr
atom 2.4779787216178719 7.4605164987074000 22.7866852494010921 Zr
atom 7.4492920724005760 7.4584507580873396 22.7852760589064935 Zr
atom 2.4797760940067746 2.4893133224654012 27.8858470466832351 Zr
atom 7.4512476384799271 2.4874057755358052 27.8844378561886543 Zr
atom 2.4778685470771671 7.4607848669385648 27.8872562371778692 Zr
atom 7.4490237041694201 7.4585609326280418 27.8858470466832387 Zr
atom 2.5057490888337428 2.5235292457464533 20.2372491312012777 S
atom 7.4170317151988971 2.4614327807088263 20.2358399407066223 S
atom 2.4436526237961056 7.4348118721115899 20.2386583216958655 S
atom 7.4749966989963648 7.4927768559090886 20.2372491312012777 S
atom 2.4543398356421502 2.4548770501029367 25.3333029866117307 S
atom 7.4856839108423996 2.5128420339004220 25.3318937961170718 S
atom 2.5123048194396351 7.4862211253031949 25.3347121771063293 S
atom 7.4235874458047864 7.4241246602655853 25.3333029866117307 S
atom 1.9599757011651193 0.0035173146548717 22.7622060580548613 S
atom 7.9734923147135586 0.0015098897917498 22.8055276787689003 S
atom 3.0001132233107541 4.9748889811945096 22.8083460597581187 S
atom 6.9292233113277568 4.9727649248175236 22.7622060580548684 S
atom 3.0029768851527474 -0.0002269759474436 27.9072768098577093 S
atom 6.9332731168627380 -0.0024226143587725 27.8487309857426055 S
atom 1.9598940254599759 4.9709564770439938 27.8515493667318097 S
atom 7.9722244953153840 4.9690206342151910 27.9072768098577164 S
atom -0.0055830552749380 3.0113376496175772 22.7636152485494634 S
atom 4.9656719797508275 1.9670686462318019 22.8069368692635273 S
atom -0.0077071116519507 6.9404477376345781 22.8097552502527599 S
atom 4.9636645548876963 7.9805852597802147 22.7636152485494598 S
atom -0.0018387646726235 1.9683364656299529 27.9086860003523043 S
atom 4.9696044839013505 3.0072878440825992 27.8501401762372254 S
atom -0.0037746075014280 7.9806669354853668 27.8529585572264295 S
atom 4.9674088454900094 6.9375840757925769 27.9086860003523078 S
atom -0.0532379608769715 -0.0076726473076048 30.4283220520994035 Ba
atom 4.9789859980903195 0.0511722202569051 30.4269128616047659 Ba
atom 0.0056069066875383 5.0245513116596854 30.4297312425939808 Ba
atom 4.9160096492856500 4.9615749628550398 30.4283220520994035 Ba
atom -0.0025938716824448 0.0792139297530265 35.5145149498395298 Ba
atom 4.8920994210296778 0.0005281310623782 35.5131057593449171 Ba
atom -0.0812796703730926 4.9739072224651384 35.5159241403340928 Ba
atom 4.9666537384801819 5.0484615399156620 35.5145149498395298 Ba
atom 2.4751194034837005 2.4824373729078282 32.9855295044330106 Zr
atom 7.4581235880375063 2.4920624660588713 32.9841203139384262 Zr
atom 2.4847444966347476 7.4654415574616442 32.9869386949276162 Zr
atom 7.4443670136463336 7.4516849830704661 32.9855295044330106 Zr
atom 2.5621064073400706 2.4435556980460653 38.0762005128298000 Zr
atom 7.4970052628992576 2.4050754622025030 38.0747913223351802 Zr
atom 2.5236261714964869 7.3784545536052635 38.0776097033244341 Zr
atom 7.5313540175027001 7.4128033082087157 38.0762005128298000 Zr
atom 2.5496531385524532 2.5231619008433848 30.4286904227659996 S
atom 7.4173990601019835 2.4175287309901115 30.4272812322713655 S
atom 2.4440199686991941 7.3909078223928812 30.4300996132605412 S
atom 7.5189007487150921 7.4924095110060032 30.4286904227659925 S
atom 2.3977715614745279 2.3124153111149952 35.5188019205129706 S
atom 7.6281456498303308 2.5694103080680484 35.5173927300183294 S
atom 2.6547665584275704 7.5427893994708155 35.5202111110074696 S
atom 7.3670191716371614 7.2816629212776469 35.5188019205129706 S
atom 1.9567649025507758 -0.0058027498976394 32.9038868298111993 S
atom 7.9524771318853578 -0.0067959995245886 33.0328718962789054 S
atom 2.9790980404826075 4.9665830918781877 33.0356902772680741 S
atom 6.9260125127134149 4.9634448602649970 32.9038868298111993 S
atom 2.9823812739759004 -0.0489497217336113 38.2407023329677642 S
atom 7.0089304876533243 -0.0500372268517629 37.8587070031392656 S
atom 2.0355513962505545 4.9233418645510083 37.8615253841284982 S
atom 7.9516288841385325 4.9202978884290234 38.2407023329677642 S
atom 0.0037370092775730 3.0145484482319227 32.9052960203058902 S
atom 4.9739778690671761 1.9880838290599729 33.0342810867735182 S
atom 0.0005987776643877 6.9614629204627434 33.0370994677626868 S
atom 4.9729846194401981 7.9837960583945637 32.9052960203058902 S
atom 0.0468839811135442 1.9889320768068093 38.2421115234623770 S
atom 5.0172190963943253 2.9316304732920129 37.8601161936338926 S
atom 0.0438400049915618 7.9050095646947698 37.8629345746230825 S
atom 5.0161315912761859 6.9581796869694506 38.2421115234623770 S
atom 0.2614947581984102 -0.1995422987954067 40.5465923648090296 Ba
atom 5.1708556495781099 -0.2635604988184771 40.5451831743144524 Ba
atom 0.1974765581753398 4.7098185925843055 40.5480015553036992 Ba
atom 5.2307423683610414 4.7697053113672236 40.5465923648090296 Ba
atom -0.0676478606869481 0.1106609082102291 45.3785476026277905 Ba
atom 4.8606524425724835 0.0655821200668821 45.3771384121331707 Ba
atom -0.1127266488302958 5.0389612114696467 45.3799567931223393 Ba
atom 4.9015997494756913 5.0799085183728732 45.3785476026277905 Ba
atom 2.5053878518355286 2.4530202819144322 43.1715555655998742 Zr
atom 7.4875406790309045 2.4617940177070450 43.1701463751052970 Zr
atom 2.5141615876281378 7.4351731091098063 43.1729647560944514 Zr
atom 7.4746354619981634 7.4222678920770857 43.1715555655998742 Zr
atom 2.7309800988454160 2.6778298292257596 40.5890039922914951 S
atom 7.2627311317195993 2.2362017706971526 40.5875948017968824 S
atom 2.2893520403168073 7.2095808620999291 40.5904131827860652 S
atom 7.7002277090080442 7.6470774393883856 40.5890039922914951 S
atom 2.3521491531731527 2.2347159538708583 45.6891193639123685 S
atom 7.7058450070744930 2.6150327163694178 45.6877101734177415 S
atom 2.7324659156717126 7.5884118077721956 45.6905285544070239 S
atom 7.3213967633357679 7.2039635640334838 45.6891193639123685 S
atom 2.8752568239753771 -0.0418424740064304 42.8299418784590387 S
atom 7.1863003958798091 -0.0408745826300345 43.3029579667882842 S
atom 2.2129213044770464 4.9325045087727304 43.3057763477774316 S
atom 7.8445044341380079 4.9274051361562048 42.8299418784590387 S
atom 0.0397767333863636 2.0960565268073301 42.8313510689537082 S
atom 5.0080564521726014 2.7542605650655196 43.3043671572828615 S
atom 0.0346773607698347 7.7276396564682894 43.3071855382720869 S
atom 5.0090243435489752 7.0653041369699698 42.8313510689537082 S
atom 2.5763567628722535 2.4359038948136686 48.8005934408523387 Ba
atom 7.5046570661316698 2.3908251066703192 48.7991842503577118 Ba
atom 2.5312779747289045 7.3642041980731010 48.8020026313470368 Ba
atom 7.5456043730348927 7.4051515049762884 48.8005934408523387 Ba
atom 2.2661535558666253 2.7650465136990161 53.6325486786712062 Ba
atom 7.1755144472463250 2.7010283136759483 53.6311394881764940 Ba
atom 2.2021353558435437 7.6744074050787088 53.6339578691657266 Ba
atom 7.2354011660292565 7.7342941238616580 53.6325486786712062 Ba
atom 4.9187161365764451 5.0089396073361456 51.0075854778803759 Zr
atom 9.9008689637718206 5.0177133431287242 51.0061762873857205 Zr
atom 4.9274898723690530 9.9910924345315291 51.0089946683749318 Zr
atom 9.8879637467391142 9.9781872174987765 51.0075854778803759 Zr
atom 4.9092515527080955 5.0656581628406796 56.1029405306504216 Zr
atom 9.8441504082672679 5.0271779269970986 56.1015313401558018 Zr
atom 4.8707713168645270 10.0005570183998866 56.1043497211450060 Zr
atom 9.8784991628707512 10.0349057730032882 56.1029405306504216 Zr
atom 4.7004118085328610 4.8557009086737333 48.4900216795677892 S
atom 10.0541076624342072 5.2360176711723430 48.4886124890731764 S
atom 5.0807285710314618 10.2093967625750821 48.4914308700623380 S
atom 9.6696594186955291 9.8249485188364005 48.4900216795677892 S
atom 5.1435256838877725 5.2345318543460149 53.5901370511886554 S
atom 9.6752767167619549 4.7929037958174288 53.5887278606940072 S
atom 4.7018976253591926 9.7662828872201981 53.5915462416832895 S
atom 10.1127732940504149 10.2037794645086546 53.5901370511886626 S
atom 4.5617523814693532 2.5433284888869743 51.3477899745264281 S
atom 10.1933355111303339 2.5382291162704447 50.8719555052081276 S
atom 5.2199564197275405 7.5116082076732278 50.8747738861974170 S
atom 9.5309999916319956 7.5125760990496175 51.3477899745264281 S
atom 4.4546279314688357 2.5504357366141557 55.9370295200178020 S
atom 10.3707054193567973 2.5473917604921770 56.3162064688570823 S
atom 5.3973263279540387 7.5207708518949365 56.3190248498463077 S
atom 9.4238755416314461 7.5196833467767918 55.9370295200178020 S
atom 2.4238533806555900 5.3788085794759848 51.3491991650210977 S
atom 7.3982003634347659 4.7164730599776563 50.8733646957027545 S
atom 2.4248212720319926 9.6898521513804212 50.8761830766919942 S
atom 7.3931009908182226 10.3480561896386227 51.3491991650210977 S
atom 2.4167461329284112 5.4859330294764925 55.9384387105124148 S
atom 7.3890377192130572 4.5391031517511662 56.3176156593516311 S
atom 2.4156586278102630 9.5124822431539631 56.3204340403409134 S
atom 7.3859937430910465 10.4551806396391473 55.9384387105124148 S
atom 2.5449097844150508 2.5009578838181641 58.6646260936405710 Ba
atom 7.4396030771271668 2.4222720851275161 58.6632169031460080 Ba
atom 2.4662239857244077 7.3956511765302810 58.6660352841352051 Ba
atom 7.5141573945776985 7.4702054939808029 58.6646260936405710 Ba
atom 2.4580232073544170 2.4503137946236366 63.7508189913808323 Ba
atom 7.4902471663216907 2.5091586621881539 63.7494098008862409 Ba
atom 2.5168680749189298 7.4825377535909157 63.7522281818754450 Ba
atom 7.4272708175170612 7.4195614047862746 63.7508189913808323 Ba
atom 4.9481332275698593 4.9786711589843060 61.1936115390471116 Zr
atom 9.9311374121236664 4.9882962521353535 61.1922023485525344 Zr
atom 4.9577583207209122 9.9616753435381078 61.1950207295417172 Zr
atom 9.9173808377325372 9.9479187691469573 61.1936115390471045 Zr
atom 4.9550091771274376 4.9833278495073809 66.2932939967969901 Zr
atom 9.9264807216005710 4.9814203025777690 66.2918848063024200 Zr
atom 4.9531016301978132 9.9547993939805561 66.2947031872916170 Zr
atom 9.9242567872900445 9.9525754596700118 66.2932939967969901 Zr
atom 4.7781111657770312 4.9013233169751365 58.6603391229672724 S
atom 10.0084852541328342 5.1583183139281736 58.6589299324725957 S
atom 5.0351061627300631 10.1316974053309323 58.6617483134617927 S
atom 9.7473587759396398 9.8705709271377682 58.6603391229672724 S
atom 4.9888577555054008 5.0532048940530698 63.7504506207141972 S
atom 9.8566036770549239 4.9475717241998245 63.7490414302196626 S
atom 4.8832245856521324 9.9209508156025628 63.7518598112087886 S
atom 9.9581053656680538 10.0224525042156873 63.7504506207141972 S
atom 5.4802443028939676 2.5072887647781896 61.2738450231742959 S
atom 9.4271587751247790 2.5041505331649971 61.1420415757175419 S
atom 4.4537796837220007 7.4775296245677652 61.1448599567067816 S
atom 10.4494919130566153 7.4765363749408102 61.2738450231742888 S
atom 4.4340323202919736 2.5017129908279805 66.2704550431277397 S
atom 10.4463627901474023 2.4997771479991813 66.3261824862537708 S
atom 5.4729836987446161 7.4731562394019395 66.3290008672428968 S
atom 9.4032799304545982 7.4709606009906215 66.2704550431277397 S
atom 2.4598931047643844 4.4603166580513847 61.2752542136689726 S
atom 7.4322789465402108 5.4826497959832086 61.1434507662121121 S
atom 2.4588998551374357 10.4560288873859815 61.1462691472013518 S
atom 7.4291407149270219 9.4295642682140173 61.2752542136689726 S
atom 2.4654688787145838 5.5065286406533573 66.2718642336221677 S
atom 7.4366523317060267 4.4634457809605905 66.3275916767482698 S
atom 2.4632732403032525 9.4368248723633776 66.3304100577375095 S
atom 7.4347164888772124 10.4757762508159811 66.2718642336221677 S
atom 2.4872055519490921 2.5120030404663982 68.8458079789155448 Ba
atom 7.4285579204789363 2.4799763175934841 68.8443987884210316 Ba
atom 2.4551788290761722 7.4533554089962557 68.8472171694102428 Ba
atom 7.4564531621117203 7.4812506506290406 68.8458079789155448 Ba
atom 2.4533448430617133 2.4859417848480687 73.9419219902317906 Ba
atom 7.4546191760972835 2.5138370264808523 73.9405127997370499 Ba
atom 2.4812400846944942 7.4872161178836167 73.9433311807264602 Ba
atom 7.4225924532243521 7.4551893950107031 73.9419219902317906 Ba
atom 4.9548990025867319 4.9835962177385431 71.3938649845735540 Zr
atom 9.9262123533694080 4.9815304771184952 71.3924557940791544 Zr
atom 4.9528332619666555 9.9549095685212752 71.3952741750683515 Zr
atom 9.9241466127493574 9.9528438279011890 71.3938649845735540 Zr
atom 4.9547888280460004 4.9838645859697239 76.4944359723501179 Zr
atom 9.9259439851382627 4.9816406516592044 76.4930267818557041 Zr
atom 4.9525648937354934 9.9550197430619498 76.4958451628449154 Zr
atom 9.9240364382086863 9.9531121961323610 76.4944359723501179 Zr
atom 4.9205729047649580 4.9578915911427579 68.8458380568686863 S
atom 9.9519169799651799 5.0158565749402220 68.8444288663739457 S
atom 4.9785378885624487 9.9892356663430313 68.8472472473632280 S
atom 9.8898205149275977 9.9271392013053728 68.8458380568686863 S
atom 4.9892251004084667 5.0093008443343514 73.9418919122787486 S
atom 9.9005077267736308 4.9472043792967391 73.9404827217842211 S
atom 4.9271286353708508 9.9205834706994711 73.9433011027735176 S
atom 9.9584727105711419 9.9785484544969769 73.9418919122787628 S
atom 5.4770335042796017 2.4979687002256772 71.4155257949306019 S
atom 9.4061435922966226 2.4958446438486588 71.3693857932275648 S
atom 4.4327645008938399 7.4692237352514317 71.3722041742168614 S
atom 10.4462811144422592 7.4672163103882960 71.4155257949306019 S
atom 4.4368143064288210 2.4940361960751529 76.4587291019043533 S
atom 10.4491447762842569 2.4921003532463475 76.5144565450304412 S
atom 5.4757656848814511 7.4654794446491097 76.5172749260196383 S
atom 9.4060619165914989 7.4632838062377838 76.4587291019043533 S
atom 2.4692131693168911 4.4635274566657221 71.4169349854252289 S
atom 7.4405848358565398 5.5036649788113614 71.3707949837219644 S
atom 2.4672057444537816 10.4770440702141165 71.3736133647112609 S
atom 7.4384607794795379 9.4327750668283539 71.4169349854252289 S
atom 2.4731456734674193 5.5037466545165241 76.4601382923989377 S
atom 7.4443291264588600 4.4606637948237458 76.5158657355251677 S
atom 2.4709500350560840 9.4340428862265107 76.5186841165142511 S
atom 7.4423932836300475 10.4729942646791461 76.4601382923989377 S
atom 2.4825271876563879 2.5476310306908276 79.0369109777665244 Ba
atom 7.3929299302545255 2.4846546818861857 79.0355017872718406 Ba
atom 2.4195508388517348 7.4580337732889515 79.0383201682609666 Ba
atom 7.4517747978190334 7.5168786408534594 79.0369109777665244 Ba
atom 2.3956406105957537 2.4969869414963055 84.1231038755066010 Ba
atom 7.4435740194490414 2.5715412589468167 84.1216946850121445 Ba
atom 2.4701949280462681 7.5449203503495861 84.1245130660014695 Ba
atom 7.3648882207583872 7.4662345516589408 84.1231038755066152 Ba
atom 4.9616647776035858 4.9885212764927873 81.5941184301001528 Zr
atom 9.9212872946151656 4.9747647021016181 81.5927092396055826 Zr
atom 4.9479082032123944 9.9481437935043751 81.5955276205947371 Zr
atom 9.9309123877662184 9.9577688866554084 81.5941184301001528 Zr
atom 5.0005464524653354 4.9015342726364119 86.6847894384971482 Zr
atom 10.0082742984715285 4.9358830272398668 86.6833802480025213 Zr
atom 5.0348952070687929 9.9092621186426264 86.6861986289918320 Zr
atom 9.9697940626279671 9.8707818827991058 86.6847894384971482 Zr
atom 4.9209402496680701 4.9139875414240333 79.0372793484333300 S
atom 9.9958210296839365 5.0154892300371658 79.0358701579386462 S
atom 5.0224419382811867 9.9888683214399503 79.0386885389277296 S
atom 9.8901878598306645 9.8832351515866907 79.0372793484333300 S
atom 5.1316868393964086 5.0658691185019746 84.1273908461802762 S
atom 9.8439394526060244 4.8047426403087830 84.1259816556855640 S
atom 4.8705603612032524 9.7781217317115896 84.1288000366747752 S
atom 10.1009344495590732 10.0351167286645886 84.1273908461802762 S
atom 5.4560183214514506 2.4896628109093357 81.6428700124407101 S
atom 9.4029327936822504 2.4865245792961410 81.5110665649837216 S
atom 4.4295537022794802 7.4599036706989272 81.5138849459729045 S
atom 10.4252659316140690 7.4589104210719697 81.6428700124407101 S
atom 4.5124716772194118 2.4464215835821612 86.4687051193011200 S
atom 10.4285491651073716 2.4433776074601772 86.8478820681401515 S
atom 5.4551700737046049 7.4167566988629474 86.8507004491294907 S
atom 9.4817192873820364 7.4156691937448045 86.4687051193011200 S
atom 2.4775190586332432 4.4845426394938936 81.6442792029352375 S
atom 7.4499049004090594 5.5068757774257211 81.5124757554783059 S
atom 2.4765258090062896 10.4802548688285029 81.5152941364676167 S
atom 7.4467666687958731 9.4537902496565458 81.6442792029352375 S
atom 2.5207602859604172 5.4280892837259280 86.4701143097957186 S
atom 7.4930518722450339 4.4812594060006026 86.8492912586348922 S
atom 2.5196727808422539 9.4546384974033657 86.8521096396241319 S
atom 7.4900078961230481 10.3973368938885784 86.4701143097957186 S
atom 2.6743968391441868 2.2328983116154490 89.1551812904764063 Ba
atom 7.7076626493298779 2.2927850303983819 89.1537720999816230 Ba
atom 2.7342835579271214 7.2661641218011441 89.1565904809708201 Ba
atom 7.6436444493068167 7.2021459217780848 89.1551812904764063 Ba
atom 2.3641936321385502 2.5620409305008045 93.9871365282949824 Ba
atom 7.3785200304445446 2.6029882374040145 93.9857273378004408 Ba
atom 2.4051409390417664 7.5763673288067945 93.9885457187895383 Ba
atom 7.3334412423011868 7.5312885406634402 93.9871365282949824 Ba
atom 4.9910818685969653 4.9582528281409628 91.7801444912668956 Zr
atom 9.9515557429670096 4.9453476111082324 91.7787353007723539 Zr
atom 4.9781766515642536 9.9187267025110142 91.7815536817616362 Zr
atom 9.9603294787596468 9.9275004383035839 91.7801444912668956 Zr
atom 4.7662723212856619 4.7326605811310785 89.1975929179587723 S
atom 10.1771479899769020 5.1701571584195509 89.1961837274641596 S
atom 5.2037688985741175 10.1435362498223327 89.1990021084532287 S
atom 9.7355199314482785 9.7019081912937448 89.1975929179587723 S
atom 5.2093861966405557 5.1114915268033565 94.2977082895793473 S
atom 9.7983170443046372 4.7270432830646358 94.2962990990848340 S
atom 4.8249379529018608 9.7004223744674309 94.2991174800741447 S
atom 10.1786338068031785 10.0807391369659811 94.2977082895793473 S
atom 4.6898415854458948 2.4555842278038917 91.9129560829500889 S
atom 10.3214247151068594 2.4504848551873608 91.4371216136317742 S
atom 5.3480456237040839 7.4238639465901377 91.4399399946209712 S
atom 9.6590891956085301 7.4248318379665195 91.9129560829500889 S
atom 2.5115976417386827 5.2507193754994397 91.9143652734444743 S
atom 7.4859446245178489 4.5883838560011192 91.4385308041262732 S
atom 2.5125655331150805 9.5617629474039099 91.4413491851156266 S
atom 7.4808452519013100 10.2199669856620829 91.9143652734444743 S
