#=======================================================
# FHI-aims file: sym_relax/sym_relax_RP_3_RxRyMz_-Rx-Ry-Mz.in
# Created using the Atomic Simulation Environment (ASE)
# Fri Mar 14 10:24:58 2025
#=======================================================
lattice_vector 10.0410201208358369 -0.0044895797733955 -0.0134252228821597 
lattice_vector -0.0044895797733954 10.0410201208358387 0.0134252228821597 
lattice_vector -0.0477002490882905 0.0477002490882906 35.6921960610842035 
atom 0.0448293378741877 -0.1333909379250580 0.2378860327824376 Ba
atom 5.1539009983429693 -0.0470741277608873 0.2311734213413572 Ba
atom 0.1311461480383605 4.9756807225437321 0.2445986442235177 Ba
atom 5.0630946084054083 4.8848743326061737 0.2378860327824373 Ba
atom -0.2464179084240598 0.1956859286849023 4.9753358662800196 Ba
atom 4.8248241317330169 0.2441731185373619 4.9686232548389357 Ba
atom -0.1979307185715994 5.2669279688419834 4.9820484777210989 Ba
atom 4.7718473621071533 5.2139511992161225 4.9753358662800204 Ba
atom 2.4911572697669393 2.5264468817534365 2.3866632685119402 Zr
atom 7.5123284491956950 2.5248632108775921 2.3799506570708577 Zr
atom 2.4895735988910852 7.5476180611822112 2.3933758799530200 Zr
atom 7.5094225402981598 7.5447121522846663 2.3866632685119415 Zr
atom 2.4991950833722179 2.5190701871590093 7.4358741793925169 Zr
atom 7.5197051437901239 2.5168253972723083 7.4291615679514402 Zr
atom 2.4969502934855137 7.5395802475769340 7.4425867908335963 Zr
atom 7.5174603539034361 7.5373354576902347 7.4358741793925169 Zr
atom 2.6650417431742928 2.7930555887211730 -0.1152354178770970 S
atom 7.2457197422279602 2.3509787374702329 -0.1219480293181776 S
atom 2.2229648919233496 7.3737335877748507 -0.1085228064360170 S
atom 7.6833070137055168 7.8113208592524002 -0.1152354178770974 S
atom 2.2341257628810842 2.2129519559361071 4.9367572991235198 S
atom 7.8258233750130364 2.7818947177634405 4.9300446876824315 S
atom 2.8030685247084217 7.8046495680680650 4.9434699105645974 S
atom 7.2523910334123105 7.2312172264673267 4.9367572991235198 S
atom 2.7157015365391866 0.0243305020890377 2.2059068630534990 S
atom 7.2450579759140377 0.0253350868297739 2.7445694761890413 S
atom 2.2223031256094301 5.0480899371344066 2.7579946990712032 S
atom 7.7339668070703986 5.0425957726202659 2.2059068630534990 S
atom 2.8714256631230417 0.0055360920221678 7.7367646827591479 S
atom 7.1497193539259998 0.0098494319912263 7.1215584531437273 S
atom 2.1269645036213829 5.0326042822958481 7.1349836760258825 S
atom 7.8896909336542702 5.0238013625534004 7.7367646827591479 S
atom -0.0265752919757355 2.3048085238787372 2.2126194744945793 S
atom 4.9906853938147471 2.7937173550351035 2.7512820876301194 S
atom -0.0320694564898659 7.8164722053397284 2.7647073105122808 S
atom 4.9916899785554856 7.3230737944099609 2.2126194744945780 S
atom -0.0077808819088644 2.1490843972948741 7.7434772942002317 S
atom 5.0061710486533029 2.8890559770231437 7.1282710645848102 S
atom -0.0165838016513174 7.9118108273277681 7.1416962874669689 S
atom 5.0104843886223618 7.1673496678260902 7.7434772942002335 S
atom 0.2265428046372712 -0.1758108248981148 9.8964124925050037 Ba
atom 5.1963208853160330 -0.2287875945239685 9.8896998810639296 Ba
atom 0.1735660350114176 4.7939672557806619 9.9031251039460813 Ba
atom 5.2448080751684962 4.8424544456331171 9.8964124925050037 Ba
atom -0.0647044416609761 0.1532660417118453 14.6338623260025997 Ba
atom 4.8672440187060664 0.0624596517742803 14.6271497145615079 Ba
atom -0.1555108315985413 5.0852145020788955 14.6405749374436809 Ba
atom 4.9535608288702475 5.1715313122430686 14.6338623260025997 Ba
atom 2.5072328969774924 2.5116934925645733 12.4850850902730812 Zr
atom 7.5270818383845723 2.5087875836670310 12.4783724788320107 Zr
atom 2.5043269880799577 7.5315424339716630 12.4917977017141766 Zr
atom 7.5254981675087125 7.5299587630958076 12.4850850902730812 Zr
atom 2.7642644038633470 2.8251884183819111 9.9349910596615150 S
atom 7.2135869125672265 2.2517560767811835 9.9282784482204196 S
atom 2.1908320622626176 7.2745109270858093 9.9417036711025926 S
atom 7.7825296743945556 7.8434536889131499 9.9349910596615167 S
atom 2.3333484235701398 2.2450847855968394 14.9869837766621359 S
atom 7.7936905453522973 2.6826720570743907 14.9802711652210370 S
atom 2.7709356950476876 7.7054269073790138 14.9936963881031993 S
atom 7.3516136941013608 7.2633500561280915 14.9869837766621359 S
atom 2.7760870411350029 -0.0099495628163805 12.1137536597138435 S
atom 7.3054434805098492 -0.0089449780756437 12.6524162728493597 S
atom 2.2826886302052465 5.0138098722289737 12.6658414957315220 S
atom 7.7943523116662234 5.0083157077148410 12.1137536597138435 S
atom 0.0077047729296837 2.2444230192829147 12.1204662711549158 S
atom 5.0249654587201649 2.7333318504392796 12.6591288842904497 S
atom 0.0022106084155522 7.7560867007438956 12.6725541071726013 S
atom 5.0259700434609096 7.2626882898141414 12.1204662711549158 S
atom 2.6186734486465246 2.4881534219355692 18.0839840633244648 Ba
atom 7.5506219090135724 2.3973470319980050 18.0772714518833730 Ba
atom 2.5278670587089551 7.4201018823026246 18.0906966747655673 Ba
atom 7.6369387191777420 7.5064186924667995 18.0839840633244648 Ba
atom 2.2895965820365620 2.7794006682338170 22.8214338968220716 Ba
atom 7.2593746627153282 2.7264238986079676 22.8147212853809620 Ba
atom 2.2366198124107131 7.7491787489125841 22.8281465082631350 Ba
atom 7.3078618525677852 7.7976659387650535 22.8214338968220680 Ba
atom 4.9771008994992441 5.0600907605740373 20.2327612990539976 Zr
atom 9.9969498409062911 5.0571848516764994 20.2260486876128844 Zr
atom 4.9741949906016991 10.0799397019811270 20.2394739104950396 Zr
atom 9.9953661700304650 10.0783560311052955 20.2327612990539976 Zr
atom 4.9844775940936739 5.0520529469687752 25.2819722099345725 Zr
atom 10.0049876545115968 5.0498081570820688 25.2752595984934629 Zr
atom 4.9822328042069781 10.0725630073867034 25.2886848213756430 Zr
atom 10.0027428646248993 10.0703182175000059 25.2819722099345725 Zr
atom 4.7104921925315155 4.8862062871666918 17.7308626126649358 S
atom 10.1708343143136783 5.3237935586442413 17.7241500012238440 S
atom 5.1480794640090659 10.3465484089488697 17.7375752241060312 S
atom 9.7287574630627134 9.9044715576979208 17.7308626126649358 S
atom 5.2905958253165943 5.3171222674598981 22.7828553296655656 S
atom 9.7399183340204623 4.7436899258591643 22.7761427182245129 S
atom 4.7171634837158480 9.7664447761637838 22.7895679411066396 S
atom 10.3088610958478117 10.3353875379911351 22.7828553296655656 S
atom 4.7098304262175930 2.5605626365262313 20.5973801181721612 S
atom 10.2214941076785752 2.5550684720121022 20.0452922821544455 S
atom 5.1987392573739593 7.5778233223167266 20.0587175050366326 S
atom 9.7280956967488041 7.5788279070574616 20.5973801181721612 S
atom 4.6144918042295426 2.5450769816876861 24.9743690951268533 S
atom 10.3772182342624113 2.5362740619452286 25.5761501018600974 S
atom 5.3544633839578211 7.5590289122498477 25.5895753247422633 S
atom 9.6327570747607663 7.5633422522189049 24.9743690951268533 S
atom 2.4554578441182993 5.3289449047315616 20.6040927296132566 S
atom 7.4792172791636427 4.8355464938018127 20.0520048935955373 S
atom 2.4564624288590342 9.8583013441064047 20.0654301164776960 S
atom 7.4737231146495091 10.3472101752627808 20.6040927296132566 S
atom 2.4709434989568435 5.4242835267195968 24.9810817065679274 S
atom 7.4980116892305286 4.6798223672179198 25.5828627133011999 S
atom 2.4752568389259042 9.7025772175225580 25.5962879361833480 S
atom 7.4892087694880578 10.4425487972508204 24.9810817065679309 S
atom 2.6610933356195829 2.3064399551724892 27.7425105230470486 Ba
atom 7.7323353757766693 2.3549271450249427 27.7357979116059674 Ba
atom 2.7095805254720351 7.3776819953295769 27.7492231344881475 Ba
atom 7.6793586061507959 7.3247052257037213 27.7425105230470486 Ba
atom 2.3320164690096248 2.5976872014707362 32.4799603565446091 Ba
atom 7.4410881294784010 2.6840040116349031 32.4732477451035493 Ba
atom 2.4183332791737890 7.7067588619395266 32.4866729679857116 Ba
atom 7.3502817395408524 7.6159524720019647 32.4799603565446091 Ba
atom 4.9918542886881090 5.0440151333634935 30.3311831208151226 Zr
atom 10.0130254681168758 5.0424314624876416 30.3244705093740414 Zr
atom 4.9902706178122616 10.0651863127922692 30.3378957322562037 Zr
atom 10.0101195592193211 10.0622804038947020 30.3311831208151226 Zr
atom 4.6783593628707747 4.7869836264776433 27.7810890902035190 S
atom 10.2700569750027384 5.3559263883049733 27.7743764787624485 S
atom 5.2473021246981135 10.3786812386096035 27.7878017016446108 S
atom 9.6966246334019814 9.8052488970088589 27.7810890902035155 S
atom 5.2584629956558349 5.2178996067708496 32.8330818072041879 S
atom 9.8391409947095205 4.7758227555199095 32.8263691957630499 S
atom 4.8163861444049054 9.7985776058245211 32.8397944186452762 S
atom 10.2767282661870922 10.2361648773020786 32.8330818072041879 S
atom 4.7702159308134178 2.5262825716208122 30.5052269148324875 S
atom 10.2818796122743734 2.5207884071066857 29.9531390788148073 S
atom 5.2591247619697725 7.5435432574112937 29.9665643016969447 S
atom 9.7884812013446201 7.5445478421520331 30.5052269148324875 S
atom 2.4897379090237157 5.2685594001357368 30.5119395262735686 S
atom 7.5134973440690693 4.7751609892059905 29.9598516902558885 S
atom 2.4907424937644498 9.7979158395105941 29.9732769131380152 S
atom 7.5080031795549385 10.2868246706669613 30.5119395262735686 S
