#=======================================================
# FHI-aims file: sym_relax/sym_relax_RP_4_Rx0Mz_0Ry0.in
# Created using the Atomic Simulation Environment (ASE)
# Fri Mar 14 10:28:33 2025
#=======================================================
lattice_vector 10.0876408651622018 0.0000000000000000 0.0000000000000000 
lattice_vector 0.0000000000000000 10.0889527800709704 0.0000000000000000 
lattice_vector 0.0000000000000000 0.0000000000000000 45.2633176222132718 
atom -0.1714831795725235 0.0000000000000000 0.2940684105449998 Ba
atom 5.2124527317539000 0.0000000000000000 0.2918147110392263 Ba
atom 0.1686322991727985 5.0444763900354852 0.2918147110392263 Ba
atom 4.8723372530085758 5.0444763900354852 0.2940684105449998 Ba
atom 0.0130241290472923 -0.0000000000000000 4.9682240697717939 Ba
atom 5.0001891201934594 0.0000000000000000 4.9439783623486928 Ba
atom -0.0436313123876512 5.0444763900354852 4.9439783623486928 Ba
atom 5.0568445616283979 5.0444763900354852 4.9682240697717939 Ba
atom 2.5192259445447180 2.5000563986458197 2.3424593693871589 Zr
atom 7.5630463771258221 2.5444199913896619 2.3424593693871589 Zr
atom 2.5192259445447180 7.5888963814251529 2.3424593693871589 Zr
atom 7.5630463771258221 7.5445327886813063 2.3424593693871589 Zr
atom 2.5270880232984876 2.5230518588737945 7.3583114458845129 Zr
atom 7.5709084558795849 2.5214245311616996 7.3583114458845129 Zr
atom 2.5270880232984876 7.5659009211971888 7.3583114458845129 Zr
atom 7.5709084558795849 7.5675282489092721 7.3583114458845129 Zr
atom 2.5208485829619347 2.8095587767731827 -0.1363697723412373 S
atom 7.5646690155430445 2.2349176132623070 -0.1363697723412373 S
atom 2.5208485829619347 7.2793940032978064 -0.1363697723412373 S
atom 7.5646690155430445 7.8540351668086652 -0.1363697723412373 S
atom 2.5222511711760252 2.0579076934007325 4.8852237456118246 S
atom 7.5660716037571296 2.9865686966347522 4.8852237456118246 S
atom 2.5222511711760252 8.0310450866702325 4.8852237456118246 S
atom 7.5660716037571296 7.1023840834362373 4.8852237456118246 S
atom 2.5214732846753716 -0.0000000000000000 2.0432158389146999 S
atom 7.5644249445429148 -0.0000000000000000 2.7807598064791463 S
atom 2.5206045119618130 5.0444763900354852 2.7807598064791463 S
atom 7.5652937172564645 5.0444763900354852 2.0432158389146999 S
atom 2.5857535893381831 -0.0000000000000000 7.8210342510946109 S
atom 7.5118434953708002 -0.0000000000000000 6.8962888389921435 S
atom 2.4680230627896975 5.0444763900354852 6.8962888389921435 S
atom 7.6295740219192787 5.0444763900354852 7.8210342510946109 S
atom -0.0016429264064961 2.5236245352238029 2.4790301673565298 S
atom 5.0421775061745997 2.5208518548116876 2.4790301673565298 S
atom -0.0016429264064961 7.5653282448471852 2.4790301673565298 S
atom 5.0421775061745997 7.5681009252592784 2.4790301673565298 S
atom 0.0046122526909370 2.4568152006740673 7.3700114803658927 S
atom 5.0484326852720383 2.5876611893614223 7.3700114803658927 S
atom 0.0046122526909370 7.6321375793969173 7.3700114803658927 S
atom 5.0484326852720383 7.5012915907095454 7.3700114803658927 S
atom 0.0238544924061333 0.0000000000000000 9.8398516570028995 Ba
atom 5.0847106872765790 0.0000000000000000 9.8398516570028995 Ba
atom 0.0408902546954828 5.0444763900354852 9.8398516570028995 Ba
atom 5.0676749249872399 5.0444763900354852 9.8398516570028995 Ba
atom 0.0130241290472923 0.0000000000000000 14.7114792442339866 Ba
atom 5.0001891201934594 0.0000000000000000 14.7357249516570867 Ba
atom -0.0436313123876512 5.0444763900354852 14.7357249516570867 Ba
atom 5.0568445616283979 5.0444763900354852 14.7114792442339866 Ba
atom 2.5270880232984876 2.5230518588737945 12.3213918681212640 Zr
atom 7.5709084558795849 2.5214245311616996 12.3213918681212640 Zr
atom 2.5270880232984876 7.5659009211971888 12.3213918681212640 Zr
atom 7.5709084558795849 7.5675282489092721 12.3213918681212640 Zr
atom 2.5192259445447180 2.5000563986458197 17.3372439446186206 Zr
atom 7.5630463771258221 2.5444199913896619 17.3372439446186206 Zr
atom 2.5192259445447180 7.5888963814251529 17.3372439446186206 Zr
atom 7.5630463771258221 7.5445327886813063 17.3372439446186206 Zr
atom 2.5269479380947115 3.0259765029769428 9.8398516570028995 S
atom 7.5707683706758102 2.0184998870585442 9.8398516570028995 S
atom 2.5269479380947115 7.0629762770940374 9.8398516570028995 S
atom 7.5707683706758102 8.0704528930124120 9.8398516570028995 S
atom 2.5222511711760243 2.0579076934007325 14.7944795683939461 S
atom 7.5660716037571332 2.9865686966347522 14.7944795683939461 S
atom 2.5222511711760243 8.0310450866702325 14.7944795683939461 S
atom 7.5660716037571332 7.1023840834362373 14.7944795683939461 S
atom 2.5857535893381831 0.0000000000000000 11.8586690629111562 S
atom 7.5118434953708002 -0.0000000000000000 12.7834144750136591 S
atom 2.4680230627896975 5.0444763900354852 12.7834144750136591 S
atom 7.6295740219192787 5.0444763900354852 11.8586690629111562 S
atom 2.5214732846753716 0.0000000000000000 17.6364874750911049 S
atom 7.5644249445429148 -0.0000000000000000 16.8989435075266705 S
atom 2.5206045119618130 5.0444763900354852 16.8989435075266705 S
atom 7.5652937172564645 5.0444763900354852 17.6364874750911049 S
atom 0.0046122526909370 2.4568152006740673 12.3096918336398922 S
atom 5.0484326852720383 2.5876611893614223 12.3096918336398922 S
atom 0.0046122526909370 7.6321375793969173 12.3096918336398922 S
atom 5.0484326852720383 7.5012915907095454 12.3096918336398922 S
atom -0.0016429264064961 2.5236245352238029 17.2006731466492759 S
atom 5.0421775061745997 2.5208518548116876 17.2006731466492759 S
atom -0.0016429264064961 7.5653282448471852 17.2006731466492759 S
atom 5.0421775061745997 7.5681009252592784 17.2006731466492759 S
atom -0.1714831795725235 0.0000000000000000 19.3856349034607618 Ba
atom 5.2124527317539000 0.0000000000000000 19.3878886029665729 Ba
atom 0.1686322991727985 5.0444763900354852 19.3878886029665729 Ba
atom 4.8723372530085758 5.0444763900354852 19.3856349034607618 Ba
atom 2.5208485829619347 2.8095587767731818 19.8160730863470249 S
atom 7.5646690155430445 2.2349176132623070 19.8160730863470249 S
atom 2.5208485829619347 7.2793940032978064 19.8160730863470249 S
atom 7.5646690155430445 7.8540351668086652 19.8160730863470249 S
atom 2.5209817974704878 2.6925237990340198 22.9266495745788106 Ba
atom 7.5648022300515780 2.3519525910014698 22.9266495745788106 Ba
atom 2.5209817974704878 7.3964289810369612 22.9266495745788106 Ba
atom 7.5648022300515780 7.7370001890695042 22.9266495745788106 Ba
atom 2.5208796622014407 2.4939818308866313 27.5904181723371416 Ba
atom 7.5647000947825340 2.5504945591488530 27.5904181723371416 Ba
atom 2.5208796622014407 7.5949709491843560 27.5904181723371416 Ba
atom 7.5647000947825340 7.5384582209221138 27.5904181723371416 Ba
atom 5.0651478505669081 5.0444763900354852 24.9757035712332289 Zr
atom 10.0644028314737177 5.0444763900354852 24.9762125467801184 Zr
atom 5.0205823988926150 10.0889527800709704 24.9762125467801184 Zr
atom 10.1089682831480268 10.0889527800709704 24.9757035712332289 Zr
atom 5.0420527077731530 5.0444763900354852 29.9906275930452786 Zr
atom 10.0874673862054198 5.0444763900354852 29.9907545286711681 Zr
atom 5.0436469536243447 10.0889527800709704 29.9907545286711681 Zr
atom 10.0858731403542450 10.0889527800709704 29.9906275930452786 Zr
atom 4.7548233115683303 5.0444763900354852 22.4969411276904907 S
atom 10.3746568994059842 5.0444763900354852 22.4974508168649621 S
atom 5.3308364668248913 10.0889527800709704 22.4974508168649621 S
atom 9.7986437441494356 10.0889527800709704 22.4969411276904907 S
atom 5.5095210645521586 5.0444763900354852 27.5181871931121904 S
atom 9.6198858568295353 5.0444763900354852 27.5182753855032018 S
atom 4.5760654242484442 10.0889527800709704 27.5182753855032018 S
atom 10.5533414971332729 10.0889527800709704 27.5181871931121904 S
atom 5.0428580548593889 2.5222576384393776 25.1129075082969599 S
atom 10.0866784874404889 2.5222187515961032 25.1129075082969599 S
atom 5.0428580548593889 7.5666951416315920 25.1129075082969599 S
atom 10.0866784874404889 7.5667340284748752 25.1129075082969599 S
atom 5.0427756825288270 2.5222279060450967 30.0019191579695743 S
atom 10.0865961151099430 2.5222484839903934 30.0019191579695743 S
atom 5.0427756825288270 7.5667248740258861 30.0019191579695743 S
atom 10.0865961151099430 7.5667042960805873 30.0019191579695743 S
atom 2.5209592700225429 5.0444763900354852 25.4153725796475172 S
atom 7.5647589451278270 5.0444763900354852 24.6749093891999998 S
atom 2.5209385125467119 10.0889527800709704 24.6749093891999998 S
atom 7.5647797026036407 10.0889527800709704 25.4153725796475172 S
atom 2.5208908702038690 5.0444763900354852 29.5262620522930206 S
atom 7.5647388589724693 5.0444763900354852 30.4566909373921533 S
atom 2.5209184263913720 10.0889527800709704 30.4566909373921533 S
atom 7.5647113027849686 10.0889527800709704 29.5262620522930206 S
atom 2.5209691551583600 2.5309669200143201 32.4715104681095710 Ba
atom 7.5647895877394724 2.5135094700211615 32.4715104681095710 Ba
atom 2.5209691551583600 7.5579858600566574 32.4715104681095710 Ba
atom 7.5647895877394724 7.5754433100498080 32.4715104681095710 Ba
atom 2.5208796622014407 2.4939818308866313 37.3526027638820324 Ba
atom 7.5647000947825340 2.5504945591488530 37.3526027638820324 Ba
atom 2.5208796622014407 7.5949709491843560 37.3526027638820324 Ba
atom 7.5647000947825340 7.5384582209221138 37.3526027638820324 Ba
atom 5.0420527077731530 5.0444763900354852 34.9523933431738740 Zr
atom 10.0874673862054198 5.0444763900354852 34.9522664075478389 Zr
atom 5.0436469536243447 10.0889527800709704 34.9522664075478389 Zr
atom 10.0858731403542450 10.0889527800709704 34.9523933431738740 Zr
atom 5.0651478505669081 5.0444763900354852 39.9673173649858313 Zr
atom 10.0644028314737177 5.0444763900354852 39.9668083894389667 Zr
atom 5.0205823988926150 10.0889527800709704 39.9668083894389667 Zr
atom 10.1089682831480268 10.0889527800709704 39.9673173649858313 Zr
atom 4.5356482745202467 5.0444763900354852 32.4715104681095710 S
atom 10.5939017224683685 5.0444763900354852 32.4715104681095710 S
atom 5.5500812898872569 10.0889527800709704 32.4715104681095710 S
atom 9.5794687071013733 10.0889527800709704 32.4715104681095710 S
atom 5.5095210645521586 5.0444763900354852 37.4248337431068592 S
atom 9.6198858568295353 5.0444763900354852 37.4247455507159259 S
atom 4.5760654242484442 10.0889527800709704 37.4247455507159259 S
atom 10.5533414971332729 10.0889527800709704 37.4248337431068592 S
atom 5.0427756825288270 2.5222279060450967 34.9411017782494895 S
atom 10.0865961151099430 2.5222484839903934 34.9411017782494895 S
atom 5.0427756825288270 7.5667248740258861 34.9411017782494895 S
atom 10.0865961151099430 7.5667042960805873 34.9411017782494895 S
atom 5.0428580548593889 2.5222576384393776 39.8301134279222708 S
atom 10.0866784874404889 2.5222187515961032 39.8301134279222708 S
atom 5.0428580548593889 7.5666951416315920 39.8301134279222708 S
atom 10.0866784874404889 7.5667340284748752 39.8301134279222708 S
atom 2.5208908702038690 5.0444763900354852 35.4167588839260219 S
atom 7.5647388589724693 5.0444763900354852 34.4863299988269176 S
atom 2.5209184263913720 10.0889527800709704 34.4863299988269176 S
atom 7.5647113027849686 10.0889527800709704 35.4167588839260219 S
atom 2.5209592700225429 5.0444763900354852 39.5276483565715466 S
atom 7.5647589451278270 5.0444763900354852 40.2681115470190534 S
atom 2.5209385125467119 10.0889527800709704 40.2681115470190534 S
atom 7.5647797026036407 10.0889527800709704 39.5276483565715466 S
atom 2.5209817974704878 2.6925237990340198 42.0163713616402816 Ba
atom 7.5648022300515780 2.3519525910014698 42.0163713616402816 Ba
atom 2.5209817974704878 7.3964289810369612 42.0163713616402816 Ba
atom 7.5648022300515780 7.7370001890695042 42.0163713616402816 Ba
atom 4.7548233115683303 5.0444763900354852 42.4460798085287081 S
atom 10.3746568994059842 5.0444763900354852 42.4455701193541231 S
atom 5.3308364668248913 10.0889527800709704 42.4455701193541231 S
atom 9.7986437441494356 10.0889527800709704 42.4460798085287081 S
