#=======================================================
# FHI-aims file: sym_relax/sym_relax_RP_4_00Mz_000.in
# Created using the Atomic Simulation Environment (ASE)
# Fri Mar 14 10:25:58 2025
#=======================================================
lattice_vector 10.0160103642452754 -0.0000000000000004 -0.0000000000000000 
lattice_vector -0.0000000000000004 10.0160103642452754 -0.0000000000000000 
lattice_vector 0.0000000000000000 -0.0000000000000000 45.9709205302506945 
atom 0.0000000000000000 -0.0000000000000000 0.2038812253345065 Ba
atom 5.0080051821226332 -0.0000000000000000 0.2038812253345066 Ba
atom -0.0000000000000000 5.0080051821226332 0.2038812253345065 Ba
atom 5.0080051821226332 5.0080051821226332 0.2038812253345065 Ba
atom 0.0000000000000000 -0.0000000000000000 4.9480329097278961 Ba
atom 5.0080051821226332 -0.0000000000000000 4.9480329097278961 Ba
atom -0.0000000000000000 5.0080051821226332 4.9480329097278961 Ba
atom 5.0080051821226332 5.0080051821226332 4.9480329097278961 Ba
atom 2.5040025910613166 2.5040025910613166 2.3340902595351576 Zr
atom 7.5120077731839494 2.5040025910613166 2.3340902595351576 Zr
atom 2.5040025910613166 7.5120077731839494 2.3340902595351576 Zr
atom 7.5120077731839494 7.5120077731839494 2.3340902595351576 Zr
atom 2.5040025910613166 2.5040025910613166 7.4475223845214984 Zr
atom 7.5120077731839494 2.5040025910613166 7.4475223845214984 Zr
atom 2.5040025910613166 7.5120077731839494 7.4475223845214984 Zr
atom 7.5120077731839494 7.5120077731839494 7.4475223845214984 Zr
atom 2.5040025910613166 2.5040025910613166 -0.1777060810611933 S
atom 7.5120077731839494 2.5040025910613166 -0.1777060810611933 S
atom 2.5040025910613166 7.5120077731839494 -0.1777060810611933 S
atom 7.5120077731839494 7.5120077731839494 -0.1777060810611933 S
atom 2.5040025910613166 2.5040025910613166 4.9276389828315699 S
atom 7.5120077731839494 2.5040025910613166 4.9276389828315699 S
atom 2.5040025910613166 7.5120077731839494 4.9276389828315699 S
atom 7.5120077731839494 7.5120077731839494 4.9276389828315699 S
atom 2.2451357910797611 0.0000000000000005 2.4508728690763686 S
atom 7.7708745731655053 -0.0000000000000000 2.4508728690763686 S
atom 2.7628693910428708 5.0080051821226332 2.4508728690763686 S
atom 7.2531409732024024 5.0080051821226332 2.4508728690763686 S
atom 2.9897857921146875 0.0000000000000005 7.4501643492915166 S
atom 7.0262245721305865 -0.0000000000000000 7.4501643492915166 S
atom 2.0182193900079488 5.0080051821226332 7.4501643492915166 S
atom 7.9977909742373052 5.0080051821226332 7.4501643492915166 S
atom -0.0000000000000000 2.7628693910428708 2.4508728690763686 S
atom 5.0080051821226332 2.2451357910797620 2.4508728690763686 S
atom 0.0000000000000000 7.2531409732024006 2.4508728690763686 S
atom 5.0080051821226332 7.7708745731655036 2.4508728690763686 S
atom -0.0000000000000000 2.0182193900079488 7.4501643492915166 S
atom 5.0080051821226332 2.9897857921146880 7.4501643492915166 S
atom 0.0000000000000000 7.9977909742373043 7.4501643492915166 S
atom 5.0080051821226332 7.0262245721305865 7.4501643492915166 S
atom 0.0000000000000000 -0.0000000000000000 9.9936783761414425 Ba
atom 5.0080051821226332 -0.0000000000000000 9.9936783761414425 Ba
atom -0.0000000000000000 5.0080051821226332 9.9936783761414425 Ba
atom 5.0080051821226332 5.0080051821226332 9.9936783761414425 Ba
atom 0.0000000000000000 -0.0000000000000000 15.0393238425550066 Ba
atom 5.0080051821226332 -0.0000000000000000 15.0393238425550066 Ba
atom -0.0000000000000000 5.0080051821226332 15.0393238425550066 Ba
atom 5.0080051821226332 5.0080051821226332 15.0393238425550066 Ba
atom 2.5040025910613166 2.5040025910613166 12.5398343677613973 Zr
atom 7.5120077731839494 2.5040025910613166 12.5398343677613973 Zr
atom 2.5040025910613166 7.5120077731839494 12.5398343677613973 Zr
atom 7.5120077731839494 7.5120077731839494 12.5398343677613973 Zr
atom 2.5040025910613166 2.5040025910613166 17.6532664927477398 Zr
atom 7.5120077731839494 2.5040025910613166 17.6532664927477398 Zr
atom 2.5040025910613166 7.5120077731839494 17.6532664927477398 Zr
atom 7.5120077731839494 7.5120077731839494 17.6532664927477398 Zr
atom 2.5040025910613166 2.5040025910613166 9.9936783761414425 S
atom 7.5120077731839494 2.5040025910613166 9.9936783761414425 S
atom 2.5040025910613166 7.5120077731839494 9.9936783761414425 S
atom 7.5120077731839494 7.5120077731839494 9.9936783761414425 S
atom 2.5040025910613166 2.5040025910613166 15.0597177694513338 S
atom 7.5120077731839494 2.5040025910613166 15.0597177694513338 S
atom 2.5040025910613166 7.5120077731839494 15.0597177694513338 S
atom 7.5120077731839494 7.5120077731839494 15.0597177694513338 S
atom 2.9897857921146875 0.0000000000000005 12.5371924029913888 S
atom 7.0262245721305865 -0.0000000000000000 12.5371924029913888 S
atom 2.0182193900079488 5.0080051821226332 12.5371924029913888 S
atom 7.9977909742373052 5.0080051821226332 12.5371924029913888 S
atom 2.2451357910797611 0.0000000000000005 17.5364838832065431 S
atom 7.7708745731655053 -0.0000000000000000 17.5364838832065431 S
atom 2.7628693910428708 5.0080051821226332 17.5364838832065431 S
atom 7.2531409732024024 5.0080051821226332 17.5364838832065431 S
atom -0.0000000000000000 2.0182193900079488 12.5371924029913888 S
atom 5.0080051821226332 2.9897857921146880 12.5371924029913888 S
atom 0.0000000000000000 7.9977909742373043 12.5371924029913888 S
atom 5.0080051821226332 7.0262245721305865 12.5371924029913888 S
atom -0.0000000000000000 2.7628693910428708 17.5364838832065431 S
atom 5.0080051821226332 2.2451357910797620 17.5364838832065431 S
atom 0.0000000000000000 7.2531409732024006 17.5364838832065431 S
atom 5.0080051821226332 7.7708745731655036 17.5364838832065431 S
atom -0.0000000000000000 -0.0000000000000000 19.7834755269483828 Ba
atom 5.0080051821226332 -0.0000000000000000 19.7834755269483828 Ba
atom -0.0000000000000000 5.0080051821226332 19.7834755269483828 Ba
atom 5.0080051821226332 5.0080051821226332 19.7834755269483828 Ba
atom 2.5040025910613166 2.5040025910613166 20.1650628333441055 S
atom 7.5120077731839494 2.5040025910613166 20.1650628333441055 S
atom 2.5040025910613166 7.5120077731839494 20.1650628333441055 S
atom 7.5120077731839494 7.5120077731839494 20.1650628333441055 S
atom 2.5040025910613166 2.5040025910613166 23.2889691319854073 Ba
atom 7.5120077731839494 2.5040025910613166 23.2889691319854073 Ba
atom 2.5040025910613166 7.5120077731839494 23.2889691319854073 Ba
atom 7.5120077731839494 7.5120077731839494 23.2889691319854073 Ba
atom 2.5040025910613166 2.5040025910613166 28.0715264584609692 Ba
atom 7.5120077731839494 2.5040025910613166 28.0715264584609692 Ba
atom 2.5040025910613166 7.5120077731839494 28.0715264584609692 Ba
atom 7.5120077731839494 7.5120077731839494 28.0715264584609692 Ba
atom 5.0080051821226332 5.0080051821226332 25.3592199372485076 Zr
atom 10.0160103642452665 5.0080051821226332 25.3592199372485076 Zr
atom 5.0080051821226332 10.0160103642452665 25.3592199372485076 Zr
atom 10.0160103642452665 10.0160103642452665 25.3592199372485076 Zr
atom 5.0080051821226332 5.0080051821226332 30.4490925397431695 Zr
atom 10.0160103642452665 5.0080051821226332 30.4490925397431695 Zr
atom 5.0080051821226332 10.0160103642452665 30.4490925397431695 Zr
atom 10.0160103642452665 10.0160103642452665 30.4490925397431695 Zr
atom 5.0080051821226332 5.0080051821226332 22.8552191885237761 S
atom 10.0160103642452665 5.0080051821226332 22.8552191885237761 S
atom 5.0080051821226332 10.0160103642452665 22.8552191885237761 S
atom 10.0160103642452665 10.0160103642452665 22.8552191885237761 S
atom 5.0080051821226332 5.0080051821226332 27.9417423669672225 S
atom 10.0160103642452665 5.0080051821226332 27.9417423669672225 S
atom 5.0080051821226332 10.0160103642452665 27.9417423669672225 S
atom 10.0160103642452665 10.0160103642452665 27.9417423669672225 S
atom 5.0080051821226332 2.5040049998494238 25.4699146504412681 S
atom 10.0160103642452665 2.5040001822732090 25.4699146504412681 S
atom 5.0080051821226332 7.5120053643958373 25.4699146504412681 S
atom 10.0160103642452665 7.5120101819720544 25.4699146504412681 S
atom 5.0080051821226332 2.5040029152736696 30.4649683181776467 S
atom 10.0160103642452665 2.5040022668489681 30.4649683181776467 S
atom 5.0080051821226332 7.5120074489716018 30.4649683181776467 S
atom 10.0160103642452665 7.5120080973962917 30.4649683181776467 S
atom 2.5040001822732094 5.0080051821226332 25.4699146504412681 S
atom 7.5120101819720544 5.0080051821226332 25.4699146504412681 S
atom 2.5040049998494238 10.0160103642452665 25.4699146504412681 S
atom 7.5120053643958373 10.0160103642452665 25.4699146504412681 S
atom 2.5040022668489672 5.0080051821226332 30.4649683181776467 S
atom 7.5120080973962917 5.0080051821226332 30.4649683181776467 S
atom 2.5040029152736696 10.0160103642452665 30.4649683181776467 S
atom 7.5120074489716018 10.0160103642452665 30.4649683181776467 S
atom 2.5040025910613166 2.5040025910613166 32.9791386412668146 Ba
atom 7.5120077731839494 2.5040025910613166 32.9791386412668146 Ba
atom 2.5040025910613166 7.5120077731839494 32.9791386412668146 Ba
atom 7.5120077731839494 7.5120077731839494 32.9791386412668146 Ba
atom 2.5040025910613166 2.5040025910613166 37.8867508240726494 Ba
atom 7.5120077731839494 2.5040025910613166 37.8867508240726494 Ba
atom 2.5040025910613166 7.5120077731839494 37.8867508240726494 Ba
atom 7.5120077731839494 7.5120077731839494 37.8867508240726494 Ba
atom 5.0080051821226332 5.0080051821226332 35.5091847427904241 Zr
atom 10.0160103642452665 5.0080051821226332 35.5091847427904241 Zr
atom 5.0080051821226332 10.0160103642452665 35.5091847427904241 Zr
atom 10.0160103642452665 10.0160103642452665 35.5091847427904241 Zr
atom 5.0080051821226332 5.0080051821226332 40.5990573452850825 Zr
atom 10.0160103642452665 5.0080051821226332 40.5990573452850825 Zr
atom 5.0080051821226332 10.0160103642452665 40.5990573452850825 Zr
atom 10.0160103642452665 10.0160103642452665 40.5990573452850825 Zr
atom 5.0080051821226332 5.0080051821226332 32.9791386412668146 S
atom 10.0160103642452665 5.0080051821226332 32.9791386412668146 S
atom 5.0080051821226332 10.0160103642452665 32.9791386412668146 S
atom 10.0160103642452665 10.0160103642452665 32.9791386412668146 S
atom 5.0080051821226332 5.0080051821226332 38.0165349155663534 S
atom 10.0160103642452665 5.0080051821226332 38.0165349155663534 S
atom 5.0080051821226332 10.0160103642452665 38.0165349155663534 S
atom 10.0160103642452665 10.0160103642452665 38.0165349155663534 S
atom 5.0080051821226332 2.5040029152736687 35.4933089643559256 S
atom 10.0160103642452665 2.5040022668489672 35.4933089643559256 S
atom 5.0080051821226332 7.5120074489716018 35.4933089643559256 S
atom 10.0160103642452665 7.5120080973962917 35.4933089643559256 S
atom 5.0080051821226332 2.5040049998494238 40.4883626320922474 S
atom 10.0160103642452665 2.5040001822732090 40.4883626320922474 S
atom 5.0080051821226332 7.5120053643958373 40.4883626320922474 S
atom 10.0160103642452665 7.5120101819720544 40.4883626320922474 S
atom 2.5040022668489672 5.0080051821226332 35.4933089643559256 S
atom 7.5120080973962917 5.0080051821226332 35.4933089643559256 S
atom 2.5040029152736687 10.0160103642452665 35.4933089643559256 S
atom 7.5120074489716018 10.0160103642452665 35.4933089643559256 S
atom 2.5040001822732094 5.0080051821226332 40.4883626320922474 S
atom 7.5120101819720544 5.0080051821226332 40.4883626320922474 S
atom 2.5040049998494238 10.0160103642452665 40.4883626320922474 S
atom 7.5120053643958373 10.0160103642452665 40.4883626320922474 S
atom 2.5040025910613166 2.5040025910613166 42.6693081505481828 Ba
atom 7.5120077731839494 2.5040025910613166 42.6693081505481828 Ba
atom 2.5040025910613166 7.5120077731839494 42.6693081505481828 Ba
atom 7.5120077731839494 7.5120077731839494 42.6693081505481828 Ba
atom 5.0080051821226332 5.0080051821226332 43.1030580940098673 S
atom 10.0160103642452665 5.0080051821226332 43.1030580940098673 S
atom 5.0080051821226332 10.0160103642452665 43.1030580940098673 S
atom 10.0160103642452665 10.0160103642452665 43.1030580940098673 S
