#=======================================================
# FHI-aims file: sym_relax/sym_relax_RP_6_Rx1Ry20_Rx2Ry10.in
# Created using the Atomic Simulation Environment (ASE)
# Fri Mar 14 11:00:55 2025
#=======================================================
lattice_vector 10.0844928230494251 0.0301831009288117 0.0000000000000000 
lattice_vector 0.0301831009288116 10.0844928230494268 0.0000000000000000 
lattice_vector 0.0000000000000000 0.0000000000000000 65.0106219607420570 
atom -0.0090801038033203 -0.1510486592117591 0.2781439862956727 Ba
atom 5.0513265153280331 0.1661402096761649 0.2781439862956727 Ba
atom 0.0241716542677259 5.1932950707364727 0.2781439862956727 Ba
atom 5.0482578581857966 4.9062893027773624 0.2781439862956727 Ba
atom -0.0290495051870025 0.0265273610027431 4.9403242839461816 Ba
atom 5.0712959167117067 -0.0114358105383374 4.9403242839461816 Ba
atom 0.0441410556514081 5.0157190505219775 4.9403242839461816 Ba
atom 5.0282884568021213 5.0838653229918567 4.9403242839461816 Ba
atom 2.5163774491276740 2.5251366496654239 2.3233397422061821 Zr
atom 7.5832069243861682 2.5472928627880980 2.3233397422061821 Zr
atom 2.5560520633258528 7.5744477238484036 2.3233397422061821 Zr
atom 7.5737154111167824 7.5824746116545443 2.3233397422061821 Zr
atom 2.5277742365694502 2.5330272398761577 7.3361057411720756 Zr
atom 7.5718101369443636 2.5394022725773642 7.3361057411720756 Zr
atom 2.5446552758840633 7.5665571336376765 7.3361057411720756 Zr
atom 7.5851121985585683 7.5903652018652661 7.3361057411720756 Zr
atom 2.8785103826435430 2.5772329901994113 -0.1585370211466878 S
atom 7.2210739908702708 2.4951965222541106 -0.1585370211466878 S
atom 2.1939191298099772 7.5223513833144198 -0.1585370211466878 S
atom 7.9358483446326611 7.6345709521885210 -0.1585370211466878 S
atom 2.0648815037544970 2.4390548872367748 4.8648133348570841 S
atom 8.0347028697593394 2.6333746252167489 4.8648133348570841 S
atom 3.0075480086990272 7.6605294862770554 4.8648133348570841 S
atom 7.1222194657436129 7.4963928492258907 4.8648133348570841 S
atom 2.5211232057623545 0.0075457752322028 2.3829850925951606 S
atom 7.5633696172870621 0.0226373256966085 2.5261699479267952 S
atom 2.5362147562267592 5.0497921867569122 2.5261699479267952 S
atom 7.5784611677514686 5.0648837372213187 2.3829850925951606 S
atom 2.5211232057623545 0.0075457752322028 7.4796984690445321 S
atom 7.5633696172870621 0.0226373256966085 7.2180802297360511 S
atom 2.5362147562267592 5.0497921867569122 7.2180802297360511 S
atom 7.5784611677514686 5.0648837372213187 7.4796984690445321 S
atom 0.0075457752322028 2.5211232057623545 2.0141365586110083 S
atom 5.0497921867569167 2.5362147562267592 2.7945310924849616 S
atom 0.0226373256966085 7.5633696172870675 2.7945310924849616 S
atom 5.0648837372213098 7.5784611677514722 2.0141365586110083 S
atom 0.0075457752322028 2.5211232057623545 7.8037677696304408 S
atom 5.0497921867569167 2.5362147562267592 6.8867105049961568 S
atom 0.0226373256966085 7.5633696172870675 6.8867105049961568 S
atom 5.0648837372213098 7.5784611677514722 7.8037677696304408 S
atom 0.0601872076270378 -0.0063232563539518 9.8338729499927062 Ba
atom 4.9820592038976654 0.0214148068183575 9.8338729499927062 Ba
atom -0.0450956571626321 5.0485696678786729 9.8338729499927062 Ba
atom 5.1175251696161590 5.0510147056351640 9.8338729499927062 Ba
atom -0.0666959638167557 0.0062578397954648 14.7751413547140995 Ba
atom 5.1089423753414636 0.0088337106689409 14.7751413547140995 Ba
atom 0.0817875142811613 5.0359885717292441 14.7751413547140995 Ba
atom 4.9906419981723600 5.0635958017845892 14.7751413547140995 Ba
atom 2.5297726461269856 2.5274379124005399 12.2959351492139124 Zr
atom 7.5698117273868339 2.5449916000529882 12.2959351492139124 Zr
atom 2.5426568663265328 7.5721464611132854 12.2959351492139124 Zr
atom 7.5871106081161068 7.5847758743896616 12.2959351492139124 Zr
atom 2.5297726461269856 2.5274379124005399 17.2543475602142884 Zr
atom 7.5698117273868339 2.5449916000529882 17.2543475602142884 Zr
atom 2.5426568663265328 7.5721464611132854 17.2543475602142884 Zr
atom 7.5871106081161068 7.5847758743896616 17.2543475602142884 Zr
atom 3.0210516264035081 2.6611618301915092 9.8214615153281795 S
atom 7.0785327471103203 2.4112676822620114 9.8214615153281795 S
atom 2.0513778860500151 7.4384225433223232 9.8214615153281795 S
atom 8.0783895883926231 7.7184997921806300 9.8214615153281795 S
atom 2.0386284635637737 2.3810476789382804 14.7751413547140995 S
atom 8.0609559099500547 2.6913818335152415 14.7751413547140995 S
atom 3.0338010488897500 7.7185366945755538 14.7751413547140995 S
atom 7.0959664255528816 7.4383856409273932 14.7751413547140995 S
atom 2.5211232057623545 0.0075457752322028 12.1323418649534620 S
atom 7.5633696172870621 0.0226373256966085 12.4677782655556335 S
atom 2.5362147562267592 5.0497921867569122 12.4677782655556335 S
atom 7.5784611677514686 5.0648837372213187 12.1323418649534620 S
atom 2.5211232057623545 0.0075457752322028 17.4179408444747459 S
atom 7.5633696172870621 0.0226373256966085 17.0825044438725620 S
atom 2.5362147562267592 5.0497921867569122 17.0825044438725620 S
atom 7.5784611677514686 5.0648837372213187 17.4179408444747459 S
atom 0.0075457752322028 2.5211232057623545 11.8340309592286665 S
atom 5.0497921867569167 2.5362147562267592 12.7681401661131737 S
atom 0.0226373256966085 7.5633696172870675 12.7681401661131737 S
atom 5.0648837372213098 7.5784611677514722 11.8340309592286665 S
atom 0.0075457752322028 2.5211232057623545 17.7162517501995467 S
atom 5.0497921867569167 2.5362147562267592 16.7821425433150111 S
atom 0.0226373256966085 7.5633696172870675 16.7821425433150111 S
atom 5.0648837372213098 7.5784611677514722 17.7162517501995467 S
atom 0.0601872076270378 -0.0063232563539518 19.7164097594354821 Ba
atom 4.9820592038976654 0.0214148068183575 19.7164097594354821 Ba
atom -0.0450956571626321 5.0485696678786729 19.7164097594354821 Ba
atom 5.1175251696161590 5.0510147056351640 19.7164097594354821 Ba
atom -0.0290495051870025 0.0265273610027431 24.6099584254820378 Ba
atom 5.0712959167117067 -0.0114358105383374 24.6099584254820378 Ba
atom 0.0441410556514081 5.0157190505219775 24.6099584254820378 Ba
atom 5.0282884568021213 5.0838653229918567 24.6099584254820378 Ba
atom 2.5277742365694502 2.5330272398761577 22.2141769682561154 Zr
atom 7.5718101369443636 2.5394022725773642 22.2141769682561154 Zr
atom 2.5446552758840633 7.5665571336376765 22.2141769682561154 Zr
atom 7.5851121985585683 7.5903652018652661 22.2141769682561154 Zr
atom 2.5163774491276740 2.5251366496654239 27.2269429672220475 Zr
atom 7.5832069243861682 2.5472928627880980 27.2269429672220475 Zr
atom 2.5560520633258528 7.5744477238484036 27.2269429672220475 Zr
atom 7.5737154111167824 7.5824746116545443 27.2269429672220475 Zr
atom 3.0210516264035081 2.6611618301915092 19.7288211941000071 S
atom 7.0785327471103203 2.4112676822620114 19.7288211941000071 S
atom 2.0513778860500151 7.4384225433223232 19.7288211941000071 S
atom 8.0783895883926231 7.7184997921806300 19.7288211941000071 S
atom 2.0648815037544970 2.4390548872367748 24.6854693745711025 S
atom 8.0347028697593394 2.6333746252167489 24.6854693745711025 S
atom 3.0075480086990272 7.6605294862770554 24.6854693745711025 S
atom 7.1222194657436129 7.4963928492258907 24.6854693745711025 S
atom 2.5211232057623545 0.0075457752322028 22.0705842403836385 S
atom 7.5633696172870621 0.0226373256966085 22.3322024796921212 S
atom 2.5362147562267592 5.0497921867569122 22.3322024796921212 S
atom 7.5784611677514686 5.0648837372213187 22.0705842403836385 S
atom 2.5211232057623545 0.0075457752322028 27.1672976168330393 S
atom 7.5633696172870621 0.0226373256966085 27.0241127615014349 S
atom 2.5362147562267592 5.0497921867569122 27.0241127615014349 S
atom 7.5784611677514686 5.0648837372213187 27.1672976168330393 S
atom 0.0075457752322028 2.5211232057623545 21.7465149397977626 S
atom 5.0497921867569167 2.5362147562267592 22.6635722044320751 S
atom 0.0226373256966085 7.5633696172870675 22.6635722044320751 S
atom 5.0648837372213098 7.5784611677514722 21.7465149397977626 S
atom 0.0075457752322028 2.5211232057623545 27.5361461508171637 S
atom 5.0497921867569167 2.5362147562267592 26.7557516169432361 S
atom 0.0226373256966085 7.5633696172870675 26.7557516169432361 S
atom 5.0648837372213098 7.5784611677514722 27.5361461508171637 S
atom -0.0090801038033202 -0.1510486592117591 29.2721387231325423 Ba
atom 5.0513265153280331 0.1661402096761649 29.2721387231325423 Ba
atom 0.0241716542677259 5.1932950707364727 29.2721387231325423 Ba
atom 5.0482578581857966 4.9062893027773624 29.2721387231325423 Ba
atom 2.8785103826435430 2.5772329901994113 29.7088197305749020 S
atom 7.2210739908702708 2.4951965222541106 29.7088197305749020 S
atom 2.1939191298099772 7.5223513833144198 29.7088197305749020 S
atom 7.9358483446326611 7.6345709521885210 29.7088197305749020 S
atom 2.3776203217827971 2.5195888771912429 32.7834549666666604 Ba
atom 7.7219640517310317 2.5528406352622861 32.7834549666666604 Ba
atom 2.6948091906707221 7.5799954963225815 32.7834549666666604 Ba
atom 7.4349582837719099 7.5769268391803619 32.7834549666666604 Ba
atom 2.5551963419972954 2.4996194758075538 37.4456352643171897 Ba
atom 7.5443880315165277 2.5728100366459716 37.4456352643171897 Ba
atom 2.5172331704562181 7.5999648977062657 37.4456352643171897 Ba
atom 7.6125343039864122 7.5569574377966839 37.4456352643171897 Ba
atom 5.0538056306599897 5.0450464301222278 34.8286507225771871 Zr
atom 10.1031167048429591 5.0847210443204061 34.8286507225771871 Zr
atom 5.0759618437826521 10.1118759053807068 34.8286507225771871 Zr
atom 10.1111435926490945 10.1023843921113627 34.8286507225771871 Zr
atom 5.0616962208707017 5.0564432175640244 39.8414167215430339 Zr
atom 10.0952261146322169 5.0733242568786272 39.8414167215430339 Zr
atom 5.0680712535719312 10.1004791179389315 39.8414167215430339 Zr
atom 10.1190341828598367 10.1137811795531558 39.8414167215430339 Zr
atom 5.1059019711939637 5.4071793636381127 32.3467739592243859 S
atom 10.0510203643089717 4.7225881108045282 32.3467739592243859 S
atom 5.0238655032486719 9.7497429718648547 32.3467739592243859 S
atom 10.1632399331830943 10.4645173256272166 32.3467739592243859 S
atom 4.9677238682313227 4.5935504847490609 37.3701243152281037 S
atom 10.1891984672715914 5.5362169896935809 37.3701243152281037 S
atom 5.1620436062113111 10.5633718507539065 37.3701243152281037 S
atom 10.0250618302204337 9.6508884467381666 37.3701243152281037 S
atom 5.0497921867569167 2.5362147562267592 34.5194475389820425 S
atom 10.0920385982816239 2.5513063066911670 35.2998420728560234 S
atom 5.0648837372213098 7.5784611677514722 35.2998420728560234 S
atom 10.1071301487460410 7.5935527182158777 34.5194475389820425 S
atom 5.0497921867569167 2.5362147562267592 40.3090787500013832 S
atom 10.0920385982816239 2.5513063066911670 39.3920214853671879 S
atom 5.0648837372213098 7.5784611677514722 39.3920214853671879 S
atom 10.1071301487460410 7.5935527182158777 40.3090787500013832 S
atom 2.5362147562267592 5.0497921867569122 34.8882960729662059 S
atom 7.5784611677514686 5.0648837372213187 35.0314809282977961 S
atom 2.5513063066911665 10.0920385982816185 35.0314809282977961 S
atom 7.5935527182158769 10.1071301487460303 34.8882960729662059 S
atom 2.5362147562267592 5.0497921867569122 39.9850094494155641 S
atom 7.5784611677514686 5.0648837372213187 39.7233912101070317 S
atom 2.5513063066911665 10.0920385982816185 39.7233912101070317 S
atom 7.5935527182158769 10.1071301487460303 39.9850094494155641 S
atom 2.5223457246406045 2.5888561886215986 42.3391839303638449 Ba
atom 7.5772386488732275 2.4835733238319269 42.3391839303638449 Ba
atom 2.5500837878129197 7.5107281848922263 42.3391839303638449 Ba
atom 7.5796836866297221 7.6461941506107181 42.3391839303638449 Ba
atom 2.5349268207900146 2.4619730171778045 47.2804523350851085 Ba
atom 7.5646575527237978 2.6104564952757192 47.2804523350851085 Ba
atom 2.5375026916635006 7.6376113563360271 47.2804523350851085 Ba
atom 7.5922647827791332 7.5193109791669182 47.2804523350851085 Ba
atom 5.0561068933951043 5.0584416271215549 44.8012461295848965 Zr
atom 10.1008154421078498 5.0713258473210949 44.8012461295848965 Zr
atom 5.0736605810475295 10.0984807083813894 44.8012461295848965 Zr
atom 10.1134448553842073 10.1157795891106890 44.8012461295848965 Zr
atom 5.0561068933951043 5.0584416271215549 49.7596585405852565 Zr
atom 10.1008154421078498 5.0713258473210949 49.7596585405852565 Zr
atom 5.0736605810475295 10.0984807083813894 49.7596585405852565 Zr
atom 10.1134448553842073 10.1157795891106890 49.7596585405852565 Zr
atom 5.1898308111860656 5.5497206073980596 42.3267724956992168 S
atom 9.9670915243168832 4.5800468670445822 42.3267724956992168 S
atom 4.9399366632565682 9.6072017281048794 42.3267724956992168 S
atom 10.2471687731751810 10.6070585693872097 42.3267724956992168 S
atom 4.9097166599328235 4.5672974445583261 47.2804523350851085 S
atom 10.2472056755700933 5.5624700298843202 47.2804523350851085 S
atom 5.2200508145098032 10.5896248909446093 47.2804523350851085 S
atom 9.9670546219219514 9.6246354065474513 47.2804523350851085 S
atom 5.0497921867569167 2.5362147562267592 44.3393419395996418 S
atom 10.0920385982816239 2.5513063066911670 45.2734511464841631 S
atom 5.0648837372213098 7.5784611677514722 45.2734511464841631 S
atom 10.1071301487460410 7.5935527182158777 44.3393419395996418 S
atom 5.0497921867569167 2.5362147562267592 50.2215627305706178 S
atom 10.0920385982816239 2.5513063066911670 49.2874535236860396 S
atom 5.0648837372213098 7.5784611677514722 49.2874535236860396 S
atom 10.1071301487460410 7.5935527182158777 50.2215627305706178 S
atom 2.5362147562267592 5.0497921867569122 44.6376528453244390 S
atom 7.5784611677514686 5.0648837372213187 44.9730892459266514 S
atom 2.5513063066911665 10.0920385982816185 44.9730892459266514 S
atom 7.5935527182158769 10.1071301487460303 44.6376528453244390 S
atom 2.5362147562267592 5.0497921867569122 49.9232518248457993 S
atom 7.5784611677514686 5.0648837372213187 49.5878154242435727 S
atom 2.5513063066911665 10.0920385982816185 49.5878154242435727 S
atom 7.5935527182158769 10.1071301487460303 49.9232518248457993 S
atom 2.5223457246406045 2.5888561886215986 52.2217207398064787 Ba
atom 7.5772386488732275 2.4835733238319269 52.2217207398064787 Ba
atom 2.5500837878129197 7.5107281848922263 52.2217207398064787 Ba
atom 7.5796836866297221 7.6461941506107181 52.2217207398064787 Ba
atom 2.5551963419972954 2.4996194758075538 57.1152694058530699 Ba
atom 7.5443880315165277 2.5728100366459716 57.1152694058530699 Ba
atom 2.5172331704562181 7.5999648977062657 57.1152694058530699 Ba
atom 7.6125343039864122 7.5569574377966839 57.1152694058530699 Ba
atom 5.0616962208707017 5.0564432175640244 54.7194879486271972 Zr
atom 10.0952261146322169 5.0733242568786272 54.7194879486271972 Zr
atom 5.0680712535719312 10.1004791179389315 54.7194879486271972 Zr
atom 10.1190341828598367 10.1137811795531558 54.7194879486271972 Zr
atom 5.0538056306599897 5.0450464301222278 59.7322539475930441 Zr
atom 10.1031167048429591 5.0847210443204061 59.7322539475930441 Zr
atom 5.0759618437826521 10.1118759053807068 59.7322539475930441 Zr
atom 10.1111435926490945 10.1023843921113627 59.7322539475930441 Zr
atom 5.1898308111860656 5.5497206073980596 52.2341321744710214 S
atom 9.9670915243168832 4.5800468670445822 52.2341321744710214 S
atom 4.9399366632565682 9.6072017281048794 52.2341321744710214 S
atom 10.2471687731751810 10.6070585693872097 52.2341321744710214 S
atom 4.9677238682313227 4.5935504847490609 57.1907803549421203 S
atom 10.1891984672715914 5.5362169896935809 57.1907803549421203 S
atom 5.1620436062113111 10.5633718507539065 57.1907803549421203 S
atom 10.0250618302204337 9.6508884467381666 57.1907803549421203 S
atom 5.0497921867569167 2.5362147562267592 54.2518259201688196 S
atom 10.0920385982816239 2.5513063066911670 55.1688831848030858 S
atom 5.0648837372213098 7.5784611677514722 55.1688831848030858 S
atom 10.1071301487460410 7.5935527182158777 54.2518259201688196 S
atom 5.0497921867569167 2.5362147562267592 60.0414571311882526 S
atom 10.0920385982816239 2.5513063066911670 59.2610625973142362 S
atom 5.0648837372213098 7.5784611677514722 59.2610625973142362 S
atom 10.1071301487460410 7.5935527182158777 60.0414571311882526 S
atom 2.5362147562267592 5.0497921867569122 54.5758952207547665 S
atom 7.5784611677514686 5.0648837372213187 54.8375134600631569 S
atom 2.5513063066911665 10.0920385982816185 54.8375134600631569 S
atom 7.5935527182158769 10.1071301487460303 54.5758952207547665 S
atom 2.5362147562267592 5.0497921867569122 59.6726085972039968 S
atom 7.5784611677514686 5.0648837372213187 59.5294237418724563 S
atom 2.5513063066911665 10.0920385982816185 59.5294237418724563 S
atom 7.5935527182158769 10.1071301487460303 59.6726085972039968 S
atom 2.3776203217827971 2.5195888771912429 61.7774497035035921 Ba
atom 7.7219640517310317 2.5528406352622861 61.7774497035035921 Ba
atom 2.6948091906707221 7.5799954963225815 61.7774497035035921 Ba
atom 7.4349582837719099 7.5769268391803619 61.7774497035035921 Ba
atom 5.1059019711939637 5.4071793636381127 62.2141307109459021 S
atom 10.0510203643089717 4.7225881108045282 62.2141307109459021 S
atom 5.0238655032486719 9.7497429718648547 62.2141307109459021 S
atom 10.1632399331830943 10.4645173256272166 62.2141307109459021 S
