#=======================================================
# FHI-aims file: sym_relax/sym_relax_RP_9_Rx00_0-Ry0.in
# Created using the Atomic Simulation Environment (ASE)
# Mon Mar 17 16:33:25 2025
#=======================================================
lattice_vector 10.0806211148673377 -0.0000000000000004 -0.0000000000000000 
lattice_vector -0.0000000000000004 10.0806211148673377 -0.0000000000000000 
lattice_vector 0.0000000000000000 -0.0000000000000000 94.7329938884082168 
atom -0.1525956106756542 0.0000000000000000 0.2770109784054243 Ba
atom 5.1929061681093218 -0.0000000000000000 0.2770109784054243 Ba
atom 0.1525956106756541 5.0403105574336671 0.2770109784054244 Ba
atom 4.8877149467580132 5.0403105574336671 0.2770109784054243 Ba
atom 0.0274556270275046 -0.0000000000000000 4.9443938961560931 Ba
atom 5.0128549304061600 0.0000000000000000 4.9443938961560931 Ba
atom -0.0274556270275047 5.0403105574336671 4.9443938961560931 Ba
atom 5.0677661844611661 5.0403105574336671 4.9443938961560931 Ba
atom 2.5201552787168335 2.5077341957034918 2.3194148867827753 Zr
atom 7.5604658361504988 2.5325763617301704 2.3194148867827753 Zr
atom 2.5201552787168335 7.5728869191638388 2.3194148867827753 Zr
atom 7.5604658361504988 7.5480447531371544 2.3194148867827753 Zr
atom 2.5201552787168335 2.5189050017182604 7.3318409060520544 Zr
atom 7.5604658361504988 2.5214055557154071 7.3318409060520544 Zr
atom 2.5201552787168335 7.5617161131490711 7.3318409060520544 Zr
atom 7.5604658361504988 7.5592155591519212 7.3318409060520544 Zr
atom 2.5201552787168335 2.8731023850288544 -0.1621185223582678 S
atom 7.5604658361504988 2.1672081724048096 -0.1621185223582678 S
atom 2.5201552787168335 7.2075187298384691 -0.1621185223582678 S
atom 7.5604658361504988 7.9134129424625206 -0.1621185223582678 S
atom 2.5201552787168335 2.0477466345370758 4.8619541199414300 S
atom 7.5604658361504988 2.9925639228965899 4.8619541199414300 S
atom 2.5201552787168335 8.0328744803302428 4.8619541199414300 S
atom 7.5604658361504988 7.0880571919707434 4.8619541199414300 S
atom 2.5201552787168335 -0.0000000000000000 2.0048095545338755 S
atom 7.5604658361504988 -0.0000000000000000 2.7966671765267446 S
atom 2.5201552787168335 5.0403105574336671 2.7966671765267446 S
atom 7.5604658361504988 5.0403105574336671 2.0048095545338747 S
atom 2.5201552787168335 -0.0000000000000000 7.8114747343538165 S
atom 7.5604658361504988 -0.0000000000000000 6.8757666722047741 S
atom 2.5201552787168335 5.0403105574336671 6.8757666722047741 S
atom 7.5604658361504988 5.0403105574336671 7.8114747343538165 S
atom -0.0000000000000000 2.5201552787168335 2.4544870554013807 S
atom 5.0403105574336671 2.5201552787168335 2.4544870554013807 S
atom 0.0000000000000000 7.5604658361504988 2.4544870554013807 S
atom 5.0403105574336671 7.5604658361504988 2.4544870554013807 S
atom -0.0000000000000000 2.5201552787168335 7.3497034499620568 S
atom 5.0403105574336671 2.5201552787168335 7.3497034499620568 S
atom -0.0000000000000000 7.5604658361504988 7.3497034499620568 S
atom 5.0403105574336671 7.5604658361504988 7.3497034499620568 S
atom -0.0074065676363039 0.0000000000000000 9.8386183266511704 Ba
atom 5.0477171250699628 -0.0000000000000000 9.8386183266511704 Ba
atom 0.0074065676363039 5.0403105574336671 9.8386183266511704 Ba
atom 5.0329039897973615 5.0403105574336671 9.8386183266511704 Ba
atom 0.0068611989846390 -0.0000000000000000 14.7789907086296850 Ba
atom 5.0334493584490296 0.0000000000000000 14.7789907086296850 Ba
atom -0.0068611989846390 5.0403105574336671 14.7789907086296850 Ba
atom 5.0471717564183027 5.0403105574336671 14.7789907086296850 Ba
atom 2.5201552787168335 2.5217750109653587 12.2910524239300223 Zr
atom 7.5604658361504988 2.5185355464683057 12.2910524239300223 Zr
atom 2.5201552787168335 7.5588461039019750 12.2910524239300223 Zr
atom 7.5604658361504988 7.5620855683990227 12.2910524239300223 Zr
atom 2.5201552787168335 2.5198128079089623 17.2477169793204723 Zr
atom 7.5604658361504988 2.5204977495247016 17.2477169793204723 Zr
atom 2.5201552787168335 7.5608083069583705 17.2477169793204723 Zr
atom 7.5604658361504988 7.5601233653426281 17.2477169793204723 Zr
atom 2.5201552787168335 3.0276002903601062 9.8186115827909433 S
atom 7.5604658361504988 2.0127102670735568 9.8186115827909433 S
atom 2.5201552787168335 7.0530208245072155 9.8186115827909433 S
atom 7.5604658361504988 8.0679108477937760 9.8186115827909433 S
atom 2.5201552787168335 2.0108963427374946 14.7720361917170582 S
atom 7.5604658361504988 3.0294142146961698 14.7720361917170582 S
atom 2.5201552787168335 8.0697247721298329 14.7720361917170582 S
atom 7.5604658361504988 7.0512069001711630 14.7720361917170582 S
atom 2.5201552787168335 -0.0000000000000000 11.8204025035016596 S
atom 7.5604658361504988 -0.0000000000000000 12.7794841411077762 S
atom 2.5201552787168335 5.0403105574336671 12.7794841411077762 S
atom 7.5604658361504988 5.0403105574336671 11.8204025035016596 S
atom 2.5201552787168335 -0.0000000000000000 17.7315055921862950 S
atom 7.5604658361504988 -0.0000000000000000 16.7691678975075895 S
atom 2.5201552787168335 5.0403105574336671 16.7691678975075895 S
atom 7.5604658361504988 5.0403105574336671 17.7315055921862950 S
atom 0.0000000000000000 2.5201552787168335 12.2996095964264107 S
atom 5.0403105574336671 2.5201552787168335 12.2996095964264107 S
atom 0.0000000000000000 7.5604658361504988 12.2996095964264107 S
atom 5.0403105574336671 7.5604658361504988 12.2996095964264107 S
atom -0.0000000000000000 2.5201552787168335 17.2500283860843311 S
atom 5.0403105574336671 2.5201552787168335 17.2500283860843311 S
atom 0.0000000000000000 7.5604658361504988 17.2500283860843311 S
atom 5.0403105574336671 7.5604658361504988 17.2500283860843311 S
atom -0.0059104029880136 0.0000000000000000 19.7270939177018754 Ba
atom 5.0462209604216808 -0.0000000000000000 19.7270939177018754 Ba
atom 0.0059104029880136 5.0403105574336671 19.7270939177018754 Ba
atom 5.0344001544456463 5.0403105574336671 19.7270939177018754 Ba
atom 0.0059104029880136 -0.0000000000000000 24.6789969674894429 Ba
atom 5.0344001544456463 0.0000000000000000 24.6789969674894429 Ba
atom -0.0059104029880136 5.0403105574336671 24.6789969674894429 Ba
atom 5.0462209604216808 5.0403105574336671 24.6789969674894429 Ba
atom 2.5201552787168335 2.5201552787168335 22.2030454425956592 Zr
atom 7.5604658361504988 2.5201552787168335 22.2030454425956592 Zr
atom 2.5201552787168335 7.5604658361504988 22.2030454425956592 Zr
atom 7.5604658361504988 7.5604658361504988 22.2030454425956592 Zr
atom 2.5201552787168335 2.5204977495247016 27.1583739058708744 Zr
atom 7.5604658361504988 2.5198128079089623 27.1583739058708744 Zr
atom 2.5201552787168335 7.5601233653426281 27.1583739058708744 Zr
atom 7.5604658361504988 7.5608083069583705 27.1583739058708744 Zr
atom 2.5201552787168335 3.0305226495445226 19.7261066758072268 S
atom 7.5604658361504988 2.0097879078891396 19.7261066758072268 S
atom 2.5201552787168335 7.0500984653228018 19.7261066758072268 S
atom 7.5604658361504988 8.0708332069781861 19.7261066758072268 S
atom 2.5201552787168335 2.0097879078891396 24.6799842093841235 S
atom 7.5604658361504988 3.0305226495445234 24.6799842093841235 S
atom 2.5201552787168335 8.0708332069781861 24.6799842093841235 S
atom 7.5604658361504988 7.0500984653228018 24.6799842093841235 S
atom 2.5201552787168335 -0.0000000000000000 21.7209642350197782 S
atom 7.5604658361504988 -0.0000000000000000 22.6851266501715330 S
atom 2.5201552787168335 5.0403105574336671 22.6851266501715330 S
atom 7.5604658361504988 5.0403105574336671 21.7209642350197782 S
atom 2.5201552787168335 -0.0000000000000000 27.6369229876837537 S
atom 7.5604658361504988 -0.0000000000000000 26.6745852930050518 S
atom 2.5201552787168335 5.0403105574336671 26.6745852930050518 S
atom 7.5604658361504988 5.0403105574336671 27.6369229876837537 S
atom 0.0000000000000000 2.5201552787168335 22.2030454425956592 S
atom 5.0403105574336671 2.5201552787168335 22.2030454425956592 S
atom 0.0000000000000000 7.5604658361504988 22.2030454425956592 S
atom 5.0403105574336671 7.5604658361504988 22.2030454425956592 S
atom -0.0000000000000000 2.5201552787168335 27.1560624991070512 S
atom 5.0403105574336671 2.5201552787168335 27.1560624991070512 S
atom 0.0000000000000000 7.5604658361504988 27.1560624991070512 S
atom 5.0403105574336671 7.5604658361504988 27.1560624991070512 S
atom -0.0068611989846390 0.0000000000000000 29.6271001765616546 Ba
atom 5.0471717564183027 -0.0000000000000000 29.6271001765616546 Ba
atom 0.0068611989846390 5.0403105574336671 29.6271001765616546 Ba
atom 5.0334493584490296 5.0403105574336671 29.6271001765616546 Ba
atom 0.0074065676363039 -0.0000000000000000 34.5674725585401745 Ba
atom 5.0329039897973615 0.0000000000000000 34.5674725585401745 Ba
atom -0.0074065676363039 5.0403105574336671 34.5674725585401745 Ba
atom 5.0477171250699628 5.0403105574336671 34.5674725585401745 Ba
atom 2.5201552787168335 2.5185355464683057 32.1150384612612712 Zr
atom 7.5604658361504988 2.5217750109653587 32.1150384612612712 Zr
atom 2.5201552787168335 7.5620855683990227 32.1150384612612712 Zr
atom 7.5604658361504988 7.5588461039019750 32.1150384612612712 Zr
atom 2.5201552787168335 2.5214055557154071 37.0742499791392532 Zr
atom 7.5604658361504988 2.5189050017182604 37.0742499791392532 Zr
atom 2.5201552787168335 7.5592155591519212 37.0742499791392532 Zr
atom 7.5604658361504988 7.5617161131490711 37.0742499791392532 Zr
atom 2.5201552787168335 3.0294142146961698 29.6340546934742868 S
atom 7.5604658361504988 2.0108963427374946 29.6340546934742868 S
atom 2.5201552787168335 7.0512069001711648 29.6340546934742868 S
atom 7.5604658361504988 8.0697247721298329 29.6340546934742868 S
atom 2.5201552787168335 2.0127102670735568 34.5874793024004106 S
atom 7.5604658361504988 3.0276002903601076 34.5874793024004106 S
atom 2.5201552787168335 8.0679108477937760 34.5874793024004106 S
atom 7.5604658361504988 7.0530208245072155 34.5874793024004106 S
atom 2.5201552787168335 -0.0000000000000000 31.6266067440835599 S
atom 7.5604658361504988 -0.0000000000000000 32.5856883816896286 S
atom 2.5201552787168335 5.0403105574336671 32.5856883816896286 S
atom 7.5604658361504988 5.0403105574336671 31.6266067440835599 S
atom 2.5201552787168335 -0.0000000000000000 37.5303242129865353 S
atom 7.5604658361504988 -0.0000000000000000 36.5946161508375170 S
atom 2.5201552787168335 5.0403105574336671 36.5946161508375170 S
atom 7.5604658361504988 5.0403105574336671 37.5303242129865353 S
atom -0.0000000000000000 2.5201552787168335 32.1064812887649538 S
atom 5.0403105574336671 2.5201552787168335 32.1064812887649538 S
atom -0.0000000000000000 7.5604658361504988 32.1064812887649538 S
atom 5.0403105574336671 7.5604658361504988 32.1064812887649538 S
atom -0.0000000000000000 2.5201552787168335 37.0563874352292757 S
atom 5.0403105574336671 2.5201552787168335 37.0563874352292757 S
atom 0.0000000000000000 7.5604658361504988 37.0563874352292757 S
atom 5.0403105574336671 7.5604658361504988 37.0563874352292757 S
atom -0.0274556270275047 0.0000000000000000 39.4616969890352820 Ba
atom 5.0677661844611661 -0.0000000000000000 39.4616969890352820 Ba
atom 0.0274556270275046 5.0403105574336671 39.4616969890352820 Ba
atom 5.0128549304061600 5.0403105574336671 39.4616969890352820 Ba
atom 0.1525956106756541 -0.0000000000000000 44.1290799067859325 Ba
atom 4.8877149467580132 0.0000000000000000 44.1290799067859325 Ba
atom -0.1525956106756542 5.0403105574336671 44.1290799067859325 Ba
atom 5.1929061681093218 5.0403105574336671 44.1290799067859325 Ba
atom 2.5201552787168335 2.5325763617301704 42.0866759984085519 Zr
atom 7.5604658361504988 2.5077341957034918 42.0866759984085519 Zr
atom 2.5201552787168335 7.5480447531371544 42.0866759984085519 Zr
atom 7.5604658361504988 7.5728869191638388 42.0866759984085519 Zr
atom 2.5201552787168335 2.9925639228965899 39.5441367652499380 S
atom 7.5604658361504988 2.0477466345370767 39.5441367652499380 S
atom 2.5201552787168335 7.0880571919707434 39.5441367652499380 S
atom 7.5604658361504988 8.0328744803302428 39.5441367652499380 S
atom 2.5201552787168335 2.1672081724048096 44.5682094075496309 S
atom 7.5604658361504988 2.8731023850288553 44.5682094075496309 S
atom 2.5201552787168335 7.9134129424625206 44.5682094075496309 S
atom 7.5604658361504988 7.2075187298384691 44.5682094075496309 S
atom 2.5201552787168335 -0.0000000000000000 41.6094237086645862 S
atom 7.5604658361504988 -0.0000000000000000 42.4012813306574756 S
atom 2.5201552787168335 5.0403105574336671 42.4012813306574756 S
atom 7.5604658361504988 5.0403105574336671 41.6094237086645862 S
atom 0.0000000000000000 2.5201552787168335 41.9516038297899527 S
atom 5.0403105574336671 2.5201552787168335 41.9516038297899527 S
atom 0.0000000000000000 7.5604658361504988 41.9516038297899527 S
atom 5.0403105574336671 7.5604658361504988 41.9516038297899527 S
atom 2.5201552787168335 2.6727508893924843 47.6435079226095013 Ba
atom 7.5604658361504988 2.3675596680411783 47.6435079226095013 Ba
atom 2.5201552787168335 7.4078702254748414 47.6435079226095013 Ba
atom 7.5604658361504988 7.7130614468261554 47.6435079226095013 Ba
atom 2.5201552787168335 2.4926996516893247 52.3108908403601660 Ba
atom 7.5604658361504988 2.5476109057443379 52.3108908403601660 Ba
atom 2.5201552787168335 7.5879214631779979 52.3108908403601660 Ba
atom 7.5604658361504988 7.5330102091230025 52.3108908403601660 Ba
atom 5.0527316404470053 5.0403105574336671 49.6859118309868251 Zr
atom 10.0682000318539906 5.0403105574336671 49.6859118309868251 Zr
atom 5.0278894744203244 10.0806211148673341 49.6859118309868251 Zr
atom 10.0930421978806759 10.0806211148673341 49.6859118309868251 Zr
atom 5.0415608344322358 5.0403105574336671 54.6983378502561877 Zr
atom 10.0793708378687619 5.0403105574336671 54.6983378502561877 Zr
atom 5.0390602804350939 10.0806211148673341 54.6983378502561877 Zr
atom 10.0818713918658958 10.0806211148673341 54.6983378502561877 Zr
atom 4.6873634511216329 5.0403105574336671 47.2043784218458029 S
atom 10.4335682211793568 5.0403105574336671 47.2043784218458029 S
atom 5.3932576637456933 10.0806211148673341 47.2043784218458029 S
atom 9.7276740085552991 10.0806211148673341 47.2043784218458029 S
atom 5.5127192016134243 5.0403105574336671 52.2284510641455455 S
atom 9.6082124706875831 5.0403105574336671 52.2284510641455455 S
atom 4.5679019132539116 10.0806211148673341 52.2284510641455455 S
atom 10.5530297590470745 10.0806211148673341 52.2284510641455455 S
atom 5.0403105574336671 2.5201552787168335 49.8209839996054242 S
atom 10.0806211148673341 2.5201552787168335 49.8209839996054242 S
atom 5.0403105574336671 7.5604658361504988 49.8209839996054242 S
atom 10.0806211148673341 7.5604658361504988 49.8209839996054242 S
atom 5.0403105574336671 2.5201552787168335 54.7162003941661439 S
atom 10.0806211148673341 2.5201552787168335 54.7162003941661439 S
atom 5.0403105574336671 7.5604658361504988 54.7162003941661439 S
atom 10.0806211148673341 7.5604658361504988 54.7162003941661439 S
atom 2.5201552787168335 5.0403105574336671 50.1631641207308618 S
atom 7.5604658361504988 5.0403105574336671 49.3713064987379298 S
atom 2.5201552787168335 10.0806211148673341 49.3713064987379298 S
atom 7.5604658361504988 10.0806211148673341 50.1631641207308618 S
atom 2.5201552787168335 5.0403105574336671 54.2422636164089198 S
atom 7.5604658361504988 5.0403105574336671 55.1779716785579168 S
atom 2.5201552787168335 10.0806211148673341 55.1779716785579168 S
atom 7.5604658361504988 10.0806211148673341 54.2422636164089198 S
atom 2.5201552787168335 2.5275618463531386 57.2051152708552308 Ba
atom 7.5604658361504988 2.5127487110805298 57.2051152708552308 Ba
atom 2.5201552787168335 7.5530592685141951 57.2051152708552308 Ba
atom 7.5604658361504988 7.5678724037867982 57.2051152708552308 Ba
atom 2.5201552787168335 2.5132940797321921 62.1454876528338076 Ba
atom 7.5604658361504988 2.5270164777014745 62.1454876528338076 Ba
atom 2.5201552787168335 7.5673270351351345 62.1454876528338076 Ba
atom 7.5604658361504988 7.5536046371658578 62.1454876528338076 Ba
atom 5.0386908251851423 5.0403105574336671 59.6575493681341626 Zr
atom 10.0822408471158429 5.0403105574336671 59.6575493681341626 Zr
atom 5.0419302896821963 10.0806211148673341 59.6575493681341626 Zr
atom 10.0790013826188165 10.0806211148673341 59.6575493681341626 Zr
atom 5.0406530282415378 5.0403105574336671 64.6142139235245310 Zr
atom 10.0802786440594616 5.0403105574336671 64.6142139235245310 Zr
atom 5.0399680866257972 10.0806211148673341 64.6142139235245310 Zr
atom 10.0809635856752013 10.0806211148673341 64.6142139235245310 Zr
atom 4.5328655457903864 5.0403105574336671 57.1851085269950445 S
atom 10.5880661265106024 5.0403105574336671 57.1851085269950445 S
atom 5.5477555690769540 10.0806211148673341 57.1851085269950445 S
atom 9.5731761032240534 10.0806211148673341 57.1851085269950445 S
atom 5.5495694934130047 5.0403105574336671 62.1385331359211222 S
atom 9.5713621788879948 5.0403105574336671 62.1385331359211222 S
atom 4.5310516214543242 10.0806211148673341 62.1385331359211222 S
atom 10.5898800508466611 10.0806211148673341 62.1385331359211222 S
atom 5.0403105574336671 2.5201552787168335 59.6661065406304374 S
atom 10.0806211148673341 2.5201552787168335 59.6661065406304374 S
atom 5.0403105574336671 7.5604658361504988 59.6661065406304374 S
atom 10.0806211148673341 7.5604658361504988 59.6661065406304374 S
atom 5.0403105574336671 2.5201552787168335 64.6165253302883826 S
atom 10.0806211148673341 2.5201552787168335 64.6165253302883826 S
atom 5.0403105574336671 7.5604658361504988 64.6165253302883826 S
atom 10.0806211148673341 7.5604658361504988 64.6165253302883826 S
atom 2.5201552787168335 5.0403105574336671 60.1459810853118739 S
atom 7.5604658361504988 5.0403105574336671 59.1868994477057981 S
atom 2.5201552787168335 10.0806211148673341 59.1868994477057981 S
atom 7.5604658361504988 10.0806211148673341 60.1459810853118739 S
atom 2.5201552787168335 5.0403105574336671 64.1356648417117441 S
atom 7.5604658361504988 5.0403105574336671 65.0980025363904247 S
atom 2.5201552787168335 10.0806211148673341 65.0980025363904247 S
atom 7.5604658361504988 10.0806211148673341 64.1356648417117441 S
atom 2.5201552787168335 2.5260656817048455 67.0935908619059518 Ba
atom 7.5604658361504988 2.5142448757288198 67.0935908619059518 Ba
atom 2.5201552787168335 7.5545554331624869 67.0935908619059518 Ba
atom 7.5604658361504988 7.5663762391385179 67.0935908619059518 Ba
atom 2.5201552787168335 2.5142448757288198 72.0454939116935549 Ba
atom 7.5604658361504988 2.5260656817048455 72.0454939116935549 Ba
atom 2.5201552787168335 7.5663762391385179 72.0454939116935549 Ba
atom 7.5604658361504988 7.5545554331624869 72.0454939116935549 Ba
atom 5.0403105574336671 5.0403105574336671 69.5695423867997249 Zr
atom 10.0806211148673341 5.0403105574336671 69.5695423867997249 Zr
atom 5.0403105574336671 10.0806211148673341 69.5695423867997249 Zr
atom 10.0806211148673341 10.0806211148673341 69.5695423867997249 Zr
atom 5.0399680866257972 5.0403105574336671 74.5248708500749615 Zr
atom 10.0809635856752013 5.0403105574336671 74.5248708500749615 Zr
atom 5.0406530282415378 10.0806211148673341 74.5248708500749615 Zr
atom 10.0802786440594616 10.0806211148673341 74.5248708500749615 Zr
atom 4.5299431866059736 5.0403105574336671 67.0926036200113458 S
atom 10.5909884856950054 5.0403105574336671 67.0926036200113458 S
atom 5.5506779282613534 10.0806211148673341 67.0926036200113458 S
atom 9.5702537440396576 10.0806211148673341 67.0926036200113458 S
atom 5.5506779282613552 5.0403105574336671 72.0464811535882461 S
atom 9.5702537440396576 5.0403105574336671 72.0464811535882461 S
atom 4.5299431866059727 10.0806211148673341 72.0464811535882461 S
atom 10.5909884856950054 10.0806211148673341 72.0464811535882461 S
atom 5.0403105574336671 2.5201552787168335 69.5695423867997249 S
atom 10.0806211148673341 2.5201552787168335 69.5695423867997249 S
atom 5.0403105574336671 7.5604658361504988 69.5695423867997249 S
atom 10.0806211148673341 7.5604658361504988 69.5695423867997249 S
atom 5.0403105574336671 2.5201552787168335 74.5225594433110956 S
atom 10.0806211148673341 2.5201552787168335 74.5225594433110956 S
atom 5.0403105574336671 7.5604658361504988 74.5225594433110956 S
atom 10.0806211148673341 7.5604658361504988 74.5225594433110956 S
atom 2.5201552787168335 5.0403105574336671 70.0516235943756556 S
atom 7.5604658361504988 5.0403105574336671 69.0874611792238937 S
atom 2.5201552787168335 10.0806211148673341 69.0874611792238937 S
atom 7.5604658361504988 10.0806211148673341 70.0516235943756556 S
atom 2.5201552787168335 5.0403105574336671 74.0410822372089825 S
atom 7.5604658361504988 5.0403105574336671 75.0034199318877484 S
atom 2.5201552787168335 10.0806211148673341 75.0034199318877484 S
atom 7.5604658361504988 10.0806211148673341 74.0410822372089825 S
atom 2.5201552787168335 2.5270164777014745 76.9935971207658554 Ba
atom 7.5604658361504988 2.5132940797321921 76.9935971207658554 Ba
atom 2.5201552787168335 7.5536046371658578 76.9935971207658554 Ba
atom 7.5604658361504988 7.5673270351351345 76.9935971207658554 Ba
atom 2.5201552787168335 2.5127487110805298 81.9339695027442048 Ba
atom 7.5604658361504988 2.5275618463531386 81.9339695027442048 Ba
atom 2.5201552787168335 7.5678724037867982 81.9339695027442048 Ba
atom 7.5604658361504988 7.5530592685141951 81.9339695027442048 Ba
atom 5.0419302896821963 5.0403105574336671 79.4815354054654080 Zr
atom 10.0790013826188165 5.0403105574336671 79.4815354054654080 Zr
atom 5.0386908251851423 10.0806211148673341 79.4815354054654080 Zr
atom 10.0822408471158429 10.0806211148673341 79.4815354054654080 Zr
atom 5.0390602804350939 5.0403105574336671 84.4407469233434114 Zr
atom 10.0818713918658958 5.0403105574336671 84.4407469233434114 Zr
atom 5.0415608344322358 10.0806211148673341 84.4407469233434114 Zr
atom 10.0793708378687619 10.0806211148673341 84.4407469233434114 Zr
atom 4.5310516214543242 5.0403105574336671 77.0005516376783845 S
atom 10.5898800508466611 5.0403105574336671 77.0005516376783845 S
atom 5.5495694934130047 10.0806211148673341 77.0005516376783845 S
atom 9.5713621788879948 10.0806211148673341 77.0005516376783845 S
atom 5.5477555690769540 5.0403105574336671 81.9539762466044692 S
atom 9.5731761032240534 5.0403105574336671 81.9539762466044692 S
atom 4.5328655457903864 10.0806211148673341 81.9539762466044692 S
atom 10.5880661265106024 10.0806211148673341 81.9539762466044692 S
atom 5.0403105574336671 2.5201552787168335 79.4729782329690124 S
atom 10.0806211148673341 2.5201552787168335 79.4729782329690124 S
atom 5.0403105574336671 7.5604658361504988 79.4729782329690124 S
atom 10.0806211148673341 7.5604658361504988 79.4729782329690124 S
atom 5.0403105574336671 2.5201552787168335 84.4228843794333983 S
atom 10.0806211148673341 2.5201552787168335 84.4228843794333983 S
atom 5.0403105574336671 7.5604658361504988 84.4228843794333983 S
atom 10.0806211148673341 7.5604658361504988 84.4228843794333983 S
atom 2.5201552787168335 5.0403105574336671 79.9521853258937512 S
atom 7.5604658361504988 5.0403105574336671 78.9931036882876612 S
atom 2.5201552787168335 10.0806211148673341 78.9931036882876612 S
atom 7.5604658361504988 10.0806211148673341 79.9521853258937512 S
atom 2.5201552787168335 5.0403105574336671 83.9611130950416538 S
atom 7.5604658361504988 5.0403105574336671 84.8968211571906721 S
atom 2.5201552787168335 10.0806211148673341 84.8968211571906721 S
atom 7.5604658361504988 10.0806211148673341 83.9611130950416538 S
atom 2.5201552787168335 2.5476109057443379 86.8281939332393051 Ba
atom 7.5604658361504988 2.4926996516893247 86.8281939332393051 Ba
atom 2.5201552787168335 7.5330102091230025 86.8281939332393051 Ba
atom 7.5604658361504988 7.5879214631779979 86.8281939332393051 Ba
atom 2.5201552787168335 2.3675596680411783 91.4955768509899485 Ba
atom 7.5604658361504988 2.6727508893924843 91.4955768509899485 Ba
atom 2.5201552787168335 7.7130614468261554 91.4955768509899485 Ba
atom 7.5604658361504988 7.4078702254748414 91.4955768509899485 Ba
atom 5.0278894744203244 5.0403105574336671 89.4531729426126390 Zr
atom 10.0930421978806759 5.0403105574336671 89.4531729426126390 Zr
atom 5.0527316404470053 10.0806211148673341 89.4531729426126390 Zr
atom 10.0682000318539906 10.0806211148673341 89.4531729426126390 Zr
atom 4.5679019132539116 5.0403105574336671 86.9106337094540322 S
atom 10.5530297590470745 5.0403105574336671 86.9106337094540322 S
atom 5.5127192016134225 10.0806211148673341 86.9106337094540322 S
atom 9.6082124706875831 10.0806211148673341 86.9106337094540322 S
atom 5.3932576637456933 5.0403105574336671 91.9347063517536185 S
atom 9.7276740085552991 5.0403105574336671 91.9347063517536185 S
atom 4.6873634511216329 10.0806211148673341 91.9347063517536185 S
atom 10.4335682211793568 10.0806211148673341 91.9347063517536185 S
atom 5.0403105574336671 2.5201552787168335 89.3181007739941180 S
atom 10.0806211148673341 2.5201552787168335 89.3181007739941180 S
atom 5.0403105574336671 7.5604658361504988 89.3181007739941180 S
atom 10.0806211148673341 7.5604658361504988 89.3181007739941180 S
atom 2.5201552787168335 5.0403105574336671 89.7677782748616409 S
atom 7.5604658361504988 5.0403105574336671 88.9759206528687088 S
atom 2.5201552787168335 10.0806211148673341 88.9759206528687088 S
atom 7.5604658361504988 10.0806211148673341 89.7677782748616409 S
