#=======================================================
# FHI-aims file: sym_relax/sym_relax_RP_10_Rx1Ry20_Rx2Ry10.in
# Created using the Atomic Simulation Environment (ASE)
# Mon Mar 17 17:11:07 2025
#=======================================================
lattice_vector 10.0759197740381765 0.0413130390699641 0.0000000000000000 
lattice_vector 0.0413130390699641 10.0759197740381659 0.0000000000000000 
lattice_vector 0.0000000000000000 0.0000000000000000 104.7134238765802650 
atom -0.0122393645100928 -0.1478930018546780 0.2724598463925911 Ba
atom 5.0501992515291718 0.1685495213896599 0.2724598463925911 Ba
atom 0.0328958840450749 5.1858528888737672 0.2724598463925911 Ba
atom 5.0463770420439733 4.9107234046994064 0.2724598463925911 Ba
atom -0.0310887153319016 0.0251960705624571 4.9377740177824059 Ba
atom 5.0690486023509997 -0.0045395510274751 4.9377740177824059 Ba
atom 0.0517452348668834 5.0127638164566362 4.9377740177824059 Ba
atom 5.0275276912221711 5.0838124771165338 4.9377740177824059 Ba
atom 2.5175380508120888 2.5254741077066671 2.3224173087516014 Zr
atom 7.5790382427610741 2.5537988183823934 2.3224173087516014 Zr
atom 2.5617348752769633 7.5711021858665157 2.3224173087516014 Zr
atom 7.5761544573661501 7.5840905142607333 2.3224173087516014 Zr
atom 2.5284118561211470 2.5340353832262998 7.3376315764867277 Zr
atom 7.5681644374520110 2.5452375428627576 7.3376315764867277 Zr
atom 2.5508610699679077 7.5625409103468719 7.3376315764867277 Zr
atom 7.5870282626752248 7.5926517897803736 7.3376315764867277 Zr
atom 2.8745786857092650 2.5898029394106326 -0.1607631266092322 S
atom 7.2219976078638890 2.4894699866784271 -0.1607631266092322 S
atom 2.2046942403797849 7.5067733541625401 -0.1607631266092322 S
atom 7.9331950922633396 7.6484193459647054 -0.1607631266092322 S
atom 2.0718088049760062 2.4221253412549983 4.8651450065245818 S
atom 8.0247674885971598 2.6571475848340658 4.8651450065245818 S
atom 3.0074641211130508 7.6744509523181765 4.8651450065245818 S
atom 7.1304252115300661 7.4807417478090805 4.8651450065245818 S
atom 2.5189799435095463 0.0103282597674909 2.3654780773930666 S
atom 7.5569398305286288 0.0309847793024728 2.5385547967049451 S
atom 2.5396364630445221 5.0482881467865850 2.5385547967049451 S
atom 7.5775963500636179 5.0689446663215705 2.3654780773930666 S
atom 2.5189799435095463 0.0103282597674909 7.5031239665855285 S
atom 7.5569398305286288 0.0309847793024728 7.1964943790499110 S
atom 2.5396364630445221 5.0482881467865850 7.1964943790499110 S
atom 7.5775963500636179 5.0689446663215705 7.5031239665855285 S
atom 0.0103282597674909 2.5189799435095468 2.0174954698012115 S
atom 5.0482881467865823 2.5396364630445318 2.7910493464819259 S
atom 0.0309847793024728 7.5569398305286422 2.7910493464819259 S
atom 5.0689446663215554 7.5775963500636276 2.0174954698012115 S
atom 0.0103282597674909 2.5189799435095468 7.8020257012596366 S
atom 5.0482881467865823 2.5396364630445318 6.8926463535596918 S
atom 0.0309847793024728 7.5569398305286422 6.8926463535596918 S
atom 5.0689446663215554 7.5775963500636276 7.8020257012596366 S
atom 0.0638937216460408 -0.0044631426197267 9.8354218936011168 Ba
atom 4.9740661653730553 0.0251196621547086 9.8354218936011168 Ba
atom -0.0432372021110589 5.0424230296388233 9.8354218936011168 Ba
atom 5.1225101282001173 5.0541532639343467 9.8354218936011168 Ba
atom -0.0716145761549636 0.0024543410215384 14.7839787387481625 Ba
atom 5.1095744631740638 0.0182021785134435 14.7839787387481625 Ba
atom 0.0922710956899454 5.0355055459975615 14.7839787387481625 Ba
atom 4.9870018303991035 5.0610707475756183 14.7839787387481625 Ba
atom 2.5306620817115126 2.5274077902329926 12.2995841575894858 Zr
atom 7.5659142118616476 2.5518651358560658 12.2995841575894858 Zr
atom 2.5486108443775399 7.5691685033401681 12.2995841575894858 Zr
atom 7.5892784882655970 7.5860241967870818 12.2995841575894858 Zr
atom 2.5290243288758987 2.5300752623483986 17.2590399235401790 Zr
atom 7.5675519646972615 2.5491976637406610 17.2590399235401790 Zr
atom 2.5502485972131494 7.5665010312247825 17.2590399235401790 Zr
atom 7.5876407354299715 7.5886916689024719 17.2590399235401790 Zr
atom 3.0128897634667413 2.6863643868179952 9.8246920487643283 S
atom 7.0836865301064114 2.3929085392710605 9.8246920487643283 S
atom 2.0663831626223077 7.4102119067551699 9.8246920487643283 S
atom 8.0715061700208146 7.7449807933720782 9.8246920487643283 S
atom 2.0526677635989405 2.3451318091669919 14.7812465401879169 S
atom 8.0439085299742121 2.7341411169220668 14.7812465401879169 S
atom 3.0266051624901089 7.7514444844061883 14.7812465401879169 S
atom 7.1112841701530103 7.4037482157210652 14.7812465401879169 S
atom 2.5189799435095463 0.0103282597674909 12.1048747111429016 S
atom 7.5569398305286288 0.0309847793024728 12.5034418187708276 S
atom 2.5396364630445221 5.0482881467865850 12.5034418187708276 S
atom 7.5775963500636179 5.0689446663215705 12.1048747111429016 S
atom 2.5189799435095463 0.0103282597674909 17.4788712745167523 S
atom 7.5569398305286288 0.0309847793024728 17.0403542963585402 S
atom 2.5396364630445221 5.0482881467865850 17.0403542963585402 S
atom 7.5775963500636179 5.0689446663215705 17.4788712745167523 S
atom 0.0103282597674909 2.5189799435095468 11.8458454652838121 S
atom 5.0482881467865823 2.5396364630445318 12.7682550139787381 S
atom 0.0309847793024728 7.5569398305286422 12.7682550139787381 S
atom 5.0689446663215554 7.5775963500636276 11.8458454652838121 S
atom 0.0103282597674909 2.5189799435095468 17.7189477050647106 S
atom 5.0482881467865823 2.5396364630445318 16.8039007185528178 S
atom 0.0309847793024728 7.5569398305286422 16.8039007185528178 S
atom 5.0689446663215554 7.5775963500636276 17.7189477050647106 S
atom 0.0735371440835687 -0.0006148573181136 19.7387514472620893 Ba
atom 4.9644227429355166 0.0212713768530954 19.7387514472620893 Ba
atom -0.0528806245485869 5.0385747443372155 19.7387514472620893 Ba
atom 5.1321535506376437 5.0580015492359651 19.7387514472620893 Ba
atom -0.0739086727614214 0.0001161756343530 24.6965622350425136 Ba
atom 5.1118685597805076 0.0205403439006289 24.6965622350425136 Ba
atom 0.0945651922964033 5.0378437113847383 24.6965622350425136 Ba
atom 4.9847077337926535 5.0587325821884281 24.6965622350425136 Ba
atom 2.5293570210010063 2.5291093495732966 22.2174692360574113 Zr
atom 7.5672192725721352 2.5501635765157609 22.2174692360574113 Zr
atom 2.5499159050880520 7.5674669439998841 22.2174692360574113 Zr
atom 7.5879734275550934 7.5877257561273757 22.2174692360574113 Zr
atom 2.5293570210010063 2.5291093495732966 27.1756552340276123 Zr
atom 7.5672192725721352 2.5501635765157609 27.1756552340276123 Zr
atom 2.5499159050880520 7.5674669439998841 27.1756552340276123 Zr
atom 7.5879734275550934 7.5877257561273757 27.1756552340276123 Zr
atom 3.0018094572179939 2.7250705274295783 19.7388990449115589 S
atom 7.0947668363551619 2.3542023986594769 19.7388990449115589 S
atom 2.0774634688710631 7.3715057661435912 19.7388990449115589 S
atom 8.0604258637720676 7.7836869339836579 19.7388990449115589 S
atom 2.0579789886524376 2.3304873829353872 24.6965622350425136 S
atom 8.0385973049207173 2.7487855431536703 24.6965622350425136 S
atom 3.0212939374366181 7.7660889106377864 24.6965622350425136 S
atom 7.1165953952065042 7.3891037894894716 24.6965622350425136 S
atom 2.5189799435095463 0.0103282597674909 21.9910034827806200 S
atom 7.5569398305286288 0.0309847793024728 22.4441042756208660 S
atom 2.5396364630445221 5.0482881467865850 22.4441042756208660 S
atom 7.5775963500636179 5.0689446663215705 21.9910034827806200 S
atom 2.5189799435095463 0.0103282597674909 27.4021209873044036 S
atom 7.5569398305286288 0.0309847793024728 26.9490201944641115 S
atom 2.5396364630445221 5.0482881467865850 26.9490201944641115 S
atom 7.5775963500636179 5.0689446663215705 27.4021209873044036 S
atom 0.0103282597674909 2.5189799435095468 21.7619915101069701 S
atom 5.0482881467865823 2.5396364630445318 22.6740473106058182 S
atom 0.0309847793024728 7.5569398305286422 22.6740473106058182 S
atom 5.0689446663215554 7.5775963500636276 21.7619915101069701 S
atom 0.0103282597674909 2.5189799435095468 27.6311329599780073 S
atom 5.0482881467865823 2.5396364630445318 26.7190771594791983 S
atom 0.0309847793024728 7.5569398305286422 26.7190771594791983 S
atom 5.0689446663215554 7.5775963500636276 27.6311329599780073 S
atom 0.0735371440835687 -0.0006148573181136 29.6543730228228881 Ba
atom 4.9644227429355166 0.0212713768530954 29.6543730228228881 Ba
atom -0.0528806245485869 5.0385747443372155 29.6543730228228881 Ba
atom 5.1321535506376437 5.0580015492359651 29.6543730228228881 Ba
atom -0.0716145761549636 0.0024543410215384 34.6091457313368025 Ba
atom 5.1095744631740638 0.0182021785134435 34.6091457313368025 Ba
atom 0.0922710956899454 5.0355055459975615 34.6091457313368025 Ba
atom 4.9870018303991035 5.0610707475756183 34.6091457313368025 Ba
atom 2.5290243288758987 2.5300752623483986 32.1340845465446989 Zr
atom 7.5675519646972615 2.5491976637406610 32.1340845465446989 Zr
atom 2.5502485972131494 7.5665010312247825 32.1340845465446989 Zr
atom 7.5876407354299715 7.5886916689024719 32.1340845465446989 Zr
atom 2.5306620817115126 2.5274077902329926 37.0935403124955343 Zr
atom 7.5659142118616476 2.5518651358560658 37.0935403124955343 Zr
atom 2.5486108443775399 7.5691685033401681 37.0935403124955343 Zr
atom 7.5892784882655970 7.5860241967870818 37.0935403124955343 Zr
atom 3.0018094572179939 2.7250705274295783 29.6542254251734327 S
atom 7.0947668363551619 2.3542023986594769 29.6542254251734327 S
atom 2.0774634688710631 7.3715057661435912 29.6542254251734327 S
atom 8.0604258637720676 7.7836869339836579 29.6542254251734327 S
atom 2.0526677635989405 2.3451318091669919 34.6118779298971120 S
atom 8.0439085299742121 2.7341411169220668 34.6118779298971120 S
atom 3.0266051624901089 7.7514444844061883 34.6118779298971120 S
atom 7.1112841701530103 7.4037482157210652 34.6118779298971120 S
atom 2.5189799435095463 0.0103282597674909 31.9142531955682287 S
atom 7.5569398305286288 0.0309847793024728 32.3527701737263484 S
atom 2.5396364630445221 5.0482881467865850 32.3527701737263484 S
atom 7.5775963500636179 5.0689446663215705 31.9142531955682287 S
atom 2.5189799435095463 0.0103282597674909 37.2882497589420652 S
atom 7.5569398305286288 0.0309847793024728 36.8896826513141463 S
atom 2.5396364630445221 5.0482881467865850 36.8896826513141463 S
atom 7.5775963500636179 5.0689446663215705 37.2882497589420652 S
atom 0.0103282597674909 2.5189799435095468 31.6741767650203130 S
atom 5.0482881467865823 2.5396364630445318 32.5892237515322662 S
atom 0.0309847793024728 7.5569398305286422 32.5892237515322662 S
atom 5.0689446663215554 7.5775963500636276 31.6741767650203130 S
atom 0.0103282597674909 2.5189799435095468 37.5472790048012044 S
atom 5.0482881467865823 2.5396364630445318 36.6248694561062820 S
atom 0.0309847793024728 7.5569398305286422 36.6248694561062820 S
atom 5.0689446663215554 7.5775963500636276 37.5472790048012044 S
atom 0.0638937216460407 -0.0044631426197267 39.5577025764839192 Ba
atom 4.9740661653730553 0.0251196621547086 39.5577025764839192 Ba
atom -0.0432372021110589 5.0424230296388233 39.5577025764839192 Ba
atom 5.1225101282001173 5.0541532639343467 39.5577025764839192 Ba
atom -0.0310887153319016 0.0251960705624571 44.4553504523025893 Ba
atom 5.0690486023509997 -0.0045395510274751 44.4553504523025893 Ba
atom 0.0517452348668834 5.0127638164566362 44.4553504523025893 Ba
atom 5.0275276912221711 5.0838124771165338 44.4553504523025893 Ba
atom 2.5284118561211470 2.5340353832262998 42.0554928935983199 Zr
atom 7.5681644374520110 2.5452375428627576 42.0554928935983199 Zr
atom 2.5508610699679077 7.5625409103468719 42.0554928935983199 Zr
atom 7.5870282626752248 7.5926517897803736 42.0554928935983199 Zr
atom 2.5175380508120888 2.5254741077066671 47.0707071613333952 Zr
atom 7.5790382427610741 2.5537988183823934 47.0707071613333952 Zr
atom 2.5617348752769633 7.5711021858665157 47.0707071613333952 Zr
atom 7.5761544573661501 7.5840905142607333 47.0707071613333952 Zr
atom 3.0128897634667413 2.6863643868179952 39.5684324213206153 S
atom 7.0836865301064114 2.3929085392710605 39.5684324213206153 S
atom 2.0663831626223077 7.4102119067551699 39.5684324213206153 S
atom 8.0715061700208146 7.7449807933720782 39.5684324213206153 S
atom 2.0718088049760062 2.4221253412549983 44.5279794635604276 S
atom 8.0247674885971598 2.6571475848340658 44.5279794635604276 S
atom 3.0074641211130508 7.6744509523181765 44.5279794635604276 S
atom 7.1304252115300661 7.4807417478090805 44.5279794635604276 S
atom 2.5189799435095463 0.0103282597674909 41.8900005034994294 S
atom 7.5569398305286288 0.0309847793024728 42.1966300910350469 S
atom 2.5396364630445221 5.0482881467865850 42.1966300910350469 S
atom 7.5775963500636179 5.0689446663215705 41.8900005034994294 S
atom 2.5189799435095463 0.0103282597674909 47.0276463926919135 S
atom 7.5569398305286288 0.0309847793024728 46.8545696733800554 S
atom 2.5396364630445221 5.0482881467865850 46.8545696733800554 S
atom 7.5775963500636179 5.0689446663215705 47.0276463926919135 S
atom 0.0103282597674909 2.5189799435095468 41.5910987688254110 S
atom 5.0482881467865823 2.5396364630445318 42.5004781165253149 S
atom 0.0309847793024728 7.5569398305286422 42.5004781165253149 S
atom 5.0689446663215554 7.5775963500636276 41.5910987688254110 S
atom 0.0103282597674909 2.5189799435095468 47.3756290002837233 S
atom 5.0482881467865823 2.5396364630445318 46.6020751236031074 S
atom 0.0309847793024728 7.5569398305286422 46.6020751236031074 S
atom 5.0689446663215554 7.5775963500636276 47.3756290002837233 S
atom -0.0122393645100929 -0.1478930018546780 49.1206646236924414 Ba
atom 5.0501992515291718 0.1685495213896599 49.1206646236924414 Ba
atom 0.0328958840450748 5.1858528888737672 49.1206646236924414 Ba
atom 5.0463770420439733 4.9107234046994064 49.1206646236924414 Ba
atom 2.8745786857092650 2.5898029394106326 49.5538875966942243 S
atom 7.2219976078638890 2.4894699866784271 49.5538875966942243 S
atom 2.2046942403797849 7.5067733541625401 49.5538875966942243 S
atom 7.9331950922633396 7.6484193459647054 49.5538875966942243 S
atom 2.3814152014223584 2.5170688387669453 52.6291717846826117 Ba
atom 7.7151610921507938 2.5622040873221117 52.6291717846826117 Ba
atom 2.6978577246666968 7.5795074548062216 52.6291717846826117 Ba
atom 7.4400316079764410 7.5756852453210239 52.6291717846826117 Ba
atom 2.5545042738394956 2.4982194879451365 57.2944859560724424 Ba
atom 7.5420720197336637 2.5810534381439232 57.2944859560724424 Ba
atom 2.5247686522495600 7.5983568056280362 57.2944859560724424 Ba
atom 7.6131206803935658 7.5568358944992138 57.2944859560724424 Ba
atom 5.0547823109836854 5.0468462540891217 54.6791292470416437 Zr
atom 10.1004103891435513 5.0910430785540068 54.6791292470416437 Zr
atom 5.0831070216594281 10.1083464460381212 54.6791292470416437 Zr
atom 10.1133987175377662 10.1054626606431892 54.6791292470416437 Zr
atom 5.0633435865033380 5.0577200593981892 59.6943435147767403 Zr
atom 10.0918491136238888 5.0801692732449499 59.6943435147767403 Zr
atom 5.0745457461397958 10.0974726407290856 59.6943435147767403 Zr
atom 10.1219599930573878 10.1163364659522372 59.6943435147767403 Zr
atom 5.1191111426876779 5.4038868889863103 52.1959488116807933 S
atom 10.0360815574395570 4.7340024436568289 52.1959488116807933 S
atom 5.0187781899554516 9.7513058111409414 52.1959488116807933 S
atom 10.1777275492417587 10.4625032955404080 52.1959488116807933 S
atom 4.9514335445320414 4.6011170082530510 57.2218569448146113 S
atom 10.2037591555951987 5.5367723243900855 57.2218569448146113 S
atom 5.1864557881110835 10.5540756918742051 57.2218569448146113 S
atom 10.0100499510860992 9.6597334148071088 57.2218569448146113 S
atom 5.0482881467865823 2.5396364630445318 54.3742074080913866 S
atom 10.0862480338056919 2.5602929825795124 55.1477612847719598 S
atom 5.0689446663215554 7.5775963500636276 55.1477612847719598 S
atom 10.1069045533406445 7.5982528695986016 54.3742074080913866 S
atom 5.0482881467865823 2.5396364630445318 60.1587376395496491 S
atom 10.0862480338056919 2.5602929825795124 59.2493582918498234 S
atom 5.0689446663215554 7.5775963500636276 59.2493582918498234 S
atom 10.1069045533406445 7.5982528695986016 60.1587376395496491 S
atom 2.5396364630445221 5.0482881467865850 54.7221900156831040 S
atom 7.5775963500636179 5.0689446663215705 54.8952667349950545 S
atom 2.5602929825795080 10.0862480338056724 54.8952667349950545 S
atom 7.5982528695985936 10.1069045533406658 54.7221900156831040 S
atom 2.5396364630445221 5.0482881467865850 59.8598359048755881 S
atom 7.5775963500636179 5.0689446663215705 59.5532063173399564 S
atom 2.5602929825795080 10.0862480338056724 59.5532063173399564 S
atom 7.5982528695985936 10.1069045533406658 59.8598359048755881 S
atom 2.5248450606573090 2.5932019249230822 62.1921338318911125 Ba
atom 7.5717312329158490 2.4860710011659810 62.1921338318911125 Ba
atom 2.5544278654317458 7.5033743686500909 62.1921338318911125 Ba
atom 7.5834614672113743 7.6518183314771511 62.1921338318911125 Ba
atom 2.5317625442985747 2.4576936271220768 67.1406906770382790 Ba
atom 7.5648137492745944 2.6215792989669815 67.1406906770382790 Ba
atom 2.5475103817904801 7.6388826664511011 67.1406906770382790 Ba
atom 7.5903789508526573 7.5163100336761479 67.1406906770382790 Ba
atom 5.0567159935100383 5.0599702849885482 64.6562960958795685 Zr
atom 10.0984767066172108 5.0779190476545839 64.6562960958795685 Zr
atom 5.0811733391330858 10.0952224151386929 64.6562960958795685 Zr
atom 10.1153324000641103 10.1185866915426281 64.6562960958795685 Zr
atom 5.0593834656254293 5.0583325321529449 69.6157518618303186 Zr
atom 10.0958092345018215 5.0795568004901916 69.6157518618303186 Zr
atom 5.0785058670176983 10.0968601679743042 69.6157518618303186 Zr
atom 10.1179998721794870 10.1169489387070257 69.6157518618303186 Zr
atom 5.2156725900950285 5.5421979667437871 62.1814039870544164 S
atom 9.9395201100321859 4.5956913658993583 62.1814039870544164 S
atom 4.9222167425480938 9.6129947333834664 62.1814039870544164 S
atom 10.2742889966491244 10.6008143732978688 62.1814039870544164 S
atom 4.8744400124440252 4.5819759668759845 67.1379584784781258 S
atom 10.2807526876832203 5.5559133657671591 67.1379584784781258 S
atom 5.2634493201990935 10.5732167332512574 67.1379584784781258 S
atom 9.9330564189980848 9.6405923734300583 67.1379584784781258 S
atom 5.0482881467865823 2.5396364630445318 64.2025574035740192 S
atom 10.0862480338056919 2.5602929825795124 65.1249669522689203 S
atom 5.0689446663215554 7.5775963500636276 65.1249669522689203 S
atom 10.1069045533406445 7.5982528695986016 64.2025574035740192 S
atom 5.0482881467865823 2.5396364630445318 70.0756596433546974 S
atom 10.0862480338056919 2.5602929825795124 69.1606126568429005 S
atom 5.0689446663215554 7.5775963500636276 69.1606126568429005 S
atom 10.1069045533406445 7.5982528695986016 70.0756596433546974 S
atom 2.5396364630445221 5.0482881467865850 64.4615866494328742 S
atom 7.5775963500636179 5.0689446663215705 64.8601537570607576 S
atom 2.5602929825795080 10.0862480338056724 64.8601537570607576 S
atom 7.5982528695985936 10.1069045533406658 64.4615866494328742 S
atom 2.5396364630445221 5.0482881467865850 69.8355832128068812 S
atom 7.5775963500636179 5.0689446663215705 69.3970662346485483 S
atom 2.5602929825795080 10.0862480338056724 69.3970662346485483 S
atom 7.5982528695985936 10.1069045533406658 69.8355832128068812 S
atom 2.5286933459589220 2.6028453473606050 72.0954633855521507 Ba
atom 7.5678829476142289 2.4764275787284546 72.0954633855521507 Ba
atom 2.5505795801301328 7.4937309462125627 72.0954633855521507 Ba
atom 7.5873097525129962 7.6614617539146828 72.0954633855521507 Ba
atom 2.5294243789113833 2.4553995305156180 77.0532741733325253 Ba
atom 7.5671519146617667 2.6238733955734426 77.0532741733325253 Ba
atom 2.5498485471776657 7.6411767630575547 77.0532741733325253 Ba
atom 7.5880407854654619 7.5140159370696864 77.0532741733325253 Ba
atom 5.0584175528503170 5.0586652242780454 74.5741811743475154 Zr
atom 10.0967751472768938 5.0792241083650884 74.5741811743475154 Zr
atom 5.0794717797928106 10.0965274758491823 74.5741811743475154 Zr
atom 10.1170339594044147 10.1172816308321281 74.5741811743475154 Zr
atom 5.0584175528503170 5.0586652242780454 79.5323671723178052 Zr
atom 10.0967751472768938 5.0792241083650884 79.5323671723178052 Zr
atom 5.0794717797928106 10.0965274758491823 79.5323671723178052 Zr
atom 10.1170339594044147 10.1172816308321281 79.5323671723178052 Zr
atom 5.2543787307066223 5.5311176604950330 72.0956109832017944 S
atom 9.9008139694206179 4.6067716721480947 72.0956109832017944 S
atom 4.8835106019365071 9.6240750396322170 72.0956109832017944 S
atom 10.3129951372606730 10.5897340670491023 72.0956109832017944 S
atom 4.8597955862124103 4.5872871919294731 77.0532741733325253 S
atom 10.2953971139148202 5.5506021407136661 77.0532741733325253 S
atom 5.2780937464307049 10.5679055081977733 77.0532741733325253 S
atom 9.9184119927664831 9.6459035984835602 77.0532741733325253 S
atom 5.0482881467865823 2.5396364630445318 74.1187034483971274 S
atom 10.0862480338056919 2.5602929825795124 75.0307592488957766 S
atom 5.0689446663215554 7.5775963500636276 75.0307592488957766 S
atom 10.1069045533406445 7.5982528695986016 74.1187034483971274 S
atom 5.0482881467865823 2.5396364630445318 79.9878448982682073 S
atom 10.0862480338056919 2.5602929825795124 79.0757890977692171 S
atom 5.0689446663215554 7.5775963500636276 79.0757890977692171 S
atom 10.1069045533406445 7.5982528695986016 79.9878448982682073 S
atom 2.5396364630445221 5.0482881467865850 74.3477154210708022 S
atom 7.5775963500636179 5.0689446663215705 74.8008162139109203 S
atom 2.5602929825795080 10.0862480338056724 74.8008162139109203 S
atom 7.5982528695985936 10.1069045533406658 74.3477154210708022 S
atom 2.5396364630445221 5.0482881467865850 79.7588329255944188 S
atom 7.5775963500636179 5.0689446663215705 79.3057321327542581 S
atom 2.5602929825795080 10.0862480338056724 79.3057321327542581 S
atom 7.5982528695985936 10.1069045533406658 79.7588329255944188 S
atom 2.5286933459589220 2.6028453473606050 82.0110849611127861 Ba
atom 7.5678829476142289 2.4764275787284546 82.0110849611127861 Ba
atom 2.5505795801301328 7.4937309462125627 82.0110849611127861 Ba
atom 7.5873097525129962 7.6614617539146828 82.0110849611127861 Ba
atom 2.5317625442985747 2.4576936271220768 86.9658576696267858 Ba
atom 7.5648137492745944 2.6215792989669815 86.9658576696267858 Ba
atom 2.5475103817904801 7.6388826664511011 86.9658576696267858 Ba
atom 7.5903789508526573 7.5163100336761479 86.9658576696267858 Ba
atom 5.0593834656254293 5.0583325321529449 84.4907964848349025 Zr
atom 10.0958092345018215 5.0795568004901916 84.4907964848349025 Zr
atom 5.0785058670176983 10.0968601679743042 84.4907964848349025 Zr
atom 10.1179998721794870 10.1169489387070257 84.4907964848349025 Zr
atom 5.0567159935100383 5.0599702849885482 89.4502522507855389 Zr
atom 10.0984767066172108 5.0779190476545839 89.4502522507855389 Zr
atom 5.0811733391330858 10.0952224151386929 89.4502522507855389 Zr
atom 10.1153324000641103 10.1185866915426281 89.4502522507855389 Zr
atom 5.2543787307066223 5.5311176604950330 82.0109373634633698 S
atom 9.9008139694206179 4.6067716721480947 82.0109373634633698 S
atom 4.8835106019365071 9.6240750396322170 82.0109373634633698 S
atom 10.3129951372606730 10.5897340670491023 82.0109373634633698 S
atom 4.8744400124440252 4.5819759668759845 86.9685898681870952 S
atom 10.2807526876832203 5.5559133657671591 86.9685898681870952 S
atom 5.2634493201990935 10.5732167332512574 86.9685898681870952 S
atom 9.9330564189980848 9.6405923734300583 86.9685898681870952 S
atom 5.0482881467865823 2.5396364630445318 84.0308887033102963 S
atom 10.0862480338056919 2.5602929825795124 84.9459356898221500 S
atom 5.0689446663215554 7.5775963500636276 84.9459356898221500 S
atom 10.1069045533406445 7.5982528695986016 84.0308887033102963 S
atom 5.0482881467865823 2.5396364630445318 89.9039909430910882 S
atom 10.0862480338056919 2.5602929825795124 88.9815813943962866 S
atom 5.0689446663215554 7.5775963500636276 88.9815813943962866 S
atom 10.1069045533406445 7.5982528695986016 89.9039909430910882 S
atom 2.5396364630445221 5.0482881467865850 84.2709651338582972 S
atom 7.5775963500636179 5.0689446663215705 84.7094821120165875 S
atom 2.5602929825795080 10.0862480338056724 84.7094821120165875 S
atom 7.5982528695985936 10.1069045533406658 84.2709651338582972 S
atom 2.5396364630445221 5.0482881467865850 89.6449616972322332 S
atom 7.5775963500636179 5.0689446663215705 89.2463945896042645 S
atom 2.5602929825795080 10.0862480338056724 89.2463945896042645 S
atom 7.5982528695985936 10.1069045533406658 89.6449616972322332 S
atom 2.5248450606573090 2.5932019249230822 91.9144145147738953 Ba
atom 7.5717312329158490 2.4860710011659810 91.9144145147738953 Ba
atom 2.5544278654317458 7.5033743686500909 91.9144145147738953 Ba
atom 7.5834614672113743 7.6518183314771511 91.9144145147738953 Ba
atom 2.5545042738394956 2.4982194879451365 96.8120623905926863 Ba
atom 7.5420720197336637 2.5810534381439232 96.8120623905926863 Ba
atom 2.5247686522495600 7.5983568056280362 96.8120623905926863 Ba
atom 7.6131206803935658 7.5568358944992138 96.8120623905926863 Ba
atom 5.0633435865033380 5.0577200593981892 94.4122048318882889 Zr
atom 10.0918491136238888 5.0801692732449499 94.4122048318882889 Zr
atom 5.0745457461397958 10.0974726407290856 94.4122048318882889 Zr
atom 10.1219599930573878 10.1163364659522372 94.4122048318882889 Zr
atom 5.0547823109836854 5.0468462540891217 99.4274190996233926 Zr
atom 10.1004103891435513 5.0910430785540068 99.4274190996233926 Zr
atom 5.0831070216594281 10.1083464460381212 99.4274190996233926 Zr
atom 10.1133987175377662 10.1054626606431892 99.4274190996233926 Zr
atom 5.2156725900950285 5.5421979667437871 91.9251443596106839 S
atom 9.9395201100321859 4.5956913658993583 91.9251443596106839 S
atom 4.9222167425480938 9.6129947333834664 91.9251443596106839 S
atom 10.2742889966491244 10.6008143732978688 91.9251443596106839 S
atom 4.9514335445320414 4.6011170082530510 96.8846914018504322 S
atom 10.2037591555951987 5.5367723243900855 96.8846914018504322 S
atom 5.1864557881110835 10.5540756918742051 96.8846914018504322 S
atom 10.0100499510860992 9.6597334148071088 96.8846914018504322 S
atom 5.0482881467865823 2.5396364630445318 93.9478107071154653 S
atom 10.0862480338056919 2.5602929825795124 94.8571900548152769 S
atom 5.0689446663215554 7.5775963500636276 94.8571900548152769 S
atom 10.1069045533406445 7.5982528695986016 93.9478107071154653 S
atom 5.0482881467865823 2.5396364630445318 99.7323409385737847 S
atom 10.0862480338056919 2.5602929825795124 98.9587870618930907 S
atom 5.0689446663215554 7.5775963500636276 98.9587870618930907 S
atom 10.1069045533406445 7.5982528695986016 99.7323409385737847 S
atom 2.5396364630445221 5.0482881467865850 94.2467124417894837 S
atom 7.5775963500636179 5.0689446663215705 94.5533420293250515 S
atom 2.5602929825795080 10.0862480338056724 94.5533420293250515 S
atom 7.5982528695985936 10.1069045533406658 94.2467124417894837 S
atom 2.5396364630445221 5.0482881467865850 99.3843583309820531 S
atom 7.5775963500636179 5.0689446663215705 99.2112816116702874 S
atom 2.5602929825795080 10.0862480338056724 99.2112816116702874 S
atom 7.5982528695985936 10.1069045533406658 99.3843583309820531 S
atom 2.3814152014223584 2.5170688387669453 101.4773765619823109 Ba
atom 7.7151610921507938 2.5622040873221117 101.4773765619823109 Ba
atom 2.6978577246666968 7.5795074548062216 101.4773765619823109 Ba
atom 7.4400316079764410 7.5756852453210239 101.4773765619823109 Ba
atom 5.1191111426876779 5.4038868889863103 101.9105995349842857 S
atom 10.0360815574395570 4.7340024436568289 101.9105995349842857 S
atom 5.0187781899554516 9.7513058111409414 101.9105995349842857 S
atom 10.1777275492417587 10.4625032955404080 101.9105995349842857 S
