#=======================================================
# FHI-aims file: sym_relax/sym_relax_RP_7_RxRyRz_RxRy-Rz.in
# Created using the Atomic Simulation Environment (ASE)
# Mon Mar 17 15:52:50 2025
#=======================================================
lattice_vector 9.9515424780424730 -0.0062559963475562 0.0000000000000000 
lattice_vector -0.0062559963475565 9.9515424780424819 0.0000000000000000 
lattice_vector -0.0000000000000000 0.0000000000000000 76.8091832071606859 
atom 0.0404273670303007 -0.1223391123457761 0.1949014086740732 Ba
atom 5.0981103513670192 -0.0435553652040794 0.1949014086740732 Ba
atom 0.1192111141719978 4.9353438719909342 0.1949014086740733 Ba
atom 5.0130706078777534 4.8503041285016879 0.1949014086740733 Ba
atom -0.2552305473611809 0.1897890898831236 5.0236323056536536 Ba
atom 4.7859821491381140 0.2521025491874028 5.0236323056536536 Ba
atom -0.1929170880569021 5.2310017863824134 5.0236323056536536 Ba
atom 4.7174126934862768 5.1624323307305762 5.0236323056536536 Ba
atom 2.4562573587197374 2.5117909693370093 2.4041949110154972 Zr
atom 7.4366235105316818 2.5132578839539330 2.4041949110154972 Zr
atom 2.4577242733366687 7.4921571211489448 2.4041949110154972 Zr
atom 7.4289005995671982 7.4844342101844683 2.4041949110154972 Zr
atom 2.4134344247465540 2.5238349470098895 7.5000733122948464 Zr
atom 7.4245795328587860 2.5560808179271284 7.5000733122948464 Zr
atom 2.4456802956637813 7.5349800551221469 7.5000733122948464 Zr
atom 7.3860776655940006 7.4964781878573552 7.5000733122948464 Zr
atom 2.5742110236992892 2.6961021642114749 -0.1132963293621331 S
atom 7.2523123156572220 2.3953042189743896 -0.1132963293621331 S
atom 2.2734130784622075 7.3742034561694147 -0.1132963293621331 S
atom 7.5468542645467513 7.6687454050589405 -0.1132963293621331 S
atom 2.2522631013930567 2.2997794423874613 4.9862855248967559 S
atom 7.6486350374812266 2.7172521412806212 4.9862855248967559 S
atom 2.6697358002862139 7.6961513784756299 4.9862855248967559 S
atom 7.2249063422405086 7.2724226832349217 4.9862855248967559 S
atom 2.7783306588946259 0.0340375063868643 2.2915615551309676 S
atom 7.0867484002321524 0.0337435654039601 2.7170130685419664 S
atom 2.1078491630371428 5.0126428025989709 2.7170130685419664 S
atom 7.7509738997420783 5.0066807472343182 2.2915615551309676 S
atom 2.9409136246786511 0.0414388446320548 7.7068948952715406 S
atom 6.9702180604642958 0.0389755873410386 7.3378955936220880 S
atom 1.9913188232692924 5.0178748245360465 7.3378955936220880 S
atom 7.9135568655261022 5.0140820854795196 7.7068948952715406 S
atom -0.0371655045606422 2.1974405801266044 2.2915615551309676 S
atom 4.9357716772697140 2.8616660796365285 2.7170130685419664 S
atom -0.0431275599252945 7.8405653168315474 2.7170130685419664 S
atom 4.9354777362868223 7.1700838209740683 2.2915615551309676 S
atom -0.0445668428058323 2.0348576143425867 7.7068948952715406 S
atom 4.9305396553326455 2.9781964194043855 7.3378955936220880 S
atom -0.0483595818623743 7.9570956565994146 7.3378955936220880 S
atom 4.9280763980416182 7.0075008551900435 7.7068948952715406 S
atom 0.0020105401354369 -0.0803460205938510 10.0587648294077336 Ba
atom 5.0561172596150818 -0.0051385383092152 10.0587648294077336 Ba
atom 0.0772180224200725 4.9737606988858003 10.0587648294077336 Ba
atom 4.9746537809828899 4.8922972202536110 10.0587648294077336 Ba
atom 0.0510490052687846 0.0153922335528346 15.1413936822300350 Ba
atom 4.9603790054684076 -0.0541770034425629 15.1413936822300350 Ba
atom -0.0185202317266131 4.9247222337524459 15.1413936822300350 Ba
atom 5.0236922461162417 4.9880354744002879 15.1413936822300350 Ba
atom 2.4956249013401415 2.4875689227552522 12.5889030554086343 Zr
atom 7.4608455571134504 2.4738903413335400 12.5889030554086343 Zr
atom 2.4819463199184257 7.4527895785285558 12.5889030554086343 Zr
atom 7.4682681421875845 7.4602121636027130 12.5889030554086343 Zr
atom 2.4863216204237291 2.4863216204237291 17.6863250805961947 Zr
atom 7.4620928594449705 2.4831936222499493 17.6863250805961947 Zr
atom 2.4831936222499542 7.4620928594449598 17.6863250805961947 Zr
atom 7.4589648612711841 7.4589648612711947 17.6863250805961947 Zr
atom 2.5745790779574658 2.6541219195657719 10.0543136745433248 S
atom 7.2942925603029298 2.3949361647162135 10.0543136745433248 S
atom 2.3153933231079034 7.3738354019112196 10.0543136745433248 S
atom 7.5472223188049359 7.6267651604132380 10.0543136745433248 S
atom 2.4180656064382466 2.4387448324815844 15.1409336304823139 S
atom 7.5096696473871001 2.5514496362354309 15.1409336304823139 S
atom 2.5307704101920945 7.5303488734304489 15.1409336304823139 S
atom 7.3907088472857003 7.4113880733290474 15.1409336304823139 S
atom 1.9950864314181052 0.0012180782366382 12.5340462334192591 S
atom 7.9884035443070225 -0.0009233910043129 12.6673727746079354 S
atom 3.0095043071120036 4.9779758461906916 12.6673727746079354 S
atom 6.9677296722655635 4.9738613190840981 12.5340462334192591 S
atom 3.0039759397905677 -0.0014801500731411 17.7249801094341031 S
atom 6.9475665382519054 -0.0047758462744154 17.6476700517583076 S
atom 1.9686673010568860 4.9741233909206004 17.6476700517583076 S
atom 7.9766191806380249 4.9711630907743105 17.7249801094341031 S
atom -0.0043460764104162 2.9806848076031343 12.5340462334192591 S
atom 4.9704386336780040 1.9600109355616784 12.6673727746079354 S
atom -0.0084606035170217 6.9389101727566889 12.6673727746079354 S
atom 4.9682971644370379 7.9533280484505928 12.5340462334192591 S
atom -0.0016478481006365 1.9717952992306642 17.7249801094341031 S
atom 4.9742910889480898 3.0008479416167906 17.6476700517583076 S
atom -0.0046081482469200 7.9797471788118015 17.6476700517583076 S
atom 4.9709953927468353 6.9444385400781217 17.7249801094341031 S
atom -0.0510490052687846 -0.0153922335528346 20.2312564789623472 Ba
atom 4.9911634725740557 0.0479210070950064 20.2312564789623472 Ba
atom 0.0122642353790562 5.0268202442900289 20.2312564789623472 Ba
atom 4.9215942355786746 4.9572510072946265 20.2312564789623472 Ba
atom -0.0020105401354369 0.0803460205938510 25.3138853317846930 Ba
atom 4.8954252184273708 -0.0011174580383412 25.3138853317846930 Ba
atom -0.0834740187676293 4.9777817791566790 25.3138853317846930 Ba
atom 4.9706327007120246 5.0529892614413097 25.3138853317846930 Ba
atom 2.4770183395073211 2.4850743180922086 22.7837471057838172 Zr
atom 7.4633401617764870 2.4924969031663591 22.7837471057838172 Zr
atom 2.4844409245814685 7.4713961403613700 22.7837471057838172 Zr
atom 7.4496615803547943 7.4577175589396578 22.7837471057838172 Zr
atom 2.5592088161009094 2.4488082938375673 27.8725768488975767 Zr
atom 7.4996061860311354 2.4103064265727729 27.8725768488975767 Zr
atom 2.5207069488361142 7.3892056637677852 27.8725768488975767 Zr
atom 7.5318520569483605 7.4214515346850192 27.8725768488975767 Zr
atom 2.5545776344092146 2.5338984083658742 20.2317165307101057 S
atom 7.4145160715028204 2.4149376082644736 20.2317165307101057 S
atom 2.4356168343078020 7.3938368454594787 20.2317165307101057 S
atom 7.5272208752566607 7.5065416492133261 20.2317165307101057 S
atom 2.3980641628899879 2.3185213212816862 25.3183364866490450 S
atom 7.6298931585870156 2.5714510797836860 25.3183364866490450 S
atom 2.6509939213919909 7.5503503169787027 25.3183364866490450 S
atom 7.3707074037374483 7.2911645621291479 25.3183364866490450 S
atom 1.9631389337354566 -0.0053326053432436 22.7052773865844522 S
atom 7.9564560466243517 -0.0074740745841938 22.8386039277731179 S
atom 2.9775568094293590 4.9714251626108243 22.8386039277731179 S
atom 6.9357821745829122 4.9673106355042238 22.7052773865844522 S
atom 2.9813244175781648 -0.0452315836885951 28.0347545675703422 S
atom 7.0106288533638255 -0.0476948409796113 27.6657552659208861 S
atom 2.0317296161688092 4.9312043962153940 27.6657552659208861 S
atom 7.9539676584256265 4.9274116571588591 28.0347545675703422 S
atom 0.0022046071694649 3.0126323052857806 22.7052773865844522 S
atom 4.9769893172578739 1.9919584332443248 22.8386039277731179 S
atom -0.0019099199371409 6.9708576704393401 22.8386039277731179 S
atom 4.9748478480169203 7.9852755461332325 22.7052773865844522 S
atom 0.0421035855148168 1.9944468214430702 28.0347545675703422 S
atom 5.0172100836532900 2.9377856265048718 27.6657552659208861 S
atom 0.0383108464582760 7.9166848636998921 27.6657552659208861 S
atom 5.0147468263622859 6.9670900622905290 28.0347545675703422 S
atom 0.2552305473611808 -0.1897890898831235 30.3490178555387260 Ba
atom 5.1655603289043475 -0.2583585455349597 30.3490178555387260 Ba
atom 0.1866610917093456 4.7205406916600596 30.3490178555387260 Ba
atom 5.2278737882086297 4.7828541509643419 30.3490178555387260 Ba
atom -0.0404273670303007 0.1223391123457761 35.1777487525183048 Ba
atom 4.8534321266754521 0.0372993688565227 35.1777487525183048 Ba
atom -0.1254671105195548 5.0161986060515318 35.1777487525183048 Ba
atom 4.9322158738171673 5.0949823531932337 35.1777487525183048 Ba
atom 2.5163858821277119 2.4608522715104484 32.9684552501768948 Zr
atom 7.4875622083582405 2.4531293605459661 32.9684552501768948 Zr
atom 2.5086629711632349 7.4320285977409775 32.9684552501768948 Zr
atom 7.4890291229751718 7.4334955123578990 32.9684552501768948 Zr
atom 2.7203801394543969 2.6728637984599923 30.3863646362956956 S
atom 7.2755506814086948 2.2491351032192779 30.3863646362956956 S
atom 2.2966514442136874 7.2280343404142959 30.3863646362956956 S
atom 7.6930233803018533 7.6455070393074518 30.3863646362956956 S
atom 2.3984322171481662 2.2765410766359828 35.4859464905544399 S
atom 7.6718734032327083 2.5710830255255139 35.4859464905544399 S
atom 2.6929741660376938 7.5499822627205182 35.4859464905544399 S
atom 7.3710754579956239 7.2491843174834436 35.4859464905544399 S
atom 2.8647940778103025 -0.0399995617515166 32.6556370926505011 S
atom 7.1732118191478378 -0.0402935027344200 33.0810886060614706 S
atom 2.1943125819528277 4.9386057344605900 33.0810886060614706 S
atom 7.8374373186577690 4.9326436790959445 32.6556370926505011 S
atom 0.0368715635777378 2.1109771612109243 32.6556370926505011 S
atom 5.0098087454080913 2.7752026607208564 33.0810886060614706 S
atom 0.0309095082130851 7.7541018979158638 33.0810886060614706 S
atom 5.0095148044251943 7.0836204020583828 32.6556370926505011 S
atom 2.3639825080779566 2.5267489874540319 38.5994930122544062 Ba
atom 7.4216654924146654 2.6055327345957271 38.5994930122544062 Ba
atom 2.4427662552196479 7.5844319717907327 38.5994930122544062 Ba
atom 7.3366257489254050 7.4993922283014856 38.5994930122544062 Ba
atom 2.6761107103068502 2.2310910730625495 43.4282239092340632 Ba
atom 7.7173234068061412 2.2934045323668304 43.4282239092340632 Ba
atom 2.7384241696111262 7.2723037695618453 43.4282239092340632 Ba
atom 7.6487539511543075 7.2037343139100152 43.4282239092340632 Ba
atom 4.9981125897607299 4.9425789791434811 40.8087865145958162 Zr
atom 9.9784787415726850 4.9440458937603964 40.8087865145958162 Zr
atom 4.9995795043776567 9.9229451309553820 40.8087865145958162 Zr
atom 9.9707558306082102 9.9152222199909179 40.8087865145958162 Zr
atom 5.0101565674336346 4.8997560451702844 45.9046649158752587 Zr
atom 10.0213016755458728 4.9320019160875077 45.9046649158752587 Zr
atom 5.0424024383508579 9.9109011532825555 45.9046649158752587 Zr
atom 9.9827998082810829 9.8723992860177230 45.9046649158752587 Zr
atom 5.1824237846352021 5.0605326441230130 38.2912952742182640 S
atom 9.8605250765931256 4.7597346988859304 38.2912952742182640 S
atom 4.8816258393981213 9.7386339360809480 38.2912952742182640 S
atom 10.1550670254826656 10.0331758849704773 38.2912952742182640 S
atom 4.7861010628111993 4.7385847218167907 43.3908771284771149 S
atom 10.1824729988993745 5.1560574207099465 43.3908771284771149 S
atom 5.2035737617043436 10.1349566579049686 43.3908771284771149 S
atom 9.7587443036586592 9.7112279626642604 43.3908771284771149 S
atom 4.6837622005503352 2.4491561158630857 40.6961531587112333 S
atom 10.3268869372552690 2.4431940604984335 41.1216046721222810 S
atom 5.3479877000602603 7.4220932976934426 41.1216046721222810 S
atom 9.6564054413977995 7.4217993567105500 40.6961531587112333 S
atom 4.5211792347662980 2.4417547776178963 46.1114864988518178 S
atom 10.4434172770231388 2.4379620385613561 45.7424871972023794 S
atom 5.4645180398281301 7.4168612757563714 45.7424871972023794 S
atom 9.4938224756137757 7.4143980184653611 46.1114864988518178 S
atom 2.5203591268105954 5.2646522793183586 40.6961531587112333 S
atom 7.4989644230227022 4.5941707834608749 41.1216046721222810 S
atom 2.5200651858276850 9.5730700206558996 41.1216046721222810 S
atom 7.4930023676580433 10.2372955201658318 40.6961531587112333 S
atom 2.5277604650557817 5.4272352451023762 46.1114864988518178 S
atom 7.5041964449597902 4.4776404436930255 45.7424871972023794 S
atom 2.5252972077647686 9.4565396808880386 45.7424871972023794 S
atom 7.5004037059032411 10.3998784859498326 46.1114864988518178 S
atom 2.4059755998298833 2.4883321605591679 48.4633564329881068 Ba
atom 7.4600823193095334 2.5635396428438018 48.4633564329881068 Ba
atom 2.4811830821145087 7.5424388800388193 48.4633564329881068 Ba
atom 7.3786188406773396 7.4609754014066301 48.4633564329881068 Ba
atom 2.5017138539765580 2.5373706256925130 53.5459852858103460 Ba
atom 7.4110438541761692 2.4678013886971168 53.5459852858103460 Ba
atom 2.4321446169811680 7.4467006258921362 53.5459852858103460 Ba
atom 7.4743570948240121 7.5100138665399712 53.5459852858103460 Ba
atom 4.9738905431789782 4.9819465217638603 50.9934946589889435 Zr
atom 9.9391111989522862 4.9682679403421535 50.9934946589889435 Zr
atom 4.9602119617572802 9.9471671775371728 50.9934946589889435 Zr
atom 9.9465337840264532 9.9545897626113433 50.9934946589889435 Zr
atom 4.9726432408474581 4.9726432408474581 56.0909166841765128 Zr
atom 9.9484144798686991 4.9695152426736744 56.0909166841765128 Zr
atom 4.9695152426736815 9.9484144798686867 56.0909166841765128 Zr
atom 9.9452864816949162 9.9452864816949162 56.0909166841765128 Zr
atom 5.1404435399894979 5.0609006983812019 48.4589052781237726 S
atom 9.8601570223349704 4.8017149435316364 48.4589052781237726 S
atom 4.8812577851399430 9.7806141807266656 48.4589052781237726 S
atom 10.1130867808369551 10.0335439392286592 48.4589052781237726 S
atom 4.9250664529053125 4.9043872268619815 53.5455252340626089 S
atom 10.0166704938542068 5.0170920306158218 53.5455252340626089 S
atom 5.0377712566591537 9.9959912678108438 53.5455252340626089 S
atom 9.8977096937527609 9.8770304677094245 53.5455252340626089 S
atom 5.4670064280268651 2.4819755440133111 50.9386378369996038 S
atom 9.4252317931804441 2.4778610169066977 51.0719643781882766 S
atom 4.4463325559854043 7.4567602541017326 51.0719643781882766 S
atom 10.4396496688742779 7.4546187848607683 50.9386378369996038 S
atom 4.4581169196544037 2.4846737723230894 56.1295717130143714 S
atom 10.4660687992355221 2.4817134721768124 56.0522616553387110 S
atom 5.4871695620405108 7.4606127093718193 56.0522616553387110 S
atom 9.4307601605018458 7.4573170131705524 56.1295717130143714 S
atom 2.4875396986603611 4.4814080518418251 50.9386378369996038 S
atom 7.4642974666144193 5.4958259275357380 51.0719643781882766 S
atom 2.4853982294194190 10.4747251647307333 51.0719643781882766 S
atom 7.4601829395078312 9.4540512926893019 50.9386378369996038 S
atom 2.4848414703505837 5.4902975602142918 56.1295717130143714 S
atom 7.4604450113443264 4.4549889214806306 56.0522616553387110 S
atom 2.4815457741493132 9.4338881586756322 56.0522616553387110 S
atom 7.4574847111980453 10.4629408010617588 56.1295717130143714 S
atom 2.4709293868708944 2.4352726151549433 58.6358480825427435 Ba
atom 7.5131418647137460 2.4985858558027854 58.6358480825427435 Ba
atom 2.5342426275187311 7.4774850929977967 58.6358480825427435 Ba
atom 7.4435726277183543 7.4079158560024050 58.6358480825427435 Ba
atom 2.5666676410175784 2.4843110802882915 63.7184769353649827 Ba
atom 7.4641033995803898 2.4028476016561031 63.7184769353649827 Ba
atom 2.4852041623853891 7.3817468388511127 63.7184769353649827 Ba
atom 7.5393108818650463 7.4569543211357550 63.7184769353649827 Ba
atom 4.9713959385159390 4.9633399599310488 61.1883387093641034 Zr
atom 9.9577177607850995 4.9707625450052024 61.1883387093641034 Zr
atom 4.9788185235900722 9.9496617822002289 61.1883387093641034 Zr
atom 9.9440391793634006 9.9359832007784892 61.1883387093641034 Zr
atom 4.9351299142612843 5.0455304365246354 66.2771684524780085 Zr
atom 9.8755272841915236 5.0070285692598464 66.2771684524780085 Zr
atom 4.8966280469965140 9.9859278064548427 66.2771684524780085 Zr
atom 9.9077731551087460 10.0181736773720917 66.2771684524780085 Zr
atom 5.0202200287895966 5.0408992548329428 58.6363081342904664 S
atom 9.8801584658831931 4.9219384547315341 58.6363081342904664 S
atom 4.9012592286882040 9.9008376919265544 58.6363081342904664 S
atom 9.9928632696370610 10.0135424956804151 58.6363081342904664 S
atom 4.8048429417054148 4.8843857833137241 63.7229280902293098 S
atom 10.0366719374024296 5.1373155418157230 63.7229280902293098 S
atom 5.0577727002074120 10.1162147790107380 63.7229280902293098 S
atom 9.7774861825528703 9.8570290241611875 63.7229280902293098 S
atom 5.4989539257095048 2.4885262275931952 61.1098689901647845 S
atom 9.4571792908630883 2.4844117004865880 61.2431955313534644 S
atom 4.4782800536680494 7.4633109376815989 61.2431955313534644 S
atom 10.4715971665569469 7.4611694684406524 61.1098689901647845 S
atom 4.4807684418667995 2.5284252059385439 66.4393461711506745 S
atom 10.4030064841236083 2.5246324668820059 66.0703468695010088 S
atom 5.4241072469286022 7.5035317040770284 66.0703468695010088 S
atom 9.4534116827142274 7.5010684467860118 66.4393461711506745 S
atom 2.4809890150804819 4.4494605541591863 61.1098689901647845 S
atom 7.4577467830345547 5.4638784298530885 61.2431955313534644 S
atom 2.4788475458395345 10.4427776670480839 61.2431955313534644 S
atom 7.4536322559279462 9.4221037950066524 61.1098689901647845 S
atom 2.4410900367351349 5.4676460380019041 66.4393461711506745 S
atom 7.4175260166391279 4.5180512365925347 66.0703468695010088 S
atom 2.4386267794441125 9.4969504737875550 66.0703468695010088 S
atom 7.4137332775825904 10.4402892788493542 66.4393461711506745 S
atom 2.2965325305406008 2.7415521677849122 68.7536094591190192 Ba
atom 7.2068623120837803 2.6729827121330758 68.7536094591190192 Ba
atom 2.2279630748887711 7.6518819493280938 68.7536094591190192 Ba
atom 7.2691757713880563 7.7141954086323636 68.7536094591190192 Ba
atom 2.6086607327695042 2.4458942533934254 73.5823403560986122 Ba
atom 7.5025202264752675 2.3608545099041809 73.5823403560986122 Ba
atom 2.5236209892802490 7.3397537470991843 73.5823403560986122 Ba
atom 7.5813039736169703 7.4185374942408906 73.5823403560986122 Ba
atom 4.9471738919341721 5.0027075025514360 71.3730468537572307 Zr
atom 9.9183502181646883 4.9949845915869675 71.3730468537572307 Zr
atom 4.9394509809697027 9.9738838287820126 71.3730468537572307 Zr
atom 9.9198171327816027 9.9753507433989199 71.3730468537572307 Zr
atom 5.1591854188837170 5.2067017598781291 68.7909562398759107 S
atom 9.7143559608380290 4.7829730646374218 68.7909562398759107 S
atom 4.7354567236430061 9.7618723018324385 68.7909562398759107 S
atom 10.1318286597311733 10.1793450007255633 68.7909562398759107 S
atom 4.7628626970597159 4.8847538375718980 73.8905380941348255 S
atom 10.0363038831442424 5.1792957864614291 73.8905380941348255 S
atom 5.0574046459492363 10.1581950236564360 73.8905380941348255 S
atom 9.7355059379071687 9.8573970784193712 73.8905380941348255 S
atom 4.5972987816346533 2.5231931840014661 71.0602286962309364 S
atom 10.2404235183395702 2.5172311286368143 71.4856802096418136 S
atom 5.2615242811445908 7.4961303658318226 71.4856802096418136 S
atom 9.5699420224821221 7.4958364248489282 71.0602286962309364 S
atom 2.4463220586722136 5.3511156982340387 71.0602286962309364 S
atom 7.4249273548843195 4.6806342023765666 71.4856802096418136 S
atom 2.4460281176893015 9.6595334395715753 71.4856802096418136 S
atom 7.4189652995196678 10.3237589390815003 71.0602286962309364 S
