#=======================================================
# FHI-aims file: sym_relax/sym_relax_RP_4_Rx0Rz_0RyRz.in
# Created using the Atomic Simulation Environment (ASE)
# Fri Mar 14 10:27:45 2025
#=======================================================
lattice_vector 10.0855831782758720 0.0001671892910608 0.0038002248267198 
lattice_vector 0.0001671892910608 10.0855831782758649 -0.0038002248267198 
lattice_vector 0.0148061281745253 -0.0148061281745252 45.2871935695043106 
atom -0.1787015993029261 -0.0067787654603471 0.2933398189122348 Ba
atom 5.2025091636563046 -0.0066068182789282 0.2936512824176271 Ba
atom 0.1598011691638974 5.0361011762134433 0.2898510575909066 Ba
atom 4.8641735844805352 5.0360964183230905 0.2933398189122349 Ba
atom -0.0058939242351357 -0.0050531676797897 4.9645735644955584 Ba
atom 4.9825606991018141 -0.0049602533791995 4.9482272978022834 Ba
atom -0.0601472953905793 5.0377477411131792 4.9444270729755662 Ba
atom 5.0369812595483126 5.0378220161036387 4.9645735644955611 Ba
atom 2.5093333179425121 2.4934327096150430 2.3438976658992843 Zr
atom 7.5521356030586420 2.5375772057571431 2.3452965079199055 Zr
atom 2.5094276085662566 7.5802852002495307 2.3414962830931887 Zr
atom 7.5522085017259855 7.5363078933984884 2.3438976658992843 Zr
atom 2.5132686080193110 2.5174645980123351 7.3615580045043387 Zr
atom 7.5560439373252484 2.5172192318127813 7.3631588385112234 Zr
atom 2.5133359428328652 7.5599272263051693 7.3593586136844946 Zr
atom 7.5561437918027847 7.5603397817957703 7.3615580045043378 Zr
atom 2.5124601868340175 2.8008961518346620 -0.1356861827674005 S
atom 7.5550496605293391 2.2282106162244664 -0.1340528150251192 S
atom 2.5123416660369466 7.2709186107168478 -0.1378530398518385 S
atom 7.5553353706174775 7.8437713356181185 -0.1356861827674006 S
atom 2.5143648214253731 2.0551614197037300 4.8872714097146552 S
atom 7.5574971947162668 2.9776233223800763 4.8886902753705916 S
atom 2.5147892002238739 8.0203313168724453 4.8848900505438797 S
atom 7.5572400052088300 7.0980366034871700 4.8872714097146552 S
atom 2.5133222367382531 -0.0060657641283230 2.0465755017365410 S
atom 7.5489996350318425 -0.0056775705770853 2.7838400360171507 S
atom 2.5062916405394517 5.0370304239152901 2.7800398111904316 S
atom 7.5561974205217250 5.0368094196551221 2.0465755017365415 S
atom 2.6181487582682581 -0.0039214876203634 7.8228490655394625 S
atom 7.4779021294764121 -0.0041901096389183 6.9070902324352046 S
atom 2.4351941349840134 5.0385178848534586 6.9032900076084758 S
atom 7.6610239420517026 5.0389536961630830 7.8228490655394625 S
atom -0.0109884625939605 2.5143834043881377 2.4780175131264515 S
atom 5.0318478275134444 2.5165987011900990 2.4801879387515426 S
atom -0.0108601669789560 7.5593066956824941 2.4763877139248209 S
atom 5.0318867211894958 7.5572585881715604 2.4780175131264532 S
atom -0.0029805200875497 2.4105804576795595 7.3688763298345066 S
atom 5.0398039628843305 2.6241241395278307 7.3702677042485663 S
atom -0.0029040316080690 7.6668321340202112 7.3664674794218330 S
atom 5.0398946636959021 7.4534556414630124 7.3688763298345066 S
atom -0.0068311641719283 -0.0031696683683837 9.7936510977167899 Ba
atom 5.0560602003422570 -0.0031841840184874 9.8983331753505315 Ba
atom 0.0133522058498607 5.0395238104738995 9.8945329505238107 Ba
atom 5.0360440196115102 5.0397055154150667 9.7936510977167863 Ba
atom 0.0666683370685114 -0.0013935990076716 14.7437569752650450 Ba
atom 5.0551229604054670 -0.0013006847070812 14.7274107085717798 Ba
atom 0.0124149659130679 5.0414073097853231 14.7236104837450696 Ba
atom 5.1095435208519699 5.0414815847757826 14.7437569752650486 Ba
atom 2.5360602826285330 2.5193020995837867 12.3288254345561334 Zr
atom 7.5788356119344753 2.5190567333842395 12.3304262685629880 Zr
atom 2.5361276174420664 7.5617647278766187 12.3266260437362600 Zr
atom 7.5789354664119868 7.5621772833672249 12.3288254345561334 Zr
atom 2.5399686168951314 2.4989441256394307 17.3466877651474825 Zr
atom 7.5827709020112657 2.5430886217815325 17.3480866071680353 Zr
atom 2.5400629075188723 7.5857966162738979 17.3442863823413589 Zr
atom 7.5828438006786145 7.5418193094228609 17.3466877651474825 Zr
atom 2.5248768182035701 3.0166598849920887 9.8449187660323005 S
atom 7.5672274017502135 2.0198614464044780 9.8470655070350332 S
atom 2.5245194072578236 7.0625694408968709 9.8432652822083053 S
atom 7.5677520019870403 8.0595350687755332 9.8449187660323005 S
atom 2.5346070252375181 2.0588980090164966 14.8032939976967590 S
atom 7.5777393985284309 2.9813599116928406 14.8047128633526910 S
atom 2.5350314040360140 8.0240679061852411 14.8009126385259719 S
atom 7.5774822090209630 7.1017731927999437 14.8032939976967572 S
atom 2.4310802779020846 -0.0024323647665076 11.8691352075278669 S
atom 7.6569100849697840 -0.0019965534568916 12.7886942654588704 S
atom 2.6142020904773746 5.0407114410354943 12.7848940406321461 S
atom 7.4739554616855459 5.0404428190169295 11.8691352075278669 S
atom 2.5359067994320825 -0.0002880882585479 17.6454087713307644 S
atom 7.5858125794143474 -0.0005090925187249 16.9119444618769315 S
atom 2.5431045849219416 5.0421989019736611 16.9081442370501449 S
atom 7.5787819832155234 5.0425870955248984 17.6454087713307715 S
atom 0.0095015617654819 2.6257736844259529 12.3193077184061259 S
atom 5.0523002570694509 2.4123971918687377 12.3217165688187755 S
atom 0.0095922625770623 7.4551051863611244 12.3179163439920352 S
atom 5.0523767455489406 7.6686488682093952 12.3193077184061295 S
atom 0.0175095042718917 2.5219707377173766 17.2101665351142010 S
atom 5.0602563924403317 2.5199226302064757 17.2117963343157818 S
atom 0.0175483979479493 7.5626306246988539 17.2079961094890521 S
atom 5.0603846880553549 7.5648459215008304 17.2101665351142010 S
atom -0.1532801274859653 0.0002529658920567 19.3983329906497168 Ba
atom 5.2279306354732649 0.0004249130734761 19.3986444541551215 Ba
atom 0.1852226409808588 5.0431329075658633 19.3948442293283598 Ba
atom 4.8895950562975070 5.0431281496755043 19.3983329906497168 Ba
atom 2.5370545594244382 2.8083107151721083 19.8260370880924661 S
atom 7.5796440331197763 2.2356251795619047 19.8276704558347205 S
atom 2.5369360386273816 7.2783331740542856 19.8238702310080193 S
atom 7.5799297432078871 7.8511858989555581 19.8260370880924661 S
atom 2.5356194214393346 2.6927361271073926 22.9369366036642859 Ba
atom 7.5783226580413858 2.3544005479316272 22.9372480671696337 Ba
atom 2.5356146635489849 7.3971085424240117 22.9334478423429537 Ba
atom 7.5784946052227866 7.7356113108908291 22.9369366036642859 Ba
atom 2.5338938236587780 2.5199284520395899 27.6081703492476223 Ba
atom 7.5766760931416499 2.5743490124860986 27.5918240825544032 Ba
atom 2.5339680986492490 7.6170570069784844 27.5880238577277233 Ba
atom 7.5767690074422474 7.5628036358230499 27.6081703492476187 Ba
atom 5.0782831301474083 5.0475763936453903 24.9874944506513579 Zr
atom 10.0770138177887372 5.0476492923127250 24.9888932926719676 Zr
atom 5.0343058232963482 10.0903572868051175 24.9850930678452485 Zr
atom 10.1211583139308665 10.0904515774288139 24.9874944506513579 Zr
atom 5.0542512417501184 5.0436411035685822 30.0051547892563875 Zr
atom 10.0973717917331101 5.0437409580461239 30.0067556232632811 Zr
atom 5.0546637972407131 10.0864489525385110 30.0029553984365940 Zr
atom 10.0971264255336131 10.0865162873520262 30.0051547892563875 Zr
atom 4.7708196879277631 5.0444495247538876 22.5079106019846868 S
atom 10.3863804073214254 5.0447352348420207 22.5095439697269306 S
atom 5.3436724128290294 10.0874432293344061 22.5057437449002222 S
atom 9.8136948717112329 10.0873247085373574 22.5079106019846868 S
atom 5.5165544200587115 5.0425448901625520 27.5308681944667057 S
atom 9.6369677011658084 5.0422877006551010 27.5322870601226626 S
atom 4.5942597066734292 10.0849956951474695 27.5284868352959293 S
atom 10.5594296038421831 10.0854200739459881 27.5308681944667057 S
atom 5.0551171385723386 2.5250618840744758 25.1237847235035865 S
atom 10.1000404298666844 2.5251901796894836 25.1254145227052312 S
atom 5.0573324353743150 7.5678981741818641 25.1216142978785086 S
atom 10.0979923223558448 7.5679370678579074 25.1237847235035865 S
atom 4.9475917002346135 2.5171057487035902 30.0138644890006461 S
atom 10.2038433765752696 2.5171822371830710 30.0162733394132921 S
atom 5.1611353820828754 7.5598902316754462 30.0124731145865411 S
atom 9.9904668840180744 7.5599809324870355 30.0138644890006496 S
atom 2.5346854158471381 5.0506180710484641 25.4236365959425186 S
atom 7.5777816038907631 5.0435874748496516 24.6901722864886359 S
atom 2.5350736093983741 10.0862954693420441 24.6863720616619275 S
atom 7.5775605996306066 10.0934932548318734 25.4236365959425186 S
atom 2.5331979549089652 5.1217155766038927 29.5468867923604961 S
atom 7.5756373273828173 4.9387609533196688 30.4664458502915245 S
atom 2.5329293328904163 9.9814689478120400 30.4626456254648410 S
atom 7.5760731386924434 10.1645907603873145 29.5468867923604961 S
atom 2.5320103243473673 2.5208656919763848 32.4372478824689097 Ba
atom 7.5749000237809412 2.5008495112456597 32.5419299601025926 Ba
atom 2.5321920292885456 7.5435575057380309 32.5381297352758381 Ba
atom 7.5748855081308362 7.5637408757598319 32.4372478824689168 Ba
atom 2.5302342549866643 2.4473661907359410 37.3873537600172625 Ba
atom 7.5730165244695131 2.5017867511824501 37.3710074933238161 Ba
atom 2.5303085299771326 7.5444947456748297 37.3672072684970331 Ba
atom 7.5731094387701239 7.4902413745193890 37.3873537600172554 Ba
atom 5.0524137401786602 5.0208494289593757 34.9724222193082852 Zr
atom 10.0955342901616500 5.0209492834368872 34.9740230533150722 Zr
atom 5.0528262956692469 10.0636572779292717 34.9702228284883034 Zr
atom 10.0952889239621300 10.0637246127428259 34.9724222193082852 Zr
atom 5.0727717141230153 5.0169410946927639 39.9902845498995703 Zr
atom 10.0715024017643735 5.0170139933600959 39.9916833919201409 Zr
atom 5.0287944072719801 10.0597219878524911 39.9878831670934005 Zr
atom 10.1156468979064975 10.0598162784761858 39.9902845498995703 Zr
atom 4.5550559547703440 5.0320328933843301 32.4885155507844132 S
atom 10.5947295771414094 5.0325574936211472 32.4906622917871459 S
atom 5.5520215826490205 10.0752654881135584 32.4868620669603558 S
atom 9.5979311385537915 10.0749080771677644 32.4885155507844132 S
atom 5.5128178307459477 5.0223026863503888 37.4468907824488113 S
atom 9.6332311118530392 5.0220454968429404 37.4483096481046900 S
atom 4.5905231173606698 10.0647534913353418 37.4445094232779070 S
atom 10.5556930145294139 10.0651778701338372 37.4468907824488113 S
atom 5.1593186478936923 2.5046094545184596 34.9653133535709557 S
atom 9.9886501498288816 2.5047001553300396 34.9667047279848191 S
atom 4.9459421553365006 7.5474081498224228 34.9629045031581356 S
atom 10.2021938316771799 7.5474846383019036 34.9653133535709557 S
atom 5.0517932095559797 2.4966533191475695 39.8553931190678696 S
atom 10.0924530965374721 2.4966922128236284 39.8575635446929581 S
atom 5.0497451020450539 7.5394002073159969 39.8537633198662249 S
atom 10.0946683933394343 7.5395285029310131 39.8553931190678696 S
atom 2.5310043987269446 4.9427076211105412 35.4284908253842161 S
atom 7.5741482045289503 5.1258294336858237 34.5127319922800169 S
atom 2.5314402100365574 10.1685374281782170 34.5089317674532339 S
atom 7.5738795825104024 9.9855828048940189 35.4284908253842161 S
atom 2.5295169377887814 5.0138051266659867 39.5517410218023642 S
atom 7.5720039280210010 5.0210029121558426 40.2890055560828344 S
atom 2.5292959335286080 10.0637109066482271 40.2852053312561864 S
atom 7.5723921215722099 10.0566803104494262 39.5517410218023642 S
atom 2.5285876900869306 2.6673146552904257 42.0419297754018544 Ba
atom 7.5712909266889810 2.3289790761146567 42.0422412389071525 Ba
atom 2.5285829321965734 7.3716870706070452 42.0384410140803837 Ba
atom 7.5714628738703915 7.7101898390738635 42.0419297754018473 Ba
atom 4.7634051245903422 5.0198551521634664 42.4696338728445184 S
atom 10.3789658439840125 5.0201408622516128 42.4712672405868403 S
atom 5.3362578494916146 10.0628488567439813 42.4674670157601000 S
atom 9.8062803083737684 10.0627303359469309 42.4696338728445184 S
