#=======================================================
# FHI-aims file: sym_relax/sym_relax_RP_6_RxRyRz_RxRy-Rz.in
# Created using the Atomic Simulation Environment (ASE)
# Fri Mar 14 11:07:52 2025
#=======================================================
lattice_vector 9.9739568108063814 0.0048528902901916 0.0000000000000000 
lattice_vector 0.0048528902901919 9.9739568108063565 -0.0000000000000000 
lattice_vector 0.0000000000000000 -0.0000000000000000 66.3980941767546824 
atom 0.0489949324118767 -0.1084411843372135 0.2053056240077140 Ba
atom 5.0954195897403878 -0.0465684872667809 0.2053056240077140 Ba
atom 0.1108676294823100 4.9379834729912977 0.2053056240077140 Ba
atom 5.0383997829601448 4.8809636662110654 0.2053056240077139 Ba
atom -0.2603449330304155 0.2022974205167549 5.0049721615591585 Ba
atom 4.7846809848864176 0.2627713781755105 5.0049721615591585 Ba
atom -0.1998709753716592 5.2473233384335787 5.0049721615591585 Ba
atom 4.7290599175178727 5.1917022710650240 5.0049721615591585 Ba
atom 2.4677107363642508 2.5296226076813708 2.3866623856032039 Zr
atom 7.4467606482700939 2.5241205593291181 2.3866623856032039 Zr
atom 2.4622086880120033 7.5086725195872077 2.3866623856032039 Zr
atom 7.4571155869125212 7.5190274582296386 2.3866623856032039 Zr
atom 2.4151120434206512 2.5379723070940345 7.4687717852217332 Zr
atom 7.4384109488574204 2.5767192522727211 7.4687717852217332 Zr
atom 2.4538589885993360 7.5612712125307935 7.4687717852217332 Zr
atom 7.4045168939689372 7.5273771576423005 7.4687717852217332 Zr
atom 2.6288483160723075 2.7637103112861512 -0.1243697062537860 S
atom 7.2126729446653064 2.3629829796210657 -0.1243697062537860 S
atom 2.2281209844072158 7.3475349398791447 -0.1243697062537860 S
atom 7.6182531666205779 7.7531151618344154 -0.1243697062537859 S
atom 2.2356817061223002 2.2859751846727066 4.9607818827655077 S
atom 7.6904080712787524 2.7561495895710686 4.9607818827655077 S
atom 2.7058561110206685 7.7407015498291498 4.9607818827655077 S
atom 7.2250865566705764 7.2753800352209721 4.9607818827655077 S
atom 2.7284103446228229 0.0422112115423409 2.2443947478514441 S
atom 7.1266538538626962 0.0479781862387304 2.7372551662284708 S
atom 2.1421018936046075 5.0325301464968080 2.7372551662284708 S
atom 7.7178151951711005 5.0316160620906221 2.2443947478514441 S
atom 2.9227498915710557 0.0482410672756190 7.6923042550789837 S
atom 7.0003455382459210 0.0520926685349541 7.2859072843747361 S
atom 2.0157935779878371 5.0366446287930309 7.2859072843747361 S
atom 7.9121547421193403 5.0376459178238902 7.6923042550789837 S
atom -0.0397847663972451 2.2585680607803602 2.2443947478514441 S
atom 4.9438531094546478 2.8497294020887569 2.7372551662284708 S
atom -0.0406988508034443 7.8342813623468315 2.7372551662284708 S
atom 4.9496200841510278 7.2479729113286409 2.2443947478514441 S
atom -0.0458146221305235 2.0642285138321279 7.6923042550789837 S
atom 4.9397386271584232 2.9760377177055330 7.2859072843747361 S
atom -0.0448133330996673 7.9605896779636014 7.2859072843747361 S
atom 4.9435902284177544 7.0536333643803841 7.6923042550789837 S
atom -0.0050198375442624 -0.0779547500107590 10.0211249315638238 Ba
atom 5.0649331554139474 0.0074462826893579 10.0211249315638238 Ba
atom 0.0803811951558554 4.9919982429474379 10.0211249315638238 Ba
atom 4.9843850130040170 4.9114501005375084 10.0211249315638238 Ba
atom 0.0498286550411140 0.0498286550411139 15.0904759492624283 Ba
atom 4.9371497503620683 -0.0474022098960183 15.0904759492624283 Ba
atom -0.0474022098960178 4.9371497503620585 15.0904759492624283 Ba
atom 5.0392335055893955 5.0392335055893840 15.0904759492624283 Ba
atom 2.5017537457426733 2.4992209109926820 12.5468099070232313 Zr
atom 7.4771623449587850 2.4900775499506946 12.5468099070232313 Zr
atom 2.4926103847006962 7.4746295102087741 12.5468099070232313 Zr
atom 7.4911585962909442 7.4886257615409333 12.5468099070232313 Zr
atom 2.4992209109926815 2.5017537457426675 17.6341419915016324 Zr
atom 7.4746295102087945 2.4926103847006873 17.6341419915016324 Zr
atom 2.4900775499507000 7.4771623449587681 17.6341419915016324 Zr
atom 7.4886257615409555 7.4911585962909273 17.6341419915016324 Zr
atom 2.6003691646008744 2.6822546029183112 10.0149077010349430 S
atom 7.2941286530331544 2.3914621310924895 10.0149077010349430 S
atom 2.3095766927750585 7.3760140913505738 10.0149077010349430 S
atom 7.5897740151491355 7.6716594534665807 10.0149077010349430 S
atom 2.4059558191743142 2.4059558191743071 15.0904759492624283 S
atom 7.5704274367771616 2.5858754765190555 15.0904759492624283 S
atom 2.5858754765190572 7.5704274367771358 15.0904759492624283 S
atom 7.3953606697226046 7.3953606697225718 15.0904759492624283 S
atom 2.0143415315531383 0.0041715732484316 12.4708990978314489 S
atom 7.9901098089710594 0.0072756700355562 12.6391482470619003 S
atom 3.0055578487129719 4.9918276302936251 12.6391482470619003 S
atom 7.0037463821014008 4.9935764237967035 12.4708990978314489 S
atom 2.9726368738500408 -0.0017451281033360 17.7100528006934148 S
atom 6.9708254072384959 0.0000036653997302 17.5418036514629634 S
atom 1.9862734469804040 4.9845556256578165 17.5418036514629634 S
atom 7.9620417243983317 4.9876597224449304 17.7100528006934148 S
atom -0.0017451281033356 2.9726368738500413 12.4708990978314489 S
atom 4.9845556256578174 1.9862734469804042 12.6391482470619003 S
atom 0.0000036653997301 6.9708254072384763 12.6391482470619003 S
atom 4.9876597224449339 7.9620417243983157 12.4708990978314489 S
atom 0.0041715732484319 2.0143415315531303 17.7100528006934148 S
atom 4.9918276302936553 3.0055578487129608 17.5418036514629634 S
atom 0.0072756700355568 7.9901098089710390 17.5418036514629634 S
atom 4.9935764237967160 7.0037463821013963 17.7100528006934148 S
atom -0.0779547500107591 -0.0050198375442624 20.1598269669610062 Ba
atom 4.9919982429474503 0.0803811951558546 20.1598269669610062 Ba
atom 0.0074462826893586 5.0649331554139323 20.1598269669610062 Ba
atom 4.9114501005375102 4.9843850130040064 20.1598269669610062 Ba
atom 0.2022974205167556 -0.2603449330304149 25.1759797369656688 Ba
atom 5.2473233384335858 -0.1998709753716594 25.1759797369656688 Ba
atom 0.2627713781755117 4.7846809848864060 25.1759797369656688 Ba
atom 5.1917022710650311 4.7290599175178647 25.1759797369656688 Ba
atom 2.5379723070940372 2.4151120434206406 22.7121801133031092 Zr
atom 7.5612712125308237 2.4538589885993258 22.7121801133031092 Zr
atom 2.5767192522727291 7.4384109488574079 22.7121801133031092 Zr
atom 7.5273771576423192 7.4045168939689114 22.7121801133031092 Zr
atom 2.5296226076813717 2.4677107363642374 27.7942895129216652 Zr
atom 7.5086725195872166 2.4622086880119896 27.7942895129216652 Zr
atom 2.5241205593291265 7.4467606482700637 27.7942895129216652 Zr
atom 7.5190274582296555 7.4571155869124972 27.7942895129216652 Zr
atom 2.6822546029183179 2.6003691646008651 20.1660441974899207 S
atom 7.3760140913505960 2.3095766927750550 20.1660441974899207 S
atom 2.3914621310925024 7.2941286530331233 20.1660441974899207 S
atom 7.6716594534665914 7.5897740151491400 20.1660441974899207 S
atom 2.2859751846727105 2.2356817061222913 25.2201700157593791 S
atom 7.7407015498291631 2.7058561110206596 25.2201700157593791 S
atom 2.7561495895710793 7.6904080712787355 25.2201700157593791 S
atom 7.2753800352209854 7.2250865566705578 25.2201700157593791 S
atom 2.0642285138321341 -0.0458146221305233 22.4886476434458800 S
atom 7.9605896779636245 -0.0448133330996677 22.8950446141500983 S
atom 2.9760377177055446 4.9397386271584036 22.8950446141500983 S
atom 7.0536333643804001 4.9435902284177393 22.4886476434458800 S
atom 2.2585680607803642 -0.0397847663972454 27.9365571506733943 S
atom 7.8342813623468484 -0.0406988508034441 27.4436967322964129 S
atom 2.8497294020887702 4.9438531094546381 27.4436967322964129 S
atom 7.2479729113286462 4.9496200841510145 27.9365571506733943 S
atom 0.0482410672756195 2.9227498915710415 22.4886476434458800 S
atom 5.0366446287930486 2.0157935779878318 22.8950446141500983 S
atom 0.0520926685349544 7.0003455382459041 22.8950446141500983 S
atom 5.0376459178239088 7.9121547421193172 22.4886476434458800 S
atom 0.0422112115423414 2.7284103446228078 27.9365571506733943 S
atom 5.0325301464968248 2.1421018936046043 27.4436967322964129 S
atom 0.0479781862387310 7.1266538538626749 27.4436967322964129 S
atom 5.0316160620906292 7.7178151951710703 27.9365571506733943 S
atom -0.1084411843372138 0.0489949324118765 29.9756462745172207 Ba
atom 4.9379834729913092 0.1108676294823091 29.9756462745172207 Ba
atom -0.0465684872667805 5.0954195897403780 29.9756462745172207 Ba
atom 4.8809636662110805 5.0383997829601439 29.9756462745172207 Ba
atom 2.7637103112861556 2.6288483160722986 30.3053216047786727 S
atom 7.3475349398791696 2.2281209844072096 30.3053216047786727 S
atom 2.3629829796210773 7.2126729446652940 30.3053216047786727 S
atom 7.7531151618344385 7.6182531666205566 30.3053216047786727 S
atom 2.3862612409369230 2.5436973576860149 33.4043527123850339 Ba
atom 7.4326858982654516 2.6055700547564458 33.4043527123850339 Ba
atom 2.4481339380073579 7.5901220150145026 33.4043527123850339 Ba
atom 7.3756660914852157 7.5331022082342711 33.4043527123850339 Ba
atom 2.6969998457908995 2.2343574922437215 38.2040192499365077 Ba
atom 7.7420257637077325 2.2948314499024698 38.2040192499365077 Ba
atom 2.7574738034496549 7.2793834101605475 38.2040192499365077 Ba
atom 7.6864046963391797 7.2237623427919910 38.2040192499365077 Ba
atom 5.0243250329555194 4.9624131616383771 35.5857094739805646 Zr
atom 10.0033749448613811 4.9569111132861199 35.5857094739805646 Zr
atom 5.0188229846032675 9.9414630735441953 35.5857094739805646 Zr
atom 10.0137298835038067 9.9518180121866369 35.5857094739805646 Zr
atom 5.0326747323681778 4.9098144686947718 40.6678188735990389 Zr
atom 10.0559736378049376 4.9485614138734650 40.6678188735990389 Zr
atom 5.0714216775468621 9.9331133741315263 40.6678188735990389 Zr
atom 10.0220795829164899 9.8992193192430467 40.6678188735990389 Zr
atom 5.2584127365603015 5.1235507413464294 33.0746773821235962 S
atom 9.8422373651533093 4.7228234096813493 33.0746773821235962 S
atom 4.8576854048952232 9.7073753699394327 33.0746773821235962 S
atom 10.2478175871085675 10.1129555918947176 33.0746773821235962 S
atom 4.7806776099468511 4.7303841313964297 38.1598289711427725 S
atom 10.2354039751033028 5.2005585362947979 38.1598289711427725 S
atom 5.2508520148452273 10.1851104965528805 38.1598289711427725 S
atom 9.7700824604951197 9.7197889819446832 38.1598289711427725 S
atom 4.7532704860545119 2.4549176588768877 35.4434418362287573 S
atom 10.3289837876210093 2.4540035744706881 35.9363022546058417 S
atom 5.3444318273629037 7.4385555347287644 35.9363022546058417 S
atom 9.7426753366027796 7.4443225094251497 35.4434418362287573 S
atom 4.5589309391062622 2.4488878031436085 40.8913513434563995 S
atom 10.4552921032377650 2.4498890921744594 40.4849543727520640 S
atom 5.4707401429796869 7.4344410524325371 40.4849543727520640 S
atom 9.5483357896545673 7.4382926536918639 40.8913513434563995 S
atom 2.5369136368164811 5.2231127698969404 35.4434418362287573 S
atom 7.5272325717709609 4.6368043188787356 35.9363022546058417 S
atom 2.5426806115128753 9.6213562791367941 35.9363022546058417 S
atom 7.5263184873647724 10.2125176204452224 35.4434418362287573 S
atom 2.5429434925497634 5.4174523168451900 40.8913513434563995 S
atom 7.5313470540671910 4.5104960032619612 40.4849543727520640 S
atom 2.5467950938091017 9.4950479635200331 40.4849543727520640 S
atom 7.5323483430980342 10.4068571673934560 40.8913513434563995 S
atom 2.4167476752633790 2.4896825877298685 43.2201720199411241 Ba
atom 7.4867006682215944 2.5750836204299863 43.2201720199411241 Ba
atom 2.5021487079635012 7.5596355806880657 43.2201720199411241 Ba
atom 7.4061525258116490 7.4790874382781327 43.2201720199411241 Ba
atom 2.5445310803152559 2.5445310803152492 48.2895230376397890 Ba
atom 7.4318521756362212 2.4473002153781112 48.2895230376397890 Ba
atom 2.4473002153781147 7.4318521756361822 48.2895230376397890 Ba
atom 7.5339359308635281 7.5339359308635165 48.2895230376397890 Ba
atom 4.9939233362668105 4.9964561710167903 45.7458569954006009 Zr
atom 9.9693319354829217 4.9873128099748243 45.7458569954006009 Zr
atom 4.9847799752248374 9.9718647702328926 45.7458569954006009 Zr
atom 9.9833281868151005 9.9858610215650696 45.7458569954006009 Zr
atom 4.9964561710168072 4.9939233362667981 50.8331890798789274 Zr
atom 9.9718647702329193 4.9847799752248321 50.8331890798789274 Zr
atom 4.9873128099748447 9.9693319354829146 50.8331890798789274 Zr
atom 9.9858610215651087 9.9833281868150827 50.8331890798789274 Zr
atom 5.1769570281924544 5.0950715898750030 43.2139547894122344 S
atom 9.8707165166247499 4.8042791180491919 43.2139547894122344 S
atom 4.8861645563666496 9.7888310783072399 43.2139547894122344 S
atom 10.1663618787407675 10.0844764404232734 43.2139547894122344 S
atom 4.9006582444484561 4.9006582444484437 48.2895230376397890 S
atom 10.0651298620512684 5.0805779017931849 48.2895230376397890 S
atom 5.0805779017932053 10.0651298620512701 48.2895230376397890 S
atom 9.8900630949967390 9.8900630949967141 48.2895230376397890 S
atom 5.4673392991241867 2.4929572971707903 45.6699461862088185 S
atom 9.4655278325126382 2.4947060906738630 45.8381953354392664 S
atom 4.4809758722545467 7.4792580509319446 45.8381953354392664 S
atom 10.4567441496724722 7.4823621477190674 45.6699461862088185 S
atom 4.5090439568272807 2.4988739985225688 50.9090998890707098 S
atom 10.4848122342451884 2.5019780953096884 50.7408507398402691 S
atom 5.5002602739871058 7.4865300555677674 50.7408507398402691 S
atom 9.4984488073755724 7.4882788490708281 50.9090998890707098 S
atom 2.4988739985225754 4.5090439568272647 45.6699461862088185 S
atom 7.4865300555677781 5.5002602739871032 45.8381953354392664 S
atom 2.5019780953096924 10.4848122342451724 45.8381953354392664 S
atom 7.4882788490708547 9.4984488073755262 45.6699461862088185 S
atom 2.4929572971708018 5.4673392991241752 50.9090998890707098 S
atom 7.4792580509319659 4.4809758722545379 50.7408507398402691 S
atom 2.4947060906738709 9.4655278325126027 50.7408507398402691 S
atom 7.4823621477190834 10.4567441496724332 50.9090998890707098 S
atom 2.4896825877298774 2.4167476752633710 53.3588740553383687 Ba
atom 7.5596355806880888 2.5021487079634928 53.3588740553383687 Ba
atom 2.5750836204299938 7.4867006682215633 53.3588740553383687 Ba
atom 7.4790874382781496 7.4061525258116436 53.3588740553383687 Ba
atom 2.2343574922437237 2.6969998457908892 58.3750268253430562 Ba
atom 7.2793834101605741 2.7574738034496429 58.3750268253430562 Ba
atom 2.2948314499024804 7.7420257637077041 58.3750268253430562 Ba
atom 7.2237623427920141 7.6864046963391512 58.3750268253430562 Ba
atom 4.9098144686947984 5.0326747323681653 55.9112272016804894 Zr
atom 9.9331133741315742 5.0714216775468541 55.9112272016804894 Zr
atom 4.9485614138734686 10.0559736378049323 55.9112272016804894 Zr
atom 9.8992193192430680 10.0220795829164580 55.9112272016804894 Zr
atom 4.9624131616383895 5.0243250329555043 60.9933366012989637 Zr
atom 9.9414630735442309 5.0188229846032586 60.9933366012989637 Zr
atom 4.9569111132861385 10.0033749448613385 60.9933366012989637 Zr
atom 9.9518180121866795 10.0137298835037853 60.9933366012989637 Zr
atom 5.0950715898750216 5.1769570281924464 53.3650912858671944 S
atom 9.7888310783072736 4.8861645563666274 53.3650912858671944 S
atom 4.8042791180491973 9.8707165166247073 53.3650912858671944 S
atom 10.0844764404232929 10.1663618787407426 53.3650912858671944 S
atom 4.7303841313964377 4.7806776099468280 58.4192171041367487 S
atom 10.1851104965529142 5.2508520148452007 58.4192171041367487 S
atom 5.2005585362948077 10.2354039751032921 58.4192171041367487 S
atom 9.7197889819447294 9.7700824604950789 58.4192171041367487 S
atom 5.4174523168452149 2.5429434925497563 55.6876947318231856 S
atom 9.4950479635200669 2.5467950938090911 56.0940917025274999 S
atom 4.5104960032619816 7.5313470540671714 56.0940917025274999 S
atom 10.4068571673934862 7.5323483430980227 55.6876947318231856 S
atom 5.2231127698969537 2.5369136368164726 61.1356042390508136 S
atom 9.6213562791368279 2.5426806115128655 60.6427438206737150 S
atom 4.6368043188787524 7.5272325717709441 60.6427438206737150 S
atom 10.2125176204452455 7.5263184873647546 61.1356042390508136 S
atom 2.4488878031436103 4.5589309391062507 55.6876947318231856 S
atom 7.4344410524325708 5.4707401429796674 56.0940917025274999 S
atom 2.4498890921744723 10.4552921032377544 56.0940917025274999 S
atom 7.4382926536918905 9.5483357896545336 55.6876947318231856 S
atom 2.4549176588768926 4.7532704860545083 61.1356042390508136 S
atom 7.4385555347287937 5.3444318273628895 60.6427438206737150 S
atom 2.4540035744706938 10.3289837876209774 60.6427438206737150 S
atom 7.4443225094251675 9.7426753366027565 61.1356042390508136 S
atom 2.5436973576860167 2.3862612409369190 63.1746933628945513 Ba
atom 7.5901220150145434 2.4481339380073477 63.1746933628945513 Ba
atom 2.6055700547564551 7.4326858982654294 63.1746933628945513 Ba
atom 7.5331022082342836 7.3756660914851979 63.1746933628945513 Ba
atom 5.1235507413464463 5.2584127365602775 63.5043686931559677 S
atom 9.7073753699394612 4.8576854048952089 63.5043686931559677 S
atom 4.7228234096813591 9.8422373651532578 63.5043686931559677 S
atom 10.1129555918947176 10.2478175871085533 63.5043686931559677 S
