#=======================================================
# FHI-aims file: sym_relax/sym_relax_RP_10_RxRyRz_RxRy0.in
# Created using the Atomic Simulation Environment (ASE)
# Mon Mar 17 18:48:53 2025
#=======================================================
lattice_vector 9.9754223670171527 -0.0300762172045720 -0.0088298752128138 
lattice_vector -0.0300762172045723 9.9754223670171616 0.0088298752128139 
lattice_vector -0.0918289464586537 0.0918289464586524 106.7223573974096098 
atom 0.0248376283206083 -0.0678328351544212 0.1007022004848223 Ba
atom 5.0555440186629692 -0.0398757369228948 0.0962872628784152 Ba
atom 0.0527947265521355 4.9628735551879783 0.1051171380912291 Ba
atom 4.9975107032268804 4.9048402397518833 0.1007022004848225 Ba
atom -0.3240590167312323 0.2531754460388135 4.9136286815471895 Ba
atom 4.7345357374697592 0.3090209081289462 4.9092137439407777 Ba
atom -0.2682135546410985 5.3117702002398044 4.9180436191535932 Ba
atom 4.6486140581750490 5.2258485209450916 4.9136286815471895 Ba
atom 2.4172016132853864 2.5657261554899793 2.2905639799473856 Zr
atom 7.3946581029248550 2.5404333530186047 2.2861490423409805 Zr
atom 2.3919088108140230 7.5431826451294848 2.2949789175537925 Zr
atom 7.3898746881916617 7.5383992303962657 2.2905639799473856 Zr
atom 2.3616807820215260 2.5731448639005969 7.3720512539985217 Zr
atom 7.3872393945142516 2.5959541842824674 7.3676363163921117 Zr
atom 2.3844901024033924 7.5987034763933163 7.3764661916049219 Zr
atom 7.3343538569278159 7.5458179388068745 7.3720512539985217 Zr
atom 2.5703933501480276 2.8024150665677485 -0.2200352940726154 S
atom 7.1579691918470942 2.3872416161559640 -0.2244502316790220 S
atom 2.1552198997362471 7.3899909082668316 -0.2156203564662084 S
atom 7.5430664250542980 7.7750881414740425 -0.2200352940726153 S
atom 2.1844256607712236 2.3230838513384091 4.8664456373670530 S
atom 7.6373004070764337 2.7732093055327751 4.8620306997606475 S
atom 2.6345511149655962 7.7759585976436343 4.8708605749734586 S
atom 7.1570987356774882 7.2957569262446853 4.8664456373670522 S
atom 2.7008286492990039 0.0793778051481340 2.1460537457627864 S
atom 7.0606842408194508 0.0667353425046337 2.6391339335490014 S
atom 2.0579349487086014 5.0694846346155042 2.6479638087618120 S
atom 7.6735017242052779 5.0520508800544324 2.1460537457627855 S
atom 2.8797821323126831 0.0842155369895873 7.6000247182676626 S
atom 6.9559440818344100 0.0700820301811373 7.1862962945179110 S
atom 1.9531947897235777 5.0728313222920072 7.1951261697307292 S
atom 7.8524552072189451 5.0568886118958947 7.6000247182676581 S
atom -0.0944159137504197 2.2868825342095609 2.1504686833691902 S
atom 4.8908996237993749 2.8997000175953942 2.6435488711554003 S
atom -0.1118496683114928 7.9024493097062534 2.6523787463682198 S
atom 4.8782571611558456 7.2595556091158580 2.1504686833691897 S
atom -0.0992536455918733 2.1079290511958928 7.6044396558740806 S
atom 4.8875529361228578 3.0044401765804358 7.1907112321243130 S
atom -0.1151963559879960 8.0071894686912870 7.1995411073371365 S
atom 4.8734194293144073 7.0806021261021534 7.6044396558740806 S
atom -0.0283602344029601 -0.0429687744031783 9.9272244116111512 Ba
atom 5.0306799579117216 0.0133221258006738 9.9228094740047617 Ba
atom 0.0279306658008923 5.0160714179115367 9.9316393492175603 Ba
atom 4.9443128405033150 4.9297043005031043 9.9272244116111530 Ba
atom 0.0295443492948591 0.0354391877210153 14.9999256016659288 Ba
atom 4.9522719957875356 -0.0445824578971456 14.9955106640595268 Ba
atom -0.0504772963233013 4.9581668342137428 15.0043405392723237 Ba
atom 5.0022174242011284 5.0081122626273098 14.9999256016659288 Ba
atom 2.4636080926113095 2.5223040950690270 12.4490964819348040 Zr
atom 7.4380801633458304 2.4940268736926789 12.4446815443283807 Zr
atom 2.4353308712349686 7.4967761658035483 12.4535114195412095 Zr
atom 7.4362811675175964 7.4949771699753160 12.4490964819348022 Zr
atom 2.4612824395580239 2.5113147382093151 17.5367950309813523 Zr
atom 7.4490695202055450 2.4963525267459632 17.5323800933749929 Zr
atom 2.4463202280946894 7.4991018188568486 17.5412099685877898 Zr
atom 7.4339555144643077 7.4839878131155952 17.5367950309813487 Zr
atom 2.5417382047313719 2.7135799612779197 9.9222067732633814 S
atom 7.2468042971369275 2.4158967615726303 9.9177918356569723 S
atom 2.2440550050260679 7.4186460536835037 9.9266217108697976 S
atom 7.5144112796376445 7.6862530361842234 9.9222067732633814 S
atom 2.3778116300127845 2.4798288628812868 15.0002216728524207 S
atom 7.4805553955335720 2.5798233362912093 14.9958067352460276 S
atom 2.4778061034227234 7.5825726284020751 15.0046366104588760 S
atom 7.3504847049190492 7.4525019377875701 15.0002216728524207 S
atom 1.9801824658583191 0.0311407708768807 12.3899649718086255 S
atom 7.9647416226009300 0.0177029068506634 12.5319976093783492 S
atom 2.9619923304900841 5.0204521989615261 12.5408274845911603 S
atom 6.9528555407645820 5.0038138457831769 12.3899649718086255 S
atom 2.9770183923619169 0.0237385806848237 17.5717707917087473 S
atom 6.9445785170547465 0.0081128516337791 17.5078425269389015 S
atom 1.9418292249439162 5.0108621437446335 17.5166724021516913 S
atom 7.9496914672682015 4.9964116555911104 17.5717707917087367 S
atom -0.0461788794791667 3.0075287176502594 12.3943799094150364 S
atom 4.9399320594533274 1.9956426358139026 12.5364125469847387 S
atom -0.0628172326575229 6.9983919279247804 12.5452424221975534 S
atom 4.9264941954271029 7.9802017925565316 12.3943799094150364 S
atom -0.0387766892871098 2.0106927911466492 17.5761857293150960 S
atom 4.9495221146702146 3.0158057413600803 17.5122574645453035 S
atom -0.0532271774406380 8.0185550334709603 17.5210873397581075 S
atom 4.9338963856191613 6.9833658660529219 17.5761857293150996 S
atom -0.0357253414915442 0.0054766421591832 20.0845454030985238 Ba
atom 4.9822345413493698 0.0206872328892578 20.0801304654921644 Ba
atom -0.0205147507614694 5.0234365250001396 20.0889603407049542 Ba
atom 4.9369477334147218 4.9781497170654703 20.0845454030985309 Ba
atom -0.0095308711298845 0.0337846696524992 25.1703673107098709 Ba
atom 4.9539265138560769 -0.0055072374724021 25.1659523731034263 Ba
atom -0.0488227782547853 4.9972420546384688 25.1747822483162551 Ba
atom 4.9631422037763731 5.0064577445587757 25.1703673107098709 Ba
atom 2.4627699332245476 2.5100541803720020 22.6258521433881903 Zr
atom 7.4503300780428647 2.4948650330794528 22.6214372057817741 Zr
atom 2.4475807859320007 7.4976143251903071 22.6302670809946065 Zr
atom 7.4354430081308269 7.4827272552782977 22.6258521433882009 Zr
atom 2.4667386395896118 2.5060854740069352 27.7148824780314733 Zr
atom 7.4542987844078956 2.4908963267143887 27.7104675404250607 Zr
atom 2.4515494922970600 7.4936456188252496 27.7192974156378433 Zr
atom 7.4394117144958871 7.4787585489132331 27.7148824780314733 Zr
atom 2.4838404258928475 2.5489315752410313 20.0847141445192356 S
atom 7.4114526831738079 2.4737945404111517 20.0802992069128230 S
atom 2.4087033910629563 7.4765438325220019 20.0891290821256483 S
atom 7.4565135007991135 7.5216046501473155 20.0847141445192356 S
atom 2.4401713345514078 2.4834868753338140 25.1703673107098709 S
atom 7.4768973830810488 2.5174636317525754 25.1659523731034263 S
atom 2.4741480909701914 7.5202129238634638 25.1747822483162551 S
atom 7.4128444094576800 7.4561599502400959 25.1703673107098709 S
atom 1.9590720051401265 0.0170651913892893 22.6059423164360673 S
atom 7.9686619844463733 0.0024883251204740 22.6415465697593916 S
atom 2.9659126923355199 5.0052376172313284 22.6503764449722453 S
atom 6.9317450800463964 4.9897382662955749 22.6059423164360673 S
atom 2.9853236375860472 0.0112122407908078 27.7303773673772014 S
atom 6.9511560252969327 -0.0042871101449497 27.6859432388410305 S
atom 1.9484067331860859 4.9984621819659258 27.6947731140538238 S
atom 7.9579967124923048 4.9838853156971128 27.7303773673771801 S
atom -0.0321032999915753 3.0286391783684432 22.6103572540424658 S
atom 4.9551466411835108 1.9917222739684843 22.6459615073658362 S
atom -0.0476026509273336 6.9944715660793495 22.6547913825786402 S
atom 4.9405697749147013 8.0013122532747527 22.6103572540424729 S
atom -0.0262503493930942 2.0023875459225149 27.7347923049835394 S
atom 4.9619220764489560 3.0092282331179061 27.6903581764473934 S
atom -0.0408272156619094 8.0119775252287848 27.6991880516602542 S
atom 4.9464227255131679 6.9750606208288017 27.7347923049835501 S
atom -0.0378388986232003 0.0075901992908393 30.2561892183211185 Ba
atom 4.9801209842177405 0.0228007900209138 30.2517742807147165 Ba
atom -0.0226283078931253 5.0255500821317511 30.2606041559275347 Ba
atom 4.9348341762830756 4.9802632741971165 30.2561892183211114 Ba
atom -0.0078763530613683 0.0728598900772426 35.3408090197536637 Ba
atom 4.9148512934313366 -0.0071617555409180 35.3363940821473435 Ba
atom -0.0878979986795287 4.9955875365699240 35.3452239573601403 Ba
atom 4.9647967218448992 5.0455329649835319 35.3408090197536637 Ba
atom 2.4679991974269053 2.5045979803404146 32.8039395904383255 Zr
atom 7.4557862780744326 2.4896357688770787 32.7995246528319697 Zr
atom 2.4530369859635757 7.4923850609879361 32.8083545280447311 Zr
atom 7.4406722723331953 7.4772710552466872 32.8039395904383326 Zr
atom 2.4789885542866354 2.5069236333937011 37.8916381394848472 Zr
atom 7.4534606250211572 2.4786464120173659 37.8872232018784700 Zr
atom 2.4507113329102936 7.4813957041282295 37.8960530770913664 Zr
atom 7.4516616291929081 7.4795967082999839 37.8916381394848472 Zr
atom 2.5056160344586424 2.5271559666752319 30.2560204769003818 S
atom 7.4332282917396082 2.4520189318453518 30.2516055392939762 S
atom 2.4304789996287695 7.4547682239562105 30.2604354145067909 S
atom 7.4782891093649297 7.4998290415815285 30.2560204769003995 S
atom 2.4365133220988908 2.4211271707951716 35.3405129485672305 S
atom 7.5392570876196734 2.5211216442051003 35.3360980109608320 S
atom 2.5365077955088271 7.5238709363159693 35.3449278861736573 S
atom 7.4091863970051675 7.3938002457014624 35.3405129485672305 S
atom 1.9673772503642522 0.0045388514952734 32.7645488921045285 S
atom 7.9752394926885355 -0.0099116366582547 32.8196472816614957 S
atom 2.9724902005776874 4.9928376554526004 32.8284771568743139 S
atom 6.9400503252705352 4.9772119264015613 32.7645488921045143 S
atom 2.9642131768678541 -0.0028633386967836 37.9463547120047480 S
atom 6.9550763871423760 -0.0195016918751389 37.7954921992222097 S
atom 1.9523270950315210 4.9832476002357176 37.8043220744350066 S
atom 7.9368862517741405 4.9698097362095028 37.9463547120047338 S
atom -0.0195769600975598 3.0203339331443124 32.7689638297109269 S
atom 4.9675466029622424 1.9851447657263024 32.8240622192679794 S
atom -0.0352026891486051 6.9878940578371509 32.8328920944808047 S
atom 4.9530961148087167 7.9930070080506042 32.7689638297109198 S
atom -0.0121747699055029 2.0234980066407036 37.9507696496110896 S
atom 4.9771366581791234 3.0053078712724726 37.7999071368286224 S
atom -0.0256126339317200 8.0080571633832989 37.8087370120413766 S
atom 4.9604983050007903 6.9961710815469944 37.9507696496110967 S
atom -0.0862843151855619 0.0149553063794235 40.4135102098085568 Ba
atom 4.9727558771291482 0.0712462065832754 40.4090952722021512 Ba
atom -0.0299934149817093 5.0739954986941278 40.4179251474149481 Ba
atom 4.8863887597207167 4.9876283812857016 40.4135102098085568 Ba
atom 0.2098599052564295 -0.2807434759488488 45.4271059398724333 Ba
atom 5.2684546594573929 -0.2248980138587160 45.4226910022660135 Ba
atom 0.2657053673465624 4.7778512782521600 45.4315208774787465 Ba
atom 5.1825329801626916 4.6919295989574366 45.4271059398724333 Ba
atom 2.5298293231182019 2.4049963228039193 42.9686833674211215 Zr
atom 7.5553879356109084 2.4278056431857973 42.9642684298146307 Zr
atom 2.5526386435000656 7.4305549352966587 42.9730983050274844 Zr
atom 7.5025023980244736 7.3776693977102221 42.9686833674211215 Zr
atom 2.5224106147075793 2.4605171540677770 48.0501706414723557 Zr
atom 7.4998671043470519 2.4352243515964100 48.0457557038658436 Zr
atom 2.4971178122362176 7.4379736437072639 48.0545855790786973 Zr
atom 7.4950836896138737 7.4331902289740679 48.0501706414723557 Zr
atom 2.6702644204955219 2.5850537455137590 40.4185278481562804 S
atom 7.3753305129010869 2.2873705458084710 40.4141129105498251 S
atom 2.3725812207902330 7.2901198379193302 40.4229427857626433 S
atom 7.6429374954017950 7.5577268204200516 40.4185278481562875 S
atom 2.2797683105560109 2.2277412015536138 45.4742889840526203 S
atom 7.7326430568612246 2.6778666557479838 45.4698740464461721 S
atom 2.7298937647503885 7.6806159478588558 45.4787039216590045 S
atom 7.2524413854622756 7.2004142764599122 45.4742889840526203 S
atom 2.0646135104135035 -0.0559381048094907 42.7362949655456390 S
atom 7.9638739279088888 -0.0718808152056132 43.1411935140825236 S
atom 2.9611246357980430 4.9308684769052524 43.1500233892952281 S
atom 7.0372865853197686 4.9167349700968046 42.7362949655456461 S
atom 2.2435669934271734 -0.0511003729680369 48.1902659380504872 S
atom 7.8591337689238578 -0.0685341275291090 47.6883558750515562 S
atom 2.8563844768129965 4.9342151645817518 47.6971857502643957 S
atom 7.2162400683334518 4.9215727019382518 48.1902659380504872 S
atom 0.0408999962072035 2.9230976730950773 42.7407099031520517 S
atom 5.0295157815096179 1.9965103305059624 43.1456084516888723 S
atom 0.0267664893987532 6.9992596226168216 43.1544383269017331 S
atom 5.0135730711134805 7.8957707480013566 42.7407099031520517 S
atom 0.0360622643657500 2.7441441900814039 48.1946808756568146 S
atom 5.0261690938330972 2.1012504894909942 47.6927708126579049 S
atom 0.0234198017222498 7.1039997816018499 47.7016006878707230 S
atom 5.0087353392720324 7.7168172649876805 48.1946808756568146 S
atom -0.1111483759368051 0.0681531691029919 50.2400324209347673 Ba
atom 4.9195580144055731 0.0961102673345179 50.2356174833283831 Ba
atom -0.0831912777052779 5.0988595594453461 50.2444473585411160 Ba
atom 4.8615246989694851 5.0408262440092626 50.2400324209347673 Ba
atom 2.7590995257853503 2.6137088909304280 50.5607699154923012 S
atom 7.3466753674844147 2.1985354405186408 50.5563549778858956 S
atom 2.3439260753735724 7.2012847326295102 50.5651848530987493 S
atom 7.7317726006916265 7.5863819658367015 50.5607699154923012 S
atom 2.5557667559001707 2.3705461323852979 53.6705469896969518 Ba
atom 7.5898381260295542 2.4018682104038223 53.6661320520905463 Ba
atom 2.5870888339187008 7.4046175025146956 53.6749619273034142 Ba
atom 7.5284398308064349 7.3432192072915807 53.6705469896969447 Ba
atom 2.1912660568314037 2.7147099096525129 58.4774457021726164 Ba
atom 7.2456743487623498 2.7663689094725838 58.4730307645662748 Ba
atom 2.2429250566514960 7.7691182015834350 58.4818606397790219 Ba
atom 7.1639391317377035 7.6873829845588002 58.4774457021726093 Ba
atom 4.9413312723110856 5.0114436632748696 55.8628891394335341 Zr
atom 9.9216136700462823 4.9889767688991880 55.8584742018271712 Zr
atom 4.9188643779354013 9.9917260610100609 55.8673040770400533 Zr
atom 9.9140043472173467 9.9841167381811236 55.8628891394335412 Zr
atom 4.9215387962450494 5.0185970723954947 60.9279743810954884 Zr
atom 9.9144602609256136 5.0087692449652410 60.9235594434890757 Zr
atom 4.9117109688147762 10.0115185370760837 60.9323893187019721 Zr
atom 9.8942118711513043 9.9912701473017798 60.9279743810954741 Zr
atom 5.1034029471351978 5.2574925667052952 53.3511041176630698 S
atom 9.6755647666158424 4.8269050940750775 53.3466891800567566 S
atom 4.6728154745049890 9.8296543861859167 53.3555190552695393 S
atom 10.0760760220414678 10.2301656416115829 53.3511041176630627 S
atom 4.6774916528070554 4.7221761273184484 58.4299068268307167 S
atom 10.2108812060026892 5.2528163884032173 58.4254918892243964 S
atom 5.2081319138918394 10.2555656805140814 58.4343217644371080 S
atom 9.6501647277133618 9.6948492022247432 58.4299068268307167 S
atom 5.2247276012105734 2.5263641943875768 55.6935951145136556 S
atom 9.5847042449478987 2.5145763235385465 56.2298459496030034 S
atom 4.5819549528370693 7.5173256156494057 56.2386758248158145 S
atom 10.1974006761169118 7.4990372692938569 55.6935951145136485 S
atom 5.3405072020323807 2.5199890771806444 61.2534146510201793 S
atom 9.5325565555905545 2.5094410960598106 60.6395418030427891 S
atom 4.5298072634796700 7.5121903881706711 60.6483716782556854 S
atom 10.3131802769386383 7.4926621520869343 61.2534146510201865 S
atom 2.4312707719164228 4.7356566572042738 55.6980100521201820 S
atom 7.4157317176717408 5.3483530883732211 56.2342608872093805 S
atom 2.4129824255608794 10.3511023804840914 56.2430907624222058 S
atom 7.4039438468226901 9.7083297321105100 55.6980100521202033 S
atom 2.4376458891233472 4.6198770563824612 61.2578295886265920 S
atom 7.4208669451504621 5.4005007777306266 60.6439567406491875 S
atom 2.4181176530396171 10.4032500698414694 60.6527866158620625 S
atom 7.4103189640296181 9.5925501312887604 61.2578295886265920 S
atom 2.7163076788083322 2.3461520459330054 63.4630145953137870 Ba
atom 7.6142322124818200 2.2413272874956633 63.4585996577072962 Ba
atom 2.6114829203709933 7.2440765796065278 63.4674295329200859 Ba
atom 7.6889807537146213 7.3188251208393016 63.4630145953137870 Ba
atom 2.1823068107897425 2.6978187962158215 68.4806484051817961 Ba
atom 7.2625654621990234 2.7753281555142522 68.4762334675752840 Ba
atom 2.2598161700881798 7.7780774476251100 68.4850633427882229 Ba
atom 7.1549798856960001 7.6704918711221195 68.4806484051817534 Ba
atom 4.9416891698486243 5.0072272171814181 65.9558015805281457 Zr
atom 9.9258301161396876 4.9886188713616706 65.9513866429217188 Zr
atom 4.9230808240288715 9.9913681634725258 65.9602165181345725 Zr
atom 9.9143622447548889 9.9799002920877307 65.9558015805281457 Zr
atom 4.9361041388295508 5.0041627855509629 70.9820462529852421 Zr
atom 9.9288945477701613 4.9942039023807352 70.9776313153789715 Zr
atom 4.9261452556593204 9.9969531944915637 70.9864611905917968 Zr
atom 9.9087772137358137 9.9768358604572427 70.9820462529852705 Zr
atom 5.1979383677041158 5.3281807232443281 63.4538022343622714 S
atom 9.6048766100768113 4.7323696735061711 63.4493872967559582 S
atom 4.6021273179659650 9.7351189656170529 63.4582171719687338 S
atom 10.1706114426104151 10.3008537981506034 63.4538022343622714 S
atom 4.6734231613503026 4.6891815718108498 68.4748517953212996 S
atom 10.2438757615103366 5.2568848798599550 68.4704368577147875 S
atom 5.2411264693994468 10.2596341719708430 68.4792667329277123 S
atom 9.6460962362565859 9.6618546467171047 68.4748517953212996 S
atom 5.3379601961309442 2.5121962531175042 65.6558792541054288 S
atom 9.5379898381162977 2.5001304366207333 66.2768413324327952 S
atom 4.5352405460054550 7.5028797287315703 66.2856712076456631 S
atom 10.3106332710371849 7.4848693280237919 65.6558792541054004 S
atom 5.3494380826965884 2.5094989934374228 71.2946040379091812 S
atom 9.5386026508841510 2.4983642260155601 70.6760041732124620 S
atom 4.5358533587732870 7.5011135181264228 70.6848340484250741 S
atom 10.3221111576028832 7.4821720683437070 71.2946040379091244 S
atom 2.4454387131864852 4.6224240622839190 65.6602941917116141 S
atom 7.4301776045895629 5.3950674952048461 66.2812562700393642 S
atom 2.4274283124786957 10.3978167873156586 66.2900861452521326 S
atom 7.4181117880927587 9.5950971371901961 65.6602941917115714 S
atom 2.4481359728665661 4.6109461757182286 71.2990189755155086 S
atom 7.4319438151947086 5.3944546824369901 70.6804191108188320 S
atom 2.4291945230838592 10.3972039745478764 70.6892489860316431 S
atom 7.4208090477728605 9.5836192506245421 71.2990189755154375 S
atom 2.7199073361255657 2.3385034659547355 73.5057914152076535 Ba
atom 7.6218807924601322 2.2377276301784388 73.5013764776013261 Ba
atom 2.6191315003492619 7.2404769222893020 73.5102063528141940 Ba
atom 7.6925804110318445 7.3111765408610143 73.5057914152076535 Ba
atom 2.4267430309105493 2.5618875181515817 78.5315460094145408 Ba
atom 7.3984967402632709 2.5308919353934578 78.5271310718082702 Ba
atom 2.3957474481524046 7.5336412275043259 78.5359609470210671 Ba
atom 7.3994161058167975 7.5345605930578694 78.5315460094145408 Ba
atom 4.9778738599188621 4.9825683718218894 76.0120035436023898 Zr
atom 9.9504889614992162 4.9524341812914239 76.0075886059960908 Zr
atom 4.9477396693883664 9.9551834734022950 76.0164184812089303 Zr
atom 9.9505469348251498 9.9552414467281860 76.0120035436024040 Zr
atom 4.8474238845808442 5.1130183471599189 81.0510884752268623 Zr
atom 9.8200389861611956 5.0828841566294383 81.0466735376205065 Zr
atom 4.8172896940503511 10.0856334487402926 81.0555034128332323 Zr
atom 9.8200969594871204 10.0856914220662119 81.0510884752268765 Zr
atom 5.1924147637399658 5.3025452373547051 73.4973780453273378 S
atom 9.6305120959664254 4.7378932774703317 73.4929631077208256 S
atom 4.6277628038555729 9.7406425695811638 73.5017929829337646 S
atom 10.1650878386462473 10.2752183122609893 73.4973780453273520 S
atom 4.6664699540261561 4.8016144412672332 78.5315460094145408 S
atom 10.1314428920538813 5.2638380871840917 78.5271310718082702 S
atom 5.1286935999430758 10.2665873792949700 78.5359609470210671 S
atom 9.6391430289324536 9.7742875161734837 78.5315460094145408 S
atom 5.3640341257223803 2.4947209703913429 75.7464525873684948 S
atom 9.5725842254140616 2.4822187386609063 76.2660730339572552 S
atom 4.5698349333031842 7.4849680307717739 76.2749029091699100 S
atom 10.3367072006286840 7.4673940452976204 75.7464525873685233 S
atom 4.4612056454514235 2.5980584831536979 81.3122244938544156 S
atom 10.2280779127768895 2.5804844976795649 80.7837741720531000 S
atom 5.2253286206660281 7.5832337897904143 80.7926040472657832 S
atom 9.4338787203576757 7.5707315580599897 81.3122244938544441 S
atom 2.4629139959126598 4.5963501326924696 75.7508675249748507 S
atom 7.4480893025493629 5.3604731079070893 76.2704879715636110 S
atom 2.4453400104385214 10.3632224000179676 76.2793178467763795 S
atom 7.4355870708189382 9.5690232075987058 75.7508675249748507 S
atom 2.3595764831502941 5.4991786129634290 81.3166394314608141 S
atom 7.3498235435307206 4.7049794205442383 80.7881891096593847 S
atom 2.3470742514198584 9.7077287126550882 80.7970189848720821 S
atom 7.3322495580565779 10.4718516878697407 81.3166394314608141 S
atom 2.2033589787136867 2.8550518233666007 83.5573006036217265 Ba
atom 7.1053324350482292 2.7542759875903013 83.5528856660150154 Ba
atom 2.1025831429373909 7.7570252797011801 83.5617155412280397 Ba
atom 7.1760320536199433 7.8277248982729013 83.5573006036217549 Ba
atom 2.5626743089747723 2.3174512980307851 88.5824436136475697 Ba
atom 7.6429329603840550 2.3949606573292108 88.5780286760412281 Ba
atom 2.6401836682732105 7.3977099494400793 88.5868585512539966 Ba
atom 7.5353473838810690 7.2901243729370693 88.5824436136475555 Ba
atom 4.8690182983099115 5.0712486260705827 86.0810457658440384 Zr
atom 9.8618087072505549 5.0612897429003656 86.0766308282376116 Zr
atom 4.8590594151396802 10.0640390350112501 86.0854607034505932 Zr
atom 9.8416913732162215 10.0439217009768882 86.0810457658440669 Zr
atom 4.8720827299403595 5.0768336570896508 91.1072904383015043 Zr
atom 9.8562236762314726 5.0582253112699060 91.1028755006947790 Zr
atom 4.8534743841206396 10.0609746033807586 91.1117053759076043 Zr
atom 9.8447558048466188 10.0495067319959581 91.1072904383015043 Zr
atom 5.1674007501136501 5.3275592509810101 83.5657139735021417 S
atom 9.6054980823400928 4.7629072910966306 83.5612990358957290 S
atom 4.6027487902292812 9.7656565832074964 83.5701289111084975 S
atom 10.1400738250199325 10.3002323258872828 83.5657139735021559 S
atom 4.5540370845697744 4.8085676485913895 88.5882402235082935 S
atom 10.1244896847297703 5.3762709566405000 88.5838252859018240 S
atom 5.1217403926189151 10.3790202487513934 88.5926551611145641 S
atom 9.5267101594760213 9.7812407234976586 88.5882402235082793 S
atom 4.4758016884772047 2.5832804601076167 85.7640730433136440 S
atom 10.2620594873068178 2.5643390103249124 86.3738430327977369 S
atom 5.2593101951959333 7.5670883024357751 86.3826729080104343 S
atom 9.4484747633834907 7.5559535350139102 85.7640730433136156 S
atom 4.4872795750428631 2.5805832004275353 91.4027978271176096 S
atom 10.2626723000746054 2.5625727997197352 90.7730058735773184 S
atom 5.2599230079637627 7.5653220918306356 90.7818357487901437 S
atom 9.4599526499491784 7.5532562753338297 91.4027978271176380 S
atom 2.3743545061963789 5.4845825699376727 85.7684879809200993 S
atom 7.3659690308853589 4.6709978460143349 86.3782579704041069 S
atom 2.3632197387745064 9.6737471381251954 86.3870878456168327 S
atom 7.3470275811026493 10.4572556448439435 85.7684879809201419 S
atom 2.3770517658764536 5.4731046833719814 91.4072127647240649 S
atom 7.3677352414905100 4.6703850332464887 90.7774208111836316 S
atom 2.3649859493796859 9.6731343253573652 90.7862506863966274 S
atom 7.3497248407827467 10.4457777582782896 91.4072127647240649 S
atom 2.2110075586919646 2.8514521660493757 93.6000774235157706 Ba
atom 7.1089320923654595 2.7466274076120434 93.5956624859092585 Ba
atom 2.1061828002546155 7.7493766997228892 93.6044923611220270 Ba
atom 7.1836806335982404 7.8241252409556656 93.6000774235157706 Ba
atom 2.5795654224114628 2.3264105440724512 98.5856463166568346 Ba
atom 7.6339737143423800 2.3780695438925363 98.5812313790503936 Ba
atom 2.6312244222315431 7.3808188360033959 98.5900612542631194 Ba
atom 7.5522384973177097 7.2990836189787576 98.5856463166568346 Ba
atom 4.8834525851544548 5.0566832834860920 96.1351176377336287 Zr
atom 9.8763740498350163 5.0468554560558134 96.1307027001273724 Zr
atom 4.8736247577241878 10.0496047481667041 96.1395325753401835 Zr
atom 9.8561256600607177 10.0293563583923788 96.1351176377336287 Zr
atom 4.8762991760338155 5.0764757595521308 101.2002028793956754 Zr
atom 9.8565815737689881 5.0540088651764643 101.1957879417892769 Zr
atom 4.8538322816581427 10.0567581572873301 101.2046178170020738 Zr
atom 9.8489722509400721 10.0491488344584337 101.2002028793957038 Zr
atom 5.1930362360032554 5.3330828549451716 93.6092897844668954 S
atom 9.5999744783759535 4.7372718052070022 93.6048748468604828 S
atom 4.5972251862651206 9.7400210973178840 93.6137047220734360 S
atom 10.1657093109095360 10.3057559298514398 93.6092897844668954 S
atom 4.5870316400773872 4.8126361400481121 98.6331851919986491 S
atom 10.1204211932729962 5.3432764011328873 98.6287702543922222 S
atom 5.1176719011621570 10.3460256932437300 98.6376001296050049 S
atom 9.5597047149836545 9.7853092149544008 98.6331851919986633 S
atom 4.4847325691414284 2.5727903763643893 95.8052624302029301 S
atom 10.2681055826004162 2.5532621402806561 96.4103054029673672 S
atom 5.2653562904895521 7.5560114323915322 96.4191352781802209 S
atom 9.4574056440476788 7.5454634512706766 95.8052624302029301 S
atom 4.6005121699632276 2.5664152591574667 101.3650819667094112 S
atom 10.2159578932430186 2.5481269128019255 100.8200012564072381 S
atom 5.2132086011321395 7.5508762049127736 100.8288311316201629 S
atom 9.5731852448694550 7.5390883340637673 101.3650819667094254 S
atom 2.3848445899396031 5.4756516892734508 95.8096773678092291 S
atom 7.3770459009296072 4.6649517507207108 96.4147203405736803 S
atom 2.3742966088187609 9.6677010428315793 96.4235502157866193 S
atom 7.3575176648458687 10.4483247641797021 95.8096773678092291 S
atom 2.3912197071465355 5.3598720884516302 101.3694969043155112 S
atom 7.3821811284083481 4.7170994400781145 100.8244161940136792 S
atom 2.3794318362974969 9.7198487321889573 100.8332460692265755 S
atom 7.3638927820528162 10.3325451633579704 101.3694969043155396 S
atom 2.2354016451442540 2.6909112431412141 103.3925450291323784 Ba
atom 7.2694730152736238 2.7222333211597354 103.3881300915259942 Ba
atom 2.2667237231627819 7.7249826132706083 103.3969599667389758 Ba
atom 7.2080747200505257 7.6635843180474987 103.3925450291323358 Ba
atom 5.1223480794642375 5.2385474343762537 103.7119879011661396 S
atom 9.6945098989448475 4.8079599617460280 103.7075729635595991 S
atom 4.6917606068340136 9.8107092538568867 103.7164028387724244 S
atom 10.0950211543705066 10.2112205092825992 103.7119879011661396 S
