#=======================================================
# FHI-aims file: sym_relax/sym_relax_RP_9_000_000.in
# Created using the Atomic Simulation Environment (ASE)
# Mon Mar 17 16:27:28 2025
#=======================================================
lattice_vector 10.0658177410573781 0.0000000000000000 -0.0000000000000000 
lattice_vector 0.0000000000000000 10.0658177410573817 0.0000000000000000 
lattice_vector -0.0000000000000000 0.0000000000000002 95.9774954259161177 
atom 0.0000000000000000 0.0000000000000000 0.2842388665323974 Ba
atom 5.0329088705286855 0.0000000000000000 0.2842388665323973 Ba
atom 0.0000000000000000 5.0329088705286882 0.2842388665323974 Ba
atom 5.0329088705286855 5.0329088705286882 0.2842388665323974 Ba
atom 0.0000000000000000 0.0000000000000000 5.0600206447919858 Ba
atom 5.0329088705286855 0.0000000000000000 5.0600206447919858 Ba
atom 0.0000000000000000 5.0329088705286882 5.0600206447919858 Ba
atom 5.0329088705286855 5.0329088705286882 5.0600206447919858 Ba
atom 2.5164544352643428 2.5164544352643441 2.3074833677818121 Zr
atom 7.5493633057930341 2.5164544352643441 2.3074833677818121 Zr
atom 2.5164544352643428 7.5493633057930367 2.3074833677818121 Zr
atom 7.5493633057930341 7.5493633057930367 2.3074833677818121 Zr
atom 2.5164544352643428 2.5164544352643441 7.3862365712961298 Zr
atom 7.5493633057930341 2.5164544352643441 7.3862365712961280 Zr
atom 2.5164544352643428 7.5493633057930367 7.3862365712961298 Zr
atom 7.5493633057930341 7.5493633057930367 7.3862365712961298 Zr
atom 2.5164544352643428 2.5164544352643441 -0.1840191722517091 S
atom 7.5493633057930341 2.5164544352643441 -0.1840191722517091 S
atom 2.5164544352643428 7.5493633057930367 -0.1840191722517091 S
atom 7.5493633057930341 7.5493633057930367 -0.1840191722517090 S
atom 2.5164544352643428 2.5164544352643441 4.8956958331026179 S
atom 7.5493633057930341 2.5164544352643441 4.8956958331026179 S
atom 2.5164544352643428 7.5493633057930367 4.8956958331026179 S
atom 7.5493633057930341 7.5493633057930367 4.8956958331026179 S
atom 2.5164544352643428 0.0000000000000000 2.4379109226069877 S
atom 7.5493633057930341 0.0000000000000000 2.4379109226069877 S
atom 2.5164544352643428 5.0329088705286882 2.4379109226069877 S
atom 7.5493633057930341 5.0329088705286882 2.4379109226069877 S
atom 2.5164544352643428 0.0000000000000000 7.4210509516542986 S
atom 7.5493633057930341 0.0000000000000000 7.4210509516542986 S
atom 2.5164544352643428 5.0329088705286882 7.4210509516542995 S
atom 7.5493633057930341 5.0329088705286882 7.4210509516542995 S
atom -0.0000000000000000 2.5164544352643441 2.4379109226069877 S
atom 5.0329088705286855 2.5164544352643441 2.4379109226069877 S
atom -0.0000000000000000 7.5493633057930367 2.4379109226069877 S
atom 5.0329088705286855 7.5493633057930367 2.4379109226069877 S
atom -0.0000000000000000 2.5164544352643441 7.4210509516542995 S
atom 5.0329088705286855 2.5164544352643441 7.4210509516542995 S
atom -0.0000000000000000 7.5493633057930367 7.4210509516542995 S
atom 5.0329088705286855 7.5493633057930367 7.4210509516542995 S
atom -0.0000000000000000 0.0000000000000000 9.9984023218207838 Ba
atom 5.0329088705286855 0.0000000000000000 9.9984023218207838 Ba
atom -0.0000000000000000 5.0329088705286882 9.9984023218207838 Ba
atom 5.0329088705286855 5.0329088705286882 9.9984023218207838 Ba
atom 0.0000000000000000 0.0000000000000000 14.9861699254964353 Ba
atom 5.0329088705286855 0.0000000000000000 14.9861699254964353 Ba
atom 0.0000000000000000 5.0329088705286882 14.9861699254964389 Ba
atom 5.0329088705286855 5.0329088705286882 14.9861699254964389 Ba
atom 2.5164544352643428 2.5164544352643441 12.4270945962110950 Zr
atom 7.5493633057930341 2.5164544352643441 12.4270945962110950 Zr
atom 2.5164544352643428 7.5493633057930367 12.4270945962110950 Zr
atom 7.5493633057930341 7.5493633057930367 12.4270945962110950 Zr
atom 2.5164544352643428 2.5164544352643441 17.4620963970485796 Zr
atom 7.5493633057930341 2.5164544352643441 17.4620963970485796 Zr
atom 2.5164544352643428 7.5493633057930367 17.4620963970485796 Zr
atom 7.5493633057930341 7.5493633057930367 17.4620963970485796 Zr
atom 2.5164544352643428 2.5164544352643441 9.9234566459741806 S
atom 7.5493633057930341 2.5164544352643441 9.9234566459741806 S
atom 2.5164544352643428 7.5493633057930367 9.9234566459741806 S
atom 7.5493633057930341 7.5493633057930367 9.9234566459741806 S
atom 2.5164544352643428 2.5164544352643441 14.9513102791549759 S
atom 7.5493633057930341 2.5164544352643441 14.9513102791549723 S
atom 2.5164544352643428 7.5493633057930367 14.9513102791549759 S
atom 7.5493633057930341 7.5493633057930367 14.9513102791549759 S
atom 2.5164544352643428 0.0000000000000000 12.4434884791261009 S
atom 7.5493633057930341 0.0000000000000000 12.4434884791261009 S
atom 2.5164544352643428 5.0329088705286882 12.4434884791261009 S
atom 7.5493633057930341 5.0329088705286882 12.4434884791261009 S
atom 2.5164544352643428 0.0000000000000000 17.4671432234908153 S
atom 7.5493633057930341 0.0000000000000000 17.4671432234908153 S
atom 2.5164544352643428 5.0329088705286882 17.4671432234908153 S
atom 7.5493633057930341 5.0329088705286882 17.4671432234908153 S
atom -0.0000000000000000 2.5164544352643441 12.4434884791261009 S
atom 5.0329088705286855 2.5164544352643441 12.4434884791261009 S
atom -0.0000000000000000 7.5493633057930367 12.4434884791261009 S
atom 5.0329088705286855 7.5493633057930367 12.4434884791261009 S
atom -0.0000000000000000 2.5164544352643441 17.4671432234908153 S
atom 5.0329088705286855 2.5164544352643441 17.4671432234908153 S
atom -0.0000000000000000 7.5493633057930367 17.4671432234908153 S
atom 5.0329088705286855 7.5493633057930367 17.4671432234908153 S
atom -0.0000000000000000 0.0000000000000000 19.9897681577719162 Ba
atom 5.0329088705286855 0.0000000000000000 19.9897681577719162 Ba
atom -0.0000000000000000 5.0329088705286882 19.9897681577719162 Ba
atom 5.0329088705286855 5.0329088705286882 19.9897681577719162 Ba
atom -0.0000000000000000 0.0000000000000001 24.9996828231262640 Ba
atom 5.0329088705286855 0.0000000000000001 24.9996828231262640 Ba
atom -0.0000000000000000 5.0329088705286882 24.9996828231262640 Ba
atom 5.0329088705286855 5.0329088705286882 24.9996828231262640 Ba
atom 2.5164544352643428 2.5164544352643441 22.4947254904490705 Zr
atom 7.5493633057930341 2.5164544352643441 22.4947254904490705 Zr
atom 2.5164544352643428 7.5493633057930367 22.4947254904490705 Zr
atom 7.5493633057930341 7.5493633057930367 22.4947254904490705 Zr
atom 2.5164544352643428 2.5164544352643441 27.5273545838495686 Zr
atom 7.5493633057930341 2.5164544352643441 27.5273545838495686 Zr
atom 2.5164544352643428 7.5493633057930367 27.5273545838495686 Zr
atom 7.5493633057930341 7.5493633057930367 27.5273545838495686 Zr
atom 2.5164544352643428 2.5164544352643441 19.9801325783760397 S
atom 7.5493633057930341 2.5164544352643441 19.9801325783760397 S
atom 2.5164544352643428 7.5493633057930367 19.9801325783760397 S
atom 7.5493633057930341 7.5493633057930367 19.9801325783760397 S
atom 2.5164544352643428 2.5164544352643441 25.0093184025221191 S
atom 7.5493633057930341 2.5164544352643441 25.0093184025221191 S
atom 2.5164544352643428 7.5493633057930367 25.0093184025221191 S
atom 7.5493633057930341 7.5493633057930367 25.0093184025221191 S
atom 2.5164544352643428 0.0000000000000000 22.4947254904490705 S
atom 7.5493633057930341 0.0000000000000000 22.4947254904490705 S
atom 2.5164544352643428 5.0329088705286882 22.4947254904490705 S
atom 7.5493633057930341 5.0329088705286882 22.4947254904490705 S
atom 2.5164544352643428 0.0000000000000001 27.5223077574073329 S
atom 7.5493633057930341 0.0000000000000001 27.5223077574073329 S
atom 2.5164544352643428 5.0329088705286882 27.5223077574073329 S
atom 7.5493633057930341 5.0329088705286882 27.5223077574073329 S
atom -0.0000000000000000 2.5164544352643441 22.4947254904490705 S
atom 5.0329088705286855 2.5164544352643441 22.4947254904490705 S
atom -0.0000000000000000 7.5493633057930367 22.4947254904490705 S
atom 5.0329088705286855 7.5493633057930367 22.4947254904490705 S
atom 0.0000000000000000 2.5164544352643441 27.5223077574073329 S
atom 5.0329088705286855 2.5164544352643441 27.5223077574073329 S
atom 0.0000000000000000 7.5493633057930367 27.5223077574073329 S
atom 5.0329088705286855 7.5493633057930367 27.5223077574073329 S
atom -0.0000000000000000 0.0000000000000001 30.0032810554017360 Ba
atom 5.0329088705286855 0.0000000000000001 30.0032810554017360 Ba
atom -0.0000000000000000 5.0329088705286882 30.0032810554017360 Ba
atom 5.0329088705286855 5.0329088705286882 30.0032810554017360 Ba
atom -0.0000000000000000 0.0000000000000001 34.9910486590774141 Ba
atom 5.0329088705286855 0.0000000000000001 34.9910486590774141 Ba
atom -0.0000000000000000 5.0329088705286882 34.9910486590774141 Ba
atom 5.0329088705286855 5.0329088705286882 34.9910486590774141 Ba
atom 2.5164544352643428 2.5164544352643441 32.5623563846870994 Zr
atom 7.5493633057930341 2.5164544352643441 32.5623563846870994 Zr
atom 2.5164544352643428 7.5493633057930367 32.5623563846870994 Zr
atom 7.5493633057930341 7.5493633057930367 32.5623563846870994 Zr
atom 2.5164544352643428 2.5164544352643441 37.6032144096020033 Zr
atom 7.5493633057930341 2.5164544352643441 37.6032144096020033 Zr
atom 2.5164544352643428 7.5493633057930367 37.6032144096020033 Zr
atom 7.5493633057930341 7.5493633057930367 37.6032144096020033 Zr
atom 2.5164544352643428 2.5164544352643441 30.0381407017431954 S
atom 7.5493633057930341 2.5164544352643441 30.0381407017431954 S
atom 2.5164544352643428 7.5493633057930367 30.0381407017431954 S
atom 7.5493633057930341 7.5493633057930367 30.0381407017431954 S
atom 2.5164544352643428 2.5164544352643441 35.0659943349239143 S
atom 7.5493633057930341 2.5164544352643441 35.0659943349239143 S
atom 2.5164544352643428 7.5493633057930367 35.0659943349239143 S
atom 7.5493633057930341 7.5493633057930367 35.0659943349239143 S
atom 2.5164544352643428 0.0000000000000001 32.5459625017720739 S
atom 7.5493633057930341 0.0000000000000001 32.5459625017720739 S
atom 2.5164544352643428 5.0329088705286882 32.5459625017720739 S
atom 7.5493633057930341 5.0329088705286882 32.5459625017720739 S
atom 2.5164544352643428 0.0000000000000001 37.5684000292438753 S
atom 7.5493633057930341 0.0000000000000001 37.5684000292438753 S
atom 2.5164544352643428 5.0329088705286882 37.5684000292438753 S
atom 7.5493633057930341 5.0329088705286882 37.5684000292438753 S
atom -0.0000000000000000 2.5164544352643441 32.5459625017720739 S
atom 5.0329088705286855 2.5164544352643441 32.5459625017720739 S
atom -0.0000000000000000 7.5493633057930367 32.5459625017720739 S
atom 5.0329088705286855 7.5493633057930367 32.5459625017720739 S
atom 0.0000000000000000 2.5164544352643441 37.5684000292438753 S
atom 5.0329088705286855 2.5164544352643441 37.5684000292438753 S
atom 0.0000000000000000 7.5493633057930367 37.5684000292438753 S
atom 5.0329088705286855 7.5493633057930367 37.5684000292438753 S
atom -0.0000000000000000 0.0000000000000001 39.9294303361061580 Ba
atom 5.0329088705286855 0.0000000000000001 39.9294303361061580 Ba
atom -0.0000000000000000 5.0329088705286882 39.9294303361061580 Ba
atom 5.0329088705286855 5.0329088705286882 39.9294303361061580 Ba
atom -0.0000000000000000 0.0000000000000001 44.7052121143657715 Ba
atom 5.0329088705286855 0.0000000000000001 44.7052121143657715 Ba
atom -0.0000000000000000 5.0329088705286882 44.7052121143657715 Ba
atom 5.0329088705286855 5.0329088705286882 44.7052121143657715 Ba
atom 2.5164544352643428 2.5164544352643441 42.6819676131163348 Zr
atom 7.5493633057930341 2.5164544352643441 42.6819676131163348 Zr
atom 2.5164544352643428 7.5493633057930367 42.6819676131163348 Zr
atom 7.5493633057930341 7.5493633057930367 42.6819676131163348 Zr
atom 2.5164544352643428 2.5164544352643441 40.0937551477955054 S
atom 7.5493633057930341 2.5164544352643441 40.0937551477955054 S
atom 2.5164544352643428 7.5493633057930367 40.0937551477955054 S
atom 7.5493633057930341 7.5493633057930367 40.0937551477955054 S
atom 2.5164544352643428 2.5164544352643441 45.1734701531498573 S
atom 7.5493633057930341 2.5164544352643441 45.1734701531498573 S
atom 2.5164544352643428 7.5493633057930367 45.1734701531498573 S
atom 7.5493633057930341 7.5493633057930367 45.1734701531498573 S
atom 2.5164544352643428 0.0000000000000001 42.5515400582911809 S
atom 7.5493633057930341 0.0000000000000001 42.5515400582911809 S
atom 2.5164544352643428 5.0329088705286882 42.5515400582911809 S
atom 7.5493633057930341 5.0329088705286882 42.5515400582911809 S
atom -0.0000000000000000 2.5164544352643441 42.5515400582911809 S
atom 5.0329088705286855 2.5164544352643441 42.5515400582911809 S
atom -0.0000000000000000 7.5493633057930367 42.5515400582911809 S
atom 5.0329088705286855 7.5493633057930367 42.5515400582911809 S
atom 2.5164544352643428 2.5164544352643441 48.2729865794904285 Ba
atom 7.5493633057930341 2.5164544352643441 48.2729865794904285 Ba
atom 2.5164544352643428 7.5493633057930367 48.2729865794904285 Ba
atom 7.5493633057930341 7.5493633057930367 48.2729865794904285 Ba
atom 2.5164544352643428 2.5164544352643441 53.0487683577500775 Ba
atom 7.5493633057930341 2.5164544352643441 53.0487683577500775 Ba
atom 2.5164544352643428 7.5493633057930367 53.0487683577500775 Ba
atom 7.5493633057930341 7.5493633057930367 53.0487683577500775 Ba
atom 5.0329088705286855 5.0329088705286882 50.2962310807399149 Zr
atom 10.0658177410573710 5.0329088705286882 50.2962310807399149 Zr
atom 5.0329088705286855 10.0658177410573764 50.2962310807399149 Zr
atom 10.0658177410573710 10.0658177410573764 50.2962310807399149 Zr
atom 5.0329088705286855 5.0329088705286882 55.3749842842541966 Zr
atom 10.0658177410573710 5.0329088705286882 55.3749842842541966 Zr
atom 5.0329088705286855 10.0658177410573764 55.3749842842541966 Zr
atom 10.0658177410573710 10.0658177410573764 55.3749842842541966 Zr
atom 5.0329088705286855 5.0329088705286882 47.8047285407063924 S
atom 10.0658177410573710 5.0329088705286882 47.8047285407063924 S
atom 5.0329088705286855 10.0658177410573764 47.8047285407063924 S
atom 10.0658177410573710 10.0658177410573764 47.8047285407063924 S
atom 5.0329088705286855 5.0329088705286882 52.8844435460606874 S
atom 10.0658177410573710 5.0329088705286882 52.8844435460606874 S
atom 5.0329088705286855 10.0658177410573764 52.8844435460606874 S
atom 10.0658177410573710 10.0658177410573764 52.8844435460606874 S
atom 5.0329088705286855 2.5164544352643441 50.4266586355650759 S
atom 10.0658177410573710 2.5164544352643441 50.4266586355650759 S
atom 5.0329088705286855 7.5493633057930367 50.4266586355650759 S
atom 10.0658177410573710 7.5493633057930367 50.4266586355650759 S
atom 5.0329088705286855 2.5164544352643441 55.4097986646123815 S
atom 10.0658177410573710 2.5164544352643441 55.4097986646123815 S
atom 5.0329088705286855 7.5493633057930367 55.4097986646123815 S
atom 10.0658177410573710 7.5493633057930367 55.4097986646123815 S
atom 2.5164544352643428 5.0329088705286882 50.4266586355650759 S
atom 7.5493633057930341 5.0329088705286882 50.4266586355650759 S
atom 2.5164544352643428 10.0658177410573764 50.4266586355650759 S
atom 7.5493633057930341 10.0658177410573764 50.4266586355650759 S
atom 2.5164544352643428 5.0329088705286882 55.4097986646123815 S
atom 7.5493633057930341 5.0329088705286882 55.4097986646123815 S
atom 2.5164544352643428 10.0658177410573764 55.4097986646123815 S
atom 7.5493633057930341 10.0658177410573764 55.4097986646123815 S
atom 2.5164544352643428 2.5164544352643441 57.9871500347788924 Ba
atom 7.5493633057930341 2.5164544352643441 57.9871500347788924 Ba
atom 2.5164544352643428 7.5493633057930367 57.9871500347788924 Ba
atom 7.5493633057930341 7.5493633057930367 57.9871500347788924 Ba
atom 2.5164544352643428 2.5164544352643441 62.9749176384545208 Ba
atom 7.5493633057930341 2.5164544352643441 62.9749176384545208 Ba
atom 2.5164544352643428 7.5493633057930367 62.9749176384545208 Ba
atom 7.5493633057930341 7.5493633057930367 62.9749176384545208 Ba
atom 5.0329088705286855 5.0329088705286882 60.4158423091691716 Zr
atom 10.0658177410573710 5.0329088705286882 60.4158423091691716 Zr
atom 5.0329088705286855 10.0658177410573764 60.4158423091691716 Zr
atom 10.0658177410573710 10.0658177410573764 60.4158423091691716 Zr
atom 5.0329088705286855 5.0329088705286882 65.4508441100067131 Zr
atom 10.0658177410573710 5.0329088705286882 65.4508441100067131 Zr
atom 5.0329088705286855 10.0658177410573764 65.4508441100067131 Zr
atom 10.0658177410573710 10.0658177410573764 65.4508441100067131 Zr
atom 5.0329088705286855 5.0329088705286882 57.9122043589322431 S
atom 10.0658177410573710 5.0329088705286882 57.9122043589322431 S
atom 5.0329088705286855 10.0658177410573764 57.9122043589322431 S
atom 10.0658177410573710 10.0658177410573764 57.9122043589322431 S
atom 5.0329088705286855 5.0329088705286882 62.9400579921130685 S
atom 10.0658177410573710 5.0329088705286882 62.9400579921130685 S
atom 5.0329088705286855 10.0658177410573764 62.9400579921130685 S
atom 10.0658177410573710 10.0658177410573764 62.9400579921130685 S
atom 5.0329088705286855 2.5164544352643441 60.4322361920841757 S
atom 10.0658177410573710 2.5164544352643441 60.4322361920841757 S
atom 5.0329088705286855 7.5493633057930367 60.4322361920841757 S
atom 10.0658177410573710 7.5493633057930367 60.4322361920841757 S
atom 5.0329088705286855 2.5164544352643441 65.4558909364488528 S
atom 10.0658177410573710 2.5164544352643441 65.4558909364488528 S
atom 5.0329088705286855 7.5493633057930367 65.4558909364488528 S
atom 10.0658177410573710 7.5493633057930367 65.4558909364488528 S
atom 2.5164544352643428 5.0329088705286882 60.4322361920841757 S
atom 7.5493633057930341 5.0329088705286882 60.4322361920841757 S
atom 2.5164544352643428 10.0658177410573764 60.4322361920841757 S
atom 7.5493633057930341 10.0658177410573764 60.4322361920841757 S
atom 2.5164544352643428 5.0329088705286882 65.4558909364488528 S
atom 7.5493633057930341 5.0329088705286882 65.4558909364488528 S
atom 2.5164544352643428 10.0658177410573764 65.4558909364488528 S
atom 7.5493633057930341 10.0658177410573764 65.4558909364488528 S
atom 2.5164544352643428 2.5164544352643441 67.9785158707299786 Ba
atom 7.5493633057930341 2.5164544352643441 67.9785158707299786 Ba
atom 2.5164544352643428 7.5493633057930367 67.9785158707299786 Ba
atom 7.5493633057930341 7.5493633057930367 67.9785158707299786 Ba
atom 2.5164544352643428 2.5164544352643441 72.9884305360843086 Ba
atom 7.5493633057930341 2.5164544352643441 72.9884305360843086 Ba
atom 2.5164544352643428 7.5493633057930367 72.9884305360843086 Ba
atom 7.5493633057930341 7.5493633057930367 72.9884305360843086 Ba
atom 5.0329088705286855 5.0329088705286882 70.4834732034071294 Zr
atom 10.0658177410573710 5.0329088705286882 70.4834732034071294 Zr
atom 5.0329088705286855 10.0658177410573764 70.4834732034071294 Zr
atom 10.0658177410573710 10.0658177410573764 70.4834732034071294 Zr
atom 5.0329088705286855 5.0329088705286882 75.5161022968076310 Zr
atom 10.0658177410573710 5.0329088705286882 75.5161022968076310 Zr
atom 5.0329088705286855 10.0658177410573764 75.5161022968076310 Zr
atom 10.0658177410573710 10.0658177410573764 75.5161022968076310 Zr
atom 5.0329088705286855 5.0329088705286882 67.9688802913340737 S
atom 10.0658177410573710 5.0329088705286882 67.9688802913340737 S
atom 5.0329088705286855 10.0658177410573764 67.9688802913340737 S
atom 10.0658177410573710 10.0658177410573764 67.9688802913340737 S
atom 5.0329088705286855 5.0329088705286882 72.9980661154801993 S
atom 10.0658177410573710 5.0329088705286882 72.9980661154801993 S
atom 5.0329088705286855 10.0658177410573764 72.9980661154801993 S
atom 10.0658177410573710 10.0658177410573764 72.9980661154801993 S
atom 5.0329088705286855 2.5164544352643441 70.4834732034071294 S
atom 10.0658177410573710 2.5164544352643441 70.4834732034071294 S
atom 5.0329088705286855 7.5493633057930367 70.4834732034071294 S
atom 10.0658177410573710 7.5493633057930367 70.4834732034071294 S
atom 5.0329088705286855 2.5164544352643441 75.5110554703654486 S
atom 10.0658177410573710 2.5164544352643441 75.5110554703654486 S
atom 5.0329088705286855 7.5493633057930367 75.5110554703654486 S
atom 10.0658177410573710 7.5493633057930367 75.5110554703654486 S
atom 2.5164544352643428 5.0329088705286882 70.4834732034071294 S
atom 7.5493633057930341 5.0329088705286882 70.4834732034071294 S
atom 2.5164544352643428 10.0658177410573764 70.4834732034071294 S
atom 7.5493633057930341 10.0658177410573764 70.4834732034071294 S
atom 2.5164544352643428 5.0329088705286882 75.5110554703654486 S
atom 7.5493633057930341 5.0329088705286882 75.5110554703654486 S
atom 2.5164544352643428 10.0658177410573764 75.5110554703654486 S
atom 7.5493633057930341 10.0658177410573764 75.5110554703654486 S
atom 2.5164544352643428 2.5164544352643441 77.9920287683597593 Ba
atom 7.5493633057930341 2.5164544352643441 77.9920287683597593 Ba
atom 2.5164544352643428 7.5493633057930367 77.9920287683597593 Ba
atom 7.5493633057930341 7.5493633057930367 77.9920287683597593 Ba
atom 2.5164544352643428 2.5164544352643441 82.9797963720354801 Ba
atom 7.5493633057930341 2.5164544352643441 82.9797963720354801 Ba
atom 2.5164544352643428 7.5493633057930367 82.9797963720354801 Ba
atom 7.5493633057930341 7.5493633057930367 82.9797963720354801 Ba
atom 5.0329088705286855 5.0329088705286882 80.5511040976451227 Zr
atom 10.0658177410573710 5.0329088705286882 80.5511040976451227 Zr
atom 5.0329088705286855 10.0658177410573764 80.5511040976451227 Zr
atom 10.0658177410573710 10.0658177410573764 80.5511040976451227 Zr
atom 5.0329088705286855 5.0329088705286882 85.5919621225601475 Zr
atom 10.0658177410573710 5.0329088705286882 85.5919621225601475 Zr
atom 5.0329088705286855 10.0658177410573764 85.5919621225601475 Zr
atom 10.0658177410573710 10.0658177410573764 85.5919621225601475 Zr
atom 5.0329088705286855 5.0329088705286882 78.0268884147012898 S
atom 10.0658177410573710 5.0329088705286882 78.0268884147012898 S
atom 5.0329088705286855 10.0658177410573764 78.0268884147012898 S
atom 10.0658177410573710 10.0658177410573764 78.0268884147012898 S
atom 5.0329088705286855 5.0329088705286882 83.0547420478820726 S
atom 10.0658177410573710 5.0329088705286882 83.0547420478820726 S
atom 5.0329088705286855 10.0658177410573764 83.0547420478820726 S
atom 10.0658177410573710 10.0658177410573764 83.0547420478820726 S
atom 5.0329088705286855 2.5164544352643441 80.5347102147301257 S
atom 10.0658177410573710 2.5164544352643441 80.5347102147301257 S
atom 5.0329088705286855 7.5493633057930367 80.5347102147301257 S
atom 10.0658177410573710 7.5493633057930367 80.5347102147301257 S
atom 5.0329088705286855 2.5164544352643441 85.5571477422019768 S
atom 10.0658177410573710 2.5164544352643441 85.5571477422019768 S
atom 5.0329088705286855 7.5493633057930367 85.5571477422019768 S
atom 10.0658177410573710 7.5493633057930367 85.5571477422019768 S
atom 2.5164544352643428 5.0329088705286882 80.5347102147301257 S
atom 7.5493633057930341 5.0329088705286882 80.5347102147301257 S
atom 2.5164544352643428 10.0658177410573764 80.5347102147301257 S
atom 7.5493633057930341 10.0658177410573764 80.5347102147301257 S
atom 2.5164544352643428 5.0329088705286882 85.5571477422019768 S
atom 7.5493633057930341 5.0329088705286882 85.5571477422019768 S
atom 2.5164544352643428 10.0658177410573764 85.5571477422019768 S
atom 7.5493633057930341 10.0658177410573764 85.5571477422019768 S
atom 2.5164544352643428 2.5164544352643441 87.9181780490642524 Ba
atom 7.5493633057930341 2.5164544352643441 87.9181780490642524 Ba
atom 2.5164544352643428 7.5493633057930367 87.9181780490642524 Ba
atom 7.5493633057930341 7.5493633057930367 87.9181780490642524 Ba
atom 2.5164544352643428 2.5164544352643441 92.6939598273238232 Ba
atom 7.5493633057930341 2.5164544352643441 92.6939598273238232 Ba
atom 2.5164544352643428 7.5493633057930367 92.6939598273238232 Ba
atom 7.5493633057930341 7.5493633057930367 92.6939598273238232 Ba
atom 5.0329088705286855 5.0329088705286882 90.6707153260743297 Zr
atom 10.0658177410573710 5.0329088705286882 90.6707153260743297 Zr
atom 5.0329088705286855 10.0658177410573764 90.6707153260743297 Zr
atom 10.0658177410573710 10.0658177410573764 90.6707153260743297 Zr
atom 5.0329088705286855 5.0329088705286882 88.0825028607535785 S
atom 10.0658177410573710 5.0329088705286882 88.0825028607535785 S
atom 5.0329088705286855 10.0658177410573764 88.0825028607535785 S
atom 10.0658177410573710 10.0658177410573764 88.0825028607535785 S
atom 5.0329088705286855 5.0329088705286882 93.1622178661079943 S
atom 10.0658177410573710 5.0329088705286882 93.1622178661079943 S
atom 5.0329088705286855 10.0658177410573764 93.1622178661079943 S
atom 10.0658177410573710 10.0658177410573764 93.1622178661079943 S
atom 5.0329088705286855 2.5164544352643441 90.5402877712491829 S
atom 10.0658177410573710 2.5164544352643441 90.5402877712491829 S
atom 5.0329088705286855 7.5493633057930367 90.5402877712491829 S
atom 10.0658177410573710 7.5493633057930367 90.5402877712491829 S
atom 2.5164544352643428 5.0329088705286882 90.5402877712491829 S
atom 7.5493633057930341 5.0329088705286882 90.5402877712491829 S
atom 2.5164544352643428 10.0658177410573764 90.5402877712491829 S
atom 7.5493633057930341 10.0658177410573764 90.5402877712491829 S
