#=======================================================
# FHI-aims file: sym_relax/sym_relax_RP_4_Rx0Rz_0-RyRz.in
# Created using the Atomic Simulation Environment (ASE)
# Fri Mar 14 10:28:16 2025
#=======================================================
lattice_vector 10.0939693549839262 -0.0001203363387143 0.0025694786920565 
lattice_vector -0.0001203363387143 10.0939693549839227 0.0025694786920565 
lattice_vector 0.0087901804519127 0.0087901804519128 45.1627048390630890 
atom -0.1611731422762228 0.0043096754262779 0.2849157098904412 Ba
atom 5.1966872141013347 0.0041970530984469 0.2853123557082790 Ba
atom 0.1496423684400098 5.0512418987597583 0.2853123557082788 Ba
atom 4.8857513670463852 5.0512341847488793 0.2874851885824977 Ba
atom 0.0091333979137893 0.0030975526209173 4.9451297577756508 Ba
atom 4.9971488136418474 0.0028830866717797 4.9355334502694355 Ba
atom -0.0498960320194914 5.0499279323330946 4.9355334502694337 Ba
atom 5.0560579072364060 5.0500220619435296 4.9476992364677042 Ba
atom 2.5160502863032552 2.5141961290126611 2.3261125617786886 Zr
atom 7.5630211177493898 2.5401721885147892 2.3270990848001980 Zr
atom 2.5159762720880643 7.5872170341761125 2.3270990848001980 Zr
atom 7.5629747956258671 7.5611206383352734 2.3286820404707456 Zr
atom 2.5184751611602909 2.5260331828253055 7.3380600410002730 Zr
atom 7.5654755930193192 2.5258081690178669 7.3391711905304984 Zr
atom 2.5184307473579963 7.5728530146791773 7.3391711905305002 Zr
atom 7.5653996704829103 7.5729576921479156 7.3406295196923308 Zr
atom 2.5178543647600709 2.8840326991021614 -0.1547273071827503 S
atom 7.5651723682851735 2.1715959774321019 -0.1539206257799959 S
atom 2.5181275226238533 7.2186408230934127 -0.1539206257799959 S
atom 7.5647788740826805 7.9309572084247701 -0.1521578284906937 S
atom 2.5196553749707316 2.0542129993623535 4.8654674674323939 S
atom 7.5661092557642338 2.9988580814966181 4.8669116726989143 S
atom 2.5190644101029100 8.0459029271579361 4.8669116726989143 S
atom 7.5665798842933398 7.1011375086849560 4.8680369461244570 S
atom 2.5184948240991525 0.0037975572938505 2.0088520898686784 S
atom 7.5607962961690109 0.0035536431899407 2.8005475743897188 S
atom 2.5137514505076970 5.0505984888512625 2.8005475743897179 S
atom 7.5654193334217537 5.0507220666164638 2.0114215685607353 S
atom 2.5865023510850431 0.0023434649231880 7.8026102721993515 S
atom 7.5165373288668720 0.0025067385751606 6.8796974986915345 S
atom 2.4694924832055420 5.0495515842364789 6.8796974986915362 S
atom 7.6334268604076536 5.0492679742457787 7.8051797508914111 S
atom -0.0067899500592824 2.5265143830575272 2.4584843172923634 S
atom 5.0402258488287437 2.5278218460259789 2.4593023790894386 S
atom -0.0068189968325780 7.5748666916873013 2.4593023790894386 S
atom 5.0401345592633442 7.5734388923801363 2.4610537959844172 S
atom -0.0015319526341578 2.4571722595309260 7.3451810254624741 S
atom 5.0454511970535210 2.5947188903497662 7.3471873664691989 S
atom -0.0015936486078222 7.6417637360110726 7.3471873664691989 S
atom 5.0453925566884514 7.5040967688535245 7.3477505041545346 S
atom -0.0086226973451398 0.0017676624202394 9.7822665357141840 Ba
atom 5.0594291924248891 0.0019939869981912 9.8549768293114024 Ba
atom 0.0123843467635700 5.0490388326594937 9.8549768293114060 Ba
atom 5.0383018119774814 5.0486921717428475 9.7848360144062543 Ba
atom 0.0536576814379216 0.0008785627466514 14.7017099147561421 Ba
atom 5.0416730971659716 0.0006640967975138 14.6921136072499561 Ba
atom -0.0053717484953593 5.0477089424588266 14.6921136072499579 Ba
atom 5.1005821907605355 5.0478030720692670 14.7042793934481946 Ba
atom 2.5322554113830411 2.5248779897231661 12.3006416531871512 Zr
atom 7.5792558432420698 2.5246529759157288 12.3017528027173508 Zr
atom 2.5322109975807567 7.5716978215770476 12.3017528027173491 Zr
atom 7.5791799207056494 7.5718024990457637 12.3032111318792179 Zr
atom 2.5347098866529714 2.5105139702262447 17.3127137589174040 Zr
atom 7.5816807180991113 2.5364900297283706 17.3137002819389743 Zr
atom 2.5346358724377942 7.5835348753896783 17.3137002819389743 Zr
atom 7.5816343959755930 7.5574384795488401 17.3152832376094814 Zr
atom 2.5250500203126838 3.0291751145336305 9.8194199185432627 S
atom 7.5726809840896658 2.0215110442074034 9.8203929251743620 S
atom 2.5256361384283537 7.0685558898687137 9.8203929251743620 S
atom 7.5719745296353080 8.0760996238562317 9.8219893972353187 S
atom 2.5316217486381349 2.0518280772444126 14.7729011710187432 S
atom 7.5780756294316367 2.9964731593786871 14.7743453762852557 S
atom 2.5310307837703157 8.0435180050400028 14.7743453762852557 S
atom 7.5785462579607410 7.0987525865670129 14.7754706497108064 S
atom 2.4643041439947120 0.0014181844952431 11.8346330928262571 S
atom 7.6282385211968240 0.0011345745045558 12.7601153450260991 S
atom 2.5811936755354945 5.0481794201658943 12.7601153450260991 S
atom 7.5112286533173283 5.0483426938178537 11.8372025715183185 S
atom 2.5323116709806008 -0.0000359078754199 17.6283912751569041 S
atom 7.5839795538946717 0.0000876698897761 16.8392652693279743 S
atom 2.5369347082333462 5.0471325155510911 16.8392652693279707 S
atom 7.5792361803032211 5.0468886014471730 17.6309607538489637 S
atom 0.0052936020525880 2.5936342355488224 12.2920623395631043 S
atom 5.0522798073488655 2.4559672683912734 12.2926254772484338 S
atom 0.0052349616875377 7.5030121140525869 12.2926254772484338 S
atom 5.0522181113751898 7.6405587448714218 12.2946318182551817 S
atom 0.0105515994777126 2.5242921120222177 17.1787590477331982 S
atom 5.0575051555736126 2.5228643127150523 17.1805104646282025 S
atom 0.0104603099122944 7.5699091583763671 17.1805104646282025 S
atom 5.0574761088003299 7.5712166213448162 17.1813285264252755 S
atom -0.1458807190215799 -0.0004354036800157 19.3519310093172976 Ba
atom 5.2119796373559657 -0.0005480260078467 19.3523276551351273 Ba
atom 0.1649347916946524 5.0464968196534539 19.3523276551351273 Ba
atom 4.9010437903010278 5.0464891056425998 19.3545004880093430 Ba
atom 2.5325586361171877 2.8790901813089333 19.7937334694976350 S
atom 7.5798766396422810 2.1666534596388658 19.7945401509004384 S
atom 2.5328317939809644 7.2136983053001700 19.7945401509004384 S
atom 7.5794831454397942 7.9260146906315212 19.7963029481897124 S
atom 2.5321670203135365 2.3666842026110331 22.8675528687679659 Ba
atom 7.5790992436470308 2.6774997133272604 22.8679495145857956 Ba
atom 2.5320543979857049 7.7245445589885833 22.8679495145857956 Ba
atom 7.5790915296361510 7.4136087119336409 22.8701223474600326 Ba
atom 2.5309548975081730 2.5369907428010445 27.5277669166531958 Ba
atom 7.5777852772203493 2.4779613128677660 27.5181706091469955 Ba
atom 2.5307404315590341 7.5250061585290773 27.5181706091469955 Ba
atom 7.5778794068307977 7.5839152521236519 27.5303363953452589 Ba
atom 5.0420534738999336 5.0439076311905007 24.9087497206561999 Zr
atom 10.1150743790633548 5.0438336169753146 24.9097362436777310 Zr
atom 5.0680295334020578 10.0908784626366383 24.9097362436777239 Zr
atom 10.0889779832225290 10.0908321405130987 24.9113191993482594 Zr
atom 5.0538905277125670 5.0463325060475412 29.9206971998777718 Zr
atom 10.1007103595664471 5.0462880922452564 29.9218083494080460 Zr
atom 5.0536655139051367 10.0933329379065633 29.9218083494080460 Zr
atom 10.1008150370352023 10.0932570153701402 29.9232666785698669 Zr
atom 5.4118900439894340 5.0457117096473274 22.4279098516947784 S
atom 9.7464981679807039 5.0459848675111099 22.4287165330975000 S
atom 4.6994533223193677 10.0930297131724309 22.4287165330975000 S
atom 10.4588145533120382 10.0926362189699361 22.4304793303868237 S
atom 4.5820703442496216 5.0475127198579912 27.4481046263099273 S
atom 10.5737602720451953 5.0469217549901604 27.4495488315764220 S
atom 5.5267154263838849 10.0939666006515107 27.4495488315764220 S
atom 9.6289948535722267 10.0944372291806115 27.4506741050020402 S
atom 5.0543717279447984 2.5210673948279765 25.0411214761698950 S
atom 10.1027240365745818 2.5210383480546796 25.0419395379669965 S
atom 5.0556791909132439 7.5680831937159940 25.0419395379669965 S
atom 10.1012962372673822 7.5679919041505874 25.0436909548619475 S
atom 4.9850296044181936 2.5263253922531077 29.9278181843399800 S
atom 10.1696210808983736 2.5262636962794374 29.9298245253467314 S
atom 5.1225762352370330 7.5733085419407642 29.9298245253467314 S
atom 10.0319541137407953 7.5732499015757160 29.9303876630320538 S
atom 2.5316549021811112 5.0463521689863944 24.5914892487462140 S
atom 7.5784558337385421 5.0416087953949491 25.3831847332672176 S
atom 2.5314109880772047 10.0886536410562488 25.3831847332672176 S
atom 7.5785794115037080 10.0932766783089960 24.5940587274382878 S
atom 2.5302008098104491 5.1143596959722863 30.3852474310768592 S
atom 7.5774089291237416 4.9973498280927942 29.4623346575690590 S
atom 2.5303640834624255 10.0443946737541108 29.4623346575690590 S
atom 7.5771253191330414 10.1612842052948977 30.3878169097689295 S
atom 2.5296250073074935 2.5192346475421203 32.3649036945916890 Ba
atom 7.5768961775467734 2.5402416916508268 32.4376139881889145 Ba
atom 2.5298513318854510 7.5872865373121430 32.4376139881889216 Ba
atom 7.5765495166301138 7.5661591568647166 32.3674731732837770 Ba
atom 2.5287359076339087 2.5815150263251772 37.2843470736336826 Ba
atom 7.5755662873460814 2.5224855963918991 37.2747507661275321 Ba
atom 2.5285214416847781 7.5695304420532095 37.2747507661275321 Ba
atom 7.5756604169565245 7.6284395356477868 37.2869165523256854 Ba
atom 5.0527353346104151 5.0601127562702883 34.8832788120647095 Zr
atom 10.0995551664643113 5.0600683424680089 34.8843899615948985 Zr
atom 5.0525103208029947 10.1071131881293361 34.8843899615949056 Zr
atom 10.0996598439330203 10.1070372655929006 34.8858482907567975 Zr
atom 5.0383713151135074 5.0625672315402337 39.8953509177950281 Zr
atom 10.1113922202769597 5.0624932173250423 39.8963374408165095 Zr
atom 5.0643473746156262 10.1095380629863456 39.8963374408165166 Zr
atom 10.0852958244361215 10.1094917408628024 39.8979203964870877 Zr
atom 5.5570324594209017 5.0529073651999399 32.4020570774208778 S
atom 9.5964132347559659 5.0534934833156031 32.4030300840518493 S
atom 4.5493683890946714 10.1005383289769028 32.4030300840518493 S
atom 10.6039569687434962 10.0998318745225397 32.4046265561128735 S
atom 4.5796854221316812 5.0594790935253933 37.3555383298962056 S
atom 10.5713753499272478 5.0588881286575642 37.3569825351627500 S
atom 5.5243305042659445 10.1059329743188595 37.3569825351627500 S
atom 9.6266099314542917 10.1064036028479887 37.3581078085883007 S
atom 5.1214915804360901 2.5331509469398443 34.8746994984406840 S
atom 10.0308694589398684 2.5330923065747886 34.8752626361259814 S
atom 4.9838246132785367 7.5801371522361274 34.8752626361259814 S
atom 10.1684160897586953 7.5800754562624437 34.8772689771327435 S
atom 5.0521494569094747 2.5384089443649671 39.7613962066107760 S
atom 10.0977665032636654 2.5383176547995556 39.7631476235057235 S
atom 5.0507216576023115 7.5853625004608656 39.7631476235057306 S
atom 10.0990739662321403 7.5853334536875794 39.7639656853027859 S
atom 2.5292755293825007 4.9921614888819708 34.4172702517037408 S
atom 7.5760367650531490 5.1090510204227586 35.3427525039036112 S
atom 2.5289919193918151 10.1560958660840601 35.3427525039036112 S
atom 7.5762000387051254 10.0390859982045733 34.4198397303957719 S
atom 2.5278214370118381 5.0601690158678645 40.2110284340343540 S
atom 7.5749898604383636 5.0647920531205983 39.4219024282053994 S
atom 2.5279450147770346 10.1118368987819096 39.4219024282053994 S
atom 7.5747459463344482 10.1070935251904981 40.2135979127264491 S
atom 2.5274219412072476 2.3819766258656783 41.9345681681947866 Ba
atom 7.5743541645407344 2.6927921365819079 41.9349648140127016 Ba
atom 2.5273093188794120 7.7398369822432276 41.9349648140127016 Ba
atom 7.5743464505298483 7.4289011351882852 41.9371376468869173 Ba
atom 5.4069475261962143 5.0604159810044411 42.3763706283751134 S
atom 9.7415556501874701 5.0606891388682200 42.3771773097779345 S
atom 4.6945108045261206 10.1077339845295224 42.3771773097779345 S
atom 10.4538720355188097 10.1073404903270507 42.3789401070671730 S
