#=======================================================
# FHI-aims file: sym_relax/sym_relax_RP_2_00Rz1_00Rz2.in
# Created using the Atomic Simulation Environment (ASE)
# Fri Mar 14 10:20:46 2025
#=======================================================
lattice_vector 9.9167085982150081 -0.0000000000002999 0.0000000000000000 
lattice_vector -0.0000000000002999 9.9167085982150063 0.0000000000000000 
lattice_vector 0.0000000000000000 0.0000000000000000 26.2251355369446166 
atom 0.0000000000000000 0.0000000000000000 0.1715187727238721 Ba
atom 4.9583542991075014 -0.0000000000001501 0.1715187727238721 Ba
atom -0.0000000000001501 4.9583542991075005 0.1715187727238721 Ba
atom 4.9583542991073521 4.9583542991073495 0.1715187727238721 Ba
atom 0.0000000000000000 0.0000000000000000 5.0432952955662751 Ba
atom 4.9583542991075014 -0.0000000000001501 5.0432952955662751 Ba
atom -0.0000000000001501 4.9583542991075005 5.0432952955662751 Ba
atom 4.9583542991073521 4.9583542991073495 5.0432952955662751 Ba
atom 2.4791771495536761 2.4791771495536747 2.4604738736363019 Zr
atom 7.4375314486611757 2.4791771495535260 2.4604738736363019 Zr
atom 2.4791771495535264 7.4375314486611757 2.4604738736363019 Zr
atom 7.4375314486610247 7.4375314486610291 2.4604738736363019 Zr
atom 2.4791771495536761 2.4791771495536747 7.6261167174962443 Zr
atom 7.4375314486611757 2.4791771495535260 7.6261167174962443 Zr
atom 2.4791771495535264 7.4375314486611757 7.6261167174962443 Zr
atom 7.4375314486610247 7.4375314486610291 7.6261167174962443 Zr
atom 2.4791771495536761 2.4791771495536747 -0.0911651136603091 S
atom 7.4375314486611757 2.4791771495535260 -0.0911651136603091 S
atom 2.4791771495535264 7.4375314486611757 -0.0911651136603091 S
atom 7.4375314486610247 7.4375314486610291 -0.0911651136603091 S
atom 2.4791771495536761 2.4791771495536747 5.0432952955662751 S
atom 7.4375314486611757 2.4791771495535260 5.0432952955662751 S
atom 2.4791771495535264 7.4375314486611757 5.0432952955662751 S
atom 7.4375314486610247 7.4375314486610291 5.0432952955662751 S
atom 2.0575676796592690 0.0000000000002053 2.5370934884470095 S
atom 7.8591409185557364 -0.0000000000005064 2.5370934884470095 S
atom 2.9007866194480809 4.9583542991071470 2.5370934884470095 S
atom 7.0159219787666247 4.9583542991075564 2.5370934884470095 S
atom 2.9007866194482324 -0.0000000000003554 7.5494971026855335 S
atom 7.0159219787667757 0.0000000000000560 7.5494971026855335 S
atom 2.0575676796591194 4.9583542991077012 7.5494971026855335 S
atom 7.8591409185555863 4.9583542991069978 7.5494971026855335 S
atom -0.0000000000003556 2.9007866194482324 2.5370934884470095 S
atom 4.9583542991077039 2.0575676796591189 2.5370934884470095 S
atom 0.0000000000000555 7.0159219787667766 2.5370934884470095 S
atom 4.9583542991069987 7.8591409185555854 2.5370934884470095 S
atom 0.0000000000002055 2.0575676796592708 7.5494971026855335 S
atom 4.9583542991071505 2.9007866194480822 7.5494971026855335 S
atom -0.0000000000005060 7.8591409185557364 7.5494971026855335 S
atom 4.9583542991075475 7.0159219787666203 7.5494971026855335 S
atom 0.0000000000000000 0.0000000000000000 9.9150718184086752 Ba
atom 4.9583542991075014 -0.0000000000001501 9.9150718184086752 Ba
atom -0.0000000000001501 4.9583542991075005 9.9150718184086752 Ba
atom 4.9583542991073521 4.9583542991073495 9.9150718184086752 Ba
atom 2.4791771495536761 2.4791771495536747 10.1777557047928475 S
atom 7.4375314486611757 2.4791771495535260 10.1777557047928475 S
atom 2.4791771495535264 7.4375314486611757 10.1777557047928475 S
atom 7.4375314486610247 7.4375314486610291 10.1777557047928475 S
atom 2.4791771495536761 2.4791771495536747 13.2840994731055133 Ba
atom 7.4375314486611757 2.4791771495535260 13.2840994731055133 Ba
atom 2.4791771495535264 7.4375314486611757 13.2840994731055133 Ba
atom 7.4375314486610247 7.4375314486610291 13.2840994731055133 Ba
atom 2.4791771495536761 2.4791771495536747 18.1558630640385914 Ba
atom 7.4375314486611757 2.4791771495535260 18.1558630640385914 Ba
atom 2.4791771495535264 7.4375314486611757 18.1558630640385914 Ba
atom 7.4375314486610247 7.4375314486610291 18.1558630640385914 Ba
atom 4.9583542991073521 4.9583542991073495 15.5730483523686019 Zr
atom 9.9167085982148535 4.9583542991072003 15.5730483523686019 Zr
atom 4.9583542991072003 9.9167085982148535 15.5730483523686019 Zr
atom 9.9167085982147043 9.9167085982146990 15.5730483523686019 Zr
atom 4.9583542991073521 4.9583542991073495 20.7386777757085632 Zr
atom 9.9167085982148535 4.9583542991072003 20.7386777757085632 Zr
atom 4.9583542991072003 9.9167085982148535 20.7386777757085632 Zr
atom 9.9167085982147043 9.9167085982146990 20.7386777757085632 Zr
atom 4.9583542991073521 4.9583542991073495 13.0214071093129551 S
atom 9.9167085982148535 4.9583542991072003 13.0214071093129551 S
atom 4.9583542991072003 9.9167085982148535 13.0214071093129551 S
atom 9.9167085982147043 9.9167085982146990 13.0214071093129551 S
atom 4.9583542991073521 4.9583542991073495 18.1558630640385914 S
atom 9.9167085982148535 4.9583542991072003 18.1558630640385914 S
atom 4.9583542991072003 9.9167085982148535 18.1558630640385914 S
atom 9.9167085982147043 9.9167085982146990 18.1558630640385914 S
atom 4.5367529196140417 2.4791771495535206 15.6496679174361191 S
atom 10.3383099777083256 2.4791771495535304 15.6496679174361191 S
atom 5.3799556786006599 7.4375314486611783 15.6496679174361191 S
atom 9.4951072187213814 7.4375314486608755 15.6496679174361191 S
atom 5.3799556786008118 2.4791771495536783 20.6620582106410531 S
atom 9.4951072187215271 2.4791771495533732 20.6620582106410531 S
atom 4.5367529196138907 7.4375314486610273 20.6620582106410531 S
atom 10.3383099777081799 7.4375314486610273 20.6620582106410531 S
atom 2.4791771495536796 5.3799556786008109 15.6496679174361191 S
atom 7.4375314486610229 4.5367529196138898 15.6496679174361191 S
atom 2.4791771495533719 9.4951072187215342 15.6496679174361191 S
atom 7.4375314486610202 10.3383099777081764 15.6496679174361191 S
atom 2.4791771495535224 4.5367529196140399 20.6620582106410531 S
atom 7.4375314486611774 5.3799556786006644 20.6620582106410531 S
atom 2.4791771495535300 10.3383099777083238 20.6620582106410531 S
atom 7.4375314486608781 9.4951072187213832 20.6620582106410531 S
atom 2.4791771495536761 2.4791771495536747 23.0276266549716482 Ba
atom 7.4375314486611757 2.4791771495535260 23.0276266549716482 Ba
atom 2.4791771495535264 7.4375314486611757 23.0276266549716482 Ba
atom 7.4375314486610247 7.4375314486610291 23.0276266549716482 Ba
atom 4.9583542991073521 4.9583542991073495 23.2903190187642224 S
atom 9.9167085982148535 4.9583542991072003 23.2903190187642224 S
atom 4.9583542991072003 9.9167085982148535 23.2903190187642224 S
atom 9.9167085982147043 9.9167085982146990 23.2903190187642224 S
