#=======================================================
# FHI-aims file: sym_relax/sym_relax_RP_7_00Rz_000.in
# Created using the Atomic Simulation Environment (ASE)
# Mon Mar 17 15:41:21 2025
#=======================================================
lattice_vector 10.0034226159761204 -0.0000000000000004 0.0000000000000000 
lattice_vector -0.0000000000000004 10.0034226159761204 -0.0000000000000000 
lattice_vector 0.0000000000000000 -0.0000000000000000 76.3927907311944949 
atom 0.0000000000000000 -0.0000000000000000 0.1649078511745784 Ba
atom 5.0017113079880602 -0.0000000000000000 0.1649078511745784 Ba
atom -0.0000000000000000 5.0017113079880602 0.1649078511745784 Ba
atom 5.0017113079880602 5.0017113079880602 0.1649078511745784 Ba
atom -0.0000000000000000 -0.0000000000000000 4.9274074486625903 Ba
atom 5.0017113079880602 -0.0000000000000000 4.9274074486625903 Ba
atom -0.0000000000000000 5.0017113079880602 4.9274074486625903 Ba
atom 5.0017113079880602 5.0017113079880602 4.9274074486625903 Ba
atom 2.5008556539940301 2.5008556539940301 2.3033873270118788 Zr
atom 7.5025669619820867 2.5008556539940301 2.3033873270118788 Zr
atom 2.5008556539940301 7.5025669619820867 2.3033873270118788 Zr
atom 7.5025669619820867 7.5025669619820867 2.3033873270118788 Zr
atom 2.5008556539940301 2.5008556539940301 7.4192622929035554 Zr
atom 7.5025669619820867 2.5008556539940301 7.4192622929035554 Zr
atom 2.5008556539940301 7.5025669619820867 7.4192622929035554 Zr
atom 7.5025669619820867 7.5025669619820867 7.4192622929035554 Zr
atom 2.5008556539940301 2.5008556539940301 -0.2062117198776167 S
atom 7.5025669619820867 2.5008556539940301 -0.2062117198776167 S
atom 2.5008556539940301 7.5025669619820867 -0.2062117198776168 S
atom 7.5025669619820867 7.5025669619820867 -0.2062117198776167 S
atom 2.5008556539940301 2.5008556539940301 4.9078752800663850 S
atom 7.5025669619820867 2.5008556539940301 4.9078752800663850 S
atom 2.5008556539940301 7.5025669619820867 4.9078752800663850 S
atom 7.5025669619820867 7.5025669619820867 4.9078752800663850 S
atom 2.2199557134806320 -0.0000000000000000 2.4293376616666902 S
atom 7.7834669024954781 0.0000000000000000 2.4293376616666902 S
atom 2.7817555945074219 5.0017113079880602 2.4293376616666902 S
atom 7.2216670214686927 5.0017113079880602 2.4293376616666902 S
atom 3.0098228798616078 0.0000000000000005 7.4457289579285924 S
atom 6.9935997361145095 -0.0000000000000000 7.4457289579285924 S
atom 1.9918884281264524 5.0017113079880602 7.4457289579285924 S
atom 8.0115341878496658 5.0017113079880602 7.4457289579285924 S
atom 0.0000000000000000 2.7817555945074228 2.4293376616666902 S
atom 5.0017113079880602 2.2199557134806320 2.4293376616666902 S
atom -0.0000000000000000 7.2216670214686927 2.4293376616666902 S
atom 5.0017113079880602 7.7834669024954799 2.4293376616666902 S
atom -0.0000000000000000 1.9918884281264526 7.4457289579285924 S
atom 5.0017113079880602 3.0098228798616091 7.4457289579285924 S
atom 0.0000000000000000 8.0115341878496658 7.4457289579285924 S
atom 5.0017113079880602 6.9935997361145095 7.4457289579285924 S
atom -0.0000000000000000 -0.0000000000000000 9.9845061338287859 Ba
atom 5.0017113079880602 -0.0000000000000000 9.9845061338287859 Ba
atom -0.0000000000000000 5.0017113079880602 9.9845061338287859 Ba
atom 5.0017113079880602 5.0017113079880602 9.9845061338287859 Ba
atom -0.0000000000000000 -0.0000000000000000 15.0551404996742608 Ba
atom 5.0017113079880602 -0.0000000000000000 15.0551404996742608 Ba
atom -0.0000000000000000 5.0017113079880602 15.0551404996742608 Ba
atom 5.0017113079880602 5.0017113079880602 15.0551404996742608 Ba
atom 2.5008556539940301 2.5008556539940301 12.5051127235808579 Zr
atom 7.5025669619820867 2.5008556539940301 12.5051127235808579 Zr
atom 2.5008556539940301 7.5025669619820867 12.5051127235808579 Zr
atom 7.5025669619820867 7.5025669619820867 12.5051127235808579 Zr
atom 2.5008556539940301 2.5008556539940301 17.5904452341566362 Zr
atom 7.5025669619820867 2.5008556539940301 17.5904452341566362 Zr
atom 2.5008556539940301 7.5025669619820867 17.5904452341566362 Zr
atom 7.5025669619820867 7.5025669619820867 17.5904452341566362 Zr
atom 2.5008556539940301 2.5008556539940301 9.9777157465274264 S
atom 7.5025669619820867 2.5008556539940301 9.9777157465274264 S
atom 2.5008556539940301 7.5025669619820867 9.9777157465274264 S
atom 7.5025669619820867 7.5025669619820867 9.9777157465274264 S
atom 2.5008556539940301 2.5008556539940301 15.0527150474610281 S
atom 7.5025669619820867 2.5008556539940301 15.0527150474610281 S
atom 2.5008556539940301 7.5025669619820867 15.0527150474610281 S
atom 7.5025669619820867 7.5025669619820867 15.0527150474610281 S
atom 1.9989064534036780 -0.0000000000000000 12.5216131332708400 S
atom 8.0045161625724397 0.0000000000000000 12.5216131332708400 S
atom 3.0028048545843786 5.0017113079880602 12.5216131332708400 S
atom 7.0006177613917302 5.0017113079880602 12.5216131332708400 S
atom 3.0029968720319120 0.0000000000000005 17.5904452341566362 S
atom 7.0004257439441995 -0.0000000000000000 17.5904452341566362 S
atom 1.9987144359561455 5.0017113079880602 17.5904452341566362 S
atom 8.0047081800199607 5.0017113079880602 17.5904452341566362 S
atom 0.0000000000000000 3.0028048545843791 12.5216131332708400 S
atom 5.0017113079880602 1.9989064534036780 12.5216131332708400 S
atom -0.0000000000000000 7.0006177613917320 12.5216131332708400 S
atom 5.0017113079880602 8.0045161625724397 12.5216131332708400 S
atom -0.0000000000000000 1.9987144359561440 17.5904452341566362 S
atom 5.0017113079880602 3.0029968720319133 17.5904452341566362 S
atom 0.0000000000000000 8.0047081800199642 17.5904452341566362 S
atom 5.0017113079880602 7.0004257439441995 17.5904452341566362 S
atom -0.0000000000000000 -0.0000000000000000 20.1257499686389174 Ba
atom 5.0017113079880602 -0.0000000000000000 20.1257499686389174 Ba
atom -0.0000000000000000 5.0017113079880602 20.1257499686389174 Ba
atom 5.0017113079880602 5.0017113079880602 20.1257499686389174 Ba
atom -0.0000000000000000 -0.0000000000000000 25.1963843344844207 Ba
atom 5.0017113079880602 -0.0000000000000000 25.1963843344844207 Ba
atom -0.0000000000000000 5.0017113079880602 25.1963843344844207 Ba
atom 5.0017113079880602 5.0017113079880602 25.1963843344844207 Ba
atom 2.5008556539940301 2.5008556539940301 22.6757777447324038 Zr
atom 7.5025669619820867 2.5008556539940301 22.6757777447324038 Zr
atom 2.5008556539940301 7.5025669619820867 22.6757777447324038 Zr
atom 7.5025669619820867 7.5025669619820867 22.6757777447324038 Zr
atom 2.5008556539940301 2.5008556539940301 27.7616281754096867 Zr
atom 7.5025669619820867 2.5008556539940301 27.7616281754096867 Zr
atom 2.5008556539940301 7.5025669619820867 27.7616281754096867 Zr
atom 7.5025669619820867 7.5025669619820867 27.7616281754096867 Zr
atom 2.5008556539940301 2.5008556539940301 20.1281754208522159 S
atom 7.5025669619820867 2.5008556539940301 20.1281754208522159 S
atom 2.5008556539940301 7.5025669619820867 20.1281754208522159 S
atom 7.5025669619820867 7.5025669619820867 20.1281754208522159 S
atom 2.5008556539940301 2.5008556539940301 25.2031747217857678 S
atom 7.5025669619820867 2.5008556539940301 25.2031747217857678 S
atom 2.5008556539940301 7.5025669619820867 25.2031747217857678 S
atom 7.5025669619820867 7.5025669619820867 25.2031747217857678 S
atom 1.9989064534036780 -0.0000000000000000 22.6592773350423826 S
atom 8.0045161625724397 0.0000000000000000 22.6592773350423826 S
atom 3.0028048545843786 5.0017113079880602 22.6592773350423826 S
atom 7.0006177613917302 5.0017113079880602 22.6592773350423826 S
atom 3.0098228798616078 0.0000000000000005 27.7351615103846498 S
atom 6.9935997361145095 -0.0000000000000000 27.7351615103846498 S
atom 1.9918884281264524 5.0017113079880602 27.7351615103846498 S
atom 8.0115341878496658 5.0017113079880602 27.7351615103846498 S
atom 0.0000000000000000 3.0028048545843791 22.6592773350423826 S
atom 5.0017113079880602 1.9989064534036780 22.6592773350423826 S
atom -0.0000000000000000 7.0006177613917320 22.6592773350423826 S
atom 5.0017113079880602 8.0045161625724397 22.6592773350423826 S
atom -0.0000000000000000 1.9918884281264526 27.7351615103846498 S
atom 5.0017113079880602 3.0098228798616091 27.7351615103846498 S
atom 0.0000000000000000 8.0115341878496658 27.7351615103846498 S
atom 5.0017113079880602 6.9935997361145095 27.7351615103846498 S
atom -0.0000000000000000 -0.0000000000000000 30.2534830196506270 Ba
atom 5.0017113079880602 -0.0000000000000000 30.2534830196506270 Ba
atom -0.0000000000000000 5.0017113079880602 30.2534830196506270 Ba
atom 5.0017113079880602 5.0017113079880602 30.2534830196506270 Ba
atom 0.0000000000000000 -0.0000000000000000 35.0159826171386470 Ba
atom 5.0017113079880602 -0.0000000000000000 35.0159826171386470 Ba
atom -0.0000000000000000 5.0017113079880602 35.0159826171386470 Ba
atom 5.0017113079880602 5.0017113079880602 35.0159826171386470 Ba
atom 2.5008556539940301 2.5008556539940301 32.8775031413013465 Zr
atom 7.5025669619820867 2.5008556539940301 32.8775031413013465 Zr
atom 2.5008556539940301 7.5025669619820867 32.8775031413013465 Zr
atom 7.5025669619820867 7.5025669619820867 32.8775031413013465 Zr
atom 2.5008556539940301 2.5008556539940301 30.2730151882468412 S
atom 7.5025669619820867 2.5008556539940301 30.2730151882468412 S
atom 2.5008556539940301 7.5025669619820867 30.2730151882468412 S
atom 7.5025669619820867 7.5025669619820867 30.2730151882468412 S
atom 2.5008556539940301 2.5008556539940301 35.3871021881908447 S
atom 7.5025669619820867 2.5008556539940301 35.3871021881908447 S
atom 2.5008556539940301 7.5025669619820867 35.3871021881908447 S
atom 7.5025669619820867 7.5025669619820867 35.3871021881908447 S
atom 2.2199557134806320 -0.0000000000000000 32.7515528066465436 S
atom 7.7834669024954781 0.0000000000000000 32.7515528066465365 S
atom 2.7817555945074219 5.0017113079880602 32.7515528066465365 S
atom 7.2216670214686927 5.0017113079880602 32.7515528066465436 S
atom 0.0000000000000000 2.7817555945074228 32.7515528066465365 S
atom 5.0017113079880602 2.2199557134806320 32.7515528066465365 S
atom -0.0000000000000000 7.2216670214686927 32.7515528066465365 S
atom 5.0017113079880602 7.7834669024954799 32.7515528066465365 S
atom 2.5008556539940301 2.5008556539940301 38.5203056152066736 Ba
atom 7.5025669619820867 2.5008556539940301 38.5203056152066736 Ba
atom 2.5008556539940301 7.5025669619820867 38.5203056152066736 Ba
atom 7.5025669619820867 7.5025669619820867 38.5203056152066736 Ba
atom 2.5008556539940301 2.5008556539940301 43.3294378706339813 Ba
atom 7.5025669619820867 2.5008556539940301 43.3294378706339813 Ba
atom 2.5008556539940301 7.5025669619820867 43.3294378706339813 Ba
atom 7.5025669619820867 7.5025669619820867 43.3294378706339813 Ba
atom 5.0017113079880602 5.0017113079880602 40.5897210658457084 Zr
atom 10.0034226159761204 5.0017113079880602 40.5897210658457084 Zr
atom 5.0017113079880602 10.0034226159761204 40.5897210658457084 Zr
atom 10.0034226159761204 10.0034226159761204 40.5897210658457084 Zr
atom 5.0017113079880602 5.0017113079880602 45.6794348425709700 Zr
atom 10.0034226159761204 5.0017113079880602 45.6794348425709700 Zr
atom 5.0017113079880602 10.0034226159761204 45.6794348425709700 Zr
atom 10.0034226159761204 10.0034226159761204 45.6794348425709700 Zr
atom 5.0017113079880602 5.0017113079880602 38.0839164333800468 S
atom 10.0034226159761204 5.0017113079880602 38.0839164333800468 S
atom 5.0017113079880602 10.0034226159761204 38.0839164333800468 S
atom 10.0034226159761204 10.0034226159761204 38.0839164333800468 S
atom 5.0017113079880602 5.0017113079880602 43.1752493683514018 S
atom 10.0034226159761204 5.0017113079880602 43.1752493683514018 S
atom 5.0017113079880602 10.0034226159761204 43.1752493683514018 S
atom 10.0034226159761204 10.0034226159761204 43.1752493683514018 S
atom 5.0017113079880602 2.5008552170174521 40.6998308189490245 S
atom 10.0034226159761204 2.5008560909706028 40.6998308189490245 S
atom 5.0017113079880602 7.5025673989586625 40.6998308189490245 S
atom 10.0034226159761204 7.5025665250055100 40.6998308189490245 S
atom 5.0017113079880602 2.5008558071242470 45.7063530857161808 S
atom 10.0034226159761204 2.5008555008638123 45.7063530857161808 S
atom 5.0017113079880602 7.5025668088518742 45.7063530857161808 S
atom 10.0034226159761204 7.5025671151122975 45.7063530857161808 S
atom 2.5008560909706055 5.0017113079880602 40.6998308189490245 S
atom 7.5025665250055118 5.0017113079880602 40.6998308189490245 S
atom 2.5008552170174507 10.0034226159761204 40.6998308189490245 S
atom 7.5025673989586625 10.0034226159761204 40.6998308189490245 S
atom 2.5008555008638136 5.0017113079880602 45.7063530857161808 S
atom 7.5025671151123001 5.0017113079880602 45.7063530857161808 S
atom 2.5008558071242470 10.0034226159761204 45.7063530857161808 S
atom 7.5025668088518769 10.0034226159761204 45.7063530857161808 S
atom 2.5008556539940301 2.5008556539940301 48.2831348805011089 Ba
atom 7.5025669619820867 2.5008556539940301 48.2831348805011089 Ba
atom 2.5008556539940301 7.5025669619820867 48.2831348805011089 Ba
atom 7.5025669619820867 7.5025669619820867 48.2831348805011089 Ba
atom 2.5008556539940301 2.5008556539940301 53.2831702857533074 Ba
atom 7.5025669619820867 2.5008556539940301 53.2831702857533074 Ba
atom 2.5008556539940301 7.5025669619820867 53.2831702857533074 Ba
atom 7.5025669619820867 7.5025669619820867 53.2831702857533074 Ba
atom 5.0017113079880602 5.0017113079880602 50.7352967288002645 Zr
atom 10.0034226159761204 5.0017113079880602 50.7352967288002645 Zr
atom 5.0017113079880602 10.0034226159761204 50.7352967288002645 Zr
atom 10.0034226159761204 10.0034226159761204 50.7352967288002645 Zr
atom 5.0017113079880602 5.0017113079880602 55.7868405997537948 Zr
atom 10.0034226159761204 5.0017113079880602 55.7868405997537948 Zr
atom 5.0017113079880602 10.0034226159761204 55.7868405997537948 Zr
atom 10.0034226159761204 10.0034226159761204 55.7868405997537948 Zr
atom 5.0017113079880602 5.0017113079880602 48.2199813535552906 S
atom 10.0034226159761204 5.0017113079880602 48.2199813535552906 S
atom 5.0017113079880602 10.0034226159761204 48.2199813535552906 S
atom 10.0034226159761204 10.0034226159761204 48.2199813535552906 S
atom 5.0017113079880602 5.0017113079880602 53.2644426245617026 S
atom 10.0034226159761204 5.0017113079880602 53.2644426245617026 S
atom 5.0017113079880602 10.0034226159761204 53.2644426245617026 S
atom 10.0034226159761204 10.0034226159761204 53.2644426245617026 S
atom 5.0017113079880602 2.5008556235796995 50.7465910949194310 S
atom 10.0034226159761204 2.5008556844083558 50.7465910949194310 S
atom 5.0017113079880602 7.5025669923964200 50.7465910949194310 S
atom 10.0034226159761204 7.5025669315677579 50.7465910949194310 S
atom 5.0017113079880602 2.5008556513058195 55.7868405997537948 S
atom 10.0034226159761204 2.5008556566822371 55.7868405997537948 S
atom 5.0017113079880602 7.5025669646702999 55.7868405997537948 S
atom 10.0034226159761204 7.5025669592938691 55.7868405997537948 S
atom 2.5008556844083540 5.0017113079880602 50.7465910949194310 S
atom 7.5025669315677588 5.0017113079880602 50.7465910949194310 S
atom 2.5008556235796999 10.0034226159761204 50.7465910949194310 S
atom 7.5025669923964209 10.0034226159761204 50.7465910949194310 S
atom 2.5008556566822380 5.0017113079880602 55.7868405997537948 S
atom 7.5025669592938709 5.0017113079880602 55.7868405997537948 S
atom 2.5008556513058195 10.0034226159761204 55.7868405997537948 S
atom 7.5025669646702999 10.0034226159761204 55.7868405997537948 S
atom 2.5008556539940301 2.5008556539940301 58.2905109137544031 Ba
atom 7.5025669619820867 2.5008556539940301 58.2905109137544031 Ba
atom 2.5008556539940301 7.5025669619820867 58.2905109137544031 Ba
atom 7.5025669619820867 7.5025669619820867 58.2905109137544031 Ba
atom 2.5008556539940301 2.5008556539940301 63.2905463190066229 Ba
atom 7.5025669619820867 2.5008556539940301 63.2905463190066229 Ba
atom 2.5008556539940301 7.5025669619820867 63.2905463190066229 Ba
atom 7.5025669619820867 7.5025669619820867 63.2905463190066229 Ba
atom 5.0017113079880602 5.0017113079880602 60.8383844707074317 Zr
atom 10.0034226159761204 5.0017113079880602 60.8383844707074317 Zr
atom 5.0017113079880602 10.0034226159761204 60.8383844707074317 Zr
atom 10.0034226159761204 10.0034226159761204 60.8383844707074317 Zr
atom 5.0017113079880602 5.0017113079880602 65.8942463569366765 Zr
atom 10.0034226159761204 5.0017113079880602 65.8942463569366765 Zr
atom 5.0017113079880602 10.0034226159761204 65.8942463569366765 Zr
atom 10.0034226159761204 10.0034226159761204 65.8942463569366765 Zr
atom 5.0017113079880602 5.0017113079880602 58.3092385749459368 S
atom 10.0034226159761204 5.0017113079880602 58.3092385749459368 S
atom 5.0017113079880602 10.0034226159761204 58.3092385749459368 S
atom 10.0034226159761204 10.0034226159761204 58.3092385749459368 S
atom 5.0017113079880602 5.0017113079880602 63.3536998459523133 S
atom 10.0034226159761204 5.0017113079880602 63.3536998459523133 S
atom 5.0017113079880602 10.0034226159761204 63.3536998459523133 S
atom 10.0034226159761204 10.0034226159761204 63.3536998459523133 S
atom 5.0017113079880602 2.5008556235796990 60.8270901045882439 S
atom 10.0034226159761204 2.5008556844083554 60.8270901045882439 S
atom 5.0017113079880602 7.5025669923964200 60.8270901045882439 S
atom 10.0034226159761204 7.5025669315677579 60.8270901045882439 S
atom 5.0017113079880602 2.5008558071242484 65.8673281137915723 S
atom 10.0034226159761204 2.5008555008638136 65.8673281137915723 S
atom 5.0017113079880602 7.5025668088518760 65.8673281137915723 S
atom 10.0034226159761204 7.5025671151122992 65.8673281137915723 S
atom 2.5008556844083558 5.0017113079880602 60.8270901045882439 S
atom 7.5025669315677588 5.0017113079880602 60.8270901045882439 S
atom 2.5008556235796999 10.0034226159761204 60.8270901045882439 S
atom 7.5025669923964191 10.0034226159761204 60.8270901045882439 S
atom 2.5008555008638118 5.0017113079880602 65.8673281137915723 S
atom 7.5025671151123010 5.0017113079880602 65.8673281137915723 S
atom 2.5008558071242470 10.0034226159761204 65.8673281137915723 S
atom 7.5025668088518742 10.0034226159761204 65.8673281137915723 S
atom 2.5008556539940301 2.5008556539940301 68.2442433288736936 Ba
atom 7.5025669619820867 2.5008556539940301 68.2442433288736936 Ba
atom 2.5008556539940301 7.5025669619820867 68.2442433288736936 Ba
atom 7.5025669619820867 7.5025669619820867 68.2442433288736936 Ba
atom 2.5008556539940301 2.5008556539940301 73.0533755843009658 Ba
atom 7.5025669619820867 2.5008556539940301 73.0533755843009658 Ba
atom 2.5008556539940301 7.5025669619820867 73.0533755843009658 Ba
atom 7.5025669619820867 7.5025669619820867 73.0533755843009658 Ba
atom 5.0017113079880602 5.0017113079880602 70.9839601336619523 Zr
atom 10.0034226159761204 5.0017113079880602 70.9839601336619523 Zr
atom 5.0017113079880602 10.0034226159761204 70.9839601336619523 Zr
atom 10.0034226159761204 10.0034226159761204 70.9839601336619523 Zr
atom 5.0017113079880602 5.0017113079880602 68.3984318311561879 S
atom 10.0034226159761204 5.0017113079880602 68.3984318311561879 S
atom 5.0017113079880602 10.0034226159761204 68.3984318311561879 S
atom 10.0034226159761204 10.0034226159761204 68.3984318311561879 S
atom 5.0017113079880602 5.0017113079880602 73.4897647661274789 S
atom 10.0034226159761204 5.0017113079880602 73.4897647661274789 S
atom 5.0017113079880602 10.0034226159761204 73.4897647661274789 S
atom 10.0034226159761204 10.0034226159761204 73.4897647661274789 S
atom 5.0017113079880602 2.5008552170174538 70.8738503805585083 S
atom 10.0034226159761204 2.5008560909706046 70.8738503805585083 S
atom 5.0017113079880602 7.5025673989586661 70.8738503805585083 S
atom 10.0034226159761204 7.5025665250055154 70.8738503805585083 S
atom 2.5008560909706046 5.0017113079880602 70.8738503805585083 S
atom 7.5025665250055118 5.0017113079880602 70.8738503805585083 S
atom 2.5008552170174507 10.0034226159761204 70.8738503805585083 S
atom 7.5025673989586625 10.0034226159761204 70.8738503805585083 S
