lattice_vector   -2.4772084300000001     2.4772084300000001    12.6664911199999999
lattice_vector    2.4772084300000001    -2.4772084300000001    12.6664911199999999
lattice_vector    2.4772084300000001     2.4772084300000001   -12.6664911199999999
atom_frac     0.0000000000000000     0.0000000000000000     0.0000000000000000 Ba
atom_frac     0.1803318828821152     0.1807312771178851     0.0000000000000004 Ba
atom_frac     0.8196681171178847     0.8192687228821148     0.9999999999999997 Ba
atom_frac     0.5000000000000000     0.5000000000000000     0.0000000000000000 S
atom_frac     0.3018143817416484     0.3000140182583499     0.9999999999999982 S
atom_frac     0.6981856182583516     0.6999859817416502     0.0000000000000017 S
atom_frac     0.9039262832079860     0.4043753790809250     0.5002543646483166 S
atom_frac     0.4036718209190756     0.9041209167920143     0.4997456353516842 S
atom_frac     0.0960737167920140     0.5956246209190749     0.4997456353516833 S
atom_frac     0.5963281790809244     0.0958790832079857     0.5002543646483159 S
atom_frac     0.3992844994221616     0.3996591205778386     0.0000000000000004 Zr
atom_frac     0.6007155005778384     0.6003408794221613     0.9999999999999997 Zr
