lattice_vector   -2.4810521300000001     2.4810521300000001    17.6247548199999997
lattice_vector    2.4810521300000001    -2.4810521300000001    17.6247548199999997
lattice_vector    2.4810521300000001     2.4810521300000001   -17.6247548199999997
atom_frac     0.4325464640911484     0.4325464640911484     0.9999776662101069 Ba
atom_frac     0.5674535359088515     0.5674535359088515     0.0000223337898931 Ba
atom_frac     0.3002589593778656     0.3002589593778655     0.9994861827482742 Ba
atom_frac     0.6997410406221345     0.6997410406221345     0.0005138172517258 Ba
atom_frac     0.5000000000000000     1.0000000000000000     0.5000000000000000 S
atom_frac     0.0000000000000000     0.5000000000000000     0.5000000000000000 S
atom_frac     0.9289357267791012     0.9289357267791011     0.9992210426335731 S
atom_frac     0.0710642732208989     0.0710642732208989     0.0007789573664269 S
atom_frac     0.7857246592730642     0.7857246592730641     0.9989538841670359 S
atom_frac     0.2142753407269359     0.2142753407269359     0.0010461158329642 S
atom_frac     0.8614916479107740     0.3609341183927818     0.5008325063763814 S
atom_frac     0.3609341183927818     0.8614916479107741     0.5008325063763815 S
atom_frac     0.1385083520892260     0.6390658816072183     0.4991674936236186 S
atom_frac     0.6390658816072183     0.1385083520892259     0.4991674936236186 S
atom_frac     0.0000000000000000     0.0000000000000000     0.0000000000000000 Zr
atom_frac     0.8567772321099575     0.8567772321099575     0.0002961231753263 Zr
atom_frac     0.1432227678900424     0.1432227678900424     0.9997038768246737 Zr
