#=======================================================
# FHI-aims file: full_relax/full_relax_RP_4_RxRyRz_-Rx-RyRz.in
# Created using the Atomic Simulation Environment (ASE)
# Fri Mar 14 11:26:54 2025
#=======================================================
lattice_vector 10.0213543806661320 0.0113548844545819 0.0000000000639600 
lattice_vector 0.0113548844548508 10.0213543809427197 -0.0000000001353800 
lattice_vector 0.0000000002951264 -0.0000000006257556 45.8294738663249390 
atom -0.0059521104880198 -0.1185829570670898 0.2359749316464888 Ba
atom 5.1292601627966921 0.0116294233672483 0.2359749436185354 Ba
atom 0.1242601993028823 5.0166292265626611 0.2359752248898657 Ba
atom 5.0104026098886489 4.8977716918614336 0.2359741518272376 Ba
atom -0.2563117105930917 0.2100375361835513 4.9921819075962084 Ba
atom 4.8006397194899337 0.2619891476732146 4.9921818707380874 Ba
atom -0.2043600043577479 5.2669888307850119 4.9921818716462925 Ba
atom 4.7600429077095505 5.2263921159466875 4.9921818887358516 Ba
atom 2.4615369988193270 2.5432210041225174 2.3868348004075894 Zr
atom 7.4838109767939942 2.5604952251276236 2.3868349074499120 Zr
atom 2.4788111937704356 7.5654945768820605 2.3868348626472127 Zr
atom 7.4778916218428657 7.5595753933378314 2.3868345728742839 Zr
atom 2.4346105484031431 2.5649475246829549 7.4473165370006287 Zr
atom 7.4620844760325724 2.5874215178827318 7.4473160845128161 Zr
atom 2.4570846054850795 7.5924211402253858 7.4473163396766147 Zr
atom 7.4509652734955658 7.5813020403788975 7.4473166177955292 Zr
atom 2.6007778837967472 2.7594925629364808 -0.1154586873083265 S
atom 7.2675392312668610 2.4212542440812039 -0.1154586686352816 S
atom 2.2625395242803990 7.4262539844812387 -0.1154588086186496 S
atom 7.6171325220727546 7.7758472443016942 -0.1154594007767108 S
atom 2.2325489179285158 2.2680803454104286 4.9462783338568466 S
atom 7.7589514339438717 2.7894830835778390 4.9462775154333176 S
atom 2.7539517105262683 7.7944829366379809 4.9462777552180617 S
atom 7.2489034961914651 7.2844350348203237 4.9462782743588658 S
atom 2.7048975801845363 0.0490539574143986 2.2443555862406641 S
atom 7.2093602524754008 0.0581989459003632 2.7288087793991167 S
atom 2.2043606024222466 5.0631982625181911 2.7288085761890364 S
atom 7.7212522723976447 5.0654079815504467 2.2443556087311776 S
atom 2.8296085487441629 0.0474807257388706 7.7044072756635273 S
atom 7.0911240917043168 0.0567662190490426 7.1996903510144978 S
atom 2.0861243579766593 5.0617655560865584 7.1996902968994778 S
atom 7.8459631268700845 5.0638349983715365 7.7044073267855673 S
atom -0.0433759278762148 2.3057796199761738 2.2443556167240191 S
atom 4.9638331855197562 2.8176714142766719 2.7288086674793437 S
atom -0.0411665266545459 7.8226712673096115 2.7288087475948246 S
atom 4.9729787053293455 7.3221343766248621 2.2443557900583637 S
atom -0.0418032112559973 2.1810686451690922 7.7044073253036514 S
atom 4.9652661837266114 2.9359076724842801 7.1996903704043920 S
atom -0.0397335809722828 7.9409074719095987 7.1996902717459532 S
atom 4.9745514460453730 7.1974232777357887 7.7044072778561050 S
atom -0.0191445780648797 -0.0191446877732673 9.9629291996400404 Ba
atom 5.0298218064539695 0.0248220457553473 9.9629291999573333 Ba
atom 0.0248221603589843 5.0298219025217179 9.9629291496416101 Ba
atom 4.9972098884285385 4.9972099554448777 9.9629291449036863 Ba
atom 0.2100375301188062 -0.2563117736809367 14.9336763264206507 Ba
atom 5.2669888130012534 -0.2043600004936555 14.9336763199455689 Ba
atom 0.2619891804044283 4.8006398316176568 14.9336763142640407 Ba
atom 5.2263919915201313 4.7600429761306486 14.9336763395136032 Ba
atom 2.5649474467621740 2.4346105674188294 12.4785417395275111 Zr
atom 7.5924211340672061 2.4570846516739246 12.4785419945754406 Zr
atom 2.5874213369764791 7.4620844862166962 12.4785420916967809 Zr
atom 7.5813021233885305 7.4509652739086754 12.4785417223480213 Zr
atom 2.5432208319140672 2.4615369914372782 17.5390233423055264 Zr
atom 7.5654948533179862 2.4788112503108413 17.5390233161157205 Zr
atom 2.5604952501295992 7.4838110552383448 17.5390228842580562 Zr
atom 7.5595754173955703 7.4778915621468718 17.5390233182400479 Zr
atom 2.7510314961781410 2.7510315119931930 9.9629285377669206 S
atom 7.2760003025604192 2.2710005819316659 9.9629285987049396 S
atom 2.2710005580109711 7.2760003339830428 9.9629287833337248 S
atom 7.7673860612248626 7.7673861366740633 9.9629288298953824 S
atom 2.2680802981181509 2.2325489176681881 14.9795798195337913 S
atom 7.7944829479650330 2.7539517478831335 14.9795802894788981 S
atom 2.7894831557676523 7.7589514845773984 14.9795804490516886 S
atom 7.2844349756575193 7.2489034983267846 14.9795799057801453 S
atom 2.1810685398278853 -0.0418032415115261 12.2214509368677984 S
atom 7.9409074061752509 -0.0397336770177219 12.7261679940361390 S
atom 2.9359077164011520 4.9652660107438784 12.7261680547569558 S
atom 7.1974232481206926 4.9745513298871042 12.2214509997760246 S
atom 2.3057796704289739 -0.0433760201499321 17.6815023444119355 S
atom 7.8226712877310751 -0.0411665291953288 17.1970491986681289 S
atom 2.8176715091963493 4.9638332460013945 17.1970492907966133 S
atom 7.3221342823788396 4.9729787202031153 17.6815022179606061 S
atom 0.0474806149701021 2.8296085787352787 12.2214510249673385 S
atom 5.0617659718514147 2.0861243578622077 12.7261680479312211 S
atom 0.0567661549511973 7.0911240755543909 12.7261680133656494 S
atom 5.0638353107525909 7.8459632522986347 12.2214509109031617 S
atom 0.0490536014696306 2.7048974782550355 17.6815022040928831 S
atom 5.0631984755878410 2.2043605682902645 17.1970491563335699 S
atom 0.0581987676039394 7.2093603238490198 17.1970492444263883 S
atom 5.0654079915177945 7.7212520890934462 17.6815022279052094 S
atom -0.1185830018553472 -0.0059520427145271 19.6898838239020080 Ba
atom 5.0166293448657377 0.1242604814606500 19.6898841048903179 Ba
atom 0.0116294662099261 5.1292601197996950 19.6898839554470371 Ba
atom 4.8977717714374762 5.0104025705438584 19.6898833330200915 Ba
atom 2.7594926226018446 2.6007778914201802 20.0413181842877108 S
atom 7.4262538338928525 2.2625393190762080 20.0413185722481622 S
atom 2.4212540985324513 7.2675391958542797 20.0413181177067052 S
atom 7.7758473541748625 7.6171326350279775 20.0413183586734860 S
atom 2.5141292699141555 2.6267603791341583 23.1507122001745707 Ba
atom 7.4002714155190263 2.5079026709806218 23.1507120764331980 Ba
atom 2.3952716987196103 7.5129024475123813 23.1507123411424089 Ba
atom 7.5304839853093455 7.6431149686374136 23.1507122282878903 Ba
atom 2.7644890790544898 2.2981401410586333 27.9069184600059472 Ba
atom 7.7288918005990332 2.2575431866290092 27.9069183889309613 Ba
atom 2.7238923838629163 7.2625425838119249 27.9069183920940347 Ba
atom 7.7808434471764105 7.3144944380955419 27.9069183261414651 Ba
atom 5.0629954951421032 4.9813111909199428 25.3015717660395332 Zr
atom 10.0620749778312266 4.9753914777016961 25.3015703019804477 Zr
atom 5.0570756674454502 9.9803912888117594 25.3015704230367824 Zr
atom 10.0793497266656953 9.9976658510906535 25.3015711680421873 Zr
atom 5.0899213637644776 4.9595843071734276 30.3620519990379840 Zr
atom 10.0838021721286797 4.9484651458288367 30.3620529857385471 Zr
atom 5.0788021923080588 9.9534653275969003 30.3620531157654057 Zr
atom 10.1062761116350952 9.9759394393767344 30.3620529065253173 Zr
atom 4.9237540528477917 4.7650393777788267 22.7992771273203623 S
atom 10.2783470886014729 5.1146326597583718 22.7992763885341709 S
atom 5.2733473520583471 10.1196324328730789 22.7992760379325610 S
atom 9.9401086217344421 9.7813939558460969 22.7992755257221091 S
atom 5.2919829918654413 5.2564516816688958 27.8610139474605845 S
atom 9.7869348460209391 4.7464036036034347 27.8610143524452596 S
atom 4.7819350017303357 9.7514031890036890 27.8610140070765020 S
atom 10.3083377910788059 10.2728062490881111 27.8610143051664565 S
atom 5.3201713799526047 2.4613334145696446 25.6435464392128871 S
atom 9.8246342158171274 2.4704788160141744 25.1590934092486513 S
atom 4.8196343245347393 7.4754787661877860 25.1590932834102610 S
atom 10.3365261066605978 7.4776881756195630 25.6435466405448018 S
atom 5.4384075309370719 2.4627666357746469 30.1144276709500005 S
atom 9.6999231087989006 2.4720516264712629 30.6191444566160627 S
atom 4.6949233223889619 7.4770510480094661 30.6191446346404099 S
atom 10.4547622157008444 7.4791203965308002 30.1144274377387653 S
atom 2.5606991334458744 4.7068602737504284 25.6435464633774579 S
atom 7.5679076912418370 5.2187522398671442 25.1590932128745237 S
atom 2.5629085110337555 10.2237519979831593 25.1590934497314436 S
atom 7.5770530152980422 9.7232149677433242 25.6435466775604510 S
atom 2.5592657975716953 4.5886243216111247 30.1144276784154634 S
atom 7.5663348212641051 5.3434634666798457 30.6191447282874663 S
atom 2.5613352670380887 10.3484630681168799 30.6191443550385252 S
atom 7.5756205598873896 9.6049788453556921 30.1144273698402039 S
atom 2.5273216228759847 2.5273218376016748 32.8776662600915373 Ba
atom 7.4997100263395202 2.4947102382779547 32.8776660826654066 Ba
atom 2.4947102388667215 7.4997101865382421 32.8776662430611637 Ba
atom 7.5436764402424821 7.5436764687930076 32.8776660697642527 Ba
atom 2.2981396070583378 2.7644888481629555 37.8484135559104757 Ba
atom 7.2625430642449436 2.7238919204241721 37.8484135605924621 Ba
atom 2.2575429318989095 7.7288921877223169 37.8484136096037460 Ba
atom 7.3144945617252883 7.7808438990799971 37.8484136129675903 Ba
atom 4.9595842270125337 5.0899211036823475 35.3932786734481866 Zr
atom 9.9534653003410050 5.0788019974962824 35.3932795359179835 Zr
atom 4.9484653009644219 10.0838021505038977 35.3932794508959390 Zr
atom 9.9759392120730244 10.1062759737951584 35.3932793278505784 Zr
atom 4.9813110176623860 5.0629951230916008 40.4537617174922985 Zr
atom 9.9803913958686028 5.0570756873488039 40.4537603126721095 Zr
atom 4.9753914082971145 10.0620752513201062 40.4537603134699069 Zr
atom 9.9976659170625375 10.0793496433252550 40.4537603990974404 Zr
atom 4.7735004104074417 4.7735003694082714 32.8776656869339590 S
atom 10.2698861302285138 5.2648863635759460 32.8776664757140935 S
atom 5.2648863592356818 10.2698860735800039 32.8776672604922027 S
atom 9.7898549669039721 9.7898549636719601 32.8776673426222601 S
atom 5.2564515757789732 5.2919832218516456 37.8943182628086603 S
atom 9.7514034746109139 4.7819352299766225 37.8943193430656891 S
atom 4.7464037840342392 9.7869348177793487 37.8943190664010672 S
atom 10.2728061567047675 10.3083375576148129 37.8943187171378284 S
atom 4.5886244360513304 2.5592655018586217 35.6409041775139386 S
atom 10.3484632460858155 2.5613355094209549 35.1361867779719930 S
atom 5.3434634860249526 7.5663355343806371 35.1361871358245850 S
atom 9.6049788933900153 7.5756207511878513 35.6409040402648216 S
atom 4.7068604384407635 2.5606989556481432 40.1117857714896644 S
atom 10.2237521472781552 2.5629082578091706 40.5962392679023978 S
atom 5.2187523300090897 7.5679075916651311 40.5962388524457509 S
atom 9.7232150378859590 7.5770531096313452 40.1117859181788603 S
atom 2.4627660213902005 5.4384075430043159 35.6409042656141963 S
atom 7.4770514970701196 4.6949232854992582 35.1361871380325681 S
atom 2.4720515791987574 9.6999228835320039 35.1361867817239286 S
atom 7.4791208585444879 10.4547621212733404 35.6409040179499925 S
atom 2.4613334663816651 5.3201714730812713 40.1117857260740251 S
atom 7.4754781765239313 4.8196344177296613 40.5962389703640767 S
atom 2.4704788030413312 9.8246340248206216 40.5962392574439264 S
atom 7.4776880667019503 10.3365261091438576 40.1117858919990553 S
atom 2.6267603395527495 2.5141293685452744 42.6046191737214102 Ba
atom 7.5129024435700673 2.3952718372106387 42.6046194252299628 Ba
atom 2.5079029093752068 7.4002716288177615 42.6046191838495929 Ba
atom 7.6431148464231695 7.5304839199644373 42.6046197333140100 Ba
atom 4.7650394400619067 4.9237540535762685 42.9560557872037379 S
atom 10.1196322954696516 5.2733471760662223 42.9560542639534901 S
atom 5.1146325530281604 10.2783470196101341 42.9560546668969465 S
atom 9.7813941231584582 9.9401088221017613 42.9560545421484647 S
