#=======================================================
# FHI-aims file: full_relax/full_relax_RP_7_RxRyRz_RxRy0.in
# Created using the Atomic Simulation Environment (ASE)
# Mon Mar 24 15:51:26 2025
#=======================================================
lattice_vector 9.9838983590946224 -0.0379430714185145 -0.0031662547280111 
lattice_vector -0.0379430714185066 9.9838983590937467 0.0031662547220958 
lattice_vector -0.0233113049588489 0.0233113049143447 76.3617541131745696 
atom 0.0260815826923587 -0.1135416537858618 0.1491498173476343 Ba
atom 5.1054908332499469 -0.0450531178606491 0.1475666840538648 Ba
atom 0.0945701182185650 4.9658675974390283 0.1507329391774808 Ba
atom 4.9990592263211457 4.8594359900902697 0.1491498164569340 Ba
atom -0.2881133510865794 0.2125526326326723 4.9553189196426040 Ba
atom 4.7793965471222233 0.2691418151259892 4.9537357922712211 Ba
atom -0.2315241678283063 5.2800625303492685 4.9569020470876879 Ba
atom 4.6848642924591637 5.1855302764432905 4.9553189195985299 Ba
atom 2.4394417133217727 2.5267485104729746 2.3374580530490077 Zr
atom 7.4381783109173814 2.5145643949017713 2.3358749260255962 Zr
atom 2.4272575957071787 7.5254851104782396 2.3390411809328766 Zr
atom 7.4124193568398704 7.4997261547250522 2.3374580526487594 Zr
atom 2.3975139629766788 2.5385006937989441 7.4207444800429272 Zr
atom 7.4264261300358889 2.5564921446743396 7.4191613500206559 Zr
atom 2.4155054148173494 7.5674128599976402 7.4223276032917047 Zr
atom 7.3704916070342961 7.5114783376930916 7.4207444811170138 Zr
atom 2.5548907288878246 2.7214526981271003 -0.1725421610637103 S
atom 7.2434741247872765 2.3991153784925681 -0.1741252936322120 S
atom 2.2325534091504227 7.4100360936668830 -0.1709590399893132 S
atom 7.5278683728799090 7.6944303418708300 -0.1725421602046582 S
atom 2.2294944065544140 2.2994396863764921 4.9141121435918853 S
atom 7.6654871374000457 2.7245117017573373 4.9125290215182345 S
atom 2.6545664221521794 7.7354324169676110 4.9156952782844803 S
atom 7.2024720504171391 7.2724173302218045 4.9141121425310583 S
atom 2.7490967982412671 0.0433098059737679 2.2179908124840155 S
atom 7.1149193239511472 0.0264992600893872 2.6608194582175422 S
atom 2.1039986084444249 5.0374199750277420 2.6639857128987066 S
atom 7.7220744420060887 5.0162874493955005 2.2179908126314301 S
atom 2.9199221450375754 0.0474867080715809 7.6409176992510286 S
atom 6.9949497281521147 0.0288286245647554 7.2424837515125482 S
atom 1.9840290129701461 5.0397493404657068 7.2456500063412568 S
atom 7.8928997889611798 5.0204643526518851 7.6409176992272281 S
atom -0.0622813238745740 2.2428523811054570 2.2195739396908842 S
atom 4.9275068332839300 2.8500074990257138 2.6624025855159741 S
atom -0.0834138841114076 7.8609282142702526 2.6655688402135027 S
atom 4.9106963225525035 7.2158300248298639 2.2195739397256342 S
atom -0.0664582412899757 2.0720270344236900 7.6425008265453389 S
atom 4.9251774805928346 2.9699770952541487 7.2440668789360370 S
atom -0.0857432339156564 7.9808978104280390 7.2472331337291722 S
atom 4.9065194016350429 7.0450046783525808 7.6425008265741479 S
atom 0.0042641724426997 -0.0760576878040046 9.9732084895149153 Ba
atom 5.0680068676603378 -0.0232357083631111 9.9716253621763435 Ba
atom 0.0570861519896193 4.9876850067610565 9.9747916168564430 Ba
atom 4.9772418166898538 4.8969199559104144 9.9732084895296982 Ba
atom 0.0544623593905672 0.0141492819545810 15.0432275062487228 Ba
atom 4.9777998974261441 -0.0734338952898607 15.0416443788615428 Ba
atom -0.0331208177356467 4.9374868204045477 15.0448106335890888 Ba
atom 5.0274400031458875 4.9871269262412188 15.0432275062164980 Ba
atom 2.4933412990802646 2.4920734941323417 12.4970028124850270 Zr
atom 7.4728533293338142 2.4606648087767509 12.4954196820936687 Zr
atom 2.4619326142088762 7.4715855241297557 12.4985859386674694 Zr
atom 7.4663189428139445 7.4650511380216988 12.4970028125451105 Zr
atom 2.4811210871448508 2.4918565565806725 17.5832986430035270 Zr
atom 7.4730702667467721 2.4728850207471065 17.5817155197194239 Zr
atom 2.4621495514585381 7.4838057360985681 17.5848817733094052 Zr
atom 7.4540987310184503 7.4648342004731782 17.5832986423887014 Zr
atom 2.5707877341728800 2.6776470840474205 9.9680868182447906 S
atom 7.2872797391596729 2.3832183739281856 9.9665036934854179 S
atom 2.2763590239669824 7.3941390891866563 9.9696699476114787 S
atom 7.5437653780441405 7.6506247278745549 9.9680868175572304 S
atom 2.4080255701695501 2.4470224084748771 15.0432200877432649 S
atom 7.5179044148330982 2.5459805378943332 15.0416369639081999 S
atom 2.5069836995756640 7.5569012531551900 15.0448032169393180 S
atom 7.3810032139876816 7.4200000522829912 15.0432200880254090 S
atom 2.0138455989551378 -0.0012718688730712 12.4366296302954158 S
atom 7.9980327278679368 -0.0185449208213601 12.5779931388808475 S
atom 2.9871120124874606 4.9923757939106128 12.5811593935157742 S
atom 6.9868232426735890 4.9717057744600890 12.4366296303344708 S
atom 2.9968540341584871 -0.0037564233527237 17.6183897304221873 S
atom 6.9763088556210464 -0.0234511767834362 17.5450413037797368 S
atom 1.9653881402774132 4.9874695365819566 17.5482075585663857 S
atom 7.9698316779121674 4.9692212186154450 17.6183897303002048 S
atom -0.0176996686282442 2.9781035805967679 12.4382127577567712 S
atom 4.9725510313413892 1.9668940955669556 12.5795762661748523 S
atom -0.0383696829372553 6.9778148107142499 12.5827425208531327 S
atom 4.9552779742354911 7.9510812244919347 12.4382127576973627 S
atom -0.0152151187288529 1.9950951455866412 17.6199728577952897 S
atom 4.9774572932208923 2.9886179676327260 17.5466244311281656 S
atom -0.0334634228839868 7.9995386831085478 17.5497906858051920 S
atom 4.9577625259837017 6.9680727891715248 17.6199728577823294 S
atom -0.0651978287770298 -0.0034138126730514 20.1233697825081208 Ba
atom 4.9953629923604419 0.0462262930987777 20.1217866551694655 Ba
atom -0.0155577229095421 5.0571470082505074 20.1249529098555691 Ba
atom 4.9077798150744405 4.9695638310843959 20.1233697824649056 Ba
atom -0.0149996415158200 0.0867931576801654 25.1933887997812214 Ba
atom 4.9051560220802068 -0.0039718928847606 25.1918056724012942 Ba
atom -0.1057646925731593 5.0069488214121503 25.1949719272699717 Ba
atom 4.9579780017070902 5.0597708005449089 25.1933887998910784 Ba
atom 2.4689008750596853 2.4916396188272660 22.6695944806244079 Zr
atom 7.4732872040248690 2.4851052323510618 22.6680113457894947 Zr
atom 2.4623664887636272 7.4960259479838056 22.6711776001097682 Zr
atom 7.4418785189379166 7.4646172630960752 22.6695944780220593 Zr
atom 2.5647282093519310 2.4452124190549309 27.7458528044626007 Zr
atom 7.5197144033479004 2.3892778958880645 27.7442696940052720 Zr
atom 2.5087936879706727 7.4001986104562079 27.7474359495272367 Zr
atom 7.5377058536470800 7.4181900628774189 27.7458528098012316 Zr
atom 2.5542166041957541 2.5366907047189819 20.1233772035851253 S
atom 7.4282361186885897 2.3997895038188308 20.1217940676078229 S
atom 2.4173154034175623 7.4107102190853231 20.1249603254619025 S
atom 7.5271942479964000 7.5096683485067866 20.1233772057471363 S
atom 2.3914544399585593 2.3060660286600321 25.1985104609452186 S
atom 7.6588607939890752 2.5625516677372899 25.1969273500272166 S
atom 2.6479400787835972 7.5734723829245443 25.2000936027181481 S
atom 7.3644320838474480 7.2790436726579930 25.1985104614162161 S
atom 1.9751301619018009 -0.0086626773591262 22.5854378957992523 S
atom 7.9593172906977072 -0.0259357392808240 22.7268014042119049 S
atom 2.9483965755104591 4.9849849790947047 22.7299676588309758 S
atom 6.9481078057001877 4.9643149696332332 22.5854378959352395 S
atom 2.9782131616687790 -0.0560362385139729 27.9209472820860540 S
atom 7.0532407444727632 -0.0746942990611854 27.5225133344158124 S
atom 2.0423200289746473 4.9362264178889488 27.5256795891371908 S
atom 7.9511908052531339 4.9169414067081831 27.9209472818736870 S
atom -0.0103088522518199 3.0168190177249787 22.5870210230186039 S
atom 4.9799418387721719 2.0056095324152192 22.7283845316211348 S
atom -0.0309788765513187 7.0165302480285714 22.7315507863920239 S
atom 4.9626687916616090 7.9897966611109119 22.5870210231796733 S
atom 0.0370646815224561 2.0137360180391628 27.9225304093466704 S
atom 5.0287004298690503 2.9116860786235526 27.5240964616168284 S
atom 0.0177797120344539 7.9226067937799698 27.5272627163420900 S
atom 5.0100423274888062 6.9867136620482331 27.9225304091648745 S
atom 0.2773778817085550 -0.2018171639041341 30.2112783699037450 Ba
atom 5.1937663428869509 -0.2963494173904307 30.2096952423903957 Ba
atom 0.1828456269157753 4.7145712986403376 30.2128614969115539 Ba
atom 5.2503555262086374 4.7711604807223988 30.2112783697300529 Ba
atom -0.0368170529714156 0.1242771228133028 35.0174474716495610 Ba
atom 4.8676720575031753 0.0178455150139595 35.0158643459272625 Ba
atom -0.1432486586285481 5.0287662309082481 35.0190306019774269 Ba
atom 4.9361605915719702 5.0972547674577493 35.0174474721948599 Ba
atom 2.5228004608825758 2.4569646056863554 32.8291392288933963 Zr
atom 7.5079622264915944 2.4312056467086895 32.8275561049704123 Zr
atom 2.4970415096647791 7.4421263627039549 32.8307223594373170 Zr
atom 7.4957781053563117 7.4299422495194225 32.8291392284823402 Zr
atom 2.7327477677844372 2.6842734263928749 30.2524851667284551 S
atom 7.2806533958867865 2.2212583402085873 30.2509019909491492 S
atom 2.2697326807647902 7.2321790554420780 30.2540682462291137 S
atom 7.7057254115196310 7.6572510703786998 30.2524851587566879 S
atom 2.4073514461715635 2.2622604159887278 35.3391394434257080 S
atom 7.7026664103075708 2.5466546643163315 35.3375563423567272 S
atom 2.6917456950555545 7.5575753797709968 35.3407225968209460 S
atom 7.3803290895258238 7.2352380594176910 35.3391394473503695 S
atom 2.8582435659114065 -0.0537068335349131 32.5026115769077109 S
atom 7.2240660920911077 -0.0705174350797472 32.9454402230949341 S
atom 2.2131453776649392 4.9404032733132972 32.9486064773227056 S
atom 7.8312212101771346 4.9192708046184812 32.5026115768637993 S
atom 0.0347353710797544 2.1337056145644926 32.5041947046117059 S
atom 5.0245234626937316 2.7408607335306474 32.9470233502807304 S
atom 0.0136027549592825 7.7517814489192052 32.9501896054155736 S
atom 5.0077130087983575 7.1066832577756403 32.5041947045267534 S
atom 2.5491807106553415 2.3365361608860971 38.4596996454683051 Ba
atom 7.6283906637904177 2.4048253983957264 38.4581165138222829 Ba
atom 2.6174699472938459 7.4157461122160813 38.4612827689934633 Ba
atom 7.5221583555341587 7.3095138029162410 38.4596996453501916 Ba
atom 2.2111921016013896 2.6910316312824052 43.2591973050417238 Ba
atom 7.2738951951920345 2.7428140059719346 43.2576141780323056 Ba
atom 2.2629744787741659 7.7537347183139129 43.2607804323020915 Ba
atom 7.1841697466973793 7.6640092720444279 43.2591973052349203 Ba
atom 4.9514867959808093 4.9864817101121517 40.6501483794944676 Zr
atom 9.9514227545143079 4.9754969566163387 40.6485652556013690 Zr
atom 4.9405020406952449 9.9864176700808365 40.6517315073748549 Zr
atom 9.9244644396123380 9.9594593500031365 40.6501483773347658 Zr
atom 4.9441208428033230 4.9979294026976513 45.7154394292450235 Zr
atom 9.9399750664176985 4.9828629108868476 45.7138562788819414 Zr
atom 4.9290543522423835 9.9937836257643706 45.7170225454764250 Zr
atom 9.9170984844908219 9.9709070473628216 45.7154394344627875 Zr
atom 5.0823044978737020 5.1977194158838973 38.1394811669076290 S
atom 9.7401850493701474 4.8446792519263919 38.1378980226439026 S
atom 4.7292643349795807 9.8555999683049613 38.1410642863880582 S
atom 10.0552821420741836 10.1706970594231088 38.1394811696787457 S
atom 4.7032059793957970 4.7060399757958669 43.2170997756254636 S
atom 10.2318644922003354 5.2237777725750858 43.2155166711592571 S
atom 5.2209437763639377 10.2346984880046961 43.2186829122877256 S
atom 9.6761836233748610 9.6790176201971825 43.2170997728255557 S
atom 5.2574052283217316 2.5041799365239141 40.4983716476483337 S
atom 9.6230371955630414 2.4883779017751508 40.9991317462840570 S
atom 4.6121164810447555 7.4992986320863109 41.0022980007058848 S
atom 10.2303828723856860 7.4771575990691153 40.4983716470712238 S
atom 5.3631126163143659 2.4975405398378463 46.0383608333178174 S
atom 9.5598081011608631 2.4824820680627049 45.4294152896203869 S
atom 4.5488873853592064 7.4934027830944636 45.4325815441067817 S
atom 10.3360902605063316 7.4705181827266944 46.0383608333348917 S
atom 2.4498262098381249 4.7075215924089298 40.4999547737262304 S
atom 7.4386058034316864 5.3148672710117939 41.0007148732819644 S
atom 2.4276850971138288 10.3257879853761185 41.0038811281029325 S
atom 7.4228038425614313 9.6804992383108974 40.4999547751679358 S
atom 2.4564655685543464 4.6018142069786805 46.0399439608988885 S
atom 7.4445016829599284 5.3780963664369184 45.4309984171482952 S
atom 2.4335809661202057 10.3890170817823524 45.4341646713973475 S
atom 7.4294432141999343 9.5747918507942362 46.0399439605456848 S
atom 2.7383430523748276 2.3261455473266812 48.2463521927309742 Ba
atom 7.6387812760968048 2.2156630530285266 48.2447690654590531 Ba
atom 2.6278605613415431 7.2265837704722751 48.2479353203647250 Ba
atom 7.7113206955287605 7.2991231935819947 48.2463521925256842 Ba
atom 2.1963335507437844 2.6833270574641657 53.2581132090418023 Ba
atom 7.2815997657365328 2.7576725565802538 53.2565300811390685 Ba
atom 2.2706790506959789 7.7685932725721809 53.2596963356829178 Ba
atom 7.1693111944337788 7.6563047021536281 53.2581132088700571 Ba
atom 4.9579628252918413 4.9901487635657942 50.7411292991250278 Zr
atom 9.9477557060759789 4.9690209270521741 50.7395461858637802 Zr
atom 4.9368349907020947 9.9799416419707683 50.7427124371895246 Zr
atom 9.9309404688037990 9.9631264074863548 50.7411292976447257 Zr
atom 4.9559542559705134 4.9900010298867814 55.7641757081719618 Zr
atom 9.9479034365637649 4.9710294955183656 55.7625925833350280 Zr
atom 4.9369827205436776 9.9819502114270673 55.7657588401783215 Zr
atom 9.9289318998861003 9.9629786737784283 55.7641757025524711 Zr
atom 5.2170881828441162 5.3115071045092836 48.2381707929846613 S
atom 9.6263973642294740 4.7098955699942575 48.2365876861361897 S
atom 4.6154766485243819 9.7208162851312725 48.2397539378332354 S
atom 10.1900658267351432 10.2844847488604998 48.2381707881645454 S
atom 4.6882619309912856 4.6677732895333950 53.2555696579722166 S
atom 10.2701311780762907 5.2387218209757176 53.2539864852849902 S
atom 5.2592104632658598 10.2496425365936563 53.2571527424617202 S
atom 9.6612395749685547 9.6407509331568750 53.2555696660307092 S
atom 5.3551923989200452 2.4929757631533622 50.4364648687051087 S
atom 9.5652064127589291 2.4772132516680090 51.0640392971293409 S
atom 4.5542856976052937 7.4881339585912787 51.0672055521554142 S
atom 10.3281700429693739 7.4659533983315631 50.4364648682886525 S
atom 5.3554564622692507 2.4922284882532648 56.0795080675265964 S
atom 9.5673727666054926 2.4768528566152810 55.4456770776927499 S
atom 4.5564520508464916 7.4877735737020590 55.4488433316906963 S
atom 10.3284341054177240 7.4652061341262623 56.0795080677215054 S
atom 2.4610303075751534 4.6097344258804958 50.4380479960246504 S
atom 7.4497705448957374 5.3726980530907049 51.0656224241281649 S
atom 2.4388498297733920 10.3836187692584225 51.0687886797160928 S
atom 7.4340079514347597 9.5827120689316008 50.4380479958863859 S
atom 2.4617776688594422 4.6094703601901008 56.0810911950517124 S
atom 7.4501308445512198 5.3705317021605561 55.4472602046048593 S
atom 2.4392101241814568 10.3814524172568330 55.4504264595038237 S
atom 7.4347553182421322 9.5824480039022291 56.0810911948923305 S
atom 2.7425973208598595 2.3236973594969763 58.2702381951168604 Ba
atom 7.6412294612907603 2.2114087903473805 58.2686550683130875 Ba
atom 2.6303087486555277 7.2223295051720013 58.2718213227294939 Ba
atom 7.7155749622934096 7.2966750031097662 58.2702381950738229 Ba
atom 2.2005878167755455 2.6808788690438474 63.2819992060034124 Ba
atom 7.2840479532890150 2.7534182928467366 63.2804160784752412 Ba
atom 2.2731272356162053 7.7643390083760693 63.2835823335185736 Ba
atom 7.1735654628337890 7.6538565129596172 63.2819992059406644 Ba
atom 4.9539456879418156 4.9898532966563147 60.7872220965154142 Zr
atom 9.9480511662168674 4.9730380632959799 60.7856389529335033 Zr
atom 4.9371304505870155 9.9839587801896599 60.7888052008297350 Zr
atom 9.9269233308098883 9.9628309413703811 60.7872221052897217 Zr
atom 4.9677876720262253 4.9820726593198170 65.8129119631632733 Zr
atom 9.9558318043466070 4.9591960790317602 65.8113288640742979 Zr
atom 4.9449110897081638 9.9701167944554658 65.8144951192090701 Zr
atom 9.9407653152516513 9.9550503027301076 65.8129119588648877 Zr
atom 5.2236465817113018 5.3122287720736239 58.2727817393582370 S
atom 9.6256756943985451 4.7033371697251196 58.2711986496849477 S
atom 4.6147549786027211 9.7142578849684096 58.2743649031936641 S
atom 10.1966242253720232 10.2852064154975356 58.2727817376594928 S
atom 4.6948203303059151 4.6684949570985204 63.2901806162740428 S
atom 10.2694095087975423 5.2321634208576491 63.2885974820551596 S
atom 5.2584887929937709 10.2430841361138665 63.2917637482290516 S
atom 9.6677979741460565 9.6414726006761988 63.2901806073444320 S
atom 5.3576228159502026 2.4918681094541730 60.4611458509095030 S
atom 9.5676368294876770 2.4761055788321404 61.0887202807210343 S
atom 4.5567161137103973 7.4870262929314615 61.0918865362147372 S
atom 10.3306004595262149 7.4648457523080589 60.4611458508043924 S
atom 5.3630211270520709 2.4865992636405356 66.0957698571281469 S
atom 9.5597166116345971 2.4715408208087419 65.4868243150113614 S
atom 4.5487958976951663 7.4824615372736618 65.4899905702912406 S
atom 10.3359987723047286 7.4595769089347570 66.0957698583380591 S
atom 2.4621379756558812 4.6073040081798586 60.4627289784419233 S
atom 7.4508781984731689 5.3702676373967124 61.0903034085178689 S
atom 2.4399574787358413 10.3811883524783397 61.0934696631081309 S
atom 7.4351156246880965 9.5802816514590159 60.4627289781122599 S
atom 2.4674068242211993 4.6019056959442199 66.0973529849425319 S
atom 7.4554429506295348 5.3781878543853834 65.4884074425333580 S
atom 2.4445222498812207 10.3891085692872913 65.4915736973350846 S
atom 7.4403844532353594 9.5748833403397668 66.0973529849379560 S
atom 2.7277387669013904 2.3159927887144587 68.2691540986830603 Ba
atom 7.6489340343283416 2.2262673429482831 68.2675709709910592 Ba
atom 2.6380133179324714 7.2371880573798144 68.2707372259159087 Ba
atom 7.7007164117191680 7.2889704315701733 68.2691540986845524 Ba
atom 2.3897501584006342 2.6704882590474353 73.0686517593779286 Ba
atom 7.2944385647473133 2.5642559484449854 73.0670686329584242 Ba
atom 2.2835178511474514 7.5751766634160944 73.0702348878004528 Ba
atom 7.3627278007558807 7.6434659025197691 73.0686517588971185 Ba
atom 4.9604217188168525 4.9935203587211934 70.8782030306878852 Zr
atom 9.9443841194624749 4.9665620351456807 70.8766199016336600 Zr
atom 4.9334634065642282 9.9774827491864979 70.8797861608272655 Zr
atom 9.9333993622247281 9.9664980020030782 70.8782030282413871 Zr
atom 5.2087025338937041 5.2739620857751071 68.3112516386536157 S
atom 9.6639423802745039 4.7182812179228302 68.3096684616577647 S
atom 4.6530216656646131 9.7292019334456228 68.3128347072442494 S
atom 10.1816801783794073 10.2469397298522686 68.3112516504872502 S
atom 4.8296040163748071 4.7822826475932807 73.3888702211751252 S
atom 10.1556218234988496 5.0973797387950741 73.3872871266972595 S
atom 5.1447011084225842 10.1083004539278818 73.3904533811446385 S
atom 9.8025816606917253 9.7552602919411218 73.3888702181069448 S
atom 5.2997920332666419 2.4807034641275836 70.5260533993611460 S
atom 9.6654240022715356 2.4649013632956924 71.0268134984921744 S
atom 4.6545032861354105 7.4758220832022646 71.0299797538611841 S
atom 10.2727696766422110 7.4536811117023607 70.5260533996997907 S
atom 2.4733027302850057 4.6651347912805496 70.5276365273376626 S
atom 7.4620822784592367 5.2724804698911507 71.0283966267429605 S
atom 2.4511615538943339 10.2834011853952703 71.0315628812461171 S
atom 7.4462803810712161 9.6381124357447536 70.5276365274626045 S
