#=======================================================
# FHI-aims file: full_relax/full_relax_RP_8_Rx0Rz_0Ry0.in
# Created using the Atomic Simulation Environment (ASE)
# Mon Mar 24 16:07:31 2025
#=======================================================
lattice_vector 9.9741474416661777 0.0000000000002427 0.0109776545712610 
lattice_vector 0.0000000000002396 10.0855053073510916 -0.0000000000004006 
lattice_vector 0.0945488125007648 -0.0000000000034896 85.6960659602119392 
atom -0.1965320191671996 -0.0000000000031357 0.1173627448640475 Ba
atom 5.0631974658358816 -0.0000000000029422 0.1210179617541012 Ba
atom 0.0761237485105745 5.0427526536737304 0.1155291333801558 Ba
atom 4.7905417056054684 5.0427526536737162 0.1228515719624311 Ba
atom -0.0937236849110700 -0.0000000000011179 4.8152967472166974 Ba
atom 4.8359064611049005 -0.0000000000014773 4.7864197548123695 Ba
atom -0.1511672527392021 5.0427526536724327 4.7809309255194830 Ba
atom 4.8933500481225245 5.0427526536722791 4.8207855632543586 Ba
atom 2.4360108407162842 2.5093154051632833 2.1908620054573182 Zr
atom 7.4230845616677081 2.5334372478897187 2.1963508328635557 Zr
atom 2.4360108407163938 7.5761899021822483 2.1908620054503549 Zr
atom 7.4230845616676158 7.5520680594577279 2.1963508328600692 Zr
atom 2.4594807126027636 2.5060511102769691 7.2722756068418368 Zr
atom 7.4465544329373419 2.5367015427443991 7.2777644352435473 Zr
atom 2.4594807126027156 7.5794541970695395 7.2722756068475407 Zr
atom 7.4465544329376963 7.5488037646027326 7.2777644352409547 Zr
atom 2.4467201361313369 2.7406868993027516 -0.2969325418051410 S
atom 7.4337938467128790 2.3020657553857031 -0.2914437144609141 S
atom 2.4467201361324693 7.3448184080407399 -0.2969325418160740 S
atom 7.4337938467120477 7.7834395519631219 -0.2914437144652690 S
atom 2.4585868874992611 2.2394561607186279 4.7733404653210210 S
atom 7.4456606248721489 2.8032964897881776 4.7788292928107055 S
atom 2.4585868874983241 7.8460491466278466 4.7733404653265810 S
atom 7.4456606248728949 7.2822088175596535 4.7788292928067122 S
atom 2.4052319716436390 -0.0000000000045748 2.0318606017687992 S
atom 7.4534911538433377 -0.0000000000024095 2.5526663332199071 S
atom 2.4664174331085889 5.0427526536748637 2.5471775071519596 S
atom 7.3923056919643955 5.0427526536742695 2.0373494321591186 S
atom 2.9342442045404851 -0.0000000000002186 7.5123077811082384 S
atom 7.0285485708496305 -0.0000000000008603 7.0709832505890411 S
atom 2.0414748505323397 5.0427526536712692 7.0654944249657348 S
atom 7.9213179234420226 5.0427526536736744 7.5177966099108948 S
atom -0.0538265451269725 2.5601073420937732 2.3133720434625800 S
atom 4.9332471756787832 2.4826453115665923 2.3188608847423557 S
atom -0.0538265451259734 7.5253979652526892 2.3133720434631595 S
atom 4.9332471756777654 7.6028599957803387 2.3188608847447845 S
atom -0.0276900599373201 2.0544363163702051 7.2958698311252395 S
atom 4.9593836610171742 2.9883163380615549 7.3013586420322527 S
atom -0.0276900599384007 8.0310689909768023 7.2958698311243779 S
atom 4.9593836610180277 7.0971889692864858 7.3013586420304746 S
atom -0.0610462205513934 -0.0000000000008270 9.8112005591383049 Ba
atom 5.0808669165125693 -0.0000000000009638 9.8337832197412993 Ba
atom 0.0937932058270098 5.0427526536733627 9.8282943828452254 Ba
atom 4.9260275073575901 5.0427526536732206 9.8166893776968180 Ba
atom 0.0910770709029666 -0.0000000000026637 14.8743834354677134 Ba
atom 4.9404183116493590 -0.0000000000024106 14.8703293697551882 Ba
atom -0.0466554029429475 5.0427526536741736 14.8648405347903658 Ba
atom 5.0781507983179246 5.0427526536746488 14.8798722548390998 Ba
atom 2.5029217459116668 2.5243748307754172 12.3324133896253940 Zr
atom 7.4899954666942303 2.5183778230358240 12.3379022171195398 Zr
atom 2.5029217459119000 7.5611304765721155 12.3324133896274510 Zr
atom 7.4899954666942383 7.5671274843116905 12.3379022171248263 Zr
atom 2.5122346613795981 2.5207646207670980 17.3987268473693248 Zr
atom 7.4993083821753350 2.5219880329360582 17.4042156748337007 Zr
atom 2.5122346613797908 7.5647406865805191 17.3987268473655874 Zr
atom 7.4993083821753386 7.5635172744115948 17.4042156748364931 Zr
atom 2.4771815392878462 2.7310483253657005 9.8139221910896364 S
atom 7.4642552430848470 2.3117043272617779 9.8194110188972665 S
atom 2.4771815392880474 7.3544569819815129 9.8139221910918906 S
atom 7.4642552430849518 7.7738009800856886 9.8194110188986841 S
atom 2.4995821629401438 2.3608304279250087 14.8709913488970660 S
atom 7.4866558996315131 2.6819222259754265 14.8764801760011984 S
atom 2.4995821629407424 7.7246748794222579 14.8709913488951724 S
atom 7.4866558996311783 7.4035830813720924 14.8764801760049572 S
atom 2.0417931992213334 -0.0000000000016787 12.1994564590057717 S
atom 7.9565644188898190 -0.0000000000016893 12.5006460105563324 S
atom 2.9694906974667217 5.0427526536737828 12.4951571833697148 S
atom 7.0288669194909259 5.0427526536733414 12.2049452863565513 S
atom 2.9855185431505968 -0.0000000000024457 17.5257456458034895 S
atom 7.0268477274295060 -0.0000000000026855 17.2851359921040739 S
atom 2.0397740064005530 5.0427526536738947 17.2796471651358594 S
atom 7.9725922637459972 5.0427526536747749 17.5312344733162355 S
atom 0.0042788264626167 3.0061789183203946 12.3454180841667398 S
atom 4.9913525471877538 2.0365737355856890 12.3509069272878307 S
atom 0.0042788264623560 7.0793263890270977 12.3454180841654377 S
atom 4.9913525471880860 8.0489315717619245 12.3509069272860241 S
atom 0.0170642093715574 2.0284338907148363 17.3994718160852422 S
atom 5.0041379303115141 3.0143187630724801 17.4049606286042184 S
atom 0.0170642093719074 8.0570714166326027 17.3994718160844357 S
atom 5.0041379303114528 7.0711865442746671 17.4049606286045453 S
atom -0.0431572424060055 -0.0000000000029354 19.9244088707752809 Ba
atom 5.0742071492093705 -0.0000000000024820 19.9397152944268683 Ba
atom 0.0871334343432349 5.0427526536740874 19.9342264592680500 Ba
atom 4.9439164842317993 5.0427526536742091 19.9298976907860279 Ba
atom 0.0906315942624642 -0.0000000000017577 24.9937947962729226 Ba
atom 4.9399728348732266 -0.0000000000020317 24.9897407303864298 Ba
atom -0.0471008787147119 5.0427526536730776 24.9842518945652365 Ba
atom 5.0777053224089421 5.0427526536731184 24.9992836144400563 Ba
atom 2.5188152511916901 2.5207646206604708 22.4653973100971953 Zr
atom 7.5058889722979876 2.5219880328296198 22.4708861375276605 Zr
atom 2.5188152511916577 7.5647406866864353 22.4653973100972131 Zr
atom 7.5058889722981759 7.5635172745180652 22.4708861375209032 Zr
atom 2.5281281669416211 2.5243748305651637 27.5317107677383319 Zr
atom 7.5152018874974624 2.5183778228252134 27.5371995953473672 Zr
atom 2.5281281669415678 7.5611304767815213 27.5317107677392947 Zr
atom 7.5152018874976889 7.5671274845213388 27.5371995953448625 Zr
atom 2.5155249642493516 2.6694196133881096 19.9320620786956191 S
atom 7.5025986692729374 2.3733330401689035 19.9375509062177656 S
atom 2.5155249642486703 7.4160856939588031 19.9320620786936544 S
atom 7.5025986692738114 7.7121722671785431 19.9375509062166927 S
atom 2.5314677328218140 2.3608304274734189 24.9931328089195901 S
atom 7.5185414716512824 2.6819222255239308 24.9986216360108671 S
atom 2.5314677328226902 7.7246748798734126 24.9931328089216827 S
atom 7.5185414716506322 7.4035830818230677 24.9986216360060425 S
atom 2.0455313696360209 -0.0000000000029061 22.3383785116011531 S
atom 7.9783496272718724 -0.0000000000017594 22.5899658196391933 S
atom 2.9912759059432323 5.0427526536743486 22.5844769929546096 S
atom 7.0326050905125772 5.0427526536732508 22.3438673391132099 S
atom 2.9892567141916477 -0.0000000000015874 27.6646676985291293 S
atom 7.0486329360041751 -0.0000000000015118 27.3744558016377013 S
atom 2.0615592146838631 5.0427526536724203 27.3689669742637633 S
atom 7.9763304341409516 5.0427526536731735 27.6701565259353508 S
atom 0.0269119824902275 3.0143187631605506 22.4591635137479706 S
atom 5.0139857032059121 2.0284338908027579 22.4646523568240539 S
atom 0.0269119824903126 7.0711865441861130 22.4591635137495835 S
atom 5.0139857032061306 8.0570714165444155 22.4646523568240042 S
atom 0.0396973653815389 2.0365737354656357 27.5132172476587371 S
atom 5.0267710863460699 3.0061789182009995 27.5187060561438166 S
atom 0.0396973653819346 8.0489315718808747 27.5132172476584067 S
atom 5.0267710863460238 7.0793263891459475 27.5187060561448860 S
atom -0.0498170150886043 -0.0000000000015231 30.0303409484362120 Ba
atom 5.0920961253062265 -0.0000000000015807 30.0529236083703530 Ba
atom 0.1050224132663960 5.0427526536728333 30.0474347700546360 Ba
atom 4.9372567181281219 5.0427526536727578 30.0358297642379775 Ba
atom 0.1951434435971795 -0.0000000000028956 35.0777044051106088 Ba
atom 5.1247735837398825 -0.0000000000027129 35.0488274231088894 Ba
atom 0.1376998784263517 5.0427526536728848 35.0433385816783556 Ba
atom 5.1822171734164639 5.0427526536735590 35.0831932298170770 Ba
atom 2.5715692005983422 2.5060511109933321 32.5918485495384331 Zr
atom 7.5586429209060002 2.5367015434609681 32.5973373782091969 Zr
atom 2.5715692005987223 7.5794541963521178 32.5918485495356904 Zr
atom 7.5586429209060366 7.5488037638850534 32.5973373782155065 Zr
atom 2.5950390718474794 2.5093154058608209 37.6732621520335300 Zr
atom 7.5821127928128602 2.5334372485872305 37.6787509794778970 Zr
atom 2.5950390718476850 7.5761899014843932 37.6732621520357327 Zr
atom 7.5821127928129677 7.5520680587593203 37.6787509794760069 Zr
atom 2.5538683923681496 2.7310483264788199 30.0502019659520911 S
atom 7.5409420923038573 2.3117043283754461 30.0556907938958844 S
atom 2.5538683923676548 7.3544569808675817 30.0502019659516471 S
atom 7.5409420923048307 7.7738009789713791 30.0556907938957174 S
atom 2.5724630063829057 2.2394561642825099 35.0907836920823542 S
atom 7.5595367482902196 2.8032964933511262 35.0962725196138123 S
atom 2.5724630063839578 7.8460491430629942 35.0907836920790217 S
atom 7.5595367482896592 7.2822088139961325 35.0962725196213654 S
atom 2.0968057102856075 -0.0000000000014644 32.3518163748175098 S
atom 7.9766487829222230 -0.0000000000036497 32.8041185596918865 S
atom 2.9895750627403395 5.0427526536731904 32.7986297345797055 S
atom 7.0838794287753730 5.0427526536740714 32.3573052039904070 S
atom 2.6258179416010594 -0.0000000000037815 37.8322635523482234 S
atom 7.5517062003936877 -0.0000000000011642 37.3224354776008909 S
atom 2.5646324796979134 5.0427526536735217 37.3169466518605191 S
atom 7.6128916618354694 5.0427526536722489 37.8377523835552125 S
atom 0.0716662518155719 2.9883163372764825 32.5627654971370646 S
atom 5.0587399724824822 2.0544363155851260 32.5682543449625115 S
atom 0.0716662518144450 7.0971889700700137 32.5627654971369935 S
atom 5.0587399724835134 8.0310689917610745 32.5682543449611046 S
atom 0.0978027369770725 2.4826453115846698 37.5452632888671971 S
atom 5.0848764578490737 2.5601073421120244 37.5507520981872602 S
atom 0.0978027369788768 7.6028599957611611 37.5452632888667281 S
atom 5.0848764578475327 7.5253979652340135 37.5507520981871892 S
atom -0.0321475571892868 -0.0000000000024967 39.7431061971212074 Ba
atom 5.2275819273271251 -0.0000000000019918 39.7467614129737754 Ba
atom 0.2405082116130308 5.0427526536727427 39.7412725854660849 Ba
atom 4.9549261682207222 5.0427526536725980 39.7485950230042846 Ba
atom 2.5843297883072673 2.7406868981494514 40.1610566993639253 S
atom 7.5714034958919525 2.3020657542322480 40.1665455267346800 S
atom 2.5843297883074876 7.3448184091946853 40.1610566993669451 S
atom 7.5714034958919472 7.7834395531156968 40.1665455267305660 S
atom 2.5843720996866182 2.6787081556451815 43.2697487451164946 Ba
atom 7.5714458185131646 2.3640444979470443 43.2752375724083294 Ba
atom 2.5843720996860995 7.4067971516968560 43.2697487451139224 Ba
atom 7.5714458185138920 7.7214608094017150 43.2752375724080309 Ba
atom 2.5792458350325620 2.5018114679749228 47.9556289662703747 Ba
atom 7.5663195562769259 2.5409411857523088 47.9611177935581026 Ba
atom 2.5792458350295386 7.5836938393584914 47.9556289662710924 Ba
atom 7.5663195562801322 7.5445641215944805 47.9611177935545356 Ba
atom 5.0937304538420962 5.0427526536728955 45.3422427034423450 Zr
atom 10.0446268739480633 5.0427526536726388 45.3472466790548410 Zr
atom 5.0575531526097812 10.0855053073477645 45.3417578522569755 Zr
atom 10.0808041742009866 10.0855053073483596 45.3477315306536539 Zr
atom 5.0710295392446358 5.0427526536727534 50.3640265367080815 Zr
atom 10.0562276789505578 5.0427526536736167 50.3693078675068406 Zr
atom 5.0691539580846383 10.0855053073490470 50.3638190402594788 Zr
atom 10.0581032600168463 10.0855053073484804 50.3695153641440143 Zr
atom 4.7884203771269682 5.0427526536678755 42.8535827273120589 S
atom 10.3550842454392438 5.0427526536708926 42.8592839543626383 S
atom 5.3680105220832672 10.0855053073534489 42.8537951278159142 S
atom 9.7754940958798127 10.0855053073507239 42.8590715543193426 S
atom 5.5407748536507322 5.0427526536834275 47.8875235614757671 S
atom 9.5920161434173004 5.0427526536761604 47.8918773732408241 S
atom 4.6049424217545694 10.0855053073385896 47.8863885462323893 S
atom 10.5278485737875123 10.0855053073462280 47.8930123886449266 S
atom 5.0755652854924316 2.5213702544214871 45.4726939082057342 S
atom 10.0626390063291939 2.5213823992771247 45.4781827347477048 S
atom 5.0755652854920088 7.5641350529239686 45.4726939081905641 S
atom 10.0626390063299347 7.5641229080686587 45.4781827347433278 S
atom 5.0701001948029925 2.5213804955872217 50.3794425254887344 S
atom 10.0571739156054356 2.5213721580853417 50.3849313526878291 S
atom 5.0701001947747235 7.5641248117608502 50.3794425255182574 S
atom 10.0571739156338147 7.5641331492630313 50.3849313526919289 S
atom 2.5816073648328008 5.0427526536715650 45.7966783340538157 S
atom 7.5695258607380556 5.0427526536733938 45.0201746024737730 S
atom 2.5824521392426250 10.0855053073488143 45.0146857752904452 S
atom 7.5686810852772952 10.0855053073479208 45.8021671613521306 S
atom 2.5771140456896475 5.0427526536635918 49.8805450591275559 S
atom 7.5630940721944722 5.0427526536887823 50.8621893076992535 S
atom 2.5760203512023074 10.0855053073626308 50.8567004804784446 S
atom 7.5641877663891250 10.0855053073389520 49.8860338863558894 S
atom 2.5737627046747136 2.5235757264790277 52.8679153867779092 Ba
atom 7.5608364253587323 2.5191769272328486 52.8734042140384162 Ba
atom 2.5737627046827622 7.5619295808609310 52.8679153867607710 Ba
atom 7.5608364253508595 7.5663283801261096 52.8734042140560661 Ba
atom 2.5682955385129578 2.5186987005685895 57.8211979434182695 Ba
atom 7.5553692593805879 2.5240539531406383 57.8266867706953605 Ba
atom 2.5682955385020048 7.5668066067977096 57.8211979434039165 Ba
atom 7.5553692593917861 7.5614513542495114 57.8266867707089460 Ba
atom 5.0629665077919173 5.0427526536787477 55.3326220789355290 Zr
atom 10.0532861648166385 5.0427526536783125 55.3380119331046956 Zr
atom 5.0662124439635017 10.0855053073537331 55.3325231058800640 Zr
atom 10.0500402286152077 10.0855053073545058 55.3381109062338794 Zr
atom 5.0593581457435048 5.0427526536802869 60.2996795714554068 Zr
atom 10.0459058238030661 5.0427526536806377 60.3051061165276749 Zr
atom 5.0588321029682985 10.0855053073560601 60.2996172892523887 Zr
atom 10.0464318665742471 10.0855053073558736 60.3051683987457494 Zr
atom 4.5602234385410272 5.0427526536582254 52.8534657983411478 S
atom 10.5615028629148959 5.0427526536721343 52.8600212106314729 S
atom 5.5744291419527521 10.0855053073670504 52.8545323834025851 S
atom 9.5472971591385107 10.0855053073533600 52.8589546256348868 S
atom 5.5695887743878236 5.0427526536971374 57.8186255302707792 S
atom 9.5411816571013901 5.0427526536787672 57.8229671864393566 S
atom 4.5541079361901957 10.0855053073303385 57.8174783591767110 S
atom 10.5566624951771839 10.0855053073489884 57.8241143575507053 S
atom 5.0645641745879777 2.5213796832964639 55.3393823147882387 S
atom 10.0516378954512842 2.5213729703778962 55.3448711419996471 S
atom 5.0645641746163514 7.5641256240571719 55.3393823147442632 S
atom 10.0516378954231929 7.5641323369760363 55.3448711419964354 S
atom 5.0591036801276319 2.5213764874645230 60.3008467151107297 S
atom 10.0461774010683822 2.5213761662116680 60.3063355424198093 S
atom 5.0591036802368956 7.5641288198893539 60.3008467151619811 S
atom 10.0461774009592535 7.5641291411424216 60.3063355424219978 S
atom 2.5704824514207401 5.0427526536878133 55.8366750877894020 S
atom 7.5586538511267065 5.0427526536615517 54.8441005128154444 S
atom 2.5715801302560961 10.0855053073370033 54.8386116855022934 S
atom 7.5575561722285789 10.0855053073650698 55.8421639151078182 S
atom 2.5661115209278447 5.0427526537164358 59.7988211671915764 S
atom 7.5520841181079215 5.0427526536285248 60.8041586252530877 S
atom 2.5650103972608038 10.0855053073024017 60.7986697979821216 S
atom 7.5531852417518888 10.0855053073926371 59.8043099944750551 S
atom 2.5627993625982946 2.5234537130370818 62.7800950588830773 Ba
atom 7.5498730834239112 2.5192989406523290 62.7855838862451066 Ba
atom 2.5627993626103480 7.5620515943154842 62.7800950589628926 Ba
atom 7.5498730834121179 7.5662063667255408 62.7855838861652344 Ba
atom 2.5573031866501568 2.5186987005328794 67.7389921744616288 Ba
atom 7.5443769075004070 2.5240539531072557 67.7444810016808816 Ba
atom 2.5573031866392402 7.5668066067750646 67.7389921743908161 Ba
atom 7.5443769075114622 7.5614513542247037 67.7444810017514811 Ba
atom 5.0538403430540066 5.0427526536716680 65.2660616558801792 Zr
atom 10.0403880211131131 5.0427526536720437 65.2714882009558011 Zr
atom 5.0533143002766296 10.0855053073473417 65.2659993736865687 Zr
atom 10.0409140638838643 10.0855053073472103 65.2715504831604392 Zr
atom 5.0464600020574606 5.0427526536653975 70.2331558392467628 Zr
atom 10.0367796590727352 5.0427526536649729 70.2385456934720622 Zr
atom 5.0497059382319529 10.0855053073403038 70.2330568661899548 Zr
atom 10.0335337228742763 10.0855053073410463 70.2386446665876605 Zr
atom 4.5481824518825720 5.0427526536511129 62.7822886487572305 S
atom 10.5515637149965507 5.0427526536715996 62.7888791236601165 S
atom 5.5644899941416126 10.0855053073726353 62.7833902963794941 S
atom 9.5352561726918097 10.0855053073524061 62.7877774760352452 S
atom 5.5585645098215917 5.0427526536916236 67.7482005859495047 S
atom 9.5301573925068883 5.0427526536730278 67.7525422421527139 S
atom 4.5430836716406819 10.0855053073241265 67.7470534148645811 S
atom 10.5456382305959533 10.0855053073430110 67.7536894132497594 S
atom 5.0535687659390405 2.5213761662081411 65.2648322300155286 S
atom 10.0406424865755532 2.5213764874617857 65.2703210572789487 S
atom 5.0535687657412174 7.5641291411361822 65.2648322299631758 S
atom 10.0406424867737414 7.5641288198827601 65.2703210572770587 S
atom 5.0481082713733585 2.5213729703723562 70.2262966303482301 S
atom 10.0351819922971099 2.5213796832910105 70.2317854576921121 S
atom 5.0481082714655185 7.5641323369631372 70.2262966303920280 S
atom 10.0351819922050591 7.5641256240447801 70.2317854576949827 S
atom 2.5594872042701931 5.0427526535901848 65.7613689506490289 S
atom 7.5476620487609027 5.0427526537562768 64.7670091471463394 S
atom 2.5605883279166779 10.0855053074304308 64.7615203198718064 S
atom 7.5465609250936403 10.0855053072664074 65.7668577779360675 S
atom 2.5551162737920099 5.0427526537068115 69.7235150300242452 S
atom 7.5410923157603174 5.0427526536350964 70.7270672596226717 S
atom 2.5540185948995284 10.0855053073103562 70.7215784323165053 S
atom 7.5421899946039614 10.0855053073842367 69.7290038573346465 S
atom 2.5518360206441235 2.5235757264324339 72.6922747310701141 Ba
atom 7.5389097413659210 2.5191769271855611 72.6977635583694877 Ba
atom 2.5518360206523356 7.5619295808795464 72.6922747310892561 Ba
atom 7.5389097413579718 7.5663283801461843 72.6977635583491235 Ba
atom 2.5463528897929661 2.5018114679156453 77.6045611515713887 Ba
atom 7.5334266109412873 2.5409411856922111 77.6100499788561109 Ba
atom 2.5463528897899299 7.5836938394099187 77.6045611515722698 Ba
atom 7.5334266109444794 7.5445641216477775 77.6100499788568641 Ba
atom 5.0435184879329862 5.0427526536656471 75.2018599048701049 Zr
atom 10.0287166276648314 5.0427526536665264 75.2071412355670930 Zr
atom 5.0416429067875175 10.0855053073423022 75.2016524083878295 Zr
atom 10.0305922087443022 10.0855053073416236 75.2073487321988665 Zr
atom 5.0551192933512477 5.0427526536690692 80.2239210929307376 Zr
atom 10.0060157134294574 5.0427526536688170 80.2289250690295006 Zr
atom 5.0189419922393403 10.0855053073432277 80.2234362417050875 Zr
atom 10.0421930138024482 10.0855053073437873 80.2294099205794140 Zr
atom 4.5382433040522594 5.0427526536517080 72.7111465617263661 S
atom 10.5395227285203372 5.0427526536653096 72.7177019740663724 S
atom 5.5524490075086907 10.0855053073605916 72.7122131467779411 S
atom 9.5253170247892527 10.0855053073472298 72.7166353890673491 S
atom 5.5077300241685512 5.0427526536785798 77.6792903989295951 S
atom 9.5589713138151637 5.0427526536713723 77.6836442110329699 S
atom 4.5718975924558141 10.0855053073331593 77.6781553836537455 S
atom 10.4948037443708309 10.0855053073406715 77.6847792264365609 S
atom 5.0425722512405171 2.5213721580797177 75.1862364196550743 S
atom 10.0296459720602158 2.5213804955797490 75.1917252469992548 S
atom 5.0425722512255975 7.5641331492549986 75.1862364196247626 S
atom 10.0296459720754783 7.5641248117552058 75.1917252469943094 S
atom 5.0371071605299695 2.5213823992453852 80.0929850370086456 S
atom 10.0241808813588182 2.5213702543942680 80.0984738648655110 S
atom 5.0371071605293212 7.5641229080913925 80.0929850370232970 S
atom 10.0241808813596123 7.5641350529427918 80.0984738648692485 S
atom 2.5484846796147971 5.0427526536632925 75.6796450587680027 S
atom 7.5366520948003961 5.0427526536749143 74.7089784646589550 S
atom 2.5495783738441649 10.0855053073486776 74.7034896374229618 S
atom 7.5355584003531826 10.0855053073387939 75.6851338860082024 S
atom 2.5439913606982292 5.0427526536666809 79.7635117837778722 S
atom 7.5302203067007856 5.0427526536685097 80.5509931698487094 S
atom 2.5431465853682083 10.0855053073461658 80.5455043426424453 S
atom 7.5310650812340798 10.0855053073427534 79.7690006110722294 S
atom 2.5412266272749688 2.6787081557082799 82.2904413727153070 Ba
atom 7.5283003465699903 2.3640444980125630 82.2959302000112132 Ba
atom 2.5412266272744981 7.4067971516242572 82.2904413727229240 Ba
atom 7.5283003465708154 7.7214608093292014 82.2959302000155901 Ba
atom 4.7446619236449594 5.0427526536637162 82.7118838174012865 S
atom 10.3113257915622825 5.0427526536667138 82.7175850453428154 S
atom 5.3242520691432897 10.0855053073495089 82.7120962178662325 S
atom 9.7317356425430468 10.0855053073467928 82.7173726452378730 S
