#=======================================================
# FHI-aims file: full_relax/full_relax_RP_6_Rx0Mz_0-RyMz.in
# Created using the Atomic Simulation Environment (ASE)
# Fri Mar 14 11:42:25 2025
#=======================================================
lattice_vector 10.0154245823445631 0.0618598265571560 -0.0000000000000002 
lattice_vector 0.0618598265571571 10.0154245823442665 0.0000000000000062 
lattice_vector -0.0000000000000012 0.0000000000000410 65.8603644024787656 
atom 0.1277319671286158 0.1698816231601755 0.2156284849309776 Ba
atom 5.1776191182404476 0.1586501308866851 0.2156245284179550 Ba
atom 0.2008367403523325 5.1354325087719124 0.2156245284224940 Ba
atom 5.1663741715712908 5.2085238275990928 0.2156284848829818 Ba
atom -0.2624439482712753 -0.1886603907256628 5.0013419924422298 Ba
atom 4.8190401537821010 -0.2314950064692391 5.0013239131467424 Ba
atom -0.1577422241008814 4.7452873714158761 5.0013239131397258 Ba
atom 4.7761982561708640 4.8499818137217403 5.0013419924598530 Ba
atom 2.5272109491603789 2.5338613634248048 2.3942681101313874 Zr
atom 7.5415911915309994 2.5581217014534054 2.3942692374201129 Zr
atom 2.5648088134932987 7.5349040794604170 2.3942692374322259 Zr
atom 7.5658531537573932 7.5725035679862307 2.3942681101533085 Zr
atom 2.5146745256072376 2.5103098892854523 7.4465529845134526 Zr
atom 7.5180191911985501 2.5456105539178555 7.4465440740415083 Zr
atom 2.5412368132624281 7.5223929318733074 7.4465440740514977 Zr
atom 7.5533167301054887 7.5489520937990564 7.4465529844612544 Zr
atom 2.2650858362326427 2.6947253865807079 -0.1117395149404504 S
atom 7.7024446241958069 2.2960173038715905 -0.1117427505991552 S
atom 2.7256622463228521 7.2727996817550924 -0.1117427506083095 S
atom 7.3037280406699638 7.7333675910167736 -0.1117395149448163 S
atom 2.8261642735516443 2.2650823996989353 4.9531755890416882 S
atom 7.2727805981676203 2.8571017259796756 4.9531702240857314 S
atom 2.2959982202900742 7.8338841038587894 4.9531702240311821 S
atom 7.8648064779796361 7.3037246041364670 4.9531755890484765 S
atom 2.7857080993594017 0.0138359133789010 2.2204294029072642 S
atom 7.1905850353846885 0.0416041770530109 2.7732087451633793 S
atom 2.2138026575063758 5.0183865550053319 2.7732087451764960 S
atom 7.8243503037910767 5.0524781178926830 2.2204294029018992 S
atom 2.8926525512621390 0.0154723539243470 7.7779417315017980 S
atom 7.1305110683309056 0.0428621195213498 7.1527711756707397 S
atom 2.1537286904328572 5.0196444973967376 7.1527711756632240 S
atom 7.9312947557006437 5.0541145583543443 7.7779417315017945 S
atom 0.0106860428402004 2.1828561778428570 2.7732069808877307 S
atom 5.0215657888497383 2.8166110154785757 2.2204256798151132 S
atom 0.0447834109111376 7.7933933933414918 2.2204256798190092 S
atom 5.0493282473346701 7.2214983822694183 2.7732069808957891 S
atom 0.0119214861895478 2.1228256415460809 7.1527627923119788 S
atom 5.0231764835307517 2.9235993068721307 7.7779426985450497 S
atom 0.0463941055566072 7.9003816847460753 7.7779426985415867 S
atom 5.0505636907214360 7.1614678459780210 7.1527627923010959 S
atom 0.2801882753039863 0.1826593800825155 9.9711248018031675 Ba
atom 5.1903685889260593 0.3111256049071970 9.9711055939181037 Ba
atom 0.2135862110606621 5.2879079827956783 9.9711055939221520 Ba
atom 5.3188304797285655 5.2213015845203143 9.9711248018038869 Ba
atom -0.2791708561629289 -0.1807978894139360 14.9682646369277190 Ba
atom 4.8269203566361716 -0.2482616413212831 14.9682646369277972 Ba
atom -0.1498620212241995 4.7285207365373765 14.9682646369278913 Ba
atom 4.7594713482566826 4.8578443149997454 14.9682646369279890 Ba
atom 2.5212116544320984 2.5229556292576572 12.4614513333922101 Zr
atom 7.5306737308739766 2.5521432655568481 12.4614488827978001 Zr
atom 2.5538913529245280 7.5289256434818856 12.4614488827720109 Zr
atom 7.5598538589348507 7.5615978337474470 12.4614513333555301 Zr
atom 2.5212116544504055 2.5229556292424431 17.4750779405298111 Zr
atom 7.5306737308580374 2.5521432655798817 17.4750803911148438 Zr
atom 2.5538913529064993 7.5289256434986163 17.4750803911611605 Zr
atom 7.5598538589568864 7.5615978337283787 17.4750779405641836 Zr
atom 2.1884985320424821 2.7860669388789288 9.9621783331514724 S
atom 7.7937841905455292 2.2194401573154785 9.9621748804931816 S
atom 2.8170018126678515 7.1962225351995395 9.9621748805485595 S
atom 7.2271407364967990 7.8247091433153626 9.9621783332410700 S
atom 2.8534411002956279 2.2519706912838942 14.9682646368614876 S
atom 7.2597126257395788 2.8843599628038419 14.9682646368791108 S
atom 2.2829302478493112 7.8611423406861238 14.9682646368343875 S
atom 7.8920833047178647 7.2906128957367056 14.9682646368505399 S
atom 2.8853414184757074 0.0184555532217175 12.1485708907592951 S
atom 7.1317765791616470 0.0462707678565421 12.7892096986857808 S
atom 2.1549942012679324 5.0230531458729768 12.7892096986946076 S
atom 7.9239836229098080 5.0570977577892666 12.1485708907601531 S
atom 2.8853414184785438 0.0184555532480177 17.7879583830744181 S
atom 7.1317765791596592 0.0462707678836641 17.1473195751432534 S
atom 2.1549942012625167 5.0230531458468715 17.1473195751322329 S
atom 7.9239836229067064 5.0570977577611052 17.7879583830706096 S
atom 0.0153497282390711 2.1240522754665379 12.7892097507681957 S
atom 5.0261771422385912 2.9162521448125385 12.1485790112154373 S
atom 0.0493947642343870 7.8930345226788265 12.1485790112288043 S
atom 5.0539919328017318 7.1626944799204741 12.7892097507669540 S
atom 0.0153497282227463 2.1240522754646012 17.1473195230619559 S
atom 5.0261771422547872 2.9162521448102123 17.7879502626151940 S
atom 0.0493947642173275 7.8930345226810426 17.7879502626050865 S
atom 5.0539919328176914 7.1626944799149879 17.1473195230587230 S
atom 0.2801882753099436 0.1826593800769913 19.9654044720440496 Ba
atom 5.1903685889198403 0.3111256049079362 19.9654236799291205 Ba
atom 0.2135862110622498 5.2879079828017348 19.9654236799261682 Ba
atom 5.3188304797285975 5.2213015845204414 19.9654044720443302 Ba
atom -0.2624439482735111 -0.1886603907244279 24.9351872813585267 Ba
atom 4.8190401537817404 -0.2314950064688317 24.9352053606556510 Ba
atom -0.1577422241022492 4.7452873714121582 24.9352053606633106 Ba
atom 4.7761982561682714 4.8499818137177817 24.9351872813449873 Ba
atom 2.5146745256159857 2.5103098892845956 22.4899762893160720 Zr
atom 7.5180191911929608 2.5456105539384200 22.4899851997913132 Zr
atom 2.5412368132519711 7.5223929318739637 22.4899851997502367 Zr
atom 7.5533167301199331 7.5489520937823906 22.4899762893632591 Zr
atom 2.5272109491316979 2.5338613634745784 27.5422611634819283 Zr
atom 7.5415911915614817 2.5581217014442932 27.5422600362004459 Zr
atom 2.5648088135302243 7.5349040794146447 27.5422600361821495 Zr
atom 7.5658531537196385 7.5725035679979280 27.5422611634686731 Zr
atom 2.1884985320409727 2.7860669388777306 19.9743509406114299 S
atom 7.7937841905450691 2.2194401573144145 19.9743543932551724 S
atom 2.8170018126689294 7.1962225351981566 19.9743543932555880 S
atom 7.2271407364958744 7.8247091433174392 19.9743509405514779 S
atom 2.8261642735528003 2.2650823996982163 24.9833536849087032 S
atom 7.2727805981701650 2.8571017259775440 24.9833590498750766 S
atom 2.2959982202923959 7.8338841038598632 24.9833590499267473 S
atom 7.8648064779794691 7.3037246041418777 24.9833536848811946 S
atom 2.8926525512680019 0.0154723539109359 22.1585875423210830 S
atom 7.1305110683243633 0.0428621195047193 22.7837580981666541 S
atom 2.1537286904296304 5.0196444974100132 22.7837580981729602 S
atom 7.9312947557032274 5.0541145583689735 22.1585875423221772 S
atom 2.7857080993616585 0.0138359133600793 27.7160998709551940 S
atom 7.1905850353855296 0.0416041770675942 27.1633205287044710 S
atom 2.2138026575097864 5.0183865550178179 27.1633205286946584 S
atom 7.8243503037934268 5.0524781178737115 27.7160998709595638 S
atom 0.0119214861872560 2.1228256415383204 22.7837664815257277 S
atom 5.0231764835317465 2.9235993068760533 22.1585865752769848 S
atom 0.0463941055512777 7.9003816847502071 22.1585865752832021 S
atom 5.0505636907250882 7.1614678459762020 22.7837664815343501 S
atom 0.0106860428211726 2.1828561778420768 27.1633222929818565 S
atom 5.0215657888668987 2.8166110154788129 27.7161035940470235 S
atom 0.0447834109443059 7.7933933933484081 27.7161035940435596 S
atom 5.0493282473029764 7.2214983822763861 27.1633222929742431 S
atom 0.1277319671249019 0.1698816231578176 29.7209007888725658 Ba
atom 5.1776191182373363 0.1586501308868261 29.7209047453873048 Ba
atom 0.2008367403431691 5.1354325087684058 29.7209047453819473 Ba
atom 5.1663741715735378 5.2085238275935177 29.7209007889019503 Ba
atom 2.2650858362280304 2.6947253865855663 30.0482687889023623 S
atom 7.7024446242007576 2.2960173038640259 30.0482720245435644 S
atom 2.7256622463286679 7.2727996817526348 30.0482720245687176 S
atom 7.3037280406624658 7.7333675910256359 30.0482687889140578 S
atom 2.6892027253598920 2.6470530693435785 33.1458106862181765 Ba
atom 7.6547536110203058 2.7201578425662984 33.1458067297272976 Ba
atom 2.6779712330963683 7.6969402204703190 33.1458067296780001 Ba
atom 7.7278449298327629 7.6856952737997872 33.1458106861528492 Ba
atom 2.3306607115118974 2.2568771539527246 37.9315241936935337 Ba
atom 7.2646084736230332 2.3615788781149609 37.9315061143829908 Ba
atom 2.2878260957701735 7.3383612560088425 37.9315061144132883 Ba
atom 7.3693029159306294 7.2955193583962519 37.9315241937184808 Ba
atom 5.0531824657345537 5.0465320512568868 35.3244503116243891 Zr
atom 10.0542251815843677 5.0841299156031745 35.3244514388152737 Zr
atom 5.0774428037018566 10.0609122939078777 35.3244514389124902 Zr
atom 10.0918246701978216 10.0851742560963142 35.3244503115528445 Zr
atom 5.0296309915198929 5.0339956277762923 40.3767351857816692 Zr
atom 10.0417140340935376 5.0605579154139999 40.3767262752767593 Zr
atom 5.0649316561753599 10.0373402934767064 40.3767262751994238 Zr
atom 10.0682731960044745 10.0726378324083257 40.3767351856527341 Zr
atom 5.2140464888001166 4.7844069384737651 32.8184426861839142 S
atom 9.7921207839753404 5.2449833485711812 32.8184394504929315 S
atom 4.8153384060836562 10.2217657264192798 32.8184394504356547 S
atom 10.2526886932526029 9.8230491428743480 32.8184426862122507 S
atom 4.7844035019171329 5.3454853757928928 37.8833577900829539 S
atom 10.3532052060857040 4.8153193225368041 37.8833524252799450 S
atom 5.3764228282058566 9.7921017003782627 37.8833524253052119 S
atom 9.8230457063770835 10.3841275801801451 37.8833577902275707 S
atom 4.7021772800703880 2.5300071451876600 35.7033891820803007 S
atom 10.3127144955717647 2.5641045130546054 35.1506078810298064 S
atom 5.3359321176979284 7.5408868909194897 35.1506078810185301 S
atom 9.7408194844952387 7.5686493496386289 35.7033891821164460 S
atom 4.6421467437643900 2.5312425883842180 40.0829449935617532 S
atom 10.4197027869627181 2.5657152077962886 40.7081248997840390 S
atom 5.4429204091133387 7.5424975857829866 40.7081248998109828 S
atom 9.6807889482048068 7.5698847929322435 40.0829449935435491 S
atom 2.5331570157565744 5.3050292016158958 35.1506116041158094 S
atom 7.5377076571012722 4.7331237597619840 35.7033909463744124 S
atom 2.5609252791864603 9.7099061375816653 35.7033909463730907 S
atom 7.5717992202134585 10.3436714060016683 35.1506116041063308 S
atom 2.5347934560515744 5.4119736535030150 40.7081239327573670 S
atom 7.5389655997218830 4.6730497926741368 40.0829533769142756 S
atom 2.5621832216883877 9.6498321705368344 40.0829533769143822 S
atom 7.5734356606325797 10.4506158579132595 40.7081239327536721 S
atom 2.7019804823215514 2.7995093775411810 42.9013070030323149 Ba
atom 7.8072290850115156 2.7329073132940662 42.9012877951506155 Ba
atom 2.8304467071456694 7.7096896911341872 42.9012877951494076 Ba
atom 7.7406226867253674 7.8381515819469181 42.9013070030330468 Ba
atom 2.3385232128333171 2.2401502460826785 47.8984468381646167 Ba
atom 7.2478418387408343 2.3694590810150671 47.8984468381647659 Ba
atom 2.2710594609167316 7.3462414588421803 47.8984468381656967 Ba
atom 7.3771654172106915 7.2787924504664945 47.8984468381654693 Ba
atom 5.0422767314825840 5.0405327566109870 45.3916335345940638 Zr
atom 10.0482467457156321 5.0732124550825537 45.3916310840273525 Zr
atom 5.0714643678047304 10.0499948331445079 45.3916310840531310 Zr
atom 10.0809189359603124 10.0791749612218400 45.3916335345543374 Zr
atom 5.0422767314912482 5.0405327566091538 50.4052601416668296 Zr
atom 10.0482467456972238 5.0732124550952786 50.4052625923070181 Zr
atom 5.0714643677908038 10.0499948331505173 50.4052625922842168 Zr
atom 10.0809189359687110 10.0791749612041155 50.4052601417795003 Zr
atom 5.3053880411067231 4.7078196342708889 42.8923605344310914 S
atom 9.7155436374272348 5.3363229149102089 42.8923570817278517 S
atom 4.7387612595308184 10.3131052927609570 42.8923570817646223 S
atom 10.3440302455415516 9.7464618387154136 42.8923605345606873 S
atom 4.7712917935071086 5.3727622025335808 47.8984468381813855 S
atom 10.3804634429145679 4.8022513500792909 47.8984468381243573 S
atom 5.4036810650375386 9.7790337279540953 47.8984468381177919 S
atom 9.8099339979713385 10.4114044069193152 47.8984468381236113 S
atom 4.6433733776884143 2.5346708304367138 45.7193919519983680 S
atom 10.4123556248925944 2.5687158663403431 45.0787612124677892 S
atom 5.4355732470483247 7.5454982444885310 45.0787612124401775 S
atom 9.6820155821503473 7.5733130351491553 45.7193919520016436 S
atom 4.6433733776888602 2.5346708304976389 50.0775017242970009 S
atom 10.4123556248993498 2.5687158663426626 50.7181324638391118 S
atom 5.4355732470456841 7.5454982444259882 50.7181324638636895 S
atom 9.6820155821459739 7.5733130351489688 50.0775017242884743 S
atom 2.5377766554434755 5.4046625207205121 45.0787530919857531 S
atom 7.5423742481011589 4.6743153034959297 45.7193918999300237 S
atom 2.5655918699837965 9.6510976813776139 45.7193918999141786 S
atom 7.5764188601094995 10.4433047251176934 45.0787530919978749 S
atom 2.5377766555020904 5.4046625207208940 50.7181405843176023 S
atom 7.5423742480470608 4.6743153034946197 50.0775017763657218 S
atom 2.5655918699797473 9.6510976813725140 50.0775017763755486 S
atom 7.5764188601148019 10.4433047251255076 50.7181405843092392 S
atom 2.7019804823128024 2.7995093775269879 52.8955866732461288 Ba
atom 7.8072290850238169 2.7329073132912267 52.8956058811269401 Ba
atom 2.8304467071387385 7.7096896911536552 52.8956058811341947 Ba
atom 7.7406226867408048 7.8381515819533458 52.8955866732492339 Ba
atom 2.3306607115262175 2.2568771539554571 57.8653694826165861 Ba
atom 7.2646084736198926 2.3615788781244893 57.8653875619207838 Ba
atom 2.2878260957817398 7.3383612560133455 57.8653875619112696 Ba
atom 7.3693029159269230 7.2955193583968834 57.8653694826003857 Ba
atom 5.0296309915059174 5.0339956278046234 55.4201584904701861 Zr
atom 10.0417140340938662 5.0605579154332663 55.4201674008430629 Zr
atom 5.0649316561663813 10.0373402934548128 55.4201674009297918 Zr
atom 10.0682731960061282 10.0726378323837640 55.4201584904774620 Zr
atom 5.0531824656579252 5.0465320513418810 60.4724433649667787 Zr
atom 10.0542251816707200 5.0841299156532056 60.4724422377573703 Zr
atom 5.0774428036916275 10.0609122938015041 60.4724422376747057 Zr
atom 10.0918246701992924 10.0851742560349606 60.4724433650365967 Zr
atom 5.3053880411000724 4.7078196342791410 52.9045331419854605 S
atom 9.7155436374275190 5.3363229149010580 52.9045365946794206 S
atom 4.7387612595345772 10.3131052927613194 52.9045365946470625 S
atom 10.3440302455342632 9.7464618387220998 52.9045331418673612 S
atom 4.7844035019154498 5.3454853757887362 57.9135358860701714 S
atom 10.3532052060838780 4.8153193225192972 57.9135412511021670 S
atom 5.3764228282141993 9.7921017003788080 57.9135412510491108 S
atom 9.8230457063644039 10.3841275801943844 57.9135358860779377 S
atom 4.6421467437672019 2.5312425884481433 55.7139486827720845 S
atom 10.4197027869598138 2.5657152077776093 55.0887687765588083 S
atom 5.4429204091025989 7.5424975857215859 55.0887687765349483 S
atom 9.6807889482061587 7.5698847929541184 55.7139486827905159 S
atom 4.7021772800660022 2.5300071450707970 60.0935044941794487 S
atom 10.3127144955590744 2.5641045131296130 60.6462857952268450 S
atom 5.3359321177052843 7.5408868910663660 60.6462857952470671 S
atom 9.7408194844991129 7.5686493495742981 60.0935044941577345 S
atom 2.5347934561170873 5.4119736534924066 55.0887697435870791 S
atom 7.5389655996624176 4.6730497926687757 55.7139402994199600 S
atom 2.5621832216664790 9.6498321705408507 55.7139402994205994 S
atom 7.5734356606565658 10.4506158579155688 55.0887697435908876 S
atom 2.5331570155587428 5.3050292015890097 60.6462820721469811 S
atom 7.5377076572788653 4.7331237597437399 60.0935027298865876 S
atom 2.5609252792192212 9.7099061375988622 60.0935027298959028 S
atom 7.5717992201845377 10.3436714060047041 60.6462820721514220 S
atom 2.6892027253843582 2.6470530693499281 62.6510829901646034 Ba
atom 7.6547536110045513 2.7201578425798538 62.6510869466682365 Ba
atom 2.6779712331049175 7.6969402204734658 62.6510869466829163 Ba
atom 7.7278449298338066 7.6856952737970463 62.6510829902143769 Ba
atom 5.2140464888041356 4.7844069384648833 62.9784509899958067 S
atom 9.7921207839852116 5.2449833485498800 62.9784542255773374 S
atom 4.8153384060964060 10.2217657264141888 62.9784542256478161 S
atom 10.2526886932378414 9.8230491428909907 62.9784509898956486 S
