#=======================================================
# FHI-aims file: full_relax/full_relax_RP_9_Rx0Rz_0Ry0.in
# Created using the Atomic Simulation Environment (ASE)
# Mon Mar 24 17:26:59 2025
#=======================================================
lattice_vector 9.9746490649760915 0.0000000000008666 0.0114011672463399 
lattice_vector 0.0000000000008570 10.0869158869575397 0.0000000000000162 
lattice_vector 0.1096256004314915 0.0000000000001479 95.6311538120695559 
atom -0.1867396618449206 -0.0000000000010358 0.0891355832088367 Ba
atom 5.0535289286854992 -0.0000000000003577 0.0924589615062502 Ba
atom 0.0662044010685327 5.0434579434763895 0.0867583765518906 Ba
atom 4.8005848767678216 5.0434579434765805 0.0948361670807792 Ba
atom -0.1064782178531098 -0.0000000000010169 4.7814961603177695 Ba
atom 4.8254772357100242 -0.0000000000004962 4.7520481291328807 Ba
atom -0.1618472851424371 5.0434579434791944 4.7463475434117575 Ba
atom 4.8808463352258551 5.0434579434793765 4.7871967247691929 Ba
atom 2.4296889558618688 2.5188927930733369 2.1548919566037310 Zr
atom 7.4170134889228168 2.5245651494131622 2.1605925405905961 Zr
atom 2.4296889558622197 7.5680230938817710 2.1548919566066846 Zr
atom 7.4170134889234118 7.5623507375422907 2.1605925405931479 Zr
atom 2.4530300033656536 2.5045666989475772 7.2289409393323210 Zr
atom 7.4403545346057900 2.5388912431727011 7.2346415250002103 Zr
atom 2.4530300033665040 7.5823491880078491 7.2289409393318174 Zr
atom 7.4403545346057749 7.5480246437834255 7.2346415249983034 Zr
atom 2.4374403053382871 2.8315441092094700 -0.3335158609996235 S
atom 7.4247648237212358 2.2119138357421630 -0.3278152771905458 S
atom 2.4374403053347713 7.2553717777450508 -0.3335158609960879 S
atom 7.4247648237255772 7.8750020512132579 -0.3278152771868123 S
atom 2.4489477216148288 2.2057284853844887 4.7321486046659436 S
atom 7.4362722810357660 2.8377294532443242 4.7378491887028158 S
atom 2.4489477216196058 7.8811874015699903 4.7321486046667065 S
atom 7.4362722810318704 7.2491864337109595 4.7378491886999257 S
atom 2.4293582663965978 -0.0000000000009825 1.9505540762960880 S
atom 7.4131186532615594 -0.0000000000001778 2.5767527756511912 S
atom 2.4257941212865259 5.0434579434769944 2.5710521934679953 S
atom 7.4166827981843690 5.0434579434768825 1.9562546643728334 S
atom 2.9148541877196124 -0.0000000000012678 7.4937806768050086 S
atom 7.0402102642655731 -0.0000000000028323 7.0076889092244343 S
atom 2.0528857323390763 5.0434579434776179 7.0019883293204099 S
atom 7.9021787163664792 5.0434579434789679 7.4994812644044320 S
atom -0.0615580929039602 2.5264603134816843 2.2740526424280341 S
atom 4.9257664395254181 2.5169976304574941 2.2797532471973736 S
atom -0.0615580929033085 7.5604555734725647 2.2740526424309744 S
atom 4.9257664395257228 7.5699182564976164 2.2797532471917639 S
atom -0.0343252821880575 2.0696288397985758 7.2515352563971467 S
atom 4.9529992504770419 2.9738291053177406 7.2572358113846223 S
atom -0.0343252821873326 8.0172870471552677 7.2515352563939715 S
atom 4.9529992504774585 7.1130867816366079 7.2572358113888287 S
atom -0.0629249696004635 -0.0000000000030998 9.7623183395865123 Ba
atom 5.0788429063976341 -0.0000000000011861 9.7921272450970935 Ba
atom 0.0915183945935130 5.0434579434774491 9.7864266426840043 Ba
atom 4.9243995767368700 5.0434579434770246 9.7680189075684627 Ba
atom 0.0942881571694622 -0.0000000000005921 14.8271605137796936 Ba
atom 4.9418293421115980 -0.0000000000014135 14.8237250595839143 Ba
atom -0.0454951785914790 5.0434579434761115 14.8180244615392098 Ba
atom 5.0816127019957618 5.0434579434773372 14.8328610833674954 Ba
atom 2.5021601223916590 2.5256430438826110 12.2855905758348918 Zr
atom 7.4894846548095790 2.5178148998915897 12.2912911595887415 Zr
atom 2.5021601223921199 7.5612728430715235 12.2855905758313764 Zr
atom 7.4894846548100213 7.5691009870636812 12.2912911595875656 Zr
atom 2.5128537574422429 2.5207533782335538 17.3504707565029328 Zr
atom 7.5001782903736229 2.5227045655246485 17.3561713402324607 Zr
atom 2.5128537574426764 7.5661625087210727 17.3504707565031424 Zr
atom 7.5001782903740848 7.5642113214309070 17.3561713402324287 Zr
atom 2.4726339775061192 2.7465848908862998 9.7689667557326914 S
atom 7.4599584784753024 2.2968730499404284 9.7746673402858057 S
atom 2.4726339775036248 7.3403309960684480 9.7689667557307196 S
atom 7.4599584784784012 7.7900428370154264 9.7746673402855286 S
atom 2.4972341239231866 2.3563757103854863 14.8243752885598301 S
atom 7.4845586853509163 2.6870822338642095 14.8300758717857679 S
atom 2.4972341239256401 7.7305401765692006 14.8243752885581905 S
atom 7.4845586853493584 7.3998336530914797 14.8300758717863967 S
atom 2.0451018727875514 -0.0000000000011735 12.1441162528278070 S
atom 7.9541672698540618 -0.0000000000011322 12.4629179061606337 S
atom 2.9668427361024072 5.0434579434769358 12.4572173227981704 S
atom 7.0324264041140081 5.0434579434779447 12.1498168368622661 S
atom 2.9856313231362837 -0.0000000000013192 17.4805246943647070 S
atom 7.0283804758437016 -0.0000000000000660 17.2384516074591758 S
atom 2.0410559426311221 5.0434579434772333 17.2327510248429583 S
atom 7.9729558556022289 5.0434579434768843 17.4862252784801342 S
atom 0.0025579988381851 3.0037632144232647 12.3000431730088042 S
atom 4.9898825311061108 2.0396947295898484 12.3057437862085095 S
atom 0.0025579988390061 7.0831526725306562 12.3000431730112769 S
atom 4.9898825311061152 8.0472211573649037 12.3057437862073940 S
atom 0.0164429098325294 2.0292156171043598 17.3529279197778763 S
atom 5.0037674425166987 3.0142423259422904 17.3586284779540634 S
atom 0.0164429098330040 8.0577002698496987 17.3529279197764232 S
atom 5.0037674425171312 7.0726735610130937 17.3586284779555697 S
atom -0.0386259773404448 -0.0000000000015595 19.8772382843633508 Ba
atom 5.0762401457456710 -0.0000000000002545 19.8926936830800472 Ba
atom 0.0889156225981566 5.0434579434771978 19.8869930880338792 Ba
atom 4.9486985643432151 5.0434579434765263 19.8829388552778070 Ba
atom 0.0900129686849974 -0.0000000000013676 24.9498650771934933 Ba
atom 4.9497959102225622 -0.0000000000017155 24.9458108450806613 Ba
atom -0.0375286131927897 5.0434579434768541 24.9401102499750102 Ba
atom 5.0773375096843383 5.0434579434784856 24.9555656493348579 Ba
atom 2.5193557664386068 2.5217289717804583 22.4164019665143286 Zr
atom 7.5066802987354011 2.5217289717806328 22.4221025501872582 Zr
atom 2.5193557664390149 7.5651869151746416 22.4164019665179239 Zr
atom 7.5066802987359029 7.5651869151751052 22.4221025501881535 Zr
atom 2.5258577750738644 2.5227045653318845 27.4823331765984911 Zr
atom 7.5131823074586155 2.5207533780416624 27.4880337600814073 Zr
atom 2.5258577750742703 7.5642113216231524 27.4823331765987540 Zr
atom 7.5131823074590063 7.5661625089144318 27.4880337600833435 Zr
atom 2.5129558389565467 2.6665976155798257 19.8853629559500860 S
atom 7.5002803462900403 2.3768603279436618 19.8910635399304176 S
atom 2.5129558389550768 7.4203182713750513 19.8853629559520257 S
atom 7.5002803462923824 7.7100555590120248 19.8910635399295579 S
atom 2.5257556943687063 2.3768603280819516 24.9474409771156438 S
atom 7.5130802507327887 2.6665976157186435 24.9531415604118685 S
atom 2.5257556943709858 7.7100555588729458 24.9474409771174237 S
atom 7.5130802507312886 7.4203182712371287 24.9531415604127140 S
atom 2.0444430960062108 -0.0000000000011135 22.3003811010653195 S
atom 7.9815929694507348 -0.0000000000012353 22.5381234156734749 S
atom 2.9942684368537846 5.0434579434772759 22.5324228319431583 S
atom 7.0317676280379873 5.0434579434781295 22.3060816847407466 S
atom 2.9976555898756194 -0.0000000000011217 27.6000529083845620 S
atom 7.0404047422063725 -0.0000000000011062 27.3579798218287422 S
atom 2.0530802094030203 5.0434579434774722 27.3522792387437583 S
atom 7.9849801219983751 5.0434579434781348 27.6057534927292849 S
atom 0.0256935001766583 3.0164908324962068 22.4135516633042293 S
atom 5.0130180325100087 2.0269671107234060 22.4192522697846037 S
atom 0.0256935001771682 7.0704250544583198 22.4135516633049470 S
atom 5.0130180325102778 8.0599487762318738 22.4192522697823549 S
atom 0.0349440901783095 2.0292156173185121 27.4741754539473710 S
atom 5.0222686228446172 3.0142423261563187 27.4798760144912677 S
atom 0.0349440901789155 8.0577002696363724 27.4741754539454064 S
atom 5.0222686228449440 7.0726735607989060 27.4798760144924898 S
atom -0.0429011686149302 -0.0000000000024098 29.9999428490269509 Ba
atom 5.0842067121226266 -0.0000000000010094 30.0147794704429138 Ba
atom 0.0968821897290461 5.0434579434785443 30.0090788746076207 Ba
atom 4.9444233748237290 5.0434579434779652 30.0056434199995543 Ba
atom 0.1143119571553914 -0.0000000000005226 35.0647850241009351 Ba
atom 4.9471931397940612 -0.0000000000014350 35.0463772889544884 Ba
atom -0.0401313754160227 5.0434579434773656 35.0406766894371344 Ba
atom 5.1016365010804652 5.0434579434786855 35.0704855949166472 Ba
atom 2.5365514103857745 2.5178148996583736 32.5472133572243649 Zr
atom 7.5238759427615172 2.5256430436509603 32.5529139407845278 Zr
atom 2.5365514103863815 7.5691009872967419 32.5472133572220770 Zr
atom 7.5238759427618760 7.5612728433050753 32.5529139407839665 Zr
atom 2.5856815293961826 2.5388912444196725 37.6038629935775219 Zr
atom 7.5730060629793376 2.5045667001957557 37.6095635755171642 Zr
atom 2.5856815293961488 7.5480246425340454 37.6038629935774225 Zr
atom 7.5730060629802418 7.5823491867587380 37.6095635755137749 Zr
atom 2.5414774069307562 2.6870822332940207 30.0084286445547512 S
atom 7.5288019141433473 2.3563757098176468 30.0141292285235401 S
atom 2.5414774069291952 7.3998336536607487 30.0084286445532058 S
atom 7.5288019141459097 7.7305401771381241 30.0141292285237995 S
atom 2.5660775578072332 2.2968730524088881 35.0638371772760991 S
atom 7.5534021165590746 2.7465848933530332 35.0695377601350131 S
atom 2.5660775578107504 7.7900428345455897 35.0638371772754311 S
atom 7.5534021165564482 7.3403309936025138 35.0695377601353826 S
atom 2.0718687965688170 -0.0000000000015524 32.3755866102307408 S
atom 7.9809341933842086 -0.0000000000020239 32.6943882635283742 S
atom 2.9936096600630386 5.0434579434775433 32.6886876801900570 S
atom 7.0591933278205614 5.0434579434792148 32.3812871942208957 S
atom 2.9858258004045202 -0.0000000000008255 37.8308156041145054 S
atom 7.1111818809853125 -0.0000000000000157 37.3447238362809699 S
atom 2.1238573452751326 5.0434579434774660 37.3390232559299307 S
atom 7.9731503333381619 5.0434579434758326 37.8365161907563774 S
atom 0.0488290015593565 3.0037632138162258 32.5270601490947158 S
atom 5.0361535338666830 2.0396947289818828 32.5327607578510296 S
atom 0.0488290015602294 7.0831526731385841 32.5270601490971245 S
atom 5.0361535338665400 8.0472211579739739 32.5327607578493385 S
atom 0.0857122822298247 2.0696288382533790 37.5755681191630728 S
atom 5.0730368148513438 2.9738291037747553 37.5812686792254809 S
atom 0.0857122822307037 8.0172870487015295 37.5755681191597546 S
atom 5.0730368148516689 7.1130867831811253 37.5812686792298223 S
atom 0.1578651993650750 -0.0000000000025863 40.0456072066003514 Ba
atom 5.2005588189313094 -0.0000000000023448 40.0864563894718486 Ba
atom 0.2132342958735952 5.0434579434751745 40.0807558041553236 Ba
atom 5.1451897486307452 5.0434579434757518 40.0513077744834902 Ba
atom 0.2381266565195711 -0.0000000000020809 44.7379677660342239 Ba
atom 4.9725071321045169 -0.0000000000019190 44.7460455564089301 Ba
atom -0.0148173964858158 5.0434579434769304 44.7403449716997059 Ba
atom 5.2254511939249531 5.0434579434776481 44.7436683498418688 Ba
atom 2.6090225767759594 2.5245651503140225 42.6779119764378052 Zr
atom 7.5963471087853600 2.5188927939738290 42.6836125597710421 Zr
atom 2.6090225767765731 7.5623507366400853 42.6779119764389421 Zr
atom 7.5963471087857037 7.5680230929807886 42.6836125597728326 Zr
atom 2.5897638085712948 2.8377294576567458 40.1006553283810590 S
atom 7.5770883191244440 2.2057284898011860 40.1063559116688282 S
atom 2.5897638085671542 7.2491864292980157 40.1006553283820608 S
atom 7.5770883191297180 7.8811873971546174 40.1063559116645365 S
atom 2.6012712287133097 2.2119138344025289 45.1663197940504162 S
atom 7.5885957725735897 2.8315441078721983 45.1720203775327036 S
atom 2.6012712287177688 7.8750020525514453 45.1663197940514323 S
atom 7.5885957725700095 7.2553717790832319 45.1720203775356808 S
atom 2.6129174114513281 -0.0000000000016923 42.2617517397647688 S
atom 7.5966777994321317 -0.0000000000019939 42.8879504363703887 S
atom 2.6093532663343222 5.0434579434770512 42.8822498563926331 S
atom 7.6002419443470401 5.0434579434781934 42.2674523245529983 S
atom 0.1129450931534123 2.5264603130601473 42.5530506879022568 S
atom 5.1002696255953692 2.5169976300356063 42.5587512886611705 S
atom 0.1129450931534869 7.5604555738934689 42.5530506879061576 S
atom 5.1002696255962716 7.5699182569189061 42.5587512886561896 S
atom 2.5995722095933007 2.6663472277669800 48.2467089204026962 Ba
atom 7.5868967427193219 2.3771107158386262 48.2524095041311654 Ba
atom 2.5995722095919609 7.4205686591918685 48.2467089204051334 Ba
atom 7.5868967427214997 7.7098051711128068 48.2524095041300285 Ba
atom 2.5940971790581124 2.5011600844244932 52.9294380940841904 Ba
atom 7.5814217116088454 2.5422978590709362 52.9351386777785962 Ba
atom 2.5940971790475791 7.5857558025262577 52.9294380940978684 Ba
atom 7.5814217116202274 7.5446180278590544 52.9351386777674620 Ba
atom 5.1018974100652068 5.0434579434777582 50.3135354905058421 Zr
atom 10.0671656174296853 5.0434579434765032 50.3202074412499698 Zr
atom 5.0798410848191669 10.0869158869547206 50.3145068577305992 Zr
atom 10.0892219424684857 10.0869158869568647 50.3192360740610880 Zr
atom 5.0863668287475035 5.0434579434808171 55.3338322237660805 Zr
atom 10.0710903832333791 5.0434579434842064 55.3399785311659755 Zr
atom 5.0837658506962553 10.0869158869623909 55.3342779475996096 Zr
atom 10.0736913612087253 10.0869158869598721 55.3395328073235433 Zr
atom 4.7517164295039427 5.0434579434780815 47.8228427349904521 S
atom 10.4229530218001507 5.0434579434876445 47.8303498483517728 S
atom 5.4356284896885620 10.0869158869558273 47.8246492644454406 S
atom 9.7390409618802050 10.0869158869471676 47.8285433191644245 S
atom 5.5609274130117221 5.0434579434805480 52.8578939958488192 S
atom 9.6020929802025776 5.0434579434551141 52.8627388178064663 S
atom 4.6147684477221427 10.0869158869551541 52.8570382340858202 S
atom 10.5482519456285964 10.0869158869814868 52.8635945795766773 S
atom 5.0907067545901867 2.5217670051188383 50.4419918656594746 S
atom 10.0780312871123279 2.5216909383759991 50.4476924495094323 S
atom 5.0907067545912250 7.5651488818357890 50.4419918656559574 S
atom 10.0780312871120614 7.5652249485794805 50.4476924495426857 S
atom 5.0850179386918466 2.5217200388259959 55.3485984514396847 S
atom 10.0723424711047969 2.5217379046597208 55.3542990352636011 S
atom 5.0850179386201546 7.5651958481376269 55.3485984514559348 S
atom 10.0723424711774019 7.5651779823047578 55.3542990351879993 S
atom 2.5966890686143582 5.0434579434779607 50.7979716497079750 S
atom 7.5849061056032934 5.0434579434779652 49.9802611503545080 S
atom 2.5975815731865897 10.0869158869565627 49.9745605664686394 S
atom 7.5840136009222050 10.0869158869554241 50.8036722334978705 S
atom 2.5918972225835888 5.0434579434488302 54.8526288638771504 S
atom 7.5781234233183135 5.0434579435155102 55.8348759211794885 S
atom 2.5907988908441966 10.0869158869971791 55.8291753376003825 S
atom 7.5792217550500611 10.0869158869287112 54.8583294475183365 S
atom 2.5884921845151272 2.5243002990110619 57.8390357462338756 Ba
atom 7.5758167170681832 2.5191576445205763 57.8447363298470307 Ba
atom 2.5884921845449682 7.5626155880105026 57.8390357462351901 Ba
atom 7.5758167170392703 7.5677582424673853 57.8447363298442383 Ba
atom 2.5827300386377998 2.5190130009383664 62.7915784825437413 Ba
atom 7.5700545710925109 2.5244449425580822 62.7972790660466273 Ba
atom 2.5827300385948448 7.5679028860624591 62.7915784824187497 Ba
atom 7.5700545711363310 7.5624709443982647 62.7972790661718321 Ba
atom 5.0776217102745367 5.0434579434881526 60.3024234980485403 Zr
atom 10.0682391631395163 5.0434579434860094 60.3083332476718965 Zr
atom 5.0809146306482047 10.0869158869645137 60.3026326640728740 Zr
atom 10.0649462427561165 10.0869158869676081 60.3081240816515773 Zr
atom 5.0738872640586905 5.0434579434639470 65.2692154661452548 Zr
atom 10.0605566787322580 5.0434579434659250 65.2749932430987627 Zr
atom 5.0732321462451981 10.0869158869440714 65.2692926594920380 Zr
atom 10.0612117965479833 10.0869158869429150 65.2749160497601508 Zr
atom 4.5752612212330304 5.0434579434728848 57.8236484893016893 S
atom 10.5764247746959690 5.0434579435239968 57.8306433071502397 S
atom 5.5891002422213045 10.0869158869665387 57.8249427235148943 S
atom 9.5625857537327850 10.0869158869163034 57.8293490729452913 S
atom 5.5843565970024471 5.0434579434892095 62.7887151356215583 S
atom 9.5557640973220348 5.0434579434168150 62.7933181370997247 S
atom 4.5684395648374263 10.0869158869419433 62.7876175534815459 S
atom 10.5716811294864446 10.0869158870151949 62.7944157192522354 S
atom 5.0792620714291887 2.5217221121822186 60.3097792887204847 S
atom 10.0665866037627101 2.5217358313023075 60.3154798722977716 S
atom 5.0792620712768271 7.5651937747789422 60.3097792886872099 S
atom 10.0665866039158107 7.5651800556597628 60.3154798724201271 S
atom 5.0735609664336465 2.5217296687847792 65.2711667222708201 S
atom 10.0608854992080108 2.5217282746752181 65.2768673060028988 S
atom 5.0735609667192350 7.5651862181545217 65.2711667223176306 S
atom 10.0608854989233958 7.5651876122649169 65.2768673058482705 S
atom 2.5850347429437845 5.0434579434093747 60.8069245716435631 S
atom 7.5735275756781419 5.0434579435343592 59.8150491417505634 S
atom 2.5862030431963028 10.0869158870122373 59.8093485581389359 S
atom 7.5723592754251694 10.0869158868851017 60.8126251552702470 S
atom 2.5804613377983254 5.0434579435997930 64.7686407318067836 S
atom 7.5666397995128571 5.0434579433506457 65.7747085754894414 S
atom 2.5793152670260038 10.0869158868321502 65.7690079918664168 S
atom 7.5677858702850305 10.0869158870780655 64.7743413154337446 S
atom 2.5770426188200681 2.5235609357604178 67.7506534212952403 Ba
atom 7.5643671513630064 2.5198970075987095 67.7563540049462887 Ba
atom 2.5770426188722761 7.5633549511103837 67.7506534213250973 Ba
atom 7.5643671513116510 7.5670188792214441 67.7563540049165312 Ba
atom 2.5712945142963850 2.5198970076662328 72.7133043237757875 Ba
atom 7.5586190467285421 2.5235609357791873 72.7190049075520761 Ba
atom 2.5712945142449564 7.5670188792856532 72.7133043239278152 Ba
atom 7.5586190467808274 7.5633549511226130 72.7190049073997926 Ba
atom 5.0678308328039483 5.0434579434574491 70.2348291644018019 Zr
atom 10.0551553652902648 5.0434579434578968 70.2405297480126194 Zr
atom 5.0678308328023647 10.0869158869363407 70.2348291643966149 Zr
atom 10.0551553652898686 10.0869158869367563 70.2405297480113973 Zr
atom 5.0617744015435537 5.0434579434841185 75.2004428626554215 Zr
atom 10.0497540518488915 5.0434579434829363 75.2060662529203796 Zr
atom 5.0624295193598225 10.0869158869613926 75.2003656693057820 Zr
atom 10.0490989340355981 10.0869158869634514 75.2061434462546572 Zr
atom 4.5617802265881835 5.0434579434536513 67.7520867981644699 S
atom 10.5669490246868474 5.0434579435396270 67.7589647268367941 S
atom 5.5796244921989482 10.0869158869650395 67.7532641432174927 S
atom 9.5491047590798352 10.0869158868799023 67.7577873817880203 S
atom 5.5738814390122986 5.0434579434902638 72.7175715306271542 S
atom 9.5433617058940943 5.0434579434052687 72.7220947691939301 S
atom 4.5560371734067902 10.0869158869366409 72.7163941855694986 S
atom 10.5612059715040818 10.0869158870224407 72.7232721142432581 S
atom 5.0678308327003672 2.5217255544490853 70.2348291644148759 S
atom 10.0551553653916734 2.5217323890051171 70.2405297479334934 S
atom 5.0678308329039572 7.5651903324850371 70.2348291643639868 S
atom 10.0551553651888046 7.5651834979298513 70.2405297480992772 S
atom 5.0621006991853168 2.5217296687943369 75.1984916064568409 S
atom 10.0494252313570325 2.5217282746847487 75.2041921901912787 S
atom 5.0621006988695543 7.5651862181634204 75.1984916065027988 S
atom 10.0494252316737569 7.5651876122738519 75.2041921900378298 S
atom 2.5735962398005827 5.0434579435678808 70.7330106718378744 S
atom 7.5620654258030156 5.0434579433923545 69.7366476569409173 S
atom 2.5747408933161111 10.0869158868729318 69.7309470733198680 S
atom 7.5609207722898732 10.0869158870450590 70.7387112554655886 S
atom 2.5690218660902144 5.0434579433386668 74.6949497532927751 S
atom 7.5552003278082829 5.0434579436057829 75.7010175969695496 S
atom 2.5678757953186819 10.0869158870848654 75.6953170133570126 S
atom 7.5563463985801977 10.0869158868149071 74.7006503369194945 S
atom 2.5656070944799563 2.5244449426124560 77.6723792627110896 Ba
atom 7.5529316269979923 2.5190130009463148 77.6780798462662290 Ba
atom 2.5656070945236849 7.5624709444395286 77.6723792626482066 Ba
atom 7.5529316269550844 7.5679028860620265 77.6780798463298368 Ba
atom 2.5598449486057215 2.5191576445188448 82.6249219989448562 Ba
atom 7.5471694810194050 2.5243002989755881 82.6306225825417755 Ba
atom 2.5598449485772417 7.5677582424654881 82.6249219989037584 Ba
atom 7.5471694810487566 7.5626155879763113 82.6306225825821343 Ba
atom 5.0580399553374642 5.0434579434888276 80.1672348307553762 Zr
atom 10.0420715674448147 5.0434579434918927 80.1727262483335750 Zr
atom 5.0547470349541097 10.0869158869699582 80.1670256647321509 Zr
atom 10.0453644878161246 10.0869158869677520 80.1729354143480464 Zr
atom 5.0492948368885475 5.0434579434795062 85.1358261050842486 Zr
atom 10.0392203474020381 5.0434579434769686 85.1410809647952078 Zr
atom 5.0518958148535917 10.0869158869554969 85.1353803812453265 Zr
atom 10.0366193693417713 10.0869158869588365 85.1415266886360200 Zr
atom 4.5513050686085483 5.0434579434681224 77.6809431931567076 S
atom 10.5545466332541338 5.0434579435408935 77.6877413589297277 S
atom 5.5672221007710281 10.0869158869727524 77.6820407753033635 S
atom 9.5386296010903369 10.0869158869007816 77.6866437767781406 S
atom 5.5604004443590114 5.0434579434884608 82.6460098394533702 S
atom 9.5338859558697280 5.0434579434386411 82.6504161888907305 S
atom 4.5465614233983969 10.0869158869517630 82.6447156052510650 S
atom 10.5477249768627761 10.0869158870024265 82.6517104231045465 S
atom 5.0563995942710775 2.5217221121853468 80.1598790400630605 S
atom 10.0437241267216688 2.5217358313055351 80.1655796236495348 S
atom 5.0563995942352511 7.5651937747837676 80.1598790400299208 S
atom 10.0437241267582209 7.5651800556644275 80.1655796237695313 S
atom 5.0506437269150855 2.5217200388247889 85.1210598771548206 S
atom 10.0379682594729474 2.5217379046579897 85.1267604610158912 S
atom 5.0506437269882705 7.5651958481353434 85.1210598771719731 S
atom 10.0379682594006869 7.5651779823030045 85.1267604609413411 S
atom 2.5621340899202090 5.0434579434580646 80.6546091870223165 S
atom 7.5506269226685232 5.0434579434955920 79.6627337571370475 S
atom 2.5633023901723453 10.0869158869778648 79.6570331735217394 S
atom 7.5494586224156874 10.0869158869376445 80.6603097706610015 S
atom 2.5575382422711650 5.0434579435174429 84.6347824075577080 S
atom 7.5437644430453910 5.0434579434535074 85.6170294648906349 S
atom 2.5564399105301945 10.0869158869307149 85.6113288812853170 S
atom 7.5448627747774024 10.0869158869933830 84.6404829912331422 S
atom 2.5542399540657730 2.5422978590436194 87.5345196510722729 Ba
atom 7.5415644864758953 2.5011600843798885 87.5402202346271281 Ba
atom 2.5542399540768583 7.5446180279058392 87.5345196510793357 Ba
atom 7.5415644864656546 7.5857558025501435 87.5402202346235185 Ba
atom 2.5487649236024170 2.3771107156933149 92.2172488247803130 Ba
atom 7.5360894552935864 2.6663472276186031 92.2229494082683061 Ba
atom 2.5487649236046090 7.7098051712640796 92.2172488247789488 Ba
atom 7.5360894552922781 7.4205686593325808 92.2229494082670556 Ba
atom 5.0337642556338089 5.0434579434755307 90.1561228383509530 Zr
atom 10.0431451132893663 5.0434579434775895 90.1608520546635646 Zr
atom 5.0558205806477394 10.0869158869563371 90.1551514711717346 Zr
atom 10.0210887880197852 10.0869158869551114 90.1618234218985890 Zr
atom 4.5747342524459951 5.0434579434756577 87.6117643328116174 S
atom 10.5082177503707346 5.0434579435016502 87.6183206783265547 S
atom 5.5208932178946482 10.0869158869593658 87.6126200945876263 S
atom 9.5620587850963243 10.0869158869342623 87.6174649165781432 S
atom 5.3839452362232496 5.0434579434768843 92.6468155931808042 S
atom 9.6873577083592011 5.0434579434683569 92.6507096480023620 S
atom 4.7000331763372944 10.0869158869562856 92.6450090640313419 S
atom 10.3712697685808486 10.0869158869656523 92.6525161774929842 S
atom 5.0449549109763616 2.5217670050967156 90.0276664628434986 S
atom 10.0322794435058285 2.5216909383547788 90.0333670467593805 S
atom 5.0449549109780829 7.5651488818568495 90.0276664628402585 S
atom 10.0322794435049598 7.5652249485996226 90.0333670467918807 S
atom 2.5507555599217566 5.0434579434790114 90.4893971787161746 S
atom 7.5389725971925232 5.0434579434735971 89.6716866788861608 S
atom 2.5516480644818960 10.0869158869539515 89.6659860954636088 S
atom 7.5380800924979781 10.0869158869564881 90.4950977620144101 S
