#=======================================================
# FHI-aims file: full_relax/full_relax_RP_8_RxRyRz_RxRyRz.in
# Created using the Atomic Simulation Environment (ASE)
# Mon Mar 24 16:11:07 2025
#=======================================================
lattice_vector 9.9505457943894946 -0.0023990850208757 -0.0022257650193832 
lattice_vector -0.0023990850210878 9.9505457947376588 0.0022257652202477 
lattice_vector -0.0131561908151841 0.0131561925135492 86.9536414229939112 
atom 0.0562578390729873 -0.1038629692744522 0.1963233216642727 Ba
atom 5.0791357481455597 -0.0574574328308437 0.1952123316221758 Ba
atom 0.1026641226455496 4.9190149632242912 0.1974340739038967 Ba
atom 5.0303312660184520 4.8702101573846992 0.1963224580193090 Ba
atom -0.2683952016737007 0.2071681578335616 5.0198923855885607 Ba
atom 4.7681044545143783 0.2671961294282756 5.0187794082314072 Ba
atom -0.2083674167380832 5.2436682089665485 5.0210054489751288 Ba
atom 4.7056776978809616 5.1812412886692369 5.0198923435822866 Ba
atom 2.4581721817880737 2.5260660048365726 2.3963855812953661 Zr
atom 7.4232805903885062 2.5147005397117859 2.3952707924136578 Zr
atom 2.4468088981525593 7.4911729770118916 2.3974969281041099 Zr
atom 7.4322449918905278 7.5001393352337766 2.3963846497123176 Zr
atom 2.4023569661279383 2.5352816720277564 7.4883544338420256 Zr
atom 7.4140647504633934 2.5705176118978015 7.4872423222727766 Zr
atom 2.4375917461240477 7.5469894116089149 7.4894680902980939 Zr
atom 7.3764307791385795 7.5093545587214487 7.4883556704110736 Zr
atom 2.6135879290499489 2.7483618490293749 -0.1193794805089730 S
atom 7.2009842874131040 2.3592858076123933 -0.1204930577667915 S
atom 2.2245115732106631 7.3357583156067108 -0.1182679982634131 S
atom 7.5876615654218220 7.7224353493736864 -0.1193809740891476 S
atom 2.2306790630822722 2.2964852974760723 4.9769564568013243 S
atom 7.6528608890650593 2.7421952013986131 4.9758439718819769 S
atom 2.6763887824658958 7.7186674524809460 4.9780695411723190 S
atom 7.2047520062358217 7.2705584513708281 4.9769574146814568 S
atom 2.7425053232552168 0.0446733742462248 2.2601772822772284 S
atom 7.0752668396350957 0.0466009543255725 2.7386341364590181 S
atom 2.0987945258614822 5.0230733921004251 2.7408602372872903 S
atom 7.7165775264981598 5.0187470239015406 2.2601786588250539 S
atom 2.9243191023795649 0.0530638130276510 7.7057208808066591 S
atom 6.9636272018536847 0.0529524539080146 7.3171022064894871 S
atom 1.9871548836949731 5.0294237229379775 7.3193281464809896 S
atom 7.8983921379858284 5.0271360052294778 7.7057203822092317 S
atom -0.0458713242720361 2.2327680308821032 2.2612905866192596 S
atom 4.9262717067883113 2.8740795415202580 2.7397473687639597 S
atom -0.0502004503871509 7.8505517308401656 2.7419729639241717 S
atom 4.9282015490039575 7.2068416967158235 2.2612912292315248 S
atom -0.0542631076050081 2.0509539454979477 7.7068338961060796 S
atom 4.9199217567889422 2.9857190683836659 7.3182151948745213 S
atom -0.0565503935959755 7.9621915735182576 7.3204407870196775 S
atom 4.9198100634819939 7.0250273571036450 7.7068332263411774 S
atom -0.0051583043769680 -0.0726548249820306 10.0478300009015822 Ba
atom 5.0479274349140884 0.0039587185344800 10.0467172453589821 Ba
atom 0.0714551059995936 4.9804314370952216 10.0489431157191706 Ba
atom 4.9689151925154738 4.9014185887056483 10.0478304155900222 Ba
atom 0.0492183834268026 0.0172700066377358 15.1300786442187736 Ba
atom 4.9580027404437264 -0.0504182099698179 15.1289657472448944 Ba
atom -0.0184699691527483 4.9260547182749725 15.1311914831933105 Ba
atom 5.0232920026835330 4.9913438095306759 15.1300786250611203 Ba
atom 2.4904692152103420 2.4953299585438904 12.5757713664484925 Zr
atom 7.4540154130408336 2.4824060276940654 12.5746599099269307 Zr
atom 2.4775430136675629 7.4588774723526585 12.5768857638491003 Zr
atom 7.4645424953558477 7.4694023019645623 12.5757721433739480 Zr
atom 2.4855483649995000 2.4888681469833989 17.6727323126066977 Zr
atom 7.4604787448910344 2.4873252332732614 17.6716189951909826 Zr
atom 2.4840066874374260 7.4637969719492236 17.6738440786619257 Zr
atom 7.4596213171768158 7.4629407698296184 17.6727305395701109 Zr
atom 2.5717439783669409 2.6700438263319275 10.0431638121322653 S
atom 7.2793025669091449 2.4011295752067072 10.0420515897388807 S
atom 2.3028300361300422 7.3776021363469644 10.0442783961141764 S
atom 7.5458174174320520 7.6441173805467360 10.0431646156846881 S
atom 2.4102994992788300 2.4478953581131866 15.1298147656908952 S
atom 7.5014508346606048 2.5625741680791827 15.1287029412575809 S
atom 2.5249783900888740 7.5390468121968111 15.1309278008483190 S
atom 7.3843728482380175 7.4219688802733002 15.1298153026719362 S
atom 1.9901435188068377 0.0091597820979337 12.5199271379970902 S
atom 7.9819167086327107 0.0089613039468501 12.6580727935293265 S
atom 3.0054440627071664 4.9854341719835933 12.6602986547576233 S
atom 6.9642168727138900 4.9832336378783078 12.5199269334488772 S
atom 3.0016902741842486 0.0044583096329867 17.7110427340178163 S
atom 6.9424900203778854 0.0032005792870388 17.6401064826491130 S
atom 1.9660175413099508 4.9796732825664076 17.6423321656763825 S
atom 7.9757635739099486 4.9785319150657639 17.7110428949286813 S
atom -0.0103597887662520 2.9851293335442710 12.5210399428153671 S
atom 4.9639128530149188 1.9674295761158340 12.6591858718672370 S
atom -0.0125590857826909 6.9439021735352116 12.6614113581568368 S
atom 4.9637130229656536 7.9592028994270496 12.5210398518260018 S
atom -0.0056586432544742 1.9735825725366261 17.7121555580270034 S
atom 4.9696740271040225 3.0068562105786345 17.6412191615965845 S
atom -0.0067993022095616 7.9833288356127365 17.6434451997284967 S
atom 4.9684155489162194 6.9476560839147341 17.7121558557151815 S
atom -0.0235834811375123 -0.0174642941449495 20.2217779073719228 Ba
atom 4.9927373704551039 0.0223842098143978 20.2206650248434130 Ba
atom 0.0162649471403832 4.9988562476330927 20.2228906125271202 Ba
atom 4.9504897587123899 4.9566088388094975 20.2217777358352748 Ba
atom 0.0111512915642215 0.0553379183760748 25.3134756130125815 Ba
atom 4.9199351441784787 -0.0123503072644149 25.3123626009105287 Ba
atom -0.0565370685831254 4.9641215582658456 25.3145884829927859 Ba
atom 4.9852244585645513 5.0294107177120990 25.3134754525307208 Ba
atom 2.4827488298070399 2.4916674718678857 22.7708243667075649 Zr
atom 7.4576781040952440 2.4901253029124506 22.7697089637011629 Zr
atom 2.4812059119253251 7.4665977761116338 22.7719345289764661 Zr
atom 7.4568219323837726 7.4657408850352684 22.7708238783531414 Zr
atom 2.4892108054401576 2.4965877050192349 27.8677809736868163 Zr
atom 7.4527585598493298 2.4836627441021313 27.8666698662666334 Zr
atom 2.4762857297135312 7.4601352721650054 27.8688962703621534 Zr
atom 7.4632845869534350 7.4706612011751110 27.8677825528738978 Zr
atom 2.5249357104320378 2.5310548022250439 20.2217775602784542 S
atom 7.4182914140403495 2.4479380609213228 20.2206632914326505 S
atom 2.4418189351656263 7.4244105755144583 20.2228899336581307 S
atom 7.4990091017049627 7.5051282069157335 20.2217771231409955 S
atom 2.4417762351206926 2.4164187112906457 25.3137421418534423 S
atom 7.5329275799688542 2.5310974871589598 25.3126286717456139 S
atom 2.5564551008890533 7.5075698824711328 25.3148534058887762 S
atom 7.4158496445227255 7.3904920764528832 25.3137404832401742 S
atom 1.9674632376169003 0.0004605455886228 22.7313972613737647 S
atom 7.9772097175574022 -0.0006802362979923 22.8001082286463941 S
atom 3.0007372559196797 4.9757933510797372 22.8023338744908770 S
atom 6.9415366734246664 4.9745350378840500 22.7313975024308483 S
atom 2.9790102163446273 -0.0042405657993833 27.9225143003325051 S
atom 6.9377829488169240 -0.0064394205055733 27.7821427512886316 S
atom 1.9613105143954561 4.9700319032272349 27.7843684508501134 S
atom 7.9530835666156792 4.9698316294169214 27.9225143270534630 S
atom -0.0016607678160033 3.0078097085511941 22.7325101707685739 S
atom 4.9735537924348687 1.9721364734927178 22.8012208969392667 S
atom -0.0029185977317083 6.9486091323371815 22.8034469267127378 S
atom 4.9724125564879964 7.9818828117852307 22.7325103997608551 S
atom 0.0030407960856141 1.9962627390286403 27.9236271517512797 S
atom 4.9793148406402663 3.0115632348965997 27.7832557886960565 S
atom 0.0028426841811786 7.9880357068665333 27.7854812514216292 S
atom 4.9771137521480435 6.9703359696253013 27.9236271314384759 S
atom -0.0787743109380473 0.0009608066195727 30.3957240662725496 Ba
atom 4.9743121575061071 0.0775743724528134 30.3946112741377377 Ba
atom -0.0021603387583976 5.0540471568744971 30.3968366618573782 Ba
atom 4.8952991105458077 4.9750342372231611 30.3957239787099134 Ba
atom 0.2010490528150067 -0.2622770116373346 35.4236610512913188 Ba
atom 5.2375492712362357 -0.2022487452497746 35.4225477759912906 Ba
atom 0.2610763151488745 4.7742246926705718 35.4247738656020914 Ba
atom 5.1751227553942911 4.7117972581180485 35.4236613412501384 Ba
atom 2.5291622047932343 2.4084770185035125 32.9551980141526499 Zr
atom 7.5408706080897590 2.4437099730886125 32.9540873618089378 Zr
atom 2.5643985343802846 7.4201832169153263 32.9563133657463609 Zr
atom 7.5032355300279070 7.3825512067522121 32.9551998607655392 Zr
atom 2.5199484852752643 2.4642908568901873 38.0471687632985862 Zr
atom 7.4850519938259588 2.4529289894059705 38.0460548156081302 Zr
atom 2.5085790917214421 7.4293994579700398 38.0482802720460995 Zr
atom 7.4940221568779899 7.4383624720732122 38.0471669193872728 Zr
atom 2.6639247331226623 2.5778633004475888 30.4003857220183278 S
atom 7.3714827080021896 2.3089492647093897 30.3992732824483234 S
atom 2.3950105305369451 7.2854216134502883 30.4015003004453064 S
atom 7.6379980964229821 7.5519366312093217 30.4003857103486013 S
atom 2.2903658134097173 2.2367977947375652 35.4665968633268776 S
atom 7.7125484618296491 2.6825076748839010 35.4654842214698434 S
atom 2.7360756880050929 7.6589801845124237 35.4677094833016113 S
atom 7.2644393803482838 7.2108713386152372 35.4665979691689586 S
atom 2.0448347699321734 -0.0481448028620977 32.7367216012951801 S
atom 7.9560723294405813 -0.0504307563285368 33.1231138162153371 S
atom 2.9795996945258394 4.9260418085810276 33.1253396610649418 S
atom 7.0189078994699141 4.9259281968964279 32.7367212868620712 S
atom 2.2266478555663172 -0.0397492675270088 38.1822655917842440 S
atom 7.8444328950676798 -0.0440818613432677 37.7015829102277706 S
atom 2.8679601613484462 4.9323892564507545 37.7038083949629694 S
atom 7.2007217893846356 4.9343221406557207 38.1822651489605676 S
atom 0.0469447740317740 2.9304379565387619 32.7378347529382125 S
atom 5.0233057610277498 1.9932738511445931 33.1242269579863660 S
atom 0.0468344966230735 6.9697460214411961 33.1264525379683192 S
atom 5.0210159407647277 7.9045114472259224 32.7378340398397398 S
atom 0.0385563427792845 2.7486235876071246 38.1833774935175541 S
atom 5.0169524781873500 2.1049136499161820 37.7026958888156614 S
atom 0.0404805639730398 7.0813862319567553 37.7049214828920540 S
atom 5.0126291011057225 7.7226980444176565 38.1833786944514557 S
atom -0.1099808686935557 0.0623768377946432 40.2472275775203272 Ba
atom 4.9128955431025689 0.1087823017398734 40.2461150117139610 Ba
atom -0.0635767800387675 5.0852551449419314 40.2483421355633837 Ba
atom 4.8640919827670626 5.0364501675809334 40.2472289302041872 Ba
atom 2.7422426718882233 2.6197070482246705 40.5629344487796786 S
atom 7.3296390153373023 2.2306306331445445 40.5618193507602598 S
atom 2.3531669460829843 7.2071034320541614 40.5640446961039203 S
atom 7.7163156624150240 7.5937809044553646 40.5629332810744145 S
atom 2.5367164543859602 2.3897532943919106 43.6731419718025577 Ba
atom 7.5595939217154111 2.4361574922038929 43.6720312105366233 Ba
atom 2.5831208178171865 7.4126288147852675 43.6742570430829957 Ba
atom 7.5107901325416577 7.3638255462022020 43.6731430708500810 Ba
atom 2.2120628785890717 2.7007834734460867 48.4967157275669720 Ba
atom 7.2485632808434630 2.7608104182047337 48.4956026195070393 Ba
atom 2.2720901209237860 7.7372830259358318 48.4978289054996878 Ba
atom 7.1861368540083452 7.6748569396807023 48.4967153659450361 Ba
atom 4.9386290552952499 5.0196804008180340 45.8732064699253002 Zr
atom 9.9037403151292036 5.0083151565255646 45.8720932885827963 Zr
atom 4.9272691999028000 9.9847877406860093 45.8743204066494741 Zr
atom 9.9127014971975065 9.9937537254156705 45.8732081182361782 Zr
atom 4.8828157053483601 5.0288962080996136 50.9651793916846998 Zr
atom 9.8945232892583093 5.0641326557819593 50.9640645674344839 Zr
atom 4.9180494428377530 10.0406038390453975 50.9662923713358467 Zr
atom 9.8568898770979825 10.0029689128515802 50.9651785691817878 Zr
atom 5.0940468434391279 5.2419768904061534 43.3574464685528937 S
atom 9.6814423461319592 4.8529004399455724 43.3563340038009031 S
atom 4.7049701000265767 9.8293729986051197 43.3585591196213969 S
atom 10.0681203810335980 10.2160500347667913 43.3574479032405335 S
atom 4.7111373518059070 4.7900999028914297 48.4537761634379223 S
atom 10.1333193656828016 5.2358095484036244 48.4526657648555101 S
atom 5.1568468131722485 10.2122820546506361 48.4548905935802168 S
atom 9.6852108868414266 9.7641733704462723 48.4537755539721502 S
atom 5.2229634328921328 2.5382882096260944 45.7369959308071401 S
atom 9.5557256211340711 2.5402142152793123 46.2154516188631845 S
atom 4.5792531751856798 7.5166880244510024 46.2176775259331833 S
atom 10.1970372934245486 7.5123629713502815 45.7369955812964051 S
atom 5.4047776199250270 2.5466785993912628 51.1825393814868548 S
atom 9.4440853582057684 2.5465698882179320 50.7939215272313191 S
atom 4.4676130361393485 7.5230407254277756 50.7961466300309326 S
atom 10.3788505453302182 7.5207486676142281 51.1825398147717650 S
atom 2.4345891837578169 4.7263827819087538 45.7381093661172855 S
atom 7.4067300375527756 5.3676939838028588 46.2165650513618118 S
atom 2.4302589687026592 10.3441661929613353 46.2187904366302149 S
atom 7.4086604986016740 9.7004562748187464 45.7381088355641694 S
atom 2.4261932113755420 4.5445686425109857 51.1836526123941979 S
atom 7.4003830831203086 5.4793335884093741 50.7950344048284919 S
atom 2.4239088491283058 10.4558064777316897 50.7972596926257296 S
atom 7.4002685530688037 9.5186416681784003 51.1836524559971480 S
atom 2.4752998792438419 2.4209594024971914 53.5246502470816239 Ba
atom 7.5283867325419997 2.4975730616882106 53.5235376769372309 Ba
atom 2.5519146407304723 7.4740463197931177 53.5257632179849452 Ba
atom 7.4493727149588738 7.3950335436525227 53.5246502528109218 Ba
atom 2.5296770009058758 2.5108851198013973 58.6068981190838443 Ba
atom 7.4384609497640719 2.4431964211506108 58.6057853092175520 Ba
atom 2.4619892930023437 7.4196693387440762 58.6080110099819578 Ba
atom 7.5037494785730781 7.4849586844013638 58.6068980323318769 Ba
atom 4.9709252623584952 4.9889487747847552 56.0525900614290506 Zr
atom 9.9344777059164695 4.9760179070746879 56.0514764165133741 Zr
atom 4.9580048051762491 9.9524898772935693 56.0537021146345467 Zr
atom 9.9449989904692444 9.9630216586526572 56.0525889394521997 Zr
atom 4.9660080648493503 4.9824820337930076 61.1495510388957157 Zr
atom 9.9409366014894136 4.9809410672684011 61.1484400430608588 Zr
atom 4.9644642776438106 9.9574132585977431 61.1506629494175655 Zr
atom 9.9400813395446708 9.9565550846424600 61.1495511269008318 Zr
atom 5.0522027616717136 5.1636579872937611 53.5199872407282271 S
atom 9.7597609743370981 4.8947448627534946 53.5188711158786674 S
atom 4.7832884574242209 9.8712172853107418 53.5211007834365375 S
atom 10.0262759393224119 10.1377317110183149 53.5199876645548116 S
atom 4.8907582334238633 4.9415101025974328 58.6066300975443184 S
atom 9.9819091306022507 5.0561892010195626 58.6055203288850421 S
atom 5.0054367654519059 10.0326617142445560 58.6077420282735986 S
atom 9.8648315970552378 9.9155834754661392 58.6066291531574777 S
atom 4.4706019822977412 2.5027731713614592 55.9967499189606741 S
atom 10.4623752160682013 2.5025747546956110 56.1348960941626345 S
atom 5.4859028388196709 7.4790491319042767 56.1371218176376843 S
atom 9.4446753952843423 7.4768486681576585 55.9967501638064391 S
atom 5.4821491946753120 2.4980729721050827 61.1878657355710729 S
atom 9.4229485187901698 2.4968172292530122 61.1169288390541752 S
atom 4.4464758628024326 7.4732874812239078 61.1191549534209315 S
atom 10.4562222520431956 7.4721441622388260 61.1878652382504526 S
atom 2.4700989279871135 5.4787438721980228 55.9978628607366673 S
atom 7.4443708492324276 4.4610441503786706 56.1360088195876870 S
atom 2.4678995218860900 9.4375167912296689 56.1382347415728162 S
atom 7.4441711280703693 10.4528173310803218 55.9978630967933455 S
atom 2.4747985250016327 4.4671972149865811 61.1889782336933834 S
atom 7.4501337719985399 5.5004709802550469 61.1180416435846965 S
atom 2.4736598542455268 10.4769436904539770 61.1202678819560106 S
atom 7.4488733952660837 9.4412704948338924 61.1889786636716622 S
atom 2.4568748810328205 2.4761506496210162 63.6985968181540088 Ba
atom 7.4731958072760571 2.5159990939861077 63.6974841305373687 Ba
atom 2.4967233471729546 7.4924708525554333 63.6997097515921809 Ba
atom 7.4309485265618074 7.4502235072489942 63.6985970667611952 Ba
atom 2.4916092201496545 2.5489522086471585 68.7902980798028807 Ba
atom 7.4003943956170541 2.4812645848314800 68.7891849462728402 Ba
atom 2.4239209000067374 7.4577362864400110 68.7914108456992466 Ba
atom 7.4656836282973256 7.5230250725977301 68.7902977868863132 Ba
atom 4.9632074046079140 4.9852835267981561 66.2476422550461734 Zr
atom 9.9381372914712092 4.9837394823734744 66.2465314148453501 Zr
atom 4.9616661114020992 9.9602117242257862 66.2487557456581300 Zr
atom 9.9372794935744047 9.9593566719461197 66.2476435671663495 Zr
atom 4.9696720094259206 4.9902012938048825 71.3446065928769997 Zr
atom 9.9332154991384538 4.9772795350443717 71.3434918051811451 Zr
atom 4.9567424692249862 9.9537522990542886 71.3457196908363187 Zr
atom 9.9437460109584457 9.9642749338947656 71.3446067055678839 Zr
atom 5.0053942527021347 5.0246696610140607 63.6985999270386287 S
atom 9.8987500410470126 4.9415528648482034 63.6974857427217813 S
atom 4.9222774973878085 9.9180253596312191 63.6997141895146655 S
atom 9.9794677189135701 9.9987430355750142 63.6986003650059516 S
atom 4.9222347472623218 4.9100334678556230 68.7905635399652624 S
atom 10.0133863866560091 5.0247121499401688 68.7894489568408716 S
atom 5.0369138410609446 10.0011846385149266 68.7916729648435705 S
atom 9.8963081606709249 9.8841069104809822 68.7905630473519096 S
atom 4.4479222153068374 2.4940744303413815 66.2082177842854804 S
atom 10.4576682005238286 2.4929353396737968 66.2769282224356004 S
atom 5.4811952580584311 7.4694087906789139 66.2791541877009394 S
atom 9.4219954419119745 7.4681487829295614 66.2082173989012261 S
atom 5.4594685887624745 2.4893752532555720 71.3993326842897318 S
atom 9.4182411661404366 2.4871740006470198 71.2589612908308823 S
atom 4.4417689396427171 7.4636450681872413 71.2611869566653695 S
atom 10.4335421424504471 7.4634473018057648 71.3993331775270974 S
atom 2.4787973587368244 5.5014242717641864 66.2093305204118394 S
atom 7.4540123561074703 4.4657514910570963 66.2780412109952266 S
atom 2.4775411529759968 9.4422241365138024 66.2802669074418986 S
atom 7.4528693482210313 10.4754971791110947 66.2093305663898377 S
atom 2.4835002138869480 4.4898774626479767 71.4004459963407356 S
atom 7.4597719352301866 5.5051782242372864 71.2600743753046828 S
atom 2.4832997398309975 10.4816507335497384 71.2622996044530197 S
atom 7.4575731481288701 9.4639505900046483 71.4004457161987887 S
atom 2.4016844975529787 2.4945749064377098 73.8725450934330041 Ba
atom 7.4547707284421687 2.5711895682680503 73.8714323135006055 Ba
atom 2.4782978278182375 7.5476625983421828 73.8736575625653131 Ba
atom 7.3757579946667375 7.4686483621364106 73.8725450252863141 Ba
atom 2.6815089971156634 2.2313377398486725 78.9004805424889639 Ba
atom 7.7180071216117092 2.2913647454732735 78.8993681537777150 Ba
atom 2.7415360789134340 7.2678388142526629 78.9015937662616409 Ba
atom 7.6555806270358193 7.2054127085983515 78.9004808582860164 Ba
atom 5.0096214764569629 4.9020902765417489 76.4320195316763602 Zr
atom 10.0213274605665124 4.9373258431750102 76.4309055076174531 Zr
atom 5.0448547326030155 9.9137993663733486 76.4331363222158302 Zr
atom 9.9836951645139465 9.8761639550238964 76.4320191810047334 Zr
atom 5.0004029999179540 4.9579086977532567 81.5239869866157107 Zr
atom 9.9655154368497083 4.9465419381109097 81.5228744089345270 Zr
atom 4.9890444354988297 9.9230139401886817 81.5250956173760528 Zr
atom 9.9744754408129328 9.9319813186369554 81.5239867490245729 Zr
atom 5.1443828236138618 5.0714782598372379 73.8772087173348950 S
atom 9.8519417314261819 4.8025638778593978 73.8760954591155752 S
atom 4.8754694575568607 9.7790360915730723 73.8783236366071634 S
atom 10.1184560951177165 10.0455513766695930 73.8772097147948301 S
atom 4.7708243939696553 4.7304127623922030 78.9434154004999726 S
atom 10.1930067129097779 5.1761223485894670 78.9423046928585705 S
atom 5.2165338134694306 10.1525952633951242 78.9445283926408479 S
atom 9.7448981230882890 9.7044861783713436 78.9434141476222351 S
atom 4.5252932522349560 2.4454700003821590 76.2135424704972593 S
atom 10.4365307042839071 2.4431824788030774 76.5999353440431179 S
atom 5.4600583602923969 7.4196564299876391 76.6021603246888674 S
atom 9.4993665259588642 7.4195451609134162 76.2135429376760101 S
atom 4.7071076059617161 2.4538615150566190 81.6590857883003878 S
atom 10.3248909840554699 2.4495372182141999 81.1784039293333279 S
atom 5.3484184330910844 7.4260062315763804 81.1806306517328693 S
atom 9.6811814364459927 7.4279308231140417 81.6590850743083365 S
atom 2.5274044555548136 5.4240527816431543 76.2146559641946624 S
atom 7.5037639343647644 4.4868887548446104 76.6010480777027141 S
atom 2.5272927348591967 9.4633609482784617 76.6032734754394369 S
atom 7.5014764961222582 10.3981263543555471 76.2146551280329447 S
atom 2.5190092429654696 5.2422382155887908 81.6601974352666389 S
atom 7.4974158494161189 4.5985287317023698 81.1795164690197879 S
atom 2.5209406912543386 9.5750009153779612 81.1817432262267147 S
atom 7.4930839917611358 10.2163118099980661 81.6601987217661645 S
atom 2.3704762753339366 2.5559925432225818 83.7240541694846030 Ba
atom 7.3933546088745805 2.6023969776297342 83.7229419599013625 Ba
atom 2.4168817188592704 7.5788690473946669 83.7251682174515111 Ba
atom 7.3445499384924160 7.5300653483978808 83.7240542519646596 Ba
atom 5.2227021604770982 5.1133222340153379 84.0397540916106749 S
atom 9.8100970547076969 4.7242454393102014 84.0386425230567937 S
atom 4.8336245029318494 9.7007179234308900 84.0408651744500332 S
atom 10.1967756703096519 10.0873956082102438 84.0397538828932795 S
