#=======================================================
# FHI-aims file: full_relax/full_relax_RP_8_00Mz_00Mz.in
# Created using the Atomic Simulation Environment (ASE)
# Mon Mar 24 15:52:44 2025
#=======================================================
lattice_vector 9.9088354931096063 0.0000000231808497 0.0000000000000091 
lattice_vector 0.0000000231808497 9.9088354931096063 0.0000000000000150 
lattice_vector 0.0000000000000761 0.0000000000001255 87.6115862767536555 
atom -0.0000000000017626 -0.0000000000003707 0.1622379461300370 Ba
atom 4.9544177465537347 0.0000000115895813 0.1622379461308310 Ba
atom 0.0000000115893939 4.9544177465541885 0.1622379461309341 Ba
atom 4.9544177581433448 4.9544177581447437 0.1622379461313416 Ba
atom -0.0000000000013159 -0.0000000000026957 5.0654481105334535 Ba
atom 4.9544177465510115 0.0000000115883873 5.0654481105333495 Ba
atom 0.0000000115866125 4.9544177465528065 5.0654481105337457 Ba
atom 4.9544177581439239 4.9544177581424345 5.0654481105335050 Ba
atom 2.4772088790716777 2.4772088790715854 2.4355822996442891 Zr
atom 7.4316266256262118 2.4772088906620628 2.4355822996442948 Zr
atom 2.4772088906618874 7.4316266256267074 2.4355822996442589 Zr
atom 7.4316266372170672 7.4316266372167590 2.4355822996442198 Zr
atom 2.4772088790718683 2.4772088790722369 7.5737966153552234 Zr
atom 7.4316266256271888 2.4772088906619332 7.5737966153559180 Zr
atom 2.4772088906628045 7.4316266256262162 7.5737966153558540 Zr
atom 7.4316266372170734 7.4316266372175539 7.5737966153552962 Zr
atom 2.4772088790729772 2.4772088790716444 -0.1073208144124613 S
atom 7.4316266256258565 2.4772088906619265 -0.1073208144126142 S
atom 2.4772088906617791 7.4316266256263939 -0.1073208144126133 S
atom 7.4316266372178248 7.4316266372172182 -0.1073208144126303 S
atom 2.4772088790731788 2.4772088790695874 5.0361668955514869 S
atom 7.4316266256259862 2.4772088906649814 5.0361668955518155 S
atom 2.4772088906618883 7.4316266256295185 5.0361668955518892 S
atom 7.4316266372183648 7.4316266372148903 5.0361668955515784 S
atom 2.0526628284904178 0.0000043085114692 2.5290124356693418 S
atom 7.8561726646165058 -0.0000042853325624 2.5290124356708126 S
atom 2.9017549296520659 4.9544134496318799 2.5290124356708890 S
atom 7.0070805866360040 4.9544220666567247 2.5290124356689625 S
atom 2.9977723673375709 0.0000005921665474 7.5897184482142892 S
atom 6.9110631257694379 -0.0000005689873404 7.5897184482059510 S
atom 1.9566453908049437 4.9544171659770440 7.5897184482062698 S
atom 7.9521901254826890 4.9544183503116939 7.5897184482144961 S
atom -0.0000042969230073 2.9017549180616107 2.5290124356695447 S
atom 4.9544220550663827 2.0526628400808118 2.5290124356700368 S
atom 0.0000043201020526 7.0070805750452001 2.5290124356704369 S
atom 4.9544134612223232 7.8561726762067883 2.5290124356693560 S
atom -0.0000005805775373 1.9566453792146186 7.5897184482075337 S
atom 4.9544183387212852 2.9977723789281052 7.5897184482126656 S
atom 0.0000006037569782 7.9521901138923230 7.5897184482127846 S
atom 4.9544171775677137 6.9110631373598768 7.5897184482078845 S
atom 0.0000000000061596 0.0000000000023398 10.1541133858961139 Ba
atom 4.9544177465586756 0.0000000115937883 10.1541133858957959 Ba
atom 0.0000000115942814 4.9544177465580495 10.1541133858961530 Ba
atom 4.9544177581515116 4.9544177581474420 10.1541133858959167 Ba
atom -0.0000000000082256 -0.0000000000065992 15.2624450113662586 Ba
atom 4.9544177465478727 0.0000000115829924 15.2624450113661432 Ba
atom 0.0000000115835417 4.9544177465472972 15.2624450113662267 Ba
atom 4.9544177581371551 4.9544177581386366 15.2624450113660934 Ba
atom 2.4772088790717608 2.4772088790714286 12.6957562277410911 Zr
atom 7.4316266256262891 2.4772088906617986 12.6957562277419580 Zr
atom 2.4772088906619798 7.4316266256261772 12.6957562277417626 Zr
atom 7.4316266372170032 7.4316266372166861 12.6957562277408087 Zr
atom 2.4772088790712865 2.4772088790717373 17.8153217666512766 Zr
atom 7.4316266256264329 2.4772088906624012 17.8153217666517918 Zr
atom 2.4772088906621228 7.4316266256266950 17.8153217666516852 Zr
atom 7.4316266372166293 7.4316266372170841 17.8153217666507473 Zr
atom 2.4772088790673688 2.4772088790759907 10.1454926268771271 S
atom 7.4316266256288364 2.4772088906564078 10.1454926268772372 S
atom 2.4772088906646621 7.4316266256208650 10.1454926268772780 S
atom 7.4316266372126503 7.4316266372209610 10.1454926268770542 S
atom 2.4772088790781530 2.4772088790667475 15.2603505795967020 S
atom 7.4316266256220000 2.4772088906690604 15.2603505795968033 S
atom 2.4772088906572618 7.4316266256332861 15.2603505795969063 S
atom 7.4316266372239088 7.4316266372120143 15.2603505795964960 S
atom 2.9797740503085408 0.0000000436374053 12.7082917591814617 S
atom 6.9290614427985675 -0.0000000204588523 12.7082917591935356 S
atom 1.9746437078345491 4.9544177145055288 12.7082917591940401 S
atom 7.9341918084537966 4.9544178017826113 12.7082917591813747 S
atom 2.9819700649844765 -0.0000000063672192 17.8185566668021416 S
atom 6.9268654281229942 0.0000000295464478 17.8185566667892203 S
atom 1.9724476931588530 4.9544177645108149 17.8185566667899664 S
atom 7.9363878231295129 4.9544177517780570 17.8185566668015056 S
atom -0.0000000320492180 1.9746436962438281 12.7082917591925373 S
atom 4.9544177901923332 2.9797740618990414 12.7082917591828188 S
atom 0.0000000552279690 7.9341917968632067 12.7082917591825737 S
atom 4.9544177260961098 6.9290614543892355 12.7082917591925444 S
atom 0.0000000179556652 1.9724476815682774 17.8185566667885418 S
atom 4.9544177401873482 2.9819700765749957 17.8185566668032500 S
atom 0.0000000052229825 7.9363878115392890 17.8185566668034809 S
atom 4.9544177761011312 6.9268654397136880 17.8185566667885347 S
atom 0.0000000000051597 0.0000000000061166 20.3747875062227664 Ba
atom 4.9544177465588586 0.0000000115986795 20.3747875062221624 Ba
atom 0.0000000115942334 4.9544177465626920 20.3747875062220949 Ba
atom 4.9544177581504538 4.9544177581513544 20.3747875062224679 Ba
atom -0.0000000000046017 -0.0000000000087134 25.4871300010784978 Ba
atom 4.9544177465505435 0.0000000115801426 25.4871300010781567 Ba
atom 0.0000000115861103 4.9544177465442720 25.4871300010779720 Ba
atom 4.9544177581403890 4.9544177581366400 25.4871300010785902 Ba
atom 2.4772088790719526 2.4772088790716840 22.9342532457929416 Zr
atom 7.4316266256267705 2.4772088906618870 22.9342532457935100 Zr
atom 2.4772088906622272 7.4316266256261425 22.9342532457932791 Zr
atom 7.4316266372170992 7.4316266372169375 22.9342532457925650 Zr
atom 2.4772088790714442 2.4772088790713922 28.0538187847033633 Zr
atom 7.4316266256262820 2.4772088906620180 28.0538187847035871 Zr
atom 2.4772088906618421 7.4316266256264534 28.0538187847030400 Zr
atom 7.4316266372167563 7.4316266372166799 28.0538187847034912 Zr
atom 2.4772088790633595 2.4772088790754463 20.3747875062218462 S
atom 7.4316266256331032 2.4772088906557177 20.3747875062218569 S
atom 2.4772088906683729 7.4316266256201473 20.3747875062220380 S
atom 7.4316266372088675 7.4316266372204538 20.3747875062217894 S
atom 2.4772088790798481 2.4772088790695914 25.4892244328474789 S
atom 7.4316266256196348 2.4772088906667835 25.4892244328475464 S
atom 2.4772088906552194 7.4316266256311243 25.4892244328475854 S
atom 7.4316266372250857 7.4316266372146522 25.4892244328471662 S
atom 2.9819700649844614 -0.0000000063674411 22.9310183456436967 S
atom 6.9268654281232349 0.0000000295463226 22.9310183456525749 S
atom 1.9724476931587087 4.9544177645105867 22.9310183456530368 S
atom 7.9363878231300315 4.9544177517777568 22.9310183456429755 S
atom 2.9797740503086150 0.0000000436374107 28.0412832532599872 S
atom 6.9290614427987567 -0.0000000204588752 28.0412832532533116 S
atom 1.9746437078345751 4.9544177145055794 28.0412832532539760 S
atom 7.9341918084539707 4.9544178017826672 28.0412832532592091 S
atom 0.0000000179561084 1.9724476815683130 22.9310183456572929 S
atom 4.9544177401876439 2.9819700765747967 22.9310183456406662 S
atom 0.0000000052233290 7.9363878115394018 22.9310183456405881 S
atom 4.9544177761011774 6.9268654397133043 22.9310183456567849 S
atom -0.0000000320492349 1.9746436962441529 28.0412832532491230 S
atom 4.9544177901922710 2.9797740618983890 28.0412832532643357 S
atom 0.0000000552279656 7.9341917968636535 28.0412832532641936 S
atom 4.9544177260959819 6.9290614543887239 28.0412832532487748 S
atom 0.0000000000012338 0.0000000000046375 30.5954616265485448 Ba
atom 4.9544177465557926 0.0000000115980020 30.5954616265484241 Ba
atom 0.0000000115914111 4.9544177465617851 30.5954616265480617 Ba
atom 4.9544177581463069 4.9544177581499396 30.5954616265483104 Ba
atom -0.0000000000014909 -0.0000000000044583 35.6841269019112772 Ba
atom 4.9544177465531689 0.0000000115892613 35.6841269019115614 Ba
atom 0.0000000115883232 4.9544177465529584 35.6841269019108438 Ba
atom 4.9544177581443227 4.9544177581416013 35.6841269019108935 Ba
atom 2.4772088790713171 2.4772088790721152 33.1757783970892817 Zr
atom 7.4316266256270520 2.4772088906623395 33.1757783970889193 Zr
atom 2.4772088906626251 7.4316266256268309 33.1757783970883438 Zr
atom 7.4316266372165067 7.4316266372175717 33.1757783970899283 Zr
atom 2.4772088790716436 2.4772088790713798 38.3139927128016424 Zr
atom 7.4316266256264010 2.4772088906617848 38.3139927128006121 Zr
atom 2.4772088906619438 7.4316266256261416 38.3139927127999513 Zr
atom 7.4316266372170086 7.4316266372164783 38.3139927128025590 Zr
atom 2.4772088790651021 2.4772088790724256 30.6040823855673985 S
atom 7.4316266256320809 2.4772088906587610 30.6040823855673096 S
atom 2.4772088906672218 7.4316266256235695 30.6040823855672528 S
atom 7.4316266372110826 7.4316266372180353 30.6040823855673523 S
atom 2.4772088790746558 2.4772088790714513 35.7134081168932269 S
atom 7.4316266256240020 2.4772088906633427 35.7134081168930777 S
atom 2.4772088906596568 7.4316266256275547 35.7134081168930138 S
atom 7.4316266372196518 7.4316266372165884 35.7134081168935253 S
atom 2.9977723673374199 0.0000005921664673 33.1598565642340546 S
atom 6.9110631257698207 -0.0000005689872597 33.1598565642357102 S
atom 1.9566453908060624 4.9544171659772207 33.1598565642360512 S
atom 7.9521901254824279 4.9544183503117596 33.1598565642326051 S
atom 2.0526628284906900 0.0000043085114560 38.2205625767760893 S
atom 7.8561726646169436 -0.0000042853328408 38.2205625767756487 S
atom 2.9017549296527991 4.9544134496315202 38.2205625767748884 S
atom 7.0070805866357757 4.9544220666566545 38.2205625767756345 S
atom -0.0000005805778383 1.9566453792149527 33.1598565642402079 S
atom 4.9544183387212382 2.9977723789269710 33.1598565642300898 S
atom 0.0000006037568256 7.9521901138921640 33.1598565642298553 S
atom 4.9544171775674943 6.9110631373603582 33.1598565642392771 S
atom -0.0000042969229746 2.9017549180621116 38.2205625767758619 S
atom 4.9544220550663809 2.0526628400805396 38.2205625767781001 S
atom 0.0000043201017535 7.0070805750448404 38.2205625767773824 S
atom 4.9544134612225408 7.8561726762068442 38.2205625767751300 S
atom -0.0000000000010042 -0.0000000000016677 40.5873370663141912 Ba
atom 4.9544177465541281 0.0000000115878362 40.5873370663149515 Ba
atom 0.0000000115894298 4.9544177465527834 40.5873370663154276 Ba
atom 4.9544177581440731 4.9544177581440181 40.5873370663131894 Ba
atom 2.4772088790714415 2.4772088790717040 40.8568958268584268 S
atom 7.4316266256269019 2.4772088906618754 40.8568958268574960 S
atom 2.4772088906628866 7.4316266256263885 40.8568958268570412 S
atom 7.4316266372164241 7.4316266372168744 40.8568958268591729 S
atom 2.4772088790727813 2.4772088790724460 43.9680310845071531 Ba
atom 7.4316266256302717 2.4772088906617302 43.9680310845059168 Ba
atom 2.4772088906651146 7.4316266256262669 43.9680310845066344 Ba
atom 7.4316266372181152 7.4316266372181774 43.9680310845081479 Ba
atom 2.4772088790789679 2.4772088790731033 48.8712412489098398 Ba
atom 7.4316266256254773 2.4772088906693308 48.8712412489098469 Ba
atom 2.4772088906612475 7.4316266256334442 48.8712412489100743 Ba
atom 7.4316266372233297 7.4316266372183293 48.8712412489108132 Ba
atom 4.9544177581444053 4.9544177581441993 46.2413754380197375 Zr
atom 9.9088355046988816 4.9544177697342677 46.2413754380216702 Zr
atom 4.9544177697347047 9.9088355046990255 46.2413754380214783 Zr
atom 9.9088355162900328 9.9088355162893915 46.2413754380206896 Zr
atom 4.9544177581412399 4.9544177581437809 51.3795897537308193 Zr
atom 9.9088355046983949 4.9544177697321308 51.3795897537344146 Zr
atom 4.9544177697341576 9.9088355046966221 51.3795897537335193 Zr
atom 9.9088355162867199 9.9088355162891002 51.3795897537333133 Zr
atom 4.9544177581418989 4.9544177581467768 43.6984723239630739 S
atom 9.9088355046994092 4.9544177697300897 43.6984723239640331 S
atom 4.9544177697340075 9.9088355046950642 43.6984723239647082 S
atom 9.9088355162880468 9.9088355162924042 43.6984723239624273 S
atom 4.9544177581496438 4.9544177581348334 48.8419600339272009 S
atom 9.9088355046909964 4.9544177697406804 48.8419600339286717 S
atom 4.9544177697275664 9.9088355047047720 48.8419600339288849 S
atom 9.9088355162933155 9.9088355162797743 48.8419600339292259 S
atom 5.3789637971355102 2.4772045821493287 46.3348055740399616 S
atom 9.4842894541178921 2.4772131991737529 46.3348055740495610 S
atom 4.5298717191529567 7.4316309341385853 46.3348055740487794 S
atom 10.3333815552806314 7.4316223402947106 46.3348055740400682 S
atom 4.4338542582877327 2.4772082984940424 51.3955115865973937 S
atom 10.4293989929655968 2.4772094828286226 51.3955115865744361 S
atom 5.4749812580008310 7.4316272177926717 51.3955115865756156 S
atom 9.3882720164335538 7.4316260566390877 51.3955115865984808 S
atom 2.4772131875838013 4.5298717075632116 46.3348055740469462 S
atom 7.4316223287040515 5.3789638087254819 46.3348055740431377 S
atom 2.4772045937395126 10.3333815436906651 46.3348055740443598 S
atom 7.4316309457293572 9.4842894657093133 46.3348055740480405 S
atom 2.4772094712380031 5.4749812464103771 51.3955115865736545 S
atom 7.4316260450486133 4.4338542698785472 51.3955115865997314 S
atom 2.4772083100842948 9.3882720048425501 51.3955115865986940 S
atom 7.4316272293832979 10.4293990045557656 51.3955115865737753 S
atom 2.4772088790577405 2.4772088790520708 53.9599065242729381 Ba
atom 7.4316266256085166 2.4772088906444787 53.9599065242726184 Ba
atom 2.4772088906436176 7.4316266256086747 53.9599065242722702 Ba
atom 7.4316266372022994 7.4316266371976401 53.9599065242731086 Ba
atom 2.4772088790909743 2.4772088791074824 59.0682381497438342 Ba
atom 7.4316266256490602 2.4772088906927268 59.0682381497434079 Ba
atom 2.4772088906845089 7.4316266256572989 59.0682381497435287 Ba
atom 7.4316266372362385 7.4316266372528341 59.0682381497439550 Ba
atom 4.9544177581451718 4.9544177581455262 56.5015493661172670 Zr
atom 9.9088355046981320 4.9544177697363336 56.5015493661195194 Zr
atom 4.9544177697336922 9.9088355047006633 56.5015493661193773 Zr
atom 9.9088355162905408 9.9088355162905835 56.5015493661183896 Zr
atom 4.9544177581423892 4.9544177581423980 61.6211149050299767 Zr
atom 9.9088355046994945 4.9544177697322338 61.6211149050300548 Zr
atom 4.9544177697349525 9.9088355046965031 61.6211149050305522 Zr
atom 9.9088355162877590 9.9088355162874926 61.6211149050290956 Zr
atom 4.9544177581280664 4.9544177581615667 53.9512857652526563 S
atom 9.9088355047198515 4.9544177697240386 53.9512857652542621 S
atom 4.9544177697550307 9.9088355046881418 53.9512857652537434 S
atom 9.9088355162739035 9.9088355163067661 53.9512857652545534 S
atom 4.9544177581719220 4.9544177581185336 59.0661437179734889 S
atom 9.9088355046633474 4.9544177697482086 59.0661437179736240 S
atom 4.9544177696991332 9.9088355047124388 59.0661437179742990 S
atom 9.9088355163166320 9.9088355162631903 59.0661437179742990 S
atom 4.4518525753166864 2.4772088470243148 56.5140848975460557 S
atom 10.4114006759363615 2.4772089343013728 56.5140848975846808 S
atom 5.4569829409719555 7.4316266692661053 56.5140848975838068 S
atom 9.4062703334617996 7.4316266051698001 56.5140848975473133 S
atom 4.4496565606403866 2.4772088970269133 61.6243498051974612 S
atom 10.4135966906119872 2.4772088842942024 61.6243498051504872 S
atom 5.4591789556473547 7.4316266192584921 61.6243498051504304 S
atom 9.4040743187849625 7.4316266551719323 61.6243498051991168 S
atom 2.4772089227102758 5.4569829293816987 56.5140848975925252 S
atom 7.4316265935782928 4.4518525869073580 56.5140848975372876 S
atom 2.4772088586139969 9.4062703218714159 56.5140848975381473 S
atom 7.4316266808554987 10.4114006875270437 56.5140848975932926 S
atom 2.4772088727044883 5.4591789440569638 61.6243498051321481 S
atom 7.4316266435827982 4.4496565722302890 61.6243498052152319 S
atom 2.4772089086183167 9.4040743071941559 61.6243498052159850 S
atom 7.4316266308498289 10.4135967022014206 61.6243498051332423 S
atom 2.4772088790491944 2.4772088790185549 64.1805806446006955 Ba
atom 7.4316266255980672 2.4772088906202758 64.1805806446000418 Ba
atom 2.4772088906352741 7.4316266255838128 64.1805806446007239 Ba
atom 7.4316266371932560 7.4316266371631832 64.1805806446007097 Ba
atom 2.4772088790944378 2.4772088791282898 69.2929231394578977 Ba
atom 7.4316266256544132 2.4772088907082934 69.2929231394586367 Ba
atom 2.4772088906895280 7.4316266256717318 69.2929231394564624 Ba
atom 7.4316266372403792 7.4316266372746247 69.2929231394570593 Ba
atom 4.9544177581444035 4.9544177581442286 66.7400463841737945 Zr
atom 9.9088355046985264 4.9544177697347624 66.7400463841722456 Zr
atom 4.9544177697343006 9.9088355046995762 66.7400463841725440 Zr
atom 9.9088355162894999 9.9088355162899600 66.7400463841709097 Zr
atom 4.9544177581441202 4.9544177581446371 71.8596119230836052 Zr
atom 9.9088355046985406 4.9544177697351302 71.8596119230834205 Zr
atom 4.9544177697341167 9.9088355046993168 71.8596119230826531 Zr
atom 9.9088355162895017 9.9088355162898356 71.8596119230819994 Zr
atom 4.9544177581051061 4.9544177581743059 64.1805806446006244 S
atom 9.9088355047458236 4.9544177697184155 64.1805806446002123 S
atom 4.9544177697806919 9.9088355046831982 64.1805806446005391 S
atom 9.9088355162509316 9.9088355163203161 64.1805806446000133 S
atom 4.9544177581855235 4.9544177581120987 69.2950175712262961 S
atom 9.9088355046486711 4.9544177697494112 69.2950175712262961 S
atom 4.9544177696849108 9.9088355047143413 69.2950175712265946 S
atom 9.9088355163298925 9.9088355162578434 69.2950175712257845 S
atom 4.4496565606400642 2.4772088970283641 66.7368114840005546 S
atom 10.4135966906123016 2.4772088842957927 66.7368114840528648 S
atom 5.4591789556465571 7.4316266192602534 66.7368114840529074 S
atom 9.4040743187862130 7.4316266551738082 66.7368114840001709 S
atom 4.4518525753171438 2.4772088470240328 71.8470763916589874 S
atom 10.4114006759361093 2.4772089343009163 71.8470763916121626 S
atom 5.4569829409720940 7.4316266692653423 71.8470763916099600 S
atom 9.4062703334620590 7.4316266051694049 71.8470763916597690 S
atom 2.4772088727050776 5.4591789440565384 66.7368114840766964 S
atom 7.4316266435830194 4.4496565722307109 66.7368114839776609 S
atom 2.4772089086189530 9.4040743071956072 66.7368114839766235 S
atom 7.4316266308501202 10.4135967022023781 66.7368114840754032 S
atom 2.4772089227101382 5.4569829293820185 71.8470763915888568 S
atom 7.4316265935781143 4.4518525869082328 71.8470763916841122 S
atom 2.4772088586135590 9.4062703218718084 71.8470763916826911 S
atom 7.4316266808556453 10.4114006875272107 71.8470763915895390 S
atom 2.4772088790528044 2.4772088790222346 74.4012547649289644 Ba
atom 7.4316266256002086 2.4772088906259402 74.4012547649292344 Ba
atom 2.4772088906356937 7.4316266255893568 74.4012547649281828 Ba
atom 7.4316266371973105 7.4316266371671436 74.4012547649276996 Ba
atom 2.4772088790814437 2.4772088790717666 79.4899200402905137 Ba
atom 7.4316266256258068 2.4772088906808487 79.4899200402908406 Ba
atom 2.4772088906607954 7.4316266256465688 79.4899200402905990 Ba
atom 7.4316266372272102 7.4316266372170476 79.4899200402904853 Ba
atom 4.9544177581391402 4.9544177581421680 76.9815715354694703 Zr
atom 9.9088355046995247 4.9544177697296989 76.9815715354691434 Zr
atom 4.9544177697354108 9.9088355046938172 76.9815715354687313 Zr
atom 9.9088355162845385 9.9088355162872457 76.9815715354673102 Zr
atom 4.9544177581445723 4.9544177581452242 82.1197858511799126 Zr
atom 9.9088355046993151 4.9544177697355112 82.1197858511781789 Zr
atom 4.9544177697351275 9.9088355046998746 82.1197858511787189 Zr
atom 9.9088355162900257 9.9088355162904236 82.1197858511772836 Zr
atom 4.9544177581105568 4.9544177581697006 74.4098755239464964 S
atom 9.9088355047388372 4.9544177697218323 74.4098755239467522 S
atom 4.9544177697742278 9.9088355046865750 74.4098755239463969 S
atom 9.9088355162558628 9.9088355163149391 74.4098755239469938 S
atom 4.9544177581617470 4.9544177581297708 79.5192012552719660 S
atom 9.9088355046779437 4.9544177697424185 79.5192012552711986 S
atom 4.9544177697136416 9.9088355047064898 79.5192012552723639 S
atom 9.9088355163066293 9.9088355162745234 79.5192012552711134 S
atom 4.4338542582883376 2.4772082984930592 76.9656497025992081 S
atom 10.4293989929664015 2.4772094828278566 76.9656497026308273 S
atom 5.4749812580024546 7.4316272177921823 76.9656497026296620 S
atom 9.3882720164332003 7.4316260566382653 76.9656497025988244 S
atom 5.3789637971346735 2.4772045821496769 82.0263557151616567 S
atom 9.4842894541183327 2.4772131991744271 82.0263557151466074 S
atom 4.5298717191536229 7.4316309341384770 82.0263557151480143 S
atom 10.3333815552801163 7.4316223402944130 82.0263557151600793 S
atom 2.4772094712379089 5.4749812464129644 76.9656497026446402 S
atom 7.4316260450485299 4.4338542698794958 76.9656497025851394 S
atom 2.4772083100845017 9.3882720048441559 76.9656497025837183 S
atom 7.4316272293829959 10.4293990045581157 76.9656497026433897 S
atom 2.4772131875836458 4.5298717075641388 82.0263557151428842 S
atom 7.4316223287041696 5.3789638087267457 82.0263557151638025 S
atom 2.4772045937396352 10.3333815436901837 82.0263557151634757 S
atom 7.4316309457291974 9.4842894657091161 82.0263557151434242 S
atom 2.4772088790726472 2.4772088790793299 84.3931302046924543 Ba
atom 7.4316266256325951 2.4772088906644005 84.3931302046937333 Ba
atom 2.4772088906665752 7.4316266256282271 84.3931302046933354 Ba
atom 7.4316266372189954 7.4316266372258575 84.3931302046925822 Ba
atom 4.9544177581349311 4.9544177581467732 84.6626889652366401 S
atom 9.9088355047057437 4.9544177697270406 84.6626889652354464 S
atom 4.9544177697406617 9.9088355046924228 84.6626889652353896 S
atom 9.9088355162809236 9.9088355162930917 84.6626889652348353 S
