#=======================================================
# FHI-aims file: full_relax/full_relax_RP_1_Rx0Rz_0-RyRz.in
# Created using the Atomic Simulation Environment (ASE)
# Fri Mar 14 11:17:07 2025
#=======================================================
lattice_vector 10.0712828800377068 -0.0000047196527469 0.0002191685299566 
lattice_vector -0.0000047196527470 10.0712828800553815 0.0002191685287852 
lattice_vector -0.0003381890193510 -0.0003381890212873 15.6175396692466926 
atom -0.1383488867220095 0.0000034989075178 0.2385641871201326 Ba
atom 5.1739804174008857 -0.0000095930759726 0.2386804727557710 Ba
atom 0.1383366198228180 5.0356342098546198 0.2386804741714488 Ba
atom 4.8972901912943625 5.0356425818871449 0.2387833552972115 Ba
atom 0.1382431997259485 -0.0001091830037949 4.6419169596298859 Ba
atom 4.8971967815622666 -0.0001008140788320 4.6420198390518683 Ba
atom -0.1384470199697221 5.0355429849119426 4.6420198409814866 Ba
atom 5.1738822813953647 5.0355298967713118 4.6421361257545213 Ba
atom 2.5177666974390926 2.5177667271435809 2.4403501539225085 Zr
atom 7.5534081516585569 2.5177643455352121 2.4404597468251907 Zr
atom 2.5177643368320095 7.5534081336321002 2.4404597349291870 Zr
atom 7.5534057657358398 7.5534057858690495 2.4405693214169499 Zr
atom 2.5178072508174782 2.7383918415475179 -0.0977440452044252 S
atom 7.5534748267508096 2.2972538701563137 -0.0976446053382528 S
atom 2.5178310222150149 7.3328976724699082 -0.0976445994550268 S
atom 7.5534463296223517 7.7740309221532655 -0.0975248773238937 S
atom 2.5177261492180367 2.2971415573150580 4.9784443664719253 S
atom 7.5533414517497128 2.7382748101932677 4.9785640815675594 S
atom 2.5176976497499086 7.7739186124501769 4.9785640879197226 S
atom 7.5533652253873909 7.3327806368982600 4.9786635339809484 S
atom 2.5177707570609300 -0.0000488747329386 2.2110708673548141 S
atom 7.5534064383628694 -0.0000615612273476 2.6696294480542968 S
atom 2.5177626386896428 5.0355822211113237 2.6696294467616157 S
atom 7.5534098376335095 5.0355902106581709 2.2112900374170432 S
atom -0.0000541943477342 2.5177698107209947 2.4403128888729064 S
atom 5.0355875652673276 2.5177635941037817 2.4403874275673920 S
atom -0.0000562108756002 7.5534073956493550 2.4403874266252643 S
atom 5.0355849144603360 7.5534088926887728 2.4405320578883187 S
atom 2.5176539446004136 2.3793015578808712 8.0474435849615702 Ba
atom 7.5532846556014883 2.6559870624022479 8.0475598698802084 Ba
atom 2.5176408513567701 7.6916308641173741 8.0475598750025306 Ba
atom 7.5532930285189490 7.4149406403082398 8.0476627547792532 Ba
atom 2.5175412662250238 2.6558936485126381 12.4507963999333757 Ba
atom 7.5531934268608536 2.3792034232262895 12.4508992837444339 Ba
atom 2.5175496340407224 7.4148472243316368 12.4508992799066487 Ba
atom 7.5531803399846806 7.6915327295526952 12.4510155689317550 Ba
atom 5.0354171189014982 5.0354171441764066 10.2492295809299723 Zr
atom 10.0710585774010006 5.0354147817432864 10.2493391582796747 Zr
atom 5.0354147865676042 10.0710585815465326 10.2493391708813970 Zr
atom 10.0710562419920784 10.0710561799122669 10.2494487337769655 Zr
atom 5.2560422827811983 5.0354576950268672 7.7111354048867824 S
atom 9.8505481091424549 5.0354814635998375 7.7112348507530522 S
atom 4.8149043171645953 10.0711252706243073 7.7112348551398240 S
atom 10.2916813676199492 10.0710967721615461 7.7113545857446901 S
atom 4.8147919989148491 5.0353765915044084 12.7873237444461001 S
atom 10.2915690480588022 5.0353480893424729 12.7874434741695957 S
atom 5.2559252570483812 10.0709918974440953 12.7874434576342448 S
atom 9.8504310832478943 10.0710156697815219 12.7875429192693222 S
atom 5.0354202516580884 2.5175962692324938 10.2491923058808023 S
atom 10.0710578324495348 2.5175942688575335 10.2492668456718814 S
atom 5.0354140349911303 7.5532380205039882 10.2492668433361249 S
atom 10.0710593294304847 7.5532353879130003 10.2494114760209527 S
atom 2.5176016193543256 5.0354211954407369 10.0199502893664842 S
atom 7.5532327289912704 5.0354130766689629 10.4785088632353034 S
atom 2.5175888735687257 10.0710568801292553 10.4785088615065600 S
atom 7.5532406565279562 10.0710602789528210 10.0201694569990405 S
