#=======================================================
# FHI-aims file: full_relax/full_relax_RP_4_00Rz1_00Rz2.in
# Created using the Atomic Simulation Environment (ASE)
# Fri Mar 14 11:22:55 2025
#=======================================================
lattice_vector 9.9060917181972723 0.0000000030196249 -0.0000000000000046 
lattice_vector 0.0000000030196249 9.9060917181972723 -0.0000000000000040 
lattice_vector -0.0000000000000206 -0.0000000000000180 46.6838135421723308 
atom -0.0000000000007900 -0.0000000000008069 0.1663964885319267 Ba
atom 4.9530458590978261 0.0000000015089108 0.1663964885319869 Ba
atom 0.0000000015090404 4.9530458590977400 0.1663964885318703 Ba
atom 4.9530458606076566 4.9530458606075731 0.1663964885320538 Ba
atom -0.0000000000006392 -0.0000000000007368 5.0674891511318441 Ba
atom 4.9530458590979318 0.0000000015092446 5.0674891511318743 Ba
atom 0.0000000015091274 4.9530458590980153 5.0674891511318636 Ba
atom 4.9530458606078067 4.9530458606077401 5.0674891511318432 Ba
atom 2.4765229303033882 2.4765229303034326 2.4447224928423772 Zr
atom 7.4295687894021851 2.4765229318132596 2.4447224928423812 Zr
atom 2.4765229318133266 7.4295687894020865 2.4447224928423545 Zr
atom 7.4295687909118975 7.4295687909119819 2.4447224928423581 Zr
atom 2.4765229303035015 2.4765229303035725 7.5880834677202369 Zr
atom 7.4295687894022526 2.4765229318133111 7.5880834677202218 Zr
atom 2.4765229318133541 7.4295687894021718 7.5880834677203497 Zr
atom 7.4295687909120014 7.4295687909120449 7.5880834677203177 Zr
atom 2.4765229303033327 2.4765229303035872 -0.1004344541271992 S
atom 7.4295687894022571 2.4765229318132569 -0.1004344541271296 S
atom 2.4765229318135420 7.4295687894020270 -0.1004344541271277 S
atom 7.4295687909116861 7.4295687909119694 -0.1004344541272389 S
atom 2.4765229303036360 2.4765229303034473 5.0435697861055155 S
atom 7.4295687894020404 2.4765229318133835 5.0435697861055919 S
atom 2.4765229318131650 7.4295687894021611 5.0435697861056390 S
atom 7.4295687909121417 7.4295687909118744 5.0435697861056248 S
atom 2.0511403329183815 -0.0000001320042686 2.5337416277369949 S
atom 7.8549513852774693 0.0000001350224251 2.5337416277371667 S
atom 2.9019055276886632 4.9530459926113615 2.5337416277371396 S
atom 7.0041861935268157 4.9530457286041729 2.5337416277370037 S
atom 3.0105569756115473 -0.0000000533419395 7.5963022394280824 S
atom 6.8955347425844042 0.0000000563599891 7.5963022394280140 S
atom 1.9424888849955653 4.9530459139488636 7.5963022394280095 S
atom 7.9636028362199998 4.9530458072665136 7.5963022394281214 S
atom 0.0000001335126876 2.9019055261788687 2.5337416277372302 S
atom 4.9530457270944357 2.0511403344281809 2.5337416277369127 S
atom -0.0000001304944082 7.0041861920170048 2.5337416277368772 S
atom 4.9530459941211609 7.8549513867872838 2.5337416277372986 S
atom 0.0000000548502067 1.9424888834857454 7.5963022394280566 S
atom 4.9530458057567692 3.0105569771213716 7.5963022394281330 S
atom -0.0000000518320482 7.9636028347101648 7.5963022394282227 S
atom 4.9530459154587279 6.8955347440941805 7.5963022394279536 S
atom -0.0000000000007434 -0.0000000000006752 10.1486551178632691 Ba
atom 4.9530458590979576 0.0000000015090716 10.1486551178632549 Ba
atom 0.0000000015091757 4.9530458590979416 10.1486551178632354 Ba
atom 4.9530458606076806 4.9530458606078360 10.1486551178632656 Ba
atom -0.0000000000006215 -0.0000000000007383 15.2298210845948638 Ba
atom 4.9530458590977551 0.0000000015091675 15.2298210845948034 Ba
atom 0.0000000015089875 4.9530458590979283 15.2298210845947679 Ba
atom 4.9530458606078218 4.9530458606076566 15.2298210845947910 Ba
atom 2.4765229303035508 2.4765229303035543 12.7092267680065696 Zr
atom 7.4295687894021762 2.4765229318133004 12.7092267680064932 Zr
atom 2.4765229318133040 7.4295687894022180 12.7092267680063191 Zr
atom 7.4295687909120405 7.4295687909120627 12.7092267680063760 Zr
atom 2.4765229303035019 2.4765229303035392 17.8525877428842534 Zr
atom 7.4295687894022562 2.4765229318132813 17.8525877428843316 Zr
atom 2.4765229318133688 7.4295687894021620 17.8525877428843920 Zr
atom 7.4295687909119783 7.4295687909119765 17.8525877428846123 Zr
atom 2.4765229303035396 2.4765229303036183 10.1486551178633206 S
atom 7.4295687894022304 2.4765229318132840 10.1486551178633295 S
atom 2.4765229318134723 7.4295687894020714 10.1486551178632851 S
atom 7.4295687909119268 7.4295687909120378 10.1486551178632176 S
atom 2.4765229303036094 2.4765229303033389 15.2537404496206950 S
atom 7.4295687894021238 2.4765229318135096 15.2537404496205955 S
atom 2.4765229318132218 7.4295687894023725 15.2537404496207891 S
atom 7.4295687909121488 7.4295687909118051 15.2537404496207323 S
atom 1.9424888834857403 0.0000000548501351 12.7010079962985145 S
atom 7.9636028347101462 -0.0000000518321212 12.7010079962987703 S
atom 3.0105569771213556 4.9530458057567168 12.7010079962987614 S
atom 6.8955347440941770 4.9530459154587003 12.7010079962985394 S
atom 2.9019055261788247 0.0000001335126845 17.7635686079898782 S
atom 7.0041861920169737 -0.0000001304944113 17.7635686079894128 S
atom 2.0511403344281747 4.9530457270943060 17.7635686079894199 S
atom 7.8549513867872935 4.9530459941211484 17.7635686079899742 S
atom -0.0000000533418629 3.0105569756115615 12.7010079962986708 S
atom 4.9530459139489142 1.9424888849955544 12.7010079962985909 S
atom 0.0000000563600437 6.8955347425843474 12.7010079962986353 S
atom 4.9530458072666486 7.9636028362199767 12.7010079962986726 S
atom -0.0000001320042513 2.0511403329184001 17.7635686079895407 S
atom 4.9530459926112584 2.9019055276886223 17.7635686079897148 S
atom 0.0000001350225742 7.8549513852774364 17.7635686079897539 S
atom 4.9530457286041605 7.0041861935268024 17.7635686079894199 S
atom -0.0000000000005934 -0.0000000000006521 20.1309137471947786 Ba
atom 4.9530458590981397 0.0000000015091387 20.1309137471947466 Ba
atom 0.0000000015092380 4.9530458590979665 20.1309137471947857 Ba
atom 4.9530458606078573 4.9530458606078556 20.1309137471947075 Ba
atom 2.4765229303033860 2.4765229303037697 20.3977446898539050 S
atom 7.4295687894022260 2.4765229318130642 20.3977446898536954 S
atom 2.4765229318135016 7.4295687894018387 20.3977446898537700 S
atom 7.4295687909117492 7.4295687909121781 20.3977446898534183 S
atom 2.4765229303037026 2.4765229303035805 23.5082991723563772 Ba
atom 7.4295687894023192 2.4765229318134727 23.5082991723562600 Ba
atom 2.4765229318134172 7.4295687894022979 23.5082991723562920 Ba
atom 7.4295687909122066 7.4295687909119970 23.5082991723563417 Ba
atom 2.4765229303031457 2.4765229303033567 28.4093885670792830 Ba
atom 7.4295687894020084 2.4765229318128337 28.4093885670791728 Ba
atom 2.4765229318133071 7.4295687894016904 28.4093885670792012 Ba
atom 7.4295687909114694 7.4295687909118842 28.4093885670791444 Ba
atom 4.9530458606076468 4.9530458606075811 25.7866195512592284 Zr
atom 9.9060917197063443 4.9530458621174480 25.7866195512590970 Zr
atom 4.9530458621174889 9.9060917197063318 25.7866195512596406 Zr
atom 9.9060917212161677 9.9060917212161161 25.7866195512591858 Zr
atom 4.9530458606074905 4.9530458606075438 30.9299836657637215 Zr
atom 9.9060917197062164 4.9530458621174258 30.9299836657637712 Zr
atom 4.9530458621173494 9.9060917197060991 30.9299836657634764 Zr
atom 9.9060917212160291 9.9060917212159474 30.9299836657633129 Zr
atom 4.9530458606079240 4.9530458606071273 23.2414690469766931 S
atom 9.9060917197058096 4.9530458621177349 23.2414690469766825 S
atom 4.9530458621169542 9.9060917197065734 23.2414690469766825 S
atom 9.9060917212164785 9.9060917212156507 23.2414690469767997 S
atom 4.9530458606073235 4.9530458606079275 28.3854710729439397 S
atom 9.9060917197065415 4.9530458621170856 28.3854710729438331 S
atom 4.9530458621177909 9.9060917197058327 28.3854710729439503 S
atom 9.9060917212157413 9.9060917212163293 28.3854710729438899 S
atom 4.5276679051410520 2.4765228037911715 25.8756410163985642 S
atom 10.3314696736629017 2.4765230598349328 25.8756410163978003 S
atom 5.3784238160741014 7.4295689174238273 25.8756410163976689 S
atom 9.4807137657494938 7.4295686643998025 25.8756410163986672 S
atom 5.4870846274204510 2.4765228768882430 30.9382039414242485 S
atom 9.3720529513833721 2.4765229867379830 30.9382039414245149 S
atom 4.4190070937946384 7.4295688443268491 30.9382039414245007 S
atom 10.4401304880288688 7.4295687374965178 30.9382039414242804 S
atom 2.4765230583252267 5.3784238145642425 25.8756410163977719 S
atom 7.4295686628899231 4.5276679066507688 25.8756410163984469 S
atom 2.4765228053012134 9.4807137642395816 25.8756410163984754 S
atom 7.4295689189335050 10.3314696751726931 25.8756410163976334 S
atom 2.4765229852284474 4.4190070922848452 30.9382039414245114 S
atom 7.4295687359868525 5.4870846289302300 30.9382039414242342 S
atom 2.4765228783979771 10.4401304865190419 30.9382039414241987 S
atom 7.4295688458367950 9.3720529528932541 30.9382039414247849 S
atom 2.4765229303033931 2.4765229303033127 33.4905618889494789 Ba
atom 7.4295687894017641 2.4765229318132742 33.4905618889493866 Ba
atom 2.4765229318131308 7.4295687894019311 33.4905618889493510 Ba
atom 7.4295687909117909 7.4295687909115280 33.4905618889495642 Ba
atom 2.4765229303033016 2.4765229303032603 38.5717352108195897 Ba
atom 7.4295687894022180 2.4765229318130313 38.5717352108198739 Ba
atom 2.4765229318132831 7.4295687894017695 38.5717352108196962 Ba
atom 7.4295687909117198 7.4295687909118451 38.5717352108196962 Ba
atom 4.9530458606075358 4.9530458606075749 36.0511401121353074 Zr
atom 9.9060917197061986 4.9530458621173530 36.0511401121353074 Zr
atom 4.9530458621173059 9.9060917197061720 36.0511401121354709 Zr
atom 9.9060917212160344 9.9060917212160486 36.0511401121357054 Zr
atom 4.9530458606075154 4.9530458606075412 41.1945042266399923 Zr
atom 9.9060917197062750 4.9530458621174276 41.1945042266392747 Zr
atom 4.9530458621173743 9.9060917197062341 41.1945042266396442 Zr
atom 9.9060917212160859 9.9060917212160255 41.1945042266399923 Zr
atom 4.9530458606078387 4.9530458606074328 33.4905618889497134 S
atom 9.9060917197059286 4.9530458621175457 33.4905618889497987 S
atom 4.9530458621172695 9.9060917197062839 33.4905618889491876 S
atom 9.9060917212160948 9.9060917212158337 33.4905618889493581 S
atom 4.9530458606074408 4.9530458606077667 38.5956527049553131 S
atom 9.9060917197062999 4.9530458621171709 38.5956527049554268 S
atom 4.9530458621174729 9.9060917197060085 38.5956527049555760 S
atom 9.9060917212158870 9.9060917212162654 38.5956527049546239 S
atom 4.4190070922848337 2.4765229852282400 36.0429198364747947 S
atom 10.4401304865191431 2.4765228783979656 36.0429198364746313 S
atom 5.4870846289303188 7.4295687359866616 36.0429198364746668 S
atom 9.3720529528932417 7.4295688458365703 36.0429198364747805 S
atom 5.3784238145643410 2.4765230583249744 41.1054827615006744 S
atom 9.4807137642396810 2.4765228053011143 41.1054827615013991 S
atom 4.5276679066509438 7.4295686628900173 41.1054827615013281 S
atom 10.3314696751727162 7.4295689189335166 41.1054827615005252 S
atom 2.4765228768880809 5.4870846274203524 36.0429198364744536 S
atom 7.4295688443270427 4.4190070937946553 36.0429198364749652 S
atom 2.4765229867380949 9.3720529513834308 36.0429198364750576 S
atom 7.4295687374966493 10.4401304880288492 36.0429198364746313 S
atom 2.4765228037912226 4.5276679051410857 41.1054827615007810 S
atom 7.4295689174238237 5.3784238160740703 41.1054827615007952 S
atom 2.4765230598349164 10.3314696736629053 41.1054827615008946 S
atom 7.4295686643996444 9.4807137657495275 41.1054827615009515 S
atom 2.4765229303032301 2.4765229303032377 43.4728246055427689 Ba
atom 7.4295687894018139 2.4765229318130291 43.4728246055427832 Ba
atom 2.4765229318129256 7.4295687894020945 43.4728246055430176 Ba
atom 7.4295687909117980 7.4295687909117838 43.4728246055429466 Ba
atom 4.9530458606076948 4.9530458606072845 43.7396547309219628 S
atom 9.9060917197062359 4.9530458621176496 43.7396547309226733 S
atom 4.9530458621173699 9.9060917197064899 43.7396547309223820 S
atom 9.9060917212161232 9.9060917212157644 43.7396547309217851 S
