#=======================================================
# FHI-aims file: full_relax/full_relax_RP_1_Rx0Mz_0-Ry0.in
# Created using the Atomic Simulation Environment (ASE)
# Fri Mar 14 11:17:10 2025
#=======================================================
lattice_vector 10.1083930123313532 0.0000000000000133 -0.0001835265168330 
lattice_vector 0.0000000000000133 10.1084024447040921 -0.0000000000000036 
lattice_vector 0.0002908397635867 -0.0000000000000060 15.5284620784446901 
atom 0.1566532061727636 -0.0000000000078207 0.2395001874893050 Ba
atom 4.8975842928235549 0.0000000000097688 0.2394050256080028 Ba
atom -0.1566122133142231 5.0542012223634316 0.2394967889050979 Ba
atom 5.2108497123087503 5.0542012223414581 0.2394084242223606 Ba
atom -0.1565623186874811 -0.0000000000102171 4.6131442120555910 Ba
atom 5.2108996068725926 0.0000000000118680 4.6130558474115446 Ba
atom 0.1567031007073991 5.0542012223611970 4.6131476106267781 Ba
atom 4.8976341874787090 5.0542012223436918 4.6130524487958917 Ba
atom 2.5271436967848739 2.5271006110663650 2.4262763181630489 Zr
atom 7.5813402029163903 2.5271006113541263 2.4261845549572021 Zr
atom 2.5271436967678165 7.5813018336195812 2.4262763181738678 Zr
atom 7.5813402031092307 7.5813018333042708 2.4261845549527319 Zr
atom 2.5271013039818877 2.2091157242293926 -0.1070877707365262 S
atom 7.5812978101557471 2.8450854980963651 -0.1071795340375941 S
atom 2.5271013040164991 7.8992867204694814 -0.1070877707550122 S
atom 7.5812978101669604 7.2633169465939256 -0.1071795340283212 S
atom 2.5271860895873317 2.8450854981284310 4.9596404069678837 S
atom 7.5813825957588206 2.2091157242053323 4.9595486436894101 S
atom 2.5271860896219174 7.2633169465704723 4.9596404069654270 S
atom 7.5813825957700862 7.8992867204847146 4.9595486436976621 S
atom 2.5271478809155963 0.0000000000214634 2.7370765577706955 S
atom 7.5813360188583943 0.0000000000469177 2.1153843151884226 S
atom 2.5271395127045384 5.0542012223631083 2.1154760784550830 S
atom 7.5813443870696906 5.0542012223999384 2.7369847945062067 S
atom 0.0000454437395377 2.5271015151723288 2.4263221997457651 S
atom 5.0542419499641484 2.5270997071425012 2.4262304364882121 S
atom 0.0000454435554860 7.5813009295124969 2.4263221997474247 S
atom 5.0542419497917548 7.5813027375424316 2.4262304364899383 S
atom 2.5272449390239240 2.3704710895642465 8.0036747548305538 Ba
atom 7.5814414451054182 2.6837301327826704 8.0035829915329142 Ba
atom 2.5272449389664819 7.7379313551375564 8.0036747548235425 Ba
atom 7.5814414451621959 7.4246723119171465 8.0035829915208918 Ba
atom 2.5273332944162967 2.6837301328444516 12.3773399598457701 Ba
atom 7.5815298004982994 2.3704710895056134 12.3772481966286971 Ba
atom 2.5273332943598628 7.4246723118554447 12.3773399598595581 Ba
atom 7.5815298005561376 7.7379313551963813 12.3772481966330830 Ba
atom 5.0543873694044681 5.0542012222397021 10.1904614756693359 Zr
atom 10.1085838762471738 5.0542012225709465 10.1903697124054045 Zr
atom 5.0543873697009047 10.1084024450164698 10.1904614756756828 Zr
atom 10.1085838758049569 10.1084024446436924 10.1903697123919272 Zr
atom 5.3723299152542969 5.0542012223980661 7.6570835129018526 S
atom 9.7905641426949170 5.0542012223585742 7.6570078799478214 S
atom 4.7363676365304297 10.1084024447079397 7.6570996431309979 S
atom 10.4265264213525946 10.1084024447366740 7.6569917496886575 S
atom 4.7364448243268997 5.0542012223984374 12.7238394385723268 S
atom 10.4266036090793168 5.0542012223588753 12.7237315450267552 S
atom 5.3724071029431695 10.1084024447078100 12.7238233083643344 S
atom 9.7906413304378521 10.1084024447364058 12.7237476752855621 S
atom 5.0543873697512520 2.5270998345628244 10.1904614757365639 S
atom 10.1085838758666196 2.5271013874541914 10.1903697124693551 S
atom 5.0543873697512476 7.5813026097376026 10.1904614757367504 S
atom 10.1085838758669659 7.5813010569303847 10.1903697124695114 S
atom 2.5272841205993477 5.0542012224061166 9.8797085158273745 S
atom 7.5814906189883464 5.0542012224058901 10.5012144356771628 S
atom 2.5272941127583408 10.1084024447460141 10.5013061989158736 S
atom 7.5814806271584594 10.1084024447461882 9.8796167525482570 S
