#=======================================================
# FHI-aims file: full_relax/full_relax_RP_9_RxRyRz_-Rx-Ry-Rz.in
# Created using the Atomic Simulation Environment (ASE)
# Mon Mar 24 18:03:47 2025
#=======================================================
lattice_vector 9.9426231192069139 -0.0041378160491663 -0.0028087416429259 
lattice_vector -0.0041378160492921 9.9426231189935734 0.0028087426014889 
lattice_vector -0.0194474647231321 0.0194474737549696 97.2172111351177790 
atom 0.0584856118310573 -0.1014919619208401 0.1920000644214013 Ba
atom 5.0728018976350882 -0.0605546518233944 0.1906026570304236 Ba
atom 0.0994226755945313 4.9128255796710114 0.1934007628222545 Ba
atom 5.0277292162363274 4.8677513871181644 0.1920010288894788 Ba
atom -0.2706783488024858 0.2086837341199361 5.0239750431537225 Ba
atom 4.7626259079637707 0.2686100914027759 5.0225708418994977 Ba
atom -0.2107525241476663 5.2419915553735574 5.0253793952853947 Ba
atom 4.6985621615497255 5.1779280986943519 5.0239755274205011 Ba
atom 2.4546911843519723 2.5253872959854857 2.3989885460610405 Zr
atom 7.4151663952833466 2.5124841125142030 2.3975812057672901 Zr
atom 2.4417846835657491 7.4858633307868203 2.4003939275048909 Zr
atom 7.4239350784332299 7.4946291038046793 2.3989865379391455 Zr
atom 2.3979883275691911 2.5348381333379555 7.4943454654299062 Zr
atom 7.4057155201326310 2.5691856644146656 7.4929421698337517 Zr
atom 2.4323370756076654 7.5425660832089294 7.4957488760345488 Zr
atom 7.3672290568823993 7.5040808247910720 7.4943464702832046 Zr
atom 2.6079101903326412 2.7437083171732457 -0.1185744642880821 S
atom 7.1968455644986520 2.3592631624508491 -0.1199841464352465 S
atom 2.2234651321604333 7.3326439494517448 -0.1171689325644884 S
atom 7.5771529775307584 7.7129517001245702 -0.1185770078151092 S
atom 2.2291263162419139 2.3005993420217865 4.9815467477640389 S
atom 7.6399552057049664 2.7380481461539938 4.9801442391525708 S
atom 2.6665751542219520 7.7114272460264033 4.9829516591737528 S
atom 7.1983685849532533 7.2698410074913964 4.9815475005284986 S
atom 2.7472066805923734 0.0459023566688065 2.2647957089108841 S
atom 7.0582226850080074 0.0468635628892429 2.7377738098788358 S
atom 2.0848426286849553 5.0202433362834382 2.7405824041013864 S
atom 7.7164461779282716 5.0151439613170812 2.2648003793641336 S
atom 2.9245302932644957 0.0550522258845402 7.7090264952756122 S
atom 6.9511254208811337 0.0539620629082663 7.3270413506218226 S
atom 1.9777443417710421 5.0273431700666418 7.3298505289853209 S
atom 7.8937725974081827 5.0242957593193633 7.7090244844350178 S
atom -0.0479701342537045 2.2241074277870339 2.2662032887920849 S
atom 4.9203099803506865 2.8823312105466923 2.7391785717499308 S
atom -0.0530709392379927 7.8557110096126026 2.7419863323121731 S
atom 4.9212740691145509 7.1933490623732501 2.2662023473179067 S
atom -0.0571211681674854 2.0467815531974143 7.7104297087903211 S
atom 4.9132108091029636 2.9894289849738862 7.3284456834052403 S
atom -0.0601673132102251 7.9628096153218326 7.3312549331577088 S
atom 4.9121199449683379 7.0160241002380461 7.7104299018330469 S
atom -0.0065539128299590 -0.0700683069517745 10.0560231720935391 Ba
atom 5.0413789263684743 0.0044849153756289 10.0546180718477878 Ba
atom 0.0679998802716840 4.9778656342250924 10.0574278643703181 Ba
atom 4.9626883223178897 4.8991750466464197 10.0560227592444704 Ba
atom 0.0440837932412414 0.0167801807676577 15.1422634416161532 Ba
atom 4.9545328710921384 -0.0461530723695406 15.1408590329543529 Ba
atom -0.0188494013185274 4.9272265486592630 15.1436675020836127 Ba
atom 5.0133278011179812 4.9860218149293560 15.1422630920521808 Ba
atom 2.4849735956177597 2.4959592656336462 12.5850214039224415 Zr
atom 7.4445955459096318 2.4822003969585364 12.5836212343517797 Zr
atom 2.4712156385860382 7.4555803441311239 12.5864246701920415 Zr
atom 7.4542154792495205 7.4652014934148170 12.5850227949842157 Zr
atom 2.4802854285925187 2.4890913726726258 17.6847151928431394 Zr
atom 7.4514624575538964 2.4868873374610145 17.6833093907755021 Zr
atom 2.4780822146632406 7.4602689666892772 17.6861186042481791 Zr
atom 7.4495278525526309 7.4583352271594441 17.6847150166028726 Zr
atom 2.5623340019109087 2.6659733984373344 10.0517531576883403 S
atom 7.2745807774878823 2.4048395023295788 10.0503504241585677 S
atom 2.3011999135742234 7.3782203499731569 10.0531565854354046 S
atom 7.5315769223889522 7.6352163426572677 10.0517540839284401 S
atom 2.4104489620570790 2.4552072225547943 15.1418709951456627 S
atom 7.4853470277678520 2.5567249926051945 15.1404672559540909 S
atom 2.5119664259441024 7.5301052168185123 15.1432748774343828 S
atom 7.3796916134277986 7.4244497267933927 15.1418713149900555 S
atom 1.9809492953459686 0.0118092415691392 12.5348656001672278 S
atom 7.9767562516219650 0.0108115170881145 12.6638644774802884 S
atom 3.0033756072336391 4.9841924486709166 12.6666746570601259 S
atom 6.9501919414299058 4.9810524431097347 12.5348647218702851 S
atom 3.0001983660411438 0.0074469623443891 17.7190331814054183 S
atom 6.9305400493814266 0.0052472192762316 17.6604830304328537 S
atom 1.9571597899140434 4.9786272568488954 17.6632915850547789 S
atom 7.9694415856511744 4.9766892689596549 17.7190333731726994 S
atom -0.0138782703247412 2.9903624008517653 12.5362691192634195 S
atom 4.9563616975868729 1.9637980474375711 12.6652692677912153 S
atom -0.0170182555176984 6.9371784646708052 12.6680786589349452 S
atom 4.9553639704304802 7.9596047415458333 12.5362699072972426 S
atom -0.0095160088672104 1.9711128837184169 17.7204376886841288 S
atom 4.9619272203095361 3.0100142998081827 17.6618873637474536 S
atom -0.0114540954688727 7.9833943502434099 17.6646959405167223 S
atom 4.9597274363134281 6.9403555775150236 17.7204376346642682 S
atom -0.0175858367963933 -0.0123831309518741 20.2372311446540927 Ba
atom 4.9836959883128120 0.0155167523490013 20.2358266214538034 Ba
atom 0.0103138988962877 4.9888965351564405 20.2386354503134172 Ba
atom 4.9516579308874222 4.9568585585489213 20.2372309554852770 Ba
atom 0.0084697784329636 0.0214995117474802 25.3333371797016440 Ba
atom 4.9498113195031257 -0.0105386620304444 25.3319327341236296 Ba
atom -0.0235679821422118 4.9628421382738761 25.3347418293005262 Ba
atom 4.9777118685455353 4.9907428215636465 25.3333373865368046 Ba
atom 2.4800623795154544 2.4891777217691136 22.7852861898954977 Zr
atom 7.4513752118802357 2.4871109947360082 22.7838791484455108 Zr
atom 2.4779946082431299 7.4604928149624747 22.7866931795523548 Zr
atom 7.4493052426986202 7.4584217272471909 22.7852848485490398 Zr
atom 2.4798399325905414 2.4892679675853016 27.8858527779453382 Zr
atom 7.4512878974438728 2.4873316327671167 27.8844470349687370 Zr
atom 2.4779069777103881 7.4607118416689069 27.8872577825253778 Zr
atom 7.4490830110075645 7.4585104317795077 27.8858521032157078 Zr
atom 2.5057200633225758 2.5235114701578660 20.2372613475871361 S
atom 7.4170428347559474 2.4614537302460096 20.2358557519340785 S
atom 2.4436623987361266 7.4348340296795339 20.2386663189962412 S
atom 7.4749627522221012 7.4927539130789818 20.2372608685924291 S
atom 2.4544067561153722 2.4548475112003554 25.3333057562065562 S
atom 7.4857066346801293 2.5127671609526492 25.3318996005016572 S
atom 2.5123262702621290 7.4861475292740991 25.3347104383299424 S
atom 7.4236493453513068 7.4240900426790724 25.3333051798993303 S
atom 1.9599929573013490 0.0034972020635445 22.7622310068814855 S
atom 7.9735142958939296 0.0014802071949417 22.8055270183539420 S
atom 3.0001338933334551 4.9748612215511514 22.8083346391613624 S
atom 6.9292353490161656 4.9727403056159805 22.7622321894749113 S
atom 3.0029673117353743 -0.0002694835754352 27.9072761084068581 S
atom 6.9333084481207035 -0.0024691505055550 27.8487260021312331 S
atom 1.9599277711717238 4.9709123693383575 27.8515342482005686 S
atom 7.9722096153808302 4.9689742855244434 27.9072765270095893 S
atom -0.0055661144194790 3.0113188795233112 22.7636362855434591 S
atom 4.9656932329760286 1.9670399830189254 22.8069311911441197 S
atom -0.0076869056293742 6.9404203467383345 22.8097391778633209 S
atom 4.9636762407657224 7.9805612530855479 22.7636357029995366 S
atom -0.0017989598123961 1.9683446152228330 27.9086807849028276 S
atom 4.9696417457410824 3.0072458923498560 27.8501302345017159 S
atom -0.0037372639825875 7.9806264691233890 27.8529387560215511 S
atom 4.9674421712941825 6.9375871175729316 27.9086805066985768 S
atom -0.0532000086371355 -0.0076642440425829 30.4283039065835297 Ba
atom 4.9789744699110656 0.0511315372967560 30.4268995712566621 Ba
atom 0.0055958801933410 5.0245128690628134 30.4297083074381760 Ba
atom 4.9160410652268958 4.9615794066115395 30.4283040704945655 Ba
atom -0.0025623184105225 0.0791838555726912 35.5145446477635574 Ba
atom 4.8921284772130704 0.0004933865382905 35.5131405640080828 Ba
atom -0.0812530812251458 4.9738737590865538 35.5159489910790214 Ba
atom 4.9666805644188621 5.0484258551569665 35.5145449430586879 Ba
atom 2.4751558574393799 2.4824003855109837 32.9855417647927851 Zr
atom 7.4581522392245532 2.4920194915713338 32.9841415667937383 Zr
atom 2.4847717419482618 7.4653995694811854 32.9869450540204028 Zr
atom 7.4443983604901556 7.4516427126208269 32.9855434669923611 Zr
atom 2.5621394344324235 2.4435226817401396 38.0762209798656528 Zr
atom 7.4970331775936208 2.4050342053233602 38.0748170351474045 Zr
atom 2.5236521114289263 7.3784131724730200 38.0776226386124890 Zr
atom 7.5313829318127814 7.4127638891530809 38.0762215549539533 Zr
atom 2.5496776928329616 2.5231513002028954 30.4286972106625448 S
atom 7.4174028775929273 2.4174962662683916 30.4272946937660649 S
atom 2.4440224225588616 7.3908766518998279 30.4301025041288256 S
atom 7.5189202054791755 7.4923939506954840 30.4286974112697770 S
atom 2.3977924845539178 2.3123847988692483 35.5188169279098744 S
atom 7.6281695308121531 2.5693810983341692 35.5174119488031224 S
atom 2.6547890405769112 7.5427619580577767 35.5202178350768278 S
atom 7.3670350318085998 7.2816277420041491 35.5188172602270100 S
atom 1.9567508974891856 -0.0058333487335554 32.9038946184795691 S
atom 7.9525577916307428 -0.0068313078849942 33.0328935057561210 S
atom 2.9791774253714802 4.9665492470068626 33.0357031528887219 S
atom 6.9259936238599806 4.9634094896397887 32.9038933364039394 S
atom 2.9823821244819366 -0.0489824084699875 38.2407176043253543 S
atom 7.0089768688439591 -0.0500741519518673 37.8587324575107189 S
atom 2.0355972313857507 4.9233052336929850 37.8615427454207634 S
atom 7.9516248869390251 4.9202593003815309 38.2407170761897248 S
atom 0.0037643788493575 3.0145606244258967 32.9052981386817578 S
atom 4.9740049068626178 1.9879966547902865 33.0342978571579380 S
atom 0.0006248489897869 6.9613770368049375 33.0371073145686083 S
atom 4.9730067114810437 7.9838033271748943 32.9052987969272266 S
atom 0.0469144792312935 1.9889291896429728 38.2421215281830058 S
atom 5.0172473030995350 2.9315771324782713 37.8601371142986380 S
atom 0.0438662041258198 7.9049574259226327 37.8629467914525364 S
atom 5.0161583639979863 6.9581721253886002 38.2421220184211776 S
atom 0.2615623357007712 -0.1995675431311495 40.5465928360269743 Ba
atom 5.1708809373062872 -0.2636316321777163 40.5451886949435405 Ba
atom 0.1974985962884210 4.7097476867122845 40.5479967837221835 Ba
atom 5.2308069805769000 4.7696733437950343 40.5465929037219155 Ba
atom -0.0676014746838069 0.1106068341371003 45.3785649342704502 Ba
atom 4.8607035358173274 0.0655329884931463 45.3771619360004195 Ba
atom -0.1126753999948004 5.0389138188821319 45.3799639175715441 Ba
atom 4.9016406508588375 5.0798499542410553 45.3785646578544046 Ba
atom 2.5054378579116228 2.4529684780377776 43.1715832384552982 Zr
atom 7.4875813440293699 2.4617389107608316 43.1701776776351878 Zr
atom 2.5142029779043109 7.4351208740529291 43.1729896526032633 Zr
atom 7.4746791668018266 7.4222127911062987 43.1715828432121640 Zr
atom 2.7310003497915418 2.6777596290865899 40.5890199584161024 S
atom 7.2627945792696842 2.2361732429611756 40.5876177561235849 S
atom 2.2894143442413362 7.2095532731159064 40.5904248660027562 S
atom 7.7002432499339388 7.6470023336006072 40.5890199248869408 S
atom 2.3522165994449127 2.2346504992297271 45.6891431624254736 S
atom 7.7059035594315928 2.6149569223876727 45.6877329695873513 S
atom 2.7325238687698743 7.5883373844545412 45.6905509825704144 S
atom 7.3214588073835776 7.2038929589355583 45.6891411707023281 S
atom 2.8752837802895090 -0.0418870027454244 42.8299840806935563 S
atom 7.1863024818016425 -0.0409219677890893 43.3029612867664397 S
atom 2.2129201099546063 4.9324594202750562 43.3057702214683005 S
atom 7.8445270774016880 4.9273567905491227 42.8299862479029372 S
atom 0.0398166329749890 2.0960270734551285 42.8313892616501661 S
atom 5.0080968115780884 2.7542521921408158 43.3043658742820341 S
atom 0.0347182407968174 7.7276324422449392 43.3071734823081513 S
atom 5.0090566554126825 7.0652701187924460 42.8313889253731475 S
atom 2.5763884594396540 2.4358582479308186 48.8006104592154699 Ba
atom 7.5046949565061034 2.3907855347387978 48.7992089494556254 Ba
atom 2.5313149213622212 7.3641657771118654 48.8020112520124769 Ba
atom 7.5456314233158954 7.4051021831732617 48.8006108588812921 Ba
atom 2.2662108306967621 2.7650258379364483 53.6325797490443605 Ba
atom 7.1755314966829191 2.7009616159684837 53.6311753587173143 Ba
atom 2.2021481206841562 7.6743398588105372 53.6339842487808269 Ba
atom 7.2354573438455612 7.7342658315497719 53.6325801600822771 Ba
atom 4.9187541363406009 5.0088962158199388 51.0075902286544434 Zr
atom 9.9008982131035470 5.0176629522544376 51.0061908953021970 Zr
atom 4.9275168089798305 9.9910451529367172 51.0089935141147279 Zr
atom 9.8879978374172683 9.9781392000883127 51.0075888250750182 Zr
atom 4.9093022227540501 5.0656017984933834 56.1029515609957841 Zr
atom 9.8441961744777160 5.0271139458414495 56.1015410950896083 Zr
atom 4.8708169869473013 10.0004937967313410 56.1043545857578394 Zr
atom 9.8785436788442276 10.0348434231875014 56.1029511254976185 Zr
atom 4.7004318896287591 4.8556779189635844 48.4900289914665450 S
atom 10.0541194815445447 5.2359843654601610 48.4886327165672242 S
atom 5.0807390401468542 10.2093650809665846 48.4914285605074440 S
atom 9.6696743113532317 9.8249202650676022 48.4900304376290379 S
atom 5.1435402726720945 5.2344617436396073 53.5901529086849777 S
atom 9.6753363502196059 4.7928750247040224 53.5887479532459778 S
atom 4.7019542785461743 9.7662562956417087 53.5915597438558748 S
atom 10.1127842370650711 10.2037044277052473 53.5901535777527727 S
atom 4.5618090315346853 2.5432777366797708 51.3477848527710279 S
atom 10.1934149610259563 2.5381761858685374 50.8719976075752598 S
atom 5.2200339285055026 7.5115569509672477 50.8748081546572450 S
atom 9.5310516653153581 7.5125214477095845 51.3477825756950708 S
atom 4.4547110170925004 2.5503753321057872 55.9370519879049866 S
atom 10.3707398226595746 2.5473291667589355 56.3162293414381878 S
atom 5.3973581975359970 7.5207084781707891 56.3190363438803487 S
atom 9.4239537658053241 7.5196157577178289 55.9370532641576546 S
atom 2.4238988091213804 5.3787455654337233 51.3491877573639357 S
atom 7.3982367104522773 4.7163817631099461 50.8734012131668010 S
atom 2.4248586637002134 9.6897636923602963 50.8762135762995129 S
atom 7.3931381408872570 10.3479882754445054 51.3491890503047159 S
atom 2.4167968251093019 5.4858436663890942 55.9384570603504372 S
atom 7.3890902453497329 4.5390571516808178 56.3176341466909847 S
atom 2.4157076748711699 9.5124384489159137 56.3204404957571541 S
atom 7.3860414358592310 10.4550858140841605 55.9384565889380525 S
atom 2.5449641306779367 2.5008991873496060 58.6646267984391159 Ba
atom 7.4396554355890201 2.4222095446305323 58.6632221210127369 Ba
atom 2.4662747680215378 7.3955884309200650 58.6660319904343694 Ba
atom 7.5142082591967672 7.4701414649191342 58.6646273779383947 Ba
atom 2.4581191513954406 2.4502592382669786 63.7508711054922514 Ba
atom 7.4902927766181682 2.5090549511806044 63.7494668100038879 Ba
atom 2.5169148069939546 7.4824375420389231 63.7522754186974296 Ba
atom 7.4273588667612280 7.4195035174632569 63.7508708652487286 Ba
atom 4.9481837125731349 4.9786157214938562 61.1936295436317153 Zr
atom 9.9311801683473728 4.9882342305587297 61.1922205136770074 Zr
atom 4.9578007531846655 9.9616145472811475 61.1950382670419870 Zr
atom 9.9174250363277636 9.9478583363236428 61.1936282959768647 Zr
atom 4.9550508206210342 4.9833033123864876 66.2933228370982022 Zr
atom 9.9264935739112747 4.9813661815740620 66.2919208221809413 Zr
atom 4.9531130966007977 9.9547461119749716 66.2947268613659872 Zr
atom 9.9242933506289841 9.9525454037282231 66.2933239709035860 Zr
atom 4.7781665987938355 4.9012535938218438 58.6603593100757763 S
atom 10.0085430209871511 5.1582499535633453 58.6589513473282338 S
atom 5.0351627008461719 10.1316303405052643 58.6617637499945133 S
atom 9.7474092133780452 9.8704963924932283 58.6603586008960676 S
atom 4.9889327622631159 5.0531386122029289 63.7504769862533749 S
atom 9.8566586090720723 4.9474834341895679 63.7490699955001219 S
atom 4.8832779537467710 9.9208638900023924 63.7518810138083794 S
atom 9.9581753478295045 10.0223813352816986 63.7504766559270024 S
atom 5.4803418295465294 2.5072255261116565 61.2738738415257913 S
atom 9.4271593005696079 2.5040858041862242 61.1420672106451448 S
atom 4.4537779669996835 7.4774658970199397 61.1448740574348122 S
atom 10.4495845623490204 7.4764678453813227 61.2738754778340251 S
atom 4.4341257881202898 2.5016609525938689 66.2704909984343118 S
atom 10.4464077118521388 2.4997222390129030 66.3262317467412998 S
atom 5.4730276226542562 7.4731045363500010 66.3290409458500250 S
atom 9.4033690052584546 7.4709054884197279 66.2704902375186009 S
atom 2.4599475938144439 4.4602122124364900 61.2752798944262693 S
atom 7.4323312151442957 5.4826378822024333 61.1434711255176708 S
atom 2.4589495643500996 10.4560187157049231 61.1462786877473832 S
atom 7.4291914586225181 9.4294549787305897 61.2752785384070293 S
atom 2.4655137253270172 5.5064281041864982 66.2718946288734969 S
atom 7.4366913253409574 4.4633891421548162 66.3276364322130405 S
atom 2.4633127367081697 9.4367691790174053 66.3304458164766260 S
atom 7.4347543748991134 10.4756710791072578 66.2718945536306876 S
atom 2.4872820606964834 2.5119296540967331 68.8458377770962926 Ba
atom 7.4286232281981199 2.4798919102953665 68.8444336217946784 Ba
atom 2.4552438160523287 7.4532741119910941 68.8472415373074256 Ba
atom 7.4565227948697217 7.4811733288545215 68.8458378132853710 Ba
atom 2.4533965151654678 2.4858762079238614 73.9419399451883521 Ba
atom 7.4546796535685296 2.5137764328194137 73.9405364284983904 Ba
atom 2.4812978140473700 7.4871552712199252 73.9433446002422272 Ba
atom 7.4226412752495179 7.4551178090647285 73.9419406924870799 Ba
atom 4.9549615526867017 4.9835246791991690 71.3938879396082484 Zr
atom 9.9262717655991395 4.9814554249080567 71.3924895188353474 Zr
atom 4.9528906064214100 9.9548362123793641 71.3952894447951536 Zr
atom 9.9242049722134045 9.9527674964356709 71.3938886566507165 Zr
atom 4.9548721604375769 4.9837492507219512 76.4944583757821164 Zr
atom 9.9260523532449625 4.9815409453186517 76.4930535780356564 Zr
atom 4.9526729226161335 9.9549220023541185 76.4958609850098270 Zr
atom 9.9241136984610652 9.9529924958824001 76.4944584033174948 Zr
atom 4.9206289719231178 4.9578671132978984 68.8458644905388155 S
atom 9.9519293212321536 5.0157876019509331 68.8444684171768415 S
atom 4.9785489665289662 9.9891683852499664 68.8472735365043178 S
atom 9.8898715981208234 9.9271100009978959 68.8458650838013995 S
atom 4.9892925535504453 5.0091813339884910 73.9419160419920587 S
atom 9.9006159019576874 4.9471237539163218 73.9405069951053093 S
atom 4.9272353550245684 9.9205038838110031 73.9433128227788643 S
atom 9.9585353769908167 9.9784235764459002 73.9419164259062427 S
atom 5.4771005602125964 2.4978939913225813 71.4155368529384162 S
atom 9.4062017495597168 2.4957749725263172 71.3694326023258867 S
atom 4.4328214890085036 7.4691544677583597 71.3722437613951968 S
atom 10.4463430192389737 7.4671357708655339 71.4155358728669540 S
atom 4.4368949436264993 2.4939455808243376 76.4587375930268536 S
atom 10.4491759274641360 2.4920061135000529 76.5144786833477184 S
atom 5.4757949737197729 7.4653867476803972 76.5172874223868007 S
atom 9.4061370941244817 7.4631883901487610 76.4587368768595894 S
atom 2.4692779765294239 4.4634533682912023 71.4169408588393821 S
atom 7.4406437321750998 5.5035954627113526 71.3708366278243744 S
atom 2.4672625359307463 10.4769758520834184 71.3736470536893819 S
atom 7.4385214578790633 9.4326958037908000 71.4169419726493970 S
atom 2.4732278650815145 5.5036598647662043 76.4601409078751146 S
atom 7.4444095617938641 4.4606205742347145 76.5158834780229853 S
atom 2.4710273803628033 9.4340013354266752 76.5186926210037228 S
atom 7.4424720909790389 10.4729018492272790 76.4601412242351302 S
atom 2.4825596500540046 2.5475469713643757 79.0369097402667222 Ba
atom 7.3930096322701306 2.4846132085352766 79.0355049171798072 Ba
atom 2.4196272121085167 7.4579917048070872 79.0383136759821383 Ba
atom 7.4518047143671433 7.5167880470366075 79.0369092770777257 Ba
atom 2.3957152058378002 2.4969072394654681 84.1231502287083543 Ba
atom 7.4436465782896368 2.5714588725421201 84.1217460135929116 Ba
atom 2.4702668457599732 7.5448407256125849 84.1245540706217412 Ba
atom 7.3649558116140810 7.4661503258983766 84.1231494637246726 Ba
atom 4.9617379209042545 4.9884331196066318 81.5941484682877132 Zr
atom 9.9213646924998944 4.9746746560178137 81.5927381440890258 Zr
atom 4.9479827369006673 9.9480571297486300 81.5955554683087314 Zr
atom 9.9309818145368762 9.9576779739963825 81.5941472447593554 Zr
atom 5.0006192353188750 4.9014467843508198 86.6848244545080746 Zr
atom 10.0083482564484445 4.9357975992546157 86.6834211897323286 Zr
atom 5.0349682501970934 9.9091798345045383 86.6862340050883375 Zr
atom 9.9698614406111403 9.8706910688891512 86.6848244411196873 Zr
atom 4.9209892956035359 4.9139096771845594 79.0372986155345103 S
atom 9.9958864131805676 5.0154280496540675 79.0358952218403203 S
atom 5.0225056657432399 9.9888083206190448 79.0387048901538094 S
atom 9.8902320444856464 9.8831522532842495 79.0372979895951744 S
atom 5.1317555889251434 5.0657955225336169 84.1274217362186789 S
atom 9.8440012664702898 4.8046610910145384 84.1260137818485276 S
atom 4.8706212213927476 9.7780411665193281 84.1288277835222260 S
atom 10.1009978352814116 10.0350381273574243 84.1274215652368724 S
atom 5.4561437211048052 2.4895835420584294 81.6429042019615849 S
atom 9.4029603845658958 2.4864438912352567 81.5110979005941516 S
atom 4.4295797452584829 7.4598227545752795 81.5139048523328285 S
atom 10.4253865905211036 7.4588244353982160 81.6429058804128545 S
atom 4.5125627403831885 2.4463380809444160 86.4687411464589957 S
atom 10.4285908753063605 2.4432910189837420 86.8479178619087691 S
atom 5.4552108800596866 7.4166744448057544 86.8507258944864446 S
atom 9.4818060760570031 7.4155820773647418 86.4687432579394226 S
atom 2.4775908179612429 4.4844104282869965 81.6443103038579352 S
atom 7.4499743352666865 5.5068370719146715 81.5125016296451008 S
atom 2.4765928604387475 10.4802170965426100 81.5153087225386344 S
atom 7.4468344510442668 9.4536524418812302 81.6443094800162754 S
atom 2.5208355392848940 5.4279910586910471 86.4701472382825074 S
atom 7.4931226036323135 4.4812062540227089 86.8493222824922810 S
atom 2.5197450947638433 9.4545860125616166 86.8521304618515444 S
atom 7.4900754939283809 10.3972338563260180 86.4701455093841815 S
atom 2.6744676800264036 2.2327803023252826 89.1552000192559007 Ba
atom 7.7077708330988486 2.2927076029109426 89.1537954435041087 Ba
atom 2.7343931770823291 7.2660898735492072 89.1566044283106294 Ba
atom 7.6437068376907327 7.2020252288616691 89.1551998564545158 Ba
atom 2.3642896104788704 2.5619474467840524 93.9871676171295150 Ba
atom 7.3786079686458867 2.6028850831669192 93.9857664757524986 Ba
atom 2.4052259212785074 7.5762633480618700 93.9885714934972043 Ba
atom 7.3335332689391279 7.5311886570042619 93.9871699473976179 Ba
atom 4.9911701838761449 4.9581514429483553 91.7801924761203338 Zr
atom 9.9516438746352254 4.9452475062316354 91.7787903042818840 Zr
atom 4.9782638256930296 9.9186280909922520 91.7815911629841423 Zr
atom 9.9604132731170676 9.9273941070688796 91.7801927685775922 Zr
atom 4.7663802471710479 4.7325874151850824 89.1976287597951227 S
atom 10.1772101691941508 5.1700360541323418 89.1962239473315748 S
atom 5.2038288013832590 10.1434162697369334 89.1990351657872793 S
atom 9.7356234914450539 9.7018295786004796 89.1976280137791235 S
atom 5.2094894612029217 5.1113707316028734 94.2977498408936299 S
atom 9.7984259559539861 4.7269262048437781 94.2963523930220617 S
atom 4.8250457232287980 9.7003076155235135 94.2991474647557482 S
atom 10.1787323759096999 10.0806138307597308 94.2977516514393415 S
atom 4.6898875311077903 2.4554927878465502 91.9129706260937809 S
atom 10.3214935721250054 2.4503898063100809 91.4371825956811506 S
atom 5.3481132110184699 7.4237698187713121 91.4399932616176017 S
atom 9.6591309606188034 7.4247328597118800 91.9129676923413115 S
atom 2.5116828537281610 5.2506670024909265 91.9143731275713378 S
atom 7.4860264674834216 4.5883035135461032 91.4385867442496192 S
atom 2.5126429257192555 9.5616836906524814 91.4413978377914987 S
atom 7.4809270095536560 10.2199082816623221 91.9143739373683104 S
