#=======================================================
# FHI-aims file: full_relax/full_relax_RP_6_Rx1Ry20_Rx2Ry10.in
# Created using the Atomic Simulation Environment (ASE)
# Fri Mar 14 11:40:06 2025
#=======================================================
lattice_vector 10.0844928230494340 0.0301831009288164 0.0000000000000229 
lattice_vector 0.0301831009288161 10.0844928230494340 0.0000000000000653 
lattice_vector 0.0000000000001557 0.0000000000004420 65.0106219607421423 
atom -0.0090801037928993 -0.1510486592096126 0.2781439863470820 Ba
atom 5.0513265153149716 0.1661402096636883 0.2781439863884136 Ba
atom 0.0241716542748183 5.1932950707367445 0.2781439863497625 Ba
atom 5.0482578581783839 4.9062893027880774 0.2781439863572334 Ba
atom -0.0290495051800532 0.0265273609786686 4.9403242839158583 Ba
atom 5.0712959167022111 -0.0114358105287716 4.9403242839158983 Ba
atom 0.0441410556631589 5.0157190505462514 4.9403242839141086 Ba
atom 5.0282884567887791 5.0838653229801576 4.9403242839158992 Ba
atom 2.5163774491262698 2.5251366496717855 2.3233397421495270 Zr
atom 7.5832069243903542 2.5472928627943530 2.3233397421506830 Zr
atom 2.5560520633227002 7.5744477238391470 2.3233397421504436 Zr
atom 7.5737154111149385 7.5824746116470694 2.3233397421545976 Zr
atom 2.5277742365780176 2.5330272398808984 7.3361057412839878 Zr
atom 7.5718101369325099 2.5394022725674179 7.3361057413719948 Zr
atom 2.5446552758944248 7.5665571336344204 7.3361057412365644 Zr
atom 7.5851121985717649 7.5903652018699095 7.3361057413232738 Zr
atom 2.8785103826371117 2.5772329902048994 -0.1585370213422749 S
atom 7.2210739908856549 2.4951965222630821 -0.1585370214201019 S
atom 2.1939191298163716 7.5223513833093119 -0.1585370213098491 S
atom 7.9358483446197718 7.6345709521821412 -0.1585370213833432 S
atom 2.0648815037278614 2.4390548872250197 4.8648133347818421 S
atom 8.0347028697910776 2.6333746252240551 4.8648133349654676 S
atom 3.0075480087261659 7.6605294862863786 4.8648133348720517 S
atom 7.1222194657149522 7.4963928492158605 4.8648133348085230 S
atom 2.5211232057584656 0.0075457752252509 2.3829850926459728 S
atom 7.5633696172867104 0.0226373257045038 2.5261699479846431 S
atom 2.5362147562264359 5.0497921867641145 2.5261699479770217 S
atom 7.5784611677457434 5.0648837372084641 2.3829850926433793 S
atom 2.5211232057667514 0.0075457752528041 7.4796984690348634 S
atom 7.5633696172943834 0.0226373256650922 7.2180802297011502 S
atom 2.5362147562313067 5.0497921867324527 7.2180802297303979 S
atom 7.5784611677581566 5.0648837372574604 7.4796984690072597 S
atom 0.0075457752000380 2.5211232057602544 2.0141365586448798 S
atom 5.0497921867720192 2.5362147562297039 2.7945310925707356 S
atom 0.0226373257097501 7.5633696172883464 2.7945310925650970 S
atom 5.0648837372162863 7.5784611677494951 2.0141365586443434 S
atom 0.0075457752207457 2.5211232057628181 7.8037677695900802 S
atom 5.0497921867305910 2.5362147562284987 6.8867105049627870 S
atom 0.0226373256650013 7.5633696172865008 6.8867105049716502 S
atom 5.0648837372234379 7.5784611677492535 7.8037677696027137 S
atom 0.0601872076083217 -0.0063232563521092 9.8338729499880397 Ba
atom 4.9820592039159175 0.0214148068308842 9.8338729499873754 Ba
atom -0.0450956571793456 5.0485696678726351 9.8338729499875477 Ba
atom 5.1175251696306496 5.0510147056203358 9.8338729499868087 Ba
atom -0.0666959638113445 0.0062578398021571 14.7751413547202901 Ba
atom 5.1089423753357694 0.0088337106605631 14.7751413547177801 Ba
atom 0.0817875142845927 5.0359885717202166 14.7751413547202972 Ba
atom 4.9906419981695631 5.0635958017849134 14.7751413547185315 Ba
atom 2.5297726461059380 2.5274379123985309 12.2959351492327364 Zr
atom 7.5698117274021852 2.5449916000508725 12.2959351491587068 Zr
atom 2.5426568663556117 7.5721464611127054 12.2959351491994067 Zr
atom 7.5871106081231732 7.5847758743919593 12.2959351491959570 Zr
atom 2.5297726461322294 2.5274379123990891 17.2543475601471492 Zr
atom 7.5698117273712162 2.5449916000540767 17.2543475601451881 Zr
atom 2.5426568663265017 7.5721464611115810 17.2543475602549385 Zr
atom 7.5871106081365305 7.5847758743821050 17.2543475601071457 Zr
atom 3.0210516263900002 2.6611618301867277 9.8214615153823370 S
atom 7.0785327471384569 2.4112676822721646 9.8214615153268223 S
atom 2.0513778860720442 7.4384225433264621 9.8214615153178126 S
atom 8.0783895883847823 7.7184997921714302 9.8214615154299771 S
atom 2.0386284635711522 2.3810476789424304 14.7751413546651733 S
atom 8.0609559099378192 2.6913818335105444 14.7751413544292731 S
atom 3.0338010489103402 7.7185366945773550 14.7751413546515398 S
atom 7.0959664255843489 7.4383856409332205 14.7751413545826580 S
atom 2.5211232057736859 0.0075457752327921 12.1323418649481951 S
atom 7.5633696173017828 0.0226373257026594 12.4677782655784455 S
atom 2.5362147562380781 5.0497921867583928 12.4677782655455669 S
atom 7.5784611677665836 5.0648837372176523 12.1323418649823171 S
atom 2.5211232057743764 0.0075457752223449 17.4179408445009685 S
atom 7.5633696172943692 0.0226373257374086 17.0825044438967417 S
atom 2.5362147562374986 5.0497921867643925 17.0825044438936082 S
atom 7.5784611677604143 5.0648837371870963 17.4179408445039030 S
atom 0.0075457752642661 2.5211232057634132 11.8340309592561681 S
atom 5.0497921867120885 2.5362147562305877 12.7681401661193181 S
atom 0.0226373256494901 7.5633696172868436 12.7681401661035814 S
atom 5.0648837371665900 7.5784611677513656 11.8340309592376496 S
atom 0.0075457751484908 2.5211232057624144 17.7162517502446732 S
atom 5.0497921868710467 2.5362147562236417 16.7821425433429745 S
atom 0.0226373256001071 7.5633696172902107 16.7821425433290443 S
atom 5.0648837371840596 7.5784611677523017 17.7162517502259504 S
atom 0.0601872076448654 -0.0063232563622020 19.7164097594289878 Ba
atom 4.9820592038796558 0.0214148067995100 19.7164097594287497 Ba
atom -0.0450956571474849 5.0485696678827203 19.7164097594304515 Ba
atom 5.1175251696032813 5.0510147056527037 19.7164097594301069 Ba
atom -0.0290495051976188 0.0265273610107878 24.6099584254624162 Ba
atom 5.0712959167235283 -0.0114358105422033 24.6099584254636596 Ba
atom 0.0441410556394864 5.0157190505106941 24.6099584254609454 Ba
atom 5.0282884568152983 5.0838653229979585 24.6099584254635388 Ba
atom 2.5277742365797837 2.5330272398743112 22.2141769683481947 Zr
atom 7.5718101369508855 2.5394022725790162 22.2141769683712234 Zr
atom 2.5446552758879726 7.5665571336392983 22.2141769682956678 Zr
atom 7.5851121985525332 7.5903652018577832 22.2141769683812385 Zr
atom 2.5163774491274742 2.5251366496598249 27.2269429672143843 Zr
atom 7.5832069244072873 2.5472928627827982 27.2269429672045682 Zr
atom 2.5560520633164630 7.5744477238532939 27.2269429671981271 Zr
atom 7.5737154111267051 7.5824746116607686 27.2269429672196956 Zr
atom 3.0210516264230036 2.6611618301949829 19.7288211939588898 S
atom 7.0785327470911907 2.4112676822506329 19.7288211942194032 S
atom 2.0513778860533476 7.4384225433229103 19.7288211940678799 S
atom 8.0783895884277204 7.7184997921916549 19.7288211940906493 S
atom 2.0648815037806294 2.4390548872435698 24.6854693746378615 S
atom 8.0347028697550034 2.6333746252128454 24.6854693746347813 S
atom 3.0075480086846205 7.6605294862696551 24.6854693744660914 S
atom 7.1222194657583717 7.4963928492281910 24.6854693746148826 S
atom 2.5211232057703685 0.0075457752458480 22.0705842403922610 S
atom 7.5633696172903599 0.0226373257051031 22.3322024796548746 S
atom 2.5362147562352506 5.0497921867362336 22.3322024797074299 S
atom 7.5784611677550719 5.0648837372172499 22.0705842403462533 S
atom 2.5211232057654991 0.0075457751802626 27.1672976168594964 S
atom 7.5633696172924356 0.0226373257092532 27.0241127615325851 S
atom 2.5362147562280728 5.0497921868081423 27.0241127615254477 S
atom 7.5784611677575189 5.0648837372086835 27.1672976168585585 S
atom 0.0075457752855732 2.5211232057597810 21.7465149397602531 S
atom 5.0497921866515147 2.5362147562252977 22.6635722044074939 S
atom 0.0226373256793972 7.5633696172887195 22.6635722044278793 S
atom 5.0648837372058964 7.5784611677537530 21.7465149397879500 S
atom 0.0075457752394556 2.5211232057621502 27.5361461508256511 S
atom 5.0497921866954663 2.5362147562244983 26.7557516169784471 S
atom 0.0226373256826963 7.5633696172849127 26.7557516169919261 S
atom 5.0648837372268662 7.5784611677509384 27.5361461508422778 S
atom -0.0090801038164651 -0.1510486592145638 29.2721387231593226 Ba
atom 5.0513265153368616 0.1661402096846544 29.2721387231478651 Ba
atom 0.0241716542564041 5.1932950707368732 29.2721387231611203 Ba
atom 5.0482578581924393 4.9062893027698546 29.2721387231303645 Ba
atom 2.8785103826405769 2.5772329901947861 29.7088197304437678 S
atom 7.2210739908729193 2.4951965222502310 29.7088197303917028 S
atom 2.1939191298056056 7.5223513833180427 29.7088197304923831 S
atom 7.9358483446421761 7.6345709521911438 29.7088197304018244 S
atom 2.3776203218036751 2.5195888772039519 32.7834549667229140 Ba
atom 7.7219640517083752 2.5528406352688111 32.7834549667321440 Ba
atom 2.6948091906704312 7.5799954963088521 32.7834549667163131 Ba
atom 7.4349582837691859 7.5769268391714348 32.7834549667171018 Ba
atom 2.5551963420216013 2.4996194758216110 37.4456352643008472 Ba
atom 7.5443880314923968 2.5728100366585855 37.4456352643015222 Ba
atom 2.5172331704801385 7.5999648976946768 37.4456352643048618 Ba
atom 7.6125343039585802 7.5569574377834448 37.4456352643067021 Ba
atom 5.0538056306568393 5.0450464301476741 34.8286507226026174 Zr
atom 10.1031167048453696 5.0847210443259145 34.8286507225812230 Zr
atom 5.0759618437758522 10.1118759053897485 34.8286507225645465 Zr
atom 10.1111435926466271 10.1023843920851970 34.8286507226203312 Zr
atom 5.0616962208729683 5.0564432175470975 39.8414167215052402 Zr
atom 10.0952261146251772 5.0733242568804409 39.8414167216499493 Zr
atom 5.0680712535739119 10.1004791179486535 39.8414167215693951 Zr
atom 10.1190341828620216 10.1137811796138291 39.8414167217044479 Zr
atom 5.1059019711905602 5.4071793636522196 32.3467739592842065 S
atom 10.0510203643142226 4.7225881108027323 32.3467739591216343 S
atom 5.0238655032461077 9.7497429718806075 32.3467739591790107 S
atom 10.1632399331870431 10.4645173256251134 32.3467739590714629 S
atom 4.9677238682283020 4.5935504847540649 37.3701243151038867 S
atom 10.1891984672729468 5.5362169897153715 37.3701243152757669 S
atom 5.1620436062056205 10.5633718507513326 37.3701243155380567 S
atom 10.0250618302151207 9.6508884467378415 37.3701243149689404 S
atom 5.0497921867567825 2.5362147561508475 34.5194475389376763 S
atom 10.0920385982790393 2.5513063067026418 35.2998420728892626 S
atom 5.0648837372174613 7.5784611677025335 35.2998420728299322 S
atom 10.1071301487471423 7.5935527182224698 34.5194475390023570 S
atom 5.0497921867592641 2.5362147562089938 40.3090787499857015 S
atom 10.0920385982838550 2.5513063065306874 39.3920214853683532 S
atom 5.0648837372235516 7.5784611677756066 39.3920214853645092 S
atom 10.1071301487462666 7.5935527182240090 40.3090787500029393 S
atom 2.5362147561953674 5.0497921867673554 34.8882960729600455 S
atom 7.5784611677767586 5.0648837372297937 35.0314809282975759 S
atom 2.5513063068075121 10.0920385982778118 35.0314809282969080 S
atom 7.5935527181058990 10.1071301487442309 34.8882960729617295 S
atom 2.5362147562237713 5.0497921867751092 39.9850094494406179 S
atom 7.5784611677537601 5.0648837372413196 39.7233912101354747 S
atom 2.5513063066246988 10.0920385983018708 39.7233912100770468 S
atom 7.5935527182835276 10.1071301487636322 39.9850094493883077 S
atom 2.5223457246275696 2.5888561886058841 42.3391839303518367 Ba
atom 7.5772386488829619 2.4835733238191429 42.3391839303525188 Ba
atom 2.5500837878116003 7.5107281849108460 42.3391839303587787 Ba
atom 7.5796836866215029 7.6461941506249271 42.3391839303613580 Ba
atom 2.5349268207519411 2.4619730171692877 47.2804523350872188 Ba
atom 7.5646575527536850 2.6104564952720701 47.2804523350859398 Ba
atom 2.5375026916417598 7.6376113563455963 47.2804523350853287 Ba
atom 7.5922647828008207 7.5193109791766508 47.2804523350817405 Ba
atom 5.0561068933845021 5.0584416271261512 44.8012461296884723 Zr
atom 10.1008154421002292 5.0713258473334673 44.8012461295366080 Zr
atom 5.0736605810332902 10.0984807084009915 44.8012461293381463 Zr
atom 10.1134448553807594 10.1157795890790929 44.8012461296048343 Zr
atom 5.0561068934001741 5.0584416271326091 49.7596585406769094 Zr
atom 10.1008154421086189 5.0713258473008826 49.7596585405448479 Zr
atom 5.0736605810549049 10.0984807083567016 49.7596585405611620 Zr
atom 10.1134448553851417 10.1157795891307600 49.7596585405205545 Zr
atom 5.1898308111935245 5.5497206074255203 42.3267724955534774 S
atom 9.9670915243213347 4.5800468670733476 42.3267724955894309 S
atom 4.9399366632714337 9.6072017281531252 42.3267724957083402 S
atom 10.2471687731675747 10.6070585693773101 42.3267724957602667 S
atom 4.9097166599323661 4.5672974445713201 47.2804523347991648 S
atom 10.2472056755704024 5.5624700298798535 47.2804523350815060 S
atom 5.2200508145212243 10.5896248909880715 47.2804523351244086 S
atom 9.9670546219215375 9.6246354065431046 47.2804523348591985 S
atom 5.0497921867567062 2.5362147561039188 44.3393419396517032 S
atom 10.0920385982776182 2.5513063066938200 45.2734511465058560 S
atom 5.0648837372184268 7.5784611676057096 45.2734511465251686 S
atom 10.1071301487441207 7.5935527182402121 44.3393419396291790 S
atom 5.0497921867524722 2.5362147564115349 50.2215627305747674 S
atom 10.0920385982853542 2.5513063067983994 49.2874535237167990 S
atom 5.0648837372248972 7.5784611676692206 49.2874535236723617 S
atom 10.1071301487508318 7.5935527181040747 50.2215627306128809 S
atom 2.5362147561329698 5.0497921867724012 44.6376528453780708 S
atom 7.5784611678601683 5.0648837372351521 44.9730892459761549 S
atom 2.5513063067448134 10.0920385983029970 44.9730892459374445 S
atom 7.5935527181690547 10.1071301487670304 44.6376528453369303 S
atom 2.5362147563578739 5.0497921867467808 49.9232518248512562 S
atom 7.5784611676151599 5.0648837372121287 49.5878154242456972 S
atom 2.5513063066058970 10.0920385982805207 49.5878154242694791 S
atom 7.5935527182858138 10.1071301487444209 49.9232518248743773 S
atom 2.5223457246534124 2.5888561886329233 52.2217207398040415 Ba
atom 7.5772386488567056 2.4835733238395710 52.2217207398022083 Ba
atom 2.5500837878174516 7.5107281848763074 52.2217207397963890 Ba
atom 7.5796836866296902 7.6461941505973492 52.2217207397949537 Ba
atom 2.5551963420253010 2.4996194757953774 57.1152694058292809 Ba
atom 7.5443880314885448 2.5728100366287836 57.1152694058306736 Ba
atom 2.5172331704610222 7.5999648977170615 57.1152694058257921 Ba
atom 7.6125343039783129 7.5569574378085118 57.1152694058260053 Ba
atom 5.0616962208743885 5.0564432175664908 54.7194879485810830 Zr
atom 10.0952261146352491 5.0733242569093546 54.7194879486733612 Zr
atom 5.0680712535826249 10.1004791179660831 54.7194879488840016 Zr
atom 10.1190341828505765 10.1137811795589627 54.7194879487831400 Zr
atom 5.0538056306592427 5.0450464301099744 59.7322539475230059 Zr
atom 10.1031167048434884 5.0847210443255575 59.7322539475744279 Zr
atom 5.0759618437830687 10.1118759053652401 59.7322539475650771 Zr
atom 10.1111435926490376 10.1023843921347112 59.7322539476021532 Zr
atom 5.1898308111814400 5.5497206073746455 52.2341321746735900 S
atom 9.9670915243133091 4.5800468670461338 52.2341321744366880 S
atom 4.9399366632417063 9.6072017280556672 52.2341321744467351 S
atom 10.2471687731847023 10.6070585694233515 52.2341321743492841 S
atom 4.9677238682315448 4.5935504847504260 57.1907803548807649 S
atom 10.1891984672685449 5.5362169896994091 57.1907803549875098 S
atom 5.1620436062005517 10.5633718507167789 57.1907803548828042 S
atom 10.0250618302285091 9.6508884467739176 57.1907803549221683 S
atom 5.0497921867568438 2.5362147562788557 54.2518259201453077 S
atom 10.0920385982834961 2.5513063065656554 55.1688831848005492 S
atom 5.0648837372199020 7.5784611677736438 55.1688831847746712 S
atom 10.1071301487462772 7.5935527181777402 54.2518259201571880 S
atom 5.0497921867565783 2.5362147562203590 60.0414571312084391 S
atom 10.0920385982808387 2.5513063066452002 59.2610625973432548 S
atom 5.0648837372217130 7.5784611678189187 59.2610625973745044 S
atom 10.1071301487448970 7.5935527182030320 60.0414571311781344 S
atom 2.5362147561507551 5.0497921867662656 54.5758952207332513 S
atom 7.5784611678220930 5.0648837372312352 54.8375134600400287 S
atom 2.5513063067096744 10.0920385982850593 54.8375134600666101 S
atom 7.5935527181933677 10.1071301487491532 54.5758952207557613 S
atom 2.5362147562430781 5.0497921867574753 59.6726085972084164 S
atom 7.5784611677318159 5.0648837372225390 59.5294237418877685 S
atom 2.5513063066850843 10.0920385982768881 59.5294237419090138 S
atom 7.5935527182194127 10.1071301487405218 59.6726085972361773 S
atom 2.3776203217661109 2.5195888771749266 61.7774497036035370 Ba
atom 7.7219640517475332 2.5528406352538493 61.7774497036084682 Ba
atom 2.6948091906780296 7.5799954963449192 61.7774497036032670 Ba
atom 7.4349582837651731 7.5769268391948374 61.7774497036122838 Ba
atom 5.1059019712002884 5.4071793636397345 62.2141307109179209 S
atom 10.0510203643014524 4.7225881108003280 62.2141307108547039 S
atom 5.0238655032509216 9.7497429718490700 62.2141307106735439 S
atom 10.1632399331796179 10.4645173256407293 62.2141307107977752 S
