#=======================================================
# FHI-aims file: full_relax/full_relax_RP_7_Rx0Mz_0-Ry0.in
# Created using the Atomic Simulation Environment (ASE)
# Mon Mar 24 15:44:11 2025
#=======================================================
lattice_vector 10.0297166892178176 0.0000000189486428 0.0043748418215961 
lattice_vector 0.0000000188531912 10.0831230328568200 0.0000000108561513 
lattice_vector 0.0333268347754891 0.0000000838634122 75.3331302755082817 
atom -0.1750919090949120 0.0000002275950007 0.2186412020135648 Ba
atom 5.1518937070174946 -0.0000006144394353 0.2150306290350610 Ba
atom 0.1370353718355120 5.0415608925165181 0.2128432135510008 Ba
atom 4.8397664449409339 5.0415617534995905 0.2208286283545503 Ba
atom -0.0687184872057836 -0.0000033380410616 4.9232697679831752 Ba
atom 4.8972348170561908 -0.0000048524533580 4.8559817177416589 Ba
atom -0.1176235181263998 5.0415566544994848 4.8537943022590522 Ba
atom 4.9461398668299701 5.0415581878612752 4.9254571943219734 Ba
atom 2.4829399429073451 2.5031202523920100 2.2781384400534521 Zr
atom 7.4977978338816573 2.5384405580585501 2.2803256320792578 Zr
atom 2.4829394986990585 7.5800020650131135 2.2781382165958539 Zr
atom 7.4977982969431309 7.5446817782943469 2.2803258663922650 Zr
atom 2.5236173516610139 2.5184952880821561 7.3257991820615080 Zr
atom 7.5384766607803479 2.5230681931912882 7.3279867091576731 Zr
atom 2.5236183255980809 7.5646297001453711 7.3257992936753329 Zr
atom 7.5384757056965315 7.5600568139848168 7.3279866084003773 Zr
atom 2.4896064588936619 2.7826967135013372 -0.2050659616512261 S
atom 7.5044688835182312 2.2588645861390684 -0.2028786390294698 S
atom 2.4896105483358495 7.3004260930949254 -0.2050660545133634 S
atom 7.5044648129292284 7.8242582394020328 -0.2028785353123649 S
atom 2.5001082460215240 2.1305474736939112 4.8402589924046078 S
atom 7.5149540993037176 2.9110151847961427 4.8424464991673846 S
atom 2.5000957641215713 7.9525766917511280 4.8402590836850443 S
atom 7.5149666000571846 7.1721089995959604 4.8424464187436245 S
atom 2.4931632764501912 -0.0000002084717459 2.0336614854152719 S
atom 7.4908125486314248 -0.0000002110815845 2.6918694465941093 S
atom 2.4759542134489427 5.0415612958731835 2.6896820311118703 S
atom 7.5080216304853833 5.0415613174307081 2.0358489117540959 S
atom 2.8522920416902826 0.0000005845687799 7.7104478644387173 S
atom 7.2255801477040844 0.0000004929897560 6.9610821219774923 S
atom 2.2107218125218004 5.0415619999437524 6.9588947064945836 S
atom 7.8671503957258917 5.0415621104710784 7.7126352907775662 S
atom -0.0213865086342112 2.5184399733920735 2.4071208789160403 S
atom 4.9934719655173128 2.5231208806887135 2.4092999817281466 S
atom -0.0213863696648332 7.5646823876428408 2.4071125662463362 S
atom 4.9934718454011477 7.5600014992948097 2.4093083052557427 S
atom 0.0141491215560788 2.1833320575482555 7.3511065779556732 S
atom 5.0290079105740553 2.8582307918108691 7.3533159322862520 S
atom 0.0141495753916587 7.8997922987649369 7.3511285168035565 S
atom 5.0290074755917020 7.2248935834509629 7.3532940042945292 S
atom 0.1879236568923454 0.0000100426600190 9.8566903724510837 Ba
atom 5.1897404135163763 0.0000127438843114 9.8487882234118249 Ba
atom 0.1748820783340042 5.0415742508389041 9.8466008079289669 Ba
atom 5.2027820109278720 5.0415715685625635 9.8588777987899334 Ba
atom -0.1690549366132156 -0.0000133030770732 14.8476930487495888 Ba
atom 4.8574862377548751 -0.0000173837386267 14.8491297356022240 Ba
atom -0.1573720974270138 5.0415441232153864 14.8469423201195827 Ba
atom 4.8458034174221334 5.0415482228258659 14.8498804750884563 Ba
atom 2.5197443808685009 2.5228040314240654 12.3363085037791365 Zr
atom 7.5346020087744758 2.5187565000616936 12.3384959944562347 Zr
atom 2.5197436735921808 7.5603180070158587 12.3363085789744620 Zr
atom 7.5346027349040341 7.5643655573267106 12.3384959301182828 Zr
atom 2.5151031188575974 2.5207807830659799 17.3475381845126222 Zr
atom 7.5299614642204489 2.5207807925400978 17.3497256054464728 Zr
atom 2.5151031290381689 7.5623422994942260 17.3475381899636218 Zr
atom 7.5299614728931292 7.5623423089686641 17.3497256108515039 Zr
atom 2.5160539086761595 2.9036308499270205 9.8396457793104002 S
atom 7.5309414317154753 2.1379256242391276 9.8418333572899730 S
atom 2.5160830965333352 7.1794871311934640 9.8396459418078823 S
atom 7.5309122627119160 7.9451923758293512 9.8418332056493796 S
atom 2.5173867431128949 2.1407890775219456 14.8445776944166195 S
atom 7.5322056107330058 2.9007792300828394 14.8467651479101033 S
atom 2.5173472755509474 7.9423407370370800 14.8445777324276786 S
atom 7.5322450971484765 7.1823506034245224 14.8467651207555456 S
atom 2.8492074231739943 -0.0000001473526352 11.9709912575474444 S
atom 7.1994669026493483 -0.0000002385372102 12.7228606175424215 S
atom 2.1846085674669404 5.0415612684170705 12.7206732020596380 S
atom 7.8640657772094178 5.0415613785499334 11.9731786838865020 S
atom 2.8473441045423376 0.0000000792259228 17.7220120966050239 S
atom 7.1977204691090622 -0.0000000210953513 16.9752516879239757 S
atom 2.1828621339266605 5.0415614858589848 16.9730642724413023 S
atom 7.8622024585777934 5.0415616051288126 17.7241995229438558 S
atom 0.0106655044763706 2.1731751212898414 12.3477338609960530 S
atom 5.0255245176502035 2.8683865030791988 12.3498845982017649 S
atom 0.0106661824680244 7.9099480100332800 12.3476971827188287 S
atom 5.0255238585119217 7.2147366471925594 12.3499212873347251 S
atom 0.0076735824567775 2.1729333138921501 17.3464233053125660 S
atom 5.0225326560120944 2.8686282503647655 17.3486530637337353 S
atom 0.0076743208299436 7.9101897573188662 17.3464656482511508 S
atom 5.0225319364922090 7.2144948397948090 17.3486107316513767 S
atom 0.1844028210473427 0.0000133445216376 19.8451958939587705 Ba
atom 5.1875783358966014 0.0000174452792816 19.8481340489278253 Ba
atom 0.1727200007146097 5.0415789522339072 19.8459466334450134 Ba
atom 5.1992611750826550 5.0415748704245376 19.8473833202975918 Ba
atom -0.1725757724594173 -0.0000100102471875 24.8361985702572490 Ba
atom 4.8553241601344324 -0.0000126945299162 24.8484755611183417 Ba
atom -0.1595341750482026 5.0415488124233976 24.8462881456354516 Ba
atom 4.8422825815761312 5.0415515156554287 24.8383859965961413 Ba
atom 2.5104618580158533 2.5187575320288977 22.3587678652678790 Zr
atom 7.5253209184970435 2.5228050823399402 22.3609552164136964 Zr
atom 2.5104625833147360 7.5643665892939458 22.3587678009301349 Zr
atom 7.5253202120513292 7.5603190579314923 22.3609552916065688 Zr
atom 2.5065888869177879 2.5230662758823885 27.3692771870358946 Zr
atom 7.5214462667968762 2.5184933897218991 27.3714645016606504 Zr
atom 2.5065879316145829 7.5600548966761298 27.3692770861773695 Zr
atom 7.5214472409533402 7.5646278017850070 27.3714646133746484 Zr
atom 2.5128194912929498 2.9007724863792874 19.8504986746034788 S
atom 7.5277173210166097 2.1407823527674106 19.8526860629870576 S
atom 2.5128589858342960 7.1823438597216986 19.8504986475040859 S
atom 7.5276778453286797 7.9423340122819202 19.8526861009423534 S
atom 2.5141523381722850 2.1379307157428000 24.8554305897465717 S
atom 7.5289814875921897 2.9036359603772159 24.8576178535692023 S
atom 2.5141231524101988 7.9451974673315080 24.8554304380859641 S
atom 7.5290106922078532 7.1794922416451028 24.8576180160853859 S
atom 2.8455976710021718 0.0000002957184412 21.9744031669877451 S
atom 7.1958571504772966 0.0000002044586226 22.7262725269814574 S
atom 2.1809988152950370 5.0415617114127063 22.7240851114989439 S
atom 7.8604560250377276 5.0415618216211220 21.9765905933262395 S
atom 2.8194844259478833 -0.0000004358114644 27.7361816625530686 S
atom 7.1927725319608076 -0.0000005274921061 26.9868159200923685 S
atom 2.1779141967785165 5.0415609794619876 26.9846285046098977 S
atom 7.8343427799833485 5.0415610900907817 27.7383690888920427 S
atom 0.0046817206980798 2.1731750614828540 22.3451917779554776 S
atom 5.0195407341135736 2.8683864432728412 22.3473425009404778 S
atom 0.0046823989312739 7.9099479502268792 22.3451550854580958 S
atom 5.0195400747335572 7.2147365873854881 22.3473792042943451 S
atom 0.0011983277522168 2.1833307719303896 27.3417604290890246 S
atom 5.0160571170561319 2.8582295061940273 27.3439697987645935 S
atom 0.0011987818737023 7.8997910131480644 27.3417823832818669 S
atom 5.0160566817879850 7.2248922978331924 27.3439478554285600 S
atom 0.0840663716395276 0.0000033792824555 29.7696191747253209 Ba
atom 5.1478297565956117 0.0000049145249484 29.8412820667885050 Ba
atom 0.1329714214127205 5.0415664214796037 29.8390946513057642 Ba
atom 5.0989247256749630 5.0415649051848908 29.7718066010643803 Ba
atom 0.1904397935281814 -0.0000001891080491 34.4742477406956169 Ba
atom 4.8931708666343132 0.0000006727568648 34.4822331554968855 Ba
atom -0.1216874685483071 5.0415621797095937 34.4800457400153419 Ba
atom 5.2052981475629814 5.0415613367934284 34.4764351670323137 Ba
atom 2.5472662953781593 2.5384413125973029 32.4169379289025414 Zr
atom 7.5621250939888425 2.5031210258784640 32.4191255788802408 Zr
atom 2.5472667588062472 7.5446825328331926 32.4169381633986688 Zr
atom 7.5621246494140362 7.5800028384996843 32.4191253552417109 Zr
atom 2.5300979871202505 2.9110140904528254 29.8548173766460181 S
atom 7.5449688337100307 2.1305463982987978 29.8570047116971473 S
atom 2.5301104985276379 7.1721079052537089 29.8548172962143781 S
atom 7.5449563411562828 7.9525756163549408 29.8570048029849708 S
atom 2.5405997817709598 2.2588648512545566 34.9001423306591931 S
atom 7.5554540419733378 2.7826969975615508 34.9023298499374164 S
atom 2.5405957067912666 7.8242585045177018 34.9001424344563063 S
atom 7.5554581358063384 7.3004263771554179 34.9023297569985829 S
atom 2.5542520250201646 0.0000002689914598 32.0053943379374388 S
atom 7.5519012972013098 0.0000002663678820 32.6636022991163912 S
atom 2.5370429620192465 5.0415617733227887 32.6614148836334550 S
atom 7.5691103790557674 5.0415617948940019 32.0075817642764946 S
atom 0.0367342729028318 2.5184406842790206 32.2857763913215408 S
atom 5.0515927471523048 2.5231215915755345 32.2879554861313522 S
atom 0.0367344119701828 7.5646830985296143 32.2857680706491266 S
atom 5.0515926269382652 7.5600022101817581 32.2879638176602626 S
atom 2.5387084187694091 2.3572648614262892 38.0108414612296741 Ba
atom 7.5535665766934645 2.6842968262127100 38.0130289517503073 Ba
atom 2.5387082415106277 7.7258583331706543 38.0108415362661347 Ba
atom 7.5535667728055422 7.3988263873258910 38.0130288875674722 Ba
atom 2.5370087291544294 2.5439106291580358 42.6894760802705946 Ba
atom 7.5518671302364799 2.4976510168674975 42.6916635159602507 Ba
atom 2.5370087950550966 7.5392125238289598 42.6894761004762273 Ba
atom 7.5518670831889541 7.5854721550520701 42.6916635066081938 Ba
atom 5.0252085318580662 5.0415616314457470 40.0702444478819615 Zr
atom 10.0802742139812036 5.0415615583944877 40.0739415406936317 Zr
atom 5.0654158787989436 10.0831230653486390 40.0717541252121379 Zr
atom 10.0400668858939213 10.0831231573485223 40.0724318742184309 Zr
atom 5.0424605014873842 5.0415615753725973 45.0889176434582097 Zr
atom 10.0590567333968632 5.0415615949320216 45.0917508000185521 Zr
atom 5.0441983982145935 10.0831231018860699 45.0895633845352037 Zr
atom 10.0573188555230697 10.0831231012752713 45.0911050697984663 Zr
atom 5.3334214477396253 5.0415619549886248 37.5872484924556929 S
atom 9.7742665911222559 5.0415612594151344 37.5906499718012057 S
atom 4.7594082559402935 10.0831227663773859 37.5884625563205148 S
atom 10.3482798017756803 10.0831234808993955 37.5894359187904428 S
atom 4.5777531730463714 5.0415614925817902 42.6155302366356494 S
atom 10.5259770794981371 5.0415616854582312 42.6184392921450552 S
atom 5.5111187443158522 10.0831231923970996 42.6162518766622043 S
atom 9.5926115270820329 10.0831230184692462 42.6177176629751102 S
atom 5.0453216201566420 2.5208446079725970 40.2061108654647086 S
atom 10.0601799799320233 2.5207170611481948 40.2082986400637097 S
atom 5.0453216447497216 7.5622785681026450 40.2061112245685450 S
atom 10.0601799741921401 7.5624061338756476 40.2082982917928717 S
atom 5.0433824304140566 2.5207627490158506 45.1066124148475041 S
atom 10.0582407738727273 2.5207989072369186 45.1087996902019697 S
atom 5.0433824386905330 7.5623604141906728 45.1066122747397458 S
atom 10.0582407844494064 7.5623242749182333 45.1087998412059008 S
atom 2.5380602847038523 5.0415615791578023 39.7595964348056512 S
atom 7.5525267260866844 5.0415615806929237 40.5204412907827702 S
atom 2.5376683909037103 10.0831230876478699 40.5182538753006511 S
atom 7.5529186387405280 10.0831231050605048 39.7617838611448491 S
atom 2.5357174090907502 5.0415615773265499 45.5733258224384414 S
atom 7.5510353991482138 5.0415615874697499 44.6215137557107155 S
atom 2.5361770639666252 10.0831230944235894 44.6193263402279570 S
atom 7.5505757631257664 10.0831231032277984 45.5755132487770211 S
atom 2.5348418468945320 2.5160482262822126 47.5936497515077619 Ba
atom 7.5497001541891917 2.5255134197159976 47.5958371715597579 Ba
atom 2.5348418190073563 7.5670749266808386 47.5936497560771627 Ba
atom 7.5497002009295819 7.5576097521736791 47.5958371778470379 Ba
atom 2.5328301657955787 2.5258955898198443 52.5397866594147374 Ba
atom 7.5476885312898636 2.5156660636899422 52.5419740827687676 Ba
atom 2.5328301961066502 7.5572275706575756 52.5397866672861511 Ba
atom 7.5476885198320520 7.5674571157101003 52.5419740857537647 Ba
atom 5.0428474663565828 5.0415615847388482 50.0528728536284646 Zr
atom 10.0545821563334741 5.0415615902575359 50.0553154639315139 Zr
atom 5.0397238211510178 10.0831230972115566 50.0531280484473697 Zr
atom 10.0577058203916376 10.0831231106415213 50.0550602799700641 Zr
atom 5.0391957136400745 5.0415615871449067 55.0151970354494964 Zr
atom 10.0540540582490419 5.0415615966268534 55.0173844563587977 Zr
atom 5.0391957230667090 10.0831231035809310 55.0151970408760747 Zr
atom 10.0540540676755867 10.0831231130476429 55.0173844617885948 Zr
atom 5.5495676277713919 5.0415616270747572 47.5774332106531261 S
atom 9.5498169401385606 5.0415615468197723 47.5793681766959864 S
atom 4.5349586049564676 10.0831230537961396 47.5771807612124462 S
atom 10.5644259818069948 10.0831231529997911 47.5796206369937948 S
atom 4.5324111810071503 5.0415615557794160 52.5353439426420223 S
atom 10.5629714774668866 5.0415616238121608 52.5380114707006314 S
atom 5.5481131422845662 10.0831231307397342 52.5358240552175317 S
atom 9.5472695350431156 10.0831230816556374 52.5375313689820160 S
atom 5.0412571690340542 2.5207742221192970 50.0599307938641545 S
atom 10.0561155084114731 2.5207874368691430 50.0621182942280711 S
atom 5.0412571732290710 7.5623489438231779 50.0599308787193920 S
atom 10.0561155230696642 7.5623357480219884 50.0621182201756980 S
atom 5.0391957065794637 2.5207774374099645 55.0151970637028569 S
atom 10.0540540558825313 2.5207842299322318 55.0173844226486537 S
atom 5.0391957207002323 7.5623457368865541 55.0151970071951268 S
atom 10.0540540606149591 7.5623389633129285 55.0173844900708247 S
atom 2.5340264748240293 5.0415615747072753 49.5709425399968282 S
atom 7.5484932953853372 5.0415615907105318 50.5499466516068381 S
atom 2.5336349602028627 10.0831230976661104 50.5477592361238877 S
atom 7.5488848288594310 10.0831231006098658 49.5731299663353724 S
atom 2.5315486044691600 5.0415615855865763 55.5025727485818123 S
atom 7.5468428228106257 5.0415615887074283 54.5278213223157877 S
atom 2.5319844876279074 10.0831230956624420 54.5256339068332281 S
atom 7.5464069585050542 10.0831231114882076 55.5047601749205270 S
atom 2.5307029074297751 2.5156660585905155 57.4884199851521416 Ba
atom 7.5455612311911544 2.5258956036430273 57.4906074036035051 Ba
atom 2.5307028960081066 7.5674571106108042 57.4884199881209739 Ba
atom 7.5455612614660224 7.5572275844807315 57.4906074114906289 Ba
atom 2.5286912264038461 2.5255134221230251 62.4345568930450128 Ba
atom 7.5435496082190729 2.5160482476155126 62.4367443148256669 Ba
atom 2.5286912730372575 7.5576097545808310 62.4345568993435762 Ba
atom 7.5435495804388557 7.5670749480142501 62.4367443193840117 Ba
atom 5.0355439609232979 5.0415615895670038 59.9775212172687304 Zr
atom 10.0535259601642668 5.0415616029811909 59.9794534487879503 Zr
atom 5.0386676249819624 10.0831231099353076 59.9772660333063001 Zr
atom 10.0504023149591806 10.0831231154697658 59.9797086436052567 Zr
atom 5.0359309257922016 5.0415615989285030 64.9414764274372658 Zr
atom 10.0490513831006041 5.0415615983345274 64.9430181127019921 Zr
atom 5.0341930479182944 10.0831231052887400 64.9408306972195817 Zr
atom 10.0507892798274074 10.0831231248313120 64.9436638537748934 Zr
atom 5.5459802462724248 5.0415616184880117 57.4950501282564232 S
atom 9.5451366390306021 5.0415615694633269 57.4967574420177456 S
atom 4.5302783038482675 10.0831230764441635 57.4945700265354276 S
atom 10.5608386003077612 10.0831231444175096 57.4972375545943351 S
atom 4.5288237995085252 5.0415615473199722 62.4529608602432802 S
atom 10.5582911763593472 5.0415616463436903 62.4554007360241599 S
atom 5.5434328411769256 10.0831231532747712 62.4532133205418987 S
atom 9.5436821535439567 10.0831230731997170 62.4551482865805028 S
atom 5.0371342540296453 2.5207742304756096 59.9704631922525664 S
atom 10.0519925934490857 2.5207874452256891 59.9726506924701326 S
atom 5.0371342582669287 7.5623489521798408 59.9704632769595136 S
atom 10.0519926080650510 7.5623357563784026 59.9726506185648276 S
atom 5.0350089885768394 2.5207627601204394 64.9237817960073045 S
atom 10.0498673320610656 2.5207989183417214 64.9259690716625641 S
atom 5.0350089968786813 7.5623604252955268 64.9237816561999210 S
atom 10.0498673426123961 7.5623242860228812 64.9259692223675700 S
atom 2.5298981318943490 5.0415615836052803 59.4804474192907691 S
atom 7.5443649524559699 5.0415615995748322 60.4594515309008997 S
atom 2.5295066172737259 10.0831231065291576 60.4572641154183827 S
atom 7.5447564859300984 10.0831231095066443 59.4826348456298817 S
atom 2.5273560281316350 5.0415615868565915 65.4088803151870053 S
atom 7.5426740181894418 5.0415615969698804 64.4570682484592083 S
atom 2.5278156830076495 10.0831231039254110 64.4548808329769827 S
atom 7.5422143821663443 10.0831231127596030 65.4110677415260540 S
atom 2.5265243440238403 2.4976510192694619 67.3387305642839777 Ba
atom 7.5413826322920992 2.5439106504921822 67.3409179704261192 Ba
atom 2.5265242971108339 7.5854721574542019 67.3387305549416766 Ba
atom 7.5413826980583325 7.5392125451630712 67.3409179906210085 Ba
atom 2.5248246545773361 2.6842967870410135 72.0173651833021466 Ba
atom 7.5396831856665329 2.3572648411952768 72.0195525346584446 Ba
atom 2.5248248504835855 7.3988263481527161 72.0173651191758637 Ba
atom 7.5396830086134443 7.7258583129401428 72.0195526096407690 Ba
atom 5.0531828954217906 5.0415615429457068 69.9601496230152691 Zr
atom 10.0278339025164289 5.0415616348549728 69.9608273720236866 Zr
atom 5.0129755673339105 10.0831231418087732 69.9586399565396704 Zr
atom 10.0680412494570355 10.0831230688480940 69.9623370493567762 Zr
atom 5.5006382542339036 5.0415616815801023 67.4148638342598048 S
atom 9.5821310369995185 5.0415615079778338 67.4163296205748708 S
atom 4.5672727018170907 10.0831230149478301 67.4141422050920625 S
atom 10.5154966082692578 10.0831232074986854 67.4170512605981571 S
atom 4.7449699795400573 5.0415612198238007 72.4431455784432217 S
atom 10.3338415253756573 5.0415619334596267 72.4441189409158426 S
atom 5.3189831901930287 10.0831234404049876 72.4419315254311869 S
atom 9.7598283335750082 10.0831227457177945 72.4453330047859652 S
atom 5.0330697825446169 2.5208446062404746 69.8242828465988623 S
atom 10.0479281422914219 2.5207170594152490 69.8264706206548738 S
atom 5.0330698071090767 7.5622785663695895 69.8242832051610094 S
atom 10.0479281365801398 7.5624061321434208 69.8264702729243965 S
atom 2.5258647011936608 5.0415615936262288 69.5099527801140198 S
atom 7.5403311425754707 5.0415615951918280 70.2707976360908617 S
atom 2.5254728073922097 10.0831231021464109 70.2686102206077976 S
atom 7.5407230552297264 10.0831231195278299 69.5121402064524290 S
