#=======================================================
# FHI-aims file: full_relax/full_relax_RP_1_00Rz1_00Rz2.in
# Created using the Atomic Simulation Environment (ASE)
# Fri Mar 14 11:16:59 2025
#=======================================================
lattice_vector 10.0137840008611061 -0.0000005818919101 0.0000000000000004 
lattice_vector -0.0000005818919101 10.0137840008611061 0.0000000000000034 
lattice_vector 0.0000000000000007 0.0000000000000056 15.6661260673145097 
atom -0.0000000000001605 -0.0000000000001133 0.2276078784233288 Ba
atom 5.0068920004301924 -0.0000002909460839 0.2276078784230740 Ba
atom -0.0000002909459998 5.0068920004302173 0.2276078784232173 Ba
atom 5.0068917094842158 5.0068917094840648 0.2276078784230811 Ba
atom -0.0000000000002031 -0.0000000000001143 4.6680565176128850 Ba
atom 5.0068920004302004 -0.0000002909460990 4.6680565176128432 Ba
atom -0.0000002909460776 5.0068920004301942 4.6680565176128015 Ba
atom 5.0068917094842682 5.0068917094843499 4.6680565176127686 Ba
atom 2.5034458547422216 2.5034458547420169 2.4478321980177453 Zr
atom 7.5103378551727094 2.5034455637960642 2.4478321980178723 Zr
atom 2.5034455637961850 7.5103378551725939 2.4478321980178070 Zr
atom 7.5103375642266847 7.5103375642265870 2.4478321980178031 Zr
atom 2.5034458547421430 2.5034458547420986 -0.1067255992369097 S
atom 7.5103378551724616 2.5034455637962436 -0.1067255992366886 S
atom 2.5034455637962747 7.5103378551725548 -0.1067255992367662 S
atom 7.5103375642265586 7.5103375642265817 -0.1067255992366512 S
atom 2.5034458547421852 2.5034458547421652 5.0023899952723978 S
atom 7.5103378551724429 2.5034455637962223 5.0023899952724111 S
atom 2.5034455637961752 7.5103378551726534 5.0023899952724271 S
atom 7.5103375642266323 7.5103375642266048 5.0023899952724058 S
atom 2.5034589425881415 -0.0000029661001143 2.4478321980178430 S
atom 7.5103250582727874 0.0000023842078353 2.4478321980178794 S
atom 2.5034327668960388 5.0068946755842907 2.4478321980178039 S
atom 7.5103506520725958 5.0068887433844056 2.4478321980178159 S
atom 0.0000026751538666 2.5034330578420216 2.4478321980179061 S
atom 5.0068890343304107 2.5034586516422515 2.4478321980178110 S
atom -0.0000032570460456 7.5103509430186790 2.4478321980179278 S
atom 5.0068943846383540 7.5103247673270062 2.4478321980179030 S
atom 2.5034458547420373 2.5034458547421963 8.0606741205872794 Ba
atom 7.5103378551724616 2.5034455637961464 8.0606741205872190 Ba
atom 2.5034455637962378 7.5103378551726134 8.0606741205872137 Ba
atom 7.5103375642264325 7.5103375642265133 8.0606741205871337 Ba
atom 2.5034458547421767 2.5034458547421696 12.5011163427628009 Ba
atom 7.5103378551723585 2.5034455637961939 12.5011163427628453 Ba
atom 2.5034455637962258 7.5103378551726792 12.5011163427628027 Ba
atom 7.5103375642264183 7.5103375642265799 12.5011163427628524 Ba
atom 5.0068917094844414 5.0068917094843268 10.2808952316751068 Zr
atom 10.0137837099148861 5.0068914185385180 10.2808952316750890 Zr
atom 5.0068914185385873 10.0137837099148737 10.2808952316750837 Zr
atom 10.0137834189690089 10.0137834189690214 10.2808952316750926 Zr
atom 5.0068917094844894 5.0068917094843881 7.7263348123605109 S
atom 10.0137837099148381 5.0068914185384497 7.7263348123605162 S
atom 5.0068914185384576 10.0137837099148950 7.7263348123605153 S
atom 10.0137834189688100 10.0137834189689308 7.7263348123605704 S
atom 5.0068917094845382 5.0068917094845213 12.8354556509895765 S
atom 10.0137837099147440 5.0068914185385207 12.8354556509894788 S
atom 5.0068914185384790 10.0137837099148737 12.8354556509895694 S
atom 10.0137834189687300 10.0137834189687656 12.8354556509894948 S
atom 5.0068874797807670 2.5034442905808647 10.2808952316750339 S
atom 10.0137882305649608 2.5034468370114098 10.2808952316749860 S
atom 5.0068959391884302 7.5103391283878285 10.2808952316750748 S
atom 10.0137791892645964 7.5103360000654931 10.2808952316751245 S
atom 2.5034471279573736 5.0068962301341591 10.2808952316751103 S
atom 7.5103362910114093 5.0068871888344377 10.2808952316751157 S
atom 2.5034439996350226 10.0137794802106885 10.2808952316751849 S
atom 7.5103388374419202 10.0137879396192702 10.2808952316751725 S
