#=======================================================
# FHI-aims file: full_relax/full_relax_RP_6_Rx1Ry20_-Rx2-Ry10.in
# Created using the Atomic Simulation Environment (ASE)
# Fri Mar 14 11:40:51 2025
#=======================================================
lattice_vector 10.0802485882645740 0.0298465591629187 0.0000000000000308 
lattice_vector 0.0298465591629190 10.0802485882645740 0.0000000000000133 
lattice_vector 0.0000000000002080 0.0000000000000906 65.1153880770011142 
atom -0.1653961620621068 -0.0160014538595063 0.2883335107793197 Ba
atom 5.2055204561935051 0.0309247334422973 0.2883335107710622 Ba
atom 0.1803194416356027 5.0561257479890003 0.2883335107879124 Ba
atom 4.8896514116531762 5.0390461198501297 0.2883335107598215 Ba
atom 0.0250355605860612 -0.0296012518915548 4.9569469061351201 Ba
atom 5.0150887335432781 0.0445245314748134 4.9569469061345606 Ba
atom -0.0101122810097407 5.0697255460226307 4.9569469061348714 Ba
atom 5.0800831343017352 5.0254463218192074 4.9569469061350544 Ba
atom 2.5223797159383556 2.5062200586756131 2.3418436706093848 Zr
atom 7.5727921519036299 2.5637507946134654 2.3418436705937817 Zr
atom 2.5475911373627778 7.5889518091641230 2.3418436705995642 Zr
atom 7.5774272896430412 7.5612676323993471 2.3418436705981138 Zr
atom 2.5318843625839662 2.5270368593240971 7.3582411184324501 Zr
atom 7.5632875052614645 2.5429339939555540 7.3582411184276850 Zr
atom 2.5380864907115943 7.5681350085236669 7.3582411184546537 Zr
atom 7.5869319362978294 7.5820844330190429 7.3582411184428498 Zr
atom 2.5698448337245257 2.8096267118422622 -0.1378443215073961 S
atom 7.5253270341208820 2.2603441414521543 -0.1378443215016985 S
atom 2.5001260195781727 7.2855451560015423 -0.1378443215246535 S
atom 7.6248924074298525 7.8646742855562426 -0.1378443215049046 S
atom 2.4354059382207094 2.0721664127907671 4.8863515284701071 S
atom 7.6597659296222371 2.9978044404990039 4.8863515284790093 S
atom 2.6345649150696033 8.0230054550570795 4.8863515285092811 S
atom 7.4904535119369084 7.1272139864961295 4.8863515285128578 S
atom 2.5200621470643956 0.0074616397829217 2.0506187453160050 S
atom 7.5601864411976418 0.0223849193512595 2.7777849645305013 S
atom 2.5349854266475109 5.0475859339321651 2.7777849645331214 S
atom 7.5751097207784079 5.0625092135040175 2.0506187453131486 S
atom 2.5200621470669193 0.0074616398008404 7.8230697529520317 S
atom 7.5601864411975930 0.0223849194046344 6.9075043604913660 S
atom 2.5349854266487521 5.0475859338913862 6.9075043604900088 S
atom 7.5751097207792908 5.0625092135636294 7.8230697529530131 S
atom 0.0074616397861355 2.5200621470657754 2.4036141689232173 S
atom 5.0475859339267686 2.5349854266485519 2.5480744369545163 S
atom 0.0223849193697905 7.5601864411992379 2.5480744369541126 S
atom 5.0625092135049359 7.5751097207794977 2.4036141689164339 S
atom 0.0074616397774620 2.5200621470598144 7.5066012577145784 S
atom 5.0475859339320648 2.5349854266420375 7.2385525495396124 S
atom 0.0223849194034716 7.5601864411929256 7.2385525495324803 S
atom 5.0625092134649616 7.5751097207739360 7.5066012577081640 S
atom -0.0056081766435499 0.0608349800430658 9.8553039648325438 Ba
atom 5.0457324707740048 -0.0459117004727315 9.8553039648325527 Ba
atom 0.0205314562248677 4.9792893140866337 9.8553039648324070 Ba
atom 5.0494393970678448 5.1158825537657115 9.8553039648324035 Ba
atom 0.0059107277379113 -0.0672483380439366 14.7989518356771868 Ba
atom 5.0342135663931540 0.0821716176229172 14.7989518356774941 Ba
atom 0.0090125518401295 5.1073726321740995 14.7989518356769878 Ba
atom 5.0609583014542796 4.9877992356703258 14.7989518356776149 Ba
atom 2.5262954176716219 2.5286754288990783 12.3191865761947064 Zr
atom 7.5688764501748667 2.5412954243762709 12.3191865762025561 Zr
atom 2.5436754356237619 7.5664964389199607 12.3191865761752215 Zr
atom 7.5813429913838730 7.5837230026104088 12.3191865761967758 Zr
atom 2.5262954176745867 2.5286754289011681 17.2787170952152849 Zr
atom 7.5688764501721302 2.5412954243756154 17.2787170951865257 Zr
atom 2.5436754356235114 7.5664964389426457 17.2787170951664599 Zr
atom 7.5813429913871975 7.5837230026069289 17.2787170952084601 Zr
atom 2.6622712356113256 3.0187732614039890 9.8442040186382549 S
atom 7.4329006322331725 2.0511975918721710 9.8442040186904105 S
atom 2.4076996176863275 7.0763986064361477 9.8442040187092843 S
atom 7.7173188093242135 8.0738208351112846 9.8442040186322028 S
atom 2.3779212294407031 2.0388580379431893 14.7989518357649956 S
atom 7.7172506384028905 3.0311128153314346 14.7989518357207022 S
atom 2.6920496238523790 8.0563138298865766 14.7989518356962755 S
atom 7.4329688031540027 7.0939056116529544 14.7989518357277525 S
atom 2.5200621470654636 0.0074616398281714 11.8569519948864350 S
atom 7.5601864411974118 0.0223849194099820 12.7912447806846910 S
atom 2.5349854266473164 5.0475859339430595 12.7912447806819660 S
atom 7.5751097207793014 5.0625092135180800 11.8569519948879023 S
atom 2.5200621470648916 0.0074616398053809 17.7409516764429576 S
atom 7.5601864411978648 0.0223849193924085 16.8066588906623231 S
atom 2.5349854266463865 5.0475859339262312 16.8066588906583156 S
atom 7.5751097207792188 5.0625092135605643 17.7409516764463717 S
atom 0.0074616398117911 2.5200621470551452 12.1529601006295831 S
atom 5.0475859338942177 2.5349854266368710 12.4936761013220341 S
atom 0.0223849193576697 7.5601864411873034 12.4936761013290258 S
atom 5.0625092135112757 7.5751097207685820 12.1529601006363546 S
atom 0.0074616397575082 2.5200621470555977 17.4449435706996070 S
atom 5.0475859339483682 2.5349854266371321 17.1042275700099928 S
atom 0.0223849193872689 7.5601864411887343 17.1042275700225055 S
atom 5.0625092134818219 7.5751097207699285 17.4449435707122298 S
atom -0.0056081766513559 0.0608349800523274 19.7425997065280967 Ba
atom 5.0457324707860556 -0.0459117004595943 19.7425997065290630 Ba
atom 0.0205314562314321 4.9792893140744079 19.7425997065284591 Ba
atom 5.0494393970626206 5.1158825537492314 19.7425997065280505 Ba
atom 0.0250355605824619 -0.0296012518975821 24.6409567652343000 Ba
atom 5.0150887335467651 0.0445245314710928 24.6409567652333905 Ba
atom -0.0101122810011813 5.0697255460274571 24.6409567652331987 Ba
atom 5.0800831342957320 5.0254463218216374 24.6409567652336357 Ba
atom 2.5318843625885230 2.5270368593276262 22.2396625528312164 Zr
atom 7.5632875052577493 2.5429339939573006 22.2396625528609704 Zr
atom 2.5380864907084324 7.5681350085231758 22.2396625528765739 Zr
atom 7.5869319363011130 7.5820844330295776 22.2396625528288823 Zr
atom 2.5223797159335621 2.5062200586818255 27.2560600007748342 Zr
atom 7.5727921519107433 2.5637507946134588 27.2560600007737435 Zr
atom 2.5475911373579301 7.5889518091689876 27.2560600007634477 Zr
atom 7.5774272896492247 7.5612676323891099 27.2560600007551592 Zr
atom 2.6622712356036526 3.0187732613897991 19.7536996526842117 S
atom 7.4329006322401048 2.0511975918858636 19.7536996526917612 S
atom 2.4076996176879684 7.0763986064467046 19.7536996527017301 S
atom 7.7173188093167537 8.0738208350887142 19.7536996526642525 S
atom 2.4354059382209461 2.0721664127814834 24.7115521427828604 S
atom 7.6597659296233118 2.9978044405091051 24.7115521427976290 S
atom 2.6345649150753676 8.0230054550661922 24.7115521428855942 S
atom 7.4904535119308688 7.1272139864863151 24.7115521428877187 S
atom 2.5200621470646674 0.0074616397845217 21.7748339184265340 S
atom 7.5601864411989474 0.0223849193461501 22.6903993108840965 S
atom 2.5349854266458336 5.0475859339247133 22.6903993108830342 S
atom 7.5751097207788343 5.0625092135940708 21.7748339184270705 S
atom 2.5200621470648334 0.0074616398210940 27.5472849260381381 S
atom 7.5601864411957607 0.0223849193886091 26.8201187068041378 S
atom 2.5349854266447527 5.0475859338765678 26.8201187068066318 S
atom 7.5751097207800395 5.0625092134865151 27.5472849260336723 S
atom 0.0074616397652893 2.5200621470584665 22.0913024136718654 S
atom 5.0475859339413205 2.5349854266397420 22.3593511218474532 S
atom 0.0223849193711136 7.5601864411903632 22.3593511218236358 S
atom 5.0625092134989655 7.5751097207717271 22.0913024136488794 S
atom 0.0074616398036164 2.5200621470669877 27.1942895024338682 S
atom 5.0475859339084277 2.5349854266459411 27.0498292343936946 S
atom 0.0223849193794330 7.5601864411967608 27.0498292343836795 S
atom 5.0625092134960479 7.5751097207805618 27.1942895024170674 S
atom -0.1653961620559463 -0.0160014538614565 29.3095701605595735 Ba
atom 5.2055204561859041 0.0309247334388816 29.3095701605670342 Ba
atom 0.1803194416370771 5.0561257479930610 29.3095701605690202 Ba
atom 4.8896514116586935 5.0390461198558896 29.3095701605507664 Ba
atom 2.5698448337156354 2.8096267118429776 29.7357479929639474 S
atom 7.5253270341247296 2.2603441414473626 29.7357479929503619 S
atom 2.5001260195679529 7.2855451560003424 29.7357479929249031 S
atom 7.6248924074362039 7.8646742855625540 29.7357479929700617 S
atom 2.5435252407260536 2.6929199489196103 32.8460275492644982 Ba
atom 7.5516466271205971 2.3770509043761829 32.8460275492689959 Ba
atom 2.5264456125863730 7.4022519189257867 32.8460275492726410 Ba
atom 7.5985728144229130 7.7479675226283513 32.8460275492674612 Ba
atom 2.5571250387491782 2.5024882262732726 37.5146409446334701 Ba
atom 7.5380468290895886 2.5674826270286228 37.5146409446348343 Ba
atom 2.5128458145453454 7.5926836415730037 37.5146409446338538 Ba
atom 7.6121726124563986 7.5575357999761126 37.5146409446360707 Ba
atom 5.0763513018834026 5.0601916446338882 34.8995377091029511 Zr
atom 10.0738681396695071 5.0648267823738520 34.8995377090739112 Zr
atom 5.0486671251188433 10.0900277969236605 34.8995377090810237 Zr
atom 10.1313988755963393 10.1152392183494904 34.8995377090852728 Zr
atom 5.0555345012571014 5.0506869979887581 39.9159351568689758 Zr
atom 10.0946849402917422 5.0743314290184571 39.9159351570003622 Zr
atom 5.0694839257649411 10.0995324435777860 39.9159351569986853 Zr
atom 10.1105820749620694 10.1057345717005909 39.9159351569476826 Zr
atom 4.7729446487225191 5.0127265268461851 32.4198497170571756 S
atom 10.3772747928254674 5.1122919001565830 32.4198497169377760 S
atom 5.3520737782840682 10.1374929147084032 32.4198497169739071 S
atom 9.8279922224398284 10.0677741005615236 32.4198497169796553 S
atom 5.5104049477694144 5.1471654223501693 37.4440455668013712 S
atom 9.6398144937683181 4.9778530046638334 37.4440455672170316 S
atom 4.6146134792188462 10.0030540192071573 37.4440455669430392 S
atom 10.5654525214940875 10.2022129960582770 37.4440455670709511 S
atom 5.0475859339158129 2.5349854265999334 35.1057684754751094 S
atom 10.0877102280495894 2.5499087062641230 34.9613082073999948 S
atom 5.0625092134987346 7.5751097208260267 34.9613082074454056 S
atom 10.1026335076297489 7.5900330003175780 35.1057684754408825 S
atom 5.0475859339108125 2.5349854266854424 39.7962465880598941 S
atom 10.0877102280426794 2.5499087062542634 40.0642952961764962 S
atom 5.0625092134933514 7.5751097207275482 40.0642952962336096 S
atom 10.1026335076238034 7.5900330003363372 39.7962465879981622 S
atom 2.5349854266150063 5.0475859339229787 35.3354790030349264 S
atom 7.5751097208509197 5.0625092135046215 34.6083127838157836 S
atom 2.5499087061776695 10.0877102280540427 34.6083127838192013 S
atom 7.5900330004321752 10.1026335076339002 35.3354790030384507 S
atom 2.5349854267753877 5.0475859339164719 39.4651983989783943 S
atom 7.5751097207296274 5.0625092135011416 40.3807637914415025 S
atom 2.5499087062559580 10.0877102280538882 40.3807637914473077 S
atom 7.5900330003389520 10.1026335076373179 39.4651983989885053 S
atom 2.4666888067790782 2.5331319635008041 42.4129980033322553 Ba
atom 7.6284830610603782 2.5368388897935001 42.4129980033329588 Ba
atom 2.6032820464582871 7.5620399043470137 42.4129980033322340 Ba
atom 7.5217363805449287 7.5881795372198768 42.4129980033329801 Ba
atom 2.5947721249068323 2.5216130591109773 47.3566458741760172 Ba
atom 7.5003997429369855 2.5483577941715896 47.3566458741774028 Ba
atom 2.4751987284034649 7.5735588087339218 47.3566458741756549 Ba
atom 7.6498196986039746 7.5766606328388608 47.3566458741777438 Ba
atom 5.0538959316513310 5.0562759428996467 44.8768806147580648 Zr
atom 10.0963235099173527 5.0687424841128257 44.8768806145579120 Zr
atom 5.0711224953382894 10.0939434986592396 44.8768806147003758 Zr
atom 10.1089435053661312 10.1113235166150410 44.8768806146872450 Zr
atom 5.0538959316776371 5.0562759428971349 49.8364111337065125 Zr
atom 10.0963235098884674 5.0687424841070401 49.8364111336913211 Zr
atom 5.0711224953416982 10.0939434986580316 49.8364111336411426 Zr
atom 10.1089435053800578 10.1113235166055855 49.8364111337219029 Zr
atom 4.5637980991444804 4.9203001249533962 42.4018980572208832 S
atom 10.5864213423739173 5.2047183020395087 42.4018980572147157 S
atom 5.5612203278325314 10.2299193165983784 42.4018980571202277 S
atom 9.6188456728679483 9.9753476986726426 42.4018980571636703 S
atom 5.5437133226134954 5.2046501311250362 47.3566458743762837 S
atom 9.6065061189264558 4.9203682958729242 47.3566458740669702 S
atom 4.5813051043971287 9.9455693104327008 47.3566458742693897 S
atom 10.5987608963354152 10.2596977048422975 47.3566458741978877 S
atom 5.0475859339092155 2.5349854266217910 45.0513701398046393 S
atom 10.0877102280418534 2.5499087061721859 44.7106541391569152 S
atom 5.0625092134892462 7.5751097207961351 44.7106541391112273 S
atom 10.1026335076230680 7.5900330004067280 45.0513701398487143 S
atom 5.0475859339286080 2.5349854266156773 49.6619216085008333 S
atom 10.0877102280544353 2.5499087063079080 50.0026376092222122 S
atom 5.0625092135100331 7.5751097208051634 50.0026376091888594 S
atom 10.1026335076369875 7.5900330002836247 49.6619216085313795 S
atom 2.5349854266993206 5.0475859339172970 45.3489388191793381 S
atom 7.5751097207814597 5.0625092135002214 44.4146460333870863 S
atom 2.5499087063027868 10.0877102280536963 44.4146460333921311 S
atom 7.5900330003243202 10.1026335076371971 45.3489388191894420 S
atom 2.5349854266000049 5.0475859339225586 49.3643529291438128 S
atom 7.5751097207924900 5.0625092135015066 50.2986457149329738 S
atom 2.5499087062346173 10.0877102280502715 50.2986457149561801 S
atom 7.5900330002941452 10.1026335076335130 49.3643529291766185 S
atom 2.4666888068234925 2.5331319635122820 52.3002937450269059 Ba
atom 7.6284830610238581 2.5368388897936804 52.3002937450337200 Ba
atom 2.6032820464975521 7.5620399043292812 52.3002937450293359 Ba
atom 7.5217363805099824 7.5881795372091077 52.3002937450328176 Ba
atom 2.5571250387334978 2.5024882262722130 57.1986508037286754 Ba
atom 7.5380468291097245 2.5674826270226196 57.1986508037357950 Ba
atom 2.5128458145287160 7.5926836415704759 57.1986508037275669 Ba
atom 7.6121726124779681 7.5575357999818120 57.1986508037355179 Ba
atom 5.0555345012221951 5.0506869979812565 54.7973565912968539 Zr
atom 10.0946849402832655 5.0743314290243076 54.7973565914517380 Zr
atom 5.0694839257716975 10.0995324435811131 54.7973565912984881 Zr
atom 10.1105820749554827 10.1057345717025431 54.7973565914224707 Zr
atom 5.0763513018977005 5.0601916446321509 59.8137540392751816 Zr
atom 10.0738681396892336 5.0648267823761923 59.8137540392641895 Zr
atom 5.0486671250971407 10.0900277969200172 59.8137540392429088 Zr
atom 10.1313988756002509 10.1152392183493181 59.8137540392403011 Zr
atom 4.5637980991762150 4.9203001249684810 52.3113936910844401 S
atom 10.5864213423881601 5.2047183020488417 52.3113936914374591 S
atom 5.5612203278332695 10.2299193165932536 52.3113936912839961 S
atom 9.6188456728873906 9.9753476986772789 52.3113936909388642 S
atom 5.5104049477853483 5.1471654223493797 57.2692461813241849 S
atom 9.6398144937785304 4.9778530046633156 57.2692461811350384 S
atom 4.6146134792036184 10.0030540192056989 57.2692461814303755 S
atom 10.5654525214934019 10.2022129960619878 57.2692461815084286 S
atom 5.0475859339163396 2.5349854266225997 54.9170451603337924 S
atom 10.0877102280476088 2.5499087060888397 54.6489964521508753 S
atom 5.0625092134983030 7.5751097207992197 54.6489964521594089 S
atom 10.1026335076257965 7.5900330004893251 54.9170451603270848 S
atom 5.0475859339223632 2.5349854266905822 59.6075232728806341 S
atom 10.0877102280642248 2.5499087062777974 59.7519835409453819 S
atom 5.0625092135035965 7.5751097207423292 59.7519835409159725 S
atom 10.1026335076453790 7.5900330003044614 59.6075232729083879 S
atom 2.5349854267494982 5.0475859339236733 55.2480933493819819 S
atom 7.5751097207560214 5.0625092135064707 54.3325279569354720 S
atom 2.5499087062197128 10.0877102280555402 54.3325279569035970 S
atom 7.5900330004231602 10.1026335076366767 55.2480933493745709 S
atom 2.5349854265538312 5.0475859339232763 59.3778127453266222 S
atom 7.5751097207874851 5.0625092135045788 60.1049789645669250 S
atom 2.5499087062470793 10.0877102280533197 60.1049789645147925 S
atom 7.5900330004045680 10.1026335076355736 59.3778127452988969 S
atom 2.5435252407088007 2.6929199489108542 61.8672641990563932 Ba
atom 7.5516466271332128 2.3770509043839643 61.8672641990587735 Ba
atom 2.5264456125724943 7.4022519189316540 61.8672641990606564 Ba
atom 7.5985728144334859 7.7479675226223010 61.8672641990570042 Ba
atom 4.7729446487265346 5.0127265268477972 62.2934420315062312 S
atom 10.3772747928322495 5.1122919001570013 62.2934420313637816 S
atom 5.3520737782804817 10.1374929147095170 62.2934420314802821 S
atom 9.8279922224333216 10.0677741005616888 62.2934420314021651 S
