#=======================================================
# FHI-aims file: full_relax/full_relax_RP_3_RxRyMz_-Rx-Ry0.in
# Created using the Atomic Simulation Environment (ASE)
# Fri Mar 14 11:21:57 2025
#=======================================================
lattice_vector 10.0405349339052385 -0.0038105037192140 -0.0000416817264145 
lattice_vector -0.0038105037192174 10.0405349339083614 0.0000416817519568 
lattice_vector 0.0001444600960923 -0.0001444600029866 35.6783788213966133 
atom 0.0652298551999860 -0.1514148568564366 0.2341059722339023 Ba
atom 5.1716823632721720 -0.0671351081403640 0.2340851473166288 Ba
atom 0.1495096504227346 4.9550375745494382 0.2341268486228801 Ba
atom 5.0835920610800143 4.8669473263321281 0.2341059717652625 Ba
atom -0.2329257879868118 0.1820796136942994 4.9712624151536042 Ba
atom 4.8381878262196594 0.2310205010194080 4.9712416155563934 Ba
atom -0.1839848815655249 5.2531932849167022 4.9712832753606655 Ba
atom 4.7854364132270018 5.2004418993730273 4.9712624597099087 Ba
atom 2.5074123846563001 2.5103938358771209 2.3841617782789069 Zr
atom 7.5282360637456787 2.5090443735593939 2.3841409592898954 Zr
atom 2.5060631831210123 7.5312170885125695 2.3841828258761462 Zr
atom 7.5257747615381012 7.5287560024962632 2.3841619279382225 Zr
atom 2.5092113170339543 2.5091510562599533 7.4329952024746531 Zr
atom 7.5294785553589305 2.5072457483734043 7.4329744411207050 Zr
atom 2.5073059683818748 7.5294184010621192 7.4330160486057268 Zr
atom 7.5275734080560941 7.5275131898892234 7.4329951800506207 Zr
atom 2.6838181452763901 2.7756595404497264 -0.1180706256262981 S
atom 7.2629701309614969 2.3326388402004259 -0.1180913908820305 S
atom 2.2407974166471445 7.3548115630517055 -0.1180498546371644 S
atom 7.7021803464836696 7.7940217538464038 -0.1180706728660074 S
atom 2.2469376736284752 2.1995345725266846 4.9340109191484016 S
atom 7.8390951003166718 2.7695192819833885 4.9339898538851985 S
atom 2.8169223908499905 7.7916920217156314 4.9340315600279308 S
atom 7.2652998832084386 7.2178967708903992 4.9340107459988527 S
atom 2.7322106449974641 0.0078734907599415 2.2059764930452403 S
atom 7.2626319873361886 0.0097368518773096 2.7516533888947943 S
atom 2.2404592883189083 5.0319094956688017 2.7516950668207896 S
atom 7.7505728274497034 5.0262356850563261 2.2059765055683722 S
atom 2.8808918440073183 -0.0038607880207007 7.7379616277038874 S
atom 7.1597032833831920 -0.0000095563521998 7.1279880020540975 S
atom 2.1375305590509872 5.0221628963793501 7.1280296996561843 S
atom 7.8992540842260359 5.0145011826286048 7.7379616285869162 S
atom -0.0097789106778492 2.2880568424635137 2.2059973516861455 S
atom 5.0067203224777845 2.7759976873988537 2.7516742447409173 S
atom -0.0154524881627470 7.7981704108195569 2.7517159030221889 S
atom 5.0085834272600431 7.3064190509524449 2.2059973354068139 S
atom 0.0019558564509549 2.1393755916594528 7.7379824626675164 S
atom 5.0164665385082499 2.8789263612773128 7.1280088573276039 S
atom -0.0057060992153844 7.9010991267528032 7.1280505299658250 S
atom 5.0203180014891311 7.1577378031899244 7.7379824758752420 S
atom 0.2329859773769639 -0.1821398168237785 9.8947286695310481 Ba
atom 5.2024072727520618 -0.2348912556054374 9.8947078207776666 Ba
atom 0.1802345654800425 4.7872815076414224 9.8947495070567903 Ba
atom 5.2513481817459091 4.8362224429726002 9.8947286318765268 Ba
atom -0.0651696370973190 0.1513547399985027 14.6318853236188087 Ba
atom 4.8689127123876510 0.0632643722727012 14.6318644623461314 Ba
atom -0.1532599219740973 5.0854371176621198 14.6319061848621725 Ba
atom 4.9531925109132304 5.1697169774833318 14.6318852845854526 Ba
atom 2.5110097261049455 2.5079083022234476 12.4818297767974098 Zr
atom 7.5307215292571348 2.5054469985559624 12.4818088420000990 Zr
atom 2.5085488332632488 7.5276197432067899 12.4818505954839178 Zr
atom 7.5293719899064326 7.5262705318712699 12.4818296686339814 Zr
atom 2.7714847658120378 2.8187674458654608 9.9319805496666849 S
atom 7.2198622095418425 2.2449721961063647 9.9319598418203281 S
atom 2.1976894657508779 7.2671448989789571 9.9320014250552831 S
atom 7.7898469947735665 7.8371296782430191 9.9319807817756018 S
atom 2.3346043095698175 2.2426424909804950 14.9840614292035585 S
atom 7.7959871515382941 2.6818526705589667 14.9840405892889841 S
atom 2.7738144814181980 7.7040254075645178 14.9840823718831988 S
atom 7.3529665248256455 7.2610047116534817 14.9840614193790724 S
atom 2.7779631356262593 -0.0136072700612186 12.1142960446875492 S
atom 7.3083845141627561 -0.0117442489567752 12.6599729101211160 S
atom 2.2862117784231049 5.0104282795871127 12.6600145994027002 S
atom 7.7963253279400941 5.0047547798818002 12.1142960616077158 S
atom 0.0117021260623623 2.2423043504507207 12.1143169077357111 S
atom 5.0282013497860456 2.7302451735465096 12.6599937606250741 S
atom 0.0060281875725207 7.7524179073742854 12.6600354371483927 S
atom 5.0300646815475867 7.2606665534428876 12.1143169021712023 S
atom 2.4440114236424737 2.6605199334552774 18.0732954020555958 Ba
atom 7.3781098358147288 2.5724454862455133 18.0732745751659039 Ba
atom 2.3559370165463722 7.5946181726768458 18.0733162121066648 Ba
atom 7.4623737346320764 7.6788821277381079 18.0732954135011603 Ba
atom 2.7422095368717940 2.3269858707903235 22.8104443215865835 Ba
atom 7.7116437238032880 2.2742473633854465 22.8104234877647052 Ba
atom 2.6894710386539726 7.2964202255380961 22.8104651339705065 Ba
atom 7.7605717173178359 7.3453482463280357 22.8104443097480960 Ba
atom 5.0202182507067468 5.0170545079807294 20.2233503200900770 Zr
atom 10.0399375124772572 5.0146008197094245 20.2233292706796206 Zr
atom 5.0177646873829129 10.0367735227513819 20.2233713915752347 Zr
atom 10.0385804449266463 10.0354167763127951 20.2233503825707643 Zr
atom 5.0184645562176549 5.0182598086576160 25.2721845177220317 Zr
atom 10.0387319904209615 5.0163546158858283 25.2721637679065623 Zr
atom 5.0165593269028372 10.0385274897644106 25.2722052940087210 Zr
atom 10.0368266831438007 10.0366221623023097 25.2721846816685201 Zr
atom 4.8437819692622446 4.7518057940770593 17.7211189884493798 S
atom 10.3051861035152346 5.1910372468787509 17.7210980489474181 S
atom 5.2830133733905367 10.2132099655445714 17.7211396593045833 S
atom 9.8621441358755551 9.7701679969140045 17.7211187846214564 S
atom 5.2807137973439007 5.3278978737952336 22.7731997616126236 S
atom 9.7290940168530717 4.7541054080952172 22.7731792497742376 S
atom 4.7069212571514170 9.7762780777249532 22.7732203467473973 S
atom 10.2990760230696683 10.3462601353029395 22.7731997611320729 S
atom 5.2871892726545546 2.4955391839857999 20.5908664279630855 S
atom 9.8175952549993202 2.4974062880483383 20.0451435664815207 S
atom 4.7954225715177241 7.5195788891178044 20.0451852590842599 S
atom 10.3055515222224532 7.5139011794427741 20.5908664751102926 S
atom 5.3901500620730660 2.5052507503919803 24.9671989319032797 S
atom 9.6689517317033751 2.5090970104612538 25.5771294840143852 S
atom 4.6467789757181510 7.5312689100627903 25.5771712061592567 S
atom 10.4085122829800731 7.5236121571711951 24.9671989441731093 S
atom 2.5209182515787729 4.7514403993651770 20.5908872902173101 S
atom 7.5374125575682260 5.2393966234647946 20.0451644122757102 S
atom 2.5152404365252310 10.2615693353775299 20.0452060923039497 S
atom 7.5392800054624134 9.7698025939559692 20.5908872820028748 S
atom 2.5112064022019802 4.6484796843783283 24.9672197977704116 S
atom 7.5257227055038109 5.3880401685784332 25.5771503290092319 S
atom 2.5035496598678697 10.4102129427587329 25.5771920469983165 S
atom 7.5295689521062945 9.6668417884747857 24.9672197601619814 S
atom 2.2763573011146683 2.6911714913288178 27.7339256161573431 Ba
atom 7.3474581457472725 2.7400995401665775 27.7339047307334639 Ba
atom 2.3252853834975462 7.7622724251592423 27.7339464439480494 Ba
atom 7.2947195653867736 7.7095338780150859 27.7339255775762368 Ba
atom 2.5745553253768469 2.3576376087059581 32.4710747240467299 Ba
atom 7.6809921264535967 2.4419015999595062 32.4710538746769259 Ba
atom 2.6588193920004186 7.4640743221636772 32.4710955726721480 Ba
atom 7.5929175481546274 7.3759998316077944 32.4710747612362098 Ba
atom 5.0167107282490813 5.0194654884097396 30.3210201876646259 Zr
atom 10.0375265890733836 5.0181080244135190 30.3209993210588706 Zr
atom 5.0153537486454063 10.0402809423711403 30.3210408617155274 Zr
atom 10.0350730923789850 10.0378278393972522 30.3210198886452638 Zr
atom 4.7562152457057003 4.7086218866107394 27.7711706245749852 S
atom 10.3483700190484953 5.2786039414914390 27.7711495035264129 S
atom 5.3261973400777434 10.3007766830683973 27.7711918093850656 S
atom 9.7745774487053492 9.7269840115756612 27.7711704870250387 S
atom 5.1931471290456441 5.2847139440012265 32.8232506466231726 S
atom 9.7722779309527770 4.8416720914854618 32.8232298282063013 S
atom 4.7501052279805380 9.8638447826974360 32.8232714669614936 S
atom 10.2115093490787245 10.3030761537898599 32.8232509786867297 S
atom 5.2415065202734086 2.5169408583859005 30.4991846234482509 S
atom 9.7719125083313685 2.5188084209009456 29.9534618377014823 S
atom 4.7497398283310339 7.5409807529112145 29.9535035017922908 S
atom 10.2598687392092351 7.5353027471290277 30.4991846721109816 S
atom 2.4995162155090798 4.7971231818090931 30.4992054768488678 S
atom 7.5160110678127845 5.2850793699321876 29.9534826504969054 S
atom 2.4938386824095948 10.3072520772257707 29.9535243435996072 S
atom 7.5178780826637359 9.8154853473529862 30.4992054935016448 S
