#=======================================================
# FHI-aims file: full_relax/full_relax_RP_1_RxRyRz_-Rx-RyRz.in
# Created using the Atomic Simulation Environment (ASE)
# Fri Mar 14 11:17:15 2025
#=======================================================
lattice_vector 10.0858332492610199 0.2044765239213471 0.0000000000002611 
lattice_vector 0.2044765239213325 10.0858332492611105 0.0000000000001881 
lattice_vector 0.0000000000004415 0.0000000000003221 15.5513240591988069 
atom -0.1072123770439187 -0.1072170444652172 0.2366426701679303 Ba
atom 5.1501336691258466 0.2094506390366799 0.2366426701596263 Ba
atom 0.2094553064646093 5.1501290016938812 0.2366426701622250 Ba
atom 5.0379425095202812 5.0379378420797760 0.2366426701777621 Ba
atom 0.1072123770713358 0.1072170445075521 4.6231460983393520 Ba
atom 4.9356995801559442 -0.0049741150809092 4.6231460983532644 Ba
atom -0.0049787825230841 4.9357042475669104 4.6231460983462682 Ba
atom 5.2523672636468515 5.2523719310670245 4.6231460983653294 Ba
atom 2.5725774432970963 2.5725774432969963 2.4298943842570151 Zr
atom 7.6154940679248408 2.6748157052602255 2.4298943842699106 Zr
atom 2.6748157052614250 7.6154940679289869 2.4298943842797769 Zr
atom 7.7177323298842984 7.7177323298861484 2.4298943842462255 Zr
atom 2.7865467344334705 2.7865494358943113 -0.1074772757626946 S
atom 7.4015220753330695 2.4608464141076123 -0.1074772757912666 S
atom 2.4608437126534235 7.4015247767745684 -0.1074772757753564 S
atom 7.9317016210115723 7.9317043224554995 -0.1074772757655804 S
atom 2.3586081521619264 2.3586054507059830 4.9672660442691967 S
atom 7.8294660605067019 2.8887849963955645 4.9672660443059664 S
atom 2.8887876978373006 7.8294633590485532 4.9672660442858012 S
atom 7.5037630387615062 7.5037603373068826 4.9672660442348793 S
atom 2.5214668447419557 0.0511185183985945 2.2209494738890099 S
atom 7.5643664045095882 0.1533580055402160 2.6388392946040016 S
atom 2.6236880418475717 5.0940363681891663 2.6388392945796815 S
atom 7.6666217313205909 5.1962734049747414 2.2209494739099429 S
atom 0.0511197435630924 2.5214497798914195 2.2209494738812894 S
atom 5.0940351430303581 2.6237051067107586 2.6388392945952157 S
atom 0.1533567803556940 7.5643834693390630 2.6388392945990571 S
atom 5.1962746301441882 7.6666046664790120 2.2209494739148661 S
atom 2.6797898203491992 2.6797944877828388 8.0123046997388965 Ba
atom 7.5082770234516829 2.5676033282324453 8.0123046997374363 Ba
atom 2.5675986608014028 7.5082816908818639 8.0123046997465455 Ba
atom 7.8249447069360949 7.8249493743757901 8.0123046997267569 Ba
atom 2.4653650662425384 2.4653603988201027 12.3988081279661930 Ba
atom 7.7227111124047134 2.7820280823173444 12.3988081279353839 Ba
atom 2.7820327497244155 7.7227064449563469 12.3988081279165208 Ba
atom 7.6105199528401668 7.6105152854122444 12.3988081279615194 Ba
atom 5.1451548865987462 5.1451548865738284 10.2055564138389254 Zr
atom 10.1880715112218159 5.2473931485453642 10.2055564138673116 Zr
atom 5.2473931485651155 10.1880715112116675 10.2055564138523724 Zr
atom 10.2903097731869266 10.2903097731736750 10.2055564138757813 Zr
atom 4.9311855954730195 4.9311828940198250 7.6681847538101469 S
atom 10.4020435037594741 5.4613624396716327 7.6681847538101735 S
atom 5.4613651411053086 10.4020408023249473 7.6681847537719063 S
atom 10.0763404820529523 10.0763377805932706 7.6681847538313495 S
atom 5.3591241777031193 5.3591268791685742 12.7429280738292992 S
atom 9.9740995186568071 5.0334238574303178 12.7429280738820250 S
atom 5.0334211560020412 9.9741022201235356 12.7429280738838191 S
atom 10.5042790643001283 10.5042817657614140 12.7429280738705355 S
atom 5.0940442880359669 2.6236959616885462 10.4145013242442346 S
atom 10.1369438478259859 2.7259354488172445 9.9966115034801728 S
atom 5.1962654851518497 7.6666138114950453 9.9966115034931988 S
atom 10.2391991745946349 7.7688508482761822 10.4145013241958893 S
atom 2.6236971868689811 5.0940272232038160 10.4145013242503914 S
atom 7.6666125863379797 5.1962825499976102 9.9966115034702288 S
atom 2.7259342236541220 10.1369609126877691 9.9966115034728684 S
atom 7.7688520734367659 10.2391821097451938 10.4145013242353972 S
