#=======================================================
# FHI-aims file: full_relax/full_relax_RP_3_RxRyMz_RxRy-Mz.in
# Created using the Atomic Simulation Environment (ASE)
# Fri Mar 14 11:21:08 2025
#=======================================================
lattice_vector 10.0277137817501760 -0.0250758442843725 0.0000000000006521 
lattice_vector -0.0250758442843702 10.0277137817493589 -0.0000000000013060 
lattice_vector 0.0000000000023792 -0.0000000000047487 35.7906184707979378 
atom 0.0572729802603624 -0.1698067398050754 0.2312133273780918 Ba
atom 5.1836636303437729 -0.0698109025969729 0.2312133275194233 Ba
atom 0.1572688178638033 4.9565839109063194 0.2312133271230004 Ba
atom 5.0585919484839703 4.8315122293363792 0.2312133272926840 Ba
atom -0.2433761832755449 0.1831630778298661 4.9862829809788503 Ba
atom 4.8306938135263833 0.2308382607040293 4.9862829811780429 Ba
atom -0.1957009999106716 5.2572330736454322 4.9862829806862328 Ba
atom 4.7579427858833965 5.1844820463803671 4.9862829810703762 Ba
atom 2.4915096151434151 2.4957554039354570 2.3997204076186058 Zr
atom 7.5194204568493186 2.4972714297307452 2.3997204109210863 Zr
atom 2.4930256398677666 7.5236662433355246 2.3997204084974366 Zr
atom 7.4928285853003702 7.4970743749629651 2.3997204081811674 Zr
atom 2.5006594847486729 2.5006594848342854 7.4563788485655280 Zr
atom 7.5145163750284256 2.4881215601366677 7.4563788473320498 Zr
atom 2.4881215617974219 7.5145163760009650 7.4563788481729301 Zr
atom 7.5019784539203780 7.5019784560095912 7.4563788475234736 Zr
atom 2.6265728675990538 2.7192673821620685 -0.1054280262879274 S
atom 7.2959084771318938 2.3622081799098718 -0.1054280283762837 S
atom 2.2695136646422966 7.3886029924191767 -0.1054280265978896 S
atom 7.6278918350151281 7.7205863507940204 -0.1054280257502119 S
atom 2.2487417892434736 2.2046682365508317 4.9536430453906686 S
atom 7.8105076233447512 2.7400392581036401 4.9536430450180422 S
atom 2.7841128101755581 7.7664340704960031 4.9536430467982591 S
atom 7.2500607575083320 7.2059872052305352 4.9536430463334895 S
atom 2.7660368002781008 0.0022096420925710 2.2394296337548449 S
atom 7.2338480246673873 -0.0070586414434577 2.7423013891410637 S
atom 2.2074532119771870 5.0193361732741897 2.7423013895921335 S
atom 7.7673557684787236 5.0035286081668406 2.2394296335360866 S
atom 2.8924202010535729 -0.0086842749406176 7.7534324504250520 S
atom 7.1352935812632108 -0.0163915735775384 7.1593252457777856 S
atom 2.1088987681693658 5.0100032410613009 7.1593252454503311 S
atom 7.8937391698726787 4.9926346962616597 7.7534324507895942 S
atom -0.0147475639210836 2.2478200908366972 2.2394296337615787 S
atom 4.9958396871817206 2.7813278349900794 2.7423013893001067 S
atom -0.0305551245403999 7.8077226474957149 2.7423013893994046 S
atom 4.9865714079159025 7.2491390589468327 2.2394296334813735 S
atom -0.0038536497742233 2.1214366905588480 7.7534324505734773 S
atom 5.0051726174755222 2.8798822793112557 7.1593252455172429 S
atom -0.0212221957267814 7.9062770916330463 7.1593252456253698 S
atom 4.9974653184349984 7.1227556589732233 7.7534324504667422 S
atom 0.2433761827841889 -0.1831630776245499 9.9264747150733292 Ba
atom 5.1970199687546907 -0.2559141049574378 9.9264747148154466 Ba
atom 0.1706251558931249 4.7704807077743538 9.9264747154710964 Ba
atom 5.2446951513246800 4.8181558908646611 9.9264747151715103 Ba
atom -0.0572729798534305 0.1698067398483131 14.6815443685137677 Ba
atom 4.8440501509300296 0.0447350575188199 14.6815443692910073 Ba
atom -0.1823446614839685 5.0711298709081207 14.6815443681919948 Ba
atom 4.9440459883687131 5.1711257088294440 14.6815443690057545 Ba
atom 2.5098093502766416 2.5055635639738982 12.5130372872147699 Zr
atom 7.5096122996233703 2.4789716940093416 12.5130372859157220 Zr
atom 2.4832174838460337 7.5053665064342479 12.5130372872000759 Zr
atom 7.5111283209590329 7.5068825321866646 12.5130372869198219 Zr
atom 2.7525771802706167 2.7966507324997854 9.9591146514761615 S
atom 7.2185251275773439 2.2362038672276707 9.9591146513789681 S
atom 2.1921303146643925 7.2625986800494209 9.9591146500791066 S
atom 7.7538961486085149 7.7979697008964619 9.9591146507001369 S
atom 2.3747461023212728 2.2820515866491538 15.0181857214034515 S
atom 7.7331242729762808 2.6140349447886009 15.0181857227827216 S
atom 2.7067294600275802 7.6404297577655109 15.0181857232323051 S
atom 7.3760650707984494 7.2833705552752672 15.0181857225289281 S
atom 2.7938657574835180 -0.0180172017529786 12.1704563069488909 S
atom 7.2616769818677396 -0.0272854843839890 12.6733280627049005 S
atom 2.2352821690299622 4.9991093271858675 12.6733280627784488 S
atom 7.7951847257019962 4.9833017648737901 12.1704563070905429 S
atom 0.0054792790897573 2.2199911340586160 12.1704563073811407 S
atom 5.0160665297967908 2.7534988781259098 12.6733280628907696 S
atom -0.0103282840986895 7.7798936912000425 12.6733280627499116 S
atom 5.0067982508372006 7.2213101025922324 12.1704563069261802 S
atom 2.3308527444525780 2.5579324638574437 18.1265225616767047 Ba
atom 7.4572433951742791 2.6579283024439904 18.1265225617687236 Ba
atom 2.4308485831543862 7.6843231159127754 18.1265225615450447 Ba
atom 7.3321717120691998 7.5592514330491616 18.1265225617350758 Ba
atom 2.6838225615865832 2.2572833013712921 22.8815922167829164 Ba
atom 7.7578925583943956 2.3049584846711015 22.8815922168745161 Ba
atom 2.7314977451415015 7.3313532977724938 22.8815922170115620 Ba
atom 7.6851415306387301 7.2586022701918846 22.8815922171443411 Ba
atom 4.9964148920156379 4.9921691029369271 20.2950296415056890 Zr
atom 10.0243257259325063 4.9936851237117326 20.2950296432741766 Zr
atom 4.9979309129344180 10.0200799344397176 20.2950296396012462 Zr
atom 9.9977338614111932 9.9934880704154896 20.2950296434799569 Zr
atom 5.0013189680384844 5.0013189703982572 25.3516880867922758 Zr
atom 10.0151758614045381 4.9887810491603952 25.3516880792823258 Zr
atom 4.9887810474042960 10.0151758587665398 25.3516880872824295 Zr
atom 10.0026379364198306 10.0026379353041506 25.3516880830958016 Zr
atom 5.2199268662857303 5.1272323505227568 17.7898812120135794 S
atom 9.8892624774462288 4.7701731491092625 17.7898812137854740 S
atom 4.8628676647701585 9.7965679621210082 17.7898812141655966 S
atom 10.2212458349185944 10.1285513197088157 17.7898812117742047 S
atom 4.7053277206880857 4.7494012727079609 22.8489522793952773 S
atom 10.2670935549056406 5.2847722940201338 22.8489522795224254 S
atom 5.2406987426983314 10.3111671081066323 22.8489522770319802 S
atom 9.7066466896328567 9.7507202418898586 22.8489522773571352 S
atom 4.7484795751484388 2.4859119241713561 20.1347388691905849 S
atom 10.3083821320029969 2.4701043613201983 20.6376106244340747 S
atom 5.2819873192852604 7.4964991726921291 20.6376106246175048 S
atom 9.7497985442382262 7.4872308893749331 20.1347388692192943 S
atom 4.6220961741138185 2.4968058348196607 25.6487416860862467 S
atom 10.4069365762168413 2.4794372915226064 25.0546344811541566 S
atom 5.3805417633913946 7.5058321004624142 25.0546344805529486 S
atom 9.6234151436021147 7.4981248026986460 25.6487416862773188 S
atom 2.5028691225001940 5.2666962839828075 20.1347388689772089 S
atom 7.5199956586276127 4.7081126958220745 20.6376106242665465 S
atom 2.4936008407201204 9.7345075090917899 20.6376106247744069 S
atom 7.5041880936367455 10.2680152531085369 20.1347388694071263 S
atom 2.4919752089791749 5.3930796847095790 25.6487416857613546 S
atom 7.5106627272220718 4.6095582519330760 25.0546344807959080 S
atom 2.4842679107387253 9.6359530655145722 25.0546344809264561 S
atom 7.4932941817571130 10.3943986545157934 25.6487416865078970 S
atom 2.3174964083198053 2.7440356671384292 27.8217839498627058 Ba
atom 7.2711401908912867 2.6712846394696701 27.8217839493676315 Ba
atom 2.2447453803264641 7.6976794529115447 27.8217839506150320 Ba
atom 7.3188153742882642 7.7453546361364412 27.8217839499774300 Ba
atom 2.6704662235069212 2.4433865038524729 32.5768536061072354 Ba
atom 7.5717893558389520 2.3183148215425513 32.5768536065487879 Ba
atom 2.5453945410583900 7.3447096354521415 32.5768536049144188 Ba
atom 7.6717851941617070 7.4447054734782050 32.5768536054675621 Ba
atom 5.0062230456540755 5.0104688416230294 30.4083465192079352 Zr
atom 10.0060259956461035 4.9838769727646781 30.4083465315957433 Zr
atom 4.9796311766181063 10.0102717779367953 30.4083465242821767 Zr
atom 10.0075420188280901 10.0117878015750765 30.4083465276022977 Zr
atom 5.2973102175426652 5.2532366638455841 27.8544238871613530 S
atom 9.7632581638430249 4.6927897981597111 27.8544238888498050 S
atom 4.7368633514106078 9.7191846125085810 27.8544238866283038 S
atom 10.2986291853287302 10.2545556336396047 27.8544238881885065 S
atom 4.7827110715630319 4.8754055858158578 32.9134949589947112 S
atom 10.1410892414423763 5.2073889435557765 32.9134949491358100 S
atom 5.1146944292788827 10.2337837581715707 32.9134949540456603 S
atom 9.7840300396439535 9.8767245559235519 32.9134949522558529 S
atom 4.7206506189185857 2.5061387645060877 30.0657655424743879 S
atom 10.2805531751609003 2.4903312025100992 30.5686372973935256 S
atom 5.2541583628046036 7.5167260123185260 30.5686372980308967 S
atom 9.7219695872522749 7.5074577329714440 30.0657655422131320 S
atom 2.4826422793726164 5.2945252406874248 30.0657655425076342 S
atom 7.4997688120945005 4.7359416527628415 30.5686372976453136 S
atom 2.4733739980673954 9.7623364672416670 30.5686372977599063 S
atom 7.4839612498737793 10.2958442113001585 30.0657655423241827 S
