#=======================================================
# FHI-aims file: full_relax/full_relax_RP_9_RxRyRz_-Rx-RyRz.in
# Created using the Atomic Simulation Environment (ASE)
# Mon Mar 24 18:01:37 2025
#=======================================================
lattice_vector 9.9420898169328744 -0.0047286455012874 0.0000000000033572 
lattice_vector -0.0047286455012948 9.9420898169707215 0.0000000000062550 
lattice_vector 0.0000000000315488 0.0000000000589336 97.2106937265466371 
atom 0.0740707779592873 -0.1123936552537773 0.1872303371572650 Ba
atom 5.0834385326382723 -0.0764350550078046 0.1872305471484830 Ba
atom 0.1100293042007943 4.8969741906467803 0.1872306551969483 Ba
atom 5.0427513075010184 4.8562869549176346 0.1872302767422633 Ba
atom -0.2616544024284930 0.1989954457738094 5.0212305115611855 Ba
atom 4.7720495118354416 0.2592900942501687 5.0212304978744449 Ba
atom -0.2013597879639254 5.2326992706141837 5.0212305207108079 Ba
atom 4.7070262585067661 5.1676759465990694 5.0212305410218132 Ba
atom 2.4650446228021234 2.5146954665494476 2.3970809142950116 Zr
atom 7.4250298495115707 2.5012716171179590 2.3970810195013277 Zr
atom 2.4516205144585652 7.4746811806661588 2.3970808104024521 Zr
atom 7.4337252677373238 7.4833763682137402 2.3970809612782653 Zr
atom 2.4067529600094324 2.5254483240415757 7.4921905282197052 Zr
atom 7.4142771495769386 2.5595632202008822 7.4921904773196859 Zr
atom 2.4408678816709317 7.5329725539188264 7.4921906226911412 Zr
atom 7.3754335472466419 7.4941289743534210 7.4921902917827330 Zr
atom 2.6177669296859141 2.7337924798048414 -0.1209507325940500 S
atom 7.2059330754777928 2.3485493601079366 -0.1209503804001183 S
atom 2.2325238443705060 7.3219585512444594 -0.1209506586534420 S
atom 7.5864474969424096 7.7024730164890540 -0.1209506454045414 S
atom 2.2384615817399922 2.2904531046523888 4.9792384134003811 S
atom 7.6492724001040866 2.7278546552788874 4.9792382386775573 S
atom 2.6758631491559517 7.7012638959636037 4.9792382473884205 S
atom 7.2071421913793960 7.2591336962020021 4.9792386443429635 S
atom 2.7612907215260432 0.0349964305938231 2.2625009964912008 S
atom 7.0668849598714623 0.0357542994477666 2.7375839199594081 S
atom 2.0934757003113154 5.0091636801736881 2.7375840040418629 S
atom 7.7299713699937875 5.0036771674901273 2.2625008417023360 S
atom 2.9335893060308393 0.0459483378320665 7.7076355196172086 S
atom 6.9596313573383943 0.0444281029249511 7.3267881950663574 S
atom 1.9862220960858863 5.0178374729563844 7.3267881522019200 S
atom 7.9022698789567727 5.0146290644547031 7.7076355838405552 S
atom -0.0373614942396463 2.2097541977273747 2.2625009452864182 S
atom 4.9305624009938871 2.8728406025085711 2.7375839327333811 S
atom -0.0428468390354455 7.8462497829550886 2.7375839735323941 S
atom 4.9313191381552679 7.1784347258014920 2.2625009312730158 S
atom -0.0483127569523472 2.0374556048942840 7.7076355651910777 S
atom 4.9218881427096353 2.9800941759788633 7.3267881886554074 S
atom -0.0515215158779808 7.9535033665574453 7.3267881578846046 S
atom 4.9203682537363926 7.0061362005113832 7.7076355290644685 S
atom 0.0020877687328887 -0.0784901957948847 10.0538678018874155 Ba
atom 5.0495351350273543 -0.0044520095477510 10.0538678202935241 Ba
atom 0.0761259400080278 4.9689571474149190 10.0538678099162198 Ba
atom 4.9707682731170744 4.8901902957152714 10.0538678289420691 Ba
atom 0.0507752220659353 0.0096227004931208 15.1404083864129326 Ba
atom 4.9614221483931376 -0.0531394235244961 15.1404083553150581 Ba
atom -0.0119868935800078 4.9202697372739301 15.1404083350866134 Ba
atom 5.0194556283136462 4.9783032200589732 15.1404083035245272 Ba
atom 2.4923110914168030 2.4880794811147902 12.5830967805224461 Zr
atom 7.4516460502713029 2.4740051670338379 12.5830965612056147 Zr
atom 2.4782368195036493 7.4474143523399370 12.5830967579518429 Zr
atom 7.4609917099878462 7.4567600092180673 12.5830966137643969 Zr
atom 2.4860475603762420 2.4827466083594389 17.6829905392881841 Zr
atom 7.4569788708421303 2.4802684275183564 17.6829905556897664 Zr
atom 2.4835694133222712 7.4536779269654767 17.6829905144797763 Zr
atom 7.4547283870201504 7.4514274475519136 17.6829906119312028 Zr
atom 2.5700368767505806 2.6571905895829468 10.0496531851982507 S
atom 7.2825349084467170 2.3962793981218371 10.0496532709159467 S
atom 2.3091256852915096 7.3696886226891394 10.0496534981091532 S
atom 7.5387174411839109 7.6258711428223664 10.0496533219220954 S
atom 2.4174818377529217 2.4486688194723332 15.1400106399450269 S
atom 7.4910566631569653 2.5488344301639834 15.1400106497224147 S
atom 2.5176474604357919 7.5222436485304556 15.1400105565145306 S
atom 7.3861624267233683 7.4173493897349525 15.1400106909397465 S
atom 1.9881751582097729 0.0040481115170290 12.5337854015080907 S
atom 7.9842857636376499 0.0028147308204643 12.6637427150404847 S
atom 3.0108765888735758 4.9762244045661248 12.6637426808057647 S
atom 6.9568558052336380 4.9727291476998357 12.5337854489945055 S
atom 3.0063889699564061 0.0012545756184362 17.7176446253925306 S
atom 6.9360089264719322 -0.0012706964564648 17.6611920505490936 S
atom 1.9625996160312360 4.9721389716630586 17.6611920671669580 S
atom 7.9750694499494710 4.9699356234118248 17.7176445953976298 S
atom -0.0064128509556236 2.9828697390343533 12.5337854437473926 S
atom 4.9635015298859999 1.9554396671988803 12.6637427066255306 S
atom -0.0099081113962401 6.9288489666536517 12.6637426865951408 S
atom 4.9622680981016485 7.9515502832035656 12.5337854098697843 S
atom -0.0036192661973040 1.9646559973678877 17.7176446017829292 S
atom 4.9675869251569038 3.0037166632717356 17.6611920535998443 S
atom -0.0058228600962883 7.9771257713812842 17.6611920635730648 S
atom 4.9650618638851514 6.9333365609236246 17.7176446190071744 S
atom -0.0119565093096470 -0.0174448317189210 20.2356129275017516 Ba
atom 4.9884896891036865 0.0095922846923110 20.2356129155305595 Ba
atom 0.0150806188027253 4.9830014501890325 20.2356129819276163 Ba
atom 4.9567239411086650 4.9512356994726217 20.2356129699528111 Ba
atom 0.0119565741587061 0.0174448660106346 25.3318996624254922 Ba
atom 4.9536000545735916 -0.0143208090363890 25.3318996940700849 Ba
atom -0.0198091071066742 4.9590883388338458 25.3318996630527948 Ba
atom 4.9806370693993136 4.9861253588870236 25.3318996950470030 Ba
atom 2.4843403222402736 2.4843403921907568 22.7837564460851070 Zr
atom 7.4553852158082350 2.4819758208324769 22.7837565054101638 Zr
atom 2.4819757592350249 7.4553850588425536 22.7837563722948317 Zr
atom 7.4530211373023665 7.4530209831466561 22.7837564974505042 Zr
atom 2.4826329907148974 2.4859340808247672 27.8845215710632885 Zr
atom 7.4537914317416920 2.4836833039892796 27.8845216522130883 Zr
atom 2.4803821987248007 7.4570924874979232 27.8845215996588287 Zr
atom 7.4513135740835565 7.4546146244800422 27.8845216567278484 Zr
atom 2.5101037012941032 2.5172884992582802 20.2356267459412038 S
atom 7.4224369855132881 2.4562125927888823 20.2356268352257977 S
atom 2.4490277939978817 7.4296218041980984 20.2356267532482548 S
atom 7.4787842434870999 7.4859690548734177 20.2356266720607643 S
atom 2.4585768664238707 2.4513920730046013 25.3318860837682891 S
atom 7.4883334049578201 2.5077394045011783 25.3318862625615360 S
atom 2.5149241960746056 7.4811486350679743 25.3318860599765934 S
atom 7.4272574367087882 7.4200726676041207 25.3318862101890971 S
atom 1.9642403157801973 -0.0012228299072239 22.7617888655593852 S
atom 7.9778494180240855 -0.0035061390494244 22.8057237255158576 S
atom 3.0044402961569827 4.9699034117827505 22.8057237670039186 S
atom 6.9329209212636282 4.9674580758865545 22.7617888102499357 S
atom 3.0060809523918981 -0.0034584570827925 27.9063207356493415 S
atom 6.9357009359534221 -0.0059835534750974 27.8498681847552234 S
atom 1.9622916369348937 4.9674259565361982 27.8498681933417025 S
atom 7.9747614555513211 4.9652223893551319 27.9063207286148440 S
atom -0.0011420003999371 3.0068045944884041 22.7617888231344487 S
atom 4.9698225940649339 1.9618759876388732 22.8057237371694761 S
atom -0.0035871234694337 6.9352852867484778 22.8057237563145385 S
atom 4.9675390562882757 7.9754851586085644 22.7617888520024181 S
atom 0.0010935061459694 1.9649639737786548 27.9063207323999514 S
atom 4.9723001692411044 3.0040246119699927 27.8498681855185879 S
atom -0.0011097911939508 7.9774338028576786 27.8498681916149842 S
atom 4.9697748263589760 6.9336446065673591 27.9063207331321870 S
atom -0.0507751113010278 -0.0096226411612689 30.4271043097873850 Ba
atom 4.9806675713212369 0.0484108525056086 30.4271042965199285 Ba
atom 0.0072583719138355 5.0218200095563619 30.4271042816442510 Ba
atom 4.9179054245587386 4.9590578631456346 30.4271042688294209 Ba
atom -0.0020876484666818 0.0784902660286449 35.5136450342489169 Ba
atom 4.8925545656804079 -0.0002766195472834 35.5136450267615089 Ba
atom -0.0808545099710409 4.9731325795972676 35.5136450574073379 Ba
atom 4.9665928252906131 5.0471708273425451 35.5136450450170713 Ba
atom 2.4763694479003613 2.4806009747834290 32.9844163550827503 Zr
atom 7.4591244720780656 2.4899467481450483 32.9844165378663092 Zr
atom 2.4857151977426644 7.4633561113286468 32.9844167361552749 Zr
atom 7.4450500679746758 7.4492816993157493 32.9844162961356844 Zr
atom 2.5619276036128009 2.4432319332379318 38.0753225965388111 Zr
atom 7.4964934759453747 2.4043888160185296 38.0753220975220614 Zr
atom 2.5230842535811169 7.3777980988293299 38.0753220752602459 Zr
atom 7.5306082191249866 7.4119126321721795 38.0753227000720074 Zr
atom 2.5511987495904815 2.5200117532998756 30.4275022600255518 S
atom 7.4197137462015208 2.4151175209810982 30.4275019621131975 S
atom 2.4463045128510239 7.3885267480075987 30.4275021836819910 S
atom 7.5198793218477737 7.4886923321928158 30.4275020160662173 S
atom 2.3986437708628721 2.3114900266088005 35.5178591827273138 S
atom 7.6282354958751091 2.5676725191544469 35.5178587329553110 S
atom 2.6548262882642146 7.5410817046830854 35.5178587856183583 S
atom 7.3673243625720506 7.2801706067833880 35.5178592334618557 S
atom 1.9578040680693130 -0.0075436000080588 32.9037698738856363 S
atom 7.9539146035085571 -0.0087769931575241 33.0337271977546081 S
atom 2.9805054348387436 4.9646324706228233 33.0337271526849321 S
atom 6.9264846768204444 4.9611372127398496 32.9037699489317390 S
atom 2.9824585210144439 -0.0491565197450795 38.2407245213271310 S
atom 7.0085005431649918 -0.0506774878666805 37.8598771464988104 S
atom 2.0350912192329029 4.9227320496765969 37.8598770363635069 S
atom 7.9511390487442286 4.9195242914907382 38.2407245339865440 S
atom 0.0051790493073192 3.0132408513458286 32.9037699266071471 S
atom 4.9750932358966686 1.9858108514569779 33.0337271836710684 S
atom 0.0016836976287458 6.9592200997857487 33.0337271590165358 S
atom 4.9738599737784215 7.9819213913972584 32.9037699013110583 S
atom 0.0467927680622426 1.9885864030570080 38.2407245346042970 S
atom 5.0169928577165699 2.9312250104027702 37.8598771055054186 S
atom 0.0435831996241169 7.9046342033258030 37.8598771094048061 S
atom 5.0154736946805416 6.9572669895084811 38.2407245291893005 S
atom 0.2616544467983255 -0.1989953279313185 40.5462822692708826 Ba
atom 5.1700402373688146 -0.2640187685369618 40.5462822379727257 Ba
atom 0.1966311273011981 4.7093904391347152 40.5462822672352345 Ba
atom 5.2303349163231285 4.7696852699491368 40.5462821521675352 Ba
atom -0.0740707555894081 0.1123936921507300 45.3802820488764809 Ba
atom 4.8586512634485581 0.0717063827664982 45.3802821644205352 Ba
atom -0.1147579675980912 5.0451156387919127 45.3802820133490457 Ba
atom 4.8946098720458551 5.0810743070835400 45.3802822187550561 Ba
atom 2.5036352648485263 2.4539845109259426 43.1704314270577569 Zr
atom 7.4857411943905721 2.4626800118701611 43.1704315560584675 Zr
atom 2.5123313602645876 7.4360896015521609 43.1704314353411860 Zr
atom 7.4723164562991480 7.4226654855274550 43.1704316922513485 Zr
atom 2.7302190811436149 2.6782275167962797 40.5882737765575357 S
atom 7.2614979790751342 2.2360972363417018 40.5882748099337576 S
atom 2.2880887691231262 7.2095064552360340 40.5882750074481535 S
atom 7.6988996244614381 7.6469080852892475 40.5882733298865190 S
atom 2.3509136724964557 2.2348881039553721 45.6884639097545318 S
atom 7.7048372474071929 2.6154026141852453 45.6884633102107074 S
atom 2.7314280806483215 7.5888117757659952 45.6884630504823264 S
atom 7.3195941940281291 7.2035686285065639 45.6884640258846062 S
atom 2.8752049115291549 -0.0404838176570929 42.8299287900513121 S
atom 7.1807990022760668 -0.0397239984033132 43.3050117896188453 S
atom 2.2073897876885717 4.9336852190483915 43.3050118783019542 S
atom 7.8438854367140545 4.9281966510022270 42.8299287614178752 S
atom 0.0381171613476843 2.0958400506630457 42.8299287893941667 S
atom 5.0060432552445633 2.7589264256600683 43.3050118206415888 S
atom 0.0326339253455359 7.7323355813716876 43.3050118315130987 S
atom 5.0067977717733214 7.0645205364189305 42.8299287715022814 S
atom 2.4102695783438928 2.5967339094340307 48.7925772206640218 Ba
atom 7.3429915126864724 2.5560466480134236 48.7925770919297577 Ba
atom 2.3695822940102422 7.5294559456519492 48.7925772825349640 Ba
atom 7.3789501667025892 7.5654145767317100 48.7925769886515184 Ba
atom 2.7459946616764843 2.2853449311871916 53.6265772526285360 Ba
atom 7.6543806397179397 2.2203215492686348 53.6265774129823072 Ba
atom 2.6809712220813706 7.1937307732801097 53.6265773231333966 Ba
atom 7.7146754135902862 7.2540254976367731 53.6265774744241170 Ba
atom 4.9879757341048689 4.9383246726249856 51.0024278653050516 Zr
atom 9.9700815229453426 4.9470206863854997 51.0024281878316614 Zr
atom 4.9966716529152189 9.9204301840189331 51.0024278438323933 Zr
atom 9.9566569971111676 9.9070056049257289 51.0024279638768121 Zr
atom 5.0462680451080395 4.9275722747904922 56.0975380675360853 Zr
atom 9.9808336000464895 4.8887290985332195 56.0975375200570454 Zr
atom 5.0074248713905147 9.8621382326930291 56.0975377120060372 Zr
atom 10.0149480849802188 9.8962528098577280 56.0975375289052209 Zr
atom 4.8352539855662782 4.7192284241969666 48.4843961536561210 S
atom 10.1891776578012685 5.0997429301676274 48.4843961414508158 S
atom 5.2157684903948942 10.0731521243061284 48.4843961722475854 S
atom 9.8039344917240960 9.6879089720609937 48.4843961284001921 S
atom 5.2145593746139509 5.1625678097025540 53.5845859334355410 S
atom 9.7458382256790657 4.7204374968403142 53.5845858536253985 S
atom 4.7724290344200817 9.6938466897079785 53.5845860390105315 S
atom 10.1832399473519395 10.1312484087471173 53.5845861446835627 S
atom 5.3595451808165446 2.4438578291742088 51.3429306657144622 S
atom 9.6651393648706065 2.4446146654787406 50.8678476636851400 S
atom 4.6917302047873557 7.4180239591757378 50.8678476865825004 S
atom 10.3282257264245469 7.4125383417889363 51.3429306223332418 S
atom 5.4667987092282040 2.4351835715090884 55.9321348246724384 S
atom 9.4928409091571151 2.4336632052119240 56.3129821203522098 S
atom 4.5194316455639907 7.4070725894870399 56.3129820934705805 S
atom 10.4354794161248385 7.4038642536580506 55.9321348419239541 S
atom 2.5224589534989064 4.5801803642319872 51.3429306174196967 S
atom 7.4903816629229363 5.2432667375071134 50.8678476792111312 S
atom 2.5169727545586986 10.2166759185566320 50.8678476564404392 S
atom 7.4911391649238501 9.5488608603226801 51.3429306508337433 S
atom 2.5311331540095003 4.4729266955684093 55.9321348404302157 S
atom 7.5013329823769332 5.4155651747070106 56.3129820991367183 S
atom 2.5279241765437921 10.3889744467294403 56.3129821172694989 S
atom 7.4998134206251121 9.4416073478401188 55.9321348385161343 S
atom 2.4822526060856744 2.5628306988454566 58.6592149658431339 Ba
atom 7.3768948500525671 2.4840636887139573 58.6592148965101217 Ba
atom 2.4034856372803355 7.4574728307930469 58.6592149378240819 Ba
atom 7.4509331672854362 7.5315111923605089 58.6592148669462716 Ba
atom 2.4335652031266433 2.4747175950222844 63.7457548246981531 Ba
atom 7.4650078653994916 2.5327511135238479 63.7457548462892305 Ba
atom 2.4915987267824993 7.5061603140331732 63.7457548178302318 Ba
atom 7.4022456864932407 7.4433981503707738 63.7457548368156424 Ba
atom 4.9607097114166443 4.9649413969137548 61.1884431925664032 Zr
atom 9.9434648648278188 4.9742870837924764 61.1884429433283401 Zr
atom 4.9700556298132836 9.9476963037655537 61.1884431635679178 Zr
atom 9.9293902593013250 9.9336219839697577 61.1884431856467543 Zr
atom 4.9669734959074070 4.9702744686267319 66.2883372461043905 Zr
atom 9.9381315153433523 4.9680235095229168 66.2883373115555941 Zr
atom 4.9647223987009097 9.9414327521366896 66.2883373473931670 Zr
atom 9.9356539580188095 9.9389550903229971 66.2883368544282234 Zr
atom 4.8829840944133336 4.7958303061669030 58.6549990513049906 S
atom 10.1125757978804671 5.0520127759239362 58.6549997764218318 S
atom 5.1391664941924393 10.0254219952386716 58.6549995652738829 S
atom 9.8516646991913639 9.7645109055939550 58.6549994387721796 S
atom 5.0355390404913507 5.0043520217230757 63.7453581493322758 S
atom 9.9040540798024068 4.8994578300564280 63.7453580276806164 S
atom 4.9306448216402092 9.8728670526808742 63.7453576010446454 S
atom 10.0042196240887282 9.9730326045110687 63.7453582862269243 S
atom 4.4421442544724332 2.4767963307289342 61.2690898178109506 S
atom 10.4382550104025142 2.4755635120590713 61.1391324036533703 S
atom 5.4648457949973093 7.4489730963403424 61.1391324576484578 S
atom 9.4108248816384119 7.4454772780376919 61.2690897683567712 S
atom 5.4904212100491661 2.4808821342708969 66.2665391528433503 S
atom 9.4200412837293630 2.4783564217724092 66.3229916627778948 S
atom 4.4466319411219208 7.4517659140985728 66.3229916995872628 S
atom 10.4591017338627239 7.4495629293960270 66.2665391426402124 S
atom 2.4895191059807407 5.4975812520646574 61.2690897909871737 S
atom 7.4594336626020850 4.4701510491793490 61.1391324345530407 S
atom 2.4860242811664195 9.4435603168705935 61.1391324304823911 S
atom 7.4581999259439575 10.4662617789974348 61.2690897815554365 S
atom 2.4854341260653872 4.4493043104888876 66.2665391224931426 S
atom 7.4566400820989847 5.4883648829731415 66.3229916789231595 S
atom 2.4832302568030342 10.4617740747957555 66.3229916817727343 S
atom 7.4541153058910341 9.4179849277241772 66.2665391716134167 S
atom 2.4962968965594698 2.5017851317735524 68.8409598394320597 Ba
atom 7.4379403032087588 2.4700195387968931 68.8409597577696957 Ba
atom 2.4645312887916995 7.4434286439895558 68.8409597310181596 Ba
atom 7.4649772756529771 7.4704655892263148 68.8409596511343267 Ba
atom 2.4723837247515181 2.4668954309447511 73.9372466598552478 Ba
atom 7.4728300425400009 2.4939325740756502 73.9372467625824754 Ba
atom 2.4994208504411830 7.4673417786297627 73.9372467200247314 Ba
atom 7.4410642751525868 7.4355760057691178 73.9372468229286710 Ba
atom 4.9686807286429522 4.9686803899493999 71.3891033208297614 Zr
atom 9.9397254207778811 4.9663155953799594 71.3891032976755611 Zr
atom 4.9663159255222409 9.9397255998968319 71.3891031613569993 Zr
atom 9.9373615957100192 9.9373617328813300 71.3891038045182142 Zr
atom 4.9703880646102103 4.9670868801732437 76.4898691934804447 Zr
atom 9.9413189839048428 4.9646087337437965 76.4898689818447224 Zr
atom 4.9679099366007780 9.9380183289089796 76.4898690321797545 Zr
atom 9.9390684583276645 9.9357678089468759 76.4898691514425337 Zr
atom 4.9429171302168369 4.9357323898333076 68.8409728014762266 S
atom 9.9726737311032387 4.9920797526479088 68.8409732796308163 S
atom 4.9992645181991922 9.9654889086549989 68.8409732781100701 S
atom 9.9115977127375796 9.9044129083955834 68.8409732277960984 S
atom 4.9944439668761342 5.0016288447434798 73.9372327414511119 S
atom 9.9067773063186095 4.9405529415537810 73.9372329592122526 S
atom 4.9333680843730088 9.9139620868265030 73.9372333057090003 S
atom 9.9631245354410289 9.9703093315081777 73.9372318184828146 S
atom 4.4485806319389329 2.4831174979394608 71.4110706838619507 S
atom 10.4621896071540146 2.4808339838802209 71.3671357720815678 S
atom 5.4887806273891391 7.4542436816532387 71.3671357691807486 S
atom 9.4172612076591893 7.4517985819999017 71.4110706760513665 S
atom 5.4907291933098170 2.4855941558267509 76.4552147131058462 S
atom 9.4203492113113381 2.4830706292253035 76.5116673286004811 S
atom 4.4469399088977601 7.4564797654334729 76.5116672606336863 S
atom 10.4594098548447096 7.4542746659288284 76.4552147695770543 S
atom 2.4831981401258569 5.4911449446019178 71.4110706953804453 S
atom 7.4541630696766585 4.4462163616423211 71.3671357896245695 S
atom 2.4807528351804944 9.4196255529932760 71.3671357576090202 S
atom 7.4518796895451951 10.4598253628151010 71.4110706595746336 S
atom 2.4807204482674186 4.4489963261865579 76.4552147523779695 S
atom 7.4519277372035946 5.4880569521952642 76.5116672983376276 S
atom 2.4785185920078487 10.4614661450823974 76.5116673014662609 S
atom 7.4494009995866346 9.4176768469908794 76.4552147203298347 S
atom 2.5351154520678723 2.4939629935137084 79.0324512388693989 Ba
atom 7.4457625101130267 2.4312008221523591 79.0324511887123577 Ba
atom 2.4723533305174317 7.4046100475422403 79.0324513005040643 Ba
atom 7.5037959675192774 7.4626435726903795 79.0324512457336539 Ba
atom 2.4864279783817653 2.4058501144621234 84.1189918623297643 Ba
atom 7.5338754956627447 2.4798882794030677 84.1189918455408190 Ba
atom 2.5604662211844067 7.4532974314737572 84.1189918417065883 Ba
atom 7.4551085930136631 7.3745306079221589 84.1189918243119195 Ba
atom 4.9766511503013895 4.9724198688237760 81.5897623274091472 Zr
atom 9.9359866068086919 4.9583454730974132 81.5897631117264552 Zr
atom 4.9625772723765698 9.9317546195512048 81.5897628369826009 Zr
atom 9.9453318985744730 9.9411003755063341 81.5897623950192212 Zr
atom 4.8910930738116187 5.0097887928479157 86.6806704023703816 Zr
atom 9.8986174823374089 5.0439033766779673 86.6806696591099524 Zr
atom 4.9252080813313448 10.0173125190117336 86.6806691651950558 Zr
atom 9.8597738884425237 9.9784693326254992 86.6806699844290733 Zr
atom 4.9018221474910888 4.9330091278853976 79.0328498208546364 S
atom 9.9753969600981929 5.0331747384918577 79.0328489142786879 S
atom 5.0019877293263413 10.0065839464654314 79.0328490795982930 S
atom 9.8705027455053980 9.9016896872187434 79.0328503441051993 S
atom 5.0543771848735064 5.1415308348616593 84.1232063276250841 S
atom 9.7668751481623879 4.8806196731111751 84.1232056469373077 S
atom 4.7934659841126992 9.8540289411487567 84.1232061351848017 S
atom 10.0230577663304707 10.1102114078340115 84.1232058712214581 S
atom 4.4725155118340645 2.4883885743450134 81.6390740410130604 S
atom 10.4686260633977692 2.4871547173065141 81.5091167824172800 S
atom 5.4952168825079486 7.4605645106711727 81.5091167711691327 S
atom 9.4411961161852584 7.4570696996623100 81.6390740423112646 S
atom 5.4179296037789184 2.5302888532798651 86.4652240092069633 S
atom 9.4439715916952380 2.5287678533571905 86.8460713650109994 S
atom 4.4705624721278507 7.5021776332184897 86.8460713439059191 S
atom 10.3866102110315612 7.4989700045890881 86.4652239440278834 S
atom 2.4779276720678056 5.4672099949385489 81.6390740470945673 S
atom 7.4478415283722512 4.4397799439508550 81.5091167794432181 S
atom 2.4744319791211007 9.4131892632536527 81.5091167631893541 S
atom 7.4466084801526842 10.4358905422021024 81.6390740296846502 S
atom 2.4360284557471736 4.5217958474307833 86.4652239862341787 S
atom 7.4062275681995873 5.4644344834511092 86.8460713635574848 S
atom 2.4328189010910624 10.4378436144439348 86.8460713346036641 S
atom 7.4047083674731642 9.4904765157724462 86.4652240277111446 S
atom 2.2226859167758204 2.6833358865627601 89.1516290584918067 Ba
atom 7.2563897200736642 2.7436305600959487 89.1516290429099030 Ba
atom 2.2829804426781632 7.7170395058265191 89.1516290973914352 Ba
atom 7.1913665594552096 7.6520161298870919 89.1516289445825123 Ba
atom 2.5584110703620966 2.3719467068847222 93.9856290278040092 Ba
atom 7.5677787003025863 2.4079052856152039 93.9856290578036919 Ba
atom 2.5943695613556819 7.3813144452512010 93.9856291447616172 Ba
atom 7.5270916090778721 7.3406271989899397 93.9856291581611458 Ba
atom 4.9493849949592477 4.9990360147129396 91.7757779954461910 Zr
atom 9.9093704360400849 4.9856123695194574 91.7757776343546823 Zr
atom 4.9359601659175034 9.9590214708850944 91.7757781001652404 Zr
atom 9.9180665061905131 9.9677165181565393 91.7757780988772964 Zr
atom 4.7228019350133321 4.7747933401680296 89.1936187964669500 S
atom 10.1336126475111818 5.2121948992649445 89.1936217058147349 S
atom 5.1602034712852900 10.1856041214725543 89.1936216098347074 S
atom 9.6914823951716613 9.7434740078932496 89.1936197432492008 S
atom 5.1021073355164823 5.2181328980646597 94.2938114950467821 S
atom 9.6902733959675711 4.8328896336976461 94.2938097070586281 S
atom 4.7168642625117183 9.8062988883037043 94.2938095448874662 S
atom 10.0707877986873591 10.1868134535588020 94.2938111008341622 S
atom 5.2456312616144798 2.5193339636274437 91.9103589041965705 S
atom 9.5512251990844366 2.5200959065812638 91.4352758324981352 S
atom 4.5778161075567834 7.4935063513781541 91.4352758280273434 S
atom 10.2143115943877429 7.4880156852445179 91.9103588135345149 S
atom 2.4469764670831249 4.6940944699472498 91.9103589434159858 S
atom 7.4149045990238642 5.3571809516009710 91.4352758517787976 S
atom 2.4414951603316566 10.3305899974273245 91.4352758629367059 S
atom 7.4156573064030127 9.6627750915875303 91.9103588015622535 S
