#=======================================================
# FHI-aims file: full_relax/full_relax_RP_3_00Rz_00Rz.in
# Created using the Atomic Simulation Environment (ASE)
# Fri Mar 14 11:19:02 2025
#=======================================================
lattice_vector 9.9102417424435458 -0.0000000000000002 0.0000000000000001 
lattice_vector -0.0000000000000002 9.9102417424435405 -0.0000000000000024 
lattice_vector 0.0000000000000002 -0.0000000000000085 36.4536938160872879 
atom 0.0000000000000200 -0.0000000000003197 0.1681493089408971 Ba
atom 4.9551208712210482 -0.0000000000004433 0.1681493089404571 Ba
atom 0.0000000000000855 4.9551208712214931 0.1681493089439010 Ba
atom 4.9551208712206911 4.9551208712210926 0.1681493089430107 Ba
atom 0.0000000000001796 0.0000000000002020 5.0644187379979968 Ba
atom 4.9551208712212427 -0.0000000000000448 5.0644187379980927 Ba
atom 0.0000000000002356 4.9551208712208155 5.0644187379966894 Ba
atom 4.9551208712208181 4.9551208712207639 5.0644187379978698 Ba
atom 2.4775604356105463 2.4775604356103678 2.4502793589718994 Zr
atom 7.4326813068321833 2.4775604356107759 2.4502793589726042 Zr
atom 2.4775604356101653 7.4326813068324240 2.4502793589718035 Zr
atom 7.4326813068318414 7.4326813068328459 2.4502793589723972 Zr
atom 2.4775604356104060 2.4775604356105108 7.5945195450186906 Zr
atom 7.4326813068323450 2.4775604356103504 7.5945195450191845 Zr
atom 2.4775604356102892 7.4326813068324995 7.5945195450189322 Zr
atom 7.4326813068324480 7.4326813068320696 7.5945195450193239 Zr
atom 2.4775604356102470 2.4775604356104068 -0.0969103331981359 S
atom 7.4326813068327908 2.4775604356103740 -0.0969103331978381 S
atom 2.4775604356103300 7.4326813068327162 -0.0969103331985207 S
atom 7.4326813068325395 7.4326813068314186 -0.0969103331984483 S
atom 2.4775604356101133 2.4775604356107124 5.0437247486536210 S
atom 7.4326813068328086 2.4775604356106018 5.0437247486542320 S
atom 2.4775604356102443 7.4326813068323938 5.0437247486539247 S
atom 7.4326813068329445 7.4326813068321433 5.0437247486530676 S
atom 2.0542702981402883 -0.0000000000002108 2.5328582975102352 S
atom 7.8559714443016535 -0.0000000000001177 2.5328582975097138 S
atom 2.9008505730810445 4.9551208712213617 2.5328582975102334 S
atom 7.0093911693626483 4.9551208712214452 2.5328582975093736 S
atom 3.0118425049265678 0.0000000000003058 7.5945195450221217 S
atom 6.8983992375153642 0.0000000000000827 7.5945195450216945 S
atom 1.9432783662944864 4.9551208712218768 7.5945195450216323 S
atom 7.9669633761478051 4.9551208712214247 7.5945195450215817 S
atom -0.0000000000001696 2.9008505730813718 2.5328582975100931 S
atom 4.9551208712215074 2.0542702981406133 2.5328582975102343 S
atom -0.0000000000001026 7.0093911693621687 2.5328582975095699 S
atom 4.9551208712209940 7.8559714443012831 2.5328582975104266 S
atom 0.0000000000001700 1.9432783662941702 7.5945195450220808 S
atom 4.9551208712217099 3.0118425049267499 7.5945195450220710 S
atom 0.0000000000001489 7.9669633761481160 7.5945195450217975 S
atom 4.9551208712220163 6.8983992375156458 7.5945195450211473 S
atom -0.0000000000003509 0.0000000000002454 10.1246203520429159 Ba
atom 4.9551208712217960 0.0000000000003521 10.1246203520406635 Ba
atom -0.0000000000004528 4.9551208712203048 10.1246203520413101 Ba
atom 4.9551208712214008 4.9551208712207160 10.1246203520415445 Ba
atom 0.0000000000000427 -0.0000000000001305 15.0208897810964341 Ba
atom 4.9551208712213635 -0.0000000000005159 15.0208897810985285 Ba
atom -0.0000000000007249 4.9551208712213697 15.0208897811011521 Ba
atom 4.9551208712219967 4.9551208712211423 15.0208897810957058 Ba
atom 2.4775604356103469 2.4775604356103811 12.7387597310671534 Zr
atom 7.4326813068322712 2.4775604356105898 12.7387597310678355 Zr
atom 2.4775604356102936 7.4326813068319799 12.7387597310680007 Zr
atom 7.4326813068322641 7.4326813068324515 12.7387597310682263 Zr
atom 2.4775604356102940 2.4775604356100271 10.1453143413839868 S
atom 7.4326813068325537 2.4775604356106724 10.1453143413840916 S
atom 2.4775604356101613 7.4326813068327251 10.1453143413846245 S
atom 7.4326813068327855 7.4326813068325253 10.1453143413834290 S
atom 2.4775604356105503 2.4775604356102789 15.2859494232370512 S
atom 7.4326813068325839 2.4775604356094942 15.2859494232384137 S
atom 2.4775604356102718 7.4326813068325883 15.2859494232385575 S
atom 7.4326813068331372 7.4326813068328477 15.2859494232381188 S
atom 2.0542702981411516 -0.0000000000004598 12.6561807925282821 S
atom 7.8559714443010993 -0.0000000000003691 12.6561807925287120 S
atom 2.9008505730794445 4.9551208712215171 12.6561807925290122 S
atom 7.0093911693624040 4.9551208712216308 12.6561807925294048 S
atom -0.0000000000005622 2.9008505730797607 12.6561807925266905 S
atom 4.9551208712216521 2.0542702981410974 12.6561807925268486 S
atom -0.0000000000006824 7.0093911693631297 12.6561807925292147 S
atom 4.9551208712216006 7.8559714443015345 12.6561807925285894 S
atom 2.4775604356095182 2.4775604356104650 18.3949962169856782 Ba
atom 7.4326813068319613 2.4775604356102079 18.3949962169875469 Ba
atom 2.4775604356106733 7.4326813068318076 18.3949962169853158 Ba
atom 7.4326813068322108 7.4326813068322828 18.3949962169848931 Ba
atom 2.4775604356103544 2.4775604356113505 23.2912656460400740 Ba
atom 7.4326813068305411 2.4775604356101160 23.2912656460424472 Ba
atom 2.4775604356106498 7.4326813068318387 23.2912656460424223 Ba
atom 7.4326813068306246 7.4326813068316779 23.2912656460422340 Ba
atom 4.9551208712212427 4.9551208712218688 20.6771262670155700 Zr
atom 9.9102417424429969 4.9551208712209425 20.6771262670177620 Zr
atom 4.9551208712213679 9.9102417424434019 20.6771262670165932 Zr
atom 9.9102417424433238 9.9102417424421976 20.6771262670158222 Zr
atom 4.9551208712217090 4.9551208712217401 25.8213664530643676 Zr
atom 9.9102417424436062 4.9551208712218440 25.8213664530689115 Zr
atom 4.9551208712217276 9.9102417424426914 25.8213664530651812 Zr
atom 9.9102417424434535 9.9102417424433717 25.8213664530645630 Zr
atom 4.9551208712211867 4.9551208712209860 18.1299365748431320 S
atom 9.9102417424431923 4.9551208712215331 18.1299365748464218 S
atom 4.9551208712208394 9.9102417424424836 18.1299365748464467 S
atom 9.9102417424438638 9.9102417424432225 18.1299365748452175 S
atom 4.9551208712211201 4.9551208712212089 23.2705716566965926 S
atom 9.9102417424434410 4.9551208712232526 23.2705716566980882 S
atom 4.9551208712212871 9.9102417424429881 23.2705716566977969 S
atom 9.9102417424429934 9.9102417424423113 23.2705716566952674 S
atom 4.5318307337534280 2.4775604356111964 20.7597052055529012 S
atom 10.3335318799121936 2.4775604356108558 20.7597052055523292 S
atom 5.3784110086891488 7.4326813068325226 20.7597052055536189 S
atom 9.4869516049743989 7.4326813068322046 20.7597052055519455 S
atom 5.4894029405380769 2.4775604356105250 25.8213664530603744 S
atom 9.3759596731268378 2.4775604356098571 25.8213664530645062 S
atom 4.4208388019038818 7.4326813068327073 25.8213664530599303 S
atom 10.4445238117587706 7.4326813068331141 25.8213664530593086 S
atom 2.4775604356110477 5.3784110086904393 20.7597052055526774 S
atom 7.4326813068320616 4.5318307337512778 20.7597052055521125 S
atom 2.4775604356112280 9.4869516049739442 20.7597052055531144 S
atom 7.4326813068323991 10.3335318799132825 20.7597052055518034 S
atom 2.4775604356116032 4.4208388019047726 25.8213664530646696 S
atom 7.4326813068314097 5.4894029405383167 25.8213664530626481 S
atom 2.4775604356107843 10.4445238117567385 25.8213664530644458 S
atom 7.4326813068324515 9.3759596731267809 25.8213664530617351 S
atom 2.4775604356113652 2.4775604356107297 28.3514672600835347 Ba
atom 7.4326813068325457 2.4775604356097021 28.3514672600847284 Ba
atom 2.4775604356107745 7.4326813068312250 28.3514672600868316 Ba
atom 7.4326813068318174 7.4326813068317996 28.3514672600865438 Ba
atom 2.4775604356092495 2.4775604356102425 33.2477366891444674 Ba
atom 7.4326813068329827 2.4775604356106840 33.2477366891448725 Ba
atom 2.4775604356096523 7.4326813068313076 33.2477366891448085 Ba
atom 7.4326813068333601 7.4326813068321522 33.2477366891441761 Ba
atom 4.9551208712214025 4.9551208712210544 30.9656066391121882 Zr
atom 9.9102417424429277 4.9551208712213795 30.9656066391161602 Zr
atom 4.9551208712211823 9.9102417424431231 30.9656066391126039 Zr
atom 9.9102417424432652 9.9102417424434019 30.9656066391137053 Zr
atom 4.9551208712204495 4.9551208712209140 28.3721612494267497 S
atom 9.9102417424429898 4.9551208712205952 28.3721612494254600 S
atom 4.9551208712195169 9.9102417424442972 28.3721612494274460 S
atom 9.9102417424446241 9.9102417424427625 28.3721612494278865 S
atom 4.9551208712210819 4.9551208712211512 33.5127963312800361 S
atom 9.9102417424436968 4.9551208712205073 33.5127963312811374 S
atom 4.9551208712210792 9.9102417424434375 33.5127963312808390 S
atom 9.9102417424430786 9.9102417424435689 33.5127963312811019 S
atom 4.5318307337527575 2.4775604356109771 30.8830277005695955 S
atom 10.3335318799114866 2.4775604356115619 30.8830277005722422 S
atom 5.3784110086920549 7.4326813068324613 30.8830277005714180 S
atom 9.4869516049723668 7.4326813068318831 30.8830277005688458 S
atom 2.4775604356099916 5.3784110086909349 30.8830277005712439 S
atom 7.4326813068329551 4.5318307337525612 30.8830277005715317 S
atom 2.4775604356103842 9.4869516049738198 30.8830277005697162 S
atom 7.4326813068327118 10.3335318799120621 30.8830277005701959 S
