#=======================================================
# FHI-aims file: full_relax/full_relax_RP_6_Rx00_0Ry0.in
# Created using the Atomic Simulation Environment (ASE)
# Fri Mar 14 11:39:29 2025
#=======================================================
lattice_vector 10.0866503572991171 -0.0000000000000040 0.0000000000000005 
lattice_vector -0.0000000000000040 10.0866503572991171 -0.0000000000000009 
lattice_vector 0.0000000000000037 -0.0000000000000064 64.9830805238353548 
atom -0.1539900013728509 -0.0000000000005783 0.2808741108837412 Ba
atom 5.1973151800214819 -0.0000000000005769 0.2808741108836940 Ba
atom 0.1539900013719198 5.0433251786489608 0.2808741108836924 Ba
atom 4.8893351772767373 5.0433251786489617 0.2808741108837904 Ba
atom 0.0280893983063149 -0.0000000000004954 4.9454320124522031 Ba
atom 5.0152357803424179 -0.0000000000005578 4.9454320124522484 Ba
atom -0.0280893983071011 5.0433251786490327 4.9454320124522111 Ba
atom 5.0714145769559043 5.0433251786490780 4.9454320124521933 Ba
atom 2.5216625893243587 2.5089919973450541 2.3209556449651827 Zr
atom 7.5649877679738937 2.5343331813033800 2.3209556449651982 Zr
atom 2.5216625893243263 7.5776583599529204 2.3209556449651734 Zr
atom 7.5649877679738982 7.5523171759945820 2.3209556449651263 Zr
atom 2.5216625893244005 2.5205156945056668 7.3320188454749369 Zr
atom 7.5649877679739239 2.5228094841428299 7.3320188454749715 Zr
atom 2.5216625893244053 7.5661346627923995 7.3320188454750435 Zr
atom 7.5649877679739124 7.5638408731551969 7.3320188454748676 Zr
atom 2.5216625893243063 2.8764450844292897 -0.1598907355968366 S
atom 7.5649877679738902 2.1668800942190889 -0.1598907355968794 S
atom 2.5216625893243565 7.2102052728686346 -0.1598907355969429 S
atom 7.5649877679738378 7.9197702630788704 -0.1598907355968072 S
atom 2.5216625893243956 2.0478099976291695 4.8624081193318736 S
atom 7.5649877679738973 2.9955151810193104 4.8624081193317705 S
atom 2.5216625893242579 8.0388403596688587 4.8624081193318442 S
atom 7.5649877679740065 7.0911351762787600 4.8624081193317119 S
atom 2.5216625893243303 -0.0000000000005947 2.0053386477505866 S
atom 7.5649877679739079 -0.0000000000005393 2.7981592888456843 S
atom 2.5216625893243507 5.0433251786490256 2.7981592888456666 S
atom 7.5649877679738964 5.0433251786489866 2.0053386477506234 S
atom 2.5216625893243196 -0.0000000000004090 7.8101786235922797 S
atom 7.5649877679739799 -0.0000000000004400 6.8754074975314285 S
atom 2.5216625893244053 5.0433251786490061 6.8754074975313451 S
atom 7.5649877679738911 5.0433251786491073 7.8101786235923329 S
atom -0.0000000000003964 2.5216625893242295 2.4560506767725778 S
atom 5.0433251786490745 2.5216625893241909 2.4560506767725236 S
atom -0.0000000000004208 7.5649877679737543 2.4560506767724788 S
atom 5.0433251786490922 7.5649877679737898 2.4560506767726089 S
atom -0.0000000000004047 2.5216625893243121 7.3487287839785198 S
atom 5.0433251786491642 2.5216625893242037 7.3487287839786335 S
atom -0.0000000000003904 7.5649877679737703 7.3487287839787481 S
atom 5.0433251786491544 7.5649877679738777 7.3487287839784408 S
atom -0.0081728279784892 -0.0000000000005418 9.8362500170768072 Ba
atom 5.0514980066272015 -0.0000000000004001 9.8362500170767504 Ba
atom 0.0081728279777697 5.0433251786491242 9.8362500170767202 Ba
atom 5.0351523506710540 5.0433251786489901 9.8362500170768161 Ba
atom 0.0085267790964696 -0.0000000000004335 14.7688819372343403 Ba
atom 5.0347983995521748 -0.0000000000005610 14.7688819372343332 Ba
atom -0.0085267790973254 5.0433251786490096 14.7688819372342159 Ba
atom 5.0518519577461376 5.0433251786491722 14.7688819372343083 Ba
atom 2.5216625893243974 2.5228854276165684 12.2903270323471432 Zr
atom 7.5649877679739248 2.5204397510320620 12.2903270323472409 Zr
atom 2.5216625893243960 7.5637649296815699 12.2903270323470934 Zr
atom 7.5649877679739310 7.5662106062660781 12.2903270323473652 Zr
atom 2.5216625893243831 2.5228854276165515 17.2474368421214130 Zr
atom 7.5649877679739062 2.5204397510320660 17.2474368421214663 Zr
atom 2.5216625893243760 7.5637649296815965 17.2474368421213882 Zr
atom 7.5649877679739097 7.5662106062660657 17.2474368421215409 Zr
atom 2.5216625893243458 3.0299134032691115 9.8172096742868842 S
atom 7.5649877679739879 2.0134117753794292 9.8172096742868398 S
atom 2.5216625893245381 7.0567369540289651 9.8172096742868558 S
atom 7.5649877679737827 8.0732385819187371 9.8172096742867154 S
atom 2.5216625893244076 2.0126312189965820 14.7688819372343367 S
atom 7.5649877679739079 3.0306939596519782 14.7688819372343758 S
atom 2.5216625893242006 8.0740191383015141 14.7688819372343616 S
atom 7.5649877679741309 7.0559563976461614 14.7688819372343954 S
atom 2.5216625893244267 -0.0000000000004752 11.8182332606805574 S
atom 7.5649877679739230 -0.0000000000005058 12.7742593988864108 S
atom 2.5216625893243831 5.0433251786491171 12.7742593988863629 S
atom 7.5649877679739967 5.0433251786490727 11.8182332606805378 S
atom 2.5216625893244595 -0.0000000000004081 17.7195306137879456 S
atom 7.5649877679738724 -0.0000000000004450 16.7635044755821383 S
atom 2.5216625893242997 5.0433251786489679 16.7635044755820886 S
atom 7.5649877679739950 5.0433251786490665 17.7195306137879243 S
atom -0.0000000000003633 2.5216625893242708 12.2962774296633164 S
atom 5.0433251786491562 2.5216625893243214 12.2962774296631849 S
atom -0.0000000000003912 7.5649877679738866 12.2962774296629664 S
atom 5.0433251786491606 7.5649877679738173 12.2962774296633857 S
atom -0.0000000000004004 2.5216625893242024 17.2414864448052896 S
atom 5.0433251786491651 2.5216625893243672 17.2414864448053535 S
atom -0.0000000000003783 7.5649877679739115 17.2414864448054637 S
atom 5.0433251786491313 7.5649877679737498 17.2414864448050871 S
atom -0.0081728279786159 -0.0000000000005559 19.7015138573917348 Ba
atom 5.0514980066272948 -0.0000000000004642 19.7015138573918946 Ba
atom 0.0081728279777279 5.0433251786491118 19.7015138573918804 Ba
atom 5.0351523506710976 5.0433251786490141 19.7015138573917987 Ba
atom 0.0280893983063925 -0.0000000000005023 24.5923318620163762 Ba
atom 5.0152357803423850 -0.0000000000005330 24.5923318620163762 Ba
atom -0.0280893983070541 5.0433251786490034 24.5923318620163265 Ba
atom 5.0714145769558723 5.0433251786490345 24.5923318620163585 Ba
atom 2.5216625893244058 2.5205156945056437 22.2057450289935225 Zr
atom 7.5649877679739186 2.5228094841428566 22.2057450289935332 Zr
atom 2.5216625893244262 7.5661346627923765 22.2057450289935794 Zr
atom 7.5649877679738982 7.5638408731552351 22.2057450289932632 Zr
atom 2.5216625893243716 2.5089919973449963 27.2168082295030658 Zr
atom 7.5649877679738715 2.5343331813034240 27.2168082295031937 Zr
atom 2.5216625893243556 7.5776583599529559 27.2168082295031120 Zr
atom 7.5649877679738893 7.5523171759945811 27.2168082295031439 Zr
atom 2.5216625893243640 3.0299134032690698 19.7205542001818266 S
atom 7.5649877679739443 2.0134117753794523 19.7205542001817697 S
atom 2.5216625893245137 7.0567369540289544 19.7205542001815957 S
atom 7.5649877679737889 8.0732385819186288 19.7205542001818834 S
atom 2.5216625893243743 2.0478099976291477 24.6753557551368381 S
atom 7.5649877679739115 2.9955151810193228 24.6753557551366285 S
atom 2.5216625893242921 8.0388403596688427 24.6753557551366711 S
atom 7.5649877679740083 7.0911351762787396 24.6753557551363905 S
atom 2.5216625893242619 -0.0000000000003978 21.7275852508762206 S
atom 7.5649877679740136 -0.0000000000005008 22.6623563769372467 S
atom 2.5216625893244431 5.0433251786491118 22.6623563769371614 S
atom 7.5649877679738653 5.0433251786490514 21.7275852508763663 S
atom 2.5216625893243441 -0.0000000000005939 27.5324252267179368 S
atom 7.5649877679739328 -0.0000000000006446 26.7396045856229208 S
atom 2.5216625893243760 5.0433251786490603 26.7396045856228639 S
atom 7.5649877679738973 5.0433251786490301 27.5324252267179865 S
atom -0.0000000000003623 2.5216625893243418 22.1890350904899769 S
atom 5.0433251786491224 2.5216625893241438 22.1890350904899734 S
atom -0.0000000000004181 7.5649877679736859 22.1890350904898526 S
atom 5.0433251786491917 7.5649877679738813 22.1890350904900764 S
atom -0.0000000000004804 2.5216625893242184 27.0817131976959615 S
atom 5.0433251786492086 2.5216625893242122 27.0817131976960006 S
atom -0.0000000000004605 7.5649877679737774 27.0817131976960184 S
atom 5.0433251786491686 7.5649877679737738 27.0817131976959047 S
atom -0.1539900013727719 -0.0000000000005626 29.2568897635845637 Ba
atom 5.1973151800214623 -0.0000000000005598 29.2568897635845389 Ba
atom 0.1539900013719445 5.0433251786489679 29.2568897635845389 Ba
atom 4.8893351772767257 5.0433251786489590 29.2568897635845531 Ba
atom 2.5216625893243325 2.8764450844293399 29.6976546100653920 S
atom 7.5649877679738928 2.1668800942190711 29.6976546100654204 S
atom 2.5216625893243725 7.2102052728686097 29.6976546100652747 S
atom 7.5649877679738582 7.9197702630788713 29.6976546100655945 S
atom 2.5216625893242646 2.3676725879517249 32.7724143728018475 Ba
atom 7.5649877679738058 2.6756525906964317 32.7724143728019328 Ba
atom 2.5216625893242388 7.7189777693460107 32.7724143728018120 Ba
atom 7.5649877679738182 7.4109977666012625 32.7724143728017765 Ba
atom 2.5216625893242774 2.5497519876306316 37.4369722743696300 Ba
atom 7.5649877679737001 2.4935731910173549 37.4369722743696443 Ba
atom 2.5216625893241775 7.5368983696669334 37.4369722743696016 Ba
atom 7.5649877679738520 7.5930771662802448 37.4369722743696940 Ba
atom 5.0306545866698480 5.0433251786488942 34.8124959068825746 Zr
atom 10.0993209492777947 5.0433251786488720 34.8124959068826101 Zr
atom 5.0559957706282264 10.0866503572983213 34.8124959068826954 Zr
atom 10.0739797653193754 10.0866503572983461 34.8124959068824040 Zr
atom 5.0421782838304283 5.0433251786487530 39.8235591073927253 Zr
atom 10.0877972521172232 5.0433251786487965 39.8235591073924837 Zr
atom 5.0444720734675697 10.0866503572983586 39.8235591073924837 Zr
atom 10.0855034624799753 10.0866503572983017 39.8235591073926543 Zr
atom 5.3981076737540956 5.0433251786487840 32.3316495263201276 S
atom 9.7318678621934946 5.0433251786489297 32.3316495263203265 S
atom 4.6885426835439814 10.0866503572984865 32.3316495263201489 S
atom 10.4414328524036772 10.0866503572983497 32.3316495263202270 S
atom 4.5694725869538493 5.0433251786489324 37.3539483812494097 S
atom 10.5605029489936939 5.0433251786486473 37.3539483812489550 S
atom 5.5171777703441762 10.0866503572982342 37.3539483812492605 S
atom 9.6127977656034034 10.0866503572985362 37.3539483812488342 S
atom 5.0433251786490292 2.5216625893240985 34.9475909386903396 S
atom 10.0866503572985895 2.5216625893240847 34.9475909386900696 S
atom 5.0433251786490345 7.5649877679735837 34.9475909386900057 S
atom 10.0866503572985646 7.5649877679735971 34.9475909386903965 S
atom 5.0433251786489359 2.5216625893240816 39.8402690458957807 S
atom 10.0866503572986055 2.5216625893240976 39.8402690458962283 S
atom 5.0433251786490798 7.5649877679734825 39.8402690458961715 S
atom 10.0866503572984705 7.5649877679734665 39.8402690458957665 S
atom 2.5216625893242717 5.0433251786488400 34.4968789096681760 S
atom 7.5649877679736885 5.0433251786488302 35.2896995507634230 S
atom 2.5216625893242695 10.0866503572984083 35.2896995507634657 S
atom 7.5649877679738031 10.0866503572984065 34.4968789096681832 S
atom 2.5216625893240332 5.0433251786488666 40.3017188855097288 S
atom 7.5649877679737978 5.0433251786487681 39.3669477594488626 S
atom 2.5216625893239479 10.0866503572983159 39.3669477594486708 S
atom 7.5649877679740118 10.0866503572984083 40.3017188855096506 S
atom 2.5216625893240869 2.5134897613458391 42.3277902789941010 Ba
atom 7.5649877679738848 2.5298354173020465 42.3277902789942715 Ba
atom 2.5216625893243338 7.5731605959516726 42.3277902789942786 Ba
atom 7.5649877679735793 7.5568149399953883 42.3277902789940370 Ba
atom 2.5216625893243632 2.5301893684211665 47.2604221991516056 Ba
atom 7.5649877679735837 2.5131358102270820 47.2604221991518543 Ba
atom 2.5216625893239843 7.5564609888766183 47.2604221991517477 Ba
atom 7.5649877679739230 7.5735145470706282 47.2604221991516411 Ba
atom 5.0445480169412864 5.0433251786487343 44.7818672942649272 Zr
atom 10.0854275190062896 5.0433251786487423 44.7818672942651048 Zr
atom 5.0421023403567586 10.0866503572983746 44.7818672942647567 Zr
atom 10.0878731955907845 10.0866503572983515 44.7818672942648419 Zr
atom 5.0445480169411390 5.0433251786487610 49.7389771040384261 Zr
atom 10.0854275190062790 5.0433251786487698 49.7389771040387316 Zr
atom 5.0421023403567427 10.0866503572983106 49.7389771040386890 Zr
atom 10.0878731955907224 10.0866503572983124 49.7389771040386037 Zr
atom 5.5515759925938601 5.0433251786484954 42.3087499362047410 S
atom 9.5783995433537168 5.0433251786489670 42.3087499362045278 S
atom 4.5350743647041512 10.0866503572985682 42.3087499362044923 S
atom 10.5949011712433840 10.0866503572981188 42.3087499362055013 S
atom 4.5342938083214310 5.0433251786490727 47.2604221991515203 S
atom 10.5956817276261770 5.0433251786485176 47.2604221991521314 S
atom 5.5523565489765501 10.0866503572979749 47.2604221991521598 S
atom 9.5776189869709469 10.0866503572985451 47.2604221991508098 S
atom 5.0433251786491748 2.5216625893238702 44.7878176915808126 S
atom 10.0866503572983977 2.5216625893241393 44.7878176915802939 S
atom 5.0433251786488471 7.5649877679736477 44.7878176915800807 S
atom 10.0866503572987316 7.5649877679733777 44.7878176915808268 S
atom 5.0433251786494822 2.5216625893240217 49.7330267067224412 S
atom 10.0866503572980584 2.5216625893236504 49.7330267067231730 S
atom 5.0433251786485016 7.5649877679734745 49.7330267067231162 S
atom 10.0866503572990069 7.5649877679738715 49.7330267067225407 S
atom 2.5216625893241766 5.0433251786485931 44.3097735225978298 S
atom 7.5649877679734079 5.0433251786488693 45.2657996608036370 S
atom 2.5216625893244595 10.0866503572984829 45.2657996608035376 S
atom 7.5649877679731903 10.0866503572981330 44.3097735225979079 S
atom 2.5216625893240776 5.0433251786483222 50.2110708757055093 S
atom 7.5649877679737951 5.0433251786491420 49.2550447374996736 S
atom 2.5216625893238240 10.0866503572987085 49.2550447374995457 S
atom 7.5649877679740980 10.0866503572978878 50.2110708757054311 S
atom 2.5216625893240283 2.5134897613458089 52.1930541193094086 Ba
atom 7.5649877679739364 2.5298354173020137 52.1930541193089681 Ba
atom 2.5216625893242921 7.5731605959516548 52.1930541193089113 Ba
atom 7.5649877679736273 7.5568149399953413 52.1930541193094228 Ba
atom 2.5216625893242766 2.5497519876305987 57.0838721239338511 Ba
atom 7.5649877679736814 2.4935731910173184 57.0838721239339364 Ba
atom 2.5216625893241660 7.5368983696668153 57.0838721239338582 Ba
atom 7.5649877679738200 7.5930771662801124 57.0838721239339080 Ba
atom 5.0421782838303439 5.0433251786486979 54.6972852909107985 Zr
atom 10.0877972521170864 5.0433251786487396 54.6972852909105782 Zr
atom 5.0444720734675457 10.0866503572983195 54.6972852909106635 Zr
atom 10.0855034624799398 10.0866503572982555 54.6972852909105711 Zr
atom 5.0306545866697503 5.0433251786488178 59.7083484914209777 Zr
atom 10.0993209492777574 5.0433251786488311 59.7083484914211553 Zr
atom 5.0559957706281615 10.0866503572983621 59.7083484914211908 Zr
atom 10.0739797653193737 10.0866503572983355 59.7083484914209137 Zr
atom 5.5515759925938344 5.0433251786484670 52.2120944620987686 S
atom 9.5783995433537026 5.0433251786489581 52.2120944620987757 S
atom 4.5350743647041298 10.0866503572985806 52.2120944620988467 S
atom 10.5949011712433894 10.0866503572981134 52.2120944620994791 S
atom 4.5694725869538386 5.0433251786489510 57.1668960170549099 S
atom 10.5605029489936992 5.0433251786486473 57.1668960170538085 S
atom 5.5171777703441869 10.0866503572981490 57.1668960170538085 S
atom 9.6127977656033146 10.0866503572984847 57.1668960170542064 S
atom 5.0433251786487512 2.5216625893241540 54.6805753524078426 S
atom 10.0866503572988044 2.5216625893241651 54.6805753524072813 S
atom 5.0433251786492592 7.5649877679733599 54.6805753524071818 S
atom 10.0866503572982875 7.5649877679733599 54.6805753524076863 S
atom 5.0433251786489777 2.5216625893238249 59.5732534596132339 S
atom 10.0866503572985788 2.5216625893240736 59.5732534596133689 S
atom 5.0433251786490043 7.5649877679737907 59.5732534596134045 S
atom 10.0866503572985522 7.5649877679735669 59.5732534596132695 S
atom 2.5216625893245141 5.0433251786490256 54.2191255127937382 S
atom 7.5649877679734576 5.0433251786486064 55.1538966388547820 S
atom 2.5216625893243370 10.0866503572982076 55.1538966388547252 S
atom 7.5649877679736210 10.0866503572985611 54.2191255127937524 S
atom 2.5216625893240492 5.0433251786488178 60.0239654886353051 S
atom 7.5649877679739399 5.0433251786487752 59.2311448475400297 S
atom 2.5216625893241278 10.0866503572983266 59.2311448475400368 S
atom 7.5649877679737969 10.0866503572984119 60.0239654886353122 S
atom 2.5216625893242801 2.3676725879517573 61.7484300255019463 Ba
atom 7.5649877679737578 2.6756525906963797 61.7484300255019463 Ba
atom 2.5216625893242477 7.7189777693459414 61.7484300255018468 Ba
atom 7.5649877679737791 7.4109977666012590 61.7484300255019178 Ba
atom 5.3981076737541009 5.0433251786487583 62.1891948719834318 S
atom 9.7318678621935337 5.0433251786488738 62.1891948719837160 S
atom 4.6885426835439397 10.0866503572984616 62.1891948719835810 S
atom 10.4414328524036542 10.0866503572983390 62.1891948719834957 S
