#=======================================================
# FHI-aims file: full_relax/full_relax_RP_8_Rx00_0-Ry0.in
# Created using the Atomic Simulation Environment (ASE)
# Mon Mar 24 15:56:35 2025
#=======================================================
lattice_vector 10.0790081438019037 0.0000000000000022 -0.0000000000000004 
lattice_vector 0.0000000000000022 10.0790081438019037 0.0000000000000000 
lattice_vector -0.0000000000000038 0.0000000000000003 84.9204786463310626 
atom -0.1683515097709996 -0.0000000000004239 0.2889857617320678 Ba
atom 5.2078555816711312 -0.0000000000004048 0.2889857617320313 Ba
atom 0.1683515097701280 5.0395040719004891 0.2889857617322184 Ba
atom 4.8711525621298932 5.0395040719004767 0.2889857617321544 Ba
atom 0.0263144775345045 -0.0000000000004702 4.9618871697382803 Ba
atom 5.0131895943658105 -0.0000000000002902 4.9618871697382607 Ba
atom -0.0263144775352930 5.0395040719006072 4.9618871697383042 Ba
atom 5.0658185494352921 5.0395040719004616 4.9618871697382314 Ba
atom 2.5197520359500554 2.4979624322494747 2.3388385193948724 Zr
atom 7.5592561078510121 2.5415416396505464 2.3388385193948720 Zr
atom 2.5197520359500647 7.5810457115515355 2.3388385193948529 Zr
atom 7.5592561078509872 7.5374665041504905 2.3388385193948480 Zr
atom 2.5197520359500842 2.5189125159082466 7.3540548454638568 Zr
atom 7.5592561078510077 2.5205915559919077 7.3540548454638239 Zr
atom 2.5197520359500496 7.5600956278928493 7.3540548454639358 Zr
atom 7.5592561078510219 7.5584165878091865 7.3540548454639039 Zr
atom 2.5197520359500554 2.8056811950505720 -0.1400967898720087 S
atom 7.5592561078509704 2.2338228768494437 -0.1400967898719543 S
atom 2.5197520359498928 7.2733269487503973 -0.1400967898720731 S
atom 7.5592561078511524 7.8451852669515993 -0.1400967898720283 S
atom 2.5197520359500336 2.0541286320306593 4.8839740134115122 S
atom 7.5592561078510352 2.9853754398694918 4.8839740134115397 S
atom 2.5197520359503947 8.0248795117704521 4.8839740134116081 S
atom 7.5592561078506915 7.0936327039315792 4.8839740134116214 S
atom 2.5197520359500505 -0.0000000000004627 2.0404355603928019 S
atom 7.5592561078510148 -0.0000000000004407 2.7808896572373589 S
atom 2.5197520359500611 5.0395040719005362 2.7808896572373940 S
atom 7.5592561078509872 5.0395040719005451 2.0404355603927735 S
atom 2.5197520359500665 -0.0000000000003739 7.8311132571885063 S
atom 7.5592561078510325 -0.0000000000003679 6.8957536254225635 S
atom 2.5197520359501033 5.0395040719005353 6.8957536254225786 S
atom 7.5592561078509997 5.0395040719005779 7.8311132571884814 S
atom -0.0000000000004219 2.5197520359500545 2.4778682555575422 S
atom 5.0395040719005317 2.5197520359500376 2.4778682555575950 S
atom -0.0000000000004205 7.5592561078509757 2.4778682555577962 S
atom 5.0395040719005300 7.5592561078510121 2.4778682555572966 S
atom -0.0000000000004047 2.5197520359500944 7.3737522207582273 S
atom 5.0395040719005468 2.5197520359500620 7.3737522207580204 S
atom -0.0000000000004134 7.5592561078510050 7.3737522207576065 S
atom 5.0395040719005531 7.5592561078510405 7.3737522207585497 S
atom -0.0069254466559550 -0.0000000000002325 9.8594261574173157 Ba
atom 5.0464295185562511 -0.0000000000005732 9.8594261574173512 Ba
atom 0.0069254466551114 5.0395040719004083 9.8594261574173565 Ba
atom 5.0325786252447839 5.0395040719007689 9.8594261574172712 Ba
atom 0.0067960695112079 -0.0000000000005643 14.8009035182000339 Ba
atom 5.0327080023891329 -0.0000000000001434 14.8009035181997533 Ba
atom -0.0067960695119544 5.0395040719008231 14.8009035181997621 Ba
atom 5.0463001414119644 5.0395040719003470 14.8009035182000463 Ba
atom 2.5197520359500722 2.5213944223557130 12.3135717540462917 Zr
atom 7.5592561078510370 2.5181096495444901 12.3135717540462988 Zr
atom 2.5197520359500838 7.5576137214454313 12.3135717540463236 Zr
atom 7.5592561078510201 7.5608984942566568 12.3135717540462615 Zr
atom 2.5197520359501140 2.5194577660381507 17.2707610421009967 Zr
atom 7.5592561078510734 2.5200463058620457 17.2707610421009861 Zr
atom 2.5197520359501211 7.5595503777629940 17.2707610421009079 Zr
atom 7.5592561078510689 7.5589618379391119 17.2707610421009292 Zr
atom 2.5197520359501833 3.0274944417712204 9.8409213362809762 S
atom 7.5592561078509455 2.0120096301289601 9.8409213362809229 S
atom 2.5197520359496077 7.0515137020299301 9.8409213362809993 S
atom 7.5592561078515077 8.0669985136721216 9.8409213362809798 S
atom 2.5197520359499341 2.0107511229809107 14.7945304725595737 S
atom 7.5592561078512421 3.0287529489193146 14.7945304725595381 S
atom 2.5197520359506163 8.0682570208202815 14.7945304725595452 S
atom 7.5592561078505227 7.0502551948818022 14.7945304725594280 S
atom 2.5197520359499728 -0.0000000000003692 11.8418339435548443 S
atom 7.5592561078512270 -0.0000000000003310 12.8019413786265748 S
atom 2.5197520359502787 5.0395040719005877 12.8019413786265570 S
atom 7.5592561078508860 5.0395040719005948 11.8418339435548443 S
atom 2.5197520359503316 -0.0000000000003633 17.7538367745336956 S
atom 7.5592561078508211 -0.0000000000003342 16.7917604576819279 S
atom 2.5197520359498409 5.0395040719006268 16.7917604576819706 S
atom 7.5592561078512963 5.0395040719006134 17.7538367745337027 S
atom -0.0000000000003745 2.5197520359503014 12.3219448595346801 S
atom 5.0395040719005628 2.5197520359499097 12.3219448595350567 S
atom -0.0000000000003633 7.5592561078508531 12.3219448595354848 S
atom 5.0395040719005459 7.5592561078512430 12.3219448595342733 S
atom -0.0000000000003729 2.5197520359498231 17.2723480674778038 S
atom 5.0395040719006001 2.5197520359504120 17.2723480674771750 S
atom -0.0000000000003723 7.5592561078513452 17.2723480674769156 S
atom 5.0395040719005912 7.5592561078507696 17.2723480674781307 S
atom -0.0061642334031982 -0.0000000000001547 19.7489485224040386 Ba
atom 5.0456683053036482 -0.0000000000005673 19.7489485224041061 Ba
atom 0.0061642334026179 5.0395040719003745 19.7489485224041168 Ba
atom 5.0333398384976471 5.0395040719008133 19.7489485224040280 Ba
atom 0.0067960695112472 -0.0000000000004950 24.6969935266081961 Ba
atom 5.0327080023891142 -0.0000000000001684 24.6969935266083382 Ba
atom -0.0067960695118881 5.0395040719007325 24.6969935266083240 Ba
atom 5.0463001414121713 5.0395040719003994 24.6969935266081997 Ba
atom 2.5197520359501566 2.5194577660381339 22.2271360027074003 Zr
atom 7.5592561078510876 2.5200463058620826 22.2271360027073648 Zr
atom 2.5197520359501402 7.5595503777630313 22.2271360027073897 Zr
atom 7.5592561078511125 7.5589618379390711 22.2271360027074856 Zr
atom 2.5197520359501056 2.5213944223556939 27.1843252907619934 Zr
atom 7.5592561078510823 2.5181096495444781 27.1843252907619544 Zr
atom 2.5197520359501238 7.5576137214453949 27.1843252907620929 Zr
atom 7.5592561078510654 7.5608984942566417 27.1843252907620254 Zr
atom 2.5197520359503627 3.0292146897273562 19.7489485224041452 S
atom 7.5592561078508327 2.0102893821728642 19.7489485224042163 S
atom 2.5197520359496779 7.0497934540738463 19.7489485224041665 S
atom 7.5592561078515130 8.0687187616282614 19.7489485224041879 S
atom 2.5197520359499253 2.0107511229810324 24.7033665722487470 S
atom 7.5592561078512626 3.0287529489192129 24.7033665722486795 S
atom 2.5197520359504297 8.0682570208201714 24.7033665722487292 S
atom 7.5592561078507563 7.0502551948819461 24.7033665722487505 S
atom 2.5197520359501491 -0.0000000000003308 21.7440602702743604 S
atom 7.5592561078510645 -0.0000000000003623 22.7061365871260712 S
atom 2.5197520359501433 5.0395040719005380 22.7061365871260570 S
atom 7.5592561078510663 5.0395040719005975 21.7440602702743142 S
atom 2.5197520359499279 -0.0000000000003744 27.6560631012534586 S
atom 7.5592561078512306 -0.0000000000003575 26.6959556661817672 S
atom 2.5197520359502827 5.0395040719006454 26.6959556661817743 S
atom 7.5592561078508860 5.0395040719005930 27.6560631012534621 S
atom -0.0000000000003524 2.5197520359501153 22.2255489773301775 S
atom 5.0395040719006241 2.5197520359501171 22.2255489773307779 S
atom -0.0000000000003389 7.5592561078510636 22.2255489773309982 S
atom 5.0395040719006134 7.5592561078510663 22.2255489773300141 S
atom -0.0000000000004094 2.5197520359503085 27.1759521852736121 S
atom 5.0395040719006294 2.5197520359499075 27.1759521852732320 S
atom -0.0000000000003857 7.5592561078508425 27.1759521852731112 S
atom 5.0395040719006117 7.5592561078512421 27.1759521852736867 S
atom -0.0069254466560110 -0.0000000000002704 29.6384708873911791 Ba
atom 5.0464295185562120 -0.0000000000004862 29.6384708873909624 Ba
atom 0.0069254466552533 5.0395040719004713 29.6384708873910050 Ba
atom 5.0325786252448834 5.0395040719006792 29.6384708873910974 Ba
atom 0.0263144775343425 -0.0000000000004368 34.5360098750703912 Ba
atom 5.0131895943657261 -0.0000000000003265 34.5360098750703841 Ba
atom -0.0263144775351313 5.0395040719005921 34.5360098750705689 Ba
atom 5.0658185494351864 5.0395040719005060 34.5360098750703912 Ba
atom 2.5197520359500696 2.5189125159082604 32.1438421993445544 Zr
atom 7.5592561078510103 2.5205915559918997 32.1438421993444905 Zr
atom 2.5197520359500611 7.5600956278928644 32.1438421993446113 Zr
atom 7.5592561078510263 7.5584165878091998 32.1438421993444692 Zr
atom 2.5197520359500434 2.4979624322495706 37.1590585254140535 Zr
atom 7.5592561078509961 2.5415416396505619 37.1590585254140606 Zr
atom 2.5197520359500505 7.5810457115515018 37.1590585254140322 Zr
atom 7.5592561078509792 7.5374665041505091 37.1590585254140393 Zr
atom 2.5197520359502423 3.0274944417710374 29.6569757085271917 S
atom 7.5592561078508806 2.0120096301291328 29.6569757085272379 S
atom 2.5197520359498946 7.0515137020300980 29.6569757085273658 S
atom 7.5592561078512475 8.0669985136720008 29.6569757085272450 S
atom 2.5197520359499630 2.0541286320308045 34.6139230313970643 S
atom 7.5592561078511009 2.9853754398694039 34.6139230313969080 S
atom 2.5197520359502028 8.0248795117703242 34.6139230313969577 S
atom 7.5592561078508638 7.0936327039316707 34.6139230313969932 S
atom 2.5197520359502366 -0.0000000000003503 31.6667837876202789 S
atom 7.5592561078509108 -0.0000000000004051 32.6021434193861666 S
atom 2.5197520359499501 5.0395040719005184 32.6021434193860813 S
atom 7.5592561078511507 5.0395040719006241 31.6667837876202007 S
atom 2.5197520359500403 -0.0000000000004197 37.4574614844160365 S
atom 7.5592561078510023 -0.0000000000004284 36.7170073875715062 S
atom 2.5197520359500643 5.0395040719005459 36.7170073875715843 S
atom 7.5592561078509917 5.0395040719005397 37.4574614844159868 S
atom -0.0000000000003756 2.5197520359499332 32.1241448240503971 S
atom 5.0395040719005184 2.5197520359502570 32.1241448240506955 S
atom -0.0000000000003597 7.5592561078511835 32.1241448240508518 S
atom 5.0395040719005113 7.5592561078508762 32.1241448240503686 S
atom -0.0000000000004554 2.5197520359500811 37.0200287892514055 S
atom 5.0395040719005477 2.5197520359500634 37.0200287892513344 S
atom -0.0000000000004304 7.5592561078510014 37.0200287892513558 S
atom 5.0395040719005157 7.5592561078510192 37.0200287892515405 S
atom -0.1683515097710236 -0.0000000000004184 39.2089112830773772 Ba
atom 5.2078555816710468 -0.0000000000003991 39.2089112830773914 Ba
atom 0.1683515097701215 5.0395040719005308 39.2089112830775690 Ba
atom 4.8711525621299936 5.0395040719005211 39.2089112830774553 Ba
atom 2.5197520359501175 2.8056811950507061 39.6379938346812324 S
atom 7.5592561078508913 2.2338228768494113 39.6379938346813532 S
atom 2.5197520359499905 7.2733269487503325 39.6379938346811898 S
atom 7.5592561078510290 7.8451852669516402 39.6379938346813603 S
atom 2.5197520359499541 2.6881035457205509 42.7492250848976809 Ba
atom 7.5592561078509029 2.3514005261794702 42.7492250848975885 Ba
atom 2.5197520359499488 7.3909045980803398 42.7492250848976738 Ba
atom 7.5592561078509153 7.7276076176214819 42.7492250848976028 Ba
atom 2.5197520359498990 2.4934375584153177 47.4221264929043826 Ba
atom 7.5592561078508576 2.5460665134847313 47.4221264929040771 Ba
atom 2.5197520359499666 7.5855705853856916 47.4221264929042476 Ba
atom 7.5592561078508593 7.5329416303163574 47.4221264929042832 Ba
atom 5.0612936756009201 5.0395040719004678 44.7990778425603722 Zr
atom 10.0572185401008749 5.0395040719004722 44.7990778425603011 Zr
atom 5.0177144681999364 10.0790081438014063 44.7990778425604503 Zr
atom 10.1007977475018578 10.0790081438014223 44.7990778425603295 Zr
atom 5.0403435919422064 5.0395040719004207 49.8142941686303189 Zr
atom 10.0781686237595220 5.0395040719004260 49.8142941686303260 Zr
atom 5.0386645518585347 10.0790081438013583 49.8142941686303402 Zr
atom 10.0798476638431449 10.0790081438013921 49.8142941686302834 Zr
atom 4.7535749127998193 5.0395040719004704 42.3201425332931223 S
atom 10.3649373029020140 5.0395040719004127 42.3201425332930015 S
atom 5.3254332310010613 10.0790081438013726 42.3201425332932430 S
atom 9.7930789847007382 10.0790081438014774 42.3201425332931294 S
atom 5.5051274758198216 5.0395040719004349 47.3442133365774467 S
atom 9.6133847398819334 5.0395040719004962 47.3442133365774183 S
atom 4.5738806679809771 10.0790081438013992 47.3442133365778517 S
atom 10.5446315477207353 10.0790081438013157 47.3442133365777451 S
atom 5.0395040719004873 2.5197520359499341 44.9381075787235176 S
atom 10.0790081438013086 2.5197520359499137 44.9381075787235602 S
atom 5.0395040719003932 7.5592561078509721 44.9381075787235886 S
atom 10.0790081438013726 7.5592561078509952 44.9381075787235034 S
atom 5.0395040718999926 2.5197520359499639 49.8339915439243200 S
atom 10.0790081438017136 2.5197520359500012 49.8339915439240286 S
atom 5.0395040719007698 7.5592561078508673 49.8339915439240571 S
atom 10.0790081438009107 7.5592561078508451 49.8339915439243129 S
atom 2.5197520359499364 5.0395040719004198 45.2411289804035377 S
atom 7.5592561078508931 5.0395040719004678 44.5006748835589647 S
atom 2.5197520359499199 10.0790081438014205 44.5006748835587942 S
atom 7.5592561078509179 10.0790081438013441 45.2411289804033956 S
atom 2.5197520359499208 5.0395040719007094 49.3559929485886428 S
atom 7.5592561078508211 5.0395040719000699 50.2913525803544985 S
atom 2.5197520359499492 10.0790081438010048 50.2913525803544630 S
atom 7.5592561078508842 10.0790081438017385 49.3559929485885860 S
atom 2.5197520359499528 2.5266774826053946 52.3196654805835948 Ba
atom 7.5592561078507972 2.5128265892941712 52.3196654805837014 Ba
atom 2.5197520359498693 7.5523306611951933 52.3196654805837227 Ba
atom 7.5592561078509037 7.5661815545064064 52.3196654805836019 Ba
atom 2.5197520359498262 2.5129559664382790 57.2611428413661017 Ba
atom 7.5592561078508771 2.5265481054615289 57.2611428413667767 Ba
atom 2.5197520359499523 7.5660521773622875 57.2611428413667909 Ba
atom 7.5592561078508034 7.5524600383391309 57.2611428413661798 Ba
atom 5.0378616854947600 5.0395040719003363 54.7738110772129900 Zr
atom 10.0806505302068761 5.0395040719003745 54.7738110772131321 Zr
atom 5.0411464583059988 10.0790081438012837 54.7738110772127484 Zr
atom 10.0773657573956950 10.0790081438013157 54.7738110772128124 Zr
atom 5.0397983418123271 5.0395040719003417 59.7310003652671995 Zr
atom 10.0787138738893187 5.0395040719003514 59.7310003652671853 Zr
atom 5.0392098019883615 10.0790081438012766 59.7310003652671497 Zr
atom 10.0793024137132754 10.0790081438013228 59.7310003652671853 Zr
atom 4.5317616660793485 5.0395040719004802 52.3011606594477882 S
atom 10.5867505496223533 5.0395040719003266 52.3011606594477669 S
atom 5.5472464777213668 10.0790081438012820 52.3011606594475538 S
atom 9.5712657379803314 10.0790081438014383 52.3011606594475964 S
atom 5.5485049848693766 5.0395040719003337 57.2547697957261477 S
atom 9.5700072308322675 5.0395040719004989 57.2547697957261406 S
atom 4.5305031589313156 10.0790081438013601 57.2547697957259345 S
atom 10.5880090567703853 10.0790081438011665 57.2547697957259629 S
atom 5.0395040719000965 2.5197520359498937 54.7821841827011227 S
atom 10.0790081438015484 2.5197520359499084 54.7821841827012577 S
atom 5.0395040719005797 7.5592561078508576 54.7821841827011937 S
atom 10.0790081438010777 7.5592561078508771 54.7821841827010161 S
atom 5.0395040719009021 2.5197520359498573 59.7325873906444116 S
atom 10.0790081438007313 2.5197520359498724 59.7325873906439426 S
atom 5.0395040718998088 7.5592561078508105 59.7325873906441558 S
atom 10.0790081438018326 7.5592561078508114 59.7325873906443974 S
atom 2.5197520359498706 5.0395040719006552 55.2621807017927651 S
atom 7.5592561078508078 5.0395040719002324 54.3020732667210808 S
atom 2.5197520359498728 10.0790081438012447 54.3020732667212229 S
atom 7.5592561078508069 10.0790081438015644 55.2621807017928077 S
atom 2.5197520359498604 5.0395040718998381 59.2519997808486778 S
atom 7.5592561078509135 5.0395040719007920 60.2140760977003566 S
atom 2.5197520359498555 10.0790081438016816 60.2140760977003495 S
atom 7.5592561078509144 10.0790081438008343 59.2519997808486565 S
atom 2.5197520359499457 2.5259162693529178 62.2091878455707956 Ba
atom 7.5592561078507989 2.5135878025470761 62.2091878455703906 Ba
atom 2.5197520359497454 7.5530918744478459 62.2091878455704190 Ba
atom 7.5592561078509641 7.5654203412538710 62.2091878455708951 Ba
atom 2.5197520359497556 2.5129559664382279 67.1572328497751414 Ba
atom 7.5592561078508984 2.5265481054613952 67.1572328497747151 Ba
atom 2.5197520359500558 7.5660521773622307 67.1572328497747719 Ba
atom 7.5592561078507270 7.5524600383395502 67.1572328497746582 Ba
atom 5.0397983418122569 5.0395040719003408 64.6873753258734894 Zr
atom 10.0787138738894306 5.0395040719003683 64.6873753258733046 Zr
atom 5.0392098019883935 10.0790081438013264 64.6873753258737167 Zr
atom 10.0793024137132630 10.0790081438013264 64.6873753258736741 Zr
atom 5.0378616854947360 5.0395040719003088 69.6445646139285088 Zr
atom 10.0806505302069347 5.0395040719003337 69.6445646139285088 Zr
atom 5.0411464583059828 10.0790081438012464 69.6445646139285941 Zr
atom 10.0773657573957340 10.0790081438012908 69.6445646139285373 Zr
atom 4.5300414181231652 5.0395040719003878 62.2091878455701988 S
atom 10.5884707975784611 5.0395040719000868 62.2091878455701561 S
atom 5.5489667256775466 10.0790081438012216 62.2091878455704403 S
atom 9.5695454900240993 10.0790081438015289 62.2091878455704688 S
atom 5.5485049848696297 5.0395040719003967 67.1636058954151025 S
atom 9.5700072308320312 5.0395040719007573 67.1636058954147899 S
atom 4.5305031589310660 10.0790081438012145 67.1636058954152446 S
atom 10.5880090567705292 10.0790081438008094 67.1636058954151736 S
atom 5.0395040719003692 2.5197520359498569 64.6857883004971939 S
atom 10.0790081438012731 2.5197520359498586 64.6857883004977765 S
atom 5.0395040719003896 7.5592561078508123 64.6857883004971939 S
atom 10.0790081438012287 7.5592561078508220 64.6857883004968528 S
atom 5.0395040719001694 2.5197520359498089 69.6361915084398646 S
atom 10.0790081438014809 2.5197520359497534 69.6361915084391541 S
atom 5.0395040719005459 7.5592561078508345 69.6361915084398788 S
atom 10.0790081438011008 7.5592561078508931 69.6361915084404899 S
atom 2.5197520359499084 5.0395040719002333 65.1663759102930555 S
atom 7.5592561078507723 5.0395040719002626 64.2042995934412914 S
atom 2.5197520359499741 10.0790081438012624 64.2042995934411636 S
atom 7.5592561078507909 10.0790081438013086 65.1663759102927145 S
atom 2.5197520359499324 5.0395040719005211 69.1561949893482080 S
atom 7.5592561078508442 5.0395040719001356 70.1163024244198141 S
atom 2.5197520359498680 10.0790081438011523 70.1163024244198994 S
atom 7.5592561078508949 10.0790081438013726 69.1561949893480659 S
atom 2.5197520359500865 2.5266774826052432 72.0987102105577122 Ba
atom 7.5592561078507066 2.5128265892942800 72.0987102105575417 Ba
atom 2.5197520359497836 7.5523306611950245 72.0987102105576554 Ba
atom 7.5592561078509606 7.5661815545065689 72.0987102105572717 Ba
atom 2.5197520359498271 2.4934375584151023 76.9962491982364696 Ba
atom 7.5592561078509526 2.5460665134850240 76.9962491982364838 Ba
atom 2.5197520359499741 7.5855705853855664 76.9962491982364838 Ba
atom 7.5592561078508496 7.5329416303160688 76.9962491982363275 Ba
atom 5.0403435919422632 5.0395040719003701 74.6040815225110947 Zr
atom 10.0781686237594492 5.0395040719003736 74.6040815225113931 Zr
atom 5.0386645518586040 10.0790081438012962 74.6040815225107394 Zr
atom 10.0798476638431218 10.0790081438013299 74.6040815225108389 Zr
atom 5.0612936756009503 5.0395040719004269 79.6192978485797056 Zr
atom 10.0572185401008110 5.0395040719004474 79.6192978485796203 Zr
atom 5.0177144681999257 10.0790081438013619 79.6192978485797198 Zr
atom 10.1007977475018720 10.0790081438013708 79.6192978485798193 Zr
atom 4.5317616660793210 5.0395040719002768 72.1172150316940446 S
atom 10.5867505496224439 5.0395040718998514 72.1172150316940872 S
atom 5.5472464777214832 10.0790081438013956 72.1172150316937888 S
atom 9.5712657379801644 10.0790081438017705 72.1172150316938882 S
atom 5.5051274758198270 5.0395040719004704 77.0741623545634553 S
atom 9.6133847398819938 5.0395040719007440 77.0741623545634127 S
atom 4.5738806679810651 10.0790081438012749 77.0741623545628016 S
atom 10.5446315477206323 10.0790081438010048 77.0741623545629011 S
atom 5.0395040719002031 2.5197520359500696 74.5843841472168236 S
atom 10.0790081438015235 2.5197520359500607 74.5843841472170936 S
atom 5.0395040719005104 7.5592561078506728 74.5843841472164826 S
atom 10.0790081438011967 7.5592561078506915 74.5843841472161131 S
atom 5.0395040719004491 2.5197520359497920 79.4802681124172352 S
atom 10.0790081438013477 2.5197520359498382 79.4802681124170363 S
atom 5.0395040719004385 7.5592561078510450 79.4802681124172921 S
atom 10.0790081438013637 7.5592561078510085 79.4802681124176189 S
atom 2.5197520359498569 5.0395040719004793 75.0623827425519323 S
atom 7.5592561078508602 5.0395040719003008 74.1270231107861264 S
atom 2.5197520359499190 10.0790081438011416 74.1270231107863111 S
atom 7.5592561078508309 10.0790081438015093 75.0623827425523729 S
atom 2.5197520359499350 5.0395040719004136 79.1772467107375206 S
atom 7.5592561078508922 5.0395040719004109 79.9177008075821220 S
atom 2.5197520359499785 10.0790081438014116 79.9177008075818236 S
atom 7.5592561078509091 10.0790081438013459 79.1772467107374212 S
atom 2.5197520359499652 2.6881035457205105 81.6691506062427237 Ba
atom 7.5592561078508975 2.3514005261793911 81.6691506062427663 Ba
atom 2.5197520359499768 7.3909045980802874 81.6691506062427806 Ba
atom 7.5592561078509037 7.7276076176215494 81.6691506062427806 Ba
atom 4.7535749127998121 5.0395040719004189 82.0982331578463231 S
atom 10.3649373029019802 5.0395040719002688 82.0982331578460105 S
atom 5.3254332310009733 10.0790081438013672 82.0982331578466784 S
atom 9.7930789847008324 10.0790081438015715 82.0982331578467210 S
