#=======================================================
# FHI-aims file: full_relax/full_relax_RP_2_00Rz_00Rz.in
# Created using the Atomic Simulation Environment (ASE)
# Fri Mar 14 11:17:27 2025
#=======================================================
lattice_vector 9.9166760088953243 0.0000000000000003 0.0000000000000036 
lattice_vector 0.0000000000000003 9.9166760088953243 -0.0000000000000048 
lattice_vector 0.0000000000000092 -0.0000000000000123 26.2253064959726387 
atom -0.0000000000002295 -0.0000000000003407 0.1715134653960124 Ba
atom 4.9583380044475867 -0.0000000000002927 0.1715134653955181 Ba
atom -0.0000000000003501 4.9583380044476071 0.1715134653962216 Ba
atom 4.9583380044476693 4.9583380044473486 0.1715134653959606 Ba
atom -0.0000000000001746 -0.0000000000004275 5.0433281723012886 Ba
atom 4.9583380044476053 -0.0000000000003452 5.0433281723020755 Ba
atom -0.0000000000003980 4.9583380044475422 5.0433281723008347 Ba
atom 4.9583380044475662 4.9583380044475716 5.0433281723012913 Ba
atom 2.4791690022236108 2.4791690022237431 2.4604960131865923 Zr
atom 7.4375070066711491 2.4791690022238289 2.4604960131862357 Zr
atom 2.4791690022237431 7.4375070066714093 2.4604960131861437 Zr
atom 7.4375070066714395 7.4375070066716944 2.4604960131862308 Zr
atom 2.4791690022235904 2.4791690022237476 7.6261603314169291 Zr
atom 7.4375070066714422 2.4791690022239501 7.6261603314167186 Zr
atom 2.4791690022236215 7.4375070066715860 7.6261603314165516 Zr
atom 7.4375070066715470 7.4375070066716207 7.6261603314161777 Zr
atom 2.4791690022237023 2.4791690022237294 -0.0911556641535497 S
atom 7.4375070066715097 2.4791690022234913 -0.0911556641539343 S
atom 2.4791690022236414 7.4375070066717806 -0.0911556641540434 S
atom 7.4375070066715141 7.4375070066718019 -0.0911556641537533 S
atom 2.4791690022235033 2.4791690022235264 5.0433281723012904 S
atom 7.4375070066716384 2.4791690022233901 5.0433281723014147 S
atom 2.4791690022234087 7.4375070066715772 5.0433281723011154 S
atom 7.4375070066718552 7.4375070066714590 5.0433281723015106 S
atom 2.0575358824244820 -0.0000000000000142 2.5371097765463726 S
atom 7.8591401264698639 -0.0000000000000126 2.5371097765469588 S
atom 2.9008021220230034 4.9583380044476462 2.5371097765466164 S
atom 7.0158738868728534 4.9583380044477261 2.5371097765468327 S
atom 2.9008021220224416 -0.0000000000000240 7.5495465680564680 S
atom 7.0158738868730683 -0.0000000000000092 7.5495465680564227 S
atom 2.0575358824252930 4.9583380044476728 7.5495465680558489 S
atom 7.8591401264693124 4.9583380044476053 7.5495465680562237 S
atom -0.0000000000000773 2.9008021220229141 2.5371097765464974 S
atom 4.9583380044477545 2.0575358824243590 2.5371097765466244 S
atom -0.0000000000000874 7.0158738868724955 2.5371097765462896 S
atom 4.9583380044476293 7.8591401264696215 2.5371097765465578 S
atom 0.0000000000000315 2.0575358824247374 7.5495465680561002 S
atom 4.9583380044475920 2.9008021220222950 7.5495465680562601 S
atom -0.0000000000000439 7.8591401264693177 7.5495465680556402 S
atom 4.9583380044475316 7.0158738868734307 7.5495465680554332 S
atom -0.0000000000001731 -0.0000000000002031 9.9151428792075453 Ba
atom 4.9583380044477465 -0.0000000000003903 9.9151428792076590 Ba
atom 0.0000000000001380 4.9583380044476124 9.9151428792075826 Ba
atom 4.9583380044474410 4.9583380044477305 9.9151428792072185 Ba
atom 2.4791690022235495 2.4791690022233634 10.1778120087573942 S
atom 7.4375070066717210 2.4791690022235553 10.1778120087575417 S
atom 2.4791690022232311 7.4375070066716873 10.1778120087574564 S
atom 7.4375070066717424 7.4375070066714226 10.1778120087575417 S
atom 2.4791690022237458 2.4791690022236539 13.2841667133829624 Ba
atom 7.4375070066714288 2.4791690022240402 13.2841667133827528 Ba
atom 2.4791690022236827 7.4375070066716251 13.2841667133823105 Ba
atom 7.4375070066714732 7.4375070066717610 13.2841667133820387 Ba
atom 2.4791690022235464 2.4791690022232760 18.1559814202897556 Ba
atom 7.4375070066712397 2.4791690022235491 18.1559814202880005 Ba
atom 2.4791690022234527 7.4375070066717912 18.1559814202870520 Ba
atom 7.4375070066717166 7.4375070066716553 18.1559814202896632 Ba
atom 4.9583380044476817 4.9583380044475174 15.5731492611714302 Zr
atom 9.9166760088954220 4.9583380044474801 15.5731492611729614 Zr
atom 4.9583380044476186 9.9166760088953829 15.5731492611716114 Zr
atom 9.9166760088951520 9.9166760088954362 15.5731492611719631 Zr
atom 4.9583380044473744 4.9583380044475014 20.7388135794019064 Zr
atom 9.9166760088952479 4.9583380044474783 20.7388135794027519 Zr
atom 4.9583380044473540 9.9166760088952994 20.7388135794017323 Zr
atom 9.9166760088953971 9.9166760088951715 20.7388135794022759 Zr
atom 4.9583380044469241 4.9583380044475982 13.0214975838319038 S
atom 9.9166760088958501 4.9583380044472536 13.0214975838320619 S
atom 4.9583380044472687 9.9166760088958235 13.0214975838312164 S
atom 9.9166760088947328 9.9166760088958608 13.0214975838319234 S
atom 4.9583380044471816 4.9583380044474090 18.1559814202876524 S
atom 9.9166760088958092 4.9583380044472491 18.1559814202871443 S
atom 4.9583380044470777 9.9166760088948376 18.1559814202874534 S
atom 9.9166760088953474 9.9166760088947097 18.1559814202875387 S
atom 4.5367048846487794 2.4791690022236876 15.6497630245340300 S
atom 10.3383091286941848 2.4791690022236130 15.6497630245340531 S
atom 5.3799711242460813 7.4375070066715150 15.6497630245335984 S
atom 9.4950428890972400 7.4375070066713942 15.6497630245331543 S
atom 5.3799711242471790 2.4791690022238191 20.6621998160432199 S
atom 9.4950428890967355 2.4791690022239292 20.6621998160421327 S
atom 4.5367048846476798 7.4375070066713738 20.6621998160421612 S
atom 10.3383091286935471 7.4375070066710443 20.6621998160422002 S
atom 2.4791690022240642 5.3799711242455199 15.6497630245338417 S
atom 7.4375070066714155 4.5367048846479419 15.6497630245339590 S
atom 2.4791690022238173 9.4950428890982899 15.6497630245330921 S
atom 7.4375070066712894 10.3383091286934015 15.6497630245333479 S
atom 2.4791690022236383 4.5367048846477251 20.6621998160436640 S
atom 7.4375070066715123 5.3799711242467243 20.6621998160432376 S
atom 2.4791690022238027 10.3383091286939486 20.6621998160433726 S
atom 7.4375070066715363 9.4950428890971317 20.6621998160424489 S
atom 2.4791690022234323 2.4791690022240198 23.0277961271953764 Ba
atom 7.4375070066717219 2.4791690022233217 23.0277961271943532 Ba
atom 2.4791690022241433 7.4375070066714954 23.0277961271943425 Ba
atom 7.4375070066716242 7.4375070066714910 23.0277961271943532 Ba
atom 4.9583380044473726 4.9583380044471159 23.2904652567439570 S
atom 9.9166760088947505 4.9583380044475760 23.2904652567443122 S
atom 4.9583380044471195 9.9166760088951449 23.2904652567433246 S
atom 9.9166760088958146 9.9166760088947346 23.2904652567431683 S
