#=======================================================
# FHI-aims file: full_relax/full_relax_RP_2_00Rz1_00Rz2.in
# Created using the Atomic Simulation Environment (ASE)
# Fri Mar 14 11:17:29 2025
#=======================================================
lattice_vector 9.9167085982150063 0.0000000000000002 -0.0000000000000006 
lattice_vector 0.0000000000000002 9.9167085982150063 -0.0000000000000051 
lattice_vector -0.0000000000000016 -0.0000000000000130 26.2251355369446166 
atom -0.0000000000002076 -0.0000000000001580 0.1715187727240154 Ba
atom 4.9583542991073370 -0.0000000000001751 0.1715187727238928 Ba
atom -0.0000000000002114 4.9583542991073282 0.1715187727236646 Ba
atom 4.9583542991071985 4.9583542991072855 0.1715187727238357 Ba
atom -0.0000000000002377 -0.0000000000000921 5.0432952955666144 Ba
atom 4.9583542991073255 -0.0000000000002920 5.0432952955665353 Ba
atom -0.0000000000003162 4.9583542991072926 5.0432952955668346 Ba
atom 4.9583542991073015 4.9583542991073175 5.0432952955667956 Ba
atom 2.4791771495533670 2.4791771495534287 2.4604738736363916 Zr
atom 7.4375314486610113 2.4791771495533874 2.4604738736364555 Zr
atom 2.4791771495533697 7.4375314486609687 2.4604738736363569 Zr
atom 7.4375314486610096 7.4375314486608284 2.4604738736367557 Zr
atom 2.4791771495533363 2.4791771495533803 7.6261167174966014 Zr
atom 7.4375314486607840 2.4791771495533501 7.6261167174963180 Zr
atom 2.4791771495533377 7.4375314486609003 7.6261167174965303 Zr
atom 7.4375314486609421 7.4375314486608577 7.6261167174962763 Zr
atom 2.4791771495535624 2.4791771495535189 -0.0911651136599053 S
atom 7.4375314486609971 2.4791771495534380 -0.0911651136603065 S
atom 2.4791771495533181 7.4375314486609696 -0.0911651136603047 S
atom 7.4375314486610700 7.4375314486610096 -0.0911651136601746 S
atom 2.4791771495533306 2.4791771495533839 5.0432952955662946 S
atom 7.4375314486610922 2.4791771495533923 5.0432952955662218 S
atom 2.4791771495534678 7.4375314486610646 5.0432952955663062 S
atom 7.4375314486609483 7.4375314486610655 5.0432952955662822 S
atom 2.0575676796589364 -0.0000000000000844 2.5370934884470602 S
atom 7.8591409185554300 -0.0000000000000056 2.5370934884469571 S
atom 2.9007866194479610 4.9583542991075413 2.5370934884471064 S
atom 7.0159219787664853 4.9583542991075316 2.5370934884469154 S
atom 2.9007866194476519 -0.0000000000000023 7.5494971026853692 S
atom 7.0159219787666203 -0.0000000000000139 7.5494971026856712 S
atom 2.0575676796590239 4.9583542991074641 7.5494971026855788 S
atom 7.8591409185554255 4.9583542991075387 7.5494971026856357 S
atom -0.0000000000001450 2.9007866194479561 2.5370934884471383 S
atom 4.9583542991074863 2.0575676796588027 2.5370934884471819 S
atom -0.0000000000000892 7.0159219787664728 2.5370934884470726 S
atom 4.9583542991074587 7.8591409185558163 2.5370934884470633 S
atom -0.0000000000000919 2.0575676796591615 7.5494971026856463 S
atom 4.9583542991075502 2.9007866194478074 7.5494971026854065 S
atom -0.0000000000000838 7.8591409185555303 7.5494971026856437 S
atom 4.9583542991074108 7.0159219787663902 7.5494971026857387 S
atom -0.0000000000002362 -0.0000000000003270 9.9150718184089310 Ba
atom 4.9583542991072846 -0.0000000000001448 9.9150718184086895 Ba
atom -0.0000000000002916 4.9583542991073575 9.9150718184085775 Ba
atom 4.9583542991072473 4.9583542991072065 9.9150718184084301 Ba
atom 2.4791771495533950 2.4791771495535770 10.1777557047929186 S
atom 7.4375314486609669 2.4791771495535464 10.1777557047929985 S
atom 2.4791771495533168 7.4375314486609723 10.1777557047931033 S
atom 7.4375314486611721 7.4375314486610478 10.1777557047929221 S
atom 2.4791771495532351 2.4791771495534976 13.2840994731058579 Ba
atom 7.4375314486609607 2.4791771495535850 13.2840994731059396 Ba
atom 2.4791771495535637 7.4375314486614368 13.2840994731060658 Ba
atom 7.4375314486611543 7.4375314486611543 13.2840994731057744 Ba
atom 2.4791771495533821 2.4791771495534145 18.1558630640390497 Ba
atom 7.4375314486611233 2.4791771495533945 18.1558630640385807 Ba
atom 2.4791771495532031 7.4375314486609474 18.1558630640386589 Ba
atom 7.4375314486610637 7.4375314486612929 18.1558630640389040 Ba
atom 4.9583542991070981 4.9583542991072669 15.5730483523688736 Zr
atom 9.9167085982146723 4.9583542991073015 15.5730483523689340 Zr
atom 4.9583542991071443 9.9167085982148109 15.5730483523687404 Zr
atom 9.9167085982146972 9.9167085982147132 15.5730483523688203 Zr
atom 4.9583542991073752 4.9583542991072695 20.7386777757087231 Zr
atom 9.9167085982147114 4.9583542991071488 20.7386777757083038 Zr
atom 4.9583542991073672 9.9167085982148429 20.7386777757087160 Zr
atom 9.9167085982147114 9.9167085982146883 20.7386777757094762 Zr
atom 4.9583542991074534 4.9583542991074703 13.0214071093127526 S
atom 9.9167085982147931 4.9583542991071639 13.0214071093130315 S
atom 4.9583542991070519 9.9167085982145782 13.0214071093132713 S
atom 9.9167085982148322 9.9167085982148819 13.0214071093131949 S
atom 4.9583542991070058 4.9583542991070857 18.1558630640383782 S
atom 9.9167085982148144 4.9583542991074347 18.1558630640384209 S
atom 4.9583542991073735 9.9167085982147434 18.1558630640384990 S
atom 9.9167085982146155 9.9167085982147718 18.1558630640384280 S
atom 4.5367529196139067 2.4791771495534336 15.6496679174362452 S
atom 10.3383099777079774 2.4791771495534665 15.6496679174363749 S
atom 5.3799556786005516 7.4375314486608568 15.6496679174366005 S
atom 9.4951072187213175 7.4375314486608728 15.6496679174360089 S
atom 5.3799556786006599 2.4791771495533572 20.6620582106415611 S
atom 9.4951072187213104 2.4791771495535144 20.6620582106413018 S
atom 4.5367529196138179 7.4375314486607333 20.6620582106408115 S
atom 10.3383099777083309 7.4375314486609678 20.6620582106415860 S
atom 2.4791771495530361 5.3799556786005001 15.6496679174362843 S
atom 7.4375314486607671 4.5367529196140506 15.6496679174363820 S
atom 2.4791771495532950 9.4951072187214631 15.6496679174361280 S
atom 7.4375314486608524 10.3383099777078762 15.6496679174362363 S
atom 2.4791771495531876 4.5367529196137681 20.6620582106412911 S
atom 7.4375314486609350 5.3799556786006262 20.6620582106409785 S
atom 2.4791771495532013 10.3383099777084446 20.6620582106411881 S
atom 7.4375314486606703 9.4951072187210830 20.6620582106409998 S
atom 2.4791771495533328 2.4791771495532928 23.0276266549716908 Ba
atom 7.4375314486612218 2.4791771495533714 23.0276266549722060 Ba
atom 2.4791771495535304 7.4375314486612192 23.0276266549718862 Ba
atom 7.4375314486609749 7.4375314486612929 23.0276266549724014 Ba
atom 4.9583542991074188 4.9583542991074232 23.2903190187639986 S
atom 9.9167085982146599 4.9583542991071967 23.2903190187648725 S
atom 4.9583542991071123 9.9167085982148819 23.2903190187644711 S
atom 9.9167085982148553 9.9167085982149583 23.2903190187639879 S
