#=======================================================
# FHI-aims file: full_relax/full_relax_RP_3_Rx0Mz_0Ry0.in
# Created using the Atomic Simulation Environment (ASE)
# Fri Mar 14 11:20:20 2025
#=======================================================
lattice_vector 10.1029584496921725 0.0000000000000060 0.0000204724033363 
lattice_vector 0.0000000000000060 10.1029906216727561 0.0000000000000079 
lattice_vector 0.0001868980332922 0.0000000000000293 35.2421759293123245 
atom -0.1572213181246780 -0.0000000000009134 0.2857203971452912 Ba
atom 5.2087952833339335 -0.0000000000091016 0.2857364651431388 Ba
atom 0.1573160585259155 5.0514953108364109 0.2857262289279440 Ba
atom 4.8942579066791376 5.0514953108444480 0.2857306333699810 Ba
atom 0.0303779370946189 0.0000000000080952 4.9296711413687930 Ba
atom 5.0214487787428457 0.0000000000039398 4.9297620623093570 Ba
atom -0.0300304460282281 5.0514953108263843 4.9297518261143489 Ba
atom 5.0818571618657966 5.0514953108306431 4.9296813775789046 Ba
atom 2.5258189858863700 2.5117092708996047 2.3306212910030344 Zr
atom 7.5772982107791487 2.5397860399350076 2.3306315271564442 Zr
atom 2.5258189859294751 7.5912813507571926 2.3306212909708428 Zr
atom 7.5772982107334030 7.5632045817541895 2.3306315271222622 Zr
atom 2.5257785495189982 2.5257476554527618 7.3421251034663015 Zr
atom 7.5772577743537939 2.5257476554455054 7.3421353396799462 Zr
atom 2.5257785495138689 7.5772429662136309 7.3421251035047073 Zr
atom 7.5772577743552745 7.5772429662463194 7.3421353397449503 Zr
atom 2.5258078251309706 2.8840172280757996 -0.1507844991406243 S
atom 7.5772870499705087 2.1674780827744931 -0.1507742628158215 S
atom 2.5258078251265506 7.2189733935909999 -0.1507844991464022 S
atom 7.5772870499742693 7.9355125389026204 -0.1507742628330464 S
atom 2.5258164333816513 2.0518462388226881 4.8654423682420997 S
atom 7.5772956582239646 2.9996490719904498 4.8654526043996764 S
atom 2.5258164333776514 8.0511443828432263 4.8654423683039756 S
atom 7.5772956582256885 7.1033415496924057 4.8654526044642354 S
atom 2.5257776727629135 0.0000000000272568 2.0083836965255144 S
atom 7.5773595044490385 0.0000000000122773 2.7993676617883763 S
atom 2.5258802796010502 5.0514953108277876 2.7993574255967184 S
atom 7.5772568976083541 5.0514953107969056 2.0083939327464102 S
atom 2.5254451841352257 -0.0000000000311216 7.7938051373740942 S
atom 7.5775911397375033 -0.0000000000591162 6.8904553055719138 S
atom 2.5261119148901909 5.0514953108666356 6.8904450693696555 S
atom 7.5769244089786580 5.0514953108650467 7.7938153735532136 S
atom 0.0000851215242561 2.5257757569089350 2.4579603448514846 S
atom 5.0515643467543265 2.5257195539281057 2.4579705810553447 S
atom 0.0000851215274892 7.5772148647626656 2.4579603448534986 S
atom 5.0515643467568205 7.5772710677434940 2.4579705810551351 S
atom 0.0000389369842229 2.5261007233070045 7.3421199852709291 S
atom 5.0515181620357295 2.5253945875228676 7.3421302214733908 S
atom 0.0000389369684070 7.5768898983694521 7.3421199852659962 S
atom 5.0515181620597316 7.5775960341536459 7.3421302214689890 S
atom -0.0303000628681228 -0.0000000000090518 9.7545688292191244 Ba
atom 5.0815875450805059 -0.0000000000107237 9.7544983806635468 Ba
atom 0.0301083202807212 5.0514953108438139 9.7544881444858369 Ba
atom 5.0211791619302435 5.0514953108451852 9.7545790654055331 Ba
atom 0.1572991923239347 -0.0000000000160299 14.3985195733617299 Ba
atom 4.8942410405156318 -0.0000000000196735 14.3985239778115837 Ba
atom -0.1572381843032314 5.0514953108524230 14.3985137415523692 Ba
atom 5.2087784171421916 5.0514953108560050 14.3985298095899825 Ba
atom 2.5257381130191168 2.5397860400049344 12.3536289157022932 Zr
atom 7.5772173380627601 2.5117092709204747 12.3536391519216533 Zr
atom 2.5257381130378049 7.5632045816806093 12.3536289157057553 Zr
atom 7.5772173380440231 7.5912813507287886 12.3536391519403601 Zr
atom 2.5257406656548009 2.9996490719794364 9.8188078384226696 S
atom 7.5772198904843888 2.0518462388564429 9.8188180746625484 S
atom 2.5257406656531107 7.1033415496896506 9.8188078383214989 S
atom 7.5772198904848818 8.0511443828233844 9.8188180744959599 S
atom 2.5257492739052738 2.1674780827561868 14.8350347059402594 S
atom 7.5772284987370195 2.8840172280590015 14.8350449420903647 S
atom 2.5257492739034380 7.9355125389292427 14.8350347059873346 S
atom 7.5772284987387906 7.2189733935932594 14.8350449421563422 S
atom 2.5256768194385035 0.0000000000798283 11.8848927811660499 S
atom 7.5772586510938904 0.0000000001447142 12.6758767464483757 S
atom 2.5257794262796796 5.0514953107388552 12.6758665102541599 S
atom 7.5771560442527868 5.0514953107135048 11.8849030173794254 S
atom -0.0000072476708386 2.5257757568969366 12.2262796257205952 S
atom 5.0514719774289807 2.5257195539184814 12.2262898619171718 S
atom -0.0000072476096147 7.5772148647731878 12.2262796257241053 S
atom 5.0514719773678367 7.5772710677516635 12.2262898619214404 S
atom 2.5258282949668809 2.6829942011430750 17.9068089156097230 Ba
atom 7.5773075197541138 2.3685011096782844 17.9068191518004660 Ba
atom 2.5258282949685893 7.4199964205309916 17.9068089156070158 Ba
atom 7.5773075197524209 7.7344895119900725 17.9068191517936661 Ba
atom 2.5258220405548224 2.4955415305237008 22.5508115319983702 Ba
atom 7.5773012653264153 2.5559537803338794 22.5508217682088912 Ba
atom 2.5258220405551168 7.6074490911480961 22.5508115319790505 Ba
atom 7.5773012653257252 7.5470368413370652 22.5508217681897349 Ba
atom 5.0655837153836059 5.0514953108747793 19.9517196733199000 Zr
atom 10.0890076176277841 5.0514953108654881 19.9517131044010476 Zr
atom 5.0375283926737140 10.1029906216360992 19.9517028682610729 Zr
atom 10.1170629403986734 10.1029906216427534 19.9517299094305649 Zr
atom 5.0516116109672522 5.0514953107774598 24.9632181861263192 Zr
atom 10.1030908358811438 5.0514953107799476 24.9632284228781920 Zr
atom 5.0516116109166633 10.1029906217278231 24.9632181861341564 Zr
atom 10.1030908357763547 10.1029906217238992 24.9632284226416274 Zr
atom 4.6933059242649149 5.0514953108299174 17.4703069089880820 S
atom 10.4613317346919228 5.0514953108304450 17.4703037354370601 S
atom 5.4098525099087595 10.1029906216791208 17.4702934990426542 S
atom 9.7447851491255708 10.1029906216778755 17.4703171453010064 S
atom 5.5254754117361369 5.0514953108380976 22.4865332130860729 S
atom 9.6291649613268113 5.0514953108378293 22.4865451268647334 S
atom 4.5776857365138337 10.1029906216698961 22.4865348911470058 S
atom 10.5769546365563087 10.1029906216688339 22.4865434490519434 S
atom 5.0515852911925565 2.5257492162520614 20.0790473653474919 S
atom 10.1030645160143369 2.5257460947027144 20.0790576015812618 S
atom 5.0515852911924375 7.5772414054129458 20.0790473653470265 S
atom 10.1030645160144754 7.5772445269677364 20.0790576015811801 S
atom 5.0516116109579157 2.5257519761746452 24.9632181861251894 S
atom 10.1030908357930098 2.5257433342802189 24.9632284222985774 S
atom 5.0516116109572451 7.5772386455025504 24.9632181861267206 S
atom 10.1030908357937399 7.5772472874000805 24.9632284222995153 S
atom 2.5258248360973701 5.0514953108319549 20.4204677258635456 S
atom 7.5773108258217263 5.0514953108292202 19.6294852842205572 S
atom 2.5258316004356369 10.1029906216790764 19.6294750480261477 S
atom 7.5773040613572062 10.1029906216774403 20.4204779620863164 S
atom 2.5258703157487150 5.0514953108439462 24.5115428445659091 S
atom 7.5773529061181302 5.0514953108468594 25.4148935276235761 S
atom 2.5258736815559284 10.1029906216592398 25.4148832914228464 S
atom 7.5773495403819791 10.1029906216613874 24.5115530808094100 S
atom 2.5259219564580504 2.5559537803968317 27.3756146041179029 Ba
atom 7.5774011814603677 2.4955415305377402 27.3756248403210698 Ba
atom 2.5259219564542525 7.5470368412738429 27.3756146041133412 Ba
atom 7.5774011814640474 7.6074490911350772 27.3756248403167781 Ba
atom 2.5259157020977270 2.3685011097145221 32.0196172203990841 Ba
atom 7.5773949269893421 2.6829942011222263 32.0196274565810128 Ba
atom 2.5259157020921932 7.7344895119590920 32.0196172204241734 Ba
atom 7.5773949269948879 7.4199964205471023 32.0196274566076298 Ba
atom 5.0376395063636323 5.0514953107408678 29.9747166988310134 Zr
atom 10.1171740540669077 5.0514953107735501 29.9747437397958869 Zr
atom 5.0656948292033954 10.1029906217664536 29.9747335039709952 Zr
atom 10.0891187312475203 10.1029906217364154 29.9747269349568199 Zr
atom 4.5777478102304965 5.0514953108486464 27.4399031593566534 S
atom 10.5770167102482731 5.0514953108463496 27.4399117172573810 S
atom 5.5255374853546195 10.1029906216580834 27.4399014811214954 S
atom 9.6292270350466538 10.1029906216608634 27.4399133953301479 S
atom 5.4099172976237213 5.0514953108455201 32.4561294632872688 S
atom 9.7448499368157186 5.0514953108432525 32.4561531097675910 S
atom 4.6933707120301875 10.1029906216622347 32.4561428732468187 S
atom 10.4613965224982657 10.1029906216653984 32.4561396996176796 S
atom 5.0516379307185408 2.5257492162990243 29.8473890069388048 S
atom 10.1031171555629378 2.5257460943210868 29.8473992431702122 S
atom 5.0516379307187123 7.5772414053737123 29.8473890069334118 S
atom 10.1031171555628045 7.5772445273459228 29.8473992431662722 S
atom 2.5259123968614343 5.0514953108497949 30.2969510881131754 S
atom 7.5773983851785900 5.0514953108508989 29.5059686464313913 S
atom 2.5259191608510414 10.1029906216577210 29.5059584102245509 S
atom 7.5773916210803307 10.1029906216583925 30.2969613243030054 S
