#=======================================================
# FHI-aims file: full_relax/full_relax_RP_1_RxRyRz_-RxRy0.in
# Created using the Atomic Simulation Environment (ASE)
# Fri Mar 14 11:17:21 2025
#=======================================================
lattice_vector 10.0858336506700930 0.2044586592112482 0.0002840026591274 
lattice_vector 0.2044586592112312 10.0858336506702848 -0.0002840026601366 
lattice_vector -0.0004028692885184 0.0004028692868080 15.5513175205738854 
atom -0.1072291901880892 -0.1072095586270300 0.2366460681450652 Ba
atom 5.1501263817597467 0.2094585214316240 0.2367880683002054 Ba
atom 0.2094388863230516 5.1501460180816085 0.2365040650694804 Ba
atom 5.0379169638348156 5.0379365963041050 0.2366460657717331 Ba
atom 0.1071032967986903 0.1073354539132066 4.6231406569226623 Ba
atom 4.9355813686634100 -0.0048739659238288 4.6232826607888207 Ba
atom -0.0051061268885754 4.9358135302621484 4.6229986579179769 Ba
atom 5.2522494521702532 5.2524816102219374 4.6231406609638581 Ba
atom 2.5725101357225624 2.5726360164918129 2.4298933665444635 Zr
atom 7.6154269576984390 2.6748653507921696 2.4300353682419646 Zr
atom 2.6747394533714273 7.6155528803302293 2.4297513644688076 Zr
atom 7.7176562887901250 7.7177821800085304 2.4298933658936148 Zr
atom 2.7865653751605377 2.7865275469411195 -0.1074760072385011 S
atom 7.4015354391788453 2.4608101108852392 -0.1073340076749511 S
atom 2.4608479428497168 7.4014976074649388 -0.1076180122864066 S
atom 7.9317115269196110 7.9316736961474543 -0.1074760096236704 S
atom 2.3584548866572832 2.3587445145171260 4.9672627305356460 S
atom 7.8293184722504883 2.8889205989829985 4.9674047313466039 S
atom 2.8886309753213038 7.8296080955349803 4.9671207300451412 S
atom 7.5036010392540149 7.5038906630253193 4.9672627310806980 S
atom 2.5214107099374687 0.0511706246003783 2.2210117925803905 S
atom 7.5642970462835040 0.1534139235748978 2.6390589347082609 S
atom 2.6236095507016870 5.0941013864124347 2.6387749334676616 S
atom 7.6665568640490358 5.1963167993538821 2.2210117913163585 S
atom 0.0510586768529254 2.5215061202588442 2.2208697906636488 S
atom 5.0939615604501443 2.6237659380680971 2.6389169336998339 S
atom 0.1532740756711622 7.5644534307106985 2.6386329308910041 S
atom 5.1962048459907484 7.6666522721062176 2.2208697896429244 S
atom 2.6795871496435635 2.6799954757959132 8.0123008573892687 Ba
atom 7.5080675047144574 2.5677883328020372 8.0124428589625918 Ba
atom 2.5673800114255001 7.5084758303464385 8.0121588548379474 Ba
atom 7.8247333022433603 7.8251416323003395 8.0123008568015521 Ba
atom 2.4650302348849489 2.4656794436142828 12.3988033860224487 Ba
atom 7.7223835391537641 2.7823452463766714 12.3989453879154254 Ba
atom 2.7816960422507822 7.7230327425552572 12.3986613867374320 Ba
atom 7.6101763910785039 7.6108255990777227 12.3988033878858772 Ba
atom 5.1448817720231306 5.1454105520096514 10.2055521181761879 Zr
atom 10.1877985941602098 5.2476398497099819 10.2056941241472909 Zr
atom 5.2471111039317684 10.1883273546207587 10.2054101146718352 Zr
atom 10.2900279300060991 10.2905567147923431 10.2055521208620554 Zr
atom 4.9309810788442778 4.9313688116331003 7.6681813040924585 S
atom 10.4018403226808012 5.4615405623257747 7.6683233064175553 S
atom 5.4611528282660835 10.4022280578862514 7.6680393000460123 S
atom 10.0761272349056181 10.0765149655597384 7.6681813038918021 S
atom 5.3587824642806581 5.3594522632951076 12.7429229451677752 S
atom 9.9737568712389777 5.0337391773324445 12.7430649416878179 S
atom 5.0330693761845948 9.9744266722056647 12.7427809507316656 S
atom 10.5039286202881677 10.5045984175705804 12.7429229443649330 S
atom 5.0937568195261163 2.6239589617409358 10.4145781562553665 S
atom 10.1366942207281063 2.7261746185623785 9.9968100948916589 S
atom 5.1960067245227197 7.6668621036549052 9.9965260918838670 S
atom 10.2389029741513919 7.7691051076976789 10.4145781557747732 S
atom 2.6234165207454136 5.0943061626935124 10.4144361541590769 S
atom 7.6663470284349042 5.1965149170200178 9.9966680931351295 S
atom 2.7256595170294409 10.1372024110410290 9.9963840898529437 S
atom 7.7685626772878464 10.2394523167086824 10.4144361540835302 S
