#=======================================================
# FHI-aims file: full_relax/full_relax_RP_3_RxRyRz_-RxRy0.in
# Created using the Atomic Simulation Environment (ASE)
# Fri Mar 14 11:22:18 2025
#=======================================================
lattice_vector 10.0410140343420515 -0.0044728743165144 -0.0131740618734441 
lattice_vector -0.0044728743166991 10.0410140342998666 0.0131740620173680 
lattice_vector -0.0489172446584067 0.0489172451830943 35.6922826268453335 
atom 0.0448065413605171 -0.1333698069198047 0.2378858178796059 Ba
atom 5.1538769173488310 -0.0470429406781701 0.2312986922316008 Ba
atom 0.1311334080341655 4.9757003994025970 0.2444726966295244 Ba
atom 5.0630771524783054 4.8849006525289180 0.2378855702002570 Ba
atom -0.2465805857726184 0.1958619909150245 4.9753406745292938 Ba
atom 4.8246451522041696 0.2443440948073748 4.9687536512418689 Ba
atom -0.1980984371873046 5.2670874795639238 4.9819277665967601 Ba
atom 4.7716901330873682 5.2141324810929079 4.9753407454480234 Ba
atom 2.4910806467576063 2.5265308006662255 2.3866639824760711 Zr
atom 7.5122466389756397 2.5249529653874374 2.3800772174443448 Zr
atom 2.4895029796103034 7.5476971265416752 2.3932511066978939 Zr
atom 7.5093514913122901 7.5448019397604611 2.3866641482121747 Zr
atom 2.4989441810223836 2.5193263090992373 7.4358919023391081 Zr
atom 7.5194512722781681 2.5170898574601419 7.4293046650749890 Zr
atom 2.4967076128931556 7.5398334428314220 7.4424794409250685 Zr
atom 7.5172149125015020 7.5375970972640198 7.4358921262272508 Zr
atom 2.6650443164053357 2.7930311509350831 -0.1152398774205251 S
atom 7.2457464520633890 2.3509898274615773 -0.1218272340242616 S
atom 2.2230030560053136 7.3737332535553879 -0.1086527537164640 S
atom 7.6833149113202373 7.8113016253469336 -0.1152399439764767 S
atom 2.2339847768612069 2.2131259170850104 4.9367696534888221 S
atom 7.8256517652823590 2.7820494624457734 4.9301825908884318 S
atom 2.8029083076540444 7.8047928307131551 4.9433561289007919 S
atom 7.2522553037544126 7.2313964167667466 4.9367695451057410 S
atom 2.7156352514247626 0.0244147841451505 2.2059915069351406 S
atom 7.2449037556322704 0.0254419816620089 2.7447480961587125 S
atom 2.2221603521806808 5.0481860386805577 2.7579221925949913 S
atom 7.7339058475162492 5.0426862112980260 2.2059914410336887 S
atom 2.8711980628996039 0.0058031107107095 7.7368330467597053 S
atom 7.1494337916718509 0.0101062752229674 7.1217773569028990 S
atom 2.1266903625367553 5.0328496832203378 7.1349513909859041 S
atom 7.8894686536322167 5.0240735681079798 7.7368330834995280 S
atom -0.0266510133034370 2.3048717760509336 2.2125784808818061 S
atom 4.9905913600703453 2.7938739021453665 2.7513351678667513 S
atom -0.0321515095600101 7.8166171808585609 2.7645091826740535 S
atom 4.9916188524646898 7.3231422953553515 2.2125785298111209 S
atom -0.0080387323305276 2.1493089889099748 7.7434200817184582 S
atom 5.0059270804411709 2.8893438415827344 7.1283643774283005 S
atom -0.0168162203346710 7.9120872362937389 7.1415384461197382 S
atom 5.0102316918696772 7.1675794875918708 7.7434200970561546 S
atom 0.2261983352103326 -0.1754798694871849 9.8964436836325724 Ba
atom 5.1959867594507472 -0.2284348216255885 9.8898566333510463 Ba
atom 0.1732433279677966 4.7943088082439376 9.9030306554838088 Ba
atom 5.2444688805177657 4.8427909137409220 9.8964435914625870 Ba
atom -0.0651887572273619 0.1537519253900981 14.6338987659469950 Ba
atom 4.8667549583160241 0.0629522047407652 14.6273117685524916 Ba
atom -0.1559884468324682 5.0856958833459531 14.6404857886982587 Ba
atom 4.9530818195183342 5.1720227619746710 14.6338987814645822 Ba
atom 2.5068073741606982 2.5121215446412943 12.4851202284366121 Zr
atom 7.5266560586023994 2.5092260872000649 12.4785330365067004 Zr
atom 2.5039121896124881 7.5319702686004391 12.4917070773153167 Zr
atom 7.5250783841827786 7.5303925773403799 12.4851202304947879 Zr
atom 2.7639036736455118 2.8255269053308831 9.9350152981986053 S
atom 7.2132506583810097 2.2521305214842515 9.9284286866806450 S
atom 2.1905072276833484 7.2748738821456129 9.9416019994765215 S
atom 7.7821742080770031 7.8437974454783284 9.9350148608023741 S
atom 2.3328440924046827 2.2456217344640801 14.9870241421871810 S
atom 7.7931559073632064 2.6831900928217127 14.9804372172297899 S
atom 2.7704125507571353 7.7059335348699554 14.9936116770747923 S
atom 7.3511146148228672 7.2638921140434727 14.9870245458390077 S
atom 2.7757280887243283 -0.0095323156142242 12.1138623188438341 S
atom 7.3049965528011489 -0.0085048953169313 12.6526189032905840 S
atom 2.2822531519473763 5.0142367161902044 12.6657929905965734 S
atom 7.7939986175605087 5.0087369136941096 12.1138622740502093 S
atom 0.0072966362292367 2.2447790517619213 12.1204493794925927 S
atom 5.0245399768509911 2.7337810178761415 12.6592059134691990 S
atom 0.0017963156963485 7.7565244502984383 12.6723800397459616 S
atom 5.0255674007814468 7.2630494091644318 12.1204492866798788 S
atom 2.6180566627804338 2.4888133116912856 18.0840376983747113 Ba
atom 7.5499641706304645 2.3979772817656491 18.0774505760232067 Ba
atom 2.5272207302443452 7.4207210172040536 18.0906247564582898 Ba
atom 7.6363272867217153 7.5070841458167248 18.0840376234091700 Ba
atom 2.2888143020704188 2.7801674524361690 22.8214634437262838 Ba
atom 7.2586102023318126 2.7272196688262094 22.8148765194177479 Ba
atom 2.2358665196962511 7.7499632275396655 22.8280503486966282 Ba
atom 7.3070851286050580 7.7984381222624259 22.8214633823404078 Ba
atom 4.9763861751488676 5.0608294537009071 20.2328153956403476 Zr
atom 9.9962197093861320 5.0579182653039432 20.2262285528248285 Zr
atom 4.9734754730437025 10.0806611590206483 20.2394020653184228 Zr
atom 9.9946575970360083 10.0790992595874744 20.2328155922049113 Zr
atom 4.9836207825095418 5.0529199875795960 25.2820327562804188 Zr
atom 10.0041279218712855 5.0506838850629094 25.2754453809443440 Zr
atom 4.9813845175696185 10.0734275819017149 25.2886192911233323 Zr
atom 10.0018914132608785 10.0711909019258350 25.2820318725692914 Zr
atom 4.7098529709907710 4.8868561439329170 17.7309096008664646 S
atom 10.1701919496742406 5.3244517603591754 17.7243223690968215 S
atom 5.1474485974571751 10.3471953898715601 17.7374963374330328 S
atom 9.7281233895415937 9.9051267441664148 17.7309089467844494 S
atom 5.2898496909824742 5.3179214404295827 22.7829123725500082 S
atom 9.7391266563305514 4.7444550313818494 22.7763255290238504 S
atom 4.7163833221924687 9.7671985418190594 22.7895004761463085 S
atom 10.3081203008627842 10.3361920855981211 22.7829130703713219 S
atom 4.7091671657842795 2.5612902118543155 20.5975010573192030 S
atom 10.2207691301955350 2.5557929421937682 20.0455055828597253 S
atom 5.1980257649798363 7.5785346952009345 20.0586796994994501 S
atom 9.7274375992861977 7.5795593310781229 20.5975010118185864 S
atom 4.6136293820846142 2.5459364755057377 24.9744587195775516 S
atom 10.3763559400508196 2.5371600985603044 25.5764347094306750 S
atom 5.3536124192867867 7.5599041190276042 25.5896087265861922 S
atom 9.6318998588241680 7.5642075082350377 24.9744586899946945 S
atom 2.4547450261103219 5.3296103729679700 20.6040879908487753 S
atom 7.4785122859383808 4.8362789714609402 20.0520926577182372 S
atom 2.4557694566909563 9.8590224778022115 20.0652666833659801 S
atom 7.4730149328191873 10.3478812064486227 20.6040881185704734 S
atom 2.4700971815710338 5.4251483229451667 24.9810457160412369 S
atom 7.4971445481535648 4.6806922794497403 25.5830217048367352 S
atom 2.4744018727916681 9.7034357368027724 25.5961957719013036 S
atom 7.4883669246141977 10.4434188455563319 24.9810457633892291 S
atom 2.6601566350874077 2.3074026328097355 27.7426033860664489 Ba
atom 7.7313750859819894 2.3558776386050004 27.7360163319197639 Ba
atom 2.7086316324565911 7.3786208396911341 27.7491904710184691 Ba
atom 7.6784272191094836 7.3256729669290683 27.7426034170066025 Ba
atom 2.3309143911571137 2.5987565504219683 32.4800298448359968 Ba
atom 7.4400210113669019 2.6851198904721656 32.4734428626494420 Ba
atom 2.4172777062396333 7.7078632682721420 32.4866168432536639 Ba
atom 7.3491847967169530 7.6170270476996391 32.4800298499253017 Ba
atom 4.9908552936861366 5.0450117601624855 30.3312530817799697 Zr
atom 10.0120364362346947 5.0434494426975398 30.3246660321184507 Zr
atom 4.9892928534454022 10.0661928981953910 30.3378405612750370 Zr
atom 10.0091259502717893 10.0632822822069095 30.3312532097801473 Zr
atom 4.6773919425340598 4.7879190229495467 27.7811548290895374 S
atom 10.2691291469235892 5.3569127908752563 27.7745682824824485 S
atom 5.2463856956387813 10.3796561474980731 27.7877417109407965 S
atom 9.6956625411427630 9.8061896250799734 27.7811557207714586 S
atom 5.2573888090575203 5.2189843813191050 32.8331567474198422 S
atom 9.8380638417676725 4.7769159478935359 32.8265693975104966 S
atom 4.8153203827706932 9.7996594260131502 32.8397432284359851 S
atom 10.2756592979364410 10.2372548991696330 32.8331560439137249 S
atom 4.7692160351183572 2.5273044217107778 30.5053870753043590 S
atom 10.2808180245801370 2.5218071422722965 29.9533917670651526 S
atom 5.2580746442347106 7.5445516602910550 29.9665657973964414 S
atom 9.7874866475058724 7.5455761958874801 30.5053870119044710 S
atom 2.4887285552301290 5.2695615880364093 30.5119741035692407 S
atom 7.5124975614012568 4.7762300843992271 29.9599787704755478 S
atom 2.4897531298146092 9.7989736129351925 29.9731528680722725 S
atom 7.5070001667471429 10.2878320910248515 30.5119740438514881 S
