#=======================================================
# FHI-aims file: full_relax/full_relax_RP_3_RxRyRz_RxRy0.in
# Created using the Atomic Simulation Environment (ASE)
# Fri Mar 14 11:22:07 2025
#=======================================================
lattice_vector 10.0297094334117816 -0.0218500633980003 -0.0095967644035278 
lattice_vector -0.0218500633984193 10.0297094336939292 0.0095967642779399 
lattice_vector -0.0355755650468256 0.0355755645906379 35.7907014302641358 
atom 0.0355838521332317 -0.1522640973447632 0.2373532940331512 Ba
atom 5.1671187612304363 -0.0465088651695731 0.2325550125249597 Ba
atom 0.1413389622476924 4.9792709038699936 0.2421517823305331 Ba
atom 5.0395135937637336 4.8516656047054818 0.2373534434373533 Ba
atom -0.2507727228313864 0.1925356341936484 4.9876085795123473 Ba
atom 4.8223191994008783 0.2398475753999451 4.9828102121583822 Ba
atom -0.2034608029898193 5.2656273230388244 4.9924068735983367 Ba
atom 4.7531571932437826 5.1964653137339063 4.9876085316303671 Ba
atom 2.4796993724495926 2.5100739607843523 2.3997473655266814 Zr
atom 7.5087103877741406 2.5133058267285677 2.3949493142546969 Zr
atom 2.4829306714735750 7.5390850524612087 2.4045458237110062 Zr
atom 7.4836290986673255 7.5140031649889973 2.3997476545735106 Zr
atom 2.4945532714923493 2.5093763556612498 7.4563964749691616 Zr
atom 7.5094080262378657 2.4984513846925966 7.4515974913005296 Zr
atom 2.4836283054106758 7.5242312025915457 7.4611948201010598 Zr
atom 7.4984828447523508 7.5133061413659714 7.4563965860150176 Zr
atom 2.6149045447167878 2.7326276396855449 -0.1041553463516465 S
atom 7.2861567029539334 2.3781000478149914 -0.1089542432124713 S
atom 2.2603770190805506 7.4038798434871262 -0.0993573979318228 S
atom 7.6188342311995241 7.7365574118347844 -0.1041556372701166 S
atom 2.2400571909008260 2.2158640969942258 4.9540848992499305 S
atom 7.8029203553177604 2.7529474286063920 4.9492872205782552 S
atom 2.7771405539592999 7.7787272330662569 4.9588838250638858 S
atom 7.2439868362690278 7.2197937621449721 4.9540846067038942 S
atom 2.7442297017284130 0.0162228995458924 2.2388009944231415 S
atom 7.2287438066724405 0.0081473889382939 2.7354974747550518 S
atom 2.2029641406864835 5.0339269341542519 2.7450942327013443 S
atom 7.7481593858709035 5.0201522840353441 2.2388009768981814 S
atom 2.8848402505254525 -0.0008129014984494 7.7504555519172360 S
atom 7.1300458984828694 -0.0062136895100304 7.1527398123633334 S
atom 2.1042662294508090 5.0195657437497587 7.1623366336886516 S
atom 7.8887700681163011 5.0031164855245525 7.7504555973484628 S
atom -0.0271466797386723 2.2706249390504700 2.2435993332455713 S
atom 4.9848563366415508 2.7900405283000884 2.7402958061760825 S
atom -0.0409229252161321 7.8158203608936239 2.7498926307789930 S
atom 4.9767823321522977 7.2745547014559566 2.2435993775502974 S
atom -0.0101117824912675 2.1300144083168191 7.7552539444242621 S
atom 4.9992183500065073 2.8887384446399347 7.1575382269813961 S
atom -0.0265604602060371 7.9145182016993507 7.1671349879378194 S
atom 4.9938170235668009 7.1339440641827272 7.7552539721639349 S
atom 0.2359494011240239 -0.1777125468415360 9.9251837101663760 Ba
atom 5.1925672776178402 -0.2468746104226014 9.9203853570415621 Ba
atom 0.1667873720977475 4.7789053080145445 9.9299821228380214 Ba
atom 5.2398792173292081 4.8262173098225762 9.9251837733599864 Ba
atom -0.0504070201972644 0.1670872320421731 14.6754388763316630 Ba
atom 4.8477675321209848 0.0394819573934680 14.6706404010441904 Ba
atom -0.1780122859194616 5.0652616747070125 14.6802371907928784 Ba
atom 4.9535227224680964 5.1710169061709914 14.6754387614631785 Ba
atom 2.5094073931730265 2.5086788685675154 12.5130444322291368 Zr
atom 7.5101054491134160 2.4835976261817247 12.5082461456753062 Zr
atom 2.4843260675765206 7.5093771650884031 12.5178427385045321 Zr
atom 7.5133366035972262 7.5126084145337320 12.5130440337027284 Zr
atom 2.7490493065987605 2.8028887160989693 9.9587070639536552 S
atom 7.2158956373382432 2.2439552959466798 9.9539087533329660 S
atom 2.1901158932020288 7.2697350568466117 9.9635050238864462 S
atom 7.7529790616472427 7.8068184853073781 9.9587071845784330 S
atom 2.3742019437872388 2.2861251489752674 15.0169480200241043 S
atom 7.7326592924557689 2.6188026701667102 15.0121497240713726 S
atom 2.7068794535983778 7.6445824397155535 15.0217466207740920 S
atom 7.3781316682030598 7.2900548398754994 15.0169483166965403 S
atom 2.7861423914463050 -0.0151743035298319 12.1676981260213442 S
atom 7.2706565804667873 -0.0232492235702531 12.6643945974594434 S
atom 2.2448768017511687 5.0025302904229649 12.6739913701416889 S
atom 7.7900721789400240 4.9887550361587341 12.1676981029906539 S
atom 0.0042498809971497 2.2287122409623432 12.1724964636910826 S
atom 5.0162534590318657 2.7481278199167765 12.6691929350772821 S
atom -0.0095256738373537 7.7739076352491452 12.6787897988527352 S
atom 5.0081790973393971 7.2326419603961121 12.1724965362046049 S
atom 2.5197827790462757 2.3674698845716513 18.1327099338542119 Ba
atom 7.6513146264286549 2.4732218079304813 18.1279116875576278 Ba
atom 2.6255349078993246 7.4990015983509890 18.1375082384274577 Ba
atom 7.5237123901800773 7.3713996018073633 18.1327099701226402 Ba
atom 2.2334031387116773 2.7122944934422741 22.8829624383214920 Ba
atom 7.3064902227789696 2.7596011193270016 22.8781638761690793 Ba
atom 2.2807099343465902 7.7853809911318521 22.8877608111414581 Ba
atom 7.2373333493069740 7.7162242648903918 22.8829621788195254 Ba
atom 4.9638823103466647 5.0298240715242546 20.2951043042250632 Zr
atom 9.9928899246968683 5.0330513979675517 20.2903065667816627 Zr
atom 4.9671109688536976 10.0588317339376019 20.2999024593471162 Zr
atom 9.9678111030524192 10.0337543596285226 20.2951052508657348 Zr
atom 4.9787299316860834 5.0291288751549814 25.3517474380004657 Zr
atom 9.9935855677884273 5.0182036419836873 25.3469476049999152 Zr
atom 4.9678047863413131 10.0439840237896085 25.3565454795323291 Zr
atom 9.9826604037147568 10.0330589625326123 25.3517458936701345 Zr
atom 5.0991026293773833 5.2523789869644188 17.7912021769680351 S
atom 9.7703350964928593 4.8978317772460560 17.7864035550620372 S
atom 4.7445552776028350 9.9236114607816486 17.7960008634368450 S
atom 10.1030324538129150 10.2563086622129003 17.7912014216041570 S
atom 4.7242341157816394 4.7356213707268298 22.8494378279534764 S
atom 10.2870927834939803 5.2727003248894864 22.8446399544273540 S
atom 5.2613129427097860 10.2984800268334364 22.8542363051831643 S
atom 9.7281637606083518 9.7395508989675541 22.8494383965142447 S
atom 5.2284273662240750 2.5359716479995678 20.1341550525687119 S
atom 9.7129027804241392 2.5278978377345669 20.6308599008526805 S
atom 4.6871229520869608 7.5536774110636928 20.6404568440675327 S
atom 10.2323572989440272 7.5399009848151675 20.1341548025637280 S
atom 5.3690121146026843 2.5189405428137297 25.6458061976179330 S
atom 9.6142282057377582 2.5135380838118175 25.0480907874561218 S
atom 4.5884486586605888 7.5393174975479127 25.0576875238994283 S
atom 10.3729417825894323 7.5228700990678519 25.6458062981920314 S
atom 2.4570333866574252 4.7903569520563662 20.1389533193410308 S
atom 7.4690363995934330 5.3098113799759670 20.6356584044680069 S
atom 2.4432575449574725 10.3355910801543427 20.6452551816230958 S
atom 7.4609622122606467 9.7942865747275576 20.1389533265357663 S
atom 2.4740646342022949 4.6497723820816796 25.6506046223085278 S
atom 7.4833959362744968 5.4084858693869720 25.0528891337686979 S
atom 2.4576170741900247 10.4342654391695913 25.0624859213827484 S
atom 7.4779935942012639 9.6537018752170365 25.6506046554485856 S
atom 2.7201276248110142 2.3420338383296557 27.8205311612405275 Ba
atom 7.6767503837093454 2.2728771702505388 27.8157330190210281 Ba
atom 2.6509707813393244 7.2986569308049267 27.8253295708984894 Ba
atom 7.7240571428608620 7.3459635589722270 27.8205315304215652 Ba
atom 2.4337481057720387 2.6868584594870071 32.5707839199381155 Ba
atom 7.3319258610424525 2.5592565655350339 32.5659853265037285 Ba
atom 2.3061458999642430 7.5850362752636844 32.5755823583216255 Ba
atom 7.4376780120181643 7.6907881497133914 32.5707837672464890 Ba
atom 4.9935798638357864 5.0284336579319460 30.4083890446942320 Zr
atom 9.9942788307132133 5.0033561228957097 30.4035916360058920 Zr
atom 4.9685003384524160 10.0291361963227086 30.4131877141090499 Zr
atom 9.9975079433151475 10.0323637117957567 30.4083895216131843 Zr
atom 5.2332265110138803 5.3226368009794207 27.8540552698240766 S
atom 9.7000773694628890 4.7637077258548750 27.8492576922243273 S
atom 4.6742975772983488 9.7894874436184587 27.8588539450497557 S
atom 10.2371562812119699 10.3265664738247214 27.8540560196936404 S
atom 4.8583578774823115 4.8058791400519940 32.9122917192076443 S
atom 10.2168351286599233 5.1385762848568710 32.9074925535748264 S
atom 5.1910551660022044 10.1643559912192174 32.9170895520788775 S
atom 9.8622876843702372 9.8098087877827957 32.9122915936062270 S
atom 5.2703375113412090 2.5045806418115371 30.0630369671022173 S
atom 9.7548130184164901 2.4965069349419933 30.5597418229019020 S
atom 4.7290330536703591 7.5222865865399200 30.5693387718882441 S
atom 10.2742674679545924 7.5085099904178989 30.0630367611048257 S
atom 2.4884239413444580 4.7484467429174062 30.0678351688110226 S
atom 7.5004274068120349 5.2679011466892796 30.5645402482252777 S
atom 2.4746485439816168 10.2936809105935492 30.5741370703584678 S
atom 7.4923532145000449 9.7523764303311395 30.0678352269366584 S
