#=======================================================
# FHI-aims file: full_relax/full_relax_RP_4_Rx0Rz_0-Ry0.in
# Created using the Atomic Simulation Environment (ASE)
# Fri Mar 14 11:25:49 2025
#=======================================================
lattice_vector 10.0939664300163816 -0.0000000000000109 0.0024851455990645 
lattice_vector -0.0000000000000109 10.0954977806801480 -0.0000000000000003 
lattice_vector 0.0088978816626861 -0.0000000000000016 45.1563659497402696 
atom -0.1609689482482210 -0.0000000000041187 0.2840930845274733 Ba
atom 5.1971838349315780 -0.0000000000042209 0.2844783977735075 Ba
atom 0.1502006199243251 5.0477488903431187 0.2832358249823166 Ba
atom 4.8860142667618049 5.0477488903432537 0.2853356573255065 Ba
atom 0.0098019735028083 -0.0000000000045773 4.9440482112735120 Ba
atom 4.9975691559012079 -0.0000000000046971 4.9345704857997124 Ba
atom -0.0494140591029089 5.0477488903436445 4.9333279130022767 Ba
atom 5.0567851885111068 5.0477488903436871 4.9452907840700160 Ba
atom 2.5164471842620091 2.5108300836563635 2.3241286430481565 Zr
atom 7.5634303992725460 2.5369188066826194 2.3253712158409425 Zr
atom 2.5164471842626184 7.5846676970176237 2.3241286430522807 Zr
atom 7.5634303992720264 7.5585789739993974 2.3253712158506028 Zr
atom 2.5187422407645528 2.5239648270453645 7.3360172763948022 Zr
atom 7.5657254558001252 2.5237840632937241 7.3372598492053793 Zr
atom 2.5187422407647517 7.5715329536365985 7.3360172763780369 Zr
atom 7.5657254557998899 7.5717137173811819 7.3372598491843801 Zr
atom 2.5183815775624772 2.8802562337754196 -0.1566860218267162 S
atom 7.5653647925696603 2.1674926565639780 -0.1554434490268190 S
atom 2.5183815775624576 7.2152415468986728 -0.1566860218457193 S
atom 7.5653647925696692 7.9280051241191387 -0.1554434490431694 S
atom 2.5196782666361837 2.0514336572774976 4.8637009242311491 S
atom 7.5666614816451512 2.9963152330606797 4.8649434970391692 S
atom 2.5196782666361175 8.0440641234029062 4.8637009242649185 S
atom 7.5666614816453102 7.0991825476158947 4.8649434970580643 S
atom 2.5188859286277281 0.0000000000333330 2.0078903552952592 S
atom 7.5611680256268752 0.0000000000210056 2.7992870762576403 S
atom 2.5141848106200575 5.0477488903133851 2.7980445034574668 S
atom 7.5658691436359913 5.0477488903116079 2.0091329280948211 S
atom 2.5854896445091589 -0.0000000000056987 7.8011370384926693 S
atom 7.5176775405761838 0.0000000000061607 6.8785485490660063 S
atom 2.4706943255730738 5.0477488903429180 6.8773059762664044 S
atom 7.6324728595126983 5.0477488903347849 7.8023796112910269 S
atom -0.0063926509761603 2.5231573287536806 2.4565800352215192 S
atom 5.0405905640252913 2.5245915615845975 2.4578226080239061 S
atom -0.0063926509825972 7.5723404519250703 2.4565800352204556 S
atom 5.0405905640316231 7.5709062190941072 2.4578226080228882 S
atom -0.0013395854766450 2.4562860202127155 7.3436777115563938 S
atom 5.0456436295475529 2.5914628701256612 7.3449202843515797 S
atom -0.0013395854634354 7.6392117604661891 7.3436777115573362 S
atom 5.0456436295345952 7.5040349105530684 7.3449202843525621 S
atom -0.0086621736191596 0.0000000000002610 9.7814244833550195 Ba
atom 5.0595140328250574 0.0000000000000780 9.8530206763286188 Ba
atom 0.0125308178143962 5.0477488903386272 9.8517781035241949 Ba
atom 5.0383210413961086 5.0477488903387178 9.7826670561576687 Ba
atom 0.0532827033003897 -0.0000000000026764 14.6998746738433219 Ba
atom 5.0410498857070092 -0.0000000000028576 14.6903969483764918 Ba
atom -0.0059333293094089 5.0477488903411283 14.6891543755725138 Ba
atom 5.1002659183205559 5.0477488903413343 14.7011172466478310 Ba
atom 2.5321096184338554 2.5239648270477684 12.2984278833154299 Zr
atom 7.5790928334340979 2.5237840632953583 12.2996704561317749 Zr
atom 2.5321096184343914 7.5715329536348586 12.2984278833332734 Zr
atom 7.5790928334336476 7.5717137173829814 12.2996704561344377 Zr
atom 2.5344046749713351 2.5108300836577264 17.3103165165333692 Zr
atom 7.5813878899256633 2.5369188066862742 17.3115590893147129 Zr
atom 2.5344046749732425 7.5846676970194826 17.3103165165277879 Zr
atom 7.5813878899236791 7.5585789739930744 17.3115590893177682 Zr
atom 2.5254259296069197 3.0277894408196055 9.8172225797813617 S
atom 7.5724091446093844 2.0199594495170530 9.8184651525460502 S
atom 2.5254259296069330 7.0677083398580001 9.8172225797629373 S
atom 7.5724091446093675 8.0755383311624005 9.8184651525574029 S
atom 2.5311735925667627 2.0514336572818603 14.7707442354364478 S
atom 7.5781568075836301 2.9963152330596512 14.7719868082418060 S
atom 2.5311735925664789 8.0440641234000037 14.7707442354324883 S
atom 7.5781568075838583 7.0991825476198738 14.7719868082405394 S
atom 2.4653622146998142 0.0000000000112072 11.8333081211496030 S
atom 7.6271407486476939 -0.0000000000044101 12.7583817561942290 S
atom 2.5801575336358686 5.0477488903259600 12.7571391833920114 S
atom 7.5123454297084180 5.0477488903437449 11.8345506939457579 S
atom 2.5319659305748727 0.0000000000186532 17.6265548043699951 S
atom 7.5836502636016414 -0.0000000000027033 16.8376432290118423 S
atom 2.5366670485834568 5.0477488903238665 16.8364006562120423 S
atom 7.5789491455931657 5.0477488903412322 17.6277973771714578 S
atom 0.0052082297006928 2.5914628701268074 12.2895248752965891 S
atom 5.0521914446428999 2.4562860202121879 12.2907674481001656 S
atom 0.0052082296785104 7.5040349105522024 12.2895248752953190 S
atom 5.0521914446649427 7.6392117604671261 12.2907674480987712 S
atom 0.0102612952009610 2.5245915615841885 17.1766225516456323 S
atom 5.0572445101657006 2.5231573287533879 17.1778651244435601 S
atom 0.0102612951777362 7.5709062190943035 17.1766225516451598 S
atom 5.0572445101889798 7.5723404519250890 17.1778651244433931 S
atom -0.1463319757196104 -0.0000000000023625 19.3499667618774431 Ba
atom 5.2118208074490999 -0.0000000000027575 19.3503520751155520 Ba
atom 0.1648375924420024 5.0477488903412615 19.3491095023246302 Ba
atom 4.9006512392902577 5.0477488903416186 19.3512093346619913 Ba
atom 2.5324702816434921 2.8802562337796194 19.7911311815310178 S
atom 7.5794534966560478 2.1674926565575028 19.7923737543477962 S
atom 2.5324702816433389 7.2152415468963724 19.7911311815372244 S
atom 7.5794534966562042 7.9280051241220688 19.7923737543382785 S
atom 2.5320357015619663 2.3681412629688534 22.8648333891497906 Ba
atom 7.5790189165766648 2.6796076273641010 22.8660759619490186 Ba
atom 2.5320357015617176 7.7273565177077330 22.8648333891635893 Ba
atom 7.5790189165768833 7.4158901533168589 22.8660759619643486 Ba
atom 2.5308900394374385 2.5537145317603933 27.5205982982807029 Ba
atom 7.5778732544619523 2.4940343585885145 27.5218408710802933 Ba
atom 2.5308900394373661 7.5417832489194865 27.5205982982885153 Ba
atom 7.5778732544620020 7.6014634220894068 27.5218408710880524 Ba
atom 5.0419460752637102 5.0477488903928993 24.9051563227385309 Zr
atom 10.1150890179947908 5.0477488903942760 24.9061416476596982 Zr
atom 5.0681058029918153 10.0954977806260295 24.9048990748172088 Zr
atom 10.0889292902747858 10.0954977806246529 24.9063988955421536 Zr
atom 5.0541956315083523 5.0477488904246810 29.9159335076328610 Zr
atom 10.1005049163194300 5.0477488904235432 29.9170331969183785 Zr
atom 5.0535217013080542 10.0954977805943305 29.9157906241472666 Zr
atom 10.1011788465091232 10.0954977805954957 29.9171760804017985 Zr
atom 5.4123527100060267 5.0477488903328096 22.4245438237915309 S
atom 9.7458300407724678 5.0477488903326693 22.4253518396688740 S
atom 4.6988468257703211 10.0954977806862303 22.4241092669053330 S
atom 10.4593359250206621 10.0954977806862463 22.4257863965487765 S
atom 4.5799340594107480 5.0477488903259973 27.4440932051669044 S
atom 10.5759157898395006 5.0477488903258010 27.4455018238837631 S
atom 5.5289325748246601 10.0954977806929893 27.4442592510864856 S
atom 9.6269172744175027 10.0954977806932042 27.4453357780414073 S
atom 5.0549849556800446 2.5238610738177920 25.0385078663672047 S
atom 10.1019681706889912 2.5238878165429912 25.0397504391630932 S
atom 5.0549849556799975 7.5716367068611445 25.0385078663636165 S
atom 10.1019681706890392 7.5716099641359405 25.0397504391594552 S
atom 5.0538267919057356 2.5238753446002438 29.9253940484661527 S
atom 10.1008100069147524 2.5238735456612535 29.9266366212662902 S
atom 5.0538267919058830 7.5716224360787070 29.9253940484650869 S
atom 10.1008100069145108 7.5716242350176559 29.9266366212648123 S
atom 2.5316049828962495 5.0477488903298067 24.5866817988424522 S
atom 7.5784134445782403 5.0477488903284984 25.3804758529025420 S
atom 2.5314302296460021 10.0954977806903425 25.3792332801069946 S
atom 7.5785881978088945 10.0954977806892874 24.5879243716405682 S
atom 2.5302502565327369 5.0477488903222749 30.3827609763128237 S
atom 7.5774472210042507 5.0477488903224579 29.4546105254551875 S
atom 2.5304640060127150 10.0954977806964799 29.4533679526624361 S
atom 7.5772334715298237 10.0954977806968547 30.3840035491072058 S
atom 2.5298748704347007 2.5138695758551419 32.3954055547086099 Ba
atom 7.5768580854439564 2.5338793144930278 32.3966481275073050 Ba
atom 2.5298748704349587 7.5816282048228993 32.3954055547057465 Ba
atom 7.5768580854436527 7.5616184661870598 32.3966481275047471 Ba
atom 2.5288597014319114 2.5537145317430046 37.2702128111094808 Ba
atom 7.5758429164258745 2.4940343585705769 37.2714553839109826 Ba
atom 2.5288597014317213 7.5417832489361887 37.2702128110990927 Ba
atom 7.5758429164260548 7.6014634221074839 37.2714553839003457 Ba
atom 5.0532112545684349 5.0477488904113246 34.8762630580868915 Zr
atom 10.0995205393764014 5.0477488904109125 34.8773627473665400 Zr
atom 5.0525373243739971 10.0954977806075910 34.8761201746475678 Zr
atom 10.1001944695795860 10.0954977806080155 34.8775056309137241 Zr
atom 5.0386271528986475 5.0477488903651242 39.8871546073395464 Zr
atom 10.1117700956214183 5.0477488903667984 39.8881399322469221 Zr
atom 5.0647868806134602 10.0954977806537514 39.8868973594150660 Zr
atom 10.0856103678911886 10.0954977806520390 39.8883971801272992 Zr
atom 5.5606694555423690 5.0477488903250309 32.3961618400452025 S
atom 9.5930467153432382 5.0477488903253587 32.3971344149163230 S
atom 4.5460635003352898 10.0954977806939663 32.3958918420526913 S
atom 10.6076526705518237 10.0954977806936164 32.3974044128044198 S
atom 4.5778003810505847 5.0477488903295651 37.3477944311220966 S
atom 10.5737821114729869 5.0477488903293839 37.3492030498607761 S
atom 5.5267988964703578 10.0954977806893940 37.3479604769938973 S
atom 9.6247835960600572 10.0954977806896018 37.3490370039408575 S
atom 5.0529061639726818 2.5238735457281023 34.8666596337291921 S
atom 10.0998893789799808 2.5238753446577804 34.8679022065276669 S
atom 5.0529061639732955 7.5716242349507947 34.8666596337306700 S
atom 10.0998893789793396 7.5716224360210749 34.8679022065295499 S
atom 5.0517480001972190 2.5238878165679335 39.7535458158351815 S
atom 10.0987312152077209 2.5238610738676268 39.7547883886319298 S
atom 5.0517480001973745 7.5716099641108867 39.7535458158372990 S
atom 10.0987312152075592 7.5716367068112085 39.7547883886340117 S
atom 2.5294994843459864 5.0477488903245744 34.4080501330798398 S
atom 7.5762689498739864 5.0477488903252699 35.3386857295415524 S
atom 2.5292857348595068 10.0954977806932344 35.3374431567424807 S
atom 7.5764826993559309 10.0954977806948794 34.4092927058732343 S
atom 2.5281447579569178 5.0477488903346055 40.2041293105508046 S
atom 7.5753027263203325 5.0477488903338132 39.4128204020969903 S
atom 2.5283195112308601 10.0954977806852977 39.4115778292970447 S
atom 7.5751279730721413 10.0954977806841573 40.2053718833588718 S
atom 2.5277140393112827 2.3681412629675491 41.9259777202435515 Ba
atom 7.5746972543068978 2.6796076273609772 41.9272202930436180 Ba
atom 2.5277140393109696 7.7273565177098762 41.9259777202395654 Ba
atom 7.5746972543072051 7.4158901533194452 41.9272202930384950 Ba
atom 5.4078861301141536 5.0477488903359697 42.3679444153128131 S
atom 9.7413634608831110 5.0477488903358276 42.3687524311912327 S
atom 4.6943802458633952 10.0954977806829849 42.3675098584515410 S
atom 10.4548693451189436 10.0954977806830524 42.3691869881113661 S
