#=======================================================
# FHI-aims file: full_relax/full_relax_RP_4_Rx1Ry20_-Rx2-Ry10.in
# Created using the Atomic Simulation Environment (ASE)
# Fri Mar 14 11:23:37 2025
#=======================================================
lattice_vector 10.0889879755420342 0.0000069427460864 -0.0000000000004566 
lattice_vector 0.0000069427460831 10.0889879755416985 -0.0000000000000209 
lattice_vector -0.0000000000021536 -0.0000000000000985 45.2580417496991174 
atom -0.1704630725332397 -0.0000083840184736 0.2942955525028241 Ba
atom 5.2149570603228801 0.0000118552672065 0.2942955522765945 Ba
atom 0.1704665437224980 5.0445023717250361 0.2942955524133152 Ba
atom 4.8740343867671214 5.0444890751861760 0.2942955522664554 Ba
atom 0.0283103312038214 -0.0000257401946870 4.9578277223438612 Ba
atom 5.0161836565645546 0.0000292115996892 4.9578277223570755 Ba
atom -0.0283068599509778 5.0445197279984519 4.9578277223523237 Ba
atom 5.0728077904626652 5.0444717189430675 4.9578277223601876 Ba
atom 2.5222433127485981 2.4999024884088348 2.3433317661828941 Zr
atom 7.5667481341510774 2.5445984421176404 2.3433317661823683 Zr
atom 2.5222576177324383 7.5890889586188823 2.3433317665148889 Zr
atom 7.5667407719786954 7.5443999477782189 2.3433317658274895 Zr
atom 2.5222411635703459 2.5230418773689904 7.3579500754682376 Zr
atom 7.5667502832970630 2.5214590531906382 7.3579500758070546 Zr
atom 2.5222597669524371 7.5659495697372838 7.3579500768023651 Zr
atom 7.5667386227631255 7.5675393360356038 7.3579500751548581 Zr
atom 2.5222531767795733 2.8102606767193725 -0.1353135310704439 S
atom 7.5667382700966641 2.2342402538307482 -0.1353135312582210 S
atom 2.5222477536784020 7.2787307701073285 -0.1353135319561896 S
atom 7.5667506359599299 7.8547581358629204 -0.1353135304698625 S
atom 2.5222051665427472 2.0554964490552834 4.8855830628138248 S
atom 7.5667862803493611 2.9890044815482826 4.8855830624752050 S
atom 2.5222957639794696 8.0334949982013786 4.8855830611763373 S
atom 7.5667026257161911 7.0999939080203633 4.8855830623361598 S
atom 2.5222469938831522 0.0000017357786460 2.0425227356579478 S
atom 7.5667409816388602 0.0000052071373846 2.7825872364830753 S
atom 2.5222504652576547 5.0444957232623926 2.7825872366094893 S
atom 7.5667444530659527 5.0444991943579724 2.0425227354971005 S
atom 2.5222469938841239 0.0000017353682766 7.8237674299905500 S
atom 7.5667409816561531 0.0000052074283900 6.8937604598166713 S
atom 2.5222504652610738 5.0444957225696170 6.8937604598465780 S
atom 7.5667444530292007 5.0444991953669476 7.8237674299523885 S
atom 0.0000017358062342 2.5222469939461289 2.4803929735107393 S
atom 5.0444957233654666 2.5222504652931401 2.4804597706152043 S
atom 0.0000052066538397 7.5667409817040809 2.4804597707740279 S
atom 5.0444991951252742 7.5667444531052439 2.4803929736987880 S
atom 0.0000017353481035 2.5222469939155063 7.3692150330968555 S
atom 5.0444957238905754 2.5222504652902744 7.3691482023797281 S
atom 0.0000052076498495 7.5667409816820435 7.3691482026725073 S
atom 5.0444991941109265 7.5667444530530883 7.3692150333949016 S
atom -0.0088055896910022 -0.0000197338751702 9.8387047282080626 Ba
atom 5.0532995774589686 0.0000232053809779 9.8387047282109759 Ba
atom 0.0088090612218924 5.0445137216728932 9.8387047282076647 Ba
atom 5.0356918692880308 5.0444777251697559 9.8387047282080538 Ba
atom 0.0283103315740569 -0.0000257402911431 14.7195817337332731 Ba
atom 5.0161836561872892 0.0000292115021541 14.7195817337324364 Ba
atom -0.0283068602067310 5.0445197280694476 14.7195817337283650 Ba
atom 5.0728077907182270 5.0444717190216473 14.7195817337120172 Ba
atom 2.5222411635814925 2.5230418771412944 12.3194593821489313 Zr
atom 7.5667502833615599 2.5214590526223795 12.3194593815439593 Zr
atom 2.5222597669802305 7.5659495693083016 12.3194593819288709 Zr
atom 7.5667386227139524 7.5675393358918743 12.3194593831232062 Zr
atom 2.5222433127120119 2.4999024885112031 17.3340776892031023 Zr
atom 7.5667481341926832 2.5445984419678935 17.3340776888679962 Zr
atom 2.5222576176789899 7.5890889588803176 17.3340776888324015 Zr
atom 7.5667407719888287 7.5443999475497847 17.3340776899084190 Zr
atom 2.5222688733712513 3.0295332946627807 9.8387047288448759 S
atom 7.5667225735355199 2.0149676356278698 9.8387047292722372 S
atom 2.5222320571585151 7.0594581523544875 9.8387047286504252 S
atom 7.5667663325306904 8.0740307536672997 9.8387047286102831 S
atom 2.5222051665688778 2.0554964493839050 14.7918263932396705 S
atom 7.5667862803498060 2.9890044809113534 14.7918263941034347 S
atom 2.5222957639737147 8.0334949974848815 14.7918263935302150 S
atom 7.5667026256967462 7.0999939083133006 14.7918263924017843 S
atom 2.5222469938906324 0.0000017363181604 11.8536420261114355 S
atom 7.5667409816677482 0.0000052082804296 12.7836489960972042 S
atom 2.5222504652692801 5.0444957240132808 12.7836489961491058 S
atom 7.5667444530384627 5.0444991959030387 11.8536420260939703 S
atom 2.5222469938894947 0.0000017349616267 17.6348867216645537 S
atom 7.5667409816730808 0.0000052075956519 16.8948222212411316 S
atom 2.5222504652668762 5.0444957232736733 16.8948222211839614 S
atom 7.5667444530163346 5.0444991950904994 17.6348867217098366 S
atom 0.0000017355544168 2.5222469935852905 12.3081944229013107 S
atom 5.0444957235158627 2.5222504649584558 12.3082612536300253 S
atom 0.0000052075909994 7.5667409813635551 12.3082612536954503 S
atom 5.0444991942157467 7.5667444527357777 12.3081944229688105 S
atom 0.0000017359813384 2.5222469938964145 17.1970164837282837 S
atom 5.0444957231603418 2.5222504652905702 17.1969496865997655 S
atom 0.0000052066144289 7.5667409816883291 17.1969496868805187 S
atom 5.0444991952369715 7.5667444530405783 17.1970164839496285 S
atom -0.1704630726076374 -0.0000083840817873 19.3831139054384103 Ba
atom 5.2149570603291933 0.0000118552027116 19.3831139051248655 Ba
atom 0.1704665437854055 5.0445023717526114 19.3831139052847838 Ba
atom 4.8740343867450804 5.0444890752141660 19.3831139052088588 Ba
atom 2.5222531767802163 2.8102606767775749 19.8127229845511472 S
atom 7.5667382701581660 2.2342402536525836 19.8127229852416704 S
atom 2.5222477536706887 7.2787307702409834 19.8127229850015247 S
atom 7.5667506360185710 7.8547581357922152 19.8127229835993681 S
atom 2.5222571135716079 2.6927118019368681 22.9233164282468422 Ba
atom 7.5667343333285295 2.3517891287550379 22.9233164281913204 Ba
atom 2.5222438170343970 7.3962796449913091 22.9233164282413533 Ba
atom 7.5667545726123935 7.7372092608990055 22.9233164282489952 Ba
atom 2.5222744700349664 2.4939383983740413 27.5868485969766972 Ba
atom 7.5667169769107261 2.5505625322452534 27.5868485969157717 Ba
atom 2.5222264609791996 7.5950530485319501 27.5868485969921977 Ba
atom 7.5667719287112973 7.5384358574138837 27.5868485969253854 Ba
atom 5.0668437000318001 5.0445028759008714 24.9723526406773857 Zr
atom 10.0666452056337654 5.0444955136984486 24.9723526408284009 Zr
atom 5.0221546891213640 10.0889860301725118 24.9723526414255943 Zr
atom 10.1113411597413947 10.0890003351396711 24.9723526414915611 Zr
atom 5.0437043113371374 5.0445050251357655 29.9869709513766409 Zr
atom 10.0897845940710713 5.0444933645198669 29.9869709519767511 Zr
atom 5.0452940776747477 10.0889838809583310 29.9869709519621921 Zr
atom 10.0882017695827688 10.0890024841904697 29.9869709533504185 Zr
atom 4.7564855120100740 5.0444930118972664 22.4937073428653775 S
atom 10.3770033939984110 5.0445053777525501 22.4937073422158598 S
atom 5.3325128776834569 10.0889958942093081 22.4937073425529306 S
atom 9.8009829710355163 10.0889904711055838 22.4937073409214925 S
atom 5.5112497396744500 5.0445410221710762 27.5146039403993115 S
atom 9.6222391660626485 5.0444573674869719 27.5146039382049103 S
atom 4.5777486493889699 10.0889478839031632 27.5146039374220024 S
atom 10.5557471988846867 10.0890384812933362 27.5146039350623575 S
atom 5.0444957233738164 2.5222504659027050 25.1094806452995201 S
atom 10.0889897112287752 2.5222539373001314 25.1094138488551586 S
atom 5.0444991947052724 7.5667444523422329 25.1094138482282290 S
atom 10.0889931826425627 7.5667479236494719 25.1094806459619058 S
atom 5.0444957230631200 2.5222504644109445 29.9981690774070273 S
atom 10.0889897107297255 2.5222539363563201 29.9982359077730152 S
atom 5.0444991944298856 7.5667444537912925 29.9982359081366319 S
atom 10.0889931821087764 7.5667479248848606 29.9981690770497131 S
atom 2.5222504663672232 5.0444957234860981 25.4116081114319279 S
atom 7.5667444528270389 5.0444991948134570 24.6715436099492429 S
atom 2.5222539370571511 10.0889897112126476 24.6715436106759398 S
atom 7.5667479237317004 10.0889931826287196 25.4116081118561432 S
atom 2.5222504643935459 5.0444957234498577 29.5227813343498475 S
atom 7.5667444557062602 5.0444991948148319 30.4527883042010110 S
atom 2.5222539370239780 10.0889897112185682 30.4527883048084824 S
atom 7.5667479275691329 10.0889931825947148 29.5227813347909027 S
atom 2.5222684633879968 2.5310543194923918 32.4677256030758628 Ba
atom 7.5667229834836398 2.5134466111102585 32.4677256030338199 Ba
atom 2.5222324668795792 7.5579371274203275 32.4677256030684518 Ba
atom 7.5667659227406405 7.5755517785560604 32.4677256030327896 Ba
atom 2.5222744696583228 2.4939383979856484 37.3486026088697116 Ba
atom 7.5667169772026561 2.5505625323827994 37.3486026089007979 Ba
atom 2.5222264606084899 7.5950530489232699 37.3486026088586200 Ba
atom 7.5667719290003728 7.5384358572689480 37.3486026089076262 Ba
atom 5.0437043117168026 5.0445050251386574 34.9484802562355270 Zr
atom 10.0897845943184006 5.0444933645403536 34.9484802545485280 Zr
atom 5.0452940774813184 10.0889838809588426 34.9484802547801152 Zr
atom 10.0882017705583173 10.0890024843314077 34.9484802561836219 Zr
atom 5.0668437001431927 5.0445028759081865 39.9630985653788144 Zr
atom 10.0666452057591442 5.0444955137159777 39.9630985642580825 Zr
atom 5.0221546889934547 10.0889860301563470 39.9630985640964909 Zr
atom 10.1113411593385862 10.0890003351203994 39.9630985643521655 Zr
atom 4.5372128941013017 5.0444773153621068 32.4677256011193123 S
atom 10.5962760114137229 5.0445210743164148 32.4677256051833822 S
atom 5.5517854947435641 10.0890115907222402 32.4677256018810780 S
atom 9.5817103531389467 10.0889747744764744 32.4677256041709299 S
atom 5.5112497393979467 5.0445410221675369 37.4208472657093409 S
atom 9.6222391663500968 5.0444573675189899 37.4208472671134658 S
atom 4.5777486497918440 10.0889478839033053 37.4208472703490074 S
atom 10.5557471983241502 10.0890384813181093 37.4208472642191197 S
atom 5.0444957232771381 2.5222504641506238 34.9372821290151023 S
atom 10.0889897109771258 2.5222539365742227 34.9372152982249702 S
atom 5.0444991946445601 7.5667444540388633 34.9372152982828723 S
atom 10.0889931823557344 7.5667479243002127 34.9372821289559781 S
atom 5.0444957233099350 2.5222504658914171 39.8259705610052990 S
atom 10.0889897110868461 2.5222539364707139 39.8260373585967002 S
atom 5.0444991946536764 7.5667444523705560 39.8260373580934868 S
atom 10.0889931824883838 7.5667479244830398 39.8259705614983517 S
atom 2.5222504668930350 5.0444957234815098 35.4126698715781245 S
atom 7.5667444524285852 5.0444991948468383 34.4826629017524482 S
atom 2.5222539392081678 10.0889897112391296 34.4826629015126684 S
atom 7.5667479244268190 10.0889931826174752 35.4126698714089159 S
atom 2.5222504651585678 5.0444957234873549 39.5238430954876350 S
atom 7.5667444529767200 5.0444991948246276 40.2639075964888988 S
atom 2.5222539359446361 10.0889897112211102 40.2639075963302915 S
atom 7.5667479260050934 10.0889931826186210 39.5238430954138096 S
atom 2.5222571136963490 2.6927118020432919 42.0121347793754865 Ba
atom 7.5667343333006611 2.3517891285751236 42.0121347794495179 Ba
atom 2.5222438171570469 7.3962796448587502 42.0121347795130333 Ba
atom 7.5667545725861958 7.7372092610834775 42.0121347794146587 Ba
atom 4.7564855119329543 5.0444930119264750 42.4417438611240314 S
atom 10.3770033941906696 5.0445053777826141 42.4417438620445324 S
atom 5.3325128777779387 10.0889958941731130 42.4417438621490959 S
atom 9.8009829710989678 10.0889904710693976 42.4417438614036655 S
