#=======================================================
# FHI-aims file: full_relax/full_relax_RP_4_Rx00_0Ry0.in
# Created using the Atomic Simulation Environment (ASE)
# Fri Mar 14 11:23:01 2025
#=======================================================
lattice_vector 10.0954309719778461 -0.0000000000000000 0.0000000000000007 
lattice_vector -0.0000000000000000 10.0954309719777395 -0.0000000000000010 
lattice_vector 0.0000000000000034 -0.0000000000000046 45.1499492164094107 
atom -0.1558778213568601 -0.0000000000000958 0.2852021543620757 Ba
atom 5.2035933073455327 -0.0000000000000914 0.2852021543621227 Ba
atom 0.1558778213566262 5.0477154859886806 0.2852021543622087 Ba
atom 4.8918376646320647 5.0477154859886744 0.2852021543620740 Ba
atom 0.0299236545540023 -0.0000000000001500 4.9406786107672946 Ba
atom 5.0177918314346792 -0.0000000000001573 4.9406786107673248 Ba
atom -0.0299236545542457 5.0477154859887445 4.9406786107673213 Ba
atom 5.0776391405429759 5.0477154859887445 4.9406786107673293 Ba
atom 2.5238577429943096 2.5107469725351912 2.3244037931933885 Zr
atom 7.5715732289832571 2.5369685134533482 2.3244037931934733 Zr
atom 2.5238577429943301 7.5846839994422597 2.3244037931936310 Zr
atom 7.5715732289832722 7.5584624585240547 2.3244037931936434 Zr
atom 2.5238577429943558 2.5241979566850610 7.3351095030676863 Zr
atom 7.5715732289832927 2.5235175293034304 7.3351095030676063 Zr
atom 2.5238577429943407 7.5712330152923180 7.3351095030677333 Zr
atom 7.5715732289832758 7.5719134426739760 7.3351095030678719 Zr
atom 2.5238577429943891 2.8807573528045496 -0.1561846446940280 S
atom 7.5715732289832332 2.1669581331840160 -0.1561846446939719 S
atom 2.5238577429944011 7.2146736191728733 -0.1561846446940575 S
atom 7.5715732289832332 7.9284728387934322 -0.1561846446941712 S
atom 2.5238577429943305 2.0493462656129591 4.8635260199351915 S
atom 7.5715732289832900 2.9983692203755621 4.8635260199351649 S
atom 2.5238577429943176 8.0460847063644376 4.8635260199352599 S
atom 7.5715732289832944 7.0970617516018430 4.8635260199351968 S
atom 2.5238577429943230 -0.0000000000000801 2.0069490618592596 S
atom 7.5715732289832731 -0.0000000000000990 2.7991578973147022 S
atom 2.5238577429943829 5.0477154859887605 2.7991578973147049 S
atom 7.5715732289832287 5.0477154859887952 2.0069490618592893 S
atom 2.5238577429943665 -0.0000000000000950 7.8023840136983571 S
atom 7.5715732289832847 0.0000000000000377 6.8735021871156370 S
atom 2.5238577429943616 5.0477154859889293 6.8735021871156006 S
atom 7.5715732289832767 5.0477154859888991 7.8023840136983500 S
atom -0.0000000000000366 2.5238577429942484 2.4580120229135671 S
atom 5.0477154859887916 2.5238577429942981 2.4580120229135738 S
atom -0.0000000000000924 7.5715732289831648 2.4580120229135232 S
atom 5.0477154859887836 7.5715732289831132 2.4580120229135516 S
atom 0.0000000000000281 2.5238577429942626 7.3446614149674554 S
atom 5.0477154859886681 2.5238577429942590 7.3446614149674163 S
atom -0.0000000000001480 7.5715732289831168 7.3446614149674962 S
atom 5.0477154859888973 7.5715732289831550 7.3446614149674332 S
atom -0.0100952249629844 -0.0000000000001605 9.8152063513942114 Ba
atom 5.0578107109516761 -0.0000000000001771 9.8152063513942185 Ba
atom 0.0100952249627606 5.0477154859887801 9.8152063513941350 Ba
atom 5.0376202610259826 5.0477154859887392 9.8152063513941989 Ba
atom 0.0299236545539884 -0.0000000000000874 14.6897340920211175 Ba
atom 5.0177918314347147 -0.0000000000000911 14.6897340920210944 Ba
atom -0.0299236545542487 5.0477154859886841 14.6897340920210535 Ba
atom 5.0776391405429857 5.0477154859886992 14.6897340920210766 Ba
atom 2.5238577429943332 2.5241979566850512 12.2953031997206370 Zr
atom 7.5715732289832722 2.5235175293034708 12.2953031997208342 Zr
atom 2.5238577429943350 7.5712330152923224 12.2953031997205127 Zr
atom 7.5715732289832802 7.5719134426739849 12.2953031997203741 Zr
atom 2.5238577429942919 2.5107469725351099 17.3060089095950822 Zr
atom 7.5715732289832909 2.5369685134533495 17.3060089095947909 Zr
atom 2.5238577429943332 7.5846839994422863 17.3060089095948229 Zr
atom 7.5715732289833149 7.5584624585240485 17.3060089095949863 Zr
atom 2.5238577429943603 3.0312365400927797 9.8152063513945187 S
atom 7.5715732289832509 2.0164789458957588 9.8152063513943322 S
atom 2.5238577429943900 7.0641944318846353 9.8152063513941883 S
atom 7.5715732289832500 8.0789520260816001 9.8152063513942593 S
atom 2.5238577429943510 2.0493462656129844 14.7668866828532597 S
atom 7.5715732289832562 2.9983692203755128 14.7668866828533769 S
atom 2.5238577429943514 8.0460847063644572 14.7668866828532774 S
atom 7.5715732289832900 7.0970617516018182 14.7668866828533716 S
atom 2.5238577429943674 -0.0000000000000521 11.8280286890901394 S
atom 7.5715732289832554 0.0000000000000601 12.7569105156728089 S
atom 2.5238577429943416 5.0477154859889017 12.7569105156728373 S
atom 7.5715732289833113 5.0477154859889337 11.8280286890901127 S
atom 2.5238577429943789 -0.0000000000000525 17.6234636409291845 S
atom 7.5715732289832465 0.0000000000001374 16.8312548054738365 S
atom 2.5238577429943354 5.0477154859888662 16.8312548054738222 S
atom 7.5715732289832767 5.0477154859887845 17.6234636409291170 S
atom -0.0000000000000936 2.5238577429942515 12.2857512878209256 S
atom 5.0477154859888929 2.5238577429942799 12.2857512878209363 S
atom -0.0000000000000809 7.5715732289831470 12.2857512878209754 S
atom 5.0477154859888724 7.5715732289831443 12.2857512878210677 S
atom 0.0000000000000359 2.5238577429942524 17.1724006798749684 S
atom 5.0477154859887987 2.5238577429942559 17.1724006798750004 S
atom -0.0000000000000300 7.5715732289831310 17.1724006798748654 S
atom 5.0477154859887241 7.5715732289831212 17.1724006798748654 S
atom -0.1558778213568280 -0.0000000000001402 19.3452105484266923 Ba
atom 5.2035933073455460 -0.0000000000001273 19.3452105484266532 Ba
atom 0.1558778213565958 5.0477154859886992 19.3452105484266283 Ba
atom 4.8918376646321091 5.0477154859887072 19.3452105484266141 Ba
atom 2.5238577429943323 2.8807573528045998 19.7865973474821431 S
atom 7.5715732289832935 2.1669581331839600 19.7865973474824060 S
atom 2.5238577429943523 7.2146736191728751 19.7865973474825871 S
atom 7.5715732289832864 7.9284728387934313 19.7865973474824912 S
atom 2.5238577429943785 2.3679799216376463 22.8601767625669687 Ba
atom 7.5715732289832411 2.6797355643509766 22.8601767625669439 Ba
atom 2.5238577429943851 7.7274510503397513 22.8601767625669332 Ba
atom 7.5715732289832323 7.4156954076264219 22.8601767625669012 Ba
atom 2.5238577429943145 2.5537813975483346 27.5156532189720480 Ba
atom 7.5715732289832456 2.4939340884402306 27.5156532189721865 Ba
atom 2.5238577429943074 7.5416495744289902 27.5156532189720764 Ba
atom 7.5715732289832820 7.6014968835371635 27.5156532189721190 Ba
atom 5.0346047155296150 5.0477154859886824 24.8993784013983266 Zr
atom 10.1085417424367243 5.0477154859886868 24.8993784013984794 Zr
atom 5.0608262564479212 10.0954309719775672 24.8993784013986854 Zr
atom 10.0823202015185061 10.0954309719775495 24.8993784013984651 Zr
atom 5.0480556996796606 5.0477154859886859 29.9100841112731750 Zr
atom 10.0950907582866769 5.0477154859887152 29.9100841112728162 Zr
atom 5.0473752722977885 10.0954309719775690 29.9100841112729725 Zr
atom 10.0957711856684327 10.0954309719775779 29.9100841112731430 Zr
atom 5.4046150957990200 5.0477154859886983 22.4187899635102106 S
atom 9.7385313621674214 5.0477154859887206 22.4187899635101004 S
atom 4.6908158761785224 10.0954309719775672 22.4187899635099228 S
atom 10.4523305817880345 10.0954309719775441 22.4187899635098091 S
atom 4.5732040086072967 5.0477154859887241 27.4385006281397459 S
atom 10.5699424493589280 5.0477154859886850 27.4385006281404706 S
atom 5.5222269633700956 10.0954309719775477 27.4385006281399839 S
atom 9.6209194945962970 10.0954309719775885 27.4385006281394190 S
atom 5.0477154859887072 2.5238577429942772 25.0329866311184794 S
atom 10.0954309719776401 2.5238577429944113 25.0329866311184226 S
atom 5.0477154859887285 7.5715732289831319 25.0329866311184368 S
atom 10.0954309719776187 7.5715732289830155 25.0329866311184688 S
atom 5.0477154859885429 2.5238577429946281 29.9196360231721989 S
atom 10.0954309719776578 2.5238577429935711 29.9196360231722203 S
atom 5.0477154859887010 7.5715732289827873 29.9196360231722558 S
atom 10.0954309719775051 7.5715732289838762 29.9196360231721457 S
atom 2.5238577429942199 5.0477154859886726 24.5819236700641497 S
atom 7.5715732289838638 5.0477154859887117 25.3741325055195972 S
atom 2.5238577429945992 10.0954309719775566 25.3741325055196647 S
atom 7.5715732289833992 10.0954309719774979 24.5819236700641746 S
atom 2.5238577429949300 5.0477154859887836 30.3773586219031095 S
atom 7.5715732289833459 5.0477154859886655 29.4484767953204454 S
atom 2.5238577429946369 10.0954309719775335 29.4484767953204098 S
atom 7.5715732289837030 10.0954309719776347 30.3773586219030420 S
atom 2.5238577429943390 2.5137625180313354 32.3901809595990429 Ba
atom 7.5715732289832234 2.5339529679571582 32.3901809595991352 Ba
atom 2.5238577429943567 7.5816684539460271 32.3901809595991210 Ba
atom 7.5715732289831745 7.5614780040202119 32.3901809595989647 Ba
atom 2.5238577429943128 2.5537813975484656 37.2647087002258743 Ba
atom 7.5715732289832580 2.4939340884401258 37.2647087002259596 Ba
atom 2.5238577429942728 7.5416495744289671 37.2647087002259170 Ba
atom 7.5715732289832900 7.6014968835372985 37.2647087002258601 Ba
atom 5.0480556996794990 5.0477154859886584 34.8702778079248930 Zr
atom 10.0950907582871388 5.0477154859886388 34.8702778079259730 Zr
atom 5.0473752722979537 10.0954309719775868 34.8702778079258238 Zr
atom 10.0957711856683936 10.0954309719775157 34.8702778079247651 Zr
atom 5.0346047155296407 5.0477154859886895 39.8809835177987750 Zr
atom 10.1085417424365964 5.0477154859886246 39.8809835178001748 Zr
atom 5.0608262564476441 10.0954309719775654 39.8809835177998409 Zr
atom 10.0823202015184581 10.0954309719776063 39.8809835177992085 Zr
atom 5.5550942830870644 5.0477154859886104 32.3901809595996184 S
atom 9.5880521748791061 5.0477154859887028 32.3901809595977923 S
atom 4.5403366888902452 10.0954309719776187 32.3901809595979415 S
atom 10.6028097690759839 10.0954309719775193 32.3901809596002579 S
atom 4.5732040086074459 5.0477154859887357 37.3418612910580876 S
atom 10.5699424493588960 5.0477154859886317 37.3418612910573842 S
atom 5.5222269633699250 10.0954309719774891 37.3418612910576329 S
atom 9.6209194945962988 10.0954309719775672 37.3418612910581942 S
atom 5.0477154859888156 2.5238577429941516 34.8607258960259756 S
atom 10.0954309719775228 2.5238577429944775 34.8607258960257411 S
atom 5.0477154859886104 7.5715732289831861 34.8607258960257411 S
atom 10.0954309719777466 7.5715732289830449 34.8607258960258264 S
atom 5.0477154859887134 2.5238577429943501 39.7473752880796738 S
atom 10.0954309719776010 2.5238577429942537 39.7473752880797875 S
atom 5.0477154859886877 7.5715732289829880 39.7473752880796312 S
atom 10.0954309719776418 7.5715732289831363 39.7473752880796951 S
atom 2.5238577429945721 5.0477154859885554 34.4030032972950295 S
atom 7.5715732289834268 5.0477154859887285 35.3318851238777683 S
atom 2.5238577429950255 10.0954309719775761 35.3318851238776617 S
atom 7.5715732289835964 10.0954309719774251 34.4030032972949300 S
atom 2.5238577429941929 5.0477154859887525 40.1984382491340142 S
atom 7.5715732289836524 5.0477154859886904 39.4062294136787443 S
atom 2.5238577429948381 10.0954309719775335 39.4062294136785880 S
atom 7.5715732289834765 10.0954309719776223 40.1984382491339858 S
atom 2.5238577429943421 2.3679799216375073 41.9201851566312911 Ba
atom 7.5715732289834197 2.6797355643509531 41.9201851566312698 Ba
atom 2.5238577429943585 7.7274510503398552 41.9201851566311348 Ba
atom 7.5715732289834152 7.4156954076264441 41.9201851566312413 Ba
atom 5.4046150957990875 5.0477154859887268 42.3615719556882766 S
atom 9.7385313621674356 5.0477154859887463 42.3615719556862018 S
atom 4.6908158761784602 10.0954309719775353 42.3615719556868342 S
atom 10.4523305817879795 10.0954309719775175 42.3615719556876442 S
