#=======================================================
# FHI-aims file: full_relax/full_relax_RP_4_RxRyRz_RxRy0.in
# Created using the Atomic Simulation Environment (ASE)
# Fri Mar 14 11:28:02 2025
#=======================================================
lattice_vector 10.0377697904312573 0.0292177443541393 0.0095832152820624 
lattice_vector 0.0292177443539735 10.0377697904101009 -0.0095832154003815 
lattice_vector 0.0436746445032253 -0.0436746450552850 45.6683943521237126 
atom 0.0188695949933333 -0.1214908812723590 0.2429639245926187 Ba
atom 5.1403757776264554 -0.0042607113991617 0.2477556303768847 Ba
atom 0.1360997578492545 5.0000153131794010 0.2381723979135829 Ba
atom 5.0523633552959799 4.9120028873515897 0.2429639627879131 Ba
atom -0.2351712127150730 0.1962305034257333 4.9788004204844620 Ba
atom 4.8226543921738303 0.2497800802906283 4.9835920272396175 Ba
atom -0.1816216362658607 5.2540561073764787 4.9740088114960725 Ba
atom 4.7983225590990477 5.2297242749917272 4.9788004184466521 Ba
atom 2.4924919095839120 2.5415473812212426 2.3718348453265312 Zr
atom 7.5108312853680337 2.5556107277830122 2.3766264526392962 Zr
atom 2.5065552457980140 7.5598867351723200 2.3670432251383065 Zr
atom 7.5259856887217085 7.5750411345148869 2.3718348615874034 Zr
atom 2.4547209525242715 2.5654303782930792 7.4200152318204564 Zr
atom 7.4869482911196679 2.5933816878580824 7.4248068477641382 Zr
atom 2.4826722569426702 7.5976577031416195 7.4152236198038057 Zr
atom 7.4882147363606482 7.5989241400682754 7.4200152466239944 Zr
atom 2.6788932520817208 2.7987125308987073 -0.1268828379701234 S
atom 7.2536661167673655 2.3692093866836075 -0.1220912676475352 S
atom 2.2493901049022447 7.3734854124415703 -0.1316744835218968 S
atom 7.7123870055501493 7.8322063010532226 -0.1268828417273264 S
atom 2.2368144587918555 2.2400390140567721 4.9251150021136993 S
atom 7.8123396501167441 2.8112881822159710 4.9299066515476708 S
atom 2.8080636277141062 7.8155642073530585 4.9203234745213402 S
atom 7.2703082220524333 7.2735327801080061 4.9251149676712824 S
atom 2.6847809815201722 0.0382821178424307 2.2096423369622507 S
atom 7.2576602517399591 0.0574515782753926 2.7513442991149684 S
atom 2.2533842311132872 5.0617275846629228 2.7417610858005279 S
atom 7.7182747428970142 5.0717758661186823 2.2096423404918606 S
atom 2.8006198461321801 0.0415696684870362 7.7030043590927155 S
atom 7.1491869105741355 0.0601770472725572 7.1560532986744070 S
atom 2.1449108953233877 5.0644530552693032 7.1464700886048691 S
atom 7.8341136167483842 5.0750634208046970 7.7030043601709988 S
atom -0.0236731156140377 2.3341039110693407 2.2048507360310410 S
atom 4.9906509659369922 2.7947184115621240 2.7465526908345304 S
atom -0.0136250752507500 7.7989944380136711 2.7369694757069425 S
atom 5.0098206749556953 7.3675976786737882 2.2048507317196342 S
atom -0.0269608069822355 2.2182650484195259 7.6982127519927532 S
atom 4.9879256177741196 2.9031917471200668 7.1512616943095972 S
atom -0.0163503461710602 7.9074677721001176 7.1416784780914302 S
atom 5.0065328962645843 7.2517588146806995 7.6982127528824238 S
atom 0.0003505992049128 -0.0186383706798403 9.9279117996692641 Ba
atom 5.0375232704993298 0.0142582637841245 9.9327034102205261 Ba
atom 0.0332472343047140 5.0185342911498063 9.9231201906284472 Ba
atom 5.0338443800164789 5.0148554024636400 9.9279118020064274 Ba
atom 0.2152194826606071 -0.2541601801066429 14.8770232220981331 Ba
atom 5.2730450785766525 -0.2006106070159415 14.8818148325689048 Ba
atom 0.2687690657043518 4.8036654103773211 14.8722316146023275 Ba
atom 5.2487132398640206 4.7793335814287188 14.8770232216259899 Ba
atom 2.5844193443510806 2.4357319757919149 12.4358083882219130 Zr
atom 7.6166466753323290 2.4636832892344991 12.4405998963159465 Zr
atom 2.6123706646457774 7.4679593109215752 12.4310167023441380 Zr
atom 7.6179131075971505 7.4692257448284645 12.4358083328671007 Zr
atom 2.5605363791103675 2.4735029303530025 17.4839889031391209 Zr
atom 7.5788757206566721 2.4875662925637578 17.4887805087337860 Zr
atom 2.5745997211163365 7.4918423348668153 17.4791972895288161 Zr
atom 7.5940301199363418 7.5069967105045565 17.4839889112029638 Zr
atom 2.7941200641942219 2.7751310869084569 9.9279118788320773 S
atom 7.2772475726879247 2.2539825750723206 9.9327034745692551 S
atom 2.2729715523799086 7.2582585987373038 9.9231202322791052 S
atom 7.8276138346328814 7.8086248568561354 9.9279119068707811 S
atom 2.2590279816755556 2.2178254759013942 14.9307084626756090 S
atom 7.8345531840925764 2.7890746489539535 14.9355002724833508 S
atom 2.8302771590673061 7.7933506709687110 14.9259170542021824 S
atom 7.2925217536330020 7.2513192423903696 14.9307085174115386 S
atom 2.2372540269290329 -0.0459497630265163 12.1576108925743540 S
atom 7.9264567456936224 -0.0353393877557713 12.7141451570245696 S
atom 2.9221807203626220 4.9689366231825547 12.7045619398601435 S
atom 7.2707477951656889 4.9875439884846120 12.1576108936693466 S
atom 2.3530928908170043 -0.0426623556780773 17.6509728804576369 S
atom 7.8179834147878804 -0.0326138439034532 17.1188541332684530 S
atom 2.8137073909592814 4.9716622192407760 17.1092709177576872 S
atom 7.3865866651767691 4.9908314600166843 17.6509728772380434 S
atom 0.0605586849889680 2.7816308659715112 12.1528192858614545 S
atom 5.0834419983309544 2.1259219181889337 12.7093535464681313 S
atom 0.0791659793376457 7.1301979401657611 12.6997703334659029 S
atom 5.0940524447199067 7.8151246348858034 12.1528192851282899 S
atom 0.0572707998381916 2.6657920097798455 17.6461812734939976 S
atom 5.0807168106289158 2.2343952573616113 17.1140625270449966 S
atom 0.0764407335156737 7.2386712775386108 17.1044793121173448 S
atom 5.0907646284556289 7.6992857700189186 17.6461812690968038 S
atom -0.1025019047840292 -0.0001193896871184 19.6128596949150484 Ba
atom 5.0190042811063273 0.1171107875084699 19.6176512637611573 Ba
atom 0.0147282635836499 5.1213868064212464 19.6080680662958109 Ba
atom 4.9309918543720315 5.0333743722104476 19.6128596766596885 Ba
atom 2.8177015158968985 2.6599042786269322 19.9827064867526047 S
atom 7.3924744014571999 2.2304011404887856 19.9874979646803403 S
atom 2.3881983737826737 7.2346771580914497 19.9779147546213665 S
atom 7.8511952811989305 7.6933980374889250 19.9827064553645428 S
atom 2.5574569885240930 2.3733924848189241 23.0771591375189047 Ba
atom 7.6789861888808062 2.4906456321980577 23.0819507745905028 Ba
atom 2.6747101357017460 7.4949216676373434 23.0723675484444115 Ba
atom 7.5909507793190176 7.4068862666494120 23.0771591480914573 Ba
atom 2.3034317042184154 2.6911556053396479 27.8130111707336454 Ba
atom 7.3612231374607644 2.7446709381286101 27.8178027828286893 Ba
atom 2.3569470026933352 7.7489468889661852 27.8082195480955292 Ba
atom 7.3369255819714363 7.7246492925128702 27.8130111619432689 Ba
atom 5.0310579525601753 5.0364665003897997 25.2060280853853058 Zr
atom 10.0494059259112536 5.0505384728724181 25.2108197573001043 Zr
atom 5.0451299244330228 10.0548145083074711 25.2012362720516698 Zr
atom 10.0645516966352808 10.0699602829440167 25.2060280981836407 Zr
atom 4.9933080561927277 5.0603441367499764 30.2542176406716621 Zr
atom 10.0255282081889963 5.0882883044471052 30.2590092125973626 Zr
atom 5.0212521662576002 10.0925644348286454 30.2494264339498429 Zr
atom 10.0268017828871017 10.0938380050050966 30.2542173341768255 Zr
atom 5.2174251722490013 5.2936234219491167 22.7073025712284142 S
atom 9.7922490137276625 4.8641712380957838 22.7120941902156410 S
atom 4.7879730106873080 9.8684472677605708 22.7025111844417253 S
atom 10.2509189524610598 10.3271171957797048 22.7073024720342360 S
atom 4.7754076373788168 4.7349882904220495 27.7593146253602008 S
atom 10.3508841393820976 5.3061887726804855 27.7641062150980247 S
atom 5.3466080779025296 10.3104647762051833 27.7545230135027339 S
atom 9.8089013996329282 9.7684820607993785 27.7593148962750575 S
atom 5.2233721656476293 2.5331983658643247 25.0438511283201208 S
atom 9.7962724158118011 2.5523680481058157 25.5855148524877407 S
atom 4.7919964089388225 7.5566441310324723 25.5759316497570595 S
atom 10.2568659596560448 7.5666921918511250 25.0438510882425192 S
atom 5.3392074182299076 2.5364829197724124 30.5371848212085872 S
atom 9.6877586419053863 2.5550909841911587 29.9902808120059525 S
atom 4.6834826189269654 7.5593674019172594 29.9806975852747541 S
atom 10.3727012028884999 7.5699770867040161 30.5371848546463376 S
atom 2.5149039554012051 4.8290064891512214 25.0390594973809115 S
atom 7.5292285758779132 5.2896000170557631 25.5807232482702780 S
atom 2.5249529128148258 10.2938760350043506 25.5711400431242204 S
atom 7.5483973307902943 9.8625002597210614 25.0390595023983060 S
atom 2.5116194306289237 4.7131712272249775 30.5323932391615749 S
atom 7.5265053134839377 5.3981138121896484 29.9854891848622884 S
atom 2.5222294400873326 10.4023897807437091 29.9759059922950826 S
atom 7.5451130800313750 9.7466650061692075 30.5323932304450842 S
atom 2.5389343399873008 2.4762706788037585 32.7621090153830252 Ba
atom 7.5761079589609022 2.5091683831237743 32.7669005930246513 Ba
atom 2.5718320459843724 7.5134443788521432 32.7573174170520005 Ba
atom 7.5724279885719596 7.5097644029771731 32.7621090007865661 Ba
atom 2.7538192169446001 2.2407680807731243 37.7112067890139855 Ba
atom 7.8116105206130682 2.2942833939161864 37.7159984297727036 Ba
atom 2.8073345314957696 7.2985595159882832 37.7064151953605347 Ba
atom 7.7873129411995228 7.2742619451418085 37.7112068128998033 Ba
atom 5.1230077714064253 4.9306443560961641 35.2700003676507521 Zr
atom 10.1552280420063674 4.9585885609241247 35.2747918091188595 Zr
atom 5.1509518271771677 9.9628646166274528 35.2652086745571083 Zr
atom 10.1565016779149850 9.9641381422015325 35.2700007169070844 Zr
atom 5.0991301374439360 4.9683943637401775 40.3181898748033447 Zr
atom 10.1174781528721116 4.9824663576664499 40.3229814867683345 Zr
atom 5.1132020917759231 9.9867423467781755 40.3133979966980220 Zr
atom 10.1326239998316723 10.0018880976336835 40.3181898929904108 Zr
atom 5.3326919864190216 5.2700283615517760 32.7621091311709591 S
atom 9.8158440718405107 4.7489044225901642 32.7669006626480410 S
atom 4.8115680347818195 9.7531804416470678 32.7573167446174054 S
atom 10.3661857151998404 10.3035221016297900 32.7621092008685366 S
atom 4.7976519248588954 4.7127440269136756 37.7649030708214326 S
atom 10.3731283940429169 5.2839444629379315 37.7696952104454482 S
atom 5.3688524017902841 10.2882205240231066 37.7601124374328592 S
atom 9.8311456841038840 9.7462377859730829 37.7649025856444709 S
atom 4.7758348359118976 2.4489563521189193 34.9918247359638386 S
atom 10.4650533921099047 2.4595654185588507 35.5483119745702183 S
atom 5.4607774519143222 7.4638411845031500 35.5387288088886493 S
atom 9.8093286295660267 7.4824498786804998 34.9918247477316484 S
atom 4.8916701373606930 2.4522397633077713 40.4851584889252507 S
atom 10.3565396713102036 2.4622896642851368 39.9530779549473181 S
atom 5.3522636372370513 7.4665654353984943 39.9434947558436164 S
atom 9.9251638743190131 7.4857332553938516 40.4851585189246705 S
atom 2.5991468816900456 5.2765437968166218 34.9870331396340006 S
atom 7.6220306842431702 4.6208190054424376 35.5435203881697888 S
atom 2.6177540275103377 9.6250950138556099 35.5339371759764759 S
atom 7.6326413278455574 10.3100375900662726 34.9870331088963482 S
atom 2.5958617205326981 5.1607085575490927 40.4803668804982451 S
atom 7.6193079754632560 4.7293327882879863 39.9482863558701524 S
atom 2.6150323051609989 9.7336088098579072 39.9387031559928332 S
atom 7.6293550573187430 10.1942023542693470 40.4803669079558262 S
atom 2.4360560812523109 2.4947933621177647 42.4470588085890270 Ba
atom 7.5575853036839167 2.6120465221271183 42.4518504258270184 Ba
atom 2.5533092103717001 7.6163225575075408 42.4422671909296341 Ba
atom 7.4695499272160975 7.5282871434872840 42.4470588076811524 Ba
atom 5.3562870584735878 5.1547615685832069 42.8169155701937854 S
atom 9.9311108871802052 4.7253093956391758 42.8217068258828064 S
atom 4.9268348837509111 9.7295854187293216 42.8121236551070226 S
atom 10.3897808480664100 10.1882553515883938 42.8169157572097632 S
