#=======================================================
# FHI-aims file: full_relax/full_relax_RP_2_Rx0Rz_0RyRz.in
# Created using the Atomic Simulation Environment (ASE)
# Fri Mar 14 11:17:48 2025
#=======================================================
lattice_vector 10.0975461516502119 -0.0000274615371537 0.0003721809972285 
lattice_vector -0.0000274615371534 10.0975461516450320 -0.0003721810090396 
lattice_vector -0.0009632875238879 0.0009632874922390 25.4732682262533459 
atom -0.1651854682497133 0.0000248033546193 0.2875156027798456 Ba
atom 5.2139548157823734 0.0000063011779432 0.2877153036891766 Ba
atom 0.1651680119573205 5.0487931122251579 0.2873431156627881 Ba
atom 4.8835738769139345 5.0487841529250295 0.2875156084456550 Ba
atom 0.0438353009259709 0.0001638190522813 4.8987251583497811 Ba
atom 5.0045672795076594 0.0001929441848431 4.8988717885067894 Ba
atom -0.0442195207737320 5.0489797520324586 4.8984996074650455 Ba
atom 5.0925946400474809 5.0489231652556752 4.8987251590645382 Ba
atom 2.5242912532375574 2.5044089637175548 2.3639488618855307 Zr
atom 7.5730713666341183 2.5444993173924200 2.3641457689223251 Zr
atom 2.5242845547187303 7.5932861352531518 2.3637735776615960 Zr
atom 7.5730506065883585 7.5531683123400617 2.3639488497680490 Zr
atom 2.5240905649719356 2.5046167882965360 7.4334511805997199 Zr
atom 7.5728706643017700 2.5447071334830662 7.4336481060326376 Zr
atom 2.5240838561599284 7.5934939511502924 7.4332759221751923 Zr
atom 7.5728499125162019 7.5533761386809992 7.4334512065190870 Zr
atom 2.5243752077937236 2.8072843040059605 -0.1225421258447985 S
atom 7.5731454087173207 2.2414677994699863 -0.1223295871150897 S
atom 2.5243585981805459 7.2902546102350030 -0.1227017356056484 S
atom 7.5731345575620495 7.8560436488979661 -0.1225421292073096 S
atom 2.5241803172982653 2.1095279464738734 4.8987170602266188 S
atom 7.5729816076769207 2.9395881648731148 4.8988798806627498 S
atom 2.5241948029290362 7.9883749741628112 4.8985077019701642 S
atom 7.5729396617856661 7.1582872853463027 4.8987170553752826 S
atom 2.5243199033042036 0.0000700653664117 2.0835024168767249 S
atom 7.5730497916369384 0.0000825082712828 2.7787144692861752 S
atom 2.5242629847391318 5.0488692890425080 2.7783422841582217 S
atom 7.5730792473061745 5.0488294112385352 2.0835024218745941 S
atom 2.5240826787545014 0.0002866976308800 7.7140945320736209 S
atom 7.5728989403224531 0.0002468142081988 7.0192546622935676 S
atom 2.5241121341338641 5.0490336044539443 7.0188824832922574 S
atom 7.5728420214745231 5.0490460477632277 7.7140945302583921 S
atom -0.0000992293548950 2.5244884234250358 2.4787204097480151 S
atom 5.0486728584384828 2.5244698891726798 2.4789003437369037 S
atom -0.0001139507788589 7.5732566937321835 2.4785281601112348 S
atom 5.0486601120821302 7.5732477665237656 2.4787204095436404 S
atom -0.0002849947132486 2.5246551490943592 7.3185043580663010 S
atom 5.0484890702658465 2.5246462217504049 7.3186966071643527 S
atom -0.0002977435481625 7.5734330272589103 7.3183244276199622 S
atom 5.0484743555928508 7.5734144930925185 7.3185043610529545 S
atom -0.1655522396377096 0.0003504583116717 9.5098816483396149 Ba
atom 5.2135880517168802 0.0003319576991280 9.5100813391495436 Ba
atom 0.1648012416219599 5.0491187684272383 9.5097091627831158 Ba
atom 4.8832071101887458 5.0491098075204368 9.5098816393414420 Ba
atom 2.5240165199475424 2.8076483066957145 9.9199265085941004 S
atom 7.5727867138085605 2.2418318061159654 9.9201390622069407 S
atom 2.5239999109301392 7.2906186156204882 9.9197668639641847 S
atom 7.5727758615136960 7.8564076506051119 9.9199264942695748 S
atom 2.5238732157293313 2.6900467837848487 13.0241497228811465 Ba
atom 7.5726510789644523 2.3596658465994156 13.0243494155218027 Ba
atom 2.5238642568122418 7.4084526522115661 13.0239772422499502 Ba
atom 7.5726325763702267 7.7388061265410926 13.0241497238628749 Ba
atom 2.5237342134243099 2.4810260206692729 17.6353592682280365 Ba
atom 7.5724644246595618 2.5690533772533923 17.6355058988043893 Ba
atom 2.5236776270307395 7.6178401824020776 17.6351337173216827 Ba
atom 7.5724935494663770 7.5297853647762842 17.6353592692488483 Ba
atom 5.0682484186267018 5.0493294196052263 15.1005829691252931 Zr
atom 10.0769173962035250 5.0493086551458894 15.1007798422606498 Zr
atom 5.0281305806824985 10.0980954421722604 15.1004077124412515 Zr
atom 10.1170077494318740 10.0980887437836184 15.1005829318194120 Zr
atom 5.0680405698855555 5.0495301095417675 20.1700853147131198 Zr
atom 10.0767095850981843 5.0495093562063396 20.1702822194755136 Zr
atom 5.0279227919627179 10.0982961403554086 20.1699100468951151 Zr
atom 10.1167999113101175 10.0982894317154681 20.1700852959876364 Zr
atom 4.7653730724811174 5.0492454501377919 12.6140919950349293 S
atom 10.3799489178680595 5.0492345986462377 12.6143045588890708 S
atom 5.3311621106499905 10.0980214095255647 12.6139323359186903 S
atom 9.8141324142621649 10.0980047991453414 12.6140920016753082 S
atom 5.4631294315473466 5.0494403444699270 17.6353511831555672 S
atom 9.6818285521013383 5.0493983978929435 17.6355140135331681 S
atom 4.6330417425948474 10.0981852087339590 17.6351418325247735 S
atom 10.5118887759095561 10.0981996932023232 17.6353511962454661 S
atom 5.0481874852676922 2.5249477943331526 15.2155344524495213 S
atom 10.0969557584114860 2.5249330772307248 15.2157267045345215 S
atom 5.0481689509176810 7.5737198840480744 15.2153545194008348 S
atom 10.0969468312610235 7.5737071423583702 15.2155344561515697 S
atom 5.0480111499872535 2.5251315842285775 20.0553307207168316 S
atom 10.0967890315330635 2.5251188395480910 20.0555106453889458 S
atom 5.0480022233420971 7.5739056529590414 20.0551384727169300 S
atom 10.0967704966563598 7.5738909370168424 20.0553307129762786 S
atom 2.5237880662431382 5.0493576766983734 15.5149763991007408 S
atom 7.5725873007379185 5.0493007587152983 14.8201365295902256 S
atom 2.5238005126340965 10.0980875690199845 14.8197643493803568 S
atom 7.5725474165084776 10.0981170259632176 15.5149764005696102 S
atom 2.5236237616974342 5.0495085261375436 19.7555165924615608 S
atom 7.5723706890307634 5.0495379832782969 20.4507286404315778 S
atom 2.5235838580607313 10.0983247939172891 20.4503564574782004 S
atom 7.5723831181711718 10.0982678757939297 19.7555165924446321 S
atom 2.5235475728507972 2.6904135592592140 22.2465157615653339 Ba
atom 7.5723254086867726 2.3600326075606364 22.2467154595154462 Ba
atom 2.5235386120730072 7.4088194130784553 22.2463432711297102 Ba
atom 7.5723069079375636 7.7391729017800728 22.2465157595425644 Ba
atom 4.7650090693019598 5.0496041410452932 22.6565605934075514 S
atom 10.3795849087333387 5.0495932886533392 22.6567731846091576 S
atom 5.3307981030396654 10.0983800996871000 22.6564009672072437 S
atom 9.8137684122860644 10.0983634904356290 22.6565606448544017 S
