#=======================================================
# FHI-aims file: full_relax/full_relax_RP_6_Rx0Rz_0-Ry0.in
# Created using the Atomic Simulation Environment (ASE)
# Fri Mar 14 11:45:27 2025
#=======================================================
lattice_vector 10.0135223607179658 -0.0000000000000136 0.0169974280551241 
lattice_vector -0.0000000000000136 10.0925687831625694 -0.0000000000000372 
lattice_vector 0.1119218711241616 -0.0000000000002496 65.4052484904312195 
atom -0.1976854252859992 -0.0000000000013827 0.1889691166473749 Ba
atom 5.0800165287391543 -0.0000000000014753 0.1958725298344042 Ba
atom 0.0732553482982823 5.0462843915799844 0.1873738158391767 Ba
atom 4.8090757549626222 5.0462843915800137 0.1974678306728807 Ba
atom -0.1178828994588985 -0.0000000000012524 4.8748826714997717 Ba
atom 4.8365841575066000 -0.0000000000012697 4.8509215882481085 Ba
atom -0.1701770231432842 5.0462843915797597 4.8424228743044511 Ba
atom 4.8888782804493944 5.0462843915798157 4.8833813859947588 Ba
atom 2.4339133258723908 2.5178259735480095 2.2475460761648169 Zr
atom 7.4406745062130657 2.5284584180562764 2.2560447901807876 Zr
atom 2.4339133258726466 7.5747428096118803 2.2475460761645065 Zr
atom 7.4406745062128019 7.5641103651036410 2.2560447901801530 Zr
atom 2.4527570945439785 2.5074767043689699 7.3068582472819603 Zr
atom 7.4595182749524964 2.5388076872576226 7.3153569612759046 Zr
atom 2.4527570945440158 7.5850920787908702 7.3068582472823147 Zr
atom 7.4595182749524156 7.5537610959022805 7.3153569612763549 Zr
atom 2.4432174190324036 2.8485708451381311 -0.2382297832159563 S
atom 7.4499785996638135 2.1977135464168258 -0.2297310691935588 S
atom 2.4432174190324627 7.2439979380217077 -0.2382297832160136 S
atom 7.4499785996637939 7.8948552367430311 -0.2297310691938683 S
atom 2.4522301427449182 2.1696544970164533 4.8150089170878729 S
atom 7.4589913224627038 2.8766298946441560 4.8235076311120100 S
atom 2.4522301427448392 7.9229142861434516 4.8150089170877326 S
atom 7.4589913224627749 7.2159388885157174 4.8235076311119798 S
atom 2.4422592661958906 -0.0000000000016244 2.0141224446935837 S
atom 7.4255561604481919 -0.0000000000016308 2.6917882823431905 S
atom 2.4187949800743946 5.0462843915801807 2.6832895683074183 S
atom 7.4490204465874204 5.0462843915802216 2.0226211586428269 S
atom 2.8709830361086803 -0.0000000000012047 7.6184091575417145 S
atom 7.1059876713266270 -0.0000000000013302 7.0405206537276257 S
atom 2.0992264910216454 5.0462843915798405 7.0320219395563797 S
atom 7.8777442165910587 5.0462843915799693 7.6269078714335432 S
atom -0.0671882192086422 2.5176352031293736 2.3663653977435022 S
atom 4.9395729611538943 2.5286491884339743 2.3748641113222870 S
atom -0.0671882192086830 7.5749335800304722 2.3663653977435395 S
atom 4.9395729611539361 7.5639195947258706 2.3748641113224997 S
atom -0.0401836727022824 2.1172288137973885 7.3227845479358891 S
atom 4.9665775076541472 2.9290555777319165 7.3312832627713496 S
atom -0.0401836727025090 7.9753399693625378 7.3227845479358464 S
atom 4.9665775076543044 7.1635132054280017 7.3312832627712199 S
atom -0.0764716772546907 -0.0000000000012799 9.8191802864256061 Ba
atom 5.0790239665686805 -0.0000000000013038 9.8733332757717580 Ba
atom 0.0722627854407054 5.0462843915800200 9.8648345624716853 Ba
atom 4.9302895025495044 5.0462843915799542 9.8276790009454267 Ba
atom 0.1055479495487459 -0.0000000000013250 14.8730355091813955 Ba
atom 4.9520868092565564 -0.0000000000013351 14.8651216089373666 Ba
atom -0.0546743717685263 5.0462843915800217 14.8566228955402870 Ba
atom 5.1123091292406304 5.0462843915799693 14.8815342238406316 Ba
atom 2.5144620337021015 2.5263943908279280 12.3457639112520372 Zr
atom 7.5212232140399964 2.5198900007527305 12.3542626252943357 Zr
atom 2.5144620337020989 7.5661743923320905 12.3457639112519004 Zr
atom 7.5212232140399466 7.5726787824071078 12.3542626252944210 Zr
atom 2.5431727244574294 2.5263943908258373 17.3923932074816570 Zr
atom 7.5499339047960667 2.5198900007508005 17.4008919215247602 Zr
atom 2.5431727244574307 7.5661743923341449 17.3923932074817138 Zr
atom 7.5499339047960463 7.5726787824091168 17.4008919215245896 Zr
atom 2.4866481996087404 2.8105974687501756 9.8341921076672865 S
atom 7.4934093809963356 2.2356869229030778 9.8426908216751876 S
atom 2.4866481996087213 7.2819713144097999 9.8341921076672101 S
atom 7.4934093809963693 7.8568818602568467 9.8426908216752977 S
atom 2.5288173796438742 2.2694618350766174 14.8690785593606378 S
atom 7.5355785588540396 2.7768225565024620 14.8775772734155929 S
atom 2.5288173796438613 7.8231069480833968 14.8690785593607249 S
atom 7.5355785588539987 7.3157462266574944 14.8775772734160299 S
atom 2.0953443133738916 -0.0000000000011574 12.1269855638782129 S
atom 7.9473139579543917 -0.0000000000014005 12.5859096458176136 S
atom 2.9405527777151033 5.0462843915798965 12.5774109316626372 S
atom 7.1021054938269019 5.0462843915800297 12.1354842778061442 S
atom 2.9622904446707139 -0.0000000000013182 17.6111715549728061 S
atom 7.1238431607829504 -0.0000000000017045 17.1692449011156434 S
atom 2.1170819805435999 5.0462843915800430 17.1607461869608997 S
atom 7.9690516251242709 5.0462843915803166 17.6196702689002151 S
atom 0.0089495576648609 2.9657896441573359 12.3541706929698041 S
atom 5.0157107380303367 2.0804947473826760 12.3626694059212969 S
atom 0.0089495576646981 7.1267791390026485 12.3541706929697828 S
atom 5.0157107380304708 8.0120740357773297 12.3626694059211157 S
atom 0.0419240201154605 2.0804947474211803 17.3754877117520472 S
atom 5.0486852004675029 2.9657896441956568 17.3839864268585842 S
atom 0.0419240201150370 8.0120740357387845 17.3754877117520508 S
atom 5.0486852004678857 7.1267791389643200 17.3839864268585416 S
atom -0.0213892076586741 -0.0000000000013538 19.8648238422493293 Ba
atom 5.1341064359497333 -0.0000000000013380 19.9189768318304203 Ba
atom 0.1273452550326664 5.0462843915799516 19.9104781182983643 Ba
atom 4.9853719719276972 5.0462843915800599 19.8733225570069010 Ba
atom 0.2210506009244454 -0.0000000000013510 24.8872355304181276 Ba
atom 5.1755176580506532 -0.0000000000013703 24.8632744467817304 Ba
atom 0.1687564772367827 5.0462843915799800 24.8547757332249972 Ba
atom 5.2278117809900113 5.0462843915800404 24.8957342445302814 Ba
atom 2.6048776635457962 2.5074767043208648 22.4312988715024559 Zr
atom 7.6116388439536840 2.5388076872096472 22.4397975854964002 Zr
atom 2.6048776635457824 7.5850920788391312 22.4312988715023955 Zr
atom 7.6116388439536724 7.5537610959502812 22.4397975854961800 Zr
atom 2.6237214322854072 2.5178259735229487 27.4906110425977488 Zr
atom 7.6304826126249967 2.5284584180313119 27.4991097566130520 Zr
atom 2.6237214322855764 7.5747428096371561 27.4906110425974859 Zr
atom 7.6304826126248280 7.5641103651286352 27.4991097566129774 Zr
atom 2.5709865574990594 2.8105974686758155 19.9039650111033026 S
atom 7.5777477388917207 2.2356869228280081 19.9124637251113441 S
atom 2.5709865574990776 7.2819713144840978 19.9039650111029864 S
atom 7.5777477388916470 7.8568818603318942 19.9124637251104986 S
atom 2.6054046160379185 2.1696544969337581 24.9231482016642651 S
atom 7.6121657957503750 2.8766298945620772 24.9316469156892992 S
atom 2.6054046160379283 7.9229142862262014 24.9231482016644748 S
atom 7.6121657957504336 7.2159388885978633 24.9316469156886775 S
atom 2.1866517219069390 -0.0000000000010826 22.1197479613439683 S
atom 7.9651694474760326 -0.0000000000010894 22.7146338932212615 S
atom 2.9584082671708387 5.0462843915797340 22.7061351790490207 S
atom 7.1934129023899507 5.0462843915797384 22.1282466752344575 S
atom 2.6153754919104752 -0.0000000000013072 27.7240346741344155 S
atom 7.6456009584236613 -0.0000000000011501 27.0633662644686837 S
atom 2.6388397780495008 5.0462843915800022 27.0548675504325757 S
atom 7.6221366723019406 5.0462843915797819 27.7325333880830449 S
atom 0.0910572504824892 2.9290555777807517 22.4068738567888417 S
atom 5.0978184308434180 2.1172288138470670 22.4153725700032496 S
atom 0.0910572504823744 7.1635132053790835 22.4068738567888985 S
atom 5.0978184308435477 7.9753399693127927 22.4153725700031856 S
atom 0.1180617969884336 2.5286491884492914 27.3632930069756775 S
atom 5.1248229773440537 2.5176352031445624 27.3717917214564501 S
atom 0.1180617969887230 7.5639195947106668 27.3632930069754075 S
atom 5.1248229773437703 7.5749335800153759 27.3717917214562938 S
atom -0.0223817705179421 -0.0000000000013253 29.5422845888817598 Ba
atom 5.2553201835361207 -0.0000000000013816 29.5491880021033460 Ba
atom 0.2485590030654558 5.0462843915800191 29.5406892880743897 Ba
atom 4.9843794097578753 5.0462843915800830 29.5507833029414364 Ba
atom 2.6144173388325571 2.8485708451618534 29.9763869019736582 S
atom 7.6211785194669313 2.1977135464404642 29.9848856159949229 S
atom 2.6144173388324377 7.2439979379982473 29.9763869019736440 S
atom 7.6211785194670263 7.8948552367193638 29.9848856159954558 S
atom 2.6097800963326505 2.3745260237259442 33.0547402143274809 Ba
atom 7.6165412767055312 2.6717583678482995 33.0632389283568742 Ba
atom 2.6097800963325790 7.7180427594335264 33.0547402143277438 Ba
atom 7.6165412767055471 7.4208104153123635 33.0632389283563555 Ba
atom 2.6017083545479558 2.5464683829515229 37.7293725183736157 Ba
atom 7.6084695349092506 2.4998160086291956 37.7378712324035916 Ba
atom 2.6017083545479167 7.5461004002097409 37.7293725183746602 Ba
atom 7.6084695349092408 7.5927527745342882 37.7378712324025187 Ba
atom 5.0979067146294392 5.0462843915796984 35.1142695191089516 Zr
atom 10.1280534136857305 5.0462843915800537 35.1220289164988557 Zr
atom 5.1212922333297426 10.0925687831618536 35.1135302024739246 Zr
atom 10.1046678949920157 10.0925687831615605 35.1227682331307278 Zr
atom 5.0998578064270044 5.0462843915793991 40.1300565486296321 Zr
atom 10.1089802821640919 5.0462843915796833 40.1381653674168106 Zr
atom 5.1022191018064609 10.0925687831618447 40.1296666533913964 Zr
atom 10.1066189867868168 10.0925687831615232 40.1385552626559345 Zr
atom 5.4611801350906459 5.0462843915808495 32.6281522112670004 S
atom 9.7731296879272715 5.0462843915805564 32.6346361560973932 S
atom 4.7663685075734401 10.0925687831605373 32.6261374420597150 S
atom 10.4679413154410188 10.0925687831608375 32.6366509252968626 S
atom 4.6307775055775844 5.0462843915789417 37.6550814780035310 S
atom 10.5864126929527451 5.0462843915788245 37.6649976506315838 S
atom 5.5796515125908028 10.0925687831622692 37.6564989365999807 S
atom 9.6375386859376455 10.0925687831623740 37.6635801920333648 S
atom 5.1093545067221484 2.5231050039697762 35.2441409629197366 S
atom 10.1161156870815709 2.5231793876067323 35.2526396769515955 S
atom 5.1093545067220187 7.5694637791904453 35.2441409629213567 S
atom 10.1161156870816846 7.5693893955535199 35.2526396769528318 S
atom 5.1009965283305281 2.5231489613658140 40.1443217365964315 S
atom 10.1077577086791131 2.5231354302114468 40.1528204506272957 S
atom 5.1009965283201577 7.5694198217936668 40.1443217365936107 S
atom 10.1077577086895314 7.5694333529480069 40.1528204506241622 S
atom 2.6067583938371470 5.0462843915800306 34.7789022322904273 S
atom 7.6121944389779337 5.0462843915803779 35.6015532955461680 S
atom 2.6054332586252182 10.0925687831614646 35.5930545815145436 S
atom 7.6135195741925354 10.0925687831613047 34.7874009463255405 S
atom 2.5967893357623795 5.0462843915746936 40.6162669483244727 S
atom 7.6051770285496199 5.0462843915838809 39.6621065645987798 S
atom 2.5984158481914545 10.0925687831649498 39.6536078505713618 S
atom 7.6035505161212376 10.0925687831560946 40.6247656623504909 S
atom 2.5933153940777016 2.5183750455596869 42.6306218244109942 Ba
atom 7.6000765744380097 2.5279093460172208 42.6391205384332892 Ba
atom 2.5933153940778073 7.5741937375969810 42.6306218244057717 Ba
atom 7.6000765744378187 7.5646594371425024 42.6391205384377088 Ba
atom 2.5847783146306531 2.5287009424108833 47.5717028045909771 Ba
atom 7.5915394949910526 2.5175834491638707 47.5802015186170735 Ba
atom 2.5847783146305163 7.5638678407437610 47.5717028045891439 Ba
atom 7.5915394949911521 7.5749853339943316 47.5802015186185869 Ba
atom 5.0936685918171731 5.0462843915780216 45.0943015191417231 Zr
atom 10.0979140627815749 5.0462843915784097 45.1025333871919045 Zr
atom 5.0911528824230743 10.0925687831615054 45.0940346731640034 Zr
atom 10.1004297721757332 10.0925687831611075 45.1028002331707327 Zr
atom 5.0851649271990746 5.0462843915792144 50.0578696500427753 Zr
atom 10.0894103981635439 5.0462843915795119 50.0661015180914788 Zr
atom 5.0826492178045291 10.0925687831614130 50.0576028040637127 Zr
atom 10.0919261075579438 10.0925687831610613 50.0663683640684667 Zr
atom 5.6047727958119626 5.0462843915812359 42.6182524242604828 S
atom 9.5954561777042304 5.0462843915816293 42.6248708497631768 S
atom 4.5886949973450886 10.0925687831592406 42.6163721357342524 S
atom 10.6115339761704117 10.0925687831588480 42.6267511382858970 S
atom 4.5799069739016645 5.0462843915777986 47.5751345351559323 S
atom 10.6031720160788332 5.0462843915774904 47.5852685020755928 S
atom 5.5964108357196780 10.0925687831624789 47.5767697880482530 S
atom 9.5866681542609200 10.0925687831627524 47.5836332491858656 S
atom 5.0924266352312539 2.5231439196860657 45.0994599957628068 S
atom 10.0991878155953820 2.5231404718940493 45.1079587097904309 S
atom 5.0924266352362544 7.5694248634728041 45.0994599957662743 S
atom 10.0991878155903745 7.5694283112648053 45.1079587097945307 S
atom 5.0838911743838135 2.5231404718922343 50.0524443274446895 S
atom 10.0906523547507589 2.5231439196853618 50.0609430414722851 S
atom 5.0838911743918684 7.5694283112669067 50.0524443274412363 S
atom 10.0906523547427796 7.5694248634737553 50.0609430414682137 S
atom 2.5898959048256631 5.0462843915822591 44.6046955112303749 S
atom 7.5949703496130825 5.0462843915780979 45.5952100570431114 S
atom 2.5882091692562930 10.0925687831588462 45.5867113430153097 S
atom 7.5966570851825388 10.0925687831630828 44.6131942252575513 S
atom 2.5796607244378418 5.0462843915829474 50.5387100979505917 S
atom 7.5881086403667108 5.0462843915760178 49.5651929801922080 S
atom 2.5813474600082085 10.0925687831568727 49.5566942661643282 S
atom 7.5864219047964649 10.0925687831642339 50.5472088119779173 S
atom 2.5762412351837884 2.5183750455617924 52.5127837847711163 Ba
atom 7.5830024155440263 2.5279093460192015 52.5212824987987688 Ba
atom 2.5762412351837116 7.5741937375986552 52.5127837847716492 Ba
atom 7.5830024155438887 7.5646594371444582 52.5212824987984561 Ba
atom 2.5678482747125724 2.5464683829501462 57.4140330908053613 Ba
atom 7.5746094550738059 2.4998160086272017 57.4225318048351028 Ba
atom 2.5678482747122326 7.5461004002070018 57.4140330908060506 Ba
atom 7.5746094550741319 7.5927527745321362 57.4225318048337172 Ba
atom 5.0740987078155033 5.0462843915794586 55.0222376698173434 Zr
atom 10.0832211835525190 5.0462843915800297 55.0303464886066962 Zr
atom 5.0764600031946845 10.0925687831615001 55.0218477745782977 Zr
atom 10.0808598881753060 10.0925687831608641 55.0307363838477883 Zr
atom 5.0550255762911762 5.0462843915794791 60.0383741207362931 Zr
atom 10.0851722753489952 5.0462843915803584 60.0461335181340061 Zr
atom 5.0784110949924353 10.0925687831608997 60.0376348041008967 Zr
atom 10.0617867566538557 10.0925687831600275 60.0468728347651677 Zr
atom 5.5876228122768516 5.0462843915813078 52.5355321874777843 S
atom 9.5783061941690679 5.0462843915816720 52.5421506129780056 S
atom 4.5715450138095912 10.0925687831593702 52.5336518989521295 S
atom 10.5943839926354464 10.0925687831591233 52.5440309015052733 S
atom 4.5966662970311347 5.0462843915786584 57.4954053866026840 S
atom 10.5523014844018981 5.0462843915783768 57.5053215592268998 S
atom 5.5455403040438238 10.0925687831617932 57.4968228452008461 S
atom 9.6034274773874237 10.0925687831620916 57.5039041006265421 S
atom 5.0753212812940474 2.5231354302122884 55.0075825866111074 S
atom 10.0820824616575795 2.5231489613642784 55.0160813006353067 S
atom 5.0753212812984154 7.5694333529472608 55.0075825866135233 S
atom 10.0820824616532541 7.5694198217952495 55.0160813006382980 S
atom 5.0669633028999153 2.5231793876062945 59.9077633602879018 S
atom 10.0737244832580757 2.5231050039731979 59.9162620743116037 S
atom 5.0669633028997900 7.5693893955528537 59.9077633602866086 S
atom 10.0737244832581787 7.5694637791859494 59.9162620743101115 S
atom 2.5727672935018240 5.0462843915817759 54.5271386608573749 S
atom 7.5779019614288332 5.0462843915777196 55.4982964726357793 S
atom 2.5711407810716151 10.0925687831591464 55.4897977586076649 S
atom 7.5795284738599245 10.0925687831631841 54.5356373748836134 S
atom 2.5627982354268486 5.0462843915794764 60.3645033768823609 S
atom 7.5708845509983700 5.0462843915796105 59.5588497416924696 S
atom 2.5641233706450555 10.0925687831607913 59.5503510276614065 S
atom 7.5695594157831714 10.0925687831611448 60.3730020909176162 S
atom 2.5597765329166102 2.3745260237305761 62.0886653948498122 Ba
atom 7.5665377132888949 2.6717583678519072 62.0971641088786299 Ba
atom 2.5597765329163691 7.7180427594282701 62.0886653948500111 Ba
atom 7.5665377132890024 7.4208104153076180 62.0971641088785162 Ba
atom 5.4099493020484539 5.0462843915800759 62.5257668811490532 S
atom 9.7218988548991359 5.0462843915800857 62.5322508259663365 S
atom 4.7151376745316398 10.0925687831604307 62.5237521119411355 S
atom 10.4167104824120713 10.0925687831604751 62.5342655951653583 S
