#=======================================================
# FHI-aims file: full_relax/full_relax_RP_1_Rx0Mz_0Ry0.in
# Created using the Atomic Simulation Environment (ASE)
# Fri Mar 14 11:17:08 2025
#=======================================================
lattice_vector 10.1083879406627695 -0.0000000000000038 -0.0002416211105456 
lattice_vector -0.0000000000000038 10.1084182862196812 -0.0000000000000146 
lattice_vector 0.0002690134767709 -0.0000000000000243 15.5284617907242097 
atom -0.1566275859692262 0.0000000000578510 0.2395148875752783 Ba
atom 5.2108116186485551 -0.0000000000389623 0.2393624862579406 Ba
atom 0.1566176484117287 5.0542091430587037 0.2394832968051310 Ba
atom 4.8975663842700117 5.0542091431518337 0.2393940770192269 Ba
atom 0.1567116527271555 0.0000000000423380 4.6131294220112196 Ba
atom 4.8976603886787125 -0.0000000000506037 4.6130402022223880 Ba
atom -0.1565335816314854 5.0542091430699392 4.6131610128134337 Ba
atom 5.2109056230314268 5.0542091431669505 4.6130086114972606 Ba
atom 2.5271390183028046 2.5271045714843208 2.4262617494925007 Zr
atom 7.5813329891790495 2.5271045713558760 2.4261409390321220 Zr
atom 2.5271390188324974 7.5813137145636240 2.4262617495294569 Zr
atom 7.5813329884941316 7.5813137147422260 2.4261409390932278 Zr
atom 2.5270727506007291 2.8451010140556310 -0.1070972211751916 S
atom 7.5812667208813549 2.2091081290521046 -0.1072180317347586 S
atom 2.5270727505235935 7.2633172721138557 -0.1070972211785628 S
atom 7.5812667209180429 7.8993101571325193 -0.1072180317845035 S
atom 2.5272052865162973 2.2091081290157959 4.9596207202441587 S
atom 7.5813992568046542 2.8451010140411532 4.9594999096337311 S
atom 2.5272052864390777 7.8993101571542548 4.9596207202466109 S
atom 7.5813992568412187 7.2633172721445973 4.9594999095936299 S
atom 2.5271379931198128 0.0000000001951753 2.1154570476308132 S
atom 7.5813340142706682 0.0000000001145498 2.7369456408399579 S
atom 2.5271400439281968 5.0542091432931961 2.7370664514042296 S
atom 7.5813319634614329 5.0542091432309180 2.1153362370629294 S
atom 0.0000420330765281 2.5270982633581940 2.4263221547942759 S
atom 5.0542360037470031 2.5271108796829229 2.4262013442367811 S
atom 0.0000420332283173 7.5813200227703632 2.4263221547981120 S
atom 5.0542360039098737 7.5813074064458004 2.4262013442406123 S
atom 2.5272139826428170 2.6837258778140298 8.0036581629472465 Ba
atom 7.5814079529118388 2.3704832653418544 8.0035373523048801 Ba
atom 2.5272139826119462 7.4246924084059600 8.0036581629353538 Ba
atom 7.5814079529454519 7.7379350208773632 8.0035373522962630 Ba
atom 2.5273330679275019 2.3704832650717749 12.3773271268017453 Ba
atom 7.5815270382169988 2.6837258779990405 12.3772063163166095 Ba
atom 2.5273330678935539 7.7379350211496192 12.3773271268018465 Ba
atom 7.5815270382475948 7.4246924082187489 12.3772063163221784 Ba
atom 5.0543705107346835 5.0542091429753091 10.1904322394793940 Zr
atom 10.1085644805483579 5.0542091431502314 10.1903114289750096 Zr
atom 5.0543705094450484 10.1084182863683676 10.1904322396204670 Zr
atom 10.1085644817651872 10.1084182860739684 10.1903114290972319 Zr
atom 4.7363275179070836 5.0542091431220895 7.6570701634564413 S
atom 10.4265243947838240 5.0542091430869913 7.6569362965072969 S
atom 5.3723304245316319 10.1084182862112097 7.6570571069887627 S
atom 9.7905214881514979 10.1084182862153220 7.6569493528430783 S
atom 5.3724135029468219 5.0542091431267586 12.7237943158676323 S
atom 9.7906045667856088 5.0542091430916267 12.7236865616710801 S
atom 4.7364105965392191 10.1084182862068612 12.7238073721849503 S
atom 10.4266074731558707 10.1084182862107550 12.7236735051817771 S
atom 5.0543705105041639 2.5271092406921798 10.1904322396146636 S
atom 10.1085644807190782 2.5270999024791907 10.1903114290644456 S
atom 5.0543705105042376 7.5813090454948142 10.1904322396173832 S
atom 10.1085644807187602 7.5813183839504514 10.1903114290670693 S
atom 2.5272770964419640 5.0542091431016916 10.5012871499104392 S
atom 7.5814639241723061 5.0542091431013620 9.8795773293407674 S
atom 2.5272699537886729 10.1084182862036975 9.8796981399393822 S
atom 7.5814710670131049 10.1084182862028911 10.5011663394057564 S
