#=======================================================
# FHI-aims file: full_relax/full_relax_RP_1_RxRyMz_RxRyMz.in
# Created using the Atomic Simulation Environment (ASE)
# Fri Mar 14 11:17:12 2025
#=======================================================
lattice_vector 10.0578289284960505 0.1251261033433533 -0.0008559304859347 
lattice_vector 0.1251261033433512 10.0578289284970861 0.0008559304848904 
lattice_vector 0.0011051351074000 -0.0011051351091406 15.6288677534684144 
atom 0.0908304122556610 0.0908158181972052 0.2364409788669818 Ba
atom 4.9380986459219391 -0.0282673603699978 0.2360130137177177 Ba
atom -0.0282527663243837 4.9380840520755100 0.2368689434696639 Ba
atom 5.1823079277861543 5.1822933338761317 0.2364409788260516 Ba
atom -0.0904850570842344 -0.0911611725345514 4.6475801941692909 Ba
atom 5.1200756368516140 0.1530481092591503 4.6471522294298788 Ba
atom 0.1537242246468223 5.1193995213707648 4.6480081590182847 Ba
atom 5.0009924582359675 5.0003163427371220 4.6475801945965092 Ba
atom 2.5459114354809365 2.5455660804766174 2.4420105869843911 Zr
atom 7.5748258994923070 2.6081291322580400 2.4415826209690055 Zr
atom 2.6084744870892669 7.5744805449090098 2.4424385512560378 Zr
atom 7.6373889512841675 7.6370435964509520 2.4420105866164397 Zr
atom 2.4004960073363013 2.4005692791223234 -0.0990408184164355 S
atom 7.7198227011336380 2.7535445601233799 -0.0994687842741235 S
atom 2.7534712884359185 7.7198959726134655 -0.0986128539518701 S
atom 7.4919735235151403 7.4920467950336258 -0.0990408190629567 S
atom 2.6913268632635763 2.6905628821694596 4.9830619926769408 S
atom 7.4298290980094546 2.4627137043822076 4.9826340269342895 S
atom 2.4634776855144525 7.4290651170438728 4.9834899571614999 S
atom 7.7828043789960626 7.7820403979547894 4.9830619921327424 S
atom 2.5146009105602034 0.0311002882667239 2.5933093994988914 S
atom 7.5435733726612781 0.0936804607140214 2.2898558430176359 S
atom 2.5772219599257808 5.0600318731826350 2.2907117733695324 S
atom 7.6060784266004156 5.1225778040350010 2.5933093994889163 S
atom 0.0314627637635934 2.5143135533787606 2.5937373644880237 S
atom 5.0603601070128574 2.5768186077668354 2.2902838082017034 S
atom 0.0940086945194805 7.5431700201980574 2.2911397387773875 S
atom 5.1229402793840029 7.6057910694117945 2.5937373648717696 S
atom 2.6371217377979894 2.6360020083630626 8.0508748535333261 Ba
atom 7.4843899714607653 2.5169188298255953 8.0504468900452650 Ba
atom 2.5180385593064214 7.4832702428088691 8.0513028205385258 Ba
atom 7.7285992534372738 7.7274795246091514 8.0508748553898215 Ba
atom 2.4558062680459440 2.4540250176378775 12.4620140712099126 Ba
atom 7.6663669626026492 2.6982342994065096 12.4615861058913779 Ba
atom 2.7000155498860532 7.6645857119238601 12.4624420366073974 Ba
atom 7.5472837843209550 7.5455025335500441 12.4620140707084559 Ba
atom 5.0922027608390739 5.0907522707639590 10.2564444630986618 Zr
atom 10.1211172247494972 5.1533153226357280 10.2560164983893980 Zr
atom 5.1547658125426601 10.1196667351121707 10.2568724279349350 Zr
atom 10.1836802768069212 10.1822297869868255 10.2564444630278473 Zr
atom 4.9467873332024990 4.9457554696220489 7.7153930568359135 S
atom 10.2661140263267772 5.2987307504627532 7.7149650925198889 S
atom 5.2997626142631269 10.2650821629737514 7.7158210222408323 S
atom 10.0382648486638253 10.0372329852842412 7.7153930571769402 S
atom 5.2376181884302415 5.2357490723073674 12.7974958690634679 S
atom 9.9761204236549474 5.0078998948624607 12.7970679045611799 S
atom 5.0097690109578350 9.9742513074096255 12.7979238337650632 S
atom 10.3290957046869654 10.3272265883715519 12.7974958690607892 S
atom 5.0608922365791633 2.5762864789916833 10.4077432768076239 S
atom 10.0898646975838187 2.6388666509514898 10.1042897196761068 S
atom 5.1235132850935461 7.6052180639713072 10.1051456503152934 S
atom 10.1523697524281857 7.6677639945093894 10.4077432762507200 S
atom 2.5777540893376156 5.0594997441711484 10.4081712417841992 S
atom 7.6066514327678822 5.1220047976829797 10.1047176845774462 S
atom 2.6403000199781728 10.0883562101134991 10.1055736159757963 S
atom 7.6692316050041978 10.1509772601930788 10.4081712415692493 S
