#=======================================================
# FHI-aims file: full_relax/full_relax_RP_3_00Rz_000.in
# Created using the Atomic Simulation Environment (ASE)
# Fri Mar 14 11:19:05 2025
#=======================================================
lattice_vector 10.0216957831512694 -0.0000000000000000 0.0000000000000001 
lattice_vector -0.0000000000000000 10.0216957831512694 -0.0000000000000007 
lattice_vector 0.0000000000000005 -0.0000000000000027 35.8364673860245730 
atom -0.0000000000001009 -0.0000000000002979 0.2189123967791831 Ba
atom 5.0108478915753594 0.0000000000000197 0.2189123967793508 Ba
atom -0.0000000000002026 5.0108478915754793 0.2189123967793543 Ba
atom 5.0108478915754251 5.0108478915753212 0.2189123967794678 Ba
atom -0.0000000000001563 -0.0000000000000934 4.9491371788082548 Ba
atom 5.0108478915755059 -0.0000000000002278 4.9491371788082823 Ba
atom -0.0000000000001392 5.0108478915752812 4.9491371788083054 Ba
atom 5.0108478915753905 5.0108478915754660 4.9491371788083365 Ba
atom 2.5054239457875997 2.5054239457875869 2.3514626953733830 Zr
atom 7.5162718373632300 2.5054239457874874 2.3514626953734363 Zr
atom 2.5054239457875402 7.5162718373632460 2.3514626953733315 Zr
atom 7.5162718373632318 7.5162718373632851 2.3514626953732760 Zr
atom 2.5054239457875833 2.5054239457875278 7.4659307054236157 Zr
atom 7.5162718373632655 2.5054239457876633 7.4659307054235846 Zr
atom 2.5054239457876162 7.5162718373632389 7.4659307054235837 Zr
atom 7.5162718373631972 7.5162718373631803 7.4659307054235979 Zr
atom 2.5054239457877867 2.5054239457875691 -0.1625786233482397 S
atom 7.5162718373629955 2.5054239457875300 -0.1625786233482240 S
atom 2.5054239457873488 7.5162718373632478 -0.1625786233481076 S
atom 7.5162718373635018 7.5162718373632815 -0.1625786233479851 S
atom 2.5054239457874643 2.5054239457876917 4.9388344640951241 S
atom 7.5162718373633330 2.5054239457875482 4.9388344640951702 S
atom 2.5054239457877365 7.5162718373631190 4.9388344640951649 S
atom 7.5162718373630435 7.5162718373633162 4.9388344640953221 S
atom 2.2593983393717370 -0.0000000000001534 2.4570872603970484 S
atom 7.7622974437790973 -0.0000000000001560 2.4570872603969702 S
atom 2.7514495522035149 5.0108478915754269 2.4570872603967575 S
atom 7.2702462309473237 5.0108478915755326 2.4570872603967970 S
atom 3.0171269922899562 -0.0000000000001094 7.4659307054232809 S
atom 7.0045687908608896 -0.0000000000000150 7.4659307054233190 S
atom 1.9937208992854012 5.0108478915757182 7.4659307054233803 S
atom 8.0279748838654719 5.0108478915753976 7.4659307054231947 S
atom -0.0000000000001953 2.7514495522033107 2.4570872603967939 S
atom 5.0108478915754846 2.2593983393718058 2.4570872603971319 S
atom -0.0000000000001307 7.2702462309475200 2.4570872603971488 S
atom 5.0108478915754722 7.7622974437790644 2.4570872603966714 S
atom -0.0000000000002562 1.9937208992852933 7.4659307054233528 S
atom 5.0108478915756605 3.0171269922899420 7.4659307054232382 S
atom -0.0000000000000656 8.0279748838656424 7.4659307054230766 S
atom 5.0108478915754695 7.0045687908608647 7.4659307054233608 S
atom -0.0000000000001694 -0.0000000000002230 9.9827242320392546 Ba
atom 5.0108478915753789 -0.0000000000001317 9.9827242320389065 Ba
atom -0.0000000000002330 5.0108478915754340 9.9827242320392138 Ba
atom 5.0108478915755441 5.0108478915753016 9.9827242320391409 Ba
atom -0.0000000000002736 -0.0000000000001595 14.7129490140676751 Ba
atom 5.0108478915755832 -0.0000000000002192 14.7129490140678669 Ba
atom -0.0000000000001199 5.0108478915754313 14.7129490140676289 Ba
atom 5.0108478915753230 5.0108478915754766 14.7129490140678527 Ba
atom 2.5054239457876344 2.5054239457876157 12.5803987154740806 Zr
atom 7.5162718373631749 2.5054239457875922 12.5803987154738071 Zr
atom 2.5054239457876686 7.5162718373632424 12.5803987154740042 Zr
atom 7.5162718373631572 7.5162718373633188 12.5803987154741375 Zr
atom 2.5054239457876535 2.5054239457874181 9.9930269467520709 S
atom 7.5162718373631989 2.5054239457876628 9.9930269467527584 S
atom 2.5054239457874918 7.5162718373634050 9.9930269467529023 S
atom 7.5162718373633632 7.5162718373632282 9.9930269467525470 S
atom 2.5054239457874603 2.5054239457877259 15.0944400341956868 S
atom 7.5162718373634192 2.5054239457875314 15.0944400341960225 S
atom 2.5054239457877374 7.5162718373631074 15.0944400341959017 S
atom 7.5162718373630639 7.5162718373632895 15.0944400341955127 S
atom 2.2593983393712689 -0.0000000000000651 12.4747741504505090 S
atom 7.7622974437795564 -0.0000000000001514 12.4747741504500471 S
atom 2.7514495522038889 5.0108478915754082 12.4747741504499832 S
atom 7.2702462309469293 5.0108478915753736 12.4747741504503189 S
atom -0.0000000000000808 2.7514495522039017 12.4747741504502141 S
atom 5.0108478915754189 2.2593983393713741 12.4747741504503029 S
atom -0.0000000000001326 7.2702462309468832 12.4747741504504646 S
atom 5.0108478915755095 7.7622974437795662 12.4747741504500080 S
atom 2.5054239457878476 2.5054239457878320 18.2113761038194220 Ba
atom 7.5162718373629014 2.5054239457874199 18.2113761038193189 Ba
atom 2.5054239457872374 7.5162718373629582 18.2113761038191910 Ba
atom 7.5162718373635684 7.5162718373634405 18.2113761038194077 Ba
atom 2.5054239457873737 2.5054239457874745 22.9643183760295031 Ba
atom 7.5162718373633499 2.5054239457876957 22.9643183760296345 Ba
atom 2.5054239457875775 7.5162718373632638 22.9643183760297269 Ba
atom 7.5162718373631083 7.5162718373630648 22.9643183760295955 Ba
atom 5.0108478915753647 5.0108478915754517 20.2910067946897215 Zr
atom 10.0216957831510047 5.0108478915753345 20.2910067946901265 Zr
atom 5.0108478915753372 10.0216957831509781 20.2910067946897854 Zr
atom 10.0216957831509479 10.0216957831510687 20.2910067946896682 Zr
atom 5.0108478915754171 5.0108478915754349 25.3841643984355159 Zr
atom 10.0216957831510332 5.0108478915754064 25.3841643984355976 Zr
atom 5.0108478915754278 10.0216957831510260 25.3841643984355265 Zr
atom 10.0216957831510207 10.0216957831510225 25.3841643984349474 Zr
atom 5.0108478915750716 5.0108478915747989 17.7856568120720162 S
atom 10.0216957831512925 5.0108478915759571 17.7856568120721512 S
atom 5.0108478915758488 10.0216957831517206 17.7856568120714371 S
atom 10.0216957831507152 10.0216957831504381 17.7856568120724141 S
atom 5.0108478915760983 5.0108478915762253 22.8676778085411279 S
atom 10.0216957831504150 5.0108478915748309 22.8676778085399697 S
atom 5.0108478915748424 10.0216957831502214 22.8676778085414192 S
atom 10.0216957831516389 10.0216957831516229 22.8676778085415258 S
atom 5.0108478915751702 2.5054276072404367 20.3960333080928500 S
atom 10.0216957831511841 2.5054202843342286 20.3960333080919369 S
atom 5.0108478915755033 7.5162681759104046 20.3960333080914609 S
atom 10.0216957831509639 7.5162754988166087 20.3960333080926404 S
atom 5.0108478915783810 2.5054229082107762 25.3841643984356402 S
atom 10.0216957831479601 2.5054249833644664 25.3841643984371927 S
atom 5.0108478915724852 7.5162728749399541 25.3841643984374663 S
atom 10.0216957831540281 7.5162707997862848 25.3841643984362229 S
atom 2.5054202843346940 5.0108478915756152 20.3960333080925089 S
atom 7.5162754988161398 5.0108478915751959 20.3960333080915923 S
atom 2.5054276072406236 10.0216957831507703 20.3960333080916527 S
atom 7.5162681759100662 10.0216957831512055 20.3960333080925871 S
atom 2.5054249833643398 5.0108478915725110 25.3841643984359067 S
atom 7.5162707997864517 5.0108478915783987 25.3841643984374556 S
atom 2.5054229082106647 10.0216957831539233 25.3841643984371288 S
atom 7.5162728749400420 10.0216957831480826 25.3841643984357077 S
atom 2.5054239457876610 2.5054239457876486 27.8040104208434045 Ba
atom 7.5162718373630559 2.5054239457873990 27.8040104208435359 Ba
atom 2.5054239457874958 7.5162718373630906 27.8040104208434542 Ba
atom 7.5162718373632833 7.5162718373633695 27.8040104208433796 Ba
atom 2.5054239457873457 2.5054239457872014 32.5569526930520965 Ba
atom 7.5162718373635178 2.5054239457879253 32.5569526930517270 Ba
atom 2.5054239457878635 7.5162718373636057 32.5569526930518975 Ba
atom 7.5162718373629778 7.5162718373628605 32.5569526930519899 Ba
atom 5.0108478915753105 5.0108478915753798 30.4773220021830866 Zr
atom 10.0216957831509639 5.0108478915753736 30.4773220021835094 Zr
atom 5.0108478915753460 10.0216957831510332 30.4773220021830227 Zr
atom 10.0216957831509799 10.0216957831510225 30.4773220021829161 Zr
atom 5.0108478915744055 5.0108478915745795 27.9006509883309626 S
atom 10.0216957831520883 5.0108478915756294 27.9006509883302414 S
atom 5.0108478915761054 10.0216957831519249 27.9006509883308169 S
atom 10.0216957831503723 10.0216957831507312 27.9006509883312148 S
atom 5.0108478915762271 5.0108478915760886 32.9826719848015060 S
atom 10.0216957831501450 5.0108478915752510 32.9826719848013212 S
atom 5.0108478915748034 10.0216957831504292 32.9826719848012644 S
atom 10.0216957831516655 10.0216957831512978 32.9826719848016623 S
atom 5.0108478915751880 2.5054276072407169 30.3722954887805088 S
atom 10.0216957831512214 2.5054202843345736 30.3722954887794785 S
atom 5.0108478915755228 7.5162681759100733 30.3722954887795531 S
atom 10.0216957831508040 7.5162754988162801 30.3722954887801677 S
atom 2.5054202843343725 5.0108478915755468 30.3722954887805408 S
atom 7.5162754988164906 5.0108478915752279 30.3722954887792547 S
atom 2.5054276072407156 10.0216957831508253 30.3722954887795105 S
atom 7.5162681759100174 10.0216957831511913 30.3722954887805834 S
