#=======================================================
# FHI-aims file: full_relax/full_relax_RP_8_RxRyRz_-Rx-Ry-Rz.in
# Created using the Atomic Simulation Environment (ASE)
# Mon Mar 24 16:15:52 2025
#=======================================================
lattice_vector 9.9431038858257779 -0.0064914673552544 -0.0005177911577067 
lattice_vector -0.0064914673551641 9.9431038856933327 0.0005177913003684 
lattice_vector 0.0018011404654284 -0.0018011392613710 87.0760568012748450 
atom 0.0394409251390973 -0.1195495728327316 0.1947444458350243 Ba
atom 5.0910995934229231 -0.0426875558751918 0.1944875491123853 Ba
atom 0.1163029448476053 4.9321122552414636 0.1950022365927499 Ba
atom 5.0077467363665331 4.8487595218332729 0.1947449617494922 Ba
atom -0.2533843356381897 0.1883563753397103 5.0295430516380986 Ba
atom 4.7831957898580582 0.2501382841453209 5.0292844469679814 Ba
atom -0.1916027278000344 5.2249361251028379 5.0298021220972773 Ba
atom 4.7149224096677296 5.1566628282311786 5.0295434030040802 Ba
atom 2.4548533865728976 2.5097439065453351 2.4075512948021998 Zr
atom 7.4301148001748505 2.5102073553779776 2.4072938103460388 Zr
atom 2.4553162662002035 7.4850043965374242 2.4078088400498081 Zr
atom 7.4231602640756558 7.4780496000619472 2.4075501998460980 Zr
atom 2.4115666586490927 2.5215511152054728 7.5074420131171413 Zr
atom 7.4183063953402106 2.5534943828888927 7.5071841397519741 Zr
atom 2.4435086467683553 7.5282921102139460 7.5077000712093103 Zr
atom 7.3798729613944074 7.4898572644252237 7.5074409043756560 Zr
atom 2.5722055651954130 2.6869609143213720 -0.1113269853764697 S
atom 7.2528970479749875 2.3928549827369183 -0.1115834925360173 S
atom 2.2780991865645910 7.3676528977306779 -0.1110692998385484 S
atom 7.5405114787811334 7.6552678739097404 -0.1113270177233462 S
atom 2.2539032176218847 2.3031180021529445 4.9925992625662721 S
atom 7.6367404083693451 2.7111571223238640 4.9923389181729325 S
atom 2.6619425370841010 7.6859546265674830 4.9928558511922798 S
atom 7.2222095995360753 7.2714238286096897 4.9925984893037230 S
atom 2.7795107173935358 0.0340761570295170 2.2995016327496764 S
atom 7.0736074518599610 0.0335554980810714 2.7169247850556126 S
atom 2.0988102210446695 5.0083544477504240 2.7174440291316437 S
atom 7.7478156317714326 5.0023833103466471 2.2995022552831124 S
atom 2.9434092206547651 0.0416438568271284 7.7114437496486605 S
atom 6.9590360043409722 0.0389906334167404 7.3507728732664681 S
atom 1.9842385304567280 5.0137878590679801 7.3512907450538485 S
atom 7.9117158264052021 5.0099496339869196 7.7114439334690275 S
atom -0.0373222687145720 2.1920420542394852 2.2997606076568649 S
atom 4.9315043293952812 2.8662505761354473 2.7171838171580918 S
atom -0.0432928040097167 7.8410485078298544 2.7177028010902071 S
atom 4.9309831695945139 7.1603473455841984 2.2997609402943429 S
atom -0.0448893300379374 2.0281423189270620 7.7117025322228701 S
atom 4.9260704081833619 2.9808219750129101 7.3510316436848813 S
atom -0.0487274025393877 7.9556195518169162 7.3515498433355813 S
atom 4.9234172712908082 6.9964485262397647 7.7117031035388317 S
atom 0.0023623981284466 -0.0792927740700246 10.0690687476099328 Ba
atom 5.0508458299993313 -0.0056079073114423 10.0688100880869591 Ba
atom 0.0760470825386979 4.9691886067252575 10.0693276525317525 Ba
atom 4.9706692763400238 4.8890124316019872 10.0690687979905089 Ba
atom 0.0489602514740532 0.0101722902153561 15.1558514450016730 Ba
atom 4.9613796473905891 -0.0522057495959597 15.1555926225387481 Ba
atom -0.0134176778331162 4.9225913244318393 15.1561105248982280 Ba
atom 5.0172665006851691 4.9784782062344686 15.1558517015761414 Ba
atom 2.4926633057250154 2.4861763221265831 12.5995898671434379 Zr
atom 7.4536831379632851 2.4723962450582899 12.5993274011595169 Zr
atom 2.4788852888385011 7.4471937164650184 12.5998475471172569 Zr
atom 7.4609693888853066 7.4544824536355625 12.5995894295369535 Zr
atom 2.4865410914910719 2.4820869690624554 17.6997558472451004 Zr
atom 7.4577703626898524 2.4785204371101028 17.6994973827859070 Zr
atom 2.4829731369334445 7.4533181075736783 17.7000179016237347 Zr
atom 7.4548475447697289 7.4503932249740616 17.6997558330011877 Zr
atom 2.5672208488332009 2.6478558286020184 10.0649288173078961 S
atom 7.2920021823493073 2.3978397082797516 10.0646700435332033 S
atom 2.3172046307385092 7.3726372786380674 10.0651882445917984 S
atom 7.5355268984042123 7.6161618787476275 10.0649284918129815 S
atom 2.4207163811690480 2.4466552409903493 15.1553214892042547 S
atom 7.4932028104834512 2.5443440867552680 15.1550616548221448 S
atom 2.5184052127596370 7.5191417361562030 15.1555809314329206 S
atom 7.3890226185101309 7.4149615373822897 15.1553213604889265 S
atom 1.9876940525583082 0.0022217730804770 12.5516383028309626 S
atom 7.9852507565703172 0.0000114479256628 12.6755233554744606 S
atom 3.0104528642915342 4.9748087529836109 12.6760404256355521 S
atom 6.9560002466013886 4.9705273896137641 12.5516386489077316 S
atom 3.0067735875983219 -0.0006807300265558 17.7331501244032914 S
atom 6.9379618911633658 -0.0040922959282696 17.6738720791109323 S
atom 1.9631641087340208 4.9707052574239787 17.6743894011336664 S
atom 7.9750797703385023 4.9676257393170120 17.7331505201420185 S
atom -0.0054671644373018 2.9838577854097079 12.5518975395407857 S
atom 4.9650489919614182 1.9546072711374922 12.6757820568378676 S
atom -0.0097481415980858 6.9294052351491553 12.6762994685632417 S
atom 4.9628396507249679 7.9521638300860467 12.5518971950248535 S
atom -0.0025646386908324 1.9647783286963492 17.7334096190038650 S
atom 4.9691523587684374 3.0018964086006026 17.6741308816048281 S
atom -0.0056444010289639 7.9766940586448687 17.6746483412153488 S
atom 4.9657390248758277 6.9330845866326953 17.7334089101369976 S
atom -0.0168259753144083 -0.0176644437236224 20.2502452479916890 Ba
atom 4.9892155751665399 0.0135803947341901 20.2499863512641234 Ba
atom 0.0144189762053607 4.9883787838213935 20.2505042584521675 Ba
atom 4.9514792116509039 4.9506421840886405 20.2502452794332086 Ba
atom 0.0110098116306036 0.0481221829494600 25.3446398241607618 Ba
atom 4.9234295565304986 -0.0142559311090677 25.3443809548009895 Ba
atom -0.0513684054209008 4.9605424846235167 25.3448986221588406 Ba
atom 4.9793159923870931 5.0164290589786464 25.3446398740882017 Ba
atom 2.4829251545893976 2.4857030865027978 22.8007328192320600 Zr
atom 7.4541557237982685 2.4821352600926274 22.8004756114854921 Zr
atom 2.4793582593311854 7.4569330225650052 22.8009911936236662 Zr
atom 7.4512320072971265 7.4540094611137144 22.8007351718499613 Zr
atom 2.4870148515894388 2.4918260157498331 27.9009046392603715 Zr
atom 7.4480316741213901 2.4780462915213510 27.9006461128686816 Zr
atom 2.4732342251091692 7.4528446073447299 27.9011624422256403 Zr
atom 7.4553198822161946 7.4601310890726173 27.9009041614880893 Zr
atom 2.5188190008922891 2.5179813510639488 20.2502457454123892 S
atom 7.4218769450861171 2.4462414549969269 20.2499872562142684 S
atom 2.4470794636555588 7.4210391100438153 20.2505054765742365 S
atom 7.4871255885925967 7.4862876320027443 20.2502460069400740 S
atom 2.4474933001851200 2.4198785252637540 25.3451680624245093 S
atom 7.5199796850195977 2.5175671846425263 25.3449116656351165 S
atom 2.5451819946205267 7.4923651950215104 25.3454292109935402 S
atom 7.4157995022605734 7.3881844099889609 25.3451684500395302 S
atom 1.9656165405622161 -0.0034032671861637 22.7670831806583358 S
atom 7.9775318271030846 -0.0064829358478677 22.8258434536253354 S
atom 3.0027343604683816 4.9683152327598998 22.8263616178374704 S
atom 6.9339227812482482 4.9649026755272132 22.7670829461204249 S
atom 2.9846956271373490 -0.0063044696403314 27.9485941138501666 S
atom 6.9302431657506771 -0.0105841142177074 27.8241919056579476 S
atom 1.9554453798053311 4.9642122403047271 27.8247099126050124 S
atom 7.9530018102731370 4.9620037518590374 27.9485940781525422 S
atom 0.0001571563128455 3.0059356954007157 22.7673418884954870 S
atom 4.9715422813721704 1.9623265451151961 22.8261027470075994 S
atom -0.0032557948039186 6.9371240086692243 22.8266203683169238 S
atom 4.9684617462317204 7.9742421309472453 22.7673418164362609 S
atom 0.0030564155443288 1.9868559533490897 27.9488529138579231 S
atom 4.9756464846502526 3.0096146909848449 27.8244506645518861 S
atom 0.0008477087067845 7.9844126358593330 27.8249687637839251 S
atom 4.9713670715044866 6.9551622115956810 27.9488531902431738 S
atom -0.0784559136060384 0.0015250126698297 30.4314229749320333 Ba
atom 4.9700272309145630 0.0752098564268781 30.4311641962274315 Ba
atom -0.0047709774771245 5.0500074023984265 30.4316818642082545 Ba
atom 4.8898510565497464 4.9698313172947142 30.4314231089221572 Ba
atom 0.1891939837408518 -0.2542213292988347 35.4709485696834790 Ba
atom 5.2257740353610993 -0.1924399623013351 35.4706893566043533 Ba
atom 0.2509761859081960 4.7823569256638923 35.4712076473032383 Ba
atom 5.1575005997403789 4.7140841719556699 35.4709485666337017 Ba
atom 2.5223886739239449 2.4107290463327296 32.9930531940036502 Zr
atom 7.5291293622782591 2.4426710128520548 32.9927910367411741 Zr
atom 2.5543321327817834 7.4174692619208615 32.9933086096878370 Zr
atom 7.4906943526245309 7.3790353039145193 32.9930505578915643 Zr
atom 2.5105799707863961 2.4540170447928658 38.0929389525373310 Zr
atom 7.4858437912847915 2.4544797103702818 38.0926819915738335 Zr
atom 2.5110434594524000 7.4292754960323331 38.0931997843392480 Zr
atom 7.4788887056050877 7.4223218961902138 38.0929401110349986 Zr
atom 2.6486937506528112 2.5663832741805130 30.4355619189793778 S
atom 7.3734751272155545 2.3163664337786045 30.4353019432947214 S
atom 2.3986770904611476 7.2911644731087994 30.4358195952261070 S
atom 7.6169998378333306 7.5346889540823057 30.4355612892925613 S
atom 2.3039552721939671 2.2530657020915257 35.5078904274592375 S
atom 7.6867925901714660 2.6611050439573902 35.5076352857400437 S
atom 2.7119946540803483 7.6359027751098330 35.5081516923048923 S
atom 7.2722616622064615 7.2213720556178709 35.5078934385088800 S
atom 2.0289800597395744 -0.0457281256781428 32.7887891033861649 S
atom 7.9564573441336526 -0.0495655754983358 33.1489417128697710 S
atom 2.9816594318077856 4.9252320099841844 33.1494595971726014 S
atom 6.9972860120098330 4.9225795390034506 32.7887883400181153 S
atom 2.1928793124055415 -0.0381599908890161 38.2007302722213993 S
atom 7.8418863719653915 -0.0441310775423401 37.7827889373473127 S
atom 2.8670882549847292 4.9306664155900730 37.7833068773225094 S
atom 7.1611857800884895 4.9301452111140938 38.2007302199544583 S
atom 0.0424816671403732 2.9425720105259825 32.7890476507934849 S
atom 5.0146263761467900 1.9834008301156836 33.1492005437182371 S
atom 0.0398279438591035 6.9581986456347451 33.1497184691453555 S
atom 5.0107890002197841 7.9108780064056505 32.7890477611783027 S
atom 0.0349146932382501 2.7786709019656888 38.2009879236689684 S
atom 5.0091910219999818 2.0979720152272696 37.7830486034381678 S
atom 0.0343961472428715 7.0727705819180562 37.7835646981507054 S
atom 5.0032188484008149 7.7469792487315630 38.2009893765263229 S
atom -0.1187105557744399 0.0386030642330651 40.3057466806580820 Ba
atom 4.9329490689079121 0.1154646489255494 40.3054865026209725 Ba
atom -0.0418484922947984 5.0902633315160752 40.3060110324761354 Ba
atom 4.8495954033370214 5.0069091994646779 40.3057477522313263 Ba
atom 2.6877994123328728 2.5713676137700738 40.6118199632695323 S
atom 7.3684902392042479 2.2772615179629492 40.6115591347413485 S
atom 2.3936928232016013 7.2520589960845250 40.6120805152305948 S
atom 7.6561049976318625 7.5396739073729462 40.6118186135634787 S
atom 2.6046017696099146 2.4438126380127971 43.7327721629592716 Ba
atom 7.4960467193610789 2.3604591466802272 43.7325136849325631 Ba
atom 2.5212480053557909 7.3352548899224148 43.7330302574513041 Ba
atom 7.5729085411472044 7.4121170235703655 43.7327738943398359 Ba
atom 2.2966986638746012 2.7366353195306403 48.5675716695918425 Ba
atom 7.2032205007473209 2.6683624367878935 48.5673125941218942 Ba
atom 2.2284246529066718 7.6431622564189539 48.5678301045465162 Ba
atom 7.2650023277335603 7.7049437848596058 48.5675710407785104 Ba
atom 4.9436179873623489 4.9967064815486539 45.9455785069968954 Zr
atom 9.9114580386165390 4.9897516945141751 45.9453142307000775 Zr
atom 4.9366626705601089 9.9645467142382600 45.9458390637796370 Zr
atom 9.9119212869136746 9.9650102431343726 45.9455800115653332 Zr
atom 4.9318085463499237 5.0399930979990346 51.0454688096314868 Zr
atom 9.8681717279585293 5.0015590314083438 51.0452143775655358 Zr
atom 4.8933739656992667 9.9763551835039852 51.0457269070143340 Zr
atom 9.9001144775809777 10.0082987574916924 51.0454692846315581 Zr
atom 4.7663983764107805 4.8793533901965693 43.4267010173331514 S
atom 10.0288115347143929 5.1669685230313993 43.4264374939408171 S
atom 5.0540129041762665 10.1417653173117657 43.4269636153519301 S
atom 9.7347051056748679 9.8476595510186158 43.4267012189492831 S
atom 5.1502424775935705 5.1976550809131679 48.5306264126049101 S
atom 9.7105083683662361 4.7831247063073965 48.5303675444900193 S
atom 4.7357113839262217 9.7579222790720284 48.5308876017552038 S
atom 10.1185480098083360 10.1659618140983916 48.5306279141721788 S
atom 4.5871089113918204 2.5200540924413612 46.2552128765558734 S
atom 10.2361160327031975 2.5140841875549249 45.8372729859372186 S
atom 5.2613182233900515 7.4888813490527308 45.8377886623946651 S
atom 9.5554154775130886 7.4883608750253030 46.2552140331327024 S
atom 4.4725372642523400 2.5254893537743119 50.8890601856414548 S
atom 10.4000148563909658 2.5216506549745605 51.2492130649096538 S
atom 5.4252176206755882 7.4964467122458949 51.2497314865311182 S
atom 9.4408441618108370 7.4937930477459309 50.8890598765097337 S
atom 2.4450048276842282 5.3527485574914584 46.2554734769116394 S
atom 7.4192831814041069 4.6720486131736596 45.8375325474124509 S
atom 2.4444858451863358 9.6468468344748715 45.8380477089958447 S
atom 7.4133123262388549 10.3210549524336468 46.2554712664625640 S
atom 2.4395715541490786 5.4673198383220472 50.8893194208581079 S
atom 7.4117174354626654 4.5081496414228814 51.2494714741287183 S
atom 2.4369185594654934 9.4829465268450939 51.2499906648545789 S
atom 7.4078798105499839 10.4356270151739441 50.8893187457339451 S
atom 2.5643474096152770 2.4808891710976293 53.6070968245116291 Ba
atom 7.4589679786041945 2.4007127952383933 53.6068380626670447 Ba
atom 2.4841707273105174 7.3755121910789327 53.6073549011626085 Ba
atom 7.5326527635152125 7.4491965378715426 53.6070961745455676 Ba
atom 2.4748812057317986 2.4342921877840995 58.6938807974097259 Ba
atom 7.5055662904078790 2.4901790221242863 58.6936217690758042 Ba
atom 2.5307680913551382 7.4649764176260538 58.6941392234826935 Ba
atom 7.4431880276179934 7.4025985504191576 58.6938801387898579 Ba
atom 4.9671858905499224 4.9588944258723657 56.1376143110357688 Zr
atom 9.9492684533294788 4.9661826854299749 56.1373610012770783 Zr
atom 4.9744719232315280 9.9409803945658055 56.1378756984925076 Zr
atom 9.9354920338535440 9.9271994999352184 56.1376141606465140 Zr
atom 4.9712724139888680 4.9650194617956513 61.2377897122192323 Zr
atom 9.9431483936341003 4.9620933754088279 61.2375229795450053 Zr
atom 4.9683504779577898 9.9368902300465969 61.2380395750252902 Zr
atom 9.9395785914078427 9.9333266050832627 61.2377882665965174 Zr
atom 4.8055036588140876 4.8843379098978223 53.6029593923258929 S
atom 10.0238267348405845 5.1278620549155329 53.6027013991831396 S
atom 5.0490287205947917 10.1026604096959947 53.6032170069430762 S
atom 9.7738106559449882 9.8526441410351104 53.6029585218064213 S
atom 5.0067052238153300 5.0308420600684984 58.6933504028182043 S
atom 9.8773219674784176 4.9266620443879106 58.6930894219209307 S
atom 4.9025248622615187 9.9014595988611909 58.6936095294154967 S
atom 9.9750111589597008 9.9991483281758065 58.6933501523872891 S
atom 5.4987526759056475 2.4865114196103226 56.2138102186813953 S
atom 9.4443003249075730 2.4822312523829804 56.0894077345661941 S
atom 4.4695024850317084 7.4570248627319060 56.0899259955157561 S
atom 10.4670586298308272 7.4548167135392109 56.2138099432056890 S
atom 4.4514639661501034 2.4824070694876261 61.2121584294256493 S
atom 10.4633796136619548 2.4793239504279314 61.2709195600037120 S
atom 5.4885816924070099 7.4541240335187142 61.2714368627208827 S
atom 9.4197699558966193 7.4507119601886496 61.2121587393350737 S
atom 2.4785489320095606 4.4411057387482797 56.2140681937424489 S
atom 7.4511389962816175 5.4638635848846606 56.0896670057258433 S
atom 2.4763385755559537 10.4386619314421889 56.0901846193520441 S
atom 7.4468560586041912 9.4094114844106684 56.2140697320430718 S
atom 2.4826536627365865 5.4883947810932296 61.2124179129398129 S
atom 7.4540369640351543 4.4447851470619719 61.2711779032836432 S
atom 2.4792404846098126 9.4195829780057068 61.2716962819201711 S
atom 7.4509603410162217 10.4567007060988182 61.2124171908243468 S
atom 2.5027175381912792 2.5000791650274841 63.7882746550299231 Ba
atom 7.4397792993746377 2.4623431823016690 63.7880157444721547 Ba
atom 2.4649812853851962 7.4371398985766177 63.7885330097062919 Ba
atom 7.4710242473038573 7.4683845596188521 63.7882743126997482 Ba
atom 2.4369311577872326 2.4722431469688990 68.8826676704125589 Ba
atom 7.4676155126016752 2.5281296351700582 68.8824092623237476 Ba
atom 2.4928176190461730 7.5029267741150232 68.8829266601524495 Ba
atom 7.4052372287998462 7.4405482290221734 68.8826676724174831 Ba
atom 4.9676589237952946 4.9686336755725851 66.3387593439206427 Zr
atom 9.9395304691981128 4.9657128265950385 66.3385084922845181 Zr
atom 4.9647324167900377 9.9405101566029295 66.3390252928933251 Zr
atom 9.9359659545386076 9.9369413863509344 66.3387581273499904 Zr
atom 4.9615312320528506 4.9645485474545428 71.4389312248019621 Zr
atom 9.9436193383813176 4.9718306054824808 71.4386712915198672 Zr
atom 4.9688211253108863 9.9466278587591717 71.4391923667133568 Zr
atom 9.9298354423746815 9.9328528004411343 71.4389330723579263 Zr
atom 4.9353786854893835 4.9327397985094414 63.7882753929673640 S
atom 9.9754255023859528 4.9979891248674742 63.7880133100690330 S
atom 5.0006274670478117 9.9727861169832419 63.7885334495802852 S
atom 9.9036853007011985 9.9010467534397097 63.7882756641193183 S
atom 5.0334807311386651 5.0040663603609588 68.8832031895312156 S
atom 9.9040985154104373 4.8998853750838132 68.8829344462817232 S
atom 4.9293007527618586 9.8746831450641963 68.8834582599254333 S
atom 10.0017861796227479 9.9723727594242231 68.8832054805133396 S
atom 5.4910338131823675 2.4800129281231187 66.3641297022922600 S
atom 9.4222222680595724 2.4765990008917322 66.3048522040433141 S
atom 4.4474246784535261 7.4513985594880063 66.3053695163419121 S
atom 10.4593400588920495 7.4483169819580937 66.3641304190960710 S
atom 4.4437434832389346 2.4759107096888977 71.3624790056501865 S
atom 10.4412991434654856 2.4737050009801842 71.4863633148193856 S
atom 5.4665012028659330 7.4485005348047251 71.4868810027588495 S
atom 9.4120498633764758 7.4442193371105958 71.3624797450111572 S
atom 2.4850432254697878 4.4488253838732961 66.3643896315642223 S
atom 7.4567619693177383 5.4859439702839721 66.3051113099412390 S
atom 2.4819631253054522 10.4607413121238508 66.3056275126341887 S
atom 7.4533484394897149 9.4171316329633825 66.3643892059629792 S
atom 2.4891524577747202 5.4961130378563956 71.3627388034117303 S
atom 7.4596676459061406 4.4668627468824624 71.4866230480853204 S
atom 2.4848748043777658 9.4416605493156318 71.4871398073174333 S
atom 7.4574592168465861 10.4644195013262795 71.3627367047987349 S
atom 2.4835288580865971 2.5617075489919579 73.9694527540730462 Ba
atom 7.3781501455911380 2.4815311209804292 73.9691934251475516 Ba
atom 2.4033527134891686 7.4563295761496775 73.9697109197031040 Ba
atom 7.4518346444218491 7.5300153759926722 73.9694516693840853 Ba
atom 2.7392749533726843 2.2940586047406559 79.0089767430316385 Ba
atom 7.6458005789022074 2.2257846939617494 79.0087176003176666 Ba
atom 2.6710014852415767 7.2005825753863792 79.0092358551983978 Ba
atom 7.7075820483252588 7.2623647551175141 79.0089765922860465 Ba
atom 5.0426315577249916 4.9291697283051139 76.5310809338396894 Zr
atom 9.9789949818365571 4.8907349260742006 76.5308210441505281 Zr
atom 5.0041984246103670 9.8655321380941832 76.5313345222437960 Zr
atom 10.0109365058899424 9.8974741435422953 76.5310810134616872 Zr
atom 4.9993440593260692 4.9409789935694839 81.6309685055482674 Zr
atom 9.9671874442421089 4.9340244625768523 81.6307109582016608 Zr
atom 4.9923902074461015 9.9088187387776276 81.6312278494692407 Zr
atom 9.9676488318867253 9.9092812537384134 81.6309665783482927 Zr
atom 4.8869763098281886 4.8028649325334491 73.9735858619707045 S
atom 10.1052986797440418 5.0463892271132833 73.9733298166764115 S
atom 5.1304998817939511 10.0211873162195655 73.9738492110151071 S
atom 9.8552825810861737 9.7711706572899413 73.9735872087406250 S
atom 5.2002951337823253 5.1476032601619464 79.0459186593653840 S
atom 9.7605606107828624 4.7330720572288731 79.0456641605874495 S
atom 4.7857640153104590 9.7078700195142726 79.0461819128307326 S
atom 10.1685999595920560 10.1159089729824281 79.0459199111525805 S
atom 5.4699593135248623 2.4369302392654104 76.6872295560637980 S
atom 9.4855855344417961 2.4342799042964294 76.3265578881350422 S
atom 4.5107881697607590 7.4090818072454665 76.3270762206107065 S
atom 10.4382656135572880 7.4052439101335459 76.6872291304311915 S
atom 5.3553879908994064 2.4423671517841772 81.3210774387095228 S
atom 9.6494836318848236 2.4418472545766075 81.7385017763642026 S
atom 4.6746886432326962 7.4166439450212343 81.7390171427111483 S
atom 10.3236934740461876 7.4106735030342010 81.3210762072210400 S
atom 2.5281274796560997 4.4698983241553520 76.6874879877681650 S
atom 7.4990857187398330 5.4225780560203525 76.3268178627949112 S
atom 2.5242906090122892 10.3973763215013353 76.3273341061564992 S
atom 7.4964321677951666 9.4382049808815616 76.6874886229294361 S
atom 2.5226920870510465 4.5844699015973944 81.3213363437409527 S
atom 7.4915206343801284 5.2586784924706773 81.7387581184086258 S
atom 2.5167232565773539 10.2334781760448177 81.7392786178995152 S
atom 7.4909999867173047 9.5527767462166384 81.3213350455537949 S
atom 2.4464502592261517 2.6019630714363378 83.8437729045859328 Ba
atom 7.3378965320825049 2.5186103027998659 83.8435123392285959 Ba
atom 2.3630962348804458 7.4934067796743440 83.8440359451952020 Ba
atom 7.4147572424161767 7.5702691046276236 83.8437760999150896 Ba
atom 4.8819919363963331 4.7637591760135969 84.1498490426267551 S
atom 10.1444050506363830 5.0513738857508805 84.1495882517844791 S
atom 5.1696061698151841 10.0261725775563804 84.1501048618086003 S
atom 9.8502987114174623 9.7320665243340443 84.1498485103376481 S
