#=======================================================
# FHI-aims file: full_relax/full_relax_RP_7_RxRyRz_RxRyRz.in
# Created using the Atomic Simulation Environment (ASE)
# Mon Mar 24 15:45:59 2025
#=======================================================
lattice_vector 9.9524562350434547 -0.0050495704799749 0.0003559251801309 
lattice_vector -0.0050495704799161 9.9524562348560810 -0.0003559254494825 
lattice_vector 0.0074028063248069 -0.0074028083393641 76.8084890570856658 
atom 0.0372619101377505 -0.1226031022776093 0.2002939187755498 Ba
atom 5.0988309731082522 -0.0397871611542242 0.2004723252226837 Ba
atom 0.1200773831847253 4.9389661621752801 0.2001191915270865 Ba
atom 5.0109654836540782 4.8511012382794130 0.2002951935135509 Ba
atom -0.2518401024089240 0.1877908307509147 5.0247166908688152 Ba
atom 4.7884371891626154 0.2493153187214410 5.0248945812973416 Ba
atom -0.1903147200160764 5.2280682116152901 5.0245390732550685 Ba
atom 4.7218623535656752 5.1614944030394039 5.0247170029651560 Ba
atom 2.4585243892617603 2.5106905623637741 2.4046696717012050 Zr
atom 7.4392392948163506 2.5126531272389756 2.4048492764127265 Zr
atom 2.4604864104127464 7.4914094166202467 2.4044934634435111 Zr
atom 7.4322273328094708 7.4843971221699359 2.4046678514741955 Zr
atom 2.4158553332503310 2.5226008075258815 7.5006133019816552 Zr
atom 7.4273304671749152 2.5553238350104106 7.5007882902846124 Zr
atom 2.4485772504677903 7.5340769118324493 7.5004311786659805 Zr
atom 7.3895585644305459 7.4963043124346989 7.5006139454158047 Zr
atom 2.5783037856788349 2.6923725048632061 -0.1119739919458678 S
atom 7.2575589388179544 2.3928751265896104 -0.1117939731583846 S
atom 2.2788064535028192 7.3716282202909076 -0.1121470269839231 S
atom 7.5520068697238019 7.6660760322236170 -0.1119761232070559 S
atom 2.2546791687611725 2.2984026021997450 4.9872802477534437 S
atom 7.6515292190891930 2.7164991974448509 4.9874552156650696 S
atom 2.6727761341649070 7.6952515480813579 4.9870980881693558 S
atom 7.2283823752412282 7.2721055203561429 4.9872808513015361 S
atom 2.7727880090773143 0.0328811768563822 2.2936790272938996 S
atom 7.0933711257429790 0.0331929685806657 2.7185957829888734 S
atom 2.1146177118144518 5.0119458937402230 2.7182394773604939 S
atom 7.7464921125579105 5.0065850989680323 2.2936791914565853 S
atom 2.9426434378929875 0.0398617313619662 7.7077300691741053 S
atom 6.9729177324692806 0.0380423173991324 7.3387625447029583 S
atom 1.9941646404267317 5.0167954451373218 7.3384068156359348 S
atom 7.9163465112303220 5.0135653781752776 7.7077291393844254 S
atom -0.0354066200316502 2.2034399194961876 2.2935015540465162 S
atom 4.9379853463430843 2.8565607946048885 2.7184172285008472 S
atom -0.0407678486304800 7.8353134482086935 2.7180618909306951 S
atom 4.9382978717360002 7.1771423723992465 2.2935010921043517 S
atom -0.0423866367073701 2.0335845522714302 7.7075515226815465 S
atom 4.9331357007692986 2.9770135958227981 7.3385847551920520 S
atom -0.0456158583319983 7.9557663174920075 7.3382290145682614 S
atom 4.9313167200628776 7.0072878307606450 7.7075516838810163 S
atom 0.0031655472783158 -0.0819160260793548 10.0593425732743782 Ba
atom 5.0581440052492388 -0.0056903259288959 10.0595204077835376 Ba
atom 0.0793916083450028 4.9730622447930335 10.0591649151987337 Ba
atom 4.9768687995895204 4.8917870565426362 10.0593426080714092 Ba
atom 0.0530058299583385 0.0142038366346363 15.1414878793391487 Ba
atom 4.9620250822942955 -0.0555307248349124 15.1416658499965493 Ba
atom -0.0167287488954177 4.9232217032990881 15.1413098474369932 Ba
atom 5.0267099720626325 4.9879067959506616 15.1414878523453584 Ba
atom 2.4978399550670933 2.4863511006734531 12.5890896121275819 Zr
atom 7.4635805772140316 2.4733385411116227 12.5892679928688427 Zr
atom 2.4848274874965885 7.4520906090171772 12.5889101775871950 Zr
atom 7.4715432908019590 7.4600545338426771 12.5890910887381349 Zr
atom 2.4885558599492876 2.4851483183822385 17.6861620537321365 Zr
atom 7.4647827720946021 2.4826224148674210 17.6863445130332124 Zr
atom 2.4860305161829990 7.4613756480443172 17.6859903282942881 Zr
atom 7.4622592670541890 7.4588513210695897 17.6861620240770812 Zr
atom 2.5774913461660480 2.6532675103693744 10.0547750843214754 S
atom 7.2966638292236317 2.3936870980674438 10.0549522684073729 S
atom 2.3179108225462195 7.3724400071427674 10.0545953443839728 S
atom 7.5511945485396010 7.6269710491847178 10.0547758597429571 S
atom 2.4193942018539225 2.4365359439512622 15.1409766542714994 S
atom 7.5133953416674490 2.5517842932702082 15.1411559691930702 S
atom 2.5346425304840117 7.5305370949002866 15.1408003368297965 S
atom 7.3930976083540036 7.4102392975624900 15.1409770110954032 S
atom 1.9973867701131252 -0.0001943202796323 12.5337585526759021 S
atom 7.9902309608520339 -0.0017630602609166 12.6686691594582879 S
atom 3.0114780146760043 4.9769915378719478 12.6683138815193885 S
atom 6.9710900446997464 4.9735086916755034 12.5337581308685948 S
atom 3.0054316109963382 -0.0029037302044528 17.7258106667634578 S
atom 6.9504328765912584 -0.0055588797495293 17.6468765869115742 S
atom 1.9716800447958065 4.9731938639260198 17.6465203141474163 S
atom 7.9791351406680198 4.9708015050028367 17.7258109751368771 S
atom -0.0023298092249325 2.9788413217766627 12.5335802426684904 S
atom 4.9729408010295932 1.9597002458214492 12.6684915945191694 S
atom -0.0058118941849802 6.9384533370612242 12.6681356584897156 S
atom 4.9713741317656259 7.9525445137450639 12.5335803468630225 S
atom 0.0003778817880635 1.9707963111176072 17.7256329753198614 S
atom 4.9767383899198698 2.9994985574703090 17.6466985400790222 S
atom -0.0020156346129068 7.9782513877787435 17.6463424309237737 S
atom 4.9740810210307806 6.9444997759204838 17.7256327547944039 S
atom -0.0495970515758873 -0.0176129037796769 20.2308432126623714 Ba
atom 4.9938413128284171 0.0470722595010184 20.2310211101217909 Ba
atom 0.0150879650538638 5.0258252765610987 20.2306651363814538 Ba
atom 4.9241064094505163 4.9560905074130659 20.2308430455812278 Ba
atom 0.0002440896632299 0.0785071390262943 25.3129879985939645 Ba
atom 4.8977202995321969 -0.0027688197370707 25.3131657769344045 Ba
atom -0.0810315696165991 4.9759843624280808 25.3128102379300657 Ba
atom 4.9739467455228823 5.0522105851996058 25.3129880760378114 Ba
atom 2.4792721601639571 2.4839427196093444 22.7832456841344175 Zr
atom 7.4659882772801085 2.4919071145538849 22.7834206370924370 Zr
atom 2.4872354389261275 7.4706602173932311 22.7830665270320338 Zr
atom 7.4529749514787866 7.4576464732191514 22.7832444830451948 Zr
atom 2.5612597667474160 2.4476911766535343 27.8717181239529559 Zr
atom 7.5022404661950750 2.4099198129064372 27.8718931063813677 Zr
atom 2.5234876647774738 7.3886727572130875 27.8715357497072311 Zr
atom 7.5349629942521910 7.4213950807722018 27.8717179454731827 Zr
atom 2.5577175695574605 2.5337585732992882 20.2313495709323341 S
atom 7.4161730145241966 2.4134609368195736 20.2315294017305547 S
atom 2.4374200675842719 7.3922139724511498 20.2311741695554090 S
atom 7.5314210402831492 7.5074618318845241 20.2313488106451622 S
atom 2.3996222213045213 2.3170265832829560 25.3175576474132988 S
atom 7.6329051999969852 2.5715567911741113 25.3177334593108867 S
atom 2.6541523115166581 7.5503093101390357 25.3173775904911587 S
atom 7.3733253391537730 7.2907298605261408 25.3175558880342564 S
atom 1.9656340953226108 -0.0066999862750445 22.7040156571772052 S
atom 7.9584786182951914 -0.0082629414892902 22.8389279055888288 S
atom 2.9797257409986506 4.9704908567202732 22.8385714992060080 S
atom 6.9393376042084363 4.9670040267168662 22.7040164786742089 S
atom 2.9829487373620927 -0.0464960335476331 28.0339242345490511 S
atom 7.0132234215088030 -0.0483189281670221 27.6649575564074226 S
atom 2.0344700889245768 4.9304346297112449 27.6646010603096570 S
atom 7.9566520202900577 4.9272065083995811 28.0339240661577769 S
atom 0.0041731231400793 3.0105941622930081 22.7038380742119550 S
atom 4.9794410009596568 1.9914530280249052 22.8387496614991932 S
atom 0.0006887035477612 6.9702059023636656 22.8383937166505717 S
atom 4.9778773285393436 7.9842973712344998 22.7038382520419155 S
atom 0.0439715514239056 1.9932793963599089 28.0337462062375344 S
atom 5.0194949769311679 2.9367085234370589 27.6647787363616651 S
atom 0.0407422539150353 7.9154613250525037 27.6644236847426974 S
atom 5.0176746244873875 6.9669827591270295 28.0337465436581610 S
atom 0.2552496153690794 -0.1911992715144310 30.3476133531916119 Ba
atom 5.1674277197389893 -0.2577742624394302 30.3477912083595598 Ba
atom 0.1886754338895036 4.7209781719403985 30.3474354024404356 Ba
atom 5.2289523761439298 4.7825038530372659 30.3476133806570338 Ba
atom -0.0338535003095047 0.1191918025072798 35.1720278223074772 Ba
atom 4.8570354653575238 0.0313281344364916 35.1722107355202027 Ba
atom -0.1217169680961732 5.0100813628521950 35.1718488792772064 Ba
atom 4.9398505549346581 5.0928956296661649 35.1720280332950637 Ba
atom 2.5185885100491894 2.4596007386820551 32.9676589971196989 Zr
atom 7.4903301793696837 2.4525901764008435 32.9678395483003825 Zr
atom 2.5115777445713308 7.4313443802081522 32.9674829250373946 Zr
atom 7.4922912652862061 7.4333045654608743 32.9676615211415580 Zr
atom 2.7224335276245561 2.6718911441526889 30.3850549123399922 S
atom 7.2780405847366101 2.2487441419211116 30.3852291902635159 S
atom 2.2992873646713035 7.2274975461254263 30.3848718394262249 S
atom 7.6961372283552105 7.6455949351607790 30.3850536960569642 S
atom 2.3988095877592275 2.2779227612455495 35.4842955846785841 S
atom 7.6720093670011726 2.5723695093200400 35.4844805392287910 S
atom 2.6932565096543368 7.5511221051671367 35.4841250188919304 S
atom 7.3725128169922334 7.2516254210992281 35.4842962876724073 S
atom 2.8624944637687264 -0.0416519768988146 32.6540928131052439 S
atom 7.1830768058328882 -0.0413406554370672 33.0790090717602610 S
atom 2.2043221382880791 4.9374123476683769 33.0786555765861863 S
atom 7.8361983562535773 4.9320525063699820 32.6540934566815650 S
atom 0.0391266499468984 2.1137328012022465 32.6539150585261240 S
atom 5.0125186658723173 2.7668557979950674 33.0788328841344779 S
atom 0.0337659814540576 7.7456090504693105 33.0784769152866005 S
atom 5.0128298770647648 7.0874365282052567 32.6539152712481169 S
atom 2.5278159336424815 2.3605487800703591 38.6045459691730883 Ba
atom 7.5893821793573739 2.4433625606477767 38.6047206626358630 Ba
atom 2.6106300936539890 7.4221168129330870 38.6043648583179575 Ba
atom 7.5015183209474525 7.3342530899694296 38.6045446860702697 Ba
atom 2.2387123537979030 2.6709418012186763 43.4289625366054040 Ba
atom 7.2789905834282544 2.7324664831349752 43.4291404011236040 Ba
atom 2.3002370273624253 7.7112181891721407 43.4287847853457194 Ba
atom 7.2124165876901962 7.6446435488969975 43.4289625514021296 Ba
atom 4.9490776720345586 4.9938427106746772 40.8089192224342270 Zr
atom 9.9297905860302880 4.9958031832500600 40.8090962224767537 Zr
atom 4.9510396952639741 9.9745576749230125 40.8087361856620277 Zr
atom 9.9227801799274520 9.9675475646967406 40.8089172053503546 Zr
atom 4.9064071407812140 5.0057536683455419 45.9048552420660840 Zr
atom 9.9178840286870109 5.0384736053706689 45.9050363932789054 Zr
atom 4.9391289524016706 10.0172269435435659 45.9046803014598552 Zr
atom 9.8801104577663619 9.9794558743764021 45.9048575917706358 Zr
atom 5.0688559956475334 5.1755223824962835 38.2922773763886966 S
atom 9.7481125968385118 4.8760255486969264 38.2924554878949337 S
atom 4.7693589408346231 9.8547780309059245 38.2920938597111515 S
atom 10.0425597303415870 10.1492254670338049 38.2922789287338148 S
atom 4.7452326251026440 4.7815529895493647 43.3915241511152630 S
atom 10.1420819459812055 5.1996496576432616 43.3917073652138399 S
atom 5.1633287249734332 10.1784033361760589 43.3913498654700334 S
atom 9.7189355625816010 9.7552562653051442 43.3915264675186663 S
atom 5.2633423004373556 2.5160312095361466 40.6979202660894401 S
atom 9.5839239757510288 2.5163410559766608 41.1228353846461232 S
atom 4.6051707535130699 7.4950955582829870 41.1224808073670260 S
atom 10.2370459299110976 7.4897367694372363 40.6979184039095117 S
atom 5.4331959140031447 2.5230103476826669 46.1119721859028573 S
atom 9.4634703064981665 2.5211926167647336 45.7430056604841795 S
atom 4.4847179856310930 7.4999415498161408 45.7426501457707531 S
atom 10.4068995287313051 7.4967125719768060 46.1119724998646063 S
atom 2.4551496400367974 4.6865885734576782 40.6977401319317309 S
atom 7.4285380871201792 5.3397110783340098 41.1226576197547118 S
atom 2.4497849530983560 10.3184641215694874 41.1223025214521130 S
atom 7.4288502174365254 9.6602922881888951 40.6977415246240994 S
atom 2.4481648418398310 4.5167356514863126 46.1117946616446375 S
atom 7.4236905523190249 5.4601647809045737 45.7428278069921390 S
atom 2.4449407371901795 10.4389174278865777 45.7424717999137940 S
atom 7.4218705792039747 9.4904392390821961 46.1117941953422346 S
atom 2.4937177638537102 2.4012340145496345 48.4635869133885535 Ba
atom 7.5486988295499104 2.4774605703821893 48.4637653681656673 Ba
atom 2.5699440506869111 7.4562128076520500 48.4634089250922244 Ba
atom 7.4674224457157781 7.3749363254246161 48.4635875337070985 Ba
atom 2.5435592774737112 2.4973538343494206 53.5457304305585708 Ba
atom 7.4525769593822986 2.4276195617139420 53.5459085178182832 Ba
atom 2.4738250057874214 7.4063722471993856 53.5455526479787594 Ba
atom 7.5172623361379802 7.4710573100133617 53.5457306338554702 Ba
atom 4.9883953605178668 4.9695017437307074 50.9933308425466478 Zr
atom 9.9541327173778864 4.9564890622312356 50.9935080425532092 Zr
atom 4.9753802830925347 9.9352436374380115 50.9931561750887923 Zr
atom 9.9620988675963744 9.9432027501219888 50.9933283239943975 Zr
atom 4.9791085503224757 4.9682982238955056 56.0904108135393358 Zr
atom 9.9553367165280520 4.9657721937509240 56.0905823575401499 Zr
atom 4.9765848224335372 9.9445248906897401 56.0902289417671014 Zr
atom 9.9528119184720225 9.9420016535321896 56.0904112930819352 Zr
atom 5.0680445557457814 5.1364187422239569 48.4590207710097971 S
atom 9.7872174055593995 4.8768378351947419 48.4591953268040214 S
atom 4.8084645579457401 9.8555915963420411 48.4588410528699214 S
atom 10.0417474456721774 10.1101207678813516 48.4590187026952748 S
atom 4.9099477104330331 4.9196865750982530 53.5452185660645910 S
atom 10.0039487356776284 5.0349341242628300 53.5453983371713846 S
atom 5.0251961203527991 10.0136878554319360 53.5450434297323881 S
atom 9.8836514050712392 9.8933893431560076 53.5452194607511132 S
atom 4.4879406369764681 2.4829513066999538 50.9380042457485587 S
atom 10.4807853301271994 2.4813888296240711 51.0729169662139668 S
atom 5.5020321446640841 7.4601388116527954 51.0725595250605764 S
atom 9.4616439204116638 7.4566604487029720 50.9380050286633761 S
atom 5.4959851042446806 2.4802473469239761 56.1300570153957992 S
atom 9.4409864590252131 2.4775917433896559 56.0511230126990583 S
atom 4.4622332785585348 7.4563463403997527 56.0507666958750121 S
atom 10.4696883532808016 7.4539524634850283 56.1300574051468857 S
atom 2.4882224642111690 5.4619919593827380 50.9378268302281398 S
atom 7.4634914192318442 4.4428506194041875 51.0727384375857341 S
atom 2.4847365088848323 9.4216038278748755 51.0723821614073117 S
atom 7.4619246619736144 10.4356951544119685 50.9378264808766019 S
atom 2.4909313694459621 4.4539462961623109 56.1298796138165557 S
atom 7.4672904356801935 5.4826483330983340 56.0509451720678200 S
atom 2.4885379764127156 10.4614013868033364 56.0505885913528559 S
atom 7.4646316901278427 9.4276496543715016 56.1298788773792197 S
atom 2.4409566247596777 2.4655370279664348 58.6350863908015469 Ba
atom 7.4843931551737128 2.5302218734235775 58.6352643509367084 Ba
atom 2.5056417265173390 7.5089758127255646 58.6349084662416900 Ba
atom 7.4146587664539085 7.4392413583166119 58.6350864226142008 Ba
atom 2.4907966435811337 2.5616571533239636 63.7172331742381957 Ba
atom 7.3882748719246507 2.4803814446056651 63.7174115934839875 Ba
atom 2.4095209421906927 7.4591349893586072 63.7170552039909595 Ba
atom 7.4645003000729515 7.5353604640467999 63.7172336084228874 Ba
atom 4.9698250708537364 4.9670928737626969 61.1874860530218854 Zr
atom 9.9565411516944966 4.9750581462568562 61.1876705182221698 Zr
atom 4.9777875962432629 9.9538094289033712 61.1873107015411151 Zr
atom 9.9435266216917526 9.9407972178084840 61.1874884332647326 Zr
atom 5.0518123897227056 4.9308423095345262 66.2759650587456548 Zr
atom 9.9927915435989743 4.8930693461430383 66.2761431055654811 Zr
atom 5.0140400970174230 9.8718211099080708 66.2757826699896242 Zr
atom 10.0255151547333057 9.9045458942162803 66.2759619880764461 Zr
atom 5.0482707857994207 5.0169084959409913 58.6355965479258217 S
atom 9.9067259471100897 4.8966112922951854 58.6357699692393908 S
atom 4.9279726458993087 9.8753635695767308 58.6354160282752659 S
atom 10.0219739186452657 9.9906123865916641 58.6355966453440018 S
atom 4.8901747906975022 4.8001760842542689 63.7217995834873676 S
atom 10.1234582143572442 5.0547071594040807 63.7219788060337393 S
atom 5.1447047429987949 10.0334595165923357 63.7216199015933071 S
atom 9.8638779321111691 9.7738803268337726 63.7217991843290079 S
atom 4.4561870035862006 2.4764524893993931 61.1082615322971066 S
atom 10.4490310718713548 2.4748846665942414 61.2431720832230937 S
atom 5.4702780959917856 7.4536414083440397 61.2428167286774965 S
atom 9.4298904892339177 7.4501549574046173 61.1082606701418527 S
atom 5.4735013939118788 2.4366560443531409 66.4381682475506210 S
atom 9.5037756410741778 2.4348334490505601 66.0692000491464171 S
atom 4.5250230078554772 7.4135854459386170 66.0688454102616589 S
atom 10.4472051226232363 7.4103551475890361 66.4381677266175501 S
atom 2.4947273932449630 5.4937440928780674 61.1080829648260746 S
atom 7.4699932493996064 4.4746034902198648 61.2429943144208337 S
atom 2.4912445641464158 9.4533562667611530 61.2426386396434808 S
atom 7.4684333863260370 10.4674473407052080 61.1080832110529357 S
atom 2.5345251421095552 4.4764295817260731 66.4379892693169722 S
atom 7.5100512823785861 5.4198588586014678 66.0690220199788882 S
atom 2.5312965356489019 10.3986116256582175 66.0686676795699697 S
atom 7.5082287873265683 9.4501330808442496 66.4379906340210340 S
atom 2.7458018443070165 2.2919516735310888 68.7518583522855948 Ba
atom 7.6579816617007443 2.2253769404778581 68.7520360339815824 Ba
atom 2.6792274673956933 7.2041277772642314 68.7516805153261004 Ba
atom 7.7195066923984319 7.2656524146625800 68.7518580189027801 Ba
atom 2.4567002651671626 2.6023438576014883 73.5762797701685116 Ba
atom 7.3475878057045207 2.5144779711594274 73.5764566285836565 Ba
atom 2.3688347739714097 7.4932312991589445 73.5761001995954445 Ba
atom 7.4304034908281364 7.5760476566109256 73.5762817579585686 Ba
atom 5.0091404152642278 4.9427517277456419 71.3719041433709975 Zr
atom 9.9808838031842892 4.9357415087096168 71.3720828883513718 Zr
atom 5.0021301127778530 9.9144928515627555 71.3717313665573556 Zr
atom 9.9828444378641343 9.9164542828664182 71.3719052055355831 Zr
atom 5.2129868556624057 5.1550414048670161 68.7892957635294238 S
atom 9.7685927479950614 4.7318956492412587 68.7894794230803655 S
atom 4.7898403355424062 9.7106474835440899 68.7891200384750761 S
atom 10.1866903089824152 10.1287448017917061 68.7892948609563746 S
atom 4.8893622051843080 4.7610718020728493 73.8885484517113724 S
atom 10.1625621690394627 5.0555191442520231 73.8887172889549930 S
atom 5.1838097193071269 10.0342724765577032 73.8883682380904787 S
atom 9.8630651774759315 9.7347754373170403 73.8885507922941827 S
atom 5.3530477429732510 2.4414972603988385 71.0583353853810848 S
atom 9.6736293837360066 2.4418091674899731 71.4832528126130171 S
atom 4.6948770148496139 7.4205655596848015 71.4828958142908704 S
atom 10.3267509401442510 7.4152022454399047 71.0583359335114011 S
atom 2.5296805104433058 4.5968834943044214 71.0581583463246318 S
atom 7.5030716855259207 5.2500044421699537 71.4830740506561000 S
atom 2.5243207690353708 10.2287577966392575 71.4827175560624823 S
atom 7.5033827071697239 9.5705873220392128 71.0581568740875866 S
