#=======================================================
# FHI-aims file: full_relax/full_relax_RP_8_RxRyRz_RxRy-Rz.in
# Created using the Atomic Simulation Environment (ASE)
# Mon Mar 24 16:12:42 2025
#=======================================================
lattice_vector 9.9499082435380544 -0.0030593463229892 0.0000000000130518 
lattice_vector -0.0030593463229819 9.9499082435236677 0.0000000000215211 
lattice_vector 0.0000000001104267 0.0000000001823483 86.9479319362199732 
atom 0.0683588047378460 -0.1113441177939861 0.1915084976099346 Ba
atom 5.0862981718117970 -0.0698884943859259 0.1915088206383309 Ba
atom 0.1098145228219069 4.9065953412143584 0.1915080906578151 Ba
atom 5.0417831811066192 4.8620803599984983 0.1915083852936848 Ba
atom -0.2624992952978561 0.2005985972742939 5.0172689680723206 Ba
atom 4.7743555279178036 0.2609695427948810 5.0172689263817141 Ba
atom -0.2021283325766726 5.2374534402667408 5.0172689531691494 Ba
atom 4.7109251925578768 5.1740231390149596 5.0172688905143579 Ba
atom 2.4652333781349300 2.5185858862254360 2.3946251967959866 Zr
atom 7.4297926585386014 2.5066612892063316 2.3946252623815290 Zr
atom 2.4533091862995260 7.4831451679735883 2.3946252128689935 Zr
atom 7.4386574672622601 7.4920104305969293 2.3946253241939068 Zr
atom 2.4080894277245624 2.5288323465362192 7.4863835967938206 Zr
atom 7.4195461208318596 2.5638051132360902 7.4863836097920782 Zr
atom 2.4430622088474623 7.5402892412115357 7.4863834765094328 Zr
atom 7.3815139789164181 7.5022570648461153 7.4863831762233763 Zr
atom 2.6199981072926417 2.7417338120280617 -0.1216436894373611 S
atom 7.2066448049305825 2.3518966914945176 -0.1216435255458551 S
atom 2.2301609074525586 7.3283804344015664 -0.1216434429639556 S
atom 7.5934226088405561 7.7151582365218108 -0.1216432302063961 S
atom 2.2369074341581738 2.2894774587126707 4.9748056792765336 S
atom 7.6589011374596110 2.7349873742776651 4.9748056612834555 S
atom 2.6824173275707199 7.7114710880907680 4.9748054810854079 S
atom 7.2103319330061009 7.2629018411780928 4.9748057715194633 S
atom 2.7533604842490478 0.0370272976060835 2.2578951529732021 S
atom 7.0804511281772688 0.0386809177211874 2.7380768209502517 S
atom 2.1039672709423769 5.0151647932407482 2.7380769555726845 S
atom 7.7267848425508454 5.0104517501583370 2.2578952175609435 S
atom 2.9304820969177650 0.0469134446832228 7.7042722401497574 S
atom 6.9690027185527406 0.0463548784939529 7.3166515148104683 S
atom 1.9925188859869583 5.0228389960837108 7.3166514792325188 S
atom 7.9039065469587024 5.0203382105353747 7.7042722412079128 S
atom -0.0385571501401932 2.2215937257791825 2.2578952056787540 S
atom 4.9332139937128998 2.8679274667816017 2.7380769495689745 S
atom -0.0432699442057481 7.8444112445475760 2.7380768703352061 S
atom 4.9348675045013328 7.1950181856186184 2.2578952061579893 S
atom -0.0484432618151885 2.0444720537726622 7.7042721777308047 S
atom 4.9255397429084704 2.9793759084982567 7.3166514532392481 S
atom -0.0509442549813543 7.9558596154419314 7.3166515373908352 S
atom 4.9249814466850195 7.0178964317473760 7.7042723026743953 S
atom 0.0006451137062387 -0.0782651880694597 10.0458644073785575 Ba
atom 5.0532193378397956 -0.0021746923730763 10.0458643524840685 Ba
atom 0.0767355624647234 4.9743089728686458 10.0458644030033035 Ba
atom 4.9740695194280642 4.8951591845704394 10.0458643488878163 Ba
atom 0.0533457112462254 0.0126568272314069 15.1284961459129708 Ba
atom 4.9622973151335588 -0.0548752857400342 15.1284961192252485 Ba
atom -0.0141864079207340 4.9216083773143096 15.1284961798123145 Ba
atom 5.0267700894867069 4.9860811584852200 15.1284961524827448 Ba
atom 2.4950690859341838 2.4900975732300328 12.5740837682428932 Zr
atom 7.4582809588754575 2.4768253996081984 12.5740837145057078 Zr
atom 2.4817969503140285 7.4533095055151311 12.5740837593046511 Zr
atom 7.4684938014343603 7.4635223113689477 12.5740836722795066 Zr
atom 2.4889173738974284 2.4848609747372481 17.6712878053945524 Zr
atom 7.4635178093424885 2.4829771620162302 17.6712876433132600 Zr
atom 2.4870335979237210 7.4594609805429162 17.6712878172203709 Zr
atom 7.4623422676737041 7.4582854331812891 17.6712878780759368 Zr
atom 2.5765039103666645 2.6639777029389573 10.0412798504149308 S
atom 7.2844008752353524 2.3953908979276974 10.0412797282340396 S
atom 2.3079171219055752 7.3718746558804407 10.0412797324617529 S
atom 7.5499283193812818 7.6374020792064847 10.0412795979246567 S
atom 2.4148369040075175 2.4439205366596712 15.1282208374199740 S
atom 7.5044580178203804 2.5570579153870301 15.1282208645642484 S
atom 2.5279742988066114 7.5335416738573109 15.1282206514682311 S
atom 7.3882613107146291 7.4173449479077638 15.1282208979363020 S
atom 1.9945609218901845 0.0040800744366592 12.5190348620553547 S
atom 7.9867151319781922 0.0036035620647983 12.6576726441663965 S
atom 3.0102314279386966 4.9800874980097172 12.6576726521693299 S
atom 6.9679853068199495 4.9775046727050283 12.5190348786205039 S
atom 3.0054517220734605 0.0006377241044164 17.7096990344483629 S
atom 6.9454183609033899 -0.0009836747982479 17.6407738259966429 S
atom 1.9689345971237673 4.9755000885512866 17.6407738427329548 S
atom 7.9788760619631747 4.9740621990659157 17.7096989839655912 S
atom -0.0056096565844597 2.9803932673114235 12.5190348486605370 S
atom 4.9682910324458902 1.9616633827329388 12.6576726411648259 S
atom -0.0081928197858459 6.9381471988272709 12.6576726564027915 S
atom 4.9678147405405664 7.9538176446962572 12.5190348913454486 S
atom -0.0021672390095953 1.9695024754270940 17.7096990531405325 S
atom 4.9728783068518538 3.0029602323087805 17.6407738641556975 S
atom -0.0036056713646521 7.9794439540174791 17.6407738079364620 S
atom 4.9712573491733298 6.9429268871377001 17.7096989624437029 S
atom -0.0201715049402124 -0.0201715491748247 20.2204493688171993 Ba
atom 4.9951256347536441 0.0186418874035359 20.2204494289923780 Ba
atom 0.0186419501564100 4.9951256780759383 20.2204494072950212 Ba
atom 4.9532528518813743 4.9532528518468526 20.2204494671605879 Ba
atom 0.0126568306768270 0.0533456382292431 25.3124022950281962 Ba
atom 4.9216083791947129 -0.0141864803054474 25.3124022516122444 Ba
atom -0.0548753394194566 4.9622973889313320 25.3124023136109848 Ba
atom 4.9860811978718438 5.0267701701106624 25.3124022671771023 Ba
atom 2.4848609235757753 2.4889176538839521 22.7696101779239832 Zr
atom 7.4594608990289659 2.4870338859237222 22.7696102031915721 Zr
atom 2.4829770830716003 7.4635175606669382 22.7696103089886179 Zr
atom 7.4582854239671059 7.4623419921077678 22.7696103529449516 Zr
atom 2.4900977750158488 2.4950693004169708 27.8668155762247522 Zr
atom 7.4533093981683223 2.4817972378015107 27.8668158599079554 Zr
atom 2.4768254565795682 7.4582806505228403 27.8668156997599787 Zr
atom 7.4635224493222090 7.4684934300292953 27.8668157527373488 Zr
atom 2.5269609381116491 2.5269609357992255 20.2204494245731077 S
atom 7.4214175957694835 2.4449338322346787 20.2204498588809223 S
atom 2.4449338466616672 7.4214176455800365 20.2204500038019290 S
atom 7.5003853495674342 7.5003854005549497 20.2204499709893817 S
atom 2.4439205085078188 2.4148368895076255 25.3126790002401236 S
atom 7.5335416490587725 2.5279742232689966 25.3126788255849000 S
atom 2.5570578950408676 7.5044580423245479 25.3126788079474707 S
atom 7.4173449584882363 7.3882613848013552 25.3126787543298981 S
atom 1.9695023491175083 -0.0021674256427989 22.7311992383899444 S
atom 7.9794439294837813 -0.0036056555535514 22.8001244278124879 S
atom 3.0029602063976708 4.9728784212801935 22.8001244506598262 S
atom 6.9429268625259954 4.9712572459076743 22.7311992329299457 S
atom 2.9803932310978380 -0.0056096197294692 27.9218637146788140 S
atom 6.9381473034312986 -0.0081926919925314 27.7832260285030195 S
atom 1.9616635486610501 4.9682911624428554 27.7832260119611725 S
atom 7.9538175473581099 4.9678147940737798 27.9218636870889192 S
atom 0.0006374881807030 3.0054517128455438 22.7311992788018600 S
atom 4.9755006246218052 1.9689345562933191 22.8001244678034851 S
atom -0.0009837371202780 6.9454184045023473 22.8001243961795694 S
atom 4.9740624472425337 7.9788761808179549 22.7311992021803206 S
atom 0.0040798222355924 1.9945609497265824 27.9218636688415884 S
atom 4.9800876209494991 3.0102312103660025 27.7832260033430423 S
atom 0.0036033068932951 7.9867150631716424 27.7832260490097198 S
atom 4.9775046351840819 6.9679854110438697 27.9218637290198295 S
atom -0.0782653277078758 0.0006450021643415 30.3950347661995828 Ba
atom 4.9743090892940707 0.0767356550532033 30.3950346962820639 Ba
atom -0.0021747189026812 5.0532194697544144 30.3950347819645330 Ba
atom 4.8951591087312707 4.9740695346120782 30.3950347281215763 Ba
atom 0.2005987484330556 -0.2624992891073569 35.4236292583822205 Ba
atom 5.2374532945258512 -0.2021280754161152 35.4236292317513346 Ba
atom 0.2609696828491373 4.7743555167518705 35.4236290543188090 Ba
atom 5.1740230131272140 4.7109250016513595 35.4236292141205311 Ba
atom 2.5288325701560188 2.4080900836406149 32.9545166057755949 Zr
atom 7.5402890389258266 2.4430619660875132 32.9545157453873401 Zr
atom 2.5638047209906158 7.4195453411201973 32.9545157951441539 Zr
atom 7.5022576153585288 7.3815141136645250 32.9545159471831539 Zr
atom 2.5185869276362713 2.4652326600245882 38.0462708595879846 Zr
atom 7.4831440561646438 2.4533090217490612 38.0462709470805436 Zr
atom 2.5066602768261745 7.4297931418745780 38.0462709887065103 Zr
atom 7.4920113675312319 7.4386574497770024 38.0462712580465521 Zr
atom 2.6639777126384954 2.5765038687183330 30.3996158324293368 S
atom 7.3718746177126837 2.3079170580130968 30.3996157414837995 S
atom 2.3953908963475108 7.2844009080306265 30.3996157091901757 S
atom 7.6374021107993322 7.5499284009720373 30.3996155158731973 S
atom 2.2894773392977488 2.2369075099186113 35.4660931243544013 S
atom 7.7114711311045081 2.6824173283499522 35.4660944418322472 S
atom 2.7349874325100512 7.6589010977524667 35.4660941693367278 S
atom 7.2629017898908268 7.2103319059598814 35.4660931825586019 S
atom 2.0444718596094429 -0.0484431842079568 32.7366263601941156 S
atom 7.9558596759553595 -0.0509440773580787 33.1242472988566519 S
atom 2.9793759914453539 4.9255396059670709 33.1242472510648369 S
atom 7.0178963066051105 4.9249811692767160 32.7366264902431183 S
atom 2.2215934877891637 -0.0385573288799302 38.1830042422547535 S
atom 7.8444112215574213 -0.0432696834753320 37.7028223563180589 S
atom 2.8679275457984730 4.9332143460086373 37.7028222996471811 S
atom 7.1950179961366061 4.9348673422556528 38.1830041019353317 S
atom 0.0469134699972903 2.9304821664364513 32.7366263925761132 S
atom 5.0228391109885901 1.9925187388571974 33.1242472159463830 S
atom 0.0463549595636180 6.9690026537718692 33.1242473316863624 S
atom 5.0203382254234334 7.9039067275124841 32.7366264928937625 S
atom 0.0370265735076947 2.7533607286554371 38.1830042301448245 S
atom 5.0151654172542157 2.1039673486620272 37.7028224478731531 S
atom 0.0386809858075546 7.0804511370653547 37.7028223897802448 S
atom 5.0104517216549640 7.7267850365004360 38.1830041070999542 S
atom -0.1113436498709039 0.0683587060707998 40.2493891356881761 Ba
atom 4.9065951664811500 0.1098143686156045 40.2493894504703889 Ba
atom -0.0698885702918206 5.0862980893892189 40.2493891258496888 Ba
atom 4.8620806768216278 5.0417831461635316 40.2493892870605947 Ba
atom 2.7417338015942230 2.6199982305816842 40.5625429653777374 S
atom 7.3283804982868190 2.2301608837635336 40.5625424338607630 S
atom 2.3518967294346194 7.2066446989043857 40.5625428218205926 S
atom 7.7151581694166422 7.5934226808897813 40.5625428752531789 S
atom 2.3753682107522174 2.5550710452394401 43.6654759234285308 Ba
atom 7.3933075343864418 2.5965265534860551 43.6654762730167789 Ba
atom 2.4168236654158344 7.5730102898187468 43.6654761223617172 Ba
atom 7.3487927483416335 7.5284955033489638 43.6654762516621702 Ba
atom 2.6873105474096692 2.2242131831315164 48.4912345541272458 Ba
atom 7.7241656790417546 2.2845842707292876 48.4912343525614276 Ba
atom 2.7476817473035604 7.2610676777710168 48.4912345854259783 Ba
atom 7.6607352217458393 7.1976372469625050 48.4912343856349466 Ba
atom 5.0052987246036080 4.9519460728626825 45.8685911617643924 Zr
atom 9.9698567786514083 4.9400215463777144 45.8685911029211368 Zr
atom 4.9933740830741691 9.9165043951813736 45.8685905169438826 Zr
atom 9.9787221080832218 9.9253695783237568 45.8685906692401630 Zr
atom 5.0155443651587763 4.8948020313011336 50.9603494811502671 Zr
atom 10.0270016001057449 4.9297749702131464 50.9603494633338556 Zr
atom 5.0505173509795336 9.9062580644220812 50.9603500994969707 Zr
atom 9.9889692322868857 9.8682256695667210 50.9603495211445647 Zr
atom 5.2284458333734660 5.1067102703447969 43.3523216283974051 S
atom 9.8150927977397586 4.7168732699137781 43.3523219014140508 S
atom 4.8386088785609296 9.6933571755778036 43.3523210027414478 S
atom 10.2018703922265157 10.0801347662125931 43.3523219665616253 S
atom 4.7761896482074073 4.7236195816106505 48.4487714091287245 S
atom 10.1981833619102069 5.1691295049311767 48.4487712458099296 S
atom 5.2216996120900401 10.1456133963190247 48.4487722432697510 S
atom 9.7496141284573028 9.6970441977847504 48.4487715361839548 S
atom 4.7083055472431399 2.4481547757963109 45.7318609197420614 S
atom 10.3311237322037446 2.4434419029076166 46.2120431652917176 S
atom 5.3546396740127173 7.4199262657527818 46.2120431275772887 S
atom 9.6817301669175446 7.4215799244820060 45.7318608710691734 S
atom 4.5311843342344664 2.4382685286999752 51.1782380938400081 S
atom 10.4425718572554747 2.4357678130695284 50.7906175422559087 S
atom 5.4660880544134542 7.4122520946816719 50.7906174590702122 S
atom 9.5046087642555221 7.4116938318675780 51.1782382599222245 S
atom 2.5237396237413021 5.2400729672443207 45.7318608018182076 S
atom 7.5018770993646164 4.5906793327249122 46.2120430628635788 S
atom 2.5253934456720564 9.5671632806625109 46.2120431904859572 S
atom 7.4971639093467859 10.2134974432980670 45.7318609424227844 S
atom 2.5336258614550013 5.4171942262901522 51.1782383059461878 S
atom 7.5095511591288169 4.4792310429820894 50.7906175886691216 S
atom 2.5330671447981223 9.4557151146562095 50.7906174389259348 S
atom 7.5070505432739720 10.3906187265625292 51.1782380455906036 S
atom 2.4084470376384957 2.4873574610777487 53.5198308652238808 Ba
atom 7.4610210990022336 2.5634478474283560 53.5198309204459903 Ba
atom 2.4845374504011111 7.5399314677248679 53.5198307639316866 Ba
atom 7.3818714373703411 7.4607818216270543 53.5198308248583814 Ba
atom 2.4993692078061618 2.5400579034009771 58.6024622824996797 Ba
atom 7.4083203874685424 2.4725257025590746 58.6024623029706575 Ba
atom 2.4318370061863068 7.4490096102769279 58.6024622064957086 Ba
atom 7.4727932568173774 7.5134824890731107 58.6024622246324043 Ba
atom 4.9768098004637977 4.9817816095515859 56.0480506485842156 Zr
atom 9.9400215774326117 4.9685096930027779 56.0480502335634228 Zr
atom 4.9635378494577633 9.9449930545895135 56.0480511020377818 Zr
atom 9.9502341437710946 9.9552056539943656 56.0480505588187938 Zr
atom 4.9715732381532947 4.9756297539120986 61.1452539031681681 Zr
atom 9.9461732183350477 4.9737460210735840 61.1452540230037371 Zr
atom 4.9696894959443441 9.9502298429395886 61.1452530056448254 Zr
atom 9.9449976348423004 9.9490542473619410 61.1452539666344137 Zr
atom 5.1506899335699341 5.0632161940373743 53.5152451914081766 S
atom 9.8585868081666632 4.7946292535010722 53.5152454753836793 S
atom 4.8821029983849176 9.7711131720931945 53.5152454987968440 S
atom 10.1241143208530637 10.0366406887358366 53.5152456080184535 S
atom 4.9306327209975604 4.9015490974471474 58.6021887116975790 S
atom 10.0202538882274155 5.0146864905766870 58.6021884760346552 S
atom 5.0437701011193434 9.9911703195410073 58.6021881893977294 S
atom 9.9040571755152342 9.8749736116696702 58.6021884030982747 S
atom 5.4671055975698177 2.4811018271389016 55.9929999905338178 S
atom 9.4248593883668423 2.4785188308080190 56.1316378723469072 S
atom 4.4483755131951668 7.4550035862426789 56.1316377922360203 S
atom 10.4405298637106405 7.4545271726812983 55.9930001081874025 S
atom 4.4562146421825428 2.4845446908647006 61.1836649387702138 S
atom 10.4661561829966949 2.4831064080179610 61.1147396652092141 S
atom 5.4896724933929653 7.4595909394393320 61.1147397810385797 S
atom 9.4296392197329251 7.4579698032646240 61.1836648347879830 S
atom 2.4907920998910482 4.4812729832680249 55.9930000595409822 S
atom 7.4668002330703898 5.4969436639962161 56.1316378807264087 S
atom 2.4903157834967766 10.4734274755068260 56.1316377900071899 S
atom 7.4642173481536602 9.4546975924665340 55.9930000313006246 S
atom 2.4873494676270584 5.4921639029279081 61.1836648079488370 S
atom 7.4622126651306964 4.4556467620828544 61.1147396289454292 S
atom 2.4857282173838486 9.4321306159962326 61.1147398134476560 S
atom 7.4607746061952467 10.4655882894757681 61.1836649683651004 S
atom 2.4665406978200162 2.4665407526205878 63.6944150703586374 Ba
atom 7.4818379188285569 2.5053541970126494 63.6944150593611482 Ba
atom 2.5053541724541510 7.4818378544881563 63.6944150628859802 Ba
atom 7.4399650281685616 7.4399649533490182 63.6944150500745820 Ba
atom 2.5400579133656107 2.4993691787399288 68.7863676170035490 Ba
atom 7.4490096584035053 2.4318370279474646 68.7863674919904184 Ba
atom 2.4725257807748235 7.4083204127343567 68.7863677378885683 Ba
atom 7.5134824203371755 7.4727932092798497 68.7863676098114922 Ba
atom 4.9756299569351183 4.9715730900496702 66.2435748986265764 Zr
atom 9.9502298997862333 4.9696891615255518 66.2435752149299617 Zr
atom 4.9737460841306946 9.9461730666625847 66.2435746242025232 Zr
atom 9.9490543885047327 9.9449975951469991 66.2435747984943930 Zr
atom 4.9817808939751469 4.9768103329689497 71.3407822146183292 Zr
atom 9.9449934564455020 4.9635380886119806 71.3407823516218400 Zr
atom 4.9685086563439382 9.9400213479226522 71.3407833220467182 Zr
atom 9.9552062300033892 9.9502343486896141 71.3407827031042245 Zr
atom 5.0136732102878430 5.0136731263683183 63.6944148265192140 S
atom 9.9081299066630244 4.9316460204340302 63.6944151138797849 S
atom 4.9316461040361306 9.9081298168426493 63.6944150253018790 S
atom 9.9870976387577279 9.9870975391358723 63.6944146674553835 S
atom 4.9015491668471389 4.9306326842358716 68.7866443050254901 S
atom 9.9911702697454352 5.0437701003513604 68.7866442929913546 S
atom 5.0146865169535557 10.0202539031697153 68.7866438295005764 S
atom 9.8749735188092078 9.9040571701389801 68.7866440883474723 S
atom 5.4921640031981998 2.4873496474869170 66.2051662553676863 S
atom 9.4321306017164872 2.4857288817389001 66.2740913726089502 S
atom 4.4556467807471574 7.4622131506004283 66.2740914120075075 S
atom 10.4655884045241070 7.4607747277091025 66.2051661636109401 S
atom 4.4812732195742235 2.4907920690282390 71.3958297928764267 S
atom 10.4734270132675018 2.4903155724492403 71.2571923525986080 S
atom 5.4969433938168537 7.4667995550550952 71.2571921976753941 S
atom 9.4546976256848403 7.4642166055847721 71.3958298539753713 S
atom 2.4845442511939355 4.4562145139248894 66.2051661299752254 S
atom 7.4595907506272123 5.4896724830939716 66.2740913277569490 S
atom 2.4831064394830307 10.4661561294437373 66.2740914677038546 S
atom 7.4579693332686219 9.4296390833750419 66.2051662821900919 S
atom 2.4811022656603070 5.4671053117803696 71.3958298656630461 S
atom 7.4550038113213377 4.4483757954279923 71.2571923303119945 S
atom 2.4785194269151472 9.4248598188924326 71.2571922178319994 S
atom 7.4545276389806991 10.4405298693930604 71.3958297751441080 S
atom 2.4873573284716195 2.4084469793256598 73.8690010862225819 Ba
atom 7.5399314579214902 2.4845374934203424 73.8690012568666816 Ba
atom 2.5634478018927149 7.4610212706326422 73.8690009781169437 Ba
atom 7.4607817311341904 7.3818715644481561 73.8690011488405247 Ba
atom 2.2242129293905237 2.6873103044703632 78.8975951880555044 Ba
atom 7.2610680120893312 2.7476817259570772 78.8975951791703949 Ba
atom 2.2845842222862092 7.7241658885150706 78.8975951685089569 Ba
atom 7.1976373010096433 7.6607351812554105 78.8975951235231179 Ba
atom 4.8948017552064780 5.0155450988505228 76.4284800001864113 Zr
atom 9.9062580094225883 5.0505173330028592 76.4284801673241247 Zr
atom 4.9297739729270189 10.0270010808026857 76.4284803834261623 Zr
atom 9.8682264645342190 9.9889695657402928 76.4284805097282174 Zr
atom 4.9519460736088119 5.0052986042374634 81.5202396354206940 Zr
atom 9.9165041168362116 4.9933732166481146 81.5202395134594298 Zr
atom 4.9400199582749682 9.9698572731388104 81.5202391100902304 Zr
atom 9.9253710001408688 9.9787232696184649 81.5202391475591668 Zr
atom 5.0632161929747834 5.1506899095122449 73.8735811229946648 S
atom 9.7711129811913402 4.8821030674324311 73.8735803327089684 S
atom 4.7946292735400364 9.8585869230832781 73.8735809362036946 S
atom 10.0366404996713534 10.1241144569501174 73.8735804719626543 S
atom 4.7236195441909903 4.7761896393911432 78.9400632173532131 S
atom 10.1456134390174437 5.2216997629226780 78.9400621898091259 S
atom 5.1691297288311544 10.1981833828440056 78.9400632072918000 S
atom 9.6970439500973740 9.7496139555578534 78.9400634617859396 S
atom 5.4171946251810139 2.5336259619736055 76.2105918236072881 S
atom 9.4557147107442105 2.5330670428971178 76.5982131617864184 S
atom 4.4792309666489984 7.5095508770149708 76.5982131030115880 S
atom 10.3906189901116282 7.5070502960691794 76.2105920813921642 S
atom 5.2400726453415389 2.5237397888099853 81.6569688309847095 S
atom 9.5671633029726930 2.5253930512481420 81.1767870909288973 S
atom 4.5906795712364428 7.5018767220035603 81.1767871118355941 S
atom 10.2134970307806938 7.4971641128836870 81.6569686904343968 S
atom 2.4382695265589702 4.5311840636491150 76.2105921051095550 S
atom 7.4122515846626804 5.4660882792815970 76.5982132178744592 S
atom 2.4357682824417437 10.4425720753263889 76.5982130312738434 S
atom 7.4116935627431841 9.5046083584089782 76.2105918212175766 S
atom 2.4481555077675772 4.7083059791009410 81.6569686802172470 S
atom 7.4199258566166089 5.3546396869035009 81.1767870117400037 S
atom 2.4434422943876593 10.3311234106833307 81.1767872508911665 S
atom 7.4215796196548744 9.6817303087606579 81.6569688661612645 S
atom 2.5550708990496367 2.3753678427993896 83.7233557925331979 Ba
atom 7.5730106655963718 2.4168239516968284 83.7233557031036071 Ba
atom 2.5965268767139458 7.3933076638792219 83.7233558231617820 Ba
atom 7.5284953782184987 7.3487922749945529 83.7233556472158966 Ba
atom 5.1067102172164835 5.2284458405442420 84.0365080852498068 S
atom 9.6933571500532008 4.8386089435967286 84.0365090969175981 S
atom 4.7168734333236548 9.8150927902369709 84.0365075266007580 S
atom 10.0801346276393975 10.2018703185786190 84.0365079623492193 S
