#=======================================================
# FHI-aims file: full_relax/full_relax_RP_8_Rx0Rz_0-Ry0.in
# Created using the Atomic Simulation Environment (ASE)
# Mon Mar 24 16:09:28 2025
#=======================================================
lattice_vector 9.9831707969672934 0.0000000000000952 0.0126334199048701 
lattice_vector 0.0000000000000942 10.0883333458526927 -0.0000000000000491 
lattice_vector 0.1086368277735781 -0.0000000000004291 85.5673317479533324 
atom -0.1879778877759767 -0.0000000000013641 0.1194571317590432 Ba
atom 5.0602623123690611 -0.0000000000012935 0.1235468272233398 Ba
atom 0.0686769136538244 5.0441666729250025 0.1172301173396997 Ba
atom 4.8036075104112808 5.0441666729250176 0.1257738417022222 Ba
atom -0.1081938776267301 -0.0000000000014711 4.8102115639648879 Ba
atom 4.8285643257717092 -0.0000000000013229 4.7820136218517506 Ba
atom -0.1630210733141275 5.0441666729252956 4.7756969120119823 Ba
atom 4.8833915197874846 5.0441666729252210 4.8165282749408505 Ba
atom 2.4316279988821217 2.5188155443069640 2.1835738746533946 Zr
atom 7.4232133973318959 2.5253511286689574 2.1898905845836363 Zr
atom 2.4316279988821465 7.5695178015431521 2.1835738746535660 Zr
atom 7.4232133973319954 7.5629822171807684 2.1898905845845138 Zr
atom 2.4541704680080652 2.5049582379367452 7.2548761458840829 Zr
atom 7.4457558665744443 2.5392084350676409 7.2611928557322081 Zr
atom 2.4541704680081051 7.5833751079130796 7.2548761458840927 Zr
atom 7.4457558665744088 7.5491249107821750 7.2611928557308554 Zr
atom 2.4397036508752281 2.8351382806922603 -0.3041963099905590 S
atom 7.4312890500547342 2.2090283921571241 -0.2978796000517275 S
atom 2.4397036508748173 7.2531950651575530 -0.3041963099900812 S
atom 7.4312890500552111 7.8793049536931763 -0.2978796000501823 S
atom 2.4507015085546171 2.1994997291802298 4.7590453131776842 S
atom 7.4422869056340870 2.8446669439927104 4.7653620231112317 S
atom 2.4507015085552162 7.8888336166696771 4.7590453131777517 S
atom 7.4422869056336749 7.2436664018570847 4.7653620231098666 S
atom 2.4334809385003839 -0.0000000000012833 1.9739626397115992 S
atom 7.4165352397082422 -0.0000000000010517 2.6099995189589791 S
atom 2.4249498411973383 5.0441666729249626 2.6036828089389608 S
atom 7.4250663370327299 5.0441666729245949 1.9802793494368764 S
atom 2.9098511388302604 -0.0000000000014782 7.5272033722851246 S
atom 7.0529499485403928 -0.0000000000016885 7.0267194872418601 S
atom 2.0613645500449769 5.0441666729249635 7.0204027770837349 S
atom 7.9014365375392890 5.0441666729251713 7.5335200820050261 S
atom -0.0617827654044560 2.5242121785225393 2.3026179743070112 S
atom 4.9298026330837006 2.5199544943748586 2.3089346831900910 S
atom -0.0617827654041667 7.5641211673273823 2.3026179743073216 S
atom 4.9298026330835718 7.5683788514751367 2.3089346831893987 S
atom -0.0345865861655757 2.0773628499633312 7.2763891777940533 S
atom 4.9569988123094628 2.9668038228543723 7.2827058893104191 S
atom -0.0345865861655448 8.0109704958863617 7.2763891777938241 S
atom 4.9569988123096556 7.1215295229953339 7.2827058893112051 S
atom -0.0652589319925358 -0.0000000000015061 9.7851453059164886 Ba
atom 5.0819073126968251 -0.0000000000013674 9.8178727977348412 Ba
atom 0.0903219129867888 5.0441666729247201 9.8115560889280236 Ba
atom 4.9263264656802219 5.0441666729247308 9.7914620167296871 Ba
atom 0.0976115100771235 -0.0000000000013768 14.8476937634892341 Ba
atom 4.9435784412204971 -0.0000000000014067 14.8446405790089013 Ba
atom -0.0480069580418789 5.0441666729244954 14.8383238699461586 Ba
atom 5.0891969076900194 5.0441666729247201 14.8540104744346806 Ba
atom 2.5051945979036723 2.5260418889790492 12.3086110570568117 Zr
atom 7.4967799963587964 2.5181247839419791 12.3149277670155808 Zr
atom 2.5051945979037074 7.5622914568704553 12.3086110570563374 Zr
atom 7.4967799963588755 7.5702085619077417 12.3149277670155666 Zr
atom 2.5171365765496394 2.5212488848460697 17.3709069824705935 Zr
atom 7.5087219750492986 2.5229177880777187 17.3772236924079841 Zr
atom 2.5171365765497198 7.5670844610036170 17.3709069824707214 Zr
atom 7.5087219750493404 7.5654155577719440 17.3772236924093235 Zr
atom 2.4758747937540382 2.7564433630773602 9.7927688531976873 S
atom 7.4674601940478613 2.2877233100132366 9.7990855631012401 S
atom 2.4758747937538068 7.3318899827723332 9.7927688531974777 S
atom 7.4674601940483809 7.8006100358366792 9.7990855631008280 S
atom 2.5023410780810376 2.3451498406384577 14.8449604052329480 S
atom 7.4939264746845007 2.6990168322915431 14.8512771152134153 S
atom 2.5023410780814070 7.7431835052112419 14.8449604052327988 S
atom 7.4939264746843532 7.3893165135581391 14.8512771152138381 S
atom 2.0527365559675146 -0.0000000000014654 12.1563350429759627 S
atom 7.9571683138577134 -0.0000000000013561 12.4945362965445383 S
atom 2.9655829154911650 5.0441666729249972 12.4882195865344148 S
atom 7.0443219545051976 5.0441666729243861 12.1626517528960694 S
atom 2.9860213153450119 -0.0000000000014897 17.5105070294899754 S
atom 7.0412765021350197 -0.0000000000014142 17.2457845236537146 S
atom 2.0496911036831778 5.0441666729242902 17.2394678136468649 S
atom 7.9776067138861011 5.0441666729251109 17.5168237393852060 S
atom 0.0038556902813128 2.9989109991006022 12.3218049898104294 S
atom 4.9954410887776497 2.0452556737510150 12.3281216979665533 S
atom 0.0038556902813489 7.0894223467489503 12.3218049898107278 S
atom 4.9954410887778131 8.0430776720985655 12.3281216979663881 S
atom 0.0194480061853111 2.0343904530103858 17.3709881629144611 S
atom 5.0110334046553318 3.0097762198828324 17.3773048746700027 S
atom 0.0194480061854440 8.0539428928391406 17.3709881629141556 S
atom 5.0110334046552856 7.0785571259668165 17.3773048746700169 S
atom -0.0439982826620421 -0.0000000000016844 19.8940177081153493 Ba
atom 5.0861124390312140 -0.0000000000015918 19.9110579534478092 Ba
atom 0.0945270397500722 5.0441666729248942 19.9047412444739820 Ba
atom 4.9475871150479973 5.0441666729248542 19.9003344189736602 Ba
atom 0.0985357152116130 -0.0000000000017063 24.9604350825186678 Ba
atom 4.9445026464255948 -0.0000000000018489 24.9573818979819748 Ba
atom -0.0470827530258924 5.0441666729249217 24.9510651891050088 Ba
atom 5.0901211127771866 5.0441666729250425 24.9667517935370782 Ba
atom 2.5249775790368347 2.5212488848544976 22.4341686800458007 Zr
atom 7.5165629774988210 2.5229177880863789 22.4404853899909611 Zr
atom 2.5249775790368334 7.5670844609950541 22.4341686800469304 Zr
atom 7.5165629774989240 7.5654155577634352 22.4404853899907977 Zr
atom 2.5369195576977863 2.5260418889882406 27.4964646054461603 Zr
atom 7.5285049561740038 2.5181247839511127 27.5027813153974812 Zr
atom 2.5369195576977628 7.5622914568613462 27.4964646054461674 Zr
atom 7.5285049561740420 7.5702085618984514 27.5027813153964580 Zr
atom 2.5210570768165725 2.6838244112758507 19.9025378312682690 S
atom 7.5126424772506706 2.3603422616625997 19.9088545411896973 S
atom 2.5210570768164051 7.4045089345736974 19.9025378312680772 S
atom 7.5126424772509646 7.7279910841870585 19.9088545411905784 S
atom 2.5397730795142097 2.3451498406544236 24.9601152572413483 S
atom 7.5313584758545886 2.6990168323073913 24.9664319672275639 S
atom 2.5397730795144096 7.7431835051950975 24.9601152572422507 S
atom 7.5313584758544136 7.3893165135422789 24.9664319672265798 S
atom 2.0560928401970333 -0.0000000000018248 22.2945686330695985 S
atom 7.9840084503658337 -0.0000000000013353 22.5719245588283144 S
atom 2.9924230519506314 5.0441666729254289 22.5656078487855432 S
atom 7.0476782387063865 5.0441666729242618 22.3008853429695257 S
atom 2.9893775995454348 -0.0000000000016016 27.6487406195685885 S
atom 7.0681166385765986 -0.0000000000016934 27.3231727859177695 S
atom 2.0765312402084115 5.0441666729246935 27.3168560759196417 S
atom 7.9809629981166577 5.0441666729250825 27.6550573294753335 S
atom 0.0310807509146370 3.0097762198886939 22.4277707897024179 S
atom 5.0226661494118989 2.0343904530162913 22.4340874977231763 S
atom 0.0310807509144886 7.0785571259607432 22.4277707897022935 S
atom 5.0226661494120792 8.0539428928333550 22.4340874977226790 S
atom 0.0466730668206470 2.0452556738129588 27.4769539625666539 S
atom 5.0382584652874245 2.9989109991630865 27.4832706746672315 S
atom 0.0466730668205121 8.0430776720365564 27.4769539625666752 S
atom 5.0382584652876599 7.0894223466865354 27.4832706746676365 S
atom -0.0397931557429343 -0.0000000000016559 29.9872028635065782 Ba
atom 5.1073730884931976 -0.0000000000014233 30.0199303556053678 Ba
atom 0.1157876889860182 5.0441666729247725 30.0136136467590013 Ba
atom 4.9517922412254993 5.0441666729249386 29.9935195748410628 Ba
atom 0.2135498305090461 -0.0000000000015083 35.0230620405235484 Ba
atom 5.1503080344387708 -0.0000000000015894 34.9948640973744887 Ba
atom 0.1587226345670525 5.0441666729245851 34.9885473887306091 Ba
atom 5.2051352281998025 5.0441666729244572 35.0293787506243959 Ba
atom 2.5879436874868711 2.5049582378466506 32.5501995167417135 Zr
atom 7.5795290860643094 2.5392084349776050 32.5565162265579602 Zr
atom 2.5879436874870203 7.5833751080026133 32.5501995167405767 Zr
atom 7.5795290860642845 7.5491249108718979 32.5565162265583368 Zr
atom 2.6104861567387414 2.5188155442470617 37.6215017878766176 Zr
atom 7.6020715551808200 2.5253511286091399 37.6278184978014352 Zr
atom 2.6104861567387330 7.5695178016024407 37.6215017878776976 Zr
atom 7.6020715551808742 7.5629822172402443 37.6278184978015489 Zr
atom 2.5662393598013118 2.7564433628954315 30.0123068093640981 S
atom 7.5578247605308357 2.2877233098313319 30.0186235192530866 S
atom 2.5662393598009920 7.3318899829541344 30.0123068093636363 S
atom 7.5578247605310747 7.8006100360181954 30.0186235192525324 S
atom 2.5914126486435456 2.1994997288963569 35.0460303493512271 S
atom 7.5829980453013910 2.8446669437086305 35.0523470592759239 S
atom 2.5914126486441225 7.8888336169532352 35.0460303493501044 S
atom 7.5829980453009238 7.2436664021410087 35.0523470592767623 S
atom 2.1322630165015752 -0.0000000000013440 32.2778722904851492 S
atom 7.9723350040259051 -0.0000000000015185 32.7909895954064439 S
atom 2.9807496055230840 5.0441666729246082 32.7846728851846194 S
atom 7.1238484152624633 5.0441666729247592 32.2841890001419571 S
atom 2.6086332170302784 -0.0000000000017337 37.8311130230544208 S
atom 7.6087497128742783 -0.0000000000015282 37.2077095635295549 S
atom 2.6171643143533401 5.0441666729249270 37.2013928534890255 S
atom 7.6002186155701050 5.0441666729248205 37.8374297327136020 S
atom 0.0851153432636822 2.9668038229662415 32.5223697749723044 S
atom 5.0767007417590442 2.0773628500747212 32.5286864829342690 S
atom 0.0851153432635759 7.1215295228832431 32.5223697749730576 S
atom 5.0767007417592716 8.0109704957748029 32.5286864829342477 S
atom 0.1123115225042891 2.5199544944048129 37.4961409780782517 S
atom 5.1038969209824732 2.5242121785522289 37.5024576894368096 S
atom 0.1123115225043488 7.5683788514446722 37.4961409780774844 S
atom 5.1038969209825620 7.5641211672972899 37.5024576894371364 S
atom -0.0181481565135522 -0.0000000000016280 39.6815288352026343 Ba
atom 5.2300920437063692 -0.0000000000015579 39.6856185307600597 Ba
atom 0.2385066448240664 5.0441666729248249 39.6793018207928512 Ba
atom 4.9734372416568080 5.0441666729248027 39.6878455452447128 Ba
atom 2.6024105038968881 2.8351382807777314 40.1092719725108324 S
atom 7.5939959033062658 2.2090283922422334 40.1155886824477719 S
atom 2.6024105038964280 7.2531950650719770 40.1092719725120759 S
atom 7.5939959033067774 7.8793049536073347 40.1155886824479140 S
atom 2.6001497027558527 2.3765377758629840 43.1892968557288484 Ba
atom 7.5917351012909071 2.6676288970486812 43.1956135656908629 Ba
atom 2.6001497027561156 7.7117955699864318 43.1892968557284647 Ba
atom 7.5917351012907677 7.4207044488017671 43.1956135656907279 Ba
atom 2.5941060630354009 2.5432502417036460 47.8702287540368019 Ba
atom 7.5856914615267792 2.5009164312182821 47.8765454639949084 Ba
atom 2.5941060630366160 7.5450831041475785 47.8702287540379388 Ba
atom 7.5856914615256645 7.5874169146358401 47.8765454639944110 Ba
atom 5.0821292010216341 5.0441666729249715 45.2551774589989790 Zr
atom 10.0960764272517682 5.0441666729254191 45.2605879831559790 Zr
atom 5.1044910287750236 10.0883333458515665 45.2542712732101222 Zr
atom 10.0737145995158315 10.0883333458512698 45.2614941689437700 Zr
atom 5.0856502689831089 5.0441666729254528 50.2740278273518371 Zr
atom 10.0797935903222164 5.0441666729252708 50.2799116260580519 Zr
atom 5.0882081918416127 10.0883333458516216 50.2735949161086495 Zr
atom 10.0772356674702444 10.0883333458519200 50.2803445372963580 Zr
atom 5.4395717052398362 5.0441666729261243 42.7661307779089057 S
atom 9.7448368456872281 5.0441666729252006 42.7706107345827178 S
atom 4.7532514472137661 10.0883333458501738 42.7642940245890202 S
atom 10.4311571036935451 10.0883333458512041 42.7724474878872982 S
atom 4.6166091380338727 5.0441666729222607 47.7973101719361679 S
atom 10.5550007948591897 5.0441666729249972 47.8046145254135766 S
atom 5.5634153963650617 10.0883333458540712 47.7982978154505602 S
atom 9.6081945365172157 10.0883333458514599 47.8036268818930097 S
atom 5.0931503630499533 2.5220472912113112 45.3831960025534400 S
atom 10.0847357615357520 2.5221193817120429 45.3895127125271856 S
atom 5.0931503630495936 7.5662860546388231 45.3831960025574617 S
atom 10.0847357615362299 7.5662139641383028 45.3895127125271145 S
atom 5.0868656911693870 2.5220923800550423 50.2883799460533254 S
atom 10.0784510896416055 2.5220742928674653 50.2946966560140751 S
atom 5.0868656911578833 7.5662409657948455 50.2883799460451399 S
atom 10.0784510896532282 7.5662590529825238 50.2946966560148638 S
atom 2.5979381853867713 5.0441666729247334 44.9161936677923208 S
atom 7.5885353075658513 5.0441666729257353 45.7439032332563471 S
atom 2.5969499090980430 10.0883333458516802 45.7375865232893162 S
atom 7.5895235838638966 10.0883333458512041 44.9225103777661090 S
atom 2.5904774808421069 5.0441666729191237 50.7670968261105457 S
atom 7.5832686339488662 5.0441666729289372 49.7998462256170455 S
atom 2.5916832354676083 10.0883333458554176 49.7935295156647086 S
atom 7.5820628793240150 10.0883333458462694 50.7734135360609429 S
atom 2.5879500854589894 2.5190867425716461 52.7781149688134050 Ba
atom 7.5795354839428786 2.5250799303542557 52.7844316787562065 Ba
atom 2.5879500854561623 7.5692466032775627 52.7781149688047293 Ba
atom 7.5795354839457909 7.5632534154994335 52.7844316787641787 Ba
atom 2.5816540156176502 2.5251907596565242 57.7290741424679084 Ba
atom 7.5732394141063457 2.5189759132688962 57.7353908524323529 Ba
atom 2.5816540156216687 7.5631425861896746 57.7290741424798384 Ba
atom 7.5732394141024511 7.5693574325829900 57.7353908524201955 Ba
atom 5.0821854452050426 5.0441666729246153 55.2413586655095514 Zr
atom 10.0705830990019471 5.0441666729247805 55.2474343174280875 Zr
atom 5.0789977005188192 10.0883333458511473 55.2411176074756298 Zr
atom 10.0737708436890259 10.0883333458509092 55.2476753754591101 Zr
atom 5.0740695331988128 5.0441666729242067 60.2069971190010165 Zr
atom 10.0661745832461147 5.0441666729241801 60.2131594078394485 Zr
atom 5.0745891847620737 10.0883333458501721 60.2068426978900177 Zr
atom 10.0656549316829960 10.0883333458502396 60.2133138289558332 Zr
atom 5.5910638948599303 5.0441666729291974 52.7641527149129104 S
atom 9.5680515682531606 5.0441666729243169 52.7690503374292703 S
atom 4.5764661697684046 10.0883333458463227 52.7627336274727341 S
atom 10.5826492933429570 10.0883333458513071 52.7704694248640536 S
atom 4.5691107102443507 5.0441666729178696 57.7254841838275681 S
atom 10.5773725222477637 5.0441666729246597 57.7330114966938055 S
atom 5.5857871237650594 10.0883333458565225 57.7266947867410494 S
atom 9.5606961087273543 10.0883333458498665 57.7318008937808784 S
atom 5.0805972322938056 2.5220853065265159 55.2481948128751910 S
atom 10.0721826308009916 2.5220813663965074 55.2545115228372694 S
atom 5.0805972323175252 7.5662480393224794 55.2481948128879452 S
atom 10.0721826307773661 7.5662519794524421 55.2545115228351378 S
atom 5.0743221989870442 2.5220867028572336 60.2081632680986587 S
atom 10.0659075974411287 2.5220799700644783 60.2144799780421778 S
atom 5.0743221989575451 7.5662466429903299 60.2081632680830339 S
atom 10.0659075974706447 7.5662533757831305 60.2144799780446576 S
atom 2.5854404345387150 5.0441666729338834 54.7489206052655462 S
atom 7.5757613606509082 5.0441666729147636 55.7498827623246171 S
atom 2.5841759621684037 10.0883333458408391 55.7435660523723868 S
atom 7.5770258330212332 10.0883333458600379 54.7552373152178831 S
atom 2.5778929085509934 5.0441666729112260 60.7041633725050715 S
atom 7.5707271529189111 5.0441666729353614 59.7133750183782794 S
atom 2.5791417544358093 10.0883333458615407 59.7070583084245214 S
atom 7.5694783070343954 10.0883333458380609 60.7104800824562645 S
atom 2.5753754916797482 2.5196442399085552 62.6862037052387464 Ba
atom 7.5669608901596144 2.5245224330132112 62.6925204151741937 Ba
atom 2.5753754916750893 7.5686891059364880 62.6862037052210965 Ba
atom 7.5669608901643857 7.5638109128385365 62.6925204151916162 Ba
atom 2.5690969677331918 2.5251907596459437 67.6433332679848007 Ba
atom 7.5606823662220721 2.5189759132591796 67.6496499779407401 Ba
atom 2.5690969677372499 7.5631425861848074 67.6433332679882398 Ba
atom 7.5606823662180096 7.5693574325780046 67.6496499779375569 Ba
atom 5.0677471970786154 5.0441666729217935 65.1718814225186946 Zr
atom 10.0598522471244820 5.0441666729217713 65.1780437113644950 Zr
atom 5.0682668486411853 10.0883333458480600 65.1717270014136716 Zr
atom 10.0593325955615427 10.0883333458482429 65.1781981324734119 Zr
atom 5.0633386813206815 5.0441666729214347 70.1376065129356618 Zr
atom 10.0517363351176012 5.0441666729217660 70.1436821648607918 Zr
atom 5.0601509366343018 10.0883333458479001 70.1373654549060177 Zr
atom 10.0549240798044739 10.0883333458476923 70.1439232228871106 Zr
atom 5.5800948244106463 5.0441666729303227 62.6900427480094038 S
atom 9.5538269559124505 5.0441666729229340 62.6949980823526047 S
atom 4.5622415574282948 10.0883333458429156 62.6886813724027832 S
atom 10.5716802228940860 10.0883333458503870 62.6963594579643271 S
atom 4.5565492580738436 5.0441666729163943 67.6520293336668175 S
atom 10.5648110700798217 5.0441666729232200 67.6595566465398122 S
atom 5.5732256715961057 10.0883333458554958 67.6532399365883066 S
atom 9.5481346565586076 10.0883333458486888 67.6583460436193604 S
atom 5.0680141828489402 2.5220799700630332 65.1705608523146225 S
atom 10.0595995813689978 2.5220867028557916 65.1768775622760330 S
atom 5.0680141828850562 7.5662533757822521 65.1705608523306381 S
atom 10.0595995813329591 7.5662466429895261 65.1768775622735888 S
atom 5.0617391495223734 2.5220813663940072 70.1305293075365768 S
atom 10.0533245480296554 2.5220853065241582 70.1368460174802664 S
atom 5.0617391495456889 7.5662519794509233 70.1305293075236165 S
atom 10.0533245480065201 7.5662480393208158 70.1368460174820711 S
atom 2.5728580748048309 5.0441666729388634 64.6682440379573507 S
atom 7.5631946274039743 5.0441666729083696 65.6716658119889019 S
atom 2.5716092289208246 10.0883333458344708 65.6653491020357194 S
atom 7.5644434732881711 10.0883333458655304 64.6745607479084441 S
atom 2.5653105488183559 5.0441666729337804 70.6234868051942328 S
atom 7.5581604196717578 5.0441666729136667 69.6351580680400133 S
atom 2.5665750211881631 10.0883333458395228 69.6288413580875414 S
atom 7.5568959473021406 10.0883333458599900 70.6298035151465484 S
atom 2.5628008978974117 2.5190867425682431 72.5942924416444981 Ba
atom 7.5543862963804536 2.5250799303503579 72.6006091516111667 Ba
atom 2.5628008978948089 7.5692466032752996 72.5942924416597037 Ba
atom 7.5543862963831714 7.5632534154972850 72.6006091515957763 Ba
atom 2.5566449203138819 2.5432502417100231 77.5021786564191757 Ba
atom 7.5482303188038538 2.5009164312235432 77.5084953663730971 Ba
atom 2.5566449203151485 7.5450831041441049 77.5021786564166604 Ba
atom 7.5482303188026698 7.5874169146335584 77.5084953663756977 Ba
atom 5.0541281899980834 5.0441666729248311 75.1051292043091081 Zr
atom 10.0482715113363188 5.0441666729246464 75.1110130030176180 Zr
atom 5.0566861128558127 10.0883333458507796 75.1046962930571311 Zr
atom 10.0457135884836042 10.0883333458510460 75.1114459142632143 Zr
atom 5.0378453530654479 5.0441666729247219 80.1244528472005300 Zr
atom 10.0517925792926235 5.0441666729249794 80.1298633713736024 Zr
atom 5.0602071808165352 10.0883333458516606 80.1235466614150624 Zr
atom 10.0294307515544698 10.0883333458516073 80.1307695571592262 Zr
atom 5.5658702120718733 5.0441666729278776 72.6159904929412079 S
atom 9.5428578854648176 5.0441666729232564 72.6208881154535248 S
atom 4.5512724869803041 10.0883333458452107 72.6145714054990634 S
atom 10.5574556105544843 10.0883333458499447 72.6223072028905250 S
atom 4.5789209854737036 5.0441666729219090 77.5804263049661245 S
atom 10.5173126422895908 5.0441666729242227 77.5877306584200142 S
atom 5.5257272438062079 10.0883333458533730 77.5814139484707113 S
atom 9.5705063839500610 10.0883333458511526 77.5867430149096435 S
atom 5.0554706906911537 2.5220742928678002 75.0903441743569147 S
atom 10.0470560891452010 2.5220923800541795 75.0966608843038017 S
atom 5.0554706906618749 7.5662590529799223 75.0903441743653133 S
atom 10.0470560891745517 7.5662409657936527 75.0966608843038443 S
atom 5.0491860187903468 2.5221193817110459 79.9955281178560824 S
atom 10.0407714172711717 2.5220472912128655 80.0018448277928655 S
atom 5.0491860187898423 7.5662139641387851 79.9955281178525155 S
atom 10.0407714172717473 7.5662860546370982 80.0018448277927661 S
atom 2.5602735025158654 5.0441666729098378 74.6053105843509172 S
atom 7.5506531463724640 5.0441666729349350 75.5851946047474712 S
atom 2.5590677478893755 10.0883333458613365 75.5788778947951414 S
atom 7.5518589009998092 10.0883333458363786 74.6116272943021670 S
atom 2.5528127979737909 5.0441666729244394 80.4562137426490409 S
atom 7.5453864727448599 5.0441666729259245 79.6411375971220821 S
atom 2.5538010742730943 10.0883333458518738 79.6348208871575451 S
atom 7.5443981964528337 10.0883333458509838 80.4625304526174716 S
atom 2.5506012805556053 2.3765377758729112 82.1831105547228589 Ba
atom 7.5421866790770906 2.6676288970594983 82.1894272646825215 Ba
atom 2.5506012805556781 7.7117955699754681 82.1831105547229015 Ba
atom 7.5421866790770595 7.4207044487911720 82.1894272646822657 Ba
atom 5.3890849346273129 5.0441666729260692 82.6144300958120681 S
atom 9.6943500751101404 5.0441666729249901 82.6189100524358508 S
atom 4.7027646766039117 10.0883333458498008 82.6125933425029331 S
atom 10.3806703331194843 10.0883333458510975 82.6207468057347540 S
