#=======================================================
# FHI-aims file: full_relax/full_relax_RP_2_Rx1Ry20_Rx2Ry10.in
# Created using the Atomic Simulation Environment (ASE)
# Fri Mar 14 11:17:35 2025
#=======================================================
lattice_vector 10.1108486521974150 0.0000006787922100 0.0000000000002625 
lattice_vector 0.0000006787922113 10.1108486521974079 0.0000000000002215 
lattice_vector 0.0000000000007078 0.0000000000005970 25.3660382767214934 
atom -0.0000020498389817 -0.1548482161193814 0.2814261126341901 Ba
atom 5.0554263759252960 0.1548485555387755 0.2814261126328111 Ba
atom 0.0000023892611110 5.2102725422199656 0.2814261126250772 Ba
atom 5.0554226156172462 4.9005764493487023 0.2814261125819247 Ba
atom -0.0000029483552625 0.0484198565441588 4.8780842840307574 Ba
atom 5.0554272744601221 -0.0484195171311655 4.8780842840316305 Ba
atom 0.0000032877518236 5.0070044695524318 4.8780842840264027 Ba
atom 5.0554217171457356 5.1038445220172655 4.8780842840317051 Ba
atom 2.5154703031600971 2.5277112986937356 2.3473178676089215 Zr
atom 7.5953786887271439 2.5277137063072534 2.3473178676631519 Zr
atom 2.5399547019855002 7.5831376929858125 2.3473178676036639 Zr
atom 7.5708949687127856 7.5831359641642759 2.3473178677240871 Zr
atom 2.5154703032182053 2.5277112986805697 7.4088506992936951 Zr
atom 7.5953786884974859 2.5277137062855179 7.4088506996000181 Zr
atom 2.5399547017212196 7.5831376929885241 7.4088506995184291 Zr
atom 7.5708949687215181 7.5831359641598297 7.4088506994659955 Zr
atom 2.8831251678602379 2.5277074441053653 -0.1399947728410215 S
atom 7.2277238238332977 2.5277175608198252 -0.1399947730301189 S
atom 2.1722998371317530 7.5831415475090269 -0.1399947730099291 S
atom 7.9385498333644602 7.5831321095868596 -0.1399947730040654 S
atom 2.0900348697527655 2.5277100704852344 4.8780842843115133 S
atom 8.0208141220179510 2.5277149344531229 4.8780842843280121 S
atom 2.9653901353055185 7.5831389211625089 4.8780842842911767 S
atom 7.1454595352274870 7.5831347359814458 4.8780842843076302 S
atom 2.5277121631715613 0.0000001696237152 2.4609314073192001 S
atom 7.5831364892613164 0.0000005089672881 2.4609294627084299 S
atom 2.5277125025697211 5.0554244956852656 2.4609294627022686 S
atom 7.5831368286554461 5.0554248351344899 2.4609314073188036 S
atom 2.5277121631123194 0.0000001695231643 7.2952371603782975 S
atom 7.5831364891861606 0.0000005090828490 7.2952391050077052 S
atom 2.5277125024890661 5.0554244958137229 7.2952391049905829 S
atom 7.5831368286013729 5.0554248350804682 7.2952371603927322 S
atom 0.0000001693831129 2.5277121630688324 2.0402504398413566 S
atom 5.0554244954297660 2.5277125024758318 2.8001060025528663 S
atom 0.0000005086812088 7.5831364891746382 2.8001060025617206 S
atom 5.0554248348106503 7.5831368285713303 2.0402504398583439 S
atom 0.0000001696266210 2.5277121630731063 7.7159181279003368 S
atom 5.0554244954322298 2.5277125024578400 6.9560625651919947 S
atom 0.0000005089035242 7.5831364891563258 6.9560625651894625 S
atom 5.0554248352100366 7.5831368285763192 7.7159181278994655 S
atom -0.0000020498709116 -0.1548482160454384 9.4747424551707837 Ba
atom 5.0554263759881160 0.1548485554292328 9.4747424551861901 Ba
atom 0.0000023892291279 5.2102725421413991 9.4747424552097499 Ba
atom 5.0554226156797402 4.9005764494564676 9.4747424552202855 Ba
atom 2.8831251678871679 2.5277074440938794 9.8961633421905990 S
atom 7.2277238237553929 2.5277175608062081 9.8961633418741766 S
atom 2.1722998370436808 7.5831415475097543 9.8961633420135868 S
atom 7.9385498333664808 7.5831321095852777 9.8961633420295225 S
atom 2.3728641165876017 2.5277102828642457 12.9644452509865289 Ba
atom 7.7379848749999161 2.5277147219668068 12.9644452509828660 Ba
atom 2.6825608883311203 7.5831387086657447 12.9644452509732275 Ba
atom 7.4282887820543424 7.5831349483556796 12.9644452509660848 Ba
atom 2.5761321892704521 2.5277093843661458 17.5611034223626845 Ba
atom 7.5347168023181368 2.5277156204773026 17.5611034223656723 Ba
atom 2.4792928155953708 7.5831396071886052 17.5611034223580269 Ba
atom 7.6315568547829393 7.5831340498698747 17.5611034223670828 Ba
atom 5.0554236314212773 5.0431826358721743 15.0303370053854373 Zr
atom 10.1108500257687819 5.0676670346340611 15.0303370060413002 Zr
atom 5.0554260390257610 10.1230910212383520 15.0303370060192218 Zr
atom 10.1108482969613682 10.0986073014733631 15.0303370055395487 Zr
atom 5.0554236314974110 5.0431826358172822 20.0918698377105329 Zr
atom 10.1108500257766547 5.0676670347236907 20.0918698374956932 Zr
atom 5.0554260390733505 10.1230910213362630 20.0918698376921618 Zr
atom 10.1108482969717919 10.0986073014262825 20.0918698376686358 Zr
atom 5.0554197768417888 5.4108375005126339 12.5430243657994254 S
atom 10.1108538802750232 4.7000121698829949 12.5430243652667155 S
atom 5.0554298935584221 9.7554361565356249 12.5430243653496234 S
atom 10.1108444423521497 10.4662621660552286 12.5430243658175709 S
atom 5.0554224032537238 4.6177472023764299 17.5611034229661591 S
atom 10.1108512539301874 5.4931024680234488 17.5611034228167142 S
atom 5.0554272672247285 10.5485264546609461 17.5611034226444716 S
atom 10.1108470687460716 9.6731718679511669 17.5611034228061271 S
atom 5.0554244958293024 2.5277125023969291 14.7232695782281411 S
atom 10.1108488219263108 2.5277128419830701 15.4831251409495394 S
atom 5.0554248352266189 7.5831368288452961 15.4831251409611870 S
atom 10.1108491613206013 7.5831371675020538 14.7232695782199254 S
atom 5.0554244958508185 2.5277125020590612 20.3989372662519166 S
atom 10.1108488219479202 2.5277128418691199 19.6390817035389595 S
atom 5.0554248352450672 7.5831368288468699 19.6390817035340319 S
atom 10.1108491613386970 7.5831371673885686 20.3989372662584145 S
atom 2.5277125024383467 5.0554244957954202 15.1439505456782229 S
atom 7.5831368283366505 5.0554248351925430 15.1439486010681836 S
atom 2.5277128415425039 10.1108488218935300 15.1439486010959712 S
atom 7.5831371680139785 10.1108491612886411 15.1439505457148318 S
atom 2.5277125024218763 5.0554244958302981 19.9782562987115071 S
atom 7.5831368281759781 5.0554248352243549 19.9782582433331690 S
atom 2.5277128414444814 10.1108488219195252 19.9782582433689626 S
atom 7.5831371679909774 10.1108491613176188 19.9782562987611172 S
atom 2.3728641167817317 2.5277102828787665 22.1577615934792895 Ba
atom 7.7379848748089781 2.5277147219836538 22.1577615934864696 Ba
atom 2.6825608881516065 7.5831387087188702 22.1577615935158505 Ba
atom 7.4282887822295862 7.5831349484052817 22.1577615934832899 Ba
atom 5.0554197768643263 5.4108375006450222 22.5791824807247252 S
atom 10.1108538802712662 4.7000121698067758 22.5791824807314825 S
atom 5.0554298935779691 9.7554361564643912 22.5791824804937491 S
atom 10.1108444423436623 10.4662621661650199 22.5791824806278214 S
