#=======================================================
# FHI-aims file: full_relax/full_relax_RP_7_RxRyMz_-Rx-Ry-Mz.in
# Created using the Atomic Simulation Environment (ASE)
# Mon Mar 24 15:48:35 2025
#=======================================================
lattice_vector 10.0136022849228219 -0.0662750387389146 -0.0125172529261153 
lattice_vector -0.0662750387389074 10.0136022849225643 0.0125172529238542 
lattice_vector -0.0953932845344443 0.0953932845173239 75.9104714562910061 
atom 0.0824750771429245 -0.1269780068673141 0.2205450131095552 Ba
atom 5.1337791507018808 -0.1156125952119862 0.2142864100920632 Ba
atom 0.0938404867278785 4.9243260664265165 0.2268036495027416 Ba
atom 5.0561387006466294 4.8466856174962833 0.2205450126739158 Ba
atom -0.3022903776582754 0.2273474343042200 5.0082314382244428 Ba
atom 4.7794537019640497 0.2691528616053075 5.0019728175850977 Ba
atom -0.2604849503062474 5.3090915262647389 5.0144900644786849 Ba
atom 4.6713732373912134 5.2010110590513632 5.0082314436357400 Ba
atom 2.4606021265307914 2.5196696931725966 2.3981733732669595 Zr
atom 7.4607950776315874 2.4799239434820253 2.3919147290498302 Zr
atom 2.4208563810020944 7.5198626276300446 2.4044319955735527 Zr
atom 7.4342657893096709 7.4933333403822182 2.3981733653218007 Zr
atom 2.4420668598676407 2.5268538024728464 7.4515381996000194 Zr
atom 7.4536109517335234 2.4984592337520763 7.4452795531239255 Zr
atom 2.4136722907164434 7.5383979193885544 7.4577968133919921 Zr
atom 7.4157304814361833 7.5005174458664818 7.4515381737419215 Zr
atom 2.6186059294402027 2.7809401653613430 -0.1074888574348298 S
atom 7.1995245965159311 2.3219201801353146 -0.1137474930752211 S
atom 2.1595859408957003 7.3618588377394758 -0.1012302504032432 S
atom 7.5922695449531270 7.7546037870499038 -0.1074888829910123 S
atom 2.1956059132602519 2.2192923326543155 4.9585484289942796 S
atom 7.7611724275791927 2.7449201916615253 4.9522898748167128 S
atom 2.7212337734088652 7.7848588496567013 4.9648071109119485 S
atom 7.1692695358788354 7.1929559550669886 4.9585485105449347 S
atom 2.7442292552122769 0.0264588658107076 2.2231667318774688 S
atom 7.1453240476856141 -0.0041522881416570 2.7685197792268754 S
atom 2.1053853907161195 5.0357863394056102 2.7810370344883792 S
atom 7.7178928745949467 5.0001224507140165 2.2231667277677989 S
atom 2.8589266226733101 0.0184003291606434 7.7807377410649323 S
atom 7.0920201325670540 -0.0105814895519804 7.1510705007399586 S
atom 2.0520814601543633 5.0293572075673163 7.1635877481292631 S
atom 7.8325902378936618 4.9920639887662599 7.7807377379456755 S
atom -0.0595963527189727 2.2625718913435433 2.2294253596234022 S
atom 4.9446783997079873 2.8351407190390203 2.7747784076023421 S
atom -0.0952602577822483 7.8750793770381184 2.7872956584364967 S
atom 4.9140672621182118 7.2362355064304067 2.2294253540363358 S
atom -0.0515379476414296 2.1478745267592054 7.7869963665417083 S
atom 4.9511076578337274 2.8884446399382195 7.1573291213769732 S
atom -0.0888310909065506 7.9283832958697973 7.1698463800513537 S
atom 4.9221257614633851 7.1215381456165012 7.7869963659633834 S
atom 0.2500302333794638 -0.1509632391642401 9.9776540590575209 Ba
atom 5.1577643742615713 -0.2831677416857973 9.9713954307313255 Ba
atom 0.1178257328031179 4.7567709138617662 9.9839126854959872 Ba
atom 5.2236938383968301 4.8227003798753980 9.9776540576215211 Ba
atom -0.3072320309219816 0.2064687414529275 14.9791073602757638 Ba
atom 4.8003323815413168 0.2740945162317597 14.9728487326098954 Ba
atom -0.2396062571880351 5.3140331915748185 14.9853659896095834 Ba
atom 4.6664315703054120 5.1801323792568184 14.9791073616347088 Ba
atom 2.4627142751864790 2.5134013777836239 12.4666439640252324 Zr
atom 7.4670633882993167 2.4778118115254419 12.4603853394981439 Zr
atom 2.4271247126395465 7.5177504928965977 12.4729026262605807 Zr
atom 7.4363779155024794 7.4870650142982500 12.4666439873399266 Zr
atom 2.4648662348359309 2.5087973681821074 17.4793848883085055 Zr
atom 7.4716674078230820 2.4756598533035143 17.4731263076373189 Zr
atom 2.4317287253746724 7.5155985175203561 17.4856434729850143 Zr
atom 7.4385298903726644 7.4824609873872001 17.4793848860862298 Zr
atom 2.7209304155227145 2.8489274334712955 9.9689610384790495 S
atom 7.1315373402373075 2.2195956940296804 9.9627023728460760 S
atom 2.0915986728937006 7.2595343509455423 9.9752196146922252 S
atom 7.6945940332875784 7.8225910492598718 9.9689609851618393 S
atom 2.1937340004646289 2.1783253852812998 14.9758200128620000 S
atom 7.8021393740744616 2.7467921025375248 14.9695614117173630 S
atom 2.7622007245659761 7.7867307639685599 14.9820786474453644 S
atom 7.1673976243109205 7.1519890077284867 14.9758200438704900 S
atom 2.8572361398031649 0.0094819216529653 12.1533718953389851 S
atom 7.1003284485150928 -0.0214941760155004 12.7888757839482015 S
atom 2.0603897841373038 5.0184444584500900 12.8013930377861218 S
atom 7.8308997561324016 4.9831455214500817 12.1533718966991753 S
atom 2.8631799485846638 0.0035229518628932 17.7976062121116918 S
atom 7.1064912261753275 -0.0258668598793555 17.1486462901768881 S
atom 2.0665525621671379 5.0140717863012663 17.1611635377928131 S
atom 7.8368435572397352 4.9771865647482949 17.7976062044671863 S
atom -0.0426194564847721 2.1495650104296868 12.1596305252891348 S
atom 4.9620203203214750 2.8801363187437978 12.7951344120438257 S
atom -0.0779183876793141 7.9200749797403356 12.8076516626426251 S
atom 4.9310442119793612 7.1232286251071821 12.1596305194484753 S
atom -0.0366605193635415 2.1436212034304476 17.8038648322249813 S
atom 4.9663930268943535 2.8739735388408740 17.1549049121641275 S
atom -0.0735457306841936 7.9139122029798914 17.1674221688482120 S
atom 4.9370031939261469 7.1172848219089264 17.8038648373853974 S
atom 0.2633009216629283 -0.1625376208913033 19.9796623996674150 Ba
atom 5.1693387734999385 -0.2964384356853233 19.9734037749269397 Ba
atom 0.1294001069532740 4.7435002099510468 19.9859210277228243 Ba
atom 5.2369645512262366 4.8111259852932911 19.9796624032981605 Ba
atom -0.2939613464718076 0.1948943656638812 24.9811156743744895 Ba
atom 4.8119067818157131 0.2608238248292087 24.9748570488784125 Ba
atom -0.2280318834657400 5.3007624843128625 24.9873743047040584 Ba
atom 4.6797022789789393 5.1685579848066867 24.9811156792114275 Ba
atom 2.4670182117037345 2.5041933570940391 22.4921257924336757 Zr
atom 7.4762714232226593 2.4735078827014840 22.4858671851694325 Zr
atom 2.4363327371470884 7.5134465448427550 22.4983844578573269 Zr
atom 7.4406818604220923 7.4778569770516690 22.4921258106667459 Zr
atom 2.4876656483498389 2.4907409379958776 27.5072314404185114 Zr
atom 7.4897238466054068 2.4528604593520225 27.5009727509824344 Zr
atom 2.4497851490371358 7.4927991049106630 27.5134900894556402 Zr
atom 7.4613292949293681 7.4644045492516984 27.5072314204642900 Zr
atom 2.7359985083677025 2.8392693594034388 19.9829497060422661 S
atom 7.1411954043693626 2.2045275958970985 19.9766909607959704 S
atom 2.1012567489706973 7.2444662597166749 19.9892083636861884 S
atom 7.7096621264342975 7.8129329783669057 19.9829496573155296 S
atom 2.2088021007763197 2.1686673165101995 24.9898088013363520 S
atom 7.8117974499759484 2.7317240059211376 24.9835502528182829 S
atom 2.7718587928197058 7.7716626698738711 24.9960673239421993 S
atom 7.1824657188014340 7.1423309423209282 24.9898088257904867 S
atom 2.8693427225669166 -0.0008497572613982 22.1573767025962312 S
atom 7.1124350234390281 -0.0318258882928855 22.7928806000016522 S
atom 2.0724963738916671 5.0081128561081405 22.8053978450470041 S
atom 7.8430063460159776 4.9728139501451842 22.1573766962806786 S
atom 2.8776510475394197 -0.0117623558487994 27.7951820234627291 S
atom 7.1107445530052589 -0.0407442909004236 27.1655147826225125 S
atom 2.0708058891426244 4.9991943067878237 27.1780320270861750 S
atom 7.8513146562246590 4.9619011968648596 27.7951820179639455 S
atom -0.0322877290979685 2.1374584149574880 22.1636353242306257 S
atom 4.9723518737173080 2.8680297430803625 22.7991392265125441 S
atom -0.0675866913385994 7.9079683928065929 22.8116564711423067 S
atom 4.9413757970841692 7.1111220465022820 22.1636353273983460 S
atom -0.0213751077205674 2.1291501047347152 27.8014406449868083 S
atom 4.9812704030921413 2.8697202114105820 27.1717734069618508 S
atom -0.0586683619975401 7.9096588810921276 27.1842906572587815 S
atom 4.9522886255031340 7.1028137176229444 27.8014406490651567 S
atom 0.2583592778787659 -0.1834163242834442 29.9505382925241292 Ba
atom 5.1902174386146447 -0.2914967891508956 29.9442796681919283 Ba
atom 0.1502788054705055 4.7484418897375367 29.9567969202922093 Ba
atom 5.2320228745823201 4.7902473193352968 29.9505382959099116 Ba
atom -0.1264061926756282 0.1709091347764974 34.7382247639962713 Ba
atom 4.8358920105649590 0.0932686791269710 34.7319661408024345 Ba
atom -0.2040466535317461 5.1332073332970776 34.7444833950787242 Ba
atom 4.8472574333553773 5.1445727501821557 34.7382247532118171 Ba
atom 2.4691303640075719 2.4979250382060831 32.5605964998596278 Zr
atom 7.4825397324631586 2.4713957540706546 32.5543379072932666 Zr
atom 2.4426010524670376 7.5113343970303443 32.5668550706199937 Zr
atom 7.4427939976340323 7.4715886459480325 32.5605965087811100 Zr
atom 2.7341266004499567 2.7983024087266357 30.0002213128633208 S
atom 7.1821623556376446 2.2063995037414754 29.9939627048480055 S
atom 2.1422236873597624 7.2463381671534961 30.0064800083897936 S
atom 7.7077902146548460 7.7719660357434321 30.0002213114216723 S
atom 2.3111265847023867 2.2366545784521770 35.0662585266043436 S
atom 7.7438101825201562 2.6293995176335132 35.0599998689431374 S
atom 2.7038715270932596 7.6693381824698932 35.0725171758026022 S
atom 7.2847902044439259 7.2103182044370735 35.0662585201436414 S
atom 2.8243471201019212 -0.0181916188887201 32.1777326992083417 S
atom 7.2254419166431676 -0.0488027497348017 32.7230857371419503 S
atom 2.1855032549034306 4.9911359043849020 32.7356029946487084 S
atom 7.7980107360730502 4.9554719921030497 32.1777326983326617 S
atom -0.0149459312128421 2.1824540268367132 32.1839913235005284 S
atom 4.9893288955281525 2.7550228460266712 32.7293443649205358 S
atom -0.0506098088850807 7.7949615101841969 32.7418616200062331 S
atom 4.9587177335753072 7.1561176496155454 32.1839913252208945 S
atom 2.5661131682957823 2.4520533675067790 38.1757807658533466 Ba
atom 7.5284113994664779 2.3744129293407101 38.1695221399018649 Ba
atom 2.4884727186914932 7.4143515953437840 38.1820393784760839 Ba
atom 7.5397768111491379 7.4257169951698909 38.1757807530995734 Ba
atom 2.2117877263357806 2.8368188316870744 42.9634671098714733 Ba
atom 7.1436459376861050 2.7287383721190559 42.9572084835556467 Ba
atom 2.1037072743127392 7.7686770361161672 42.9697257409666236 Ba
atom 7.1854513524720733 7.8104824586441834 42.9634671163699835 Ba
atom 4.8931291552349885 5.0475899071355110 40.3534089295614535 Zr
atom 9.9065384064736275 5.0210605690298440 40.3471503012142279 Zr
atom 4.8665997583912750 10.0609993276394452 40.3596675640073030 Zr
atom 9.8667927475030819 10.0212536229430462 40.3534089004072030 Zr
atom 4.8859449920016642 5.0661252023192560 45.4067739253765410 Zr
atom 9.8880031554964667 5.0282447137066608 45.4005152263040017 Zr
atom 4.8480645052358797 10.0681834201028568 45.4130325357703200 Zr
atom 9.8596086041371347 10.0397888630155823 45.4067739289455403 Zr
atom 4.6318586337922767 4.8895861655766888 37.8477469525786745 S
atom 10.0645422439228334 5.2823311092481982 37.8414882240171480 S
atom 5.0246035729493546 10.3222697572993969 37.8540055012803833 S
atom 9.6055222524671393 9.8632497738360527 37.8477469176583980 S
atom 5.1935064484235678 5.3125861672954029 42.9137843356970592 S
atom 9.6415422271668323 4.7206832740814582 42.9075258517596012 S
atom 4.6016035595547464 9.7606219213364511 42.9200430198821650 S
atom 10.1671700725744110 10.2862497783339091 42.9137844331158576 S
atom 4.5776580751086717 2.5635137793462834 40.7300141604498194 S
atom 10.1901655742871728 2.5278496906441559 40.1721438377259830 S
atom 5.1502269061918380 7.5677883123271634 40.1846610963334570 S
atom 9.5513216872132762 7.5371773661631378 40.7300141714379791 S
atom 4.5243541620661523 2.5570845298760290 45.1125648783974498 S
atom 10.3048629138725278 2.5197912610980846 45.7297148275473191 S
atom 5.2649242621056143 7.5597299173855399 45.7422320874744557 S
atom 9.4980177890577568 7.5307481482430934 45.1125648814831948 S
atom 2.3770125872840318 5.4028067029512918 40.7362727938943152 S
atom 7.3863397757235676 4.7639628384189612 40.1784024698891429 S
atom 2.3464012415979703 9.8039014758678888 40.1909197199796608 S
atom 7.3506761049559444 10.3764703113804373 40.7362727949047994 S
atom 2.3834416265703022 5.4561106038450049 45.1188235051426219 S
atom 7.3943984237705864 4.6492654753595426 45.7359734589129161 S
atom 2.3544596850208892 9.6892041289916548 45.7484907102941349 S
atom 7.3571053276212215 10.4297742159613680 45.1188235053847890 S
atom 2.5900984151387050 2.2844982230255657 47.9328898443776268 Ba
atom 7.6959665294236377 2.3504276868629730 47.9266312149656741 Ba
atom 2.6560278744969565 7.3903663663313095 47.9391484733057354 Ba
atom 7.5637620278501858 7.2581618622880226 47.9328898431649648 Ba
atom 2.2326664150251174 2.8417605039738789 52.9343431137639229 Ba
atom 7.1387042702000976 2.7078596851295114 52.9280844821484280 Ba
atom 2.0987655993381895 7.7477983421505261 52.9406017418421939 Ba
atom 7.2063300502181056 7.8154241192125165 52.9343431115207181 Ba
atom 4.8993973647978351 5.0454777529866295 50.4218799423626649 Zr
atom 9.9086506321662444 5.0147923399861858 50.4156213567498668 Zr
atom 4.8687119502218055 10.0547310289337695 50.4281385331598742 Zr
atom 9.8730610109718899 10.0191413919624193 50.4218799394566020 Zr
atom 4.9040014006931729 5.0433258316747303 55.4346205885015095 Zr
atom 9.9108025889419800 5.0101883044291826 55.4283619642081149 Zr
atom 4.8708638723412427 10.0501269721490978 55.4408793299319669 Zr
atom 9.8776650820235297 10.0169894444929870 55.4346205929592841 Zr
atom 4.5638713636142594 4.7872616662711138 47.9241964970458696 S
atom 10.1668667303312610 5.3503183682314157 47.9179378471172157 S
atom 5.1269280680373788 10.3902570287621145 47.9304551306920104 S
atom 9.5375349840745667 9.7609252793034056 47.9241963903624395 S
atom 5.2344734064228238 5.3144580730226734 52.9310556362211315 S
atom 9.6396703111034139 4.6797163184599864 52.9247969918702097 S
atom 4.5997316540785418 9.7196549770642964 52.9373142581147249 S
atom 10.2081370237900622 10.2881216943841469 52.9310557474010110 S
atom 4.5326624794257011 2.5461718206479791 50.7503701219182517 S
atom 10.3031724536321239 2.5108728899669175 50.1023489647124691 S
atom 5.2632337962236209 7.5508114682920882 50.1148662242311715 S
atom 9.5063260927624427 7.5198353654313506 50.7503701225203088 S
atom 4.5388252504647273 2.5417991385831740 55.1101406334922430 S
atom 10.3091162526409992 2.5049138051490711 55.7465833148608070 S
atom 5.2691776060499889 7.5448525046029520 55.7591005706154803 S
atom 9.5124888632096898 7.5154628071802252 55.1101406354310086 S
atom 2.3943543470250206 5.4478022872213474 50.7566287425937901 S
atom 7.4033168557513322 4.6509559383545183 50.1086075945015921 S
atom 2.3633782464557895 9.6908945885410560 50.1211248468027222 S
atom 7.3680179161029846 10.4214659177752438 50.7566287559592197 S
atom 2.3987270467867452 5.4416395158551678 55.1163992616933740 S
atom 7.4092757965598173 4.6450121275537040 55.7528419503915273 S
atom 2.3693370996673839 9.6849507994816211 55.7653591900928092 S
atom 7.3723907033435081 10.4153031417105968 55.1163992581927076 S
atom 2.6016728152112272 2.2712275036844098 57.9348981028314327 Ba
atom 7.7092372273324914 2.3388532925162151 57.9286394742289943 Ba
atom 2.6692985812699401 7.3787919857651358 57.9411567245637329 Ba
atom 7.5753364153644647 7.2448911588835800 57.9348980960686362 Ba
atom 2.2442408317840963 2.8284897914531490 62.9363513634899263 Ba
atom 7.1519749531368459 2.6962852800627246 62.9300927372030330 Ba
atom 2.1120363364053980 7.7362239571888223 62.9426099819067275 Ba
atom 7.2179044072990060 7.8021534296273893 62.9363513549371945 Ba
atom 4.9086054408376585 5.0411738815260136 60.4473613111893968 Zr
atom 9.9129545394089789 5.0055842532094426 60.4411026261466446 Zr
atom 4.8730158142682036 10.0455229264319819 60.4536198917616474 Zr
atom 9.8822691167149834 10.0148375145690487 60.4473612551399242 Zr
atom 4.9220578104332287 5.0205263937887565 65.4624673352426640 Zr
atom 9.9336020037628074 4.9921318485175430 65.4562086675422847 Zr
atom 4.8936632799652715 10.0320705416970704 65.4687257405581988 Zr
atom 9.8957214840447136 9.9941900737006186 65.4624673372084231 Zr
atom 4.5735294480578190 4.7721935824348050 57.9381855914906581 S
atom 10.1819348095228772 5.3406602911466550 57.9319269494306965 S
atom 5.1419961638342242 10.3805989645215213 57.9444440360812649 S
atom 9.5471930638716138 9.7458571994258261 57.9381855013027476 S
atom 5.2441314903175398 5.2993899871314412 62.9450445927252673 S
atom 9.6547383947880920 4.6700582481813280 62.9387861188994719 S
atom 4.6147997380228754 9.7099968940392056 62.9513035301180111 S
atom 10.2177950915712490 10.2730536071433534 62.9450447699495825 S
atom 4.5447690439254034 2.5358403564351337 60.7543749872486671 S
atom 10.3152790201115589 2.5005411938114719 60.1063538331741753 S
atom 5.2753403896020661 7.5404796496631095 60.1188710757745426 S
atom 9.5184326703098421 7.5095037745492554 60.7543749857136604 S
atom 4.5430785891119401 2.5269216139905741 65.1270091218279390 S
atom 10.3235873285692090 2.4896284652495098 65.7441590682831247 S
atom 5.2836486894859371 7.5295672478433344 65.7566763390353941 S
atom 9.5167422079308430 7.5005853444468382 65.1270091237766877 S
atom 2.4046860228477938 5.4356957047198824 60.7606336040537727 S
atom 7.4136484600049570 4.6388493669558848 60.1126124597507072 S
atom 2.3737096964523041 9.6787880148229011 60.1251297032162029 S
atom 7.3783497552105377 10.4093593456737761 60.7606336194910739 S
atom 2.4136043317800149 5.4373861871745843 65.1332677478928872 S
atom 7.4245613059975426 4.6305410422345572 65.7504177071861164 S
atom 2.3846225222702753 9.6704797115201959 65.7629349520593820 S
atom 7.3872680859994624 10.4110497912602433 65.1332677517703047 S
atom 2.6225514757124095 2.2761692214024238 67.9057740894166670 Ba
atom 7.7042955894348868 2.3179746273713464 67.8995154598976569 Ba
atom 2.6643569059712711 7.3579132474614077 67.9120327068121128 Ba
atom 7.5962151175370982 7.2498328053676939 67.9057740770620768 Ba
atom 2.2682260335025668 2.6609346531517453 72.6934604298906493 Ba
atom 7.3195301208072321 2.6723000621288380 72.6872018228713870 Ba
atom 2.2795914403797908 7.7122387187799717 72.6997190755137552 Ba
atom 7.2418896815128964 7.6345982711847160 72.6934604684606427 Ba
atom 4.9148736775107427 5.0390616294837818 70.5158322147735817 Zr
atom 9.9150667525925602 4.9993159497561468 70.5095736190949935 Zr
atom 4.8751279952377633 10.0392547342707221 70.5220909165048653 Zr
atom 9.8885374138303010 10.0127253822995570 70.5158322674193982 Zr
atom 4.6144963884579839 4.7740654876667712 67.9554568341634990 S
atom 10.1800628919303442 5.2996933459594384 67.9491982176291032 S
atom 5.1401242465809842 10.3396319830485144 67.9617156044311486 S
atom 9.5881600032363483 9.7477291003071809 67.9554566853908142 S
atom 5.1761442274668319 5.1970655089545259 73.0214943733417243 S
atom 9.7570628891496494 4.7380455202007736 73.0152356673744265 S
atom 4.7171242470012285 9.7779841777680794 73.0277528295474809 S
atom 10.1498078459061496 10.1707291145795491 73.0214943767153386 S
atom 4.6577759667954952 2.5188629668866791 70.6845801021389377 S
atom 10.2702834299246142 2.4831994314215775 70.1267097967227500 S
atom 5.2303447781980452 7.5231381985033146 70.1392270402511429 S
atom 9.6314395508883344 7.4925266956551271 70.6845801229012380 S
atom 2.4216628023403599 5.3226888423883851 70.6908387445708968 S
atom 7.4309904834846741 4.6838449568049718 70.1329684163911935 S
atom 2.3910519930725367 9.7237836111968292 70.1454856742850410 S
atom 7.3953262320714517 10.2963524497347834 70.6908387387635031 S
