#=======================================================
# FHI-aims file: full_relax/full_relax_RP_8_00Rz_00Rz.in
# Created using the Atomic Simulation Environment (ASE)
# Mon Mar 24 15:54:00 2025
#=======================================================
lattice_vector 9.8983881998757735 0.0000000545060547 0.0000000000000174 
lattice_vector 0.0000000545060546 9.8983881998758090 -0.0000000000000015 
lattice_vector 0.0000000000001457 -0.0000000000000128 87.6217692874373455 
atom -0.0000000000011844 -0.0000000000005957 0.1603589751123923 Ba
atom 4.9491940999368431 0.0000000272525694 0.1603589751125851 Ba
atom 0.0000000272521989 4.9491940999374329 0.1603589751123498 Ba
atom 4.9491941271899407 4.9491941271904123 0.1603589751126547 Ba
atom -0.0000000000009185 -0.0000000000008093 5.0705026233271511 Ba
atom 4.9491940999368529 0.0000000272516757 5.0705026233271271 Ba
atom 0.0000000272519392 4.9491940999366317 5.0705026233270125 Ba
atom 4.9491941271899558 4.9491941271900384 5.0705026233270303 Ba
atom 2.4745970635945063 2.4745970635946160 2.4390479111876173 Zr
atom 7.4237911635322877 2.4745970908476704 2.4390479111874019 Zr
atom 2.4745970908473640 7.4237911635325702 2.4390479111874903 Zr
atom 7.4237911907854830 7.4237911907855985 2.4390479111874290 Zr
atom 2.4745970635944485 2.4745970635946564 7.5811706663235459 Zr
atom 7.4237911635323366 2.4745970908476380 7.5811706663234961 Zr
atom 2.4745970908475061 7.4237911635325018 7.5811706663236027 Zr
atom 7.4237911907853285 7.4237911907855478 7.5811706663234979 Zr
atom 2.4745970635951555 2.4745970635945049 -0.1044355203151896 S
atom 7.4237911635316305 2.4745970908475092 -0.1044355203152779 S
atom 2.4745970908467472 7.4237911635324094 -0.1044355203152246 S
atom 7.4237911907861474 7.4237911907855523 -0.1044355203152888 S
atom 2.4745970635940462 2.4745970635946239 5.0442743809857076 S
atom 7.4237911635327158 2.4745970908477717 5.0442743809857573 S
atom 2.4745970908478272 7.4237911635326377 5.0442743809857591 S
atom 7.4237911907850043 7.4237911907855638 5.0442743809857440 S
atom 2.0436284351625829 0.0000022563230215 2.5336189574414694 S
atom 7.8547597647112051 -0.0000022018186574 2.5336189574416927 S
atom 2.9055656920262005 4.9491918708662137 2.5336189574416177 S
atom 6.9928225623536511 4.9491963835139430 2.5336189574416292 S
atom 3.0114158877916908 0.0000000993049428 7.6047547441162218 S
atom 6.8869723120819648 -0.0000000448005264 7.6047547441161125 S
atom 1.9377782393971055 4.9491940278843032 7.6047547441160495 S
atom 7.9606100149826231 4.9491942264958713 7.6047547441161427 S
atom -0.0000022290718786 2.9055656647733974 2.5336189574409222 S
atom 4.9491963562607610 2.0436284624157155 2.5336189574421937 S
atom 0.0000022835758918 6.9928225351003990 2.5336189574420729 S
atom 4.9491918981190910 7.8547597919641232 2.5336189574409684 S
atom -0.0000000720537739 1.9377782121443281 7.6047547441163026 S
atom 4.9491941992426094 3.0114159150449731 7.6047547441159837 S
atom 0.0000001265577777 7.9606099877297583 7.6047547441160406 S
atom 4.9491940551371432 6.8869723393352000 7.6047547441161738 S
atom -0.0000000000010236 -0.0000000000008940 10.1592777396385312 Ba
atom 4.9491940999368369 0.0000000272522851 10.1592777396386467 Ba
atom 0.0000000272520050 4.9491940999371824 10.1592777396384779 Ba
atom 4.9491941271899274 4.9491941271900801 10.1592777396385312 Ba
atom -0.0000000000009207 -0.0000000000007212 15.2674871348780279 Ba
atom 4.9491940999370199 0.0000000272522413 15.2674871348780048 Ba
atom 0.0000000272520921 4.9491940999371895 15.2674871348779728 Ba
atom 4.9491941271900206 4.9491941271902080 15.2674871348780297 Ba
atom 2.4745970635944627 2.4745970635947332 12.7001853471974862 Zr
atom 7.4237911635323988 2.4745970908477246 12.7001853471976673 Zr
atom 2.4745970908475114 7.4237911635325800 12.7001853471977100 Zr
atom 7.4237911907853924 7.4237911907856038 12.7001853471976069 Zr
atom 2.4745970635945218 2.4745970635946670 17.8184112075513958 Zr
atom 7.4237911635323979 2.4745970908477171 17.8184112075512786 Zr
atom 2.4745970908475288 7.4237911635326013 17.8184112075514207 Zr
atom 7.4237911907853809 7.4237911907856322 17.8184112075513781 Zr
atom 2.4745970635946026 2.4745970635947865 10.1543295005575160 S
atom 7.4237911635321998 2.4745970908476878 10.1543295005576866 S
atom 2.4745970908475101 7.4237911635324947 10.1543295005576351 S
atom 7.4237911907853587 7.4237911907856251 10.1543295005576208 S
atom 2.4745970635943202 2.4745970635947154 15.2655857437654330 S
atom 7.4237911635325231 2.4745970908477313 15.2655857437655875 S
atom 2.4745970908474368 7.4237911635325800 15.2655857437655058 S
atom 7.4237911907854324 7.4237911907855807 15.2655857437655769 S
atom 1.9387090223468180 0.0000000157645621 12.7149141170879023 S
atom 7.9596791775270868 0.0000000387399681 12.7149141170880053 S
atom 3.0104851048422367 4.9491941114248217 12.7149141170880693 S
atom 6.8879031495376859 4.9491941429554922 12.7149141170879094 S
atom 3.0107976588819279 0.0000000123655004 17.8226995117947027 S
atom 6.8875905409919813 0.0000000421389698 17.8226995117946920 S
atom 1.9383964683071715 4.9491941148239498 17.8226995117947205 S
atom 7.9599917860728011 4.9491941395564130 17.8226995117947418 S
atom 0.0000000114867048 3.0104850775894674 12.7149141170878686 S
atom 4.9491941157022650 1.9387090496000567 12.7149141170880462 S
atom 0.0000000430173534 6.8879031222848850 12.7149141170878810 S
atom 4.9491941386776617 7.9596792047802962 12.7149141170879769 S
atom 0.0000000148858539 1.9383964410543082 17.8226995117948093 S
atom 4.9491941123031680 3.0107976861350836 17.8226995117944789 S
atom 0.0000000396184095 7.9599917588199576 17.8226995117946920 S
atom 4.9491941420767231 6.8875905682451934 17.8226995117947382 S
atom -0.0000000000008436 -0.0000000000008013 20.3771556482425780 Ba
atom 4.9491940999369595 0.0000000272522296 20.3771556482427343 Ba
atom 0.0000000272520483 4.9491940999372321 20.3771556482425709 Ba
atom 4.9491941271899913 4.9491941271900748 20.3771556482425389 Ba
atom -0.0000000000011190 -0.0000000000006735 25.4868241616071991 Ba
atom 4.9491940999368769 0.0000000272523379 25.4868241616073732 Ba
atom 0.0000000272521412 4.9491940999370465 25.4868241616071458 Ba
atom 4.9491941271899327 4.9491941271902835 25.4868241616071245 Ba
atom 2.4745970635944672 2.4745970635946613 22.9359000889339342 Zr
atom 7.4237911635323934 2.4745970908476904 22.9359000889340976 Zr
atom 2.4745970908475075 7.4237911635326084 22.9359000889339626 Zr
atom 7.4237911907854057 7.4237911907855798 22.9359000889340194 Zr
atom 2.4745970635944272 2.4745970635947270 28.0541259492878083 Zr
atom 7.4237911635323517 2.4745970908477339 28.0541259492879718 Zr
atom 2.4745970908474586 7.4237911635325879 28.0541259492878865 Zr
atom 7.4237911907853862 7.4237911907855976 28.0541259492882240 Zr
atom 2.4745970635946515 2.4745970635945684 20.3771556482425673 S
atom 7.4237911635322211 2.4745970908477788 20.3771556482425353 S
atom 2.4745970908475163 7.4237911635326945 20.3771556482426242 S
atom 7.4237911907853507 7.4237911907855292 20.3771556482425531 S
atom 2.4745970635942389 2.4745970635946923 25.4887255527198100 S
atom 7.4237911635325897 2.4745970908475239 25.4887255527197638 S
atom 2.4745970908474932 7.4237911635325187 25.4887255527198704 S
atom 7.4237911907853560 7.4237911907857210 25.4887255527198491 S
atom 1.9383964410540770 0.0000000148859812 22.9316117846904923 S
atom 7.9599917588197684 0.0000000396185498 22.9316117846903325 S
atom 3.0107976861348709 4.9491941123033865 22.9316117846904035 S
atom 6.8875905682450123 4.9491941420769052 22.9316117846905172 S
atom 3.0104850775891161 0.0000000114869289 28.0393971793974828 S
atom 6.8879031222846665 0.0000000430175520 28.0393971793972909 S
atom 1.9387090495997203 4.9491941157023751 28.0393971793973478 S
atom 7.9596792047801745 4.9491941386778375 28.0393971793970032 S
atom 0.0000000123653520 3.0107976588820917 22.9316117846903218 S
atom 4.9491941148236105 1.9383964683073132 22.9316117846905847 S
atom 0.0000000421388066 6.8875905409922034 22.9316117846904994 S
atom 4.9491941395561563 7.9599917860730436 22.9316117846906238 S
atom 0.0000000157642287 1.9387090223468888 28.0393971793975290 S
atom 4.9491941114247240 3.0104851048424517 28.0393971793969889 S
atom 0.0000000387396358 7.9596791775274047 28.0393971793972128 S
atom 4.9491941429552728 6.8879031495378493 28.0393971793974686 S
atom -0.0000000000007985 -0.0000000000007420 30.5950335568470528 Ba
atom 4.9491940999370483 0.0000000272525408 30.5950335568467260 Ba
atom 0.0000000272517862 4.9491940999375341 30.5950335568466869 Ba
atom 4.9491941271897311 4.9491941271900401 30.5950335568470493 Ba
atom -0.0000000000014866 0.0000000000000041 35.6838086731587651 Ba
atom 4.9491940999363120 0.0000000272521347 35.6838086731586870 Ba
atom 0.0000000272522560 4.9491940999368591 35.6838086731587154 Ba
atom 4.9491941271900570 4.9491941271909017 35.6838086731588149 Ba
atom 2.4745970635943402 2.4745970635946959 33.1731406301620311 Zr
atom 7.4237911635322789 2.4745970908477490 33.1731406301619245 Zr
atom 2.4745970908474049 7.4237911635325835 33.1731406301622584 Zr
atom 7.4237911907852467 7.4237911907856260 33.1731406301619671 Zr
atom 2.4745970635943908 2.4745970635943890 38.3152633852983158 Zr
atom 7.4237911635320444 2.4745970908474177 38.3152633852981737 Zr
atom 2.4745970908471420 7.4237911635322860 38.3152633852984863 Zr
atom 7.4237911907852849 7.4237911907853356 38.3152633852982447 Zr
atom 2.4745970635947625 2.4745970635946306 30.5999817959278388 S
atom 7.4237911635319609 2.4745970908478392 30.5999817959280165 S
atom 2.4745970908471224 7.4237911635324627 30.5999817959278850 S
atom 7.4237911907856375 7.4237911907852947 30.5999817959281053 S
atom 2.4745970635934165 2.4745970635945351 35.7100369155001047 S
atom 7.4237911635331226 2.4745970908474173 35.7100369155001687 S
atom 2.4745970908482877 7.4237911635323499 35.7100369155001900 S
atom 7.4237911907842999 7.4237911907855620 35.7100369154999484 S
atom 1.9377782121440266 -0.0000000720535184 33.1495565523699725 S
atom 7.9606099877296304 0.0000001265580589 33.1495565523691909 S
atom 3.0114159150447253 4.9491941992429060 33.1495565523697096 S
atom 6.8869723393349087 4.9491940551373430 33.1495565523697593 S
atom 2.9055656647734511 -0.0000022290718226 38.2206923390448310 S
atom 6.9928225350999877 0.0000022835759732 38.2206923390442412 S
atom 2.0436284624150360 4.9491963562608658 38.2206923390448594 S
atom 7.8547597919644110 4.9491918981191736 38.2206923390442768 S
atom 0.0000000993046725 3.0114158877921229 33.1495565523689066 S
atom 4.9491940278840367 1.9377782393974150 33.1495565523699014 S
atom -0.0000000448008175 6.8869723120821877 33.1495565523699511 S
atom 4.9491942264955950 7.9606100149830494 33.1495565523688995 S
atom 0.0000022563226704 2.0436284351626397 38.2206923390454776 S
atom 4.9491918708658806 2.9055656920268143 38.2206923390432749 S
atom -0.0000022018189958 7.8547597647118819 38.2206923390431825 S
atom 4.9491963835136090 6.9928225623535107 38.2206923390455771 S
atom -0.0000000000008400 -0.0000000000019137 40.5939523213736138 Ba
atom 4.9491940999366237 0.0000000272513544 40.5939523213737132 Ba
atom 0.0000000272517217 4.9491940999359230 40.5939523213737772 Ba
atom 4.9491941271892506 4.9491941271890063 40.5939523213735427 Ba
atom 2.4745970635953305 2.4745970635946395 40.8587468168012151 S
atom 7.4237911635309866 2.4745970908478174 40.8587468168018191 S
atom 2.4745970908461050 7.4237911635326084 40.8587468168015775 S
atom 7.4237911907862184 7.4237911907855194 40.8587468168015278 S
atom 2.4745970635933934 2.4745970635941767 43.9712436188301439 Ba
atom 7.4237911635314715 2.4745970908471007 43.9712436188301297 Ba
atom 2.4745970908466139 7.4237911635319147 43.9712436188304991 Ba
atom 7.4237911907847618 7.4237911907849989 43.9712436188297815 Ba
atom 2.4745970635944468 2.4745970635942682 48.8813872670454685 Ba
atom 7.4237911635316793 2.4745970908476971 48.8813872670450635 Ba
atom 2.4745970908470158 7.4237911635324050 48.8813872670458309 Ba
atom 7.4237911907855443 7.4237911907850984 48.8813872670451985 Ba
atom 4.9491941271893891 4.9491941271898687 46.2499325549053850 Zr
atom 9.8983882271273558 4.9491941544427149 46.2499325549056692 Zr
atom 4.9491941544425089 9.8983882271275494 46.2499325549054134 Zr
atom 9.8983882543803396 9.8983882543807287 46.2499325549055413 Zr
atom 4.9491941271895614 4.9491941271898243 51.3920553100418189 Zr
atom 9.8983882271272705 4.9491941544428872 51.3920553100417621 Zr
atom 4.9491941544425595 9.8983882271277430 51.3920553100417976 Zr
atom 9.8983882543804036 9.8983882543806772 51.3920553100418971 Zr
atom 4.9491941271888669 4.9491941271901325 43.7064491234026136 S
atom 9.8983882271280930 4.9491941544417637 43.7064491234034804 S
atom 4.9491941544426856 9.8983882271274286 43.7064491234030186 S
atom 9.8983882543806505 9.8983882543817465 43.7064491234027699 S
atom 4.9491941271900766 4.9491941271897586 48.8551590247038163 S
atom 9.8983882271265919 4.9491941544439042 48.8551590247043919 S
atom 4.9491941544424698 9.8983882271277128 48.8551590247040437 S
atom 9.8983882543803521 9.8983882543795900 48.8551590247039016 S
atom 4.5182254987575776 2.4745993199182599 46.3445036011591682 S
atom 10.3293568283066541 2.4745948617764868 46.3445036011606888 S
atom 5.3801627556218987 7.4237889344614025 46.3445036011597793 S
atom 9.4674196259484287 7.4237934471090634 46.3445036011584293 S
atom 5.4860129513868685 2.4745971629002450 51.4156393878344744 S
atom 9.3615693756770391 2.4745970187946607 51.4156393878339202 S
atom 4.4123753029921353 7.4237910914794982 51.4156393878349363 S
atom 10.4352070785778110 7.4237912900910521 51.4156393878351352 S
atom 2.4745948345231605 5.3801627283690205 46.3445036011605040 S
atom 7.4237934198558166 4.5182255260108972 46.3445036011591185 S
atom 2.4745993471709795 9.4674195986955425 46.3445036011596940 S
atom 7.4237889617141448 10.3293568555597339 46.3445036011596585 S
atom 2.4745969915413117 4.4123752757395067 51.4156393878340978 S
atom 7.4237912628376215 5.4860129786403027 51.4156393878348794 S
atom 2.4745971901528079 10.4352070513250226 51.4156393878346307 S
atom 7.4237911187321455 9.3615694029302574 51.4156393878346591 S
atom 2.4745970635943819 2.4745970635945431 53.9701623833571773 Ba
atom 7.4237911635322842 2.4745970908474417 53.9701623833572413 Ba
atom 2.4745970908470900 7.4237911635323908 53.9701623833574686 Ba
atom 7.4237911907847201 7.4237911907854794 53.9701623833574757 Ba
atom 2.4745970635936847 2.4745970635942980 59.0783717785972016 Ba
atom 7.4237911635315479 2.4745970908475079 59.0783717785975497 Ba
atom 2.4745970908473418 7.4237911635322957 59.0783717785972513 Ba
atom 7.4237911907849101 7.4237911907854413 59.0783717785967823 Ba
atom 4.9491941271893616 4.9491941271897435 56.5110699909164254 Zr
atom 9.8983882271273256 4.9491941544427975 56.5110699909164893 Zr
atom 4.9491941544424378 9.8983882271278141 56.5110699909164893 Zr
atom 9.8983882543803379 9.8983882543808690 56.5110699909164822 Zr
atom 4.9491941271894015 4.9491941271898403 61.6292958512702782 Zr
atom 9.8983882271273131 4.9491941544429228 61.6292958512707330 Zr
atom 4.9491941544424476 9.8983882271276027 61.6292958512702995 Zr
atom 9.8983882543802864 9.8983882543805937 61.6292958512705980 Zr
atom 4.9491941271891662 4.9491941271894326 53.9652141442764020 S
atom 9.8983882271274020 4.9491941544423002 53.9652141442766151 S
atom 4.9491941544425142 9.8983882271280077 53.9652141442764020 S
atom 9.8983882543801922 9.8983882543812083 53.9652141442761533 S
atom 4.9491941271892523 4.9491941271899504 59.0764703874848607 S
atom 9.8983882271273380 4.9491941544428153 59.0764703874843704 S
atom 4.9491941544424085 9.8983882271275245 59.0764703874846049 S
atom 9.8983882543802473 9.8983882543807109 59.0764703874845267 S
atom 4.4133060859414357 2.4745970793597176 56.5257987608071701 S
atom 10.4342762411221646 2.4745971023349171 56.5257987608069001 S
atom 5.4850821684370450 7.4237911750200123 56.5257987608068575 S
atom 9.3625002131327122 7.4237912065507139 56.5257987608066159 S
atom 5.4853947224767321 2.4745970759604603 61.6335841555146189 S
atom 9.3621876045869232 2.4745971057341034 61.6335841555141073 S
atom 4.4129935319018463 7.4237911784192008 61.6335841555144412 S
atom 10.4345888496680850 7.4237912031515325 61.6335841555138870 S
atom 2.4745970750818014 5.4850821411846704 56.5257987608070280 S
atom 7.4237911792969413 4.4133061131950733 56.5257987608069499 S
atom 2.4745971066123631 9.3625001858800427 56.5257987608070849 S
atom 7.4237912022724988 10.4342762683756050 56.5257987608072128 S
atom 2.4745970784805498 4.4129935046492337 61.6335841555142991 S
atom 7.4237911758983008 5.4853947497303404 61.6335841555137733 S
atom 2.4745971032132710 10.4345888224150638 61.6335841555141641 S
atom 7.4237912056715487 9.3621876318401274 61.6335841555140149 S
atom 2.4745970635946137 2.4745970635941941 64.1880402919617836 Ba
atom 7.4237911635320035 2.4745970908471904 64.1880402919622099 Ba
atom 2.4745970908468897 7.4237911635321305 64.1880402919621105 Ba
atom 7.4237911907845735 7.4237911907851259 64.1880402919621531 Ba
atom 2.4745970635931469 2.4745970635942163 69.2977088053269341 Ba
atom 7.4237911635308516 2.4745970908474084 69.2977088053271473 Ba
atom 2.4745970908473467 7.4237911635323464 69.2977088053267636 Ba
atom 7.4237911907847920 7.4237911907850540 69.2977088053271046 Ba
atom 4.9491941271893038 4.9491941271896867 66.7467847326539214 Zr
atom 9.8983882271272243 4.9491941544427469 66.7467847326532393 Zr
atom 4.9491941544423321 9.8983882271276666 66.7467847326537935 Zr
atom 9.8983882543802224 9.8983882543806541 66.7467847326532819 Zr
atom 4.9491941271892461 4.9491941271897293 71.8650105930084493 Zr
atom 9.8983882271271906 4.9491941544427105 71.8650105930072129 Zr
atom 4.9491941544422291 9.8983882271276311 71.8650105930081082 Zr
atom 9.8983882543801993 9.8983882543807340 71.8650105930071561 Zr
atom 4.9491941271894202 4.9491941271899060 64.1880402919615562 S
atom 9.8983882271271177 4.9491941544434948 64.1880402919620252 S
atom 4.9491941544425009 9.8983882271276062 64.1880402919624800 S
atom 9.8983882543800785 9.8983882543800856 64.1880402919618263 S
atom 4.9491941271895108 4.9491941271893429 69.2996101964392324 S
atom 9.8983882271271746 4.9491941544422051 69.2996101964390618 S
atom 4.9491941544421065 9.8983882271281072 69.2996101964402555 S
atom 9.8983882543806558 9.8983882543813362 69.2996101964393034 S
atom 4.4129935046488180 2.4745970784810041 66.7424964284105329 S
atom 10.4345888224147725 2.4745971032135068 66.7424964284092255 S
atom 5.4853947497297115 7.4237911758986046 66.7424964284106892 S
atom 9.3621876318395785 7.4237912056721038 66.7424964284106039 S
atom 5.4850821411841313 2.4745970750822526 71.8502818231181095 S
atom 9.3625001858793038 2.4745971066126353 71.8502818231173421 S
atom 4.4133061131945270 7.4237911792975231 71.8502818231172284 S
atom 10.4342762683749406 7.4237912022729908 71.8502818231167737 S
atom 2.4745970759601068 5.4853947224771815 66.7424964284104334 S
atom 7.4237911784186004 4.4129935319022442 66.7424964284101918 S
atom 2.4745971057335669 9.3621876045872181 66.7424964284102344 S
atom 7.4237912031511071 10.4345888496681525 66.7424964284101492 S
atom 2.4745970793594427 4.4133060859417776 71.8502818231175411 S
atom 7.4237911750192076 5.4850821684374891 71.8502818231178111 S
atom 2.4745971023346200 10.4342762411225642 71.8502818231174700 S
atom 7.4237912065500495 9.3625002131328969 71.8502818231168163 S
atom 2.4745970635939099 2.4745970635942243 74.4059182005670721 Ba
atom 7.4237911635321288 2.4745970908473125 74.4059182005669157 Ba
atom 2.4745970908466295 7.4237911635316003 74.4059182005667878 Ba
atom 7.4237911907838914 7.4237911907854333 74.4059182005668873 Ba
atom 2.4745970635938450 2.4745970635942593 79.4946933168787808 Ba
atom 7.4237911635303862 2.4745970908472708 79.4946933168785677 Ba
atom 2.4745970908458861 7.4237911635327336 79.4946933168790935 Ba
atom 7.4237911907851855 7.4237911907846987 79.4946933168782266 Ba
atom 4.9491941271892381 4.9491941271896991 76.9840252738818265 Zr
atom 9.8983882271272012 4.9491941544428188 76.9840252738825370 Zr
atom 4.9491941544422531 9.8983882271275760 76.9840252738826223 Zr
atom 9.8983882543802633 9.8983882543805937 76.9840252738819544 Zr
atom 4.9491941271897302 4.9491941271900677 82.1261480290190633 Zr
atom 9.8983882271276720 4.9491941544427416 82.1261480290175427 Zr
atom 4.9491941544428233 9.8983882271276684 82.1261480290183528 Zr
atom 9.8983882543805795 9.8983882543810857 82.1261480290179122 Zr
atom 4.9491941271889885 4.9491941271905988 74.4108664396478758 S
atom 9.8983882271277643 4.9491941544428908 74.4108664396471795 S
atom 4.9491941544426998 9.8983882271268424 74.4108664396484301 S
atom 9.8983882543801087 9.8983882543805777 74.4108664396477906 S
atom 4.9491941271900748 4.9491941271881759 79.5209215592202412 S
atom 9.8983882271270023 4.9491941544439468 79.5209215592195449 S
atom 4.9491941544419111 9.8983882271292778 79.5209215592203407 S
atom 9.8983882543811870 9.8983882543796522 79.5209215592197296 S
atom 4.4123752757389010 2.4745969915416843 76.9604411960889507 S
atom 10.4352070513243529 2.4745971901532609 76.9604411960898460 S
atom 5.4860129786396925 7.4237912628379217 76.9604411960905281 S
atom 9.3615694029296819 7.4237911187323897 76.9604411960886523 S
atom 5.3801627283680071 2.4745948345234332 82.0315769827663104 S
atom 9.4674195986952974 2.4745993471713552 82.0315769827623029 S
atom 4.5182255260105721 7.4237934198562998 82.0315769827628571 S
atom 10.3293568555589417 7.4237889617144024 82.0315769827659693 S
atom 2.4745971628997117 5.4860129513871785 76.9604411960903150 S
atom 7.4237910914790053 4.4123753029923458 76.9604411960892918 S
atom 2.4745970187942752 9.3615693756770391 76.9604411960891355 S
atom 7.4237912900904988 10.4352070785780047 76.9604411960895618 S
atom 2.4745993199178402 4.5182254987578885 82.0315769827640935 S
atom 7.4237889344613333 5.3801627556216545 82.0315769827646193 S
atom 2.4745948617761817 10.3293568283066275 82.0315769827647188 S
atom 7.4237934471089648 9.4674196259488195 82.0315769827633119 S
atom 2.4745970635951271 2.4745970635948868 84.4048369650936081 Ba
atom 7.4237911635340836 2.4745970908482908 84.4048369650932955 Ba
atom 2.4745970908480732 7.4237911635325888 84.4048369650933807 Ba
atom 7.4237911907864049 7.4237911907858374 84.4048369650931534 Ba
atom 4.9491941271889637 4.9491941271915207 84.6696314605210176 S
atom 9.8983882271275530 4.9491941544411686 84.6696314605207760 S
atom 4.9491941544428819 9.8983882271258690 84.6696314605217708 S
atom 9.8983882543796327 9.8983882543823913 84.6696314605204776 S
