#=======================================================
# FHI-aims file: full_relax/full_relax_RP_1_RxRyMz_-Rx-RyMz.in
# Created using the Atomic Simulation Environment (ASE)
# Fri Mar 14 11:17:15 2025
#=======================================================
lattice_vector 10.0858332492611851 0.2044765239213446 -0.0000000000001748 
lattice_vector 0.2044765239213406 10.0858332492609453 -0.0000000000002006 
lattice_vector -0.0000000000002981 -0.0000000000003402 15.5513240591988069 
atom -0.1072170444706429 -0.1072123770349602 0.2366426701670617 Ba
atom 5.1501290016789643 0.2094553064632596 0.2366426701306418 Ba
atom 0.2094506390181063 5.1501336690851867 0.2366426701873445 Ba
atom 5.0379378420937426 5.0379425095218284 0.2366426701433040 Ba
atom 0.1072170444813777 0.1072123770600416 4.6231460983361634 Ba
atom 4.9357042475823141 -0.0049787825101080 4.6231460984004400 Ba
atom -0.0049741150959664 4.9356995801349033 4.6231460983571520 Ba
atom 5.2523719310920383 5.2523672636518732 4.6231460983791379 Ba
atom 2.5725774432968889 2.5725774432921291 2.4298943842732248 Zr
atom 7.6154940679164866 2.6748157052626320 2.4298943842622047 Zr
atom 2.6748157052539674 7.6154940679158969 2.4298943842495153 Zr
atom 7.7177323298770624 7.7177323298808140 2.4298943842896032 Zr
atom 2.7865494358782699 2.7865467344409911 -0.1074772757969671 S
atom 7.4015247768125754 2.4608437126813048 -0.1074772757906993 S
atom 2.4608464141350694 7.4015220753564890 -0.1074772757804044 S
atom 7.9317043224745341 7.9317016210147573 -0.1074772757905891 S
atom 2.3586054507223961 2.3586081521765840 4.9672660442740160 S
atom 7.8294633590451843 2.8887876978381311 4.9672660442528018 S
atom 2.8887849963727970 7.8294660604902999 4.9672660442620202 S
atom 7.5037603373069555 7.5037630387411776 4.9672660443031171 S
atom 2.5214497798859288 0.0511197435611639 2.2209494738889362 S
atom 7.5643834693809540 0.1533567803565943 2.6388392945953010 S
atom 2.6237051067014763 5.0940351430135431 2.6388392946113388 S
atom 7.6666046664843055 5.1962746301501639 2.2209494738904465 S
atom 0.0511185184001457 2.5214668447690749 2.2209494738641160 S
atom 5.0940363681934855 2.6236880418620325 2.6388392946096375 S
atom 0.1533580055077192 7.5643664045277266 2.6388392946115480 S
atom 5.1962734049794781 7.6666217312952751 2.2209494738902578 S
atom 2.6797944877658524 2.6797898203282298 8.0123046997525478 Ba
atom 7.5082816908792536 2.5675986607910128 8.0123046997500378 Ba
atom 2.5676033281983206 7.5082770234343297 8.0123046997259806 Ba
atom 7.8249493743717657 7.8249447069537883 8.0123046997608007 Ba
atom 2.4653603988381048 2.4653650662565449 12.3988081279167943 Ba
atom 7.7227064449757847 2.7820327497436179 12.3988081279917566 Ba
atom 2.7820280823232317 7.7227111124126955 12.3988081279137550 Ba
atom 7.6105152853845111 7.6105199528343199 12.3988081278891613 Ba
atom 5.1451548865867487 5.1451548865851970 10.2055564138744117 Zr
atom 10.1880715112224092 5.2473931485505174 10.2055564138803163 Zr
atom 5.2473931485538028 10.1880715112015174 10.2055564138761206 Zr
atom 10.2903097731759381 10.2903097731802298 10.2055564138779999 Zr
atom 4.9311828940493578 4.9311855954958466 7.6681847538379655 S
atom 10.4020408023422402 5.4613651411457589 7.6681847538176600 S
atom 5.4613624396960105 10.4020435037859400 7.6681847538125671 S
atom 10.0763377805683749 10.0763404820258273 7.6681847538265631 S
atom 5.3591268791513036 5.3591241777208394 12.7429280738797797 S
atom 9.9741022201172083 5.0334211559832438 12.7429280738664161 S
atom 5.0334238574049275 9.9740995186411769 12.7429280738619592 S
atom 10.5042817657623697 10.5042790642799613 12.7429280738688337 S
atom 5.0940272231582604 2.6236971868580699 10.4145013242070110 S
atom 10.1369609126572868 2.7259342236651483 9.9966115034780270 S
atom 5.1962825500224605 7.6666125863241747 9.9966115034745542 S
atom 10.2391821097992590 7.7688520734647168 10.4145013242013942 S
atom 2.6236959616852378 5.0940442880490711 10.4145013242241955 S
atom 7.6666138114791380 5.1962654851507031 9.9966115034322645 S
atom 2.7259354488204841 10.1369438478149494 9.9966115035221819 S
atom 7.7688508482721446 10.2391991745814952 10.4145013241726687 S
