#=======================================================
# FHI-aims file: full_relax/full_relax_RP_2_RxRyMz_RxRy0.in
# Created using the Atomic Simulation Environment (ASE)
# Fri Mar 14 11:18:34 2025
#=======================================================
lattice_vector 10.0884012287947993 0.1463865490266028 0.0000000000065149 
lattice_vector 0.1463865490266258 10.0884012287954956 0.0000000000070987 
lattice_vector 0.0000000000177463 0.0000000000192890 25.4317947160241111 
atom -0.0907223703084623 -0.0910974563333001 0.2763052997964518 Ba
atom 5.1352980708081457 0.1639156448989678 0.2763053001997127 Ba
atom 0.1642907311626427 5.1349229845229454 0.2763052994539101 Ba
atom 5.0266715182952399 5.0262964322000778 0.2763052990571417 Ba
atom 0.0269800814480569 0.0279272351678175 4.8907297531276166 Ba
atom 5.0162733794048107 0.0462131935318500 4.8907297530913185 Ba
atom 0.0452660399977954 5.0172205328281434 4.8907297530608274 Ba
atom 5.1443739698122650 5.1453211234055045 4.8907297531141660 Ba
atom 2.5545608151497059 2.5545676948379779 2.3530532079642303 Zr
atom 7.6070268096276283 2.6360263481070896 2.3530532083675797 Zr
atom 2.6360194691428749 7.6070336878328906 2.3530532085928342 Zr
atom 7.6719547038593987 7.6719615836751354 2.3530532070435606 Zr
atom 2.5545608149692329 2.5545676943985356 7.4284062948004035 Zr
atom 7.6070268093082385 2.6360263483354873 7.4284062964773474 Zr
atom 2.6360194695692063 7.6070336882919474 7.4284062970705840 Zr
atom 7.6719547040933858 7.6719615831348831 7.4284062970615183 Zr
atom 2.7923949884590953 2.7925533548940416 -0.1389143304392294 S
atom 7.3690411486712843 2.3981921752148354 -0.1389143307714642 S
atom 2.3980338084726163 7.3691995150972716 -0.1389143312180928 S
atom 7.9097888771774505 7.9099472436637379 -0.1389143304900493 S
atom 2.2829147987497067 2.2827038993305755 4.8907297535681593 S
atom 7.8788906038260702 2.9076723646737865 4.8907297527630398 S
atom 2.9078832639495302 7.8786797045859194 4.8907297521564326 S
atom 7.4003086877465041 7.4000977884190267 4.8907297548073982 S
atom 2.5225720182302021 0.0365965753653380 2.1965268619387515 S
atom 7.5657571199604687 0.1098056281373862 2.7015029335533254 S
atom 2.5947497801207109 5.0808129696449926 2.7015029336091390 S
atom 7.6399659071714012 5.1539904657535525 2.1965268618697902 S
atom 2.5225720183496247 0.0365965746406700 7.5849326444301681 S
atom 7.5657571198771159 0.1098056287244870 7.0799565723411328 S
atom 2.5947497800637351 5.0808129696995881 7.0799565727108282 S
atom 7.6399659072660659 5.1539904656363342 7.5849326440139553 S
atom 0.0365966952382300 2.5216285960285156 2.1965268618123956 S
atom 5.0807815363462341 2.5958373836385880 2.7015029335668328 S
atom 0.1097741949728741 7.5668447234600240 2.7015029336616383 S
atom 5.1539905874732765 7.6390224850910426 2.1965268620070804 S
atom 0.0365966963240440 2.5216285961205331 7.5849326443474272 S
atom 5.0807815358720267 2.5958373835121025 7.0799565726013318 S
atom 0.1097741955752100 7.5668447232892557 7.0799565724144093 S
atom 5.1539905850311394 7.6390224850546646 7.5849326441010385 S
atom -0.0907223701635595 -0.0910974563538202 9.5051542058075800 Ba
atom 5.1352980707856011 0.1639156445201825 9.5051542061715377 Ba
atom 0.1642907307870995 5.1349229846601609 9.5051542063991281 Ba
atom 5.0266715188866584 5.0262964328040836 9.5051542062944385 Ba
atom 2.7923949885400194 2.7925533550973656 9.9203738402027852 S
atom 7.3690411483671410 2.3981921750363280 9.9203738383424458 S
atom 2.3980338085714967 7.3691995149205480 9.9203738379389925 S
atom 7.9097888774080403 7.9099472438005858 9.9203738387666256 S
atom 2.4678326951966811 2.4677543504955404 12.9922229815033283 Ba
atom 7.6938401524634994 2.7227544681567393 12.9922229816554378 Ba
atom 2.7228328127277557 7.6937618081183681 12.9922229814835681 Ba
atom 7.5852265840070734 7.5851482395222627 12.9922229813791201 Ba
atom 2.5861421245930956 2.5862082969330751 17.6066271109078833 Ba
atom 7.5753862061516974 2.6044450387148719 17.6066271109419006 Ba
atom 2.6043788662713911 7.5754523787892865 17.6066271110595451 Ba
atom 7.7035360135430313 7.7036021859800847 17.6066271110238119 Ba
atom 5.1132882647444333 5.1132370039494113 15.0689611196559010 Zr
atom 10.1657513891044538 5.1946927893441801 15.0689611217985053 Zr
atom 5.1947440491479995 10.1657001284889326 15.0689611208223493 Zr
atom 10.2306821530705871 10.2306308920500246 15.0689611203273053 Zr
atom 5.1132882647164131 5.1132370041269928 20.1442931018536662 Zr
atom 10.1657513887240789 5.1946927892745069 20.1442931008112254 Zr
atom 5.1947440493639547 10.1657001286072166 20.1442931001109322 Zr
atom 10.2306821530216077 10.2306308921459639 20.1442931003788459 Zr
atom 5.3511554768834966 5.3511289436627081 12.5769935788180192 S
atom 9.9278594488654868 4.9568255756173469 12.5769935760712723 S
atom 4.9568521088777784 9.9278329156688994 12.5769935764648579 S
atom 10.4685493659078368 10.4685228327912476 12.5769935799106136 S
atom 4.8415689647253934 4.8414519965093499 17.6066271076235275 S
atom 10.4375363962098682 5.4664120879301610 17.6066271137461854 S
atom 5.4665290562228428 10.4374194279350103 17.6066271215504067 S
atom 9.9589628537656640 9.9588458856631981 17.6066271059120290 S
atom 5.0808963581535922 2.5952678704064014 14.9124653472310129 S
atom 10.1249145008524888 2.6684638100830709 15.4173970678515637 S
atom 5.1539071607821798 7.6394711496431356 15.4173970672811134 S
atom 10.1982902472037260 7.7126617591848579 14.9124653482823515 S
atom 5.0808963582078928 2.5952678725280767 20.3007888733585453 S
atom 10.1249145009944019 2.6684638044946851 19.7958571545647963 S
atom 5.1539071611430947 7.6394711476153976 19.7958571540418582 S
atom 10.1982902472900410 7.7126617645113855 20.3007888743899159 S
atom 2.5953192897602473 5.0806981452782924 14.9124653480769105 S
atom 7.6395172424858107 5.1540738915468252 15.4173970678197527 S
atom 2.6685099041674740 10.1250812313657192 15.4173970672736260 S
atom 7.7127131778302553 10.1980920342751116 14.9124653474246553 S
atom 2.5953192913673280 5.0806981453743854 20.3007888739706175 S
atom 7.6395172418452573 5.1540738917798699 19.7958571541742288 S
atom 2.6685098994684959 10.1250812319295154 19.7958571544710686 S
atom 7.7127131827831192 10.1980920344961845 20.3007888737883455 S
atom 2.4678326954809915 2.4677543510300728 22.2210312411482285 Ba
atom 7.6938401524813163 2.7227544686094514 22.2210312410036472 Ba
atom 2.7228328129888641 7.6937618079167844 22.2210312410160071 Ba
atom 7.5852265839674917 7.5851482392435408 22.2210312409967017 Ba
atom 5.3511554768486285 5.3511289437144560 22.6362606461391351 S
atom 9.9278594486126508 4.9568255754731689 22.6362606454619453 S
atom 4.9568521086197563 9.9278329153818685 22.6362606424443946 S
atom 10.4685493656313717 10.4685228324824102 22.6362606453008226 S
