#=======================================================
# FHI-aims file: full_relax/full_relax_RP_5_000_000.in
# Created using the Atomic Simulation Environment (ASE)
# Fri Mar 14 11:28:24 2025
#=======================================================
lattice_vector 10.0678570768957947 0.0000000000000000 0.0000000000000002 
lattice_vector 0.0000000000000000 10.0678570768957947 -0.0000000000000002 
lattice_vector 0.0000000000000010 -0.0000000000000009 55.7269088293788428 
atom -0.0000000000003557 0.0000000000000298 0.2895232581805423 Ba
atom 5.0339285384480776 -0.0000000000002977 0.2895232581801405 Ba
atom -0.0000000000003229 5.0339285384476451 0.2895232581788759 Ba
atom 5.0339285384480554 5.0339285384479453 0.2895232581793024 Ba
atom -0.0000000000001753 -0.0000000000000999 5.0540312440505915 Ba
atom 5.0339285384478689 0.0000000000000396 5.0540312440505897 Ba
atom -0.0000000000001591 5.0339285384478059 5.0540312440506909 Ba
atom 5.0339285384478805 5.0339285384476105 5.0540312440505994 Ba
atom 2.5169642692238452 2.5169642692242760 2.3156759155342486 Zr
atom 7.5508928076716684 2.5169642692241601 2.3156759155342157 Zr
atom 2.5169642692240122 7.5508928076716675 2.3156759155342908 Zr
atom 7.5508928076718265 7.5508928076716550 2.3156759155335154 Zr
atom 2.5169642692240690 2.5169642692239962 7.3951278181780733 Zr
atom 7.5508928076716328 2.5169642692241814 7.3951278181769844 Zr
atom 2.5169642692237941 7.5508928076715192 7.3951278181777855 Zr
atom 7.5508928076720867 7.5508928076720583 7.3951278181780182 Zr
atom 2.5169642692236280 2.5169642692243208 -0.1762396934384524 S
atom 7.5508928076718034 2.5169642692236591 -0.1762396934385390 S
atom 2.5169642692240006 7.5508928076713522 -0.1762396934390354 S
atom 7.5508928076714481 7.5508928076718220 -0.1762396934390114 S
atom 2.5169642692236573 2.5169642692236787 4.9021219213941771 S
atom 7.5508928076718442 2.5169642692240055 4.9021219213938014 S
atom 2.5169642692234264 7.5508928076719872 4.9021219213946079 S
atom 7.5508928076723612 7.5508928076716622 4.9021219213955129 S
atom 2.5169642692237764 -0.0000000000007246 2.4446953307935613 S
atom 7.5508928076718460 -0.0000000000005268 2.4446953307937038 S
atom 2.5169642692239420 5.0339285384473982 2.4446953307936554 S
atom 7.5508928076716222 5.0339285384476362 2.4446953307932673 S
atom 2.5169642692254528 0.0000000000000381 7.4247732489313929 S
atom 7.5508928076701238 0.0000000000000250 7.4247732489310865 S
atom 2.5169642692222598 5.0339285384475954 7.4247732489315137 S
atom 7.5508928076734083 5.0339285384459416 7.4247732489316922 S
atom -0.0000000000002678 2.5169642692240282 2.4446953307937576 S
atom 5.0339285384478512 2.5169642692239167 2.4446953307934671 S
atom -0.0000000000006601 7.5508928076717350 2.4446953307931776 S
atom 5.0339285384476957 7.5508928076719091 2.4446953307938899 S
atom 0.0000000000003144 2.5169642692224681 7.4247732489312348 S
atom 5.0339285384471264 2.5169642692254710 7.4247732489312730 S
atom -0.0000000000002953 7.5508928076733914 7.4247732489318787 S
atom 5.0339285384475536 7.5508928076703841 7.4247732489309541 S
atom -0.0000000000001523 -0.0000000000000908 9.9668338780272894 Ba
atom 5.0339285384478929 -0.0000000000000511 9.9668338780268311 Ba
atom -0.0000000000001051 5.0339285384479364 9.9668338780270460 Ba
atom 5.0339285384479044 5.0339285384477686 9.9668338780272041 Ba
atom -0.0000000000001974 0.0000000000000819 14.9112504208091732 Ba
atom 5.0339285384478218 0.0000000000001185 14.9112504208086207 Ba
atom -0.0000000000002696 5.0339285384476540 14.9112504208090026 Ba
atom 5.0339285384479657 5.0339285384477028 14.9112504208087238 Ba
atom 2.5169642692241623 2.5169642692238288 12.4390421494194765 Zr
atom 7.5508928076719348 2.5169642692239722 12.4390421494205796 Zr
atom 2.5169642692238723 7.5508928076719073 12.4390421494190235 Zr
atom 7.5508928076718442 7.5508928076720272 12.4390421494188370 Zr
atom 2.5169642692237950 2.5169642692238110 17.4829564806579789 Zr
atom 7.5508928076718451 2.5169642692241267 17.4829564806582844 Zr
atom 2.5169642692237764 7.5508928076716604 17.4829564806603805 Zr
atom 7.5508928076718362 7.5508928076719295 17.4829564806587179 Zr
atom 2.5169642692240606 2.5169642692239660 9.9271519091935545 S
atom 7.5508928076718034 2.5169642692234460 9.9271519091937623 S
atom 2.5169642692247374 7.5508928076715813 9.9271519091919398 S
atom 7.5508928076710129 7.5508928076725530 9.9271519091917693 S
atom 2.5169642692233793 2.5169642692235503 14.9509323896402897 S
atom 7.5508928076723949 2.5169642692250540 14.9509323896383695 S
atom 2.5169642692226901 7.5508928076719748 14.9509323896388810 S
atom 7.5508928076729793 7.5508928076708894 14.9509323896399575 S
atom 2.5169642692236569 -0.0000000000006861 12.4390421494179826 S
atom 7.5508928076721249 -0.0000000000006599 12.4390421494186985 S
atom 2.5169642692241050 5.0339285384481078 12.4390421494182544 S
atom 7.5508928076716826 5.0339285384471797 12.4390421494172863 S
atom 2.5169642692262317 -0.0000000000003616 17.4533110499054231 S
atom 7.5508928076694799 -0.0000000000004286 17.4533110499044497 S
atom 2.5169642692215279 5.0339285384478494 17.4533110499048547 S
atom 7.5508928076740851 5.0339285384469807 17.4533110499061159 S
atom 0.0000000000002097 2.5169642692239487 12.4390421494178600 S
atom 5.0339285384461885 2.5169642692239651 12.4390421494177250 S
atom -0.0000000000010840 7.5508928076718034 12.4390421494178547 S
atom 5.0339285384482384 7.5508928076719073 12.4390421494185599 S
atom -0.0000000000003780 2.5169642692219427 17.4533110499053912 S
atom 5.0339285384475998 2.5169642692259639 17.4533110499055581 S
atom -0.0000000000001750 7.5508928076739048 17.4533110499050430 S
atom 5.0339285384473245 7.5508928076698876 17.4533110499051070 S
atom -0.0000000000002739 -0.0000000000004328 19.8240530547838993 Ba
atom 5.0339285384481096 -0.0000000000003240 19.8240530547843612 Ba
atom -0.0000000000000090 5.0339285384481451 19.8240530547844784 Ba
atom 5.0339285384476131 5.0339285384479027 19.8240530547838851 Ba
atom 0.0000000000003570 -0.0000000000004510 24.5885610406572646 Ba
atom 5.0339285384472268 -0.0000000000004854 24.5885610406538682 Ba
atom -0.0000000000005748 5.0339285384482482 24.5885610406544259 Ba
atom 5.0339285384481682 5.0339285384481647 24.5885610406547066 Ba
atom 2.5169642692238670 2.5169642692239211 22.5624083833026710 Zr
atom 7.5508928076718966 2.5169642692236547 22.5624083833026319 Zr
atom 2.5169642692238079 7.5508928076725210 22.5624083833025999 Zr
atom 7.5508928076719268 7.5508928076720405 22.5624083833032074 Zr
atom 2.5169642692238599 2.5169642692244638 19.9759623774359554 S
atom 7.5508928076718238 2.5169642692227612 19.9759623774345059 S
atom 2.5169642692247387 7.5508928076712269 19.9759623774366659 S
atom 7.5508928076709889 7.5508928076729589 19.9759623774366091 S
atom 2.5169642692243275 2.5169642692228211 25.0543239922700955 S
atom 7.5508928076712687 2.5169642692250349 25.0543239922699783 S
atom 2.5169642692237835 7.5508928076730646 25.0543239922694703 S
atom 7.5508928076715653 7.5508928076705102 25.0543239922688556 S
atom 2.5169642692239642 -0.0000000000006012 22.4333889680422054 S
atom 7.5508928076715147 -0.0000000000001227 22.4333889680434559 S
atom 2.5169642692239194 5.0339285384466912 22.4333889680430332 S
atom 7.5508928076717714 5.0339285384473405 22.4333889680416974 S
atom -0.0000000000006267 2.5169642692241672 22.4333889680421557 S
atom 5.0339285384476797 2.5169642692236884 22.4333889680431575 S
atom 0.0000000000001207 7.5508928076715121 22.4333889680424470 S
atom 5.0339285384470047 7.5508928076721968 22.4333889680428697 S
atom 2.5169642692236964 2.5169642692260625 28.1529776728665020 Ba
atom 7.5508928076717394 2.5169642692219001 28.1529776728669532 Ba
atom 2.5169642692237337 7.5508928076692658 28.1529776728652585 Ba
atom 7.5508928076718878 7.5508928076738435 28.1529776728667613 Ba
atom 2.5169642692240277 2.5169642692238581 32.9174856587420948 Ba
atom 7.5508928076714978 2.5169642692255341 32.9174856587419100 Ba
atom 2.5169642692238559 7.5508928076716604 32.9174856587410076 Ba
atom 7.5508928076716746 7.5508928076700705 32.9174856587418603 Ba
atom 5.0339285384473502 5.0339285384477703 30.1791303302305955 Zr
atom 10.0678570768950948 5.0339285384478423 30.1791303302311995 Zr
atom 5.0339285384480696 10.0678570768955513 30.1791303302295262 Zr
atom 10.0678570768955460 10.0678570768954803 30.1791303302305245 Zr
atom 5.0339285384478805 5.0339285384479231 35.2585822328686902 Zr
atom 10.0678570768955176 5.0339285384473422 35.2585822328694078 Zr
atom 5.0339285384476922 10.0678570768953843 35.2585822328703600 Zr
atom 10.0678570768952635 10.0678570768958160 35.2585822328721648 Zr
atom 5.0339285384445001 5.0339285384477614 27.6872147212568720 S
atom 10.0678570768985889 5.0339285384477392 27.6872147212587976 S
atom 5.0339285384522947 10.0678570768958213 27.6872147212563782 S
atom 10.0678570768912525 10.0678570768955638 27.6872147212508395 S
atom 5.0339285384501311 5.0339285384484453 32.7655763360909589 S
atom 10.0678570768929383 5.0339285384477863 32.7655763360763643 S
atom 5.0339285384424457 10.0678570768948656 32.7655763360815300 S
atom 10.0678570769003528 10.0678570768954287 32.7655763360917547 S
atom 5.0339285384474177 2.5169642692250420 30.3081497454793016 S
atom 10.0678570768957858 2.5169642692214427 30.3081497454800406 S
atom 5.0339285384475518 7.5508928076708104 30.3081497454797564 S
atom 10.0678570768954181 7.5508928076748969 30.3081497454798523 S
atom 5.0339285384475563 2.5169642692209551 35.2882276636214698 S
atom 10.0678570768953008 2.5169642692253529 35.2882276636197574 S
atom 5.0339285384475287 7.5508928076751181 35.2882276636210364 S
atom 10.0678570768954039 7.5508928076713673 35.2882276636200913 S
atom 2.5169642692267700 5.0339285384475101 30.3081497454827158 S
atom 7.5508928076703947 5.0339285384476540 30.3081497454757987 S
atom 2.5169642692226430 10.0678570768954856 30.3081497454766726 S
atom 7.5508928076728985 10.0678570768954749 30.3081497454832949 S
atom 2.5169642692212166 5.0339285384474515 35.2882276636167944 S
atom 7.5508928076749875 5.0339285384478041 35.2882276636253067 S
atom 2.5169642692244820 10.0678570768958391 35.2882276636243830 S
atom 7.5508928076722812 10.0678570768954962 35.2882276636154657 S
atom 2.5169642692233225 2.5169642692239860 37.8302882927154229 Ba
atom 7.5508928076722439 2.5169642692229925 37.8302882927153377 Ba
atom 2.5169642692236165 7.5508928076715387 37.8302882927159132 Ba
atom 7.5508928076718904 7.5508928076724375 37.8302882927163751 Ba
atom 2.5169642692235348 2.5169642692235032 42.7747048354975732 Ba
atom 7.5508928076718274 2.5169642692238776 42.7747048354976513 Ba
atom 2.5169642692236835 7.5508928076721205 42.7747048354980421 Ba
atom 7.5508928076717785 7.5508928076714090 42.7747048354981985 Ba
atom 5.0339285384473751 5.0339285384473120 40.3024965641083881 Zr
atom 10.0678570768948816 5.0339285384474746 40.3024965641100934 Zr
atom 5.0339285384476442 10.0678570768953524 40.3024965641094681 Zr
atom 10.0678570768956508 10.0678570768958178 40.3024965641051267 Zr
atom 5.0339285384477126 5.0339285384475581 45.3464108953476597 Zr
atom 10.0678570768947218 5.0339285384479560 45.3464108953423448 Zr
atom 5.0339285384471300 10.0678570768953755 45.3464108953463381 Zr
atom 10.0678570768952618 10.0678570768951410 45.3464108953463736 Zr
atom 5.0339285384446528 5.0339285384469310 37.7906063238714793 S
atom 10.0678570768983615 5.0339285384477037 37.7906063238796648 S
atom 5.0339285384525425 10.0678570768960842 37.7906063238825354 S
atom 10.0678570768901867 10.0678570768957876 37.7906063238809296 S
atom 5.0339285384517867 5.0339285384474284 42.8143868043289473 S
atom 10.0678570768913644 5.0339285384479213 42.8143868043306384 S
atom 5.0339285384434174 10.0678570768957290 42.8143868043315052 S
atom 10.0678570768996547 10.0678570768956615 42.8143868043237106 S
atom 5.0339285384473058 2.5169642692257335 40.3024965641088357 S
atom 10.0678570768956384 2.5169642692260989 40.3024965641090347 S
atom 5.0339285384477481 7.5508928076712705 40.3024965641093047 S
atom 10.0678570768953133 7.5508928076694328 40.3024965641087789 S
atom 5.0339285384469976 2.5169642692242249 45.3167654645958393 S
atom 10.0678570768958000 2.5169642692226262 45.3167654645963864 S
atom 5.0339285384478734 7.5508928076726747 45.3167654645961875 S
atom 10.0678570768951410 7.5508928076736366 45.3167654645963438 S
atom 2.5169642692255763 5.0339285384478343 40.3024965641131416 S
atom 7.5508928076713664 5.0339285384473875 40.3024965641046293 S
atom 2.5169642692247720 10.0678570768952262 40.3024965641051338 S
atom 7.5508928076714650 10.0678570768955993 40.3024965641132269 S
atom 2.5169642692241112 5.0339285384476939 45.3167654645928053 S
atom 7.5508928076732982 5.0339285384475385 45.3167654646001168 S
atom 2.5169642692227487 10.0678570768953755 45.3167654645984115 S
atom 7.5508928076740895 10.0678570768954980 45.3167654645935585 S
atom 2.5169642692243630 2.5169642692236858 47.6875074694742409 Ba
atom 7.5508928076708210 2.5169642692230876 47.6875074694743617 Ba
atom 2.5169642692242293 7.5508928076718931 47.6875074694753067 Ba
atom 7.5508928076709854 7.5508928076724597 47.6875074694754488 Ba
atom 2.5169642692238527 2.5169642692229250 52.4520154553450269 Ba
atom 7.5508928076716808 2.5169642692248564 52.4520154553460500 Ba
atom 2.5169642692240330 7.5508928076726542 52.4520154553455953 Ba
atom 7.5508928076713815 7.5508928076707011 52.4520154553467108 Ba
atom 5.0339285384478298 5.0339285384478885 50.4258627979908098 Zr
atom 10.0678570768955638 5.0339285384472330 50.4258627979907743 Zr
atom 5.0339285384474977 10.0678570768951108 50.4258627979885645 Zr
atom 10.0678570768948354 10.0678570768957574 50.4258627979909377 Zr
atom 5.0339285384444512 5.0339285384478725 47.8394167921196356 S
atom 10.0678570768985942 5.0339285384478369 47.8394167921211135 S
atom 5.0339285384500974 10.0678570768953044 47.8394167921210922 S
atom 10.0678570768930058 10.0678570768955264 47.8394167921263858 S
atom 5.0339285384493060 5.0339285384475545 52.9177784069585329 S
atom 10.0678570768940414 5.0339285384476868 52.9177784069621140 S
atom 5.0339285384461832 10.0678570768955140 52.9177784069572610 S
atom 10.0678570768971785 10.0678570768954714 52.9177784069566854 S
atom 5.0339285384475883 2.5169642692252263 50.2968433827354815 S
atom 10.0678570768953186 2.5169642692260967 50.2968433827338188 S
atom 5.0339285384472046 7.5508928076710999 50.2968433827341528 S
atom 10.0678570768956419 7.5508928076703699 50.2968433827337691 S
atom 2.5169642692250314 5.0339285384476655 50.2968433827369239 S
atom 7.5508928076707607 5.0339285384475358 50.2968433827309198 S
atom 2.5169642692261456 10.0678570768953293 50.2968433827335133 S
atom 7.5508928076717075 10.0678570768954767 50.2968433827351120 S
