#=======================================================
# FHI-aims file: full_relax/full_relax_RP_2_RxRyRz_RxRyRz.in
# Created using the Atomic Simulation Environment (ASE)
# Fri Mar 14 11:18:14 2025
#=======================================================
lattice_vector 10.0883903084795019 0.1462339846245901 0.0005794360041497 
lattice_vector 0.1462339846246823 10.0883903084834010 -0.0005794360438934 
lattice_vector -0.0015295395860270 0.0015295394778828 25.4318616773508950 
atom -0.0908902328827341 -0.0908833314201008 0.2763118096701644 Ba
atom 5.1350784869251269 0.1640072227143676 0.2766015333179035 Ba
atom 0.1640003229110492 5.1350853869661446 0.2760220949637333 Ba
atom 5.0264219179485696 5.0264288168270106 0.2763118107574744 Ba
atom 0.0271509843491303 0.0277392668475794 4.8907426327342494 Ba
atom 5.0164558853466481 0.0459660069238232 4.8910323509160403 Ba
atom 0.0453777250522132 5.0170441722569707 4.8904529142609245 Ba
atom 5.1444631292219771 5.1450514157760541 4.8907426336310760 Ba
atom 2.5543888258866931 2.5546594916809449 2.3530604036441729 Zr
atom 7.6068478105374444 2.6360403106102828 2.3533500980816795 Zr
atom 2.6357696449673669 7.6071184771904869 2.3527706736680587 Zr
atom 7.6717009750449794 7.6719716431652056 2.3530603974535160 Zr
atom 2.5540712191452646 2.5549771117300684 7.4284248604526750 Zr
atom 7.6065301930029241 2.6363579415562195 7.4287145804783412 Zr
atom 2.6354520336873186 7.6074360891040076 7.4281351412612011 Zr
atom 7.6713833556558022 7.6722892678634409 7.4284248512814788 Zr
atom 2.7924026041595167 2.7923992996249840 -0.1389098912669203 S
atom 7.3691080045164714 2.3980265369878837 -0.1386201553040504 S
atom 2.3980298394542077 7.3691046957596793 -0.1391995952907370 S
atom 7.9097147521625404 7.9097114450976216 -0.1389098932623130 S
atom 2.2824996033823712 2.2830878852835217 4.8907426167249648 S
atom 7.8784194183932534 2.9079295406463239 4.8910323415190202 S
atom 2.9073412541866581 7.8790077007647472 4.8904529039365494 S
atom 7.3998117503455614 7.4004000372808694 4.8907426419428326 S
atom 2.5219960725650874 0.0366868848513308 2.1967058602390419 S
atom 7.5661122539169794 0.1098339407342783 2.7019202915568457 S
atom 2.5950340907603282 5.0809121068094161 2.7013408545712427 S
atom 7.6393082187308901 5.1539990348744054 2.1967058561030273 S
atom 2.5216108013356648 0.0370183974159717 7.5850691157686994 S
atom 7.5658849290859473 0.1101052863266550 7.0804341134055786 S
atom 2.5948067666588717 5.0811834734440540 7.0798546822942674 S
atom 7.6389229485565693 5.1543305130365260 7.5850691135789248 S
atom 0.0364300997349069 2.5221990827235912 2.1964161421461159 S
atom 5.0805951844192352 2.5953950511745516 2.7016305740366966 S
atom 0.1095170228197135 7.5664732127938183 2.7010511359869001 S
atom 5.1537422537621804 7.6395112292653602 2.1964161382614527 S
atom 0.0360985903967760 2.5225843602818339 7.5847793971631434 S
atom 5.0803238101043391 2.5956223762645574 7.0801443993083772 S
atom 0.1092456612897370 7.5667005382363612 7.0795649603087707 S
atom 5.1534107377570404 7.6398965061618593 7.5847793959906546 S
atom -0.0914716153760211 -0.0903019476385854 9.5051734517025182 Ba
atom 5.1344970994744994 0.1645886067152080 9.5054631660992968 Ba
atom 0.1634189395523110 5.1356667698004435 9.5048837333265688 Ba
atom 5.0258405300885309 5.0270101998312446 9.5051734508568728 Ba
atom 2.7918110173028707 2.7929908890121671 9.9203951698278612 S
atom 7.3685164131782104 2.3986181277792955 9.9206848963846603 S
atom 2.3974382508177476 7.3696962850591987 9.9201054523550471 S
atom 7.9091231620614471 7.9103030391743241 9.9203951770392393 S
atom 2.4670010673047127 2.4685375098933475 12.9922426394205370 Ba
atom 7.6929697916490740 2.7234280682814402 12.9925323563562856 Ba
atom 2.7218916233422870 7.6945062277152889 12.9919529219956367 Ba
atom 7.5843132209366591 7.5858496559397910 12.9922426385376273 Ba
atom 2.5850422888178848 2.5871601102894934 17.6066734672635121 Ba
atom 7.5743471873675183 2.6053868491366927 17.6069631858151681 Ba
atom 2.6032690268659193 7.5764650130703135 17.6063837482437542 Ba
atom 7.7023544342759287 7.7044722601543203 17.6066734671341969 Ba
atom 5.1122801368628608 5.1140803531369405 15.0689912289355714 Zr
atom 10.1647391072055306 5.1954611704782980 15.0692809579859528 Zr
atom 5.1936609412123245 10.1665393226255372 15.0687015472069081 Zr
atom 10.2295922779274946 10.2313924885586136 15.0689912261876255 Zr
atom 5.1119625124809112 5.1143979610361976 20.1443556721002288 Zr
atom 10.1644214983018202 5.1957787766677992 20.1446454115418412 Zr
atom 5.1933433331457861 10.1668569385219154 20.1440659853670958 Zr
atom 10.2292746536503696 10.2317101043341161 20.1443556656405676 Zr
atom 5.3502939071509488 5.3518201422823255 12.5770209511844175 S
atom 9.9269993033069799 4.9574473770092435 12.5773106657586773 S
atom 4.9559211413623236 9.9285255414846798 12.5767312149990964 S
atom 10.4676060536898365 10.4691322932338373 12.5770209647220668 S
atom 4.8403909063920363 4.8425087357895293 17.6066735486632808 S
atom 10.4363107213819184 5.4673503858959629 17.6069631651997867 S
atom 5.4652325548123919 10.4384285455892147 17.6063837182313598 S
atom 9.9577030502736186 9.9598208790579772 17.6066734999100838 S
atom 5.0798873740308235 2.5961077153132202 14.9126366925997882 S
atom 10.1240035542206446 2.6692547785065410 15.4178511290492999 S
atom 5.1529253933911958 7.6403329316073592 15.4172716932150440 S
atom 10.1971995201741361 7.7134198495400907 14.9126367004061802 S
atom 5.0795021009612311 2.5964391995583362 20.3009999585109355 S
atom 10.1237762308346273 2.6695261441664000 19.7963649654342184 S
atom 5.1526980672243372 7.6406043190950692 19.7957855267596869 S
atom 10.1968142484202442 7.7137513677950267 20.3009999572374760 S
atom 2.5943214341267025 5.0816199308787926 14.9123469766516710 S
atom 7.6384864680067004 5.1548158983549115 15.4175614087345245 S
atom 2.6674083273898122 10.1258940608714099 15.4169819760657401 S
atom 7.7116335842084585 10.1989320799752416 14.9123469814723411 S
atom 2.5939898903581904 5.0820052012687507 20.3007102346162291 S
atom 7.6382151276208168 5.1550432191305431 19.7960752439672483 S
atom 2.6671369709894073 10.1261213810726343 19.7954958129164389 S
atom 7.7113020473805793 10.1993173493004399 20.3007102435013671 S
atom 2.4664196924823103 2.4691188986702501 22.2211042898795483 Ba
atom 7.6923884019866318 2.7240094498442766 22.2213940085364996 Ba
atom 2.7213102462410070 7.6950876134593029 22.2208145739488678 Ba
atom 7.5837318332803596 7.5864310450688022 22.2211042943836041 Ba
atom 5.3497023222463023 5.3524117352259077 22.6363259964424657 S
atom 9.9264077147908250 4.9580389665111753 22.6366157048922112 S
atom 4.9553295515387239 9.9291171311938236 22.6360362439888405 S
atom 10.4670144671726728 10.4697238827513743 22.6363260136641706 S
