#=======================================================
# FHI-aims file: full_relax/full_relax_RP_8_RxRy0_RxRy0.in
# Created using the Atomic Simulation Environment (ASE)
# Mon Mar 24 15:55:41 2025
#=======================================================
lattice_vector 10.0675451373445419 0.0987997854745656 -0.0000000000000079 
lattice_vector 0.0987997854745828 10.0675451373455047 0.0000000000000086 
lattice_vector -0.0000000000000681 0.0000000000000750 84.9962530293789769 
atom -0.0835190886690565 -0.0835190886554555 0.2679970266512650 Ba
atom 5.1172916573387139 0.1329189813928225 0.2679970266519164 Ba
atom 0.1329189814035485 5.1172916573279545 0.2679970266512423 Ba
atom 4.9996533727403918 4.9996533727541275 0.2679970266507701 Ba
atom -0.0076264720512610 -0.0076264720770365 4.9423606161801219 Ba
atom 5.0413990407425535 0.0570263647923864 4.9423606161801423 Ba
atom 0.0570263648077989 5.0413990407277556 4.9423606161799345 Ba
atom 5.0755459893581678 5.0755459893328290 4.9423606161801512 Ba
atom 2.5353103375571133 2.5353103375565982 2.3309769014283019 Zr
atom 7.5816346925238562 2.5972620165886378 2.3309769014282029 Zr
atom 2.5972620165890365 7.5816346925239504 2.3309769014281212 Zr
atom 7.6184827989665305 7.6184827989665109 2.3309769014278254 Zr
atom 2.5432044562094194 2.5432044562126759 7.3542497572000345 Zr
atom 7.5737405738673580 2.5893678979365968 7.3542497572009191 Zr
atom 2.5893678979323496 7.5737405738721106 7.3542497572008463 Zr
atom 7.6263769176190142 7.6263769176228458 7.3542497572010754 Zr
atom 2.7740806719304403 2.7740806719553577 -0.1553484897493203 S
atom 7.3428643581499582 2.3584916821905990 -0.1553484897495591 S
atom 2.3584916822148743 7.3428643581258983 -0.1553484897500656 S
atom 7.8572531333397642 7.8572531333653481 -0.1553484897498362 S
atom 2.2279367978042788 2.2279367977922839 4.8779583888569977 S
atom 7.8890082322697905 2.9046355563599993 4.8779583888570865 S
atom 2.9046355563344641 7.8890082322953248 4.8779583888562090 S
atom 7.3111092592140272 7.3111092592023628 4.8779583888585085 S
atom 2.5168862843324860 0.0246999463687187 2.1647522121084934 S
atom 7.5506588530130969 0.0740998391037212 2.7086653727609318 S
atom 2.5662861770781729 5.0584725150391279 2.7086653727607310 S
atom 7.6000587457422091 5.1078724077788307 2.1647522121081852 S
atom 2.5168862843081632 0.0246999463686881 7.7097920363865828 S
atom 7.5506588530286090 0.0740998391054207 7.0185720844548598 S
atom 2.5662861770937027 5.0584725150415597 7.0185720844550445 S
atom 7.6000587457176207 5.1078724077791788 7.7097920363866423 S
atom 0.0246999463673917 2.5168862843383795 2.1647522121302276 S
atom 5.0584725150416574 2.5662861770676066 2.7086653727438046 S
atom 0.0740998391062665 7.5506588530030463 2.7086653727438748 S
atom 5.1078724077771938 7.6000587457484823 2.1647522121304505 S
atom 0.0246999463672492 2.5168862843628372 7.7097920363756023 S
atom 5.0584725150388214 2.5662861770518961 7.0185720844653376 S
atom 0.0740998391052415 7.5506588529872651 7.0185720844650303 S
atom 5.1078724077755782 7.6000587457728699 7.7097920363750259 S
atom 0.0341961956729454 0.0341961957186640 9.8522199062483100 Ba
atom 4.9995763729546683 0.0152036970601673 9.8522199062481413 Ba
atom 0.0152036970195875 4.9995763729959020 9.8522199062481057 Ba
atom 5.1173686570826060 5.1173686571288721 9.8522199062482567 Ba
atom -0.0354188727699901 -0.0354188728253966 14.8085497151483736 Ba
atom 5.0691914414964412 0.0848187655052202 14.8085497151482777 Ba
atom 0.0848187655616304 5.0691914414410864 14.8085497151482066 Ba
atom 5.0477535886395186 5.0477535885849028 14.8085497151484891 Ba
atom 2.5421495089788131 2.5421495089778912 12.3213142833222236 Zr
atom 7.5747955211031064 2.5904228451665827 12.3213142833234652 Zr
atom 2.5904228451679980 7.5747955211019891 12.3213142833231704 Zr
atom 7.6253219703884243 7.6253219703877768 12.3213142833220974 Zr
atom 2.5414467843046116 2.5414467843040334 17.2850448430936581 Zr
atom 7.5754982457763846 2.5911255698410001 17.2850448430931358 Zr
atom 2.5911255698415743 7.5754982457767115 17.2850448430925177 Zr
atom 7.6246192457143351 7.6246192457139790 17.2850448430923649 Zr
atom 2.8920372193414887 2.8920372193349446 9.8442526091425009 S
atom 7.2249078107529865 2.2405351347964979 9.8442526091402680 S
atom 2.2405351348181770 7.2249078107321871 9.8442526091430658 S
atom 7.9752096807507424 7.9752096807451363 9.8442526091425453 S
atom 2.1871688436583807 2.1871688436792827 14.8051396656565721 S
atom 7.9297761864028136 2.9454035104854581 14.8051396656552718 S
atom 2.9454035104679930 7.9297761864208214 14.8051396656564442 S
atom 7.2703413050680314 7.2703413050890537 14.8051396656565508 S
atom 2.5168862843005835 0.0246999463676899 11.9638199783111414 S
atom 7.5506588530454808 0.0740998391030044 12.6918001302453511 S
atom 2.5662861771104635 5.0584725150381775 12.6918001302447756 S
atom 7.6000587457101938 5.1078724077780588 11.9638199783112071 S
atom 2.5168862842963446 0.0246999463689695 17.6519746731992058 S
atom 7.5506588530475991 0.0740998391056489 16.9211326866602221 S
atom 2.5662861771125258 5.0584725150387486 16.9211326866600125 S
atom 7.6000587457061153 5.1078724077769975 17.6519746731995433 S
atom 0.0246999463681706 2.5168862843705213 11.9638199783127011 S
atom 5.0584725150432215 2.5662861770352077 12.6918001302423651 S
atom 0.0740998391076400 7.5506588529706153 12.6918001302418908 S
atom 5.1078724077783608 7.6000587457804460 11.9638199783122658 S
atom 0.0246999463673834 2.5168862843744488 17.6519746732029823 S
atom 5.0584725150416334 2.5662861770328949 16.9211326866545093 S
atom 0.0740998391068425 7.5506588529684340 16.9211326866549889 S
atom 5.1078724077761315 7.6000587457846009 17.6519746732035259 S
atom 0.0357999494304363 0.0357999494783874 19.7665704719484552 Ba
atom 4.9979726191895004 0.0135999433091965 19.7665704719481390 Ba
atom 0.0135999432546563 4.9979726192440408 19.7665704719483273 Ba
atom 5.1189724108395778 5.1189724108877668 19.7665704719482775 Ba
atom -0.0354188727870802 -0.0354188728102073 24.7245912287485226 Ba
atom 5.0691914414878054 0.0848187655164403 24.7245912287483840 Ba
atom 0.0848187655525998 5.0691914414516202 24.7245912287483627 Ba
atom 5.0477535886226761 5.0477535885996954 24.7245912287484479 Ba
atom 2.5414467843022961 2.5414467843071109 22.2480961007994651 Zr
atom 7.5754982457738560 2.5911255698428683 22.2480961007982714 Zr
atom 2.5911255698387388 7.5754982457787685 22.2480961007983886 Zr
atom 7.6246192457113153 7.6246192457164055 22.2480961008008364 Zr
atom 2.5421495089810460 2.5421495089765234 27.2118266605791028 Zr
atom 7.5747955211035904 2.5904228451650888 27.2118266605792236 Zr
atom 2.5904228451686202 7.5747955211006515 27.2118266605795043 Zr
atom 7.6253219703903836 7.6253219703867234 27.2118266605809183 Zr
atom 2.8964483997903696 2.8964483997642643 19.7665704719460393 S
atom 7.2204966303070170 2.2361239543647797 19.7665704719461033 S
atom 2.2361239543718154 7.2204966303004303 19.7665704719438864 S
atom 7.9796208612001305 7.9796208611742321 19.7665704719416162 S
atom 2.1871688436523868 2.1871688436820227 24.7280012782376311 S
atom 7.9297761864180316 2.9454035104740433 24.7280012782414254 S
atom 2.9454035104828211 7.9297761864096348 24.7280012782430241 S
atom 7.2703413050617023 7.2703413050921428 24.7280012782402920 S
atom 2.5168862843029309 0.0246999463679663 21.8811662707043233 S
atom 7.5506588530342684 0.0740998391050449 22.6120082572370045 S
atom 2.5662861770993555 5.0584725150411805 22.6120082572371217 S
atom 7.6000587457123370 5.1078724077811097 21.8811662707042487 S
atom 2.5168862843260560 0.0246999463669466 27.5693209655725759 S
atom 7.5506588530230996 0.0740998391022692 26.8413408136622387 S
atom 2.5662861770882395 5.0584725150388001 26.8413408136615388 S
atom 7.6000587457354234 5.1078724077782631 27.5693209655726434 S
atom 0.0246999463650670 2.5168862843682258 21.8811662706920025 S
atom 5.0584725150408882 2.5662861770462633 22.6120082572475525 S
atom 0.0740998391059931 7.5506588529817797 22.6120082572477550 S
atom 5.1078724077758837 7.6000587457782336 21.8811662706917538 S
atom 0.0246999463701331 2.5168862843450062 27.5693209655932492 S
atom 5.0584725150407897 2.5662861770573984 26.8413408136401692 S
atom 0.0740998391076396 7.5506588529928997 26.8413408136391638 S
atom 5.1078724077791584 7.6000587457550974 27.5693209655922224 S
atom 0.0341961956977533 0.0341961956929936 29.6809210376490498 Ba
atom 4.9995763729665210 0.0152036970484283 29.6809210376489503 Ba
atom 0.0152036970312408 4.9995763729846239 29.6809210376489645 Ba
atom 5.1173686571078205 5.1173686571039383 29.6809210376491315 Ba
atom -0.0076264720718593 -0.0076264720547882 34.5907803277164447 Ba
atom 5.0413990407400187 0.0570263647939781 34.5907803277164803 Ba
atom 0.0570263648049431 5.0413990407287272 34.5907803277162742 Ba
atom 5.0755459893374963 5.0755459893548540 34.5907803277165087 Ba
atom 2.5432044562093763 2.5432044562119773 32.1788911867005751 Zr
atom 7.5737405738697152 2.5893678979354720 32.1788911867021170 Zr
atom 2.5893678979345003 7.5737405738708761 32.1788911867003193 Zr
atom 7.6263769176191349 7.6263769176220864 32.1788911866981024 Zr
atom 2.5353103375557118 2.5353103375578079 37.2021640424638207 Zr
atom 7.5816346925239921 2.5972620165885911 37.2021640424655402 Zr
atom 2.5972620165889144 7.5816346925237283 37.2021640424653341 Zr
atom 7.6184827989652337 7.6184827989673769 37.2021640424639131 Zr
atom 2.8920372193562183 2.8920372193205450 29.6888883347604136 S
atom 7.2249078107262852 2.2405351348234315 29.6888883347587509 S
atom 2.2405351347914975 7.2249078107586087 29.6888883347637602 S
atom 7.9752096807653698 7.9752096807297583 29.6888883347600938 S
atom 2.2279367977750253 2.2279367978239595 34.6551825550419395 S
atom 7.8890082323055299 2.9046355563208648 34.6551825550370722 S
atom 2.9046355563709021 7.8890082322569626 34.6551825550336048 S
atom 7.3111092591843345 7.3111092592342839 34.6551825550395023 S
atom 2.5168862843345008 0.0246999463703257 31.8233489075315852 S
atom 7.5506588530065191 0.0740998391059237 32.5145688594178708 S
atom 2.5662861770716021 5.0584725150388223 32.5145688594176221 S
atom 7.6000587457441124 5.1078724077789657 31.8233489075324982 S
atom 2.5168862843362247 0.0246999463673546 37.3683887317549548 S
atom 7.5506588530059320 0.0740998391045671 36.8244755711664880 S
atom 2.5662861770708734 5.0584725150406840 36.8244755711664737 S
atom 7.6000587457457867 5.1078724077785118 37.3683887317547487 S
atom 0.0246999463674232 2.5168862843366768 31.8233489074968006 S
atom 5.0584725150403544 2.5662861770742995 32.5145688594522895 S
atom 0.0740998391036570 7.5506588530096970 32.5145688594527797 S
atom 5.1078724077786140 7.6000587457465940 31.8233489074972660 S
atom 0.0246999463664026 2.5168862843346376 37.3683887318057231 S
atom 5.0584725150411618 2.5662861770744629 36.8244755711301721 S
atom 0.0740998391066677 7.5506588530098320 36.8244755711299874 S
atom 5.1078724077759308 7.6000587457445521 37.3683887318064194 S
atom -0.0835190886479592 -0.0835190886762649 39.2651439172477836 Ba
atom 5.1172916573197069 0.1329189814115728 39.2651439172477623 Ba
atom 0.1329189813847970 5.1172916573466898 39.2651439172475918 Ba
atom 4.9996533727612373 4.9996533727333512 39.2651439172474639 Ba
atom 2.7740806719658493 2.7740806719206392 39.6884894336401217 S
atom 7.3428643581131778 2.3584916822266830 39.6884894336390843 S
atom 2.3584916821780642 7.3428643581620321 39.6884894336401999 S
atom 7.8572531333757096 7.8572531333301905 39.6884894336425660 S
atom 2.4580671420295181 2.4580671420548432 42.7661235413442000 Ba
atom 7.6588778880441017 2.6745052120958563 42.7661235413443777 Ba
atom 2.6745052121092043 7.6588778880324320 42.7661235413441290 Ba
atom 7.5412396034393128 7.5412396034661304 42.7661235413440011 Ba
atom 2.5339597586848743 2.5339597585964233 47.4404871308699470 Ba
atom 7.5829852714740760 2.5986125954699237 47.4404871308699896 Ba
atom 2.5986125955391572 7.5829852714055193 47.4404871308701885 Ba
atom 7.6171322200945193 7.6171322200067779 47.4404871308701814 Ba
atom 5.0768965682632414 5.0768965682598255 44.8291034161190680 Zr
atom 10.1232209232297645 5.1388482472925734 44.8291034161197715 Zr
atom 5.1388482472947752 10.1232209232276116 44.8291034161183859 Zr
atom 10.1600690296732878 10.1600690296700602 44.8291034161169435 Zr
atom 5.0847906869110462 5.0847906869202388 49.8523762718918420 Zr
atom 10.1153268045691522 5.1309541286450244 49.8523762718922967 Zr
atom 5.1309541286342313 10.1153268045800449 49.8523762718901580 Zr
atom 10.1679631483203625 10.1679631483303279 49.8523762718888008 Zr
atom 5.3156669026311327 5.3156669026643533 42.3427780249405785 S
atom 9.8844505888612062 4.9000779128892598 42.3427780249391716 S
atom 4.9000779129268510 9.8844505888241105 42.3427780249421843 S
atom 10.3988393640402990 10.3988393640736057 42.3427780249430938 S
atom 4.7695230285075780 4.7695230284983641 47.3760849035472091 S
atom 10.4305944629584246 5.4462217870798595 47.3760849035498026 S
atom 5.4462217870232683 10.4305944630156215 47.3760849035469036 S
atom 9.8526954899179344 9.8526954899091201 47.3760849035506411 S
atom 5.0584725150280576 2.5662861770722944 44.6628787267909502 S
atom 10.0922450837351825 2.6156860698073352 45.2067918874549335 S
atom 5.1078724078001709 7.6000587457441924 45.2067918874555801 S
atom 10.1416449764376626 7.6494586384826793 44.6628787267907867 S
atom 5.0584725149442002 2.5662861770777927 50.2079185510832176 S
atom 10.0922450837899902 2.6156860698140521 49.5166985991401063 S
atom 5.1078724078551652 7.6000587457481821 49.5166985991409376 S
atom 10.1416449763538612 7.6494586384833205 50.2079185510825496 S
atom 2.5662861770722238 5.0584725150524115 44.6628787268262855 S
atom 7.6000587457479076 5.1078724077550675 45.2067918874293682 S
atom 2.6156860698112534 10.0922450836905906 45.2067918874289489 S
atom 7.6494586384832068 10.1416449764626062 44.6628787268265910 S
atom 2.5662861770680392 5.0584725151365353 50.2079185510608426 S
atom 7.6000587457437581 5.1078724077002056 49.5166985991617565 S
atom 2.6156860698089912 10.0922450836354241 49.5166985991617992 S
atom 7.6494586384769052 10.1416449765463010 50.2079185510609847 S
atom 2.5757824263246798 2.5757824264774829 52.3503464209386991 Ba
atom 7.5411626036101227 2.5567899278153150 52.3503464209383580 Ba
atom 2.5567899276749952 7.5411626037493598 52.3503464209386706 Ba
atom 7.6589548877340610 7.6589548878857263 52.3503464209384148 Ba
atom 2.5061673579934785 2.5061673578198640 57.3066762298390344 Ba
atom 7.6107776722581253 2.6264049961538340 57.3066762298390842 Ba
atom 2.6264049963230534 7.6107776720898492 57.3066762298389776 Ba
atom 7.5893398194023227 7.5893398192303314 57.3066762298394394 Ba
atom 5.0837357396844833 5.0837357396816021 54.8194407980111293 Zr
atom 10.1163817518078858 5.1320090758693873 54.8194407980051466 Zr
atom 5.1320090758732171 10.1163817518051538 54.8194407980100493 Zr
atom 10.1669082010939587 10.1669082010916778 54.8194407980142770 Zr
atom 5.0830330150087528 5.0830330150097049 59.7831713577865216 Zr
atom 10.1170844764801853 5.1327118005466099 59.7831713577847026 Zr
atom 5.1327118005458461 10.1170844764827379 59.7831713577818959 Zr
atom 10.1662054764175789 10.1662054764190817 59.7831713577852639 Zr
atom 5.4336234500568326 5.4336234500281364 52.3423791238282234 S
atom 9.7664940414814545 4.7821213654792105 52.3423791238353147 S
atom 4.7821213655453683 9.7664940414145214 52.3423791238338794 S
atom 10.5167959114675273 10.5167959114391518 52.3423791238289056 S
atom 4.7287550743471165 4.7287550743993743 57.3032661803408061 S
atom 10.4713624170851158 5.4869897412146695 57.3032661803472081 S
atom 5.4869897411509916 10.4713624171488213 57.3032661803517698 S
atom 9.8119275357556734 9.8119275358092768 57.3032661803469665 S
atom 5.0584725149282317 2.5662861770729455 54.4619464929995445 S
atom 10.0922450838309832 2.6156860698065758 55.1899266449404848 S
atom 5.1078724078956750 7.6000587457446418 55.1899266449402504 S
atom 10.1416449763379823 7.6494586384853642 54.4619464929987274 S
atom 5.0584725149141985 2.5662861770741432 60.1501011878910390 S
atom 10.0922450838363797 2.6156860698065141 59.4192592013466694 S
atom 5.1078724079012776 7.6000587457428992 59.4192592013477778 S
atom 10.1416449763238763 7.6494586384873609 60.1501011878910390 S
atom 2.5662861770711061 5.0584725151521397 54.4619464930090231 S
atom 7.6000587457468667 5.1078724076591868 55.1899266449297770 S
atom 2.6156860698126474 10.0922450835946158 55.1899266449294146 S
atom 7.6494586384799632 10.1416449765621941 54.4619464930060175 S
atom 2.5662861770724592 5.0584725151658816 60.1501011878908116 S
atom 7.6000587457447581 5.1078724076535087 59.4192592013469323 S
atom 2.6156860698104434 10.0922450835889972 59.4192592013443743 S
atom 7.6494586384817369 10.1416449765759875 60.1501011878901650 S
atom 2.5773861800718545 2.5773861802455595 62.2646969866393647 Ba
atom 7.5395588498323676 2.5551861740748145 62.2646969866390165 Ba
atom 2.5551861738969399 7.5395588500110184 62.2646969866391018 Ba
atom 7.6605586414812139 7.6605586416559239 62.2646969866386399 Ba
atom 2.5061673579853929 2.5061673578293746 67.2227177434381957 Ba
atom 7.6107776722584983 2.6264049961543496 67.2227177434386363 Ba
atom 2.6264049963244029 7.6107776720882319 67.2227177434392473 Ba
atom 7.5893398193946346 7.5893398192372192 67.2227177434391052 Ba
atom 5.0830330150079464 5.0830330150113232 64.7462226154935365 Zr
atom 10.1170844764804162 5.1327118005467893 64.7462226154994340 Zr
atom 5.1327118005443735 10.1170844764827379 64.7462226154922860 Zr
atom 10.1662054764184049 10.1662054764209664 64.7462226154843847 Zr
atom 5.0837357396849638 5.0837357396809875 69.7099531752644310 Zr
atom 10.1163817518081967 5.1320090758705685 69.7099531752656958 Zr
atom 5.1320090758733681 10.1163817518058803 69.7099531752705133 Zr
atom 10.1669082010942304 10.1669082010908109 69.7099531752646584 Zr
atom 5.4380346305141449 5.4380346304497404 62.2646969866390876 S
atom 9.7620828610336261 4.7777101850456205 62.2646969866398265 S
atom 4.7777101850983117 9.7620828609824066 62.2646969866411695 S
atom 10.5212070919233351 10.5212070918591003 62.2646969866403666 S
atom 4.7287550743352593 4.7287550744112510 67.2261277929385699 S
atom 10.4713624170989092 5.4869897411999435 67.2261277929259649 S
atom 5.4869897411648143 10.4713624171358592 67.2261277929283381 S
atom 9.8119275357444025 9.8119275358199225 67.2261277929396357 S
atom 5.0584725149163754 2.5662861770757206 64.3792927853928774 S
atom 10.0922450838323368 2.6156860698101796 65.1101347719263259 S
atom 5.1078724078979345 7.6000587457406903 65.1101347719265107 S
atom 10.1416449763254946 7.6494586384880918 64.3792927853919821 S
atom 5.0584725149350440 2.5662861770748906 70.0674474802632545 S
atom 10.0922450838242952 2.6156860698064137 69.3394673283530807 S
atom 5.1078724078897588 7.6000587457414674 69.3394673283561360 S
atom 10.1416449763441481 7.6494586384843197 70.0674474802624161 S
atom 2.5662861770717691 5.0584725151640733 64.3792927853814518 S
atom 7.6000587457446152 5.1078724076575037 65.1101347719356909 S
atom 2.6156860698091027 10.0922450835925375 65.1101347719352788 S
atom 7.6494586384825229 10.1416449765739181 64.3792927853807413 S
atom 2.5662861770717065 5.0584725151453664 70.0674474802864040 S
atom 7.6000587457476962 5.1078724076653863 69.3394673283311391 S
atom 2.6156860698093909 10.0922450836009308 69.3394673283286522 S
atom 7.6494586384821428 10.1416449765554404 70.0674474802835903 S
atom 2.5757824263394218 2.5757824264622671 72.1790475523393127 Ba
atom 7.5411626036049713 2.5567899278189228 72.1790475523391706 Ba
atom 2.5567899276711472 7.5411626037553310 72.1790475523389006 Ba
atom 7.6589548877479263 7.6589548878726532 72.1790475523385311 Ba
atom 2.5339597586688209 2.5339597586124318 77.0889068424060895 Ba
atom 7.5829852714836736 2.5986125954586763 77.0889068424063026 Ba
atom 2.5986125955491564 7.5829852713962973 77.0889068424068142 Ba
atom 7.6171322200782905 7.6171322200228202 77.0889068424072263 Ba
atom 5.0847906869109609 5.0847906869217585 74.6770177013830647 Zr
atom 10.1153268045695324 5.1309541286434541 74.6770177013876122 Zr
atom 5.1309541286358158 10.1153268045795617 74.6770177013903833 Zr
atom 10.1679631483202453 10.1679631483311237 74.6770177013864753 Zr
atom 5.0768965682615681 5.0768965682606106 79.7002905571565634 Zr
atom 10.1232209232308357 5.1388482472917349 79.7002905571556255 Zr
atom 5.1388482472954697 10.1232209232265777 79.7002905571570608 Zr
atom 10.1600690296719254 10.1600690296712735 79.7002905571561229 Zr
atom 5.4336234500846485 5.4336234500001037 72.1870148494516997 S
atom 9.7664940414500894 4.7821213655085906 72.1870148494368067 S
atom 4.7821213655149144 9.7664940414458190 72.1870148494405157 S
atom 10.5167959114944942 10.5167959114123732 72.1870148494652284 S
atom 4.7695230284628938 4.7695230285440431 77.1533090697319466 S
atom 10.4305944630044714 5.4462217870351939 77.1533090697408284 S
atom 5.4462217870688185 10.4305944629680081 77.1533090697263475 S
atom 9.8526954898737902 9.8526954899514454 77.1533090697178778 S
atom 5.0584725149510756 2.5662861770776275 74.3214754222277634 S
atom 10.0922450837838582 2.6156860698203652 75.0126953741056042 S
atom 5.1078724078492597 7.6000587457461615 75.0126953741058315 S
atom 10.1416449763605403 7.6494586384791665 74.3214754222234859 S
atom 5.0584725150284369 2.5662861770703378 79.8665152464378139 S
atom 10.0922450837336140 2.6156860698036373 79.3226020858544985 S
atom 5.1078724077980207 7.6000587457469022 79.3226020858570280 S
atom 10.1416449764385614 7.6494586384858243 79.8665152464393628 S
atom 2.5662861770677168 5.0584725151295640 74.3214754221845908 S
atom 7.6000587457454492 5.1078724077056039 75.0126953741462472 S
atom 2.6156860698128250 10.0922450836413269 75.0126953741464888 S
atom 7.6494586384739875 10.1416449765398244 74.3214754221856424 S
atom 2.5662861770736849 5.0584725150516547 79.8665152464959647 S
atom 7.6000587457459261 5.1078724077565640 79.3226020858131307 S
atom 2.6156860698112987 10.0922450836923510 79.3226020858163565 S
atom 7.6494586384825176 10.1416449764614960 79.8665152464990058 S
atom 2.4580671420548685 2.4580671420296771 81.7632704319365189 Ba
atom 7.6588778880189503 2.6745052121212369 81.7632704319362773 Ba
atom 2.6745052120837789 7.6588778880578099 81.7632704319368031 Ba
atom 7.5412396034649474 7.5412396034398297 81.7632704319365331 Ba
atom 5.3156669026754457 5.3156669026199159 82.1866159483398349 S
atom 9.8844505888165468 4.9000779129314029 82.1866159483342216 S
atom 4.9000779128822547 9.8844505888686243 82.1866159483337526 S
atom 10.3988393640839849 10.3988393640310566 82.1866159483344063 S
