#=======================================================
# FHI-aims file: full_relax/full_relax_RP_7_00Rz_00Rz.in
# Created using the Atomic Simulation Environment (ASE)
# Mon Mar 24 15:35:55 2025
#=======================================================
lattice_vector 9.8994739917018784 -0.0000000531573823 -0.0000000000000060 
lattice_vector -0.0000000531573823 9.8994739917018784 0.0000000000000039 
lattice_vector -0.0000000000000447 0.0000000000000290 77.3882739361844330 
atom -0.0000000000013235 -0.0000000000009579 0.1613186127301747 Ba
atom 4.9497369958496602 -0.0000000265796653 0.1613186127298208 Ba
atom -0.0000000265801232 4.9497369958501709 0.1613186127298771 Ba
atom 4.9497369692709965 4.9497369692712452 0.1613186127300519 Ba
atom -0.0000000000009607 -0.0000000000007690 5.0704344776579777 Ba
atom 4.9497369958498325 -0.0000000265795424 5.0704344776580017 Ba
atom -0.0000000265797600 4.9497369958500714 5.0704344776580452 Ba
atom 4.9497369692712683 4.9497369692713242 5.0704344776580603 Ba
atom 2.4748684846349298 2.4748684846352496 2.4397429198537530 Zr
atom 7.4246054804857868 2.4748684580566080 2.4397429198535852 Zr
atom 2.4748684580563021 7.4246054804860728 2.4397429198534795 Zr
atom 7.4246054539071551 7.4246054539075512 2.4397429198534542 Zr
atom 2.4748684846350884 2.4748684846354188 7.5818518170628506 Zr
atom 7.4246054804860337 2.4748684580565383 7.5818518170628968 Zr
atom 2.4748684580563629 7.4246054804863064 7.5818518170628177 Zr
atom 7.4246054539073141 7.4246054539074819 7.5818518170628124 Zr
atom 2.4748684846351883 2.4748684846354281 -0.1038403510878169 S
atom 7.4246054804857371 2.4748684580563070 -0.1038403510879508 S
atom 2.4748684580563269 7.4246054804859920 -0.1038403510880386 S
atom 7.4246054539072395 7.4246054539075921 -0.1038403510881009 S
atom 2.4748684846350670 2.4748684846352651 5.0442718443132550 S
atom 7.4246054804858534 2.4748684580568763 5.0442718443132648 S
atom 2.4748684580563598 7.4246054804861688 5.0442718443132666 S
atom 7.4246054539072626 7.4246054539071995 5.0442718443132222 S
atom 2.0446423461057308 -0.0000059810275329 2.5338043722536110 S
atom 7.8548316455940164 0.0000059278683860 2.5338043722540244 S
atom 2.9050946231644699 4.9497429502980301 2.5338043722537762 S
atom 6.9943793153777039 4.9497309882448270 2.5338043722534889 S
atom 3.0113620016723557 0.0000001029958310 7.6040338715508717 S
atom 6.8881119900273946 -0.0000001561547481 7.6040338715506799 S
atom 1.9383749675977697 4.9497368662748995 7.6040338715507847 S
atom 7.9610989709447519 4.9497370722680225 7.6040338715509579 S
atom 0.0000059544467624 2.9050946497434356 2.5338043722533454 S
atom 4.9497310148232012 2.0446423195272496 2.5338043722535222 S
atom -0.0000060076064439 6.9943793419565612 2.5338043722535981 S
atom 4.9497429237190786 7.8548316190158394 2.5338043722536279 S
atom -0.0000001295763102 1.9383749941767072 7.6040338715506630 S
atom 4.9497370988464313 3.0113619750939637 7.6040338715508913 S
atom 0.0000000764168992 7.9610989975237016 7.6040338715507279 S
atom 4.9497368396958361 6.8881119634490267 7.6040338715506781 S
atom -0.0000000000009469 -0.0000000000006889 10.1585195762439131 Ba
atom 4.9497369958499267 -0.0000000265794307 10.1585195762438705 Ba
atom -0.0000000265795832 4.9497369958501203 10.1585195762439877 Ba
atom 4.9497369692712585 4.9497369692714308 10.1585195762439842 Ba
atom -0.0000000000007866 -0.0000000000010551 15.2659100885352270 Ba
atom 4.9497369958500466 -0.0000000265794082 15.2659100885355610 Ba
atom -0.0000000265795030 4.9497369958503254 15.2659100885355290 Ba
atom 4.9497369692712851 4.9497369692715933 15.2659100885354846 Ba
atom 2.4748684846351754 2.4748684846353139 12.7010005291417052 Zr
atom 7.4246054804860684 2.4748684580566143 12.7010005291419166 Zr
atom 2.4748684580565024 7.4246054804862123 12.7010005291418153 Zr
atom 7.4246054539073461 7.4246054539075601 12.7010005291418224 Zr
atom 2.4748684846351385 2.4748684846353011 17.8196683405744842 Zr
atom 7.4246054804860560 2.4748684580566680 17.8196683405745588 Zr
atom 2.4748684580565428 7.4246054804862371 17.8196683405745873 Zr
atom 7.4246054539074251 7.4246054539075885 17.8196683405744629 Zr
atom 2.4748684846349724 2.4748684846353499 10.1536868677804115 S
atom 7.4246054804860266 2.4748684580563931 10.1536868677804737 S
atom 2.4748684580565041 7.4246054804861856 10.1536868677806851 S
atom 7.4246054539072528 7.4246054539077511 10.1536868677803813 S
atom 2.4748684846353526 2.4748684846354800 15.2642165138488703 S
atom 7.4246054804857700 2.4748684580567510 15.2642165138488650 S
atom 2.4748684580564988 7.4246054804860897 15.2642165138489752 S
atom 7.4246054539073754 7.4246054539073514 15.2642165138489183 S
atom 1.9392820881562560 -0.0000000065164209 12.7132293348084975 S
atom 7.9601919035437740 -0.0000000466425293 12.7132293348086947 S
atom 3.0104548811141374 4.9497369757871539 12.7132293348086538 S
atom 6.8890190574283752 4.9497369627558356 12.7132293348087106 S
atom 3.0103950197424760 -0.0000000132804460 17.8196683405745127 S
atom 6.8890789719575203 -0.0000000398785873 17.8196683405743954 S
atom 1.9393419495279749 4.9497369825510544 17.8196683405746157 S
atom 7.9601319890146431 4.9497369559919111 17.8196683405744594 S
atom -0.0000000200639667 3.0104549076929867 12.7132293348088492 S
atom 4.9497369893343208 1.9392820615776829 12.7132293348085543 S
atom -0.0000000330953715 6.8890190840073000 12.7132293348083731 S
atom 4.9497369492083187 7.9601918769654407 12.7132293348088083 S
atom -0.0000000133000109 1.9393419761067656 17.8196683405741787 S
atom 4.9497369825703794 3.0103949931638634 17.8196683405744345 S
atom -0.0000000398592051 7.9601320155934552 17.8196683405741823 S
atom 4.9497369559721642 6.8890789453788726 17.8196683405745624 S
atom -0.0000000000008647 -0.0000000000005567 20.3734265926133098 Ba
atom 4.9497369958501798 -0.0000000265794691 20.3734265926134874 Ba
atom -0.0000000265797167 4.9497369958502651 20.3734265926134412 Ba
atom 4.9497369692712221 4.9497369692712230 20.3734265926133027 Ba
atom -0.0000000000009095 -0.0000000000008605 25.4808171049055119 Ba
atom 4.9497369958500279 -0.0000000265793287 25.4808171049051992 Ba
atom -0.0000000265793391 4.9497369958501292 25.4808171049055545 Ba
atom 4.9497369692715925 4.9497369692715276 25.4808171049048369 Ba
atom 2.4748684846351736 2.4748684846353175 22.9383361520074338 Zr
atom 7.4246054804861688 2.4748684580567182 22.9383361520072597 Zr
atom 2.4748684580564491 7.4246054804862407 22.9383361520071531 Zr
atom 7.4246054539074171 7.4246054539076907 22.9383361520075688 Zr
atom 2.4748684846351767 2.4748684846352371 28.0574848640866747 Zr
atom 7.4246054804860346 2.4748684580566098 28.0574848640862520 Zr
atom 2.4748684580564451 7.4246054804861439 28.0574848640865362 Zr
atom 7.4246054539073310 7.4246054539075557 28.0574848640866250 Zr
atom 2.4748684846351536 2.4748684846352860 20.3751201672999400 S
atom 7.4246054804860835 2.4748684580566023 20.3751201672997553 S
atom 2.4748684580565450 7.4246054804862514 20.3751201673000431 S
atom 7.4246054539073532 7.4246054539076543 20.3751201672999969 S
atom 2.4748684846350781 2.4748684846353668 25.4856498133686884 S
atom 7.4246054804859760 2.4748684580565281 25.4856498133687559 S
atom 2.4748684580563398 7.4246054804860790 25.4856498133688021 S
atom 7.4246054539072759 7.4246054539077093 25.4856498133687914 S
atom 1.9392820881562753 -0.0000000065164289 22.9261073463403484 S
atom 7.9601919035438504 -0.0000000466423218 22.9261073463402170 S
atom 3.0104548811142644 4.9497369757871841 22.9261073463402454 S
atom 6.8890190574283920 4.9497369627557326 22.9261073463404479 S
atom 3.0113620016725986 0.0000001029957824 28.0353028095983916 S
atom 6.8881119900272560 -0.0000001561547495 28.0353028095981394 S
atom 1.9383749675977329 4.9497368662748480 28.0353028095986261 S
atom 7.9610989709446764 4.9497370722680936 28.0353028095980612 S
atom -0.0000000200640100 3.0104549076931413 22.9261073463405936 S
atom 4.9497369893343786 1.9392820615776249 22.9261073463403235 S
atom -0.0000000330953628 6.8890190840071828 22.9261073463403768 S
atom 4.9497369492083498 7.9601918769653848 22.9261073463404941 S
atom -0.0000001295762707 1.9383749941765245 28.0353028095982495 S
atom 4.9497370988464100 3.0113619750941121 28.0353028095979440 S
atom 0.0000000764168271 7.9610989975237221 28.0353028095984271 S
atom 4.9497368396959081 6.8881119634487344 28.0353028095982388 S
atom -0.0000000000005673 -0.0000000000006989 30.5689022034919446 Ba
atom 4.9497369958498476 -0.0000000265795714 30.5689022034915503 Ba
atom -0.0000000265798373 4.9497369958501007 30.5689022034918736 Ba
atom 4.9497369692710755 4.9497369692712914 30.5689022034916995 Ba
atom -0.0000000000014325 -0.0000000000007138 35.4780180684191535 Ba
atom 4.9497369958495332 -0.0000000265794809 35.4780180684186277 Ba
atom -0.0000000265798161 4.9497369958501372 35.4780180684195514 Ba
atom 4.9497369692710782 4.9497369692709787 35.4780180684190327 Ba
atom 2.4748684846350386 2.4748684846353131 33.1995937612959224 Zr
atom 7.4246054804859538 2.4748684580566445 33.1995937612958514 Zr
atom 2.4748684580564344 7.4246054804860613 33.1995937612959011 Zr
atom 7.4246054539073230 7.4246054539074970 33.1995937612956524 Zr
atom 2.4748684846351341 2.4748684846349471 30.5950648368365208 S
atom 7.4246054804861519 2.4748684580568900 30.5950648368363574 S
atom 2.4748684580564237 7.4246054804864077 30.5950648368366132 S
atom 7.4246054539072235 7.4246054539072635 30.5950648368364178 S
atom 2.4748684846353401 2.4748684846354934 35.7431770322375684 S
atom 7.4246054804857442 2.4748684580563318 35.7431770322375755 S
atom 2.4748684580565317 7.4246054804859556 35.7431770322371989 S
atom 7.4246054539073025 7.4246054539078656 35.7431770322375542 S
atom 2.0446423461059666 -0.0000059810274850 33.1055323088965636 S
atom 7.8548316455940554 0.0000059278684316 33.1055323088951994 S
atom 2.9050946231645511 4.9497429502978889 33.1055323088959952 S
atom 6.9943793153777563 4.9497309882448119 33.1055323088962012 S
atom 0.0000059544468412 2.9050946497432699 33.1055323088961444 S
atom 4.9497310148232510 2.0446423195272931 33.1055323088960023 S
atom -0.0000060076063901 6.9943793419567415 33.1055323088964002 S
atom 4.9497429237191994 7.8548316190155747 33.1055323088959383 S
atom 2.4748684846348521 2.4748684846348201 38.8554555808218893 Ba
atom 7.4246054804858108 2.4748684580559512 38.8554555808217046 Ba
atom 2.4748684580562563 7.4246054804860009 38.8554555808214914 Ba
atom 7.4246054539071729 7.4246054539076036 38.8554555808214914 Ba
atom 2.4748684846347806 2.4748684846348916 43.7645714457498514 Ba
atom 7.4246054804856270 2.4748684580565570 43.7645714457497874 Ba
atom 2.4748684580562599 7.4246054804860249 43.7645714457496879 Ba
atom 7.4246054539069926 7.4246054539073327 43.7645714457500929 Ba
atom 4.9497369692709272 4.9497369692712478 41.1338798879456036 Zr
atom 9.8994739651218140 4.9497369426925015 41.1338798879462928 Zr
atom 4.9497369426922653 9.8994739651221408 41.1338798879453904 Zr
atom 9.8994739385431707 9.8994739385433430 41.1338798879455680 Zr
atom 4.9497369692706616 4.9497369692710258 46.2759887851541336 Zr
atom 9.8994739651216364 4.9497369426924100 46.2759887851542899 Zr
atom 4.9497369426918842 9.8994739651220236 46.2759887851535225 Zr
atom 9.8994739385429114 9.8994739385433785 46.2759887851540128 Zr
atom 4.9497369692707283 4.9497369692709832 38.5902966170035668 S
atom 9.8994739651216044 4.9497369426926188 38.5902966170038297 S
atom 4.9497369426923274 9.8994739651222297 38.5902966170042703 S
atom 9.8994739385430268 9.8994739385433537 38.5902966170043555 S
atom 4.9497369692709583 4.9497369692716040 43.7384088124048631 S
atom 9.8994739651217429 4.9497369426925388 43.7384088124046286 S
atom 4.9497369426919553 9.8994739651218389 43.7384088124046500 S
atom 9.8994739385432506 9.8994739385436432 43.7384088124047921 S
atom 4.5195108307414822 2.4748625036085161 41.2279413403459216 S
atom 10.3297001302297069 2.4748744125043021 41.2279413403452679 S
atom 5.3799631077999681 7.4246114349339427 41.2279413403447634 S
atom 9.4692478000135836 7.4245994728807254 41.2279413403456303 S
atom 5.4862304863080924 2.4748685876316769 46.2981708396429568 S
atom 9.3629804746630523 2.4748683284812838 46.2981708396428218 S
atom 4.4132434522334538 7.4246053509106185 46.2981708396432481 S
atom 10.4359674555802417 7.4246055569037885 46.2981708396420046 S
atom 2.4748744390827420 5.3799631343791301 41.2279413403455308 S
atom 7.4245994994589939 4.5195108041634224 41.2279413403452466 S
atom 2.4748624770295002 9.4692478265928397 41.2279413403452750 S
atom 7.4246114083549388 10.3297001036515557 41.2279413403460069 S
atom 2.4748683550593569 4.4132434788124293 46.2981708396428289 S
atom 7.4246055834823492 5.4862304597297680 46.2981708396427365 S
atom 2.4748685610525825 10.4359674821594144 46.2981708396433476 S
atom 7.4246053243315639 9.3629804480846701 46.2981708396430491 S
atom 2.4748684846347246 2.4748684846353126 48.8526565443363410 Ba
atom 7.4246054804853188 2.4748684580561604 48.8526565443354741 Ba
atom 2.4748684580557145 7.4246054804860817 48.8526565443357299 Ba
atom 7.4246054539065867 7.4246054539070432 48.8526565443356873 Ba
atom 2.4748684846345044 2.4748684846348010 53.9600470566283121 Ba
atom 7.4246054804858401 2.4748684580564428 53.9600470566281487 Ba
atom 2.4748684580558438 7.4246054804859591 53.9600470566282482 Ba
atom 7.4246054539071400 7.4246054539073603 53.9600470566274097 Ba
atom 4.9497369692706972 4.9497369692710276 51.3951374972333923 Zr
atom 9.8994739651216115 4.9497369426925886 51.3951374972330939 Zr
atom 4.9497369426920423 9.8994739651219774 51.3951374972337689 Zr
atom 9.8994739385428918 9.8994739385436361 51.3951374972340886 Zr
atom 4.9497369692707078 4.9497369692710871 56.5138053086665195 Zr
atom 9.8994739651215138 4.9497369426924420 56.5138053086660221 Zr
atom 4.9497369426920477 9.8994739651219792 56.5138053086664627 Zr
atom 9.8994739385428581 9.8994739385432275 56.5138053086664129 Zr
atom 4.9497369692708189 4.9497369692709414 48.8478238358719921 S
atom 9.8994739651220023 4.9497369426924029 48.8478238358721129 S
atom 4.9497369426921898 9.8994739651222527 48.8478238358723615 S
atom 9.8994739385430250 9.8994739385435775 48.8478238358722763 S
atom 4.9497369692709592 4.9497369692710915 53.9583534819407760 S
atom 9.8994739651216275 4.9497369426925957 53.9583534819416641 S
atom 4.9497369426922058 9.8994739651219170 53.9583534819419341 S
atom 9.8994739385429771 9.8994739385432151 53.9583534819416712 S
atom 4.4141505727917236 2.4748684781192143 51.4073663029021901 S
atom 10.4350603881793305 2.4748684379935204 51.4073663029009964 S
atom 5.4853233657498111 7.4246054604230078 51.4073663029012593 S
atom 9.3638875420638357 7.4246054473917127 51.4073663029003640 S
atom 5.4852635043781106 2.4748684713554110 56.5138053086669743 S
atom 9.3639474565931433 2.4748684447572078 56.5138053086672301 S
atom 4.4142104341633157 7.4246054671867983 56.5138053086672798 S
atom 10.4350004736503301 7.4246054406275732 56.5138053086671306 S
atom 2.4748684645715242 5.4853233923287625 51.4073663029011101 S
atom 7.4246054739701490 4.4141505462132962 51.4073663029002716 S
atom 2.4748684515401713 9.3638875686429337 51.4073663029007761 S
atom 7.4246054338439542 10.4350603616013355 51.4073663029005274 S
atom 2.4748684713355744 4.4142104607425567 56.5138053086668535 S
atom 7.4246054672059625 5.4852634777997960 56.5138053086665977 S
atom 2.4748684447763378 10.4350005002291102 56.5138053086666403 S
atom 7.4246054406078157 9.3639474300145391 56.5138053086665977 S
atom 2.4748684846349578 2.4748684846348432 59.0675635607053806 Ba
atom 7.4246054804853721 2.4748684580560614 59.0675635607065033 Ba
atom 2.4748684580560010 7.4246054804857726 59.0675635607062475 Ba
atom 7.4246054539065769 7.4246054539072839 59.0675635607053238 Ba
atom 2.4748684846345896 2.4748684846352176 64.1749540729974797 Ba
atom 7.4246054804853356 2.4748684580567630 64.1749540729967265 Ba
atom 2.4748684580565223 7.4246054804857646 64.1749540729973802 Ba
atom 7.4246054539068522 7.4246054539070609 64.1749540729976360 Ba
atom 4.9497369692706688 4.9497369692711608 61.6324731200997036 Zr
atom 9.8994739651216950 4.9497369426923346 61.6324731200988012 Zr
atom 4.9497369426921285 9.8994739651220485 61.6324731200993412 Zr
atom 9.8994739385431156 9.8994739385432506 61.6324731200992204 Zr
atom 4.9497369692708091 4.9497369692711830 66.7516218321782162 Zr
atom 9.8994739651219064 4.9497369426924323 66.7516218321783299 Zr
atom 4.9497369426921631 9.8994739651219561 66.7516218321784010 Zr
atom 9.8994739385433324 9.8994739385431600 66.7516218321787562 Zr
atom 4.9497369692707220 4.9497369692712105 59.0692571353922489 S
atom 9.8994739651218140 4.9497369426926765 59.0692571353927676 S
atom 4.9497369426920699 9.8994739651221053 59.0692571353927036 S
atom 9.8994739385426698 9.8994739385432382 59.0692571353922915 S
atom 4.9497369692710889 4.9497369692712470 64.1797867814612601 S
atom 9.8994739651215138 4.9497369426925415 64.1797867814615870 S
atom 4.9497369426919464 9.8994739651221799 64.1797867814617433 S
atom 9.8994739385432755 9.8994739385434869 64.1797867814615302 S
atom 4.4141505727914314 2.4748684781194643 61.6202443144325116 S
atom 10.4350603881796555 2.4748684379933841 61.6202443144320995 S
atom 5.4853233657499114 7.4246054604230460 61.6202443144328242 S
atom 9.3638875420638232 7.4246054473915830 61.6202443144319787 S
atom 5.4862304863077691 2.4748685876314913 66.7294397776887251 S
atom 9.3629804746635177 2.4748683284809783 66.7294397776898904 S
atom 4.4132434522334254 7.4246053509107330 66.7294397776903025 S
atom 10.4359674555804780 7.4246055569040292 66.7294397776900041 S
atom 2.4748684645718271 5.4853233923290592 61.6202443144331511 S
atom 7.4246054739697218 4.4141505462132891 61.6202443144324192 S
atom 2.4748684515403858 9.3638875686430669 61.6202443144329308 S
atom 7.4246054338438237 10.4350603616012787 61.6202443144331866 S
atom 2.4748683550595501 4.4132434788123618 66.7294397776885688 S
atom 7.4246055834821227 5.4862304597295086 66.7294397776896773 S
atom 2.4748685610527037 10.4359674821593558 66.7294397776906294 S
atom 7.4246053243316155 9.3629804480850787 66.7294397776906862 S
atom 2.4748684846355791 2.4748684846350235 69.2630391715817950 Ba
atom 7.4246054804861590 2.4748684580560507 69.2630391715813971 Ba
atom 2.4748684580556186 7.4246054804857984 69.2630391715835998 Ba
atom 7.4246054539071924 7.4246054539072857 69.2630391715824345 Ba
atom 2.4748684846337583 2.4748684846356448 74.1721550365108158 Ba
atom 7.4246054804851198 2.4748684580566649 74.1721550365109721 Ba
atom 2.4748684580558873 7.4246054804860622 74.1721550365106737 Ba
atom 7.4246054539068140 7.4246054539071498 74.1721550365108584 Ba
atom 4.9497369692709219 4.9497369692711910 71.8937307293864762 Zr
atom 9.8994739651215902 4.9497369426923568 71.8937307293862347 Zr
atom 4.9497369426921294 9.8994739651221497 71.8937307293869310 Zr
atom 9.8994739385429398 9.8994739385436432 71.8937307293859504 Zr
atom 4.9497369692702584 4.9497369692710134 69.2892018049278988 S
atom 9.8994739651220289 4.9497369426931215 69.2892018049280267 S
atom 4.9497369426919784 9.8994739651224464 69.2892018049291778 S
atom 9.8994739385429007 9.8994739385427621 69.2892018049285241 S
atom 4.9497369692716084 4.9497369692718616 74.4373140003293798 S
atom 9.8994739651212349 4.9497369426917404 74.4373140003287688 S
atom 4.9497369426922759 9.8994739651214605 74.4373140003295930 S
atom 9.8994739385433128 9.8994739385441868 74.4373140003287830 S
atom 4.5195108307414209 2.4748625036086005 71.7996692769870606 S
atom 10.3297001302303180 2.4748744125043762 71.7996692769849005 S
atom 5.3799631078004815 7.4246114349337802 71.7996692769859806 S
atom 9.4692478000136902 7.4245994728806215 71.7996692769868474 S
atom 2.4748744390826718 5.3799631343792269 71.7996692769859663 S
atom 7.4245994994590818 4.5195108041627279 71.7996692769855542 S
atom 2.4748624770293812 9.4692478265923068 71.7996692769877001 S
atom 7.4246114083549601 10.3297001036519749 71.7996692769864779 S
