#=======================================================
# FHI-aims file: full_relax/full_relax_RP_1_Rx1Ry20_-Rx2-Ry10.in
# Created using the Atomic Simulation Environment (ASE)
# Fri Mar 14 11:17:02 2025
#=======================================================
lattice_vector 10.1084168178382434 -0.0003424470435912 -0.0000000000001287 
lattice_vector -0.0003424470435885 10.1084168178382221 -0.0000000000001367 
lattice_vector -0.0000000000002155 -0.0000000000002283 15.5284515653324355 
atom -0.1566560260600138 0.0001107643219732 0.2395013433619739 Ba
atom 5.2108644349762567 -0.0002819878535022 0.2395013433612439 Ba
atom 0.1564848025174173 5.0540976445934680 0.2395013433363555 Ba
atom 4.8973811593541097 5.0541479497271009 0.2395013433502871 Ba
atom 0.1566560260003166 -0.0001107643507629 4.6131397707823902 Ba
atom 4.8975523829168814 -0.0000604592082796 4.6131397708026043 Ba
atom -0.1568272495442156 5.0543191732678245 4.6131397708215509 Ba
atom 5.2106932114178770 5.0539264210794430 4.6131397708015189 Ba
atom 2.5270185927515376 2.5270185928700588 2.4263205570783812 Zr
atom 7.5812270016093031 2.5268473691063380 2.4263205570420445 Zr
atom 2.5268473692533089 7.5812270016801921 2.4263205570656652 Zr
atom 7.5810557781908097 7.5810557783397101 2.4263205571208450 Zr
atom 2.5268118165110622 2.8450193028585584 -0.1070474135842793 S
atom 7.5814337778118031 2.2088466590909484 -0.1070474135738629 S
atom 2.5270541453893585 7.2632262915153358 -0.1070474136072717 S
atom 7.5808490019251389 7.8990564882348071 -0.1070474136022954 S
atom 2.5272253688926827 2.2090178825990794 4.9596885277629426 S
atom 7.5810202254361352 2.8448480793440436 4.9596885277546408 S
atom 2.5266405930089992 7.8992277117943903 4.9596885277811920 S
atom 7.5812625543069974 7.2630550679703578 4.9596885277509610 S
atom 2.5271042044896297 -0.0000856118950424 2.1155427372800300 S
atom 7.5813126134063280 -0.0002568354556475 2.7370983768884987 S
atom 2.5269329809594230 5.0541227967841120 2.7370983768905308 S
atom 7.5811413898873603 5.0539515734097415 2.1155427372698603 S
atom -0.0000856117628848 2.5271042045366503 2.4265063544653369 S
atom 5.0541227970735303 2.5269329810095211 2.4261347597162071 S
atom -0.0002568353814318 7.5813126134336715 2.4261347597107812 S
atom 5.0539515733893765 7.5811413899148086 2.4265063544561065 S
atom 2.5269078283615598 2.6836746187461973 8.0037271260317961 Ba
atom 7.5813377659660279 2.3701913431585195 8.0037271260994149 Ba
atom 2.5269581335176947 7.4245709755727640 8.0037271260496148 Ba
atom 7.5809450137545520 7.7377118041069917 8.0037271261134411 Ba
atom 2.5271293570036972 2.3703625666495833 12.3773655534850686 Ba
atom 7.5811162373061540 2.6835033951842533 12.3773655534216367 Ba
atom 2.5267366048505364 7.7378830276573938 12.3773655534536875 Ba
atom 7.5811665424267716 7.4243997520899123 12.3773655533879374 Ba
atom 5.0540371854331623 5.0540371855823070 10.1905463397572067 Zr
atom 10.1082455939621827 5.0538659620701925 10.1905463397338991 Zr
atom 5.0538659619744486 10.1082455941255773 10.1905463398105631 Zr
atom 10.1080743703873477 10.1080743709070777 10.1905463398804876 Zr
atom 4.7360364751943473 5.0542439615613040 7.6571783690200066 S
atom 10.4262463044267868 5.0536591857141806 7.6571783689621844 S
atom 5.3718666719268198 10.1080388181448519 7.6571783689523745 S
atom 9.7900736606463781 10.1082811470315175 7.6571783689767887 S
atom 5.3720378954541204 5.0538304091826456 12.7239143104938819 S
atom 9.7902448841635970 5.0540727380980144 12.7239143105429910 S
atom 4.7358652516735100 10.1084523705239864 12.7239143104662489 S
atom 10.4260750809155329 10.1078675946505907 12.7239143104247230 S
atom 5.0541227970178726 2.5269329809212611 10.1903605423716481 S
atom 10.1083312060119468 2.5267617571037309 10.1907321371115156 S
atom 5.0539515734959783 7.5811413898838600 10.1907321371185819 S
atom 10.1081599824929587 7.5809701660084787 10.1903605423685519 S
atom 2.5269329813190984 5.0541227971850686 10.5013241595733362 S
atom 7.5811413901721174 5.0539515736588454 9.8797685199353218 S
atom 2.5267617578136226 10.1083312061420258 9.8797685199079357 S
atom 7.5809701666168516 10.1081599826182149 10.5013241595419835 S
