#=======================================================
# FHI-aims file: full_relax/full_relax_RP_9_RxRyMz_-Rx-RyMz.in
# Created using the Atomic Simulation Environment (ASE)
# Mon Mar 24 18:00:23 2025
#=======================================================
lattice_vector 10.0095667897571055 -0.0740379734221954 0.0000000000000012 
lattice_vector -0.0740379734222060 10.0095667897571783 -0.0000000000000001 
lattice_vector 0.0000000000000120 -0.0000000000000008 95.9673783253935966 
atom 0.1383333688554255 -0.1711066758878002 0.2108557906886951 Ba
atom 5.1758900707634341 -0.1753523555693147 0.2108557906892232 Ba
atom 0.1340876891739844 4.8664500260203338 0.2108557906888279 Ba
atom 5.1060977770227485 4.7966577322796686 0.2108557906889644 Ba
atom -0.2694925261926206 0.1916598905192899 5.0056229606688953 Ba
atom 4.8131235043563008 0.2324735394789573 5.0056229606689069 Ba
atom -0.2286788772329603 5.2742759210687318 5.0056229606689175 Ba
atom 4.6982718819744340 5.1594242986868721 5.0056229606689406 Ba
atom 2.4997972848648340 2.4760804103021288 2.3962465159332145 Zr
atom 7.4964673927412271 2.4309481365885439 2.3962465159329409 Zr
atom 2.4546650111512438 7.4727505181783087 2.3962465159334281 Zr
atom 7.4675616930325566 7.4438448184697048 2.3962465159331638 Zr
atom 2.4723119088615264 2.4903048973815638 7.4501678803082498 Zr
atom 7.4822429056618569 2.4584335125922721 7.4501678803086868 Zr
atom 2.4404405240722515 7.5002358941817144 7.4501678803082330 Zr
atom 7.4400763170289927 7.4580693055488325 7.4501678803086673 Zr
atom 2.6575392796638933 2.7361296362871008 -0.1108316417829790 S
atom 7.2364181667560663 2.2732061417897977 -0.1108316417825206 S
atom 2.1946157851664436 7.3150085233794400 -0.1108316417830844 S
atom 7.6253036878311775 7.7038940444545432 -0.1108316417828162 S
atom 2.2307621205893375 2.1805467793978277 4.9571891867328439 S
atom 7.7920010236454322 2.6999833008642709 4.9571891867326414 S
atom 2.7501986420559046 7.7417856824539450 4.9571891867326032 S
atom 7.1985265287567852 7.1483111875652883 4.9571891867322906 S
atom 2.7939936042310887 -0.0165401584172385 2.2234789634324961 S
atom 7.1740289719988821 -0.0506413686576948 2.7759267393241163 S
atom 2.1322265904091458 4.9911610129320323 2.7759267393240763 S
atom 7.7617580123983032 4.9512242497503323 2.2234789634326377 S
atom 2.8939345890609172 -0.0165169081403726 7.7841078518061115 S
atom 7.1197777703924556 -0.0504520105411397 7.1608622174751444 S
atom 2.0779753888027628 4.9913503710478810 7.1608622174751542 S
atom 7.8616989972282854 4.9512475000264855 7.7841078518060494 S
atom -0.0204788282974437 2.2107897906449279 2.2234789634325951 S
atom 4.9813867901119488 2.7985188310444631 2.7759267393241447 S
atom -0.0604155914788854 7.8403212126341169 2.7759267393241838 S
atom 4.9472855798713242 7.1785541988122574 2.2234789634325307 S
atom -0.0205020785736090 2.1108488058150261 7.7841078518060973 S
atom 4.9811974319956827 2.8527700326508394 7.1608622174751320 S
atom -0.0606049495945618 7.8945724142406384 7.1608622174750947 S
atom 4.9472623295943770 7.0786132139824804 7.7841078518061009 S
atom 0.2836044317944466 -0.1823218290009800 9.9788756210680756 Ba
atom 5.1871052238768112 -0.3206234185082097 9.9788756210680738 Ba
atom 0.1453028422872469 4.7211789630815817 9.9788756210680454 Ba
atom 5.2513688399618133 4.7854425791666024 9.9788756210680791 Ba
atom -0.2856855253022956 0.1824197251913132 14.9818696279115926 Ba
atom 4.8223636696848953 0.2486665385884384 14.9818696279115908 Ba
atom -0.2194387119052544 5.2904689201781405 14.9818696279116619 Ba
atom 4.6820788828655378 5.1501841333588567 14.9818696279116317 Ba
atom 2.4882004049345317 2.4825905483948625 12.4666257904422473 Zr
atom 7.4899572546485329 2.4425450165192490 12.4666257904429827 Zr
atom 2.4481548730589062 7.4843473981090236 12.4666257904422082 Zr
atom 7.4559648131018381 7.4503549565623901 12.4666257904429099 Zr
atom 2.4818917767049959 2.4847741413421596 17.4802150087785613 Zr
atom 7.4877736617014454 2.4488536447488958 17.4802150087788526 Zr
atom 2.4459712801117481 7.4906560263383684 17.4802150087786714 Zr
atom 7.4496561848725014 7.4525385495094474 17.4802150087788171 Zr
atom 2.7471376649292458 2.8134803111782394 9.9696428429201305 S
atom 7.1590674918650956 2.1836077565245078 9.9696428429195301 S
atom 2.1172651102754592 7.2254101381142046 9.9696428429203596 S
atom 7.7149020730966802 7.7812447193457723 9.9696428429200772 S
atom 2.2168103165002266 2.1522682674305758 14.9789117440963651 S
atom 7.8202795356129746 2.7139351049535367 14.9789117440954556 S
atom 2.7784771540232001 7.7557374865432847 14.9789117440961768 S
atom 7.1845747246676570 7.1200326755980301 14.9789117440952637 S
atom 2.8875877927982891 -0.0206341406909578 12.1605021654374568 S
atom 7.1217340594304641 -0.0549856628473544 12.7999181116189522 S
atom 2.0799316778408561 4.9868167187424124 12.7999181116189629 S
atom 7.8553522009657835 4.9471302674765711 12.1605021654374319 S
atom 2.8865009910293637 -0.0190610054838398 17.8070564354381737 S
atom 7.1221393539306899 -0.0534166036258353 17.1637332585582314 S
atom 2.0803369723413048 4.9883857779635141 17.1637332585583060 S
atom 7.8542653991970051 4.9487034026832752 17.8070564354382377 S
atom -0.0163848460226407 2.1171956020776590 12.1605021654374141 S
atom 4.9857310843009053 2.8508137436129730 12.7999181116190162 S
atom -0.0560712972884481 7.8926161252026139 12.7999181116189824 S
atom 4.9513795621445791 7.0849600102451209 12.1605021654374355 S
atom -0.0179579812286534 2.1182824038465506 17.8070564354382448 S
atom 4.9841620250788718 2.8504084491126358 17.1637332585582705 S
atom -0.0576403565088189 7.8922108307023517 17.1637332585581390 S
atom 4.9498064269368065 7.0860468120140929 17.8070564354382412 S
atom 0.2856778395529317 -0.1813661387247022 19.9882950938901942 Ba
atom 5.1861495336009922 -0.3226968262668701 19.9882950938901978 Ba
atom 0.1443471520107220 4.7191055553229342 19.9882950938902049 Ba
atom 5.2534422477208915 4.7863982694428717 19.9882950938902262 Ba
atom -0.2856778395550608 0.1813661387215009 24.9964134961779365 Ba
atom 4.8234172561547428 0.2486588528415441 24.9964134961780005 Ba
atom -0.2183851254349982 5.2904612344309117 24.9964134961779116 Ba
atom 4.6820865686124149 5.1491305468886841 24.9964134961779685 Ba
atom 2.4838822040827440 2.4838822040823318 22.4923542950335289 Zr
atom 7.4886655989613020 2.4468632173713574 22.4923542950329889 Zr
atom 2.4468632173717220 7.4886655989605471 22.4923542950331665 Zr
atom 7.4516466122501717 7.4516466122495002 22.4923542950323672 Zr
atom 2.4858726314605359 2.4829902668222488 27.5044935812923512 Zr
atom 7.4895575362211773 2.4448727899933740 27.5044935812916265 Zr
atom 2.4477551546315577 7.4866751715830624 27.5044935812926639 Zr
atom 7.4536370396278100 7.4507546749897591 27.5044935812921523 Zr
atom 2.7511989948227096 2.8171114170439657 19.9879399581794281 S
atom 7.1554363859993177 2.1795464266310778 19.9879399581797088 S
atom 2.1136340044098754 7.2213488082208510 19.9879399581796378 S
atom 7.7189634029902239 7.7848758252115449 19.9879399581804122 S
atom 2.2165654133427006 2.1506529911201517 24.9967686318877931 S
atom 7.8218948119233591 2.7141800081111556 24.9967686318884503 S
atom 2.7800924303337200 7.7559823897008267 24.9967686318879494 S
atom 7.1843298215100440 7.1184173992876847 24.9967686318885320 S
atom 2.8867889180184836 -0.0198252754809730 22.1703096000796016 S
atom 7.1227778717366110 -0.0542126979449705 22.8143989899888844 S
atom 2.0809754901470554 4.9875896836452513 22.8143989899887956 S
atom 7.8545533261860285 4.9479391326870008 22.1703096000796513 S
atom 2.8874274358243444 -0.0206213697995576 27.8209753315093344 S
atom 7.1230657987257011 -0.0549769679420216 27.1776521546293850 S
atom 2.0812634171359781 4.9868254136484449 27.1776521546293210 S
atom 7.8551918439917445 4.9471430383686394 27.8209753315092669 S
atom -0.0171937112319354 2.1179944768574326 22.1703096000795519 S
atom 4.9849581193975609 2.8497699313068368 22.8143989899888204 S
atom -0.0568442621911165 7.8915723128965114 22.8143989899888915 S
atom 4.9505706969344754 7.0857588850250739 22.1703096000796336 S
atom -0.0163976169141356 2.1173559590516593 27.8209753315092740 S
atom 4.9857223893950522 2.8494820043178324 27.1776521546293424 S
atom -0.0560799921946991 7.8912843859074462 27.1776521546292891 S
atom 4.9513667912534638 7.0851203672191998 27.8209753315093415 S
atom 0.2856855253003515 -0.1824197251947215 30.0028389621564990 Ba
atom 5.1872031200705067 -0.3227045120138267 30.0028389621564884 Ba
atom 0.1454007384811880 4.7190978695758190 30.0028389621565736 Ba
atom 5.2534499334674720 4.7853446829727666 30.0028389621565417 Ba
atom -0.2836044317960751 0.1823218289973921 35.0058329689998615 Ba
atom 4.8224615658781564 0.2465854450826085 35.0058329689999184 Ba
atom -0.2193408157109544 5.2883878266723512 35.0058329689998189 Ba
atom 4.6841599763708732 5.1500862371650999 35.0058329689998828 Ba
atom 2.4795640032307737 2.4851738597695174 32.5180827996220003 Zr
atom 7.4873739432739752 2.4511814182231650 32.5180827996218440 Zr
atom 2.4455715616844094 7.4929837998126025 32.5180827996221709 Zr
atom 7.4473284113982148 7.4529382679367595 32.5180827996219008 Zr
atom 2.4954524993039473 2.4774595107825417 37.5345407097630641 Zr
atom 7.4950882922607622 2.4352929221501527 37.5345407097636752 Zr
atom 2.4532859106713234 7.4770953037395005 37.5345407097638315 Zr
atom 7.4632169074711863 7.4452239189498339 37.5345407097646060 Zr
atom 2.7509540916649873 2.8154961407335155 30.0057968459722204 S
atom 7.1570516623100131 2.1797913297888054 30.0057968459733857 S
atom 2.1152492807201506 7.2215937113785147 30.0057968459716307 S
atom 7.7187184998324803 7.7832605489009401 30.0057968459724265 S
atom 2.2206267432360551 2.1542840969858825 35.0150657471501248 S
atom 7.8182637060574605 2.7101186782175373 35.0150657471499187 S
atom 2.7764613244679888 7.7519210598074073 35.0150657471497837 S
atom 7.1883911514036125 7.1220485051534341 35.0150657471498263 S
atom 2.8878327303247753 -0.0190523105777812 32.1847904784499406 S
atom 7.1219789969567078 -0.0534038327341998 32.8242064246314484 S
atom 2.0801766153669181 4.9883985488548763 32.8242064246315692 S
atom 7.8555971384919872 4.9487120975890528 32.1847904784501324 S
atom 2.8897890193627420 -0.0235859628833004 37.8238463725925911 S
atom 7.1156322006942663 -0.0575210652847907 37.2006007382621391 S
atom 2.0738298191044535 4.9842813163039299 37.2006007382620894 S
atom 7.8575534275301298 4.9441784452830673 37.8238463725924490 S
atom -0.0179666761364526 2.1169506645513363 32.1847904784499761 S
atom 4.9841492541891581 2.8505688060866969 32.8242064246314840 S
atom -0.0576531274023598 7.8923711876765843 32.8242064246315692 S
atom 4.9497977320328141 7.0847150727188275 32.1847904784500045 S
atom -0.0134330238302507 2.1149943755132252 37.8238463725926124 S
atom 4.9882664867393549 2.8569156023491282 37.2006007382620894 S
atom -0.0535358948517813 7.8987179839390178 37.2006007382620041 S
atom 4.9543313843386407 7.0827587836805934 37.8238463725925129 S
atom 0.2694925261910368 -0.1916598905234174 39.9790856294003518 Ba
atom 5.1964432853988027 -0.3065115129051829 39.9790856294004655 Ba
atom 0.1546409038092937 4.7352908686852633 39.9790856294004087 Ba
atom 5.2372569343585020 4.7761045176448613 39.9790856294005224 Ba
atom -0.1383333688577106 0.1711066758839738 44.7738527993804567 Ba
atom 4.8336767189915149 0.1013143821438424 44.7738527993804070 Ba
atom -0.2081256625981786 5.1431167637336763 44.7738527993806130 Ba
atom 4.8294310393095099 5.1388710840517842 44.7738527993802293 Ba
atom 2.4679671233006308 2.4916839978621721 42.5884620741339432 Zr
atom 7.4808638051810785 2.4627782981538275 42.5884620741341280 Zr
atom 2.4390614235919070 7.5045806797428583 42.5884620741333109 Zr
atom 7.4357315314674457 7.4594484060287209 42.5884620741336093 Zr
atom 2.7370022875759332 2.7872176287659531 40.0275194033335779 S
atom 7.1853301742774143 2.1937431338777569 40.0275194033335282 S
atom 2.1435277926875989 7.2355455154674528 40.0275194033330521 S
atom 7.7047666957432863 7.7549820369335061 40.0275194033321497 S
atom 2.3102251285013709 2.2316347718768474 45.0955402318532492 S
atom 7.7409130311665040 2.6205202929518965 45.0955402318528797 S
atom 2.6991106495767454 7.6623226745419721 45.0955402318542298 S
atom 7.2779895366688763 7.1993991800441037 45.0955402318540379 S
atom 2.8355378177567849 -0.0233966047667961 42.2087818507450692 S
atom 7.2155731855235672 -0.0574978150066201 42.7612296266369611 S
atom 2.1737708039340560 4.9843045665797261 42.7612296266367338 S
atom 7.8033022259243552 4.9443678033976228 42.2087818507451757 S
atom -0.0136223819462826 2.1692455771189350 42.2087818507449910 S
atom 4.9882432364626546 2.7569746175195542 42.7612296266369469 S
atom -0.0535591451273893 7.7987769991094886 42.7612296266369754 S
atom 4.9541420262215485 7.1370099852862836 42.2087818507452042 S
atom 2.3455488352256491 2.6549888799677936 48.1945449533859858 Ba
atom 7.3175589230750919 2.5851965862273980 48.1945449533859289 Ba
atom 2.2757565414853329 7.6269989678170065 48.1945449533857726 Ba
atom 7.3133132433932886 7.6227532881351623 48.1945449533858508 Ba
atom 2.7533747302745057 2.2922223135608184 52.9893121233657993 Ba
atom 7.6803254894822279 2.1773706911790747 52.9893121233657851 Ba
atom 2.6385231078928100 7.2191730727678474 52.9893121233657496 Ba
atom 7.7211391384417594 7.2599867217274268 52.9893121233657354 Ba
atom 4.9518493273838988 4.9755662019456146 50.3799356786317318 Zr
atom 9.9647460092648004 4.9466605022366830 50.3799356786313837 Zr
atom 4.9229436276752416 9.9884628838260294 50.3799356786305026 Zr
atom 9.9196137355514331 9.9433306101128078 50.3799356786300763 Zr
atom 4.9793347033872681 4.9613417148664203 55.4338570430023125 Zr
atom 9.9789704963441714 4.9191751262331138 55.4338570430029236 Zr
atom 4.9371681147542166 9.9609775078226050 55.4338570430044726 Zr
atom 9.9470991115550049 9.9291061230332627 55.4338570430052755 Zr
atom 4.7941073325849777 4.7155169759600790 47.8728575209134561 S
atom 10.2247952352500722 5.1044024970355890 47.8728575209134561 S
atom 5.1829928536603100 10.1462048786252126 47.8728575209145291 S
atom 9.7618717407525715 9.6832813841279322 47.8728575209147920 S
atom 5.2208844916594330 5.2710998328494689 52.9408783494341364 S
atom 9.6692123783606281 4.6776253379609845 52.9408783494336674 S
atom 4.6274099967711440 9.7194277195508079 52.9408783494333122 S
atom 10.1886488998268590 10.2388642410167687 52.9408783494331701 S
atom 5.3194200218404033 2.4604855993142820 50.7596159020217783 S
atom 9.6994553896073299 2.4263843890731058 50.2071681261300711 S
atom 4.6576530080175687 7.4681867706657998 50.2071681261298153 S
atom 10.2871844300076898 7.4282500074845190 50.7596159020217712 S
atom 5.3736712234460615 2.4602962411985905 55.1445513801739082 S
atom 9.5995144047778371 2.4263611387971951 55.7677970145041613 S
atom 4.5577120231882118 7.4681635203884937 55.7677970145042323 S
atom 10.3414356316133009 7.4280606493679997 55.1445513801740077 S
atom 2.4702598221375651 4.6531277812021639 50.7596159020217570 S
atom 7.4721254405457769 5.2408568216030442 50.2071681261297016 S
atom 2.4303230589554174 10.2826592031926474 50.2071681261300071 S
atom 7.4380242303056239 9.6208921893699753 50.7596159020218209 S
atom 2.4704491802539170 4.5988765795965225 55.1445513801738585 S
atom 7.4721486908219630 5.3407978064324224 55.7677970145042892 S
atom 2.4303463092322386 10.3826001880219962 55.7677970145041542 S
atom 7.4382135884215117 9.5666409877642522 55.1445513801739295 S
atom 2.2002777722870146 2.6662040330804868 57.9625647837670428 Ba
atom 7.3063437699620284 2.7304676491657056 57.9625647837670712 Ba
atom 2.2645413883721610 7.7722700307557915 57.9625647837670925 Ba
atom 7.1680421804545960 7.6339684412483457 57.9625647837671067 Ba
atom 2.7695677293838097 2.3014624788885318 62.9655587906095491 Ba
atom 7.6710853241539390 2.1611776920693799 62.9655587906095704 Ba
atom 2.6292829425645357 7.2029800736590159 62.9655587906096201 Ba
atom 7.7373321375508928 7.2692268870559440 62.9655587906095633 Ba
atom 4.9634462073139165 4.9690560638525731 60.4503149531479380 Zr
atom 9.9712561473576660 4.9350636223066218 60.4503149531472275 Zr
atom 4.9294537657680877 9.9768660038961841 60.4503149531473198 Zr
atom 9.9312106154812128 9.9368204720197575 60.4503149531464317 Zr
atom 4.9697548355435073 4.9668724709052690 65.4639041714695651 Zr
atom 9.9734397403048671 4.9287549940768178 65.4639041714703751 Zr
atom 4.9316373587151556 9.9705573756667878 65.4639041714704462 Zr
atom 9.9375192437108932 9.9346368790726647 65.4639041714714836 Zr
atom 4.7045089473194412 4.6381663010690621 57.9533320056145627 S
atom 10.3021459101410642 5.1940008823010784 57.9533320056141577 S
atom 5.2603435285514850 10.2358032638907943 57.9533320056124168 S
atom 9.6722733554868423 9.6059307092364961 57.9533320056118981 S
atom 5.2348362957482077 5.2993783448166880 62.9626009067918346 S
atom 9.6409338663933823 4.6636735338721715 62.9626009067932770 S
atom 4.5991314848035207 9.7054759154618360 62.9626009067940657 S
atom 10.2026007039158628 10.2671427529842596 62.9626009067952381 S
atom 5.3717149344079180 2.4648298935066246 60.7836072743158766 S
atom 9.6058612010399287 2.4304783713498863 60.1441913281340348 S
atom 4.5640588194504064 7.4722807529369124 60.1441913281339993 S
atom 10.3394793425754496 7.4325943016716112 60.7836072743159761 S
atom 5.3713096399077935 2.4632608342832478 65.1474224212568771 S
atom 9.6069480028089789 2.4289052361408627 65.7907455981372209 S
atom 4.5651456212191777 7.4707076177320104 65.7907455981374198 S
atom 10.3390740480750356 7.4310252424522663 65.1474224212569482 S
atom 2.4659155279484875 4.6008328686347895 60.7836072743156492 S
atom 7.4680314582709686 5.3344510101700129 60.1441913281340490 S
atom 2.4262290766822532 10.3762533917599509 60.1441913281339353 S
atom 7.4336799361151025 9.5685972768020964 60.7836072743161182 S
atom 2.4674845871685238 4.6012381631349744 65.1474224212569482 S
atom 7.4696045934791648 5.3333642084011439 65.7907455981373062 S
atom 2.4278022118880358 10.3751665899907692 65.7907455981371925 S
atom 7.4352489953375551 9.5690025713025157 65.1474224212569766 S
atom 2.1982043645282348 2.6652483428041576 67.9719842565873336 Ba
atom 7.3072994602384052 2.7325410569243118 67.9719842565872767 Ba
atom 2.2654970786483388 7.7743434385144692 67.9719842565872767 Ba
atom 7.1659687726959325 7.6330127509722505 67.9719842565873620 Ba
atom 2.7695600436366599 2.3025160653580246 72.9801026588759356 Ba
atom 7.6700317376840994 2.1611853778161119 72.9801026588757935 Ba
atom 2.6282293560947037 7.2029877594062910 72.9801026588759356 Ba
atom 7.7373244518037927 7.2702804735260838 72.9801026588759640 Ba
atom 4.9677644081664738 4.9677644081655519 70.4760434577341641 Zr
atom 9.9725478030443195 4.9307454214539757 70.4760434577328851 Zr
atom 4.9307454214548336 9.9725478030438879 70.4760434577335673 Zr
atom 9.9355288163335693 9.9355288163331057 70.4760434577328709 Zr
atom 4.9657739807884882 4.9686563454253507 75.4881827439860018 Zr
atom 9.9716558657845180 4.9327358488319231 75.4881827439858171 Zr
atom 4.9298534841950010 9.9745382304215671 75.4881827439851776 Zr
atom 9.9335383889557818 9.9364207535928166 75.4881827439860871 Zr
atom 4.7004476174258016 4.6345351952032976 67.9716291208834917 S
atom 10.3057770160067914 5.1980622121943529 67.9716291208824686 S
atom 5.2639746344172407 10.2398645937842101 67.9716291208806211 S
atom 9.6682120255933270 9.6022996033706320 67.9716291208785179 S
atom 5.2350811989060482 5.3009936211270512 72.9804577945820085 S
atom 9.6393185900829526 4.6634286307144670 72.9804577945846660 S
atom 4.5975162084932597 9.7052310123040098 72.9804577945853055 S
atom 10.2028456070733800 10.2687580292946112 72.9804577945883324 S
atom 5.3706711221015979 2.4640569286043070 70.7980881526857075 S
atom 9.6066600758199954 2.4296695061413600 70.1539987627769506 S
atom 4.5648576942305548 7.4714718877261701 70.1539987627769790 S
atom 10.3384355302693933 7.4318213367669435 70.7980881526860202 S
atom 5.3703831951129430 2.4648211985981128 75.1613413173278957 S
atom 9.6060215580142927 2.4304656004564906 75.8046644942078842 S
atom 4.5642191764242721 7.4722679820478577 75.8046644942081542 S
atom 10.3381476032801167 7.4325856067672609 75.1613413173281231 S
atom 2.4666884928511981 4.6018766809410216 70.7980881526856933 S
atom 7.4688403234810776 5.3336521353896416 70.1539987627772206 S
atom 2.4270379418931003 10.3754545169796888 70.1539987627768227 S
atom 7.4344529010170985 9.5696410891080337 70.7980881526859918 S
atom 2.4659242228517164 4.6021646079297192 75.1613413173279241 S
atom 7.4680442291652120 5.3342906531959100 75.8046644942082679 S
atom 2.4262418475719087 10.3760930347856135 75.8046644942079979 S
atom 7.4336886310228856 9.5699290160971771 75.1613413173280662 S
atom 2.1981966787814216 2.6663019292742245 77.9865281248542033 Ba
atom 7.3062458737679208 2.7325487426715345 77.9865281248540470 Ba
atom 2.2644434921784904 7.7743511242614760 77.9865281248543454 Ba
atom 7.1659610869487125 7.6340663374420394 77.9865281248541180 Ba
atom 2.7674866358779684 2.3015603750822473 82.9895221316988341 Ba
atom 7.6709874279603545 2.1632587855750565 82.9895221316988625 Ba
atom 2.6291850463708917 7.2050611671647751 82.9895221316987630 Ba
atom 7.7352510440451843 7.2693247832497772 82.9895221316987914 Ba
atom 4.9720826090170993 4.9664727524779311 80.5017719623283341 Zr
atom 9.9738394587324404 4.9264272206029291 80.5017719623285330 Zr
atom 4.9320370771423505 9.9682296021926717 80.5017719623280357 Zr
atom 9.9398470171851283 9.9342371606452993 80.5017719623279504 Zr
atom 4.9561941129449290 4.9741871014644881 85.5182298724544410 Zr
atom 9.9661251097454038 4.9423157166755676 85.5182298724555494 Zr
atom 4.9243227281558353 9.9841180982656237 85.5182298724527215 Zr
atom 9.9239585211121106 9.9419515096326077 85.5182298724530199 Zr
atom 4.7006925205833490 4.6361504715136581 77.9894860086725004 S
atom 10.3041617396962852 5.1978173090369051 77.9894860086703261 S
atom 5.2623593581067398 10.2396196906266805 77.9894860086705677 S
atom 9.6684569287509206 9.6039148796810956 77.9894860086670576 S
atom 5.2310198690124352 5.2973625152614634 82.9987549098388513 S
atom 9.6429496959486709 4.6674899606080862 82.9987549098402582 S
atom 4.6011473143590997 9.7092923421978377 82.9987549098424608 S
atom 10.1987842771799055 10.2651269234289604 82.9987549098448341 S
atom 5.3714699968815198 2.4632480633932015 80.8078955873274793 S
atom 9.6056162635136673 2.4288965412384762 80.1684796411465186 S
atom 4.5638138819243910 7.4706989228247558 80.1684796411465612 S
atom 10.3392344050490426 7.4310124715571817 80.8078955873277067 S
atom 5.3778167931446808 2.4673652959404522 85.1842899009601524 S
atom 9.6036599744756970 2.4334301935397051 85.8075355352917342 S
atom 4.5618575928856480 7.4752325751340223 85.8075355352919473 S
atom 10.3455812013119193 7.4351297041121569 85.1842899009603229 S
atom 2.4674973580606432 4.6010778061612720 80.8078955873275220 S
atom 7.4696132883844903 5.3346959476960496 80.1684796411467744 S
atom 2.4278109067965601 10.3764983292859938 80.1684796411462202 S
atom 7.4352617662263611 9.5688422143284892 80.8078955873277778 S
atom 2.4633801255090271 4.5947310098980720 85.1842899009601098 S
atom 7.4650796360799152 5.3366522367348423 85.8075355352919757 S
atom 2.4232772544883310 10.3784546183240440 85.8075355352917057 S
atom 7.4311445336784185 9.5624954180658150 85.1842899009603940 S
atom 2.2143896778905092 2.6755420946032067 87.9627747920955585 Ba
atom 7.2970057084402953 2.7163557435630952 87.9627747920954874 Ba
atom 2.2552033268505305 7.7581581251514669 87.9627747920954448 Ba
atom 7.1821540860581603 7.6433065027695815 87.9627747920954022 Ba
atom 2.6222155729384649 2.3127755281955427 92.7575419620783208 Ba
atom 7.6597722748475245 2.3085298485142629 92.7575419620782498 Ba
atom 2.6179698932573334 7.3503322301042449 92.7575419620783208 Ba
atom 7.5899799811064979 7.2805399363631285 92.7575419620783350 Ba
atom 4.9836794889487575 4.9599626143860664 90.5721512368315729 Zr
atom 9.9803495968239471 4.9148303406714087 90.5721512368318145 Zr
atom 4.9385472152347587 9.9566327222617481 90.5721512368333208 Zr
atom 9.9514438971160235 9.9277270225541425 90.5721512368339887 Zr
atom 4.7146443246725243 4.6644289834810060 88.0112085660409207 S
atom 10.2758832277291958 5.1838655049479527 88.0112085660385617 S
atom 5.2340808461393333 10.2256678865374493 88.0112085660402812 S
atom 9.6824087328401269 9.6321933916486806 88.0112085660372401 S
atom 5.1414214837472318 5.2200118403707663 93.0792293945471130 S
atom 9.7203003708394995 4.7570883458733952 93.0792293945477525 S
atom 4.6784979892503280 9.7988907274631973 93.0792293945452087 S
atom 10.1091858919147555 10.1877762485379630 93.0792293945472267 S
atom 5.2778758083141577 2.4673420456648798 90.7449187893326297 S
atom 9.6579111760823508 2.4332408354252868 90.1924710134420167 S
atom 4.6161087944928632 7.4750432170169052 90.1924710134420309 S
atom 10.2456402164818545 7.4351064538343250 90.7449187893328713 S
atom 2.4634033757883818 4.6946719947285587 90.7449187893328286 S
atom 7.4652689941934316 5.2824010351279487 90.1924710134420451 S
atom 2.4234666126072728 10.3242034167172214 90.1924710134420025 S
atom 7.4311677839517944 9.6624364028961622 90.7449187893325870 S
