#=======================================================
# FHI-aims file: full_relax/full_relax_RP_1_RxRyRz_RxRyRz.in
# Created using the Atomic Simulation Environment (ASE)
# Fri Mar 14 11:17:13 2025
#=======================================================
lattice_vector 10.0578289284966402 0.1251261033433510 0.0008559304848331 
lattice_vector 0.1251261033433569 10.0578289284964875 -0.0008559304859892 
lattice_vector -0.0011051351092362 0.0011051351073075 15.6288677534684179 
atom 0.0908158183715910 0.0908304122210260 0.2364409786961034 Ba
atom 4.9380840519275342 -0.0282527663819844 0.2368689434470478 Ba
atom -0.0282673601149514 4.9380986460934899 0.2360130135187444 Ba
atom 5.1822933337230772 5.1823079278451392 0.2364409785232940 Ba
atom -0.0911611724148537 -0.0904850570668828 4.6475801940091852 Ba
atom 5.1193995212258576 0.1537242246334070 4.6480081599191960 Ba
atom 0.1530481093501766 5.1200756369054083 4.6471522291853367 Ba
atom 5.0003163427868964 5.0009924583178798 4.6475801948728117 Ba
atom 2.5455660807294271 2.5459114355096575 2.4420105865306572 Zr
atom 7.5744805448438566 2.6084744871246621 2.4424385514890865 Zr
atom 2.6081291324056806 7.5748258995217643 2.4415826210221852 Zr
atom 7.6370435964771035 7.6373889509621122 2.4420105863480908 Zr
atom 2.4005692792146016 2.4004960076004842 -0.0990408189039662 S
atom 7.7198959725126013 2.7534712884604700 -0.0986128540708991 S
atom 2.7535445601370130 7.7198227009828733 -0.0994687846467155 S
atom 7.4920467951514977 7.4919735233857514 -0.0990408194711920 S
atom 2.6905628819784568 2.6913268630989244 4.9830619921439263 S
atom 7.4290651172981734 2.4634776854751879 4.9834899575476914 S
atom 2.4627137043720295 7.4298290981616315 4.9826340270270979 S
atom 7.7820403980208619 7.7828043790536352 4.9830619920943819 S
atom 2.5143135534355974 0.0314627635100793 2.5937373650550501 S
atom 7.5431700203468584 0.0940086946954644 2.2911397388158270 S
atom 2.5768186079547997 5.0603601069305659 2.2902838080396526 S
atom 7.6057910692993076 5.1229402796013748 2.5937373647812416 S
atom 0.0311002880052465 2.5146009104461107 2.5933093998698231 S
atom 5.0600318728876301 2.5772219601717157 2.2907117732438227 S
atom 0.0936804604977948 7.5435733725822631 2.2898558430618716 S
atom 5.1225778036984204 7.6060784264895318 2.5933093995747307 S
atom 2.6360020088135885 2.6371217377375702 8.0508748543314983 Ba
atom 7.4832702424263449 2.5180385590570542 8.0513028206453203 Ba
atom 2.5169188301476448 7.4843899716444362 8.0504468900739159 Ba
atom 7.7274795242068599 7.7285992534583183 8.0508748559952572 Ba
atom 2.4540250178815319 2.4558062682422093 12.4620140715616365 Ba
atom 7.6645857118699716 2.7000155499667033 12.4624420361876851 Ba
atom 2.6982342996214848 7.6663669625357276 12.4615861060058499 Ba
atom 7.5455025332123320 7.5472837840710145 12.4620140707332308 Ba
atom 5.0907522707400386 5.0922027609122527 10.2564444631065452 Zr
atom 10.1196667352873959 5.1547658125303650 10.2568724282113823 Zr
atom 5.1533153227534729 10.1211172251849906 10.2560164979430457 Zr
atom 10.1822297866618499 10.1836802770751955 10.2564444629784610 Zr
atom 4.9457554694621813 4.9467873330090733 7.7153930572397620 S
atom 10.2650821630558724 5.2997626141101497 7.7158210223676873 S
atom 5.2987307506565688 10.2661140265577977 7.7149650923332995 S
atom 10.0372329853824187 10.0382648489114867 7.7153930577479759 S
atom 5.2357490728061347 5.2376181888025046 12.7974958690487615 S
atom 9.9742513071789567 5.0097690110270143 12.7979238343690120 S
atom 5.0078998948431401 9.9761204234869894 12.7970679038163127 S
atom 10.3272265882084753 10.3290957044162184 12.7974958688365508 S
atom 5.0594997441389520 2.5777540891099560 10.4081712414770475 S
atom 10.0883562101081878 2.6403000199389530 10.1055736155731370 S
atom 5.1220047980335197 7.6066514323960828 10.1047176849273477 S
atom 10.1509772600282417 7.6692316046690383 10.4081712415724947 S
atom 2.5762864787438744 5.0608922365634523 10.4077432761885813 S
atom 7.6052180635556441 5.1235132853077205 10.1051456504618891 S
atom 2.6388666512325916 10.0898646977256519 10.1042897197358528 S
atom 7.6677639944278315 10.1523697522571279 10.4077432761889312 S
