#=======================================================
# FHI-aims file: full_relax/full_relax_RP_1_RxRyMz_RxRy-Mz.in
# Created using the Atomic Simulation Environment (ASE)
# Fri Mar 14 11:17:13 2025
#=======================================================
lattice_vector 10.0577715367974072 0.1251877056981972 -0.0000000000000311 
lattice_vector 0.1251877056982024 10.0577715367965652 -0.0000000000001556 
lattice_vector -0.0000000000000543 -0.0000000000002577 15.6289940404737617 
atom -0.0908454978989450 -0.0907992412439485 0.2364304536160919 Ba
atom 5.1196850096280322 0.1534393507494990 0.2364304535861213 Ba
atom 0.1533930940941928 5.1197312663126420 0.2364304536434605 Ba
atom 5.0006341233265648 5.0006803800179398 0.2364304536212746 Ba
atom 0.0908454979048095 0.0907992412206765 4.6476301840300458 Ba
atom 4.9380865271607792 -0.0282516450678773 4.6476301839919536 Ba
atom -0.0282053883814487 4.9380402705079902 4.6476301839341492 Ba
atom 5.1823251191491027 5.1822788624949521 4.6476301839523915 Ba
atom 2.5457398106294211 2.5457398106152986 2.4420303187954233 Zr
atom 7.5746255790168640 2.6083336634623415 2.4420303188549441 Zr
atom 2.6083336634816168 7.5746255790339978 2.4420303188472694 Zr
atom 7.6372194318658089 7.6372194318774032 2.4420303188155810 Zr
atom 2.6909675998876192 2.6909587902013530 -0.0990304222781433 S
atom 7.4294065994440164 2.4631058742131628 -0.0990304222178957 S
atom 2.4631146839049611 7.4293977897694958 -0.0990304221914430 S
atom 7.7824472211191305 7.7824384114486831 -0.0990304222163618 S
atom 2.4005120213716507 2.4005208310547479 4.9830910598561191 S
atom 7.7198445585936577 2.7535614527307795 4.9830910598992970 S
atom 2.7535526430399728 7.7198533682714867 4.9830910598521898 S
atom 7.4919916426160054 7.4920004522871952 4.9830910598463172 S
atom 2.5143760396477264 0.0313020041915489 2.2904956242069008 S
atom 7.5433954971421446 0.0938857015189230 2.5935650134457013 S
atom 2.5771035816007495 5.0601776170479384 2.5935650134781301 S
atom 7.6058556608915149 5.1227816254382761 2.2904956242029928 S
atom 0.0312918486671087 2.5145097287457099 2.2904956242075980 S
atom 5.0601877725840954 2.5769698925047484 2.5935650134598029 S
atom 0.0938958570417460 7.5432618080429288 2.5935650134662942 S
atom 5.1227714699079092 7.6059893499809759 2.2904956241983649 S
atom 2.4549405693780706 2.4548943127230443 8.0509274739078389 Ba
atom 7.6654710769421559 2.6991329047103396 8.0509274738795202 Ba
atom 2.6991791613681646 7.6654248202594655 8.0509274738248298 Ba
atom 7.5464201906519435 7.5463739339780354 8.0509274738931627 Ba
atom 2.6365390518674419 2.6365853085415512 12.4621272042827691 Ba
atom 7.4837800811151896 2.5175344222376688 12.4621272042069720 Ba
atom 2.5174881655678907 7.4838263377859127 12.4621272042530027 Ba
atom 7.7280186731115936 7.7280649297782178 12.4621272042588185 Ba
atom 5.0914796212462861 5.0914796212214659 10.2565273390799803 Zr
atom 10.1203653896476506 5.1540734740952212 10.2565273390751059 Zr
atom 5.1540734741010690 10.1203653896419663 10.2565273390947844 Zr
atom 10.1829592424866853 10.1829592424924886 10.2565273390457730 Zr
atom 5.2366986008296550 5.2367074105006033 7.7154665980646158 S
atom 9.9751376003762964 5.0088544945122369 7.7154665981282458 S
atom 5.0088456848440863 9.9751464100767357 7.7154665980133039 S
atom 10.3281782220773550 10.3281870317672464 7.7154665979769286 S
atom 4.9462606416684931 4.9462518319856237 12.7975880801480191 S
atom 10.2655931788980492 5.2992924536681416 12.7975880800422175 S
atom 5.2993012633584922 10.2655843692234541 12.7975880801863457 S
atom 10.0377402629168966 10.0377314532352209 12.7975880801532877 S
atom 5.0602495393605373 2.5770316592800566 10.1049926444029907 S
atom 10.0890016186727696 2.6396356676260990 10.4080620336741987 S
atom 5.1227097031393374 7.6059275832384490 10.4080620336654803 S
atom 10.1517291605989346 7.6685112805598488 10.1049926444399016 S
atom 2.5770418148275791 5.0601158502558796 10.1049926444251650 S
atom 7.6059174276697563 5.1228433922354624 10.4080620336531933 S
atom 2.6396255121336765 10.0891353077624810 10.4080620336701255 S
atom 7.6685214360548510 10.1515954715037804 10.1049926444206708 S
