#=======================================================
# FHI-aims file: full_relax/full_relax_RP_6_RxRyMz_RxRy0.in
# Created using the Atomic Simulation Environment (ASE)
# Fri Mar 14 11:49:35 2025
#=======================================================
lattice_vector 10.0154421035183390 -0.0618489679020565 0.0000000000000078 
lattice_vector -0.0618489679020611 10.0154421035183283 0.0000000000000080 
lattice_vector 0.0000000000000511 0.0000000000000524 65.8604399973737600 
atom 0.1278645945178304 -0.1700280882300833 0.2156129070093367 Ba
atom 5.1777491399902473 -0.1587890784772216 0.2156129070020935 Ba
atom 0.1391036042811500 4.8798564572332550 0.2156129069975986 Ba
atom 5.1046611623248150 4.8067684795787065 0.2156129070058120 Ba
atom -0.2621640377197176 0.1884383581276425 5.0013241958195920 Ba
atom 4.8192826936241699 0.2312395537700599 5.0013241958192101 Ba
atom -0.2193628420861071 5.2698850894833784 5.0013241958202608 Ba
atom 4.7146325300884353 5.1652349259391332 5.0013241958199544 Ba
atom 2.5031204229349191 2.4803513372644361 2.3942727146140421 Zr
atom 7.5041662823290114 2.4427516609059259 2.3942727146191087 Zr
atom 2.4655207466187163 7.4813971966235879 2.3942727146211582 Zr
atom 7.4799169907426926 7.4571479050796050 2.3942727146192890 Zr
atom 2.4796762132505368 2.4927630875567659 7.4465642150028675 Zr
atom 7.4917545319984704 2.4661958705991496 7.4465642150859308 Zr
atom 2.4531089962871562 7.5048414063110185 7.4465642150810281 Zr
atom 7.4564727810600511 7.4695596553657690 7.4465642150003672 Zr
atom 2.6639524771589245 2.7424651099540136 -0.1117364416173121 S
atom 7.2420525096223001 2.2819196067068890 -0.1117364415232493 S
atom 2.2034069739111852 7.3205651424163056 -0.1117364415258671 S
atom 7.6407490449674720 7.7192616777620735 -0.1117364416187857 S
atom 2.2344030601912945 2.1813367987713401 4.9531857173995668 S
atom 7.8031808207893549 2.7114690236633572 4.9531857172368063 S
atom 2.7645352850796550 7.7501145593733050 4.9531857172371749 S
atom 7.2111996279991875 7.1581333665776921 4.9531857173932616 S
atom 2.7858676680346983 -0.0140185646659042 2.2204649180550566 S
atom 7.1907696237528507 -0.0417801007637238 2.7731696473791598 S
atom 2.1521240880417132 4.9968654349401387 2.7731696473796172 S
atom 7.7626642358430589 4.9627780031357958 2.2204649180552702 S
atom 2.8929399850388653 -0.0157336806383603 7.7779544550976185 S
atom 7.1307949906371917 -0.0431197911534522 7.1527696798151004 S
atom 2.0921494549277266 4.9955257445442012 7.1527696798149156 S
atom 7.8697365528473329 4.9610628871580049 7.7779544550979391 S
atom -0.0169059195864172 2.2218533837362471 2.2204649180558818 S
atom 4.9876521848857580 2.7937479958119935 2.7731696473824323 S
atom -0.0509933508284922 7.8323935315214435 2.7731696473820304 S
atom 4.9598906482265646 7.1986499515424933 2.2204649180557112 S
atom -0.0151908032515049 2.1147810667164899 7.7779544550976043 S
atom 4.9889918749594671 2.8537226289284741 7.1527696798147700 S
atom -0.0496536607481140 7.8923681646393415 7.1527696798138134 S
atom 4.9616057645540597 7.0915776345231665 7.7779544550980360 S
atom 0.2804675136851754 -0.1829138822494846 9.9711271749343631 Ba
atom 5.1906349340015119 -0.3113919976325427 9.9711271749349155 Ba
atom 0.1519893982906322 4.7272535380780996 9.9711271749348729 Ba
atom 5.2572640814937772 4.7938826855590317 9.9711271749352033 Ba
atom -0.2789300093662377 0.1805589823208320 14.9682818175808183 Ba
atom 4.8271620694391038 0.2480055254163290 14.9682818175811398 Ba
atom -0.2114834662725907 5.2866510611204909 14.9682818175811416 Ba
atom 4.6978665584437822 5.1573555501222792 14.9682818175807402 Ba
atom 2.4922755599694559 2.4862626370174641 12.4614617416388551 Zr
atom 7.4982549825390459 2.4535965238869442 12.4614617416036069 Zr
atom 2.4596094468302008 7.4922420595968227 12.4614617415908988 Zr
atom 7.4690721277750285 7.4630592048271591 12.4614617416298845 Zr
atom 2.4922755599695683 2.4862626370202734 17.4751018935351397 Zr
atom 7.4982549825408213 2.4535965238868500 17.4751018935456166 Zr
atom 2.4596094468317378 7.4922420595967694 17.4751018935594651 Zr
atom 7.4690721277751591 7.4630592048298086 17.4751018935415665 Zr
atom 2.7554205815916939 2.8189666590328146 9.9621892836853227 S
atom 7.1655509605284164 2.1904515022613817 9.9621892836859463 S
atom 2.1269054248185446 7.2290970379716075 9.9621892836999226 S
atom 7.7322171493998901 7.7957632268406325 9.9621892836992192 S
atom 2.2212960703925821 2.1540454770935291 14.9682818175404151 S
atom 7.8304721424731554 2.7245760134639077 14.9682818175806833 S
atom 2.7918266067613806 7.7632215491731023 14.9682818175841987 S
atom 7.1980926382007056 7.1308420449030541 14.9682818175397987 S
atom 2.8855773170300396 -0.0187034883457285 12.1485793004080929 S
atom 7.1320313805172910 -0.0465121145338242 12.7892361324552368 S
atom 2.0933858448063418 4.9921334211909469 12.7892361324554287 S
atom 7.8623738848388030 4.9580930794759857 12.1485793004077252 S
atom 2.8855773170324448 -0.0187034883882427 17.7879843347453246 S
atom 7.1320313805147340 -0.0465121144952518 17.1473275026927716 S
atom 2.0933858448040223 4.9921334212322730 17.1473275026929883 S
atom 7.8623738848413405 4.9580930794363542 17.7879843347458966 S
atom -0.0122209955579597 2.1221437347244132 12.1485793004073237 S
atom 4.9923841983279251 2.8524862390504326 12.7892361324554020 S
atom -0.0462613373794126 7.8911317747590539 12.7892361324551587 S
atom 4.9645755722476217 7.0989403025339088 12.1485793004086737 S
atom -0.0122209955968635 2.1221437347244101 17.7879843347460991 S
atom 4.9923841983660839 2.8524862390509962 17.1473275026927681 S
atom -0.0462613373372573 7.8911317747592209 17.1473275026933614 S
atom 4.9645755722048461 7.0989403025342925 17.7879843347447171 S
atom 0.2804675136837808 -0.1829138822483986 19.9654364602109169 Ba
atom 5.1906349340033460 -0.3113919976346015 19.9654364602097765 Ba
atom 0.1519893982936909 4.7272535380755913 19.9654364602100536 Ba
atom 5.2572640814913889 4.7938826855597290 19.9654364602099506 Ba
atom -0.2621640377200588 0.1884383581268914 24.9352394393352270 Ba
atom 4.8192826936255742 0.2312395537674880 24.9352394393357848 Ba
atom -0.2193628420835363 5.2698850894821438 24.9352394393352412 Ba
atom 4.7146325300869041 5.1652349259397861 24.9352394393350529 Ba
atom 2.4796762132494918 2.4927630875599882 22.4899994200953337 Zr
atom 7.4917545320024228 2.4661958706016405 22.4899994200553230 Zr
atom 2.4531089962909127 7.5048414063126350 22.4899994200631284 Zr
atom 7.4564727810596061 7.4695596553674886 22.4899994201012916 Zr
atom 2.5031204229308592 2.4803513372592874 27.5422909205868862 Zr
atom 7.5041662823277369 2.4427516609129154 27.5422909205809141 Zr
atom 2.4655207466175129 7.4813971966271060 27.5422909205725261 Zr
atom 7.4799169907402909 7.4571479050713130 27.5422909205831949 Zr
atom 2.7554205815916921 2.8189666590339000 19.9743743515138377 S
atom 7.1655509605309149 2.1904515022632443 19.9743743514818810 S
atom 2.1269054248207797 7.2290970379735775 19.9743743514575449 S
atom 7.7322171493997178 7.7957632268416628 19.9743743515052223 S
atom 2.2344030601899241 2.1813367987714898 24.9833779177750266 S
atom 7.8031808207908089 2.7114690236648218 24.9833779178845745 S
atom 2.7645352850819358 7.7501145593752785 24.9833779178907491 S
atom 7.2111996279980639 7.1581333665780846 24.9833779177719002 S
atom 2.8929399850383062 -0.0157336806407878 22.1586091800622356 S
atom 7.1307949906380044 -0.0431197911505303 22.7837939553417250 S
atom 2.0921494549279176 4.9955257445446906 22.7837939553425102 S
atom 7.8697365528455485 4.9610628871535001 22.1586091800627081 S
atom 2.7858676680308512 -0.0140185646163626 27.7160987170890714 S
atom 7.1907696237535443 -0.0417801008036809 27.1633939877638682 S
atom 2.1521240880435979 4.9968654348958630 27.1633939877640458 S
atom 7.7626642358396980 4.9627780031804889 27.7160987170896576 S
atom -0.0151908032594922 2.1147810667183040 22.1586091800627472 S
atom 4.9889918749671720 2.8537226289278208 22.7837939553422650 S
atom -0.0496536607515771 7.8923681646394783 22.7837939553432633 S
atom 4.9616057645568130 7.0915776345246728 22.1586091800619940 S
atom -0.0169059195362787 2.2218533837345418 27.7160987170875792 S
atom 4.9876521848428048 2.7937479958122666 27.1633939877622552 S
atom -0.0509933508661192 7.8323935315227606 27.1633939877627206 S
atom 4.9598906482697949 7.1986499515412410 27.7160987170886131 S
atom 0.1278645945175259 -0.1700280882309062 29.7209507281634373 Ba
atom 5.1777491399928834 -0.1587890784758729 29.7209507281507932 Ba
atom 0.1391036042823957 4.8798564572344549 29.7209507281469527 Ba
atom 5.1046611623261500 4.8067684795776024 29.7209507281637855 Ba
atom 2.6639524771552052 2.7424651099506661 30.0483000767257025 S
atom 7.2420525096215664 2.2819196067069401 30.0483000766626205 S
atom 2.2034069739104205 7.3205651424155027 30.0483000766680775 S
atom 7.6407490449643385 7.7192616777583023 30.0483000767304489 S
atom 2.6160488237940505 2.3185914311904701 33.1458500585803648 Ba
atom 7.6659261883749927 2.3298232600539412 33.1458500585914138 Ba
atom 2.6272806526698611 7.3684687957691626 33.1458500585904190 Ba
atom 7.5928453915977325 7.2953879990043529 33.1458500585786879 Ba
atom 2.2257560194253658 2.6772934828693575 37.9315727148603656 Ba
atom 7.3072241366956971 2.7201160644302900 37.9315727148586035 Ba
atom 2.2685786009792226 7.7587616001415309 37.9315727148592856 Ba
atom 7.2025525872386407 7.6540900506776381 37.9315727148584259 Ba
atom 4.9912091555474953 4.9690617996375943 35.3245134570185897 Zr
atom 9.9922523877660847 4.9314594961042086 35.3245134570415047 Zr
atom 4.9536068520523493 9.9701050318163684 35.3245134570231869 Zr
atom 9.9680057233552866 9.9458583674514323 35.3245134570272938 Zr
atom 4.9675500704602058 4.9816779879359085 40.3767878296661706 Zr
atom 9.9796361994288105 4.9551185811928082 40.3767878297659522 Zr
atom 4.9409906637140804 9.9937641169055240 40.3767878297365002 Zr
atom 9.9443466382754728 9.9584745557442478 40.3767878296532885 Zr
atom 5.1521081589046691 5.2311380967857257 32.8184996811114900 S
atom 9.7301760905973360 4.7705604927690803 32.8184996812022121 S
atom 4.6915305548850545 9.8092060284775879 32.8184996811907013 S
atom 10.1289047267121770 10.2079346645949069 32.8184996811049885 S
atom 4.7223231696164110 4.6701462366726432 37.8834078325217547 S
atom 10.2911679506993341 5.2003454820492552 37.8834078323113985 S
atom 5.2525224149863705 10.2389910177576180 37.8834078323824741 S
atom 9.6991197374224640 9.6469428044801013 37.8834078325209163 S
atom 5.2740081941599550 2.4747027799922892 35.1506412911040300 S
atom 9.6787629991257802 2.4469548228799600 35.7034821468808587 S
atom 4.6401174634144056 7.4856003585585942 35.7034821468821733 S
atom 10.2508047619680305 7.4514993477630176 35.1506412911054653 S
atom 5.3807549730441400 2.4731812878853416 40.7081885608902923 S
atom 9.6187495938049121 2.4457906901621449 40.0829735319205938 S
atom 4.5801040581003551 7.4844362259102084 40.0829735319261928 S
atom 10.3575515408553525 7.4499778557322989 40.7081885608917133 S
atom 2.4711693035817426 4.7105094254189295 35.1506412911080517 S
atom 7.4757138290593375 5.2825511882477096 35.7034821468835446 S
atom 2.4370682933311758 10.3211967239596341 35.7034821468838004 S
atom 7.4479658714121451 9.6873059932227115 35.1506412911044421 S
atom 2.4726907960743767 4.6037626465138164 40.7081885608909246 S
atom 7.4768779613589684 5.3425645935707982 40.0829735319205653 S
atom 2.4382324257056025 10.3812101292750132 40.0829735319249849 S
atom 7.4494873638260417 9.5805592143264402 40.7081885608908536 S
atom 2.7683025308749789 2.3060285031480001 42.9013338521278556 Ba
atom 7.6784891164206295 2.1775695529895605 42.9013338521268466 Ba
atom 2.6398435807010618 7.2162150886883580 42.9013338521285803 Ba
atom 7.7450990986930410 7.2828250709430371 42.9013338521275926 Ba
atom 2.2088910428885735 2.6695092482699097 47.8985018162522422 Ba
atom 7.3150083712784761 2.7369810409747948 47.8985018162542815 Ba
atom 2.2763628355869012 7.7756265766916668 47.8985018162535425 Ba
atom 7.1856876106787073 7.6463058160869579 47.8985018162536917 Ba
atom 4.9801242275471651 4.9752145227364650 45.3916881875230231 Zr
atom 9.9860996646286750 4.9425444241113476 45.3916881874089810 Zr
atom 4.9474541289176148 9.9811899598160547 45.3916881874845188 Zr
atom 9.9569207953670702 9.9520110905366632 45.3916881875085636 Zr
atom 4.9801242275536248 4.9752145227430580 50.4053154450006389 Zr
atom 9.9860996646335884 4.9425444241096796 50.4053154450166758 Zr
atom 4.9474541289253278 9.9811899598138751 50.4053154449902365 Zr
atom 9.9569207953654058 9.9520110905486803 50.4053154450365426 Zr
atom 5.2432739540386057 5.3079110088699579 42.8924177009803174 S
atom 9.6534031784954131 4.6793946976206779 42.8924177010295580 S
atom 4.6147576427887405 9.7180402333315623 42.8924177009715351 S
atom 10.2200705218464734 10.2847075766763112 42.8924177010079504 S
atom 4.7091391363712853 4.6430004283249389 47.8985018162435878 S
atom 10.3183137590423648 5.2135295152889762 47.8985018163796425 S
atom 5.2796682233381240 10.2521750510004228 47.8985018163348357 S
atom 9.6859357041807339 9.6197969961337932 47.8985018162298957 S
atom 5.3734292863687374 2.4702525005773452 45.0788011371862325 S
atom 9.6198648876124864 2.4424385899924332 45.7194582208235261 S
atom 4.5812193519019306 7.4810841257121989 45.7194582208216787 S
atom 10.3502258541719048 7.4470490683979182 45.0788011371909292 S
atom 5.3734292863704427 2.4702525004896012 50.7182024953413588 S
atom 9.6198648876141206 2.4424385901342536 50.0775454117139347 S
atom 4.5812193519002040 7.4810841257992120 50.0775454117126202 S
atom 10.3502258541742318 7.4470490682515571 50.7182024953359019 S
atom 2.4756195833480219 4.6110883331943437 45.0788011371890391 S
atom 7.4802300615954964 5.3414492997617842 45.7194582208236966 S
atom 2.4415845258585502 10.3800948354733098 45.7194582208218705 S
atom 7.4524161511779727 9.5878849010046441 45.0788011371883570 S
atom 2.4756195832149119 4.6110883332032904 50.7182024953372377 S
atom 7.4802300617238897 5.3414492997529477 50.0775454117149650 S
atom 2.4415845259575755 10.3800948354706701 50.0775454117118883 S
atom 7.4524161510761902 9.5878849010067810 50.7182024953398098 S
atom 2.7683025308709652 2.3060285031436347 52.8956697804088662 Ba
atom 7.6784891164212414 2.1775695529721393 52.8956697804097828 Ba
atom 2.6398435807094955 7.2162150886923300 52.8956697804075517 Ba
atom 7.7450990986799644 7.2828250709626206 52.8956697804101097 Ba
atom 2.2257560194155572 2.6772934828813173 57.8654309176718229 Ba
atom 7.3072241367003725 2.7201160644313025 57.8654309176719579 Ba
atom 2.2685786009768516 7.7587616001310771 57.8654309176732369 Ba
atom 7.2025525872364256 7.6540900506780192 57.8654309176723984 Ba
atom 4.9675500704746582 4.9816779879480801 55.4202158028612786 Zr
atom 9.9796361994349922 4.9551185811929646 55.4202158029609890 Zr
atom 4.9409906637242216 9.9937641169032734 55.4202158029086647 Zr
atom 9.9443466382771053 9.9584745557614056 55.4202158028464495 Zr
atom 4.9912091555620437 4.9690617996217510 60.4724901754495079 Zr
atom 9.9922523877377962 4.9314594961137894 60.4724901754164605 Zr
atom 4.9536068520284129 9.9701050318165922 60.4724901754451096 Zr
atom 9.9680057233660104 9.9458583674176353 60.4724901754399795 Zr
atom 5.2432739540441116 5.3079110088751840 52.9045859315518143 S
atom 9.6534031785023515 4.6793946976224507 52.9045859314088958 S
atom 4.6147576427903321 9.7180402333310489 52.9045859314859541 S
atom 10.2200705218516319 10.2847075766859017 52.9045859315177367 S
atom 4.7223231696199210 4.6701462366787139 57.9135958000872932 S
atom 10.2911679507032510 5.2003454820460036 57.9135958000162248 S
atom 5.2525224149876033 10.2389910177560814 57.9135958000321196 S
atom 9.6991197374260274 9.6469428044870877 57.9135958001284195 S
atom 5.3807549730457191 2.4731812878701191 55.0888150716233014 S
atom 9.6187495938062195 2.4457906902172484 55.7140301005932272 S
atom 4.5801040580996650 7.4844362259252328 55.7140301005894329 S
atom 10.3575515408603138 7.4499778556729250 55.0888150716203668 S
atom 5.2740081941517536 2.4747027801936530 60.6463623414338997 S
atom 9.6787629991238013 2.4469548226214255 60.0935214856529356 S
atom 4.6401174634150140 7.4856003583829729 60.0935214856527011 S
atom 10.2508047619597598 7.4514993480602554 60.6463623414354700 S
atom 2.4726907960320799 4.6037626465161843 55.0888150716214682 S
atom 7.4768779613951084 5.3425645935673556 55.7140301005902927 S
atom 2.4382324257381112 10.3812101292756278 55.7140301005919483 S
atom 7.4494873637903609 9.5805592143243352 55.0888150716224771 S
atom 2.4711693038529017 4.7105094254009146 60.6463623414374240 S
atom 7.4757138288196039 5.2825511882515226 60.0935214856553088 S
atom 2.4370682931320204 10.3211967239582325 60.0935214856550104 S
atom 7.4479658716382477 9.6873059932149150 60.6463623414319528 S
atom 2.6160488237980912 2.3185914311955211 62.6511535739321346 Ba
atom 7.6659261883705740 2.3298232600628923 62.6511535739183785 Ba
atom 2.6272806526603798 7.3684687957683241 62.6511535739176324 Ba
atom 7.5928453916060530 7.2953879989976018 62.6511535739299745 Ba
atom 5.1521081588977751 5.2311380967801586 62.9785039513898681 S
atom 9.7301760905843597 4.7705604927550134 62.9785039514716303 S
atom 4.6915305548765494 9.8092060284692231 62.9785039514396701 S
atom 10.1289047267061942 10.2079346645869808 62.9785039513828124 S
