#=======================================================
# FHI-aims file: full_relax/full_relax_RP_5_RxRyMz_-Rx-RyMz.in
# Created using the Atomic Simulation Environment (ASE)
# Fri Mar 14 11:35:13 2025
#=======================================================
lattice_vector 10.0194178652071919 -0.0534296143723428 -0.0000000000001814 
lattice_vector -0.0534296143723461 10.0194178652072416 0.0000000000000448 
lattice_vector -0.0000000000010222 0.0000000000002575 55.8171761215036497 
atom 0.1185292162839213 -0.1671429093946684 0.2187052390488558 Ba
atom 5.1768518420212075 -0.1452440235130598 0.2187052390611386 Ba
atom 0.1404281021567371 4.8911797162985691 0.2187052391291213 Ba
atom 5.1015233417712427 4.8158512160444138 0.2187052390925243 Ba
atom -0.2590030620434703 0.1883530031135886 4.9979061580135289 Ba
atom 4.8213559296461685 0.2322882548938466 4.9979061580338584 Ba
atom -0.2150678102514449 5.2687119944888092 4.9979061580254136 Ba
atom 4.7239910634777784 5.1713471283333687 4.9979061580489290 Ba
atom 2.5032632082613420 2.4853633299409781 2.3929087883623552 Zr
atom 7.5073397281167358 2.4530161101531407 2.3929087884625142 Zr
atom 2.4709159884553449 7.4894398496691172 2.3929087880749340 Zr
atom 7.4862573335971740 7.4683574551070944 2.3929087881439735 Zr
atom 2.4830320695351200 2.4963564989704690 7.4443634096439126 Zr
atom 7.4963465590962253 2.4732472489547233 7.4443634095929960 Zr
atom 2.4599228194400276 7.5096709883855217 7.4443634103383358 Zr
atom 7.4660261947689808 7.4793506241761012 7.4443634102876839 Zr
atom 2.6662295912504383 2.7486055587757479 -0.1125113482943665 S
atom 7.2440974991902864 2.2900497269085354 -0.1125113486603258 S
atom 2.2076737594306324 7.3264734667698566 -0.1125113481930291 S
atom 7.6492237167161656 7.7315996842525188 -0.1125113484490144 S
atom 2.2349910788798919 2.1841679740743927 4.9502234642376992 S
atom 7.8085350839543421 2.7212882393382869 4.9502234645075296 S
atom 2.7721113440985343 7.7577119791657987 4.9502234642385305 S
atom 7.2179852042948101 7.1671620995611560 4.9502234645080723 S
atom 2.7780119489667476 -0.0102002150358078 2.2182049717795915 S
atom 7.2003867556926737 -0.0336103574213428 2.7708385880478725 S
atom 2.1639630159609649 5.0028133826067496 2.7708385880168001 S
atom 7.7610060744342171 4.9727939106197878 2.2182049717375616 S
atom 2.8897938365737073 -0.0131436366111079 7.7727496689675544 S
atom 7.1361631177674330 -0.0360160387738422 7.1470512478143107 S
atom 2.0997393779691045 5.0004077013888244 7.1470512478377453 S
atom 7.8727879620221559 4.9698504890797475 7.7727496689414801 S
atom -0.0165145916589791 2.2316969835573568 2.2182049717297394 S
atom 4.9898896750185395 2.7923163022789255 2.7708385880075013 S
atom -0.0465340640579178 7.8287400420965749 2.7708385880579351 S
atom 4.9664795329169866 7.2146911090701602 2.2182049717888641 S
atom -0.0135711704817772 2.1199150959630946 7.7727496689824713 S
atom 4.9922953565818045 2.8565399402425351 7.1470512478254422 S
atom -0.0441283830584053 7.8929636800702427 7.1470512478269477 S
atom 4.9694229547910336 7.1029092214750182 7.7727496689247939 S
atom 0.2757155868250354 -0.1815785491102686 9.9634778688935004 Ba
atom 5.1912874816233794 -0.3024303941887773 9.9634778688561774 Ba
atom 0.1548637417203692 4.7339933458679875 9.9634778688776660 Ba
atom 5.2587097123421751 4.8014155765870150 9.9634778688411867 Ba
atom -0.2757155868082762 0.1815785489348970 14.9549043278308957 Ba
atom 4.8281303834587890 0.2490007795417956 14.9549043278350648 Ba
atom -0.2082933562818626 5.2854245196213530 14.9549043277974132 Ba
atom 4.7072785385242328 5.1645726746827778 14.9549043277908602 Ba
atom 2.4914970624948056 2.4914970626736901 12.4591910987658672 Zr
atom 7.5012059955428487 2.4647822558016452 12.4591910983136387 Zr
atom 2.4647822556375432 7.5012059952484540 12.4591910986275352 Zr
atom 7.4744911880832072 7.4744911877580611 12.4591910986099208 Zr
atom 2.4999620559337954 2.4866376266881565 17.4740187841787424 Zr
atom 7.5060654315879747 2.4563172622121439 17.4740187843236221 Zr
atom 2.4696416915577597 7.4927410018651415 17.4740187835323759 Zr
atom 7.4829561816520380 7.4696317518509270 17.4740187836034053 Zr
atom 2.7584304938918276 2.8239052977473627 9.9571297433252823 S
atom 7.1687977601885393 2.1978488243166452 9.9571297433151340 S
atom 2.1323740203900399 7.2342725641227421 9.9571297422588962 S
atom 7.7414246193315339 7.8068994233259952 9.9571297420853693 S
atom 2.2245636316777375 2.1590888277189251 14.9612524552097881 S
atom 7.8336142302428931 2.7317156864957681 14.9612524561300653 S
atom 2.7971904905479241 7.7681394263955807 14.9612524566838445 S
atom 7.2075577570551257 7.1420829530863035 14.9612524566699374 S
atom 2.8830477865206396 -0.0150725848467055 12.1398690128256970 S
atom 7.1363700785991497 -0.0383570276278515 12.7785131840706256 S
atom 2.0999463389474764 4.9980667102962926 12.7785131840151944 S
atom 7.8660419119572067 4.9679215387016527 12.1398690128315252 S
atom 2.8832547475193864 -0.0174135763398155 17.7713309498333096 S
atom 7.1296240287030450 -0.0402859773460037 17.1456325288433398 S
atom 2.0932002889597996 4.9961377624809300 17.1456325288462210 S
atom 7.8662488728048849 4.9655805491863809 17.7713309497706753 S
atom -0.0116422212162952 2.1266611461204534 12.1398690128840077 S
atom 4.9946363466295471 2.8563329792316114 12.7785131839912225 S
atom -0.0417873928429651 7.8927567192532475 12.7785131840977861 S
atom 4.9713519038515006 7.1096552714314454 12.1398690127726514 S
atom -0.0093012320452619 2.1264541851681145 17.7713309497998750 S
atom 4.9965652966775558 2.8630790292521944 17.1456325288245353 S
atom -0.0398584436225991 7.8995027690808000 17.1456325288627802 S
atom 4.9736928938694245 7.1094483105966289 17.7713309498046783 S
atom 0.2590030619077975 -0.1883530027770031 19.9204760391789399 Ba
atom 5.1980619354577886 -0.2857178690719578 19.9204760392308700 Ba
atom 0.1616381956620050 4.7507058705988712 19.9204760391894382 Ba
atom 5.2419971873524851 4.7946411225161754 19.9204760392505840 Ba
atom -0.1185292163292240 0.1671429096933242 24.6996769596507768 Ba
atom 4.8425660230091410 0.0918144090852130 24.6996769594706720 Ba
atom -0.1938577169119636 5.1282381488121560 24.6996769596197403 Ba
atom 4.8644649092129981 5.1501370350461064 24.6996769594826482 Ba
atom 2.4797309178267035 2.4976307960994291 22.5254734149652798 Zr
atom 7.4950722621454577 2.4765484005920317 22.5254734154273599 Zr
atom 2.4586485222941592 7.5129721401351777 22.5254734153367124 Zr
atom 7.4627250432098453 7.4806249212750249 22.5254734152362772 Zr
atom 2.7480030467678289 2.7988261514363151 19.9681587330028059 S
atom 7.1938769065960297 2.2082762714642614 19.9681587318141958 S
atom 2.1574531668381174 7.2447000113098001 19.9681587325530323 S
atom 7.7309971721614890 7.7818202768717679 19.9681587326076304 S
atom 2.3167645344115346 2.2343885667924033 25.0308935408397950 S
atom 7.7583144912311273 2.6395147838482931 25.0308935409736684 S
atom 2.7218907514323085 7.6759385236683944 25.0308935408063213 S
atom 7.2997586597638771 7.2173826922541515 25.0308935408982123 S
atom 2.8190311094532170 -0.0198192569723468 22.1475436080391859 S
atom 7.2414059163624982 -0.0432293997848686 22.7001772242203685 S
atom 2.2049821766405380 4.9931943403407217 22.7001772241500213 S
atom 7.8020252349072772 4.9631748687701860 22.1475436080317962 S
atom -0.0068955496422381 2.1906778230964457 22.1475436080517945 S
atom 4.9995087168978491 2.7512971416639376 22.7001772242180948 S
atom -0.0369150220612657 7.7877208814371270 22.7001772241551301 S
atom 4.9760985750830136 7.1736719485957687 22.1475436080209604 S
atom 2.3729678462293129 2.6586399722590297 28.1272932991187652 Ba
atom 7.3340630860118790 2.5833114718587717 28.1272932990517290 Ba
atom 2.2976393458258189 7.6197352115757671 28.1272932990719546 Ba
atom 7.3559619719754616 7.6416340976202708 28.1272932990707325 Ba
atom 2.7505001246263112 2.3031440596732407 32.9064942181066442 Ba
atom 7.6895589983424877 2.2057791935199305 32.9064942180635427 Ba
atom 2.6531352584597454 7.2422029334105176 32.9064942180534032 Ba
atom 7.7334942501284800 7.2861381851760694 32.9064942180500850 Ba
atom 4.9712279805252759 4.9891278586910888 30.3014968443150288 Zr
atom 9.9865693246950169 4.9680454630371287 30.3014968442188639 Zr
atom 4.9501455848609277 10.0044692029320750 30.3014968447207558 Zr
atom 9.9542221056579834 9.9721219843492914 30.3014968444000665 Zr
atom 4.9914591186468744 4.9781346887335660 35.3529514704567021 Zr
atom 9.9975624942476529 4.9478143250973003 35.3529514697200611 Zr
atom 4.9611387547229278 9.9842380651500768 35.3529514696746148 Zr
atom 9.9744532438560469 9.9611288146831036 35.3529514684250827 Zr
atom 4.8082615970292686 4.7258856294740230 27.7960767155091233 S
atom 10.2498115540628447 5.1310118466834345 27.7960767148585361 S
atom 5.2133878140871595 10.1674355864085815 27.7960767155093293 S
atom 9.7912557223719112 9.7088797548100967 27.7960767145954115 S
atom 5.2395001092982572 5.2903232140395682 32.8588115268652743 S
atom 9.6853739694256813 4.6997733343630443 32.8588115284027324 S
atom 4.6489502295581389 9.7361970740909989 32.8588115264316230 S
atom 10.2224942346734302 10.2733173393613342 32.8588115295071574 S
atom 5.3105281720958271 2.4716778055438606 30.6794266495257659 S
atom 9.7329029788991299 2.4482676634804190 30.1267930330137261 S
atom 4.6964792392567372 7.4846914033565799 30.1267930332421230 S
atom 10.2935222977491971 7.4546719309422755 30.6794266495999040 S
atom 5.3747518100923708 2.4740834872066269 35.0556393086407638 S
atom 9.6211210915637349 2.4512110840616304 35.6813377296258381 S
atom 4.5846973514476632 7.4876348243675936 35.6813377297262804 S
atom 10.3577459354050117 7.4570776130476428 35.0556393088517737 S
atom 2.4846015136253037 4.6821748857969405 30.6794266495884749 S
atom 7.4910057791250768 5.2427942044939302 30.1267930331657183 S
atom 2.4545820421806170 10.2792179441664953 30.1267930330942200 S
atom 7.4675956366363394 9.6651690112023374 30.6794266495206962 S
atom 2.4821958308427186 4.6179512479620071 35.0556393086903810 S
atom 7.4880623592811801 5.3545760920878900 35.6813377296341940 S
atom 2.4516386172543543 10.3909998318202437 35.6813377297020864 S
atom 7.4651899584930854 9.6009453733377104 35.0556393087973674 S
atom 2.2157814760875891 2.6730756119886276 37.8720659296289313 Ba
atom 7.3196274460737909 2.7404978425557087 37.8720659296151965 Ba
atom 2.2832037067771194 7.7769215818300816 37.8720659296193318 Ba
atom 7.1987756011093893 7.6560697368774511 37.8720659296038278 Ba
atom 2.7672126493577678 2.3099185137887477 42.8634923899431399 Ba
atom 7.6827845445718239 2.1890666687306242 42.8634923898310589 Ba
atom 2.6463608043395905 7.2254904083545126 42.8634923899453568 Ba
atom 7.7502067751947976 7.2929126389860324 42.8634923898314995 Ba
atom 4.9829941252679886 4.9829941249337297 40.3677791609234617 Zr
atom 9.9927030581069758 4.9562793184507603 40.3677791619828810 Zr
atom 4.9562793187723626 9.9927030584325784 40.3677791611501675 Zr
atom 9.9659882504530373 9.9659882507670456 40.3677791630281959 Zr
atom 4.9745291320685157 4.9878535618824973 45.3826068491716725 Zr
atom 9.9878436218113293 4.9647443113034635 45.3826068484452989 Zr
atom 4.9514198816644530 10.0011680510847842 45.3826068500923938 Zr
atom 9.9575232580564474 9.9708476871957608 45.3826068490980248 Zr
atom 4.7160606941979912 4.6505858902883448 37.8657178034399351 S
atom 10.3251112931745190 5.2232127495262821 37.8657178024125756 S
atom 5.2886875533436015 10.2596364891379679 37.8657178047835714 S
atom 9.6990548196613400 9.6335800158122407 37.8657178027295558 S
atom 5.2499275565362300 5.3154023605111682 42.8698405124303150 S
atom 9.6602948228763843 4.6893458870944329 42.8698405123618542 S
atom 4.6238710832225545 9.7257696268793836 42.8698405109022289 S
atom 10.2329216819379827 10.2983964858506738 42.8698405107831704 S
atom 5.3745448490284646 2.4764244759284306 40.6871012444451878 S
atom 9.6278671415070836 2.4531400329385691 40.0484570735589358 S
atom 4.5914434016086227 7.4895637748829715 40.0484570736754151 S
atom 10.3575389745458306 7.4594186034486638 40.6871012443990807 S
atom 5.3812908994047790 2.4783534266013061 45.0542205886617282 S
atom 9.6276601802810440 2.4554810244943508 45.6799190102310320 S
atom 4.5912364407300457 7.4919047634579439 45.6799190100567927 S
atom 10.3642850248229124 7.4613475513084611 45.0542205886939797 S
atom 2.4798548418129971 4.6181582088259825 40.6871012445087672 S
atom 7.4861334090845784 5.3478300421082352 40.0484570735829877 S
atom 2.4497096699402503 10.3842537816611173 40.0484570736617584 S
atom 7.4628489664685622 9.6011523344625527 40.6871012443360627 S
atom 2.4779258926201320 4.6114121586415715 45.0542205887112956 S
atom 7.4837924189329259 5.3480370030216635 45.6799190101304475 S
atom 2.4473686799893244 10.3844607428449667 45.6799190101532346 S
atom 7.4609200171150514 9.5944062839868423 45.0542205886435525 S
atom 2.2324940007407834 2.6798500655309527 47.8290640996015739 Ba
atom 7.3128529922712850 2.7237853173684821 47.8290640995693650 Ba
atom 2.2764292525464103 7.7602090575063878 47.8290640996389413 Ba
atom 7.2154881260434856 7.6628441913076424 47.8290640995867804 Ba
atom 2.6100262790487236 2.3243541533854373 52.6082650184797558 Ba
atom 7.6683489045912756 2.3462530392399468 52.6082650187056373 Ba
atom 2.6319251648745525 7.3826767789586034 52.6082650184861507 Ba
atom 7.5930204044069383 7.3073482787695356 52.6082650186824168 Ba
atom 4.9947602706657284 4.9768603927779038 50.4340614685751802 Zr
atom 9.9988367912542948 4.9445131727639442 50.4340614683775712 Zr
atom 4.9624130504789070 9.9809369123248057 50.4340614676956989 Zr
atom 9.9777543971030465 9.9598545178758009 50.4340614680132617 Zr
atom 4.7264881416755067 4.6756650368510577 47.8767467935027184 S
atom 10.3000321465608931 5.2127853020005075 47.8767467944772918 S
atom 5.2636084069165134 10.2492090418509498 47.8767467937619742 S
atom 9.7094822669314365 9.6586591621870852 47.8767467942494278 S
atom 5.1577266540830458 5.2401026215383322 52.9394816069100713 S
atom 9.7355945618844579 4.7815467896069288 52.9394816067135707 S
atom 4.6991708221482265 9.8179705294126194 52.9394816073714409 S
atom 10.1407207793835692 10.2230967469886895 52.9394816071178411 S
atom 5.2695090118499506 2.4812968477606963 50.6087652863943376 S
atom 9.6918838183709219 2.4578867060406329 50.0561316700969456 S
atom 4.6554600787363549 7.4943104451805143 50.0561316701363737 S
atom 10.2525031370470607 7.4642909726172428 50.6087652862986417 S
atom 2.4749824698856293 4.7231940463324911 50.6087652862919839 S
atom 7.4813867386580188 5.2838133649633283 50.0561316700581642 S
atom 2.4449629981700518 10.3202371047889301 50.0561316701887407 S
atom 7.4579765960717923 9.7061881716797860 50.6087652864049886 S
