#=======================================================
# FHI-aims file: full_relax/full_relax_RP_4_Rx00_0-Ry0.in
# Created using the Atomic Simulation Environment (ASE)
# Fri Mar 14 11:23:22 2025
#=======================================================
lattice_vector 10.0889894998492444 -0.0000000000000015 -0.0000000000000004 
lattice_vector -0.0000000000000015 10.0889894998492444 -0.0000000000000012 
lattice_vector -0.0000000000000017 -0.0000000000000056 45.2580581568510709 
atom -0.1704257115614721 -0.0000000000002607 0.2942972994072617 Ba
atom 5.2149204614855753 -0.0000000000002998 0.2942972994073726 Ba
atom 0.1704257115608103 5.0444947499242963 0.2942972994077077 Ba
atom 4.8740690383633254 5.0444947499243327 0.2942972994075066 Ba
atom 0.0283478771426818 -0.0000000000002386 4.9578460152686521 Ba
atom 5.0161468727813983 -0.0000000000002444 4.9578460152686565 Ba
atom -0.0283478771433284 5.0444947499243629 4.9578460152686112 Ba
atom 5.0728426270674571 5.0444947499243922 4.9578460152686485 Ba
atom 2.5222473749619314 2.4999183559587053 2.3433209120678331 Zr
atom 7.5667421248868720 2.5445763939657091 2.3433209120675809 Zr
atom 2.5222473749621042 7.5890711438903855 2.3433209120675120 Zr
atom 7.5667421248867006 7.5444131058831596 2.3433209120676066 Zr
atom 2.5222473749622085 2.5230446892202014 7.3579438950146665 Zr
atom 7.5667421248868720 2.5214500607042276 7.3579438950145581 Zr
atom 2.5222473749622303 7.5659448106286691 7.3579438950155884 Zr
atom 7.5667421248868125 7.5675394391447153 7.3579438950139098 Zr
atom 2.5222473749621228 2.8102522228785993 -0.1353213953882296 S
atom 7.5667421248867575 2.2342425270454429 -0.1353213953879631 S
atom 2.5222473749621130 7.2787372769701637 -0.1353213953886439 S
atom 7.5667421248867734 7.8547469728033121 -0.1353213953880038 S
atom 2.5222473749621321 2.0555166924556021 4.8855788853604913 S
atom 7.5667421248867264 2.9889780574687514 4.8855788853601565 S
atom 2.5222473749621166 8.0334728073934141 4.8855788853608386 S
atom 7.5667421248867601 7.1000114423801701 4.8855788853607462 S
atom 2.5222473749620620 -0.0000000000006963 2.0425757747654427 S
atom 7.5667421248867397 -0.0000000000007454 2.7826161507671032 S
atom 2.5222473749621384 5.0444947499236044 2.7826161507671867 S
atom 7.5667421248866829 5.0444947499244188 2.0425757747653850 S
atom 2.5222473749622156 -0.0000000000005782 7.8237515273723810 S
atom 7.5667421248867370 -0.0000000000002102 6.8937474228399251 S
atom 2.5222473749621521 5.0444947499238317 6.8937474228397662 S
atom 7.5667421248868170 5.0444947499235226 7.8237515273724840 S
atom -0.0000000000003838 2.5222473749621193 2.4803926666723379 S
atom 5.0444947499244055 2.5222473749622027 2.4803926666723797 S
atom -0.0000000000004024 7.5667421248868623 2.4803926666722509 S
atom 5.0444947499244126 7.5667421248867717 2.4803926666723153 S
atom -0.0000000000005071 2.5222473749621530 7.3691820588935526 S
atom 5.0444947499239792 2.5222473749622294 7.3691820588935615 S
atom -0.0000000000002546 7.5667421248868889 7.3691820588935180 S
atom 5.0444947499238397 7.5667421248868116 7.3691820588935153 S
atom -0.0088227912604622 -0.0000000000002316 9.8387082949683595 Ba
atom 5.0533175411846836 -0.0000000000002731 9.8387082949683293 Ba
atom 0.0088227912603939 5.0444947499244162 9.8387082949683098 Ba
atom 5.0356719586637926 5.0444947499244508 9.8387082949683187 Ba
atom 0.0283478771426159 -0.0000000000002618 14.7195705746680225 Ba
atom 5.0161468727815057 -0.0000000000002942 14.7195705746680563 Ba
atom -0.0283478771432840 5.0444947499243789 14.7195705746680758 Ba
atom 5.0728426270673781 5.0444947499244241 14.7195705746680918 Ba
atom 2.5222473749619434 2.5230446892201530 12.3194726949226165 Zr
atom 7.5667421248869822 2.5214500607041521 12.3194726949222950 Zr
atom 2.5222473749621637 7.5659448106287339 12.3194726949214548 Zr
atom 7.5667421248868916 7.5675394391447446 12.3194726949233857 Zr
atom 2.5222473749621117 2.4999183559591360 17.3340956778690618 Zr
atom 7.5667421248867761 2.5445763939658850 17.3340956778690192 Zr
atom 2.5222473749622680 7.5890711438898677 17.3340956778679249 Zr
atom 7.5667421248866074 7.5444131058830486 17.3340956778693212 Zr
atom 2.5222473749621654 3.0295137101456975 9.8387082949682103 S
atom 7.5667421248867521 2.0149810397786867 9.8387082949686473 S
atom 2.5222473749621783 7.0594757897034386 9.8387082949682405 S
atom 7.5667421248867903 8.0740084600704787 9.8387082949677360 S
atom 2.5222473749621241 2.0555166924555723 14.7918377045745260 S
atom 7.5667421248867273 2.9889780574686982 14.7918377045757925 S
atom 2.5222473749621326 8.0334728073933910 14.7918377045757055 S
atom 7.5667421248867637 7.1000114423802625 14.7918377045754230 S
atom 2.5222473749622329 -0.0000000000010649 11.8536650625646942 S
atom 7.5667421248866944 -0.0000000000006881 12.7836691670970524 S
atom 2.5222473749621162 5.0444947499241799 12.7836691670971661 S
atom 7.5667421248867841 5.0444947499238530 11.8536650625644935 S
atom 2.5222473749620473 -0.0000000000003931 17.6348408151714260 S
atom 7.5667421248867432 -0.0000000000003562 16.8948004391698028 S
atom 2.5222473749621392 5.0444947499240902 16.8948004391698134 S
atom 7.5667421248866935 5.0444947499239809 17.6348408151713549 S
atom -0.0000000000002104 2.5222473749621312 12.3082345310434356 S
atom 5.0444947499241239 2.5222473749622516 12.3082345310434427 S
atom -0.0000000000003029 7.5667421248869156 12.3082345310433912 S
atom 5.0444947499238779 7.5667421248868028 12.3082345310433716 S
atom -0.0000000000002045 2.5222473749620593 17.1970239232646165 S
atom 5.0444947499240200 2.5222473749620802 17.1970239232645952 S
atom -0.0000000000004475 7.5667421248868019 17.1970239232644779 S
atom 5.0444947499243531 7.5667421248867726 17.1970239232645596 S
atom -0.1704257115616385 -0.0000000000002842 19.3831192905305514 Ba
atom 5.2149204614857796 -0.0000000000003264 19.3831192905306686 Ba
atom 0.1704257115607474 5.0444947499242172 19.3831192905303489 Ba
atom 4.8740690383633618 5.0444947499242350 19.3831192905307077 Ba
atom 2.5222473749621890 2.8102522228788867 19.8127379853252990 S
atom 7.5667421248866322 2.2342425270452506 19.8127379853255619 S
atom 2.5222473749621623 7.2787372769697418 19.8127379853267271 S
atom 7.5667421248866811 7.8547469728033334 19.8127379853243255 S
atom 2.5222473749619536 2.6926730865229587 22.9233263778332734 Ba
atom 7.5667421248866189 2.3518216634006777 22.9233263778330958 Ba
atom 2.5222473749619434 7.3963164133255646 22.9233263778332201 Ba
atom 7.5667421248866811 7.7371678364477425 22.9233263778331953 Ba
atom 2.5222473749618781 2.4938994978192413 27.5868750936939726 Ba
atom 7.5667421248869040 2.5505952521044732 27.5868750936940081 Ba
atom 2.5222473749618639 7.5950900020291146 27.5868750936939477 Ba
atom 7.5667421248868463 7.5383942477438994 27.5868750936939868 Ba
atom 5.0668237689278985 5.0444947499239721 24.9723499904920168 Zr
atom 10.0666604808459894 5.0444947499241266 24.9723499904917681 Zr
atom 5.0221657309210013 10.0889894998488678 24.9723499904907875 Zr
atom 10.1113185188524302 10.0889894998487204 24.9723499904915904 Zr
atom 5.0436974356655968 5.0444947499243824 29.9869729734458659 Zr
atom 10.0897868141069509 5.0444947499238744 29.9869729734419614 Zr
atom 5.0452920641820240 10.0889894998489904 29.9869729734435815 Zr
atom 10.0881921855909269 10.0889894998490988 29.9869729734434571 Zr
atom 4.7564899020074902 5.0444947499242820 22.4937076830328593 S
atom 10.3769943477658462 5.0444947499242625 22.4937076830355096 S
atom 5.3324995978410428 10.0889894998487861 22.4937076830351970 S
atom 9.8009846519322501 10.0889894998488945 22.4937076830352609 S
atom 5.5112254324317052 5.0444947499242572 27.5146079637868048 S
atom 9.6222588173420522 5.0444947499242190 27.5146079637888228 S
atom 4.5777640674172613 10.0889894998487932 27.5146079637909295 S
atom 10.5557201823558895 10.0889894998487399 27.5146079637879488 S
atom 5.0444947499246382 2.5222473749615077 25.1094217450985333 S
atom 10.0889894998490313 2.5222473749621117 25.1094217450984942 S
atom 5.0444947499244925 7.5667421248873730 25.1094217450986399 S
atom 10.0889894998492036 7.5667421248868374 25.1094217450984303 S
atom 5.0444947499242581 2.5222473749620118 29.9982111373182363 S
atom 10.0889894998488003 2.5222473749612027 29.9982111373182789 S
atom 5.0444947499241630 7.5667421248856188 29.9982111373181723 S
atom 10.0889894998488838 7.5667421248874156 29.9982111373183926 S
atom 2.5222473749607275 5.0444947499241426 25.4116452291937911 S
atom 7.5667421248865789 5.0444947499241684 24.6716048531916350 S
atom 2.5222473749623293 10.0889894998487524 24.6716048531910417 S
atom 7.5667421248864279 10.0889894998487524 25.4116452291936454 S
atom 2.5222473749619114 5.0444947499242474 29.5227765012646621 S
atom 7.5667421248867113 5.0444947499243193 30.4527806057969492 S
atom 2.5222473749624768 10.0889894998488394 30.4527806057964376 S
atom 7.5667421248872051 10.0889894998488252 29.5227765012642926 S
atom 2.5222473749622432 2.5310701662225386 32.4677373733941863 Ba
atom 7.5667421248864315 2.5134245837011280 32.4677373733943639 Ba
atom 2.5222473749623426 7.5579193336258825 32.4677373733942645 Ba
atom 7.5667421248864519 7.5755649161473828 32.4677373733942147 Ba
atom 2.5222473749619785 2.4938994978190467 37.3485996530939559 Ba
atom 7.5667421248867095 2.5505952521052779 37.3485996530940199 Ba
atom 2.5222473749619811 7.5950900020292664 37.3485996530938493 Ba
atom 7.5667421248866216 7.5383942477431862 37.3485996530939133 Ba
atom 5.0436974356669131 5.0444947499246258 34.9485017733464574 Zr
atom 10.0897868141067661 5.0444947499239818 34.9485017733477434 Zr
atom 5.0452920641819032 10.0889894998487240 34.9485017733451997 Zr
atom 10.0881921855916765 10.0889894998491947 34.9485017733454271 Zr
atom 5.0668237689274163 5.0444947499239703 39.9631247562946470 Zr
atom 10.0666604808463021 5.0444947499241009 39.9631247562957341 Zr
atom 5.0221657309211691 10.0889894998493812 39.9631247562967999 Zr
atom 10.1113185188527979 10.0889894998490970 39.9631247562941354 Zr
atom 4.5372284147418123 5.0444947499242634 32.4677373733933905 S
atom 10.5962558350320357 5.0444947499241879 32.4677373733943995 S
atom 5.5517610851071684 10.0889894998489904 32.4677373733938452 S
atom 9.5817231646660961 10.0889894998489478 32.4677373733954582 S
atom 5.5112254324310932 5.0444947499244215 37.4208667829976562 S
atom 9.6222588173425407 5.0444947499244259 37.4208667829997168 S
atom 4.5777640674177791 10.0889894998487648 37.4208667829994539 S
atom 10.5557201823556337 10.0889894998487364 37.4208667829999655 S
atom 5.0444947499246640 2.5222473749617089 34.9372636094699232 S
atom 10.0889894998490348 2.5222473749612497 34.9372636094694542 S
atom 5.0444947499245139 7.5667421248859679 34.9372636094698521 S
atom 10.0889894998491396 7.5667421248869253 34.9372636094692410 S
atom 5.0444947499245094 2.5222473749624652 39.8260530016906813 S
atom 10.0889894998490455 2.5222473749618981 39.8260530016904397 S
atom 5.0444947499244641 7.5667421248855424 39.8260530016906813 S
atom 10.0889894998491094 7.5667421248864386 39.8260530016906955 S
atom 2.5222473749613386 5.0444947499242296 35.4126982455232451 S
atom 7.5667421248858151 5.0444947499243211 34.4826941409909296 S
atom 2.5222473749614931 10.0889894998489371 34.4826941409909011 S
atom 7.5667421248863747 10.0889894998488998 35.4126982455231172 S
atom 2.5222473749614749 5.0444947499243256 39.5238295175958783 S
atom 7.5667421248863516 5.0444947499243344 40.2638698935979633 S
atom 2.5222473749616889 10.0889894998488661 40.2638698935973380 S
atom 7.5667421248862929 10.0889894998488590 39.5238295175954377 S
atom 2.5222473749620278 2.6926730865230786 42.0121483689550246 Ba
atom 7.5667421248863826 2.3518216634008247 42.0121483689551312 Ba
atom 2.5222473749620105 7.3963164133253656 42.0121483689551525 Ba
atom 7.5667421248864484 7.7371678364477976 42.0121483689552235 Ba
atom 4.7564899020077762 5.0444947499242652 42.4417670637510867 S
atom 10.3769943477655122 5.0444947499242234 42.4417670637488911 S
atom 5.3324995978409406 10.0889894998489140 42.4417670637497295 S
atom 9.8009846519322359 10.0889894998489602 42.4417670637526356 S
