#=======================================================
# FHI-aims file: full_relax/full_relax_RP_2_Rx0Mz_0-RyMz.in
# Created using the Atomic Simulation Environment (ASE)
# Fri Mar 14 11:17:52 2025
#=======================================================
lattice_vector 10.1108485361052551 -0.0000033894305508 -0.0000000000001445 
lattice_vector -0.0000033894305509 10.1108485361053564 -0.0000000000000041 
lattice_vector -0.0000000000003897 -0.0000000000000110 25.3660284948795081 
atom -0.1548415827991685 0.0000088939405951 0.2814478422061256 Ba
atom 5.2102677458858544 0.0000106240075152 0.2814115846184652 Ba
atom 0.1548417830959639 5.0554365867541922 0.2814115846529254 Ba
atom 4.9005809905555395 5.0554314672562768 0.2814478421648414 Ba
atom 0.0484189143440598 0.0000236592824070 4.8780824028648064 Ba
atom 5.0070576555354620 -0.0000170269882515 4.8780824028614385 Ba
atom -0.0483683072462116 5.0554089357652741 4.8780824028623000 Ba
atom 5.1038414876958056 5.0554462326053020 4.8780824028579088 Ba
atom 2.5277104790849654 2.5154808152313670 2.3473199154021698 Zr
atom 7.5831292418964082 2.5399674970100024 2.3473273717110006 Zr
atom 2.5277032790802210 7.5953934598299915 2.3473273717875625 Zr
atom 7.5831330524566933 7.5709033886130905 2.3473199153931308 Zr
atom 2.5277104791279048 2.5154808153054189 7.4088448901138637 Zr
atom 7.5831292418437535 2.5399674969636288 7.4088374337619758 Zr
atom 2.5277032789988931 7.5953934597883048 7.4088374338528329 Zr
atom 7.5831330525591287 7.5709033886388459 7.4088448900463355 Zr
atom 2.5277204115374050 2.8831292609053225 -0.1399944020977393 S
atom 7.5831390707985689 2.1723001976540983 -0.1399811824981846 S
atom 2.5277131080410093 7.2277261604264407 -0.1399811825886997 S
atom 7.5831429848604106 7.9385518342440973 -0.1399944020174395 S
atom 2.5277289503017193 2.0900092255436471 4.8780824029245924 S
atom 7.5831326615813150 2.9653629876820182 4.8780824029444805 S
atom 2.5277066988253734 8.0207889504404672 4.8780824027408984 S
atom 7.5831515236282288 7.1454317988754834 4.8780824029141412 S
atom 2.5277017607714010 -0.0000020128719891 2.0402569242569619 S
atom 7.5831208157129506 -0.0000079533972950 2.8001080597859924 S
atom 2.5276948529595216 5.0554180094338630 2.8001080598235677 S
atom 7.5831243341019876 5.0554205605014166 2.0402569242225748 S
atom 2.5277017607692969 -0.0000020130136646 7.7159078814958431 S
atom 7.5831208157172192 -0.0000079533925036 6.9560567459186142 S
atom 2.5276948529662566 5.0554180094477390 6.9560567459123517 S
atom 7.5831243341006278 5.0554205605342561 7.7159078814777216 S
atom -0.0000044074555676 2.5276927304703807 2.4609528421694771 S
atom 5.0554191952315124 2.5276921560530039 2.4609417805359235 S
atom -0.0000067675793275 7.5831181188233163 2.4609417805544815 S
atom 5.0554181659546007 7.5831153038099384 2.4609528421880311 S
atom -0.0000044074148386 2.5276927304752426 7.2952119635224681 S
atom 5.0554191952098764 2.5276921560646146 7.2952230251526560 S
atom -0.0000067675687015 7.5831181188236263 7.2952230251843577 S
atom 5.0554181658969410 7.5831153038039973 7.2952119635443200 S
atom -0.1548415827580751 0.0000088939324563 9.4747169634723392 Ba
atom 5.2102677458431828 0.0000106240261980 9.4747532210485392 Ba
atom 0.1548417831013583 5.0554365867718802 9.4747532210216185 Ba
atom 4.9005809905539834 5.0554314672481153 9.4747169635112627 Ba
atom 2.5277204115249732 2.8831292609279111 9.8961592080204834 S
atom 7.5831390708102449 2.1723001976329996 9.8961459884607006 S
atom 2.5277131080466364 7.2277261604324643 9.8961459884210878 S
atom 7.5831429848627714 7.9385518342557884 9.8961592080393768 S
atom 2.5277201806055243 2.3728697038878623 12.9644620896616161 Ba
atom 7.5831478734282882 2.6825530697987698 12.9644258321200638 Ba
atom 2.5277219106997104 7.7379790325368205 12.9644258320937809 Ba
atom 7.5831427539029175 7.4282922771876736 12.9644620896572107 Ba
atom 2.5277349459290424 2.5761302010023583 17.5610966503176726 Ba
atom 7.5831202224475973 2.4793429794371327 17.5610966502914962 Ba
atom 2.5276942596801328 7.5347689422120263 17.5610966503054584 Ba
atom 7.5831575192667682 7.6315527743523583 17.5610966502809660 Ba
atom 5.0431921019868868 5.0554217657768463 15.0303341628418359 Zr
atom 10.1231047463420438 5.0554145656217928 15.0303416192255863 Zr
atom 5.0676787836209405 10.1108405285582847 15.0303416192852417 Zr
atom 10.0986146753483208 10.1108443392619982 15.0303341628879927 Zr
atom 5.0431921018496428 5.0554217657500891 20.0918591378770337 Zr
atom 10.1231047465058346 5.0554145655704703 20.0918516813465473 Zr
atom 5.0676787836183719 10.1108405286059675 20.0918516812862435 Zr
atom 10.0986146753085855 10.1108443393495531 20.0918591376686493 Zr
atom 5.4108405475691281 5.0554316982069283 12.5430198453224726 S
atom 9.7554374470901966 5.0554243947238753 12.5430330648518833 S
atom 4.7000114843243006 10.1108503574726587 12.5430330648147415 S
atom 10.4662631208950572 10.1108542715194734 12.5430198452420569 S
atom 4.6177205121662093 5.0554402369886855 17.5610966499646821 S
atom 10.5485002370799439 5.0554179855211911 17.5610966505067658 S
atom 5.4930742743479950 10.1108439482531463 17.5610966501041474 S
atom 9.6731430855277107 10.1108628102810201 17.5610966508035489 S
atom 5.0554040171179473 2.5277068791437634 15.1439670896664325 S
atom 10.1108294054797092 2.5277045190060168 15.1439560279164844 S
atom 5.0554034427026728 7.5831304819342824 15.1439560280341965 S
atom 10.1108265904640913 7.5831294526861193 15.1439670895577745 S
atom 5.0554040171304271 2.5277068791816806 19.9782262109975370 S
atom 10.1108294054468235 2.5277045190804217 19.9782372725408877 S
atom 5.0554034427127279 7.5831304818521454 19.9782372726290021 S
atom 10.1108265904336463 7.5831294525347426 19.9782262108982174 S
atom 2.5277092737354940 5.0554130474544685 14.7232711716847842 S
atom 7.5831292963334169 5.0554061396417431 15.4831223072537760 S
atom 2.5277033331845531 10.1108321023777084 15.4831223072191939 S
atom 7.5831318472676861 10.1108356207617494 14.7232711716353428 S
atom 2.5277092738859084 5.0554130474729329 20.3989221289136040 S
atom 7.5831292961812240 5.0554061396578387 19.6390709933310674 S
atom 2.5277033334819943 10.1108321023765928 19.6390709933245837 S
atom 7.5831318470636502 10.1108356207626766 20.3989221288687439 S
atom 2.5277201805756149 2.3728697039110505 22.1577312109367028 Ba
atom 7.5831478734465563 2.6825530697850732 22.1577674685050354 Ba
atom 2.5277219106772644 7.7379790325145619 22.1577674685194559 Ba
atom 7.5831427539142506 7.4282922771984055 22.1577312109812858 Ba
atom 5.4108405475629668 5.0554316982139325 22.5791734553003529 S
atom 9.7554374470718752 5.0554243947367548 22.5791602357268033 S
atom 4.7000114843233138 10.1108503574703565 22.5791602359221848 S
atom 10.4662631209160359 10.1108542715157057 22.5791734552326027 S
