#=======================================================
# FHI-aims file: full_relax/full_relax_RP_6_00Rz1_00Rz2.in
# Created using the Atomic Simulation Environment (ASE)
# Fri Mar 14 11:39:16 2025
#=======================================================
lattice_vector 9.9009266970982637 0.0000000419748499 0.0000000000000063 
lattice_vector 0.0000000419748499 9.9009266970982637 0.0000000000000008 
lattice_vector 0.0000000000000404 0.0000000000000055 67.1542990103963717 
atom -0.0000000000009125 -0.0000000000007926 0.1625071991453192 Ba
atom 4.9504633485484009 0.0000000209866313 0.1625071991454010 Ba
atom 0.0000000209865151 4.9504633485482881 0.1625071991454071 Ba
atom 4.9504633695356750 4.9504633695357283 0.1625071991454230 Ba
atom -0.0000000000008170 -0.0000000000008279 5.0702352886827278 Ba
atom 4.9504633485482943 0.0000000209865217 5.0702352886827349 Ba
atom 0.0000000209866233 4.9504633485482268 5.0702352886826878 Ba
atom 4.9504633695357514 4.9504633695357256 5.0702352886827189 Ba
atom 2.4752316847674312 2.4752316847674374 2.4407606571453826 Zr
atom 7.4256950333165674 2.4752317057548745 2.4407606571453910 Zr
atom 2.4752317057548208 7.4256950333165781 2.4407606571454301 Zr
atom 7.4256950543040272 7.4256950543039979 2.4407606571453768 Zr
atom 2.4752316847674871 2.4752316847674662 7.5829524390135719 Zr
atom 7.4256950333165976 2.4752317057548865 7.5829524390136092 Zr
atom 2.4752317057549034 7.4256950333165825 7.5829524390135461 Zr
atom 7.4256950543040317 7.4256950543040299 7.5829524390136038 Zr
atom 2.4752316847675400 2.4752316847674707 -0.1030646142921877 S
atom 7.4256950333164626 2.4752317057548359 -0.1030646142922731 S
atom 2.4752317057546818 7.4256950333164475 -0.1030646142921898 S
atom 7.4256950543041240 7.4256950543039659 -0.1030646142922918 S
atom 2.4752316847673854 2.4752316847673503 5.0441961387246756 S
atom 7.4256950333166722 2.4752317057548616 5.0441961387246179 S
atom 2.4752317057548821 7.4256950333166918 5.0441961387245691 S
atom 7.4256950543039943 7.4256950543040494 5.0441961387245922 S
atom 2.0459629126497982 0.0000017885281595 2.5339456340063871 S
atom 7.8549637844467597 -0.0000017465549682 2.5339456340064936 S
atom 2.9045004568850628 4.9504615810067047 2.5339456340065731 S
atom 6.9964262821863805 4.9504651580646861 2.5339456340064999 S
atom 3.0113283777531206 0.0000000757127653 7.6028770251687439 S
atom 6.8895983193435892 -0.0000000337394616 7.6028770251686728 S
atom 1.9391349917818996 4.9504632938222031 7.6028770251686453 S
atom 7.9617917472896096 4.9504634452492500 7.6028770251686808 S
atom -0.0000017675423895 2.9045004358976576 2.5339456340063657 S
atom 4.9504651370772672 2.0459629336371759 2.5339456340065243 S
atom 0.0000018095155547 6.9964262611988950 2.5339456340065478 S
atom 4.9504616019941654 7.8549638054341449 2.5339456340063489 S
atom -0.0000000547269255 1.9391349707944441 7.6028770251687154 S
atom 4.9504634242618621 3.0113283987404866 7.6028770251686373 S
atom 0.0000000967001545 7.9617917263022076 7.6028770251687288 S
atom 4.9504633148096202 6.8895983403309966 7.6028770251686595 S
atom -0.0000000000007651 -0.0000000000007909 10.1573407997128378 Ba
atom 4.9504633485483662 0.0000000209866406 10.1573407997128360 Ba
atom 0.0000000209866457 4.9504633485483671 10.1573407997127880 Ba
atom 4.9504633695357922 4.9504633695357843 10.1573407997127489 Ba
atom -0.0000000000008144 -0.0000000000007864 15.2623406841774880 Ba
atom 4.9504633485483689 0.0000000209866475 15.2623406841774703 Ba
atom 0.0000000209867038 4.9504633485483200 15.2623406841775875 Ba
atom 4.9504633695357807 4.9504633695358091 15.2623406841774862 Ba
atom 2.4752316847674987 2.4752316847675084 12.7024588150866080 Zr
atom 7.4256950333166358 2.4752317057549278 12.7024588150866222 Zr
atom 2.4752317057549211 7.4256950333165879 12.7024588150865991 Zr
atom 7.4256950543040592 7.4256950543040396 12.7024588150866702 Zr
atom 2.4752316847674760 2.4752316847674600 17.8222225532683822 Zr
atom 7.4256950333166447 2.4752317057549016 17.8222225532683751 Zr
atom 2.4752317057548887 7.4256950333166163 17.8222225532683929 Zr
atom 7.4256950543040841 7.4256950543040503 17.8222225532684249 Zr
atom 2.4752316847674951 2.4752316847674738 10.1526862769017239 S
atom 7.4256950333165967 2.4752317057548923 10.1526862769017470 S
atom 2.4752317057549260 7.4256950333165959 10.1526862769017505 S
atom 7.4256950543040183 7.4256950543040281 10.1526862769017026 S
atom 2.4752316847674387 2.4752316847676124 15.2623406841775644 S
atom 7.4256950333166509 2.4752317057549602 15.2623406841775129 S
atom 2.4752317057549038 7.4256950333164751 15.2623406841774596 S
atom 7.4256950543040503 7.4256950543039890 15.2623406841773495 S
atom 1.9404398107305989 0.0000000116725542 12.7104876466742418 S
atom 7.9604868863661054 0.0000000303007824 12.7104876466741903 S
atom 3.0100235588044728 4.9504633578623976 12.7104876466741690 S
atom 6.8909031802670935 4.9504633812090484 12.7104876466741388 S
atom 3.0100235378170166 0.0000000093133134 17.8141937216806845 S
atom 6.8909031592796959 0.0000000326599400 17.8141937216808124 S
atom 1.9404398317179954 4.9504633602216517 17.8141937216811215 S
atom 7.9604869073535696 4.9504633788499035 17.8141937216810433 S
atom 0.0000000093133431 3.0100235378170259 12.7104876466741246 S
atom 4.9504633602216472 1.9404398317179903 12.7104876466742258 S
atom 0.0000000326599399 6.8909031592796657 12.7104876466742240 S
atom 4.9504633788498760 7.9604869073535349 12.7104876466742454 S
atom 0.0000000116725352 1.9404398107305167 17.8141937216808302 S
atom 4.9504633578624819 3.0100235588044022 17.8141937216808230 S
atom 0.0000000303007623 7.9604868863661693 17.8141937216809119 S
atom 4.9504633812091043 6.8909031802671388 17.8141937216809190 S
atom -0.0000000000006629 -0.0000000000007919 20.3673405686422768 Ba
atom 4.9504633485483520 0.0000000209865757 20.3673405686421241 Ba
atom 0.0000000209866398 4.9504633485482934 20.3673405686423479 Ba
atom 4.9504633695358518 4.9504633695357354 20.3673405686421418 Ba
atom -0.0000000000009046 -0.0000000000009081 25.4544460796724863 Ba
atom 4.9504633485483449 0.0000000209866221 25.4544460796722767 Ba
atom 0.0000000209866384 4.9504633485482881 25.4544460796724543 Ba
atom 4.9504633695356652 4.9504633695356581 25.4544460796722731 Ba
atom 2.4752316847674884 2.4752316847674520 22.9417289293416360 Zr
atom 7.4256950333166003 2.4752317057548763 22.9417289293416644 Zr
atom 2.4752317057548994 7.4256950333165639 22.9417289293414832 Zr
atom 7.4256950543040379 7.4256950543040023 22.9417289293416324 Zr
atom 2.4752316847674383 2.4752316847674400 28.0839207112098030 Zr
atom 7.4256950333165133 2.4752317057548709 28.0839207112097853 Zr
atom 2.4752317057548554 7.4256950333165186 28.0839207112095792 Zr
atom 7.4256950543039411 7.4256950543039393 28.0839207112097284 Zr
atom 2.4752316847674307 2.4752316847672038 20.3719950914533996 S
atom 7.4256950333166429 2.4752317057548541 20.3719950914533960 S
atom 2.4752317057548665 7.4256950333168668 20.3719950914532681 S
atom 7.4256950543040672 7.4256950543040823 20.3719950914533499 S
atom 2.4752316847675147 2.4752316847677145 25.4804852296304141 S
atom 7.4256950333165266 2.4752317057548234 25.4804852296304567 S
atom 2.4752317057548527 7.4256950333162726 25.4804852296303821 S
atom 7.4256950543040254 7.4256950543040166 25.4804852296304247 S
atom 1.9391349707944410 -0.0000000547269643 22.9218043431866754 S
atom 7.9617917263022697 0.0000000967001494 22.9218043431864515 S
atom 3.0113283987405239 4.9504634242618515 22.9218043431861425 S
atom 6.8895983403310428 4.9504633148096016 22.9218043431863947 S
atom 2.9045004358976039 -0.0000017675424193 27.9907357343483270 S
atom 6.9964262611989350 0.0000018095155086 27.9907357343486609 S
atom 2.0459629336372744 4.9504651370772192 27.9907357343488279 S
atom 7.8549638054341182 4.9504616019941414 27.9907357343485401 S
atom 0.0000000757127211 3.0113283777530704 22.9218043431864231 S
atom 4.9504632938222146 1.9391349917818437 22.9218043431863521 S
atom -0.0000000337394806 6.8895983193435537 22.9218043431864587 S
atom 4.9504634452492651 7.9617917472896087 22.9218043431863947 S
atom 0.0000017885281357 2.0459629126498449 27.9907357343486183 S
atom 4.9504615810067074 2.9045004568850565 27.9907357343485756 S
atom -0.0000017465549618 7.8549637844466202 27.9907357343487178 S
atom 4.9504651580646399 6.9964262821862819 27.9907357343485401 S
atom -0.0000000000007793 -0.0000000000008531 30.3621741692098830 Ba
atom 4.9504633485481220 0.0000000209866045 30.3621741692096698 Ba
atom 0.0000000209864320 4.9504633485482650 30.3621741692099256 Ba
atom 4.9504633695355018 4.9504633695356919 30.3621741692099576 Ba
atom 2.4752316847674813 2.4752316847671589 30.6277459826473901 S
atom 7.4256950333164911 2.4752317057548390 30.6277459826472906 S
atom 2.4752317057549460 7.4256950333166936 30.6277459826473013 S
atom 7.4256950543038176 7.4256950543038833 30.6277459826473120 S
atom 2.4752316847674432 2.4752316847672500 33.7397055095914595 Ba
atom 7.4256950333165852 2.4752317057547160 33.7397055095913458 Ba
atom 2.4752317057545588 7.4256950333163694 33.7397055095913672 Ba
atom 7.4256950543037039 7.4256950543038842 33.7397055095912535 Ba
atom 2.4752316847668867 2.4752316847672495 38.6473712237178191 Ba
atom 7.4256950333160150 2.4752317057545778 38.6473712237173714 Ba
atom 2.4752317057549011 7.4256950333162752 38.6473712237175633 Ba
atom 7.4256950543040636 7.4256950543037314 38.6473712237172222 Ba
atom 4.9504633695354698 4.9504633695354263 36.0179319316793070 Zr
atom 9.9009267180846745 4.9504633905228745 36.0179319316792359 Zr
atom 4.9504633905228976 9.9009267180846479 36.0179319316790512 Zr
atom 9.9009267390720908 9.9009267390720783 36.0179319316793141 Zr
atom 4.9504633695354574 4.9504633695354059 41.1601015309528577 Zr
atom 9.9009267180845910 4.9504633905228417 41.1601015309528151 Zr
atom 4.9504633905228861 9.9009267180845164 41.1601015309524811 Zr
atom 9.9009267390719931 9.9009267390719433 41.1601015309526801 Zr
atom 4.9504633695355595 4.9504633695352975 33.4741122718472539 S
atom 9.9009267180845892 4.9504633905227982 33.4741122718467707 S
atom 4.9504633905229189 9.9009267180847953 33.4741122718469057 S
atom 9.9009267390720836 9.9009267390721440 33.4741122718469555 S
atom 4.9504633695352274 4.9504633695356315 38.6213516646196950 S
atom 9.9009267180849001 4.9504633905229305 38.6213516646192190 S
atom 4.9504633905228062 9.9009267180843192 38.6213516646193540 S
atom 9.9009267390721281 9.9009267390718918 38.6213516646192829 S
atom 4.5212597259688074 2.4752334738121191 36.1111087010039498 S
atom 10.3301303406638318 2.4752299376971636 36.1111087010035234 S
atom 5.3796670131021607 7.4256932652587988 36.1111087010035163 S
atom 9.4717230955054390 7.4256968433486188 36.1111087010032819 S
atom 5.4865581250964732 2.4752317613481618 41.1800080407110158 S
atom 9.3648319415361296 2.4752316501609060 41.1800080407107032 S
atom 4.4143686139744425 7.4256949777226779 41.1800080407116340 S
atom 10.4370214946329494 7.4256951308847583 41.1800080407110158 S
atom 2.4752299167097829 5.3796669921146822 36.1111087010034026 S
atom 7.4256968223612132 4.5212597469562921 36.1111087010037579 S
atom 2.4752334947995829 9.4717230745179002 36.1111087010035163 S
atom 7.4256932862462568 10.3301303616512143 36.1111087010034382 S
atom 2.4752316291733956 4.4143685929869552 41.1800080407113995 S
atom 7.4256951098975161 5.4865581460838015 41.1800080407106037 S
atom 2.4752317823356940 10.4370214736455651 41.1800080407113214 S
atom 7.4256949987100294 9.3648319625235654 41.1800080407109377 S
atom 2.4752316847674583 2.4752316847670457 43.7344740565144008 Ba
atom 7.4256950333166021 2.4752317057545641 43.7344740565141592 Ba
atom 2.4752317057541875 7.4256950333162788 43.7344740565142232 Ba
atom 7.4256950543033904 7.4256950543036089 43.7344740565137968 Ba
atom 2.4752316847668649 2.4752316847672087 48.8394901893759013 Ba
atom 7.4256950333158658 2.4752317057545010 48.8394901893756597 Ba
atom 2.4752317057548345 7.4256950333161340 48.8394901893758515 Ba
atom 7.4256950543040192 7.4256950543036888 48.8394901893754536 Ba
atom 4.9504633695354530 4.9504633695354139 46.2796063340046118 Zr
atom 9.9009267180845431 4.9504633905228017 46.2796063340039794 Zr
atom 4.9504633905228443 9.9009267180844827 46.2796063340037378 Zr
atom 9.9009267390719753 9.9009267390719309 46.2796063340042920 Zr
atom 4.9504633695353775 4.9504633695354272 51.3993740447472760 Zr
atom 9.9009267180845359 4.9504633905228292 51.3993740447469918 Zr
atom 4.9504633905227982 9.9009267180844969 51.3993740447469563 Zr
atom 9.9009267390719558 9.9009267390719007 51.3993740447471481 Zr
atom 4.9504633695357754 4.9504633695351750 43.7298330243566369 S
atom 9.9009267180842713 4.9504633905226143 43.7298330243563669 S
atom 4.9504633905229554 9.9009267180847260 43.7298330243564664 S
atom 9.9009267390719060 9.9009267390721831 43.7298330243562390 S
atom 4.9504633695351430 4.9504633695355977 48.8394901893755389 S
atom 9.9009267180848539 4.9504633905231019 48.8394901893755105 S
atom 4.9504633905227893 9.9009267180843086 48.8394901893755957 S
atom 9.9009267390720819 9.9009267390716751 48.8394901893754820 S
atom 4.4156531209966312 2.4752316966006775 46.2876376897186859 S
atom 10.4357369456359415 2.4752317149083982 46.2876376897181956 S
atom 5.4852736180742410 7.4256950424699681 46.2876376897183448 S
atom 9.3661164905331713 7.4256950661373091 46.2876376897177835 S
atom 5.4852735970867874 2.4752316939209082 51.3913426890333227 S
atom 9.3661164695457000 2.4752317175880227 51.3913426890326832 S
atom 4.4156531419839764 7.4256950451498369 51.3913426890336282 S
atom 10.4357369666233453 7.4256950634576278 51.3913426890332801 S
atom 2.4752316939209593 5.4852735970867315 46.2876376897180961 S
atom 7.4256950451499675 4.4156531419839693 46.2876376897185082 S
atom 2.4752317175881302 9.3661164695457071 46.2876376897182951 S
atom 7.4256950634575629 10.4357369666233435 46.2876376897182880 S
atom 2.4752316966007766 4.4156531209965157 51.3913426890336353 S
atom 7.4256950424700410 5.4852736180742241 51.3913426890329958 S
atom 2.4752317149083236 10.4357369456359486 51.3913426890333298 S
atom 7.4256950661373686 9.3661164905331127 51.3913426890331024 S
atom 2.4752316847671785 2.4752316847669849 53.9445063222375794 Ba
atom 7.4256950333165435 2.4752317057545112 53.9445063222372099 Ba
atom 2.4752317057542825 7.4256950333162575 53.9445063222373022 Ba
atom 7.4256950543031737 7.4256950543036409 53.9445063222369896 Ba
atom 2.4752316847670173 2.4752316847670155 59.0316091550341469 Ba
atom 7.4256950333156500 2.4752317057545050 59.0316091550339195 Ba
atom 2.4752317057544260 7.4256950333162708 59.0316091550339763 Ba
atom 7.4256950543040254 7.4256950543035671 59.0316091550335145 Ba
atom 4.9504633695353784 4.9504633695353455 56.5188788477990869 Zr
atom 9.9009267180845413 4.9504633905228106 56.5188788477989590 Zr
atom 4.9504633905228417 9.9009267180845875 56.5188788477986463 Zr
atom 9.9009267390719540 9.9009267390719842 56.5188788477987245 Zr
atom 4.9504633695355800 4.9504633695355702 61.6610484470724032 Zr
atom 9.9009267180846710 4.9504633905228843 61.6610484470721474 Zr
atom 4.9504633905230566 9.9009267180845573 61.6610484470721048 Zr
atom 9.9009267390720481 9.9009267390721174 61.6610484470720550 Zr
atom 4.9504633695356830 4.9504633695353952 53.9491473543949311 S
atom 9.9009267180843654 4.9504633905224473 53.9491473543948175 S
atom 4.9504633905229696 9.9009267180845963 53.9491473543948956 S
atom 9.9009267390719060 9.9009267390723839 53.9491473543951869 S
atom 4.9504633695354210 4.9504633695351048 59.0576287141321004 S
atom 9.9009267180847047 4.9504633905235789 59.0576287141318019 S
atom 4.9504633905226303 9.9009267180849605 59.0576287141317238 S
atom 9.9009267390723714 9.9009267390713340 59.0576287141318588 S
atom 4.4143685929869685 2.4752316291734631 56.4989723380403746 S
atom 10.4370214736454781 2.4752317823357450 56.4989723380405024 S
atom 5.4865581460837323 7.4256951098973261 56.4989723380404030 S
atom 9.3648319625235104 7.4256949987099459 56.4989723380394793 S
atom 5.3796669921147044 2.4752299167097300 61.5678716777486201 S
atom 9.4717230745178291 2.4752334947995234 61.5678716777470214 S
atom 4.5212597469561224 7.4256968223612132 61.5678716777476538 S
atom 10.3301303616513032 7.4256932862462826 61.5678716777486414 S
atom 2.4752317613483026 5.4865581250963569 56.4989723380401969 S
atom 7.4256949777225341 4.4143686139744052 56.4989723380403319 S
atom 2.4752316501608647 9.3648319415361225 56.4989723380400690 S
atom 7.4256951308847805 10.4370214946329405 56.4989723380403603 S
atom 2.4752334738121227 4.5212597259687550 61.5678716777481370 S
atom 7.4256932652588938 5.3796670131021731 61.5678716777478670 S
atom 2.4752299376971632 10.3301303406637786 61.5678716777483430 S
atom 7.4256968433487183 9.4717230955052099 61.5678716777475401 S
atom 2.4752316847676887 2.4752316847673534 63.9392748691602435 Ba
atom 7.4256950333170089 2.4752317057549020 63.9392748691600801 Ba
atom 2.4752317057551609 7.4256950333164573 63.9392748691601511 Ba
atom 7.4256950543039784 7.4256950543039757 63.9392748691599664 Ba
atom 4.9504633695355063 4.9504633695360587 64.2048681069042004 S
atom 9.9009267180844525 4.9504633905222164 64.2048681069040867 S
atom 4.9504633905232698 9.9009267180840279 64.2048681069041862 S
atom 9.9009267390715703 9.9009267390727391 64.2048681069041720 S
