#=======================================================
# FHI-aims file: full_relax/full_relax_RP_2_Rx0Rz_0Ry0.in
# Created using the Atomic Simulation Environment (ASE)
# Fri Mar 14 11:18:02 2025
#=======================================================
lattice_vector 10.0975056981523625 -0.0000000000000021 0.0002332958003478 
lattice_vector -0.0000000000000021 10.0974959414881855 0.0000000000000002 
lattice_vector -0.0005116476401681 0.0000000000000005 25.4733341076378430 
atom -0.1650733061248183 0.0000000000013646 0.2875149034290483 Ba
atom 5.2140240108980622 0.0000000000017095 0.2876276961581851 Ba
atom 0.1652711618177419 5.0487479707421850 0.2875110482659864 Ba
atom 4.8836795429544431 5.0487479707418652 0.2876315513241109 Ba
atom 0.0439295308407640 -0.0000000000016838 4.8987292381021819 Ba
atom 5.0046265306808424 -0.0000000000013195 4.8988236050393112 Ba
atom -0.0441263183878970 5.0487479707451746 4.8987069571356887 Ba
atom 5.0926823799101433 5.0487479707447500 4.8988458860059483 Ba
atom 2.5243979120388880 2.5043282915936973 2.3640224841540243 Zr
atom 7.5731507611591518 2.5444196791325751 2.3641391320381389 Zr
atom 2.5243979120366222 7.5931676498942586 2.3640224841647046 Zr
atom 7.5731507611607496 7.5530762623508600 2.3641391320474838 Zr
atom 2.5241581494548111 2.5043282915925507 7.4335303589926029 Zr
atom 7.5729109985427758 2.5444196791356624 7.4336470068996698 Zr
atom 2.5241581494533030 7.5931676498937515 7.4335303589863182 Zr
atom 7.5729109985445326 7.5530762623504302 7.4336470068972149 Zr
atom 2.5244517060966505 2.8072816365195767 -0.1224632186506988 S
atom 7.5732045551677887 2.2414663342250321 -0.1223465707486438 S
atom 2.5244517060967575 7.2902143049674875 -0.1224632186593653 S
atom 7.5732045551674450 7.8560296072612319 -0.1223465707510226 S
atom 2.5242780307635071 2.1093497991489194 4.8987764215651186 S
atom 7.5730308798344543 2.9393981715965132 4.8988930694754105 S
atom 2.5242780307636443 7.9881461423387545 4.8987764215618457 S
atom 7.5730308798341275 7.1580977698905919 4.8988930694730382 S
atom 2.5244925326015459 0.0000000000024657 2.0834590351018316 S
atom 7.5730601251738650 -0.0000000000024512 2.7786283317807849 S
atom 2.5243072761057181 5.0487479707428964 2.7785116838799806 S
atom 7.5732453816697287 5.0487479707513714 2.0835756830021253 S
atom 2.5240635289252000 0.0000000000072506 7.7140938080383785 S
atom 7.5730016344942586 -0.0000000000015665 7.0191578071587513 S
atom 2.5242487854212436 5.0487479707401297 7.0190411592585740 S
atom 7.5728163779984738 5.0487479707469509 7.7142104559358122 S
atom 0.0000109921421878 2.5242967149086355 2.4788179635028662 S
atom 5.0487638412158251 2.5244512558361372 2.4789346114039468 S
atom 0.0000109921367693 7.5731992265779278 2.4788179635011698 S
atom 5.0487638412226241 7.5730446856504203 2.4789346114024284 S
atom -0.0002077797040090 2.5244512558365662 7.3186182317358313 S
atom 5.0485450693913707 2.5242967149089428 7.3187348796359446 S
atom -0.0002077797121708 7.5730446856502827 7.3186182317372710 S
atom 5.0485450693989655 7.5731992265779171 7.3187348796372769 S
atom -0.1654679493743208 -0.0000000000002719 9.5099251469815496 Ba
atom 5.2136293676464307 -0.0000000000000059 9.5100379397236861 Ba
atom 0.1648765185713899 5.0487479707436833 9.5099212918205520 Ba
atom 4.8832848997002918 5.0487479707434106 9.5100417948806388 Ba
atom 2.5241043554289577 2.8072816365195314 9.9200160617969502 S
atom 7.5728572045020579 2.2414663342249717 9.9201327096954195 S
atom 2.5241043554291465 7.2902143049670238 9.9200160618018725 S
atom 7.5728572045019673 7.8560296072616884 9.9201327096886516 S
atom 2.5240380499813262 2.6895551863337306 13.0242278006533585 Ba
atom 7.5727908990631043 2.3591927844068303 13.0243444485523039 Ba
atom 2.5240380499815909 7.4079407551539349 13.0242278006553089 Ba
atom 7.5727908990629373 7.7383031570801295 13.0243444485564535 Ba
atom 2.5240222069422038 2.4803614871792785 17.6354434753935791 Ba
atom 7.5727750560149127 2.5683864835663415 17.6355601232944927 Ba
atom 2.5240222069423308 7.6171344543084514 17.6354434753841574 Ba
atom 7.5727750560146534 7.5291094579206996 17.6355601232849537 Ba
atom 5.0684345486985833 5.0487479707500880 15.1007462863829804 Zr
atom 10.0770788180117652 5.0487479707475487 15.1008576377371764 Zr
atom 5.0283259689305595 10.0974959414805632 15.1007409898481519 Zr
atom 10.1171873977691131 10.0974959414804868 15.1008629342608014 Zr
atom 5.0684712940233299 5.0487479707055485 20.1702626088172075 Zr
atom 10.0771155633406302 5.0487479707048628 20.1703739602143806 Zr
atom 5.0283627142696563 10.0974959415261658 20.1702573123120139 Zr
atom 10.1172241430931127 10.0974959415259011 20.1703792567287188 Zr
atom 4.7655532459122973 5.0487479707432135 12.6142474528340287 S
atom 10.3800826157457760 5.0487479707429346 12.6143744092096917 S
atom 5.3313297666697670 10.0974959414883063 12.6142577612886662 S
atom 9.8143060949866001 10.0974959414879528 12.6143641007373333 S
atom 5.4634223856941118 5.0487479707464225 17.6355050068264774 S
atom 9.6821277263410064 5.0487479707460139 17.6356152397473522 S
atom 4.6333748772621695 10.0974959414848442 17.6354985918474902 S
atom 10.5121752347697264 10.0974959414841212 17.6356216547373492 S
atom 5.0483671964583081 2.5243733069495273 15.2156019947596679 S
atom 10.0971200455345382 2.5243746638070892 15.2157186426608266 S
atom 5.0483671964581838 7.5731226345393940 15.2156019947598722 S
atom 10.0971200455347319 7.5731212776874353 15.2157186426608870 S
atom 5.0484300664976605 2.5243746637943660 20.0554016039233254 S
atom 10.0971829155752246 2.5243733069530938 20.0555182518219048 S
atom 5.0484300664975876 7.5731212776922474 20.0554016039220500 S
atom 10.0971829155753028 7.5731226345354852 20.0555182518206649 S
atom 2.5240047677843482 5.0487479707427001 15.5151468732895701 S
atom 7.5727711002423126 5.0487479707421139 14.8202679481039290 S
atom 2.5240182511777487 10.0974959414880452 14.8201513002049428 S
atom 7.5727576168629138 10.0974959414878658 15.5152635211927166 S
atom 2.5240396460884136 5.0487479707500933 19.7557400774931153 S
atom 7.5727790117986844 5.0487479707503882 20.4508522984793863 S
atom 2.5240261627123344 10.0974959414808740 20.4507356505767497 S
atom 7.5727924951754302 10.0974959414814744 19.7558567253901494 S
atom 2.5240063638968846 2.6895551863326426 22.2466591501154127 Ba
atom 7.5727592129729819 2.3591927844083380 22.2467757980176621 Ba
atom 2.5240063638968935 7.4079407551538079 22.2466591501250797 Ba
atom 7.5727592129729357 7.7383031570796721 22.2467757980255563 Ba
atom 4.7654674962873900 5.0487479707483125 22.6567458373792547 S
atom 10.3799968661218429 5.0487479707481748 22.6568727937349976 S
atom 5.3312440170454236 10.0974959414833876 22.6567561458460602 S
atom 9.8142203453651593 10.0974959414832437 22.6568624852769958 S
