#=======================================================
# FHI-aims file: full_relax/full_relax_RP_5_Rx0Rz_0RyRz.in
# Created using the Atomic Simulation Environment (ASE)
# Fri Mar 14 11:31:12 2025
#=======================================================
lattice_vector 10.0874245467096877 0.0004354614513976 0.0038118459228332 
lattice_vector 0.0004354614513977 10.0874245467101495 -0.0038118459225758 
lattice_vector 0.0172045159920905 -0.0172045159906042 55.0975715296911304 
atom -0.1638358111042265 -0.0078137258339562 0.2819437975371760 Ba
atom 5.1877003818630385 -0.0073539803135948 0.2829677240907673 Ba
atom 0.1442058393003166 5.0361405634349401 0.2791558774285767 Ba
atom 4.8800941924756023 5.0361162793675307 0.2819437967979744 Ba
atom 0.0009157678398138 -0.0061994525619931 4.9492095826552420 Ba
atom 4.9884188069829181 -0.0050757910759642 4.9397563352345983 Ba
atom -0.0550757355080097 5.0384187518939445 4.9359444865460302 Ba
atom 5.0448457717097650 5.0377305518336568 4.9492095855014053 Ba
atom 2.5098798041465726 2.5024105803489283 2.3224019954292454 Zr
atom 7.5536958639972518 2.5279081409307533 2.3245753566976237 Zr
atom 2.5102013164390446 7.5714026804380321 2.3207635098680526 Zr
atom 7.5538098131348823 7.5463405830808137 2.3224019955144968 Zr
atom 2.5114770544344567 2.5157338105318754 7.3352948059686689 Zr
atom 7.5550746737397256 2.5182080954642982 7.3372777595682503 Zr
atom 2.5115801514463660 7.5617026372893603 7.3334659102968427 Zr
atom 7.5554070382011513 7.5596638128788731 7.3352948031564909 Zr
atom 2.5130476303574545 2.8686375754739397 -0.1589208256156702 S
atom 7.5553711851380569 2.1598153210521427 -0.1564560543973420 S
atom 2.5118766438711719 7.2033098637984256 -0.1602679033892327 S
atom 7.5569776330713996 7.9125675809008378 -0.1589208284292626 S
atom 2.5122977898181040 2.0450983109073912 4.8640252959384487 S
atom 7.5586135125303064 2.9869896618233560 4.8656293905112324 S
atom 2.5151189681179709 8.0304842045713194 4.8618175531231813 S
atom 7.5562277956579376 7.0890283156435610 4.8640253029106821 S
atom 2.5126834195413998 -0.0069245136192826 2.0088170990066123 S
atom 7.5504657415424150 -0.0064353504749539 2.8009751184468867 S
atom 2.5069711995458221 5.0370591851732271 2.7971632725066797 S
atom 7.5566134224910195 5.0370054810419926 2.0088170994464387 S
atom 2.5891207685334119 -0.0048913566094282 7.8074287165546927 S
atom 7.5002679752697672 -0.0049881550623686 6.8847283891384068 S
atom 2.4567734290406276 5.0385063941768795 6.8809165433197270 S
atom 7.6330507768700624 5.0390386544470678 7.8074287166553606 S
atom -0.0112087385437941 2.5139460220673286 2.4542829034864635 S
atom 5.0324767923340250 2.5162664365884804 2.4582538767268778 S
atom -0.0110177521963851 7.5597609796007132 2.4544420305220083 S
atom 5.0327212674867710 7.5578760265224618 2.4542829029541391 S
atom -0.0058672855475724 2.4378268879786700 7.3493555433513524 S
atom 5.0378485120855574 2.5958825675624060 7.3474503338623389 S
atom -0.0056460311003403 7.6393771105119921 7.3436384880884731 S
atom 5.0380627191903251 7.4817568926457145 7.3493555426637656 S
atom -0.0162878877646787 -0.0035130074611135 9.7890473681570871 Ba
atom 5.0467518978165788 -0.0050513671482241 9.8768501733911478 Ba
atom 0.0032573552801172 5.0384431742574396 9.8730383262361450 Ba
atom 5.0276421165036229 5.0404169953445779 9.7890473679916887 Ba
atom 0.0239684753556485 -0.0041675773314826 14.8080827816309757 Ba
atom 5.0483532361836403 -0.0021937564491728 14.7240918215168044 Ba
atom 0.0048586944982028 5.0413007823420992 14.7202799774238482 Ba
atom 5.0678984785546159 5.0397624227668336 14.8080827807729971 Ba
atom 2.5258053080364755 2.5181247079371873 12.2985650817029661 Zr
atom 7.5695175570438566 2.5183424383336401 12.3004710031008884 Zr
atom 2.5260230391245542 7.5618369810928812 12.2966591537478518 Zr
atom 7.5697352873513868 7.5620547138680898 12.2985650757159863 Zr
atom 2.5401335534327236 2.5205156082427229 17.2618353430048721 Zr
atom 7.5839604482640279 2.5184767822857612 17.2636642367085784 Zr
atom 2.5404659183905496 7.5619713240729967 17.2598523918700586 Zr
atom 7.5840635445927482 7.5644456119854588 17.2618353470686117 Zr
atom 2.5234906420398491 3.0191623915901578 9.8210027733273808 S
atom 7.5635239975142321 2.0159092568365953 9.8232217065792540 S
atom 2.5200294509378427 7.0594038002301964 9.8194098597116888 S
atom 7.5674206500352827 8.0630923948475228 9.8210027733010641 S
atom 2.5281199457948413 2.0170870243055732 14.7761273589427731 S
atom 7.5755111446031478 3.0207756217796597 14.7777202735076401 S
atom 2.5320165982051037 8.0642701627025701 14.7739084364907356 S
atom 7.5720499536019528 7.0610170302046473 14.7761273690071597 S
atom 2.4347272373240596 -0.0038916961050824 11.8282091771157614 S
atom 7.6603778967152207 -0.0033534349041078 12.7727328149898636 S
atom 2.6168833492672321 5.0401411131685290 12.7689209688493417 S
atom 7.4786572465017764 5.0400383124885835 11.8282091775304874 S
atom 2.5948371595605324 -0.0022569861323711 17.7162136049282992 S
atom 7.5059843649105211 -0.0023537832966460 16.7935132751568119 S
atom 2.4624898193135722 5.0411407814371136 16.7897014289350714 S
atom 7.6387671660891066 5.0416730402090586 17.7162136046527614 S
atom 0.0039402971499441 2.6274465947774046 12.2953542640323601 S
atom 5.0476702941389053 2.4088028222680600 12.3017758826582817 S
atom 0.0041757501313326 7.4522973646163368 12.2979640364949336 S
atom 5.0478703028154621 7.6713765981774973 12.2953542641905766 S
atom 0.0137620773946082 2.4403668483470899 17.2496798129886422 S
atom 5.0574778792174548 2.5984225285195213 17.2477746038812967 S
atom 0.0139833336693862 7.6419170709757402 17.2439627579151136 S
atom 5.0576920844605127 7.4842968532219762 17.2496798129322144 S
atom 0.0067648191255532 -0.0014811337363856 19.6479205606270639 Ba
atom 5.1066863276025742 -0.0021693338654527 19.6611856560129894 Ba
atom 0.0631917851550434 5.0413252061351095 19.6573738106892648 Ba
atom 5.0506948233095077 5.0424488676400490 19.6479205596313733 Ba
atom 0.1715163970140679 0.0001331369132290 24.3151863521488387 Ba
atom 4.9074047538993559 0.0001088529595914 24.3179742678912980 Ba
atom -0.1360897890555158 5.0436033971772511 24.3141624263663516 Ba
atom 5.2154464018371485 5.0440631425863520 24.3151863496354395 Ba
atom 2.5417307881196618 2.5338388387018860 22.2747281272067248 Zr
atom 7.5853392735004359 2.5087767368277443 22.2763666135844218 Zr
atom 2.5418447369138115 7.5522712810070196 22.2725547728260374 Zr
atom 7.5856607862255592 7.5777688413200597 22.2747281340034569 Zr
atom 2.5393127999597769 2.9911511055571873 19.7331048657118551 S
atom 7.5804216274783878 2.0496952160750421 19.7353126136920238 S
atom 2.5369270831334134 7.0931897603575687 19.7315007571645715 S
atom 7.5832428058373109 8.0350811079689120 19.7331048498958808 S
atom 2.5385629617734446 2.1676118392760264 24.7560509831753848 S
atom 7.5836639525909444 2.8768695578400378 24.7573980578348944 S
atom 2.5401694097808023 7.9203641010001062 24.7535862110491252 S
atom 7.5824929660426221 7.2115418431407168 24.7560509832976159 S
atom 2.5446393916271832 -0.0008097712939518 21.7999668789519170 S
atom 7.5824217156427913 -0.0003206042713539 22.5921248965931447 S
atom 2.5389271721618600 5.0431739328863880 22.5883130502910383 S
atom 7.5885693971530168 5.0431202299042983 21.7999668788109595 S
atom 0.0191338009667721 2.5199829798386255 22.1388762732808466 S
atom 5.0628193284775662 2.5223033943599718 22.1428472470272908 S
atom 0.0193247888773738 7.5657979369021406 22.1390354009439818 S
atom 5.0630638019043230 7.5639129838238874 22.1388762738813618 S
atom 2.5383809824319452 2.6771985545551709 27.8307295668071006 Ba
atom 7.5818512467590660 2.3695923694279606 27.8317534931606225 Ba
atom 2.5383566982583896 7.4130869097388281 27.8279416455643442 Ba
atom 7.5823109923880025 7.7211285561864402 27.8307295645500012 Ba
atom 2.5367667107018299 2.5124469764176274 32.4979953428964166 Ba
atom 7.5795730568072779 2.5688739448124687 32.4885420926203636 Ba
atom 2.5360785103873345 7.6123684841138548 32.4847302494805916 Ba
atom 7.5806967184928098 7.5563769765711317 32.4979953455177579 Ba
atom 5.0720866893742178 5.0474129356892226 29.8711877797149832 Zr
atom 10.0905191279428763 5.0475268856029514 29.8733611414776590 Zr
atom 5.0470245816033596 10.0910214390919268 29.8695492929247095 Zr
atom 10.1160166885428779 10.0913429506284285 29.8711877780094142 Zr
atom 5.0587634580127601 5.0458157098305536 34.8840805456480965 Zr
atom 10.1002191686513214 5.0461480754273635 34.8860634929271711 Zr
atom 5.0567246277911266 10.0896426049780228 34.8822516568237262 Zr
atom 10.1026934618342956 10.0897457007147455 34.8840805441519919 Zr
atom 4.7058596876848755 5.0442451190420456 27.3898649245396761 S
atom 10.4586119506298516 5.0458515669338952 27.3923296824139797 S
atom 5.4151174038107133 10.0893461084187699 27.3885178567856826 S
atom 9.7497896891266596 10.0881751219846247 27.3898649165476868 S
atom 5.5293989501407417 5.0449949569598811 32.4128110763926571 S
atom 9.6314376084542879 5.0426092399611306 32.4144151951080204 S
atom 4.5879430667578456 10.0861037837033152 32.4106033168895777 S
atom 10.5733289542450954 10.0889249621425900 32.4128110961833045 S
atom 5.0582308271762253 2.5248159447984979 30.0070396379031905 S
atom 10.1040457845928895 2.5250069339781560 30.0068805096376323 S
atom 5.0605512416770271 7.5685014975892813 30.0030686653461629 S
atom 10.1021608314978550 7.5687459698304194 30.0070396378526638 S
atom 4.9786146964556730 2.5194442355251021 34.8962361038971451 S
atom 10.1801649182364375 2.5196654858059722 34.9019531586404881 S
atom 5.1366703755851688 7.5631600343728316 34.8981413118454640 S
atom 10.0225447008470994 7.5633742454895980 34.8962361025718835 S
atom 2.5374380927648335 5.0503215497364957 30.3459490352925307 S
atom 7.5814217589338062 5.0446093300506245 29.5576028580539614 S
atom 2.5379272659970176 10.0881038708873572 29.5537910137358004 S
atom 7.5813680600714957 10.0942515521556064 30.3459490346885659 S
atom 2.5359908697247056 5.1005193159710931 34.4297023154110420 S
atom 7.5793886210266237 4.9681719760109848 35.3562144841476638 S
atom 2.5358940677410358 10.0116665216202545 35.3524026378624896 S
atom 7.5799208840330916 10.1444493220534806 34.4297023155248212 S
atom 2.5340802677379890 2.5296506302137867 37.3378331378551565 Ba
atom 7.5795486324649710 2.5105408528134121 37.4256359420457088 Ba
atom 2.5360540882900113 7.5540353946713577 37.4218240972760654 Ba
atom 7.5780102729541081 7.5735806324125177 37.3378331378196791 Ba
atom 2.5347348407836150 2.4893942665792603 42.3568685474986708 Ba
atom 7.5766910212520866 2.5089395138308079 42.2728775888048958 Ba
atom 2.5331964804749085 7.5524340570755015 42.2690657412463722 Ba
atom 7.5786648424677985 7.5333242703293166 42.3568685458970720 Ba
atom 5.0563725593380919 5.0314874602223458 39.8473508929120541 Zr
atom 10.1000848269553600 5.0317051923031357 39.8492568086447179 Zr
atom 5.0565902831637608 10.0751997172426666 39.8454449703636726 Zr
atom 10.1003025627586958 10.0754174467434368 39.8473508891661155 Zr
atom 5.0539816582864532 5.0171592011948114 44.8106210619572636 Zr
atom 10.0999504815962826 5.0172623007783725 44.8124499442040687 Zr
atom 5.0564559420178590 10.0607568403227710 44.8086381072864484 Zr
atom 10.0979116647509262 10.0610892025970919 44.8106210471119866 Zr
atom 4.5553348688170132 5.0338021032379210 37.3697885221602206 S
atom 10.6025180157809658 5.0376987556171189 37.3720074425955104 S
atom 5.5590234717326350 10.0811933000168974 37.3681956136325937 S
atom 9.5992648726181109 10.0777321090489771 37.3697885058386561 S
atom 5.5574102346924441 5.0291727991048996 42.3249131101844398 S
atom 9.5976516532791347 5.0257116079396846 42.3265060583896116 S
atom 4.5541571093090605 10.0692061533237851 42.3226941714643132 S
atom 10.6013402371959256 10.0731028061439378 42.3249131418032718 S
atom 5.1656944419362327 2.5096224480300067 39.8505616406992615 S
atom 9.9905452117955029 2.5098579072936675 39.8479518672511404 S
atom 4.9470506698882355 7.5533524571040411 39.8441400234707643 S
atom 10.2096244464071724 7.5535524588470819 39.8505616408913852 S
atom 4.9760747348806831 2.4998148713603996 44.7965603759799933 S
atom 10.1776249579073941 2.5000361295402698 44.8022774314097774 S
atom 5.1341304160158225 7.5435306681560572 44.7984655843429493 S
atom 10.0200047401003864 7.5437448709651385 44.7965603756101913 S
atom 2.5343561611654972 4.9404093949404153 40.3177067272223866 S
atom 7.5783889497676702 5.1225655069553353 39.3769949330675928 S
atom 2.5348944283976431 10.1660600530015728 39.3731830874708635 S
atom 7.5782861451580628 9.9843394024891072 40.3177067266191003 S
atom 2.5333564720313135 5.0948029267909130 44.3384872004587152 S
atom 7.5767542625477944 4.9624555867892060 45.2649993803300390 S
atom 2.5332596746577596 10.0059501297022067 45.2611875349268686 S
atom 7.5772865177291964 10.1387329318169037 44.3384871999730095 S
atom 2.5320483999884535 2.5065979225908257 47.1967063176246100 Ba
atom 7.5766665944626990 2.4506064246043260 47.2099714134775681 Ba
atom 2.5331720607400823 7.4941009660442122 47.2061595667401264 Ba
atom 7.5759783950122106 7.5505279247663539 47.1967063161481306 Ba
atom 2.5304341212966062 2.3418463442501256 51.8639721249960672 Ba
atom 7.5743884114197471 2.6498880000457388 51.8667600442635219 Ba
atom 2.5308938661216662 7.6933825396223359 51.8629482001204352 Ba
atom 7.5743641280464171 7.3857763448273444 51.8639721266526337 Ba
atom 5.0406584299989392 5.0155619571791785 49.8235139216130420 Zr
atom 10.1096505234993241 5.0158834730644379 49.8251524259991285 Zr
atom 5.0661559834009013 10.0593780240417345 49.8213405588988394 Zr
atom 10.0845884377418233 10.0594919694729761 49.8235139378722067 Zr
atom 4.5833461527699297 5.0179799480973868 47.2818906666564871 S
atom 10.5687320541098515 5.0208011259038878 47.2840983973066784 S
atom 5.5252375149625292 10.0642956675677819 47.2802865788753124 S
atom 9.6272761609232269 10.0619099510299872 47.2818906582216982 S
atom 5.4068854225972078 5.0187297866234566 52.3048367196775530 S
atom 9.7415577123392492 5.0175587997764453 52.3061837859034213 S
atom 4.6980631703097107 10.0610533419605339 52.3023719449712274 S
atom 10.4508154259921859 10.0626597902477144 52.3048367074702369 S
atom 5.0521938699395319 2.4944734093273846 49.6916330056202113 S
atom 10.0980088267370451 2.4946643948914971 49.6914738771164153 S
atom 5.0545142844800868 7.5381589575086796 49.6876620324616241 S
atom 10.0961238736470449 7.5384034335290373 49.6916330049479669 S
atom 2.5313233280791101 5.0183655762532116 50.1370988060857599 S
atom 7.5753070390766872 5.0126533564644697 49.3487526394333571 S
atom 2.5318124901264505 10.0561478977374144 49.3449407944037688 S
atom 7.5752533351844624 10.0622955788966859 50.1370988047300941 S
