#=======================================================
# FHI-aims file: full_relax/full_relax_RP_6_RxRyRz_RxRyRz.in
# Created using the Atomic Simulation Environment (ASE)
# Fri Mar 14 11:46:18 2025
#=======================================================
lattice_vector 9.9746774735196393 0.0053564392368386 0.0002310525437665 
lattice_vector 0.0053564392368216 9.9746774734754631 -0.0002310524507586 
lattice_vector 0.0042490267144293 -0.0042490261054483 66.4039231181983922 
atom 0.0467765518957318 -0.1099516114140916 0.2097652590259221 Ba
atom 5.0972903415446025 -0.0440982884221677 0.2098805273569452 Ba
atom 0.1126296717140743 4.9405622043665351 0.2096497915454401 Ba
atom 5.0367935731771993 4.8800652646411375 0.2097651912666532 Ba
atom -0.2590534072550266 0.2015584777446387 5.0075402042550357 Ba
atom 4.7857802789787911 0.2617317039663563 5.0076555698937746 Ba
atom -0.1988803149967557 5.2463920928289687 5.0074246464941474 Ba
atom 4.7309636301521882 5.1915753170519228 5.0075400731299977 Ba
atom 2.4688638589940326 2.5289149467139826 2.3883567604310536 Zr
atom 7.4484401335880408 2.5238323977826584 2.3884724468427607 Zr
atom 2.4637802758591696 7.5084928028860798 2.3882412756227152 Zr
atom 7.4588802157628473 7.5189316783687463 2.3883565622569769 Zr
atom 2.4161335796215160 2.5376272317617490 7.4705877323677514 Zr
atom 7.4397287931843898 2.5765615706265637 7.4707031468458229 Zr
atom 2.4550679287116628 7.5612217894141995 7.4704723681967060 Zr
atom 7.4061508901455824 7.5276439341198342 7.4705879815097243 Zr
atom 2.6311540983772508 2.7616603229644330 -0.1222244682505334 S
atom 7.2156954456150633 2.3615409736842290 -0.1221089700899586 S
atom 2.2310349375316045 7.3462015914239469 -0.1223401747565466 S
atom 7.6211710994547683 7.7516773016507612 -0.1222242223450650 S
atom 2.2368607578839366 2.2854167297804562 4.9627829661285903 S
atom 7.6919389971803263 2.7558343383700268 4.9628987945544178 S
atom 2.7072784544417412 7.7404949502486513 4.9626678642018360 S
atom 7.2268777157687376 7.2754337293391460 4.9627827818367862 S
atom 2.7267038343180663 0.0415833190702354 2.2471283683268304 S
atom 7.1288501846979626 0.0477043321957335 2.7395667693616446 S
atom 2.1441896244067555 5.0323651577463737 2.7393356837195193 S
atom 7.7167209772729199 5.0316008615972709 2.2471282752740462 S
atom 2.9231277449322404 0.0475840184842310 7.6944564368097943 S
atom 7.0021068116847731 0.0517068070704108 7.2878129894728714 S
atom 2.0174464150658946 5.0363669201821475 7.2875819347969033 S
atom 7.9131446466099158 5.0376005792849456 7.6944564478629465 S
atom -0.0389058503766901 2.2606347316680395 2.2470127296071518 S
atom 4.9449908128323372 2.8485055283112297 2.7394511593996702 S
atom -0.0396694344556085 7.8331661158182726 2.7392201554238262 S
atom 4.9511107198577182 7.2506518589021782 2.2470128379758343 S
atom -0.0449055907536044 2.0642110341053912 7.6943409691439646 S
atom 4.9409885648419527 2.9752488046766259 7.2876975311550449 S
atom -0.0436717245235051 7.9599093885187164 7.2874663388638874 S
atom 4.9451110709727040 7.0542279880781464 7.6943408601260019 S
atom -0.0045551529139822 -0.0785161701509111 10.0229104193221978 Ba
atom 5.0658548878673342 0.0072332857472367 10.0230259895702343 Ba
atom 0.0811943087994947 4.9918939375615929 10.0227949059809234 Ba
atom 4.9854618562764976 4.9115008813136978 10.0229104811655763 Ba
atom 0.0508920270341693 0.0489605531298511 15.0918011593627845 Ba
atom 4.9383780902764993 -0.0482138022109425 15.0919166545973447 Ba
atom -0.0462823181510031 4.9364468125218126 15.0916855928969351 Ba
atom 5.0409088872527077 5.0389775873469285 15.0918010869555026 Ba
atom 2.5029311745039799 2.4986062032714118 12.5482908177777848 Zr
atom 7.4787496932008590 2.4897640616914343 12.5484060480952699 Zr
atom 2.4940889410288358 7.4744242681612594 12.5481751574445966 Zr
atom 7.4929483567481121 7.4886228824628400 12.5482904827877579 Zr
atom 2.5005371388587987 2.5009997048459782 17.6353121510393471 Zr
atom 7.4763562358576729 2.4921579377330523 17.6354275577766160 Zr
atom 2.4916953956227692 7.4768182945841364 17.6351964180620620 Zr
atom 7.4905544438260705 7.4910165174300625 17.6353120245420527 Zr
atom 2.6020379247668042 2.6821144721118770 10.0165861117833170 S
atom 7.2952411626618110 2.3906572542876461 10.0167018338799494 S
atom 2.3105806894253562 7.3753178109165196 10.0164709026395577 S
atom 7.5920548435229991 7.6721315089502484 10.0165865982019504 S
atom 2.4065376440206565 2.4046061975509430 15.0917988461882722 S
atom 7.5727494431250282 2.5861575239515187 15.0919143597771157 S
atom 2.5880889922325099 7.5708180846184883 15.0916832282894759 S
atom 7.3965545529366699 7.3946231914451497 15.0917988946054624 S
atom 2.0157680010237313 0.0034134071050450 12.4718849985655744 S
atom 7.9910293194471622 0.0067586944707152 12.6414338021872297 S
atom 3.0063688334635326 4.9914191646466248 12.6412027324201226 S
atom 7.0057849628107123 4.9934302799955272 12.4718850299045521 S
atom 2.9735023271517425 -0.0026666174736898 17.7118320649040228 S
atom 6.9729180641574517 -0.0006550456310846 17.5425141898610732 S
atom 1.9882575921653827 4.9840053810105847 17.5422831532392927 S
atom 7.9635191550751472 4.9873502213216678 17.7118320283085566 S
atom -0.0007353665565525 2.9715706650777909 12.4717695168439686 S
atom 4.9859367341516627 1.9863263244872589 12.6413182818808654 S
atom 0.0012761146458164 6.9709869061210439 12.6410871903908575 S
atom 4.9892817521685791 7.9615877469285143 12.4717694677824120 S
atom 0.0053446210209476 2.0138364932487027 17.7117164818846646 S
atom 4.9933505685486352 3.0044376088420814 17.5423986404765166 S
atom 0.0086898338729532 7.9890981240713765 17.5421676524246308 S
atom 4.9953617303199680 7.0038534130372954 17.7117165535027432 S
atom -0.0765846798490640 -0.0064864433241614 20.1606906835502073 Ba
atom 4.9938251083643488 0.0792629713821999 20.1608061693800558 Ba
atom 0.0091647257356906 5.0639234433579308 20.1605751512026856 Ba
atom 4.9134321487203128 4.9835305191790269 20.1606906477951497 Ba
atom 0.2034899374349298 -0.2609846810854443 25.1760610082034475 Ba
atom 5.2483234326135175 -0.2008115293504636 25.1761765499453070 Ba
atom 0.2636630777705026 4.7838487715183682 25.1759455769953604 Ba
atom 5.1935067374015738 4.7290320803860961 25.1760611482986008 Ba
atom 2.5395578431182342 2.4142022163236883 22.7130128503503315 Zr
atom 7.5631537821474053 2.4531370010277347 22.7131284394489370 Zr
atom 2.5784928130704059 7.4377975580929396 22.7128971677034919 Zr
atom 7.5295752095302682 7.4042192907356261 22.7130126240714851 Zr
atom 2.5308466339259623 2.4669324236721510 27.7952429148563347 Zr
atom 7.5104236789509411 2.4618488454842806 27.7953584728433505 Zr
atom 2.5257628502195257 7.4465088027294648 27.7951275233472153 Zr
atom 7.5208636534394984 7.4569486178694495 27.7952431136169231 Zr
atom 2.6840459808253221 2.6001065582174405 20.1670157462019191 S
atom 7.3772490908302730 2.3086492555118929 20.1671315263434359 S
atom 2.3925886178724394 7.2933097736686685 20.1669001892422770 S
atom 7.6740628523517778 7.5901235364392772 20.1670157999651956 S
atom 2.2873480661351726 2.2349293964568600 25.2208189253296737 S
atom 7.7424261910494767 2.7053470824930561 25.2209348446401265 S
atom 2.7577657962456033 7.6900076320355453 25.2207036979232662 S
atom 7.2773650046664633 7.2249463951835757 25.2208190686514619 S
atom 2.0661423777962846 -0.0468371606184417 22.4892606208386638 S
atom 7.9618406319020139 -0.0456033486391668 22.8961350876809639 S
atom 2.9771802748681653 4.9390571668427139 22.8959040516848269 S
atom 7.0561593332029267 4.9431797371896149 22.4892606549493870 S
atom 2.2625661924066538 -0.0408376565213606 27.9365884892968808 S
atom 7.8350973250888707 -0.0416016039913904 27.4443813275725503 S
atom 2.8504369503635267 4.9430597534820553 27.4441501552877192 S
atom 7.2525832388556823 4.9491805818274539 27.9365884459309832 S
atom 0.0495148286329504 2.9211963328900987 22.4891450591901467 S
atom 5.0382991055367610 2.0155149293903558 22.8960195337737389 S
atom 0.0536379036576537 7.0001755081513259 22.8957885571371804 S
atom 5.0395325417048928 7.9112132843741820 22.4891451864037357 S
atom 0.0435144543307072 2.7247724899837302 27.9364730131426562 S
atom 5.0342970341872926 2.1422582138422381 27.4442657207540393 S
atom 0.0496350780770579 7.1269189226491756 27.4440346924223491 S
atom 5.0335333268529237 7.7147893708749651 27.9364728438895540 S
atom -0.1080201715128324 0.0448452128187590 29.9738365146723531 Ba
atom 4.9424934819200192 0.1106985868614668 29.9739526062392336 Ba
atom -0.0421668550120178 5.0953589299293789 29.9737207368643013 Ba
atom 4.8819965809169936 5.0348620767586763 29.9738365275327681 Ba
atom 2.7635918251566181 2.6292228206703370 30.3058278079600179 S
atom 7.3481328690565917 2.2291033495868144 30.3059427567328541 S
atom 2.3634723255492487 7.2137639830881666 30.3057122715299450 S
atom 7.7536086425937700 7.6192398111269481 30.3058274163326793 S
atom 2.5439095191612129 2.3829325670828769 33.4117270560556179 Ba
atom 7.5944234329830964 2.4487854495279335 33.4118426963496660 Ba
atom 2.6097630910175504 7.4334460881932776 33.4116114906555381 Ba
atom 7.5339263057233152 7.3729495960469720 33.4117269307392206 Ba
atom 2.2380794430544815 2.6944425970506649 38.2095014748521820 Ba
atom 7.2829133766862979 2.7546156618283426 38.2096172657156075 Ba
atom 2.2982526162215846 7.7392760593493639 38.2093861524169398 Ba
atom 7.2280966654193586 7.6844593681940445 38.2095015834973850 Ba
atom 4.9659948145573756 5.0217998358295590 35.5903214458171320 Zr
atom 9.9455744292434485 5.0167141622811249 35.5904364604425609 Zr
atom 4.9609131860741504 10.0013745820913087 35.5902046893064465 Zr
atom 9.9560122747130908 10.0118169134988921 35.5903217297385979 Zr
atom 4.9132671755183583 5.0305102980906069 40.6725476286714880 Zr
atom 9.9368611443632524 5.0694459448803491 40.6726641376667928 Zr
atom 4.9522006977965871 10.0541063025719701 40.6724341604478496 Zr
atom 9.9032839520137603 10.0205271763642205 40.6725475623046222 Zr
atom 5.1282873396564677 5.2545441536208957 33.0797339314365217 S
atom 9.7128281132405760 4.8544250046797375 33.0798503565793567 S
atom 4.7281675718699834 9.8390854467352309 33.0796177566546277 S
atom 10.1183041965343339 10.2445611244231056 33.0797339501304108 S
atom 4.7339938375729584 4.7783005009643009 38.1647450589840602 S
atom 10.1890717854314659 5.2487182213842942 38.1648590143620794 S
atom 5.2044113030567427 10.2333788707428823 38.1646286197685001 S
atom 9.7240107447652342 9.7683175133076485 38.1647449103889329 S
atom 5.2238369041430053 2.5344699365831969 35.4490898963495127 S
atom 9.6259830604434704 2.5405884658806919 35.9415280911645141 S
atom 4.6413226289114657 7.5252482848920215 35.9412972726028670 S
atom 10.2138536850511557 7.5244857545598496 35.4490897858742144 S
atom 5.4202605959053596 2.5404682306437780 40.8964180477573365 S
atom 9.4992397248118809 2.5445914183462115 40.4897748581592083 S
atom 4.5145792180990316 7.5292514501456020 40.4895436399623421 S
atom 10.4102775868495065 7.5304845401120435 40.8964183183288270 S
atom 2.4582282771293755 4.7535186906307345 35.4489742763723328 S
atom 7.4421236319066937 5.3413894333961647 35.9414127509578094 S
atom 2.4574626384147611 10.3260499640788872 35.9411818342416609 S
atom 7.4482459160065515 9.7435356125549575 35.4489744042314712 S
atom 2.4522271336468489 4.5570947524116123 40.8963028167879017 S
atom 7.4381223055969272 5.4681326372339525 40.4896592896505396 S
atom 2.4534614293628727 10.4527932297275843 40.4894281454673433 S
atom 7.4422443334731065 9.5471117339789622 40.8963026749775835 S
atom 2.4925780370361670 2.4143678390779937 43.2248719504459089 Ba
atom 7.5629877316889198 2.5001171151496413 43.2249875563063739 Ba
atom 2.5783272676780751 7.4847778827771503 43.2247564967588573 Ba
atom 7.4825948356431331 7.4043849461324180 43.2248719866357050 Ba
atom 2.5480250746464455 2.5418443446330623 48.2937620490968058 Ba
atom 7.4355109774320383 2.4446699116017370 48.2938775626020060 Ba
atom 2.4508506998196498 7.4293308826571849 48.2936464773914622 Ba
atom 7.5380418104386004 7.5318617376772448 48.2937619903606219 Ba
atom 5.0000635120632424 4.9914904143517571 45.7502509012496290 Zr
atom 9.9758832762523060 4.9826481698364757 45.7503668474386060 Zr
atom 4.9912226601270238 9.9673082804816779 45.7501363469017761 Zr
atom 9.9900806049729773 9.9815069652633763 45.7502511694799878 Zr
atom 4.9976706786207776 4.9938837133641902 50.8372726661064647 Zr
atom 9.9734887453707248 4.9850421268707796 50.8373881524736007 Zr
atom 4.9888281944822275 9.9697024793048143 50.8371555439713774 Zr
atom 9.9876876920494038 9.9839004160784430 50.8372724472474218 Zr
atom 5.0991709038511770 5.1749984872947055 43.2185494953907607 S
atom 9.7923740634213594 4.8835411076733504 43.2186630893566104 S
atom 4.8077135198411529 9.8682015984775404 43.2184319865188158 S
atom 10.0891878749312003 10.1650155225652785 43.2185489801993867 S
atom 4.9036706141630644 4.8974902000403189 48.2937641089826144 S
atom 10.0698823878856967 5.0790414703000053 48.2938791125326432 S
atom 5.0852219140888790 10.0637020871749989 48.2936489525417656 S
atom 9.8936875648036704 9.8875071973817565 48.2937641123755270 S
atom 4.5129008118789828 2.4962984160356281 45.6738461953211115 S
atom 10.4881623681895260 2.4996425201609958 45.8433951351169924 S
atom 5.5035018650061680 7.4843020148944452 45.8431639190960070 S
atom 9.5029178389870665 7.4863142225199253 45.6738463155845906 S
atom 5.4706350727159130 2.4902176639860478 50.9137935564076756 S
atom 9.4700512035946485 2.4922285346988975 50.7444757164235583 S
atom 4.4853907905497241 7.4768888647050247 50.7442447839412552 S
atom 10.4606520273157049 7.4802344988663485 50.9137934462365251 S
atom 2.4963983206079337 5.4644546355268062 45.6737307746617205 S
atom 7.4830693340471877 4.4792102461727392 45.8432796045441080 S
atom 2.4984087761387026 9.4638706841978326 45.8430484613623435 S
atom 7.4864152441401535 10.4544718619117312 45.6737306407351511 S
atom 2.5024783091109821 4.5067206133777855 50.9136779204898460 S
atom 7.4904827770015050 5.4973213318813032 50.7443602373740887 S
atom 2.5058229894337081 10.4819819508993568 50.7441292537995849 S
atom 7.4924945589513730 9.4967375573095172 50.9136780073276327 S
atom 2.4205481103794257 2.4863974724207707 53.3626526437485751 Ba
atom 7.4909583079323694 2.5721469892043087 53.3627681921294865 Ba
atom 2.5062976327442792 7.5568073454664795 53.3625371702651208 Ba
atom 7.4105653545135901 7.4764143743799218 53.3626527905907935 Ba
atom 2.7006226321184639 2.2318994410393826 58.3780229407811859 Ba
atom 7.7454567510994830 2.2920724700887600 58.3781385181619683 Ba
atom 2.7607956861773482 7.2767325601062502 58.3779074899310189 Ba
atom 7.6906402840732362 7.2219159440125926 58.3780232879989143 Ba
atom 5.0366913530907853 4.9070869320249262 55.9149772347052192 Zr
atom 10.0602863525950177 4.9460204385484117 55.9150925302273194 Zr
atom 5.0756260887009894 9.9306804282739325 55.9148604276705754 Zr
atom 10.0267080147886851 9.8971034065477621 55.9149773157492547 Zr
atom 5.0279800342235381 4.9598158272313571 60.9972046480228443 Zr
atom 10.0075555113589250 4.9547346434365886 60.9973203232728451 Zr
atom 5.0228963512607887 9.9393929122313285 60.9970902509285295 Zr
atom 10.0179957346362283 9.9498305117365096 60.9972044333975347 Zr
atom 5.1811788578069153 5.0929904453664729 53.3689752541055000 S
atom 9.8743821252407606 4.8015331533255639 53.3690917785792109 S
atom 4.8897216001829671 9.7861937829317842 53.3688612287771136 S
atom 10.1711958744858606 10.0830074601790241 53.3689757216375966 S
atom 4.7844810624408902 4.7278132557902763 58.4227777790830203 S
atom 10.2395592422153694 5.1982308638297274 58.4228949230135939 S
atom 5.2548986367652430 10.1828914471983563 58.4226633469125858 S
atom 9.7744980229728604 9.7178305356927233 58.4227780371149592 S
atom 4.5632753354111291 2.4460465928405037 55.6912220640016784 S
atom 10.4589737545154122 2.4472807293621068 56.0980963419552765 S
atom 5.4743129479421606 7.4319419486565863 56.0978653821901858 S
atom 9.5532921928232142 7.4360642902383418 55.6912217480079335 S
atom 4.7596990250714049 2.4520468715146810 61.1385504450906154 S
atom 10.3322306431137303 2.4512818532087328 60.6463429800604672 S
atom 5.3475696258920316 7.4359438465246654 60.6461120145640251 S
atom 9.7497161404648498 7.4420655257810724 61.1385505808151066 S
atom 2.5466487639257971 5.4140802472455016 55.6911063088633611 S
atom 7.5354311446861324 4.5083987596394497 56.0979808490878611 S
atom 2.5507716953057051 9.4930594841458511 56.0977498377090100 S
atom 7.5366647782417946 10.4040971370662501 55.6911065411980459 S
atom 2.5406502791066123 5.2176564760965674 61.1384351459811839 S
atom 7.5314281270052987 4.6351419522557551 60.6462276318237201 S
atom 2.5467692974036429 9.6198028615151365 60.6459964731356322 S
atom 7.5306652908095986 10.2076735858344669 61.1384349234040485 S
atom 2.3891129914270173 2.5377292272338616 63.1757977503632944 Ba
atom 7.4396264792967823 2.6035824588796603 63.1759129416011120 Ba
atom 2.4549658061900823 7.5882427256136165 63.1756817923015177 Ba
atom 7.3791301228753410 7.5277460492180142 63.1757971465737072 Ba
atom 5.2607245133409766 5.1221067671760476 63.5077888675778723 S
atom 9.8452659066057944 4.7219871049045476 63.5079038897530239 S
atom 4.8606052931976524 9.7066479505583825 63.5076730414688484 S
atom 10.2507417007037649 10.1121239214330547 63.5077888942388213 S
