#=======================================================
# FHI-aims file: full_relax/full_relax_RP_5_Rx1Ry20_Rx2Ry10.in
# Created using the Atomic Simulation Environment (ASE)
# Fri Mar 14 11:29:50 2025
#=======================================================
lattice_vector 10.0839546395224726 0.0212828447394992 0.0000000000005653 
lattice_vector 0.0212828447395019 10.0839546395210924 0.0000000000020856 
lattice_vector 0.0000000000032650 0.0000000000119577 55.1858211631172821 
atom -0.0117244652566338 -0.1676068616373315 0.2910309444407056 Ba
atom 5.0537017849758499 0.1782482839804925 0.2910309444306933 Ba
atom 0.0223658875751331 5.2095841813620911 0.2910309446255467 Ba
atom 5.0408942768794729 4.8850118805146527 0.2910309444059629 Ba
atom -0.0247256153941547 0.0262872579074989 4.9588856767318195 Ba
atom 5.0667029351505395 -0.0156458355920792 4.9588856767198175 Ba
atom 0.0353670378050638 5.0156900618504983 4.9588856767128213 Ba
atom 5.0278931266866014 5.0789060000809121 4.9588856767226748 Ba
atom 2.5045869881795539 2.5221902533683389 2.3421837732501443 Zr
atom 7.5900090738366890 2.5410699111770509 2.3421837733292201 Zr
atom 2.5586731764736443 7.5724058085210011 2.3421837733039825 Zr
atom 7.5572057303122016 7.5748089955258742 2.3421837732735549 Zr
atom 2.5259791649376622 2.5297055127551582 7.3575517885329687 Zr
atom 7.5686168972207044 2.5335546517477123 7.3575517892427014 Zr
atom 2.5372810000440746 7.5648905492031266 7.3575517893202287 Zr
atom 7.5785979071869889 7.5823242548962586 7.3575517880468784 Zr
atom 2.8110240425277584 2.5581219488085583 -0.1368846918488908 S
atom 7.2835720193595037 2.5051382157419488 -0.1368846924516349 S
atom 2.2522361220658444 7.5364741130789907 -0.1368846924194584 S
atom 7.8636427845851111 7.6107406908974928 -0.1368846916905812 S
atom 2.0659530729387514 2.4556766041985205 4.8859317419015964 S
atom 8.0286429890874889 2.6075835603638149 4.8859317418540629 S
atom 2.9973070918162756 7.6389194577338948 4.8859317425628079 S
atom 7.1185718152528112 7.5082953463368147 4.8859317415018300 S
atom 2.5209886599277458 0.0053207111756777 2.4223857405408920 S
atom 7.5629659796777560 0.0159621334153661 2.5331144793293117 S
atom 2.5316300822943951 5.0472980309393964 2.5331144792174558 S
atom 7.5736074020532183 5.0579394532814002 2.4223857406368396 S
atom 2.5209886601776135 0.0053207115810469 7.4756568304307756 S
atom 7.5629659799121143 0.0159621329055837 7.2691963680321523 S
atom 2.5316300825394622 5.0472980303893795 7.2691963681295375 S
atom 7.5736074022900857 5.0579394538825664 7.4756568303437048 S
atom 0.0053207109528944 2.5209886599250328 2.0470006066913800 S
atom 5.0472980309414179 2.5316300822696483 2.7800794656015628 S
atom 0.0159621335396566 7.5629659796537680 2.7800794656073418 S
atom 5.0579394529699684 7.5736074020102322 2.0470006066415634 S
atom 0.0053207098192089 2.5209886599139284 7.8245322939334185 S
atom 5.0472980313599427 2.5316300822668443 6.9020492791390362 S
atom 0.0159621327111496 7.5629659796674042 6.9020492790626768 S
atom 5.0579394519173544 7.5736074020295945 7.8245322938827018 S
atom 0.0503811524369171 -0.0076172159053308 9.8515388323264617 Ba
atom 4.9915961674252181 0.0182586381984559 9.8515388323408235 Ba
atom -0.0397397299100456 5.0495945355871950 9.8515388323400597 Ba
atom 5.1029998945005373 5.0450015262352057 9.8515388323430280 Ba
atom -0.0503811524580635 0.0076172157775389 14.7849884726053773 Ba
atom 5.0923584722059507 0.0030242065951819 14.7849884726230272 Ba
atom 0.0610225746525592 5.0343601039513848 14.7849884726116318 Ba
atom 5.0022375898383977 5.0602359578807654 14.7849884726235832 Ba
atom 2.5263093712860933 2.5263093710953113 12.3182636528083069 Zr
atom 7.5682866911593072 2.5369507933337427 12.3182636518039974 Zr
atom 2.5369507937652389 7.5682866908645217 12.3182636515255428 Zr
atom 7.5789281135029221 7.5789281131419841 12.3182636528654950 Zr
atom 2.5266395775850774 2.5229132293764835 17.2789755155219424 Zr
atom 7.5679564845919165 2.5403469351779577 17.2789755158187219 Zr
atom 2.5366205873972811 7.5716828325034227 17.2789755158508491 Zr
atom 7.5792583198504566 7.5755319715883029 17.2789755154633369 Zr
atom 3.0253438369270107 2.6273897377003816 9.8422301900868785 S
atom 7.0692522255829209 2.4358704268546427 9.8422301907928400 S
atom 2.0379163283414505 7.4672063243048310 9.8422301901999205 S
atom 8.0779625792230121 7.6800084797941333 9.8422301913271166 S
atom 2.0272749057259758 2.4252290045112912 14.7942971145741389 S
atom 8.0673211567091290 2.6380311600699802 14.7942971144871240 S
atom 3.0359852594004804 7.6693670574880315 14.7942971141165671 S
atom 7.0798936479119021 7.4778477466291777 14.7942971149248663 S
atom 2.5209886602780824 0.0053207117278672 12.1937264329922659 S
atom 7.5629659800353739 0.0159621335047796 12.4428008720644296 S
atom 2.5316300826439098 5.0472980301876476 12.4428008723161341 S
atom 7.5736074024140621 5.0579394536832227 12.1937264327396502 S
atom 2.5209886601237126 0.0053207113321691 17.3673309366359057 S
atom 7.5629659798712714 0.0159621328352512 17.1608704745421896 S
atom 2.5316300824846727 5.0472980308227697 17.1608704743707712 S
atom 7.5736074022455186 5.0579394537187126 17.3673309368197373 S
atom 0.0053207098855549 2.5209886598861493 11.8458863281120568 S
atom 5.0472980301906336 2.5316300822520974 12.7906409770622069 S
atom 0.0159621330429932 7.5629659796525113 12.7906409770264862 S
atom 5.0579394514848053 7.5736074020355586 11.8458863280856175 S
atom 0.0053207106608543 2.5209886599050977 17.7344780257601577 S
atom 5.0472980306002464 2.5316300822839146 16.8119950109801444 S
atom 0.0159621335990170 7.5629659796783528 16.8119950109258305 S
atom 5.0579394514487541 7.5736074020620343 17.7344780257118764 S
atom 0.0247256154126663 -0.0262872578706488 19.6776416285236309 Ba
atom 5.0172517043888778 0.0369286802421381 19.6776416285191971 Ba
atom -0.0140841930466268 5.0682645776186934 19.6776416285136939 Ba
atom 5.0773443575958286 5.0263314842470912 19.6776416285019131 Ba
atom 0.0117244651603155 0.1676068616370584 24.3454963596565683 Ba
atom 5.0302528545693210 -0.1569654391905151 24.3454963596407339 Ba
atom -0.0010830429022330 4.8743704581678093 24.3454963594458782 Ba
atom 5.0643432073770747 5.2202256036876360 24.3454963597129748 Ba
atom 2.5480317539764199 2.5304284887058390 22.2943435319941372 Zr
atom 7.5465643079294704 2.5328316756865994 22.2943435324352635 Zr
atom 2.5152284108050429 7.5641675731763440 22.2943435318061631 Zr
atom 7.6006504966640378 7.5830472310077308 22.2943435322849872 Zr
atom 2.9866656694789886 2.5969421380207018 19.7505955635748585 S
atom 7.1079303925346808 2.4663180265370324 19.7505955634270052 S
atom 2.0765944954201987 7.4976539238548856 19.7505955651820990 S
atom 8.0392844118687403 7.6495608801532091 19.7505955625336647 S
atom 2.2415946997168827 2.4944967932407671 24.7734119985573464 S
atom 7.8530013621139698 2.5687633710352848 24.7734119981206469 S
atom 2.8216654649234201 7.6000992686024134 24.7734119982943710 S
atom 7.2942134420585303 7.5471155355546404 24.7734119985192081 S
atom 2.5209886600619629 0.0053207117264723 22.1034128250679025 S
atom 7.5629659798726294 0.0159621329733251 22.2141415640578543 S
atom 2.5316300824746225 5.0472980304570836 22.2141415636883224 S
atom 7.5736074021929269 5.0579394538244644 22.1034128252764397 S
atom 0.0053207104704214 2.5209886598501523 21.8564478387211132 S
atom 5.0472980316132068 2.5316300822523203 22.5895266979387870 S
atom 0.0159621326432821 7.5629659796798601 22.5895266978563747 S
atom 5.0579394518528851 7.5736074019770276 21.8564478386776671 S
atom 2.3587025092981428 2.5145849060349890 27.8839415237879464 Ba
atom 7.7358935526189327 2.5486752589699666 27.8839415237501811 Ba
atom 2.7045576553868553 7.5800111559669343 27.8839415238625250 Ba
atom 7.4113212512540612 7.5672036477704774 27.8839415237400345 Ba
atom 2.5525966294550124 2.5015837558133414 32.5517962588562355 Ba
atom 7.5419994324665813 2.5616764089124149 32.5517962588601009 Ba
atom 2.5106635349576911 7.5930123060171466 32.5517962588316152 Ba
atom 7.6052153716894502 7.5542024976957327 32.5517962588367240 Ba
atom 5.0484996244592306 5.0308963591916473 29.9350943562972276 Zr
atom 10.0987151796468790 5.0849825476774804 29.9350943560761174 Zr
atom 5.0673792821561490 10.1163184444983223 29.9350943561866849 Zr
atom 10.1011183665328037 10.0835151014769959 29.9350943576135791 Zr
atom 5.0560148835091550 5.0522885358956833 34.9504623658229434 Zr
atom 10.0911999203045468 5.0635903711586714 34.9504623653092281 Zr
atom 5.0598640229403511 10.0949262693159874 34.9504623658810161 Zr
atom 10.1086336259259664 10.1049072786206171 34.9504623682841000 Zr
atom 5.0844313198479680 5.3373334134784898 27.4560258944190743 S
atom 10.0627834842465287 4.7785454933545966 27.4560258955154097 S
atom 5.0314475867937292 9.8098813905708866 27.4560258939923614 S
atom 10.1370500620250734 10.3899521558665988 27.4560258925244547 S
atom 4.9819859753998585 4.5922624449165133 32.4788423202156622 S
atom 10.1652288285753389 5.5236164621011588 32.4788423245046047 S
atom 5.1338929311733725 10.5549523594070092 32.4788423264036723 S
atom 10.0346047174673316 9.6448811868618307 32.4788423191043236 S
atom 5.0472980309297073 2.5316300822440789 29.6399111875084564 S
atom 10.0892753507017741 2.5422715042128505 30.3729900455965698 S
atom 5.0579394533184017 7.5736074025123488 30.3729900455537098 S
atom 10.0999167730727812 7.5842488232388048 29.6399111877827295 S
atom 5.0472980309322173 2.5316300807080685 35.4174428763599707 S
atom 10.0892753506742388 2.5422715034906966 34.4949598624781828 S
atom 5.0579394533339812 7.5736074002880143 34.4949598613748805 S
atom 10.0999167730192863 7.5842488242528834 35.4174428772318279 S
atom 2.5316300816926915 5.0472980309298174 30.0152963210725190 S
atom 7.5736074023542681 5.0579394533210467 30.1260250596624850 S
atom 2.5422715056127836 10.0892753506751340 30.1260250598559693 S
atom 7.5842488234335530 10.0999167730248871 30.0152963213007631 S
atom 2.5316300844156139 5.0472980312513656 35.0685674129925573 S
atom 7.5736074002427660 5.0579394536357727 34.8621069506974450 S
atom 2.5422715038469006 10.0892753512311604 34.8621069505507890 S
atom 7.5842488252150480 10.0999167735879691 35.0685674128518627 S
atom 2.5186921556215243 2.5766905232595096 37.4444494139408661 Ba
atom 7.5759039062594180 2.4865696408080820 37.4444494139434667 Ba
atom 2.5445680090628886 7.5179055386553681 37.4444494138653710 Ba
atom 7.5713108975445724 7.6293092658194661 37.4444494138814505 Ba
atom 2.5339265865732754 2.4759282188333485 42.3778990541096974 Ba
atom 7.5606694752506067 2.5873319459740896 42.3778990541320653 Ba
atom 2.5293335781007666 7.6186678431450847 42.3778990539809186 Ba
atom 7.5865453284374427 7.5285469607065130 42.3778990539490437 Ba
atom 5.0526187421893045 5.0526187432442704 39.9111742348299501 Zr
atom 10.0945960619056958 5.0632601646316511 39.9111742334457560 Zr
atom 5.0632601644450439 10.0945960615416794 39.9111742325759025 Zr
atom 10.1052374841334629 10.1052374847547632 39.9111742349639371 Zr
atom 5.0492226003218272 5.0529489486269998 44.8718860999102276 Zr
atom 10.0979922035069976 5.0629299589235757 44.8718861000251863 Zr
atom 5.0666563061020531 10.0942658561540881 44.8718861004319436 Zr
atom 10.1018413427096867 10.1055676912876162 44.8718861015091477 Zr
atom 5.1536991089919306 5.5516532089212376 37.4351407738473796 S
atom 9.9935156950700641 4.5642256985707537 37.4351407666928893 S
atom 4.9621797977576589 9.5955615962415823 37.4351407708372150 S
atom 10.2063178510357577 10.6042719507563810 37.4351407691578189 S
atom 4.9515383753668631 4.5535842764729759 42.3872076973091865 S
atom 10.1956764286837167 5.5622946311137076 42.3872077064189838 S
atom 5.1643405313169533 10.5936305286024748 42.3872076999872505 S
atom 10.0041571175359927 9.6062030186040150 42.3872076943899998 S
atom 5.0472980309746420 2.5316300816082089 39.4387969089894028 S
atom 10.0892753506556137 2.5422715041023878 40.3835515589606970 S
atom 5.0579394533620503 7.5736073994695721 40.3835515583678841 S
atom 10.0999167730893440 7.5842488221611521 39.4387969092134156 S
atom 5.0472980309371529 2.5316300805073078 45.3273886060432858 S
atom 10.0892753507357167 2.5422715018640094 44.4049055912022865 S
atom 5.0579394532911275 7.5736074016479638 44.4049055913947512 S
atom 10.0999167730489638 7.5842488245941304 45.3273886057080020 S
atom 2.5316300787361898 5.0472980314116560 39.7866370137202026 S
atom 7.5736074052543394 5.0579394537512821 40.0357114531061313 S
atom 2.5422715051639497 10.0892753511234652 40.0357114540133026 S
atom 7.5842488239495145 10.0999167734841571 39.7866370146297044 S
atom 2.5316300844695552 5.0472980315147096 44.9602415169530971 S
atom 7.5736074004291831 5.0579394538866547 44.7537810547804824 S
atom 2.5422715036089838 10.0892753511856199 44.7537810552082505 S
atom 7.5842488254883325 10.0999167735553748 44.9602415174558629 S
atom 2.5000221126258562 2.5510349865223230 47.2705522096427586 Ba
atom 7.5945739492397255 2.5122251781741705 47.2705522096328252 Ba
atom 2.5632380515667648 7.5435610753797082 47.2705522096095123 Ba
atom 7.5526408550155422 7.6036537284941916 47.2705522096404067 Ba
atom 2.6939162327262003 2.5380338362502752 51.9384069432452833 Ba
atom 7.4006798291637521 2.5252263281040048 51.9384069433418816 Ba
atom 2.3693439316768319 7.5565622256905245 51.9384069433755542 Ba
atom 7.7465349749689469 7.5906525785773580 51.9384069432840647 Ba
atom 5.0567378598404584 5.0743411252626638 49.8872541113076196 Zr
atom 10.0904769441907991 5.0415377815975333 49.8872541107942595 Zr
atom 5.0591410467868041 10.0728736790948759 49.8872541112488790 Zr
atom 10.1093566019741807 10.1269598671290737 49.8872541118257899 Zr
atom 5.1232515088666126 5.5129750401209829 47.3435061455692789 S
atom 10.0239632950441155 4.6029038670242111 47.3435061444662821 S
atom 4.9926273976814590 9.6342397644446969 47.3435061468264564 S
atom 10.1758702510334391 10.5655937820453456 47.3435061459068010 S
atom 5.0208061644220585 4.7679040707068205 52.3663225772756249 S
atom 10.1264086396405162 5.3479748359423169 52.3663225767514220 S
atom 5.0950727422555273 10.3793107334747461 52.3663225768404033 S
atom 10.0734249065620940 9.8205228128651285 52.3663225759991349 S
atom 5.0472980309544129 2.5316300811468913 49.4493584216429340 S
atom 10.0892753506991433 2.5422715050512168 50.1824372802400021 S
atom 5.0579394532984683 7.5736074020981867 50.1824372798955238 S
atom 10.0999167730950923 7.5842488236294878 49.4493584219178643 S
atom 2.5316300826314815 5.0472980311510023 49.6963234078907519 S
atom 7.5736074016289150 5.0579394534845834 49.8070521465113245 S
atom 2.5422715039131099 10.0892753508203743 49.8070521462161082 S
atom 7.5842488251002020 10.0999167732264041 49.6963234076353757 S
