#=======================================================
# FHI-aims file: full_relax/full_relax_RP_9_Rx0Rz_0-RyRz.in
# Created using the Atomic Simulation Environment (ASE)
# Mon Mar 24 16:33:54 2025
#=======================================================
lattice_vector 9.8975708683302042 -0.0000601100703589 -0.0003766835251391 
lattice_vector -0.0000601100704111 9.8975708677831538 -0.0003766850906032 
lattice_vector 0.0031413160293403 0.0031413014364367 97.8549372988294408 
atom 0.0016559647356842 -0.0008646884827612 0.1595907077463001 Ba
atom 4.9497856737353016 -0.0014260942765420 0.1594074515533948 Ba
atom 0.0009701230193036 4.9473888469823706 0.1594083889164515 Ba
atom 4.9504116253330999 4.9478903373271761 0.1592160044466041 Ba
atom -0.0005823896563048 -0.0002092695496545 5.0704947377318152 Ba
atom 4.9493930653485743 0.0005831628606205 5.0702952302859901 Ba
atom 0.0005767993732178 4.9493984431449167 5.0702953136813020 Ba
atom 4.9481737187595103 4.9485457187244117 5.0701180741026830 Ba
atom 2.4747874406040418 2.4739321702350665 2.4383516487577288 Zr
atom 7.4237004520621950 2.4740846884877454 2.4381677003865665 Zr
atom 2.4748856747471351 7.4229028279200744 2.4381685158703323 Zr
atom 7.4235418985986241 7.4226904456091507 2.4379764396670156 Zr
atom 2.4746637212507139 2.4746138431400078 7.5805386157456782 Zr
atom 7.4233892102226022 2.4745145377622295 7.5803522493760651 Zr
atom 2.4745729288336964 7.4233316625327364 7.5803533708902400 Zr
atom 7.4234198881459124 7.4233708680977299 7.5801605373201557 Zr
atom 2.4734107059982278 2.4728966492014610 -0.1050956550745301 S
atom 7.4241808509899121 2.4754756950196009 -0.1052790577013244 S
atom 2.4753659000797685 7.4242906301023943 -0.1052870680638547 S
atom 7.4221655316900330 7.4216515259906402 -0.1054732285864332 S
atom 2.4757308896177479 2.4755885964142332 5.0440432734557845 S
atom 7.4225700112606576 2.4729409754221718 5.0438494260798183 S
atom 2.4737544873762958 7.4217563784666698 5.0438514004901664 S
atom 7.4244862474557314 7.4243439541720155 5.0436651880056171 S
atom 2.0430884621843814 -0.0002735821121278 2.5347810292037805 S
atom 7.8549307991281907 -0.0003040616638238 2.5316734116356976 S
atom 2.9061161833238871 4.9485140291314966 2.5316730602869102 S
atom 6.9918427564725683 4.9484840190990571 2.5344026525084371 S
atom 3.0116451960365196 0.0001486506497349 7.6042899506599646 S
atom 6.8863139633531896 0.0001183103317012 7.6056901533881431 S
atom 1.9374984201803525 4.9489314916640783 7.6056894490016891 S
atom 7.9604007284913463 4.9489016937167030 7.6039141136795640 S
atom 0.0003418324849024 2.9057574003714226 2.5343909118533556 S
atom 4.9491231148887946 2.0426586052532745 2.5320694622741819 S
atom 0.0003084249744074 6.9914739461865985 2.5320702812702227 S
atom 4.9490969021713234 7.8545122553461058 2.5340148922559615 S
atom 0.0002851203926485 1.9375933706490023 7.6045522812210438 S
atom 4.9490737074235938 3.0116908409800884 7.6054292489367938 S
atom 0.0002571862754953 7.9605060379222623 7.6054288957952947 S
atom 4.9490415366021052 6.8863483093686444 7.6041752276126324 S
atom 0.0003565347820505 0.0007402536946044 10.1597469277465908 Ba
atom 4.9485652285902040 0.0003429451510743 10.1595464955080210 Ba
atom -0.0002502604636399 4.9491583497788545 10.1595467144045166 Ba
atom 4.9491114968461734 4.9494952192199229 10.1593706345788810 Ba
atom 0.0001968629601992 0.0004757826842438 15.2685492483257583 Ba
atom 4.9492072070141679 0.0006595462415795 15.2683443335746993 Ba
atom 0.0003929566633655 4.9494759506720722 15.2683441917370395 Ba
atom 4.9489509237267066 4.9492320889255090 15.2681726850671300 Ba
atom 2.4746884091007262 2.4748279752003195 12.6995396818697799 Zr
atom 7.4235123619995687 2.4748268655891699 12.6993504213941648 Zr
atom 2.4746967721111788 7.4236419976305292 12.6993540398068117 Zr
atom 7.4234438732386048 7.4235829654770633 12.6991632760112658 Zr
atom 2.4748598608302932 2.4749773726263276 17.8175781213278128 Zr
atom 7.4236579885978786 2.4749240576294693 17.8173902518200755 Zr
atom 2.4748433490801811 7.4237394184934562 17.8173866995781189 Zr
atom 7.4236143417544831 7.4237326163752932 17.8172031160055404 Zr
atom 2.4744011625666698 2.4739884147840274 10.1545534694605575 S
atom 7.4239794499129239 2.4751803983732299 10.1543677903202862 S
atom 2.4751640173636291 7.4239957536257704 10.1543691503622604 S
atom 7.4231564807220094 7.4227436516774139 10.1541776723013619 S
atom 2.4749496970246438 2.4750940687673220 15.2663273667044610 S
atom 7.4235500431189720 2.4745719059089581 15.2661397175222291 S
atom 2.4747344845420547 7.4233874368426171 15.2661394198351381 S
atom 7.4237051253223738 7.4238494771258985 15.2659500969199033 S
atom 1.9385485631146193 0.0004210314563709 12.7162733353841642 S
atom 7.9596240949569808 0.0003937194591873 12.7153949089133391 S
atom 3.0108088501420567 4.9492097765441381 12.7153944938807584 S
atom 6.8873042275478529 4.9491770542276274 12.7158969494021878 S
atom 3.0112681841653561 0.0005579603981389 17.8244056213243560 S
atom 6.8872203230103706 0.0005266968974988 17.8244772868622441 S
atom 1.9384046127534615 4.9493425760957006 17.8244779084418674 S
atom 7.9600235657042244 4.9493137188020597 17.8240283099078738 S
atom 0.0003494999172873 3.0110479595757726 12.7160579711804473 S
atom 4.9491342631029234 1.9387419886556436 12.7155932629386701 S
atom 0.0003181922029953 6.8875574966073776 12.7155928482777032 S
atom 4.9491054768469365 7.9598034238982311 12.7156809035365708 S
atom 0.0004898718545495 1.9385330464058197 17.8245396547892376 S
atom 4.9492769398552445 3.0113444122241355 17.8243473777563395 S
atom 0.0004618801284494 7.9601601561153172 17.8243478690263224 S
atom 4.9492449267515974 6.8872884066445295 17.8241634985694546 S
atom 0.0006001023470847 0.0006631150791245 20.3788928363523247 Ba
atom 4.9492726511846250 0.0006313299286256 20.3787097259416043 Ba
atom 0.0004569416193019 4.9494469963591330 20.3787098256913417 Ba
atom 4.9493560689924081 4.9494189633402286 20.3785158056093678 Ba
atom 0.0008715456415237 0.0008094953205912 25.4906114204175083 Ba
atom 4.9497713721653183 0.0007811666297060 25.4904175610488934 Ba
atom 0.0009549105801324 4.9495961385816329 25.4904177497155793 Ba
atom 4.9496278965865628 4.9495642832989963 25.4902348027908729 Ba
atom 2.4751137133951775 2.4751137642503358 22.9345635922764401 Zr
atom 7.4238996454794446 2.4750834249141205 22.9343748320973368 Zr
atom 2.4750836588487446 7.4238995320959047 22.9343728194088783 Zr
atom 7.4238695606372991 7.4238697692612243 22.9341864056719871 Zr
atom 2.4753676008452836 2.4752509693602911 28.0515481395381663 Zr
atom 7.4241412885553499 2.4752434469419722 28.0513613845437391 Zr
atom 2.4753248206444951 7.4240584767454960 28.0513633649523584 Zr
atom 7.4241238158497724 7.4240059374903424 28.0511705280305392 Zr
atom 2.4750140933622600 2.4749641173729597 20.3785045729224485 S
atom 7.4238173493933344 2.4750554121638091 20.3783147859651343 S
atom 2.4750018180077267 7.4238708665193851 20.3783129160851573 S
atom 7.4237694907206189 7.4237194617890054 20.3781261673247407 S
atom 2.4752139069760424 2.4752637090364935 25.4906224795067331 S
atom 7.4239813415599842 2.4751123974141755 25.4904355084063994 S
atom 2.4751659376574828 7.4239278592561169 25.4904352445456226 S
atom 7.4239691430004946 7.4240190800263628 25.4902484047686713 S
atom 1.9383234846174831 0.0007222130209980 22.9346726758043680 S
atom 7.9607201528921312 0.0006924332819929 22.9344502442735951 S
atom 3.0119044953711258 4.9495056574822529 22.9344506690679246 S
atom 6.8870784069810522 4.9494753285440227 22.9342956327167720 S
atom 3.0118235959757764 0.0008859127077370 28.0446459245777433 S
atom 6.8877749167457187 0.0008538814876804 28.0447185958513465 S
atom 1.9389595885080668 4.9496697379379562 28.0447182315621681 S
atom 7.9605787719615151 4.9496414802359894 28.0442696312323783 S
atom 0.0007230312204970 3.0119374641518206 22.9346313291034072 S
atom 4.9495048382850078 1.9382904312571785 22.9344912178371629 S
atom 0.0006905529221751 6.8871057068886641 22.9344915937922380 S
atom 4.9494772721251383 7.9606930027516025 22.9342550810563068 S
atom 0.0009499934829170 1.9388830006286806 28.0447762505212665 S
atom 4.9497383840055269 3.0116951918908992 28.0445839061860909 S
atom 0.0009213980040593 7.9605104702376215 28.0445836792865677 S
atom 4.9497071449881300 6.8876384947236300 28.0443992686038897 S
atom 0.0012764368607375 0.0009963996738574 30.6009523177989458 Ba
atom 4.9498355965775742 0.0007524924065861 30.6007809639610322 Ba
atom 0.0010199677232080 4.9495678594237154 30.6007806414372325 Ba
atom 4.9500316037987115 4.9497514420527926 30.6005758798826477 Ba
atom 0.0011167734206712 0.0007320493963812 35.7097522876581195 Ba
atom 4.9504774884489526 0.0010693053637910 35.7095760763951162 Ba
atom 0.0016630195663053 4.9498853515101278 35.7095759852433048 Ba
atom 4.9498711996526996 4.9494880788634861 35.7093754241776935 Ba
atom 2.4755404128201670 2.4753993465377202 33.1695826293543305 Zr
atom 7.4242851064230271 2.4753414604217081 33.1693940035990593 Zr
atom 2.4754705804410673 7.4241568180580710 33.1693966836269638 Zr
atom 7.4242950939537860 7.4241546062859927 33.1692057091251868 Zr
atom 2.4755641408334093 2.4756120903086427 38.2885863793510026 Zr
atom 7.4244097522011065 2.4756528304483414 38.2883942567032065 Zr
atom 2.4755945732378275 7.4244687478668219 38.2883916620721223 Zr
atom 7.4243192674984249 7.4243682214001216 38.2882106280129477 Zr
atom 2.4752781683485172 2.4751337487172367 30.6027976406548241 S
atom 7.4242487829586210 2.4755957659917955 30.6026084636705384 S
atom 2.4754333260268937 7.4244112822290598 30.6026103883708558 S
atom 7.4240335547163410 7.4238891730533050 30.6024196096036292 S
atom 2.4758265773227257 2.4762395360372493 35.7145704744133141 S
atom 7.4238193629864107 2.4749872907415380 35.7143808319147524 S
atom 2.4750038321581580 7.4238027651079870 35.7143810720981989 S
atom 7.4245821011699542 7.4249950128299913 35.7141933470351134 S
atom 1.9394188445317728 0.0010185798640489 33.1537316727537714 S
atom 7.9604949784559942 0.0009909174941821 33.1528535196036600 S
atom 3.0116794436678673 4.9498068042046768 33.1528528605804738 S
atom 6.8881744265046834 4.9497741836570919 33.1533555874372894 S
atom 3.0127291166981069 0.0012956890050418 38.2634372800447835 S
atom 6.8873983775587071 0.0012652261573093 38.2648363207771638 S
atom 1.9385826279795040 4.9500805380427160 38.2648369936857549 S
atom 7.9614845589745675 4.9500502495864556 38.2630604480453584 S
atom 0.0010945033014911 3.0114861608454695 33.1535338094855732 S
atom 4.9498777163040328 1.9391796771962182 33.1530690696152917 S
atom 0.0010626752603828 6.8879950633703890 33.1530687432789293 S
atom 4.9498488804316692 7.9602414788847469 33.1531567196416503 S
atom 0.0011548629700871 1.9385374261076664 38.2636978762537296 S
atom 4.9499422429392315 3.0126343549108636 38.2645748736599600 S
atom 0.0011269514915399 7.9614500015595553 38.2645749580422248 S
atom 4.9499097461633772 6.8872926561051093 38.2633213386181765 S
atom 0.0020545208794214 0.0016818294422666 40.7990064726916231 Ba
atom 4.9496505081401319 0.0008294145716446 40.7988296896152320 Ba
atom 0.0008350625650543 4.9496448712630121 40.7988293388808358 Ba
atom 4.9508101896975996 4.9504373398349966 40.7986302946531083 Ba
atom -0.0001836659767771 0.0023375880128219 45.7099022182289332 Ba
atom 4.9492577814637464 0.0028391223180719 45.7097180419560374 Ba
atom 0.0004420036324974 4.9516539606631174 45.7097138134804055 Ba
atom 4.9485720242699571 4.9510923366748640 45.7095342390146229 Ba
atom 2.4754416563369102 2.4762942300358093 43.4307735508767081 Zr
atom 7.4240953634614471 2.4760820672203376 43.4305817898303772 Zr
atom 2.4752826829957151 7.4248971784086404 43.4305815325781239 Zr
atom 7.4241947204841772 7.4250484677547179 43.4303955166898348 Zr
atom 2.4744967431467493 2.4746397039065027 40.8250823402498497 S
atom 7.4252285577873307 2.4772269706398311 40.8248934831032244 S
atom 2.4764130903938124 7.4260418165460091 40.8248926269448020 S
atom 7.4232522416819577 7.4233943504331110 40.8247074013670712 S
atom 2.4768170445871465 2.4773313451906476 45.9742192953369226 S
atom 7.4236176960776321 2.4746919293595604 45.9740345444612331 S
atom 2.4748019753692461 7.4235079871176737 45.9740313497345738 S
atom 7.4255727815314776 7.4260871256712155 45.9738435144706941 S
atom 2.0441106108030547 0.0017156278623504 43.3374546902426161 S
atom 7.8559562483194938 0.0016835161393455 43.3343469636146992 S
atom 2.9071392210326468 4.9504998092952022 43.3343451139104943 S
atom 6.9928676098342244 4.9504730520922919 43.3370748183478085 S
atom 0.0011057626927672 2.9075703973805505 43.3370561127673497 S
atom 4.9498881029124844 2.0444708026831031 43.3347342752129165 S
atom 0.0010693552273513 6.9932852553590905 43.3347352987785257 S
atom 4.9498631582688679 7.8563243259738567 43.3366792829035958 S
atom 2.4750842401630946 2.4776045209619593 49.0868773645055398 Ba
atom 7.4233367564283244 2.4769186983999969 49.0866866546647742 Ba
atom 2.4745224485157133 7.4257337761850692 49.0866908533399098 Ba
atom 7.4238380446817382 7.4263596278520811 49.0864992008501133 Ba
atom 2.4757364601760226 2.4753656242028232 53.9977757517052197 Ba
atom 7.4253493347267243 2.4765249593937066 53.9975758337080194 Ba
atom 2.4765290553294368 7.4253418307902939 53.9975760238848892 Ba
atom 7.4244967627416338 7.4241221826710220 53.9973984393679132 Ba
atom 4.9498817755261397 4.9507353731349104 51.3656257586074005 Zr
atom 9.8988504556805985 4.9508335958594918 51.3654502647682776 Zr
atom 4.9500346302921985 9.8996504218933516 51.3654437421699228 Zr
atom 9.8986382606133301 9.8994917963700004 51.3652595324022627 Zr
atom 4.9505631465162319 4.9506110251309501 56.5078248431107326 Zr
atom 9.8992792811424462 4.9505206290258892 56.5076318947367753 Zr
atom 4.9504623334877493 9.8993385065335016 56.5076407006148997 Zr
atom 9.8993201566627427 9.8993682016310363 56.5074369064029014 Zr
atom 4.9488447280705667 4.9493590542854786 48.8221818684414544 S
atom 9.9002393732990175 4.9513143958710888 48.8219999820407864 S
atom 4.9514238855027202 9.9001294036995890 48.8219943806251351 S
atom 9.8976002774758030 9.8981138952840784 48.8218138648658950 S
atom 4.9515370983767308 4.9516794128318704 53.9713213616786405 S
atom 9.8977047891941474 4.9497026853826078 53.9711319828937306 S
atom 4.9488898034368978 9.8985185514008514 53.9711364776914877 S
atom 9.9002922319761328 9.9004349066222552 53.9709396794817664 S
atom 5.3817051849329101 2.4762906178268542 51.4616736000918635 S
atom 9.4674226059572515 2.4762565503408513 51.4593493629016763 S
atom 4.5186068060603732 7.4250685333481430 51.4593504030929196 S
atom 10.3304618885558082 7.4250433514665648 51.4612926158478814 S
atom 4.4135422586105388 2.4762343843483112 56.5318289318446077 S
atom 10.4364545296970341 2.4762074599179500 56.5327097242377121 S
atom 5.4876391110589315 7.4250206733194206 56.5327062922350621 S
atom 9.3622967050779362 7.4249886296782739 56.5314562560263596 S
atom 2.4756790579142338 4.5190358588592474 51.4620597055549140 S
atom 7.4244570471736866 5.3820647728720683 51.4589532438883310 S
atom 2.4756471177556651 10.3308808127774352 51.4589518223922369 S
atom 7.4244275647631168 9.4677912960313595 51.4616826324798140 S
atom 2.4760942356467259 5.4875933713794023 56.5315691422986646 S
atom 7.4248820709168850 4.4134472266312459 56.5329685209164339 S
atom 2.4760640075831870 9.3622621747850303 56.5329689031075588 S
atom 7.4248515225190550 10.4363490631445366 56.5311927427045404 S
atom 2.4766889269851293 2.4763043345497553 59.0870291385952484 Ba
atom 7.4251055259937937 2.4756978464267729 59.0868286317279257 Ba
atom 2.4762922842394364 7.4245140510669065 59.0868289037912007 Ba
atom 7.4254434779321663 7.4250601552990414 59.0866527612020391 Ba
atom 2.4764260845048183 2.4761448187898472 64.1958302550570892 Ba
atom 7.4254221141575965 2.4763410227242098 64.1956255661483652 Ba
atom 2.4766100465260252 7.4251557946904470 64.1956254136264732 Ba
atom 7.4251784897621453 7.4248996158211158 64.1954541282163120 Ba
atom 4.9507760768308717 4.9506366560034616 61.6268258186574656 Zr
atom 9.8995911164417443 4.9506461641743931 61.6266317357167068 Zr
atom 4.9507743478687241 9.8994608352627171 61.6266320570850539 Zr
atom 9.8995325489692512 9.8993913323231268 61.6264452320543299 Zr
atom 4.9509259958415957 4.9508091687155300 66.7448540018714027 Zr
atom 9.8996879025132287 4.9507917904293937 66.7446716912876212 Zr
atom 4.9508731921291753 9.8996054712099486 66.7446640151514430 Zr
atom 9.8996805200116889 9.8995625258121844 66.7444846140944037 Zr
atom 4.9499368076250798 4.9503496352711647 59.0818380339747691 S
atom 9.8999442299319096 4.9511123526650493 59.0816472080158164 S
atom 4.9511289652070714 9.8999277223046338 59.0816492804151565 S
atom 9.8986919572314704 9.8991047435869373 59.0814601587511561 S
atom 4.9510425105543776 4.9508979517994964 64.1936079249512090 S
atom 9.8993358236971165 4.9506826932323706 64.1934184510692489 S
atom 4.9505203150313717 9.8994984238106056 64.1934177767389968 S
atom 9.8997978225690417 9.8996535459637158 64.1932331441678627 S
atom 5.4869968762661232 2.4762979404453778 61.6433362478129396 S
atom 9.3635058703092611 2.4762677247092735 61.6428719250261281 S
atom 4.4146901644097332 7.4250826536621171 61.6428714477991164 S
atom 10.4357514463693359 7.4250524061705585 61.6429599042430425 S
atom 4.4144807890338962 2.4764385145937311 66.7518220620246865 S
atom 10.4361088580405159 2.4764090677844655 66.7516275605114515 S
atom 5.4872931718681430 7.4252249192679116 66.7516297468583133 S
atom 9.3632367164168109 7.4251947465484411 66.7514431548060827 S
atom 2.4763692918291538 4.4144969668662997 61.6435519995065633 S
atom 7.4251576194979432 5.4867571336512428 61.6426731567058184 S
atom 2.4763433577631688 10.4355726431271574 61.6426735311613001 S
atom 7.4251237770250977 9.3632522680826042 61.6431755375848454 S
atom 2.4765077525146859 5.4872168803020038 66.7516863614316094 S
atom 7.4252890007303058 4.4143524411097870 66.7517586070960931 S
atom 2.4764748441063742 9.3631683738060367 66.7517586483753576 S
atom 7.4252618372908072 10.4359721582961864 66.7513096242646782 S
atom 2.4766110916726127 2.4765491193542619 69.3061707723101961 Ba
atom 7.4253963206723999 2.4764057530959356 69.3059880433402640 Ba
atom 2.4765787849936096 7.4252203969321000 69.3059875154780514 Ba
atom 7.4253675873493048 7.4253038470518398 69.3057938707165988 Ba
atom 2.4767565876823170 2.4768200432644263 74.4178900618587704 Ba
atom 7.4255458725795762 2.4769031842925622 74.4176953616075423 Ba
atom 2.4767282402511306 7.4257196416338793 74.4176965111505098 Ba
atom 7.4255137475246000 7.4255762058336785 74.4175127180325688 Ba
atom 4.9510632198307354 4.9510616810492767 71.8618383360269917 Zr
atom 9.8998468603983305 4.9510315944314938 71.8616539692662712 Zr
atom 4.9510334797354085 9.8998483386325624 71.8616561788534653 Zr
atom 9.8998164504281174 9.8998181862939294 71.8614645773601097 Zr
atom 4.9511972715989225 4.9513170067140351 76.9788321212485016 Zr
atom 9.9000093712636250 4.9512730847076112 76.9786382805168756 Zr
atom 4.9511902438330768 9.9000886173795166 76.9786431080229789 Zr
atom 9.8999559591320967 9.9000722177020783 76.9784506322146029 Zr
atom 4.9509124202705745 4.9509624030511512 69.3057809277047596 S
atom 9.8998193498678706 4.9509501687981015 69.3055986248480593 S
atom 4.9510036196997165 9.8997657560255892 69.3055956922984109 S
atom 9.8996680076123464 9.8997177693172702 69.3054064069786051 S
atom 4.9512121951883215 4.9511621787501037 74.4179013285372974 S
atom 9.8998761694104420 4.9511142706001863 74.4177141333831429 S
atom 4.9510607217741169 9.8999297593233262 74.4177131961789939 S
atom 9.8999674098814623 9.8999174473710134 74.4175239278718692 S
atom 5.4878854630854583 2.4766697475719739 71.8619144020291856 S
atom 9.3630542737204543 2.4766393240927953 71.8617738051771653 S
atom 4.4142387131222334 7.4254545948008692 71.8617741575520625 S
atom 10.4366416008385698 7.4254251531579616 71.8615371720374867 S
atom 4.4148317758604838 2.4768996103713738 76.9720568970420516 S
atom 10.4364583087883922 2.4768723031416346 76.9718664550503178 S
atom 5.4876435201406846 7.4256854818960267 76.9718646650647855 S
atom 9.3635868435861394 7.4256533052309175 76.9716821137823075 S
atom 2.4766676260498226 4.4142716686841101 71.8619552498686431 S
atom 7.4254567485360434 5.4878528480521158 71.8617332746895272 S
atom 2.4766398914405046 10.4366684342098583 71.8617327983859013 S
atom 7.4254245291891667 9.3630271089986543 71.8615782183317151 S
atom 2.4768318632648700 5.4877710964485624 76.9719278056753637 S
atom 7.4256198792934729 4.4149080196919144 76.9720002104747891 S
atom 2.4768013353695180 9.3637235149045512 76.9720001267409515 S
atom 7.4255908777097144 10.4365273519762223 76.9715512619858231 S
atom 2.4769450213254403 2.4772241866913296 79.5282326463696450 Ba
atom 7.4255153427777500 2.4769679188409897 79.5280612684652368 Ba
atom 2.4767015765519629 7.4257843732484883 79.5280611622573019 Ba
atom 7.4256995197283127 7.4259804017653606 79.5278563788011894 Ba
atom 2.4766814226760632 2.4770645573166932 84.6370340784466606 Ba
atom 7.4258324724533669 2.4776111641230982 84.6368586438139943 Ba
atom 2.4770186112972725 7.4264262753079882 84.6368573347547368 Ba
atom 7.4254355473262832 7.4258198291640944 84.6366575338449252 Ba
atom 4.9513480407989485 4.9514887740340745 82.0968658390050052 Zr
atom 9.9001053454070256 4.9514201361806105 82.0966752128154695 Zr
atom 4.9512887529142589 9.9002337491499901 82.0966735353619725 Zr
atom 9.9001049114532531 9.9002421853021563 82.0964876306662177 Zr
atom 4.9515628206018389 4.9515112692619745 87.2158641436555371 Zr
atom 9.9004143548545631 4.9515422797364792 87.2156797968504947 Zr
atom 4.9516026388982688 9.9003593256607161 87.2156759108980140 Zr
atom 9.9003148698140109 9.9002683768401365 87.2154882499610551 Zr
atom 4.9510823377404529 4.9512264258810577 79.5300810026797649 S
atom 9.9003595100729243 4.9513814699555754 79.5298828196159491 S
atom 4.9515444218558349 9.9001971534442745 79.5298884922227671 S
atom 9.8998373330344034 9.8999818955588754 79.5296995009244228 S
atom 4.9521877330130764 4.9517751168494311 84.6418524381095381 S
atom 9.8997512546569464 4.9509520497268076 84.6416628997478711 S
atom 4.9509357169008474 9.8997675595750128 84.6416631686041683 S
atom 9.9009434305789821 9.9005305432096460 84.6414763047639269 S
atom 5.4874346808371195 2.4770438256810015 82.0808125172631549 S
atom 9.3639435009237761 2.4770101624570788 82.0803487178383051 S
atom 4.4151283303825952 7.4258248975379093 82.0803479169372139 S
atom 10.4361895338735611 7.4257988614932877 82.0804368915379996 S
atom 4.4144853952181657 2.4771014080556211 87.1909772217124015 S
atom 10.4373984366104544 2.4770756173346031 87.1918524215393944 S
atom 5.4885826794608219 7.4258919707188182 87.1918543446613086 S
atom 9.3632411288010307 7.4258570501785934 87.1905987891782388 S
atom 2.4769693696102970 4.4153673049673978 82.0810112664321139 S
atom 7.4257520331338833 5.4876274381737868 82.0801324319171641 S
atom 2.4769390631407004 10.4364431754610063 82.0801328064317204 S
atom 7.4257214586683506 9.3641226700110742 82.0806348407507471 S
atom 2.4772426842560531 5.4886781091688217 87.1907154000457183 S
atom 7.4260307218883508 4.4145313222412836 87.1921149318335438 S
atom 2.4772143885137621 9.3633464509648405 87.1921152090145881 S
atom 7.4259980725530914 10.4374326018111407 87.1903391341812437 S
atom 2.4776301831868426 2.4780033942877124 89.7262881522569700 Ba
atom 7.4255934218499844 2.4767841227337417 89.7261101891647854 Ba
atom 2.4767772126896546 7.4255984007127651 89.7261112565758197 Ba
atom 7.4263859112765180 7.4267577276113359 89.7259109618179309 Ba
atom 2.4782849512679674 2.4757643779090399 94.6371882263253354 Ba
atom 7.4276034849103612 2.4763902729534002 94.6369972371859660 Ba
atom 2.4787862109283250 7.4252063948549818 94.6370007320177962 Ba
atom 7.4270419259688056 7.4245202845841582 94.6368127879336356 Ba
atom 4.9522421305394246 4.9513888785403797 92.3580531675772676 Zr
atom 9.9008466751576680 4.9512307005179643 92.3578607368027207 Zr
atom 4.9520289273691063 9.9000468176222736 92.3578606535209019 Zr
atom 9.9009994667692283 9.9001449753260893 92.3576811712005536 Zr
atom 4.9505876103697668 4.9504455664876925 89.7523570107143769 S
atom 9.9019906615021451 4.9523618650919747 89.7521837910738043 S
atom 4.9531752235044388 9.9011769006499240 89.7521765879039179 S
atom 9.8993429974507237 9.8992005737896633 89.7519877715890857 S
atom 4.9532798182245914 4.9527659700596223 94.9015063797092893 S
atom 9.8994562561210859 4.9507504858239155 94.9013059558921270 S
atom 4.9506406596774859 9.8995657935227985 94.9013134460342513 S
atom 9.9020352517907320 9.9015211983978553 94.9011238883517194 S
atom 5.3835178663615526 2.4770531046649182 92.2643355402784096 S
atom 9.4692344777338473 2.4770165669038797 92.2620135333620510 S
atom 4.5204197869781773 7.4258339527460713 92.2620131207510212 S
atom 10.3322726274272227 7.4258101048498792 92.2639575928334921 S
atom 2.4776639163808918 4.5200603206141237 92.2647328414770982 S
atom 7.4264471719912537 5.3830888137368342 92.2616252467528852 S
atom 2.4776311760402265 10.3319038596853972 92.2616249883785002 S
atom 7.4264203358441092 9.4688155199936439 92.2643547103120625 S
