#=======================================================
# FHI-aims file: full_relax/full_relax_RP_8_RxRy0_-Rx-Ry0.in
# Created using the Atomic Simulation Environment (ASE)
# Mon Mar 24 15:57:03 2025
#=======================================================
lattice_vector 10.0658913784177635 0.0929815327578866 -0.0000000000000018 
lattice_vector 0.0929815327578553 10.0658913784139585 0.0000000000000047 
lattice_vector -0.0000000000000152 0.0000000000000412 85.0759101038970300 
atom -0.0985943494717115 -0.0985943494589939 0.2781491319846590 Ba
atom 5.1315400386804422 0.1450851158317364 0.2781491319849376 Ba
atom 0.1450851158508091 5.1315400386599199 0.2781491319848889 Ba
atom 4.9808421061158068 4.9808421061271098 0.2781491319846780 Ba
atom -0.0080244106405474 -0.0080244106141568 4.9547110055661152 Ba
atom 5.0409700998128670 0.0545151770233951 4.9547110055662138 Ba
atom 0.0545151769836488 5.0409700998519460 4.9547110055661179 Ba
atom 5.0714120449465021 5.0714120449721607 4.9547110055658994 Ba
atom 2.5268717449211606 2.5268717449221660 2.3444920129063687 Zr
atom 7.5855103998716222 2.5990554770404821 2.3444920129054201 Zr
atom 2.5990554770419791 7.5855103998687756 2.3444920129062345 Zr
atom 7.6063082005081517 7.6063082005079616 2.3444920129068936 Zr
atom 2.5417526738574114 2.5417526738515175 7.3712017321690144 Zr
atom 7.5706294709402036 2.5841745481058491 7.3712017321723362 Zr
atom 2.5841745481106106 7.5706294709343487 7.3712017321679966 Zr
atom 7.6211891294453329 7.6211891294378384 7.3712017321705261 Zr
atom 2.7270639703253789 2.7270639703693336 -0.1397573366327246 S
atom 7.3853181744677210 2.3988632515928683 -0.1397573366346014 S
atom 2.3988632516380899 7.3853181744213261 -0.1397573366312109 S
atom 7.8065004259125637 7.8065004259553383 -0.1397573366341117 S
atom 2.2319976510640953 2.2319976510255728 4.8941002881431759 S
atom 7.8803844937403218 2.8939295709261668 4.8941002881434983 S
atom 2.8939295709100410 7.8803844937542005 4.8941002881408062 S
atom 7.3114341066515207 7.3114341066115429 4.8941002881434921 S
atom 2.5164728446085984 0.0232453831879079 2.1931274190073218 S
atom 7.5494185338028368 0.0697361495679348 2.7001145384061567 S
atom 2.5629636109729170 5.0561910723955661 2.7001145384058289 S
atom 7.5959093001961877 5.1026818387736128 2.1931274190075811 S
atom 2.5164728446440545 0.0232453831854688 7.7245128254463529 S
atom 7.5494185337783719 0.0697361495657622 7.0363994919781296 S
atom 2.5629636109482865 5.0561910723945882 7.0363994919781518 S
atom 7.5959093002319520 5.1026818387718702 7.7245128254458928 S
atom 0.0232453831880493 2.5164728445962563 2.1931274190426295 S
atom 5.0561910723955830 2.5629636109898595 2.7001145383766239 S
atom 0.0697361495657283 7.5494185338179234 2.7001145383768637 S
atom 5.1026818387766442 7.5959093001821909 2.1931274190425323 S
atom 0.0232453831917568 2.5164728445610058 7.7245128254294135 S
atom 5.0561910723963290 2.5629636110146699 7.0363994919932393 S
atom 0.0697361495681333 7.5494185338425197 7.0363994919937198 S
atom 5.1026818387780422 7.5959093001468698 7.7245128254299464 S
atom 0.0347458711619592 0.0347458711038613 9.8683511837530951 Ba
atom 4.9981998181061176 0.0117448952107458 9.8683511837531732 Ba
atom 0.0117448952752715 4.9981998180382385 9.8683511837532389 Ba
atom 5.1141823267505933 5.1141823266895390 9.8683511837531785 Ba
atom -0.0359495670318428 -0.0359495669647332 14.8261441243402405 Ba
atom 5.0688952561688110 0.0824403334103093 14.8261441243404146 Ba
atom 0.0824403333389623 5.0688952562382301 14.8261441243405212 Ba
atom 5.0434868885560098 5.0434868886209898 14.8261441243403347 Ba
atom 2.5401984078089188 2.5401984078087709 12.3389858551048750 Zr
atom 7.5721837369851999 2.5857288141549573 12.3389858551079374 Zr
atom 2.5857288141545638 7.5721837369822467 12.3389858551072980 Zr
atom 7.6196348633961826 7.6196348633942810 12.3389858551054807 Zr
atom 2.5395899766185703 2.5395899766177603 17.3032690200458319 Zr
atom 7.5727921681752584 2.5863372453445250 17.3032690200429329 Zr
atom 2.5863372453453946 7.5727921681723993 17.3032690200441515 Zr
atom 7.6190264322069101 7.6190264322043841 17.3032690200473809 Zr
atom 2.8890718552364394 2.8890718552675381 9.8613952875953785 S
atom 7.2233102895374319 2.2368553667149489 9.8613952875914137 S
atom 2.2368553667071556 7.2233102895424830 9.8613952875932558 S
atom 7.9685083108240073 7.9685083108534416 9.8613952875929769 S
atom 2.1861259240756361 2.1861259240431075 14.8229663842505808 S
atom 7.9262562207418501 2.9398012978947281 14.8229663842446620 S
atom 2.9398012979117820 7.9262562207228076 14.8229663842537587 S
atom 7.2655623796634092 7.2655623796292739 14.8229663842455501 S
atom 2.5164728446496993 0.0232453831860632 11.9811030304518837 S
atom 7.5494185337633457 0.0697361495685571 12.7089016195325879 S
atom 2.5629636109333909 5.0561910723969286 12.7089016195310744 S
atom 7.5959093002375493 5.1026818387717636 11.9811030304537596 S
atom 2.5164728446522124 0.0232453831884234 17.6699268891405694 S
atom 7.5494185337626547 0.0697361495684719 16.9394299529037511 S
atom 2.5629636109328344 5.0561910723960031 16.9394299529032040 S
atom 7.5959093002399394 5.1026818387722273 17.6699268891415073 S
atom 0.0232453831893540 2.5164728445554672 11.9811030304602273 S
atom 5.0561910723952757 2.5629636110296494 12.7089016195241538 S
atom 0.0697361495678176 7.5494185338573949 12.7089016195237186 S
atom 5.1026818387763813 7.5959093001411615 11.9811030304599626 S
atom 0.0232453831875463 2.5164728445530482 17.6699268891340466 S
atom 5.0561910723988346 2.5629636110302076 16.9394299529115067 S
atom 0.0697361495636911 7.5494185338585114 16.9394299529113077 S
atom 5.1026818387793291 7.5959093001390396 17.6699268891335848 S
atom 0.0362943547075129 0.0362943546432039 19.7850953730042391 Ba
atom 4.9966513345659305 0.0101964116652006 19.7850953730043351 Ba
atom 0.0101964117365673 4.9966513344938885 19.7850953730044097 Ba
atom 5.1157308102948997 5.1157308102295991 19.7850953730041965 Ba
atom -0.0359495670221643 -0.0359495669740472 24.7440466216688648 Ba
atom 5.0688952561736791 0.0824403334052281 24.7440466216689181 Ba
atom 0.0824403333433006 5.0688952562330130 24.7440466216688790 Ba
atom 5.0434868885657451 5.0434868886116915 24.7440466216688861 Ba
atom 2.5395899766201215 2.5395899766160559 22.2669217259657692 Zr
atom 7.5727921681766457 2.5863372453437163 22.2669217259671193 Zr
atom 2.5863372453466811 7.5727921681713113 22.2669217259660961 Zr
atom 7.6190264322077432 7.6190264322024781 22.2669217259665082 Zr
atom 2.5401984078072548 2.5401984078093238 27.2312048908993987 Zr
atom 7.5721837369839857 2.5857288141551691 27.2312048909019602 Zr
atom 2.5857288141537214 7.5721837369826828 27.2312048909022622 Zr
atom 7.6196348633952597 7.6196348633955893 27.2312048908979705 Zr
atom 2.8937024311858734 2.8937024312181996 19.7850953730051486 S
atom 7.2186797135858267 2.2322247907658719 19.7850953730078771 S
atom 2.2322247907557511 7.2186797135936320 19.7850953730037666 S
atom 7.9731388867736870 7.9731388868043922 19.7850953730064951 S
atom 2.1861259240809674 2.1861259240396755 24.7472243617586720 S
atom 7.9262562207322302 2.9398012979036285 24.7472243617583523 S
atom 2.9398012979025823 7.9262562207314238 24.7472243617555883 S
atom 7.2655623796686539 7.2655623796259565 24.7472243617567571 S
atom 2.5164728446488467 0.0232453831864385 21.9002638568650418 S
atom 7.5494185337697957 0.0697361495670926 22.6307607931068446 S
atom 2.5629636109399270 5.0561910723966079 22.6307607931076475 S
atom 7.5959093002365528 5.1026818387712236 21.9002638568643810 S
atom 2.5164728446341136 0.0232453831887848 27.5890877155655971 S
atom 7.5494185337767306 0.0697361495683004 26.8612891264706235 S
atom 2.5629636109466070 5.0561910723962207 26.8612891264704068 S
atom 7.5959093002221563 5.1026818387725443 27.5890877155660164 S
atom 0.0232453831912791 2.5164728445563691 21.9002638568782793 S
atom 5.0561910723946966 2.5629636110231924 22.6307607930946588 S
atom 0.0697361495654922 7.5494185338513153 22.6307607930956145 S
atom 5.1026818387785582 7.5959093001424138 21.9002638568788619 S
atom 0.0232453831885084 2.5164728445709841 27.5890877155426963 S
atom 5.0561910723949728 2.5629636110164506 26.8612891264952900 S
atom 0.0697361495652769 7.5494185338445075 26.8612891264959508 S
atom 5.1026818387755908 7.5959093001569480 27.5890877155436165 S
atom 0.0347458711465106 0.0347458711207540 29.7018395622566160 Ba
atom 4.9981998180976666 0.0117448952181362 29.7018395622564988 Ba
atom 0.0117448952680643 4.9981998180456157 29.7018395622565023 Ba
atom 5.1141823267340154 5.1141823267059934 29.7018395622565876 Ba
atom -0.0080244106279833 -0.0080244106273765 34.6154797404438384 Ba
atom 5.0409700998168345 0.0545151770196816 34.6154797404434760 Ba
atom 0.0545151769871175 5.0409700998484617 34.6154797404436110 Ba
atom 5.0714120449598958 5.0714120449592039 34.6154797404436962 Ba
atom 2.5417526738570833 2.5417526738516587 32.1989890138437787 Zr
atom 7.5706294709397781 2.5841745481066929 32.1989890138402828 Zr
atom 2.5841745481102327 7.5706294709351134 32.1989890138429971 Zr
atom 7.6211891294447422 7.6211891294375533 32.1989890138458250 Zr
atom 2.5268717449229565 2.5268717449206974 37.2256987331069098 Zr
atom 7.5855103998708575 2.5990554770414245 37.2256987331047142 Zr
atom 2.5990554770413712 7.5855103998694080 37.2256987331049345 Zr
atom 7.6063082005099325 7.6063082005069322 37.2256987331061993 Zr
atom 2.8890718552276886 2.8890718552771903 29.7087954584160769 S
atom 7.2233102895544983 2.2368553666973026 29.7087954584117462 S
atom 2.2368553667244306 7.2233102895254033 29.7087954584106626 S
atom 7.9685083108156505 7.9685083108637409 29.7087954584123892 S
atom 2.2319976510771111 2.2319976510129100 34.6760904578628271 S
atom 7.8803844937226240 2.8939295709441009 34.6760904578716804 S
atom 2.8939295708917383 7.8803844937715937 34.6760904578694067 S
atom 7.3114341066655086 7.3114341065984680 34.6760904578684048 S
atom 2.5164728446265991 0.0232453831842054 31.8456779205518181 S
atom 7.5494185337941877 0.0697361495669492 32.5337912540447860 S
atom 2.5629636109642386 5.0561910723970414 32.5337912540448926 S
atom 7.5959093002143341 5.1026818387713346 31.8456779205509761 S
atom 2.5164728446056732 0.0232453831884353 37.3770633270171970 S
atom 7.5494185338076605 0.0697361495668821 36.8700762075977053 S
atom 2.5629636109778517 5.0561910723953751 36.8700762075980251 S
atom 7.5959093001935800 5.1026818387733277 37.3770633270164012 S
atom 0.0232453831877573 2.5164728445788840 31.8456779205922516 S
atom 5.0561910723994812 2.5629636109988425 32.5337912540040577 S
atom 0.0697361495673517 7.5494185338269748 32.5337912540036598 S
atom 5.1026818387771655 7.5959093001648403 31.8456779205921556 S
atom 0.0232453831899532 2.5164728445992131 37.3770633269552661 S
atom 5.0561910723943244 2.5629636109851393 36.8700762076414392 S
atom 0.0697361495666037 7.5494185338130979 36.8700762076418940 S
atom 5.1026818387759949 7.5959093001851556 37.3770633269545272 S
atom -0.0985943494803567 -0.0985943494511357 39.2920416140260329 Ba
atom 5.1315400386875742 0.1450851158248745 39.2920416140278661 Ba
atom 0.1450851158575015 5.1315400386531476 39.2920416140260471 Ba
atom 4.9808421061075556 4.9808421061351860 39.2920416140277027 Ba
atom 2.7270639703192847 2.7270639703752377 39.7099480826398548 S
atom 7.3853181744741461 2.3988632515860919 39.7099480826425051 S
atom 2.3988632516454054 7.3853181744144969 39.7099480826409064 S
atom 7.8065004259057842 7.8065004259612438 39.7099480826374673 S
atom 2.6383125772631826 2.6383125772489846 42.8161041839303351 Ba
atom 7.4740695675255182 2.4876146447177740 42.8161041839303991 Ba
atom 2.4876146446953848 7.4740695675450723 42.8161041839302854 Ba
atom 7.7177490328511427 7.7177490328341349 42.8161041839306762 Ba
atom 2.5477426384441166 2.5477426383893249 47.4926660575165940 Ba
atom 7.5646395064148200 2.5781845835074435 47.4926660575162387 Ba
atom 2.5781845835819719 7.5646395063342124 47.4926660575165158 Ba
atom 7.6271790940347639 7.6271790939745250 47.4926660575160895 Ba
atom 5.0922829384577453 5.0922829384520130 44.8824470648540412 Zr
atom 10.0995356619266907 5.1130807390912247 44.8824470648570042 Zr
atom 5.1130807390966657 10.0995356619190755 44.8824470648546736 Zr
atom 10.1717193940466206 10.1717193940393660 44.8824470648586100 Zr
atom 5.0774020095218058 5.0774020095246923 49.9091567841132786 Zr
atom 10.1144165908548285 5.1279616680264777 49.9091567841056829 Zr
atom 5.1279616680252573 10.1144165908554111 49.9091567841150834 Zr
atom 10.1568384651089350 10.1568384651099013 49.9091567841114667 Zr
atom 4.8920907130522222 4.8920907130081330 42.3981977153222118 S
atom 10.2997278873320681 5.3132729645363295 42.3981977153298359 S
atom 5.3132729645024108 10.2997278873646358 42.3981977153198102 S
atom 9.9715271686396996 9.9715271685940259 42.3981977153259422 S
atom 5.3871570323050761 5.3871570323574351 47.4320553401012219 S
atom 9.8046615680582168 4.8182066452072441 47.4320553400864213 S
atom 4.8182066452276304 9.8046615680357441 47.4320553400885672 S
atom 10.4665934878935882 10.4665934879439178 47.4320553400819236 S
atom 5.0561910724152286 2.5629636109839571 45.2380695903534544 S
atom 10.0891367615950998 2.6094543773590178 44.7310824709538650 S
atom 5.1026818387649842 7.5959093001839166 44.7310824709538508 S
atom 10.1356275280033561 7.6424000665635434 45.2380695903531489 S
atom 5.0561910724593364 2.5629636109755061 49.5743545439220838 S
atom 10.0891367615335330 2.6094543773590080 50.2624678774055482 S
atom 5.1026818387033721 7.5959093001941609 50.2624678774008942 S
atom 10.1356275280470260 7.6424000665707350 49.5743545439260558 S
atom 2.5629636109844793 5.0561910723759906 45.2380695903235832 S
atom 7.5959093001892581 5.1026818387840827 44.7310824709918791 S
atom 2.6094543773635799 10.0891367616121546 44.7310824709940249 S
atom 7.6424000665679701 10.1356275279620895 45.2380695903250896 S
atom 2.5629636109773992 5.0561910723326280 49.5743545439521469 S
atom 7.5959093001903817 5.1026818388458963 50.2624678773764586 S
atom 2.6094543773600791 10.0891367616731848 50.2624678773767357 S
atom 7.6424000665676974 10.1356275279175296 49.5743545439510882 S
atom 2.5049723566119937 2.5049723567021314 52.4063062357031413 Ba
atom 7.6074097880799263 2.6209548653602024 52.4063062357031555 Ba
atom 2.6209548652521764 7.6074097881889324 52.4063062357033829 Ba
atom 7.5844088121970010 7.5844088122881770 52.4063062357034184 Ba
atom 2.5756677948320266 2.5756677947462432 57.3640991762910701 Ba
atom 7.5367143500531721 2.5502594271215759 57.3640991762904591 Ba
atom 2.5502594272255732 7.5367143499507323 57.3640991762910986 Ba
atom 7.6551042504175459 7.6551042503330970 57.3640991762909209 Ba
atom 5.0789562755686255 5.0789562755691335 54.8769409070594065 Zr
atom 10.1128623248090133 5.1264074019802264 54.8769409070630516 Zr
atom 5.1264074019796411 10.1128623248088445 54.8769409070602450 Zr
atom 10.1583927311554838 10.1583927311551125 54.8769409070582128 Zr
atom 5.0795647067590100 5.0795647067555141 59.8412240720030084 Zr
atom 10.1122538936228938 5.1257989707897309 59.8412240720095099 Zr
atom 5.1257989707921752 10.1122538936157849 59.8412240719933735 Zr
atom 10.1590011623489485 10.1590011623421717 59.8412240720014807 Zr
atom 4.7300828281562390 4.7300828280919527 52.3993503395366389 S
atom 10.4617357722596136 5.4752808494224796 52.3993503395381452 S
atom 5.4752808494287155 10.4617357722490834 52.3993503395538127 S
atom 9.8095192837436489 9.8095192836771758 52.3993503395365536 S
atom 5.4330287592897824 5.4330287593458291 57.3609214362066098 S
atom 9.7587898410597358 4.7723349182317971 57.3609214362037534 S
atom 4.7723349182309063 9.7587898410606204 57.3609214362011954 S
atom 10.5124652148775155 10.5124652149316642 57.3609214362141131 S
atom 5.0561910724652916 2.5629636109821146 55.2468566714876275 S
atom 10.0891367615337320 2.6094543773570771 54.5190580823939470 S
atom 5.1026818387038002 7.5959093001870475 54.5190580823935704 S
atom 10.1356275280530941 7.6424000665694507 55.2468566714881391 S
atom 5.0561910724584802 2.5629636109766869 59.4773850048449830 S
atom 10.0891367615464205 2.6094543773581487 60.2078819410963391 S
atom 5.1026818387164106 7.5959093001887590 60.2078819410994939 S
atom 10.1356275280463919 7.6424000665653038 59.4773850048422901 S
atom 2.5629636109822020 5.0561910723255821 55.2468566714670288 S
atom 7.5959093001880627 5.1026818388453554 54.5190580824170894 S
atom 2.6094543773572796 10.0891367616734620 54.5190580824150501 S
atom 7.6424000665731056 10.1356275279116890 55.2468566714648119 S
atom 2.5629636109836911 5.0561910723324086 59.4773850048704773 S
atom 7.5959093001956459 5.1026818388320816 60.2078819410748096 S
atom 2.6094543773617840 10.0891367616609848 60.2078819410729409 S
atom 7.6424000665695635 10.1356275279191514 59.4773850048682462 S
atom 2.5034238730805543 2.5034238731500182 62.3230504249556461 Ba
atom 7.6089582716321464 2.6225033488929057 62.3230504249556247 Ba
atom 2.6225033487992584 7.6089582717190956 62.3230504249551345 Ba
atom 7.5828603286713276 7.5828603287346699 62.3230504249556390 Ba
atom 2.5756677948194655 2.5756677947562139 67.2820016736209254 Ba
atom 7.5367143500559930 2.5502594271225014 67.2820016736196180 Ba
atom 2.5502594272238999 7.5367143499499649 67.2820016736203712 Ba
atom 7.6551042504097815 7.6551042503421920 67.2820016736198028 Ba
atom 5.0795647067598617 5.0795647067576510 64.8048767779120283 Zr
atom 10.1122538936212152 5.1257989707886518 64.8048767779119999 Zr
atom 5.1257989707910951 10.1122538936159465 64.8048767779142310 Zr
atom 10.1590011623484386 10.1590011623446141 64.8048767779121135 Zr
atom 5.0789562755719508 5.0789562755688644 69.7691599428413269 Zr
atom 10.1128623248111893 5.1264074019809440 69.7691599428490861 Zr
atom 5.1264074019822932 10.1128623248099512 69.7691599428632827 Zr
atom 10.1583927311558320 10.1583927311518707 69.7691599428463007 Zr
atom 4.7254522522092044 4.7254522521439615 62.3230504249470130 S
atom 10.4663663481984699 5.4799114253748016 62.3230504249525907 S
atom 5.4799114253706547 10.4663663482043443 62.3230504249556745 S
atom 9.8048887077968665 9.8048887077304006 62.3230504249624531 S
atom 5.4330287592752207 5.4330287593572644 67.2851794137132373 S
atom 9.7587898410770535 4.7723349182169219 67.2851794136904999 S
atom 4.7723349182458250 9.7587898410433080 67.2851794136915231 S
atom 10.5124652148645410 10.5124652149439086 67.2851794136951753 S
atom 5.0561910724536876 2.5629636109887652 65.1687158450723985 S
atom 10.0891367615480778 2.6094543773618266 64.4382189088074995 S
atom 5.1026818387184418 7.5959093001775804 64.4382189088068031 S
atom 10.1356275280418657 7.6424000665580865 65.1687158450724837 S
atom 5.0561910724560635 2.5629636109823144 69.3992441784015028 S
atom 10.0891367615469179 2.6094543773622045 70.1270427675391232 S
atom 5.1026818387178290 7.5959093001854239 70.1270427675337658 S
atom 10.1356275280429742 7.6424000665649929 69.3992441784080683 S
atom 2.5629636109874987 5.0561910723366736 65.1687158450388182 S
atom 7.5959093001872535 5.1026818388304074 64.4382189088458972 S
atom 2.6094543773593455 10.0891367616585104 64.4382189088447035 S
atom 7.6424000665717697 10.1356275279226633 65.1687158450372266 S
atom 2.5629636109887586 5.0561910723365830 69.3992441784658780 S
atom 7.5959093001833420 5.1026818388330684 70.1270427674783008 S
atom 2.6094543773672556 10.0891367616592067 70.1270427674808303 S
atom 7.6424000665692757 10.1356275279212635 69.3992441784680381 S
atom 2.5049723566343238 2.5049723566794961 72.2397946142062892 Ba
atom 7.6074097880798561 2.6209548653588088 72.2397946142065024 Ba
atom 2.6209548652539372 7.6074097881888072 72.2397946142068008 Ba
atom 7.5844088122182649 7.5844088122669699 72.2397946142077529 Ba
atom 2.5477426384216346 2.5477426384123816 77.1534347923929431 Ba
atom 7.5646395064183753 2.5781845835021611 77.1534347923922752 Ba
atom 2.5781845835877006 7.5646395063303187 77.1534347923928294 Ba
atom 7.6271790940104287 7.6271790939983157 77.1534347923929005 Ba
atom 5.0774020095192620 5.0774020095237162 74.7369440657923576 Zr
atom 10.1144165908550594 5.1279616680258115 74.7369440658069806 Zr
atom 5.1279616680247155 10.1144165908524180 74.7369440658009694 Zr
atom 10.1568384651103258 10.1568384651132213 74.7369440658024757 Zr
atom 5.0922829384562176 5.0922829384549262 79.7636537850557517 Zr
atom 10.0995356619273799 5.1130807390896846 79.7636537850557090 Zr
atom 5.1130807390985407 10.0995356619193437 79.7636537850575706 Zr
atom 10.1717193940437305 10.1717193940401813 79.7636537850558938 Zr
atom 4.7300828281838116 4.7300828280619038 72.2467505103911094 S
atom 10.4617357722236406 5.4752808494585219 72.2467505103498695 S
atom 5.4752808493918250 10.4617357722851523 72.2467505103576997 S
atom 9.8095192837717917 9.8095192836483633 72.2467505103515890 S
atom 5.3871570322605749 5.3871570324042208 77.2140455098182485 S
atom 9.8046615681084734 4.8182066451562902 77.2140455098291056 S
atom 4.8182066452801520 9.8046615679851357 77.2140455097924416 S
atom 10.4665934878466356 10.4665934879903109 77.2140455098307257 S
atom 5.0561910724410799 2.5629636109794172 75.0717463060224901 S
atom 10.0891367615516430 2.6094543773567769 74.3836329724719292 S
atom 5.1026818387205690 7.5959093001939069 74.3836329724748708 S
atom 10.1356275280298416 7.6424000665661449 75.0717463060210832 S
atom 5.0561910724099430 2.5629636109731360 79.4080312595238240 S
atom 10.0891367615985725 2.6094543773592158 79.9150183790031292 S
atom 5.1026818387689117 7.5959093001914040 79.9150183790079325 S
atom 10.1356275279973929 7.6424000665674781 79.4080312595206692 S
atom 2.5629636109694238 5.0561910723489945 75.0717463059233978 S
atom 7.5959093002006677 5.1026818388269417 74.3836329725661471 S
atom 2.6094543773492900 10.0891367616552419 74.3836329725706804 S
atom 7.6424000665764860 10.1356275279343588 75.0717463059269505 S
atom 2.5629636109863694 5.0561910723817203 79.4080312596177862 S
atom 7.5959093001882048 5.1026818387806658 79.9150183788657529 S
atom 2.6094543773671002 10.0891367616096055 79.9150183788672734 S
atom 7.6424000665650613 10.1356275279683246 79.4080312596195057 S
atom 2.6383125772899345 2.6383125772221017 81.8299966659789249 Ba
atom 7.4740695675005302 2.4876146447423420 81.8299966659791949 Ba
atom 2.4876146446692999 7.4740695675703410 81.8299966659786833 Ba
atom 7.7177490328791727 7.7177490328078129 81.8299966659790954 Ba
atom 4.8920907130943165 4.8920907129661595 82.2479031345837797 S
atom 10.2997278872891140 5.3132729645794052 82.2479031345770437 S
atom 5.3132729644582826 10.2997278874071760 82.2479031345822023 S
atom 9.9715271686821136 9.9715271685515638 82.2479031345786922 S
