#=======================================================
# FHI-aims file: full_relax/full_relax_RP_9_RxRyRz_-RxRy0.in
# Created using the Atomic Simulation Environment (ASE)
# Mon Mar 24 18:09:05 2025
#=======================================================
lattice_vector 9.9795591327838995 -0.0388578503306348 -0.0055881025602039 
lattice_vector -0.0388578503306390 9.9795591327842317 0.0055881025604442 
lattice_vector -0.0524054034851206 0.0524054034873889 96.5590809014775857 
atom 0.0490685063405290 -0.0896960274608306 0.1108880834110075 Ba
atom 5.0794755919334591 -0.0684974261789588 0.1080940559228388 Ba
atom 0.0702671002846991 4.9407110653781325 0.1136821586469137 Ba
atom 5.0194191476481143 4.8806546137600746 0.1108880833795977 Ba
atom -0.3101492575119484 0.2363904583152188 4.9228915231562658 Ba
atom 4.7533891078937085 0.2907203317136666 4.9200974719579733 Ba
atom -0.2558193838110769 5.2999288232477895 4.9256855745043140 Ba
atom 4.6602013838570748 5.2067410995095162 4.9228915231324093 Ba
atom 2.4356860943098964 2.5449477363794233 2.3001932059651122 Zr
atom 7.4151824553475825 2.5152356276387247 2.2973991425468916 Zr
atom 2.4059739639762063 7.5244441191320481 2.3029872449730733 Zr
atom 7.4060367353783665 7.5152983775133304 2.3001932060399137 Zr
atom 2.3777755658086779 2.5544954212725375 7.3802447458425471 Zr
atom 7.4056347877217759 2.5731461607193906 7.3774506606766170 Zr
atom 2.3964262961580634 7.5823546523599346 7.3830387638305286 Zr
atom 7.3481262069734479 7.5248460625595310 7.3802447452748794 Zr
atom 2.5883723348781889 2.7826360556043954 -0.2100528723040113 S
atom 7.1774941464224602 2.3625493764151653 -0.2128469669453101 S
atom 2.1682856548512839 7.3717578679787428 -0.2072588641399257 S
atom 7.5587229761862789 7.7529866968407912 -0.2100528724638525 S
atom 2.2012714306000261 2.3018283338802545 4.8750779817191612 S
atom 7.6583018759455115 2.7496502856415832 4.8722840282705553 S
atom 2.6490933843415920 7.7588587772035416 4.8778721304204300 S
atom 7.1716220718366301 7.2721789751025483 4.8750779820564736 S
atom 2.7223266079752437 0.0578908001336425 2.1552406788781417 S
atom 7.0821885454651632 0.0408654903983874 2.6522922125753938 S
atom 2.0729800539435401 5.0500739820761487 2.6578803151308152 S
atom 7.6926772492941158 5.0282414415013044 2.1552406787983256 S
atom 2.8966413663447010 0.0646427089481845 7.6105468440977200 S
atom 6.9780848894028722 0.0458173110056913 7.1946936343423573 S
atom 1.9688763978290345 5.0550258026072514 7.2002817368731158 S
atom 7.8669920075721098 5.0349933502182385 7.6105468441179491 S
atom -0.0773195783793668 2.2674529520382176 2.1580347305071776 S
atom 4.9100560944046583 2.8779416639141662 2.6550862623694371 S
atom -0.0991523964537423 7.8871501554804819 2.6606743649374538 S
atom 4.8930310620819819 7.2378035933118472 2.1580347305253627 S
atom -0.0840717059487587 2.0931382013395980 7.6133408960920352 S
atom 4.9051044678254163 2.9820453178213513 7.1974876856485190 S
atom -0.1041040237585709 7.9912538093587075 7.2030757881995138 S
atom 4.8862789353376934 7.0634888425565965 7.6133408960850986 S
atom -0.0076731932374449 -0.0615015419852272 9.9343121397997276 Ba
atom 5.0512811079813638 -0.0117557336613513 9.9315180884908472 Ba
atom 0.0420726166250345 4.9974527578802981 9.9371061910978558 Ba
atom 4.9626774477798925 4.9088490992208005 9.9343121397988430 Ba
atom 0.0468546416640420 0.0167045275040783 15.0055336691255850 Ba
atom 4.9730750381544393 -0.0662835667932143 15.0027396178960402 Ba
atom -0.0361334533839103 4.9429249246817752 15.0083277204420504 Ba
atom 5.0172052828608509 4.9870551686457398 15.0055336691469812 Ba
atom 2.4802158812476574 2.5037387209209414 12.4561154771523039 Zr
atom 7.4563914884468714 2.4707058357536282 12.4533214597401081 Zr
atom 2.4471829968131646 7.4799143272613122 12.4589095619028765 Zr
atom 7.4505665225809095 7.4740893620932871 12.4561154773226495 Zr
atom 2.4752538983356014 2.4949764569061736 17.5428074665269023 Zr
atom 7.4651537495774205 2.4756678196957922 17.5400133998005074 Zr
atom 2.4559452580807051 7.4848763112065937 17.5456015020711433 Zr
atom 7.4456045395259096 7.4653270980888564 17.5428074673050318 Zr
atom 2.5573075412225412 2.6964396281145313 9.9292476496132576 S
atom 7.2636905821731252 2.3936141761799692 9.9264535612111189 S
atom 2.2544820906030649 7.4028226677462285 9.9320416633688886 S
atom 7.5276581824365989 7.6667902693205843 9.9292476502094527 S
atom 2.3936205938108031 2.4654726587534621 15.0058986262414606 S
atom 7.4946575490749181 2.5573011224788806 15.0031045510158982 S
atom 2.4854490575241730 7.5665096140456729 15.0086926546637649 S
atom 7.3639712350543700 7.4358232999871845 15.0058986251433701 S
atom 2.0003822852800490 0.0117804340842552 12.3973543872709797 S
atom 7.9844642814516602 -0.0057834309506810 12.5401953694762760 S
atom 2.9752557900237933 5.0034250608278628 12.5457834720535999 S
atom 6.9707329266235023 4.9821310755373460 12.3973543872930687 S
atom 2.9922576877372582 0.0066208132973050 17.5750095317873338 S
atom 6.9639218554585440 -0.0135717603776811 17.5170589090367415 S
atom 1.9547133640277528 4.9956367314050043 17.5226470116400854 S
atom 7.9626083290928635 4.9769714547497577 17.5750095317665647 S
atom -0.0312093583975584 2.9893972811758305 12.4001484382697722 S
atom 4.9567051445532977 1.9756659261961267 12.5429894210803319 S
atom -0.0525033480550310 6.9848744178139430 12.5485775236582100 S
atom 4.9391412838307511 7.9597479223842056 12.4001484382769736 S
atom -0.0260496930190195 1.9975218780082462 17.5778035828035080 S
atom 4.9644934308244144 2.9962083522181611 17.5198529606261744 S
atom -0.0447150597178070 8.0054168437563042 17.5254410631765829 S
atom 4.9443009471677231 6.9678725192850361 17.5778035828080199 S
atom -0.0223911615778091 -0.0068398035490555 20.0888422020561883 Ba
atom 4.9966193698620893 0.0029622363389635 20.0860481506515747 Ba
atom -0.0125891219750742 5.0121707279551799 20.0916362532081543 Ba
atom 4.9479594799267312 4.9635108377382000 20.0888422020486352 Ba
atom -0.0021738711557813 0.0314048363473496 25.1732269720933601 Ba
atom 4.9583747299479386 -0.0172550537908318 25.1704329208915709 Ba
atom -0.0508337613485443 4.9919534378316808 25.1760210234474364 Ba
atom 4.9681767698188777 5.0017554776309785 25.1732269720994921 Ba
atom 2.4728928041464759 2.4974578369752800 22.6310345957530217 Zr
atom 7.4626723705128422 2.4780289118760450 22.6282405357048475 Zr
atom 2.4534638789775904 7.4872374034193170 22.6338286391971195 Zr
atom 7.4432434453701628 7.4678084781896796 22.6310345948355547 Zr
atom 2.4705317110260276 2.4999392166397811 27.7192617047586367 Zr
atom 7.4601909908282176 2.4803900052418020 27.7164676587884991 Zr
atom 2.4509824993635361 7.4895984967903875 27.7220557606787494 Zr
atom 7.4408823521811058 7.4702898578460246 27.7192617048086980 Zr
atom 2.4948287619774181 2.5311888889732983 20.0890084988932074 S
atom 7.4289413184955055 2.4560929541114738 20.0862144998790058 S
atom 2.4197328269448484 7.4653014456718756 20.0918026016070357 S
atom 7.4651794032147638 7.5015395302110974 20.0890084988786128 S
atom 2.4509568462940625 2.4637267850027738 25.1730606550745222 S
atom 7.4964034225026923 2.4999648695369627 25.1702665787439450 S
atom 2.4871949309508099 7.5091733610972575 25.1758546808013257 S
atom 7.4213074875281979 7.4340774262400231 25.1730606564703372 S
atom 1.9728812942152210 0.0022620266834189 22.6102977413329285 S
atom 7.9821128056725925 -0.0165548435013837 22.6461833269900730 S
atom 2.9729043140839924 4.9926536474981118 22.6517714295052244 S
atom 6.9432319354199228 4.9726126673454631 22.6102977413684343 S
atom 2.9910722450597689 -0.0007210815353071 27.7394221620546233 S
atom 6.9627364113308987 -0.0209136068307854 27.6814715394366324 S
atom 1.9535279195768367 4.9882948850022872 27.6870596419992054 S
atom 7.9614228861092933 4.9696295599686335 27.7394221620262158 S
atom -0.0216910002328390 3.0168982724853355 22.6130917928874027 S
atom 4.9674766086003155 1.9780174016186052 22.6489773779763297 S
atom -0.0417318826950523 6.9872258931057454 22.6545654805368315 S
atom 4.9486596407217318 7.9872489137858871 22.6130917928838997 S
atom -0.0187078478685242 1.9987073213757258 27.7422162133477102 S
atom 4.9718353269244862 2.9973937963112123 27.6842655906413100 S
atom -0.0373731661374385 8.0066022878611101 27.6898536932336334 S
atom 4.9516427948420629 6.9690579626392575 27.7422162133535970 S
atom -0.0714196747411278 0.0078605051212680 30.2565355001640235 Ba
atom 4.9819190612202098 0.0519907492560993 30.2537414488044867 Ba
atom -0.0272894302818387 5.0611992406959772 30.2593295513934244 Ba
atom 4.8989309664405392 4.9782111462298628 30.2565355001293241 Ba
atom -0.0168918433594379 0.0860665742928787 35.3277570353804578 Ba
atom 4.9037129918241282 -0.0025370875911042 35.3249629841029105 Ba
atom -0.1054955000691564 5.0066714040767275 35.3305510865778345 Ba
atom 4.9534587982157348 5.0564172156458742 35.3277570353880392 Ba
atom 2.4655697270262893 2.4911769575043152 32.8059536460773131 Zr
atom 7.4689532573401527 2.4853519882159572 32.8031596552713225 Zr
atom 2.4597447656613776 7.4945604797860481 32.8087477575982334 Zr
atom 7.4359203683851813 7.4615275986778737 32.8059536471347073 Zr
atom 2.5680100608094705 2.4404202568010036 37.8818245155841709 Zr
atom 7.5197099585623173 2.3829116821058869 37.8790303396739034 Zr
atom 2.5105014670596626 7.3921201739879745 37.8846184430868576 Zr
atom 7.5383607018654839 7.4107708982041798 37.8818245144219219 Zr
atom 2.5521650145434656 2.5294430152888845 30.2561705758469337 S
atom 7.4306871919027611 2.3987567014260343 30.2533765120729257 S
atom 2.4214787003509417 7.4079651930027355 30.2589646160509993 S
atom 7.5225156557772781 7.4997936565105858 30.2561705743424518 S
atom 2.3884780695880976 2.2984760503033366 35.3328215735616240 S
atom 7.6616541633961948 2.5624436503268657 35.3300274417177604 S
atom 2.6524456718131129 7.5716521418967782 35.3356155433234491 S
atom 7.3588287107893056 7.2688266914524773 35.3328215735305236 S
atom 1.9705298191564087 -0.0085093788969579 32.7162857008700954 S
atom 7.9546118141922975 -0.0260732614236885 32.8591266831328994 S
atom 2.9454033224996738 4.9831352302906140 32.8647147857057575 S
atom 6.9408804602076009 4.9618412625422437 32.7162857008311363 S
atom 2.9769092098920673 -0.0601100179215189 38.0617874340331568 S
atom 7.0583527356296143 -0.0789356527708383 37.6459342230388643 S
atom 2.0491442440827137 4.9302728379792402 37.6515223255538984 S
atom 7.9472598511986332 4.9102406225949657 38.0617874341110110 S
atom -0.0109195274561392 3.0192497470602144 32.7190797525001429 S
atom 4.9769949557023487 2.0055183936085266 32.8619207342057678 S
atom -0.0322135346207270 7.0147268851905631 32.8675088367267207 S
atom 4.9594311124823767 7.9896003882942468 32.7190797524907282 S
atom 0.0406812507964872 2.0128703556010787 38.0645814858691409 S
atom 5.0298571876025902 2.9017774757061350 37.6487282759282849 S
atom 0.0206486964210362 7.9109859673038514 37.6543163784741921 S
atom 5.0110318917453203 6.9832209967123635 38.0645814859122211 S
atom 0.2855842221436252 -0.2118254249632573 40.3391776489492031 Ba
atom 5.2016049929908217 -0.3050131519021222 40.3363835987774664 Ba
atom 0.1923965016936056 4.7041953396896261 40.3419717013518735 Ba
atom 5.2559348631096832 4.7585252163249923 40.3391776489931715 Ba
atom -0.0736335305060390 0.1142610538189241 45.1511810781218372 Ba
atom 4.8755185022209035 0.0542046175805340 45.1483870204339510 Ba
atom -0.1336899891572370 5.0634131090566239 45.1539751230744102 Ba
atom 4.8967171105766871 5.0846116949482720 45.1511810781156129 Ba
atom 2.5100995286835328 2.4499678995517988 42.9618759778242136 Zr
atom 7.5101622482172026 2.4408222120483263 42.9590818960952916 Zr
atom 2.5009537571390035 7.4500307037336162 42.9646699982781328 Zr
atom 7.4804501695099868 7.4203185409145203 42.9618759778375079 Zr
atom 2.7445141787423961 2.6930873464096239 40.3869909756320169 S
atom 7.2670428716297755 2.2064075397081515 40.3841972542102781 S
atom 2.2578343799739389 7.2156160312434157 40.3897853564380824 S
atom 7.7148648199976089 7.6634379876061365 40.3869909771080842 S
atom 2.3574132624442581 2.2122796063514225 45.4721221582067869 S
atom 7.7478505832427951 2.5935084369795200 45.4693279377965212 S
atom 2.7386420916762328 7.6027169285208771 45.4749160407725412 S
atom 7.3277639037989344 7.1826302476301098 45.4721221575710928 S
atom 2.8728055545371158 -0.0551586237394405 42.6041888621916911 S
atom 7.2326674796076196 -0.0721832651678335 43.1012403939973368 S
atom 2.2234589878237010 4.9370252269017794 43.1068284967206168 S
atom 7.8431561957256726 4.9151920179507860 42.6041888621829017 S
atom 0.0357291976165763 2.1169740101694785 42.6069829094129062 S
atom 5.0231055406961067 2.7274627102689943 43.1040344435915088 S
atom 0.0138970475037769 7.7366712018258195 43.1096225461302396 S
atom 5.0060798403251932 7.0873246514289008 42.6069829094487744 S
atom 2.5989396070120363 2.4154855542547895 48.5822328982278648 Ba
atom 7.5446446528507858 2.3519821069368660 48.5794388748731834 Ba
atom 2.5354361614197289 7.3611905984006238 48.5850269774342749 Ba
atom 7.5692902481288042 7.3858361954152398 48.5822328984606600 Ba
atom 2.2502541163405128 2.7890169750290119 53.3878670385930292 Ba
atom 7.1711132307596106 2.7006676011987159 53.3850729870442606 Ba
atom 2.1619047386026415 7.7098760924157848 53.3906610896950724 Ba
atom 7.2206047582450648 7.7593676158921356 53.3878670385461334 Ba
atom 4.9275045282076562 5.0057081220949549 50.7740543488134932 Zr
atom 9.9247727306823155 4.9937678205818239 50.7712602934142510 Zr
atom 4.9155642392329435 10.0029763117437422 50.7768483945024727 Zr
atom 9.8978551694228702 9.9760587628796618 50.7740543494716690 Zr
atom 4.9181891416560308 5.0276014391951263 55.8379911941516767 Zr
atom 9.9028794100793593 5.0030832179163154 55.8351971562869025 Zr
atom 4.8936709182517264 10.0122917092930415 55.8407852608484276 Zr
atom 9.8885397833035782 9.9979520800213830 55.8379911941183451 Zr
atom 4.6807996907847098 4.8443312288474436 48.2626137039623089 S
atom 10.0861496178681431 5.2404726642914499 48.2598196791287677 S
atom 5.0769411262864441 10.2496811558045842 48.2654077825879213 S
atom 9.6511503320174832 9.8146818701237262 48.2626137039399765 S
atom 5.2166295272567691 5.2704539535766708 53.3402596003640710 S
atom 9.6600268965592768 4.7046428331731285 53.3374655260122026 S
atom 4.6508184051200994 9.7138513249695713 53.3430536292156035 S
atom 10.1869801686158574 10.2408045948411210 53.3402595990575605 S
atom 4.5918237384310272 2.5305881466192277 51.1467069426964684 S
atom 10.2112349777891929 2.5079010008462346 50.6020719942776083 S
atom 5.2020264861414107 7.5171094936444227 50.6076600969176198 S
atom 9.5621743796309122 7.5009387889912462 51.1467069425795273 S
atom 4.5391494684831226 2.5270928398106931 55.5533157766944683 S
atom 10.3231676014061193 2.5035800714421521 56.1620139635239823 S
atom 5.3139591096414458 7.5127885634862324 56.1676020659416437 S
atom 9.5095001093838629 7.4974434816337059 55.5533157765044621 S
atom 2.4203334966551351 5.3683064668220881 51.1495009935760478 S
atom 7.4133714386434777 4.7192458692600283 50.6048660442312013 S
atom 2.4041629475546600 9.7284543609809209 50.6104541469213416 S
atom 7.3906841373593846 10.3386571080400387 51.1495009936182612 S
atom 2.4238288487360413 5.4209807401731753 55.5561098281635495 S
atom 7.4176923118724245 4.6073132473483733 56.1648080146076509 S
atom 2.4084838229908923 9.6165217390170419 56.1703961170598376 S
atom 7.3941794871087465 10.3913313815223027 55.5561098281628603 S
atom 2.6193851406646997 2.2590302178184971 58.3716653488191426 Ba
atom 7.7010999904710724 2.3315365746912113 58.3688712974720687 Ba
atom 2.6918914989722929 7.3407450665418725 58.3744593999937180 Ba
atom 7.5897357817829985 7.2293808593187059 58.3716653486825976 Ba
atom 2.2636058420754868 2.8007835113080639 63.3853242522493119 Ba
atom 7.1593466998155026 2.6873158712213008 63.3825302002972606 Ba
atom 2.1501382093295844 7.6965243630478728 63.3881183027634449 Ba
atom 7.2339564821205720 7.7711341528808546 63.3853242521760052 Ba
atom 4.9278696043875634 5.0098489613897357 60.8645507211026526 Zr
atom 9.9206318860772118 4.9934027486276449 60.8617566989981995 Zr
atom 4.9114233942484775 10.0026112403428815 60.8673448033645315 Zr
atom 9.8982202455921389 9.9801996029151105 60.8645507194919944 Zr
atom 4.9285100619738733 5.0132999788822952 65.8883006387011676 Zr
atom 9.9171808691190826 4.9927622940681449 65.8855065815290715 Zr
atom 4.9079723775434987 10.0019707859775959 65.8910946791557990 Zr
atom 9.8988607026804587 9.9836506209675733 65.8883006407739913 Zr
atom 4.6062661579874407 4.7522762325588808 58.3627891684299200 S
atom 10.1782046162030575 5.3150061988236947 58.3599950983535791 S
atom 5.1689961247640399 10.3242146905202770 58.3655831961633211 S
atom 9.5766167992170264 9.7226268737754875 58.3627891705739827 S
atom 5.2493958165181835 5.2795288047157793 63.3820896287922437 S
atom 9.6509520410510543 4.6718765353948273 63.3792955208195039 S
atom 4.6417435494021371 9.6810850267150510 63.3848836265946005 S
atom 10.2197464575345265 10.2498794459463411 63.3820896284496484 S
atom 4.5438304413686001 2.5197379403262761 61.1914270494795858 S
atom 10.3188159001832656 2.4973169655463936 60.5599966979797699 S
atom 5.3096074090943057 7.5065254550331559 60.5655848001392769 S
atom 9.5141810829868412 7.4900885794839009 61.1914270493937309 S
atom 4.5465260510286019 2.5190942675145638 65.5763903364357219 S
atom 10.3203464141060959 2.4959917383168886 66.2053702434180025 S
atom 5.3111379225476494 7.5052002306697085 66.2109583462203517 S
atom 9.5168766923242210 7.4894449093762416 65.5763903362809373 S
atom 2.4311837882993745 5.4162997654122389 61.1942211008563461 S
atom 7.4239553825280256 4.6116649483515157 60.5627907490636375 S
atom 2.4147468870795157 9.6208734397428142 60.5683788514850718 S
atom 7.4015344335519977 10.3866504066887106 61.1942211009378738 S
atom 2.4318275690136515 5.4136041533478920 65.5791843873105904 S
atom 7.4252804979483171 4.6101344371597941 66.2081642950529528 S
atom 2.4160720059549177 9.6193429285964616 66.2137523976767568 S
atom 7.4021782110234140 10.3839547942900090 65.5791843874459914 S
atom 2.6236942727251438 2.2515425216471665 68.4012184009812216 Ba
atom 7.7085876833490010 2.3272274457782829 68.3984243506082379 Ba
atom 2.6993791907533526 7.3364359367962404 68.4040124531771596 Ba
atom 7.5940449151339884 7.2218931622846778 68.4012184010966422 Ba
atom 2.2696859377109284 2.7957785482924802 73.4199316705157372 Ba
atom 7.1643516474756535 2.6812357875311394 73.4171376202520634 Ba
atom 2.1551431554518286 7.6904442790913814 73.4227257228872361 Ba
atom 7.2400365794466008 7.7661291894828448 73.4199316706939840 Ba
atom 4.9318654303090810 5.0088358607955454 70.9105750736362097 Zr
atom 9.9216449899289980 4.9894069405484061 70.9077809352346549 Zr
atom 4.9124364984704521 9.9986154321694745 70.9133690396492398 Zr
atom 9.9022160713198275 9.9791865023137092 70.9105750735477329 Zr
atom 4.9352207908753423 5.0043717416821911 75.9328494005712002 Zr
atom 9.9261091103451928 4.9860515802218526 75.9300554417199578 Zr
atom 4.9169006188217148 9.9952600714117636 75.9356435478592005 Zr
atom 9.9055714325241127 9.9747223822044173 75.9328493985869528 Zr
atom 4.6076341361391755 4.7428951919071860 68.4011991879221739 S
atom 10.1875856572670020 5.3136382226338821 68.3984052381673280 S
atom 5.1783771655640614 10.3228467138634752 68.4039933445478852 S
atom 9.5779847771870159 9.7132458331661091 68.4011991854185624 S
atom 5.2560967162184165 5.2747765302799934 73.4199508086635859 S
atom 9.6557043241256473 4.6651756516204586 73.4171568232740412 S
atom 4.6464958326477843 9.6743841432760576 73.4227449193817563 S
atom 10.2264473575641119 10.2451271715171774 73.4199508112576211 S
atom 4.5498539398587452 2.5154282204807834 71.2259228276325018 S
atom 10.3230853987179234 2.4930350022208492 70.5896391459552461 S
atom 5.3138769065409370 7.5022434958643682 70.5952272488193699 S
atom 9.5202045805388735 7.4857788637019240 71.2259228280354506 S
atom 4.5525929276843993 2.5124713279468391 75.6101917268194939 S
atom 10.3264132822069996 2.4893691198644818 76.2391716331566300 S
atom 5.3172047910105311 7.4985776096327212 76.2447597357854221 S
atom 9.5229435692351991 7.4828219674818239 75.6101917271509762 S
atom 2.4354934148979526 5.4102762704896481 71.2287168790337404 S
atom 7.4282374287688260 4.6073954492361109 70.5924331973009060 S
atom 2.4190289428460656 9.6166039407988979 70.5980212999154304 S
atom 7.4058440505821945 10.3806269115845300 71.2287168788721630 S
atom 2.4384501854866651 5.4075372854226469 75.6129857787096711 S
atom 7.4319034380145936 4.6040675624583365 76.2419656844313067 S
atom 2.4226949430924463 9.6132760540934790 76.2475537870767539 S
atom 7.4088008297930887 10.3778879269184685 75.6129857785574018 S
atom 2.6297743638706308 2.2465375660369200 78.4358258269441677 Ba
atom 7.7135926369255765 2.3211473553016146 78.4330317729836821 Ba
atom 2.7043841465903444 7.3303558472956247 78.4386198754932451 Ba
atom 7.6001250037273449 7.2168882077675178 78.4358258269575543 Ba
atom 2.2739950574598891 2.7882908681002427 83.4494847221188110 Ba
atom 7.1718393554222883 2.6769266461153909 83.4466906724724851 Ba
atom 2.1626308635517173 7.6861351376014984 83.4522787749840376 Ba
atom 7.2443456990067459 7.7586415092239172 83.4494847220242946 Ba
atom 4.9358612324142364 5.0078227574741119 80.9565993092012377 Zr
atom 9.9226580932350998 4.9854111112555293 80.9538053223421912 Zr
atom 4.9134496018529656 9.9946196025873117 80.9593934214233713 Zr
atom 9.9062118738666225 9.9781733981261116 80.9565993108379445 Zr
atom 4.9455416920096047 4.9900702761342153 85.9831589567865677 Zr
atom 9.9404105667811322 4.9757306398024976 85.9803647161597979 Zr
atom 4.9312020754699901 9.9849391314227169 85.9859528191133649 Zr
atom 9.9158923329909374 9.9604209173603007 85.9831589566597358 Zr
atom 4.6143350290282656 4.7381429139156896 78.4390605970852448 S
atom 10.1923379373183547 5.3069373322838178 78.4362662730051596 S
atom 5.1831294459057418 10.3161458241892241 78.4418543763257645 S
atom 9.5846856704968513 9.7084935551178972 78.4390605972533734 S
atom 5.2574646808155183 5.2653954821487092 83.4583608473007530 S
atom 9.6650853589484669 4.6638076625741363 83.4555669493048811 S
atom 4.6558768673026218 9.6730161541451345 83.4611550552898223 S
atom 10.2278153220687908 10.2357461233729019 83.4583608453415025 S
atom 4.5541234322489705 2.5111464229403699 81.2555652747323762 S
atom 10.3291088995736278 2.4887251328349724 80.6241349204932902 S
atom 5.3199004082823302 7.4979336235745473 80.6297230231106994 S
atom 9.5244740737531384 7.4814970634484110 81.2555652743856456 S
atom 4.5497717357053586 2.5048831814053840 85.6535480103932088 S
atom 10.3337898694821604 2.4813703644749432 86.2622461967876291 S
atom 5.3245813776137991 7.4905788566683489 86.2678342990613629 S
atom 9.5201223767169054 7.4752338232745448 85.6535480103391791 S
atom 2.4397756241231385 5.4060067664834834 81.2583593250731724 S
atom 7.4325469014954990 4.6013719559327502 80.6269289721877982 S
atom 2.4233384073199797 9.6105804475896086 80.6325170748005888 S
atom 7.4101262677337250 10.3763574078520620 81.2583593251728047 S
atom 2.4460385601048582 5.4103584699498137 85.6563420614729125 S
atom 7.4399019749971158 4.5966909785818624 86.2650402471432329 S
atom 2.4306934861229257 9.6058994701060172 86.2706283496300443 S
atom 7.4163891986981989 10.3807091111315213 85.6563420614997568 S
atom 2.6431260842253046 2.2583041083272231 88.4332830355002670 Ba
atom 7.7018261125386962 2.3077956230502346 88.4304889841582735 Ba
atom 2.6926176207919950 7.3170041145700866 88.4360770867332917 Ba
atom 7.6134767256945706 7.2286547495046616 88.4332830355000681 Ba
atom 2.2944406006558031 2.6318355175768899 93.2389171620731219 Ba
atom 7.3282946789857384 2.6564811238987742 93.2361231152411563 Ba
atom 2.3190861876837068 7.6656896155529557 93.2417112178541743 Ba
atom 7.2647912416005092 7.6021861588918727 93.2389171620447712 Ba
atom 4.9362263405446178 5.0119635894822956 91.0470957316066887 Zr
atom 9.9185172421728645 4.9850460715163933 91.0443016929994684 Zr
atom 4.9093087509974360 9.9942545629914896 91.0498897963461786 Zr
atom 9.9065769811376043 9.9823142307068302 91.0470957311526945 Zr
atom 4.6471013142720183 4.7472177641692657 88.4808903645721330 S
atom 10.1832630820038403 5.2741710311400318 88.4780965588146842 S
atom 5.1740545903026218 10.2833795226108933 88.4836846590082757 S
atom 9.6174519554543227 9.7175684053969338 88.4808903659022121 S
atom 5.1829311635714577 5.1733404972727994 93.5585364337370180 S
atom 9.7571403689937508 4.7383412132361595 93.5557422139218602 S
atom 4.7479318773180772 9.7475497047329824 93.5613303168786956 S
atom 10.1532818047894597 10.1436911385256128 93.5585364336117067 S
atom 4.6617043692781381 2.5005620007720517 91.2134899747041032 S
atom 10.2811155989317786 2.4778752765052143 90.6688550250883907 S
atom 5.2719071073960340 7.4870837675987154 90.6744431275861160 S
atom 9.6320550107064360 7.4709126414463505 91.2134899745928607 S
atom 2.4503591810861263 5.2984258583358770 91.2162840277960214 S
atom 7.4433975461358939 4.6493652518662714 90.6716490803858619 S
atom 2.4341890532961679 9.6585737433509440 90.6772371828720765 S
atom 7.4207098239018974 10.2687764995209498 91.2162840278050595 S
