#=======================================================
# FHI-aims file: full_relax/full_relax_RP_6_00Mz_00Mz.in
# Created using the Atomic Simulation Environment (ASE)
# Fri Mar 14 11:37:59 2025
#=======================================================
lattice_vector 9.9094508300700674 0.0000000140484453 -0.0000000000000016 
lattice_vector 0.0000000140484453 9.9094508300700692 0.0000000000000079 
lattice_vector -0.0000000000000103 0.0000000000000510 67.1447880134897446 
atom -0.0000000000017383 -0.0000000000009411 0.1641416363340644 Ba
atom 4.9547254150340674 0.0000000070231588 0.1641416363339614 Ba
atom 0.0000000070231578 4.9547254150343498 0.1641416363339323 Ba
atom 4.9547254220579156 4.9547254220586883 0.1641416363337850 Ba
atom -0.0000000000005452 -0.0000000000008226 5.0665997425095242 Ba
atom 4.9547254150331268 0.0000000070235371 5.0665997425098590 Ba
atom 0.0000000070222267 4.9547254150345861 5.0665997425097808 Ba
atom 4.9547254220587940 4.9547254220584440 5.0665997425093208 Ba
atom 2.4773627110288809 2.4773627110287668 2.4381066807235952 Zr
atom 7.4320881260639693 2.4773627180532438 2.4381066807238692 Zr
atom 2.4773627180532931 7.4320881260638512 2.4381066807241316 Zr
atom 7.4320881330881958 7.4320881330881914 2.4381066807234895 Zr
atom 2.4773627110292256 2.4773627110292025 7.5768108995933323 Zr
atom 7.4320881260643041 2.4773627180531523 7.5768108995939967 Zr
atom 2.4773627180537185 7.4320881260640261 7.5768108995941281 Zr
atom 7.4320881330886124 7.4320881330886746 7.5768108995934274 Zr
atom 2.4773627110287224 2.4773627110298184 -0.1053233995242220 S
atom 7.4320881260643059 2.4773627180524942 -0.1053233995243418 S
atom 2.4773627180535964 7.4320881260631513 -0.1053233995240826 S
atom 7.4320881330878388 7.4320881330888104 -0.1053233995244684 S
atom 2.4773627110295164 2.4773627110276446 5.0375066261068140 S
atom 7.4320881260639027 2.4773627180545694 5.0375066261070680 S
atom 2.4773627180533455 7.4320881260653611 5.0375066261071266 S
atom 7.4320881330885413 7.4320881330867721 5.0375066261068726 S
atom 2.0531490438211071 -0.0000021088424247 2.5303321029410162 S
atom 7.8563017862474904 0.0000021228895067 2.5303321029429999 S
atom 2.9015763782369977 4.9547275309002217 2.5303321029425052 S
atom 7.0078744658800627 4.9547233132169062 2.5303321029407915 S
atom 2.9977602079773682 -0.0000010442051841 7.5899143095968213 S
atom 6.9116906220912835 0.0000010582524904 7.5899143095928574 S
atom 1.9569652140806477 4.9547264662633133 7.5899143095925066 S
atom 7.9524856300361666 4.9547243778540837 7.5899143095966446 S
atom 0.0000021158652871 2.9015763712130815 2.5303321029421855 S
atom 4.9547233061926876 2.0531490508451702 2.5303321029415673 S
atom -0.0000021018181839 7.0078744588559898 2.5303321029417170 S
atom 4.9547275379246454 7.8563017932720260 2.5303321029423156 S
atom 0.0000010512284021 1.9569652070563321 7.5899143095946187 S
atom 4.9547243708299460 2.9977602150018465 7.5899143095949206 S
atom -0.0000010371808244 7.9524856230121905 7.5899143095950254 S
atom 4.9547264732877210 6.9116906291153812 7.5899143095945885 S
atom 0.0000000000030413 -0.0000000000004226 10.1545291412771501 Ba
atom 4.9547254150364761 0.0000000070238490 10.1545291412772087 Ba
atom 0.0000000070261778 4.9547254150347051 10.1545291412763330 Ba
atom 4.9547254220619497 4.9547254220586909 10.1545291412768037 Ba
atom -0.0000000000037812 -0.0000000000006437 15.2601790939723987 Ba
atom 4.9547254150318265 0.0000000070239622 15.2601790939719795 Ba
atom 0.0000000070209745 4.9547254150346278 15.2601790939724644 Ba
atom 4.9547254220554935 4.9547254220589858 15.2601790939718072 Ba
atom 2.4773627110289826 2.4773627110289622 12.6995833994576852 Zr
atom 7.4320881260642890 2.4773627180532602 12.6995833994582057 Zr
atom 2.4773627180532842 7.4320881260640821 12.6995833994584011 Zr
atom 7.4320881330884916 7.4320881330882971 12.6995833994575946 Zr
atom 2.4773627110289977 2.4773627110290910 17.8207747884868049 Zr
atom 7.4320881260640492 2.4773627180531537 17.8207747884869434 Zr
atom 2.4773627180531439 7.4320881260643130 17.8207747884866770 Zr
atom 7.4320881330881852 7.4320881330880777 17.8207747884868191 Zr
atom 2.4773627110286705 2.4773627110312155 10.1461005338571226 S
atom 7.4320881260637384 2.4773627180506490 10.1461005338573731 S
atom 2.4773627180528717 7.4320881260618163 10.1461005338573855 S
atom 7.4320881330876469 7.4320881330908426 10.1461005338572399 S
atom 2.4773627110294729 2.4773627110263270 15.2601790939718605 S
atom 7.4320881260646301 2.4773627180559612 15.2601790939720274 S
atom 2.4773627180542115 7.4320881260667795 15.2601790939720434 S
atom 7.4320881330882349 7.4320881330858963 15.2601790939719510 S
atom 2.9792536353194934 -0.0000000274104184 12.7070065628473170 S
atom 6.9301971947494652 0.0000000414578727 12.7070065628528379 S
atom 1.9754717867381069 4.9547254494686515 12.7070065628527491 S
atom 7.9339790573790401 4.9547253946488841 12.7070065628473792 S
atom 2.9792536353191870 -0.0000000274103714 17.8133516250963027 S
atom 6.9301971947498417 0.0000000414577784 17.8133516250907320 S
atom 1.9754717867383942 4.9547254494686612 17.8133516250907995 S
atom 7.9339790573788527 4.9547253946487455 17.8133516250966828 S
atom 0.0000000344336499 1.9754717797139023 12.7070065628504079 S
atom 4.9547253876246762 2.9792536423440477 12.7070065628501876 S
atom -0.0000000203861012 7.9339790503545125 12.7070065628505837 S
atom 4.9547254564928593 6.9301972017739750 12.7070065628500686 S
atom 0.0000000344335359 1.9754717797141670 17.8133516250938406 S
atom 4.9547253876246371 2.9792536423438372 17.8133516250932971 S
atom -0.0000000203862435 7.9339790503541936 17.8133516250934996 S
atom 4.9547254564927625 6.9301972017740230 17.8133516250944517 S
atom 0.0000000000018946 -0.0000000000008237 20.3658290466681606 Ba
atom 4.9547254150363989 0.0000000070230801 20.3658290466681180 Ba
atom 0.0000000070255256 4.9547254150339599 20.3658290466686722 Ba
atom 4.9547254220606822 4.9547254220582646 20.3658290466686296 Ba
atom -0.0000000000002907 -0.0000000000004397 25.4537584454366907 Ba
atom 4.9547254150334554 0.0000000070229459 25.4537584454365273 Ba
atom 0.0000000070223319 4.9547254150343569 25.4537584454361721 Ba
atom 4.9547254220585666 4.9547254220587789 25.4537584454365877 Ba
atom 2.4773627110292940 2.4773627110289760 22.9435472883525406 Zr
atom 7.4320881260642500 2.4773627180529156 22.9435472883520468 Zr
atom 2.4773627180532567 7.4320881260639515 22.9435472883517200 Zr
atom 7.4320881330883912 7.4320881330883326 22.9435472883521463 Zr
atom 2.4773627110289933 2.4773627110289045 28.0822515072225372 Zr
atom 7.4320881260639835 2.4773627180531772 28.0822515072219190 Zr
atom 2.4773627180530355 7.4320881260639498 28.0822515072213754 Zr
atom 7.4320881330881496 7.4320881330883353 28.0822515072221037 Zr
atom 2.4773627110289271 2.4773627110310983 20.3742576540878453 S
atom 7.4320881260632046 2.4773627180511708 20.3742576540877600 S
atom 2.4773627180525253 7.4320881260619416 20.3742576540876890 S
atom 7.4320881330882500 7.4320881330905655 20.3742576540878311 S
atom 2.4773627110287890 2.4773627110284377 25.4828515618393894 S
atom 7.4320881260645288 2.4773627180544207 25.4828515618390163 S
atom 2.4773627180536892 7.4320881260646798 25.4828515618389559 S
atom 7.4320881330881710 7.4320881330871043 25.4828515618390341 S
atom 2.9977602079787564 -0.0000010442052563 22.9304438783495108 S
atom 6.9116906220905650 0.0000010582524718 22.9304438783522180 S
atom 1.9569652140799805 4.9547264662632395 22.9304438783524631 S
atom 7.9524856300367608 4.9547243778539363 22.9304438783491058 S
atom 2.0531490438199893 -0.0000021088424130 27.9900260850041285 S
atom 7.8563017862487108 0.0000021228894729 27.9900260850027429 S
atom 2.9015763782380879 4.9547275309001932 27.9900260850034357 S
atom 7.0078744658791488 4.9547233132168662 27.9900260850043949 S
atom 0.0000010512284012 1.9569652070553845 22.9304438783503528 S
atom 4.9547243708299797 2.9977602150025389 22.9304438783509781 S
atom -0.0000010371808802 7.9524856230131018 22.9304438783508786 S
atom 4.9547264732875949 6.9116906291150997 22.9304438783503493 S
atom 0.0000021158654489 2.9015763712141687 27.9900260850039224 S
atom 4.9547233061926264 2.0531490508435297 27.9900260850028602 S
atom -0.0000021018181424 7.0078744588547242 27.9900260850027252 S
atom 4.9547275379244997 7.8563017932729071 27.9900260850033824 S
atom -0.0000000000012183 -0.0000000000006003 30.3562165516115954 Ba
atom 4.9547254150338311 0.0000000070237467 30.3562165516116913 Ba
atom 0.0000000070239457 4.9547254150347735 30.3562165516118831 Ba
atom 4.9547254220581971 4.9547254220588544 30.3562165516112508 Ba
atom 2.4773627110296355 2.4773627110287335 30.6256815874700479 S
atom 7.4320881260639799 2.4773627180521136 30.6256815874694972 S
atom 2.4773627180526123 7.4320881260639151 30.6256815874695256 S
atom 7.4320881330889916 7.4320881330887181 30.6256815874696215 S
atom 2.4773627110291310 2.4773627110282659 33.7365356430786036 Ba
atom 7.4320881260636993 2.4773627180533118 33.7365356430777226 Ba
atom 2.4773627180530138 7.4320881260634222 33.7365356430782839 Ba
atom 7.4320881330882846 7.4320881330885005 33.7365356430781986 Ba
atom 2.4773627110277845 2.4773627110299508 38.6389937492544107 Ba
atom 7.4320881260626948 2.4773627180526727 38.6389937492533164 Ba
atom 2.4773627180533495 7.4320881260626708 38.6389937492537854 Ba
atom 7.4320881330865163 7.4320881330876185 38.6389937492532525 Ba
atom 4.9547254220584707 4.9547254220582611 36.0105006874674771 Zr
atom 9.9094508370934324 4.9547254290826039 36.0105006874679461 Zr
atom 4.9547254290824254 9.9094508370931660 36.0105006874682587 Zr
atom 9.9094508441175293 9.9094508441175950 36.0105006874676761 Zr
atom 4.9547254220587353 4.9547254220581536 41.1492049063378289 Zr
atom 9.9094508370935799 4.9547254290829814 41.1492049063378360 Zr
atom 4.9547254290825586 9.9094508370938286 41.1492049063376797 Zr
atom 9.9094508441178348 9.9094508441176767 41.1492049063376726 Zr
atom 4.9547254220592274 4.9547254220586385 33.4670706072198030 S
atom 9.9094508370934236 4.9547254290827532 33.4670706072202364 S
atom 4.9547254290827798 9.9094508370935159 33.4670706072203359 S
atom 9.9094508441177283 9.9094508441179290 33.4670706072200375 S
atom 4.9547254220583712 4.9547254220590213 38.6099006328506107 S
atom 9.9094508370938499 4.9547254290817984 38.6099006328507315 S
atom 4.9547254290837701 9.9094508370929972 38.6099006328506107 S
atom 9.9094508441175755 9.9094508441186679 38.6099006328512004 S
atom 5.3789390822428143 2.4773648268947519 36.1027261096857330 S
atom 9.4852371698847637 2.4773606092112779 36.1027261096858396 S
atom 4.5305117618735107 7.4320860172219012 36.1027261096866354 S
atom 10.3336645043018862 7.4320902489539087 36.1027261096862446 S
atom 4.4343279180861286 2.4773637622576481 41.1623083163368548 S
atom 10.4298483340416457 2.4773616738484101 41.1623083163415444 S
atom 5.4751229260300320 7.4320870818590734 41.1623083163399457 S
atom 9.3890533401445531 7.4320891843169061 41.1623083163381196 S
atom 2.4773606021871237 4.5305117548497229 36.1027261096859746 S
atom 7.4320902419297150 5.3789390892674831 36.1027261096866283 S
atom 2.4773648339188958 10.3336644972775229 36.1027261096865004 S
atom 7.4320860242463080 9.4852371769089334 36.1027261096861807 S
atom 2.4773616668242266 5.4751229190064699 41.1623083163389367 S
atom 7.4320891772926814 4.4343279251102947 41.1623083163378709 S
atom 2.4773637692818449 9.3890533331207600 41.1623083163395194 S
atom 7.4320870888833959 10.4298483410658722 41.1623083163395762 S
atom 2.4773627110312821 2.4773627110293672 43.7269231480225429 Ba
atom 7.4320881260661444 2.4773627180532656 43.7269231480215339 Ba
atom 2.4773627180563795 7.4320881260642411 43.7269231480228555 Ba
atom 7.4320881330894393 7.4320881330886834 43.7269231480226637 Ba
atom 2.4773627110253686 2.4773627110290506 48.8325731007182853 Ba
atom 7.4320881260602878 2.4773627180529805 48.8325731007176387 Ba
atom 2.4773627180493758 7.4320881260637544 48.8325731007192019 Ba
atom 7.4320881330856015 7.4320881330878148 48.8325731007189816 Ba
atom 4.9547254220584538 4.9547254220585417 46.2719774062041225 Zr
atom 9.9094508370934253 4.9547254290829494 46.2719774062034688 Zr
atom 4.9547254290825569 9.9094508370934431 46.2719774062037743 Zr
atom 9.9094508441177585 9.9094508441178224 46.2719774062027369 Zr
atom 4.9547254220582655 4.9547254220581181 51.3931687952323202 Zr
atom 9.9094508370934449 4.9547254290827283 51.3931687952324694 Zr
atom 4.9547254290823908 9.9094508370933863 51.3931687952323628 Zr
atom 9.9094508441177620 9.9094508441179858 51.3931687952317091 Zr
atom 4.9547254220586936 4.9547254220552803 43.7184945406024639 S
atom 9.9094508370922316 4.9547254290839451 43.7184945406022649 S
atom 4.9547254290822424 9.9094508370958447 43.7184945406023360 S
atom 9.9094508441172913 9.9094508441160105 43.7184945406023928 S
atom 4.9547254220584076 4.9547254220616983 48.8325731007181503 S
atom 9.9094508370941536 4.9547254290793443 48.8325731007177737 S
atom 4.9547254290828642 9.9094508370909384 48.8325731007183350 S
atom 9.9094508441182736 9.9094508441202969 48.8325731007180011 S
atom 4.4528344907438235 2.4773627454629699 46.2794005696007957 S
atom 10.4113417613826584 2.4773626906433051 46.2794005695944506 S
atom 5.4566163533729215 7.4320880986539883 46.2794005695948343 S
atom 9.4075599128035279 7.4320881675222230 46.2794005695999218 S
atom 4.4528344907432302 2.4773627454629157 51.3857456318375867 S
atom 10.4113417613841417 2.4773626906432566 51.3857456318440882 S
atom 5.4566163533730441 7.4320880986538871 51.3857456318433066 S
atom 9.4075599128033112 7.4320881675221671 51.3857456318372954 S
atom 2.4773626836188272 5.4566163463488042 46.2794005695963904 S
atom 7.4320881604977638 4.4528344977683805 46.2794005695971720 S
atom 2.4773627524869966 9.4075599057793955 46.2794005695981880 S
atom 7.4320881056779546 10.4113417684070484 46.2794005695964614 S
atom 2.4773626836189138 5.4566163463487465 51.3857456318399173 S
atom 7.4320881604978100 4.4528344977678849 51.3857456318402086 S
atom 2.4773627524870716 9.4075599057788004 51.3857456318406989 S
atom 7.4320881056779786 10.4113417684084801 51.3857456318397041 S
atom 2.4773627110311374 2.4773627110285577 53.9382230534129405 Ba
atom 7.4320881260665175 2.4773627180526279 53.9382230534122868 Ba
atom 2.4773627180563960 7.4320881260639009 53.9382230534121518 Ba
atom 7.4320881330902706 7.4320881330871114 53.9382230534123366 Ba
atom 2.4773627110277552 2.4773627110290306 59.0261524521797654 Ba
atom 7.4320881260632188 2.4773627180532993 59.0261524521796446 Ba
atom 2.4773627180532687 7.4320881260634533 59.0261524521808170 Ba
atom 7.4320881330863520 7.4320881330879249 59.0261524521797085 Ba
atom 4.9547254220587531 4.9547254220582699 56.5159412950958213 Zr
atom 9.9094508370942229 4.9547254290832630 56.5159412950963471 Zr
atom 4.9547254290829237 9.9094508370934928 56.5159412950965105 Zr
atom 9.9094508441184264 9.9094508441173872 56.5159412950957361 Zr
atom 4.9547254220583783 4.9547254220584698 61.6546455139663507 Zr
atom 9.9094508370932832 4.9547254290826270 61.6546455139671252 Zr
atom 4.9547254290826919 9.9094508370936936 61.6546455139675587 Zr
atom 9.9094508441177069 9.9094508441179094 61.6546455139669192 Zr
atom 4.9547254220573365 4.9547254220564882 53.9466516608328135 S
atom 9.9094508370936687 4.9547254290851646 53.9466516608328988 S
atom 4.9547254290817069 9.9094508370954095 53.9466516608327211 S
atom 9.9094508441174014 9.9094508441143230 53.9466516608328774 S
atom 4.9547254220587273 4.9547254220596360 59.0552455685830182 S
atom 9.9094508370934982 4.9547254290809555 59.0552455685829329 S
atom 4.9547254290824840 9.9094508370924306 59.0552455685834303 S
atom 9.9094508441184725 9.9094508441192044 59.0552455685831035 S
atom 4.4343279180868773 2.4773637622576499 56.5028378850966959 S
atom 10.4298483340406083 2.4773616738483257 56.5028378850923048 S
atom 5.4751229260303216 7.4320870818592191 56.5028378850929798 S
atom 9.3890533401444625 7.4320891843169861 56.5028378850967243 S
atom 5.3789390822412528 2.4773648268947381 61.5624200917476045 S
atom 9.4852371698860622 2.4773606092113756 61.5624200917487983 S
atom 4.5305117618759052 7.4320860172223178 61.5624200917491251 S
atom 10.3336645043002928 7.4320902489539113 61.5624200917480238 S
atom 2.4773616668244127 5.4751229190064308 56.5028378850950830 S
atom 7.4320891772928297 4.4343279251111021 56.5028378850940598 S
atom 2.4773637692820514 9.3890533331206285 56.5028378850952464 S
atom 7.4320870888836117 10.4298483410656697 56.5028378850943085 S
atom 2.4773606021869075 4.5305117548511813 61.5624200917485069 S
atom 7.4320902419299077 5.3789390892651276 61.5624200917481446 S
atom 2.4773648339190064 10.3336644972767431 61.5624200917504183 S
atom 7.4320860242462965 9.4852371769105552 61.5624200917485638 S
atom 2.4773627110288272 2.4773627110299263 63.9286105583572137 Ba
atom 7.4320881260634595 2.4773627180536653 63.9286105583559632 Ba
atom 2.4773627180523956 7.4320881260637668 63.9286105583562758 Ba
atom 7.4320881330876265 7.4320881330881861 63.9286105583555866 Ba
atom 4.9547254220585204 4.9547254220583579 64.1980755942144157 S
atom 9.9094508370938357 4.9547254290835445 64.1980755942151546 S
atom 4.9547254290834717 9.9094508370939032 64.1980755942152541 S
atom 9.9094508441166003 9.9094508441172025 64.1980755942151546 S
