#=======================================================
# FHI-aims file: full_relax/full_relax_RP_9_Rx0Mz_0-RyMz.in
# Created using the Atomic Simulation Environment (ASE)
# Mon Mar 24 16:31:46 2025
#=======================================================
lattice_vector 10.0066296201864056 -0.0765513117241020 -0.0000763225353890 
lattice_vector -0.0765513117241036 10.0066296201864056 -0.0000763225353881 
lattice_vector -0.0007085394829587 -0.0007085394829491 96.0333568769762138 
atom 0.1023813603450298 -0.1828524949965595 0.2148201259511044 Ba
atom 5.1859791388417849 -0.1407955843265246 0.2147713220828785 Ba
atom 0.1443886728835413 4.9007948816290812 0.2147713220945958 Ba
atom 5.0674205145806139 4.7821866592349060 0.2147438034246907 Ba
atom -0.2702656160161322 0.1880203720657780 5.0096620425102421 Ba
atom 4.8150243283033820 0.2317328773819499 5.0096092979227862 Ba
atom -0.2265661376482242 5.2733233433393760 5.0096092979176827 Ba
atom 4.6947735382096978 5.1530595263016208 5.0095857199706098 Ba
atom 2.4836833835447756 2.4717330776022699 2.4038985578761953 Zr
atom 7.4964307747488199 2.4428744977895454 2.4038616018037917 Zr
atom 2.4548403088014332 7.4844649636708409 2.4038616018265127 Zr
atom 7.4487225377723609 7.4367722317652429 2.4038222353392276 Zr
atom 2.4727292913061807 2.4877070954051907 7.4616946352214111 Zr
atom 7.4803628265168669 2.4537454064011528 7.4616576360440137 Zr
atom 2.4387723605690415 7.4953358723241985 7.4616576360364286 Zr
atom 7.4377684455317024 7.4527462496055570 7.4616183126914137 Zr
atom 2.6061328444454430 2.6912805063047656 -0.1037772894930193 S
atom 7.2769027143674432 2.3204505861766780 -0.1038008809234562 S
atom 2.2353122484117929 7.3620410521386646 -0.1038008809425763 S
atom 7.5711719986772179 7.6563196605452077 -0.1038536120358881 S
atom 2.2342489013049902 2.1881156809876341 4.9675059121524665 S
atom 7.7799708177057338 2.6922547890693296 4.9674694058291502 S
atom 2.7383803517512995 7.7338452550347947 4.9674694058320457 S
atom 7.1992880555377958 7.1531548352271441 4.9674295896186313 S
atom 2.8066846360088360 -0.0146586768580406 2.2500945673281967 S
atom 7.1753619654588334 -0.0502701123324817 2.7583743924733342 S
atom 2.1337714995075623 4.9913203536107522 2.7583743924663802 S
atom 7.7717237902370160 4.9503804773516435 2.2500182447959283 S
atom 2.8977855694394954 -0.0179281554572116 7.7913489269702856 S
atom 7.1136533153539956 -0.0533608166623137 7.1748422636353419 S
atom 2.0720628494009787 4.9882296492741212 7.1748422636394080 S
atom 7.8628247236690347 4.9471109987537236 7.7912726044318310 S
atom -0.0238258357846515 2.1964195388317398 2.2501141465726162 S
atom 4.9768218300335647 2.7927552258748265 2.7583573581633507 S
atom -0.0647686359255468 7.8343456918443257 2.7583573581650791 S
atom 4.9412133184473772 7.1614586930738859 2.2500378240367920 S
atom -0.0206335180544349 2.1052282045675739 7.7913510933610937 S
atom 4.9798335663284972 2.8544141360940820 7.1748167908902341 S
atom -0.0617568996305340 7.8960046020592882 7.1748167908885501 S
atom 4.9444056361789794 7.0702673588034628 7.7912747708264689 S
atom 0.2849652049444857 -0.1832875046364952 9.9900583683144752 Ba
atom 5.1862858770311231 -0.3235497258478294 9.9900531088554168 Ba
atom 0.1446954110750243 4.7180407401142617 9.9900531088532052 Ba
atom 5.2500043591771943 4.7817516496013051 9.9899820457763706 Ba
atom -0.2864589297231676 0.1822300904387898 14.9951554271528593 Ba
atom 4.8207530576134170 0.2478702710270169 14.9951072707827340 Ba
atom -0.2208374083398386 5.2894607369906890 14.9951072707824782 Ba
atom 4.6785802245048735 5.1472692446805031 14.9950791046173517 Ba
atom 2.4868289004033874 2.4806588914994583 12.4796342993501330 Zr
atom 7.4873728773426516 2.4396101605602958 12.4795961006875338 Zr
atom 2.4457824113909123 7.4812006265010655 12.4795961006996077 Zr
atom 7.4518680546328193 7.4456980457158499 12.4795579768177554 Zr
atom 2.4806945385529264 2.4829899305411001 17.4944482900283695 Zr
atom 7.4850586815162909 2.4457498961652022 17.4944089509651910 Zr
atom 2.4434682155637373 7.4873403621067487 17.4944089509570873 Zr
atom 7.4457336927826674 7.4480290847583497 17.4943719674902383 Zr
atom 2.7445310234869096 2.8091950509333103 9.9817714907575805 S
atom 7.1588429786690941 2.1819298540231133 9.9817325540107706 S
atom 2.1172525127115889 7.2235203199809694 9.9817325540020114 S
atom 7.7095701777196339 7.7742342051718127 9.9816951682137418 S
atom 2.2165193205580742 2.1518371586216873 14.9924400586367561 S
atom 7.8162025915367348 2.7099165696692427 14.9923973395742536 S
atom 2.7746121255834315 7.7515070356292224 14.9923973395717098 S
atom 7.1815584747900560 7.1168763128524741 14.9923637361053697 S
atom 2.8894031239416735 -0.0217523717195494 12.1741325588220803 S
atom 7.1177777859714606 -0.0574949458627595 12.8116522269220763 S
atom 2.0761873200178731 4.9840955200595101 12.8116522269207138 S
atom 7.8544422781723666 4.9432867824777906 12.1740562362887168 S
atom 2.8875942739864562 -0.0200303769645254 17.8204619012580423 S
atom 7.1181905519915905 -0.0557788072101234 17.1784885132284870 S
atom 2.0766000860373390 4.9858116587130716 17.1784885132292580 S
atom 7.8526334282167678 4.9450087772343174 17.8203855787209235 S
atom -0.0168471690740759 2.1135854442008730 12.1741279574805255 S
atom 4.9839405755939596 2.8502475775841369 12.8116448264202631 S
atom -0.0576498903648435 7.8918380435465920 12.8116448264219915 S
atom 4.9481919851598493 7.0786245984322260 12.1740516349437904 S
atom -0.0185634864760956 2.1153899979297250 17.8204851680477319 S
atom 4.9822173741924143 2.8498401554910093 17.1784881441164181 S
atom -0.0593730917725217 7.8914306214531349 17.1784881441148478 S
atom 4.9464756677641208 7.0804291521601588 17.8204088455142688 S
atom 0.2865783146669459 -0.1819961396623514 20.0030435878264292 Ba
atom 5.1849781628969085 -0.3251696407607129 20.0030273488697112 Ba
atom 0.1433876969420409 4.7164208252017268 20.0030273488691961 Ba
atom 5.2516174688978783 4.7830430145764655 20.0029672652906285 Ba
atom -0.2869104425508582 0.1816640117677057 25.0125924483069575 Ba
atom 4.8213193294032086 0.2482862011437093 25.0125323647280773 Ba
atom -0.2202711365510311 5.2898766671046484 25.0125323647283295 Ba
atom 4.6781287116785641 5.1467031660058167 25.0125161257711426 Ba
atom 2.4823535131735128 2.4823535131767152 22.5077798567988943 Zr
atom 7.4856683232646768 2.4440778573154338 22.5077416955256773 Zr
atom 2.4440778573115063 7.4856683232603034 22.5077416955264979 Zr
atom 7.4473926674030100 7.4473926673978177 22.5077035342632001 Zr
atom 2.4840124877929810 2.4817170958141666 27.5211114235712131 Zr
atom 7.4862779650149811 2.4424058184668334 27.5210744401052096 Zr
atom 2.4446874990602945 7.4839962844126973 27.5210744400980545 Zr
atom 7.4490516420249202 7.4467562500361746 27.5210351010384180 Zr
atom 2.7489451243502652 2.8141503311973617 20.0027407881386985 S
atom 7.1538873518702202 2.1774811864562005 20.0027049432027013 S
atom 2.1122968859127202 7.2190716524115848 20.0027049432090287 S
atom 7.7139842785820409 7.7791894854337897 20.0026644656028765 S
atom 2.2157619019949157 2.1505566951442643 25.0128189254610724 S
atom 7.8174492946618299 2.7106745281617766 25.0127784478689605 S
atom 2.7758588287081238 7.7522649941207140 25.0127784478700406 S
atom 7.1808010562260307 7.1155958493746505 25.0127426029236055 S
atom 2.8878361245164248 -0.0205685690806312 22.1863932784840401 S
atom 7.1184613677839650 -0.0563148705041009 22.8291664351168784 S
atom 2.0768709018298166 4.9852755954254278 22.8291664351154857 S
atom 7.8528752787473808 4.9444705851242681 22.1863169559500939 S
atom 2.8881069403091644 -0.0211046323826117 27.8370712003710601 S
atom 7.1187032183140113 -0.0568530626054691 27.1950978123433167 S
atom 2.0771127523604198 4.9847374033228871 27.1950978123440983 S
atom 7.8531460945403051 4.9439345218211503 27.8369948778349112 S
atom -0.0180427720867242 2.1151492679051898 22.1864080405373514 S
atom 4.9827497984327129 2.8495577584368941 22.8291516730633397 S
atom -0.0588406675261963 7.8911482243972362 22.8291516730646826 S
atom 4.9469963821476037 7.0801884221357811 22.1863317180009574 S
atom -0.0175103478536114 2.1148668708507841 27.8370715694834239 S
atom 4.9832705128294013 2.8493170284118339 27.1950745455529521 S
atom -0.0583199531271698 7.8909074943720139 27.1950745455514529 S
atom 4.9475288063780694 7.0799060250812262 27.8369952469491153 S
atom 0.2861268018377393 -0.1825622183330336 30.0204806089847800 Ba
atom 5.1855444346873556 -0.3247537106455889 30.0204524428200976 Ba
atom 0.1439539687300932 4.7168367553154091 30.0204524428194759 Ba
atom 5.2511659560709010 4.7824769359042119 30.0204042864499208 Ba
atom -0.2852973328318676 0.1829553767435536 35.0255776678244857 Ba
atom 4.8200116152712082 0.2466662862302399 35.0255066047484931 Ba
atom -0.2215788506853037 5.2882567521909394 35.0255066047479673 Ba
atom 4.6797418213997082 5.1479945309816442 35.0255013452899320 Ba
atom 2.4778781259456419 2.4840481348577956 32.5359254142575622 Zr
atom 7.4839637691864986 2.4485455540705221 32.5358872903917415 Zr
atom 2.4423733032344619 7.4901360200175686 32.5358872903954790 Zr
atom 7.4429172801742300 7.4490872890808850 32.5358490917221346 Zr
atom 2.4919777350486987 2.4769999309613002 37.5538650783774415 Zr
atom 7.4909738200058982 2.4344103082378519 37.5538257550125323 Zr
atom 2.4493833540595484 7.4760007741844392 37.5538257550029471 Zr
atom 7.4570168892722064 7.4420390851847840 37.5537887558467247 Zr
atom 2.7481877057873012 2.8128698677211541 30.0231196549576609 S
atom 7.1551340549953135 2.1782391449484027 30.0230860514721130 S
atom 2.1135435890389465 7.2198296109036519 30.0230860514808171 S
atom 7.7132268600197484 7.7779090219568889 30.0230433324196113 S
atom 2.2201760028584983 2.1555119754086234 35.0337882228472353 S
atom 7.8124936678641230 2.7062258605936664 35.0337508370489772 S
atom 2.7709032019083608 7.7478163265515931 35.0337508370460924 S
atom 7.1852151570899103 7.1205511296385167 35.0337119003128521 S
atom 2.8885197063288790 -0.0193884937218672 32.2039074866751349 S
atom 7.1168943683586363 -0.0551310678621077 32.8414271547746850 S
atom 2.0753039024049449 4.9864593980704850 32.8414271547730650 S
atom 7.8535588605612574 4.9456506604863906 32.2038311641405102 S
atom 2.8926441769452915 -0.0235226229168934 37.8407174499644583 S
atom 7.1085119228615650 -0.0589552841410337 37.2242107866306782 S
atom 2.0669214569070880 4.9826351817896199 37.2242107866317369 S
atom 7.8576833311789249 4.9415165312881753 37.8406411274282419 S
atom -0.0192335492436232 2.1144594487560981 32.2039148871763814 S
atom 4.9815541954152600 2.8511215821411997 32.8414317561163287 S
atom -0.0600362705312805 7.8927120481005524 32.8414317561175437 S
atom 4.9458056049785775 7.0794986029869511 32.2038385646396037 S
atom -0.0151265399684455 2.1102928902434583 37.8407429227124865 S
atom 4.9853405443866388 2.8594788217724338 37.2242086202397076 S
atom -0.0562499215632800 7.9010692877330655 37.2242086202374551 S
atom 4.9499126142569176 7.0753320444752319 37.8406666001764975 S
atom 0.2699334881303401 -0.1883524999582989 40.0059739936209340 Ba
atom 5.1912731639996679 -0.3086163169981480 40.0059504156755423 Ba
atom 0.1496826980391231 4.7329741489637573 40.0059504156753007 Ba
atom 5.2349726423660492 4.7766866542786346 40.0058976710891159 Ba
atom -0.1027134882349386 0.1825203671067193 44.8008159101861736 Ba
atom 4.8203183534633300 0.0639121447181442 44.8007883915091227 Ba
atom -0.2212721124963456 5.1055026106733044 44.8007883915082132 Ba
atom 4.8623256659993306 5.1475595213387475 44.8007395876417291 Ba
atom 2.4810236428155994 2.4929739487815565 42.6116611557059244 Zr
atom 7.4749058717624539 2.4452812168787870 42.6116217892259854 Zr
atom 2.4333154058283535 7.4868716828128363 42.6116217892226601 Zr
atom 7.4460627970209226 7.4580131029920516 42.6115848331605775 Zr
atom 2.7304581250370803 2.7765913453494209 40.0480538014430749 S
atom 7.1913658288283120 2.1959009255451520 40.0480139852681774 S
atom 2.1497753628702641 7.2374913915022283 40.0480139852868930 S
atom 7.6954972792719474 7.7416304995861589 40.0479774789054801 S
atom 2.3585741818953072 2.2734265200306365 45.1193370031188579 S
atom 7.6944339321668842 2.5677051284392776 45.1192842719970741 S
atom 2.6528434662078384 7.6092955943970590 45.1192842719944380 S
atom 7.3236133361278792 7.2384656742626703 45.1192606805922836 S
atom 2.8309355268380778 -0.0266133273037751 42.2571853211374062 S
atom 7.1996128562900310 -0.0622247626888011 42.7654651462775419 S
atom 2.1580223903344948 4.9793657032523049 42.7654651462756945 S
atom 7.7959746810745534 4.9384258269141652 42.2571089986030231 S
atom -0.0121148037123571 2.1719518004581615 42.2572023554422529 S
atom 4.9885328621600671 2.7682874875040651 42.7654455670332894 S
atom -0.0530576037642787 7.8098779534641265 42.7654455670341846 S
atom 4.9529243504958247 7.1369909546935704 42.2571260329084097 S
atom 2.2993128123793602 2.5845466677209279 48.2314604031860625 Ba
atom 7.3829601890027527 2.6265539802537914 48.2314115993339811 Ba
atom 2.3413697230431967 7.6681444462119144 48.2314115993311674 Ba
atom 7.2643519666143712 7.5495858219559748 48.2313840806624583 Ba
atom 2.6701856794467806 2.2118996913544473 53.0263023197192425 Ba
atom 7.7554886507107650 2.2555991697192819 53.0262495751273946 Ba
atom 2.7138981847601191 7.2971896356758519 53.0262495751282472 Ba
atom 7.6352248336749140 7.1769388455861671 53.0262259971770007 Ba
atom 4.9538983849625549 4.9658486909338526 50.4205388351215049 Zr
atom 9.9666302710558643 4.9370056161954183 50.4205018790547754 Zr
atom 4.9250398051594697 9.9785960821108031 50.4205018790571486 Zr
atom 9.9189375391438386 9.9308878451293516 50.4204625125746588 Zr
atom 4.9698724027756285 4.9548945986809674 55.4783349124288350 Zr
atom 9.9775011797018163 4.9209376679434724 55.4782979132470899 Zr
atom 4.9359107137740974 9.9625281338890730 55.4782979132555454 Zr
atom 9.9349115569816462 9.9199337529041429 55.4782585898995890 Zr
atom 5.1734458136825126 5.0882981518196218 47.9128629876887970 S
atom 9.8442063595097871 4.7174775557815289 47.9128393962494812 S
atom 4.8026158935487961 9.7590680217401840 47.9128393962517123 S
atom 10.1384849679224551 10.0533373060563065 47.9127866651397269 S
atom 4.6702809883647447 4.7164142086788274 52.9841461894254735 S
atom 10.2160105624049660 5.2205456591191712 52.9841096831209128 S
atom 5.1744200964440212 10.2621361250798095 52.9841096830969747 S
atom 9.6353201426043746 9.6814533629147093 52.9840698669215939 S
atom 4.6785848462021837 2.4583394715944080 50.2667544237839223 S
atom 10.3165109992222312 2.4173966714641213 50.7749976353848496 S
atom 5.2749205332538631 7.4589871373997187 50.7749976353806787 S
atom 9.6436240004435430 7.4233786258001615 50.2666781012476420 S
atom 4.5873935119424667 2.4615317893261452 55.8079913705827266 S
atom 10.3781699094282480 2.4204084077436154 55.1914570681199308 S
atom 5.3365794434683451 7.4619988736936653 55.1914570681210250 S
atom 9.5524326661830283 7.4265709435510301 55.8079150480440660 S
atom 2.4675066305141597 5.2888499433823233 50.2667348445402169 S
atom 7.4734856609885441 4.6159368068754221 50.7750146696858593 S
atom 2.4318951950496950 9.6575272728316310 50.7750146696913163 S
atom 7.4325457847175675 10.2538890976186341 50.2666585220059829 S
atom 2.4642371518968629 5.3799508768091009 55.8079892041887788 S
atom 7.4703949566701615 4.5542281567764231 55.1914825408692948 S
atom 2.4288044906838842 9.5958186227313362 55.1914825408678595 S
atom 7.4292763061555460 10.3449900310397602 55.8079128816523351 S
atom 2.2988778027428682 2.7671305123154175 58.0066986455544864 Ba
atom 7.2002060474861294 2.6268607184437860 58.0066933860933815 Ba
atom 2.1586155815300390 7.6684511844053951 58.0066933860966927 Ba
atom 7.2639169569735031 7.7321696665526884 58.0066223230176945 Ba
atom 2.6643953978211941 2.1957063776442651 63.0117957043552224 Ba
atom 7.7716260443597891 2.2613278990264778 63.0117475479851592 Ba
atom 2.7300355784070165 7.3029183649908171 63.0117475479857916 Ba
atom 7.6294345520502516 7.1607455318831059 63.0117193818206331 Ba
atom 4.9628241988709840 4.9689942077805851 60.4962745765863232 Zr
atom 9.9633659338770677 4.9279477187679097 60.4962363779274312 Zr
atom 4.9217754679339070 9.9695381847138851 60.4962363779312753 Zr
atom 9.9278633530905651 9.9340333620018537 60.4961982540556207 Zr
atom 4.9651552379155097 4.9628598459310140 65.5110885672221599 Zr
atom 9.9695056694797373 4.9256335229425883 65.5110492281526007 Zr
atom 4.9279152035398948 9.9672239888857170 65.5110492281596777 Zr
atom 9.9301943921326341 9.9278990001512160 65.5110122446939158 Zr
atom 5.2913603583097029 5.2266963308599239 57.9984117679225193 S
atom 9.7056856273553613 4.5994178200850016 57.9983728311507107 S
atom 4.6640951613953350 9.6410082860393675 57.9983728311583064 S
atom 10.2563995125462704 10.1917354850948119 57.9983354453417377 S
atom 4.6340024659967876 4.6986846279331882 63.0090803359287648 S
atom 10.2336723430003609 5.2567774329508961 63.0090376168941901 S
atom 5.1920818770439778 10.2983678989123018 63.0090376168679001 S
atom 9.5990416202297322 9.6637237821644231 63.0090040134253826 S
atom 4.5957507515701952 2.4653181383214284 60.1907682346946586 S
atom 10.3740033509229228 2.4245154170276204 60.8282851036497192 S
atom 5.3324128849638628 7.4661058829435474 60.8282851036472962 S
atom 9.5607899058042030 7.4303572925131309 60.1906919121584849 S
atom 4.5975553053028539 2.4636018209177077 65.8371254452728039 S
atom 10.3735959288204302 2.4227922156213237 65.1951284213522655 S
atom 5.3320054628649114 7.4643826815434053 65.1951284213508870 S
atom 9.5625944595426127 7.4286409751157727 65.8370491227334185 S
atom 2.4604129356507558 5.3715684313159482 60.1907728360373397 S
atom 7.4662608274393101 4.5583526273881683 60.8282925041472353 S
atom 2.4246703615042051 9.5999430933398138 60.8282925041508093 S
atom 7.4254520898603014 10.3366075855522084 60.1906965135021395 S
atom 2.4621349303780327 5.3697595813544066 65.8371021784792134 S
atom 7.4679769661210766 4.5587653934142969 65.1951287904660575 S
atom 2.4263865001310232 9.6003558593679603 65.1951287904639116 S
atom 7.4271740846425311 10.3347987355892759 65.8370258559442334 S
atom 2.3001691677184666 2.7687436220328365 68.0196838650673641 Ba
atom 7.1985861325732561 2.6255530043068251 68.0196676261105466 Ba
atom 2.1569956666171182 7.6671434702753132 68.0196676261117403 Ba
atom 7.2652083219479175 7.7337827762762847 68.0196075425334072 Ba
atom 2.6638293191502576 2.1952548648160186 73.0292327255196057 Ba
atom 7.7720419744735647 2.2618941708155003 73.0291726419407610 Ba
atom 2.7304515085249266 7.3034846367811497 73.0291726419409599 Ba
atom 7.6288684733741414 7.1602940190563862 73.0291564029845404 Ba
atom 4.9645188205561528 4.9645188205562460 70.5244201340607617 Zr
atom 9.9678336306283448 4.9262431646896871 70.5243819727860171 Zr
atom 4.9262431646900140 9.9678336306289097 70.5243819727870971 Zr
atom 9.9295579747726386 9.9295579747717895 70.5243438115149388 Zr
atom 4.9638824031941580 4.9661777951735484 75.5377517007833319 Zr
atom 9.9661615917807911 4.9268528064382444 75.5377147173163195 Zr
atom 4.9245711258449596 9.9684432723795808 75.5377147173266508 Zr
atom 9.9289215574059995 9.9312169493922031 75.5376753782466182 Zr
atom 5.2963156385737333 5.2311104317226320 68.0193810653025110 S
atom 9.7012369597864794 4.5944621932870540 68.0193452203490665 S
atom 4.6596464938276139 9.6360526592398283 68.0193452203667732 S
atom 10.2613547928095450 10.1961495859597999 68.0193047427242874 S
atom 4.6327220025174860 4.6979272093691113 73.0294592027153868 S
atom 10.2344303014930933 5.2580241360755844 73.0294187251463711 S
atom 5.1928398355361498 10.2996146020388011 73.0294187251187310 S
atom 9.5977611567524814 9.6629663636005354 73.0293828802366249 S
atom 4.5973145752737361 2.4641225353079572 70.2030483177496194 S
atom 10.3733135317733716 2.4233246398850414 70.8457919502893247 S
atom 5.3317230658136250 7.4649151057835788 70.8457919502860847 S
atom 9.5623537295099403 7.4291616894821200 70.2029719952143410 S
atom 4.5970321782208119 2.4646549595453853 75.8537118467072702 S
atom 10.3730728017412357 2.4238453542501781 75.2117148227835202 S
atom 5.3314823357871104 7.4654358201764284 75.2117148227807917 S
atom 9.5620713324635869 7.4296941137468728 75.8536355241671600 S
atom 2.4615967382844306 5.3700014318890288 70.2030335556980560 S
atom 7.4674409028103446 4.5590362092018868 70.8458067123376338 S
atom 2.4258504368772438 9.6006266751526184 70.8458067123420392 S
atom 7.4266358924916362 10.3350405861287786 70.2029572331611718 S
atom 2.4610606749615571 5.3702722476785265 75.8537114775919008 S
atom 7.4669027107287187 4.5592780597361360 75.2117380895755616 S
atom 2.4253122447163387 9.6008685256903021 75.2117380895722789 S
atom 7.4260998292489226 10.3353114019116763 75.8536351550552297 S
atom 2.2996030890492176 2.7682921092062225 78.0371208862225672 Ba
atom 7.1990020626846043 2.6261192760969672 78.0370927200573021 Ba
atom 2.1574115967357859 7.6677097420653295 78.0370927200561511 Ba
atom 7.2646422432710045 7.7333312634503333 78.0370445636860381 Ba
atom 2.6651206841215624 2.1968679745405106 83.0422179450272040 Ba
atom 7.7704220595636864 2.2605864566834550 83.0421468819488524 Ba
atom 2.7288315936099550 7.3021769226450894 83.0421468819512683 Ba
atom 7.6301598383514850 7.1619071287763312 83.0421416224906324 Ba
atom 4.9662134422362074 4.9600434333136203 80.5525656914858104 Zr
atom 9.9723013273853436 4.9245386106070219 80.5525275676057788 Zr
atom 4.9307108614538890 9.9661290765613746 80.5525275675827572 Zr
atom 9.9312525964427554 9.9250825875470170 80.5524893689527914 Zr
atom 4.9591652383415497 4.9741430424166255 85.5705053555573159 Zr
atom 9.9581660815517843 4.9315486614231796 85.5704660322198691 Zr
atom 4.9165756156111549 9.9731391273834049 85.5704660322078325 Zr
atom 9.9242043925552732 9.9391821966501066 85.5704290329955057 Zr
atom 5.2950351750960989 5.2303530131588394 78.0397599321482147 S
atom 9.7019949182804019 4.5957088964138881 78.0397263286396168 S
atom 4.6604044523190220 9.6372993623643328 78.0397263286591141 S
atom 10.2600743293307985 10.1953921673945143 78.0396836095652304 S
atom 4.6376772827799755 4.7023413102327902 83.0504285001073299 S
atom 10.2299816339255489 5.2530685092790916 83.0503911143693614 S
atom 5.1883911679680121 10.2946589752371906 83.0503911143833307 S
atom 9.6027164370146512 9.6673804644629158 83.0503521776297475 S
atom 4.5966247561237665 2.4629317581590175 80.2205551643926356 S
atom 10.3748773554781764 2.4221290368610000 80.8580720333458487 S
atom 5.3332868895193233 7.4637195027592558 80.8580720333458629 S
atom 9.5616639103620749 7.4279709123325786 80.2204788418562487 S
atom 4.5924581976200356 2.4670387673636798 85.8573831999361090 S
atom 10.3832345950996512 2.4259153858349665 85.2408488974745637 S
atom 5.3416441291446874 7.4675058517991388 85.2408488974715937 S
atom 9.5574973518563393 7.4320779216047370 85.8573068774001626 S
atom 2.4627768136507102 5.3706850137029774 80.2205477638933075 S
atom 7.4686247054484891 4.5574692097785814 80.8580674320002402 S
atom 2.4270342395007636 9.5990596757255151 80.8580674320045318 S
atom 7.4278159678743298 10.3357241679379452 80.2204714413556843 S
atom 2.4586426843939995 5.3748094843203784 85.8573577271902622 S
atom 7.4648004892275557 4.5490867642836808 85.2408510638666286 S
atom 2.4232100232373233 9.5906772302379366 85.2408510638655486 S
atom 7.4236818386615662 10.3398486385464476 85.8572814046506352 S
atom 2.2938128074218236 2.7520987955073051 88.0226142708589379 Ba
atom 7.2151394563349971 2.6318480054164120 88.0225906929125870 Ba
atom 2.1735489903840848 7.6734384713661958 88.0225906929089490 Ba
atom 7.2588519616480998 7.7171379497346502 88.0225379483226646 Ba
atom 2.6646856744834659 2.3794518191401028 92.8174561874028541 Ba
atom 7.5876679180466704 2.2608931948810147 92.8174286687278851 Ba
atom 2.5460774520882912 7.3024836608326984 92.8174286687364827 Ba
atom 7.6297248287181363 7.3444909733675470 92.8173798648694657 Ba
atom 4.9751392561819658 4.9631889501710322 90.6283014329791143 Zr
atom 9.9690369901729916 4.9154807131889484 90.6282620665257355 Zr
atom 4.9274465242480812 9.9570711791603035 90.6282620665131162 Zr
atom 9.9401784103794419 9.9282281044230807 90.6282251104608179 Zr
atom 5.2587566527257490 5.2126234324158913 88.0646940786763963 S
atom 9.7196566988786888 4.6319406702452870 88.0646542623823620 S
atom 4.6780662329170317 9.6735311361981484 88.0646542624068331 S
atom 10.2237958069590569 10.1776625866446686 88.0646177561287260 S
atom 4.7555918274091056 4.8407394892756814 93.1359772802980785 S
atom 10.0914609017730346 5.1350087735861232 93.1359245492203200 S
atom 5.0498704358138342 10.1765992395376781 93.1359245492243986 S
atom 9.7206309816442236 9.8057786435056968 93.1359009577556662 S
atom 4.6541171078339287 2.4700505037184590 90.2738426326526877 S
atom 10.2920432608427461 2.4291077034883881 90.7820858442479732 S
atom 5.2504527948815012 7.4706981694651482 90.7820858442469643 S
atom 9.6191562620686035 7.4350896579651957 90.2737663101156613 S
atom 2.4555519801470100 5.3131008342183694 90.2738255983444162 S
atom 7.4615310105334691 4.6401876977164394 90.7821054234899094 S
atom 2.4199405445887434 9.6817781636670013 90.7821054234897105 S
atom 7.4205911343700874 10.2781399884420690 90.2737492758112410 S
