#=======================================================
# FHI-aims file: full_relax/full_relax_RP_2_00Mz_00Mz.in
# Created using the Atomic Simulation Environment (ASE)
# Fri Mar 14 11:17:23 2025
#=======================================================
lattice_vector 9.9628651953519274 -0.0000000000000006 0.0000000000000068 
lattice_vector -0.0000000000000006 9.9628651953519274 -0.0000000000000019 
lattice_vector 0.0000000000000176 -0.0000000000000048 26.0318908654416425 
atom -0.0000000000006333 0.0000000000003888 0.2025931376482510 Ba
atom 4.9814325976766849 -0.0000000000007423 0.2025931376485388 Ba
atom 0.0000000000002336 4.9814325976747016 0.2025931376479269 Ba
atom 4.9814325976746492 4.9814325976765481 0.2025931376476452 Ba
atom -0.0000000000006401 0.0000000000003200 5.0061328587378435 Ba
atom 4.9814325976767675 -0.0000000000004564 5.0061328587370353 Ba
atom 0.0000000000003030 4.9814325976745817 5.0061328587370841 Ba
atom 4.9814325976746119 4.9814325976763953 5.0061328587370131 Ba
atom 2.4907162988381160 2.4907162988381395 2.4289918517301383 Zr
atom 7.4721488965131790 2.4907162988382106 2.4289918517303213 Zr
atom 2.4907162988379143 7.4721488965140450 2.4289918517296294 Zr
atom 7.4721488965135521 7.4721488965133798 2.4289918517305100 Zr
atom 2.4907162988385299 2.4907162988379175 7.5832738657476542 Zr
atom 7.4721488965137324 2.4907162988382598 7.5832738657478043 Zr
atom 2.4907162988377838 7.4721488965140166 7.5832738657479561 Zr
atom 7.4721488965136054 7.4721488965136729 7.5832738657469978 Zr
atom 2.4907162988380742 2.4907162988382288 -0.1087357806886619 S
atom 7.4721488965136871 2.4907162988381844 -0.1087357806887695 S
atom 2.4907162988377198 7.4721488965136391 -0.1087357806892807 S
atom 7.4721488965124943 7.4721488965126790 -0.1087357806880666 S
atom 2.4907162988386036 2.4907162988381222 5.0061328587388152 S
atom 7.4721488965134553 2.4907162988384526 5.0061328587387282 S
atom 2.4907162988379543 7.4721488965134499 5.0061328587395595 S
atom 7.4721488965134810 7.4721488965137324 5.0061328587386607 S
atom 2.8254565926409136 -0.0000000000002857 2.5127555310564795 S
atom 7.1374086027092929 -0.0000000000002069 2.5127555310560465 S
atom 2.1559760050352819 4.9814325976757141 2.5127555310553871 S
atom 7.8068891903150401 4.9814325976755116 2.5127555310569307 S
atom 2.8254565926414568 -0.0000000000002285 7.4995101864216798 S
atom 7.1374086027089181 -0.0000000000000225 7.4995101864212392 S
atom 2.1559760050344687 4.9814325976758411 7.4995101864228069 S
atom 7.8068891903154496 4.9814325976755329 7.4995101864221940 S
atom -0.0000000000003581 2.1559760050354191 2.5127555310563698 S
atom 4.9814325976754086 2.8254565926403710 2.5127555310554008 S
atom -0.0000000000002644 7.8068891903148820 2.5127555310568801 S
atom 4.9814325976753864 7.1374086027097796 2.5127555310557401 S
atom -0.0000000000002167 2.1559760050342502 7.4995101864216664 S
atom 4.9814325976756599 2.8254565926421189 7.4995101864226266 S
atom -0.0000000000005688 7.8068891903160740 7.4995101864226124 S
atom 4.9814325976757905 7.1374086027083035 7.4995101864224765 S
atom -0.0000000000008294 -0.0000000000000316 9.8096725798271809 Ba
atom 4.9814325976767675 -0.0000000000008021 9.8096725798270032 Ba
atom 0.0000000000000461 4.9814325976748153 9.8096725798262554 Ba
atom 4.9814325976746856 4.9814325976770615 9.8096725798251310 Ba
atom 2.4907162988380542 2.4907162988380271 10.1210014981645209 S
atom 7.4721488965137342 2.4907162988387803 10.1210014981646186 S
atom 2.4907162988378651 7.4721488965137715 10.1210014981653256 S
atom 7.4721488965135991 7.4721488965125333 10.1210014981642917 S
atom 2.4907162988381955 2.4907162988379832 13.2185385703693967 Ba
atom 7.4721488965138088 2.4907162988395388 13.2185385703689366 Ba
atom 2.4907162988369902 7.4721488965138994 13.2185385703700824 Ba
atom 7.4721488965127012 7.4721488965131533 13.2185385703697253 Ba
atom 2.4907162988394616 2.4907162988378997 18.0220782914557205 Ba
atom 7.4721488965124232 2.4907162988383615 18.0220782914513329 Ba
atom 2.4907162988374791 7.4721488965132634 18.0220782914554647 Ba
atom 7.4721488965148506 7.4721488965135343 18.0220782914555002 Ba
atom 4.9814325976749325 4.9814325976760747 15.4449372844495763 Zr
atom 9.9628651953513909 4.9814325976753420 15.4449372844496793 Zr
atom 4.9814325976757718 9.9628651953517746 15.4449372844501021 Zr
atom 9.9628651953515721 9.9628651953516751 15.4449372844513579 Zr
atom 4.9814325976761751 4.9814325976761111 20.5992192984678475 Zr
atom 9.9628651953515792 4.9814325976758917 20.5992192984672684 Zr
atom 4.9814325976761777 9.9628651953523359 20.5992192984676024 Zr
atom 9.9628651953513447 9.9628651953526273 20.5992192984677054 Zr
atom 4.9814325976745852 4.9814325976764309 12.9072096520312751 S
atom 9.9628651953532792 4.9814325976742007 12.9072096520311561 S
atom 4.9814325976756431 9.9628651953490213 12.9072096520321047 S
atom 9.9628651953495240 9.9628651953495542 12.9072096520331989 S
atom 4.9814325976750551 4.9814325976757532 18.0220782914561610 S
atom 9.9628651953515135 4.9814325976760498 18.0220782914559479 S
atom 4.9814325976752292 9.9628651953515295 18.0220782914571700 S
atom 9.9628651953497034 9.9628651953529204 18.0220782914560154 S
atom 4.6466923038723449 2.4907162988377722 15.5287009637755364 S
atom 10.2976054891559805 2.4907162988376785 15.5287009637753268 S
atom 5.3161728914772262 7.4721488965137484 15.5287009637745737 S
atom 9.6281249015479862 7.4721488965133700 15.5287009637756377 S
atom 4.6466923038723991 2.4907162988381364 20.5154556191391890 S
atom 10.2976054891560498 2.4907162988379143 20.5154556191386988 S
atom 5.3161728914778417 7.4721488965137635 20.5154556191385886 S
atom 9.6281249015470234 7.4721488965141774 20.5154556191381410 S
atom 2.4907162988376412 5.3161728914769748 15.5287009637752895 S
atom 7.4721488965135885 4.6466923038720109 15.5287009637752735 S
atom 2.4907162988377198 9.6281249015469861 15.5287009637745399 S
atom 7.4721488965131497 10.2976054891572879 15.5287009637740976 S
atom 2.4907162988377194 5.3161728914769055 20.5154556191384323 S
atom 7.4721488965136373 4.6466923038731860 20.5154556191383719 S
atom 2.4907162988373646 9.6281249015484125 20.5154556191386988 S
atom 7.4721488965135334 10.2976054891564317 20.5154556191383328 S
atom 2.4907162988395481 2.4907162988371612 22.8256180125472099 Ba
atom 7.4721488965137084 2.4907162988385152 22.8256180125471353 Ba
atom 2.4907162988379037 7.4721488965135281 22.8256180125434511 Ba
atom 7.4721488965135094 7.4721488965136480 22.8256180125464638 Ba
atom 4.9814325976742735 4.9814325976743552 23.1369469308855109 S
atom 9.9628651953496519 4.9814325976745151 23.1369469308839015 S
atom 4.9814325976756590 9.9628651953495861 23.1369469308842639 S
atom 9.9628651953494618 9.9628651953495559 23.1369469308841147 S
