#=======================================================
# FHI-aims file: full_relax/full_relax_RP_9_RxRyMz_RxRy0.in
# Created using the Atomic Simulation Environment (ASE)
# Mon Mar 24 18:05:01 2025
#=======================================================
lattice_vector 10.0066367044953459 -0.0765563062152360 0.0000004896479184 
lattice_vector -0.0765563062152535 10.0066367044950137 -0.0000004896501806 
lattice_vector 0.0000510560223737 -0.0000510560439325 96.0332404477946682 
atom 0.1025541941287641 -0.1828661246680559 0.2148181577400511 Ba
atom 5.1861844767945424 -0.1408323463793325 0.2148183945718891 Ba
atom 0.1445879714857306 4.9007641589626312 0.2148179050371547 Ba
atom 5.0675943932356411 4.7821740744679992 0.2148181577869081 Ba
atom -0.2700221953859211 0.1880684103347637 5.0096518670451804 Ba
atom 4.8152499418570534 0.2317440422772019 5.0096521119572177 Ba
atom -0.2263465634248597 5.2733405476835546 5.0096516223081125 Ba
atom 4.6950180036781912 5.1531086095335654 5.0096518670506915 Ba
atom 2.4838798513430747 2.4717372472358692 2.4039402365110263 Zr
atom 7.4966213038740390 2.4428821951015411 2.4039404812704355 Zr
atom 2.4550247983769955 7.4844787004236606 2.4039399917731816 Zr
atom 7.4489200505894937 7.4367774463430223 2.4039402365450129 Zr
atom 2.4729549707347012 2.4877682895157252 7.4617020538534824 Zr
atom 7.4805902619371434 2.4538070753370751 7.4617022984569772 Zr
atom 2.4389937565640163 7.4954035806433303 7.4617018085115028 Zr
atom 7.4379951699342266 7.4528084886015025 7.4617020539665724 Zr
atom 2.6063289896771815 2.6913012133366800 -0.1037275530056027 S
atom 7.2770573378924359 2.3204330560732758 -0.1037273085053624 S
atom 2.2354608325327012 7.3620295614091251 -0.1037277983426014 S
atom 7.5713691887882018 7.6563414124616012 -0.1037275529470493 S
atom 2.2344580319577285 2.1881188746657427 4.9675255403065899 S
atom 7.7802396767292263 2.6923040140696557 4.9675257851764778 S
atom 2.7386431714059558 7.7339005194373431 4.9675252956696436 S
atom 7.1994982310879969 7.1531590738031205 4.9675255400947380 S
atom 2.8068732183982927 -0.0146500264259383 2.2501060761504554 S
atom 7.1755866514873983 -0.0502644340127579 2.7584464600131886 S
atom 2.1339901461275423 4.9913320712576503 2.7584459703615591 S
atom 7.7719134174879008 4.9503901726181674 2.2501060761770346 S
atom 2.8979331755545115 -0.0178661145844178 7.7913565797094204 S
atom 7.1139717356259959 -0.0533009967925982 7.1748178082674823 S
atom 2.0723752302897465 4.9882955083776963 7.1748173186295965 S
atom 7.8629733746835386 4.9471740843836152 7.7913565796978768 S
atom -0.0236281259172820 2.1964451343962517 2.2501058310025872 S
atom 4.9770264793426806 2.7927718992817052 2.7584462152794424 S
atom -0.0645700263622981 7.8343684046482567 2.7584457256194397 S
atom 4.9414120736448757 7.1614853335112914 2.2501058309785011 S
atom -0.0204120381360648 2.1053851766933791 7.7913563348856485 S
atom 4.9800630425888217 2.8543868157412073 7.1748175634669833 S
atom -0.0615334627915018 7.8959833211246968 7.1748170738094457 S
atom 4.9446281610082465 7.0704253758266526 7.7913563348963955 S
atom 0.2851814252808398 -0.1831754693254360 9.9900093962687428 Ba
atom 5.1864938216210756 -0.3234595784474944 9.9900096411119517 Ba
atom 0.1448973162085981 4.7181369269034068 9.9900091514518099 Ba
atom 5.2502216244746114 4.7818647298037744 9.9900093962770224 Ba
atom -0.2862609606597052 0.1823576303183640 14.9950872336587384 Ba
atom 4.8209607219383512 0.2479828075966247 14.9950874784795314 Ba
atom -0.2206357834631766 5.2895793128974979 14.9950869888244558 Ba
atom 4.6787792385267153 5.1473978293958149 14.9950872336563972 Ba
atom 2.4870349054173406 2.4807820314172715 12.4796211849422249 Zr
atom 7.4875765199534259 2.4397271406248202 12.4796214297027444 Zr
atom 2.4459800146130566 7.4813236459609849 12.4796209399799025 Zr
atom 7.4520751045400075 7.4458222305549118 12.4796211848431842 Zr
atom 2.4809061438462785 2.4831047198604765 17.4944386644707670 Zr
atom 7.4852538313478654 2.4458559021701345 17.4944389100652273 Zr
atom 2.4436573259888861 7.4874524075468045 17.4944384206970547 Zr
atom 7.4459463429526958 7.4481449190370732 17.4944386644449068 Zr
atom 2.7447654452761991 2.8093095994778667 9.9817615977673864 S
atom 7.1590489519331229 2.1819966007668836 9.9817618432608750 S
atom 2.1174524465972957 7.2235931061284990 9.9817613539594809 S
atom 7.7098056444188456 7.7743497986248231 9.9817615978407037 S
atom 2.2167280275705084 2.1519543672121793 14.9924204614114522 S
atom 7.8164041841593308 2.7100340184552274 14.9924207054036067 S
atom 2.7748076787825573 7.7516305238025316 14.9924202155259980 S
atom 7.1817682267044312 7.1169945663595477 14.9924204614548859 S
atom 2.8896270774608408 -0.0216384800784272 12.1740851111584600 S
atom 7.1179736552233921 -0.0573867650037350 12.8116400053662343 S
atom 2.0763771498831738 4.9842097405756487 12.8116395157002341 S
atom 7.8546672766229202 4.9434017192792634 12.1740851111459207 S
atom 2.8877968893371482 -0.0199074472277696 17.8204362732992330 S
atom 7.1183833033237232 -0.0556555169992379 17.1784937135229683 S
atom 2.0767867979593855 4.9859409884073482 17.1784932238695376 S
atom 7.8528370884815919 4.9451327519504424 17.8204362733006434 S
atom -0.0166396742392874 2.1136912747969796 12.1740848663222909 S
atom 4.9841488120068727 2.8503848961275620 12.8116397605369272 S
atom -0.0574476930975639 7.8919814014563183 12.8116392708769311 S
atom 4.9484005246468445 7.0787314739690173 12.1740848663382284 S
atom -0.0183707052694566 2.1155214628813455 17.8204360284798327 S
atom 4.9824175624078677 2.8499752480805256 17.1784934687022748 S
atom -0.0591789429453418 7.8915717534221734 17.1784929790424847 S
atom 4.9466694938847473 7.0805616620176677 17.8204360284659273 S
atom 0.2867777414436496 -0.1818525199995198 20.0030005972888318 Ba
atom 5.1851708720937228 -0.3250558944135867 20.0030008420990661 Ba
atom 0.1435743667917498 4.7165406109612187 20.0030003524584785 Ba
atom 5.2518179405335665 4.7831876791645378 20.0030005972881959 Ba
atom -0.2867538087687955 0.1818285874095969 25.0125808628148292 Ba
atom 4.8214897647260528 0.2484756558275811 25.0125811076721405 Ba
atom -0.2201067405491866 5.2900721611278980 25.0125806180243302 Ba
atom 4.6782863903033878 5.1468687864989642 25.0125808628201476 Ba
atom 2.4825320658444698 2.4825081332206214 22.5077907312952910 Zr
atom 7.4858504179321921 2.4442299801575156 22.5077909746917655 Zr
atom 2.4442539125816891 7.4858264854931962 22.5077904849501600 Zr
atom 7.4475722649748501 7.4475483323682816 22.5077907311413981 Zr
atom 2.4841579878394127 2.4819115467403745 27.5211427943449500 Zr
atom 7.4864470046994525 2.4426040581814394 27.5211430392373941 Zr
atom 2.4448504993812716 7.4842005634714486 27.5211425495992081 Zr
atom 7.4491981869563499 7.4469517458566674 27.5211427946635574 Zr
atom 2.7491314041159720 2.8142830064856263 20.0027381826537969 S
atom 7.1540755448254654 2.1776306418724469 20.0027384270896071 S
atom 2.1124790394540587 7.2192271472311713 20.0027379372713909 S
atom 7.7141716032438179 7.7793232056153485 20.0027381827743689 S
atom 2.2159327275049963 2.1507332600391624 25.0128432752551575 S
atom 7.8176252911893389 2.7108293184408843 25.0128435234345901 S
atom 2.7760287858486667 7.7524258237966821 25.0128430339744590 S
atom 7.1809729266569144 7.1157734592030142 25.0128432752586605 S
atom 2.8880148190048556 -0.0204155067914837 22.1863777634205022 S
atom 7.1186458180291234 -0.0561647319045149 22.8292041859949215 S
atom 2.0770493126416385 4.9854317734602800 22.8292036963616809 S
atom 7.8530550181179457 4.9446246923439672 22.1863777634372781 S
atom 2.8882773338144556 -0.0209247246352096 27.8370882362697714 S
atom 7.1188637475501562 -0.0566727888433667 27.1951456763417347 S
atom 2.0772672421709779 4.9849237167131948 27.1951451866838063 S
atom 7.8533175329441320 4.9441154746891298 27.8370882362637069 S
atom -0.0178626447607495 2.1153035331800809 22.1863775185925469 S
atom 4.9829267764371181 2.8497127334031953 22.8292039411777239 S
atom -0.0586697292013894 7.8913092387689145 22.8292034515486186 S
atom 4.9471775546608336 7.0803437323149572 22.1863775186058554 S
atom -0.0173534336004002 2.1150410185624087 27.8370879914422602 S
atom 4.9834348397504442 2.8494948036683083 27.1951454315167993 S
atom -0.0581616657224156 7.8910913090260442 27.1951449418728401 S
atom 4.9476867656448897 7.0800812177297656 27.8370879914198213 S
atom 0.2862848930602772 -0.1823815627786659 30.0204942259941774 Ba
atom 5.1856999151688816 -0.3245630464004144 30.0204944707931531 Ba
atom 0.1441034097785480 4.7170334590012892 30.0204939811274620 Ba
atom 5.2513250922265007 4.7826586364101393 30.0204942259777923 Ba
atom -0.2851574931718153 0.1831515369997155 35.0255720639569148 Ba
atom 4.8201668157783013 0.2468793393291196 35.0255723087543842 Ba
atom -0.2214296897162649 5.2884758447550411 35.0255718190978200 Ba
atom 4.6798827060881258 5.1481917362048915 35.0255720639486228 Ba
atom 2.4780292262121799 2.4842342355635543 32.5359602722804624 Zr
atom 7.4841243165902496 2.4487328198113798 32.5359605215238403 Zr
atom 2.4425278112065105 7.4903293251907330 32.5359600317486439 Zr
atom 7.4430694253512897 7.4492744347071111 32.5359602724740284 Zr
atom 2.4921091609538384 2.4772479774449327 37.5538794116709624 Zr
atom 7.4911105746768758 2.4346528853293163 37.5538796492136484 Zr
atom 2.4495140692881079 7.4762493907382392 37.5538791596307178 Zr
atom 7.4571493601005967 7.4422881765827960 37.5538794112074115 Zr
atom 2.7483361040716301 2.8130618993944583 30.0231610027486475 S
atom 7.1552966520024430 2.1784259419567911 30.0231612428577215 S
atom 2.1137001466522158 7.2200224473103516 30.0231607531017204 S
atom 7.7133763032192020 7.7781020985550988 30.0231610021776270 S
atom 2.2202986864280327 2.1557066673400924 35.0338198619469381 S
atom 7.8126518844662733 2.7064633597765089 35.0338201044461854 S
atom 2.7710553790893369 7.7480598651433912 35.0338196150653829 S
atom 7.1853388855498874 7.1207468664410900 35.0338198622158856 S
atom 2.8886869816314897 -0.0191934712600348 32.2039419444674593 S
atom 7.1170335596272505 -0.0549417610724070 32.8414968385014419 S
atom 2.0754370543232294 4.9866547438289341 32.8414963488396978 S
atom 7.8537271808173337 4.9458467274362494 32.2039419444403592 S
atom 2.8926889012137558 -0.0232792381115542 37.8407641410313147 S
atom 7.1087274615272715 -0.0587141279385711 37.2242253695980168 S
atom 2.0671309562092963 4.9828823774756499 37.2242248799558624 S
atom 7.8577291003733061 4.9417609611115232 37.8407641410598572 S
atom -0.0190846779440546 2.1146313705158342 32.2039416996511747 S
atom 4.9817038033255301 2.8513249918431050 32.8414965936467240 S
atom -0.0598927016953366 7.8929214972234716 32.8414961040231930 S
atom 4.9459555208795996 7.0796715696155870 32.2039416996198682 S
atom -0.0149989069764120 2.1106294507456385 37.8407638962777142 S
atom 4.9854761658224120 2.8596310901110584 37.2242251247702569 S
atom -0.0561203392172343 7.9012275954400453 37.2242246351373467 S
atom 4.9500412918598844 7.0756696498900560 37.8407638962793200 S
atom 0.2700461277528186 -0.1880923427681080 40.0059295929587151 Ba
atom 5.1914106953148886 -0.3083242812346799 40.0059298377852386 Ba
atom 0.1498141899929505 4.7332722240649208 40.0059293481581477 Ba
atom 5.2350863268640042 4.7769478563151591 40.0059295929592196 Ba
atom -0.1025302609860322 0.1828421918664670 44.8007633052088110 Ba
atom 4.8204761600588659 0.0642521083031662 44.8007635511416922 Ba
atom -0.2211203452355539 5.1058486136509984 44.8007630614886949 Ba
atom 4.8625099380948074 5.1478823909974833 44.8007633051404923 Ba
atom 2.4811842802662176 2.4932790177841340 42.6116412219757805 Zr
atom 7.4750795307141145 2.4455777655791211 42.6116414661614655 Zr
atom 2.4334830253430502 7.4871742708814484 42.6116409766023736 Zr
atom 7.4462244794929804 7.4583192168753447 42.6116412220355727 Zr
atom 2.7306060995462076 2.7768973919676085 40.0480559112487242 S
atom 7.1914611594938087 2.1961559463195730 40.0480561718728154 S
atom 2.1498646541574464 7.2377524516824288 40.0480556819176243 S
atom 7.6956462986925578 7.7419375911008759 40.0480559116444113 S
atom 2.3587351413068811 2.2737150526251715 45.1193090187252466 S
atom 7.6946434977677818 2.5680269038734518 45.1193092551726309 S
atom 2.6530469924667788 7.6096234092229178 45.1193087655883076 S
atom 7.3237753404309895 7.2387552517788789 45.1193090185409247 S
atom 2.8310739852444944 -0.0263158161778410 42.2571354899653713 S
atom 7.1997874181000467 -0.0619301984962159 42.7654758740189536 S
atom 2.1581909127315884 4.9796663070098059 42.7654753844027127 S
atom 7.7961141843336090 4.9387243830954768 42.2571354899635452 S
atom -0.0119623590599196 2.1722443669752716 42.2571352449703994 S
atom 4.9886922714553741 2.7685711318210466 42.7654756291631628 S
atom -0.0529042343488709 7.8101676371806503 42.7654751394815662 S
atom 4.9530778404321998 7.1372845661262172 42.2571352449698452 S
atom 2.2996714509122338 2.5850768502788823 48.2314293280692539 Ba
atom 7.3832817014938508 2.6270905947267220 48.2314295741165111 Ba
atom 2.3416851960239051 7.6686871001549459 48.2314290844689069 Ba
atom 7.2647116501623694 7.5501170494897591 48.2314293281717639 Ba
atom 2.6705748476598692 2.2124876008903103 53.0262939209353874 Ba
atom 7.7558709498433460 2.2561871989524920 53.0262941657210263 Ba
atom 2.7142744449386953 7.2977837042394658 53.0262936761239416 Ba
atom 7.6356150463078984 7.1775278000079883 53.0262939209202173 Ba
atom 4.9542414297186648 4.9664244374572570 50.4205593676595853 Zr
atom 9.9669743130532513 4.9375608127018893 50.4205596115206163 Zr
atom 4.9253778078443959 9.9791573178067541 50.4205591225515377 Zr
atom 9.9192816288384833 9.9314646363701815 50.4205593666821841 Zr
atom 4.9702742321463846 4.9554782483605333 55.4783631311078835 Zr
atom 9.9779205024426343 4.9215280134119945 55.4783633722805902 Zr
atom 4.9363239970273352 9.9631245185865396 55.4783628821350874 Zr
atom 9.9353144314310970 9.9205184472908101 55.4783631313055423 Zr
atom 5.1737870574873916 5.0888416592048102 47.9128909499524269 S
atom 9.8445570904519926 4.7180151867367659 47.9128911868849414 S
atom 4.8029605850751382 9.7596116920831157 47.9128906968511501 S
atom 10.1388272566282822 10.0538818583604233 47.9128909501757079 S
atom 4.6706743437880149 4.7170021321991280 52.9841740937320438 S
atom 10.2163966182644828 5.2211279016040129 52.9841743518899975 S
atom 5.1748001129937098 10.2627244070461465 52.9841738617059477 S
atom 9.6357145431054505 9.6820423314092920 52.9841740952452014 S
atom 4.6789271221402515 2.4588939789307545 50.2667557975914505 S
atom 10.3169160813981549 2.4179554852176204 50.7750375955024396 S
atom 5.2753195760399487 7.4595519902259797 50.7750371057790204 S
atom 9.6439673213449346 7.4239341776411543 50.2667557976210517 S
atom 4.5878320315977916 2.4621185916889994 55.8080035263214569 S
atom 10.3785557342590131 2.4209932312375466 55.1915196337097242 S
atom 5.3369592291206516 7.4625897372408225 55.1915191438717301 S
atom 9.5528722309559413 7.4271587914727988 55.8080035262110670 S
atom 2.4678680933961097 5.2894314277568437 50.2667555528493679 S
atom 7.4738467388820835 4.6164826690816021 50.7750373508134842 S
atom 2.4322502332778999 9.6580791744635537 50.7750368611766092 S
atom 7.4329082927286434 10.2544716269734195 50.2667555528164200 S
atom 2.4646434503728711 5.3805265198362040 55.8080032814701426 S
atom 7.4708090172985813 4.5548430159686468 55.1915193886912050 S
atom 2.4292125094631922 9.5964395215227505 55.1915188991167156 S
atom 7.4296836518836900 10.3455667189062499 55.8080032814648135 S
atom 2.2993190456193218 2.7676927592989160 58.0067062890625422 Ba
atom 7.2006657920244770 2.6274430005637033 58.0067065337603935 Ba
atom 2.1590692868751185 7.6690395057853973 58.0067060441207971 Ba
atom 7.2643592445564478 7.7327329583281719 58.0067062889637413 Ba
atom 2.6648801262066990 2.1962766754504677 63.0117966416505411 Ba
atom 7.7720818766330160 2.2618819189047343 63.0117968865953983 Ba
atom 2.7304853704879499 7.3034784245671505 63.0117963969466857 Ba
atom 7.6299203261767925 7.1613168748081621 63.0117966416448283 Ba
atom 4.9632881940278120 4.9695565438881317 60.4963089492376582 Zr
atom 9.9638422065640775 4.9285140506184524 60.4963091930571153 Zr
atom 4.9222457009223950 9.9701105562019396 60.4963087023426382 Zr
atom 9.9283283931056676 9.9345967432707898 60.4963089514694445 Zr
atom 4.9656452838116545 4.9633876003765449 65.5111006303601471 Zr
atom 9.9700111501060977 4.9261569611841107 65.5111008741165790 Zr
atom 4.9284146444844854 9.9677534667768022 65.5111003855108862 Zr
atom 9.9306854828562781 9.9284277997618542 65.5111006281157131 Zr
atom 5.2917950753358189 5.2272654341401257 57.9984420384359396 S
atom 9.7061333162958068 4.6000071697585412 57.9984422779407112 S
atom 4.6645368109614571 9.6416036751271754 57.9984417900532279 S
atom 10.2568352744438211 10.1923056333069333 57.9984420355981882 S
atom 4.6344613045025094 4.6992520245108631 63.0091043132764597 S
atom 10.2341467256949432 5.2573409401959648 63.0091045693428740 S
atom 5.1925502202581546 10.2989374454837446 63.0091040794625670 S
atom 9.5995015034054738 9.6642922236205990 63.0091043133295656 S
atom 4.5961901774389764 2.4658882527406614 60.1908045481505098 S
atom 10.3744866393041661 2.4250797335125487 60.8283445584217333 S
atom 5.3328901338206407 7.4666762384921919 60.8283440687607779 S
atom 9.5612303763593616 7.4309284515484526 60.1908045479361959 S
atom 4.5980700574672637 2.4641339127951469 65.8371070344937692 S
atom 10.3740636140372970 2.4233265115166978 65.1951629858045294 S
atom 5.3324671085793476 7.4649230162916638 65.1951624961425864 S
atom 9.5631102564102139 7.4291741114023049 65.8371070347095468 S
atom 2.4608737980090440 5.3721683738264971 60.1908043032880187 S
atom 7.4667225073353682 4.5589121114265856 60.8283443135642088 S
atom 2.4251260039647469 9.6005086166151727 60.8283438238974483 S
atom 7.4259139953169386 10.3372085729912602 60.1908043032165025 S
atom 2.4626281166897233 5.3702884945049751 65.8371067897734150 S
atom 7.4684757506561521 4.5593351359734742 65.1951627409503374 S
atom 2.4268792470783835 9.6009316411482413 65.1951622512865754 S
atom 7.4276683142359730 10.3353286936735067 65.8371067898390407 S
atom 2.3006965945232101 2.7692596268743013 68.0196527418700185 Ba
atom 7.1990989240092107 2.6260654520269591 68.0196529866229156 Ba
atom 2.1575024188713470 7.6676619572294715 68.0196524969366152 Ba
atom 7.2657367934521639 7.7342998258937161 68.0196527419432186 Ba
atom 2.6644185940516087 2.1957055829666525 73.0291691657219388 Ba
atom 7.7726529669764366 2.2623434532909044 73.0291694105565483 Ba
atom 2.7310564618944850 7.3039399584283000 73.0291689208532091 Ba
atom 7.6294587929117617 7.1607457819281848 73.0291691657419761 Ba
atom 4.9650776941845365 4.9650027049280556 70.5244109479460946 Zr
atom 9.9683960458019918 4.9267245526303425 70.5244112026815628 Zr
atom 4.9267995404768650 9.9683210579113819 70.5244107130125713 Zr
atom 9.9301178933079601 9.9300429040114206 70.5244109477697378 Zr
atom 4.9645101035642147 4.9666178093607973 75.5377212836029912 Zr
atom 9.9667809415070163 4.9272921429033749 75.5377215199779073 Zr
atom 4.9251844363557247 9.9688886481037535 75.5377210300864590 Zr
atom 9.9295503027154854 9.9316580084089825 75.5377212851306012 Zr
atom 5.2968453129567701 5.2316344893746800 68.0193848059816304 S
atom 9.7017642611770949 4.5949569323445552 68.0193850367226531 S
atom 4.6601677558251149 9.6365534377109547 68.0193845459832289 S
atom 10.2618855120496750 10.1966746885070805 68.0193848088969304 S
atom 4.6333100744461593 4.6983709205972639 73.0294371120036772 S
atom 10.2350278305455227 5.2584921718946012 73.0294373519092375 S
atom 5.1934313252279418 10.3000886772500184 73.0294368629717638 S
atom 9.5983502736934838 9.6634111197734338 73.0294371097318304 S
atom 4.5978695647763432 2.4646068786032460 70.2030083556495157 S
atom 10.3738823273399827 2.4238020243131380 70.8458140419933642 S
atom 5.3322858221372940 7.4653985308529771 70.8458135525153665 S
atom 9.5629097640886744 7.4296470789171796 70.2030083557548608 S
atom 4.5976882777093460 2.4650824118441217 75.8536594113152063 S
atom 10.3736818354611415 2.4242749733035942 75.2117153625907093 S
atom 5.3320853300103428 7.4658714783844653 75.2117148730630731 S
atom 9.5627284768361704 7.4301226106483860 75.8536594113081861 S
atom 2.4621551781092332 5.3704889862591774 70.2030081108475912 S
atom 7.4680002084026080 4.5595164234835943 70.8458137973055670 S
atom 2.4264037009060142 9.6011129290345849 70.8458133075831000 S
atom 7.4271953793858918 10.3355291852369948 70.2030081109289199 S
atom 2.4616796541829515 5.3706702731510632 75.8536591664295230 S
atom 7.4675272518824816 4.5597169158804132 75.2117151178765937 S
atom 2.4259307472217229 9.6013134212247344 75.2117146281678117 S
atom 7.4267198525248412 10.3357104723761548 75.8536591664125837 S
atom 2.3002350606815747 2.7686885351358894 78.0370252665118045 Ba
atom 7.1996700162687413 2.6265269850142747 78.0370255114795555 Ba
atom 2.1580735106259383 7.6681234905989522 78.0370250218262100 Ba
atom 7.2652752601084387 7.7337287344679204 78.0370252664956894 Ba
atom 2.6657961407323501 2.1972724532216987 83.0421156183279550 Ba
atom 7.7710861018401216 2.2609659024262032 83.0421158632068312 Ba
atom 2.7294895965948043 7.3025624076365183 83.0421153735502457 Ba
atom 7.6308363397682193 7.1623126522309448 83.0421156183047771 Ba
atom 4.9668671907652238 4.9604488657776704 80.5525129688705590 Zr
atom 9.9729498848589273 4.9249350507767469 80.5525131942251846 Zr
atom 4.9313533796250137 9.9665315560220034 80.5525127046620213 Zr
atom 9.9319073899527694 9.9254890648685841 80.5525129676584726 Zr
atom 4.9598811522185802 4.9745271607113342 85.5704587534829813 Zr
atom 9.9588715879708367 4.9319210875912427 85.5704590447368787 Zr
atom 4.9172750826815657 9.9735175929954636 85.5704585556553070 Zr
atom 9.9249213513063470 9.9395673599744310 85.5704587538620984 Zr
atom 5.2956940824003400 5.2307533851974970 78.0397175725113783 S
atom 9.7026453656934368 4.5961081634051126 78.0397178464915982 S
atom 4.6610488603623219 9.6377046687648473 78.0397173565742293 S
atom 10.2607342816235168 10.1957935843448944 78.0397175727133714 S
atom 4.6383603101971644 4.7027399749662040 83.0503798737443759 S
atom 10.2306587743309549 5.2534419324227830 83.0503801183838135 S
atom 5.1890622689894652 10.2950384377723267 83.0503796286836575 S
atom 9.6034005093632295 9.6677801740861433 83.0503798747159863 S
atom 4.5972652533695646 2.4633291519360698 80.2204778388140483 S
atom 10.3755617142288337 2.4225206720375763 80.8580178495346047 S
atom 5.3339652088329981 7.4641171770948374 80.8580173598203089 S
atom 9.5623054525099427 7.4283693507265420 80.2204778388530144 S
atom 4.5931961582477321 2.4674156570876242 85.8573027638771862 S
atom 10.3839198597588354 2.4262903278799337 85.2408188715032225 S
atom 5.3423233544540354 7.4678868337775492 85.2408183818281913 S
atom 9.5582363574494629 7.4324558567477981 85.8573027638265387 S
atom 2.4634328593734147 5.3710932989371916 80.2204775940383854 S
atom 7.4692816096998742 4.5578370351051483 80.8580176045972081 S
atom 2.4276851045878942 9.5994335404458315 80.8580171150307763 S
atom 7.4284730581991401 10.3361334981403346 80.2204775940778205 S
atom 2.4593463549648495 5.3751623941431701 85.8573025194323804 S
atom 7.4655119514359791 4.5494788893519464 85.2408186266548284 S
atom 2.4239154453992890 9.5910753947479801 85.2408181370048510 S
atom 7.4243865548108179 10.3402025931911528 85.8573025193545902 S
atom 2.2945403393839561 2.7524776109660256 88.0225279869432882 Ba
atom 7.2158809433812001 2.6322217043008558 88.0225282316638129 Ba
atom 2.1742844382064064 7.6738182097774104 88.0225277420482968 Ba
atom 7.2595805383233731 7.7175178102407944 88.0225279869177371 Ba
atom 2.6654437375879905 2.3798883587612432 92.8173925791301428 Ba
atom 7.5884701892526305 2.2613183102054606 92.8173928245235516 Ba
atom 2.5468736838990491 7.3029148157312553 92.8173923349074812 Ba
atom 7.6304839367107116 7.3449285580489105 92.8173925791924432 Ba
atom 4.9759139648765824 4.9635809725596420 90.6282625422165751 Zr
atom 9.9698177783232822 4.9158882985485715 90.6282627877559719 Zr
atom 4.9282212727953878 9.9574848042655244 90.6282622978449552 Zr
atom 9.9409541642144124 9.9286211718797297 90.6282625424712478 Zr
atom 5.2594810424469616 5.2130032777909925 88.0646478531625121 S
atom 9.7203954731659739 4.6323212012893018 88.0646480068250241 S
atom 4.6787989677996515 9.6739177065866624 88.0646475164183755 S
atom 10.2245212415201046 10.1780434768833441 88.0646478521639438 S
atom 4.7563683321032606 4.8411637531183658 93.1359309333554251 S
atom 10.0922350032004235 5.1354339193089737 93.1359312321643245 S
atom 5.0506384979039947 10.1770304247188985 93.1359307431480801 S
atom 9.7214085312124308 9.8062039521815567 93.1359309335581571 S
atom 4.6548358111492805 2.4704534798676612 90.2737848020389464 S
atom 10.2928247735523044 2.4295148531469826 90.7820665997702179 S
atom 5.2512282683328717 7.4711113570250065 90.7820661101689126 S
atom 9.6198760102961991 7.4354936778288012 90.2737848020105389 S
atom 2.4563087078696415 5.3135227409450154 90.2737845561879766 S
atom 7.4622872203682258 4.6405739857071309 90.7820663541885295 S
atom 2.4206907144995244 9.6821704909422728 90.7820658646328553 S
atom 7.4213489074385119 10.2785629401469070 90.2737845561582191 S
