#=======================================================
# FHI-aims file: full_relax/full_relax_RP_4_RxRyRz_RxRyRz.in
# Created using the Atomic Simulation Environment (ASE)
# Fri Mar 14 11:26:09 2025
#=======================================================
lattice_vector 10.0377700438828672 0.0292558221253934 0.0096885006408956 
lattice_vector 0.0292558221192831 10.0377700423621086 -0.0096885021995394 
lattice_vector 0.0429746377399926 -0.0429746450165932 45.6685845581784875 
atom 0.0188523390642439 -0.1214851826606341 0.2429639368403905 Ba
atom 5.1403703634551521 -0.0042243995824476 0.2478076877453763 Ba
atom 0.1361135899695400 5.0000326514532576 0.2381158876928819 Ba
atom 5.0523654567773981 4.9120275307495351 0.2429621165730300 Ba
atom -0.2352303541297648 0.1963091081325670 4.9788156670828156 Ba
atom 4.8225748294599873 0.2498582610464163 4.9836599516169251 Ba
atom -0.1816810956010594 5.2541164690517839 4.9739714637818322 Ba
atom 4.7982812800295944 5.2298232942001901 4.9788156093966318 Ba
atom 2.4924529774186635 2.5416019770300600 2.3718398821805713 Zr
atom 7.5107964281850697 2.5556881379810994 2.3766826783033803 Zr
atom 2.5065395423633308 7.5599445327278252 2.3669967595274910 Zr
atom 7.5259661640716828 7.5751140831606207 2.3718396254473579 Zr
atom 2.4546126080312427 2.5655501677590724 7.4200430287761217 Zr
atom 7.4868478361584900 2.5935282605388092 7.4248873277360010 Zr
atom 2.4825910154617628 7.5977851005439385 7.4151962957593156 Zr
atom 7.4881257469861744 7.5990629105405620 7.4200427884427702 Zr
atom 2.6788688685707629 2.7987272312543792 -0.1268858946157437 S
atom 7.2536709154675671 2.3692720988470510 -0.1220433696134174 S
atom 2.2494135897957355 7.3735287554910673 -0.1317276377476484 S
atom 7.7123818473511658 7.8322398950577181 -0.1268874997496206 S
atom 2.2367579466327929 2.2401616422685104 4.9251322970872806 S
atom 7.8122361710471431 2.8113830368024395 4.9299762232222779 S
atom 2.8079794807146419 7.8156399356454980 4.9202868020286585 S
atom 7.2702707665919757 7.2736744467757521 4.9251341043674790 S
atom 2.6847629130198603 0.0383321962919074 2.2096971622524295 S
atom 7.2576228075355473 0.0575275680782849 2.7514088493270874 S
atom 2.2533657428694398 5.0617835349732037 2.7417193697920048 S
atom 7.7182753655526906 5.0718443103049919 2.2096981034035554 S
atom 2.8005771099266816 0.0416937221338105 7.7030173699917421 S
atom 7.1490404707711148 0.0603137827104907 7.1561994011245211 S
atom 2.1447833228378861 5.0645709015200806 7.1465118070683964 S
atom 7.8340897576241426 5.0752066190310865 7.7030162242891427 S
atom -0.0237035952337836 2.3341220006848356 2.2048533953769569 S
atom 4.9906133271907231 2.7947752577663656 2.7465644689778967 S
atom -0.0136441563420674 7.7990322967399495 2.7368750594915805 S
atom 5.0098096487674537 7.3676351036034626 2.2048530553390822 S
atom -0.0270653144508833 2.2183081347851616 7.6981724274892418 S
atom 4.9878270071137623 2.9033573090495097 7.1513555641377051 S
atom -0.0164295501330348 7.9076144685339917 7.1416672259432268 S
atom 5.0064465309826245 7.2518208391280155 7.6981726854895944 S
atom 0.0001697800698787 -0.0185148982052468 9.9279529877732990 Ba
atom 5.0373995054471257 0.0144578374172160 9.9327971850613928 Ba
atom 0.0331427473826500 5.0187150419876172 9.9231089723100343 Ba
atom 5.0336830644053316 5.0149984281508821 9.9279531083758030 Ba
atom 0.2149941217260210 -0.2539152753772416 14.8770900362172949 Ba
atom 5.2728012683709045 -0.2003665587026115 14.8819343197661560 Ba
atom 0.2685426862038427 4.8038899426264239 14.8722458283015619 Ba
atom 5.2485085445118020 4.7795970452448930 14.8770900138874023 Ba
atom 2.5842346885272267 2.4359281363798777 12.4358647878570725 Zr
atom 7.6164698326652251 2.4639064799458028 12.4407117080961953 Zr
atom 2.6122127773846584 7.4681632895094827 12.4310205184520264 Zr
atom 7.6177477517729129 7.4694410455153291 12.4358649933671508 Zr
atom 2.5602859145548931 2.4737682588906056 17.4840656624888950 Zr
atom 7.5786297209957496 2.4878547495022652 17.4889076063199589 Zr
atom 2.5743725670027451 7.4921122305640377 17.4792214311620882 Zr
atom 7.5937986204701442 7.5072816282086396 17.4840648038013313 Zr
atom 2.7939389693647425 2.7752542310083710 9.9279533864163731 S
atom 7.2771435398538209 2.2542017145551299 9.9328002395027291 S
atom 2.2728864862079532 7.2584588290003067 9.9231092648118313 S
atom 7.8274520791028976 7.8087673446250925 9.9279553162661021 S
atom 2.2588466816655610 2.2180735110171366 14.9307718550661370 S
atom 7.8343241681751987 2.7892944152826060 14.9356182346121269 S
atom 2.8300674393807932 7.7935514226677052 14.9259282526414463 S
atom 7.2923593256216961 7.2515864041159448 14.9307732694387667 S
atom 2.2369929225703564 -0.0457497115178742 12.1577340413599764 S
atom 7.9262991058920802 -0.0351139949844463 12.7142382606383908 S
atom 2.9220419875043455 4.9691420719417980 12.7045507168236789 S
atom 7.2705056028984032 4.9877624657712971 12.1577329552107418 S
atom 2.3528076640107423 -0.0423882502751742 17.6510529527637594 S
atom 7.8177166045818476 -0.0323281824450131 17.1190326521756795 S
atom 2.8134596681564252 4.9719287003638293 17.1093431725194591 S
atom 7.3863200670842799 4.9911250823067306 17.6510536974393588 S
atom 0.0603776121570273 2.7818922414498317 12.1528889978443413 S
atom 5.0832557705320811 2.1260986872801215 12.7093943378692149 S
atom 0.0789974643269173 7.1303559826570400 12.6997061661893422 S
atom 5.0938911859415654 7.8154052660854765 12.1528894067407052 S
atom 0.0570167388605947 2.6660783381606694 17.6462096302094942 S
atom 5.0804684751470983 2.2346808967234626 17.1141880917109361 S
atom 0.0762121642675364 7.2389383265033453 17.1044993140360404 S
atom 5.0905288020375492 7.6995907365133398 17.6462089537138311 S
atom -0.1028013291334888 0.0001676523422313 19.6129485601306968 Ba
atom 5.0187173037719823 0.1174291385807235 19.6177926089969965 Ba
atom 0.0144602275645801 5.1216855513765926 19.6081005840459142 Ba
atom 4.9307118898691842 5.0336805428291580 19.6129464818585291 Ba
atom 2.8174121428976568 2.6601843722074747 19.9827901656756630 S
atom 7.3922131407741176 2.2307284882947953 19.9876320990327727 S
atom 2.3879564916153986 7.2349861767073262 19.9779470101187933 S
atom 7.8509249788361268 7.6936977195904479 19.9827883179383505 S
atom 2.5570960975467445 2.3737840661036773 23.0772517807849447 Ba
atom 7.6786145990299302 2.4910446816201786 23.0820963056024056 Ba
atom 2.6743567118170959 7.4953016378827071 23.0724070956911120 Ba
atom 7.5906092970041437 7.4072968407892432 23.0772524924230140 Ba
atom 2.3030122232924053 2.6915803643240923 27.8131088577673360 Ba
atom 7.3608195272794203 2.7451293356939543 27.8179531130831990 Ba
atom 2.3565615020079100 7.7493836400039724 27.8082646565801781 Ba
atom 7.3365261674931865 7.7250902415137714 27.8131089019881586 Ba
atom 5.0306967912896710 5.0368700722033726 25.2061344107416865 Zr
atom 10.0490408919050473 5.0509572929010575 25.2109808249616414 Zr
atom 5.0447832066959641 10.0552142831336191 25.2012898657422539 Zr
atom 10.0642102397054582 10.0703833569128651 25.2061325238829852 Zr
atom 4.9928569812466206 5.0608193422563907 30.2543356139934367 Zr
atom 10.0250918766395554 5.0887974250959847 30.2591774665670137 Zr
atom 5.0208342774532344 10.0930540781321376 30.2494940206111842 Zr
atom 10.0263697885054928 10.0943322746302186 30.2543371309915265 Zr
atom 5.2171131284752610 5.2939969469664030 22.7074087751475666 S
atom 9.7919140152792590 4.8645404679679984 22.7122554316564624 S
atom 4.7876569872644792 9.8687975768254681 22.7025572293193036 S
atom 10.2506262305029594 10.3275096936228277 22.7074044633096399 S
atom 4.7750018001244499 4.7354303800970063 27.7594249746154844 S
atom 10.3504802470865016 5.3066516712560974 27.7642715644997864 S
atom 5.3462229601447637 10.3109094880903847 27.7545847491167166 S
atom 9.8085145271917789 9.7689439970809175 27.7594267085214881 S
atom 5.2230059847168544 2.5335999061800591 25.0439900515036946 S
atom 9.7958667470903436 2.5527959953264001 25.5856990394641208 S
atom 4.7916099241739687 7.5570541869860399 25.5760110525037057 S
atom 10.2565189215531873 7.5671138779237817 25.0439891256128213 S
atom 5.3388204685340579 2.5369639833713959 30.5373072432419264 S
atom 9.6872841220264707 2.5555832390528459 29.9904912188734265 S
atom 4.6830273893635157 7.5598388706310935 29.9808020761119138 S
atom 10.3723335406742461 7.5704749254729542 30.5373083016310645 S
atom 2.5145404977926393 4.8293912439130811 25.0391445007274989 S
atom 7.5288572923278823 5.2900444339752273 25.5808540156949142 S
atom 2.5246007395528798 10.2943014165240871 25.5711674829577902 S
atom 7.5480519716103114 9.8629041392722208 25.0391456938532642 S
atom 2.5111779039486599 4.7135770906040593 30.5324645309495253 S
atom 7.5260708169842516 5.3986268116443741 29.9856474573219600 S
atom 2.5218131471021299 10.4028839464818947 29.9759572577454989 S
atom 7.5446908529888370 9.7470905516416000 30.5324626161045387 S
atom 2.5384135332894786 2.4767542160370812 32.7622453682053347 Ba
atom 7.5756440641766147 2.5097272423245860 32.7670901417989100 Ba
atom 2.5713868964003535 7.5139850037582727 32.7574008285754985 Ba
atom 7.5719259313597735 7.5102666733749270 32.7622455966982358 Ba
atom 2.7532391340867286 2.2413523771920936 37.7113814071601041 Ba
atom 7.8110440842596125 2.2949004662329324 37.7162256547998425 Ba
atom 2.8067877866613622 7.2991605752224995 37.7065371250846226 Ba
atom 7.7867509573531910 7.2748681018665522 37.7113813766414481 Ba
atom 5.1224784957461980 4.9311975346595469 35.2701561282545768 Zr
atom 10.1547133458415750 4.9591749500065196 35.2749991216846368 Zr
atom 5.1504562894130785 9.9634324312491849 35.2653137138719615 Zr
atom 10.1559910640570639 9.9647104594961640 35.2701594198466211 Zr
atom 5.0985295542589668 4.9690371128190716 40.3183531879154842 Zr
atom 10.1168728440548108 4.9831239975249675 40.3232009877439381 Zr
atom 5.1126164704303525 9.9873817177318056 40.3135088312966232 Zr
atom 10.1320420506069535 10.0025503888744218 40.3183514561941863 Zr
atom 5.3321824707374788 5.2705231600568139 32.7622461300123149 S
atom 9.8153876769441855 4.7494713038994814 32.7670865471709476 S
atom 4.8111308158935371 9.7537284043704897 32.7574047932232375 S
atom 10.3656953753703096 10.3040360926545720 32.7622483654426162 S
atom 4.7970902701795559 4.7133427470133391 37.7650650973861062 S
atom 10.3725684146761292 5.2845631240752109 37.7699045145546464 S
atom 5.3683107842022553 10.2888206590377038 37.7602176306273805 S
atom 9.8306035667514369 9.7468561150890576 37.7650650272615138 S
atom 4.7752366071314967 2.4495189508563890 34.9920265430237549 S
atom 10.4645432024737186 2.4601536855858761 35.5485324386892074 S
atom 5.4602858523646960 7.4644121042783027 35.5388433511056476 S
atom 9.8087498442481991 7.4830326349557454 34.9920271229662276 S
atom 4.8910508349856894 2.4528818952322715 40.4853471127515192 S
atom 10.3559605182416679 2.4629423098742191 39.9533261229137935 S
atom 5.3517033934592657 7.4671977589775134 39.9436380738597450 S
atom 9.9245641104941456 7.4863921989873932 40.4853469965649069 S
atom 2.5986229807772636 5.2771610865711578 34.9871835243343128 S
atom 7.6214987109322161 4.6213681151967902 35.5436886003968766 S
atom 2.6172418642188493 9.6256248609316621 35.5339987087677258 S
atom 7.6321349166100534 10.3106744713118790 34.9871815327527997 S
atom 2.5952590424944519 5.1613471199223584 40.4805021217282714 S
atom 7.6187136662187678 4.7299505933854551 39.9484812441243733 S
atom 2.6144555442501867 9.7342073553560091 39.9387945884892019 S
atom 7.6287720393836418 10.1948598677098907 40.4805034743465626 S
atom 2.4354432611879608 2.4954370999442821 42.4472407287724351 Ba
atom 7.5569610468017929 2.6126974736048068 42.4520856433207854 Ba
atom 2.5527038801735711 7.6169546671720356 42.4423955117060814 Ba
atom 7.4689562930604589 7.5289499274013769 42.4472410186968716 Ba
atom 5.3556564107082396 5.1554541892388075 42.8170824897840916 S
atom 9.9304567642970465 4.7259975226524942 42.8219290396877668 S
atom 4.9261997096999961 9.7302545263132725 42.8122335018465918 S
atom 10.3891693102892813 10.1889672777836662 42.8170780035352934 S
