#=======================================================
# FHI-aims file: full_relax/full_relax_RP_9_00Rz_000.in
# Created using the Atomic Simulation Environment (ASE)
# Mon Mar 24 16:23:12 2025
#=======================================================
lattice_vector 10.0003946365455079 -0.0000000000000000 -0.0000000000007043 
lattice_vector -0.0000000000000000 10.0003946365455079 -0.0000000000008816 
lattice_vector -0.0000000000067148 -0.0000000000084055 96.6638904298801833 
atom 0.0000000001672252 0.0000000011212949 0.1443362448823235 Ba
atom 5.0001973183090991 0.0000000025134653 0.1443362448819339 Ba
atom -0.0000000002966574 5.0001973183354993 0.1443362448819183 Ba
atom 5.0001973186912743 5.0001973160303814 0.1443362448819665 Ba
atom -0.0000000003209229 0.0000000006434847 4.9112372416517855 Ba
atom 5.0001973183835586 -0.0000000013931487 4.9112372416514996 Ba
atom 0.0000000000455621 5.0001973165904632 4.9112372416513699 Ba
atom 5.0001973179924137 5.0001973183243456 4.9112372416510937 Ba
atom 2.5000986597612580 2.5000986592003609 2.2853819607701258 Zr
atom 7.5002959768455284 2.5000986594010621 2.2853819606507062 Zr
atom 2.5000986585727669 7.5002959776738658 2.2853819617110358 Zr
atom 7.5002959780340097 7.5002959774731472 2.2853819615915927 Zr
atom 2.5000986590657015 2.5000986590702703 7.4017958984571175 Zr
atom 7.5002959774462408 2.5000986590478624 7.4017958984168875 Zr
atom 2.5000986591734593 7.5002959773206008 7.4017958987712262 Zr
atom 7.5002959773384115 7.5002959773430264 7.4017958987311818 Zr
atom 2.5000986657009157 2.5000986578012481 -0.2241511858902911 S
atom 7.5002959707758299 2.5000986601898512 -0.2241511858613387 S
atom 2.5000986525030462 7.5002959784623737 -0.2241511862760528 S
atom 7.5002959839737056 7.5002959760737529 -0.2241511862473824 S
atom 2.5000986571998474 2.5000986598328558 4.8915695415102638 S
atom 7.5002959794497057 2.5000986590240974 4.8915695415131673 S
atom 2.5000986611771125 7.5002959772970543 4.8915695414404716 S
atom 7.5002959754724321 7.5002959781058198 4.8915695414435092 S
atom 2.2139340252649400 -0.0000000000456660 2.4127448133960994 S
atom 7.7864606110767705 -0.0000000000457175 2.4127448120899992 S
atom 2.7862632928336182 5.0001973184500130 2.4127448120685377 S
atom 7.2141313435668879 5.0001973184500521 2.4127448134166194 S
atom 3.0099275106101024 0.0000000000317983 7.4311256794429017 S
atom 6.9904671258991167 0.0000000000317739 7.4311256797962315 S
atom 1.9902698076217897 5.0001973183619661 7.4311256797678444 S
atom 8.0101248288782880 5.0001973183618986 7.4311256794700498 S
atom 0.0000000000239685 2.7862632922370989 2.4127448094163420 S
atom 5.0001973182725763 2.2139340249929527 2.4127448163830878 S
atom 0.0000000000239710 7.2141313429707479 2.4127448160695750 S
atom 5.0001973182725790 7.7864606108048031 2.4127448091022217 S
atom 0.0000000000127333 1.9902698075776193 7.4311256805060308 S
atom 5.0001973182792003 3.0099275105231915 7.4311256790056683 S
atom 0.0000000000126990 8.0101248288340674 7.4311256787326965 S
atom 5.0001973182793744 6.9904671258122182 7.4311256802324515 S
atom -0.0000000000153997 -0.0000000004484922 9.9698819415217237 Ba
atom 5.0001973181716401 0.0000000000845977 9.9698819415213826 Ba
atom -0.0000000000968050 5.0001973181492971 9.9698819415213240 Ba
atom 5.0001973182797093 5.0001973178801506 9.9698819415210238 Ba
atom -0.0000000000170339 0.0000000000411498 15.0423928007140066 Ba
atom 5.0001973182749131 -0.0000000000560536 15.0423928007137047 Ba
atom -0.0000000000068917 5.0001973182146546 15.0423928007135732 Ba
atom 5.0001973182547976 5.0001973182259993 15.0423928007133796 Ba
atom 2.5000986591329069 2.5000986591100123 12.4877464082423284 Zr
atom 7.5002959773967888 2.5000986591119885 12.4877464082233249 Zr
atom 2.5000986591240832 7.5002959773847522 12.4877464083850747 Zr
atom 7.5002959774056723 7.5002959773827476 12.4877464083659309 Zr
atom 2.5000986591334269 2.5000986591333505 17.5724816290617802 Zr
atom 7.5002959774067506 2.5000986591331431 17.5724816290506780 Zr
atom 2.5000986591339420 7.5002959774058748 17.5724816291266279 Zr
atom 7.5002959774061342 7.5002959774061004 17.5724816291154049 Zr
atom 2.5000986595317483 2.5000986592078389 9.9629676255085737 S
atom 7.5002959770771200 2.5000986593790824 9.9629676255048274 S
atom 2.5000986588042853 7.5002959776516711 9.9629676255223156 S
atom 7.5002959778045861 7.5002959774804205 9.9629676255188642 S
atom 2.5000986590960235 2.5000986591878895 15.0396582053987107 S
atom 7.5002959774644316 2.5000986591606931 15.0396582053960230 S
atom 2.5000986591918752 7.5002959774336100 15.0396582054137298 S
atom 7.5002959773685607 7.5002959774608042 15.0396582054107935 S
atom 1.9973174174952868 0.0000000000117841 12.5091204533890714 S
atom 8.0030772190389516 0.0000000000118715 12.5091204533427032 S
atom 3.0028799007679172 5.0001973183040080 12.5091204533344946 S
atom 6.9975147357696876 5.0001973183039539 12.5091204533967026 S
atom 3.0035941238446013 0.0000000000025871 17.5808906557559403 S
atom 6.9968005126970754 0.0000000000023935 17.5808906557675080 S
atom 1.9966031944239402 5.0001973182813213 17.5808906557633335 S
atom 8.0037914421170147 5.0001973182814332 17.5808906557587967 S
atom 0.0000000000036286 3.0028799007508722 12.5091204532987099 S
atom 5.0001973182745072 1.9973174174969150 12.5091204535111515 S
atom 0.0000000000036498 6.9975147357526835 12.5091204534330576 S
atom 5.0001973182744130 8.0030772190406374 12.5091204532197526 S
atom -0.0000000000002533 1.9966031944295326 17.5808906557892470 S
atom 5.0001973182720221 3.0035941238412578 17.5808906557625022 S
atom -0.0000000000002590 8.0037914421226031 17.5808906557336471 S
atom 5.0001973182722272 6.9968005126936976 17.5808906557601077 S
atom -0.0000000000045691 -0.0000000000078130 20.1170984845721641 Ba
atom 5.0001973182664008 0.0000000000146618 20.1170984845717697 Ba
atom -0.0000000000021839 5.0001973182530559 20.1170984845717840 Ba
atom 5.0001973182711490 5.0001973182654798 20.1170984845715743 Ba
atom 0.0000000000031489 0.0000000000001277 25.1941001544601164 Ba
atom 5.0001973182692154 -0.0000000000067833 25.1941001544598109 Ba
atom -0.0000000000038655 5.0001973182743420 25.1941001544598215 Ba
atom 5.0001973182644655 5.0001973182603949 25.1941001544595871 Ba
atom 2.5000986591336356 2.5000986591342707 22.6555993195039704 Zr
atom 7.5002959774064468 2.5000986591343204 22.6555993194919267 Zr
atom 2.5000986591337018 7.5002959774070730 22.6555993195392382 Zr
atom 7.5002959774064255 7.5002959774070455 22.6555993195268002 Zr
atom 2.5000986591330792 2.5000986591326551 27.7387170099376128 Zr
atom 7.5002959774061209 2.5000986591326932 27.7387170099154829 Zr
atom 2.5000986591333407 7.5002959774054840 27.7387170099697187 Zr
atom 7.5002959774058464 7.5002959774054085 27.7387170099471412 Zr
atom 2.5000986591409764 2.5000986591419911 20.1169492881021164 S
atom 7.5002959774042424 2.5000986591446988 20.1169492880993097 S
atom 2.5000986591312042 7.5002959774172151 20.1169492881112433 S
atom 7.5002959774139955 7.5002959774145275 20.1169492881090761 S
atom 2.5000986591354804 2.5000986591384065 25.1942493509240961 S
atom 7.5002959774023070 2.5000986591397885 25.1942493509201917 S
atom 2.5000986591298764 7.5002959774127218 25.1942493509307717 S
atom 7.5002959774079079 7.5002959774113354 25.1942493509269809 S
atom 1.9959734243337566 -0.0000000000007853 22.6555993195140104 S
atom 8.0044212122074896 -0.0000000000007863 22.6555993195179646 S
atom 3.0042238939337924 5.0001973182737514 22.6555993195138186 S
atom 6.9961707426055479 5.0001973182736341 22.6555993195176555 S
atom 3.0035941238415553 0.0000000000010151 27.7303079832650035 S
atom 6.9968005126939987 0.0000000000010340 27.7303079832759352 S
atom 1.9966031944240770 5.0001973182730746 27.7303079832659947 S
atom 8.0037914421171870 5.0001973182731616 27.7303079832737609 S
atom -0.0000000000026378 3.0042238939338506 22.6555993195219436 S
atom 5.0001973182705806 1.9959734243356111 22.6555993195224801 S
atom -0.0000000000026452 6.9961707426055906 22.6555993195100669 S
atom 5.0001973182705264 8.0044212122093565 22.6555993195084966 S
atom -0.0000000000059709 1.9966031944230354 27.7303079832692383 S
atom 5.0001973182687776 3.0035941238445329 27.7303079832830868 S
atom -0.0000000000059715 8.0037914421161389 27.7303079832710075 S
atom 5.0001973182688459 6.9968005126969546 27.7303079832571520 S
atom 0.0000000000062738 -0.0000000000165116 30.2688058383188157 Ba
atom 5.0001973182559887 -0.0000000000304020 30.2688058383184568 Ba
atom 0.0000000000127501 5.0001973182402732 30.2688058383184710 Ba
atom 5.0001973182784409 5.0001973182824857 30.2688058383181904 Ba
atom 0.0000000000394768 -0.0000000001914595 35.3413166975114663 Ba
atom 5.0001973183862205 -0.0000000000428704 35.3413166975112674 Ba
atom 0.0000000000944553 5.0001973182946182 35.3413166975111537 Ba
atom 5.0001973182426696 5.0001973180706045 35.3413166975110187 Ba
atom 2.5000986591403582 2.5000986591224170 32.8234522307244774 Zr
atom 7.5002959774091584 2.5000986591201859 32.8234522306764092 Zr
atom 2.5000986591364329 7.5002959773928577 32.8234522307788978 Zr
atom 7.5002959774131206 7.5002959773951874 32.8234522307313199 Zr
atom 2.5000986591313787 2.5000986590849674 37.9094027404312826 Zr
atom 7.5002959774504783 2.5000986591146028 37.9094027403266907 Zr
atom 2.5000986591776932 7.5002959773873750 37.9094027405499077 Zr
atom 7.5002959774041180 7.5002959773577835 37.9094027404454721 Zr
atom 2.5000986590987231 2.5000986591445731 30.2715404336253684 S
atom 7.5002959774205307 2.5000986591588314 30.2715404336194389 S
atom 2.5000986591473837 7.5002959774314109 30.2715404336332163 S
atom 7.5002959773718807 7.5002959774171698 30.2715404336279690 S
atom 2.5000986592567780 2.5000986592912313 35.3482310135157576 S
atom 7.5002959771936366 2.5000986591114676 35.3482310135108904 S
atom 2.5000986589212819 7.5002959773842788 35.3482310135261528 S
atom 7.5002959775291140 7.5002959775641180 35.3482310135210867 S
atom 1.9973174175023101 0.0000000000090923 32.8020781856758106 S
atom 8.0030772190462205 0.0000000000091956 32.8020781856560930 S
atom 3.0028799007678368 5.0001973182760624 32.8020781856299379 S
atom 6.9975147357693936 5.0001973182757240 32.8020781857013120 S
atom 3.0099275106414005 0.0000000000291002 37.8800729591673289 S
atom 6.9904671259302376 0.0000000000290911 37.8800729596584134 S
atom 1.9902698076701963 5.0001973182834076 37.8800729595671157 S
atom 8.0101248289267879 5.0001973182832904 37.8800729592579657 S
atom -0.0000000000135091 3.0028799007654312 32.8020781857288171 S
atom 5.0001973182657107 1.9973174174892894 32.8020781856268258 S
atom -0.0000000000134119 6.9975147357670151 32.8020781856031576 S
atom 5.0001973182655757 8.0030772190332335 32.8020781857039125 S
atom -0.0000000000309597 1.9902698075949083 37.8800729591228844 S
atom 5.0001973182607511 3.0099275105924539 37.8800729597834263 S
atom -0.0000000000309827 8.0101248288514988 37.8800729597023889 S
atom 5.0001973182608639 6.9904671258813380 37.8800729590420389 S
atom 0.0000000004804710 0.0000000000568939 40.3999613973817944 Ba
atom 5.0001973180828365 -0.0000000007023533 40.3999613973813680 Ba
atom 0.0000000000074182 5.0001973176953429 40.3999613973813112 Ba
atom 5.0001973186581985 5.0001973185198594 40.3999613973810341 Ba
atom 0.0000000000404083 -0.0000000007859625 45.1668623941527088 Ba
atom 5.0001973178795414 0.0000000002764594 45.1668623941524672 Ba
atom 0.0000000007339076 5.0001973192699509 45.1668623941521119 Ba
atom 5.0001973174933543 5.0001973184304287 45.1668623941520551 Ba
atom 2.5000986592932355 2.5000986593628962 43.0258166778294466 Zr
atom 7.5002959771545239 2.5000986590311496 43.0258166775169713 Zr
atom 2.5000986588818481 7.5002959773039359 43.0258166781862670 Zr
atom 7.5002959775659050 7.5002959776356883 43.0258166778738200 Zr
atom 2.5000986582052453 2.5000986586962766 40.4196290975475918 S
atom 7.5002959781626153 2.5000986597977426 40.4196290975708408 S
atom 2.5000986598893280 7.5002959780704472 40.4196290975404651 S
atom 7.5002959764785020 7.5002959769690092 40.4196290975633019 S
atom 2.5000986616587557 2.5000986609172591 45.5353498250749098 S
atom 7.5002959749525528 2.5000986572118764 45.5353498252042996 S
atom 2.5000986566802763 7.5002959754846330 45.5353498249977235 S
atom 7.5002959799310194 7.5002959791900485 45.5353498251272768 S
atom 2.2139340255585402 0.0000000000564129 42.8984538272157465 S
atom 7.7864606113752872 0.0000000000563703 42.8984538253662393 S
atom 2.7862632930037590 5.0001973182591648 42.8984538252600132 S
atom 7.2141313437323928 5.0001973182592234 42.8984538273213474 S
atom -0.0000000000590370 2.7862632927620994 42.8984538277137730 S
atom 5.0001973182881727 2.2139340251346615 42.8984538249225835 S
atom -0.0000000000591217 7.2141313434907746 42.8984538248687528 S
atom 5.0001973182882375 7.7864606109514050 42.8984538276580878 S
atom 2.5000986514491701 2.5000986527230626 48.6700964530707836 Ba
atom 7.5002959851149766 2.5000986655002038 48.6700964517193881 Ba
atom 2.5000986668423004 7.5002959837728973 48.6700964544753845 Ba
atom 7.5002959697218285 7.5002959709957784 48.6700964531239322 Ba
atom 2.5000986622713772 2.5000986621206147 53.4821714845081218 Ba
atom 7.5002959742627997 2.5000986561411600 53.4821714881041643 Ba
atom 2.5000986559898792 7.5002959744138584 53.4821714800808792 Ba
atom 7.5002959805443146 7.5002959803933686 53.4821714836767228 Ba
atom 5.0001973181387784 5.0001973176149743 50.7407593348293560 Zr
atom 10.0003946366539989 5.0001973182112742 50.7407593348292210 Zr
atom 5.0001973188836910 10.0003946372387347 50.7407593348290220 Zr
atom 10.0003946358841738 10.0003946366243799 50.7407593348287733 Zr
atom 5.0001973180302368 5.0001973187272775 55.8310938803603420 Zr
atom 10.0003946367733949 5.0001973194251210 55.8310938803592478 Zr
atom 5.0001973176458838 10.0003946360874494 55.8310938803597523 Zr
atom 10.0003946371549546 10.0003946353878952 55.8310938803589991 Zr
atom 5.0001973248333096 5.0001973382379390 48.2340992865823353 S
atom 10.0003946298631039 5.0001973091360705 48.2340992865827332 S
atom 5.0001973004681330 10.0003946168625397 48.2340992865819089 S
atom 10.0003946540885025 10.0003946458480595 48.2340992865816176 S
atom 5.0001973127721762 5.0001972845012679 53.3261197612421327 S
atom 10.0003946420163476 5.0001973217152065 53.3261197612411095 S
atom 5.0001973503296320 10.0003946703576787 53.3261197612414506 S
atom 10.0003946044337795 10.0003946331255218 53.3261197612411522 S
atom 5.0001973191070679 2.5000965871903875 50.8498521296770889 S
atom 10.0003946356978783 2.5001007311182599 50.8498521617051296 S
atom 5.0001973168738285 7.5002980494019962 50.8498521802807559 S
atom 10.0003946379310680 7.5002939054524154 50.8498521482514505 S
atom 5.0001973020708173 2.5000988592401852 55.8573992328713018 S
atom 10.0003946527335223 2.5000984590313737 55.8573991986327343 S
atom 5.0001973355967779 7.5002957773057517 55.8573991533451277 S
atom 10.0003946192075599 7.5002961775113715 55.8573991875828924 S
atom 2.5001007310903121 5.0001973175771388 50.8498521493271838 S
atom 7.5002939054240052 5.0001973198104022 50.8498521606304479 S
atom 2.5000965871370582 10.0003946372347059 50.8498521783144852 S
atom 7.5002980493487055 10.0003946350014417 50.8498521316420522 S
atom 2.5000984590246462 5.0001973337809344 55.8573991969189976 S
atom 7.5002961775047634 5.0001973002550013 55.8573991892974178 S
atom 2.5000988592296567 10.0003946210301979 55.8573991540655115 S
atom 7.5002957772950785 10.0003946545561195 55.8573992321496320 S
atom 2.5000986583919080 2.5000986582975426 58.4405470118393922 Ba
atom 7.5002959781417458 2.5000986599636050 58.4405470089111958 Ba
atom 2.5000986598690766 7.5002959782363874 58.4405470162661516 Ba
atom 7.5002959766645834 7.5002959765703627 58.4405470133373370 Ba
atom 2.5000986593648391 2.5000986591072984 63.4488384351378585 Ba
atom 7.5002959771687809 2.5000986591522079 63.4488384370140110 Ba
atom 2.5000986588960874 7.5002959774248534 63.4488384316207927 Ba
atom 7.5002959776375091 7.5002959773799445 63.4488384334968174 Ba
atom 5.0001973185793922 5.0001973185065003 60.8873984722079982 Zr
atom 10.0003946362268135 5.0001973160331010 60.8873984722079840 Zr
atom 5.0001973185210815 10.0003946363004559 60.8873984722075079 Zr
atom 10.0003946362847351 10.0003946387736402 60.8873984722069750 Zr
atom 5.0001973180655224 5.0001973172321597 65.9385138886571411 Zr
atom 10.0003946367407117 5.0001973212038067 65.9385138886569990 Zr
atom 5.0001973183762658 10.0003946375725050 65.9385138886566580 Zr
atom 10.0003946364298901 10.0003946336007523 65.9385138886563738 Zr
atom 5.0001973204291525 5.0001973632519476 58.3718757389861125 S
atom 10.0003946343741461 5.0001973364422145 58.3718757389856080 S
atom 5.0001972723333665 10.0003945915641115 58.3718757389858141 S
atom 10.0003946824653944 10.0003946183709438 58.3718757389850964 S
atom 5.0001973199883727 5.0001972735818310 63.4176243364909382 S
atom 10.0003946348175354 5.0001972594330768 63.4176243364906540 S
atom 5.0001973705717324 10.0003946812250337 63.4176243364902206 S
atom 10.0003945842333533 10.0003946953733234 63.4176243364899932 S
atom 5.0001972832722927 2.5000986298917769 60.8989739243888195 S
atom 10.0003946715340266 2.5000986883703402 60.8989739340112024 S
atom 5.0001973524412833 7.5002960066432154 60.8989740179827876 S
atom 10.0003946023650396 7.5002959481641831 60.8989740083591613 S
atom 5.0001974809266869 2.5000986605560982 65.9416508817315616 S
atom 10.0003944738796271 2.5000986577031807 65.9416509281232095 S
atom 5.0001971555077080 7.5002959759759928 65.9416508021760990 S
atom 10.0003947992986184 7.5002959788288504 65.9416507557837832 S
atom 2.5000986883696270 5.0001973547207603 60.8989739710339322 S
atom 7.5002959481635161 5.0001972855517911 60.8989739713369218 S
atom 2.5000986298903287 10.0003946000856718 60.8989740218323519 S
atom 7.5002960066419764 10.0003946692546766 60.8989739205378839 S
atom 2.5000986577038704 5.0001971536590508 65.9416508389579832 S
atom 7.5002959788295573 5.0001974790779515 65.9416508449496064 S
atom 2.5000986605566298 10.0003948011455392 65.9416507888416277 S
atom 7.5002959759766581 10.0003944757266492 65.9416508950651661 S
atom 2.5000986585688638 2.5000986594769898 68.4727173829423350 Ba
atom 7.5002959779642646 2.5000986587813800 68.4727173823753361 Ba
atom 2.5000986596915094 7.5002959770540221 68.4727173840746985 Ba
atom 7.5002959768416178 7.5002959777496701 68.4727173835085523 Ba
atom 2.5000986598748143 2.5000986587988243 73.5023716850114255 Ba
atom 7.5002959766577169 2.5000986594585934 73.5023716846433928 Ba
atom 2.5000986583848737 7.5002959777314757 73.5023716867412276 Ba
atom 7.5002959781476450 7.5002959770716968 73.5023716863741328 Ba
atom 5.0001973182565376 5.0001973198254284 70.9875445344584932 Zr
atom 10.0003946365491974 5.0001973156195918 70.9875445344579390 Zr
atom 5.0001973179165384 10.0003946349781483 70.9875445344578964 Zr
atom 10.0003946368892311 10.0003946391839911 70.9875445344580669 Zr
atom 5.0001973184488726 5.0001973166904286 76.0365751802602290 Zr
atom 10.0003946363563205 5.0001973195014227 76.0365751802602432 Zr
atom 5.0001973186931474 10.0003946381127697 76.0365751802601295 Zr
atom 10.0003946361120182 10.0003946353019337 76.0365751802592342 Zr
atom 5.0001973145728584 5.0001973494749592 68.4641552394715518 S
atom 10.0003946402331128 5.0001974295128022 68.4641552394711823 S
atom 5.0001972677915054 10.0003946053294985 68.4641552394708270 S
atom 10.0003946870143441 10.0003945252915543 68.4641552394711823 S
atom 5.0001973206033608 5.0001973086938296 73.5109338294452357 S
atom 10.0003946342022498 5.0001971606297273 73.5109338294448946 S
atom 5.0001973618927202 10.0003946461099282 73.5109338294454773 S
atom 10.0003945929128797 10.0003947941743885 73.5109338294448378 S
atom 5.0001973046871688 2.5000986592677643 70.9875445134149601 S
atom 10.0003946501186789 2.5000986589902388 70.9875443954458660 S
atom 5.0001973327063558 7.5002959772631899 70.9875445555027369 S
atom 10.0003946220994759 7.5002959775407465 70.9875446734714046 S
atom 5.0001970992772460 2.5000986605555062 76.0334382250888865 S
atom 10.0003948555279401 2.5000986577028121 76.0334384013855100 S
atom 5.0001975360457935 7.5002959759751757 76.0334382288383637 S
atom 10.0003944187594005 7.5002959788282446 76.0334380525412712 S
atom 2.5000986589913166 5.0001973335722516 70.9875445378001331 S
atom 7.5002959775416702 5.0001973055529652 70.9875445311175071 S
atom 2.5000986592691232 10.0003946212314485 70.9875445828351843 S
atom 7.5002959772638489 10.0003946492507190 70.9875444860817453 S
atom 2.5000986577033673 5.0001975365697753 76.0334382264252184 S
atom 7.5002959788291346 5.0001970998013485 76.0334382275017475 S
atom 2.5000986605561670 10.0003944182333235 76.0334381868353546 S
atom 7.5002959759763383 10.0003948550017494 76.0334382670914266 S
atom 2.5000986594001078 2.5000986591859120 78.5262506368931383 Ba
atom 7.5002959771319926 2.5000986590712051 78.5262506380371406 Ba
atom 2.5000986588593830 7.5002959773442273 78.5262506311636912 Ba
atom 7.5002959776727618 7.5002959774589266 78.5262506323070966 Ba
atom 2.5000986557513007 2.5000986596264507 83.5345420526083586 Ba
atom 7.5002959807807397 2.5000986586327580 83.5345420511551424 Ba
atom 2.5000986625080062 7.5002959769052691 83.5345420615013268 Ba
atom 7.5002959740240787 7.5002959778989045 83.5345420600489348 Ba
atom 5.0001973180499029 5.0001973194306562 81.0876905967091091 Zr
atom 10.0003946367551944 5.0001973188885547 81.0876905967089385 Zr
atom 5.0001973178484187 10.0003946353741853 81.0876905967077306 Zr
atom 10.0003946369567576 10.0003946359173934 81.0876905967077590 Zr
atom 5.0001973183687740 5.0001973177953474 86.1439951885555075 Zr
atom 10.0003946364381253 5.0001973161319668 86.1439951885544559 Zr
atom 5.0001973186840178 10.0003946370201362 86.1439951885551238 Zr
atom 10.0003946361235450 10.0003946386917999 86.1439951885549959 Zr
atom 5.0001973196749230 5.0001973063644289 78.5574647324265101 S
atom 10.0003946351305846 5.0001974956266899 78.5574647324266948 S
atom 5.0001972833410848 10.0003946484408868 78.5574647324259416 S
atom 10.0003946714646332 10.0003944591809955 78.5574647324255864 S
atom 5.0001973133093554 5.0001973442291998 83.6032133299306679 S
atom 10.0003946414981915 5.0001971594374623 83.6032133299297016 S
atom 5.0001973439471676 10.0003946105871542 83.6032133299290763 S
atom 10.0003946108615835 10.0003947953923635 83.6032133299295737 S
atom 5.0001974673259264 2.5000986298909540 81.0761151178707280 S
atom 10.0003944874790456 2.5000986883707879 81.0761149236105609 S
atom 5.0001971703838244 7.5002960066422792 81.0761150775922204 S
atom 10.0003947844211432 7.5002959481647746 81.0761152718519043 S
atom 5.0001972386946383 2.5000988592409970 86.1176898476647636 S
atom 10.0003947161112414 2.5000984590409963 86.1176900105239156 S
atom 5.0001973970445368 7.5002957773072021 86.1176899039518418 S
atom 10.0003945577613571 7.5002961775211245 86.1176897410928746 S
atom 2.5000986883694267 5.0001971684740409 81.0761150943498308 S
atom 7.5002959481631288 5.0001974654160888 81.0761151011129328 S
atom 2.5000986298906218 10.0003947863303910 81.0761151284468724 S
atom 7.5002960066421647 10.0003944893883681 81.0761150670156496 S
atom 2.5000984590275985 5.0001973992051765 86.1176898815405707 S
atom 7.5002961775077077 5.0001972408553339 86.1176898700759210 S
atom 2.5000988592357682 10.0003945556072491 86.1176898550731238 S
atom 7.5002957773008117 10.0003947139570659 86.1176898965418900 S
atom 2.5000986703101851 2.5000986573406534 88.4929175895185267 Ba
atom 7.5002959662214321 2.5000986609175078 88.4929175909916950 Ba
atom 2.5000986479487248 7.5002959791902946 88.4929175786558346 Ba
atom 7.5002959885828409 7.5002959756134295 88.4929175801288039 Ba
atom 2.5000986361958510 2.5000986628641519 93.3049926140269008 Ba
atom 7.5002960003164345 2.5000986552907278 93.3049926135496861 Ba
atom 2.5000986820438151 7.5002959735634178 93.3049926180854925 Ba
atom 7.5002959544684806 7.5002959811368513 93.3049926176081357 Ba
atom 5.0001973183823898 5.0001973176277579 91.2343297340863160 Zr
atom 10.0003946364344536 5.0001973205630001 91.2343297340858896 Zr
atom 5.0001973179220052 10.0003946372323398 91.2343297340857902 Zr
atom 10.0003946369015271 10.0003946343710730 91.2343297340857617 Zr
atom 5.0001973245278926 5.0001972881960501 88.6489693076732408 S
atom 10.0003946302920195 5.0001974285980593 88.6489693076730418 S
atom 5.0001973018406538 10.0003946666781580 88.6489693076744061 S
atom 10.0003946529860528 10.0003945263506715 88.6489693076730845 S
atom 5.0001973129149331 5.0001973456400064 93.7409897823332869 S
atom 10.0003946419782945 5.0001972584066143 93.7409897823337275 S
atom 5.0001973273706435 10.0003946095931759 93.7409897823334575 S
atom 10.0003946275638551 10.0003946972434647 93.7409897823329032 S
atom 5.0001973228235670 2.5000965871986711 91.1252369404986382 S
atom 10.0003946319813561 2.5001007311798693 91.1252368342270955 S
atom 5.0001973139825306 7.5002980494098468 91.1252368873734468 S
atom 10.0003946408224191 7.5002939055136864 91.1252369936447906 S
atom 2.5001007311070094 5.0001973130072166 91.1252369084206322 S
atom 7.5002939054410946 5.0001973218482805 91.1252369194513960 S
atom 2.5000965871720675 10.0003946418042258 91.1252369257498174 S
atom 7.5002980493839191 10.0003946329631521 91.1252369021207045 S
