#=======================================================
# FHI-aims file: full_relax/full_relax_RP_1_Rx1Ry20_Rx2Ry10.in
# Created using the Atomic Simulation Environment (ASE)
# Fri Mar 14 11:17:01 2025
#=======================================================
lattice_vector 10.0712741668565613 -0.0001782708727513 0.0000000000001405 
lattice_vector -0.0001782708727463 10.0712741668557033 0.0000000000001233 
lattice_vector 0.0000000000002332 0.0000000000002051 15.6175531615525696 
atom 0.0000808300869375 -0.1383237959955778 0.2385646435888204 Ba
atom 5.0355562533405891 0.1382346605689034 0.2385646435373679 Ba
atom -0.0001699655043970 5.1739608794180514 0.2385646435817815 Ba
atom 5.0356287780532965 4.8972241519892936 0.2385646435671128 Ba
atom -0.0000808300889306 0.1383237959867847 4.6419207193473859 Ba
atom 5.0357179135052110 -0.1384129314133520 4.6419207193336893 Ba
atom -0.0000083053854158 4.8973132874426888 4.6419207193901073 Ba
atom 5.0354671179336057 5.1738717439654929 4.6419207193603498 Ba
atom 2.5177739740082772 2.5177739738833793 2.4402426812811764 Zr
atom 7.5534110574437268 2.5176848385088690 2.4402426814276130 Zr
atom 2.5176848386253101 7.5534110575647704 2.4402426813156399 Zr
atom 7.5533219219200207 7.5533219220263232 2.4402426813524958 Zr
atom 2.7383139382325608 2.5176418700973149 -0.0978568251746800 S
atom 7.3328710931912102 2.5178169424820354 -0.0978568252134926 S
atom 2.2971448743197014 7.5535431613278794 -0.0978568252050071 S
atom 7.7738618862272943 7.5531898180657508 -0.0978568252190205 S
atom 2.2972340097683324 2.5179060779137279 4.9783421882908243 S
atom 7.7739510216535779 2.5175527346399291 4.9783421881565406 S
atom 2.7382248028008549 7.5532789535146962 4.9783421882980337 S
atom 7.3327819577438182 7.5534540259098000 4.9783421882975691 S
atom 2.5178185417154499 -0.0000445677010140 2.4403832649010475 S
atom 7.5534556251432150 -0.0001337032626227 2.4401020981477419 S
atom 2.5177294062780393 5.0355925156339936 2.4401020981401533 S
atom 7.5533664897124675 5.0355033803815701 2.4403832648867319 S
atom -0.0000445678111440 2.5178185417294188 2.2110435860979960 S
atom 5.0355925157610990 2.5177294062880571 2.6694417769520782 S
atom -0.0001337030814470 7.5534556251343616 2.6694417769471017 S
atom 5.0355033801905709 7.5533664896930066 2.2110435860993256 S
atom 2.3794501779698050 2.5178548040956876 8.0473412244612721 Ba
atom 7.6917348534407415 2.5176040085212459 8.0473412244603413 Ba
atom 2.6560086345281255 7.5533302273208962 8.0473412244920954 Ba
atom 7.4149981260141882 7.5534027520315421 8.0473412244630769 Ba
atom 2.6560977699834392 2.5176931439005301 12.4506973001537347 Ba
atom 7.4150872614309513 2.5177656686177157 12.4506973001418793 Ba
atom 2.3793610425970044 7.5534918875285522 12.4506973001314041 Ba
atom 7.6916457179450308 7.5532410919257957 12.4506973001201402 Ba
atom 5.0355479480994827 5.0355479480556236 10.2490192621128209 Zr
atom 10.0711850315271327 5.0354588125685265 10.2490192620073728 Zr
atom 5.0354588126070521 10.0711850312274755 10.2490192623075060 Zr
atom 10.0710958961090196 10.0710958958991572 10.2490192621561071 Zr
atom 5.0354158440931709 5.2560879122024842 7.7109197555638769 S
atom 10.0713171353645663 4.8149188483173475 7.7109197556157971 S
atom 5.0355909164848214 9.8506450671793271 7.7109197553941842 S
atom 10.0709637920908222 10.2916358602153863 7.7109197555609246 S
atom 5.0356800519300666 4.8150079837230013 12.7871187692236283 S
atom 10.0710529275210696 5.2559987767892400 12.7871187692332136 S
atom 5.0353267086698175 10.2917249956678578 12.7871187692282131 S
atom 10.0712279999078742 9.8505559317423561 12.7871187691535013 S
atom 5.0355925157515848 2.5177294063048388 10.0198201667846973 S
atom 10.0712295991889782 2.5176402708823353 10.4782183576789212 S
atom 5.0355033803218516 7.5533664899515411 10.4782183576505439 S
atom 10.0711404637360822 7.5532773543082019 10.0198201668201712 S
atom 2.5177294061113171 5.0355925156737138 10.2491598456040744 S
atom 7.5533664894619079 5.0355033802467268 10.2488786788641928 S
atom 2.5176402706462948 10.0712295991141261 10.2488786788553004 S
atom 7.5532773541398219 10.0711404636757287 10.2491598456181219 S
