#=======================================================
# FHI-aims file: full_relax/full_relax_RP_5_Rx00_0-Ry0.in
# Created using the Atomic Simulation Environment (ASE)
# Fri Mar 14 11:29:58 2025
#=======================================================
lattice_vector 10.0902559446445288 0.0000000000000010 0.0000000000000004 
lattice_vector 0.0000000000000010 10.0902559446445288 -0.0000000000000000 
lattice_vector 0.0000000000000020 -0.0000000000000002 55.0660483992698957 
atom -0.1547461482139542 -0.0000000000001770 0.2828938210238031 Ba
atom 5.1998741205356449 -0.0000000000001670 0.2828938210237832 Ba
atom 0.1547461482133829 5.0451279723221356 0.2828938210238268 Ba
atom 4.8903818241083590 5.0451279723221036 0.2828938210238353 Ba
atom 0.0287300707605199 -0.0000000000001324 4.9451031682513609 Ba
atom 5.0163979015612110 -0.0000000000001042 4.9451031682513342 Ba
atom -0.0287300707610333 5.0451279723220761 4.9451031682513387 Ba
atom 5.0738580430827716 5.0451279723220610 4.9451031682513777 Ba
atom 2.5225639861608702 2.5097584767632517 2.3220797010716852 Zr
atom 7.5676919584830928 2.5353694955586481 2.3220797010716243 Zr
atom 2.5225639861608622 7.5804974678809351 2.3220797010716967 Zr
atom 7.5676919584830928 7.5548864490855250 2.3220797010715977 Zr
atom 2.5225639861608995 2.5217006001913624 7.3327344653158164 Zr
atom 7.5676919584831213 2.5234273721305760 7.3327344653158768 Zr
atom 2.5225639861608689 7.5685553444528182 7.3327344653159683 Zr
atom 7.5676919584831381 7.5668285725136517 7.3327344653158981 Zr
atom 2.5225639861608449 2.8783433549830915 -0.1584883679925846 S
atom 7.5676919584831213 2.1667846173388483 -0.1584883679925803 S
atom 2.5225639861608697 7.2119125896611687 -0.1584883679926663 S
atom 7.5676919584831088 7.9234713273053012 -0.1584883679925497 S
atom 2.5225639861608498 2.0483357511547715 4.8627099644173617 S
atom 7.5676919584831355 2.9967922211671700 4.8627099644172720 S
atom 2.5225639861608751 8.0419201934894549 4.8627099644173839 S
atom 7.5676919584831257 7.0934637234769937 4.8627099644174443 S
atom 2.5225639861608320 -0.0000000000000941 2.0058910752739854 S
atom 7.5676919584831346 -0.0000000000000813 2.7988102974391347 S
atom 2.5225639861608729 5.0451279723221809 2.7988102974391289 S
atom 7.5676919584831062 5.0451279723221214 2.0058910752739840 S
atom 2.5225639861609359 -0.0000000000001787 7.8078043890402293 S
atom 7.5676919584830893 -0.0000000000002023 6.8753024384291237 S
atom 2.5225639861608156 5.0451279723222040 6.8753024384291539 S
atom 7.5676919584832048 5.0451279723221170 7.8078043890402320 S
atom -0.0000000000002533 2.5225639861609719 2.4568214791486636 S
atom 5.0451279723220290 2.5225639861609497 2.4568214791486760 S
atom -0.0000000000001965 7.5676919584832110 2.4568214791487026 S
atom 5.0451279723220255 7.5676919584832296 2.4568214791487057 S
atom -0.0000000000002799 2.5225639861609208 7.3481310326123168 S
atom 5.0451279723220530 2.5225639861610447 7.3481310326122644 S
atom -0.0000000000002331 7.5676919584833025 7.3481310326122724 S
atom 5.0451279723220441 7.5676919584831532 7.3481310326122946 S
atom -0.0093682506227525 -0.0000000000001336 9.8299590703427064 Ba
atom 5.0544962229445369 -0.0000000000001740 9.8299590703427402 Ba
atom 0.0093682506223290 5.0451279723221232 9.8299590703427526 Ba
atom 5.0357597216994900 5.0451279723221214 9.8299590703427171 Ba
atom 0.0093682506222987 -0.0000000000001107 14.7530982507672164 Ba
atom 5.0357597216994519 -0.0000000000000888 14.7530982507672270 Ba
atom -0.0093682506227212 5.0451279723220797 14.7530982507672164 Ba
atom 5.0544962229445964 5.0451279723220663 14.7530982507672217 Ba
atom 2.5225639861608560 2.5225639861609372 12.2915286605551799 Zr
atom 7.5676919584831523 2.5225639861610079 12.2915286605550520 Zr
atom 2.5225639861608995 7.5676919584832358 12.2915286605549632 Zr
atom 7.5676919584831275 7.5676919584832198 12.2915286605549809 Zr
atom 2.5225639861608031 2.5234273721306137 17.2503228557941242 Zr
atom 7.5676919584832127 2.5217006001913242 17.2503228557940851 Zr
atom 2.5225639861608573 7.5668285725135673 17.2503228557941135 Zr
atom 7.5676919584832056 7.5685553444528972 17.2503228557940957 Zr
atom 2.5225639861609102 3.0305784610141524 9.8165910471782265 S
atom 7.5676919584830920 2.0145495113077998 9.8165910471784308 S
atom 2.5225639861608822 7.0596774836300966 9.8165910471782425 S
atom 7.5676919584831523 8.0757064333363999 9.8165910471783047 S
atom 2.5225639861608236 2.0145495113078593 14.7664662739317762 S
atom 7.5676919584831941 3.0305784610140853 14.7664662739318473 S
atom 2.5225639861608631 8.0757064333363378 14.7664662739318775 S
atom 7.5676919584831897 7.0596774836301535 14.7664662739320178 S
atom 2.5225639861608680 -0.0000000000001561 11.8151990882488107 S
atom 7.5676919584831408 -0.0000000000001717 12.7678582328611405 S
atom 2.5225639861609173 5.0451279723222662 12.7678582328611654 S
atom 7.5676919584831177 5.0451279723221845 11.8151990882487823 S
atom 2.5225639861608826 -0.0000000000001312 17.7077548826808666 S
atom 7.5676919584831603 -0.0000000000002715 16.7752529320699004 S
atom 2.5225639861609195 5.0451279723222573 16.7752529320698507 S
atom 7.5676919584831150 5.0451279723222964 17.7077548826809021 S
atom -0.0000000000002583 2.5225639861609901 12.2915286605548708 S
atom 5.0451279723221862 2.5225639861609523 12.2915286605549934 S
atom -0.0000000000002871 7.5676919584832225 12.2915286605549348 S
atom 5.0451279723221623 7.5676919584832474 12.2915286605549543 S
atom -0.0000000000001685 2.5225639861610047 17.2349262884978280 S
atom 5.0451279723220397 2.5225639861609666 17.2349262884977250 S
atom -0.0000000000002933 7.5676919584832119 17.2349262884977890 S
atom 5.0451279723220814 7.5676919584832385 17.2349262884976753 S
atom -0.0287300707610148 -0.0000000000001477 19.6379541528588248 Ba
atom 5.0738580430827209 -0.0000000000001410 19.6379541528588568 Ba
atom 0.0287300707605971 5.0451279723221116 19.6379541528588391 Ba
atom 5.0163979015612439 5.0451279723221170 19.6379541528589172 Ba
atom 0.1547461482133395 -0.0000000000001739 24.3001635000865974 Ba
atom 4.8903818241083661 -0.0000000000001697 24.3001635000866152 Ba
atom -0.1547461482138439 5.0451279723221001 24.3001635000865441 Ba
atom 5.1998741205355694 5.0451279723220717 24.3001635000866649 Ba
atom 2.5225639861608546 2.5353694955586303 22.2609776200388936 Zr
atom 7.5676919584830999 2.5097584767632406 22.2609776200390144 Zr
atom 2.5225639861608502 7.5548864490855561 22.2609776200389611 Zr
atom 7.5676919584830937 7.5804974678809156 22.2609776200388829 Zr
atom 2.5225639861609253 2.9967922211670830 19.7203473566924004 S
atom 7.5676919584830786 2.0483357511548044 19.7203473566924110 S
atom 2.5225639861609324 7.0934637234771012 19.7203473566924856 S
atom 7.5676919584830813 8.0419201934893838 19.7203473566924465 S
atom 2.5225639861608240 2.1667846173389607 24.7415456891029670 S
atom 7.5676919584831550 2.8783433549829689 24.7415456891028640 S
atom 2.5225639861608395 7.9234713273052693 24.7415456891029564 S
atom 7.5676919584831239 7.2119125896611846 24.7415456891030061 S
atom 2.5225639861608538 0.0000000000000928 21.7842470236710177 S
atom 7.5676919584831257 -0.0000000000000771 22.5771662458361675 S
atom 2.5225639861608538 5.0451279723219846 22.5771662458361213 S
atom 7.5676919584831257 5.0451279723221232 21.7842470236709786 S
atom -0.0000000000001703 2.5225639861609479 22.1262358419614635 S
atom 5.0451279723220050 2.5225639861609643 22.1262358419615524 S
atom -0.0000000000004337 7.5676919584832190 22.1262358419614920 S
atom 5.0451279723222759 7.5676919584831781 22.1262358419615310 S
atom 2.5225639861608142 2.6773101343746246 27.8159180206587529 Ba
atom 7.5676919584830573 2.3678178379473178 27.8159180206586854 Ba
atom 2.5225639861607885 7.4129458102695818 27.8159180206587067 Ba
atom 7.5676919584830467 7.7224381066968704 27.8159180206587244 Ba
atom 2.5225639861607836 2.4938339154002849 32.4781273678868772 Ba
atom 7.5676919584830964 2.5512940569218712 32.4781273678866853 Ba
atom 2.5225639861607583 7.5964220292439490 32.4781273678867919 Ba
atom 7.5676919584831346 7.5389618877224729 32.4781273678867137 Ba
atom 5.0579334817195578 5.0451279723221472 29.8551039007064070 Zr
atom 10.0774504352465559 5.0451279723221960 29.8551039007064389 Zr
atom 5.0323224629242311 10.0902559446443139 29.8551039007061227 Zr
atom 10.1030614540418782 10.0902559446442037 29.8551039007064389 Zr
atom 5.0459913582915599 5.0451279723221232 34.8657586649518194 Zr
atom 10.0893925586743798 5.0451279723220956 34.8657586649507039 Zr
atom 5.0442645863521429 10.0902559446443654 34.8657586649517697 Zr
atom 10.0911193306138625 10.0902559446443245 34.8657586649519615 Zr
atom 4.6893486034998997 5.0451279723220450 27.3745358316428842 S
atom 10.4460353134661794 5.0451279723220868 27.3745358316434242 S
atom 5.4009073411439843 10.0902559446444258 27.3745358316430227 S
atom 9.7344765758221978 10.0902559446443068 27.3745358316429446 S
atom 5.5193562073281024 5.0451279723222031 32.3957341640526550 S
atom 9.6160277096380220 5.0451279723220841 32.3957341640530601 S
atom 4.5708997373157505 10.0902559446442730 32.3957341640529179 S
atom 10.5644841796503552 10.0902559446443210 32.3957341640522216 S
atom 5.0451279723219411 2.5225639861611864 29.9898456787840964 S
atom 10.0902559446442019 2.5225639861610287 29.9898456787839578 S
atom 5.0451279723219411 7.5676919584830777 29.9898456787839223 S
atom 10.0902559446441931 7.5676919584832492 29.9898456787839649 S
atom 5.0451279723217590 2.5225639861607774 34.8811552322474938 S
atom 10.0902559446443085 2.5225639861609310 34.8811552322476999 S
atom 5.0451279723220663 7.5676919584833922 34.8811552322478420 S
atom 10.0902559446439923 7.5676919584833353 34.8811552322477141 S
atom 2.5225639861606433 5.0451279723220832 30.3318344970744356 S
atom 7.5676919584832643 5.0451279723220468 29.5389152749093320 S
atom 2.5225639861606597 10.0902559446443618 29.5389152749094137 S
atom 7.5676919584833868 10.0902559446443814 30.3318344970745208 S
atom 2.5225639861610598 5.0451279723222386 34.4083266380645014 S
atom 7.5676919584827926 5.0451279723219757 35.3408285886756417 S
atom 2.5225639861611846 10.0902559446442286 35.3408285886755991 S
atom 7.5676919584828859 10.0902559446444986 34.4083266380644517 S
atom 2.5225639861607823 2.5319322367833572 37.3629832699781730 Ba
atom 7.5676919584831293 2.5131957355383561 37.3629832699783364 Ba
atom 2.5225639861608835 7.5583237078606871 37.3629832699782867 Ba
atom 7.5676919584829765 7.5770602091058814 37.3629832699782085 Ba
atom 2.5225639861608493 2.5131957355383592 42.2861224504027575 Ba
atom 7.5676919584830120 2.5319322367834816 42.2861224504026936 Ba
atom 2.5225639861607938 7.5770602091056150 42.2861224504027433 Ba
atom 7.5676919584830662 7.5583237078607004 42.2861224504027717 Ba
atom 5.0451279723216960 5.0451279723219962 39.8245528601899608 Zr
atom 10.0902559446442943 5.0451279723219979 39.8245528601902592 Zr
atom 5.0451279723221232 10.0902559446443973 39.8245528601899750 Zr
atom 10.0902559446439621 10.0902559446443316 39.8245528601898329 Zr
atom 5.0442645863524618 5.0451279723220264 44.7833470554301556 Zr
atom 10.0911193306136866 5.0451279723219642 44.7833470554303972 Zr
atom 5.0459913582914551 10.0902559446444027 44.7833470554297080 Zr
atom 10.0893925586744473 10.0902559446443636 44.7833470554304540 Zr
atom 4.5371134974688658 5.0451279723219074 37.3496152468136415 S
atom 10.5982704194973198 5.0451279723220548 37.3496152468147216 S
atom 5.5531424471750421 10.0902559446445430 37.3496152468138618 S
atom 9.5822414697910681 10.0902559446443139 37.3496152468136273 S
atom 5.5531424471751034 5.0451279723221996 42.2994904735674027 S
atom 9.5822414697909810 5.0451279723221143 42.2994904735670474 S
atom 4.5371134974686775 10.0902559446442055 42.2994904735677437 S
atom 10.5982704194974371 10.0902559446442517 42.2994904735671042 S
atom 5.0451279723220486 2.5225639861615763 39.8245528601907779 S
atom 10.0902559446440883 2.5225639861610607 39.8245528601904937 S
atom 5.0451279723218052 7.5676919584825235 39.8245528601903089 S
atom 10.0902559446443014 7.5676919584830564 39.8245528601904510 S
atom 5.0451279723218976 2.5225639861603026 44.7679504881329535 S
atom 10.0902559446441451 2.5225639861606908 44.7679504881329464 S
atom 5.0451279723218967 7.5676919584838567 44.7679504881330104 S
atom 10.0902559446441309 7.5676919584834978 44.7679504881330104 S
atom 2.5225639861608888 5.0451279723219677 40.3008824324966284 S
atom 7.5676919584830378 5.0451279723221623 39.3482232878843803 S
atom 2.5225639861606401 10.0902559446444009 39.3482232878843377 S
atom 7.5676919584832563 10.0902559446442073 40.3008824324967989 S
atom 2.5225639861608151 5.0451279723220628 44.3082771317051396 S
atom 7.5676919584830902 5.0451279723220877 45.2407790823161946 S
atom 2.5225639861611051 10.0902559446443512 45.2407790823160880 S
atom 7.5676919584829285 10.0902559446443547 44.3082771317051751 S
atom 2.5225639861607583 2.5512940569218374 47.1709783524941386 Ba
atom 7.5676919584831337 2.4938339154001881 47.1709783524941813 Ba
atom 2.5225639861606783 7.5389618877223255 47.1709783524941386 Ba
atom 7.5676919584831435 7.5964220292439908 47.1709783524942523 Ba
atom 2.5225639861608427 2.3678178379473822 51.8331876997214422 Ba
atom 7.5676919584830484 2.6773101343745220 51.8331876997213641 Ba
atom 2.5225639861608489 7.7224381066968393 51.8331876997214351 Ba
atom 7.5676919584830715 7.4129458102696661 51.8331876997214493 Ba
atom 5.0323224629241574 5.0451279723221614 49.7940018196731771 Zr
atom 10.1030614540419190 5.0451279723221871 49.7940018196731842 Zr
atom 5.0579334817197026 10.0902559446443316 49.7940018196735394 Zr
atom 10.0774504352462930 10.0902559446442108 49.7940018196730563 Zr
atom 4.5708997373157256 5.0451279723221267 47.2533715563279486 S
atom 10.5644841796503552 5.0451279723219988 47.2533715563273731 S
atom 5.5193562073280455 10.0902559446443405 47.2533715563276857 S
atom 9.6160277096380380 10.0902559446443583 47.2533715563272452 S
atom 5.4009073411440767 5.0451279723220441 52.2745698887385544 S
atom 9.7344765758220451 5.0451279723221401 52.2745698887386752 S
atom 4.6893486034997833 10.0902559446444613 52.2745698887385117 S
atom 10.4460353134663659 10.0902559446442748 52.2745698887387817 S
atom 5.0451279723219002 2.5225639861611562 49.6592600415966672 S
atom 10.0902559446441753 2.5225639861610207 49.6592600415968946 S
atom 5.0451279723219180 7.5676919584830280 49.6592600415967311 S
atom 10.0902559446441753 7.5676919584832421 49.6592600415967453 S
atom 2.5225639861609586 5.0451279723220921 50.1101904454716092 S
atom 7.5676919584829703 5.0451279723220779 49.3172712233063137 S
atom 2.5225639861608538 10.0902559446443654 49.3172712233062569 S
atom 7.5676919584832270 10.0902559446443618 50.1101904454714742 S
