#=======================================================
# FHI-aims file: full_relax/full_relax_RP_5_RxRyRz_-Rx-Ry-Rz.in
# Created using the Atomic Simulation Environment (ASE)
# Fri Mar 14 11:36:06 2025
#=======================================================
lattice_vector 9.9964662581083061 0.0157161031589249 0.0047064703037329 
lattice_vector 0.0157161031574453 9.9964662577872261 -0.0047064723093378 
lattice_vector 0.0269928711896881 -0.0269928824183445 56.0847740478792360 
atom 0.0351411931091427 -0.1139305852271244 0.2223498941713291 Ba
atom 5.1121639730825192 -0.0272830639484514 0.2247015823917608 Ba
atom 0.1217887606740675 4.9630918765058514 0.2199963132528654 Ba
atom 5.0412323226730473 4.8921604641749230 0.2223501718617930 Ba
atom -0.2484279454260367 0.1970941183822192 4.9968873735456381 Ba
atom 4.8011392431648794 0.2562857878191408 4.9992407227036875 Ba
atom -0.1892359822228135 5.2466608792848062 4.9945341393389437 Ba
atom 4.7576633927261707 5.2031853146599767 4.9968873283579081 Ba
atom 2.4785237252676309 2.5329458380585557 2.3808178690070596 Zr
atom 7.4713790264897533 2.5354255214859021 2.3831712891638168 Zr
atom 2.4810037403747329 7.5258006009477931 2.3784649194120600 Zr
atom 7.4846149819263541 7.5390365526307246 2.3808182783825731 Zr
atom 2.4271676546902503 2.5445294511180503 7.4539767857482371 Zr
atom 7.4597945938248991 2.5867817090896366 7.4563285668975556 Zr
atom 2.4694194781034220 7.5771569333987481 7.4516224077717750 Zr
atom 7.4332587127064231 7.5506207945561368 7.4539766057618726 Zr
atom 2.6484791625347643 2.7732640837246487 -0.1253443155847359 S
atom 7.2310603120369699 2.3654698463969845 -0.1229888362747849 S
atom 2.2406851564824199 7.3558450709689289 -0.1276956813033378 S
atom 7.6545704269465666 7.7793552425408281 -0.1253440124363028 S
atom 2.2427445026460324 2.2755440422864361 4.9492088055944157 S
atom 7.7287802888702952 2.7712045601171993 4.9515604377190945 S
atom 2.7384051261675633 7.7615797453925301 4.9468540470848517 S
atom 7.2488356891010310 7.2816352449570738 4.9492088022210785 S
atom 2.7095434115545349 0.0399676338480314 2.2357531093195120 S
atom 7.1788160752582213 0.0516446589935574 2.7406899773077185 S
atom 2.1884409835535754 5.0420195951248790 2.7359835379134068 S
atom 7.7156348251412172 5.0460594926736455 2.2357528057328908 S
atom 2.9103828991131699 0.0447488105045887 7.6860730239217441 S
atom 7.0390160980661047 0.0545381857456416 7.2592176439007465 S
atom 2.0486410277823621 5.0449137556121997 7.2545111238917377 S
atom 7.9164741279890798 5.0508402568416164 7.6860731587718112 S
atom -0.0321098232268705 2.2886896509466097 2.2333996292068976 S
atom 4.9623039327309337 2.8255080571481312 2.7383367819882443 S
atom -0.0280710891853838 7.8158832484653695 2.7336302312877785 S
atom 4.9739816580124989 7.2947809012416815 2.2333995942244731 S
atom -0.0368906455225944 2.0878500530480242 7.6837199152910527 S
atom 4.9594109641583977 2.9653080127761156 7.2568645102488452 S
atom -0.0309639705636931 7.9556830732007064 7.2521578981842669 S
atom 4.9692006826504844 7.0939412155080577 7.6837198225450027 S
atom -0.0227873539128613 -0.0689989324076188 9.9981204361708027 Ba
atom 5.0672319924069749 0.0306452287814361 10.0004737085945941 Ba
atom 0.0768568768671045 5.0210204518010642 9.9957671461988546 Ba
atom 4.9833037995411162 4.9370924013713919 9.9981203444620430 Ba
atom 0.0348375563217786 0.0569484104053877 15.0397248014582452 Ba
atom 4.9412848515073833 -0.0269793973589268 15.0420780737125899 Ba
atom -0.0490902614961406 4.9633955282213060 15.0373715830827770 Ba
atom 5.0409287744766402 5.0630394572180855 15.0397248641906867 Ba
atom 2.5090704629311062 2.4970204554876196 12.5189212524522748 Zr
atom 7.5073038647245314 2.5048782934098881 12.5212748207446403 Zr
atom 2.5169287381602090 7.4952540115204940 12.5165675189202865 Zr
atom 7.5151616264829624 7.5031121644738921 12.5189207688395925 Zr
atom 2.5909735838095949 2.4495111284302449 17.5838682773505930 Zr
atom 7.5548126026064137 2.4229750124461771 17.5862230018218959 Zr
atom 2.5644377351121883 7.4133506640970337 17.5815168238675206 Zr
atom 7.5970649531953738 7.4556029595890996 17.5838688371821945 Zr
atom 2.6483544272166011 2.6977471433258358 9.9898576363844231 S
atom 7.3065771798043588 2.3655947840524885 9.9922099806676865 S
atom 2.3162020590938717 7.3559698086057814 9.9875040059055493 S
atom 7.6544455854175482 7.7038382604869993 9.9898577027417819 S
atom 2.3697867584621393 2.2962938753074966 15.0479889648990000 S
atom 7.7080304031353490 2.6441624837396875 15.0503420537117485 S
atom 2.7176553536365740 7.6345374835583675 15.0456368230873991 S
atom 7.3758779853784864 7.3023849003312602 15.0479887577858591 S
atom 2.0463811940958148 -0.0022860357915071 12.3927834216798516 S
atom 7.9621353577290410 0.0059515864200388 12.6497693224620420 S
atom 2.9717602567603127 4.9963256470212620 12.6450627138126279 S
atom 7.0524722825186430 5.0038045967177824 12.3927835386902778 S
atom 2.9695002271389632 -0.0508734906152787 17.7833338902959142 S
atom 7.0981334195357251 -0.0410837612536533 17.3564783875056143 S
atom 2.1077583056292784 4.9492915439719090 17.3517718265689744 S
atom 7.9755914992658008 4.9552180956311380 17.7833340039018069 S
atom 0.0101443231220300 2.9518520207109105 12.3904302353189131 S
atom 5.0079981636092112 2.0421890145973349 12.6474160719081183 S
atom 0.0176238161064482 7.0325639192037812 12.6427095736842130 S
atom 5.0162347793582471 7.9579431629387818 12.3904301764249052 S
atom 0.0587314381925869 2.0287329331399335 17.7809807172785384 S
atom 5.0550336671420348 2.9061909731400331 17.3541251387398212 S
atom 0.0646583664444357 7.8965658901458902 17.3494185958920717 S
atom 5.0648219139486210 7.0348240658991967 17.7809805998539971 S
atom 0.2604782262959969 -0.2091445374039642 20.0409582775197137 Ba
atom 5.2073774418204879 -0.2526200548517774 20.0433114545434883 Ba
atom 0.2170023402186944 4.7377550984124683 20.0386051143858381 Ba
atom 5.2665694224467110 4.7969467263069108 20.0409584210270353 Ba
atom -0.0230907163647362 0.1018804598674139 24.8154960412076449 Ba
atom 4.8963526289387218 0.0309488998041385 24.8178497760826566 Ba
atom -0.0940225903039804 5.0213239342123028 24.8131444790430287 Ba
atom 4.9830004104546042 5.1079715553160554 24.8154958892482576 Ba
atom 2.5396187322627513 2.4610960189471931 22.6570300940558624 Zr
atom 7.5432282197526570 2.4743307096330249 22.6593826030865912 Zr
atom 2.5528534888552863 7.4647052756998100 22.6546756377784106 Zr
atom 7.5457098641175717 7.4671863371327021 22.6570298472903531 Zr
atom 2.7753969542941088 2.7184967956012596 20.0886391252417553 S
atom 7.2858274845013229 2.2385523165217269 20.0909940282164179 S
atom 2.2954525162006032 7.2289273946214037 20.0862867882122522 S
atom 7.7814882196275690 7.7245878678221276 20.0886393666996312 S
atom 2.3696623962662340 2.2207767428396870 25.1631890914468848 S
atom 7.7835475218458736 2.6442868167705189 25.1655399691503909 S
atom 2.7931724896615790 7.6346619328540877 25.1608348101001553 S
atom 7.3757536696771266 7.2268678963922985 25.1631884889290305 S
atom 2.8297006744992017 -0.0479787631017535 22.3018608284413133 S
atom 7.2989734017599144 -0.0363010159259452 22.8067979928437765 S
atom 2.3085985009624688 4.9540731396064359 22.8020912709269723 S
atom 7.8357917962377268 4.9581123237190896 22.3018609819321334 S
atom 0.0558363238591709 2.1685325556338118 22.2995077211733630 S
atom 5.0502519468549227 2.7053508451719290 22.8044447862497037 S
atom 0.0598752616220846 7.6957259666473101 22.7997382811434619 S
atom 5.0619285330259656 7.1746236905473948 22.2995077166305293 S
atom 2.6304727133194974 2.4544077893065643 28.2647356186315655 Ba
atom 7.5499164464103474 2.3834767638078054 28.2670896837041354 Ba
atom 2.5595412122994694 7.3738518263559332 28.2623832052504866 Ba
atom 7.6365641158307227 7.4604989561299702 28.2647359753440632 Ba
atom 2.3194480515213320 2.7379767593310560 33.0392745825550094 Ba
atom 7.2663471708781611 2.6945014188236383 33.0416275379277451 Ba
atom 2.2759724057841950 7.6848765800283454 33.0369210587155777 Ba
atom 7.3255389138560414 7.7440680163354587 33.0392743426039459 Ba
atom 4.9896893294680114 5.0171178025827201 30.4232067012630480 Zr
atom 9.9932971145336253 5.0303520948446216 30.4255582646712170 Zr
atom 5.0029223857886134 10.0207269667213197 30.4208519539854052 Zr
atom 9.9957798457360738 10.0232074514922189 30.4232056565249849 Zr
atom 4.9781030958940429 5.0684734211342422 35.4963603979339766 Zr
atom 9.9419446731036540 5.0419358473959610 35.4987169902271020 Zr
atom 4.9515685098463971 10.0323116626248385 35.4940102164324429 Zr
atom 9.9841946119733276 10.0745650871529069 35.4963595085336365 Zr
atom 4.7493689258406784 4.8471610051850016 27.9170438625799733 S
atom 10.1632545949014865 5.2706713063178601 27.9193926629351914 S
atom 5.1728793597162745 10.2610464476053593 27.9146899878089592 S
atom 9.7554602739628162 9.8532521536572073 27.9170457119505500 S
atom 5.2470891663700252 5.2528954858493346 32.9915924230877593 S
atom 9.7575196796093859 4.7729511048761220 32.9939468932519588 S
atom 4.7671446489757532 9.7633264662235515 32.9892375556023367 S
atom 10.2531800686199386 10.2589864037749106 32.9915931269670821 S
atom 4.6971248449298377 2.5333353670243026 30.7807245431695513 S
atom 10.2243182807946571 2.5373728999305589 30.2804940898609729 S
atom 5.2339431289645368 7.5277496777404904 30.2757877028785884 S
atom 9.7032160556003682 7.5394310495562040 30.7807245161261598 S
atom 4.5573252806101152 2.5362308613038875 35.2992524684483371 S
atom 10.4251582939074954 2.5421569768602037 35.7308138712901098 S
atom 5.4347834991804396 7.5325297130974818 35.7261082642982046 S
atom 9.5634162850611872 7.5423209938662090 35.2992518034650615 S
atom 2.4806147641289784 5.3071991578373545 30.7783715358297982 S
atom 7.4826648675164860 4.7860967648514148 30.2781409213089958 S
atom 2.4922892514422270 9.7764721086212294 30.2734341752382470 S
atom 7.4867062565298861 10.3132902051226445 30.7783710740683318 S
atom 2.4777197876382369 5.4469988973588492 35.2968992019862711 S
atom 7.4778821767407937 4.5852571476830848 35.7284611534217476 S
atom 2.4875085210111938 9.5756320086987063 35.7237545920345454 S
atom 7.4838111600082051 10.4530902961333236 35.2968988748542074 S
atom 2.5855406756740034 2.5123362904091922 38.0405076451505195 Ba
atom 7.4919880103434302 2.4284083365495786 38.0428609762413785 Ba
atom 2.5016128047834569 7.4187835029581493 38.0381542141296976 Ba
atom 7.5916317185096274 7.5184275190736507 38.0405076402427511 Ba
atom 2.4595932326214833 2.4547113014955273 43.0821119333992897 Ba
atom 7.5496131847283925 2.5543556688141247 43.0844650802695526 Ba
atom 2.5592375460149963 7.5447309375768690 43.0797587980647023 Ba
atom 7.4656850986397840 7.4608028010114520 43.0821119311632543 Ba
atom 5.0256126468072972 4.9865690036326056 40.5613102926917506 Zr
atom 10.0238459703218012 4.9944277823801491 40.5636645103863884 Zr
atom 5.0334713749903068 9.9848034823791938 40.5589581111772048 Zr
atom 10.0317037506159146 9.9926607650880506 40.5613114717891321 Zr
atom 5.0731226720221736 4.9046669752925061 45.6262579766251335 Zr
atom 10.1057480133907429 4.9469177596176159 45.6286074498426615 Zr
atom 5.1153727584573723 9.9372934415589835 45.6239024598903740 Zr
atom 10.0792136571788973 9.9107582518565849 45.6262556751937325 Zr
atom 4.8248862849963929 4.8472857995018055 38.0322432513494206 S
atom 10.1631298045726020 5.1951543445133801 38.0345963101333311 S
atom 5.1727547253457615 10.1855294498376292 38.0298894402049399 S
atom 9.8309771964674582 9.8533766291069078 38.0322463018421644 S
atom 5.2263392153882755 5.1258536249208326 43.0903777276871693 S
atom 9.8845621901214251 4.7937012297005905 43.0927311151487586 S
atom 4.8941871172277605 9.7840762993044539 43.0880237369534598 S
atom 10.2324304269833011 10.1319445696985433 43.0903784240259924 S
atom 5.4804441998149587 2.4876421642347819 40.6898024193479699 S
atom 9.5611561461882886 2.4951227004237357 40.4375223780031732 S
atom 4.5707811489748593 7.4854957041885104 40.4328165612908137 S
atom 10.4865355093211043 7.4937317075376573 40.6898017836463097 S
atom 4.6164424136294295 2.4406055465782321 45.3965122218172823 S
atom 10.4842753031741651 2.4465339266673478 45.8280741740514088 S
atom 5.4939002313376974 7.4369096507953962 45.8233676186129770 S
atom 9.6225333928628771 7.4466986475391046 45.3965121659434345 S
atom 2.5263066986460152 4.5238802664996758 40.6874489648169657 S
atom 7.5249194682600908 5.4492593824871971 40.4351694885742035 S
atom 2.5345445142472411 10.4396344947422843 40.4304628890957645 S
atom 7.5323970146845616 9.5299711550505073 40.6874488242656440 S
atom 2.5733419844222012 5.3878821791709983 45.3941586880454651 S
atom 7.5735061727055148 4.5261403059270071 45.8257206444357124 S
atom 2.5831321131174532 9.5165154267449541 45.8210145200562948 S
atom 7.5794333531310905 10.3939731103326061 45.3941592517188042 S
atom 2.7256864257938433 2.2290711176298119 48.0833455630310524 Ba
atom 7.7752532890500818 2.2882627293314792 48.0856989650841555 Ba
atom 2.7848785679807286 7.2786376779449196 48.0809925471219017 Ba
atom 7.7317772711746899 7.2351621489678157 48.0833457437883212 Ba
atom 2.4146622018644690 2.5126400350644822 52.8578824860565746 Ba
atom 7.4916838935486059 2.5992869453038092 52.8602351901322862 Ba
atom 2.5013093731649332 7.5896622422315447 52.8555287071215076 Ba
atom 7.4207526908270083 7.5187313123295585 52.8578821422734890 Ba
atom 5.0615370814490657 4.9560224707625187 50.6994150194502993 Zr
atom 10.0543945947453004 4.9585029536916183 50.7017659512237771 Zr
atom 5.0640196214127977 9.9488772088433528 50.6970597127180795 Zr
atom 10.0676275118642131 9.9621129769936605 50.6994147535821611 Zr
atom 4.8041364921872596 4.7202434861700837 48.1310256324045724 S
atom 10.2901722046014807 5.2159039081039333 48.1333790360800577 S
atom 5.2997969851594053 10.2062790815370104 48.1286692310302584 S
atom 9.8102275720673084 9.7263345214813359 48.1310246490816027 S
atom 5.3018566631236030 5.1259779181942724 53.2055741751250295 S
atom 9.8844374468458955 4.7181838280513784 53.2079331759625589 S
atom 4.8940621462004952 9.7085587551781956 53.2032293627663506 S
atom 10.3079477520591478 10.1320691885305489 53.2055762652800510 S
atom 4.8172819274971292 2.4453915144831355 50.8468326492267195 S
atom 10.3444758889794475 2.4494289051999334 50.3466016512548293 S
atom 5.3541009325594553 7.4398019732765430 50.3418952040372218 S
atom 9.8233733848485869 7.4514806186075955 50.8468324863375400 S
atom 2.5685586923751220 5.1870419472808633 50.8444792964511549 S
atom 7.5706127266043550 4.6659396957253119 50.3442485496206515 S
atom 2.5802359725527872 9.6563146953672483 50.3395417319257419 S
atom 7.5746526327801886 10.1931333575557037 50.8444793350948174 S
