#=======================================================
# FHI-aims file: full_relax/full_relax_RP_6_RxRyMz_RxRyMz.in
# Created using the Atomic Simulation Environment (ASE)
# Fri Mar 14 11:45:50 2025
#=======================================================
lattice_vector 10.0154263295004000 -0.0618600431934750 -0.0000000000000009 
lattice_vector -0.0618600431934753 10.0154263295004000 0.0000000000000039 
lattice_vector -0.0000000000000058 0.0000000000000256 65.8604038950032589 
atom 0.1277247176701491 -0.1698932217803160 0.2156198524595707 Ba
atom 5.1776063865245741 -0.1586547392664105 0.2156198524533045 Ba
atom 0.1389632001837815 4.8799884470817885 0.2156198524594599 Ba
atom 5.1045078608191909 4.8068899213745082 0.2156198524612591 Ba
atom -0.2624414813064722 0.1886586718954309 5.0013318786764831 Ba
atom 4.8190544928497303 0.2315114597147906 5.0013318786761980 Ba
atom -0.2195886934877823 5.2701546460580655 5.0013318786778722 Ba
atom 4.7143416618375227 5.1654418150465293 5.0013318786770631 Ba
atom 2.5029355395854678 2.4805152715003000 2.3942650759283497 Zr
atom 7.5039810364076018 2.4429175819847675 2.3942650759166857 Zr
atom 2.4653378500645742 7.4815607683082641 2.3942650759210324 Zr
atom 7.4797186827310567 7.4572984146334473 2.3942650759177631 Zr
atom 2.4793923450419477 2.4930206239898869 7.4465526749402562 Zr
atom 7.4914756839200853 2.4664607765312168 7.4465526749566244 Zr
atom 2.4528324975839566 7.5051039628498586 7.4465526749318549 Zr
atom 7.4561754881887738 7.4698037671172921 7.4465526749599960 Zr
atom 2.6637895216923617 2.7426262002965949 -0.1117460375367114 S
atom 7.2418701076056982 2.2820635998608081 -0.1117460375258863 S
atom 2.2032269212543092 7.3207067862105504 -0.1117460375429194 S
atom 7.6405726648456476 7.7194093434523428 -0.1117460375177586 S
atom 2.2341450746129876 2.1815407055824325 4.9531747416058902 S
atom 7.8029556023158317 2.7117080469383956 4.9531747416020240 S
atom 2.7643124159688615 7.7503512332893818 4.9531747416353404 S
atom 7.2109282177689895 7.1583238487422500 4.9531747415838447 S
atom 2.7856968332520351 -0.0138404541696725 2.2204224160246442 S
atom 7.1905714564746273 -0.0416052613508474 2.7731918563204463 S
atom 2.1519282701239892 4.9970379249993275 2.7731918563189826 S
atom 7.7624799764017789 4.9629426889844979 2.2204224160299790 S
atom 2.8926408672592911 -0.0154721026794495 7.7779580227611032 S
atom 7.1305411969855070 -0.0428669193773062 7.1527571739811719 S
atom 2.0918980106388507 4.9957762669820811 7.1527571739837672 S
atom 7.8694240104117270 4.9613110404846470 7.7779580227587211 S
atom -0.0170895674305294 2.2220163314959485 2.2204224160268562 S
atom 4.9874583829059516 2.7939248514263380 2.7731918563192486 S
atom -0.0511848034890921 7.8325680377786622 2.7731918563200524 S
atom 4.9596935757786236 7.1987994746522421 2.2204224160271862 S
atom -0.0154579189467505 2.1150722974864142 7.7779580227604459 S
atom 4.9887200409503061 2.8539551109129340 7.1527571739822280 S
atom -0.0499231453941547 7.8925982972652760 7.1527571739828755 S
atom 4.9613252242023060 7.0918554406481036 7.7779580227594796 S
atom 0.2801955792839586 -0.1826587512527248 9.9711059192050140 Ba
atom 5.1903719160059545 -0.3111256008850484 9.9711059192039393 Ba
atom 0.1517287296546714 4.7275175854604603 9.9711059192041507 Ba
atom 5.2569787224427174 4.7941243918975101 9.9711059192033833 Ba
atom -0.2791774369368881 0.1807955962100062 14.9682736125210649 Ba
atom 4.8269175685374881 0.2482474153340506 14.9682736125218963 Ba
atom -0.2117256178135782 5.2868906016867108 14.9682736125214930 Ba
atom 4.6976057062186536 5.1575787393711012 14.9682736125222196 Ba
atom 2.4920153822414406 2.4865068406210700 12.4614568200718487 Zr
atom 7.4979894672937570 2.4538377393261221 12.4614568200777125 Zr
atom 2.4593462809499007 7.4924809256495202 12.4614568200974603 Zr
atom 7.4687985253937290 7.4632899837488713 12.4614568200888503 Zr
atom 2.4920153822445217 2.4865068406214315 17.4750904049554521 Zr
atom 7.4979894672909460 2.4538377393276116 17.4750904049383742 Zr
atom 2.4593462809528077 7.4924809256496259 17.4750904049454618 Zr
atom 7.4687985253892899 7.4632899837530484 17.4750904049686007 Zr
atom 2.7551500206685704 2.8192070575858330 9.9621803005827978 S
atom 7.1652892503144834 2.1907031008834807 9.9621803005649348 S
atom 2.1266460639676343 7.2293462872352894 9.9621803005584848 S
atom 7.7319331638240687 7.7959902007442761 9.9621803005712639 S
atom 2.2210508411415870 2.1542897326332855 14.9682736124160947 S
atom 7.8302065752680985 2.7248022804100063 14.9682736124186846 S
atom 2.7915633889200921 7.7634454667632236 14.9682736124004148 S
atom 7.1978339842950589 7.1310728757878836 14.9682736123808340 S
atom 2.8853400281317825 -0.0184562610838024 12.1485875766385760 S
atom 7.1317818172584273 -0.0462685813172126 12.7892163906763621 S
atom 2.0931386309150382 4.9923746050271216 12.7892163906726370 S
atom 7.8621231712840123 4.9583268820670598 12.1485875766415177 S
atom 2.8853400281363939 -0.0184562610692625 17.7879596483570772 S
atom 7.1317818172497054 -0.0462685812827718 17.1473308342912851 S
atom 2.0931386309068065 4.9923746050126505 17.1473308342942516 S
atom 7.8621231712937156 4.9583268820298168 17.7879596483573685 S
atom -0.0124737605043900 2.1223731366146703 12.1485875766392954 S
atom 4.9921217028648082 2.8527144906392814 12.7892163906741061 S
atom -0.0465214834740835 7.8913576769918112 12.7892163906751151 S
atom 4.9643093826402431 7.0991562797733572 12.1485875766405620 S
atom -0.0124737605071093 2.1223731366104808 17.7879596483562352 S
atom 4.9921217028679621 2.8527144906448534 17.1473308342946176 S
atom -0.0465214834556760 7.8913576770023157 17.1473308342907664 S
atom 4.9643093826224867 7.0991562797647951 17.7879596483584592 S
atom 0.2801955792836786 -0.1826587512640308 19.9654413057461788 Ba
atom 5.1903719160108146 -0.3111256008954527 19.9654413057463671 Ba
atom 0.1517287296571319 4.7275175854667424 19.9654413057452942 Ba
atom 5.2569787224426987 4.7941243919050152 19.9654413057449887 Ba
atom -0.2624414813130159 0.1886586718883539 24.9352153463303203 Ba
atom 4.8190544928616710 0.2315114597075673 24.9352153463298905 Ba
atom -0.2195886934928073 5.2701546460601270 24.9352153463265473 Ba
atom 4.7143416618473060 5.1654418150481893 24.9352153463270056 Ba
atom 2.4793923450359903 2.4930206239809052 22.4899945498974141 Zr
atom 7.4914756839276828 2.4664607765338844 22.4899945499275091 Zr
atom 2.4528324975879765 7.5051039628634744 22.4899945499126055 Zr
atom 7.4561754881805502 7.4698037671193855 22.4899945498883085 Zr
atom 2.5029355395685196 2.4805152714692933 27.5422821492406058 Zr
atom 7.5039810364145216 2.4429175819869586 27.5422821492407230 Zr
atom 2.4653378500779595 7.4815607683416658 27.5422821492428938 Zr
atom 7.4797186827142399 7.4572984146307526 27.5422821492281180 Zr
atom 2.7551500206639141 2.8192070575816204 19.9743669245719779 S
atom 7.1652892503188390 2.1907031008900568 19.9743669245953264 S
atom 2.1266460639703855 7.2293462872383358 19.9743669245977706 S
atom 7.7319331638210924 7.7959902007451412 19.9743669245823696 S
atom 2.2341450746089020 2.1815407055849083 24.9833724833751987 S
atom 7.8029556023191518 2.7117080469442723 24.9833724832995152 S
atom 2.7643124159703563 7.7503512332938644 24.9833724833179289 S
atom 7.2109282177621878 7.1583238487354359 24.9833724833791244 S
atom 2.8926408672499742 -0.0154721026693574 22.1585892022654605 S
atom 7.1305411969868704 -0.0428669193376525 22.7837900510252069 S
atom 2.0918980106421512 4.9957762669691297 22.7837900510245106 S
atom 7.8694240104068047 4.9613110404426832 22.1585892022658868 S
atom 2.7856968332444270 -0.0138404541223801 27.7161248089364598 S
atom 7.1905714564712122 -0.0416052613724886 27.1633553686399409 S
atom 2.1519282701252695 4.9970379249538306 27.1633553686406302 S
atom 7.7624799764024237 4.9629426890076740 27.7161248089385879 S
atom -0.0154579189540525 2.1150722974984926 22.1585892022656559 S
atom 4.9887200409586798 2.8539551109087977 22.7837900510231748 S
atom -0.0499231453724715 7.8925982972631292 22.7837900510260241 S
atom 4.9613252241844723 7.0918554406521075 22.1585892022655173 S
atom -0.0170895673500655 2.2220163314986952 27.7161248089381651 S
atom 4.9874583828394998 2.7939248514296628 27.1633553686419695 S
atom -0.0511848034752223 7.8325680377773850 27.1633553686396603 S
atom 4.9596935757658489 7.1987994746504969 27.7161248089380479 S
atom 0.1277247176679938 -0.1698932217855291 29.7209273725523460 Ba
atom 5.1776063865334816 -0.1586547392668087 29.7209273725493865 Ba
atom 0.1389632001828364 4.8799884470822761 29.7209273725596290 Ba
atom 5.1045078608240191 4.8068899213699536 29.7209273725470666 Ba
atom 2.6637895216860703 2.7426262002914621 30.0482932624176726 S
atom 7.2418701076056395 2.2820635998661651 30.0482932624574239 S
atom 2.2032269212605775 7.3207067862115895 30.0482932624508194 S
atom 7.6405726648409855 7.7194093434462916 30.0482932624344308 S
atom 2.6161162892369005 2.3184983497883844 33.1458217999166393 Ba
atom 7.6659979581201032 2.3297368323130012 33.1458217999140530 Ba
atom 2.6273547717583061 7.3683800186592361 33.1458217999174707 Ba
atom 7.5928994324040957 7.2952814929403154 33.1458217999244340 Ba
atom 2.2259500902612803 2.6770502434737256 37.9315338261839798 Ba
atom 7.3074460644427957 2.7199030312930121 37.9315338261840083 Ba
atom 2.2688028780853862 7.7585462176254945 37.9315338261794182 Ba
atom 7.2027332334256249 7.6538333866120007 37.9315338261791553 Ba
atom 4.9913271111534119 4.9689068430738983 35.3244670232370126 Zr
atom 9.9923726079766109 4.9313091535848175 35.3244670232365578 Zr
atom 4.9537294216607588 9.9699523398964338 35.3244670232192988 Zr
atom 9.9681102542841877 9.9456899861905939 35.3244670232162790 Zr
atom 4.9677839166056739 4.9814121955426724 40.3767546226718252 Zr
atom 9.9798672555153161 4.9548523481064821 40.3767546225937437 Zr
atom 4.9412240691702953 9.9934955344567804 40.3767546226487966 Zr
atom 9.9445670597492892 9.9581953386994524 40.3767546226410232 Zr
atom 5.1521810932577257 5.2310177718651909 32.8184559101279802 S
atom 9.7302616791824867 4.7704551714408838 32.8184559100654027 S
atom 4.6916184928397904 9.8090983577948982 32.8184559101165050 S
atom 10.1289642364178718 10.2078009150231335 32.8184559101136628 S
atom 4.7225366461818101 4.6699322771554765 37.8833766890144048 S
atom 10.2913471739005651 5.2000996185245318 37.8833766891345860 S
atom 5.2527039875480952 10.2387428048728655 37.8833766890652655 S
atom 9.6993197893386132 9.6467154203157151 37.8833766890863473 S
atom 5.2740884048153527 2.4745511174173287 35.1506243635729447 S
atom 9.6789630280473986 2.4467863101725986 35.7033938038581482 S
atom 4.6403198417058977 7.4854294965614221 35.7033938038540199 S
atom 10.2508715479780257 7.4513342606158179 35.1506243635649795 S
atom 5.3810324388304540 2.4729194688838669 40.7081599702262409 S
atom 9.6189327685651413 2.4455246521782419 40.0829591214630554 S
atom 4.5802895822120995 7.4841678385687054 40.0829591214572005 S
atom 10.3578155819805851 7.4497026120782772 40.7081599702269656 S
atom 2.4713020042662679 4.7104079030712764 35.1506243635664504 S
atom 7.4758499543832269 5.2823164230033779 35.7033938038542971 S
atom 2.4372067681370311 10.3209596093532383 35.7033938038568124 S
atom 7.4480851473034280 9.6871910462386204 35.1506243635705786 S
atom 2.4729336526122596 4.6034638690723968 40.7081599702282588 S
atom 7.4771116125436903 5.3423466824943997 40.0829591214606822 S
atom 2.4384684261565521 10.3809898688380198 40.0829591214601137 S
atom 7.4497167958089561 9.5802470122286483 40.7081599702247274 S
atom 2.7685871508702586 2.3057328203234202 42.9013078667463077 Ba
atom 7.6787634875769033 2.1772659706910984 42.9013078667464072 Ba
atom 2.6401203012449708 7.2159091570317679 42.9013078667451992 Ba
atom 7.7453702940097138 7.2825159634704910 42.9013078667449790 Ba
atom 2.2092141346324152 2.6691871677999779 47.8984755599860463 Ba
atom 7.3153091401183490 2.7366389869211383 47.8984755599857337 Ba
atom 2.2766659537605132 7.7752821732535091 47.8984755599866290 Ba
atom 7.1859972777973873 7.6459703109360886 47.8984755599878014 Ba
atom 4.9804069538218974 4.9748984121861053 45.3916587675432552 Zr
atom 9.9863810388723646 4.9422293108831115 45.3916587676185586 Zr
atom 4.9477378525201212 9.9808724972413909 45.3916587675625465 Zr
atom 9.9571900969714608 9.9516815553507918 45.3916587675695027 Zr
atom 4.9804069538284486 4.9748984121901429 50.4052923523265974 Zr
atom 9.9863810388604577 4.9422293108840902 50.4052923523305907 Zr
atom 4.9477378525193503 9.9808724972298126 50.4052923523516228 Zr
atom 9.9571900969760705 9.9516815553491327 50.4052923523744667 Zr
atom 5.2435415922420576 5.3075986291652546 42.8923822479266335 S
atom 9.6536808218950316 4.6790946724663982 42.8923822479129839 S
atom 4.6150376355472238 9.7177378588159424 42.8923822479315220 S
atom 10.2203247353946161 10.2843817723132833 42.8923822478949006 S
atom 4.7094424127207519 4.6426813042114681 47.8984755600773227 S
atom 10.3185981468480161 5.2131938519912335 47.8984755599751750 S
atom 5.2799549604952496 10.2518370383346760 47.8984755600168839 S
atom 9.6862255558724097 9.6194644473667257 47.8984755600568519 S
atom 5.3737315997142998 2.4699353104547153 45.0787895241367238 S
atom 9.6201733888305530 2.4421229902642740 45.7194183381919288 S
atom 4.5815302024819955 7.4807661766406612 45.7194183381945152 S
atom 10.3505147428679507 7.4467184536366915 45.0787895241341445 S
atom 5.3737315997086226 2.4699353105122728 50.7181615958664409 S
atom 9.6201733888327698 2.4421229901860944 50.0775327818143765 S
atom 4.5815302024887599 7.4807661765859645 50.0775327818170624 S
atom 10.3505147428692990 7.4467184537161515 50.7181615958700434 S
atom 2.4759178110457434 4.6107647081887064 45.0787895241335974 S
atom 7.4805132744647942 5.3411060622277828 45.7194183381923906 S
atom 2.4418700881228617 10.3797492485679967 45.7194183381933783 S
atom 7.4527009541987264 9.5875478513427410 45.0787895241375622 S
atom 2.4759178111455382 4.6107647081831438 50.7181615958700434 S
atom 7.4805132743681373 5.3411060622268804 50.0775327818137157 S
atom 2.4418700880835722 10.3797492485674390 50.0775327818175882 S
atom 7.4527009542352820 9.5875478513433983 50.7181615958668033 S
atom 2.7685871508542856 2.3057328203200043 52.8956432532535388 Ba
atom 7.6787634875898458 2.1772659706892625 52.8956432532515137 Ba
atom 2.6401203012209269 7.2159091570413230 52.8956432532545193 Ba
atom 7.7453702940271336 7.2825159634777883 52.8956432532506753 Ba
atom 2.2259500902680678 2.6770502434605508 57.8654172938396627 Ba
atom 7.3074460644299624 2.7199030312761474 57.8654172938415599 Ba
atom 2.2688028780802325 7.7585462176457050 57.8654172938384050 Ba
atom 7.2027332334217888 7.6538333866385102 57.8654172938411619 Ba
atom 4.9677839165992701 4.9814121955512425 55.4201964975144818 Zr
atom 9.9798672555145060 4.9548523481038620 55.4201964974782157 Zr
atom 4.9412240691549227 9.9934955344421628 55.4201964975373116 Zr
atom 9.9445670597717903 9.9581953386917323 55.4201964975128192 Zr
atom 4.9913271111374282 4.9689068430490311 60.4724840966588673 Zr
atom 9.9923726080060824 4.9313091535670646 60.4724840966617947 Zr
atom 4.9537294216483572 9.9699523399116554 60.4724840966352275 Zr
atom 9.9681102543006190 9.9456899861972925 60.4724840966118293 Zr
atom 5.2435415922444362 5.3075986291616708 52.9045688720791887 S
atom 9.6536808218853292 4.6790946724607609 52.9045688721593308 S
atom 4.6150376355452032 9.7177378588080376 52.9045688720829901 S
atom 10.2203247354009505 10.2843817723202466 52.9045688720067417 S
atom 4.7225366461929417 4.6699322771674998 57.9135744307952507 S
atom 10.2913471738886422 5.2000996185146011 57.9135744307836546 S
atom 5.2527039875454298 10.2387428048660247 57.9135744307587998 S
atom 9.6993197893420113 9.6467154203136971 57.9135744308609048 S
atom 5.3810324388268773 2.4729194689311655 55.0887911497474718 S
atom 9.6189327685602262 2.4455246522658403 55.7139919985065291 S
atom 4.5802895822262313 7.4841678385214436 55.7139919985012995 S
atom 10.3578155819842159 7.4497026119984060 55.0887911497457949 S
atom 5.2740884048286301 2.4745511174530828 60.6463267564655268 S
atom 9.6789630280461907 2.4467863102247547 60.0935573161595187 S
atom 4.6403198416998697 7.4854294965319719 60.0935573161599876 S
atom 10.2508715479780257 7.4513342605648782 60.6463267564610575 S
atom 2.4729336526449766 4.6034638690771779 55.0887911497497811 S
atom 7.4771116125132604 5.3423466824822503 55.7139919985010508 S
atom 2.4384684262251750 10.3809898688377782 55.7139919985061454 S
atom 7.4497167957378014 9.5802470122246959 55.0887911497437130 S
atom 2.4713020041784990 4.7104079030742252 60.6463267564613631 S
atom 7.4758499544570336 5.2823164230069892 60.0935573161586731 S
atom 2.4372067680781671 10.3209596093575104 60.0935573161616290 S
atom 7.4480851473679799 9.6871910462231945 60.6463267564658608 S
atom 2.6161162892510594 2.3184983497983955 62.6511293200270245 Ba
atom 7.6659979580993403 2.3297368323094436 62.6511293200278203 Ba
atom 2.6273547717593266 7.3683800186549400 62.6511293200289643 Ba
atom 7.5928994323983741 7.2952814929510774 62.6511293200266479 Ba
atom 5.1521810932684184 5.2310177718728115 62.9784952099964457 S
atom 9.7302616791798275 4.7704551714389352 62.9784952100113955 S
atom 4.6916184928313651 9.8090983577847588 62.9784952100414657 S
atom 10.1289642364205434 10.2078009150279723 62.9784952100150122 S
