#=======================================================
# FHI-aims file: full_relax/full_relax_RP_8_Rx1Ry20_-Rx2-Ry10.in
# Created using the Atomic Simulation Environment (ASE)
# Mon Mar 24 15:57:37 2025
#=======================================================
lattice_vector 10.0759160091764031 0.0373200037531839 0.0000000000000001 
lattice_vector 0.0373200037531838 10.0759160091762467 0.0000000000000033 
lattice_vector 0.0000000000000013 0.0000000000000287 84.9671153103796541 
atom -0.1633631765292447 -0.0191687477795285 0.2853248578045906 Ba
atom 5.2013211811215259 0.0378287496607046 0.2853248577380726 Ba
atom 0.1820231784127961 5.0571267523643284 0.2853248577940150 Ba
atom 4.8932548299270797 5.0374492586782820 0.2853248578367159 Ba
atom 0.0241375393972554 -0.0311676226878492 4.9551595704651241 Ba
atom 5.0138204651892142 0.0498276245692771 4.9551595704675302 Ba
atom -0.0054775375184958 5.0691256272749952 4.9551595704661660 Ba
atom 5.0807555458548572 5.0254503837715490 4.9551595704617348 Ba
atom 2.5226852895953873 2.5074018965583593 2.3411914396892617 Zr
atom 7.5718907214545030 2.5678761117565396 2.3411914396637696 Zr
atom 2.5525927187510229 7.5871741144911535 2.3411914396714204 Zr
atom 7.5793032960546665 7.5640199030572397 2.3411914396763307 Zr
atom 2.5330247916773572 2.5278079017058710 7.3588983149842440 Zr
atom 7.5615512193735137 2.5474701066207510 7.3588983150536631 Zr
atom 2.5422532166610590 7.5667681093138892 7.3588983150356126 Zr
atom 7.5896427981411341 7.5844259081791181 7.3588983150299603 Zr
atom 2.5777709009602683 2.8079963288174015 -0.1391810909225944 S
atom 7.5168051100753033 2.2672816794966328 -0.1391810909588662 S
atom 2.4975071073751041 7.2865796822324205 -0.1391810909731175 S
atom 7.6343889074136477 7.8646143353041893 -0.1391810909329286 S
atom 2.4234016545604140 2.0772139686223801 4.8864278551974216 S
atom 7.6711743564897406 2.9980640397183826 4.8864278553559206 S
atom 2.6518763537736811 8.0173620424196059 4.8864278553166089 S
atom 7.4800196610299921 7.1338319750928720 4.8864278553377147 S
atom 2.5189790022956493 0.0093300009279300 2.0531833664717660 S
atom 7.5569370068736674 0.0279900027720314 2.7755708669053298 S
atom 2.5376390041622421 5.0472880055153251 2.7755708669320396 S
atom 7.5755970087599751 5.0659480074039136 2.0531833664519130 S
atom 2.5189790022937539 0.0093300009846050 7.8213390774837119 S
atom 7.5569370068817614 0.0279900028107872 6.9117760830554289 S
atom 2.5376390041710870 5.0472880055388165 6.9117760830818522 S
atom 7.5755970087576978 5.0659480074009533 7.8213390774525955 S
atom 0.0093300009009678 2.5189790022986012 2.3913765080609255 S
atom 5.0472880055585243 2.5376390041648000 2.5564861702495763 S
atom 0.0279900028278942 7.5569370068837136 2.5564861702489945 S
atom 5.0659480073865426 7.5755970087709086 2.3913765080486971 S
atom 0.0093300009251525 2.5189790022941074 7.5236155640816404 S
atom 5.0472880055312990 2.5376390041699204 7.2218929541271892 S
atom 0.0279900028183088 7.5569370068753257 7.2218929541044803 S
atom 5.0659480073954759 7.5755970087531663 7.5236155640631077 S
atom -0.0042635517661491 0.0640116736429243 9.8559154997077894 Ba
atom 5.0422215563480153 -0.0453516717844065 9.8559154997080149 Ba
atom 0.0229235536060804 4.9739463309413665 9.8559154997080789 Ba
atom 5.0523544547304660 5.1206296801261884 9.8559154997084697 Ba
atom 0.0029156608248990 -0.0717888518870011 14.8050915426420175 Ba
atom 5.0350423437605114 0.0904488537595365 14.8050915426436820 Ba
atom 0.0157443410587258 5.1097468564748727 14.8050915426484639 Ba
atom 5.0595336672800766 4.9848291545794350 14.8050915426490217 Ba
atom 2.5264723617033384 2.5296866000600313 12.3208355466801578 Zr
atom 7.5681036493448248 2.5455914082597202 12.3208355465768662 Zr
atom 2.5488056466339453 7.5648894109854865 12.3208355466169355 Zr
atom 7.5830903681641342 7.5863046065108799 12.3208355466389818 Zr
atom 2.5287930407892505 2.5280869468055287 17.2803680023650514 Zr
atom 7.5657829702681454 2.5471910615034297 17.2803680022835771 Zr
atom 2.5464849675583117 7.5664890642190015 17.2803680023020441 Zr
atom 7.5854110472541452 7.5847049532676731 17.2803680023175055 Zr
atom 2.6817222408982540 3.0133196329630523 9.8459417683287622 S
atom 7.4128537701594057 2.0619583753815056 9.8459417684198076 S
atom 2.3935557674478476 7.0812563780855475 9.8459417684076325 S
atom 7.7383402473589875 8.0699376394229407 9.8459417683938391 S
atom 2.3497785855344566 2.0495024510171209 14.8023180884609644 S
atom 7.7447974255151237 3.0257755573061722 14.8023180882975094 S
atom 2.7254994228037819 8.0450735600226526 14.8023180883141752 S
atom 7.4063965919999415 7.1061204574753285 14.8023180881919973 S
atom 2.5189790022924390 0.0093300009915734 11.8650480469495534 S
atom 7.5569370068790152 0.0279900028493100 12.7904807497370285 S
atom 2.5376390041723633 5.0472880054531197 12.7904807497163091 S
atom 7.5755970087557740 5.0659480074178633 11.8650480469818937 S
atom 2.5189790022919807 0.0093300009520133 17.7416941306252447 S
atom 7.5569370068858479 0.0279900028132726 16.8222828517547818 S
atom 2.5376390041693018 5.0472880056046145 16.8222828517419742 S
atom 7.5755970087580913 5.0659480075112153 17.7416941306471969 S
atom 0.0093300009448414 2.5189790022934564 12.1304523600190137 S
atom 5.0472880055136287 2.5376390041695687 12.5204632723714635 S
atom 0.0279900028633074 7.5569370068742225 12.5204632723886835 S
atom 5.0659480073532652 7.5755970087524336 12.1304523600369087 S
atom 0.0093300008808418 2.5189790022748468 17.4927859216400421 S
atom 5.0472880055707483 2.5376390041493462 17.0689549395017828 S
atom 0.0279900027820026 7.5569370068648132 17.0689549395256819 S
atom 5.0659480074161261 7.5755970087429487 17.4927859216645984 S
atom -0.0018039827284698 0.0732821644827159 19.7597942582348942 Ba
atom 5.0397619873207464 -0.0546221625886321 19.7597942582356687 Ba
atom 0.0204639846432515 4.9646758401025748 19.7597942582402375 Ba
atom 5.0548140236956876 5.1299001709219816 19.7597942582392996 Ba
atom 0.0029156608550082 -0.0717888518765765 24.7144969738229001 Ba
atom 5.0350423437330045 0.0904488537501240 24.7144969738220794 Ba
atom 0.0157443410081176 5.1097468564596396 24.7144969738202853 Ba
atom 5.0595336673327838 4.9848291545884038 24.7144969738198270 Ba
atom 2.5287930407804882 2.5280869468170284 22.2392205141967487 Zr
atom 7.5657829702765724 2.5471910615289235 22.2392205143328674 Zr
atom 2.5464849675612626 7.5664890642234948 22.2392205142708228 Zr
atom 7.5854110472435972 7.5847049532765061 22.2392205142704498 Zr
atom 2.5264723616976008 2.5296866000564400 27.1987529697311672 Zr
atom 7.5681036493488687 2.5455914082813607 27.1987529697242394 Zr
atom 2.5488056466451297 7.5648894110295783 27.1987529696831665 Zr
atom 7.5830903681653572 7.5863046065168920 27.1987529698120873 Zr
atom 2.7140611443036686 3.0046495845713523 19.7597942582437760 S
atom 7.3805148667413949 2.0706284237244219 19.7597942583845665 S
atom 2.3612168640323206 7.0899264264485025 19.7597942583315529 S
atom 7.7706791507717865 8.0612675910437552 19.7597942583305972 S
atom 2.3497785855571025 2.0495024510708828 24.7172704280912541 S
atom 7.7447974254860963 3.0257755572571381 24.7172704281490390 S
atom 2.7254994227756755 8.0450735599768279 24.7172704282692770 S
atom 7.4063965920209629 7.1061204575286565 24.7172704281623368 S
atom 2.5189790022885563 0.0093300009835248 21.7778943857683807 S
atom 7.5569370068825172 0.0279900027730892 22.6973056646213003 S
atom 2.5376390041668890 5.0472880055262790 22.6973056646444995 S
atom 7.5755970087567093 5.0659480074628096 21.7778943857511962 S
atom 2.5189790022920699 0.0093300009323173 27.6545404695511152 S
atom 7.5569370068776429 0.0279900028050925 26.7291077668059103 S
atom 2.5376390041708698 5.0472880054552700 26.7291077668077044 S
atom 7.5755970087513047 5.0659480074553427 27.6545404695514705 S
atom 0.0093300009367957 2.5189790022798877 22.0268025947610582 S
atom 5.0472880055140861 2.5376390041564729 22.4506335768978502 S
atom 0.0279900028793051 7.5569370068721735 22.4506335768757452 S
atom 5.0659480073278269 7.5755970087512337 22.0268025947378590 S
atom 0.0093300009348299 2.5189790022927645 27.3891361565013547 S
atom 5.0472880055321863 2.5376390041682271 26.9991252441485621 S
atom 0.0279900027847317 7.5569370068798429 26.9991252441162359 S
atom 5.0659480074256251 7.5755970087560485 27.3891361564716789 S
atom -0.0042635517688205 0.0640116736368036 29.6636730167494314 Ba
atom 5.0422215563563606 -0.0453516717929436 29.6636730167484721 Ba
atom 0.0229235536018173 4.9739463309432050 29.6636730167495237 Ba
atom 5.0523544547383423 5.1206296801302900 29.6636730167504084 Ba
atom 0.0241375393731700 -0.0311676226910437 34.5644289460333169 Ba
atom 5.0138204652128922 0.0498276245768170 34.5644289460326561 Ba
atom -0.0054775374740576 5.0691256272782352 34.5644289460360170 Ba
atom 5.0807555458080538 5.0254503837606341 34.5644289460382339 Ba
atom 2.5330247916861359 2.5278079017403372 32.1606902013230709 Zr
atom 7.5615512193674643 2.5474701066105752 32.1606902012458633 Zr
atom 2.5422532166520013 7.5667681093163202 32.1606902012477818 Zr
atom 7.5896427981473984 7.5844259081828413 32.1606902012251723 Zr
atom 2.5226852896071930 2.5074018965525493 37.1783970769373369 Zr
atom 7.5718907214437916 2.5678761117527849 37.1783970769437602 Zr
atom 2.5525927187610309 7.5871741144825249 37.1783970769252079 Zr
atom 7.5793032960499431 7.5640199030602817 37.1783970770065579 Zr
atom 2.6817222408899992 3.0133196329637721 29.6736467479777275 S
atom 7.4128537701624477 2.0619583753808577 29.6736467477891459 S
atom 2.3935557674519807 7.0812563781007398 29.6736467478951624 S
atom 7.7383402473474332 8.0699376394012514 29.6736467480289647 S
atom 2.4234016545427446 2.0772139685803692 34.6331606612482119 S
atom 7.6711743565099439 2.9980640397592171 34.6331606613380814 S
atom 2.6518763537925976 8.0173620424794052 34.6331606613720595 S
atom 7.4800196610170566 7.1338319750444938 34.6331606608384632 S
atom 2.5189790022937459 0.0093300009938633 31.6982494390195093 S
atom 7.5569370068759225 0.0279900028900663 32.6078124334848667 S
atom 2.5376390041706860 5.0472880054190110 32.6078124334319668 S
atom 7.5755970087582796 5.0659480073645691 31.6982494390831206 S
atom 2.5189790022946994 0.0093300009342066 37.4664051499283417 S
atom 7.5569370068778330 0.0279900027562777 36.7440176494414814 S
atom 2.5376390041672239 5.0472880055789933 36.7440176494215649 S
atom 7.5755970087612825 5.0659480074723700 37.4664051499637978 S
atom 0.0093300008730791 2.5189790022957164 31.9959729524242071 S
atom 5.0472880055773146 2.5376390041712122 32.2976955623806248 S
atom 0.0279900029742589 7.5569370068702773 32.2976955624094728 S
atom 5.0659480072402792 7.5755970087505000 31.9959729524497973 S
atom 0.0093300009473004 2.5189790022900937 37.1282120083183500 S
atom 5.0472880055125433 2.5376390041599479 36.9631023461250123 S
atom 0.0279900026894828 7.5569370068797088 36.9631023461364094 S
atom 5.0659480075219729 7.5755970087646443 37.1282120083513831 S
atom -0.1633631765166400 -0.0191687477743021 39.2342636584851263 Ba
atom 5.2013211811121201 0.0378287496556102 39.2342636585694038 Ba
atom 0.1820231784002222 5.0571267523587791 39.2342636585209661 Ba
atom 4.8932548299311529 5.0374492586797572 39.2342636585269702 Ba
atom 2.5777709009663696 2.8079963288094891 39.6587696075894414 S
atom 7.5168051100727569 2.2672816795011053 39.6587696076469314 S
atom 2.4975071073833699 7.2865796822292239 39.6587696076423057 S
atom 7.6343889074068469 7.8646143352869418 39.6587696076664287 S
atom 2.5474777509959070 2.6916721797892520 42.7688825128495580 Ba
atom 7.5470982600581387 2.3836058285901678 42.7688825128509009 Ba
atom 2.5278002573026361 7.4029038312579027 42.7688825128445274 Ba
atom 7.6040957575009340 7.7482901862170470 42.7688825128382391 Ba
atom 2.5594766258773123 2.5041714638382144 47.4387172256869221 Ba
atom 7.5350993851686594 2.5711065445488930 47.4387172256961236 Ba
atom 2.5158013823778487 7.5904045472054698 47.4387172256870215 Ba
atom 7.6160946324174521 7.5607894702616960 47.4387172256949867 Ba
atom 5.0775251131060539 5.0622417201051588 44.8247490949482241 Zr
atom 10.0736689043884908 5.0696542947023708 44.8247490949693486 Zr
atom 5.0543709017024812 10.0889522974135275 44.8247490948866556 Zr
atom 10.1341431195871472 10.1188597265690809 44.8247490950193423 Zr
atom 5.0571191079858844 5.0519022180198894 49.8424559700016019 Zr
atom 10.0940749095359035 5.0799937967752067 49.8424559698790119 Zr
atom 5.0747769068564859 10.0992917994914215 49.8424559703148873 Zr
atom 10.1137371144789689 10.1085202244941854 49.8424559699303842 Zr
atom 4.7769306808682730 5.0071561087314347 42.3443765645201751 S
atom 10.3742633366480455 5.1247399060716257 42.3443765646137180 S
atom 5.3549653339463603 10.1440379087816961 42.3443765642157217 S
atom 9.8335486873156643 10.0637741151964448 42.3443765646219603 S
atom 5.5077130410367712 5.1615253551124312 47.3699855105087480 S
atom 9.6434809764861349 4.9703706596805324 47.3699855102343719 S
atom 4.6241829737727240 9.9896686624029964 47.3699855110610102 S
atom 10.5643310474978023 10.2181433615889663 47.3699855101874761 S
atom 5.0472880055235834 2.5376390040906935 45.0400438253513258 S
atom 10.0852460101018782 2.5562990060456543 44.8749341632082874 S
atom 5.0659480073991059 7.5755970088416218 44.8749341631515151 S
atom 10.1039060119798876 7.5942570106275014 45.0400438253834068 S
atom 5.0472880055062666 2.5376390041893306 49.7054506092581860 S
atom 10.0852460101188832 2.5562990060035928 50.0071732193623717 S
atom 5.0659480073847742 7.5755970087421325 50.0071732192208032 S
atom 10.1039060119946242 7.5942570106593701 49.7054506094057302 S
atom 2.5376390042990264 5.0472880055227209 45.2591285220115935 S
atom 7.5755970086680762 5.0659480073985899 44.5367410216214239 S
atom 2.5562990061943074 10.0852460101121189 44.5367410215885329 S
atom 7.5942570105162401 10.1039060119926969 45.2591285220081474 S
atom 2.5376390039445962 5.0472880055303895 49.3953337383478299 S
atom 7.5755970088885887 5.0659480073996637 50.3048967327522050 S
atom 2.5562990059726789 10.0852460101034058 50.3048967326426038 S
atom 7.5942570106732985 10.1039060119747983 49.3953337382423427 S
atom 2.4642973296309734 2.5325725549159372 52.3394731549072461 Ba
atom 7.6302786814049970 2.5427054533145323 52.3394731549024783 Ba
atom 2.6109806788258805 7.5620034561468774 52.3394731549074379 Ba
atom 7.5209153359750172 7.5891905614938757 52.3394731549015475 Ba
atom 2.6000978551131881 2.5253933424193700 57.2886491978350136 Ba
atom 7.4944781559255906 2.5498846659269678 57.2886491978163974 Ba
atom 2.4751801532147701 7.5691826686314156 57.2886491978352623 Ba
atom 7.6567158615762905 7.5820113488783543 57.2886491978219539 Ba
atom 5.0552404096309216 5.0584546479930799 54.8043932019593569 Zr
atom 10.0959536078896068 5.0734413668113580 54.8043932018897593 Zr
atom 5.0766556052264509 10.0927393695311629 54.8043932015799697 Zr
atom 10.1118584161258642 10.1150726544669869 54.8043932019575237 Zr
atom 5.0568400628944303 5.0561339689127252 59.7639256576721465 Zr
atom 10.0943539546338723 5.0757620459015875 59.7639256577635862 Zr
atom 5.0750559518937415 10.0950600486093087 59.7639256574357702 Zr
atom 10.1134580693089582 10.1127519753570017 59.7639256576802254 Zr
atom 4.5716073766873944 4.9032047687822544 52.3294994232439379 S
atom 10.5795866408180377 5.2286912460190260 52.3294994235734663 S
atom 5.5602886380613121 10.2479892486988717 52.3294994237347026 S
atom 9.6282253831719657 9.9598227752383330 52.3294994234296738 S
atom 5.5354245586688213 5.2351484241620625 57.2858757438312978 S
atom 9.6157694588155458 4.8967475906334164 57.2858757439139410 S
atom 4.5964714561100743 9.9160455933479401 57.2858757431389876 S
atom 10.5920425651420000 10.2917664306256764 57.2858757437912089 S
atom 5.0472880055148730 2.5376390042361732 55.0040209276072645 S
atom 10.0852460101223080 2.5562990061009785 54.6140100151478691 S
atom 5.0659480073966501 7.5755970086861746 54.6140100152443964 S
atom 10.1039060119961555 7.5942570105687288 55.0040209275110428 S
atom 5.0472880055356981 2.5376390041556820 59.5525125946958767 S
atom 10.0852460101037398 2.5562990060410868 59.9763435767605912 S
atom 5.0659480074175320 7.5755970087540714 59.9763435768327753 S
atom 10.1039060119775392 7.5942570106619414 59.5525125946309331 S
atom 2.5376390042578039 5.0472880055295679 55.2740384048902555 S
atom 7.5755970086936024 5.0659480074049892 54.3486057020801283 S
atom 2.5562990058907178 10.0852460101066281 54.3486057021671414 S
atom 7.5942570107152374 10.1039060119834527 55.2740384049377056 S
atom 2.5376390042877190 5.0472880055217564 59.3058405068454704 S
atom 7.5755970086482698 5.0659480074031338 60.2252517857059360 S
atom 2.5562990061046853 10.0852460101222565 60.2252517858261101 S
atom 7.5942570106605070 10.1039060119988218 59.3058405069502186 S
atom 2.4550268387143479 2.5301129860633229 62.2433519134227637 Ba
atom 7.6395491723558040 2.5451650224130047 62.2433519134187989 Ba
atom 2.6202511695088977 7.5644630249521976 62.2433519134239646 Ba
atom 7.5116448452914977 7.5867309923837709 62.2433519134246040 Ba
atom 2.6000978551570255 2.5253933423470540 67.1980546290093343 Ba
atom 7.4944781558962843 2.5498846658969385 67.1980546290362639 Ba
atom 2.4751801532835800 7.5691826687059320 67.1980546290051421 Ba
atom 7.6567158615353819 7.5820113488788081 67.1980546290310912 Ba
atom 5.0568400629199619 5.0561339688975675 64.7227781690330346 Zr
atom 10.0943539546908188 5.0757620458793689 64.7227781692816819 Zr
atom 5.0750559518714207 10.0950600485863333 64.7227781696861371 Zr
atom 10.1134580693023395 10.1127519753538841 64.7227781691825754 Zr
atom 5.0552404096393344 5.0584546479927255 69.6823106249259041 Zr
atom 10.0959536078600323 5.0734413667901848 69.6823106247568518 Zr
atom 5.0766556051833227 10.0927393695177301 69.6823106249479025 Zr
atom 10.1118584160935701 10.1150726544631553 69.6823106249307074 Zr
atom 4.5802774252162290 4.8708658654218864 62.2433519137114573 S
atom 10.5709165924046946 5.2610301493923330 62.2433519133891480 S
atom 5.5516185896893520 10.2803281521296395 62.2433519134575519 S
atom 9.6368954315971038 9.9274838718812290 62.2433519134955304 S
atom 5.5354245587243662 5.2351484241608626 67.2008280830839908 S
atom 9.6157694589346043 4.8967475906693476 67.2008280826575088 S
atom 4.5964714561667961 9.9160455933755784 67.2008280839333167 S
atom 10.5920425651034122 10.2917664306101262 67.2008280830157076 S
atom 5.0472880055779505 2.5376390040274943 64.9341912320347063 S
atom 10.0852460101351049 2.5562990060123814 64.5103602501063733 S
atom 5.0659480074541747 7.5755970089134017 64.5103602499047639 S
atom 10.1039060120071138 7.5942570107090681 64.9341912322320667 S
atom 5.0472880055243108 2.5376390043907264 69.4826828993865178 S
atom 10.0852460101169967 2.5562990061989672 69.8726938116484604 S
atom 5.0659480074047538 7.5755970085301083 69.8726938117420531 S
atom 10.1039060119956332 7.5942570104897831 69.4826828992832759 S
atom 2.5376390040518375 5.0472880055148144 65.1808633199441374 S
atom 7.5755970084552109 5.0659480073948160 64.2614520411178347 S
atom 2.5562990061983650 10.0852460101173698 64.2614520409524062 S
atom 7.5942570105407254 10.1039060120029056 65.1808633198224641 S
atom 2.5376390035575311 5.0472880055343294 69.2126654219862587 S
atom 7.5755970093128102 5.0659480073811736 70.1380981247957180 S
atom 2.5562990056456525 10.0852460101262125 70.1380981247496891 S
atom 7.5942570110256575 10.1039060119819855 69.2126654220093229 S
atom 2.4642973295794546 2.5325725548963343 72.1472306719346506 Ba
atom 7.6302786814496626 2.5427054533196882 72.1472306719563221 Ba
atom 2.6109806787803702 7.5620034561550966 72.1472306719276730 Ba
atom 7.5209153360162748 7.5891905614953439 72.1472306719519736 Ba
atom 2.5594766258865529 2.5041714639000445 77.0479866011854000 Ba
atom 7.5350993851595458 2.5711065445589325 77.0479866011846610 Ba
atom 2.5158013823748293 7.5904045471487622 77.0479866011832968 Ba
atom 7.6160946324114986 7.5607894702491443 77.0479866011830552 Ba
atom 5.0571191080116416 5.0519022180252700 74.6442478570043164 Zr
atom 10.0940749095983016 5.0799937968023512 74.6442478566662686 Zr
atom 5.0747769068156430 10.0992917994917146 74.6442478564320311 Zr
atom 10.1137371144311476 10.1085202244947840 74.6442478567773122 Zr
atom 5.0775251131263248 5.0622417201018335 79.6619547319751717 Zr
atom 10.0736689044062508 5.0696542947027359 79.6619547319936174 Zr
atom 5.0543709016920522 10.0889522974081540 79.6619547320334078 Zr
atom 10.1341431195842180 10.1188597265600997 79.6619547320636201 Zr
atom 4.5716073766744127 4.9032047687884273 72.1572044029760917 S
atom 10.5795866408209385 5.2286912460286308 72.1572044040703844 S
atom 5.5602886380556020 10.2479892487012467 72.1572044022150862 S
atom 9.6282253831533602 9.9598227752391395 72.1572044035826394 S
atom 5.5077130410510318 5.1615253551300526 77.1167183165700578 S
atom 9.6434809764274654 4.9703706596672852 77.1167183164739214 S
atom 4.6241829737213394 9.9896686623673414 77.1167183167374759 S
atom 10.5643310475295280 10.2181433615843549 77.1167183159806910 S
atom 5.0472880054946332 2.5376390040700976 74.7812532176083664 S
atom 10.0852460101243810 2.5562990059344082 74.4795306075055947 S
atom 5.0659480073709116 7.5755970088667501 74.4795306076326966 S
atom 10.1039060120017794 7.5942570107092076 74.7812532174473859 S
atom 5.0472880055249068 2.5376390042388475 79.4466600013469133 S
atom 10.0852460101109020 2.5562990059192003 79.6117696636434857 S
atom 5.0659480073986440 7.5755970087035465 79.6117696635294436 S
atom 10.1039060119911852 7.5942570107595717 79.4466600014434050 S
atom 2.5376390045033128 5.0472880055255391 75.0913700884794935 S
atom 7.5755970083746762 5.0659480074167789 74.1818070940769729 S
atom 2.5562990066559919 10.0852460100959842 74.1818070942482564 S
atom 7.5942570101619360 10.1039060119928976 75.0913700886763849 S
atom 2.5376390040538124 5.0472880055235700 79.2275753047536284 S
atom 7.5755970088209228 5.0659480073990526 79.9499628051853648 S
atom 2.5562990059490551 10.0852460101047097 79.9499628051628264 S
atom 7.5942570106791640 10.1039060119817652 79.2275753046996840 S
atom 2.5474777510101010 2.6916721797950354 81.7178213138754899 Ba
atom 7.5470982600498484 2.3836058285860697 81.7178213138609379 Ba
atom 2.5278002573178737 7.4029038312562063 81.7178213138885212 Ba
atom 7.6040957574898602 7.7482901862163560 81.7178213138507630 Ba
atom 4.7769306808879897 5.0071561087357752 82.1423272623352716 S
atom 10.3742633366409063 5.1247399060711603 82.1423272625022918 S
atom 5.3549653339614540 10.1440379087860926 82.1423272628544083 S
atom 9.8335486873455125 10.0637741152034010 82.1423272624964937 S
