#=======================================================
# FHI-aims file: full_relax/full_relax_RP_4_00Rz_00Rz.in
# Created using the Atomic Simulation Environment (ASE)
# Fri Mar 14 11:22:43 2025
#=======================================================
lattice_vector 9.9060969949691078 -0.0000000011638595 0.0000000000000022 
lattice_vector -0.0000000011638595 9.9060969949691078 -0.0000000000000022 
lattice_vector 0.0000000000000099 -0.0000000000000099 46.6837680929151091 
atom -0.0000000000011917 -0.0000000000010339 0.1663807923986352 Ba
atom 4.9530484974834890 -0.0000000005829792 0.1663807923981388 Ba
atom -0.0000000005829321 4.9530484974833708 0.1663807923990729 Ba
atom 4.9530484969018600 4.9530484969014648 0.1663807923985956 Ba
atom -0.0000000000009582 -0.0000000000009628 5.0674875802780086 Ba
atom 4.9530484974838940 -0.0000000005829300 5.0674875802784456 Ba
atom -0.0000000005830041 4.9530484974838815 5.0674875802779482 Ba
atom 4.9530484969017561 4.9530484969019710 5.0674875802783967 Ba
atom 2.4765242484505818 2.4765242484503029 2.4447115840567846 Zr
atom 7.4295727459350633 2.4765242478685852 2.4447115840562961 Zr
atom 2.4765242478688068 7.4295727459352401 2.4447115840566642 Zr
atom 7.4295727453533438 7.4295727453532976 2.4447115840569293 Zr
atom 2.4765242484504939 2.4765242484507914 7.5880726023712599 Zr
atom 7.4295727459353440 2.4765242478687406 7.5880726023706382 Zr
atom 2.4765242478685394 7.4295727459353174 7.5880726023708887 Zr
atom 7.4295727453531297 7.4295727453533216 7.5880726023717333 Zr
atom 2.4765242484506178 2.4765242484502168 -0.1004424821561336 S
atom 7.4295727459353325 2.4765242478685137 -0.1004424821561255 S
atom 2.4765242478685701 7.4295727459354675 -0.1004424821557138 S
atom 7.4295727453533074 7.4295727453534184 -0.1004424821558213 S
atom 2.4765242484501933 2.4765242484501719 5.0435639900318323 S
atom 7.4295727459356193 2.4765242478684741 5.0435639900318812 S
atom 2.4765242478682374 7.4295727459356309 5.0435639900319345 S
atom 7.4295727453537515 7.4295727453537008 5.0435639900321148 S
atom 2.0511426944755069 0.0000010083101634 2.5337244386580684 S
atom 7.8549543004909692 -0.0000010094753981 2.5337244386581901 S
atom 2.9019058024248241 4.9530474885907525 2.5337244386584632 S
atom 7.0041911913792667 4.9530495052127108 2.5337244386580653 S
atom 3.0105602548613541 -0.0000000230331627 7.5963026336394384 S
atom 6.8955367401063494 0.0000000218678180 7.5963026336395005 S
atom 1.9424882420397378 4.9530485199343470 7.5963026336394490 S
atom 7.9636087517636893 4.9530484738695089 7.5963026336395592 S
atom -0.0000010088936352 2.9019058030067351 2.5337244386586741 S
atom 4.9530495057946471 2.0511426938938810 2.5337244386585756 S
atom 0.0000010077283775 7.0041911919609428 2.5337244386582545 S
atom 4.9530474880088731 7.8549542999092230 2.5337244386584112 S
atom 0.0000000224498172 1.9424882426216794 7.5963026336392057 S
atom 4.9530484744513181 3.0105602542794032 7.5963026336393806 S
atom -0.0000000236152053 7.9636087523456096 7.5963026336391790 S
atom 4.9530485193523583 6.8955367395245339 7.5963026336393229 S
atom -0.0000000000011796 -0.0000000000011344 10.1486452375897986 Ba
atom 4.9530484974835192 -0.0000000005830055 10.1486452375897791 Ba
atom -0.0000000005830505 4.9530484974837004 10.1486452375906122 Ba
atom 4.9530484969017872 4.9530484969017357 10.1486452375902338 Ba
atom -0.0000000000009841 -0.0000000000010698 15.2298028949021749 Ba
atom 4.9530484974834526 -0.0000000005829352 15.2298028949025568 Ba
atom -0.0000000005830044 4.9530484974838282 15.2298028949015443 Ba
atom 4.9530484969018200 4.9530484969017623 15.2298028949017894 Ba
atom 2.4765242484506493 2.4765242484505281 12.7092178728089369 Zr
atom 7.4295727459352436 2.4765242478685008 12.7092178728086562 Zr
atom 2.4765242478685838 7.4295727459354115 12.7092178728089511 Zr
atom 7.4295727453532940 7.4295727453533331 12.7092178728093490 Zr
atom 2.4765242484505832 2.4765242484504753 17.8525788911236880 Zr
atom 7.4295727459352836 2.4765242478684399 17.8525788911239864 Zr
atom 2.4765242478686336 7.4295727459351557 17.8525788911241854 Zr
atom 7.4295727453532399 7.4295727453532816 17.8525788911243204 Zr
atom 2.4765242484505765 2.4765242484504202 10.1486452375901557 S
atom 7.4295727459353973 2.4765242478685114 10.1486452375898413 S
atom 2.4765242478687894 7.4295727459353547 10.1486452375900420 S
atom 7.4295727453532869 7.4295727453532763 10.1486452375902907 S
atom 2.4765242484501733 2.4765242484501928 15.2537264851482828 S
atom 7.4295727459355279 2.4765242478683467 15.2537264851481105 S
atom 2.4765242478685514 7.4295727459355856 15.2537264851481353 S
atom 7.4295727453536147 7.4295727453537337 15.2537264851481282 S
atom 1.9424882426213879 0.0000000224498456 12.7009878415413677 S
atom 7.9636087523463051 -0.0000000236150728 12.7009878415414512 S
atom 3.0105602542791736 4.9530484744512435 12.7009878415410888 S
atom 6.8955367395246272 4.9530485193524303 12.7009878415411368 S
atom 2.9019058030070655 -0.0000010088936815 17.7635660365217269 S
atom 7.0041911919603761 0.0000010077281637 17.7635660365224624 S
atom 2.0511426938942003 4.9530495057948167 17.7635660365222066 S
atom 7.8549542999089192 4.9530474880090418 17.7635660365226116 S
atom -0.0000000230332121 3.0105602548618089 12.7009878415413731 S
atom 4.9530485199343124 1.9424882420395930 12.7009878415413251 S
atom 0.0000000218678937 6.8955367401057961 12.7009878415416697 S
atom 4.9530484738693819 7.9636087517640393 12.7009878415413624 S
atom 0.0000010083102940 2.0511426944754123 17.7635660365218335 S
atom 4.9530474885908742 2.9019058024251478 17.7635660365220573 S
atom -0.0000010094755894 7.8549543004918521 17.7635660365224481 S
atom 4.9530495052127721 7.0041911913787125 17.7635660365221746 S
atom -0.0000000000009795 -0.0000000000014416 20.1309096827820966 Ba
atom 4.9530484974838949 -0.0000000005832001 20.1309096827818124 Ba
atom -0.0000000005830511 4.9530484974836222 20.1309096827813718 Ba
atom 4.9530484969016619 4.9530484969017179 20.1309096827819012 Ba
atom 2.4765242484505192 2.4765242484506187 20.3977329573370838 S
atom 7.4295727459352108 2.4765242478685527 20.3977329573364727 S
atom 2.4765242478682734 7.4295727459352472 20.3977329573369417 S
atom 7.4295727453534877 7.4295727453536111 20.3977329573368493 S
atom 2.4765242484506009 2.4765242484505561 23.5082648388555207 Ba
atom 7.4295727459351477 2.4765242478692615 23.5082648388559861 Ba
atom 2.4765242478688045 7.4295727459345633 23.5082648388558120 Ba
atom 7.4295727453529707 7.4295727453533580 23.5082648388565119 Ba
atom 2.4765242484504362 2.4765242484508025 28.4093716267363838 Ba
atom 7.4295727459349141 2.4765242478685399 28.4093716267354637 Ba
atom 2.4765242478686309 7.4295727459346619 28.4093716267358758 Ba
atom 7.4295727453529983 7.4295727453529121 28.4093716267359682 Ba
atom 4.9530484969014017 4.9530484969011086 25.7865956305134318 Zr
atom 9.9060969943861323 4.9530484963196901 25.7865956305136130 Zr
atom 4.9530484963196217 9.9060969943858517 25.7865956305138191 Zr
atom 9.9060969938044430 9.9060969938043204 25.7865956305138724 Zr
atom 4.9530484969012747 4.9530484969013777 30.9299566488284299 Zr
atom 9.9060969943860027 4.9530484963198251 30.9299566488280000 Zr
atom 4.9530484963193988 9.9060969943860506 30.9299566488275843 Zr
atom 9.9060969938041303 9.9060969938042671 30.9299566488289308 Zr
atom 4.9530484969019426 4.9530484969018076 23.2414415643014571 S
atom 9.9060969943858765 4.9530484963200001 23.2414415643022210 S
atom 4.9530484963196066 9.9060969943864468 23.2414415643022245 S
atom 9.9060969938043506 9.9060969938040984 23.2414415643013896 S
atom 4.9530484969010713 4.9530484969015953 28.3854480364899509 S
atom 9.9060969943864663 4.9530484963194237 28.3854480364898620 S
atom 4.9530484963194734 9.9060969943859263 28.3854480364895210 S
atom 9.9060969938042955 9.9060969938041197 28.3854480364898372 S
atom 4.5276669429261878 2.4765252567611094 25.8756084851162349 S
atom 10.3314785489432275 2.4765232389754721 25.8756084851164445 S
atom 5.3784300508765162 7.4295717370415595 25.8756084851169454 S
atom 9.4807154398291633 7.4295737536637567 25.8756084851165511 S
atom 5.4870845033121762 2.4765242254176449 30.9381866800970649 S
atom 9.3720609885579158 2.4765242703191568 30.9381866800968588 S
atom 4.4190124904899495 7.4295727683851958 30.9381866800971714 S
atom 10.4401330002154289 7.4295727223200281 30.9381866800973668 S
atom 2.4765232395574897 5.3784300514584018 25.8756084851160395 S
atom 7.4295737542456530 4.5276669423445366 25.8756084851166506 S
atom 2.4765252561791726 9.4807154404112932 25.8756084851168389 S
atom 7.4295717364599110 10.3314785483611900 25.8756084851167110 S
atom 2.4765242709003772 4.4190124910721158 30.9381866800975871 S
atom 7.4295727229025488 5.4870845027304336 30.9381866800975267 S
atom 2.4765242248357846 10.4401330007972444 30.9381866800978820 S
atom 7.4295727678034034 9.3720609879755070 30.9381866800984895 S
atom 2.4765242484500130 2.4765242484505765 33.4905292840445412 Ba
atom 7.4295727459350074 2.4765242478687139 33.4905292840463176 Ba
atom 2.4765242478681166 7.4295727459352170 33.4905292840458273 Ba
atom 7.4295727453527407 7.4295727453529352 33.4905292840452731 Ba
atom 2.4765242484504681 2.4765242484500605 38.5716869413570365 Ba
atom 7.4295727459350482 2.4765242478683973 38.5716869413588554 Ba
atom 2.4765242478683689 7.4295727459339407 38.5716869413587844 Ba
atom 7.4295727453539362 7.4295727453527105 38.5716869413572283 Ba
atom 4.9530484969015900 4.9530484969015411 36.0511019192675732 Zr
atom 9.9060969943862123 4.9530484963195329 36.0511019192677153 Zr
atom 4.9530484963195356 9.9060969943863100 36.0511019192676940 Zr
atom 9.9060969938044305 9.9060969938043204 36.0511019192676798 Zr
atom 4.9530484969011797 4.9530484969014523 41.1944629375803899 Zr
atom 9.9060969943863029 4.9530484963197257 41.1944629375801838 Zr
atom 4.9530484963194592 9.9060969943861892 41.1944629375802407 Zr
atom 9.9060969938046401 9.9060969938045709 41.1944629375799778 Zr
atom 4.9530484969016504 4.9530484969016335 33.4905292840470281 S
atom 9.9060969943862496 4.9530484963193580 33.4905292840490532 S
atom 4.9530484963185204 9.9060969943863242 33.4905292840472768 S
atom 9.9060969938046011 9.9060969938040380 33.4905292840470494 S
atom 4.9530484969006974 4.9530484969009150 38.5956105316054092 S
atom 9.9060969943866706 4.9530484963197248 38.5956105316049758 S
atom 4.9530484963192869 9.9060969943865427 38.5956105316047484 S
atom 9.9060969938043559 9.9060969938044270 38.5956105316056721 S
atom 4.4190124910733521 2.4765242709007320 36.0428718880004553 S
atom 10.4401330007959601 2.4765242248353654 36.0428718879997660 S
atom 5.4870845027299104 7.4295727229022335 36.0428718880005121 S
atom 9.3720609879766705 7.4295727678037471 36.0428718880007253 S
atom 5.3784300514570047 2.4765232395572845 41.1054500829792246 S
atom 9.4807154404129488 2.4765252561793694 41.1054500829794875 S
atom 4.5276669423452551 7.4295737542457010 41.1054500829800915 S
atom 10.3314785483600069 7.4295717364601348 41.1054500829805107 S
atom 2.4765242254180033 5.4870845033113991 36.0428718880007040 S
atom 7.4295727683847845 4.4190124904906476 36.0428718879985936 S
atom 2.4765242703185888 9.3720609885583102 36.0428718879993113 S
atom 7.4295727223206169 10.4401330002144537 36.0428718880008248 S
atom 2.4765252567611089 4.5276669429274898 41.1054500829801128 S
atom 7.4295717370417611 5.3784300508753855 41.1054500829800133 S
atom 2.4765232389757679 10.3314785489423659 41.1054500829794947 S
atom 7.4295737536635338 9.4807154398307301 41.1054500829797078 S
atom 2.4765242484505476 2.4765242484508714 43.4727937292433779 Ba
atom 7.4295727459348235 2.4765242478685252 43.4727937292417010 Ba
atom 2.4765242478691571 7.4295727459350749 43.4727937292428592 Ba
atom 7.4295727453533038 7.4295727453529397 43.4727937292391005 Ba
atom 4.9530484969018120 4.9530484969019142 43.7396170037930503 S
atom 9.9060969943856367 4.9530484963194539 43.7396170037921408 S
atom 4.9530484963201369 9.9060969943856296 43.7396170037932066 S
atom 9.9060969938037857 9.9060969938046330 43.7396170037926879 S
