#=======================================================
# FHI-aims file: full_relax/full_relax_RP_3_RxRyMz_RxRyMz.in
# Created using the Atomic Simulation Environment (ASE)
# Fri Mar 14 11:20:55 2025
#=======================================================
lattice_vector 10.0297119439060225 -0.0218315516206281 -0.0098147949476100 
lattice_vector -0.0218315516206238 10.0297119438839477 0.0098147950091486 
lattice_vector -0.0349160652994670 0.0349160655224795 35.7907170360219382 
atom 0.0355784154557151 -0.1522749702253353 0.2373537189128075 Ba
atom 5.1671309407335579 -0.0464941919935602 0.2324463344345180 Ba
atom 0.1413591931454774 4.9792775569685830 0.2422611336438167 Ba
atom 5.0395186094733910 4.8516652275667784 0.2373537415413338 Ba
atom -0.2506648603730132 0.1924356677972568 4.9876104744311718 Ba
atom 4.8224202987390088 0.2397490854036511 4.9827030736229094 Ba
atom -0.2033514450562826 5.2655208391580919 4.9925178693110910 Ba
atom 4.7532753315585365 5.1963758685658767 4.9876104687761611 Ba
atom 2.4797671475221681 2.5100186638090478 2.3997418917830267 Zr
atom 7.5087775215514716 2.5132572777101507 2.3948345012110446 Zr
atom 2.4830057698724533 7.5390290206607231 2.4046492933350136 Zr
atom 7.4837073376591814 7.5139588224449376 2.3997418972998799 Zr
atom 2.4946959120305201 2.5092442981546581 7.4563993616785789 Zr
atom 7.5095518790681641 2.4983284975004816 7.4514919977981195 Zr
atom 2.4837801066632736 7.5241002338908300 7.4613067937924384 Zr
atom 7.4986361239336237 7.5131844947425339 7.4563993613139399 Zr
atom 2.6149219801256995 2.7326320120091849 -0.1041570718659092 S
atom 7.2861641439523748 2.3781024337643717 -0.1090645161020884 S
atom 2.2603924093285372 7.4038741993185146 -0.0992496809150596 S
atom 7.6188621627526434 7.7365722139520017 -0.1041570724697400 S
atom 2.2401712426236391 2.2157759396440730 4.9540823761679329 S
atom 7.8030202283426071 2.7528531782431536 4.9491749765956001 S
atom 2.7772484806580615 7.7786249312276343 4.9589897609681124 S
atom 7.2441114337655863 7.2197161328330006 4.9540823661033802 S
atom 2.7442608303535785 0.0161741164052461 2.2387345326821837 S
atom 7.2288074343324791 0.0081001783880484 2.7353284173148515 S
atom 2.2030356888560760 5.0338718611953093 2.7451432140384440 S
atom 7.7482010216024895 5.0201143176366978 2.2387345374022316 S
atom 2.8849988000920130 -0.0009499806886189 7.7503838829175118 S
atom 7.1301647753519370 -0.0063332170065949 7.1526000954635798 S
atom 2.1043930296759075 5.0194385287675747 7.1624148984573885 S
atom 7.8889389948155655 5.0029901832439512 7.7503838759515409 S
atom -0.0270899162034842 2.2705951449855770 2.2436419350730072 S
atom 4.9849242899902402 2.7899887277362474 2.7402358159772899 S
atom -0.0408474753394549 7.8157604800975147 2.7500506129758380 S
atom 4.9768503279580427 7.2745353432392870 2.2436419302311883 S
atom -0.0099657727458399 2.1298571741082064 7.7552912701295380 S
atom 4.9993576351849445 2.8886313912075403 7.1575074899878031 S
atom -0.0264140972517692 7.9144031378086739 7.1673222978245104 S
atom 4.9939744254517677 7.1337973656687845 7.7552912830422471 S
atom 0.2361165029986126 -0.1778873130006633 9.9251882987813076 Ba
atom 5.1927432810081919 -0.2470322744724973 9.9202809023975931 Ba
atom 0.1669715357932465 4.7787394724455483 9.9300956907066595 Ba
atom 5.2400566983633938 4.8260528840857875 9.9251882963736797 Ba
atom -0.0501267643900736 0.1668233249040721 14.6754450336275077 Ba
atom 4.8480326288676876 0.0392109941283712 14.6705376362198248 Ba
atom -0.1777391008635410 5.0649827511664824 14.6803524400940795 Ba
atom 4.9538134190890553 5.1707635368981997 14.6754450265109710 Ba
atom 2.5096246824711623 2.5084698631938465 12.5130568997449405 Zr
atom 7.5103262679434843 2.4833997228209626 12.5081494328541751 Zr
atom 2.4845545391832529 7.5091715032417863 12.5179642848687340 Zr
atom 7.5135648732734266 7.5124100965425047 12.5130569014896587 Zr
atom 2.7492205932670193 2.8027126179083055 9.9587163865271897 S
atom 7.2160835490054183 2.2438038329725423 9.9538090165491990 S
atom 2.1903117994071031 7.2695755727048539 9.9636237202876341 S
atom 7.7531607872152986 7.8066528164979854 9.9587163784388846 S
atom 2.3744698749779451 2.2858565444441026 15.0169558387826338 S
atom 7.7329396173993521 2.6185545626956004 15.0120484851370026 S
atom 2.7071678902290430 7.6443263029637496 15.0218632480812886 S
atom 7.3784100534073129 7.2897967362888352 15.0169558389610547 S
atom 2.7863561541859143 -0.0153833246579735 12.1676555543380491 S
atom 7.2709027563023909 -0.0234572927130038 12.6642494306953584 S
atom 2.2451310080850049 5.0023144666472348 12.6740642357877142 S
atom 7.7902963444675644 4.9885568632193618 12.1676555466055181 S
atom 0.0044675296421640 2.2284998274000234 12.1725629394687225 S
atom 5.0164817474492365 2.7478934079210462 12.6691568296455870 S
atom -0.0092900476337428 7.7736651560050998 12.6789716337863592 S
atom 5.0084077579163608 7.2324400157567972 12.1725629548799130 S
atom 2.5200904423266279 2.3671531550440319 18.1327122433960781 Ba
atom 7.6516430452629702 2.4729339400543857 18.1278048436181791 Ba
atom 2.6258712253943544 7.4987056864932713 18.1376196353613643 Ba
atom 7.5240307060279674 7.3710933531547171 18.1327122354110877 Ba
atom 2.2338472095335846 2.7118637977982361 22.8829689858478389 Ba
atom 7.3069323597199878 2.7591772161642458 22.8780615888546208 Ba
atom 2.2811606263471136 7.7849489639081249 22.8878763963039056 Ba
atom 7.2377873938317467 7.7158039980269422 22.8829690038797260 Ba
atom 4.9642792045385651 5.0294467588031191 20.2951004257693945 Zr
atom 9.9932895630813441 5.0326854125953089 20.2901929258263998 Zr
atom 4.9675178152051451 10.0584571909326694 20.3000078929888019 Zr
atom 9.9682194098042594 10.0333870253416162 20.2951002611969393 Zr
atom 4.9792080050668366 5.0286724360981481 25.3517579080006499 Zr
atom 9.9940639563070608 5.0177566428861970 25.3468505219878359 Zr
atom 4.9682922515665338 10.0435283404957350 25.3566653186806725 Zr
atom 9.9831481524068888 10.0326125678391822 25.3517578945317688 Zr
atom 5.0994340350918774 5.2520601496106405 17.7912014371032541 S
atom 9.7706762140786463 4.8975305893832326 17.7862941114027109 S
atom 4.7449044682091017 9.9233023166256888 17.7961087203199213 S
atom 10.1033742208149491 10.2560003399633910 17.7912015916807675 S
atom 4.7246833107180226 4.7352040679289802 22.8494408666751241 S
atom 10.2875323014893549 5.2722813141494704 22.8445334130394500 S
atom 5.2617605423015492 10.2980530541319908 22.8543483613104996 S
atom 9.7286235008498796 9.7391442635970762 22.8494408597380172 S
atom 5.2287728797241808 2.5356022239135485 20.1340930553958017 S
atom 9.7133194907996181 2.5275282555962284 20.6306869445017647 S
atom 4.6875477489517037 7.5533000155701231 20.6405017319198620 S
atom 10.2327130856318576 7.5395423710799854 20.1340930605735018 S
atom 5.3695108791370423 2.5184781171193542 25.6457423903007964 S
atom 9.6146768542457828 2.5130949517038954 25.0479586080207604 S
atom 4.5889051050714746 7.5388667295167142 25.0577733993711789 S
atom 10.3734510764238177 7.5224183683206016 25.6457423923053227 S
atom 2.4574222344627281 4.7900232874571662 20.1390004589304219 S
atom 7.4694363255022989 5.3094168730566871 20.6355943408778124 S
atom 2.4436646721648736 10.3351886163643218 20.6454091312961161 S
atom 7.4613623643640148 9.7939634776055602 20.1390004490184538 S
atom 2.4745462502045372 4.6492852824908564 25.6506497982682049 S
atom 7.4838696487073388 5.4080595113285890 25.0528660043144669 S
atom 2.4580979656548498 10.4338312687955259 25.0626807943677612 S
atom 7.4784864011552949 9.6532255024119085 25.6506497769839221 S
atom 2.7206285781138253 2.3415408176488839 27.8205468033327818 Ba
atom 7.6772553349199635 2.2723958452137745 27.8156393986703527 Ba
atom 2.6514836125305856 7.2981676069645864 27.8254542120420005 Ba
atom 7.7245687529310727 7.3454810251886995 27.8205468087035506 Ba
atom 2.4343852759325979 2.6862514767325236 32.5708035687406721 Ba
atom 7.3325447208057088 2.5586391394568118 32.5658961880681446 Ba
atom 2.3067729424316146 7.5844108680458637 32.5757109402080687 Ba
atom 7.4383255065819647 7.6901916523673997 32.5708035386638031 Ba
atom 4.9941367663687668 5.0278980993321767 30.4084154147504790 Zr
atom 9.9948383725303582 5.0028279316048190 30.4035080440051608 Zr
atom 4.9690665911202192 10.0285994892454138 30.4133226657001039 Zr
atom 9.9980769139178491 10.0318381596947344 30.4084154660294104 Zr
atom 5.2337326713573562 5.3221407302330705 27.8540749159383516 S
atom 9.7005956307316463 4.7632319440358604 27.8491675997982284 S
atom 4.6748238636948436 9.7890037134471424 27.8589822908987905 S
atom 10.2376728706158602 10.3260809586973501 27.8540749619706247 S
atom 4.8589819419728739 4.8052846578679453 32.9123143095001609 S
atom 10.2174516935680444 5.1379826784659270 32.9074068704485398 S
atom 5.1916799468057864 10.1637544499685610 32.9172218828369338 S
atom 9.8629221249164232 9.8092248800138186 32.9123143135423177 S
atom 5.2708682196065784 2.5040448600577552 30.0630140670982051 S
atom 9.7554148335739566 2.4959708628933912 30.5596079388389903 S
atom 4.7296430815355759 7.5217426206432831 30.5694227522341464 S
atom 10.2748084134127229 7.5079849233987490 30.0630140682767930 S
atom 2.4889795615248476 4.7479279378059394 30.0679214685176888 S
atom 7.5009937436214393 5.2673215250239123 30.5645153519958122 S
atom 2.4752220470550466 10.2930932994881683 30.5743301403806349 S
atom 7.4929198260311072 9.7518681605433830 30.0679214674787083 S
