#=======================================================
# FHI-aims file: full_relax/full_relax_RP_3_00Mz1_00Mz2.in
# Created using the Atomic Simulation Environment (ASE)
# Fri Mar 14 11:19:00 2025
#=======================================================
lattice_vector 9.9102526489615759 0.0000147695515556 -0.0000000000001736 
lattice_vector 0.0000147695515556 9.9102526489615812 -0.0000000000000897 
lattice_vector -0.0000000000006209 -0.0000000000003211 36.4536316254179127 
atom 0.0000000000066430 0.0000000000002199 0.1681665709470981 Ba
atom 4.9551263244802861 0.0000073847789303 0.1681665709500054 Ba
atom 0.0000073847815009 4.9551263244824790 0.1681665709484210 Ba
atom 4.9551337092591554 4.9551337092552270 0.1681665709516431 Ba
atom 0.0000000000002177 0.0000000000015071 5.0644122811018262 Ba
atom 4.9551263244821246 0.0000073847785494 5.0644122811021886 Ba
atom 0.0000073847795428 4.9551263244820278 5.0644122811039596 Ba
atom 4.9551337092542589 4.9551337092566179 5.0644122811008856 Ba
atom 2.4775668546307932 2.4775668546297229 2.4502804986546307 Zr
atom 7.4326931791109319 2.4775742394080065 2.4502804986521500 Zr
atom 2.4775742394099263 7.4326931791108546 2.4502804986523716 Zr
atom 7.4327005638896253 7.4327005638866570 2.4502804986523365 Zr
atom 2.4775668546298886 2.4775668546329745 7.5945065886348928 Zr
atom 7.4326931791081963 2.4775742394044826 7.5945065886316980 Zr
atom 2.4775742394062203 7.4326931791128166 7.5945065886355119 Zr
atom 7.4327005638838965 7.4327005638817347 7.5945065886319583 Zr
atom 2.4775668546358802 2.4775668546292189 -0.0969059509068955 S
atom 7.4326931791042909 2.4775742394083555 -0.0969059509068561 S
atom 2.4775742394085674 7.4326931791167468 -0.0969059509081380 S
atom 7.4327005638800969 7.4327005638850459 -0.0969059509055655 S
atom 2.4775668546328862 2.4775668546365988 5.0437221896348454 S
atom 7.4326931791103110 2.4775742394110400 5.0437221896334465 S
atom 2.4775742394077227 7.4326931791074884 5.0437221896337485 S
atom 7.4327005638842660 7.4327005638826851 5.0437221896343090 S
atom 2.0542919890425173 0.0000039447123520 2.5328634718129210 S
atom 7.8559606599229905 0.0000108248439723 2.5328634718079845 S
atom 2.9008417202195860 4.9551297645481771 2.5328634718096121 S
atom 7.0094256982968064 4.9551376539690111 2.5328634718138292 S
atom 3.0118488021782901 0.0000056959953201 7.5945065886263539 S
atom 6.8984038467876179 0.0000090735592209 7.5945065886299830 S
atom 1.9432849070813616 4.9551280132660329 7.5945065886273602 S
atom 7.9669825114306274 4.9551394052487741 7.5945065886273424 S
atom 0.0000034400681510 2.9008343354439123 2.5328634718154488 S
atom 4.9551302691928543 2.0542993738186439 2.5328634718123340 S
atom 0.0000113294897274 7.0094183135204098 2.5328634718120258 S
atom 4.9551371493253553 7.8559680446977112 2.5328634718100496 S
atom 0.0000016887843474 1.9432775223053633 7.5945065886278158 S
atom 4.9551320204750473 3.0118561869581431 7.5945065886255092 S
atom 0.0000130807687608 7.9669751266504294 7.5945065886290202 S
atom 4.9551353980402553 6.8984112315589323 7.5945065886302228 S
atom -0.0000000000009603 0.0000000000009803 10.1246008961520548 Ba
atom 4.9551263244810020 0.0000073847761255 10.1246008961511880 Ba
atom 0.0000073847790043 4.9551263244801866 10.1246008961499356 Ba
atom 4.9551337092602488 4.9551337092583356 10.1246008961558420 Ba
atom 0.0000000000027473 0.0000000000020560 15.0208466063044650 Ba
atom 4.9551263244875621 0.0000073847812146 15.0208466063068951 Ba
atom 0.0000073847748810 4.9551263244826824 15.0208466063024435 Ba
atom 4.9551337092584316 4.9551337092579573 15.0208466063080053 Ba
atom 2.4775668546298002 2.4775668546305183 12.7387326786087574 Zr
atom 7.4326931791092257 2.4775742394066262 12.7387326786073789 Zr
atom 2.4775742394098721 7.4326931791118040 12.7387326786123332 Zr
atom 7.4327005638886812 7.4327005638868906 12.7387326786064659 Zr
atom 2.4775668546356671 2.4775668546285212 10.1452909876258754 S
atom 7.4326931791086599 2.4775742394097793 10.1452909876273587 S
atom 2.4775742394085869 7.4326931791125528 10.1452909876279058 S
atom 7.4327005638833281 7.4327005638825270 10.1452909876278632 S
atom 2.4775668546298806 2.4775668546363359 15.2859191281654763 S
atom 7.4326931791121709 2.4775742394073812 15.2859191281671691 S
atom 2.4775742394070877 7.4326931791080009 15.2859191281682367 S
atom 7.4327005638842305 7.4327005638852510 15.2859191281660323 S
atom 2.0542919890382638 0.0000039447126104 12.6561497054398338 S
atom 7.8559606599312986 0.0000108248439162 12.6561497054424112 S
atom 2.9008417202249568 4.9551297645490164 12.6561497054399261 S
atom 7.0094256982901291 4.9551376539692091 12.6561497054442409 S
atom 0.0000034400673183 2.9008343354471493 12.6561497054372154 S
atom 4.9551302691928427 2.0542993738101059 12.6561497054409617 S
atom 0.0000113294895634 7.0094183135178794 12.6561497054394536 S
atom 4.9551371493256999 7.8559680447120286 12.6561497054431467 S
atom 2.4775668546490603 2.4775668546326814 18.3949489959679653 Ba
atom 7.4326931791097124 2.4775742394160516 18.3949489959697381 Ba
atom 2.4775742394175047 7.4326931791185702 18.3949489959665158 Ba
atom 7.4327005638960761 7.4327005638927846 18.3949489959651622 Ba
atom 2.4775668546152780 2.4775668546379106 23.2912261233155853 Ba
atom 7.4326931791203776 2.4775742394007163 23.2912261233192375 Ba
atom 2.4775742394081757 7.4326931791025830 23.2912261233166298 Ba
atom 7.4327005638769181 7.4327005638879129 23.2912261233180864 Ba
atom 4.9551337092602816 4.9551337092584333 20.6770781038033320 Zr
atom 9.9102600337408067 4.9551410940349632 20.6770781038012004 Zr
atom 4.9551410940338672 9.9102600337401245 20.6770781038086469 Zr
atom 9.9102674185154385 9.9102674185127810 20.6770781038002056 Zr
atom 4.9551337092620873 4.9551337092646026 25.8213224013391986 Zr
atom 9.9102600337438727 4.9551410940351195 25.8213224013382892 Zr
atom 4.9551410940363185 9.9102600337427695 25.8213224013430818 Zr
atom 9.9102674185148896 9.9102674185147137 25.8213224013366229 Zr
atom 4.9551337092569891 4.9551337092443424 18.1298818551769543 S
atom 9.9102600337298732 4.9551410940471552 18.1298818551805958 S
atom 4.9551410940191829 9.9102600337506050 18.1298818551787804 S
atom 9.9102674185240698 9.9102674185004886 18.1298818551806704 S
atom 4.9551337092510703 4.9551337092658212 23.2705236851789969 S
atom 9.9102600337492728 4.9551410940234986 23.2705236851797785 S
atom 4.9551410940397531 9.9102600337276225 23.2705236851797537 S
atom 9.9102674185053932 9.9102674185257520 23.2705236851817645 S
atom 4.5318423051804713 2.4775719682614659 20.7596631555384867 S
atom 10.3335440530365243 2.4775765105508696 20.7596631555089317 S
atom 5.3784251133415433 7.4326954502565998 20.7596631555137314 S
atom 9.4869760144423037 7.4327056775177747 20.7596631555386324 S
atom 5.4894055278486364 2.4775722420543489 25.8213224013228455 S
atom 9.3759808303692456 2.4775762367581322 25.8213224013694429 S
atom 4.4208618906658206 7.4326951764652662 25.8213224013597120 S
atom 10.4445392371021644 7.4327059513081668 25.8213224013487483 S
atom 2.4775691257773462 5.3784177285594588 20.7596631555150672 S
atom 7.4326982927416587 4.5318496899627565 20.7596631555349873 S
atom 2.4775793530370285 9.4869686296623197 20.7596631555320315 S
atom 7.4327028350316109 10.3335514378197804 20.7596631555191493 S
atom 2.4775688519823880 4.4208545058923674 25.8213224013492386 S
atom 7.4326985665364456 5.4894129126235667 25.8213224013421900 S
atom 2.4775796268280730 10.4445318523262358 25.8213224013463574 S
atom 7.4327025612385684 9.3759882151434883 25.8213224013591720 S
atom 2.4775668546389942 2.4775668546262377 28.3514186793779821 Ba
atom 7.4326931791154864 2.4775742394104729 28.3514186793842562 Ba
atom 2.4775742393938858 7.4326931791178286 28.3514186793814105 Ba
atom 7.4327005638953256 7.4327005638839951 28.3514186793854712 Ba
atom 2.4775668546174350 2.4775668546328968 33.2476958067223478 Ba
atom 7.4326931791104984 2.4775742394037490 33.2476958067232786 Ba
atom 2.4775742394064535 7.4326931791013973 33.2476958067208557 Ba
atom 7.4327005638721255 7.4327005638888588 33.2476958067269379 Ba
atom 4.9551337092594538 4.9551337092613057 30.9655666988802771 Zr
atom 9.9102600337404301 4.9551410940360441 30.9655666988757083 Zr
atom 4.9551410940324061 9.9102600337403555 30.9655666988814957 Zr
atom 9.9102674185134827 9.9102674185138238 30.9655666988803233 Zr
atom 4.9551337092571677 4.9551337092496537 28.3721211175061292 S
atom 9.9102600337334650 4.9551410940438991 28.3721211175112238 S
atom 4.9551410940254952 9.9102600337530706 28.3721211175105630 S
atom 9.9102674185262991 9.9102674184946888 28.3721211175101473 S
atom 4.9551337092560468 4.9551337092732757 33.5127629475092661 S
atom 9.9102600337484894 4.9551410940287166 33.5127629475068005 S
atom 4.9551410940447376 9.9102600337309834 33.5127629475084134 S
atom 9.9102674185144810 9.9102674185209771 33.5127629475108151 S
atom 4.5318423051860792 2.4775719682633519 30.8829816471807064 S
atom 10.3335440530290601 2.4775765105506156 30.8829816471568144 S
atom 5.3784251133321774 7.4326954502571487 30.8829816471576137 S
atom 9.4869760144399642 7.4327056775166875 30.8829816471894851 S
atom 2.4775691257759744 5.3784177285592740 30.8829816471590952 S
atom 7.4326982927407164 4.5318496899620140 30.8829816471762868 S
atom 2.4775793530362407 9.4869686296671585 30.8829816471793990 S
atom 7.4327028350317432 10.3335514378068591 30.8829816471631204 S
