#=======================================================
# FHI-aims file: full_relax/full_relax_RP_5_Rx1Ry20_-Rx2-Ry10.in
# Created using the Atomic Simulation Environment (ASE)
# Fri Mar 14 11:30:21 2025
#=======================================================
lattice_vector 10.0890962251112875 0.0215803659385190 0.0000000000000076 
lattice_vector 0.0215803659385194 10.0890962251110476 0.0000000000000023 
lattice_vector 0.0000000000000440 0.0000000000000133 55.0791341208586687 
atom -0.1531296232257108 -0.0064410415629266 0.2813358915945120 Ba
atom 5.1976777357810278 0.0172312245317054 0.2813358915955497 Ba
atom 0.1639198061950007 5.0509891541178042 0.2813358915946070 Ba
atom 4.9022086722988805 5.0488972539616617 0.2813358915947578 Ba
atom 0.0278265279894287 -0.0237932494914866 4.9421661006584339 Ba
atom 5.0167215845659197 0.0345834324601645 4.9421661006585618 Ba
atom -0.0170363450209411 5.0683413620463922 4.9421661006585289 Ba
atom 5.0831648235148403 5.0315450460332194 4.9421661006585937 Ba
atom 2.5248343422844961 2.5150651962130617 2.3234291957915190 Zr
atom 7.5750520657955827 2.5510632822794510 2.3234291957924991 Zr
atom 2.5412941362082266 7.5848212118673057 2.3234291957915660 Zr
atom 7.5801726378102643 7.5704034917370571 2.3234291957924316 Zr
atom 2.5310137337617951 2.5269220680702698 7.3349784246949934 Zr
atom 7.5688726743184054 2.5392064104204941 7.3349784246940253 Zr
atom 2.5351147447320046 7.5729643400065392 7.3349784246946577 Zr
atom 7.5863520292869273 7.5822603635953278 7.3349784246960299 Zr
atom 2.5638801546780337 2.8806883799992966 -0.1577075554556754 S
atom 7.5360062534022472 2.1854400984938214 -0.1577075554552016 S
atom 2.5022483238151012 7.2191980280806218 -0.1577075554563366 S
atom 7.6192184502036948 7.9360266755237667 -0.1577075554557491 S
atom 2.4598698548880518 2.0589447266888810 4.8640911799552287 S
atom 7.6400165531921020 3.0071837518033098 4.8640911799540572 S
atom 2.6062586236059957 8.0409416813899437 4.8640911799545412 S
atom 7.5152081504126418 7.1142830222131384 4.8640911799537250 S
atom 2.5222740562774808 0.0053950914844451 2.0107444609328162 S
atom 7.5668221688334389 0.0161852744554469 2.7967889044123626 S
atom 2.5330642392470111 5.0499432040374606 2.7967889044127374 S
atom 7.5776123518023288 5.0607333870110232 2.0107444609327842 S
atom 2.5222740562775807 0.0053950914879198 7.8046629584682341 S
atom 7.5668221688333892 0.0161852744562669 6.8812083461475630 S
atom 2.5330642392470057 5.0499432040440668 6.8812083461476448 S
atom 7.5776123518024221 5.0607333870138271 7.8046629584683931 S
atom 0.0053950914847795 2.5222740562771899 2.4018878620701973 S
atom 5.0499432040399386 2.5330642392467668 2.5101371916560087 S
atom 0.0161852744541333 7.5668221688329584 2.5101371916557622 S
atom 5.0607333870092024 7.5776123518019016 2.4018878620704114 S
atom 0.0053950914842723 2.5222740562762840 7.4475205203791068 S
atom 5.0499432040402379 2.5330642392453058 7.2491261299847878 S
atom 0.0161852744526050 7.5668221688315791 7.2491261299847318 S
atom 5.0607333870099200 7.5776123518010685 7.4475205203791770 S
atom -0.0084371879912049 0.0490307212952808 9.8295149026364381 Ba
atom 5.0529853005465686 -0.0382405383268042 9.8295149026364275 Ba
atom 0.0192273709596616 4.9955173912596562 9.8295149026363546 Ba
atom 5.0469011075341674 5.1043690168203328 9.8295149026364772 Ba
atom 0.0084371879909421 -0.0490307212960610 14.7593842584648165 Ba
atom 5.0361109245645430 0.0598209042645526 14.7593842584648129 Ba
atom 0.0023529949781700 5.0935788338509225 14.7593842584648662 Ba
atom 5.0637754835158821 5.0063075742288268 14.7593842584649551 Ba
atom 2.5276691477621513 2.5276691477615061 12.2944495805509444 Zr
atom 7.5722172603179612 2.5384593307303378 12.2944495805522305 Zr
atom 2.5384593307313637 7.5722172603162292 12.2944495805525271 Zr
atom 7.5830074432870944 7.5830074432864487 12.2944495805511220 Zr
atom 2.5243245617628682 2.5284162274512778 17.2539207364081406 Zr
atom 7.5755618463175347 2.5377122510391699 17.2539207364041545 Zr
atom 2.5418039167310771 7.5714701806265721 17.2539207364050036 Zr
atom 7.5796628572877855 7.5837545229749601 17.2539207364065383 Zr
atom 2.6255589302688080 3.0277485715222840 9.8189925144757630 S
atom 7.4743274778112614 2.0383799069690829 9.8189925144754504 S
atom 2.4405695482248482 7.0721378365551528 9.8189925144748891 S
atom 7.6808972257937533 8.0830868670472746 9.8189925144766530 S
atom 2.4297793652557491 2.0275897240001304 14.7699066466275823 S
atom 7.6701070428243225 3.0385387544908879 14.7699066466290585 S
atom 2.6363491132379595 8.0722966840774326 14.7699066466303215 S
atom 7.4851176607804870 7.0829280195245037 14.7699066466212940 S
atom 2.5222740562775661 0.0053950914868645 11.8227285656353889 S
atom 7.5668221688331743 0.0161852744571258 12.7661705954651161 S
atom 2.5330642392468450 5.0499432040435499 12.7661705954647768 S
atom 7.5776123518024470 5.0607333870097513 11.8227285656360497 S
atom 2.5222740562776322 0.0053950914892419 17.7076908149542014 S
atom 7.5668221688332924 0.0161852744568620 16.7842362026341441 S
atom 2.5330642392469205 5.0499432040415080 16.7842362026339948 S
atom 7.5776123518024567 5.0607333870184847 17.7076908149545424 S
atom 0.0053950914842073 2.5222740562766930 12.1740501378986838 S
atom 5.0499432040405257 2.5330642392457907 12.4148490232017252 S
atom 0.0161852744558513 7.5668221688318988 12.4148490232022617 S
atom 5.0607333870076916 7.5776123518013137 12.1740501378990711 S
atom 0.0053950914850778 2.5222740562758972 17.3397730311170832 S
atom 5.0499432040392005 2.5330642392450766 17.1413786407227740 S
atom 0.0161852744531376 7.5668221688313970 17.1413786407231079 S
atom 5.0607333870098490 7.5776123518007665 17.3397730311175238 S
atom -0.0278265279895637 0.0237932494910424 19.6467330604425179 Ba
atom 5.0723746405449219 -0.0130030665221127 19.6467330604424575 Ba
atom 0.0386167109592050 5.0207548630637486 19.6467330604425534 Ba
atom 5.0275117675345813 5.0791315450153736 19.6467330604426209 Ba
atom 0.1531296232255326 0.0064410415625757 24.3075632695102293 Ba
atom 4.8914184893297437 0.0043491414063473 24.3075632695102293 Ba
atom -0.1423394402567337 5.0381070709922700 24.3075632695118991 Ba
atom 5.2084679187504950 5.0617793370870494 24.3075632695105952 Ba
atom 2.5305039532393767 2.5402730993117455 22.2654699653088777 Zr
atom 7.5693824548407980 2.5258553791821989 22.2654699653101034 Zr
atom 2.5356245252539718 7.5596133087685535 22.2654699653092152 Zr
atom 7.5858422487647541 7.5956113948350570 22.2654699653087107 Zr
atom 2.5954684406365667 2.9963935688341450 19.7248079811433712 S
atom 7.5044179674435583 2.0697349096570736 19.7248079811433179 S
atom 2.4706600378572685 7.1034928392445487 19.7248079811424759 S
atom 7.6508067361614538 8.0517318643582296 19.7248079811489845 S
atom 2.4914581408460204 2.1746499155247698 24.7466067165554122 S
atom 7.6084282672342480 2.8914785629689139 24.7466067165568830 S
atom 2.5746703376476190 7.9252364925550403 24.7466067165562400 S
atom 7.5467964363711069 7.2299882110488856 24.7466067165567161 S
atom 2.5222740562776922 0.0053950914847192 21.7921102566901510 S
atom 7.5668221688332675 0.0161852744540396 22.5781547001683300 S
atom 2.5330642392469627 5.0499432040382626 22.5781547001693141 S
atom 7.5776123518026468 5.0607333870118039 21.7921102566895719 S
atom 0.0053950914830715 2.5222740562772255 22.0787619694464397 S
atom 5.0499432040414307 2.5330642392464111 22.1870112990318198 S
atom 0.0161852744542307 7.5668221688329051 22.1870112990312478 S
atom 5.0607333870088054 7.5776123518021841 22.0787619694457575 S
atom 2.5341101893254003 2.6807987709876824 27.8209029520212354 Ba
atom 7.5657762187550519 2.3853297075048627 27.8209029520201838 Ba
atom 2.5320182891692107 7.4190876370919527 27.8209029520212283 Ba
atom 7.5894484848499815 7.7361370665131846 27.8209029520204787 Ba
atom 2.5514623972539789 2.4998426197713108 32.4817331610884423 Ba
atom 7.5484240108257872 2.5662858587201574 32.4817331610881794 Ba
atom 2.5146660812409163 7.6000437883084198 32.4817331610882292 Ba
atom 7.6068006927775782 7.5551809152978517 32.4817331610882505 Ba
atom 5.0679422470729527 5.0581731010017439 29.8629962562207574 Zr
atom 10.0872824565316428 5.0632936730163838 29.8629962562196489 Zr
atom 5.0535245269441305 10.0970516026026029 29.8629962562229991 Zr
atom 10.1232805425978256 10.1135113965263468 29.8629962562205193 Zr
atom 5.0560853752177888 5.0519937095249396 34.8745454851199312 Zr
atom 10.0991393283903577 5.0694730644930646 34.8745454851284933 Zr
atom 5.0653813988025753 10.1032309940793006 34.8745454851216223 Zr
atom 10.1114236707395850 10.1073320050491553 34.8745454851234982 Zr
atom 4.7023190632872671 5.0191272886083436 27.3818595049761733 S
atom 10.4529056403170486 5.1023394854097601 27.3818595049686380 S
atom 5.4191477107313357 10.1360974149959926 27.3818595049764326 S
atom 9.7576573588119029 10.0744655841328825 27.3818595049778928 S
atom 5.5240627165971770 5.1231375883987118 32.4036582403861075 S
atom 9.6311619870079159 4.9983291856192373 32.4036582403953091 S
atom 4.5974040574210129 10.0320871152055862 32.4036582403813043 S
atom 10.5794010121220303 10.1784758839235110 32.4036582403799613 S
atom 5.0499432040394483 2.5330642392457570 30.0497042520854194 S
atom 10.0944913165951746 2.5438544222210440 29.9414549225000606 S
atom 5.0607333870085487 7.5776123518025376 29.9414549225000926 S
atom 10.1052814995645655 7.5884025347664137 30.0497042520856326 S
atom 5.0499432040401784 2.5330642392427234 34.7886931904149108 S
atom 10.0944913165953984 2.5438544222167003 34.9870875808082999 S
atom 5.0607333870097850 7.5776123518061445 34.9870875808093160 S
atom 10.1052814995641889 7.5884025347713466 34.7886931904138379 S
atom 2.5330642392495006 5.0499432040397982 30.3363559648421557 S
atom 7.5776123518025145 5.0607333870089839 29.5503115213623033 S
atom 2.5438544222152624 10.0944913165951569 29.5503115213635041 S
atom 7.5884025347759803 10.1052814995645850 30.3363559648417471 S
atom 2.5330642392479565 5.0499432040396828 34.4207754065757712 S
atom 7.5776123517967893 5.0607333870086535 35.3442300188956651 S
atom 2.5438544222190500 10.0944913165948282 35.3442300188996370 S
atom 7.5884025347708830 10.1052814995645885 34.4207754065793097 S
atom 2.4786384264657286 2.5361063357533848 37.3690819630661792 Ba
atom 7.6212479816144434 2.5300221427418688 37.3690819630666553 Ba
atom 2.5874900520264048 7.5637800723261295 37.3690819630665487 Ba
atom 7.5339767219921461 7.5914446312763157 37.3690819630667406 Ba
atom 2.5766998690575957 2.5192319597714277 42.2989513188946162 Ba
atom 7.5231865390219541 2.5468965187222969 42.2989513188948507 Ba
atom 2.4894286094353153 7.5806544483089970 42.2989513188945594 Ba
atom 7.6320381645825472 7.5745702552957139 42.2989513188949502 Ba
atom 5.0553382955248543 5.0553382955242565 39.8340166409837693 Zr
atom 10.0998864080805681 5.0661284784936038 39.8340166409783407 Zr
atom 5.0661284784929084 10.0998864080800406 39.8340166409774596 Zr
atom 10.1106765910482395 10.1106765910493763 39.8340166409905123 Zr
atom 5.0545912158332875 5.0586828815238025 44.7934877968391234 Zr
atom 10.1006334877707253 5.0627838924947639 44.7934877968409992 Zr
atom 5.0668755581839653 10.0965418220806491 44.7934877968457386 Zr
atom 10.1099295113599510 10.1140211770489650 44.7934877968286784 Zr
atom 4.5552588717633293 4.9574485130174706 37.3585595749045964 S
atom 10.5999658318417023 5.1640182610000931 37.3585595749088881 S
atom 5.5662079022541775 10.1977761905863762 37.3585595749063373 S
atom 9.6105971672861887 10.0127868085420548 37.3585595748922188 S
atom 5.5554177192853516 5.1532280780308852 42.3094737070678590 S
atom 9.5998069843186489 4.9682386959869884 42.3094737070386628 S
atom 4.5660490547298132 10.0019966255728967 42.3094737070561777 S
atom 10.6107560148076310 10.2085663735555308 42.3094737070670561 S
atom 5.0499432040382954 2.5330642392490237 39.9544160836297593 S
atom 10.0944913165942776 2.5438544222112993 39.7136171983293167 S
atom 5.0607333870078959 7.5776123517996670 39.7136171983267445 S
atom 10.1052814995631071 7.5884025347759092 39.9544160836329780 S
atom 5.0499432040385699 2.5330642392427749 44.6809457011521403 S
atom 10.0944913165953611 2.5438544222206123 44.8793400915467799 S
atom 5.0607333870081952 7.5776123518059766 44.8793400915462612 S
atom 10.1052814995642333 7.5884025347659012 44.6809457011516571 S
atom 2.5330642392510052 5.0499432040396357 40.3057376558941343 S
atom 7.5776123517989760 5.0607333870087992 39.3622956260654391 S
atom 2.5438544222177129 10.0944913165951053 39.3622956260639896 S
atom 7.5884025347839170 10.1052814995643576 40.3057376558941911 S
atom 2.5330642392424552 5.0499432040399590 44.3238032630643417 S
atom 7.5776123518118030 5.0607333870088729 45.2472578753846193 S
atom 2.5438544222129367 10.0944913165953700 45.2472578753818553 S
atom 7.5884025347826292 10.1052814995645761 44.3238032630612580 S
atom 2.5038758982722711 2.5554956757519713 47.1863001208712518 Ba
atom 7.5960105098078410 2.5106328027401172 47.1863001208712305 Ba
atom 2.5622525802239435 7.5443907323276473 47.1863001208711310 Ba
atom 7.5592141937948432 7.6108339712773887 47.1863001208709392 Ba
atom 2.5212281062008524 2.3745395245365213 51.8471303299411730 Ba
atom 7.5786583018802531 2.6915889539574831 51.8471303299407893 Ba
atom 2.5449003722957362 7.7253468835432377 51.8471303299413719 Ba
atom 7.5765664017239569 7.4298778200606934 51.8471303299406898 Ba
atom 5.0427343439759804 5.0525034900472816 49.8050370257375334 Zr
atom 10.1124903596287670 5.0689632839709136 49.8050370257391961 Zr
atom 5.0787324300428649 10.1027212135571176 49.8050370257387556 Zr
atom 10.0980726394997014 10.1078417855714289 49.8050370257305133 Zr
atom 4.5866138744526319 4.9875390026505775 47.2643750415603208 S
atom 10.5686108291514458 5.1339277713679694 47.2643750415808839 S
atom 5.5348528995655251 10.1676857009537045 47.2643750415771891 S
atom 9.6419521699772233 10.0428772981746270 47.2643750415828450 S
atom 5.4083575277623552 5.0915493024404341 52.2861737769792470 S
atom 9.7468671758424854 5.0299174715772281 52.2861737769783801 S
atom 4.7131092462557884 10.0636754011637830 52.2861737769713955 S
atom 10.4636958232877895 10.1468875979655380 52.2861737769876598 S
atom 5.0499432040404031 2.5330642392483353 49.7265783594646891 S
atom 10.0944913165958745 2.5438544222170201 49.6183290298757029 S
atom 5.0607333870098126 7.5776123518003251 49.6183290298794049 S
atom 10.1052814995648887 7.5884025347709807 49.7265783594613282 S
atom 2.5330642392526288 5.0499432040396641 50.1177217606002827 S
atom 7.5776123517968061 5.0607333870090843 49.3316773171227467 S
atom 2.5438544222154684 10.0944913165952812 49.3316773171221712 S
atom 7.5884025347716983 10.1052814995643008 50.1177217605989043 S
