#=======================================================
# FHI-aims file: full_relax/full_relax_RP_1_Rx0Rz_0RyRz.in
# Created using the Atomic Simulation Environment (ASE)
# Fri Mar 14 11:17:04 2025
#=======================================================
lattice_vector 10.1083997533920993 0.0000243595753525 0.0003358439915906 
lattice_vector 0.0000243595753523 10.1083997533921739 -0.0003358439924639 
lattice_vector -0.0005100181925386 0.0005100181910838 15.5284656698154624 
atom -0.1566317400986513 -0.0000138633906725 0.2394899853156446 Ba
atom 5.2108164529919589 0.0000405137835294 0.2396666875570607 Ba
atom 0.1566287558028843 5.0542282108664676 0.2393308453592876 Ba
atom 4.8975803168835670 5.0541981929827200 0.2394899864102699 Ba
atom 0.1564723598145198 0.0001732450835397 4.6131555383141842 Ba
atom 4.8974239190027617 0.0001432247797988 4.6133146792642759 Ba
atom -0.1567637767919907 5.0543309223122703 4.6129788358265538 Ba
atom 5.2106844154041658 5.0543853024288001 4.6131555379867573 Ba
atom 2.5270263372862445 2.5271857220301284 2.4263227674428784 Zr
atom 7.5812262230863405 2.5271978975262064 2.4264906872991436 Zr
atom 2.5270385211836843 7.5813855926586857 2.4261548460681168 Zr
atom 7.5812383887168506 7.5813977714423268 2.4263227658716588 Zr
atom 2.5271361721889609 2.8450968530197622 -0.1070557381665317 S
atom 7.5812908175915830 2.2091206896762845 -0.1068654851588895 S
atom 2.5271031188910174 7.2633083867747219 -0.1072013298949098 S
atom 7.5813482278379611 7.8993089082867458 -0.1070557375627135 S
atom 2.5269165064284751 2.2092745840580932 4.9597012538496665 S
atom 7.5811616128155581 2.8452751051258991 4.9598468470802617 S
atom 2.5269739150696298 7.8994628045073005 4.9595110007619576 S
atom 7.5811285611347170 7.2634866410961552 4.9597012542343606 S
atom 2.5270284075891212 0.0000760382748297 2.1156140136051502 S
atom 7.5812119665778077 0.0001077071025501 2.7373673504353500 S
atom 2.5270242697264758 5.0542953971995237 2.7370315055064394 S
atom 7.5812404641510183 5.0542880991291481 2.1156140133995502 S
atom -0.0000742110021962 2.5271815454302344 2.4262171542983073 S
atom 5.0541268708907987 2.5271898898412086 2.4264283656853816 S
atom -0.0000608158121380 7.5813775875088298 2.4260925211588256 S
atom 5.0541378556437104 7.5813936026483590 2.4262171542987367 S
atom 2.5268648836249268 2.6839927798097687 8.0037228180407798 Ba
atom 7.5810225609283481 2.3707566415432706 8.0038995204106786 Ba
atom 2.5268348623509915 7.4249443355041462 8.0035636783009547 Ba
atom 7.5810769413668160 7.7382048329287798 8.0037228191649561 Ba
atom 2.5266777758794507 2.3708886771194835 12.3773883713542041 Ba
atom 7.5809198480785884 2.6841491717309318 12.3775475133308959 Ba
atom 2.5267321527331368 7.7383368718970731 12.3772116672466410 Ba
atom 7.5808898311662807 7.4251007371959536 12.3773883704446082 Ba
atom 5.0538773516126536 5.0545467486542188 10.1905555871775793 Zr
atom 10.1080772392356018 5.0545589490373004 10.1907235041619089 Zr
atom 5.0538895383058753 10.1087466261241392 10.1903876752113831 Zr
atom 10.1080894161740442 10.1087588005219562 10.1905555921287654 Zr
atom 4.7359662238373756 5.0544369208714244 7.6571771043408878 S
atom 10.4261544411894445 5.0544943324205382 7.6573673586884485 S
atom 5.3719667457543254 10.1086820288697776 7.6570315073482655 S
atom 9.7901782800454136 10.1086489808719406 7.6571771013594443 S
atom 5.3717884916964236 5.0546565871900713 12.7239340958192013 S
atom 9.7900000248153116 5.0546235367962753 12.7240796905365912 S
atom 4.7358123289819698 10.1088112331048379 12.7237438391511652 S
atom 10.4260005483645610 10.1088686470296896 12.7239340934382579 S
atom 5.0538731858602164 2.5274462293982407 10.1906612025040015 S
atom 10.1080692264568075 2.5274595988250383 10.1907858350743474 S
atom 5.0538815302849001 7.5816473102515642 10.1904499914100217 S
atom 10.1080852415920699 7.5816582694763124 10.1906612022271670 S
atom 2.5267676779171784 5.0545488222190889 10.5012643429972208 S
atom 7.5809870378278275 5.0545446842930426 9.8798468504423838 S
atom 2.5267993351906517 10.1087323832327236 9.8795110066445861 S
atom 7.5809797278561399 10.1087608807243114 10.5012643430625054 S
