#=======================================================
# FHI-aims file: full_relax/full_relax_RP_3_Rx0Mz_0-RyMz.in
# Created using the Atomic Simulation Environment (ASE)
# Fri Mar 14 11:19:58 2025
#=======================================================
lattice_vector 10.0929972582173537 0.0000205155825285 0.0017696288955229 
lattice_vector 0.0000205155826291 10.0929972586819954 0.0017696294584340 
lattice_vector 0.0062998203219432 0.0062998224040035 35.3595851538281636 
atom -0.1746847884107449 0.0025077578432581 0.2942542305539668 Ba
atom 5.2129059744100745 0.0025395463963697 0.2930738887729733 Ba
atom 0.1664174798811772 5.0490279824774547 0.2930747060477857 Ba
atom 4.8718241372877493 5.0490167074159595 0.2960233031094701 Ba
atom 0.0064068503765639 0.0017918504455560 4.9580715674258142 Ba
atom 4.9976142635945751 0.0018141334672110 4.9359321384371801 Ba
atom -0.0488739549968503 5.0483024139676917 4.9359316356639811 Ba
atom 5.0529155888681947 5.0483006529325980 4.9598410328365583 Ba
atom 2.5172161953874177 2.5025470741286413 2.3498635893038489 Zr
atom 7.5637209265579175 2.5483412219012171 2.3511878729508062 Zr
atom 2.5172312288933609 7.5948281589383644 2.3511881262419587 Zr
atom 7.5637263712619758 7.5490551329209596 2.3516322992111029 Zr
atom 2.5245670121648169 2.5245650727921332 7.3674645440087518 Zr
atom 7.5710656225981490 2.5245771075581027 7.3683513220996009 Zr
atom 2.5245775555529937 7.5710672965613153 7.3683499569519748 Zr
atom 7.5710758375356191 7.5710755398113108 7.3692339696078033 Zr
atom 2.5194846229573717 2.8141710417468659 -0.1301137511402892 S
atom 7.5659611860726104 2.2376708833536760 -0.1288687486964266 S
atom 2.5194726729599348 7.2841591562273278 -0.1288685291059335 S
atom 7.5659936375826202 7.8606799502510656 -0.1283435698258430 S
atom 2.5208243608500305 2.0623020944700512 4.8887026341494781 S
atom 7.5673938787768398 2.9878154262582943 4.8898012613357187 S
atom 2.5209056207969365 8.0343035116852981 4.8898018714514810 S
atom 7.5673331934469887 7.1088111147081676 4.8904730702240737 S
atom 2.5202563387627661 0.0022656174521782 2.0460136540650686 S
atom 7.5636862438196317 0.0021339293901534 2.7833403634921110 S
atom 2.5171980799122680 5.0486239554327703 2.7833402022001223 S
atom 7.5667651326567809 5.0487747958082814 2.0477833704808117 S
atom 2.5934303713339601 0.0012190399200522 7.8153661999725959 S
atom 7.5021919379096396 0.0014259900698923 6.9195636895500217 S
atom 2.4557035471625981 5.0479146301988465 6.9195636961408793 S
atom 7.6399393456859448 5.0477279905472949 7.8171358439633574 S
atom -0.0049064235565894 2.5259046280070949 2.4794444404613221 S
atom 5.0415591707138949 2.5249986914889662 2.4803610658986908 S
atom -0.0049292778394998 7.5714872151764308 2.4803608886886099 S
atom 5.0416026200490354 7.5724136667841151 2.4812140875058915 S
atom 0.0013029310842726 2.4473430217825700 7.3670419222388164 S
atom 5.0478305395767924 2.6017909484474213 7.3678883969935205 S
atom 0.0013419091160765 7.6482790292956748 7.3678880440817460 S
atom 5.0478115528341494 7.4938516300722089 7.3688111822935873 S
atom -0.0037815697614861 0.0008332190182144 9.7750889499229476 Ba
atom 5.0980075194665515 0.0008314487384918 9.7989982233569677 Ba
atom 0.0515190259299893 5.0473196555318722 9.7989983483664940 Ba
atom 5.0427274487043441 5.0473419492696738 9.7768589082728905 Ba
atom 0.1773098291130464 0.0001169981503123 14.4389060168378673 Ba
atom 4.8827160992547167 0.0001058159128755 14.4418553727963914 Ba
atom -0.1637719524409413 5.0465940474394655 14.4418559293311528 Ba
atom 5.2238183759562098 5.0466257409436288 14.4406749949190836 Ba
atom 2.5319175828100438 2.5465878776890709 12.3850660432126194 Zr
atom 7.5784098721462874 2.5008142328791374 12.3855126286792796 Zr
atom 2.5319227239892155 7.5473030288759073 12.3855130168108083 Zr
atom 7.5784254064542091 7.5930957232952547 12.3868341856768325 Zr
atom 2.5283094104734345 2.9868322671632144 9.8462291290526078 S
atom 7.5747372201464911 2.0613390235968407 9.8468944645321255 S
atom 2.5282488094464273 7.1078274275475595 9.8468961958909542 S
atom 7.5748184764885753 8.0333406861192440 9.8480001918144815 S
atom 2.5296492849157115 2.2349628438816915 14.8650455017155902 S
atom 7.5761699695588796 2.8114832093929656 14.8655678014300570 S
atom 2.5296818136880872 7.8579719874928164 14.8655680857522370 S
atom 7.5761579990916417 7.2814714264197953 14.8668158487887752 S
atom 2.5319357907833160 0.0005088920895803 11.9515896659063969 S
atom 7.5753658019712402 0.0003810253057256 12.6889164585725993 S
atom 2.5288773315960160 5.0468670966539166 12.6889163195873085 S
atom 7.5784448539054248 5.0470194544349898 11.9533594429673329 S
atom 0.0075738404767333 2.5241353501204524 12.2545691971935096 S
atom 5.0540416156031966 2.5232292121013087 12.2554858439351602 S
atom 0.0075522048339205 7.5697176395601282 12.2554853096873657 S
atom 5.0540834254231592 7.5706442860720760 12.2563384942224474 S
atom 2.5289115797434119 2.3517195577199188 17.9749309761597686 Ba
atom 7.5754330008857780 2.6928220454876253 17.9737510732315933 Ba
atom 2.5289432110847843 7.7393103378368604 17.9737509042068346 Ba
atom 7.5754219006944101 7.3982283330337575 17.9767006960329958 Ba
atom 2.5281966975179073 2.5328109969653751 22.6387490114941876 Ba
atom 7.5747064259944556 2.4775304905968611 22.6166092460968997 Ba
atom 2.5282188342192162 7.5240188539798565 22.6166095075813764 Ba
atom 7.5747047691917722 7.5793198767379142 22.6405184728523778 Ba
atom 5.0289509013242819 5.0436207120156213 20.0305435176323350 Zr
atom 10.1212323300519351 5.0436369029333381 20.0318624119442745 Zr
atom 5.0747444888478777 10.0901251815146367 20.0318666967945731 Zr
atom 10.0754600177517641 10.0901301278406699 20.0323091417347356 Zr
atom 5.0509698488773740 5.0509709129773697 25.0481376147657215 Zr
atom 10.0974699828690646 5.0509816336358382 25.0490315040023432 Zr
atom 5.0509807694844886 10.0974699779951855 25.0490262699245392 Zr
atom 10.0974818087640710 10.0974794491676363 25.0499137172206332 Zr
atom 5.3405753568275216 5.0458890743137363 17.5505643655354042 S
atom 9.8105635044656836 5.0458771284941371 17.5518106629076414 S
atom 4.7640751575651885 10.0923653170592154 17.5518091138360823 S
atom 10.3870842214846135 10.0923979499448730 17.5523351329545747 S
atom 4.5887070537420254 5.0472286520399319 22.5693819589007951 S
atom 10.5607082095570828 5.0473098381973962 22.5704795488378558 S
atom 5.5142195517242438 10.0937981764767901 22.5704797152448045 S
atom 9.6352151132988570 10.0937376110916457 22.5711489759285477 S
atom 5.0523090410352962 2.5214981322443317 20.1601212267435805 S
atom 10.0978913262376366 2.5214745575268300 20.1610384422761939 S
atom 5.0514030149190337 7.5679632661644547 20.1610377617299967 S
atom 10.0988178798350638 7.5680059981643852 20.1618914991893234 S
atom 4.9737475458442653 2.5277079302621992 25.0477192102517243 S
atom 10.1746835928992851 2.5277474898589101 25.0485659019723030 S
atom 5.1281954450648506 7.5742351870181075 25.0485656973957234 S
atom 10.0202562023292234 7.5742167695134066 25.0494890445410547 S
atom 2.5286725121397580 5.0466608053944864 19.7266907344742926 S
atom 7.5750248091585330 5.0436024073926298 20.4640171738110936 S
atom 2.5285422476739918 10.0900907369791426 20.4640172800140689 S
atom 7.5751776182639112 10.0931696487789999 19.7284606222000285 S
atom 2.5276233874953520 5.1198345111734271 25.4960435120169961 S
atom 7.5743181376398798 4.9821076828396418 24.6002411636227016 S
atom 2.5278299024664674 10.0285961182831738 24.6002416260137124 S
atom 7.5741320651614883 10.1663434961499188 25.4978136650487066 S
atom 2.5272370738017598 2.5226226126198785 27.4557664632127967 Ba
atom 7.5737245367272958 2.5779238026532996 27.4796757833921390 Ba
atom 2.5272351194519893 7.6244120877737407 27.4796756990071991 Ba
atom 7.5737470426176818 7.5691314072942051 27.4575362423981169 Ba
atom 2.5265220607095711 2.7037137894288565 32.1195837590477780 Ba
atom 7.5729975452097502 2.3626321573328752 32.1225335654488120 Ba
atom 2.5265105887279731 7.4091208747017578 32.1225333389775685 Ba
atom 7.5730295097934501 7.7502230411209494 32.1213535667082226 Ba
atom 5.0729911008072825 5.0583207459267152 30.0657442801957338 Zr
atom 10.0737061358430591 5.0583277845080037 30.0661886449464149 Zr
atom 5.0272192010139305 10.1048151085714810 30.0661936303949844 Zr
atom 10.1195024009546337 10.1048295745824959 30.0675111306446503 Zr
atom 5.5132364421835840 5.0547137394863366 27.5269076368874899 S
atom 9.6342319088824802 5.0546530426917080 27.5275702526586414 S
atom 4.5877438864732882 10.1011413729225001 27.5275727286445253 S
atom 10.5597450640604151 10.1012228124209731 27.5286727875730435 S
atom 4.7613665810831707 5.0560535264373705 32.5457235550180712 S
atom 10.3843759035399295 5.0560860188090855 32.5462445347167559 S
atom 5.3378880656572587 10.1025743381223858 32.5462417023665864 S
atom 9.8078761925035867 10.1025626289196389 32.5474930906127540 S
atom 5.0505399134349176 2.5339788109182404 29.9352460974741845 S
atom 10.0961219810449307 2.5339557813774936 29.9361638607886569 S
atom 5.0496337844365273 7.5804460575765278 29.9361626048436911 S
atom 10.0970486053572301 7.5804874652404672 29.9370169896706102 S
atom 2.5269133349220527 5.0583402028382727 29.6322673191438710 S
atom 7.5732757528233128 5.0552816896311557 30.3695939090534957 S
atom 2.5267799186701128 10.1017701926144010 30.3695941980229094 S
atom 7.5734239212261736 10.1048491862854952 29.6340370582373360 S
