#=======================================================
# FHI-aims file: full_relax/full_relax_RP_7_00Mz1_00Mz2.in
# Created using the Atomic Simulation Environment (ASE)
# Mon Mar 24 15:35:41 2025
#=======================================================
lattice_vector 9.9091064708364218 -0.0000000081919670 0.0000000000000281 
lattice_vector -0.0000000081919670 9.9091064708364218 -0.0000000000000494 
lattice_vector 0.0000000000002077 -0.0000000000003654 77.3781996076410223 
atom -0.0000000000116611 -0.0000000000012704 0.1631014701810048 Ba
atom 4.9545532354136341 -0.0000000040965110 0.1631014701824147 Ba
atom -0.0000000041004491 4.9545532354167205 0.1631014701810726 Ba
atom 4.9545532313110101 4.9545532313202880 0.1631014701820452 Ba
atom -0.0000000000018198 -0.0000000000033588 5.0659876540530719 Ba
atom 4.9545532353936652 -0.0000000040985712 5.0659876540529849 Ba
atom -0.0000000041212190 4.9545532354159381 5.0659876540531688 Ba
atom 4.9545532313209337 4.9545532313193164 5.0659876540530133 Ba
atom 2.4772766156590440 2.4772766156596600 2.4366674310925531 Zr
atom 7.4318298510765937 2.4772766115640050 2.4366674310931660 Zr
atom 2.4772766115626883 7.4318298510781329 2.4366674310935608 Zr
atom 7.4318298469808797 7.4318298469819890 2.4366674310943810 Zr
atom 2.4772766156638473 2.4772766156635586 7.5750420905383846 Zr
atom 7.4318298510825445 2.4772766115611220 7.5750420905372531 Zr
atom 2.4772766115684375 7.4318298510749567 7.5750420905377016 Zr
atom 7.4318298469862469 7.4318298469861768 7.5750420905368703 Zr
atom 2.4772766156638069 2.4772766156679995 -0.1064345145834519 S
atom 7.4318298510790184 2.4772766115555420 -0.1064345145836222 S
atom 2.4772766115650922 7.4318298510698888 -0.1064345145816556 S
atom 7.4318298469857078 7.4318298469903512 -0.1064345145815699 S
atom 2.4772766156652684 2.4772766156371024 5.0367722389510883 S
atom 7.4318298510811553 2.4772766115880280 5.0367722389524037 S
atom 2.4772766115670457 7.4318298511020471 5.0367722389515164 S
atom 7.4318298469874140 7.4318298469595510 5.0367722389509000 S
atom 2.0528743454776830 0.0000018719474315 2.5296338579246913 S
atom 7.8562321253533289 -0.0000018801404587 2.5296338579482440 S
atom 2.9016788858387783 4.9545513593729318 2.5296338579483391 S
atom 7.0074275768001524 4.9545551032688016 2.5296338579244058 S
atom 2.9977220509406077 0.0000013315491868 7.5898684633650477 S
atom 6.9113844198885426 -0.0000013397429678 7.5898684632921372 S
atom 1.9568311803743395 4.9545518997728824 7.5898684632916806 S
atom 7.9522752822629235 4.9545545628714560 7.5898684633653355 S
atom -0.0000018760455957 2.9016788899359192 2.5296338579366409 S
atom 4.9545551073655574 2.0528743413828674 2.5296338579373310 S
atom 0.0000018678510508 7.0074275808973816 2.5296338579369788 S
atom 4.9545513552772178 7.8562321212579507 2.5296338579355235 S
atom -0.0000013356444799 1.9568311844728070 7.5898684633250824 S
atom 4.9545545669689073 2.9977220468470938 7.5898684633321816 S
atom 0.0000013274541668 7.9522752863612984 7.5898684633320697 S
atom 4.9545518956774091 6.9113844157950064 7.5898684633251818 S
atom 0.0000000000589405 0.0000000000038759 10.1543517501628031 Ba
atom 4.9545532354613071 -0.0000000040917294 10.1543517501630518 Ba
atom -0.0000000040528231 4.9545532354227380 10.1543517501629132 Ba
atom 4.9545532313809506 4.9545532313264129 10.1543517501628831 Ba
atom -0.0000000000687052 -0.0000000000097748 15.2622720362996009 Ba
atom 4.9545532353607076 -0.0000000041078378 15.2622720362994411 Ba
atom -0.0000000041526505 4.9545532354066237 15.2622720362993896 Ba
atom 4.9545532312527190 4.9545532313119223 15.2622720362997129 Ba
atom 2.4772766156598105 2.4772766156595765 12.6973006655814800 Zr
atom 7.4318298510775742 2.4772766115638269 12.6973006655798244 Zr
atom 2.4772766115632776 7.4318298510781640 12.6973006655801761 Zr
atom 7.4318298469820299 7.4318298469816684 12.6973006655796805 Zr
atom 2.4772766156594050 2.4772766156601165 17.8173485938699052 Zr
atom 7.4318298510779668 2.4772766115649270 17.8173485938747618 Zr
atom 2.4772766115641169 7.4318298510791267 17.8173485938723211 Zr
atom 7.4318298469817421 7.4318298469824615 17.8173485938727012 Zr
atom 2.4772766156470110 2.4772766157038562 10.1458187388988677 S
atom 7.4318298510757614 2.4772766115185614 10.1458187388981109 S
atom 2.4772766115614475 7.4318298510326075 10.1458187388991643 S
atom 7.4318298469693218 7.4318298470260720 10.1458187388982548 S
atom 2.4772766156795054 2.4772766156062125 15.2602933789556250 S
atom 7.4318298510791241 2.4772766116214502 15.2602933789546569 S
atom 2.4772766115651192 7.4318298511357899 15.2602933789530066 S
atom 7.4318298470016373 7.4318298469284523 15.2602933789543052 S
atom 2.9797890264834646 -0.0000001158397116 12.7078870939529160 S
atom 6.9293174443484267 0.0000001076458985 12.7078870940672086 S
atom 1.9747642048341640 4.9545533471590053 12.7078870940668427 S
atom 7.9343422578058158 4.9545531154816844 12.7078870939531434 S
atom 2.9814721870664398 -0.0000000224328075 17.8173485939335272 S
atom 6.9276342837680467 0.0000000142394970 17.8173485938110865 S
atom 1.9730810442539326 4.9545532537547414 17.8173485938117402 S
atom 7.9360254183885370 4.9545532088900801 17.8173485939330725 S
atom 0.0000001117416657 1.9747642089314481 12.7078870940178152 S
atom 4.9545531195767598 2.9797890223886587 12.7078870940019542 S
atom -0.0000001199366215 7.9343422619030006 12.7078870940022224 S
atom 4.9545533430634245 6.9293174402536497 12.7078870940180710 S
atom 0.0000000183352299 1.9730810483499392 17.8173485938601956 S
atom 4.9545532129847025 2.9814721829705726 17.8173485938844713 S
atom -0.0000000265301748 7.9360254224846729 17.8173485938843008 S
atom 4.9545532496571028 6.9276342796721515 17.8173485938602774 S
atom 0.0000000000616360 0.0000000000110326 20.3724251514449186 Ba
atom 4.9545532354698132 -0.0000000040816987 20.3724251514448085 Ba
atom -0.0000000040450153 4.9545532354321811 20.3724251514444461 Ba
atom 4.9545532313843221 4.9545532313335654 20.3724251514452384 Ba
atom -0.0000000000461849 -0.0000000000116163 25.4803454375818070 Ba
atom 4.9545532353816855 -0.0000000041122406 25.4803454375817893 Ba
atom -0.0000000041327057 4.9545532354022903 25.4803454375814979 Ba
atom 4.9545532312758871 4.9545532313106584 25.4803454375818319 Ba
atom 2.4772766156621149 2.4772766156611690 22.9373965221647396 Zr
atom 7.4318298510801899 2.4772766115634695 22.9373965221625227 Zr
atom 2.4772766115660381 7.4318298510776533 22.9373965221640610 Zr
atom 7.4318298469845283 7.4318298469833000 22.9373965221642990 Zr
atom 2.4772766156581096 2.4772766156564638 28.0596550972080934 Zr
atom 7.4318298510747249 2.4772766115657552 28.0596550972067256 Zr
atom 2.4772766115606202 7.4318298510799981 28.0596550972069032 Zr
atom 7.4318298469805457 7.4318298469786717 28.0596550972072727 Zr
atom 2.4772766156390764 2.4772766157099317 20.3744038087904116 S
atom 7.4318298510810727 2.4772766115101978 20.3744038087888342 S
atom 2.4772766115669338 7.4318298510244709 20.3744038087893031 S
atom 7.4318298469615076 7.4318298470322750 20.3744038087919108 S
atom 2.4772766156776882 2.4772766156253474 25.4888784488444244 S
atom 7.4318298510748306 2.4772766116029064 25.4888784488441260 S
atom 2.4772766115603999 7.4318298511170910 25.4888784488469646 S
atom 7.4318298470002988 7.4318298469474486 25.4888784488437530 S
atom 2.9797890264862681 -0.0000001158409554 22.9268100936849386 S
atom 6.9293174443511294 0.0000001076464241 22.9268100937851074 S
atom 1.9747642048368876 4.9545533471606742 22.9268100937849724 S
atom 7.9343422578086686 4.9545531154815361 22.9268100936854466 S
atom 2.9977220509453368 0.0000013315491551 28.0448287244450896 S
atom 6.9113844198930154 -0.0000013397428040 28.0448287243878411 S
atom 1.9568311803790497 4.9545518997702462 28.0448287243875249 S
atom 7.9522752822675695 4.9545545628701886 28.0448287244455337 S
atom 0.0000001117432368 1.9747642089318733 22.9268100937483403 S
atom 4.9545531195803711 2.9797890223892520 22.9268100937224162 S
atom -0.0000001199340053 7.9343422619035122 22.9268100937216488 S
atom 4.9545533430650339 6.9293174402542208 22.9268100937476724 S
atom -0.0000013356474153 1.9568311844735551 28.0448287244071466 S
atom 4.9545545669653572 2.9977220468481729 28.0448287244253827 S
atom 0.0000013274507681 7.9522752863623927 28.0448287244256669 S
atom 4.9545518956747783 6.9113844157959896 28.0448287244071217 S
atom 0.0000000000016688 0.0000000000048739 30.5687095336916776 Ba
atom 4.9545532354355641 -0.0000000040973483 30.5687095336917487 Ba
atom -0.0000000040782490 4.9545532354167845 30.5687095336916883 Ba
atom 4.9545532313231773 4.9545532313273242 30.5687095336915142 Ba
atom 0.0000000000048269 0.0000000000004588 35.4715957175661458 Ba
atom 4.9545532354184063 -0.0000000040936485 35.4715957175645684 Ba
atom -0.0000000040957180 4.9545532354202431 35.4715957175658048 Ba
atom 4.9545532313271989 4.9545532313220804 35.4715957175655490 Ba
atom 2.4772766156610291 2.4772766156604109 33.1980297566504703 Zr
atom 7.4318298510789589 2.4772766115642342 33.1980297566518558 Zr
atom 2.4772766115649865 7.4318298510785983 33.1980297566522395 Zr
atom 7.4318298469833550 7.4318298469832822 33.1980297566504277 Zr
atom 2.4772766156506676 2.4772766156758244 30.5979249487939597 S
atom 7.4318298510813241 2.4772766115467393 30.5979249487928939 S
atom 2.4772766115670639 7.4318298510607788 30.5979249487913663 S
atom 7.4318298469730930 7.4318298469980872 30.5979249487916398 S
atom 2.4772766156618675 2.4772766156552684 35.7411317023288220 S
atom 7.4318298510736902 2.4772766115676954 35.7411317023282322 S
atom 2.4772766115597347 7.4318298510820586 35.7411317023291275 S
atom 7.4318298469839199 7.4318298469777586 35.7411317023296249 S
atom 2.0528743454816460 0.0000018719469538 33.1050633298000392 S
atom 7.8562321253560929 -0.0000018801414303 33.1050633298137527 S
atom 2.9016788858418363 4.9545513593741441 33.1050633298140653 S
atom 7.0074275768038898 4.9545551032695085 33.1050633297991723 S
atom -0.0000018760448203 2.9016788899365542 33.1050633298099228 S
atom 4.9545551073652909 2.0528743413835833 33.1050633298037980 S
atom 0.0000018678508223 7.0074275808988125 33.1050633298026469 S
atom 4.9545513552771521 7.8562321212593851 33.1050633298114789 S
atom 2.4772766156595911 2.4772766156628712 38.8521639329604014 Ba
atom 7.4318298510785015 2.4772766115741187 38.8521639329608490 Ba
atom 2.4772766115638016 7.4318298510876870 38.8521639329606003 Ba
atom 7.4318298469817892 7.4318298469845026 38.8521639329610693 Ba
atom 2.4772766156616521 2.4772766156879782 43.7550857929230830 Ba
atom 7.4318298510797138 2.4772766115664329 43.7550857929233530 Ba
atom 2.4772766115665403 7.4318298510802610 43.7550857929242767 Ba
atom 7.4318298469840274 7.4318298470105981 43.7550857929235235 Ba
atom 4.9545532313209559 4.9545532313224481 41.1257358930210444 Zr
atom 9.9091064667395017 4.9545532272264730 41.1257358930197796 Zr
atom 4.9545532272254338 9.9091064667403099 41.1257358930236023 Zr
atom 9.9091064626431482 9.9091064626450027 41.1257358930219894 Zr
atom 4.9545532313250105 4.9545532313158329 46.2641263521204635 Zr
atom 9.9091064667351993 4.9545532272206101 46.2641263521205701 Zr
atom 4.9545532272209485 9.9091064667342206 46.2641263521237178 Zr
atom 9.9091064626475056 9.9091064626385883 46.2641263521220694 Zr
atom 4.9545532313298528 4.9545532313200118 38.5826319570925520 S
atom 9.9091064667310071 4.9545532272213419 38.5826319570926870 S
atom 4.9545532272169917 9.9091064667354551 38.5826319570898733 S
atom 9.9091064626517955 9.9091064626425194 38.5826319570905980 S
atom 4.9545532312944873 4.9545532313171314 43.7258579363841733 S
atom 9.9091064667651718 4.9545532272195754 43.7258579363800166 S
atom 4.9545532272512398 9.9091064667326627 43.7258579363896871 S
atom 9.9091064626164140 9.9091064626389009 43.7258579363819493 S
atom 4.5301514513998180 2.4772766720448915 41.2187089721809414 S
atom 10.3335082507576956 2.4772765510816233 41.2187089721838973 S
atom 5.3789550112436766 7.4318297905972281 41.2187089721824265 S
atom 9.4847046827219028 7.4318299033678841 41.2187089721812683 S
atom 5.4750156467170177 2.4772786939001894 46.2789629286777000 S
atom 9.3886440554395083 2.4772745292222420 46.2789629286861057 S
atom 4.4340908159250265 7.4318277687392928 46.2789629286851110 S
atom 10.4295688780396283 7.4318319252235732 46.2789629286784034 S
atom 2.4772765551795528 5.3789550153409662 41.2187089721696651 S
atom 7.4318299074630758 4.5301514473048279 41.2187089721948325 S
atom 2.4772766679510263 9.4847046868198461 41.2187089721948752 S
atom 7.4318297864996135 10.3335082466634312 41.2187089721694804 S
atom 2.4772745333193393 4.4340908200233748 46.2789629287264432 S
atom 7.4318319293233497 5.4750156426235765 46.2789629286377107 S
atom 2.4772786898069010 10.4295688821378310 46.2789629286364033 S
atom 7.4318277646426134 9.3886440513457661 46.2789629287253419 S
atom 2.4772766156560011 2.4772766156044645 48.8434388407780204 Ba
atom 7.4318298510723704 2.4772766114930960 48.8434388407783615 Ba
atom 2.4772766115585019 7.4318298510086844 48.8434388407792781 Ba
atom 7.4318298469773145 7.4318298469272115 48.8434388407782407 Ba
atom 2.4772766156763337 2.4772766157393540 53.9513631725009333 Ba
atom 7.4318298510930756 2.4772766116598022 53.9513631725012743 Ba
atom 2.4772766115779365 7.4318298511720853 53.9513631725016296 Ba
atom 7.4318298469991664 7.4318298470602304 53.9513631725008764 Ba
atom 4.9545532313211709 4.9545532313239864 51.3863813903221995 Zr
atom 9.9091064667416298 4.9545532272265174 51.3863813903189239 Zr
atom 4.9545532272275850 9.9091064667411608 51.3863813903113353 Zr
atom 9.9091064626432850 9.9091064626458767 51.3863813903196416 Zr
atom 4.9545532313205811 4.9545532313191822 56.5064483976867038 Zr
atom 9.9091064667377715 4.9545532272246433 56.5064483976843661 Zr
atom 4.9545532272233510 9.9091064667387805 56.5064483976923100 Zr
atom 9.9091064626426348 9.9091064626414180 56.5064483976872438 Zr
atom 4.9545532313789904 4.9545532313246703 48.8349029758235105 S
atom 9.9091064666844240 4.9545532272415640 48.8349029758301612 S
atom 4.9545532271699448 9.9091064667560023 48.8349029758314259 S
atom 9.9091064627016436 9.9091064626472640 48.8349029758270987 S
atom 4.9545532312400429 4.9545532313210900 53.9493852400394331 S
atom 9.9091064668152296 4.9545532271959667 53.9493852400400868 S
atom 4.9545532273011235 9.9091064667106341 53.9493852400388079 S
atom 9.9091064625619687 9.9091064626435585 53.9493852400355678 S
atom 5.4570647781223096 2.4772765550329998 51.3969699410785310 S
atom 9.4065949240347173 2.4772766681023191 51.3969699410554099 S
atom 4.4520416845206503 7.4318299076125065 51.3969699410565610 S
atom 10.4116180094443376 7.4318297863530756 51.3969699410781971 S
atom 5.4587232851703575 2.4772765864670436 56.5064483976740632 S
atom 9.4049364169855174 2.4772766366592620 56.5064483977149976 S
atom 4.4503831774713785 7.4318298761739578 56.5064483977139886 S
atom 10.4132765164924592 7.4318298177894846 56.5064483976750225 S
atom 2.4772766721965405 4.4520416886179000 51.3969699409905019 S
atom 7.4318297904484902 5.4570647740273115 51.3969699411429133 S
atom 2.4772765509345422 10.4116180135418190 51.3969699411432970 S
atom 7.4318299035189588 9.4065949199400354 51.3969699409913403 S
atom 2.4772766407551976 4.4503831815669601 56.5064483977860803 S
atom 7.4318298218854935 5.4587232810739454 56.5064483976029024 S
atom 2.4772765823719420 10.4132765205880595 56.5064483976023055 S
atom 7.4318298720774481 9.4049364128894091 56.5064483977856185 S
atom 2.4772766156338277 2.4772766155750969 59.0615336228833527 Ba
atom 7.4318298510564773 2.4772766114614808 59.0615336228843120 Ba
atom 2.4772766115429694 7.4318298509752196 59.0615336228847667 Ba
atom 7.4318298469556572 7.4318298468981592 59.0615336228838004 Ba
atom 2.4772766156900063 2.4772766157243069 64.1694579546079211 Ba
atom 7.4318298510985779 2.4772766116519827 64.1694579546086743 Ba
atom 2.4772766115842701 7.4318298511660252 64.1694579546074664 Ba
atom 7.4318298470123363 7.4318298470474859 64.1694579546075801 Ba
atom 4.9545532313224614 4.9545532313192862 61.6265154050684387 Zr
atom 9.9091064667394750 4.9545532272232320 61.6265154050678561 Zr
atom 4.9545532272255119 9.9091064667375690 61.6265154050669963 Zr
atom 9.9091064626446883 9.9091064626417928 61.6265154050697745 Zr
atom 4.9545532313184095 4.9545532313277558 66.7487704432686257 Zr
atom 9.9091064667461346 4.9545532272291393 66.7487704432673183 Zr
atom 4.9545532272322106 9.9091064667430526 66.7487704432656557 Zr
atom 9.9091064626407377 9.9091064626503815 66.7487704432633535 Zr
atom 4.9545532314081635 4.9545532313146303 59.0635115553444265 S
atom 9.9091064666600293 4.9545532272605657 59.0635115553470698 S
atom 4.9545532271458201 9.9091064667745634 59.0635115553512193 S
atom 9.9091064627301559 9.9091064626366983 59.0635115553441494 S
atom 4.9545532312511371 4.9545532313283944 64.1779938195647190 S
atom 9.9091064668026654 4.9545532271920596 64.1779938195670638 S
atom 4.9545532272877573 9.9091064667073034 64.1779938195689112 S
atom 9.9091064625743126 9.9091064626519234 64.1779938195673481 S
atom 5.4570647781217057 2.4772765550265250 61.6159268543407279 S
atom 9.4065949240339872 2.4772766680961946 61.6159268542924181 S
atom 4.4520416845198811 7.4318299076126442 61.6159268542931358 S
atom 10.4116180094435329 7.4318297863515372 61.6159268543405361 S
atom 5.4750156467156312 2.4772786939066984 66.7339338666813688 S
atom 9.3886440554377018 2.4772745292264542 66.7339338667177913 S
atom 4.4340908159243533 7.4318277687416066 66.7339338667169528 S
atom 10.4295688780372569 7.4318319252287868 66.7339338666822925 S
atom 2.4772766721951243 4.4520416886133676 61.6159268542314393 S
atom 7.4318297904476136 5.4570647740233946 61.6159268544013017 S
atom 2.4772765509321664 10.4116180135376606 61.6159268544006977 S
atom 7.4318299035176780 9.4065949199357224 61.6159268542309846 S
atom 2.4772745333239534 4.4340908200169133 66.7339338667540574 S
atom 7.4318319293209703 5.4750156426163450 66.7339338666458985 S
atom 2.4772786898091650 10.4295688821306065 66.7339338666455149 S
atom 7.4318277646424358 9.3886440513390212 66.7339338667533752 S
atom 2.4772766156610078 2.4772766156249695 69.2578110024625317 Ba
atom 7.4318298510658245 2.4772766115625462 69.2578110024640523 Ba
atom 2.4772766115524787 7.4318298510764444 69.2578110024634128 Ba
atom 7.4318298469834971 7.4318298469456785 69.2578110024625602 Ba
atom 2.4772766156525674 2.4772766156557871 74.1607328624227478 Ba
atom 7.4318298510774898 2.4772766115493901 74.1607328624258031 Ba
atom 2.4772766115601197 7.4318298510629592 74.1607328624229609 Ba
atom 7.4318298469765640 7.4318298469786006 74.1607328624208861 Ba
atom 4.9545532313206770 4.9545532313189051 71.8871609023562428 Zr
atom 9.9091064667386259 4.9545532272228421 71.8871609023618703 Zr
atom 4.9545532272241042 9.9091064667368922 71.8871609023577776 Zr
atom 9.9091064626423950 9.9091064626413736 71.8871609023625524 Zr
atom 4.9545532313579193 4.9545532313146063 69.2870388590050936 S
atom 9.9091064667062767 4.9545532272440402 69.2870388589996651 S
atom 4.9545532271932125 9.9091064667567856 69.2870388590086748 S
atom 9.9091064626789613 9.9091064626358030 69.2870388590047384 S
atom 4.9545532313099168 4.9545532313302125 74.4302648382915777 S
atom 9.9091064667535775 4.9545532272216475 74.4302648382882808 S
atom 4.9545532272387023 9.9091064667362971 74.4302648382919472 S
atom 9.9091064626327547 9.9091064626532290 74.4302648382895455 S
atom 4.5301514513990089 2.4772766720464898 71.7941878232123827 S
atom 10.3335082507565428 2.4772765510840102 71.7941878231968218 S
atom 5.3789550112426880 7.4318297905957271 71.7941878231975608 S
atom 9.4847046827207375 7.4318299033660358 71.7941878232129085 S
atom 2.4772765551779266 5.3789550153365093 71.7941878231891337 S
atom 7.4318299074637082 4.5301514473013693 71.7941878232216482 S
atom 2.4772766679495515 9.4847046868146112 71.7941878232209376 S
atom 7.4318297865013889 10.3335082466575354 71.7941878231874284 S
