#=======================================================
# FHI-aims file: full_relax/full_relax_RP_7_00Rz1_00Rz2.in
# Created using the Atomic Simulation Environment (ASE)
# Mon Mar 24 15:36:35 2025
#=======================================================
lattice_vector 9.8994752475670182 -0.0000000451752267 -0.0000000000000126 
lattice_vector -0.0000000451752267 9.8994752475670182 -0.0000000000000119 
lattice_vector -0.0000000000000928 -0.0000000000000879 77.3883347258389733 
atom -0.0000000000010926 -0.0000000000007311 0.1613152335728941 Ba
atom 4.9497376237822630 -0.0000000225881163 0.1613152335727272 Ba
atom -0.0000000225886948 4.9497376237828687 0.1613152335728831 Ba
atom 4.9497376011946761 4.9497376011949568 0.1613152335732579 Ba
atom -0.0000000000007173 -0.0000000000008269 5.0704272761427545 Ba
atom 4.9497376237825632 -0.0000000225888679 5.0704272761426568 Ba
atom -0.0000000225885061 4.9497376237822497 5.0704272761426186 Ba
atom 4.9497376011952374 4.9497376011950367 5.0704272761427607 Ba
atom 2.4748688005970316 2.4748688005970334 2.4397219851479703 Zr
atom 7.4246064243804817 2.4748687780094039 2.4397219851482101 Zr
atom 2.4748687780093079 7.4246064243805110 2.4397219851481813 Zr
atom 7.4246064017929374 7.4246064017929934 2.4397219851480370 Zr
atom 2.4748688005971005 2.4748688005970134 7.5818549112575058 Zr
atom 7.4246064243806211 2.4748687780094074 7.5818549112576950 Zr
atom 2.4748687780094905 7.4246064243805261 7.5818549112576736 Zr
atom 7.4246064017929800 7.4246064017929383 7.5818549112575804 Zr
atom 2.4748688005975543 2.4748688005971151 -0.1038607818730417 S
atom 7.4246064243801158 2.4748687780090206 -0.1038607818727701 S
atom 2.4748687780090037 7.4246064243801655 -0.1038607818728204 S
atom 7.4246064017933113 7.4246064017930946 -0.1038607818728895 S
atom 2.4748688005966364 2.4748688005967892 5.0442612171921848 S
atom 7.4246064243809675 2.4748687780096184 5.0442612171922994 S
atom 2.4748687780097196 7.4246064243807979 5.0442612171922763 S
atom 7.4246064017926114 7.4246064017927971 5.0442612171922532 S
atom 2.0446715596488456 0.0000000921008890 2.5337787064727078 S
atom 7.8548036879163607 -0.0000001372780019 2.5337787064731558 S
atom 2.9050660415450831 4.9497375090930582 2.5337787064733721 S
atom 6.9944091608449916 4.9497376932967931 2.5337787064727442 S
atom 3.0113592248730479 -0.0000000515162204 7.6040329408656682 S
atom 6.8881160226923068 0.0000000063391155 7.6040329408653751 S
atom 1.9383783763211346 4.9497376527102528 7.6040329408654603 S
atom 7.9610968260689026 4.9497375496797344 7.6040329408655838 S
atom -0.0000001146903574 2.9050660641326997 2.5337787064724187 S
atom 4.9497377158844111 2.0446715370612143 2.5337787064732096 S
atom 0.0000000695132766 6.9944091834323459 2.5337787064732593 S
atom 4.9497374865054740 7.8548036653285882 2.5337787064723227 S
atom 0.0000000289267979 1.9383783989087084 7.6040329408657907 S
atom 4.9497375722673835 3.0113592022853273 7.6040329408653529 S
atom -0.0000000741037257 7.9610968486564495 7.6040329408653919 S
atom 4.9497376301227183 6.8881160001046187 7.6040329408656815 S
atom -0.0000000000008196 -0.0000000000010424 10.1585296674986996 Ba
atom 4.9497376237827293 -0.0000000225885080 10.1585296674986481 Ba
atom -0.0000000225884188 4.9497376237826209 10.1585296674986711 Ba
atom 4.9497376011950678 4.9497376011948395 10.1585296674986818 Ba
atom -0.0000000000008334 -0.0000000000009469 15.2659208352287425 Ba
atom 4.9497376237825792 -0.0000000225885541 15.2659208352288385 Ba
atom -0.0000000225884676 4.9497376237826289 15.2659208352287106 Ba
atom 4.9497376011951513 4.9497376011949781 15.2659208352288474 Ba
atom 2.4748688005971249 2.4748688005970467 12.7010212907755946 Zr
atom 7.4246064243806469 2.4748687780094549 12.7010212907755999 Zr
atom 2.4748687780095437 7.4246064243805749 12.7010212907756124 Zr
atom 7.4246064017930467 7.4246064017929774 12.7010212907755466 Zr
atom 2.4748688005971320 2.4748688005970823 17.8196823381930045 Zr
atom 7.4246064243806487 2.4748687780094851 17.8196823381928411 Zr
atom 2.4748687780095349 7.4246064243806087 17.8196823381927167 Zr
atom 7.4246064017931150 7.4246064017929978 17.8196823381930329 Zr
atom 2.4748688005972634 2.4748688005971897 10.1537047289646836 S
atom 7.4246064243804515 2.4748687780094731 10.1537047289646658 S
atom 2.4748687780094412 7.4246064243804675 10.1537047289647884 S
atom 7.4246064017930795 7.4246064017930591 10.1537047289646729 S
atom 2.4748688005972252 2.4748688005970028 15.2642337206247944 S
atom 7.4246064243805590 2.4748687780095691 15.2642337206246221 S
atom 2.4748687780095739 7.4246064243807117 15.2642337206247216 S
atom 7.4246064017930351 7.4246064017929774 15.2642337206246346 S
atom 1.9392660248535316 -0.0000000145577647 12.7132548490352324 S
atom 7.9602092227117929 -0.0000000306192637 12.7132548490352413 S
atom 3.0104715763407488 4.9497376157518289 12.7132548490353923 S
atom 6.8890036260494449 4.9497375866381264 12.7132548490352129 S
atom 3.0104215131667336 -0.0000000101458245 17.8196823381931857 S
atom 6.8890537343986393 -0.0000000350311344 17.8196823381929050 S
atom 1.9393160880274971 4.9497376113399456 17.8196823381928020 S
atom 7.9601591143626225 4.9497375910501091 17.8196823381929335 S
atom -0.0000000080315775 3.0104715989281954 12.7132548490351862 S
atom 4.9497376092257959 1.9392660022658339 12.7132548490352395 S
atom -0.0000000371453033 6.8890036486370319 12.7132548490352235 S
atom 4.9497375931642722 7.9602092001241678 12.7132548490351667 S
atom -0.0000000124435271 1.9393161106151249 17.8196823381928624 S
atom 4.9497376136377857 3.0104214905790694 17.8196823381930649 S
atom -0.0000000327333660 7.9601591369501508 17.8196823381929761 S
atom 4.9497375887523969 6.8890537118110080 17.8196823381929654 S
atom -0.0000000000007128 -0.0000000000007852 20.3734438411569627 Ba
atom 4.9497376237828927 -0.0000000225884075 20.3734438411572683 Ba
atom -0.0000000225884311 4.9497376237826654 20.3734438411571119 Ba
atom 4.9497376011950482 4.9497376011951371 20.3734438411570373 Ba
atom -0.0000000000007294 -0.0000000000004940 25.4808350088871407 Ba
atom 4.9497376237828021 -0.0000000225884086 25.4808350088874818 Ba
atom -0.0000000225881489 4.9497376237827062 25.4808350088873610 Ba
atom 4.9497376011952268 4.9497376011952028 25.4808350088872793 Ba
atom 2.4748688005971542 2.4748688005971404 22.9383433856105832 Zr
atom 7.4246064243807099 2.4748687780095091 22.9383433856103132 Zr
atom 2.4748687780095753 7.4246064243806140 22.9383433856102599 Zr
atom 7.4246064017930884 7.4246064017929827 22.9383433856106080 Zr
atom 2.4748688005971187 2.4748688005971151 28.0575097651288061 Zr
atom 7.4246064243806495 2.4748687780095255 28.0575097651283691 Zr
atom 2.4748687780095100 7.4246064243806664 28.0575097651283620 Zr
atom 7.4246064017930529 7.4246064017929836 28.0575097651286107 Zr
atom 2.4748688005970871 2.4748688005972070 20.3751309557613993 S
atom 7.4246064243807108 2.4748687780094714 20.3751309557611933 S
atom 2.4748687780095615 7.4246064243804222 20.3751309557611862 S
atom 7.4246064017930076 7.4246064017930209 20.3751309557612785 S
atom 2.4748688005969810 2.4748688005971093 25.4856599474214107 S
atom 7.4246064243807401 2.4748687780092649 25.4856599474212224 S
atom 2.4748687780096619 7.4246064243804542 25.4856599474212508 S
atom 7.4246064017928237 7.4246064017930875 25.4856599474212437 S
atom 1.9392660248536482 -0.0000000145577522 22.9261098273505333 S
atom 7.9602092227118781 -0.0000000306192184 22.9261098273506576 S
atom 3.0104715763407652 4.9497376157519088 22.9261098273506114 S
atom 6.8890036260495249 4.9497375866381548 22.9261098273506967 S
atom 3.0113592248730834 -0.0000000515161030 28.0353317355204581 S
atom 6.8881160226923290 0.0000000063392028 28.0353317355207956 S
atom 1.9383783763212139 4.9497376527102448 28.0353317355207210 S
atom 7.9610968260690038 4.9497375496797984 28.0353317355202520 S
atom -0.0000000080315869 3.0104715989282780 22.9261098273508352 S
atom 4.9497376092259131 1.9392660022659471 22.9261098273508246 S
atom -0.0000000371452753 6.8890036486370629 22.9261098273507429 S
atom 4.9497375931643957 7.9602092001241722 22.9261098273507358 S
atom 0.0000000289268264 1.9383783989088832 28.0353317355207245 S
atom 4.9497375722673880 3.0113592022855138 28.0353317355201455 S
atom -0.0000000741036997 7.9610968486566129 28.0353317355201206 S
atom 4.9497376301227396 6.8881160001047261 28.0353317355208098 S
atom -0.0000000000005794 -0.0000000000008644 30.5689374002433922 Ba
atom 4.9497376237825206 -0.0000000225875498 30.5689374002438043 Ba
atom -0.0000000225885264 4.9497376237833972 30.5689374002436480 Ba
atom 4.9497376011951868 4.9497376011949932 30.5689374002435308 Ba
atom -0.0000000000011875 -0.0000000000015175 35.4780494428138624 Ba
atom 4.9497376237824113 -0.0000000225894047 35.4780494428140969 Ba
atom -0.0000000225886224 4.9497376237817292 35.4780494428142390 Ba
atom 4.9497376011947143 4.9497376011944318 35.4780494428140756 Ba
atom 2.4748688005969073 2.4748688005969757 33.1996426912385303 Zr
atom 7.4246064243806531 2.4748687780092760 33.1996426912384308 Zr
atom 2.4748687780095571 7.4246064243803946 33.1996426912385161 Zr
atom 7.4246064017928166 7.4246064017928433 33.1996426912386156 Zr
atom 2.4748688005978350 2.4748688005966835 30.5951034591939930 S
atom 7.4246064243798626 2.4748687780097369 30.5951034591937194 S
atom 2.4748687780086747 7.4246064243807535 30.5951034591936981 S
atom 7.4246064017937625 7.4246064017924818 30.5951034591937479 S
atom 2.4748688005960071 2.4748688005974313 35.7432254582598858 S
atom 7.4246064243817198 2.4748687780091192 35.7432254582594737 S
atom 2.4748687780106851 7.4246064243804071 35.7432254582593600 S
atom 7.4246064017918014 7.4246064017934401 35.7432254582596372 S
atom 2.0446715596485188 0.0000000921009096 33.1055859699137969 S
atom 7.8548036879168475 -0.0000001372780314 33.1055859699129940 S
atom 2.9050660415457541 4.9497375090930564 33.1055859699132142 S
atom 6.9944091608444241 4.9497376932967976 33.1055859699139674 S
atom -0.0000001146903240 2.9050660641335400 33.1055859699127097 S
atom 4.9497377158844813 2.0446715370610078 33.1055859699147845 S
atom 0.0000000695132924 6.9944091834320270 33.1055859699150048 S
atom 4.9497374865055628 7.8548036653292286 33.1055859699128305 S
atom 2.4748688005970374 2.4748688005968451 38.8554777037736940 Ba
atom 7.4246064243806593 2.4748687780095642 38.8554777037732464 Ba
atom 2.4748687780094034 7.4246064243804755 38.8554777037732464 Ba
atom 7.4246064017931079 7.4246064017926763 38.8554777037735803 Ba
atom 2.4748688005962545 2.4748688005968784 43.7646173010367718 Ba
atom 7.4246064243801486 2.4748687780088061 43.7646173010358766 Ba
atom 2.4748687780091889 7.4246064243798822 43.7646173010360471 Ba
atom 7.4246064017920572 7.4246064017925146 43.7646173010366581 Ba
atom 4.9497376011947205 4.9497376011946015 41.1339047635059387 Zr
atom 9.8994752249783069 4.9497375786070803 41.1339047635060240 Zr
atom 4.9497375786071105 9.8994752249781879 41.1339047635064006 Zr
atom 9.8994752023906312 9.8994752023904731 41.1339047635055621 Zr
atom 4.9497376011946574 4.9497376011945340 46.2760256197805404 Zr
atom 9.8994752249780991 4.9497375786068876 46.2760256197808886 Zr
atom 4.9497375786070092 9.8994752249780404 46.2760256197805333 Zr
atom 9.8994752023904020 9.8994752023904908 46.2760256197801780 Zr
atom 4.9497376011950056 4.9497376011939229 38.5903228490086150 S
atom 9.8994752249777882 4.9497375786078104 38.5903228490093397 S
atom 4.9497375786064532 9.8994752249785343 38.5903228490087784 S
atom 9.8994752023910362 9.8994752023895458 38.5903228490088708 S
atom 4.9497376011943732 4.9497376011948102 43.7384365705831470 S
atom 9.8994752249785520 4.9497375786064230 43.7384365705832536 S
atom 4.9497375786074507 9.8994752249778202 43.7384365705832252 S
atom 9.8994752023901249 9.8994752023910841 43.7384365705828699 S
atom 4.5194611264346047 2.4748688429754466 41.2279709135206716 S
atom 10.3297517223256161 2.4748687130425511 41.2279709135194281 S
atom 5.3800140759546400 7.4246063594138061 41.2279709135194352 S
atom 9.4691987276301965 7.4246064441713786 41.2279709135208066 S
atom 5.4862048309778446 2.4748687541947150 46.2982072569573830 S
atom 9.3630080177824091 2.4748688018233467 46.2982072569578236 S
atom 4.4132703714114179 7.4246064481943934 46.2982072569575678 S
atom 10.4359424321737588 7.4246063553905115 46.2982072569571983 S
atom 2.4748687356303369 5.3800140985421407 41.2279709135192078 S
atom 7.4246064667589158 4.5194611038470134 41.2279709135200036 S
atom 2.4748688203879623 9.4691987502180215 41.2279709135201173 S
atom 7.4246063368261286 10.3297516997380523 41.2279709135190657 S
atom 2.4748688244109767 4.4132703939988973 46.2982072569584915 S
atom 7.4246063779782956 5.4862048083900943 46.2982072569577596 S
atom 2.4748687316072617 10.4359424547612569 46.2982072569579799 S
atom 7.4246064256067488 9.3630079951946605 46.2982072569582783 S
atom 2.4748688005967585 2.4748688005961919 48.8526858210199322 Ba
atom 7.4246064243799763 2.4748687780090379 48.8526858210192643 Ba
atom 2.4748687780090157 7.4246064243799523 48.8526858210189872 Ba
atom 7.4246064017925866 7.4246064017923290 48.8526858210199038 Ba
atom 2.4748688005968100 2.4748688005968060 53.9600946165354998 Ba
atom 7.4246064243802214 2.4748687780089833 53.9600946165347679 Ba
atom 2.4748687780091205 7.4246064243802259 53.9600946165348390 Ba
atom 7.4246064017924462 7.4246064017925404 53.9600946165354642 Ba
atom 4.9497376011946042 4.9497376011945597 51.3951741059196365 Zr
atom 9.8994752249781808 4.9497375786069444 51.3951741059198994 Zr
atom 4.9497375786069853 9.8994752249779783 51.3951741059198994 Zr
atom 9.8994752023905459 9.8994752023903949 51.3951741059195655 Zr
atom 4.9497376011946352 4.9497376011944922 56.5138497011135641 Zr
atom 9.8994752249782110 4.9497375786068520 56.5138497011134788 Zr
atom 4.9497375786069906 9.8994752249780884 56.5138497011134078 Zr
atom 9.8994752023905672 9.8994752023904926 56.5138497011127754 Zr
atom 4.9497376011947996 4.9497376011946095 48.8478540100137266 S
atom 9.8994752249780742 4.9497375786071673 48.8478540100140108 S
atom 4.9497375786069409 9.8994752249780387 48.8478540100137550 S
atom 9.8994752023906258 9.8994752023902013 48.8478540100132861 S
atom 4.9497376011945677 4.9497376011944958 53.9583930802217893 S
atom 9.8994752249782092 4.9497375786068982 53.9583930802223080 S
atom 4.9497375786070616 9.8994752249781541 53.9583930802222085 S
atom 9.8994752023904482 9.8994752023904500 53.9583930802217324 S
atom 4.4141659441123497 2.4748687860864194 51.4073987302341919 S
atom 10.4350469046480807 2.4748687699314251 51.4073987302341493 S
atom 5.4853092582770397 7.4246064163027112 51.4073987302342132 S
atom 9.3639035453081814 7.4246063872824095 51.4073987302343127 S
atom 5.4852160859987205 2.4748687904171476 56.5138497011129672 S
atom 9.3639967627616567 2.4748687656007822 56.5138497011132799 S
atom 4.4142591163906868 7.4246064119720234 56.5138497011130028 S
atom 10.4349536871944473 7.4246063916130023 56.5138497011131733 S
atom 2.4748687925191573 5.4853092808645760 51.4073987302334672 S
atom 7.4246064098701217 4.4141659215247309 51.4073987302336590 S
atom 2.4748687634989159 9.3639035678956084 51.4073987302337301 S
atom 7.4246063937151483 10.4350468820603410 51.4073987302336590 S
atom 2.4748687881885716 4.4142591389782213 56.5138497011138412 S
atom 7.4246064142007269 5.4852160634108111 56.5138497011135570 S
atom 2.4748687678295096 10.4349537097819685 56.5138497011135215 S
atom 7.4246063893844534 9.3639967401739739 56.5138497011135357 S
atom 2.4748688005968797 2.4748688005964472 59.0676047856919411 Ba
atom 7.4246064243800705 2.4748687780089895 59.0676047856915787 Ba
atom 2.4748687780092546 7.4246064243796672 59.0676047856916142 Ba
atom 7.4246064017927758 7.4246064017923086 59.0676047856914792 Ba
atom 2.4748688005970911 2.4748688005962989 64.1750135812067981 Ba
atom 7.4246064243806176 2.4748687780090886 64.1750135812072102 Ba
atom 2.4748687780094625 7.4246064243801309 64.1750135812077929 Ba
atom 7.4246064017924285 7.4246064017919098 64.1750135812071107 Ba
atom 4.9497376011947489 4.9497376011945864 61.6325252963073211 Zr
atom 9.8994752249782465 4.9497375786069000 61.6325252963071364 Zr
atom 4.9497375786071443 9.8994752249778628 61.6325252963072998 Zr
atom 9.8994752023905743 9.8994752023903487 61.6325252963066177 Zr
atom 4.9497376011947640 4.9497376011946139 66.7516737824466162 Zr
atom 9.8994752249781328 4.9497375786070306 66.7516737824461899 Zr
atom 4.9497375786071336 9.8994752249781222 66.7516737824461472 Zr
atom 9.8994752023904855 9.8994752023904997 66.7516737824456783 Zr
atom 4.9497376011945740 4.9497376011945944 59.0693063220049766 S
atom 9.8994752249782714 4.9497375786070696 59.0693063220051755 S
atom 4.9497375786070528 9.8994752249782483 59.0693063220051044 S
atom 9.8994752023905459 9.8994752023904571 59.0693063220045005 S
atom 4.9497376011954035 4.9497376011951708 64.1798453922137924 S
atom 9.8994752249773637 4.9497375786068609 64.1798453922129113 S
atom 4.9497375786068121 9.8994752249776443 64.1798453922131671 S
atom 9.8994752023908354 9.8994752023907910 64.1798453922126839 S
atom 4.4141659441126331 2.4748687860866050 61.6203006719926591 S
atom 10.4350469046480061 2.4748687699314629 61.6203006719927586 S
atom 5.4853092582772005 7.4246064163025665 61.6203006719923323 S
atom 9.3639035453080730 7.4246063872823518 61.6203006719930286 S
atom 5.4862048309780294 2.4748687541947727 66.7294921452690204 S
atom 9.3630080177824571 2.4748688018233795 66.7294921452695036 S
atom 4.4132703714115404 7.4246064481944458 66.7294921452697878 S
atom 10.4359424321737997 7.4246063553906056 66.7294921452688214 S
atom 2.4748687925194326 5.4853092808643975 61.6203006719932844 S
atom 7.4246064098699671 4.4141659215245461 61.6203006719927089 S
atom 2.4748687634990301 9.3639035678955462 61.6203006719927444 S
atom 7.4246063937151554 10.4350468820604725 61.6203006719930286 S
atom 2.4748688244109571 4.4132703939989479 66.7294921452680683 S
atom 7.4246063779784013 5.4862048083901600 66.7294921452696315 S
atom 2.4748687316071987 10.4359424547613102 66.7294921452689636 S
atom 7.4246064256069246 9.3630079951947778 66.7294921452681820 S
atom 2.4748688005965329 2.4748688005971968 69.2630821011900508 Ba
atom 7.4246064243798306 2.4748687780094003 69.2630821011907045 Ba
atom 2.4748687780088927 7.4246064243801460 69.2630821011911024 Ba
atom 7.4246064017927944 7.4246064017931310 69.2630821011901787 Ba
atom 2.4748688005965196 2.4748688005963850 74.1722216984524465 Ba
atom 7.4246064243810315 2.4748687780088527 74.1722216984529581 Ba
atom 2.4748687780084953 7.4246064243805492 74.1722216984532707 Ba
atom 7.4246064017927873 7.4246064017932971 74.1722216984525602 Ba
atom 4.9497376011947605 4.9497376011946734 71.8937946387214595 Zr
atom 9.8994752249782394 4.9497375786070634 71.8937946387206352 Zr
atom 4.9497375786071203 9.8994752249782803 71.8937946387206210 Zr
atom 9.8994752023906525 9.8994752023906205 71.8937946387206921 Zr
atom 4.9497376011941689 4.9497376011938856 69.2892628316441659 S
atom 9.8994752249788895 4.9497375786070572 69.2892628316436543 S
atom 4.9497375786073832 9.8994752249786604 69.2892628316434838 S
atom 9.8994752023904233 9.8994752023902226 69.2892628316433559 S
atom 4.9497376011950029 4.9497376011948901 74.4373765532184706 S
atom 9.8994752249781239 4.9497375786069808 74.4373765532179874 S
atom 4.9497375786072162 9.8994752249779321 74.4373765532180585 S
atom 9.8994752023906933 9.8994752023904997 74.4373765532170779 S
atom 4.5194611264350915 2.4748688429755279 71.7997284887066769 S
atom 10.3297517223252857 2.4748687130426932 71.7997284887063500 S
atom 5.3800140759545583 7.4246063594138576 71.7997284887063358 S
atom 9.4691987276308680 7.4246064441713573 71.7997284887065774 S
atom 2.4748687356303090 5.3800140985419356 71.7997284887077853 S
atom 7.4246064667591511 4.5194611038475001 71.7997284887069895 S
atom 2.4748688203880249 9.4691987502187214 71.7997284887067195 S
atom 7.4246063368261916 10.3297516997378853 71.7997284887069185 S
