#=======================================================
# FHI-aims file: full_relax/full_relax_RP_1_RxRyRz_RxRy0.in
# Created using the Atomic Simulation Environment (ASE)
# Fri Mar 14 11:17:20 2025
#=======================================================
lattice_vector 10.0578028635561729 0.1251372970978918 0.0001780205680790 
lattice_vector 0.1251372970978978 10.0578028635577450 -0.0001780205377454 
lattice_vector -0.0004760099250022 0.0004760099755973 15.6289979897908662 
atom -0.0908407335408002 -0.0908098238042814 0.2364350055600007 Ba
atom 5.1197112552001167 0.1534093875112746 0.2365239726601396 Ba
atom 0.1533784703875790 5.1197421692394487 0.2363459907672509 Ba
atom 5.0006293460860975 5.0006602563647897 0.2364349870244062 Ba
atom 0.0906919869598515 0.0909585661883841 4.6476268537029775 Ba
atom 4.9379428496904820 -0.0281233431452024 4.6477159078552628 Ba
atom -0.0283899261820605 4.9382094582050735 4.6475378673899774 Ba
atom 5.1821620639608188 5.1824286651887288 4.6476268949948576 Ba
atom 2.5456606780520419 2.5458093537953825 2.4420309350886509 Zr
atom 7.5745621155290239 2.6083780452126888 2.4421199370054980 Zr
atom 2.6082292896873764 7.5747108591270464 2.4419419436367198 Zr
atom 7.6371307633651453 7.6372795058661609 2.4420309565668359 Zr
atom 2.6909169410541915 2.6910197287758928 -0.0990233664360063 S
atom 7.4293517761440473 2.4631217955718232 -0.0989343556953522 S
atom 2.4630190028560088 7.4294545719911955 -0.0991123493449052 S
atom 7.7823870029912214 7.7824898113017102 -0.0990233641225202 S
atom 2.4004044045956672 2.4005990985142005 4.9830852669945589 S
atom 7.7197724109207648 2.7536343322215702 4.9831742483037367 S
atom 2.7534396349904333 7.7199671092850783 4.9829962166907018 S
atom 7.4918744701467217 7.4920691793879923 4.9830852338585787 S
atom 2.5144075579235778 0.0313543790710665 2.2905259309641286 S
atom 7.5432465633666839 0.0939317606341083 2.5937139526328652 S
atom 2.5769137911934585 5.0602645603011265 2.5935359281756409 S
atom 7.6058776260879783 5.1228243865429892 2.2905259323445351 S
atom 0.0312142920866147 2.5144938822804699 2.2904369213561346 S
atom 5.0601069606925968 2.5771249401002101 2.5936249405247702 S
atom 0.0937741968033765 7.5434577182305755 2.5934469185966793 S
atom 5.1226844339582698 7.6059639560960477 2.2904369201811723 S
atom 2.4546647121914953 2.4552149791577529 8.0509175421593611 Ba
atom 7.6651565483907067 2.6993740081029873 8.0510065577108918 Ba
atom 2.6988237502835561 7.6657067811667714 8.0508285646851139 Ba
atom 7.5461348059116355 7.5466850523070335 8.0509175628189009 Ba
atom 2.6361805912948579 2.6368798827128637 12.4621422976287874 Ba
atom 7.4834916445855777 2.5178581217310989 12.4622313259261119 Ba
atom 2.5171588440921711 7.4841909071621071 12.4620532571341229 Ba
atom 7.7276506915716512 7.7283499632085233 12.4621422851126074 Ba
atom 5.0911576830682757 5.0917824756479630 10.2565299210847822 Zr
atom 10.1200592987128104 5.1543511554054930 10.2566189359372562 Zr
atom 5.1537263990687716 10.1206837221440065 10.2564409217194914 Zr
atom 10.1826278152129230 10.1832523549299623 10.2565299337035167 Zr
atom 5.2364114086778333 5.2368704034669920 7.7154624276027111 S
atom 9.9749711689371523 5.0090973976462712 7.7155515029739723 S
atom 5.0086383882246475 9.9754302030590019 7.7153733607972423 S
atom 10.3278814731845490 10.3283405067423928 7.7154625250932209 S
atom 4.9459040403249110 4.9466944655261953 12.7975974336739000 S
atom 10.2651471037634110 5.2996047640978112 12.7976863691124283 S
atom 5.2988143280460474 10.2659375740930940 12.7975085088659419 S
atom 10.0373741060370474 10.0381645719856962 12.7975973511186361 S
atom 5.0598002178552797 2.5773265590599386 10.1051071970822353 S
atom 10.0888480338496453 2.6399058670182654 10.4081306818506008 S
atom 5.1225152613538096 7.6062386746526425 10.4079526581989086 S
atom 10.1512702854119237 7.6687966385508703 10.1051072092855758 S
atom 2.5767121653076845 5.0605712774532856 10.1050182003637019 S
atom 7.6056029377459780 5.1229935316104083 10.4080416761292778 S
atom 2.6392702193392914 10.0893263451937276 10.4078636458433476 S
atom 7.6681822856888777 10.1520413920322561 10.1050181877323588 S
