#=======================================================
# FHI-aims file: full_relax/full_relax_RP_4_Rx0Mz_0-RyMz.in
# Created using the Atomic Simulation Environment (ASE)
# Fri Mar 14 11:24:26 2025
#=======================================================
lattice_vector 10.0264249358084783 0.0380904085731450 0.0000000000000003 
lattice_vector 0.0380904085731454 10.0264249358087163 -0.0000000000000015 
lattice_vector 0.0000000000000012 -0.0000000000000068 45.7610113582660176 
atom 0.1051244883808134 0.1656880605628480 0.2241610645129527 Ba
atom 5.1790035115441242 0.1240095725036392 0.2241615642882867 Ba
atom 0.1848362479193588 5.1181768361256292 0.2241615641965622 Ba
atom 5.1373821605716303 5.1979457327505152 0.2241610643787228 Ba
atom -0.2479180720641490 -0.1836637140494632 4.9895438546989546 Ba
atom 4.8297725911926799 -0.2291216028102836 4.9895820282750671 Ba
atom -0.1643946724030413 4.7650456608853053 4.9895820282541168 Ba
atom 4.7843396001109797 4.8485939582292170 4.9895438547123616 Ba
atom 2.5231479448458871 2.5266418771988648 2.3900372493388424 Zr
atom 7.5400120211844719 2.5420154065688858 2.3900354681889282 Zr
atom 2.5458447574578011 7.5361826701961574 2.3900354683145486 Zr
atom 7.5554056171551274 7.5588995493934794 2.3900372494481279 Zr
atom 2.5156859065566692 2.5137068932562157 7.4407158753644147 Zr
atom 7.5271577138755168 2.5344908459759878 7.4407185435135439 Zr
atom 2.5329904502703258 7.5286581096483456 7.4407185435578613 Zr
atom 7.5479435787699405 7.5459645654888465 7.4407158750774283 Zr
atom 2.2584362179971853 2.6935021152838772 -0.1143690685489167 S
atom 7.7068315823108025 2.2773465183690509 -0.1143835329482917 S
atom 2.7126643187170472 7.2715137820035274 -0.1143835330201959 S
atom 7.2906938901667138 7.7257597875061146 -0.1143690686537467 S
atom 2.8278395132649417 2.2600587170482491 4.9448950772311173 S
atom 7.2734897901014319 2.8466613462161487 4.9449006048856248 S
atom 2.2793225264835435 7.8408286098631681 4.9449006046886756 S
atom 7.8600971854445012 7.2923163892268761 4.9448950772975993 S
atom 2.7671725840619597 0.0075349403354732 2.2142524590941828 S
atom 7.2233368513996785 0.0230809109633844 2.7655725989247020 S
atom 2.2291695877962354 5.0172481744182802 2.7655725989339524 S
atom 7.7994302562254978 5.0397926123550425 2.2142524590882893 S
atom 2.8901107959469345 0.0131934979348770 7.7608946721139311 S
atom 7.1496990651560370 0.0278582855230974 7.1363552578595595 S
atom 2.1555318015015268 5.0220255488114809 7.1363552578393818 S
atom 7.9223684681093882 5.0454511698119013 7.7608946721136567 S
atom 0.0041966028373045 2.2099737004790017 2.7655699201626383 S
atom 5.0209074118329475 2.7860812710679723 2.2142285790042169 S
atom 0.0267401482026708 7.7802485346956880 2.2142285789875618 S
atom 5.0364542750375154 7.2422313726448566 2.7655699201627133 S
atom 0.0090670986104216 2.1362249114123997 7.1363467046537323 S
atom 5.0266601914134901 2.9088909633369626 7.7608894191490503 S
atom 0.0324929275422245 7.9030582269656193 7.7608894191654816 S
atom 5.0413247710436346 7.1684825835630006 7.1363467046298377 S
atom 0.2721252711902329 0.1836782607052088 9.9480459473886889 Ba
atom 5.1971703814911310 0.2909052176608303 9.9480459473842657 Ba
atom 0.2030031179971611 5.2850724812918504 9.9480459473860847 Ba
atom 5.3043829432692107 5.2159359329002619 9.9480459473767624 Ba
atom -0.2479180720306476 -0.1836637139471230 14.9065480402620096 Ba
atom 4.8297725911808511 -0.2291216027425466 14.9065098666917937 Ba
atom -0.1643946723887245 4.7650456608011824 14.9065098666959788 Ba
atom 4.7843396001147509 4.8485939581668225 14.9065480402515078 Ba
atom 2.5156859065466359 2.5137068932310096 12.4553760192889573 Zr
atom 7.5271577138767141 2.5344908460326212 12.4553733512637521 Zr
atom 2.5329904502217242 7.5286581096652379 12.4553733510228692 Zr
atom 7.5479435787835749 7.5459645654742893 12.4553760192804308 Zr
atom 2.5231479449024823 2.5266418771320427 17.5060546460513748 Zr
atom 7.5400120211281960 2.5420154065753064 17.5060564271377395 Zr
atom 2.5458447574101970 7.5361826702364150 17.5060564271937054 Zr
atom 7.5554056171620845 7.5588995493830469 17.5060546462605089 Zr
atom 2.1862223468746351 2.7859919427108877 9.9480459476630330 S
atom 7.7994625092536802 2.2049956806686599 9.9480459474746343 S
atom 2.8052952456612812 7.1991629442582088 9.9480459476734850 S
atom 7.2184800190945886 7.8182496148950209 9.9480459480531866 S
atom 2.8278395132715866 2.2600587170315705 14.9511968175974239 S
atom 7.2734897900793642 2.8466613462623269 14.9511912899710726 S
atom 2.2793225264573111 7.8408286098659641 14.9511912901312201 S
atom 7.8600971854165325 7.2923163892323988 14.9511968172986904 S
atom 2.8901107959403385 0.0131934979297439 12.1351972228614233 S
atom 7.1496990651524639 0.0278582849529814 12.7597366370614669 S
atom 2.1555318015074878 5.0220255488285082 12.7597366370933241 S
atom 7.9223684680830635 5.0454511703569205 12.1351972228765188 S
atom 2.7671725840496415 0.0075349403588459 17.6818394357043580 S
atom 7.2233368513959384 0.0230809107089792 17.1305192958737180 S
atom 2.2291695877915108 5.0172481744177286 17.1305192958742580 S
atom 7.7994302562309121 5.0397926126351011 17.6818394357177198 S
atom 0.0090670987929955 2.1362249114008440 12.7597451902902090 S
atom 5.0266601912403814 2.9088909633405260 12.1352024758150279 S
atom 0.0324929271881873 7.9030582269131866 12.1352024758347419 S
atom 5.0413247714175942 7.1684825836110937 12.7597451902806593 S
atom 0.0041966030002039 2.2099737004744324 17.1305219746438446 S
atom 5.0209074116576833 2.7860812710614495 17.6818633158112810 S
atom 0.0267401480810191 7.7802485346669279 17.6818633158057743 S
atom 5.0364542751713053 7.2422313726565237 17.1305219746264186 S
atom 0.1051244883674860 0.1656880605801201 19.6719308304917782 Ba
atom 5.1790035115715272 0.1240095724916800 19.6719303307728417 Ba
atom 0.1848362479360467 5.1181768361287086 19.6719303308280509 Ba
atom 5.1373821605729395 5.1979457327761764 19.6719308306443352 Ba
atom 2.2584362180064819 2.6935021152738026 20.0104609631389252 S
atom 7.7068315823141456 2.2773465183805648 20.0104754276423478 S
atom 2.7126643186888018 7.2715137820126960 20.0104754275671866 S
atom 7.2906938902031291 7.7257597874678714 20.0104609630611847 S
atom 2.6818168967188738 2.6212533245678609 23.1046667435303021 Ba
atom 7.6343056721663505 2.7009650841392174 23.1046672432678477 Ba
atom 2.6401384086376742 7.6951323475405715 23.1046672432821723 Ba
atom 7.7140745688196342 7.6535109965840302 23.1046667435123076 Ba
atom 2.3324651220823012 2.2682107642069886 27.8700495337435612 Ba
atom 7.2811744969512135 2.3517341638143119 27.8700877073285014 Ba
atom 2.2870072332629685 7.3459014271291521 27.8700877072876878 Ba
atom 7.3647227943370659 7.3004684361025038 27.8700495337335745 Ba
atom 5.0427707132664343 5.0392767809909671 25.2705429278305900 Zr
atom 10.0523115064104083 5.0619735935864814 25.2705411472637103 Zr
atom 5.0581442426641186 10.0561408571238786 25.2705411468177559 Zr
atom 10.0750283854429803 10.0715344532369215 25.2705429277894424 Zr
atom 5.0298357294367984 5.0318147427235873 30.3212215539728582 Zr
atom 10.0447869457293528 5.0491192863127630 30.3212242220998149 Zr
atom 5.0506196821794536 10.0432865500026729 30.3212242232376461 Zr
atom 10.0620934014753018 10.0640724147529692 30.3212215552464812 Zr
atom 5.2096309513988981 4.7745650540435358 22.7661366105151899 S
atom 9.7876426180880909 5.2287931548237134 22.7661221460685468 S
atom 4.7934753544929842 10.2229604183747842 22.7661221466269268 S
atom 10.2418886235427671 9.8068227263494201 22.7661366112118628 S
atom 4.7761875531732176 5.3439683493181640 27.8254007578825124 S
atom 10.3569574460190665 4.7954513625371824 27.8254062841330807 S
atom 5.3627901823389559 9.7896186261731497 27.8254062835864353 S
atom 9.8084452253283452 10.3762260214966062 27.8254007562312893 S
atom 4.7261025365456897 2.5203254381807549 25.6460755994140435 S
atom 10.2963773707377548 2.5428689832566254 25.0947342582279092 S
atom 5.3022101072028214 7.5370362488237053 25.0947342581918811 S
atom 9.7583602087715899 7.5525831120678566 25.6460755993936260 S
atom 4.6523537475469841 2.5251959358784606 30.0168523838264107 S
atom 10.4191870630841681 2.5486217632153423 30.6413950982632315 S
atom 5.4250197993371838 7.5427890262992943 30.6413950982215724 S
atom 9.6846114197031685 7.5574536076501557 30.0168523837690664 S
atom 2.5236637761804541 5.2833014201893196 25.0947581382252665 S
atom 7.5333770106986311 4.7452984238034297 25.6460782781672982 S
atom 2.5392097467289902 9.7394656875661525 25.6460782781634151 S
atom 7.5559214488445949 10.3155590922810987 25.0947581383947522 S
atom 2.5293223350791583 5.4062396320031008 30.6414003512251796 S
atom 7.5381543838322997 4.6716606376191834 30.0168609370631039 S
atom 2.5439871210074672 9.6658279012149251 30.0168609369472392 S
atom 7.5615800064964107 10.4384973042265479 30.6414003511689472 S
atom 2.6998070967204852 2.7882541070076532 32.8285516266839750 Ba
atom 7.8012013174318398 2.7191319538138239 32.8285516266584096 Ba
atom 2.8070340537248066 7.7132992178672621 32.8285516266672488 Ba
atom 7.7320647690449977 7.8205117796163055 32.8285516266635256 Ba
atom 2.3324651221591850 2.2682107640947904 37.7870537193711158 Ba
atom 7.2811744968795562 2.3517341637821372 37.7870155457893588 Ba
atom 2.2870072334335170 7.3459014272200953 37.7870155458395089 Ba
atom 7.3647227941618736 7.3004684360905250 37.7870537193684157 Ba
atom 5.0298357294265799 5.0318147427182804 35.3358817000035259 Zr
atom 10.0447869456137759 5.0491192862975032 35.3358790308005410 Zr
atom 5.0506196821019333 10.0432865500809250 35.3358790302003811 Zr
atom 10.0620934015234713 10.0640724148593588 35.3358816985240693 Zr
atom 5.0427707132337831 5.0392767808429628 40.3865603243231845 Zr
atom 10.0523115063787891 5.0619735935621319 40.3865621059416284 Zr
atom 5.0581442426346612 10.0561408573007149 40.3865621056833461 Zr
atom 10.0750283855312741 10.0715344533086029 40.3865603246133915 Zr
atom 5.3021207788123483 4.7023511830312570 32.8285516255043603 S
atom 9.7152917803657797 5.3214240817425287 32.8285516273550968 S
atom 4.7211245167214662 10.3155913453903079 32.8285516264553863 S
atom 10.3343784509978462 9.7346088551296504 32.8285516258299594 S
atom 4.7761875531308702 5.3439683493986445 37.8317024959328378 S
atom 10.3569574458881366 4.7954513626168982 37.8316969684643283 S
atom 5.3627901823125406 9.7896186262041898 37.8316969698340699 S
atom 9.8084452253210284 10.3762260215476001 37.8317024973096281 S
atom 4.6523537474581289 2.5251959349537110 35.6402508693636833 S
atom 10.4191870630695540 2.5486217646454907 35.0157081548747016 S
atom 5.4250197994351268 7.5427890271886975 35.0157081548321614 S
atom 9.6846114196941446 7.5574536061557813 35.6402508693597895 S
atom 4.7261025365582512 2.5203254376643804 40.0110276539100838 S
atom 10.2963773707495179 2.5428689837244707 40.5623689950449275 S
atom 5.3022101072398931 7.5370362493806677 40.5623689951025099 S
atom 9.7583602087571144 7.5525831116094704 40.0110276538750398 S
atom 2.5293223333365575 5.4062396319859145 35.0157029018864279 S
atom 7.5381543856488795 4.6716606376984533 35.6402423160793447 S
atom 2.5439871216058965 9.6658279011862103 35.6402423162306903 S
atom 7.5615800059049594 10.4384973042554936 35.0157029019072255 S
atom 2.5236637757098310 5.2833014202109441 40.5623451150586263 S
atom 7.5333770111636200 4.7452984238269540 40.0110249751071976 S
atom 2.5392097471925568 9.7394656875501742 40.0110249751339566 S
atom 7.5559214482850123 10.3155590922527072 40.5623451148918974 S
atom 2.6818168966566467 2.6212533245941874 42.5524365095022503 Ba
atom 7.6343056722168843 2.7009650841351944 42.5524360097745031 Ba
atom 2.6401384086015325 7.6951323474924243 42.5524360097855521 Ba
atom 7.7140745688468249 7.6535109965603825 42.5524365095734609 Ba
atom 5.2096309514387844 4.7745650540168070 42.8909666432858998 S
atom 9.7876426180823319 5.2287931548348832 42.8909811071508500 S
atom 4.7934753545074713 10.2229604183610903 42.8909811067679669 S
atom 10.2418886235800581 9.8068227263007728 42.8909666425115859 S
