#=======================================================
# FHI-aims file: full_relax/full_relax_RP_9_00Rz_00Rz.in
# Created using the Atomic Simulation Environment (ASE)
# Mon Mar 24 16:22:37 2025
#=======================================================
lattice_vector 9.8975623588281003 -0.0000000515312512 -0.0000000000000112 
lattice_vector -0.0000000515312512 9.8975623588281003 -0.0000000000000167 
lattice_vector -0.0000000000001039 -0.0000000000001560 97.8547687314328130 
atom 0.0000000000002925 -0.0000000000024340 0.1595857103778511 Ba
atom 4.9487811794141328 -0.0000000257674651 0.1595857103777289 Ba
atom -0.0000000257655374 4.9487811794121903 0.1595857103777209 Ba
atom 4.9487811536485911 4.9487811536460882 0.1595857103776834 Ba
atom -0.0000000000031794 -0.0000000000015157 5.0704778880357120 Ba
atom 4.9487811794129257 -0.0000000257673329 5.0704778880356223 Ba
atom -0.0000000257666415 4.9487811794123830 5.0704778880357759 Ba
atom 4.9487811536453670 4.9487811536468564 5.0704778880357075 Ba
atom 2.4743905768230334 2.4743905768221248 2.4385435871481267 Zr
atom 7.4231717562371227 2.4743905510570712 2.4385435871480903 Zr
atom 2.4743905510574296 7.4231717562367141 2.4385435871480583 Zr
atom 7.4231717304714673 7.4231717304705205 2.4385435871480512 Zr
atom 2.4743905768228069 2.4743905768227017 7.5807195964241982 Zr
atom 7.4231717562368065 2.4743905510570396 7.5807195964241600 Zr
atom 2.4743905510571769 7.4231717562367088 7.5807195964241503 Zr
atom 7.4231717304711857 7.4231717304711520 7.5807195964241298 Zr
atom 2.4743905768225960 2.4743905768198733 -0.1049068523583490 S
atom 7.4231717562364175 2.4743905510590745 -0.1049068523583759 S
atom 2.4743905510565520 7.4231717562387569 -0.1049068523584178 S
atom 7.4231717304711928 7.4231717304683480 -0.1049068523584285 S
atom 2.4743905768230712 2.4743905768243479 5.0442180863647366 S
atom 7.4231717562370250 2.4743905510553019 5.0442180863647019 S
atom 2.4743905510574904 7.4231717562348507 5.0442180863647090 S
atom 7.4231717304713394 7.4231717304726521 5.0442180863646797 S
atom 2.0428549676153285 -0.0000000641748501 2.5334143924662036 S
atom 7.8547073912089038 0.0000000126400179 2.5334143924616184 S
atom 2.9059261860292480 4.9487812178196942 2.5334143924615771 S
atom 6.9916361212636913 4.9487810894735880 2.5334143924660095 S
atom 3.0114324560526273 -0.0000000142623639 7.6051563118868684 S
atom 6.8861299027725735 -0.0000000372719319 7.6051563118883827 S
atom 1.9373486975929635 4.9487811679077387 7.6051563118885381 S
atom 7.9602136097009888 4.9487811393860719 7.6051563118868852 S
atom 0.0000000384060337 2.9059262117950917 2.5334143924639325 S
atom 4.9487811152396128 2.0428549418498982 2.5334143924637931 S
atom -0.0000000899400731 6.9916361470294923 2.5334143924639418 S
atom 4.9487811920544580 7.8547073654434625 2.5334143924637234 S
atom -0.0000000115061217 1.9373487233585420 7.6051563118876420 S
atom 4.9487811651518809 3.0114324302869409 7.6051563118877343 S
atom -0.0000000400278022 7.9602136354665607 7.6051563118876491 S
atom 4.9487811421423133 6.8861298770068968 7.6051563118876890 S
atom -0.0000000000012410 -0.0000000000014561 10.1597149898983279 Ba
atom 4.9487811794121646 -0.0000000257670844 10.1597149898983652 Ba
atom -0.0000000257675445 4.9487811794125882 10.1597149898983012 Ba
atom 4.9487811536471513 4.9487811536469337 10.1597149898983528 Ba
atom -0.0000000000013453 -0.0000000000012930 15.2685740539376305 Ba
atom 4.9487811794129222 -0.0000000257668420 15.2685740539376340 Ba
atom -0.0000000257667221 4.9487811794126468 15.2685740539375026 Ba
atom 4.9487811536470980 4.9487811536472046 15.2685740539374972 Ba
atom 2.4743905768229508 2.4743905768227967 12.6997151817584069 Zr
atom 7.4231717562370259 2.4743905510571857 12.6997151817584015 Zr
atom 2.4743905510573168 7.4231717562368997 12.6997151817584104 Zr
atom 7.4231717304713793 7.4231717304712408 12.6997151817583589 Zr
atom 2.4743905768230370 2.4743905768228944 17.8177514740942442 Zr
atom 7.4231717562371040 2.4743905510572817 17.8177514740941980 Zr
atom 2.4743905510573989 7.4231717562369663 17.8177514740941731 Zr
atom 7.4231717304714939 7.4231717304713394 17.8177514740941412 Zr
atom 2.4743905768230747 2.4743905768221461 10.1547300081356013 S
atom 7.4231717562371129 2.4743905510576170 10.1547300081355694 S
atom 2.4743905510574953 7.4231717562374149 10.1547300081356013 S
atom 7.4231717304714149 7.4231717304707159 10.1547300081355605 S
atom 2.4743905768229548 2.4743905768229899 15.2665085562326510 S
atom 7.4231717562372355 2.4743905510570645 15.2665085562326404 S
atom 2.4743905510573279 7.4231717562367248 15.2665085562326688 S
atom 7.4231717304715659 7.4231717304714371 15.2665085562326333 S
atom 1.9381913207277772 -0.0000000137797336 12.7160086259641041 S
atom 7.9593710380977800 -0.0000000377543213 12.7160086259636866 S
atom 3.0105898329180745 4.9487811674253610 12.7160086259636653 S
atom 6.8869724743762548 4.9487811398686947 12.7160086259640437 S
atom 3.0107723823224992 -0.0000000121780784 17.8246274394455106 S
atom 6.8867899765033140 -0.0000000393557948 17.8246274394456101 S
atom 1.9380087713236296 4.9487811658238696 17.8246274394456812 S
atom 7.9595535359708887 4.9487811414703557 17.8246274394454645 S
atom -0.0000000119885088 3.0105898586835900 12.7160086259638057 S
atom 4.9487811656345073 1.9381912949620852 12.7160086259638838 S
atom -0.0000000395451837 6.8869725001417210 12.7160086259637559 S
atom 4.9487811416599028 7.9593710123320296 12.7160086259640135 S
atom -0.0000000135900152 1.9380087970891036 17.8246274394456421 S
atom 4.9487811672361310 3.0107723565566960 17.8246274394453579 S
atom -0.0000000379435471 7.9595535617364357 17.8246274394456492 S
atom 4.9487811400584114 6.8867899507375832 17.8246274394455249 S
atom -0.0000000000011936 -0.0000000000012540 20.3788543194022509 Ba
atom 4.9487811794128493 -0.0000000257669331 20.3788543194021550 Ba
atom -0.0000000257668612 4.9487811794128440 20.3788543194021123 Ba
atom 4.9487811536472277 4.9487811536470385 20.3788543194020235 Ba
atom -0.0000000000011842 -0.0000000000013352 25.4905685234684753 Ba
atom 4.9487811794129035 -0.0000000257669755 25.4905685234683475 Ba
atom -0.0000000257667488 4.9487811794126673 25.4905685234684931 Ba
atom 4.9487811536472561 4.9487811536471762 25.4905685234684682 Ba
atom 2.4743905768230690 2.4743905768229286 22.9347114214354661 Zr
atom 7.4231717562370871 2.4743905510573372 22.9347114214354022 Zr
atom 2.4743905510574242 7.4231717562369308 22.9347114214354271 Zr
atom 7.4231717304714655 7.4231717304713154 22.9347114214353880 Zr
atom 2.4743905768230730 2.4743905768229171 28.0516713687768515 Zr
atom 7.4231717562371360 2.4743905510573008 28.0516713687768053 Zr
atom 2.4743905510574375 7.4231717562369770 28.0516713687768124 Zr
atom 7.4231717304715152 7.4231717304713536 28.0516713687767982 Zr
atom 2.4743905768232031 2.4743905768228065 20.3786600058801142 S
atom 7.4231717562370054 2.4743905510573332 20.3786600058800751 S
atom 2.4743905510573954 7.4231717562370276 20.3786600058800964 S
atom 7.4231717304715428 7.4231717304712994 20.3786600058800964 S
atom 2.4743905768230636 2.4743905768231107 25.4907628369906689 S
atom 7.4231717562371653 2.4743905510574944 25.4907628369906014 S
atom 2.4743905510574944 7.4231717562367985 25.4907628369906369 S
atom 7.4231717304714593 7.4231717304712053 25.4907628369906227 S
atom 1.9375813045141026 -0.0000000135961989 22.9347114214354484 S
atom 7.9599810543116201 -0.0000000379376350 22.9347114214353560 S
atom 3.0111998491320762 4.9487811672420250 22.9347114214351997 S
atom 6.8863624581624139 4.9487811400522359 22.9347114214351642 S
atom 3.0107723823226280 -0.0000000121780475 28.0447954034249669 S
atom 6.8867899765032288 -0.0000000393557625 28.0447954034249705 S
atom 1.9380087713235403 4.9487811658238972 28.0447954034253293 S
atom 7.9595535359710459 4.9487811414703833 28.0447954034252795 S
atom -0.0000000121718816 3.0111998748975197 22.9347114214351393 S
atom 4.9487811658180023 1.9375812787482911 22.9347114214352956 S
atom -0.0000000393616901 6.8863624839279884 22.9347114214353667 S
atom 4.9487811414765339 7.9599810285459238 22.9347114214352494 S
atom -0.0000000135899882 1.9380087970889770 28.0447954034251374 S
atom 4.9487811672361586 3.0107723565568794 28.0447954034252369 S
atom -0.0000000379435208 7.9595535617365201 28.0447954034251374 S
atom 4.9487811400584309 6.8867899507375148 28.0447954034252476 S
atom -0.0000000000011832 -0.0000000000012961 30.6008487889334013 Ba
atom 4.9487811794129160 -0.0000000257670004 30.6008487889332272 Ba
atom -0.0000000257667779 4.9487811794128085 30.6008487889334297 Ba
atom 4.9487811536472401 4.9487811536472117 30.6008487889333445 Ba
atom -0.0000000000011677 -0.0000000000012497 35.7097078529733594 Ba
atom 4.9487811794127303 -0.0000000257669382 35.7097078529731391 Ba
atom -0.0000000257670058 4.9487811794127863 35.7097078529732315 Ba
atom 4.9487811536473254 4.9487811536471700 35.7097078529730894 Ba
atom 2.4743905768230379 2.4743905768228753 33.1697076611130228 Zr
atom 7.4231717562371173 2.4743905510572630 33.1697076611129944 Zr
atom 2.4743905510574162 7.4231717562369548 33.1697076611130299 Zr
atom 7.4231717304714806 7.4231717304713412 33.1697076611130228 Zr
atom 2.4743905768230388 2.4743905768228562 38.2887032464478096 Zr
atom 7.4231717562370259 2.4743905510572199 38.2887032464478807 Zr
atom 2.4743905510574198 7.4231717562368358 38.2887032464479020 Zr
atom 7.4231717304714078 7.4231717304712497 38.2887032464479375 Zr
atom 2.4743905768230277 2.4743905768227537 30.6029142866383879 S
atom 7.4231717562372266 2.4743905510570783 30.6029142866383594 S
atom 2.4743905510574145 7.4231717562370783 30.6029142866384056 S
atom 7.4231717304715561 7.4231717304715410 30.6029142866383808 S
atom 2.4743905768229593 2.4743905768227608 35.7146928347359989 S
atom 7.4231717562372292 2.4743905510574393 35.7146928347360131 S
atom 2.4743905510575326 7.4231717562368837 35.7146928347360344 S
atom 7.4231717304714016 7.4231717304709992 35.7146928347360273 S
atom 1.9381913207277432 -0.0000000137796646 33.1534142169073931 S
atom 7.9593710380980109 -0.0000000377542385 33.1534142169074997 S
atom 3.0105898329183307 4.9487811674254223 33.1534142169072936 S
atom 6.8869724743762619 4.9487811398687649 33.1534142169071160 S
atom 3.0114324560529875 -0.0000000142622515 38.2642665309842585 S
atom 6.8861299027726632 -0.0000000372718167 38.2642665309840169 S
atom 1.9373486975929202 4.9487811679078506 38.2642665309840240 S
atom 7.9602136097014382 4.9487811393861882 38.2642665309845071 S
atom -0.0000000119884448 3.0105898586838555 33.1534142169073789 S
atom 4.9487811656345784 1.9381912949619768 33.1534142169072581 S
atom -0.0000000395451123 6.8869725001417148 33.1534142169073576 S
atom 4.9487811416599810 7.9593710123321904 33.1534142169073078 S
atom -0.0000000115059818 1.9373487233584799 38.2642665309844929 S
atom 4.9487811651520150 3.0114324302872926 38.2642665309839529 S
atom -0.0000000400276559 7.9602136354667934 38.2642665309841519 S
atom 4.9487811421424510 6.8861298770067787 38.2642665309843437 S
atom -0.0000000000014203 -0.0000000000015279 40.7989449548365783 Ba
atom 4.9487811794128831 -0.0000000257667465 40.7989449548366352 Ba
atom -0.0000000257667073 4.9487811794130145 40.7989449548365641 Ba
atom 4.9487811536470403 4.9487811536469293 40.7989449548366636 Ba
atom -0.0000000000008599 -0.0000000000017625 45.7098371324957995 Ba
atom 4.9487811794133165 -0.0000000257673576 45.7098371324958919 Ba
atom -0.0000000257667441 4.9487811794121477 45.7098371324957213 Ba
atom 4.9487811536475164 4.9487811536464958 45.7098371324958492 Ba
atom 2.4743905768230063 2.4743905768226488 43.4308792557245908 Zr
atom 7.4231717562371893 2.4743905510570841 43.4308792557246406 Zr
atom 2.4743905510575170 7.4231717562367949 43.4308792557247543 Zr
atom 7.4231717304714460 7.4231717304711111 43.4308792557247969 Zr
atom 2.4743905768235415 2.4743905768230423 40.8252047565076026 S
atom 7.4231717562366075 2.4743905510568012 40.8252047565076523 S
atom 2.4743905510572182 7.4231717562365018 40.8252047565076595 S
atom 7.4231717304716884 7.4231717304715046 40.8252047565076808 S
atom 2.4743905768224175 2.4743905768223677 45.9743296952313401 S
atom 7.4231717562376165 2.4743905510573700 45.9743296952314182 S
atom 2.4743905510577489 7.4231717562372461 45.9743296952314253 S
atom 7.4231717304710303 7.4231717304709735 45.9743296952314253 S
atom 2.0428549676153178 -0.0000000641745193 43.3360084504084853 S
atom 7.8547073912103444 0.0000000126403428 43.3360084504092953 S
atom 2.9059261860306247 4.9487812178200228 43.3360084504094516 S
atom 6.9916361212638032 4.9487810894739130 43.3360084504087695 S
atom 0.0000000384062552 2.9059262117961451 43.3360084504083716 S
atom 4.9487811152398340 2.0428549418496207 43.3360084504094658 S
atom -0.0000000899398456 6.9916361470292570 43.3360084504094090 S
atom 4.9487811920546907 7.8547073654446073 43.3360084504086913 S
atom 2.4743905768234664 2.4743905768223629 49.0869700760943033 Ba
atom 7.4231717562374993 2.4743905510567048 49.0869700760945875 Ba
atom 2.4743905510576565 7.4231717562363508 49.0869700760943246 Ba
atom 7.4231717304718332 7.4231717304707834 49.0869700760944738 Ba
atom 2.4743905768224503 2.4743905768223651 53.9978622537535244 Ba
atom 7.4231717562371440 2.4743905510570983 53.9978622537539152 Ba
atom 2.4743905510574038 7.4231717562366066 53.9978622537533113 Ba
atom 7.4231717304708456 7.4231717304708926 53.9978622537534747 Ba
atom 4.9487811536471211 4.9487811536465509 51.3659279528655119 Zr
atom 9.8975623330612059 4.9487811278810012 51.3659279528655972 Zr
atom 4.9487811278815821 9.8975623330607707 51.3659279528655546 Zr
atom 9.8975623072955354 9.8975623072949830 51.3659279528654906 Zr
atom 4.9487811536468156 4.9487811536465580 56.5081039621422363 Zr
atom 9.8975623330610034 4.9487811278808724 56.5081039621423642 Zr
atom 4.9487811278812011 9.8975623330606020 56.5081039621422789 Zr
atom 9.8975623072953542 9.8975623072949848 56.5081039621422434 Zr
atom 4.9487811536470012 4.9487811536461033 48.8224775133587698 S
atom 9.8975623330609857 4.9487811278817055 48.8224775133588125 S
atom 4.9487811278818894 9.8975623330613516 48.8224775133588054 S
atom 9.8975623072949226 9.8975623072943488 48.8224775133587343 S
atom 4.9487811536467836 4.9487811536471602 53.9716024520825215 S
atom 9.8975623330612414 4.9487811278800447 53.9716024520825073 S
atom 4.9487811278810314 9.8975623330600406 53.9716024520825144 S
atom 9.8975623072957521 9.8975623072957450 53.9716024520825144 S
atom 4.5172455444393531 2.4743905126493839 51.4607987581817028 S
atom 10.3290979680342776 2.4743905894641922 51.4607987581803172 S
atom 5.3803167628545561 7.4231717946439115 51.4607987581806583 S
atom 9.4660266980878056 7.4231716662977831 51.4607987581819657 S
atom 5.4858230328768389 2.4743905625614864 56.5325406776055033 S
atom 9.3605204795965591 2.4743905395518841 56.5325406776065620 S
atom 4.4117392744168260 7.4231717447315928 56.5325406776063204 S
atom 10.4346041865252843 7.4231717162098851 56.5325406776053185 S
atom 2.4743906152302797 5.3803167886199121 51.4607987581811699 S
atom 7.4231716920638329 4.5172455186734437 51.4607987581813120 S
atom 2.4743904868841828 9.4660267238531990 51.4607987581807862 S
atom 7.4231717688787242 10.3290979422684561 51.4607987581816673 S
atom 2.4743905653179108 4.4117393001819867 56.5325406776060788 S
atom 7.4231717419759029 5.4858230071108087 56.5325406776055317 S
atom 2.4743905367962249 10.4346042122906368 56.5325406776060646 S
atom 7.4231717189663229 9.3605204538306843 56.5325406776057093 S
atom 2.4743905768224672 2.4743905768221799 59.0870993556171200 Ba
atom 7.4231717562363002 2.4743905510564308 59.0870993556170347 Ba
atom 2.4743905510565525 7.4231717562362070 59.0870993556168713 Ba
atom 7.4231717304709166 7.4231717304705986 59.0870993556167079 Ba
atom 2.4743905768224104 2.4743905768221026 64.1959584196565487 Ba
atom 7.4231717562366377 2.4743905510568496 64.1959584196563924 Ba
atom 2.4743905510569606 7.4231717562363428 64.1959584196567334 Ba
atom 7.4231717304710418 7.4231717304711715 64.1959584196566055 Ba
atom 4.9487811536467712 4.9487811536465189 61.6270995474769947 Zr
atom 9.8975623330607743 4.9487811278809088 61.6270995474770942 Zr
atom 4.9487811278811593 9.8975623330604492 61.6270995474770231 Zr
atom 9.8975623072951677 9.8975623072947858 61.6270995474770800 Zr
atom 4.9487811536468156 4.9487811536464870 66.7451358398128463 Zr
atom 9.8975623330608560 4.9487811278808236 66.7451358398129173 Zr
atom 4.9487811278812091 9.8975623330605593 66.7451358398131447 Zr
atom 9.8975623072952406 9.8975623072949208 66.7451358398132442 Zr
atom 4.9487811536469328 4.9487811536462152 59.0821143738540684 S
atom 9.8975623330609768 4.9487811278812428 59.0821143738540755 S
atom 4.9487811278813769 9.8975623330608897 59.0821143738541181 S
atom 9.8975623072952743 9.8975623072945194 59.0821143738540684 S
atom 4.9487811536468627 4.9487811536468334 64.1938929219514591 S
atom 9.8975623330608489 4.9487811278810767 64.1938929219514307 S
atom 4.9487811278813174 9.8975623330601010 64.1938929219516439 S
atom 9.8975623072951517 9.8975623072945194 64.1938929219516581 S
atom 4.4125818975516156 2.4743905630438987 61.6433929916829868 S
atom 10.4337616149214352 2.4743905390693017 61.6433929916827310 S
atom 5.4849804097421577 7.4231717442490233 61.6433929916825747 S
atom 9.3613630511997723 7.4231717166923348 61.6433929916826244 S
atom 5.4851629591463409 2.4743905646454940 66.7520118051642299 S
atom 9.3611805533270296 2.4743905374677424 66.7520118051642157 S
atom 4.4123993481473436 7.4231717426474697 66.7520118051649263 S
atom 10.4339441127946042 7.4231717182939159 66.7520118051648979 S
atom 2.4743905648352764 5.4849804355073228 61.6433929916828021 S
atom 7.4231717424582833 4.4125818717855774 61.6433929916825676 S
atom 2.4743905372786337 9.3613630769653042 61.6433929916828163 S
atom 7.4231717184837045 10.4337615891556723 61.6433929916829086 S
atom 2.4743905632337335 4.4123993739125975 66.7520118051645426 S
atom 7.4231717440599034 5.4851629333803587 66.7520118051643863 S
atom 2.4743905388802063 10.4339441385599407 66.7520118051646136 S
atom 7.4231717168821802 9.3611805275610731 66.7520118051652815 S
atom 2.4743905768226226 2.4743905768224401 69.3062386851213574 Ba
atom 7.4231717562366715 2.4743905510562683 69.3062386851210590 Ba
atom 2.4743905510569042 7.4231717562367052 69.3062386851212722 Ba
atom 7.4231717304711982 7.4231717304701963 69.3062386851211869 Ba
atom 2.4743905768227896 2.4743905768221253 74.4179528891877311 Ba
atom 7.4231717562369592 2.4743905510570250 74.4179528891873900 Ba
atom 2.4743905510570294 7.4231717562360497 74.4179528891875037 Ba
atom 7.4231717304709983 7.4231717304712568 74.4179528891869637 Ba
atom 4.9487811536467907 4.9487811536465047 71.8620957871540611 Zr
atom 9.8975623330609537 4.9487811278808280 71.8620957871541890 Zr
atom 4.9487811278811922 9.8975623330605877 71.8620957871543879 Zr
atom 9.8975623072953560 9.8975623072949812 71.8620957871545443 Zr
atom 4.9487811536469106 4.9487811536465980 76.9790557344952475 Zr
atom 9.8975623330608347 4.9487811278809373 76.9790557344953186 Zr
atom 4.9487811278812703 9.8975623330606499 76.9790557344955602 Zr
atom 9.8975623072952068 9.8975623072950327 76.9790557344957591 Zr
atom 4.9487811536468715 4.9487811536460606 69.3060443715989578 S
atom 9.8975623330608187 4.9487811278804656 69.3060443715989436 S
atom 4.9487811278810110 9.8975623330610212 69.3060443715992562 S
atom 9.8975623072954519 9.8975623072952974 69.3060443715992989 S
atom 4.9487811536465278 4.9487811536469746 74.4181472027093491 S
atom 9.8975623330611775 4.9487811278809382 74.4181472027094202 S
atom 4.9487811278811327 9.8975623330601525 74.4181472027096902 S
atom 9.8975623072953560 9.8975623072948764 74.4181472027098181 S
atom 4.4119718813378377 2.4743905632274044 71.8620957871549422 S
atom 10.4343716311355887 2.4743905388859351 71.8620957871547574 S
atom 5.4855904259557908 7.4231717440656277 71.8620957871539190 S
atom 9.3607530349865087 7.4231717168758093 71.8620957871542743 S
atom 5.4851629591462698 2.4743905646456299 76.9721797691435796 S
atom 9.3611805533270243 2.4743905374678890 76.9721797691440628 S
atom 4.4123993481474582 7.4231717426475541 76.9721797691444181 S
atom 10.4339441127945562 7.4231717182940065 76.9721797691442475 S
atom 2.4743905646519035 5.4855904517212037 71.8620957871539758 S
atom 7.4231717426417942 4.4119718555719647 71.8620957871541322 S
atom 2.4743905374621256 9.3607530607515326 71.8620957871546295 S
atom 7.4231717183003605 10.4343716053694280 71.8620957871547148 S
atom 2.4743905632337704 4.4123993739128933 76.9721797691442902 S
atom 7.4231717440599168 5.4851629333804759 76.9721797691432386 S
atom 2.4743905388802476 10.4339441385599656 76.9721797691442902 S
atom 7.4231717168821918 9.3611805275611548 76.9721797691441623 S
atom 2.4743905768225352 2.4743905768225796 79.5282331546521561 Ba
atom 7.4231717562363393 2.4743905510567119 79.5282331546522414 Ba
atom 2.4743905510568820 7.4231717562367479 79.5282331546518435 Ba
atom 7.4231717304709983 7.4231717304704636 79.5282331546515451 Ba
atom 2.4743905768227501 2.4743905768232790 84.6370922186915209 Ba
atom 7.4231717562368020 2.4743905510571076 84.6370922186916204 Ba
atom 2.4743905510572017 7.4231717562363499 84.6370922186911088 Ba
atom 7.4231717304711262 7.4231717304720384 84.6370922186908246 Ba
atom 4.9487811536468502 4.9487811536467259 82.0970920268310920 Zr
atom 9.8975623330609288 4.9487811278810829 82.0970920268310920 Zr
atom 4.9487811278812330 9.8975623330608045 82.0970920268314046 Zr
atom 9.8975623072953436 9.8975623072951606 82.0970920268314472 Zr
atom 4.9487811536470918 4.9487811536469737 87.2160876121653246 Zr
atom 9.8975623330610301 4.9487811278813636 87.2160876121653672 Zr
atom 4.9487811278813609 9.8975623330610176 87.2160876121656088 Zr
atom 9.8975623072955710 9.8975623072953400 87.2160876121658504 Zr
atom 4.9487811536475537 4.9487811536461983 79.5302986523568194 S
atom 9.8975623330602964 4.9487811278807419 79.5302986523567910 S
atom 4.9487811278815705 9.8975623330610727 79.5302986523571036 S
atom 9.8975623072951020 9.8975623072951997 79.5302986523571320 S
atom 4.9487811536456769 4.9487811536467259 84.6420772004540112 S
atom 9.8975623330621723 4.9487811278811300 84.6420772004539543 S
atom 4.9487811278814267 9.8975623330604119 84.6420772004541249 S
atom 9.8975623072953010 9.8975623072946846 84.6420772004541675 S
atom 4.4125818975517275 2.4743905630441332 82.0807985826259596 S
atom 10.4337616149217141 2.4743905390695291 82.0807985826260307 S
atom 5.4849804097419428 7.4231717442492089 82.0807985826253912 S
atom 9.3613630512002146 7.4231717166925311 82.0807985826255333 S
atom 5.4858230328768043 2.4743905625617568 87.1916508967018871 S
atom 9.3605204795969552 2.4743905395521542 87.1916508967019581 S
atom 4.4117392744172301 7.4231717447318672 87.1916508967021997 S
atom 10.4346041865253891 7.4231717162101578 87.1916508967020576 S
atom 2.4743905648353781 5.4849804355074081 82.0807985826248228 S
atom 7.4231717424583756 4.4125818717859451 82.0807985826262581 S
atom 2.4743905372787407 9.3613630769655707 82.0807985826255049 S
atom 7.4231717184838208 10.4337615891558730 82.0807985826262723 S
atom 2.4743905653180023 4.4117393001828367 87.1916508967034787 S
atom 7.4231717419759828 5.4858230071112475 87.1916508967001533 S
atom 2.4743905367963532 10.4346042122910081 87.1916508967013755 S
atom 7.4231717189664286 9.3605204538313203 87.1916508967028250 S
atom 2.4743905768236027 2.4743905768225587 89.7263293205541999 Ba
atom 7.4231717562369601 2.4743905510592370 89.7263293205541430 Ba
atom 2.4743905510573692 7.4231717562394088 89.7263293205539583 Ba
atom 7.4231717304718021 7.4231717304705764 89.7263293205536598 Ba
atom 2.4743905768220977 2.4743905768198426 94.6372214982120710 Ba
atom 7.4231717562366155 2.4743905510541642 94.6372214982123268 Ba
atom 2.4743905510572204 7.4231717562335220 94.6372214982120141 Ba
atom 7.4231717304705898 7.4231717304682094 94.6372214982120141 Ba
atom 4.9487811536465989 4.9487811536462836 92.3582636214415515 Zr
atom 9.8975623330614066 4.9487811278804763 92.3582636214415089 Zr
atom 4.9487811278817988 9.8975623330601543 92.3582636214417931 Zr
atom 9.8975623072950043 9.8975623072946295 92.3582636214419352 Zr
atom 4.9487811536498691 4.9487811536458750 89.7525891222249044 S
atom 9.8975623330579658 4.9487811278811460 89.7525891222249186 S
atom 4.9487811278792124 9.8975623330609981 89.7525891222251175 S
atom 9.8975623072974592 9.8975623072943648 89.7525891222251886 S
atom 4.9487811536436563 4.9487811536480173 94.9017140609481515 S
atom 9.8975623330648368 4.9487811278806193 94.9017140609480521 S
atom 4.9487811278847751 9.8975623330601845 94.9017140609482510 S
atom 9.8975623072925707 9.8975623072961998 94.9017140609484073 S
atom 4.5172455444400335 2.4743905126492960 92.2633928161268528 S
atom 10.3290979680340076 2.4743905894641092 92.2633928161253039 S
atom 5.3803167628544202 7.4231717946438174 92.2633928161249628 S
atom 9.4660266980883438 7.4231716662976925 92.2633928161267249 S
atom 2.4743906152302415 5.3803167886201342 92.2633928161222769 S
atom 7.4231716920638044 4.5172455186744909 92.2633928161295813 S
atom 2.4743904868841553 9.4660267238542204 92.2633928161291266 S
atom 7.4231717688787091 10.3290979422685449 92.2633928161231580 S
