#=======================================================
# FHI-aims file: full_relax/full_relax_RP_8_RxRyMz_-Rx-Ry-Mz.in
# Created using the Atomic Simulation Environment (ASE)
# Mon Mar 24 16:14:56 2025
#=======================================================
lattice_vector 10.0075878332268040 -0.0742346558833030 0.0000000000000001 
lattice_vector -0.0742346558833026 10.0075878332268040 -0.0000000000000001 
lattice_vector 0.0000000000000012 -0.0000000000000007 86.0017076687054782 
atom 0.1017016884877872 -0.1834653509408238 0.2157354699021693 Ba
atom 5.1872592675503135 -0.1388190164319966 0.2157354699002920 Ba
atom 0.1463480229965120 4.9020922281240811 0.2157354699016272 Ba
atom 5.0683782771582004 4.7832112377325933 0.2157354698963587 Ba
atom -0.2679569219341473 0.1867644349222281 5.0091028843819361 Ba
atom 4.8170294816875909 0.2308395939913258 5.0091028843823810 Ba
atom -0.2238817628644222 5.2717508385464233 5.0091028843827079 Ba
atom 4.6987196667348048 5.1534410235936754 5.0091028843832444 Ba
atom 2.4853622034731155 2.4716988930039543 2.4037347915209741 Zr
atom 7.4987716122777304 2.4441970572448986 2.4037347915195149 Zr
atom 2.4578603677126241 7.4851083018114979 2.4037347915189504 Zr
atom 7.4520387921522788 7.4383754816882739 2.4037347915148826 Zr
atom 2.4749828062016608 2.4874985361789750 7.4612637289901969 Zr
atom 7.4829719691019303 2.4545764545219853 7.4612637290004367 Zr
atom 2.4420607245455326 7.4954876990816830 7.4612637289925763 Zr
atom 7.4416593948759688 7.4541751248555519 7.4612637289956325 Zr
atom 2.6083563326730363 2.6915774619906152 -0.1037314486616665 S
atom 7.2788930432930714 2.3212029280566040 -0.1037314486552089 S
atom 2.2379817987378727 7.3621141726097079 -0.1037314486608839 S
atom 7.5750329213427037 7.6582540506603412 -0.1037314486529432 S
atom 2.2358851669543114 2.1875465800323113 4.9670060874339006 S
atom 7.7829239252509286 2.6936740937751660 4.9670060874198843 S
atom 2.7420126806969045 7.7345853383283538 4.9670060874347000 S
atom 7.2025617556251493 7.1542231687031022 4.9670060874305868 S
atom 2.8062744913486801 -0.0149832845183338 2.2497149563304313 S
atom 7.1791533174921067 -0.0493944783897808 2.7581331672340328 S
atom 2.1382420729362837 4.9915167661600872 2.7581331672347429 S
atom 7.7729510800188022 4.9516933041473541 2.2497149563313235 S
atom 2.8986021951880039 -0.0184341565244871 7.7904922346733985 S
atom 7.1164848207662113 -0.0526205240151347 7.1736313341377729 S
atom 2.0755735762108287 4.9882907205483695 7.1736313341379123 S
atom 7.8652787838595302 4.9482424321557872 7.7904922346735272 S
atom -0.0221340434326985 2.1975194252649253 2.2497149563313648 S
atom 4.9789537391282419 2.7913171877921283 2.7581331672345688 S
atom -0.0619575054436358 7.8322284323451825 2.7581331672342668 S
atom 4.9445425452597451 7.1641960139330063 2.2497149563305721 S
atom -0.0186831714133432 2.1051917214230635 7.7904922346735885 S
atom 4.9821797847284408 2.8539856845180815 7.1736313341374469 S
atom -0.0587314598262231 7.8948969290711215 7.1736313341382374 S
atom 4.9479934172574902 7.0718683100945565 7.7904922346732022 S
atom 0.2853785161653253 -0.1840725892834378 9.9889411328991375 Ba
atom 5.1878665058950171 -0.3224958441079884 9.9889411328992370 Ba
atom 0.1469552613394139 4.7184154004453722 9.9889411328991500 Ba
atom 5.2520551048376793 4.7826039993866569 9.9889411328993383 Ba
atom -0.2842959595952586 0.1811508749911358 14.9933076637582090 Ba
atom 4.8226430416198580 0.2471786316521143 14.9933076637581983 Ba
atom -0.2182682029337452 5.2880898762064215 14.9933076637584008 Ba
atom 4.6823806290752561 5.1478274636619750 14.9933076637582197 Ba
atom 2.4886141893949123 2.4806184788055980 12.4789142206287327 Zr
atom 7.4898520264747876 2.4409450713306184 12.4789142206213413 Zr
atom 2.4489407819196090 7.4818563158892726 12.4789142206261037 Zr
atom 7.4552907780676669 7.4472950674809635 12.4789142206255921 Zr
atom 2.4833041967958525 2.4827016835725462 17.4936043455721766 Zr
atom 7.4877688217097171 2.4462550639298204 17.4936043455770864 Zr
atom 2.4468575771542964 7.4871663084873266 17.4936043455663111 Zr
atom 7.4499807854696378 7.4493782722467028 17.4936043455767489 Zr
atom 2.7470818212114736 2.8095173072114448 9.9806645844180242 S
atom 7.1609531980709376 2.1824774395164339 9.9806645844177861 S
atom 2.1200419535162736 7.2233886840708017 9.9806645844134891 S
atom 7.7137584098826464 7.7761938958817289 9.9806645844165462 S
atom 2.2182154421951088 2.1513161224921435 14.9907216647971389 S
atom 7.8191543827911216 2.7113438185336367 14.9907216648057986 S
atom 2.7782431382360837 7.7522550630874356 14.9907216648097599 S
atom 7.1848920308665738 7.1179927111638159 14.9907216647988903 S
atom 2.8900241214817193 -0.0220706750169745 12.1721644959730799 S
atom 7.1205209647552401 -0.0565601530723466 12.8100873749372806 S
atom 2.0796097201996866 4.9843510914850535 12.8100873749370674 S
atom 7.8567007101533815 4.9446059136574174 12.1721644959736164 S
atom 2.8884497977429482 -0.0205728495463454 17.8178544335540749 S
atom 7.1210145064490735 -0.0550912940576828 17.1757909608959309 S
atom 2.0801032618939539 4.9858199505051060 17.1757909608964532 S
atom 7.8551263864144545 4.9461037391336466 17.8178544335532330 S
atom -0.0150466529154188 2.1137697951292158 12.1721644959734938 S
atom 4.9861194137866329 2.8499495405287218 12.8100873749372948 S
atom -0.0547918307703757 7.8908607850827179 12.8100873749369981 S
atom 4.9516299357578726 7.0804463838003775 12.1721644959732362 S
atom -0.0165444784061810 2.1153441188682911 17.8178544335536806 S
atom 4.9846505547864206 2.8494559988344523 17.1757909608958137 S
atom -0.0562606897686488 7.8903672433880843 17.1757909608966131 S
atom 4.9501321102648266 7.0820207075404191 17.8178544335536522 S
atom 0.2867636371780978 -0.1828411702016578 20.0003971322572092 Ba
atom 5.1866350868165068 -0.3238809651223394 20.0003971322570138 Ba
atom 0.1457238422581290 4.7170302794296175 20.0003971322575680 Ba
atom 5.2534402258531410 4.7838354184664782 20.0003971322575005 Ba
atom -0.2842959595944516 0.1811508749911232 25.0074866007562235 Ba
atom 4.8226430416195116 0.2471786316518237 25.0074866007569874 Ba
atom -0.2182682029335714 5.2880898762059170 25.0074866007560459 Ba
atom 4.6823806290757517 5.1478274636616925 25.0074866007567458 Ba
atom 2.4833041967927905 2.4827016835712086 22.5071899189286988 Zr
atom 7.4877688217127334 2.4462550639332479 22.5071899189213838 Zr
atom 2.4468575771557997 7.4871663084882698 22.5071899189321414 Zr
atom 7.4499807854681075 7.4493782722430826 22.5071899189232525 Zr
atom 2.4886141893934570 2.4806184788033590 27.5218800439099347 Zr
atom 7.4898520264787471 2.4409450713332137 27.5218800438981575 Zr
atom 2.4489407819215216 7.4818563158912612 27.5218800439189870 Zr
atom 7.4552907780647129 7.4472950674794944 27.5218800439118532 Zr
atom 2.7511466737265380 2.8142289270113081 20.0003971322706242 S
atom 7.1562415782715565 2.1784125870014908 20.0003971322624814 S
atom 2.1153303337179938 7.2193238315565900 20.0003971322691996 S
atom 7.7178232623979852 7.7809055156819777 20.0003971322660838 S
atom 2.2182154421944817 2.1513161224916360 25.0100725997229176 S
atom 7.8191543827904990 2.7113438185334875 25.0100725997457651 S
atom 2.7782431382364146 7.7522550630882412 25.0100725997159046 S
atom 7.1848920308661741 7.1179927111634633 25.0100725997336077 S
atom 2.8884497977421195 -0.0205728495450762 22.1829398309673493 S
atom 7.1210145064481356 -0.0550912940613826 22.8250033036249320 S
atom 2.0801032618944300 4.9858199505039913 22.8250033036240296 S
atom 7.8551263864140957 4.9461037391372118 22.1829398309664043 S
atom 2.8900241214813742 -0.0220706750204687 27.8286297685415676 S
atom 7.1205209647572403 -0.0565601530587374 27.1907068895829980 S
atom 2.0796097201993655 4.9843510914891000 27.1907068895809552 S
atom 7.8567007101510846 4.9446059136431071 27.8286297685406474 S
atom -0.0165444783978773 2.1153441188681135 22.1829398309663723 S
atom 4.9846505547781694 2.8494559988348960 22.8250033036247473 S
atom -0.0562606897654962 7.8903672433884884 22.8250033036243423 S
atom 4.9501321102616744 7.0820207075412620 22.1829398309672712 S
atom -0.0150466529374341 2.1137697951323395 27.8286297685410062 S
atom 4.9861194138075868 2.8499495405267399 27.1907068895822448 S
atom -0.0547918307737525 7.8908607850823804 27.1907068895815840 S
atom 4.9516299357617655 7.0804463838012754 27.8286297685413366 S
atom 0.2853785161687697 -0.1840725892867033 30.0118531316302324 Ba
atom 5.1878665058907920 -0.3224958441116977 30.0118531316302040 Ba
atom 0.1469552613436628 4.7184154004484133 30.0118531316299197 Ba
atom 5.2520551048329125 4.7826039993915161 30.0118531316299375 Ba
atom -0.2679569219348362 0.1867644349211171 34.9916913801332612 Ba
atom 4.8170294816872516 0.2308395939915230 34.9916913801318117 Ba
atom -0.2238817628665027 5.2717508385486633 34.9916913801323517 Ba
atom 4.6987196667358120 5.1534410235949908 34.9916913801310301 Ba
atom 2.4749828062056940 2.4874985361810076 32.5395305355523234 Zr
atom 7.4829719690996122 2.4545764545200441 32.5395305355571978 Zr
atom 2.4420607245415442 7.4954876990796189 32.5395305355392495 Zr
atom 7.4416593948781493 7.4541751248572572 32.5395305355555564 Zr
atom 2.4853622034746508 2.4716988930100054 37.5970594729616678 Zr
atom 7.4987716122774177 2.4441970572422189 37.5970594729671674 Zr
atom 2.4578603677102189 7.4851083018075251 37.5970594729607654 Zr
atom 7.4520387921592990 7.4383754816895991 37.5970594729593444 Zr
atom 2.7470818212128001 2.8095173072119146 30.0201296800621868 S
atom 7.1609531980732104 2.1824774395169326 30.0201296800622828 S
atom 2.1200419535154387 7.2233886840706019 30.0201296800596609 S
atom 7.7137584098827974 7.7761938958834316 30.0201296800496138 S
atom 2.2358851669548820 2.1875465800322811 35.0337881770929300 S
atom 7.7829239252488120 2.6936740937726991 35.0337881770902726 S
atom 2.7420126806965373 7.7345853383276371 35.0337881771152979 S
atom 7.2025617556255526 7.1542231687021118 35.0337881770969730 S
atom 2.8986021951906933 -0.0184341565211349 32.2103020298386085 S
atom 7.1164848207654385 -0.0526205239881063 32.8271629303780657 S
atom 2.0755735762092282 4.9882907205455025 32.8271629303795720 S
atom 7.8652787838611680 4.9482424321295948 32.2103020298387719 S
atom 2.8062744913507367 -0.0149832845427665 37.7510793081932121 S
atom 7.1791533174909459 -0.0493944783805594 37.2426610972915668 S
atom 2.1382420729375986 4.9915167661803723 37.2426610972908705 S
atom 7.7729510800206496 4.9516933041376374 37.7510793081942211 S
atom -0.0186831714345925 2.1051917214233593 32.2103020298390490 S
atom 4.9821797847491229 2.8539856845168505 32.8271629303782504 S
atom -0.0587314598228079 7.8948969290729156 32.8271629303794086 S
atom 4.9479934172545006 7.0718683100909683 32.2103020298381679 S
atom -0.0221340434390475 2.1975194252636245 37.7510793081938800 S
atom 4.9789537391326970 2.7913171877925040 37.2426610972906076 S
atom -0.0619575054210763 7.8322284323445315 37.2426610972915100 S
atom 4.9445425452307479 7.1641960139337799 37.7510793081933045 S
atom 0.1017016884868640 -0.1834653509374010 39.7850587946115724 Ba
atom 5.1872592675499174 -0.1388190164309127 39.7850587946134269 Ba
atom 0.1463480229937267 4.9020922281222097 39.7850587946137253 Ba
atom 5.0683782771594643 4.7832112377325036 39.7850587946174983 Ba
atom 2.6083563326751595 2.6915774619924413 40.1045257132015109 S
atom 7.2788930432916423 2.3212029280551820 40.1045257131895170 S
atom 2.2379817987385962 7.3621141726091848 40.1045257131874351 S
atom 7.5750329213448868 7.6582540506621894 40.1045257131997985 S
atom 2.6668036452710386 2.3816366058463596 43.2165893042640619 Ba
atom 7.5888338994373097 2.2627556154578743 43.2165893042640263 Ba
atom 2.5479226548825289 7.3036668600103178 43.2165893042665061 Ba
atom 7.6334802339423540 7.3483131945162929 43.2165893042631382 Ba
atom 2.2965738594130030 2.7512952162752127 48.0099567187272527 Ba
atom 7.2191752890091543 2.6329854013250009 48.0099567187264995 Ba
atom 2.1782640444623702 7.6738966458663000 48.0099567187269329 Ba
atom 7.2632504480770992 7.7179718049344874 48.0099567187263503 Ba
atom 4.9783159899935097 4.9646526795250461 45.4045886259154940 Zr
atom 9.9724944144290522 4.9179198594031650 45.4045886259047577 Zr
atom 4.9315831698696675 9.9588311039568307 45.4045886258989739 Zr
atom 9.9449925786694635 9.9313292681995993 45.4045886258846494 Zr
atom 4.9625163468200251 4.9750320767973202 50.4621175632768839 Zr
atom 9.9621150171593058 4.9337195025737568 50.4621175632917485 Zr
atom 4.9212037725963738 9.9746307471372155 50.4621175633150685 Zr
atom 9.9291929354957151 9.9417086654725164 50.4621175633131642 Zr
atom 4.7584374210124665 4.8416585503296137 42.8971223856463695 S
atom 10.0954885436225901 5.1377984283860281 42.8971223856638701 S
atom 5.0545772990681712 10.1787096729392115 42.8971223856707269 S
atom 9.7251140096864432 9.8083351390038018 42.8971223856803050 S
atom 5.2624683029737760 5.2141297160499631 47.9678599218330319 S
atom 9.7230173779050109 4.6337675464266086 47.9678599218209314 S
atom 4.6821061333493974 9.6746787909824601 47.9678599218066566 S
atom 10.2291448916407628 10.1808063047198765 47.9678599218222104 S
atom 4.6586976952126662 2.4710611438604686 45.7589870015820424 S
atom 10.2934067022983964 2.4312376818552774 45.2505687906755085 S
atom 5.2524954577444021 7.4721489264588223 45.2505687906744569 S
atom 9.6253742838847796 7.4377377325722307 45.7589870015822910 S
atom 4.5960291984896422 2.4678350982683805 50.1744851685002757 S
atom 10.3857344061346240 2.4277868098522544 50.7913460690313343 S
atom 5.3448231615843351 7.4686980544263708 50.7913460690344323 S
atom 9.5627057871613665 7.4345116869622832 50.1744851685004178 S
atom 2.4584981168255009 5.3117728100714219 45.7589870015814810 S
atom 7.4649981675451285 4.6437403916526669 45.2505687906727303 S
atom 2.4240869229640731 9.6846516362117256 45.2505687906768799 S
atom 7.4251747055195230 10.2784493987390206 45.7589870015829021 S
atom 2.4617241624488102 5.3744413067941412 50.1744851685004747 S
atom 7.4684490395352530 4.5514126878163887 50.7913460690343967 S
atom 2.4275377949536692 9.5923239323736347 50.7913460690316398 S
atom 7.4284007511492538 10.3411178954621619 50.1744851685003255 S
atom 2.6674108836188646 2.1979597781655635 52.9897949672530331 Ba
atom 7.7725107271109968 2.2621483771095612 52.9897949672534025 Ba
atom 2.7315994825595431 7.3030596216696404 52.9897949672523794 Ba
atom 7.6340874722853727 7.1646363668424025 52.9897949672528341 Ba
atom 2.3021874193466467 2.7676342539278482 57.9941614981177054 Ba
atom 7.2028362513480948 2.6273718413840323 57.9941614981172506 Ba
atom 2.1619250068028566 7.6682830859423836 57.9941614981167106 Ba
atom 7.2688640080079638 7.7343108426032225 57.9941614981161351 Ba
atom 4.9693964041957681 4.9614006936046673 55.4797680550228165 Zr
atom 9.9757464003482461 4.9268394452005042 55.4797680550097212 Zr
atom 4.9348351557890178 9.9677506897614307 55.4797680550148868 Zr
atom 9.9360729928694784 9.9280772822821763 55.4797680550118457 Zr
atom 4.9673131994303903 4.9667106862034807 60.4944581799139982 Zr
atom 9.9704364077490588 4.9289226499625922 60.4944581799319110 Zr
atom 4.9295251631865193 9.9698338945253653 60.4944581799067862 Zr
atom 9.9339897881047712 9.9333872748848577 60.4944581799368137 Zr
atom 4.6404975757923790 4.7029330617923346 52.9815184187824570 S
atom 10.2342140321618604 5.2557382736068172 52.9815184187749821 S
atom 5.1933027876089159 10.2966495181633437 52.9815184187491752 S
atom 9.6071741644653343 9.6696096504635154 52.9815184187506034 S
atom 5.2986987605132301 5.2317994408088557 57.9915754991179568 S
atom 9.7053476531449885 4.5975370888884362 57.9915754991333969 S
atom 4.6644364085893431 9.6384483334394186 57.9915754991538819 S
atom 10.2653753491819355 10.1984760294802719 57.9915754991400618 S
atom 4.6000653424763360 2.4638954692428525 55.8109412092826602 S
atom 10.3771563324291449 2.4241502913778490 55.1730183303225061 S
atom 5.3362450878788179 7.4650615358968846 55.1730183303188539 S
atom 9.5667419311504229 7.4305720578791847 55.8109412092838753 S
atom 4.6005588841702005 2.4653643282165825 60.1766447952487482 S
atom 10.3755820086904258 2.4256481168526629 60.8187082679078657 S
atom 5.3346707641393296 7.4665593614141317 60.8187082679105728 S
atom 9.5672354728423699 7.4320409168943788 60.1766447952495724 S
atom 2.4656637915143294 5.3704051628030003 55.8109412092812889 S
atom 7.4720855580256913 4.5599907615252127 55.1730183303210850 S
atom 2.4311743134493740 9.6009020060766819 55.1730183303204029 S
atom 7.4323403802086636 10.3370817514766475 55.8109412092851542 S
atom 2.4641949324914005 5.3699116211129363 60.1766447952487411 S
atom 7.4705877325579131 4.5615650852619565 60.8187082679095639 S
atom 2.4296764879794379 9.6024763298161524 60.8187082679086899 S
atom 7.4308715211895322 10.3365882097818158 60.1766447952497927 S
atom 2.6661794645337276 2.1965746571520737 63.0012509666057667 Ba
atom 7.7738958481318425 2.2633797961885218 63.0012509666066123 Ba
atom 2.7329846035713143 7.3042910407472075 63.0012509666065128 Ba
atom 7.6328560532109098 7.1632512458265039 63.0012509666074010 Ba
atom 2.3021874193395311 2.7676342539239420 68.0083404351058505 Ba
atom 7.2028362513570352 2.6273718413807376 68.0083404351070868 Ba
atom 2.1619250067939118 7.6682830859443838 68.0083404351061631 Ba
atom 7.2688640080199880 7.7343108426024045 68.0083404351069305 Ba
atom 4.9673131994333204 4.9667106862118677 65.5080437532607931 Zr
atom 9.9704364077443266 4.9289226499652479 65.5080437532566293 Zr
atom 4.9295251631848211 9.9698338945188674 65.5080437532589457 Zr
atom 9.9339897881106669 9.9333872748835024 65.5080437532732844 Zr
atom 4.9693964041992293 4.9614006936143911 70.5227338782820823 Zr
atom 9.9757464003414089 4.9268394452025461 70.5227338782788280 Zr
atom 4.9348351557870807 9.9677506897518722 70.5227338782750621 Zr
atom 9.9360729928738767 9.9280772822824925 70.5227338782507189 Zr
atom 4.6357859559952015 4.6988682092792553 63.0012509666575866 S
atom 10.2382788846748127 5.2604498934040684 63.0012509666258964 S
atom 5.1973676401204454 10.3013611379594590 63.0012509666443279 S
atom 9.6024625446640339 9.6655447979494333 63.0012509665976594 S
atom 5.2986987605132283 5.2317994408107698 68.0109264340691624 S
atom 9.7053476531422920 4.5975370888865523 68.0109264341060822 S
atom 4.6644364085896513 9.6384483334412980 68.0109264340958219 S
atom 10.2653753491879929 10.1984760294842385 68.0109264341090096 S
atom 4.6005588841731235 2.4653643282299522 65.8258571379784030 S
atom 10.3755820086923887 2.4256481168781905 65.1837936653209056 S
atom 5.3346707641344731 7.4665593614003418 65.1837936653233925 S
atom 9.5672354728402578 7.4320409168678498 65.8258571379819983 S
atom 4.6000653424791551 2.4638954691969488 70.1915607239346144 S
atom 10.3771563324282319 2.4241502913934285 70.8294836028912869 S
atom 5.3362450878722711 7.4650615359428896 70.8294836028911590 S
atom 9.5667419311510375 7.4305720578616894 70.1915607239344297 S
atom 2.4641949325226813 5.3699116211090256 65.8258571379792556 S
atom 7.4705877325283065 4.5615650852649896 65.1837936653236198 S
atom 2.4296764880222170 9.6024763298159357 65.1837936653210619 S
atom 7.4308715211452059 10.3365882097863562 65.8258571379806909 S
atom 2.4656637914964659 5.3704051628029790 70.1915607239348276 S
atom 7.4720855580461016 4.5599907615246957 70.8294836028911448 S
atom 2.4311743134922668 9.6009020060806538 70.8294836028913295 S
atom 7.4323403801658658 10.3370817514770561 70.1915607239345150 S
atom 2.6674108836171975 2.1979597781698650 73.0127069659882295 Ba
atom 7.7725107271137404 2.2621483771118314 73.0127069659873769 Ba
atom 2.7315994825591559 7.3030596216635120 73.0127069659873342 Ba
atom 7.6340874722886065 7.1646363668384661 73.0127069659870500 Ba
atom 2.2965738594153855 2.7512952162727191 77.9925452144819218 Ba
atom 7.2191752890088443 2.6329854013198615 77.9925452144839113 Ba
atom 2.1782640444617742 7.6738966458676403 77.9925452144839255 Ba
atom 7.2632504480785967 7.7179718049381201 77.9925452144854461 Ba
atom 4.9625163468184983 4.9750320767978815 75.5403843699167084 Zr
atom 9.9621150171577995 4.9337195025789313 75.5403843699034923 Zr
atom 4.9212037725982301 9.9746307471345119 75.5403843699126156 Zr
atom 9.9291929354922743 9.9417086654698625 75.5403843698980495 Zr
atom 4.9783159899897163 4.9646526795292099 80.5979133073136182 Zr
atom 9.9724944144264587 4.9179198594142557 80.5979133073167162 Zr
atom 4.9315831698784098 9.9588311039545001 80.5979133073178815 Zr
atom 9.9449925786603917 9.9313292681876089 80.5979133073301313 Zr
atom 4.6404975757934022 4.7029330617928391 73.0209835143977841 S
atom 10.2342140321597661 5.2557382736045772 73.0209835143700587 S
atom 5.1933027876055435 10.2966495181595903 73.0209835143807595 S
atom 9.6071741644651247 9.6696096504653770 73.0209835144184325 S
atom 5.2624683029743959 5.2141297160503548 78.0346420114366168 S
atom 9.7230173779034210 4.6337675464241137 78.0346420114801305 S
atom 4.6821061333479319 9.6746787909815044 78.0346420114584163 S
atom 10.2291448916436529 10.1808063047223225 78.0346420114535704 S
atom 4.5960291984865425 2.4678350982708492 75.8280167647327943 S
atom 10.3857344061392727 2.4277868098470949 75.2111558641904026 S
atom 5.3448231615853210 7.4686980544244683 75.2111558641903599 S
atom 9.5627057871580714 7.4345116869661494 75.8280167647324816 S
atom 4.6586976952119903 2.4710611438645658 80.2435149316421530 S
atom 10.2934067022959610 2.4312376818789567 80.7519331425429243 S
atom 5.2524954577422616 7.4721489264543388 80.7519331425453544 S
atom 9.6253742838886982 7.4377377325534377 80.2435149316430483 S
atom 2.4617241624633537 5.3744413067963066 75.8280167647334338 S
atom 7.4684490395222873 4.5514126878133689 75.2111558641899762 S
atom 2.4275377949606796 9.5923239323709648 75.2111558641910563 S
atom 7.4284007511429140 10.3411178954653842 75.8280167647318137 S
atom 2.4584981168079167 5.3117728100677715 80.2435149316429346 S
atom 7.4649981675683561 4.6437403916533677 80.7519331425448712 S
atom 2.4240869229611905 9.6846516362133297 80.7519331425439759 S
atom 7.4251747055208686 10.2784493987395056 80.2435149316425367 S
atom 2.6668036452748893 2.3816366058471439 82.7859126289689726 Ba
atom 7.5888338994341380 2.2627556154548532 82.7859126289680773 Ba
atom 2.5479226548831595 7.3036668600096313 82.7859126289672531 Ba
atom 7.6334802339417687 7.3483131945184104 82.7859126289664715 Ba
atom 4.7584374210129008 4.8416585503303651 83.1053795475625208 S
atom 10.0954885436206219 5.1377984283820179 83.1053795475348238 S
atom 5.0545772990668283 10.1787096729393358 83.1053795475438335 S
atom 9.7251140096882835 9.8083351390055800 83.1053795475350086 S
