#=======================================================
# FHI-aims file: full_relax/full_relax_RP_7_RxRyRz_RxRy-Rz.in
# Created using the Atomic Simulation Environment (ASE)
# Mon Mar 24 15:47:01 2025
#=======================================================
lattice_vector 9.9515065863693799 -0.0062615818006726 0.0000000001193427 
lattice_vector -0.0062615818007395 9.9515065864659018 -0.0000000001089960 
lattice_vector 0.0000000008935758 -0.0000000008160482 76.8091318623668400 
atom 0.0403925384673904 -0.1222655919658563 0.1949033684820454 Ba
atom 5.0980188349141216 -0.0435232675164681 0.1949030561967525 Ba
atom 0.1191350800760559 4.9353608564210063 0.1949018010364083 Ba
atom 5.0130149338638388 4.8503567844350552 0.1949023526182864 Ba
atom -0.2553179506120465 0.1898315479159783 5.0235994415963132 Ba
atom 4.7859214039944113 0.2521873339784447 5.0235994157783308 Ba
atom -0.1929622976129610 5.2310715404105146 5.0235994148906249 Ba
atom 4.7173041647166505 5.1624542658661587 5.0235993505831562 Ba
atom 2.4561775002200861 2.5118486336209265 2.4041967524292480 Zr
atom 7.4365273015625348 2.5133142314400860 2.4041960698136995 Zr
atom 2.4576429910427131 7.4921980784338640 2.4041963596821967 Zr
atom 7.4288000597949981 7.4844711285162751 2.4041962750862824 Zr
atom 2.4133933625011221 2.5238599560193080 7.5000540064131167 Zr
atom 7.4245159560374265 2.5560980051091500 7.5000546854549848 Zr
atom 2.4456313619807530 7.5349822853464303 7.5000543869473537 Zr
atom 7.3860163314147584 7.4964826472816357 7.5000542014976306 Zr
atom 2.5741479585280485 2.6961280276435202 -0.1132995055274112 S
atom 7.2522477861744470 2.3953437532409443 -0.1132997711924552 S
atom 2.2733636449798613 7.3742278234484857 -0.1132988737115463 S
atom 7.5467703856335691 7.6687504880755384 -0.1132988349913267 S
atom 2.2521922495571460 2.2998420878564518 4.9862754269630436 S
atom 7.6485336159112602 2.7172996994802214 4.9862756915341837 S
atom 2.6696497645784447 7.6961835874749323 4.9862760882719979 S
atom 7.2248145528453485 7.2724645067622173 4.9862761215406612 S
atom 2.7782454933047793 0.0341014641473167 2.2915741975033552 S
atom 7.0866708296429382 0.0338049850668413 2.7170073534262271 S
atom 2.1077868363213321 5.0126886637413479 2.7170074333002012 S
atom 7.7508675029538674 5.0067231981184674 2.2915747117386971 S
atom 2.9408650134830445 0.0414802321873090 7.7068618207345114 S
atom 6.9701014644661354 0.0390145753735414 7.3378818232747705 S
atom 1.9912173518710590 5.0178992585040980 7.3378818577245370 S
atom 7.9134872679870387 5.0141032866220829 7.7068616102078167 S
atom -0.0372324298844907 2.1975079587131607 2.2915743409638103 S
atom 4.9356873014913063 2.8617049184742753 2.7170076151298144 S
atom -0.0431972319063109 7.8405889900922734 2.7170071408850718 S
atom 4.9353909409792225 7.1701306010729287 2.2915744073306015 S
atom -0.0446115984850904 2.0348884723977436 7.7068617617508650 S
atom 4.9304770823607340 2.9782744071735059 7.3378818281938454 S
atom -0.0484075250365027 7.9571583812633202 7.3378818405486435 S
atom 4.9280115929276684 7.0075108582428287 7.7068616873822169 S
atom 0.0019783279344897 -0.0802961245167309 10.0587356768762142 Ba
atom 5.0560492597121245 -0.0051090978943668 10.0587356127890803 Ba
atom 0.0771654112219676 4.9737750397650666 10.0587357261062564 Ba
atom 4.9746007112617701 4.8923265071546025 10.0587356572675510 Ba
atom 0.0510430489809252 0.0154366305187291 15.1413921288544504 Ba
atom 4.9603169507239224 -0.0541737201528203 15.1413920940306639 Ba
atom -0.0185672237161875 4.9247100035130247 15.1413919870943463 Ba
atom 5.0236655932974736 4.9880586967296674 15.1413919490705720 Ba
atom 2.4955833944239783 2.4875910162344272 12.5888962058283180 Zr
atom 7.4607851931832272 2.4739077168650381 12.5888963916958350 Zr
atom 2.4819006438939315 7.4527920731727946 12.5888952960247309 Zr
atom 7.4682063815556639 7.4602137844284817 12.5888957649462778 Zr
atom 2.4863108875377149 2.4863109801652232 17.6863154841726491 Zr
atom 7.4620648483760323 2.4831798553251123 17.6863151641481728 Zr
atom 2.4831797529987729 7.4620648607097859 17.6863157298140088 Zr
atom 7.4589343821593461 7.4589344311865258 17.6863153944576723 Zr
atom 2.5745320975960180 2.6541327315352996 10.0543035132512113 S
atom 7.2942430360209212 2.3949596909383026 10.0543038081170408 S
atom 2.3153589982057978 7.3738437827593444 10.0543037762286378 S
atom 7.5471544866388705 7.6267551926970816 10.0543035077255816 S
atom 2.4180224975447997 2.4387296615366103 15.1409253015918868 S
atom 7.5096460967987646 2.5514693531799595 15.1409252131413599 S
atom 2.5307621476128150 7.5303533003147116 15.1409246973745475 S
atom 7.3906448857672498 7.4113520582893502 15.1409254743056447 S
atom 1.9950073971005355 0.0012455249824457 12.5340344916504485 S
atom 7.9883462100705191 -0.0008932148575672 12.6673825253468788 S
atom 3.0094623229211743 4.9779915281772507 12.6673827226690570 S
atom 6.9676298064797360 4.9738687883582928 12.5340343891000909 S
atom 3.0039629894719164 -0.0014865187296701 17.7249999721319149 S
atom 6.9475435922740756 -0.0047757632349858 17.6476252987971094 S
atom 1.9686594964370432 4.9741090190389814 17.6476253130647009 S
atom 7.9765853690401611 4.9711366282465610 17.7249999781047443 S
atom -0.0043772289614811 2.9807459821871580 12.5340343476650791 S
atom 4.9703851361316591 1.9600294311299811 12.6673825207428372 S
atom -0.0084995464105326 6.9389135992447457 12.6673827174039726 S
atom 4.9682457689265709 7.9533683755380684 12.5340345560964987 S
atom -0.0016449255165879 1.9717904322451725 17.7249999396757296 S
atom 4.9742674713304194 3.0008324289445230 17.6476252711291153 S
atom -0.0046175122030334 7.9797160625384036 17.6476253453552587 S
atom 4.9709784803606363 6.9444127905572088 17.7250000060767086 S
atom -0.0510430865864277 -0.0154364040657086 20.2312362651888975 Ba
atom 4.9911898476921852 0.0479124357016980 20.2312363291612378 Ba
atom 0.0123058490012184 5.0267962686544339 20.2312362851738285 Ba
atom 4.9215792560489078 4.9571857916795548 20.2312363457304834 Ba
atom -0.0019783111930122 0.0802961881923001 25.3138891359343710 Ba
atom 4.8954568498792455 -0.0011524672142760 25.3138889841534969 Ba
atom -0.0834268710835857 4.9777317251292308 25.3138892766152424 Ba
atom 4.9706439284951909 5.0529189293683450 25.3138891000400150 Ba
atom 2.4770390047241730 2.4850315310436484 22.7837311403708753 Zr
atom 7.4633444022432389 2.4924517551216168 22.7837309727964303 Zr
atom 2.4844601620883515 7.4713368966729110 22.7837318259429864 Zr
atom 7.4496616080990101 7.4576549918673978 22.7837315475672320 Zr
atom 2.5592294173776930 2.4487636562490027 27.8725679767389067 Zr
atom 7.4996125182877433 2.4102618599592365 27.8725673438190285 Zr
atom 2.5207276607206510 7.3891459300976674 27.8725670071976452 Zr
atom 7.5318526668437595 7.4213861469740090 27.8725677755412065 Zr
atom 2.5546000880957256 2.5338928413748634 20.2316983940096087 S
atom 7.4144829606993481 2.4148917818539988 20.2316982099561216 S
atom 2.4355989658294659 7.3937757276442895 20.2316975237576919 S
atom 7.5272224560774506 7.5065151546602991 20.2316980855873823 S
atom 2.3980905007721209 2.3184897262462503 25.3183263480329117 S
atom 7.6298859816744358 2.5714013128229967 25.3183266183396434 S
atom 2.6510019998885124 7.5502852717205062 25.3183275672977679 S
atom 7.3707129400369391 7.2911121058989457 25.3183261149238135 S
atom 1.9631597776452356 -0.0053683338863390 22.7052433079485105 S
atom 7.9564994328799603 -0.0075077295928682 22.8385919406551565 S
atom 2.9776156606265709 4.9713762152950016 22.8385918937468197 S
atom 6.9357822654512118 4.9672542471101853 22.7052434342617104 S
atom 2.9814053502541111 -0.0452771384749345 28.0347458847680855 S
atom 7.0106420456106866 -0.0477417244930168 27.6657665982724694 S
atom 2.0317579689307403 4.9311427874175848 27.6657663670276541 S
atom 7.9540276265672265 4.9273457341303084 28.0347459074734360 S
atom 0.0022374247085189 3.0125935650234581 22.7052434327634245 S
atom 4.9769995159249785 1.9918762316281926 22.8385920140473786 S
atom -0.0018855802822819 6.9707602027489237 22.8385918598019302 S
atom 4.9748610120590824 7.9852159240226550 22.7052432854594066 S
atom 0.0421455499223130 1.9943480861076088 28.0347459697408077 S
atom 5.0172341286375675 2.9377337396168204 27.6657666020001081 S
atom 0.0383498812604180 7.9166177899655858 27.6657663587334319 S
atom 5.0147681671089668 6.9669704992724544 28.0347458378615322 S
atom 0.2553181521131641 -0.1898320732711966 30.3490260879774247 Ba
atom 5.1655850663515697 -0.2584488059559109 30.3490261422503593 Ba
atom 0.1867012034053664 4.7204353601848776 30.3490260116387134 Ba
atom 5.2279404136601979 4.7827905822316845 30.3490261460473505 Ba
atom -0.0403925762466095 0.1222656648044466 35.1777268354538037 Ba
atom 4.8534878249220395 0.0372620184466198 35.1777261477955676 Ba
atom -0.1253967326585493 5.0161456735590173 35.1777273798456207 Ba
atom 4.9322302640593776 5.0948879351743663 35.1777278294502409 Ba
atom 2.5164467094839922 2.4607742618190391 32.9684305008177247 Zr
atom 7.4876002404290665 2.4530462409643707 32.9684314663785898 Zr
atom 2.5087159239787482 7.4319306203841986 32.9684302135168181 Zr
atom 7.4890690797706299 7.4333973884450568 32.9684305521657492 Zr
atom 2.7204304351433919 2.6727804619382614 30.3863503733054436 S
atom 7.2755953955700594 2.2490613076456722 30.3863512765805872 S
atom 2.2967113958381242 7.2279454456845187 30.3863526667187500 S
atom 7.6930527215303943 7.6454029560932018 30.3863512129968569 S
atom 2.3984742561094969 2.2764941654886606 35.4859256687240361 S
atom 7.6718817523145431 2.5710173236034568 35.4859250003965840 S
atom 2.6929974653838951 7.5499011998427177 35.4859237353378418 S
atom 7.3710967464765842 7.2491166650111882 35.4859254902249788 S
atom 2.8648355252021198 -0.0400674585824201 32.6556189549527645 S
atom 7.1732616625310115 -0.0403625506472175 33.0810511377238186 S
atom 2.1943778498192033 4.9385232177051144 33.0810511485121523 S
atom 7.8374579689428092 4.9325560823629759 32.6556186451358244 S
atom 0.0369344033546039 2.1109177489844346 32.6556187047983570 S
atom 5.0098550095758210 2.7751138597157570 33.0810508593959725 S
atom 0.0309710842988921 7.7539979209977190 33.0810511655944453 S
atom 5.0095571880403584 7.0835402698422367 32.6556186803170760 S
atom 2.3640452651111046 2.5267040204997642 38.5994664586650060 Ba
atom 7.4216720566320156 2.6054465967273410 38.5994659312849677 Ba
atom 2.4427877999488197 7.5843301967133954 38.5994668214759002 Ba
atom 7.3366678295561094 7.4993261049884810 38.5994658177726393 Ba
atom 2.6761431212110915 2.2309931377679728 43.4281652656280670 Ba
atom 7.7173823551390690 2.2933485749423990 43.4281654914469399 Ba
atom 2.7384983420245956 7.2722330713645214 43.4281654850297656 Ba
atom 7.6487654214550220 7.2036160424659386 43.4281657305989768 Ba
atom 4.9981575512113894 4.9424863556423215 40.8087556456025595 Zr
atom 9.9785120070315934 4.9439550694054981 40.8087558570215805 Zr
atom 4.9996270062263886 9.9228411074058283 40.8087569395546979 Zr
atom 9.9707810145937810 9.9151102548000853 40.8087562330767568 Zr
atom 5.0101697599723662 4.8997036589429825 45.9046273768565101 Zr
atom 10.0212947598752251 4.9319449074918040 45.9046261677530936 Zr
atom 5.0424112376293611 9.9108286551064602 45.9046265883546099 Zr
atom 9.9827916364174243 9.8723257653213228 45.9046269248035799 Zr
atom 5.1824394576354669 5.0604593618247131 38.2912686933924249 S
atom 9.8605390419587646 4.7596748581102499 38.2912694470642450 S
atom 4.8816551621148596 9.7385589769474450 38.2912714268590406 S
atom 10.1550618379588595 10.0330815627005876 38.2912700165154121 S
atom 4.7861534919352806 4.7385033221139530 43.3908384333631219 S
atom 10.1824949544892469 5.1559607638410379 43.3908384856820533 S
atom 5.2036107871851867 10.1348448375460496 43.3908366643490737 S
atom 9.7587760050728178 9.7111256960068353 43.3908385646375336 S
atom 4.6838199589670575 2.4490790490430472 40.6961426532904440 S
atom 10.3269001827872202 2.4431143643569504 41.1215752872180715 S
atom 5.3480163185224701 7.4219985616376087 41.1215754579095929 S
atom 9.6564422535722230 7.4217025083439214 40.6961426750066408 S
atom 4.5211998905587238 2.4416997268162404 46.1114272962544121 S
atom 10.4434697222711463 2.4379037010939824 45.7424473688106374 S
atom 5.4645856075742083 7.4167884000693007 45.7424474135190238 S
atom 9.4938226410965765 7.4143228533725010 46.1114270841688949 S
atom 2.5204124768368916 5.2645561784943204 40.6961426834968734 S
atom 7.4989995803063474 4.5940980679337846 41.1215757006906983 S
atom 2.5201158499707632 9.5729819568489649 41.1215751267923224 S
atom 7.4930343021027666 10.2371782330512442 40.6961425193156288 S
atom 2.5277911867671121 5.4271757053682999 46.1114269766272997 S
atom 7.5042106632618069 4.4775285725660527 45.7424472570822687 S
atom 2.5253260838914575 9.4564125820425033 45.7424474481263061 S
atom 7.5004140136006132 10.3997983118071708 46.1114274250156271 S
atom 2.4060154778889191 2.4882896451075740 48.4633033588693678 Ba
atom 7.4600859467078635 2.5634761575229539 48.4633031694774061 Ba
atom 2.4812021480737076 7.5423606512579786 48.4633033537558617 Ba
atom 7.3786376184737312 7.4609122957109602 48.4633031622283497 Ba
atom 2.5017477315698278 2.5373546072600925 53.5459583578720526 Ba
atom 7.4110213840516099 2.4677441762798948 53.5459582538495127 Ba
atom 2.4321373340539751 7.4466278569901236 53.5459584232842047 Ba
atom 7.4743701953520540 7.5099768239365368 53.5459583251423368 Ba
atom 4.9739019778913169 4.9818952189183365 50.9934647987868956 Zr
atom 9.9391033242560649 4.9682114018252799 50.9934653587283648 Zr
atom 4.9602188847062756 9.9470959018961036 50.9934640376639621 Zr
atom 9.9465248023110142 9.9545181939633167 50.9934644963793886 Zr
atom 4.9726214440779088 4.9726221770731751 56.0908782285830796 Zr
atom 9.9483765966169546 4.9694920691502649 56.0908784689813942 Zr
atom 4.9694914389279559 9.9483764198512628 56.0908783221167084 Zr
atom 9.9452449822129001 9.9452448993971601 56.0908773170021959 Zr
atom 5.1404440656531127 5.0608432758650386 48.4588642462321175 S
atom 9.8601549800259107 4.8016702602254915 48.4588640387516136 S
atom 4.8812709238997689 9.7805542932106526 48.4588628814903117 S
atom 10.1130665160034763 10.0334657469165816 48.4588638105292162 S
atom 4.9250409550277654 4.9043337317246465 53.5454912204230169 S
atom 10.0166644990952918 5.0170733789582549 53.5454912777781189 S
atom 5.0377805201215811 9.9959573970538393 53.5454916523061328 S
atom 9.8976633555604376 9.8769562057734746 53.5454910630137917 S
atom 5.4670575103723182 2.4819345907383816 50.9385999045364031 S
atom 9.4252247002899292 2.4778117523790582 51.0719481720841770 S
atom 4.4463404792917398 7.4566956375437181 51.0719482747370606 S
atom 10.4396798736348160 7.4545568650986764 50.9385997764985845 S
atom 4.4581013398508302 2.4846667330241043 56.1295657003279800 S
atom 10.4660277032328022 2.4816939025608833 56.0521910689623155 S
atom 5.4871439725673987 7.4605779135687076 56.0521909216016496 S
atom 9.4307237043201173 7.4572892312645616 56.1295658812440479 S
atom 2.4875569225919554 4.4813184149231313 50.9385997113252671 S
atom 7.4643029742028366 5.4957737144479060 51.0719480512306134 S
atom 2.4854177445685623 10.4746577252002364 51.0719483727606374 S
atom 7.4601806027192969 9.4539408279358508 50.9386000143678075 S
atom 2.4848248578502585 5.4902745730195361 56.1295658223758451 S
atom 7.4604204271928500 4.4549703259508693 56.0521909979554067 S
atom 2.4815353659735142 9.4338546042542948 56.0521909820619229 S
atom 7.4574483704651726 10.4628969836008494 56.1295657674734940 S
atom 2.4708749550660603 2.4352685556842815 58.6358004024402248 Ba
atom 7.5131074531218536 2.4986172042299160 58.6358005756796743 Ba
atom 2.5342236695657960 7.4775005829466261 58.6358001188104723 Ba
atom 7.4434972050549089 7.4078904968551766 58.6358003001253891 Ba
atom 2.5666076325517517 2.4843330262903747 63.7184557002075778 Ba
atom 7.4640428022282075 2.4028839888979698 63.7184555985418868 Ba
atom 2.4851587149839216 7.3817682539330587 63.7184558728876169 Ba
atom 7.5392300752954977 7.4569554809143037 63.7184557804537448 Ba
atom 4.9713419058998900 4.9633487197902886 61.1882937101225082 Zr
atom 9.9576493624772393 4.9707706712401007 61.1882941356187970 Zr
atom 4.9787647247501390 9.9496564641535539 61.1882945871526189 Zr
atom 9.9439648616123062 9.9359729725041692 61.1882952428991729 Zr
atom 4.9350743173113649 5.0455397758910179 66.2771344033099155 Zr
atom 9.8754579210894153 5.0070393447798374 66.2771335674664357 Zr
atom 4.8965735700815847 9.9859247546899716 66.2771350640059893 Zr
atom 9.9076969563065305 10.0181637221815674 66.2771351797502319 Zr
atom 5.0202042757295677 5.0409114292534873 58.6362710957360278 S
atom 9.8800868858931654 4.9219101640959888 58.6362720658297079 S
atom 4.9012029465127753 9.9007940564551475 58.6362732102999544 S
atom 9.9928265969101577 10.0135337032304985 58.6362718937096119 S
atom 4.8048012042954378 4.8844018249953800 63.7228913707160629 S
atom 10.0365965936865926 5.1373132495905613 63.7228892031687053 S
atom 5.0577124827673483 10.1161970784402886 63.7228901111949000 S
atom 9.7774236392573695 9.8570240885087834 63.7228901968485104 S
atom 5.4989044075631792 2.4885483484665505 61.1098094831927909 S
atom 9.4570719837589490 2.4844264080254863 61.2431578494100464 S
atom 4.4781876983655868 7.4633118624212686 61.2431577755095162 S
atom 10.4715268520339659 7.4611719070704874 61.1098095574077362 S
atom 4.4806594300559865 2.5284570837183247 66.4393116908060222 S
atom 10.4029291241949107 2.5246603328920170 66.0703322323925306 S
atom 5.4240452516489626 7.5035450605792660 66.0703320590877752 S
atom 9.4532817243236700 7.5010805019373796 66.4393118666563396 S
atom 2.4809415468327423 4.4494715647204366 61.1098096933586135 S
atom 7.4576884523429889 5.4639267337442439 61.2431580298998668 S
atom 2.4788033557743097 10.4428102451267879 61.2431576597086220 S
atom 7.4535651360049577 9.4220938154543834 61.1098093054074383 S
atom 2.4410349355989034 5.4677165362826825 66.4393117584292270 S
atom 7.4174523516734672 4.5180692662405031 66.0703322899058492 S
atom 2.4385689320482085 9.4969529821927203 66.0703320168114203 S
atom 7.4136571271617200 10.4403388764416025 66.4393117528810109 S
atom 2.2964797262911869 2.7416288529972230 68.7535917915412398 Ba
atom 7.2067463408950543 2.6730119265979870 68.7535917603575513 Ba
atom 2.2278624965017952 7.6518967656824692 68.7535919869977192 Ba
atom 7.2691018900659738 7.7142521064606262 68.7535919445967210 Ba
atom 2.6085768829325473 2.4459187474845865 73.5822922594240509 Ba
atom 7.5024571369857354 2.3609148797809967 73.5822925995836670 Ba
atom 2.5235729390514896 7.3397989980820082 73.5822919059061320 Ba
atom 7.5811993192106195 7.4185410979678226 73.5822919576609422 Ba
atom 4.9470861782058595 5.0027568214403244 71.3729983239857404 Zr
atom 9.9182412458819869 4.9950276599376133 71.3729989022373985 Zr
atom 4.9393565010803222 9.9739125060751004 71.3729977959681605 Zr
atom 9.9197092083564549 9.9753798545071000 71.3729981751577043 Zr
atom 5.1590918173137714 5.2067417305800188 68.7909182670012882 S
atom 9.7142565450848544 4.7830226114666834 68.7909183804867013 S
atom 4.7353726913300491 9.7619064431577272 68.7909165723312555 S
atom 10.1317141128798429 10.1793639538110039 68.7909178825382668 S
atom 4.7628055492047459 4.8847858319497730 73.8904882420248015 S
atom 10.0362125952616221 5.1793087029583891 73.8904891281116250 S
atom 5.0573284562044840 10.1581927153663063 73.8904880288114470 S
atom 9.7354280686814292 9.8574083319250825 73.8904864505849304 S
atom 4.5972290942793395 2.5232473356605500 71.0601851773040494 S
atom 10.2403092019241537 2.5172826573088569 71.4856174838495946 S
atom 5.2614256151031622 7.4961645632116358 71.4856178125306485 S
atom 9.5698513725442051 7.4958683015987635 71.0601850314357648 S
atom 2.4462447477132607 5.3511467669352131 71.0601848674342449 S
atom 7.4248328461477975 4.6806890093562341 71.4856171554233555 S
atom 2.4459483470191277 9.6595728012054121 71.4856180482416903 S
atom 7.4188680476192275 10.3237693298060371 71.0601853418782099 S
