#=======================================================
# FHI-aims file: full_relax/full_relax_RP_5_Rx0Rz_0-RyRz.in
# Created using the Atomic Simulation Environment (ASE)
# Fri Mar 14 11:31:55 2025
#=======================================================
lattice_vector 10.0246976948136286 0.0000905370908598 0.0178065576224029 
lattice_vector 0.0000905370908598 10.0246976948136286 0.0178065576224025 
lattice_vector 0.0993011413670550 0.0993011413670607 55.7957692165688854 
atom -0.2008003888377821 0.0437904487538550 0.2682418492198408 Ba
atom 5.0996126707085701 0.0439700897384277 0.2759053293081460 Ba
atom 0.0873090918193399 5.0562736685515670 0.2759053293172502 Ba
atom 4.8115937270710516 5.0561845646595200 0.2860484068405325 Ba
atom -0.1233738042975462 0.0356695292513641 4.9626922015002384 Ba
atom 4.8472781571064614 0.0358113917589863 4.9431648830804660 Ba
atom -0.1650254218534950 5.0481149706348667 4.9431648831133757 Ba
atom 4.8890203115100936 5.0480636452041612 4.9804987592713958 Ba
atom 2.4418020690494995 2.5332446059340294 2.3482468843984043 Zr
atom 7.4541695927470144 2.5595306691265156 2.3576722307915596 Zr
atom 2.4418660138900559 7.5718342479678578 2.3576722307942086 Zr
atom 7.4541961849965670 7.5456387218913381 2.3660534420090977 Zr
atom 2.4598746104362905 2.5234530981015499 7.4169678989133150 Zr
atom 7.4722550977900104 2.5513371896966208 7.4260930268609373 Zr
atom 2.4599515189148806 7.5636407685423110 7.4260930268734464 Zr
atom 7.4722687264020857 7.5358472140406851 7.4347744565249210 Zr
atom 2.4514169192364972 2.8011036389479331 -0.1411615556789806 S
atom 7.4635103346212830 2.3004628685263566 -0.1325916698662744 S
atom 2.4512067556579082 7.3127664473488148 -0.1325916698712588 S
atom 7.4638110352890212 7.8134977549750770 -0.1233549980727919 S
atom 2.4615386673944997 2.2024645546639223 4.9177366881821643 S
atom 7.4743415664104651 2.8811993441182708 4.9279426945094507 S
atom 2.4620379877589893 7.8935029229356317 4.9279426945067355 S
atom 7.4739327831334972 7.2148586706059152 4.9355432457983790 S
atom 2.4520774011504947 0.0405982500424387 2.1219304977477544 S
atom 7.4365332151975574 0.0395112234745203 2.7509416773054816 S
atom 2.4242296363324489 5.0518148023255591 2.7509416772969959 S
atom 7.4644715171141982 5.0529923660108063 2.1397370553384989 S
atom 2.8949207727901598 0.0306420584545326 7.7188894197064490 S
atom 7.1038681778673354 0.0317513020930245 7.1375570408865325 S
atom 2.0915645990236325 5.0440548809510206 7.1375570408423643 S
atom 7.9073148887833238 5.0430361744109762 7.7366959772847776 S
atom -0.0620796968244635 2.5378801835554206 2.4643297416467820 S
atom 4.9502171822693004 2.5544869743185927 2.4736285927816866 S
atom -0.0620863965940696 7.5667905531838136 2.4736285929198178 S
atom 4.9503144191289898 7.5502742995120773 2.4821362991000293 S
atom -0.0332283335713568 2.1237545638909179 7.4282617552127084 S
atom 4.9791287045806012 2.9508805614221059 7.4381981262412280 S
atom -0.0331748742801447 7.9631841402941461 7.4381981259799357 S
atom 4.9791657823805320 7.1361486798547800 7.4460683130906178 S
atom -0.0695903729022057 0.0266011960454771 9.9253266830144238 Ba
atom 5.0883435340215613 0.0266524747335495 9.9743306123164288 Ba
atom 0.0760399549212400 5.0389560535902058 9.9743306125377504 Ba
atom 4.9428037428540108 5.0389953119974802 9.9431332408084234 Ba
atom 0.1139212397781269 0.0177296706341374 14.9834988599389831 Ba
atom 4.9806850277103463 0.0177689290369918 14.9523014882098515 Ba
atom -0.0316185513900825 5.0300725079024398 14.9523014884311447 Ba
atom 5.1263153555330838 5.0301237865860493 15.0013054177333593 Ba
atom 2.5283624913158325 2.5283624913156624 12.4633160503744254 Zr
atom 7.5407113387226046 2.5284077598612620 12.4722193291844530 Zr
atom 2.5284077598611767 7.5407113387225726 12.4722193291854477 Zr
atom 7.5407566072679693 7.5407566072681620 12.4811226079956690 Zr
atom 2.5968503721952754 2.5332718845291153 17.5096642018353776 Zr
atom 7.6091675796551623 2.5054783300274504 17.5183456315060440 Zr
atom 2.5968640008074635 7.5177819089012488 17.5183456314994466 Zr
atom 7.6092444881337924 7.5456660004962419 17.5274707594662544 Zr
atom 2.5019531224093323 2.8285693545893973 9.9451907467648670 S
atom 7.5139959999447861 2.2371568329407552 9.9530741923711332 S
atom 2.5016924207599400 7.2494604117866199 9.9530741923784536 S
atom 7.5143472386823689 7.8409634705345823 9.9629973043780193 S
atom 2.5547718602238350 2.2281556280383836 14.9814413539848115 S
atom 7.5674266775013450 2.8196586867863784 14.9913644659995864 S
atom 2.5551230989613867 7.8319622656538250 14.9913644659914667 S
atom 7.5671659758520171 7.2405497440053050 14.9992479116125459 S
atom 2.1120820690403450 0.0226326289657409 12.2060585520113776 S
atom 7.9569464924091635 0.0217887748043997 12.7205735487855502 S
atom 2.9446429135911294 5.0340923536647173 12.7205735487365086 S
atom 7.1244761850361122 5.0350267449191692 12.2238651095846809 S
atom 2.9651603836072078 0.0126701016773364 17.7890750599052438 S
atom 7.1741077886619937 0.0137793453162192 17.2077426810849801 S
atom 2.1618042098412156 5.0260829241725995 17.2077426810420029 S
atom 7.9775544995783951 5.0250642176322584 17.8068816174839633 S
atom 0.0221814835658111 2.9567051335873962 12.4595163991707221 S
atom 5.0345434990664311 2.1000198490440898 12.4671157015802745 S
atom 0.0222399202025782 7.1123234279051397 12.4671157019025092 S
atom 5.0345755995192238 7.9690992495401662 12.4773229564647181 S
atom 0.0775962780508175 2.1058444212103340 17.4884339745089541 S
atom 5.0899533162025916 2.9329704187397811 17.4983703455385502 S
atom 0.0776497373424763 7.9452739975913182 17.4983703452762391 S
atom 5.0899903940021929 7.1182385371500816 17.5062405323878885 S
atom 0.1677046711219110 0.0086613374282687 19.9461333414755799 Ba
atom 5.2217504044846956 0.0086100120111903 19.9834672176334429 Ba
atom 0.2094468255251428 5.0209135908580853 19.9834672176684691 Ba
atom 5.1800987869286033 5.0210554533793603 19.9639398992484125 Ba
atom 0.2451312555577326 0.0005404179252190 24.6405836939064891 Ba
atom 4.9694158908143544 0.0004513140319078 24.6507267714297917 Ba
atom -0.0428876880796501 5.0127548929409675 24.6507267714412102 Ba
atom 5.2575253714718357 5.0129345339242111 24.6583902515294398 Ba
atom 2.6149229135821979 2.5234803766848248 22.5783852163588499 Zr
atom 7.6272530846982942 2.4972848506083705 22.5867664275799847 Zr
atom 2.6149495058319494 7.5095884294647339 22.5867664275763431 Zr
atom 7.6273170295390926 7.5358744926571530 22.5961917739755798 Zr
atom 2.5951863152384163 2.8542604279506048 20.0088954125710998 S
atom 7.6070811110363534 2.1756161756209038 20.0164959638634521 S
atom 2.5947775319617041 7.1879197544926896 20.0164959638605353 S
atom 7.6075804314008924 7.8666545439470887 20.0267019701888671 S
atom 2.6053080633955008 2.2556213436183290 25.0677936564420740 S
atom 7.6179123428244493 2.7563526512445304 25.0770303282425466 S
atom 2.6056087640636068 7.7686562300476023 25.0770303282354305 S
atom 7.6177021792463062 7.2680154596260094 25.0856002140502845 S
atom 2.6324953462992395 0.0049101802953976 22.1756904234476444 S
atom 7.6169511603307534 0.0038231537274338 22.8047016030279863 S
atom 2.6046475814810348 5.0161267325731815 22.8047016030034264 S
atom 7.6448894622473533 5.0173042962582413 22.1934969810675504 S
atom 0.1065078003632401 2.5022380083127689 22.4530035079816130 S
atom 5.1188046794553301 2.5188447990759251 22.4623023591164319 S
atom 0.1065011005939332 7.5311483779331514 22.4623023592543696 S
atom 5.1189019163151288 7.5146321242613929 22.4708100654347973 S
atom 2.5996380773975774 2.3550472397344491 28.1750297363134656 Ba
atom 7.6121212972282084 2.6431567205426467 28.1826932163909696 Ba
atom 2.5998177183809186 7.6554602993046386 28.1826932164243829 Ba
atom 7.6120321933350024 7.3674413558177676 28.1928362939370594 Ba
atom 2.5915171579106002 2.4324738240538091 32.8694800889137042 Ba
atom 7.6039625992892317 2.3908222070148843 32.8499527701381098 Ba
atom 2.5916590204234602 7.4031257855574815 32.8499527702484428 Ba
atom 7.6039112738638677 7.4448679404775291 32.8872866460504838 Ba
atom 5.0890922345818232 4.9976496976981339 30.2550347714828973 Zr
atom 10.1276818766479604 4.9977136425393125 30.2644601178819777 Zr
atom 5.1153782977653499 10.0100172214168381 30.2644601178937442 Zr
atom 10.1014863505628476 10.0100438136669698 30.2728413291137279 Zr
atom 5.0793007267315051 5.0157222391244707 35.3237557859909685 Zr
atom 10.1194883972322636 5.0157991476032775 35.3328809139498574 Zr
atom 5.1071848183255808 10.0281027264205829 35.3328809139794515 Zr
atom 10.0916948427296589 10.0281163550327239 35.3415623436434387 Zr
atom 5.3569512676509454 5.0072645481098998 27.7656263314102958 S
atom 9.8686140760043699 5.0070543845326752 27.7741962172255938 S
atom 4.8563104971899884 10.0193579630657190 27.7741962172303865 S
atom 10.3693453835911633 10.0196586637346403 27.7834328890310687 S
atom 4.7583121832715163 5.0173862956040729 32.8245245752749994 S
atom 10.4493505516587053 5.0178856159699015 32.8347305816026349 S
atom 5.4370469727142723 10.0301891955183944 32.8347305816027131 S
atom 9.7707062993173146 10.0297804122429302 32.8423311328958860 S
atom 5.0937278122241461 2.4937679318367416 30.3711176284115005 S
atom 10.1226381818353151 2.4937612320673477 30.3804164796949863 S
atom 5.1103346029862360 7.5060648109265395 30.3804164801985550 S
atom 10.1061219281623433 7.5061620477871740 30.3889241865276745 S
atom 4.6796021925733804 2.5226192950889823 35.3350496428564327 S
atom 10.5190317689293504 2.5226727543792169 35.3449860136258138 S
atom 5.5067281901060827 7.5349763332390038 35.3449860127864355 S
atom 9.6919963084909373 7.5350134110398344 35.3528561996378201 S
atom 2.5964458787075664 5.0079250298345119 30.0287183847832395 S
atom 7.6076624309887348 4.9800772650001708 30.6577295644054679 S
atom 2.5953588521301154 9.9923808438487303 30.6577295643888910 S
atom 7.6088399946651677 10.0203191457490881 30.0465249424956014 S
atom 2.5864896871153951 5.4507684015360738 35.6256773067094699 S
atom 7.5999025096116037 4.6474122276443559 35.0443449280312507 S
atom 2.5875989307504916 9.6597158065651652 35.0443449278885737 S
atom 7.5988838030698380 10.4631625173562544 35.6434838644728487 S
atom 2.5824488247045392 2.4862572553397526 37.8321145704750705 Ba
atom 7.5948036822517047 2.6318875840880138 37.8811184991644652 Ba
atom 2.5825001033909478 7.6441911621739322 37.8811184998823975 Ba
atom 7.5948429406573128 7.4986513719308787 37.8499211275400143 Ba
atom 2.5735772992929840 2.6697688680201344 42.8902867473992586 Ba
atom 7.5859201365610227 2.5242290777770444 42.8590893750572306 Ba
atom 2.5736165576971848 7.5365326558619188 42.8590893757752625 Ba
atom 7.5859714152461164 7.6821629846097155 42.9080933044640673 Ba
atom 5.0842101199751513 5.0842101199753076 40.3701039374695227 Zr
atom 10.0965589673820215 5.0842553885207451 40.3790072162809395 Zr
atom 5.0842553885205524 10.0965589673817764 40.3790072162776639 Zr
atom 10.0966042359274475 10.0966042359272361 40.3879104950902175 Zr
atom 5.0891195132185185 5.1526980008253567 45.4164520889504786 Zr
atom 10.0736295375314224 5.1527116294375359 45.4251335186144942 Zr
atom 5.0613259587159467 10.1650152083439664 45.4251335185843104 Zr
atom 10.1015136291257530 10.1650921168224535 45.4342586465435545 Zr
atom 5.3844169832269229 5.0578007517527537 37.8519786338421014 S
atom 9.8053080404707700 5.0575400501041541 37.8598620794569385 S
atom 4.7930044615757428 10.0698436279192833 37.8598620794850333 S
atom 10.3968110992155971 10.0701948666579373 37.8697851914915944 S
atom 4.7840032567220749 5.1106194881981857 42.8882292410980952 S
atom 10.3878098942920793 5.1109707269366957 42.8981523531044218 S
atom 5.3755063154670140 10.1232743068449995 42.8981523530808744 S
atom 9.7963973726404276 10.1230136051962880 42.9060357986939493 S
atom 5.5125527622479211 2.5780291122268846 40.3663042855753105 S
atom 9.6681710565654040 2.5780875488649149 40.3739035883089201 S
atom 4.6558674777025226 7.5903911277237563 40.3739035893659093 S
atom 10.5249468781985840 7.5904232281760455 40.3841108442524614 S
atom 4.6616920498450938 2.6334439067074125 45.3952218621536758 S
atom 10.5011216262733349 2.6334973659992942 45.4051582329229504 S
atom 5.4888180473764985 7.6458009448651971 45.4051582320837213 S
atom 9.6740861658344190 7.6458380226640967 45.4130284189351556 S
atom 2.5784802576249448 4.6679296977916751 40.1128464390027233 S
atom 7.5899399823250855 5.5004905421586177 40.6273614359372033 S
atom 2.5776364034637465 10.5127941211606899 40.6273614357773738 S
atom 7.5908743735779858 9.6803238136033176 40.1306529967852867 S
atom 2.5685177303382392 5.5210080123059280 45.6958629469082140 S
atom 7.5819305528332492 4.7176518384141231 45.1145305682299735 S
atom 2.5696269739749047 9.7299554174080960 45.1145305680889876 S
atom 7.5809118462898626 10.5334021281985688 45.7136695046728363 S
atom 2.5645089660865237 2.7235522994731731 47.8529212288893362 Ba
atom 7.5767612195226013 2.7652944543932825 47.8902551046916400 Ba
atom 2.5644576406655037 7.7775980329355257 47.8902551048020513 Ba
atom 7.5769030820399585 7.7359464158962510 47.8707277860266913 Ba
atom 2.5563880466012159 2.8009788841315690 52.5473715810014284 Ba
atom 7.5686025215843999 2.5129599406451510 52.5575146585147550 Ba
atom 2.5562989427075582 7.5252635194088731 52.5575146585473476 Ba
atom 7.5687821625673051 7.8133730002169699 52.5651781386257255 Ba
atom 5.0793280053646468 5.1707705422527050 50.4851731034578890 Zr
atom 10.0654360581125122 5.1707971345022470 50.4935543146780930 Zr
atom 5.0531324792792445 10.1831007133471960 50.4935543146687493 Zr
atom 10.0917221212967174 10.1831646581876143 50.5029796610670232 Zr
atom 5.4101080566737787 5.1510339443468354 47.9156832996659148 S
atom 9.7437673831001934 5.1506251610709501 47.9232838509582493 S
atom 4.7314638043326278 10.1629287392460945 47.9232838509552650 S
atom 10.4225021725426572 10.1634280596114532 47.9334898572833836 S
atom 4.8114689722795854 5.1611556918408121 52.9745815435347680 S
atom 10.3245038587448263 5.1614563925084571 52.9838182153355888 S
atom 5.3122002798664543 10.1737599716986953 52.9838182153342743 S
atom 9.8238630882837832 10.1735498081202334 52.9923881011498921 S
atom 5.0580856369643099 2.6623554290253146 50.3597913947458196 S
atom 10.0869960066017708 2.6623487292560442 50.3690902460297920 S
atom 5.0746924277264682 7.6746523081124938 50.3690902465330623 S
atom 10.0704797529286783 7.6747495449719096 50.3775979528622457 S
atom 2.5607578089587508 5.1883429749502996 50.0824783105331406 S
atom 7.5719743612377854 5.1604952101158865 50.7114894901579021 S
atom 2.5596707823820664 10.1727987890150509 50.7114894900656310 S
atom 7.5731519249137493 10.2007370909152808 50.1002848681739721 S
