#=======================================================
# FHI-aims file: full_relax/full_relax_RP_7_Rx1Ry20_-Rx2-Ry10.in
# Created using the Atomic Simulation Environment (ASE)
# Mon Mar 24 15:38:37 2025
#=======================================================
lattice_vector 10.0812919723884953 0.0349837426367400 -0.0000000000000753 
lattice_vector 0.0349837426367407 10.0812919723884775 -0.0000000000000066 
lattice_vector -0.0000000000005854 -0.0000000000000535 74.9393632908800100 
atom -0.1497348816097603 -0.0104847015230766 0.2759871962894315 Ba
atom 5.1903808677929533 0.0279765728474984 0.2759871963243271 Ba
atom 0.1672267529366117 5.0511306877156024 0.2759871962352862 Ba
atom 4.9084029758956280 5.0476531559790914 0.2759871963260328 Ba
atom 0.0259273756812250 -0.0305270603995268 4.9392216023824851 Ba
atom 5.0147186105069830 0.0480189316994604 4.9392216023835509 Ba
atom -0.0084355043084956 5.0711730465941045 4.9392216023810258 Ba
atom 5.0840652331385670 5.0276107971262682 4.9392216023797948 Ba
atom 2.5253190673599444 2.5169925563450426 2.3231138741956179 Zr
atom 7.5734647763447951 2.5586371725100521 2.3231138741406587 Zr
atom 2.5503106614378850 7.5817912873693034 2.3231138742028241 Zr
atom 7.5834569249061738 7.5751304138332456 2.3231138741654922 Zr
atom 2.5337211533861086 2.5281665661943449 7.3368546329197928 Zr
atom 7.5650626903248961 2.5474631626134157 7.3368546330301667 Zr
atom 2.5419085754468926 7.5706172775250158 7.3368546329532842 Zr
atom 7.5918590108967381 7.5863044237039681 7.3368546330432487 Zr
atom 2.5833526090372048 2.8769947371074793 -0.1592611728685211 S
atom 7.5154312346677612 2.1986349917499908 -0.1592611729714373 S
atom 2.4922771197631404 7.2217891066024693 -0.1592611728573024 S
atom 7.6414904665745791 7.9351325945935036 -0.1592611729538525 S
atom 2.4303195881936941 2.0681546954025336 4.8651026694602413 S
atom 7.6684642555101883 3.0074750334247629 4.8651026695047594 S
atom 2.6453101406354365 8.0306291483123395 4.8651026696162614 S
atom 7.4884574457041673 7.1262925528991641 4.8651026696202671 S
atom 2.5203229931005970 0.0087459355950697 2.0158816611119725 S
atom 7.5609689792928787 0.0262378069645518 2.7931343413510938 S
atom 2.5378148644060925 5.0493919218960137 2.7931343413039169 S
atom 7.5784608506055795 5.0668837931722992 2.0158816611227581 S
atom 2.5203229930984254 0.0087459356706769 7.8028821666415205 S
atom 7.5609689792908892 0.0262378070706269 6.8897757960479691 S
atom 2.5378148644175096 5.0493919217899625 6.8897757960988795 S
atom 7.5784608506125117 5.0668837931638242 7.8028821665979917 S
atom 0.0087459356577958 2.5203229931017925 2.3744562128359541 S
atom 5.0493919218486738 2.5378148644160987 2.5327274903664598 S
atom 0.0262378069809772 7.5609689792872494 2.5327274903265669 S
atom 5.0668837931631598 7.5784608506099209 2.3744562128036404 S
atom 0.0087459355804288 2.5203229931049203 7.4924330040114659 S
atom 5.0493919219179242 2.5378148644234275 7.2061167870460672 S
atom 0.0262378070146942 7.5609689792861818 7.2061167870496625 S
atom 5.0668837931321722 7.5784608506052882 7.4924330040114295 S
atom -0.0053719962211161 0.0629629504847529 9.8345092774107190 Ba
atom 5.0460179824117386 -0.0454710791861228 9.8345092774097402 Ba
atom 0.0228638675075297 4.9776830357072264 9.8345092774194516 Ba
atom 5.0527658613177069 5.1211008080174079 9.8345092774191354 Ba
atom 0.0041090444034534 -0.0708805000859094 14.7807955437771330 Ba
atom 5.0365369417869763 0.0883723714518611 14.7807955437748362 Ba
atom 0.0133828268476176 5.1115264862815550 14.7807955437796483 Ba
atom 5.0622469019776339 4.9872573573879171 14.7807955437817355 Ba
atom 2.5273445449503145 2.5303619885494411 12.2973964953491581 Zr
atom 7.5714392987539210 2.5452677402434891 12.2973964953039836 Zr
atom 2.5482851838704081 7.5684218551219917 12.2973964951451631 Zr
atom 7.5854824024668916 7.5884998460416648 12.2973964952986154 Zr
atom 2.5290689287512200 2.5290689287732433 17.2557744420697183 Zr
atom 7.5697149149396470 2.5465608000771311 17.2557744419773442 Zr
atom 2.5465608000694653 7.5697149149607421 17.2557744421246433 Zr
atom 7.5872067862633576 7.5872067862866981 17.2557744419677697 Zr
atom 2.6753591090520148 3.0171058440151786 9.8229559374173014 S
atom 7.4234247346626683 2.0585238848125234 9.8229559377791063 S
atom 2.4002706197882850 7.0816779997108057 9.8229559375147186 S
atom 7.7334969665565803 8.0752437014872882 9.8229559374229449 S
atom 2.3598982771340844 2.0459196351904554 14.7778036551522280 S
atom 7.7388855665705520 3.0297100936427235 14.7778036548683698 S
atom 2.7157314517088591 8.0528642085523181 14.7778036549840923 S
atom 7.4180361346442183 7.1040574927027418 14.7778036550188432 S
atom 2.5203229930993292 0.0087459356983547 11.8399340222821614 S
atom 7.5609689792895836 0.0262378069599026 12.7681720580898279 S
atom 2.5378148644195186 5.0493919218112664 12.7681720581067406 S
atom 7.5784608506037339 5.0668837933433437 11.8399340222780882 S
atom 2.5203229930930462 0.0087459356151957 17.7181489524236540 S
atom 7.5609689792855663 0.0262378068468757 16.7933999314826607 S
atom 2.5378148644127339 5.0493919217845207 16.7933999313983229 S
atom 7.5784608505991553 5.0668837932089330 17.7181489525018030 S
atom 0.0087459357318912 2.5203229930809954 12.1154267155508499 S
atom 5.0493919217740117 2.5378148644009269 12.4880472943444847 S
atom 0.0262378069376856 7.5609689792792469 12.4880472943768837 S
atom 5.0668837931992163 7.5784608505957838 12.1154267155848174 S
atom 0.0087459356633794 2.5203229930957689 17.4544870599461497 S
atom 5.0493919218602636 2.5378148644163026 17.0570618240142799 S
atom 0.0262378069948782 7.5609689793097958 17.0570618239710292 S
atom 5.0668837931551645 7.5784608506266862 17.4544870599027213 S
atom -0.0041090444276674 0.0708805001053077 19.7307533402226163 Ba
atom 5.0447550306274920 -0.0533886287856029 19.7307533402221331 Ba
atom 0.0216009158085799 4.9697654860854446 19.7307533402138766 Ba
atom 5.0540288130252966 5.1290183576051591 19.7307533402169319 Ba
atom 0.0053719962637854 -0.0629629505195735 24.6770396065590951 Ba
atom 5.0352739899327457 0.0804548217746165 24.6770396065590987 Ba
atom 0.0121198751042939 5.1036089367015647 24.6770396065494353 Ba
atom 5.0635098537357237 4.9951749070404619 24.6770396065484867 Ba
atom 2.5307933125674889 2.5277758689799374 22.2141523885979559 Zr
atom 7.5679905311596105 2.5478538598696279 22.2141523888703425 Zr
atom 2.5448364162786765 7.5710079747599615 22.2141523888816401 Zr
atom 7.5889311700742663 7.5859137264603840 22.2141523886503904 Zr
atom 2.5244167041324475 2.5299712913096966 27.1746942509723759 Zr
atom 7.5743671395817058 2.5456584375172189 27.1746942509378826 Zr
atom 2.5512130247184066 7.5688125524460590 27.1746942506602913 Zr
atom 7.5825545616374814 7.5881091488015722 27.1746942510012559 Zr
atom 2.6982395803668928 3.0122182223039604 19.7337452291929161 S
atom 7.4005442633294187 2.0634115065006360 19.7337452287768436 S
atom 2.3773901484558966 7.0865656214028210 19.7337452292193198 S
atom 7.7563774378812624 8.0703560798152729 19.7337452292215545 S
atom 2.3827787484805087 2.0410320135413684 24.6885929462392824 S
atom 7.7160050952170574 3.0345977152471995 24.6885929465952749 S
atom 2.6928509803306211 8.0577518301191002 24.6885929464952127 S
atom 7.4409166059911627 7.0991698710267404 24.6885929464467857 S
atom 2.5203229930940734 0.0087459356373434 21.7433768258710600 S
atom 7.5609689792895649 0.0262378071095113 22.6716148616844215 S
atom 2.5378148644094187 5.0493919219007575 22.6716148616722677 S
atom 7.5784608506126441 5.0668837931882642 21.7433768258646438 S
atom 2.5203229930937256 0.0087459356798801 27.6217730880389816 S
atom 7.5609689792914487 0.0262378070551088 26.7086667174609893 S
atom 2.5378148644138343 5.0493919218430925 26.7086667175113881 S
atom 7.5784608506097166 5.0668837931811153 27.6217730879908885 S
atom 0.0087459355179498 2.5203229930775994 22.0235015896346908 S
atom 5.0493919219702947 2.5378148643940142 22.3961221684345695 S
atom 0.0262378070072920 7.5609689792699761 22.3961221683688905 S
atom 5.0668837931318986 7.5784608505899076 22.0235015895733177 S
atom 0.0087459358165652 2.5203229930901458 27.3054320970204323 S
atom 5.0493919216806518 2.5378148644085057 27.0191158800515119 S
atom 0.0262378069387745 7.5609689792723449 27.0191158800793190 S
atom 5.0668837931978778 7.5784608505899786 27.3054320970453190 S
atom -0.0259273756702988 0.0305270604022652 29.5723272815600353 Ba
atom 5.0665733618597466 -0.0130351890692731 29.5723272815599572 Ba
atom 0.0434192469195198 5.0101189257846190 29.5723272815562055 Ba
atom 5.0322104819085851 5.0886649178968000 29.5723272815558111 Ba
atom 0.1497348815663141 0.0104847015442874 34.2355616880186275 Ba
atom 4.8909111046270670 0.0070071698126799 34.2355616880600166 Ba
atom -0.1322430102697965 5.0301612846629729 34.2355616879409865 Ba
atom 5.2078727391015898 5.0686225590318026 34.2355616880139735 Ba
atom 2.5328187901517332 2.5411453011241760 32.1884350097052518 Zr
atom 7.5659650535549323 2.5344844276395260 32.1884350096541283 Zr
atom 2.5428109386999895 7.5576385425362114 32.1884350096487566 Zr
atom 7.5909566476392039 7.5992831587080092 32.1884350096910410 Zr
atom 2.6278182693110055 2.9899831621148740 29.6464462143495560 S
atom 7.4709655743956533 2.0856465667183399 29.6464462141338956 S
atom 2.4478114595117386 7.1088006815682006 29.6464462140510250 S
atom 7.6859561268260359 8.0481210196185327 29.6464462142594201 S
atom 2.4747852484553250 2.1811431203406735 34.6708100568972029 S
atom 7.6239985952438376 2.8944866084282590 34.6708100568809670 S
atom 2.6008444803856663 7.9176407233362074 34.6708100571640685 S
atom 7.5329231059526851 7.2392809779164056 34.6708100568267383 S
atom 2.5203229930986404 0.0087459356692482 31.7184145427387492 S
atom 7.5609689792934462 0.0262378069864353 32.4956672229371293 S
atom 2.5378148644065948 5.0493919219416545 32.4956672228993781 S
atom 7.5784608506043378 5.0668837931307831 31.7184145427608399 S
atom 0.0087459355754095 2.5203229930922770 31.9788213936969399 S
atom 5.0493919219266541 2.5378148644120935 32.1370926712168412 S
atom 0.0262378070244178 7.5609689792831611 32.1370926712193778 S
atom 5.0668837931303834 7.5784608506034603 31.9788213937046635 S
atom 2.5395536302653521 2.6788038103538003 37.7456688416015922 Ba
atom 7.5592302134421390 2.3968259185816523 37.7456688416386186 Ba
atom 2.5360760985440254 7.4199800333484989 37.7456688415705202 Ba
atom 7.5976914877847816 7.7369416677607834 37.7456688416445445 Ba
atom 2.5595959891176019 2.5031415532541210 42.4089032478256271 Ba
atom 7.5391878545924751 2.5724881757574987 42.4089032478346226 Ba
atom 2.5160337396176660 7.5956422904448386 42.4089032478290093 Ba
atom 7.6177338467134748 7.5612794105817427 42.4089032478344876 Ba
atom 5.0702142299222750 5.0618877188974825 39.7927955196390144 Zr
atom 10.0867074713200040 5.0718798674590362 39.7927955196484291 Zr
atom 5.0635533563670210 10.0950339823104329 39.7927955196022367 Zr
atom 10.1283520874537594 10.1200255764007263 39.7927955196449261 Zr
atom 5.0590402200530109 5.0534856328605908 44.8065362787774504 Zr
atom 10.0978814811322408 5.0802819534752031 44.8065362785582479 Zr
atom 5.0747273663005430 10.1034360683668023 44.8065362792616284 Zr
atom 10.1171780775069884 10.1116234903879079 44.8065362790372959 Zr
atom 4.7102120491383612 5.0038541772079306 37.3104204722046049 S
atom 10.4467096520842198 5.1299134091406291 37.3104204724654167 S
atom 5.4235555371793351 10.1530675240007682 37.3104204717514065 S
atom 9.7683499066575337 10.0619920347215679 37.3104204719419315 S
atom 5.5190520909326493 5.1568871980916020 42.3347843148719036 S
atom 9.6378696102923289 4.9768803882660899 42.3347843156620485 S
atom 4.6147154953695573 10.0000345031202471 42.3347843154599701 S
atom 10.5771899484255893 10.2150250555944133 42.3347843154576395 S
atom 5.0493919218563121 2.5378148643860663 40.0024091358643687 S
atom 10.0900379080495313 2.5553067357042774 39.8441378582038723 S
atom 5.0668837931700272 7.5784608506675228 39.8441378583323100 S
atom 10.1075297793747545 7.5959527219392315 40.0024091357442870 S
atom 5.0493919218143111 2.5378148645016871 44.6757984322633419 S
atom 10.0900379080504141 2.5553067355546770 44.9621146492565273 S
atom 5.0668837931352879 7.5784608505362527 44.9621146492460610 S
atom 10.1075297793684928 7.5959527220791712 44.6757984322852550 S
atom 2.5378148642820162 5.0493919218606029 40.2628159867521944 S
atom 7.5784608506795594 5.0668837931715647 39.4855633065128302 S
atom 2.5553067357070911 10.0900379080416265 39.4855633065518674 S
atom 7.5959527220562473 10.1075297793645795 40.2628159868653768 S
atom 2.5378148646879199 5.0493919218535979 44.3594574413487166 S
atom 7.5784608503549098 5.0668837931815913 45.2725638118847158 S
atom 2.5553067358990660 10.0900379080443336 45.2725638117115494 S
atom 7.5959527219946192 10.1075297793631815 44.3594574411737668 S
atom 2.4661059782738333 2.5344409249580142 47.3041909228720385 Ba
atom 7.6326778654250820 2.5411888036981316 47.3041909228488464 Ba
atom 2.6095237505530311 7.5643429187388920 47.3041909228698145 Ba
atom 7.5242438357957973 7.5925787826509481 47.3041909228537207 Ba
atom 2.5999494288958394 2.5249598842131604 52.2504771892195734 Ba
atom 7.4988344147986306 2.5506698445250313 52.2504771891996782 Ba
atom 2.4756803000360312 7.5738239595044785 52.2504771892185147 Ba
atom 7.6580872863046565 7.5830977418245151 52.2504771892004314 Ba
atom 5.0568447977211015 5.0598622413125129 49.7670781407450775 Zr
atom 10.1000769035152338 5.0739053450311165 49.7670781406466602 Zr
atom 5.0769227886351880 10.0970594599157693 49.7670781406319804 Zr
atom 10.1149826552098645 10.1180000988042504 49.7670781405117211 Zr
atom 5.0581378575335414 5.0581378575569582 54.7254560868888831 Zr
atom 10.0987838437371824 5.0756297288292567 54.7254560874416640 Zr
atom 5.0756297287523084 10.0987838436691710 54.7254560867618238 Zr
atom 10.1162757150239297 10.1162757150596239 54.7254560867506328 Zr
atom 4.5701009423721013 4.9118476772826858 47.2926375836267354 S
atom 10.5868207588706582 5.2219199090824100 47.2926375825636072 S
atom 5.5636666438951341 10.2450740239223173 47.2926375833105226 S
atom 9.6282387999167476 9.9699855347962352 47.2926375835761803 S
atom 5.5412871509901329 5.2273085090874742 52.2474853002003670 S
atom 9.6156345501696450 4.9064590772167094 52.2474853002354109 S
atom 4.5924804353399002 9.9296131921308444 52.2474852997396511 S
atom 10.5994250084891810 10.2854463666121223 52.2474852996989796 S
atom 5.0493919218454977 2.5378148643002731 49.9577289398058468 S
atom 10.0900379080451241 2.5553067358511954 49.5851083611093912 S
atom 5.0668837931595103 7.5784608506799627 49.5851083610182144 S
atom 10.1075297793649934 7.5959527218294962 49.9577289398884972 S
atom 5.0493919218332621 2.5378148643906151 54.5267434697028293 S
atom 10.0900379080030422 2.5553067356376871 54.9241687055790138 S
atom 5.0668837931511215 7.5784608506171685 54.9241687056367098 S
atom 10.1075297793181935 7.5959527220049079 54.5267434696443161 S
atom 2.5378148643249574 5.0493919218441654 50.2378537035525383 S
atom 7.5784608506463131 5.0668837931598718 49.3096156677896218 S
atom 2.5553067357381813 10.0900379080475133 49.3096156678559936 S
atom 7.5959527218670093 10.1075297793661267 50.2378537035732080 S
atom 2.5378148644932130 5.0493919218450003 54.2630815771188253 S
atom 7.5784608506372964 5.0668837931686204 55.1878305981356689 S
atom 2.5553067359148574 10.0900379080512721 55.1878305982779409 S
atom 7.5959527219753138 10.1075297793689209 54.2630815772096682 S
atom 2.4581884286058164 2.5331779732050421 57.2004349856537360 Ba
atom 7.6405954150948716 2.5424517558054229 57.2004349856478171 Ba
atom 2.6174413001755990 7.5656058705068983 57.2004349856492880 Ba
atom 7.5163262861471338 7.5913158305435138 57.2004349856505385 Ba
atom 2.5920318791946526 2.5236969325740750 62.1467212520031751 Ba
atom 7.5067519645183669 2.5519327962713598 62.1467212520169170 Ba
atom 2.4835978495195952 7.5750869111230976 62.1467212520018109 Ba
atom 7.6501697368320514 7.5818347900600420 62.1467212520195602 Ba
atom 5.0594309173182292 5.0564134737044881 59.6838340340879512 Zr
atom 10.0974907839187882 5.0773541126173347 59.6838340342850344 Zr
atom 5.0743366690624949 10.1005082275054079 59.6838340343195242 Zr
atom 10.1175687748810272 10.1145513312262931 59.6838340344524028 Zr
atom 5.0572354950110379 5.0627900821291103 64.6443758969370350 Zr
atom 10.0996862062062469 5.0709775042003846 64.6443758964827424 Zr
atom 5.0765320914191463 10.0941316191029724 64.6443758971315532 Zr
atom 10.1153733523961247 10.1209279396237086 64.6443758969840019 Zr
atom 4.5749885638417513 4.8889672058350904 57.2034268742205754 S
atom 10.5819331373458425 5.2448003804870966 57.2034268741511696 S
atom 5.5587790225362586 10.2679544953944983 57.2034268742072882 S
atom 9.6331264212922889 9.9471050633316160 57.2034268745120826 S
atom 5.5461747728473618 5.2044280378436705 62.1582745923318569 S
atom 9.6107469284835307 4.9293395485320657 62.1582745922695779 S
atom 4.5875928135355659 9.9524936633817411 62.1582745924329458 S
atom 10.6043126303220969 10.2625658953270555 62.1582745925251814 S
atom 5.0493919218874268 2.5378148644920917 59.8658038138014703 S
atom 10.0900379080586262 2.5553067358387440 59.4931832349530225 S
atom 5.0668837932073751 7.5784608505214290 59.4931832350037695 S
atom 10.1075297793835528 7.5959527218472083 59.8658038137591930 S
atom 5.0493919218597654 2.5378148645492029 64.4887975252152188 S
atom 10.0900379080443301 2.5553067357920676 64.7751137423258569 S
atom 5.0668837931781985 7.5784608504623217 64.7751137421691681 S
atom 10.1075297793689902 7.5959527218953893 64.4887975253663228 S
atom 2.5378148641487064 5.0493919218569561 60.1412965071283594 S
atom 7.5784608507074589 5.0668837931660109 59.2130584712331469 S
atom 2.5553067356328358 10.0900379080409550 59.2130584711511219 S
atom 7.5959527218184633 10.1075297793589147 60.1412965070317966 S
atom 2.5378148643358784 5.0493919218560182 64.1783483626150968 S
atom 7.5784608504796136 5.0668837931816180 65.0914547331639710 S
atom 2.5553067360954480 10.0900379080313538 65.0914547331863389 S
atom 7.5959527217307867 10.1075297793592700 64.1783483627028204 S
atom 2.4985418684237595 2.5549963044429234 67.0420089269556598 Ba
atom 7.6002419752797037 2.5206334242890529 67.0420089269691033 Ba
atom 2.5770878604999745 7.5437875392673179 67.0420089269541535 Ba
atom 7.5566797258428888 7.6131341620470776 67.0420089269691033 Ba
atom 2.5185842272432364 2.3793340471081734 71.7052433335077950 Ba
atom 7.5801996164565137 2.6962956816631665 71.7052433335172310 Ba
atom 2.5570455016361522 7.7194497965973996 71.7052433334915520 Ba
atom 7.5767220847014407 7.4374719046702733 71.7052433335039581 Ba
atom 5.0460614850537944 5.0543879961159215 69.6581166547328365 Zr
atom 10.1108602161416421 5.0793795902242929 69.6581166548965882 Zr
atom 5.0877061012326132 10.1025337050838111 69.6581166548345578 Zr
atom 10.1041993426261580 10.1125258536454172 69.6581166548910176 Zr
atom 4.5972236242624334 4.9593885169790370 67.1161278605161158 S
atom 10.5596980769976536 5.1743790693591389 67.1161278599222442 S
atom 5.5365439620359922 10.1975331842301280 67.1161278598732451 S
atom 9.6553614817870486 10.0175263745151675 67.1161278591415282 S
atom 5.4060636659401675 5.1124215378218700 72.1404917017069351 S
atom 9.7508580353133532 5.0213460485219938 72.1404917020842618 S
atom 4.7277039204210896 10.0445001633953908 72.1404917015980232 S
atom 10.4642015233953778 10.1705593953313169 72.1404917017950709 S
atom 5.0493919218411349 2.5378148643604583 69.6067743167429995 S
atom 10.0900379080634757 2.5553067355594719 69.4485030392980747 S
atom 5.0668837931557773 7.5784608506834621 69.4485030392593927 S
atom 10.1075297793856347 7.5959527220726715 69.6067743168083126 S
atom 2.5378148642578608 5.0493919218568717 69.9653488683328817 S
atom 7.5784608507304130 5.0668837931664124 69.1880961883531853 S
atom 2.5553067355884456 10.0900379080515901 69.1880961884737502 S
atom 7.5959527220988612 10.1075297793683845 69.9653488685177649 S
