#=======================================================
# FHI-aims file: full_relax/full_relax_RP_8_RxRyMz_-Rx-Ry0.in
# Created using the Atomic Simulation Environment (ASE)
# Mon Mar 24 16:18:05 2025
#=======================================================
lattice_vector 10.0075915735430261 -0.0742358632979163 0.0000000000000847 
lattice_vector -0.0742358632979140 10.0075915735431771 0.0000000000000852 
lattice_vector 0.0000000000007234 0.0000000000007281 86.0018503493928961 
atom 0.1016885802105925 -0.1834095953322085 0.2157354337018718 Ba
atom 5.1872053821028130 -0.1388065119072221 0.2157354341706175 Ba
atom 0.1462916636798234 4.9021072065173623 0.2157354341620984 Ba
atom 5.0683664353357329 4.7832682597937675 0.2157354337109105 Ba
atom -0.2680038712849417 0.1868223295827429 5.0091329496085573 Ba
atom 4.8169734571930363 0.2308859396259060 5.0091329496021846 Ba
atom -0.2239402612337567 5.2717996580459010 5.0091329496044503 Ba
atom 4.6986739838440839 5.1535001847047273 5.0091329496070314 Ba
atom 2.4853453172255224 2.4717349095263312 2.4037507758005909 Zr
atom 7.4987387323324883 2.4442146062262124 2.4037507758006300 Zr
atom 2.4578250139367386 7.4851283246533633 2.4037507757891401 Zr
atom 7.4520231723248367 7.4384127646583886 2.4037507757989709 Zr
atom 2.4749303628051940 2.4875521114898405 7.4613051317825967 Zr
atom 7.4829215304044130 2.4546295606695501 7.4613051317164940 Zr
atom 2.4420078119889692 7.4955432790925087 7.4613051317295751 Zr
atom 7.4416082179206002 7.4542299666153546 7.4613051317788388 Zr
atom 2.6083384276582038 2.6916223269466228 -0.1037161501887820 S
atom 7.2788513149413294 2.3212214958170532 -0.1037161502771138 S
atom 2.2379375965195947 7.3621352142358285 -0.1037161502683818 S
atom 7.5750162827840599 7.6583001820692802 -0.1037161501945182 S
atom 2.2358440594190965 2.1876332151742739 4.9670327752058734 S
atom 7.7828404267210525 2.6937158640507168 4.9670327753844772 S
atom 2.7419267082967487 7.7346295824704487 4.9670327753796277 S
atom 7.2025219145435173 7.1543110702952140 4.9670327752143706 S
atom 2.8062304282056321 -0.0149402342937476 2.2497367721556292 S
atom 7.1790555748087952 -0.0493523262370764 2.7581291469589546 S
atom 2.1381418563858716 4.9915613921746438 2.7581291469597660 S
atom 7.7729082833347842 4.9517376208165178 2.2497367721538266 S
atom 2.8985281151435580 -0.0183660556213457 7.7905044923152102 S
atom 7.1164294052049346 -0.0525543291509125 7.1737086070308465 S
atom 2.0755156867838815 4.9883593892655185 7.1737086070309823 S
atom 7.8652059702690256 4.9483117994966443 7.7905044923158355 S
atom -0.0221776970506726 2.1975653585152353 2.2497367721724628 S
atom 4.9789122494749769 2.7914180671161577 2.7581291469515943 S
atom -0.0620014689204881 7.8323317855373151 2.7581291469548415 S
atom 4.9445001580427546 7.1642432136375946 2.2497367721737911 S
atom -0.0187518761183061 2.1052676716276215 7.7905044923152174 S
atom 4.9821142527158448 2.8540442366845378 7.1737086070313572 S
atom -0.0587994656936532 7.8949579551050677 7.1737086070300569 S
atom 4.9479259789946664 7.0719455267499685 7.7905044923146747 S
atom 0.2852832962261372 -0.1840079315310763 9.9889903500080113 Ba
atom 5.1878037183027006 -0.3224012278828972 9.9889903500061550 Ba
atom 0.1468899998815894 4.7185124905405633 9.9889903500077128 Ba
atom 5.2519611513488327 4.7826699235945158 9.9889903500076951 Ba
atom -0.2843765923101556 0.1812163664434443 14.9933857789047700 Ba
atom 4.8225794203185322 0.2472586606635222 14.9933857789055196 Ba
atom -0.2183342980960023 5.2881723790874924 14.9933857789056155 Ba
atom 4.6823012628064964 5.1478942215707102 14.9933857789044751 Ba
atom 2.4885619100151932 2.4806673011590559 12.4789777603496930 Zr
atom 7.4898063407340336 2.4409980134572753 12.4789777603459875 Zr
atom 2.4488926223153742 7.4819117318755852 12.4789777603575125 Zr
atom 7.4552397651378532 7.4473451562801145 12.4789777603408307 Zr
atom 2.4832159326722909 2.4828008849767405 17.4936580266785313 Zr
atom 7.4876727569099319 2.4463439907972679 17.4936580267355595 Zr
atom 2.4467590384890192 7.4872577092156369 17.4936580267230610 Zr
atom 7.4498937877971620 7.4494787400968754 17.4936580266814623 Zr
atom 2.7469591836846226 2.8095586005286970 9.9807185875351134 S
atom 7.1609150413663549 2.1826007397885934 9.9807185874921878 S
atom 2.1200013229446393 7.2235144582081894 9.9807185874746978 S
atom 7.7136370388078674 7.7762364556522954 9.9807185875396129 S
atom 2.2181359326639978 2.1513959355608852 14.9907875665076933 S
atom 7.8190777063269614 2.7114239908047773 14.9907875665616750 S
atom 2.7781639879087199 7.7523377092262500 14.9907875665613979 S
atom 7.1848137877876068 7.1180737906834466 14.9907875665210977 S
atom 2.8899755840819692 -0.0219979704572204 12.1722580999421961 S
atom 7.1204301272593558 -0.0564997053990512 12.8101225517345867 S
atom 2.0795164088383213 4.9844140130046037 12.8101225517347359 S
atom 7.8566534392042415 4.9446798846482798 12.1722580999428072 S
atom 2.8883532281959985 -0.0204980230913500 17.8179384949500417 S
atom 7.1209649958995680 -0.0550038609952632 17.1758131684302029 S
atom 2.0800512774776214 4.9859098574200322 17.1758131684293325 S
atom 7.8550310833159847 4.9461798320264752 17.8179384949482049 S
atom -0.0151199611838756 2.1138202026878079 12.1722580999426100 S
atom 4.9860596288780297 2.8500435146320204 12.8101225517345778 S
atom -0.0548540895528000 7.8909572330554383 12.8101225517355068 S
atom 4.9515578939483342 7.0804980578091650 12.1722580999415122 S
atom -0.0166199086528204 2.1154425585773988 17.8179384949482014 S
atom 4.9845637845681088 2.8495086459885557 17.1758131684302775 S
atom -0.0563499338758465 7.8904223644110685 17.1758131684298974 S
atom 4.9500579464921968 7.0821204136990996 17.8179384949489865 S
atom 0.2866948351840826 -0.1827484255830883 20.0004303137939914 Ba
atom 5.1865442123486192 -0.3238127668303891 20.0004303137928687 Ba
atom 0.1456304939291218 4.7171009515908962 20.0004303137921653 Ba
atom 5.2533726903056426 4.7839294295408328 20.0004303137942969 Ba
atom -0.2843765923215445 0.1812163664484056 25.0074748487714835 Ba
atom 4.8225794203332422 0.2472586606552510 25.0074748487727696 Ba
atom -0.2183342980902925 5.2881723790775741 25.0074748487727234 Ba
atom 4.6823012628036889 5.1478942215727823 25.0074748487721195 Ba
atom 2.4832159326713303 2.4828008849833028 22.5072026008751465 Zr
atom 7.4876727569179549 2.4463439907970810 22.5072026009062895 Zr
atom 2.4467590384958222 7.4872577092179036 22.5072026009019588 Zr
atom 7.4498937877945410 7.4494787401053486 22.5072026008833674 Zr
atom 2.4885619100103313 2.4806673011827987 27.5218828675674558 Zr
atom 7.4898063407637316 2.4409980134632057 27.5218828672598761 Zr
atom 2.4488926223425751 7.4819117318836792 27.5218828672665268 Zr
atom 7.4552397651325437 7.4473451563048698 27.5218828675604108 Zr
atom 2.7511128176979622 2.8143843156258579 20.0004303140022017 S
atom 7.1560893262585950 2.1784471057697008 20.0004303138010187 S
atom 2.1151756078376391 7.2193608241902254 20.0004303138201323 S
atom 7.7177906728199277 7.7810621707490846 20.0004303139844843 S
atom 2.2181359326613523 2.1513959355602181 25.0100730608131698 S
atom 7.8190777063336876 2.7114239908103674 25.0100730610576178 S
atom 2.7781639879130284 7.7523377092315595 25.0100730610478372 S
atom 7.1848137877834466 7.1180737906820397 25.0100730608164490 S
atom 2.8883532281808026 -0.0204980229179730 22.1829221327072581 S
atom 7.1209649959103629 -0.0550038611739500 22.8250474591970907 S
atom 2.0800512774914148 4.9859098572427847 22.8250474591961812 S
atom 7.8550310833042740 4.9461798322010750 22.1829221327066435 S
atom 2.8899755840891688 -0.0219979705677083 27.8286025276764342 S
atom 7.1204301272488522 -0.0564997053090752 27.1907380758629280 S
atom 2.0795164088286855 4.9844140131022536 27.1907380758627077 S
atom 7.8566534392119758 4.9446798845454660 27.8286025276767361 S
atom -0.0166199084607720 2.1154425585793106 22.1829221327065902 S
atom 4.9845637843732611 2.8495086459888244 22.8250474591973109 S
atom -0.0563499340348075 7.8904223644092806 22.8250474591974637 S
atom 4.9500579466497276 7.0821204137015314 22.1829221327063841 S
atom -0.0151199612835471 2.1138202026874242 27.8286025276772833 S
atom 4.9860596289700183 2.8500435146389815 27.1907380758619368 S
atom -0.0548540894506593 7.8909572330602415 27.1907380758623241 S
atom 4.9515578938400306 7.0804980578092023 27.8286025276782034 S
atom 0.2852832962092500 -0.1840079315199614 30.0118702775980530 Ba
atom 5.1878037183237966 -0.3224012279047335 30.0118702776005364 Ba
atom 0.1468899999051271 4.7185124905175098 30.0118702776014601 Ba
atom 5.2519611513305806 4.7826699236043355 30.0118702775984509 Ba
atom -0.2680038712907158 0.1868223295823997 34.9917276780176749 Ba
atom 4.8169734572066814 0.2308859396087115 34.9917276780158062 Ba
atom -0.2239402612102992 5.2717996580333892 34.9917276780170994 Ba
atom 4.6986739838280567 5.1535001847098885 34.9917276780178383 Ba
atom 2.4749303627995753 2.4875521115105474 32.5395554954026878 Zr
atom 7.4829215304384018 2.4546295606960906 32.5395554959230537 Zr
atom 2.4420078120175459 7.4955432791119616 32.5395554959311752 Zr
atom 7.4416082179234779 7.4542299666278220 32.5395554954048691 Zr
atom 2.4853453172065172 2.4717349094267149 37.5971098520186828 Zr
atom 7.4987387322430941 2.4442146062545449 37.5971098520752349 Zr
atom 2.4578250138167301 7.4851283246644833 37.5971098520620686 Zr
atom 7.4520231723353625 7.4384127645414404 37.5971098520183631 Zr
atom 2.7469591836817355 2.8095586005346300 30.0201420401089258 S
atom 7.1609150413843743 2.1826007398021252 30.0201420403323667 S
atom 2.1200013229629713 7.2235144582221489 30.0201420403266113 S
atom 7.7136370388045199 7.7762364556584718 30.0201420401111889 S
atom 2.2358440594066389 2.1876332151717910 35.0338278529960476 S
atom 7.7828404267277538 2.6937158640537953 35.0338278517964952 S
atom 2.7419267083097862 7.7346295824763880 35.0338278517920898 S
atom 7.2025219145286288 7.1543110702949670 35.0338278529937384 S
atom 2.8985281151495697 -0.0183660558734537 32.2103561353574719 S
atom 7.1164294051940002 -0.0525543288953861 32.8271520206394385 S
atom 2.0755156867737945 4.9883593895120928 32.8271520206393106 S
atom 7.8652059702707735 4.9483117992366523 32.2103561353583601 S
atom 2.8062304281705654 -0.0149402333793106 37.7511238554272879 S
atom 7.1790555747908655 -0.0493523269847209 37.2427314806341911 S
atom 2.1381418563718424 4.9915613914194710 37.2427314806348946 S
atom 7.7729082832907501 4.9517376217221543 37.7511238554255257 S
atom -0.0187518763777077 2.1052676716414265 32.2103561353584027 S
atom 4.9821142529794482 2.8540442366770966 32.8271520206347418 S
atom -0.0587994654496257 7.8949579550999820 32.8271520206347205 S
atom 4.9479259787527443 7.0719455267635372 32.2103561353577703 S
atom -0.0221776961571844 2.1975653584877084 37.7511238554311745 S
atom 4.9789122487489648 2.7914180670952176 37.2427314806475280 S
atom -0.0620014696816815 7.8323317855187771 37.2427314806477554 S
atom 4.9445001589763544 7.1642432136100940 37.7511238554322830 S
atom 0.1016885802465906 -0.1834095953532905 39.7851251937783275 Ba
atom 5.1872053821002222 -0.1388065118657166 39.7851251936963450 Ba
atom 0.1462916636797477 4.9021072065559208 39.7851251936936094 Ba
atom 5.0683664353700504 4.7832682597705789 39.7851251937784554 Ba
atom 2.6083384276117898 2.6916223268991777 40.1045767773904203 S
atom 7.2788513149176657 2.3212214957930897 40.1045767780318414 S
atom 2.2379375964963990 7.3621352142131729 40.1045767780496050 S
atom 7.5750162827339622 7.6583001820236998 40.1045767773945343 S
atom 2.6668381986304031 2.3815667733546064 43.2166284900056112 Ba
atom 7.5889068685647967 2.2627217248209357 43.2166284899179445 Ba
atom 2.5479931501445168 7.3036354432430706 43.2166284899087145 Ba
atom 7.6335160537523077 7.3482446284780290 43.2166284900056112 Ba
atom 2.2966503062479471 2.7512171185374128 48.0100112372535648 Ba
atom 7.2192565233211292 2.6329096172440947 48.0100112372507866 Ba
atom 2.1783428049014346 7.6738233356705798 48.0100112372547514 Ba
atom 7.2633281613685643 7.7178949736666169 48.0100112372531740 Ba
atom 4.9783636920316816 4.9645972105485185 45.4046567672802368 Zr
atom 9.9725542864328887 4.9178740863622776 45.4046567673134476 Zr
atom 4.9316405680441342 9.9587878047968825 45.4046567673241839 Zr
atom 9.9450415471260687 9.9312750656827493 45.4046567672857506 Zr
atom 4.9626170777669882 4.9749201853441694 50.4621892350539056 Zr
atom 9.9622313116862138 4.9336207008860065 50.4621892355398103 Zr
atom 4.9213175932773270 9.9745344193031258 50.4621892355414516 Zr
atom 9.9292949328814792 9.9415980404645730 50.4621892350328309 Zr
atom 4.7584686968807706 4.8415908145956896 42.8971871344316540 S
atom 10.0955606823605972 5.1377690816434702 42.8971871350290215 S
atom 5.0546469639375493 10.1786828000642764 42.8971871350130485 S
atom 9.7251465520066755 9.8082686697155506 42.8971871344231488 S
atom 5.2625334337650713 5.2140510574953014 47.9679210571429522 S
atom 9.7231004395131588 4.6337043448383062 47.9679210560630693 S
atom 4.6821867210889447 9.6746180632563092 47.9679210560785094 S
atom 10.2292112888907916 10.1807289126168410 47.9679210571595007 S
atom 4.6586984850208326 2.4710060480535376 45.7590477401736848 S
atom 10.2934743075974016 2.4311916124029320 45.2506195719899651 S
atom 5.2525605891742639 7.4721053307865981 45.2506195719894748 S
atom 9.6253763401490140 7.4376839031453930 45.7590477401741538 S
atom 4.5961342474286235 2.4677518500009148 50.1745544198115638 S
atom 10.3858154211035263 2.4277036728712167 50.7913929559122650 S
atom 5.3449017026823062 7.4686173912952087 50.7913929559114692 S
atom 9.5628121025548296 7.4344297051257682 50.1745544198126012 S
atom 2.4585538738609207 5.3117751568671361 45.7590477401629414 S
atom 7.4650461681380778 4.6436771893178443 45.2506195719873574 S
atom 2.4241324497051413 9.6845909077325221 45.2506195719837834 S
atom 7.4252317289904992 10.2784530119880078 45.7590477401607103 S
atom 2.4618080739812132 5.3743393944455216 50.1745544198137878 S
atom 7.4685341052074579 4.5513360759295240 50.7913929559106379 S
atom 2.4276203867763932 9.5922497943499891 50.7913929559134871 S
atom 7.4284859291125409 10.3410172495674022 50.1745544198183566 S
atom 2.6674502491090597 2.1978947706247256 52.9898770710851466 Ba
atom 7.7725788712202064 2.2621096744015365 52.9898770710866245 Ba
atom 2.7316651528090601 7.3030233928227890 52.9898770710868376 Ba
atom 7.6341281042214861 7.1645726257473754 52.9898770710845781 Ba
atom 2.3022600201785526 2.7675617922377040 57.9942828576412808 Ba
atom 7.2029118496352629 2.6272999032893152 57.9942828576413518 Ba
atom 2.1619981312160497 7.6682136217355668 57.9942828576431495 Ba
atom 7.2689378752972855 7.7342396473832871 57.9942828576403571 Ba
atom 4.9694482944544491 4.9613474062640419 55.4798643267428133 Zr
atom 9.9758040907463759 4.9267894841948454 55.4798643264891140 Zr
atom 4.9348903723373336 9.9677032026077264 55.4798643265159583 Zr
atom 9.9361261495709243 9.9280252613852262 55.4798643267918905 Zr
atom 4.9673714106298661 4.9666565610829538 60.4945583002296061 Zr
atom 9.9704949359191684 4.9288663679529181 60.4945583000972746 Zr
atom 4.9295812175020854 9.9697800863711628 60.4945583000762568 Zr
atom 9.9340492657507262 9.9333344162070478 60.4945583002111249 Zr
atom 4.6405809527570714 4.7029191893262174 52.9816002077291373 S
atom 10.2342323077014665 5.2556568258607888 52.9816002078799855 S
atom 5.1933185892814713 10.2965705442855793 52.9816002078381487 S
atom 9.6072588078833263 9.6695970444479578 52.9816002077192110 S
atom 5.2987491933481161 5.2317277261007931 57.9916772462515411 S
atom 9.7054237709142566 4.5974885852506508 57.9916772465404264 S
atom 4.6645100524916430 9.6384023036632289 57.9916772465423804 S
atom 10.2654270484738408 10.1984055812273802 57.9916772461943140 S
atom 4.6000972797526964 2.4638365648559208 55.8110062136425782 S
atom 10.3772294350412277 2.4241029498613078 55.1731513458787433 S
atom 5.3363157166227841 7.4650166682403469 55.1731513458774359 S
atom 9.5667751348833310 7.4305144199335373 55.8110062136391178 S
atom 4.6006373713505155 2.4652931692841049 60.1767536943131418 S
atom 10.3756836732077034 2.4255655810849324 60.8187967433619860 S
atom 5.3347699547878724 7.4664792994095430 60.8187967433585257 S
atom 9.5673152264761008 7.4319710243088446 60.1767536943144989 S
atom 2.4657233588844414 5.3703763621274874 55.8110062136410505 S
atom 7.4721348284910460 4.5599220619841283 55.1731513458795533 S
atom 2.4312211100292078 9.6008357804014128 55.1731513458751337 S
atom 7.4324012140460365 10.3370542172542628 55.8110062136413916 S
atom 2.4642667539173577 5.3698362705427991 60.1767536943159485 S
atom 7.4706721978806829 4.5614678237988020 60.8187967433562804 S
atom 2.4297584794753853 9.6023815422090788 60.8187967433623982 S
atom 7.4309446090242650 10.3365141256751407 60.1767536943116639 S
atom 2.6662549011432342 2.1965091673724637 63.0013554885151521 Ba
atom 7.7739644745367684 2.2633050223061959 63.0013554885138873 Ba
atom 2.7330507561174890 7.3042187407394676 63.0013554885188896 Ba
atom 7.6329327562645020 7.1631870225068157 63.0013554885167011 Ba
atom 2.3022600201810635 2.7675617922354201 68.0084281193777116 Ba
atom 7.2029118496258571 2.6272999033217572 68.0084281193797722 Ba
atom 2.1619981311899799 7.6682136217364061 68.0084281193773279 Ba
atom 7.2689378753212832 7.7342396473518207 68.0084281193783511 Ba
atom 4.9673714106374787 4.9666565610884499 65.5081526768904041 Zr
atom 9.9704949359239077 4.9288663679693423 65.5081526769261302 Zr
atom 4.9295812174941975 9.9697800863820216 65.5081526768697131 Zr
atom 9.9340492657727655 9.9333344161961659 65.5081526768912425 Zr
atom 4.9694482945366136 4.9613474062662775 70.5228466497116813 Zr
atom 9.9758040907555170 4.9267894842778421 70.5228466509177423 Zr
atom 4.9348903723408037 9.9677032026908989 70.5228466509093437 Zr
atom 9.9361261496546387 9.9280252613826736 70.5228466496969872 Zr
atom 4.6358589788525428 4.6987689687069976 63.0013554884100557 S
atom 10.2383825282860492 5.2603787997016749 63.0013554885469986 S
atom 5.1974688098668897 10.3012925181281769 63.0013554885938731 S
atom 9.6025368339712394 9.6654468238268976 63.0013554884742746 S
atom 5.2987491933394715 5.2317277260944319 68.0110337309963171 S
atom 9.7054237709093449 4.5974885852399447 68.0110337303005679 S
atom 4.6645100524921261 9.6384023036662310 68.0110337303676431 S
atom 10.2654270484661936 10.1984055812183563 68.0110337309495918 S
atom 4.6006373713554547 2.4652931690950304 65.8259572827103767 S
atom 10.3756836732026319 2.4255655811652539 65.1839142336625770 S
atom 5.3347699547839893 7.4664792995904268 65.1839142336615538 S
atom 9.5673152264753778 7.4319710242254979 65.8259572827086856 S
atom 4.6000972797592237 2.4638365649968024 70.1917047634041609 S
atom 10.3772294350555541 2.4241029496253144 70.8295596311665463 S
atom 5.3363157166222273 7.4650166680687837 70.8295596311578777 S
atom 9.5667751348730476 7.4305144201415407 70.1917047634005371 S
atom 2.4642667537710090 5.3698362705487419 65.8259572827113431 S
atom 7.4706721980199626 4.5614678237861304 65.1839142336620654 S
atom 2.4297584795942546 9.6023815422109653 65.1839142336625628 S
atom 7.4309446088962421 10.3365141256745563 65.8259572827099362 S
atom 2.4657233591271357 5.3703763621246123 70.1917047633988744 S
atom 7.4721348282139575 4.5599220619857181 70.8295596311690332 S
atom 2.4312211098955525 9.6008357804070368 70.8295596311666742 S
atom 7.4324012141477329 10.3370542172487028 70.1917047633985334 S
atom 2.6674502491494629 2.1978947705580483 73.0128339059451434 Ba
atom 7.7725788711562380 2.2621096744726508 73.0128339059295257 Ba
atom 2.7316651527233544 7.3030233928814230 73.0128339059327374 Ba
atom 7.6341281042878304 7.1645726256696101 73.0128339059464508 Ba
atom 2.2966503062748371 2.7512171184894214 77.9926997397873549 Ba
atom 7.2192565232717536 2.6329096172997462 77.9926997397991641 Ba
atom 2.1783428048396747 7.6738233357149443 77.9926997398035979 Ba
atom 7.2633281614085847 7.7178949736061249 77.9926997397949435 Ba
atom 4.9626170778506307 4.9749201853866953 75.5405217430503342 Zr
atom 9.9622313117411547 4.9336207009854363 75.5405217406953966 Zr
atom 4.9213175933218638 9.9745344193895367 75.5405217407128760 Zr
atom 9.9292949329723079 9.9415980404936821 75.5405217430578233 Zr
atom 4.9783636915879201 4.9645972105728333 80.5980542097018855 Zr
atom 9.9725542864395038 4.9178740859486316 80.5980542094376915 Zr
atom 4.9316405680291222 9.9587878043113474 80.5980542094576009 Zr
atom 9.9450415466921456 9.9312750656314943 80.5980542096992423 Zr
atom 4.6405809527989703 4.7029191893357201 73.0211107697898569 S
atom 10.2342323077292328 5.2556568259139009 73.0211107687087235 S
atom 5.1933185893038161 10.2965705443298390 73.0211107686799181 S
atom 9.6072588079178605 9.6695970444616446 73.0211107698541610 S
atom 5.2625334337772953 5.2140510574644452 78.0347899175514499 S
atom 9.7231004394983938 4.6337043448544133 78.0347899231125979 S
atom 4.6821867210790939 9.6746180632860099 78.0347899231038298 S
atom 10.2292112889020892 10.1807289125927198 78.0347899174946917 S
atom 4.5961342473984548 2.4677518510993415 75.8281565571940064 S
atom 10.3858154211441178 2.4277036717259635 75.2113180210911736 S
atom 5.3449017027177845 7.4686173901987436 75.2113180210926942 S
atom 9.5628121025200929 7.4344297062761129 75.8281565571903400 S
atom 4.6586984849968003 2.4710060447977824 80.2436632368529814 S
atom 10.2934743074102037 2.4311916163699698 80.7520914050567455 S
atom 5.2525605889792590 7.4721053347773534 80.7520914050513170 S
atom 9.6253763401198800 7.4376838999154087 80.2436632368557667 S
atom 2.4618080751156555 5.3743393944028641 75.8281565571710701 S
atom 7.4685341040721438 4.5513360759638806 75.2113180210913157 S
atom 2.4276203856644969 9.5922497943924387 75.2113180210933052 S
atom 7.4284859302252766 10.3410172495242207 75.8281565571679295 S
atom 2.4585538706466741 5.3117751568413114 80.2436632369121554 S
atom 7.4650461720670238 4.6436771891067101 80.7520914050946033 S
atom 2.4241324537249711 9.6845909075331154 80.7520914050971896 S
atom 7.4252317257062286 10.2784530119752731 80.2436632369129512 S
atom 2.6668381985725071 2.3815667734340691 82.7860824870347471 Ba
atom 7.5889068686550232 2.2627217247852314 82.7860824870163299 Ba
atom 2.5479931502309694 7.3036354432094948 82.7860824870111145 Ba
atom 7.6335160537009985 7.3482446285599154 82.7860824870245295 Ba
atom 4.7584686967291869 4.8415908144456710 83.1055238439476085 S
atom 10.0955606822402206 5.1377690815079493 83.1055238409377779 S
atom 5.0546469638142888 10.1786827999345135 83.1055238409088446 S
atom 9.7251465518492708 9.8082686695741668 83.1055238439768118 S
