#=======================================================
# FHI-aims file: full_relax/full_relax_RP_1_RxRyRz_-Rx-Ry-Rz.in
# Created using the Atomic Simulation Environment (ASE)
# Fri Mar 14 11:17:17 2025
#=======================================================
lattice_vector 10.0858340682464629 0.2044642146131359 0.0009255820615919 
lattice_vector 0.2044642146131642 10.0858340682477383 -0.0009255820609670 
lattice_vector -0.0014275557591690 0.0014275557602309 15.5513170566255550 
atom -0.1072347937147098 -0.1071950540124143 0.2366436970773644 Ba
atom 5.1501120878774387 0.2094669003055360 0.2371064878934628 Ba
atom 0.2094271608091609 5.1501518275311975 0.2361809056030309 Ba
atom 5.0379143485474680 5.0379540879847280 0.2366436965734391 Ba
atom 0.1067886820036187 0.1076411647177640 4.6231428845744515 Ba
atom 4.9352758690647667 -0.0045565751093930 4.6236056749346339 Ba
atom -0.0054090577130958 4.9361283519833519 4.6226800934343704 Ba
atom 5.2519378235715264 5.2527903062610033 4.6231428834177883 Ba
atom 2.5723515151507024 2.5727976262696841 2.4298932903024504 Zr
atom 7.6152685494668919 2.6750297335518609 2.4303560809643154 Zr
atom 2.6745836224900437 7.6157146605416166 2.4294304991579687 Zr
atom 7.7175006567972044 7.7179467677092948 2.4298932902288208 Zr
atom 2.7865578832873767 2.7865318269004100 -0.1074765677505288 S
atom 7.4015343486702330 2.4608233654264478 -0.1070137772066854 S
atom 2.4608494215995513 7.4015082918116999 -0.1079393594014661 S
atom 7.9317070251411748 7.9316809686308982 -0.1074765688828947 S
atom 2.3581451469214105 2.3590634253999045 4.9672631485024779 S
atom 7.8290027499158468 2.8892361017915347 4.9677259395355984 S
atom 2.8883178234323710 7.8299210290630654 4.9668003580834581 S
atom 7.5032942882143825 7.5042125671900886 4.9672631484933669 S
atom 2.5212539655728539 0.0513196127543137 2.2211766612931529 S
atom 7.5641339916709001 0.1535907128307134 2.6395355009038495 S
atom 2.6234490647927373 5.0942756400986875 2.6386099182535987 S
atom 7.6664031071654488 5.1964687544801409 2.2211766610809849 S
atom 0.0509124941293204 2.5216630685000259 2.2207138699575779 S
atom 5.0937905357114239 2.6239321839121801 2.6390727097548528 S
atom 0.1531056086906632 7.5646171110002882 2.6381471274872315 S
atom 5.1960616357280802 7.6668122102646148 2.2207138702303681 S
atom 2.6790558458937608 2.6805231415658346 8.0123022251139062 Ba
atom 7.5075430338700251 2.5683254020134378 8.0127650157752388 Ba
atom 2.5668581065337941 7.5090103293078965 8.0118394336918985 Ba
atom 7.8242049881765539 7.8256722833168926 8.0123022248566897 Ba
atom 2.4642196273549959 2.4664996661898346 12.3988014116605392 Ba
atom 7.7215665091674222 2.7831616207825984 12.3992642035708851 Ba
atom 2.7808815822544650 7.7238465478406875 12.3983386209893034 Ba
atom 7.6093687697023586 7.6116488080039755 12.3988014124558852 Ba
atom 5.1442123082264866 5.1460859749846417 10.2055518190372894 Zr
atom 10.1871293425622031 5.2483180823271107 10.2060146089871253 Zr
atom 5.2464444154368897 10.1890030092733941 10.2050890268452417 Zr
atom 10.2893614496882613 10.2912351163653799 10.2055518180019007 Zr
atom 4.9304781074689714 4.9318796068661674 7.6681819600052652 S
atom 10.4013357103773618 5.4620522826742901 7.6686447513087650 S
atom 5.4606507835576892 10.4027372097417210 7.6677191690653910 S
atom 10.0756272488153620 10.0770287483956231 7.6681819591063602 S
atom 5.3579465082497890 5.3602923429170932 12.7429216766302744 S
atom 9.9729229738733469 5.0345838816616695 12.7433844673226506 S
atom 5.0322380466535064 9.9752688082195800 12.7424588856534058 S
atom 10.5030956506672535 10.5054414849668767 12.7429216756255563 S
atom 5.0930777502731015 2.6246469540715043 10.4147312381614583 S
atom 10.1360317929669712 2.7268400682026392 9.9972979807503179 S
atom 5.1953468654740638 7.6675249953986091 9.9963723984399184 S
atom 10.2382268919265655 7.7697960954720697 10.4147312387544062 S
atom 2.6227342941021541 5.0949884249679691 10.4142684471511302 S
atom 7.6656903212653198 5.1971835246725622 9.9968351894118630 S
atom 2.7250053942573191 10.1378684513125155 9.9959096081168610 S
atom 7.7678834355833386 10.2401375671753581 10.4142684472710112 S
