#=======================================================
# FHI-aims file: full_relax/full_relax_RP_7_Rx0Rz_0RyRz.in
# Created using the Atomic Simulation Environment (ASE)
# Mon Mar 24 15:40:03 2025
#=======================================================
lattice_vector 9.9895167508696652 -0.0000700675802282 0.0140586645955424 
lattice_vector -0.0000700675802282 9.9895167508695906 -0.0140586645955441 
lattice_vector 0.1072510917991716 -0.1072510917991905 76.2414866280325327 
atom -0.1795784418056434 -0.0488673652247982 0.2454885817559620 Ba
atom 5.0552248629949297 -0.0489534043934023 0.2511628551437371 Ba
atom 0.0604314537607246 4.9458400048320978 0.2371041905499466 Ba
atom 4.8151448998264117 4.9458559764204812 0.2454885817558141 Ba
atom -0.1108122204399787 -0.0423021651667230 4.9455622860912625 Ba
atom 4.8383367293643493 -0.0422924120125021 4.9244611864570693 Ba
atom -0.1564566798835603 4.9525009972121010 4.9104025218642740 Ba
atom 4.8839111211622726 4.9524211764777624 4.9455622861293476 Ba
atom 2.4331452282827088 2.4494124423056958 2.3241594051931216 Zr
atom 7.4279024052103786 2.4533942591722400 2.3318934064340380 Zr
atom 2.4331089959867391 7.4481876683957253 2.3178347418388534 Zr
atom 7.4278685699261384 7.4441357839491262 2.3241594051915251 Zr
atom 2.4569988175662925 2.4409710689588580 7.4073094396591257 Zr
atom 7.4517771941256479 2.4760459974912528 7.4146155764596990 Zr
atom 2.4569837848976155 7.4708394067134023 7.4005569118690131 Zr
atom 7.4517221592140777 7.4356944106008473 7.4073094396549299 Zr
atom 2.4408491951843945 2.7475269426720601 -0.1721782325385585 S
atom 7.4357165980442250 2.1483587033584781 -0.1635759461754374 S
atom 2.4409231887920875 7.1431521125871562 -0.1776346107711189 S
atom 7.4355725368562808 7.7422502843204830 -0.1721782325395294 S
atom 2.4520560965192679 2.1385333048805863 4.9034744754206967 S
atom 7.4467304617384267 2.7715262400403033 4.9097608728746147 S
atom 2.4519370525657558 7.7663196492557436 4.8957022082803583 S
atom 7.4467794381117152 7.1332566465159610 4.9034744754203254 S
atom 2.4349715549748763 -0.0462598026143847 2.1073697895430876 S
atom 7.4185216108968035 -0.0454426817643217 2.7579913531262203 S
atom 2.4237282016705501 4.9493507274605566 2.7439326885269364 S
atom 7.4296948966208634 4.9484635390303300 2.1073697895332697 S
atom 2.9462934029447325 -0.0384759180381253 7.6736372035761962 S
atom 7.0381970859329899 -0.0391942738335325 7.1840629142041577 S
atom 2.0434036767065851 4.9555991353910160 7.1700042495998373 S
atom 7.9410167445986284 4.9562474236064045 7.6736372035662717 S
atom -0.0622944239855180 2.4518127729653534 2.4361522070728405 S
atom 4.9324121268300578 2.4513618196253457 2.4431040854681156 S
atom -0.0623812823947604 7.4461552288506860 2.4290454209132526 S
atom 4.9324289176590161 7.4465361146103621 2.4361522070329351 S
atom -0.0316672376774072 2.0007092295977227 7.4257690746507343 S
atom 4.9631104240705088 2.9163807941840485 7.4315736207502701 S
atom -0.0316829851541064 7.9111742034124592 7.4175149560989651 S
atom 4.9630561039668919 6.9954325712462131 7.4257690747062153 S
atom -0.0552166656119242 -0.0352685929337150 9.9506344518793277 Ba
atom 5.0899772507228214 -0.0352972083255355 9.9749484874502752 Ba
atom 0.0951838414544894 4.9594962008994274 9.9608898228934262 Ba
atom 4.9395066760059221 4.9594547487106970 9.9506344519104974 Ba
atom 0.0953316732488511 -0.0281950857554098 15.0230107616961739 Ba
atom 4.9528817739104927 -0.0281274390733065 15.0264581209304104 Ba
atom -0.0419116353410696 4.9666659701518938 15.0123994563642658 Ba
atom 5.0900550148664632 4.9665282558896466 15.0230107617283650 Ba
atom 2.5103571112088545 2.4692780163663222 12.4771987509869930 Zr
atom 7.5051413788095189 2.4619818903279787 12.4843745466069063 Zr
atom 2.5103479695852342 7.4567752995530965 12.4703158820119047 Zr
atom 7.5050804528528969 7.4640013580111972 12.4771987509876237 Zr
atom 2.5220576459064352 2.4726656957352184 17.5556054735766267 Zr
atom 7.5168160213410529 2.4726306619450535 17.5626348058740902 Zr
atom 2.5220226121163418 7.4674240711699262 17.5485761412787262 Zr
atom 7.5167809875509404 7.4673890373799185 17.5556054735763674 Zr
atom 2.4805558888648389 2.6810706955050088 9.9515070961472567 S
atom 7.4754044078167938 2.2430854654683925 9.9592247874536692 S
atom 2.4806109985297637 7.2378788746857809 9.9451661228605346 S
atom 7.4752792305717168 7.6757940371421567 9.9515070961457610 S
atom 2.5100390174918488 2.3053304078795871 15.0198864517308976 S
atom 7.5048206986093779 2.6329463284473569 15.0264900118981561 S
atom 2.5100272894455777 7.6277397376742959 15.0124313473011242 S
atom 7.5047623590754755 7.3000537495262581 15.0198864517319652 S
atom 2.0339707561201252 -0.0319446973098481 12.3374097703360466 S
atom 7.9918010617207029 -0.0315341149098878 12.6542136203023201 S
atom 2.9970076524989557 4.9632592943154483 12.6401549557074091 S
atom 7.0286940977667154 4.9627786443352404 12.3374097703370964 S
atom 3.0114720137420501 -0.0245300719399281 17.6905695674281986 S
atom 7.0274366872943066 -0.0249319458144871 17.4347000443226072 S
atom 2.0326432780707462 4.9698614634102878 17.4206413797237971 S
atom 8.0061953553877583 4.9701932697045876 17.6905695674252961 S
atom 0.0081559425710805 2.9517641843167515 12.4864244001948137 S
atom 5.0029184936521949 1.9796279107381187 12.4947842259173498 S
atom 0.0081250844270968 6.9744213199651073 12.4807255613815897 S
atom 5.0028792842159220 7.9464875259632670 12.4864244001347267 S
atom 0.0246730438724481 1.9796618054210406 17.5528379484509394 S
atom 5.0194422479401108 2.9656695860494855 17.5583729987010635 S
atom 0.0246488387153736 7.9604629952742574 17.5443143340481811 S
atom 5.0193963855170072 6.9743851470655267 17.5528379485084542 S
atom -0.0459397230537561 -0.0211968644192618 20.0882001854242915 Ba
atom 5.0860269271534726 -0.0213345786815304 20.0988114907889397 Ba
atom 0.0912335179027265 4.9734588305436747 20.0847528262217985 Ba
atom 4.9487836185640139 4.9735264772257608 20.0882001854563796 Ba
atom 0.1046086158059362 -0.0141233572402967 25.1605764952431450 Ba
atom 4.9489314503568247 -0.0141648094288269 25.1503211242602092 Ba
atom -0.0458619589095503 4.9806285997956925 25.1362624597020137 Ba
atom 5.0993319574250613 4.9805999844039537 25.1605764952727391 Ba
atom 2.5337581806035958 2.4760533751038807 22.6340121961658269 Zr
atom 7.5284906638728044 2.4832794335621107 22.6408950651414038 Zr
atom 2.5336972546470138 7.4780728427870002 22.6268364005447928 Zr
atom 7.5284815222491783 7.4707767167486878 22.6340121961647185 Zr
atom 2.5871164742458808 2.5043603225112032 27.7039015074940060 Zr
atom 7.5818548485565183 2.4692153263987970 27.7106540352894193 Zr
atom 2.5870614393343887 7.4640087356265399 27.6965953706897317 Zr
atom 7.5818398158877569 7.4990836641587961 27.7039015074982196 Zr
atom 2.5340762743211838 2.6400009835903617 20.0913244954226222 S
atom 7.5288113440722482 2.3123149954428488 20.0987795998506087 S
atom 2.5340179347872791 7.3071084046660308 20.0847209352565557 S
atom 7.5287996160259576 7.6347243252333712 20.0913244954212580 S
atom 2.5635594029462010 2.2642606959660023 25.1597038510053608 S
atom 7.5582276348666237 2.7021758584212319 25.1660448242946977 S
atom 2.5634342257011444 7.6969692676533707 25.1519861596975538 S
atom 7.5582827445314571 7.2589840376180570 25.1597038510069986 S
atom 2.0471076393134009 -0.0179279028449429 22.4710559914455210 S
atom 8.0049379449159144 -0.0175173204450308 22.7878598414106186 S
atom 3.0101445356925729 4.9772760887800587 22.7738011768162458 S
atom 7.0418309809614374 4.9767954387999778 22.4710559914460326 S
atom 3.0007116151060287 -0.0102677439214370 27.9412066975525697 S
atom 7.0926152980829711 -0.0109860997164695 27.4516324081828280 S
atom 2.0978218888668061 4.9838073095091397 27.4375737435776870 S
atom 7.9954349567494214 4.9844555977237643 27.9412066975441533 S
atom 0.0411967981603832 2.9657034807325262 22.6164267212342551 S
atom 5.0359593492414163 1.9935672071536343 22.6247865469586635 S
atom 0.0411659400163355 6.9883606163763918 22.6107278824213935 S
atom 5.0359201398053042 7.9604268223748482 22.6164267211764454 S
atom 0.0810048677416785 2.0289505972858231 27.6796373264042153 S
atom 5.0757825294897518 2.9446221618731281 27.6854418725009772 S
atom 0.0809891202656547 7.9394155710940213 27.6713832078527453 S
atom 5.0757282093855896 7.0236739389269234 27.6796373264571578 S
atom 0.1602041706486722 -0.0070897850074196 30.1656486610249672 Ba
atom 5.2005719716951511 -0.0071696057417711 30.2008084252894768 Ba
atom 0.2057785624486023 4.9876238034827756 30.1867497606964292 Ba
atom 5.1549275122533107 4.9876335566369301 30.1656486610614003 Ba
atom 0.2289703919849461 -0.0005245849500991 34.8657223653967350 Ba
atom 4.9836838380515891 -0.0005086133617250 34.8741067566021954 Ba
atom -0.0111095711822147 4.9942847958632459 34.8600480920090234 Ba
atom 5.2236937336178402 4.9941987566947059 34.8657223653957615 Ba
atom 2.6109700635294821 2.4959189491645066 32.7870515419608282 Zr
atom 7.6057296374713106 2.4918670647174315 32.7933762053152265 Zr
atom 2.6109362282451065 7.4866604739440135 32.7793175407191839 Zr
atom 7.6056934051755265 7.4906422908107535 32.7870515419623345 Zr
atom 2.5920591952944818 2.8067980865893318 30.2077364717318737 S
atom 7.5869015809418032 2.1737350838506808 30.2155087388732682 S
atom 2.5921081716677352 7.1685284930843567 30.2014500742760603 S
atom 7.5867825369883946 7.8015214282426975 30.2077364717326091 S
atom 2.6032660966268923 2.1978044487982689 35.2833891796912269 S
atom 7.5979154446384616 2.7969026205309229 35.2888455579237004 S
atom 2.6031220354389446 7.7916960297524689 35.2747868933283115 S
atom 7.5979894382461595 7.1925277904395575 35.2833891796924846 S
atom 2.6203870901413433 -0.0040193359896880 32.3672782586274437 S
atom 7.6039371460609946 -0.0032022151414436 33.0178998222160942 S
atom 2.6091437368375225 4.9915911940837772 33.0038411576117312 S
atom 7.6151104317848644 4.9907040056551493 32.3672782586239904 S
atom 0.1117031649828140 2.4939695718449970 32.6681068616850396 S
atom 5.1064097157970627 2.4935186185046856 32.6750587400827328 S
atom 0.1116163065716926 7.4883120277292532 32.6610000755247754 S
atom 5.1064265066279511 7.4886929134891975 32.6681068616469545 S
atom 2.5998545819436294 2.6233145667301474 38.3662318957741277 Ba
atom 7.5946639627553392 2.3832346035743481 38.3719061691621874 Ba
atom 2.5998705535319733 7.3780280127984872 38.3578475045665215 Ba
atom 7.5945779235867095 7.6180379083759533 38.3662318957732964 Ba
atom 2.5932893818854952 2.5545483453781301 43.0663056001257658 Ba
atom 7.5880029703753404 2.6001227372119979 43.0452045004759896 Ba
atom 2.5932095611508728 7.5949161464343327 43.0311458358803591 Ba
atom 7.5880127235293573 7.5492716870268550 43.0663056001300433 Ba
atom 5.0962981160576497 5.0053142382821072 40.4449027192095016 Zr
atom 10.0870396408354015 5.0052804029978848 40.4526367204517996 Zr
atom 5.0922462316110177 10.0000738122218298 40.4385780558562544 Zr
atom 10.0910214577023396 10.0000375799259427 40.4449027192094448 Zr
atom 5.1047394894058211 4.9814606489957569 45.5280527536724620 Zr
atom 10.0643879025178631 4.9814056140840623 45.5353588904810067 Zr
atom 5.0695944932935015 9.9761990233094746 45.5213002258872024 Zr
atom 10.0994628310499888 9.9761839906408820 45.5280527536742454 Zr
atom 4.7981836156883428 4.9976102713645885 37.9485650814779873 S
atom 10.3920751966473457 4.9974662101765492 37.9571673678438941 S
atom 5.3972817874213268 9.9922596194039599 37.9431087032494858 S
atom 9.7929069573342726 9.9923336130116844 37.9485650814766657 S
atom 5.4071772534872542 4.9864033700730204 43.0242177894421047 S
atom 9.7689076599721947 4.9864523464465469 43.0305041868907878 S
atom 4.7741142507484948 9.9812457556662117 43.0164455222935942 S
atom 10.4019005951308170 9.9811267117125801 43.0242177894402786 S
atom 5.0943487387376143 2.5060473397242036 40.5638473995069759 S
atom 10.0886911946219087 2.5059604813303644 40.5709541856663947 S
atom 5.0938977853969547 7.5007538905587667 40.5568955210672044 S
atom 10.0890720803823193 7.5007706813722610 40.5638473995022864 S
atom 4.6293297641761662 2.4753490424949036 45.5523169347364743 S
atom 10.5397947379891477 2.4753332950166307 45.5605710532878447 S
atom 5.5450013287635720 7.4701267042396129 45.5465123886991350 S
atom 9.6240531058216963 7.4700723841376879 45.5523169347423291 S
atom 2.5963598308956852 5.0147312648921289 40.8646760025449964 S
atom 7.5919703609848543 5.0034879115882021 40.2281131035535040 S
atom 2.5971769517594070 9.9982813208135006 40.2140544389601899 S
atom 7.5910831725411150 10.0094546065369823 40.8646760025442788 S
atom 2.5901114229721411 5.3950557898567331 45.2907475636222614 S
atom 7.5841864764006157 4.4921660636135758 45.7943805175870295 S
atom 2.5893930671750867 9.4869594728394304 45.7803218529924649 S
atom 7.5848347646173888 10.3897791315016974 45.2907475636213164 S
atom 2.5862558096520738 2.4989527905428686 48.0713777659111514 Ba
atom 7.5810077666883222 2.3484822158649843 48.0956918014900978 Ba
atom 2.5862143574637262 7.3432756250846900 48.0816331368893231 Ba
atom 7.5809791512968054 7.4936761321909664 48.0713777659145478 Ba
atom 2.5791823024732992 2.3484044516818572 53.1437540757267683 Ba
atom 7.5738379974364785 2.4855776926690756 53.1472014349646855 Ba
atom 2.5790445882109614 7.4803711018900740 53.1331427703651897 Ba
atom 7.5739056441184829 7.3431277933314609 53.1437540757328009 Ba
atom 5.0764325419967280 4.9281023553554570 50.5979420650041760 Zr
atom 10.0784520096795145 4.9280414293988537 50.6051178606247873 Zr
atom 5.0836586004547994 9.9228348386238494 50.5910591960273237 Zr
atom 10.0711558836413584 9.9228256970002597 50.5979420650047516 Zr
atom 5.0730448626279312 4.9164018206574047 55.6763487875943426 Zr
atom 10.0678032380624725 4.9163667868672931 55.6833781198914366 Zr
atom 5.0730098288376881 9.9111601960928333 55.6693194552956783 Zr
atom 10.0677682042725234 9.9111251623027723 55.6763487875941792 Zr
atom 4.8646398628629637 4.9579035776640854 48.0722504101632424 S
atom 10.2973484345418118 4.9577784004190733 48.0799681014730709 S
atom 5.3025550253180045 9.9525718096514773 48.0659094368790463 S
atom 9.8593632045066499 9.9526269193165433 48.0722504101645569 S
atom 5.2403801504822543 4.9284204491076276 53.1406297657503686 S
atom 9.9074875715593880 4.9283621095737944 53.1472333259145486 S
atom 4.9126941623349829 9.9231555187884997 53.1331746613197851 S
atom 10.2351034921266351 9.9231437907422961 53.1406297657498996 S
atom 5.5660826476235581 2.4355409729116455 50.6155275399698326 S
atom 9.5887397832704764 2.4355101147683564 50.6212263787825663 S
atom 4.5939463740446724 7.4303035239928690 50.6071677141789493 S
atom 10.5608059892692818 7.4302643145560863 50.6155275399611853 S
atom 4.5800409723134941 2.4190172186237877 55.6791163126856219 S
atom 10.5608421621673738 2.4189930134658182 55.6876399270884050 S
atom 5.5660487529415139 7.4137864226914711 55.6735812625039017 S
atom 9.5747643139585161 7.4137405602692406 55.6791163126968200 S
atom 2.5824512640474664 4.4414518140667925 50.7608982697251179 S
atom 7.5776552556729238 5.4044887104432791 50.4581530843550965 S
atom 2.5828618464479685 10.3992821196681291 50.4440944197595229 S
atom 7.5771746056922025 9.4361751557105702 50.7608982697248052 S
atom 2.5758490949536661 5.4058161884936879 55.5413846937443765 S
atom 7.5702406303019298 4.4269874528210362 55.8113128814450405 S
atom 2.5754472210783206 9.4217808620468304 55.7972542168503765 S
atom 7.5705724365970433 10.4005395301386478 55.5413846937439715 S
atom 2.5721840811371823 2.4896758479840964 58.2089434994550956 Ba
atom 7.5670451370446168 2.3524325394267924 58.2195548048246110 Ba
atom 2.5722517278193022 7.3472259486454865 58.2054961402218254 Ba
atom 7.5669074227823794 7.4843991896341269 58.2089434994612418 Ba
atom 2.5651105739590059 2.3391275091226706 63.2813198092714018 Ba
atom 7.5598753677918324 2.4895280162332365 63.2710644383008614 Ba
atom 2.5650819585671951 7.4843214254469643 63.2570057736964273 Ba
atom 7.5598339156034191 7.3338508507742901 63.2813198092798359 Ba
atom 5.0696571832591895 4.9047012859599626 60.7547555101843244 Zr
atom 10.0571544664455974 4.9046921443363072 60.7616383791585122 Zr
atom 5.0623610572209330 9.8994855535611954 60.7475797145639334 Zr
atom 10.0643805249034930 9.8994246276045139 60.7547555101832444 Zr
atom 5.0413502358500493 4.8513429923198066 65.8246448215129476 Zr
atom 10.0712185736078847 4.8513279596511190 65.8313973493048366 Zr
atom 5.0764251643824414 9.8461213688748934 65.8173386847084885 Zr
atom 10.0360735774952428 9.8460663339633445 65.8246448215119955 Zr
atom 4.9057095747736277 4.9043831922061187 58.2120678094374995 S
atom 10.2281189045655871 4.9043714641598228 58.2195229138678556 S
atom 5.2333254953414476 9.8991648733978810 58.2054642492717278 S
atom 9.9004329164174294 9.8991065338640301 58.2120678094384232 S
atom 5.2814498623932922 4.8749000636550504 63.2804471650240430 S
atom 9.8382580415830496 4.8749551733200818 63.2867881383118416 S
atom 4.8434646323562323 9.8697485825292421 63.2727294737152590 S
atom 10.2761732040396385 9.8696234052840772 63.2804471650225366 S
atom 5.5521433512102103 2.4025001173220728 60.7455298610132672 S
atom 9.5748004868568746 2.4024692591780439 60.7512286998261928 S
atom 4.5800070776317936 7.3972626684038074 60.7371700352162307 S
atom 10.5468666928548771 7.3972234589676216 60.7455298609990493 S
atom 4.6010883964925640 2.3626769370734046 65.8061851864843987 S
atom 10.5115533703030408 2.3626611895978162 65.8144393050361458 S
atom 5.5167599610789662 7.3574545988225299 65.8003806404555291 S
atom 9.5958117381368044 7.3574002787179298 65.8061851864990217 S
atom 2.5684344695827921 4.4283149308726628 60.8945444908342850 S
atom 7.5636384612080940 5.3913518272484628 60.5917993054638018 S
atom 2.5688450519826449 10.3861452364737392 60.5777406408679440 S
atom 7.5631578112279030 9.4230382725166439 60.8945444908342139 S
atom 2.5619032488538958 5.3406375777017274 65.5583170576003766 S
atom 7.5559783022844131 4.4377478514589264 66.0619500115647611 S
atom 2.5611848930593779 9.4325412606836370 66.0478913469721505 S
atom 7.5566265904988619 10.3353609193441738 65.5583170575977050 S
atom 2.5580770017260419 2.2835319542843306 68.2863919750555652 Ba
atom 7.5528801641048204 2.2378874948825529 68.3215517393086316 Ba
atom 2.5580867548800437 7.2326809041009348 68.3074930747118003 Ba
atom 7.5528003433704942 7.2782552959404931 68.2863919750656692 Ba
atom 2.5515118016673495 2.2147657329376402 72.9864656794135840 Ba
atom 7.5462191717256228 2.4547756285185369 72.9948500706216805 Ba
atom 2.5514257624987104 7.4495690377405026 72.9807914060253466 Ba
atom 7.5462351433140489 7.2094890745861191 72.9864656794141951 Ba
atom 5.0497916091979391 4.8274894030332822 70.9077948559783948 Zr
atom 10.0485668352890603 4.8274531707376980 70.9141195193326865 Zr
atom 5.0537734260644616 9.8222465799628935 70.9000608547357132 Zr
atom 10.0445149508429097 9.8222127446781702 70.9077948559790343 Zr
atom 4.7389124717673408 4.8464002712374699 68.3284797857513126 S
atom 10.3666988161545692 4.8462812272839422 68.3362520528912114 S
atom 5.3719054069274410 9.8410746365231532 68.3221933882962134 S
atom 9.7336358134143417 9.8411236128964639 68.3284797857505168 S
atom 5.3479061095668623 4.8351933699535765 73.4041324937103639 S
atom 9.7435312794780202 4.8352673635611954 73.4095888719417786 S
atom 4.7487378702535317 9.8300607727780562 73.3955302073458427 S
atom 10.3426294512111241 9.8299167115901387 73.4041324937098096 S
atom 5.0521919398583899 2.3320497507669802 70.7958020541234276 S
atom 10.0465343957431799 2.3319628923561249 70.8029088402824271 S
atom 5.0517409865184399 7.3267563015804980 70.7888501756766431 S
atom 10.0469152815029314 7.3267730924112229 70.7958020541112489 S
atom 2.5541193642793534 4.8293157297272016 71.1245844716332698 S
atom 7.5497298943525042 4.8180723764228341 70.4880215726411450 S
atom 2.5549364851279948 9.8128657856474888 70.4739629080462890 S
atom 7.5488427059238754 9.8240390713716703 71.1245844716309392 S
