#=======================================================
# FHI-aims file: full_relax/full_relax_RP_1_RxRyMz_-Rx-Ry0.in
# Created using the Atomic Simulation Environment (ASE)
# Fri Mar 14 11:17:19 2025
#=======================================================
lattice_vector 10.0858336506709954 0.2044586592094930 -0.0002840026527986 
lattice_vector 0.2044586592094961 10.0858336506710096 0.0002840026485885 
lattice_vector 0.0004028692986375 -0.0004028693057695 15.5513175205732797 
atom -0.1072095573062766 -0.1072291903383179 0.2366460673878996 Ba
atom 5.1501460164060511 0.2094388854858795 0.2365040659395520 Ba
atom 0.2094585214134619 5.1501263818333651 0.2367880693149718 Ba
atom 5.0379365968740348 5.0379169649653326 0.2366460669456099 Ba
atom 0.1073354555392976 0.1071032962171581 4.6231406582447745 Ba
atom 4.9358135287356433 -0.0051061287346977 4.6229986585281413 Ba
atom -0.0048739662027726 4.9355813695640380 4.6232826613362716 Ba
atom 5.2524816103160976 5.2522494534925110 4.6231406608178123 Ba
atom 2.5726360157851831 2.5725101305931868 2.4298933660474713 Zr
atom 7.6155528730375286 2.6747394656681514 2.4297513652574412 Zr
atom 2.6748653610347155 7.6154269559311007 2.4300353710932949 Zr
atom 7.7177821778528166 7.7176562767793424 2.4298933688742244 Zr
atom 2.7865275451264893 2.7865653739620666 -0.1074760126671692 S
atom 7.4014976073165144 2.4608479423002572 -0.1076180129847090 S
atom 2.4608101106845144 7.4015354378966389 -0.1073340078819956 S
atom 7.9316736983644462 7.9317115282074218 -0.1074760078690734 S
atom 2.3587445126467399 2.3584548856569283 4.9672627349370266 S
atom 7.8296080947860807 2.8886309740898777 4.9671207294155160 S
atom 2.8889205994134204 7.8293184717972419 4.9674047276209095 S
atom 7.5038906653946862 7.5036010405592943 4.9672627264665952 S
atom 2.5215061195826705 0.0510586859958524 2.2208697901149344 S
atom 7.5644534317636518 0.1532740757339681 2.6386329312275878 S
atom 2.6237659374606492 5.0939615668927303 2.6389169333536784 S
atom 7.6666522729811870 5.1962048439625939 2.2208697902287753 S
atom 0.0511706273766385 2.5214107080280397 2.2210117918985279 S
atom 5.0941014009277774 2.6236095493929872 2.6387749331268817 S
atom 0.1534139083990070 7.5642970458812258 2.6390589345463082 S
atom 5.1963167965403194 7.6665568638862389 2.2210117915396328 S
atom 2.6799954745152212 2.6795871558336271 8.0123008520097834 Ba
atom 7.5084758320173997 2.5673800054291269 8.0121588515174587 Ba
atom 2.5677883377835098 7.5080675000273329 8.0124428628010769 Ba
atom 7.8251416279776667 7.8247333078553138 8.0123008609511484 Ba
atom 2.4656794419299550 2.4650302401338133 12.3988033914920752 Ba
atom 7.7230327447589726 2.7816960365646421 12.3986613899522062 Ba
atom 2.7823452508751991 7.7223835342304934 12.3989453840137767 Ba
atom 7.6108255952483059 7.6101763977474741 12.3988033823647914 Ba
atom 5.1454105215627477 5.1448818115831365 10.2055521128453837 Zr
atom 10.1883273851925313 5.2471111016343555 10.2054101129270496 Zr
atom 5.2476398756205640 10.1877985306790553 10.2056941215303834 Zr
atom 10.2905566668375954 10.2900279028256438 10.2055521197780656 Zr
atom 4.9313688139834229 4.9309810698475909 7.6681813051898198 S
atom 10.4022280536489955 5.4611528224579473 7.6680393001115439 S
atom 5.4615405567653195 10.4018403257895518 7.6683233068797421 S
atom 10.0765149672937504 10.0761272331025840 7.6681813069833638 S
atom 5.3594522662771311 5.3587824557738957 12.7429229499515326 S
atom 9.9744266688309953 5.0330693713375014 12.7427809507699319 S
atom 5.0337391709048696 9.9737568733863942 12.7430649398043787 S
atom 10.5045984186641785 10.5039286179939726 12.7429229461275284 S
atom 5.0943061603695234 2.6234165458944623 10.4144361567001997 S
atom 10.1372024098789844 2.7256595480526613 9.9963840897880871 S
atom 5.1965149147019272 7.6663470503183211 9.9966680957510299 S
atom 10.2394523153656305 7.7685627043455305 10.4144361540590573 S
atom 2.6239589537788541 5.0937568071167521 10.4145781555886110 S
atom 7.6668621127296328 5.1960067127057084 9.9965260911859541 S
atom 2.7261746289067550 10.1366942187724955 9.9968100940866904 S
atom 7.7691051343663462 10.2389029726390710 10.4145781549047189 S
