#=======================================================
# FHI-aims file: full_relax/full_relax_RP_6_RxRyRz_RxRy-Rz.in
# Created using the Atomic Simulation Environment (ASE)
# Fri Mar 14 11:47:12 2025
#=======================================================
lattice_vector 9.9739523678017097 0.0048563457009202 -0.0000000001733689 
lattice_vector 0.0048563457009277 9.9739523678289679 0.0000000000100379 
lattice_vector -0.0000000011339664 0.0000000000647270 66.3981606445477013 
atom 0.0489367600059474 -0.1083794687144890 0.2053124965653992 Ba
atom 5.0953557878992584 -0.0465086488308420 0.2053122152391041 Ba
atom 0.1108076301394555 4.9380393440843227 0.2053128171327760 Ba
atom 5.0383411617757021 4.8810247646244749 0.2053119466840660 Ba
atom -0.2604075444573862 0.2023614060266581 5.0049793519254537 Ba
atom 4.7846148350421771 0.2628358155283907 5.0049793656143304 Ba
atom -0.1999331076179461 5.2473836679688644 5.0049793246376026 Ba
atom 4.7289967907101573 5.1917656131395500 5.0049793402354954 Ba
atom 2.4676417240154929 2.5296971664276811 2.3866734977380824 Zr
atom 7.4466834227098921 2.5241905238638118 2.3866732052071020 Zr
atom 2.4621355638981117 7.5087385880204813 2.3866732471387193 Zr
atom 7.4570458365590131 7.5191016117586704 2.3866732055484503 Zr
atom 2.4150695231334081 2.5380205546725829 7.4687808652765328 Zr
atom 7.4383598685407284 2.5767629447177702 7.4687809610195508 Zr
atom 2.4538119036876593 7.5613110493590057 7.4687815859007918 Zr
atom 7.4044739718072314 7.5274250041585411 7.4687808863628824 Zr
atom 2.6287944259013671 2.7638085742481611 -0.1243617701759196 S
atom 7.2125719593662474 2.3630381228795234 -0.1243618716579604 S
atom 2.2280238950635303 7.3475861501816517 -0.1243617618742073 S
atom 7.6181988063742958 7.7532129243347390 -0.1243623360145533 S
atom 2.2356405825033727 2.2860507470931455 4.9607912505809217 S
atom 7.6903297149878656 2.7561919622157691 4.9607912233452156 S
atom 2.7057817419107333 7.7407399931889644 4.9607903149698878 S
atom 7.2250448650642776 7.2754551452096452 4.9607918664441897 S
atom 2.7283568830284270 0.0422761328019893 2.2444129135760744 S
atom 7.1266003601516408 0.0480450833837054 2.7372732404881805 S
atom 2.1420523765457467 5.0325932420333732 2.7372732195286424 S
atom 7.7177614169050610 5.0316805707319334 2.2444126686040686 S
atom 2.9227091860403762 0.0482833147323223 7.6922997241445037 S
atom 7.0003176691200810 0.0521365109322118 7.2859108343227819 S
atom 2.0157696763207826 5.0366844004509472 7.2859109806422389 S
atom 7.9121135399200835 5.0376877852163036 7.6922995769716893 S
atom -0.0398480549793043 2.2586192068625457 2.2444127266162401 S
atom 4.9437876188326104 2.8497800807737672 2.7372732315831572 S
atom -0.0407600926056608 7.8343281401121594 2.7372732974856921 S
atom 4.9495562403668494 7.2480237573993591 2.2444130139491012 S
atom -0.0458551123355253 2.0642669924321666 7.6922996944920561 S
atom 4.9396961276679265 2.9760628865669676 7.2859109057829219 S
atom -0.0448516508019632 7.9606108417703387 7.2859108993481430 S
atom 4.9435486340937507 7.0536713605208998 7.6922996078284900 S
atom -0.0050780444284789 -0.0778940740729901 10.0211324295960331 Ba
atom 5.0648701820329682 0.0075062268653196 10.0211324469782852 Ba
atom 0.0803223137318713 4.9920542861136168 10.0211324714122476 Ba
atom 4.9843262538082991 4.9115102874540870 10.0211324892664848 Ba
atom 0.0498251992632638 0.0498251388443077 15.0904916769926416 Ba
atom 4.9371510839800239 -0.0473971202102026 15.0904916761471277 Ba
atom -0.0473970582859311 4.9371509261083162 15.0904917012376512 Ba
atom 5.0392296901146612 5.0392295563857363 15.0904917018250551 Ba
atom 2.5017446544771933 2.4992213580003324 12.5468239392380205 Zr
atom 7.4771591228444665 2.4900878107665636 12.5468243608902128 Zr
atom 2.4926112193720376 7.4746359710131696 12.5468239458085602 Zr
atom 7.4911489721497908 7.4886257800483458 12.5468242948803539 Zr
atom 2.4992216022517892 2.5017446875549845 17.6341599361557932 Zr
atom 7.4746359124505775 2.4926109467305908 17.6341598479005661 Zr
atom 2.4900878410729246 7.4771589749239507 17.6341598007624576 Zr
atom 7.4886258386037676 7.4911490960068923 17.6341598184844202 Zr
atom 2.6003469441621752 2.6822892446791675 10.0149215881538964 S
atom 7.2940913252690720 2.3914855485310516 10.0149218946948722 S
atom 2.3095433490314532 7.3760335645949384 10.0149214845908254 S
atom 7.5897513828822136 7.6716935499576495 10.0149219200936095 S
atom 2.4059277388738520 2.4059276846529487 15.0904909989996412 S
atom 7.5704528870539312 2.5859048107728366 15.0904905967755951 S
atom 2.5859048438194723 7.5704528330232517 15.0904911894965093 S
atom 7.3953320711433577 7.3953320254276305 15.0904909839647932 S
atom 2.0143064491902813 0.0041813970523791 12.4708918616432669 S
atom 7.9901034738801568 0.0072907332189270 12.6391820162768695 S
atom 3.0055554986097897 4.9918385478729776 12.6391820860286597 S
atom 7.0037108256636040 4.9935856897468920 12.4708917586161174 S
atom 2.9726697483724109 -0.0017528827182842 17.7100892903963789 S
atom 6.9708248702022662 -0.0000064383324903 17.5417989388648543 S
atom 1.9862768697138926 4.9845418387557645 17.5417988866557373 S
atom 7.9620741575996501 4.9876515527814407 17.7100893680272300 S
atom -0.0017533802331632 2.9726697298411717 12.4708918223246314 S
atom 4.9845421857733552 1.9862770702068662 12.6391820791536240 S
atom -0.0000064139744790 6.9708250400825769 12.6391820288387109 S
atom 4.9876513127506295 7.9620740818811990 12.4708917944011706 S
atom 0.0041811260740714 2.0143064200961507 17.7100893393375962 S
atom 4.9918384456996527 3.0055556835610946 17.5417989136644650 S
atom 0.0072906289026625 7.9901036850309062 17.5417989121602993 S
atom 4.9935856968359689 7.0037107830147809 17.7100893175093894 S
atom -0.0778943619925150 -0.0050782344311594 20.1598493650485580 Ba
atom 4.9920544654102512 0.0803225042279653 20.1598493872087197 Ba
atom 0.0075063383355756 5.0648705072451339 20.1598493631546596 Ba
atom 4.9115100601462078 4.9843261397041898 20.1598493795951192 Ba
atom 0.2023616240608804 -0.2604074860806776 25.1760021928902624 Ba
atom 5.2473835049043061 -0.1999332452781882 25.1760021805292276 Ba
atom 0.2628358311748034 4.7846147131544150 25.1760021803224205 Ba
atom 5.1917656220758284 4.7289968450290036 25.1760021426360296 Ba
atom 2.5380207576117093 2.4150694239106980 22.7121989100885671 Zr
atom 7.5613110206159790 2.4538119056377607 22.7121984016305873 Zr
atom 2.5767632892025016 7.4383598895808483 22.7121991829455752 Zr
atom 7.5274249643863502 7.4044736245466085 22.7121981949811804 Zr
atom 2.5296966757646793 2.4676413304341009 27.7943096666765399 Zr
atom 7.5087391962132761 2.4621357887904263 27.7943096989904532 Zr
atom 2.5241914850148008 7.4466837875334511 27.7943097426989745 Zr
atom 7.5191010798032050 7.4570457077735099 27.7943100002763686 Zr
atom 2.6822891470396586 2.6003467854328486 20.1660616553303598 S
atom 7.3760337826822528 2.3095433719287843 20.1660616043226781 S
atom 2.3914857173648558 7.2940913892746915 20.1660615631896256 S
atom 7.6716934977394846 7.5897511447161801 20.1660614911986471 S
atom 2.2860507931669973 2.2356405000183526 25.2201898067469266 S
atom 7.7407400640391177 2.7057816646264783 25.2201899690297147 S
atom 2.7561920754442175 7.6903297061137019 25.2201887506028015 S
atom 7.2754553203543422 7.2250447892140937 25.2201899297440590 S
atom 2.0642671602315290 -0.0458548570905486 22.4886835557396196 S
atom 7.9606109717481681 -0.0448517897178600 22.8950721893473172 S
atom 2.9760629607035929 4.9396961435420943 22.8950721345896469 S
atom 7.0536715922546724 4.9435495602870558 22.4886836357140893 S
atom 2.2586192507865221 -0.0398477803133666 27.9365699272303516 S
atom 7.8343280934751558 -0.0407597142114392 27.4437094946267877 S
atom 2.8497801724296008 4.9437878798197312 27.4437096358044599 S
atom 7.2480237654960948 4.9495559928658883 27.9365696404663666 S
atom 0.0482831190644610 2.9227090030236025 22.4886835319117431 S
atom 5.0366843203744880 2.0157695704844949 22.8950721111859039 S
atom 0.0521361779226421 7.0003175824867849 22.8950722159288560 S
atom 5.0376874877003681 7.9121133458219939 22.4886836389235185 S
atom 0.0422760646149363 2.7283569393353440 27.9365697938733177 S
atom 5.0325928178978279 2.1420524179148650 27.4437095883300692 S
atom 0.0480436575584970 7.1266003765094954 27.4437095563546158 S
atom 5.0316808607694838 7.7177612727377065 27.9365698611737407 S
atom -0.1083791432965575 0.0489368725041963 29.9756705163800490 Ba
atom 4.9380392182056747 0.1108073632724421 29.9756705125335756 Ba
atom -0.0465086670691041 5.0953554267780561 29.9756702684261320 Ba
atom 4.8810249618628809 5.0383412841716346 29.9756706561173516 Ba
atom 2.7638087676515539 2.6287944340892810 30.3053414291125236 S
atom 7.3475860570098206 2.2280238118574527 30.3053417137351566 S
atom 2.3630381281625246 7.2125718149630220 30.3053416821092405 S
atom 7.7532130684142073 7.6181988126971696 30.3053415713321890 S
atom 2.3863228212002152 2.5436391037876200 33.4043931808873609 Ba
atom 7.4327413778437430 2.6055096799216417 33.4043931739408180 Ba
atom 2.4481932959286818 7.5900577162221028 33.4043933468754375 Ba
atom 7.3757273693101615 7.5330434920084670 33.4043933106058972 Ba
atom 2.6970632382817139 2.2342947778220119 38.2040598311929429 Ba
atom 7.7420860060203758 2.2947690694245000 38.2040599225342277 Ba
atom 2.7575375270673117 7.2793171191821751 38.2040596956551326 Ba
atom 7.6864681265743995 7.2236990733422886 38.2040597395813819 Ba
atom 5.0243984030935520 4.9623427166973872 35.5857512096132922 Zr
atom 10.0034419437198618 4.9568389399543618 35.5857515541374312 Zr
atom 5.0188935435366275 9.9413863135539486 35.5857511708905534 Zr
atom 10.0138030974936569 9.9517467884590278 35.5857514592211146 Zr
atom 5.0327226556977278 4.9097706921244209 40.6678647654298899 Zr
atom 10.0560135623315308 4.9485138832499063 40.6678643927704258 Zr
atom 5.0714662785828679 9.9330625798880057 40.6678649266502248 Zr
atom 10.0221268648118862 9.8991757198585724 40.6678636054229514 Zr
atom 5.2585107768983068 5.1234965695503503 33.0747190300480014 S
atom 9.8422883089268609 4.7227260621796949 33.0747200679103202 S
atom 4.8577403511598307 9.7072740827481336 33.0747191621068026 S
atom 10.2479150925543028 10.1129009906521556 33.0747193705835727 S
atom 4.7807530951241475 4.7303424390502107 38.1598715739862371 S
atom 10.2354422923458834 5.2004837703323856 38.1598705714410116 S
atom 5.2508944701762266 10.1850317183286485 38.1598715620827917 S
atom 9.7701574200323495 9.7197468821933715 38.1598725111096826 S
atom 4.7533215185869784 2.4548538418053760 35.4434934530406522 S
atom 10.3290304825902428 2.4539428691158189 35.9363538334373303 S
atom 5.3444824370503801 7.4384911791083761 35.9363540265907133 S
atom 9.7427257149512680 7.4442579514832943 35.4434931128970163 S
atom 4.5589695721566335 2.4488479647432349 40.8913788905126481 S
atom 10.4553133352745853 2.4498508003254442 40.4849903975538012 S
atom 5.4707652123585060 7.4343986948969896 40.4849903271111344 S
atom 9.5483737269418434 7.4382519591683867 40.8913791340674351 S
atom 2.5369787383492692 5.2230590513453059 35.4434933080050314 S
atom 7.5272943096497889 4.6367543161055531 35.9363539576337061 S
atom 2.5427465999415335 9.6213024313536408 35.9363538607047062 S
atom 7.5263829328358778 10.2124635118096894 35.4434932160750833 S
atom 2.5429853208201432 5.4174111666179154 40.8913791903903387 S
atom 7.5313862243366918 4.5104716508109925 40.4849904062190404 S
atom 2.5468385295562164 9.4950195370655788 40.4849903003638403 S
atom 7.5323879770435260 10.4068153214946975 40.8913788410675849 S
atom 2.4168079710708508 2.4896241334939901 43.2202130580100672 Ba
atom 7.4867564059640346 2.5750246078833752 43.2202130375085929 Ba
atom 2.5022084762934051 7.5595724736762078 43.2202130125733248 Ba
atom 7.4062123813766974 7.4790284199378867 43.2202130031616250 Ba
atom 2.5445276507513679 2.5445274374644686 48.2895710633645550 Ba
atom 7.4318528695390773 2.4473050379050294 48.2895710887293887 Ba
atom 2.4473052524552381 7.4318531286525040 48.2895710521007757 Ba
atom 7.5339316414119519 7.5339318707330296 48.2895710876461521 Ba
atom 4.9939234816308549 4.9964461934822619 45.7459023968480025 Zr
atom 9.9693382591657258 4.9873133751390846 45.7459015053083817 Zr
atom 4.9847903871154555 9.9718616803710969 45.7459024204994620 Zr
atom 9.9833278396130183 9.9858510752150149 45.7459022146768959 Zr
atom 4.9964465880877054 4.9939233354796650 50.8332382035624235 Zr
atom 9.9718614311133269 4.9847901971534680 50.8332393320346583 Zr
atom 4.9873135647269988 9.9693385848047669 50.8332385145262649 Zr
atom 9.9858505878006714 9.9833278876324485 50.8332392387968781 Zr
atom 5.1769913549012179 5.0950490168608038 43.2140016634885953 S
atom 9.8707358891119625 4.8042455126346599 43.2140018926071647 S
atom 4.8861879457739024 9.7887933785071404 43.2140019466877376 S
atom 10.1663959316819223 10.0844533273169557 43.2140022906320169 S
atom 4.9006299178387289 4.9006299518977512 48.2895737926405033 S
atom 10.0651549608636994 5.0806069775531935 48.2895733516327468 S
atom 5.0806069327811043 10.0651549348940730 48.2895729223851831 S
atom 9.8900342573403321 9.8900342677376933 48.2895727443757536 S
atom 5.4673719687812339 2.4929491197287055 45.6699724654068362 S
atom 9.4655271731322088 2.4946954044419485 45.8382629891930335 S
atom 4.4809790006921784 7.4792442600598132 45.8382628466619693 S
atom 10.4567762726654383 7.4823538329747272 45.6699726242784436 S
atom 4.5090086496516077 2.4988832127343454 50.9091702407476845 S
atom 10.4848056853503078 2.5019932065709107 50.7408796689227586 S
atom 5.5002576648304533 7.4865407084726012 50.7408799475410746 S
atom 9.4984130685144308 7.4882876531452505 50.9091699490507565 S
atom 2.4988827436471732 4.5090085827791659 45.6699725110702985 S
atom 7.4865417389791826 5.5002578576273509 45.8382629411087947 S
atom 2.5019929986602607 10.4848057416744691 45.8382628799940903 S
atom 7.4882874596839173 9.4984129481050470 45.6699725681823452 S
atom 2.4929490066296616 5.4673718429088893 50.9091700573390540 S
atom 7.4792440770367854 4.4809792586955526 50.7408797643874792 S
atom 2.4946963621485052 9.4655271511644852 50.7408798665009684 S
atom 7.4823535971554005 10.4567761737581169 50.9091701272147219 S
atom 2.4896239861094029 2.4168079756479441 53.3589301344070321 Ba
atom 7.5595727150987653 2.5022083878781864 53.3589300610266548 Ba
atom 2.5750243824649584 7.4867565263654496 53.3589302422496132 Ba
atom 7.4790284737167987 7.4062124199650139 53.3589302105779595 Ba
atom 2.2342947069847710 2.6970639645937382 58.3750830202904964 Ba
atom 7.2793167454222942 2.7575379508414333 58.3750829054171234 Ba
atom 2.2947689622293082 7.7420856828251425 58.3750829263775657 Ba
atom 7.2236988870056420 7.6864679899109465 58.3750828039820462 Ba
atom 4.9097715982401535 5.0327229033730490 55.9112833611542257 Zr
atom 9.9330618992662707 5.0714652004033152 55.9112826825781610 Zr
atom 4.9485139743704680 10.0560128497825065 55.9112831687754692 Zr
atom 9.8991759383510285 10.0221272050122323 55.9112812479591526 Zr
atom 4.9623428039787632 5.0243986230464595 60.9933874591678986 Zr
atom 9.9413869456444832 5.0188935578487879 60.9933868450599093 Zr
atom 4.9568377042645579 10.0034412009457387 60.9933870065772226 Zr
atom 9.9517484183650780 10.0138029174164895 60.9933873148828596 Zr
atom 5.0950491042408590 5.1769913641911476 53.3651398746468075 S
atom 9.7887934893872668 4.8861877541300469 53.3651400536308955 S
atom 4.8042453518722672 9.8707357368483883 53.3651394989523524 S
atom 10.0844534077187795 10.1663956863619838 53.3651405889127730 S
atom 4.7303427530406896 4.7807529005984319 58.4192669788946120 S
atom 10.1850317812199158 5.2508940755995255 58.4192704330465915 S
atom 5.2004839033015493 10.2354420779146036 58.4192684756252092 S
atom 9.7197470912218460 9.7701574544177259 58.4192710890831606 S
atom 5.4174111894405277 2.5429861565538681 55.6877634298361528 S
atom 9.4950197772034279 2.5468380815927527 56.0941515606454928 S
atom 4.5104717224786510 7.5313864908841817 56.0941519260329500 S
atom 10.4068156042131985 7.5323903891442843 55.6877628628261903 S
atom 5.2230592764229895 2.5369783790743377 61.1356503735551868 S
atom 9.6213025189524100 2.5427463937639421 60.6427897746738012 S
atom 4.6367546041807568 7.5272954488841268 60.6427899475649781 S
atom 10.2124631965007460 7.5263832002610176 61.1356499170811389 S
atom 2.4488475965166865 4.5589691253299831 55.6877631685567209 S
atom 7.4343982768253749 5.4707649948059025 56.0941517428850887 S
atom 2.4498497124293293 10.4553130673070065 56.0941517025827778 S
atom 7.4382524735713869 9.5483735877172347 55.6877631396021613 S
atom 2.4548538801035900 4.7533214247867326 61.1356502731877356 S
atom 7.4384904427651373 5.3444823659453080 60.6427899352271282 S
atom 2.4539412125112001 10.3290301897962227 60.6427898075290486 S
atom 7.4442590097588655 9.7427258487880604 61.1356499873989918 S
atom 2.5436392420464413 2.3863230829927677 63.1747501379771350 Ba
atom 7.5900573711016026 2.4481934636498566 63.1747504532716277 Ba
atom 2.6055097833776588 7.4327413394228570 63.1747502125610154 Ba
atom 7.5330433318005978 7.3757272063797501 63.1747506086186732 Ba
atom 5.1234968965559089 5.2585110457132780 63.5044261277026081 S
atom 9.7072737947375884 4.8577400970033580 63.5044245138032437 S
atom 4.7227258753933841 9.8422880548901066 63.5044259039393495 S
atom 10.1129010881014416 10.2479153647393950 63.5044249009233681 S
