#=======================================================
# FHI-aims file: full_relax/full_relax_RP_6_RxRy0_-Rx-Ry0.in
# Created using the Atomic Simulation Environment (ASE)
# Fri Mar 14 11:40:33 2025
#=======================================================
lattice_vector 10.0683602476399052 0.0964836052694973 0.0000000000000015 
lattice_vector 0.0964836052695066 10.0683602476401486 0.0000000000000142 
lattice_vector 0.0000000000000111 0.0000000000000954 65.2159085621540839 
atom -0.0993579567929750 -0.0993579567897624 0.2801497962143005 Ba
atom 5.1335380806123663 0.1475997594230590 0.2801497962156811 Ba
atom 0.1475997594263579 5.1335380806081155 0.2801497962174376 Ba
atom 4.9830639696625667 4.9830639696653600 0.2801497962179330 Ba
atom -0.0075164249294834 -0.0075164249248034 4.9555556133517573 Ba
atom 5.0416965487423742 0.0557582275653677 4.9555556133517600 Ba
atom 0.0557582275576797 5.0416965487500551 4.9555556133519243 Ba
atom 5.0749055015248903 5.0749055015295363 4.9555556133519385 Ba
atom 2.5282908712263241 2.5282908712258303 2.3456718004782386 Zr
atom 7.5883111790471869 2.6023728578604639 2.3456718004761514 Zr
atom 2.6023728578612766 7.5883111790489242 2.3456718004774690 Zr
atom 7.6107127976815026 7.6107127976827664 2.3456718004755945 Zr
atom 2.5433186251553508 2.5433186251539466 7.3718323010835149 Zr
atom 7.5732834251193673 2.5873451039336199 7.3718323010853268 Zr
atom 2.5873451039334090 7.5732834251182837 7.3718323010877214 Zr
atom 7.6257405516104066 7.6257405516097680 7.3718323010877702 Zr
atom 2.7294715189724608 2.7294715189792127 -0.1382912004186005 S
atom 7.3871305313010884 2.4011922101076819 -0.1382912004187208 S
atom 2.4011922101153207 7.3871305312947992 -0.1382912004208408 S
atom 7.8118934454278612 7.8118934454358770 -0.1382912004197394 S
atom 2.2328238927921222 2.2328238927848147 4.8946525654558579 S
atom 7.8837781574838672 2.8978398363026199 4.8946525654552593 S
atom 2.8978398362986546 7.8837781574876837 4.8946525654551936 S
atom 7.3152458192460514 7.3152458192390393 4.8946525654575561 S
atom 2.5170900619104457 0.0241209013168566 2.1936508816507740 S
atom 7.5512701857279261 0.0723627039523075 2.7013616244994516 S
atom 2.5653318645426499 5.0583010251353180 2.7013616245003678 S
atom 7.5995119883651485 5.1065428277726719 2.1936508816510347 S
atom 2.5170900619174024 0.0241209013187241 7.7242158696266268 S
atom 7.5512701857231654 0.0723627039519010 7.0361876074035310 S
atom 2.5653318645380248 5.0583010251350933 7.0361876074033711 S
atom 7.5995119883721642 5.1065428277698190 7.7242158696266268 S
atom 0.0241209013166550 2.5170900619086796 2.1936508816573901 S
atom 5.0583010251365499 2.5653318645458492 2.7013616244949930 S
atom 0.0723627039525148 7.5512701857313616 2.7013616244949614 S
atom 5.1065428277720430 7.5995119883636839 2.1936508816576432 S
atom 0.0241209013174953 2.5170900619017034 7.7242158696231762 S
atom 5.0583010251367044 2.5653318645506937 7.0361876074062799 S
atom 0.0723627039542478 7.5512701857358930 7.0361876074066023 S
atom 5.1065428277708200 7.5995119883565589 7.7242158696234515 S
atom 0.0341988048172016 0.0341988048051450 9.8677176014705132 Ba
atom 4.9999813190143252 0.0140429978158931 9.8677176014704031 Ba
atom 0.0140429978294771 4.9999813190017832 9.8677176014704777 Ba
atom 5.1166207312715386 5.1166207312603316 9.8677176014703356 Ba
atom -0.0349542342355822 -0.0349542342199971 14.8217974004854742 Ba
atom 5.0691343580397055 0.0831960368689582 14.8217974004855257 Ba
atom 0.0831960368540907 5.0691343580545212 14.8217974004854884 Ba
atom 5.0474676922191275 5.0474676922349655 14.8217974004854778 Ba
atom 2.5415145439258557 2.5415145439261901 12.3393520573427704 Zr
atom 7.5750875063477956 2.5891491851632642 12.3393520573449109 Zr
atom 2.5891491851618547 7.5750875063473515 12.3393520573441560 Zr
atom 7.6239364703796495 7.6239364703813655 12.3393520573449642 Zr
atom 2.5415145439241602 2.5415145439247260 17.3042427436209891 Zr
atom 7.5750875063493996 2.5891491851648087 17.3042427436187545 Zr
atom 2.5891491851648016 7.5750875063506005 17.3042427436151094 Zr
atom 7.6239364703784922 7.6239364703785686 17.3042427436172694 Zr
atom 2.8909754216512766 2.8909754216570644 9.8610048716737211 S
atom 7.2256266286186479 2.2396883074354172 9.8610048716721721 S
atom 2.2396883074330356 7.2256266286205992 9.8610048716696905 S
atom 7.9733973481057010 7.9733973481125160 9.8610048716675163 S
atom 2.1877617055066230 2.1877617055027372 14.8217974004820885 S
atom 7.9288403447716176 2.9429020235807806 14.8217974004834989 S
atom 2.9429020235863601 7.9288403447653240 14.8217974004859077 S
atom 7.2701836319614381 7.2701836319581936 14.8217974004831916 S
atom 2.5170900619190468 0.0241209013158107 11.9800686848002513 S
atom 7.5512701857188187 0.0723627039479015 12.7066286748377610 S
atom 2.5653318645335599 5.0583010251408735 12.7066286748372423 S
atom 7.5995119883735924 5.1065428277739038 11.9800686848002087 S
atom 2.5170900619202063 0.0241209013171755 17.6635261161717416 S
atom 7.5512701857183977 0.0723627039509915 16.9369661261362872 S
atom 2.5653318645332308 5.0583010251352789 16.9369661261369480 S
atom 7.5995119883749576 5.1065428277722535 17.6635261161716137 S
atom 0.0241209013153074 2.5170900618998493 11.9800686848002496 S
atom 5.0583010251380776 2.5653318645546168 12.7066286748364696 S
atom 0.0723627039536252 7.5512701857399520 12.7066286748373685 S
atom 5.1065428277723415 7.5995119883546058 11.9800686848003313 S
atom 0.0241209013158703 2.5170900618989420 17.6635261161738022 S
atom 5.0583010251393690 2.5653318645554246 16.9369661261340383 S
atom 0.0723627039510929 7.5512701857408269 16.9369661261335516 S
atom 5.1065428277731648 7.5995119883536617 17.6635261161738697 S
atom 0.0341988048203150 0.0341988048047101 19.7758771995004494 Ba
atom 4.9999813190137088 0.0140429978156222 19.7758771995004743 Ba
atom 0.0140429978278419 4.9999813189997928 19.7758771995005631 Ba
atom 5.1166207312754244 5.1166207312585170 19.7758771995004885 Ba
atom -0.0075164249321118 -0.0075164249215863 24.6880391876190934 Ba
atom 5.0416965487429737 0.0557582275635265 24.6880391876189762 Ba
atom 0.0557582275584733 5.0416965487492229 24.6880391876192355 Ba
atom 5.0749055015220144 5.0749055015332454 24.6880391876192604 Ba
atom 2.5433186251557367 2.5433186251548072 22.2717624998934092 Zr
atom 7.5732834251184222 2.5873451039317521 22.2717624998892845 Zr
atom 2.5873451039335231 7.5732834251176051 22.2717624998919561 Zr
atom 7.6257405516112939 7.6257405516102228 22.2717624998913841 Zr
atom 2.5282908712261354 2.5282908712280507 27.2979230004948370 Zr
atom 7.5883111790473849 2.6023728578629957 27.2979230004928652 Zr
atom 2.6023728578616918 7.5883111790476452 27.2979230004941122 Zr
atom 7.6107127976807796 7.6107127976807822 27.2979230004946807 Zr
atom 2.8909754216564290 2.8909754216563761 19.7825899293062442 S
atom 7.2256266286125816 2.2396883074370306 19.7825899293081058 S
atom 2.2396883074268890 7.2256266286221029 19.7825899293063898 S
atom 7.9733973481115896 7.9733973481110132 19.7825899293101486 S
atom 2.2328238927848449 2.2328238927923034 24.7489422355202713 S
atom 7.8837781574914212 2.8978398362942848 24.7489422355282258 S
atom 2.8978398363066367 7.8837781574801253 24.7489422355342796 S
atom 7.3152458192390473 7.3152458192468401 24.7489422355243001 S
atom 2.5170900619193661 0.0241209013186129 21.9193789313448057 S
atom 7.5512701857213980 0.0723627039498707 22.6074071935586218 S
atom 2.5653318645360161 5.0583010251355542 22.6074071935585792 S
atom 7.5995119883742017 5.1065428277737297 21.9193789313449408 S
atom 2.5170900619110106 0.0241209013192037 27.4499439193099875 S
atom 7.5512701857268718 0.0723627039511486 26.9422331764767335 S
atom 2.5653318645417493 5.0583010251322582 26.9422331764778527 S
atom 7.5995119883655597 5.1065428277729561 27.4499439193099803 S
atom 0.0241209013142357 2.5170900618994532 21.9193789313392884 S
atom 5.0583010251404739 2.5653318645520926 22.6074071935652867 S
atom 0.0723627039560956 7.5512701857373505 22.6074071935640539 S
atom 5.1065428277669032 7.5995119883543500 21.9193789313377678 S
atom 0.0241209013166547 2.5170900619090069 27.4499439193215018 S
atom 5.0583010251382392 2.5653318645467116 26.9422331764693510 S
atom 0.0723627039524568 7.5512701857318572 26.9422331764689211 S
atom 5.1065428277723131 7.5995119883634956 27.4499439193205284 S
atom -0.0993579567880834 -0.0993579567947375 29.3634450047523039 Ba
atom 5.1335380806077513 0.1475997594272647 29.3634450047537214 Ba
atom 0.1475997594231891 5.1335380806134561 29.3634450047559525 Ba
atom 4.9830639696661478 4.9830639696606243 29.3634450047532631 Ba
atom 2.7294715189811742 2.7294715189707253 29.7818860013846098 S
atom 7.3871305312918905 2.4011922101187944 29.7818860013885676 S
atom 2.4011922101062937 7.3871305313030886 29.7818860013842226 S
atom 7.8118934454358877 7.8118934454243059 29.7818860013861411 S
atom 2.6405689200131999 2.6405689200207472 32.8881040772956936 Ba
atom 7.4760331302597889 2.4900948090660724 32.8881040772946704 Ba
atom 2.4900948090748849 7.4760331302543559 32.8881040772957718 Ba
atom 7.7229908464683072 7.7229908464789121 32.8881040772948268 Ba
atom 2.5487273881628933 2.5487273881422845 37.5635098944297710 Ba
atom 7.5678746621237263 2.5819363409278084 37.5635098944297354 Ba
atom 2.5819363409403988 7.5678746621172328 37.5635098944293304 Ba
atom 7.6311493146166205 7.6311493146015463 37.5635098944292238 Ba
atom 5.0953420184536897 5.0953420184541516 34.9536260815553419 Zr
atom 10.1036819582721531 5.1177436370865887 34.9536260815585749 Zr
atom 5.1177436370894229 10.1036819582747235 34.9536260815557824 Zr
atom 10.1777639449103336 10.1777639449090422 34.9536260815561945 Zr
atom 5.0803142645260522 5.0803142645273569 39.9797865821520872 Zr
atom 10.1187097122054706 5.1327713910233745 39.9797865821844809 Zr
atom 5.1327713910166040 10.1187097122028575 39.9797865821582405 Zr
atom 10.1627361909797749 10.1627361909807945 39.9797865821443921 Zr
atom 4.8941613706978835 4.8941613707132277 32.4696630806602542 S
atom 10.3048626060319535 5.3189242848308149 32.4696630806438336 S
atom 5.3189242848459379 10.3048626060159592 32.4696630806626416 S
atom 9.9765832971529047 9.9765832971672364 32.4696630806712463 S
atom 5.3908089968968635 5.3908089968857880 37.5026068465499094 S
atom 9.8082149798237914 4.8222766586573789 37.5026068465019691 S
atom 4.8222766586406811 9.8082149798449745 37.5026068465228946 S
atom 10.4732309233525847 10.4732309233426175 37.5026068465071702 S
atom 5.0583010251399569 2.5653318645434813 35.3093159055677646 S
atom 10.0924811489538708 2.6135736671818468 34.8016051627452612 S
atom 5.1065428277686671 7.5995119883611562 34.8016051627379923 S
atom 10.1407229515946824 7.6477537909993352 35.3093159055725678 S
atom 5.0583010251508389 2.5653318645509460 39.6441418884886616 S
atom 10.0924811489402178 2.6135736671793173 40.3321701507053163 S
atom 5.1065428277562406 7.5995119883619262 40.3321701506986443 S
atom 10.1407229516044346 7.6477537909999738 39.6441418884948220 S
atom 2.5653318645589129 5.0583010251325220 35.3093159055821815 S
atom 7.5995119883558697 5.1065428277729481 34.8016051627256289 S
atom 2.6135736671821914 10.0924811489591413 34.8016051627257639 S
atom 7.6477537909943365 10.1407229515883159 35.3093159055807959 S
atom 2.5653318645445320 5.0583010251242282 39.6441418884786216 S
atom 7.5995119883645552 5.1065428277881493 40.3321701507089401 S
atom 2.6135736671754795 10.0924811489725936 40.3321701507147310 S
atom 7.6477537910064193 10.1407229515778763 39.6441418884854855 S
atom 2.5070121584030498 2.5070121584310097 42.4756718825479496 Ba
atom 7.6095898918483336 2.6236515706882289 42.4756718825484398 Ba
atom 2.6236515706649968 7.6095898918663636 42.4756718825482551 Ba
atom 7.5894340848550428 7.5894340848782589 42.4756718825485038 Ba
atom 2.5761651974637392 2.5761651974431050 47.4297516815629407 Ba
atom 7.5404368528320544 2.5544985316240854 47.4297516815629905 Ba
atom 2.5544985316437443 7.5404368528097470 47.4297516815625357 Ba
atom 7.6585871239215475 7.6585871238979752 47.4297516815629336 Ba
atom 5.0821183457550481 5.0821183457542443 44.9473063384107405 Zr
atom 10.1169056309693204 5.1309673097844568 44.9473063384394038 Zr
atom 5.1309673097854196 10.1169056309706935 44.9473063384375990 Zr
atom 10.1645402722129727 10.1645402722134133 44.9473063384379401 Zr
atom 5.0821183457554637 5.0821183457542132 49.9121970246991538 Zr
atom 10.1169056309739478 5.1309673097887751 49.9121970246985214 Zr
atom 5.1309673097887476 10.1169056309728855 49.9121970247159297 Zr
atom 10.1645402722106368 10.1645402722111839 49.9121970247027988 Zr
atom 4.7326574680256552 4.7326574680257814 42.4689591527652723 S
atom 10.4663665087106370 5.4804281875097027 42.4689591527236701 S
atom 5.4804281875270986 10.4663665086958062 42.4689591527229169 S
atom 9.8150793944782944 9.8150793944793300 42.4689591527448016 S
atom 5.4358711841746583 5.4358711841799119 47.4297516815813651 S
atom 9.7631527925494677 4.7772144713739237 47.4297516815216014 S
atom 4.7772144713631146 9.7631527925561556 47.4297516815495044 S
atom 10.5182931106270221 10.5182931106334898 47.4297516815971534 S
atom 5.0583010251528213 2.5653318645428382 45.3145829559115825 S
atom 10.0924811489394042 2.6135736671736631 44.5880229658785154 S
atom 5.1065428277547973 7.5995119883653510 44.5880229658776344 S
atom 10.1407229516067865 7.6477537910020850 45.3145829559122362 S
atom 5.0583010251507812 2.5653318645319989 49.5449204072116132 S
atom 10.0924811489445716 2.6135736671852734 50.2714803972506274 S
atom 5.1065428277580640 7.5995119883819653 50.2714803972494266 S
atom 10.1407229516065431 7.6477537909867834 49.5449204072124445 S
atom 2.5653318645411516 5.0583010251195466 45.3145829559181905 S
atom 7.5995119883637781 5.1065428277873046 44.5880229658769238 S
atom 2.6135736671712757 10.0924811489729755 44.5880229658729306 S
atom 7.6477537910021596 10.1407229515744142 45.3145829559146520 S
atom 2.5653318645284870 5.0583010251238028 49.5449204072167220 S
atom 7.5995119883820745 5.1065428277841844 50.2714803972529012 S
atom 2.6135736671861931 10.0924811489695259 50.2714803972459450 S
atom 7.6477537909968865 10.1407229515780397 49.5449204072106042 S
atom 2.5070121584081999 2.5070121584180360 52.3838314805776477 Ba
atom 7.6095898918495530 2.6236515706774908 52.3838314805777472 Ba
atom 2.6236515706652161 7.6095898918711384 52.3838314805776335 Ba
atom 7.5894340848625994 7.5894340848805850 52.3838314805779959 Ba
atom 2.5487273881577166 2.5487273881548660 57.2959934686980361 Ba
atom 7.5678746621235140 2.5819363409325988 57.2959934686970556 Ba
atom 2.5819363409402056 7.5678746621115218 57.2959934686980716 Ba
atom 7.6311493146096590 7.6311493146035394 57.2959934686976311 Ba
atom 5.0803142645280621 5.0803142645285897 54.8797167809820721 Zr
atom 10.1187097122014578 5.1327713910194825 54.8797167809658077 Zr
atom 5.1327713910170241 10.1187097122021079 54.8797167809498418 Zr
atom 10.1627361909776504 10.1627361909807856 54.8797167809443138 Zr
atom 5.0953420184525493 5.0953420184527314 59.9058772815774887 Zr
atom 10.1036819582735262 5.1177436370890188 59.9058772815747105 Zr
atom 5.1177436370896050 10.1036819582738069 59.9058772815761245 Zr
atom 10.1777639449099411 10.1777639449099677 59.9058772815751723 Zr
atom 4.7326574680290614 4.7326574680191644 52.3905442103555927 S
atom 10.4663665087029294 5.4804281875174894 52.3905442103862526 S
atom 5.4804281875143346 10.4663665086991884 52.3905442103899972 S
atom 9.8150793944874586 9.8150793944785377 52.3905442103657037 S
atom 5.3908089968863475 5.3908089968977739 57.3568965165888045 S
atom 9.8082149798380662 4.8222766586456096 57.3568965166073426 S
atom 4.8222766586527266 9.8082149798305291 57.3568965165724904 S
atom 10.4732309233430900 10.4732309233566259 57.3568965165983542 S
atom 5.0583010251434786 2.5653318645517404 55.2153614746486667 S
atom 10.0924811489476678 2.6135736671764165 54.5273332124188954 S
atom 5.1065428277616309 7.5995119883653617 54.5273332124231089 S
atom 10.1407229515995141 7.6477537909954574 55.2153614746453130 S
atom 5.0583010251385279 2.5653318645440057 59.5501874575468833 S
atom 10.0924811489557733 2.6135736671775174 60.0578982003955346 S
atom 5.1065428277704203 7.5995119883689934 60.0578982004014037 S
atom 10.1407229515930464 7.6477537909976316 59.5501874575426342 S
atom 2.5653318645459287 5.0583010251296905 55.2153614746394368 S
atom 7.5995119883627229 5.1065428277816975 54.5273332124251837 S
atom 2.6135736671716625 10.0924811489667619 54.5273332124296743 S
atom 7.6477537910091362 10.1407229515839408 55.2153614746428687 S
atom 2.5653318645544783 5.0583010251349991 59.5501874575539958 S
atom 7.5995119883598914 5.1065428277723566 60.0578982003879887 S
atom 2.6135736671819885 10.0924811489583792 60.0578982003870436 S
atom 7.6477537909940283 10.1407229515905382 59.5501874575511678 S
atom 2.6405689200209683 2.6405689200167841 61.9713992858283760 Ba
atom 7.4760331302529863 2.4900948090761781 61.9713992858281770 Ba
atom 2.4900948090683022 7.4760331302577443 61.9713992858285536 Ba
atom 7.7229908464744303 7.7229908464678863 61.9713992858280633 Ba
atom 4.8941613707111493 4.8941613706999929 62.3898402824569303 S
atom 10.3048626060176165 5.3189242848443712 62.3898402824650660 S
atom 5.3189242848336162 10.3048626060284096 62.3898402824796960 S
atom 9.9765832971640958 9.9765832971539616 62.3898402824859843 S
