#=======================================================
# FHI-aims file: full_relax/full_relax_RP_2_Rx0Rz_0-Ry0.in
# Created using the Atomic Simulation Environment (ASE)
# Fri Mar 14 11:18:09 2025
#=======================================================
lattice_vector 10.1108493889716051 -0.0000000000000169 0.0003321176147446 
lattice_vector -0.0000000000000169 10.1108390801411616 0.0000000000000094 
lattice_vector -0.0008187066184129 0.0000000000000253 25.3660374373245503 
atom -0.1548442651962284 0.0000000000142385 0.2814175147754608 Ba
atom 5.2102733172949867 0.0000000000172678 0.2816148429695831 Ba
atom 0.1548486228128524 5.0554195400546771 0.2814487841729680 Ba
atom 4.9005804292881701 5.0554195400512594 0.2815835735533626 Ba
atom 0.0482340303600907 0.0000000000560322 4.8780933842632850 Ba
atom 5.0068757769636436 0.0000000000613941 4.8782409196768306 Ba
atom -0.0485489174547533 5.0554195400159507 4.8780748609003926 Ba
atom 5.1036587247823313 5.0554195400108863 4.8782594430264314 Ba
atom 2.5276363261213004 2.5154693870233356 2.3474008984601884 Zr
atom 7.5830610205870377 2.5399501530903725 2.3475669571716713 Zr
atom 2.5276363260934378 7.5953696931368659 2.3474008982992500 Zr
atom 7.5830610206035134 7.5708889270432618 2.3475669570357915 Zr
atom 2.5274734810299466 2.5154693869810241 7.4089334054714575 Zr
atom 7.5828981758524012 2.5399501530639443 7.4090994643446040 Zr
atom 2.5274734810075570 7.5953696931715093 7.4089334056101892 Zr
atom 7.5828981758758820 7.5708889270509587 7.4090994644329644 Zr
atom 2.5277260220266573 2.8831379676314302 -0.1399094226518120 S
atom 7.5831507165073537 2.1722815724458973 -0.1397433637546270 S
atom 2.5277260220266369 7.2277011125472237 -0.1399094224340111 S
atom 7.5831507165041492 7.9385575076725692 -0.1397433636429034 S
atom 2.5275549036722884 2.0900589177615281 4.8781671519098744 S
atom 7.5829795981282500 2.9653606222791908 4.8783332107598660 S
atom 2.5275549036739418 8.0207801623292134 4.8781671518867951 S
atom 7.5829795981230941 7.1454784578850576 4.8783332108063790 S
atom 2.5276582877975056 -0.0000000003112992 2.0403278571313619 S
atom 7.5830708005041352 -0.0000000001128828 2.8003514193702497 S
atom 2.5276461060283384 5.0554195403261417 2.8001853605516254 S
atom 7.5830829822800929 5.0554195402169038 2.0404939159514202 S
atom 2.5274515195552620 -0.0000000002747563 7.7160064468172038 S
atom 7.5828883957399524 -0.0000000001571371 6.9563150021863409 S
atom 2.5274637013188666 5.0554195403134461 6.9561489433740720 S
atom 7.5828762139705317 5.0554195402821955 7.7161725055990766 S
atom -0.0000734742960628 2.5277075704988610 2.4609365731049939 S
atom 5.0553512204939137 2.5277119695679753 2.4611026319111593 S
atom -0.0000734740968085 7.5831315096443177 2.4609365731133215 S
atom 5.0553512203190296 7.5831271105750657 2.4611026319207903 S
atom -0.0002414131999569 2.5277119695730650 7.2952316720263424 S
atom 5.0551832817156885 2.5277075704982219 7.2953977308319482 S
atom -0.0002414131018360 7.5831271105633586 7.2952316720178896 S
atom 5.0551832816151236 7.5831315096381768 7.2953977308219367 S
atom -0.1551635099411734 0.0000000000248960 9.4747194609205554 Ba
atom 5.2099540724993672 0.0000000000268377 9.4749167891810337 Ba
atom 0.1545293780387488 5.0554195400449338 9.4747507303544953 Ba
atom 4.9002611845003878 5.0554195400430206 9.4748855197737747 Ba
atom 2.5273837853234054 2.8831379676380067 9.8962437266149177 S
atom 7.5828084797526465 2.1722815724399642 9.8964097853062203 S
atom 2.5273837853244103 7.2277011125378356 9.8962437264596570 S
atom 7.5828084797520301 7.9385575076687500 9.8964097852045239 S
atom 2.5272674222669522 2.3728631469300270 12.9645289089768490 Ba
atom 7.5826921168634627 2.6825563931912617 12.9646949678001704 Ba
atom 2.5272674223175300 7.7379759332166742 12.9645289089664466 Ba
atom 7.5826921168136607 7.4282826869427980 12.9646949677846877 Ba
atom 2.5271455503928939 2.5760854655074406 17.5611858705919595 Ba
atom 7.5825702447931835 2.4793340747042159 17.5613519294009883 Ba
atom 2.5271455504359643 7.5347536146310263 17.5611858706256605 Ba
atom 7.5825702447497889 7.6315050054369138 17.5613519294346965 Ba
atom 5.0426590854894018 5.0554195400899378 15.0305043178731434 Zr
atom 10.1225795324914465 5.0554195398283683 15.0306622101651790 Zr
atom 5.0671548380421632 10.1108390801206482 15.0304961515472719 Zr
atom 10.0980837800529919 10.1108390804068495 15.0306703762428349 Zr
atom 5.0425609572052688 5.0554195401744391 20.0920416485292144 Zr
atom 10.1224814041465550 5.0554195400633706 20.0921995411653960 Zr
atom 5.0670567096475816 10.1108390800588133 20.0920334823050517 Zr
atom 10.0979856517038407 10.1108390801545802 20.0922077077089156 Zr
atom 5.4104265087028542 5.0554195400722239 12.5432000982412308 S
atom 9.7550128882684870 5.0554195401013402 12.5433421714073550 S
atom 4.6995881938095261 10.1108390801379233 12.5431761125703449 S
atom 10.4658512031729352 10.1108390801157313 12.5433661573304409 S
atom 4.6171981192962619 5.0554195400674162 17.5612593892527151 S
atom 10.5479423703520716 5.0554195400976631 17.5614444697886007 S
atom 5.4925176758760523 10.1108390801507486 17.5612784107838884 S
atom 9.6726228138464805 10.1108390801237888 17.5614254482579781 S
atom 5.0549314248659725 2.5277085962982153 15.1441318854057698 S
atom 10.1103561193458518 2.5277109432572491 15.1442979442307948 S
atom 5.0549314248657513 7.5831304838429610 15.1441318854038851 S
atom 10.1103561193464824 7.5831281368309709 15.1442979442417212 S
atom 5.0547843703331417 2.5277109433052862 19.9784059146434743 S
atom 10.1102090648169902 2.5277085962145325 19.9785719734294958 S
atom 5.0547843703329010 7.5831281367872823 19.9784059146466504 S
atom 10.1102090648170844 7.5831304839108347 19.9785719734238363 S
atom 2.5272230702651699 5.0554195400953414 14.7233447944571338 S
atom 7.5826215246427724 5.0554195400925748 15.4833484268590773 S
atom 2.5271968300762384 10.1108390801251105 15.4831823680532725 S
atom 7.5826477647616626 10.1108390801232098 14.7235108533014305 S
atom 2.5270680301869337 5.0554195400676578 20.3990269467667034 S
atom 7.5825189652655354 5.0554195400681419 19.6393554320095340 S
atom 2.5270942702716788 10.1108390801514698 19.6391893732076497 S
atom 7.5824927252494820 10.1108390801528643 20.3991930055411217 S
atom 2.5270236783806608 2.3728631469036379 22.1578428323264980 Ba
atom 7.5824483728563141 2.6825563932044370 22.1580088911209856 Ba
atom 2.5270236783988409 7.7379759332372533 22.1578428322911130 Ba
atom 7.5824483728375478 7.4282826869363081 22.1580088911001205 Ba
atom 5.4101276014142696 5.0554195400641113 22.5793616875055179 S
atom 9.7547139809965220 5.0554195400711093 22.5795037604339015 S
atom 4.6992892864959845 10.1108390801523154 22.5793377017097185 S
atom 10.4655522958467611 10.1108390801407353 22.5795277458664962 S
