#=======================================================
# FHI-aims file: full_relax/full_relax_RP_4_Rx0Mz_0-Ry0.in
# Created using the Atomic Simulation Environment (ASE)
# Fri Mar 14 11:25:33 2025
#=======================================================
lattice_vector 10.0954473104379776 -0.0000000000000106 -0.0000000000000026 
lattice_vector -0.0000000000000105 10.0954337244963650 0.0000000000000110 
lattice_vector -0.0000000000000120 0.0000000000000520 45.1498786534446310 
atom -0.1559007633576294 -0.0000000000008258 0.2851826650169328 Ba
atom 5.2035920032427363 -0.0000000000009473 0.2851752663771753 Ba
atom 0.1558683480240703 5.0477168622474142 0.2851752663806156 Ba
atom 4.8918228918605884 5.0477168622475457 0.2851826650162999 Ba
atom 0.0298097790313145 -0.0000000000006875 4.9407275707189076 Ba
atom 5.0176799664429446 -0.0000000000009923 4.9405820748985807 Ba
atom -0.0300436887749201 5.0477168622473245 4.9405820748985692 Ba
atom 5.0775334342490286 5.0477168622475874 4.9407275707189839 Ba
atom 2.5238300386645367 2.5107464910628261 2.3243845274571089 Zr
atom 7.5715536938897525 2.5369703711824068 2.3243845274570991 Zr
atom 2.5238300386651247 7.5846872334318807 2.3243845274579078 Zr
atom 7.5715536938891486 7.5584633533125984 2.3243845274575214 Zr
atom 2.5239064567204812 2.5241922388381592 7.3350873950652842 Zr
atom 7.5716301119447627 2.5235246234085764 7.3350873950662026 Zr
atom 2.5239064567212837 7.5712414856566994 7.3350873950658775 Zr
atom 7.5716301119439375 7.5719091010863941 7.3350873950674327 Zr
atom 2.5238450111608786 2.8807684871991528 -0.1562070288059750 S
atom 7.5715686663793198 2.1669483750476006 -0.1562070288077110 S
atom 2.5238450111608786 7.2146652372954607 -0.1562070288085598 S
atom 7.5715686663792647 7.9284853494472065 -0.1562070288117045 S
atom 2.5238459035914667 2.0493331562566079 4.8635039543557257 S
atom 7.5715695588088687 2.9983837059900345 4.8635039543559149 S
atom 2.5238459035910763 8.0461005682385345 4.8635039543553882 S
atom 7.5715695588091956 7.0970500185041860 4.8635039543573022 S
atom 2.5238557102349573 0.0000000000004331 2.0069237611208028 S
atom 7.5715192785450780 0.0000000000001283 2.7991375898237876 S
atom 2.5237956233273113 5.0477168622462960 2.7991375898231827 S
atom 7.5715793654533012 5.0477168622464283 2.0069237611206989 S
atom 2.5242655493675099 0.0000000000002070 7.8023905544123426 S
atom 7.5712137022826012 0.0000000000011567 6.8735101417594091 S
atom 2.5234900470646480 5.0477168622461184 6.8735101417600477 S
atom 7.5719892045855328 5.0477168622455082 7.8023905544115904 S
atom -0.0000298436339635 2.5238463051952844 2.4579845444717074 S
atom 5.0476938115861758 2.5238705570516573 2.4579845444716737 S
atom -0.0000298436341277 7.5715874192995214 2.4579845444719819 S
atom 5.0476938115863117 7.5715631674431148 2.4579845444722204 S
atom 0.0000260385805581 2.5234300284999969 7.3446185169186240 S
atom 5.0477496938000623 2.5242868337466504 7.3446185169193949 S
atom 0.0000260385812114 7.5720036959947379 7.3446185169188052 S
atom 5.0477496937993633 7.5711468907479915 7.3446185169186906 S
atom -0.0099132675692362 -0.0000000000011312 9.8151910116255863 Ba
atom 5.0580124057038693 -0.0000000000011758 9.8151910116253482 Ba
atom 0.0102887504844965 5.0477168622477278 9.8151910116254424 Ba
atom 5.0378103876497313 5.0477168622477251 9.8151910116258314 Ba
atom 0.0298097790297058 -0.0000000000012848 14.6896544525289166 Ba
atom 5.0176799664443186 -0.0000000000017450 14.6897999483499238 Ba
atom -0.0300436887763034 5.0477168622478832 14.6897999483494832 Ba
atom 5.0775334342501335 5.0477168622482989 14.6896544525293855 Ba
atom 2.5239064567206100 2.5241922388389826 12.2952946281871434 Zr
atom 7.5716301119445344 2.5235246234084325 12.2952946281892981 Zr
atom 2.5239064567219303 7.5712414856561141 12.2952946281884898 Zr
atom 7.5716301119431861 7.5719091010862583 12.2952946281899997 Zr
atom 2.5238300386668095 2.5107464910636019 17.3059974957875191 Zr
atom 7.5715536938872772 2.5369703711833007 17.3059974957851743 Zr
atom 2.5238300386684762 7.5846872334312794 17.3059974957855296 Zr
atom 7.5715536938856083 7.5584633533113337 17.3059974957831848 Zr
atom 2.5238716750568346 3.0311924121510296 9.8151910116172498 S
atom 7.5715953302756240 2.0165244500954893 9.8151910116180616 S
atom 2.5238716750569963 7.0642413123432046 9.8151910116166654 S
atom 7.5715953302753860 8.0789092743998783 9.8151910116187100 S
atom 2.5238459035911709 2.0493331562567025 14.7668780688924208 S
atom 7.5715695588090286 2.9983837059898031 14.7668780688942451 S
atom 2.5238459035906633 8.0461005682385061 14.7668780688951493 S
atom 7.5715695588094727 7.0970500185044862 14.7668780688950054 S
atom 2.5242655493678399 0.0000000000010795 11.8279914688366041 S
atom 7.5712137022824386 0.0000000000009421 12.7568718814899675 S
atom 2.5234900470640622 5.0477168622453892 12.7568718814905253 S
atom 7.5719892045859440 5.0477168622456148 11.8279914688358510 S
atom 2.5238557102346553 0.0000000000002740 17.6234582621280325 S
atom 7.5715192785457219 0.0000000000000492 16.8312444334265123 S
atom 2.5237956233265777 5.0477168622463484 16.8312444334257663 S
atom 7.5715793654535624 5.0477168622462250 17.6234582621289597 S
atom 0.0000260385804254 2.5234300284993454 12.2857635063308166 S
atom 5.0477496938000979 2.5242868337468765 12.2857635063300776 S
atom 0.0000260385797942 7.5720036959953649 12.2857635063299853 S
atom 5.0477496938006858 7.5711468907477988 12.2857635063300386 S
atom -0.0000298436337392 2.5238463051951343 17.1723974787773273 S
atom 5.0476938115858019 2.5238705570514641 17.1723974787775973 S
atom -0.0000298436334219 7.5715874192997408 17.1723974787777642 S
atom 5.0476938115854697 7.5715631674432764 17.1723974787777998 S
atom -0.1559007633571937 -0.0000000000007288 19.3451993582344031 Ba
atom 5.2035920032420355 -0.0000000000010855 19.3452067568704926 Ba
atom 0.1558683480236472 5.0477168622472366 19.3452067568716579 Ba
atom 4.8918228918610414 5.0477168622475599 19.3451993582330672 Ba
atom 2.5238450111603941 2.8807684871994650 19.7865890520646950 S
atom 7.5715686663796706 2.1669483750473222 19.7865890520621832 S
atom 2.5238450111603870 7.2146652372950282 19.7865890520638885 S
atom 7.5715686663796768 7.9284853494475387 19.7865890520618812 S
atom 2.5238734867942512 2.3679749015729343 22.8601661436804164 Ba
atom 7.5715971420146939 2.6797419606720463 22.8601661436811803 Ba
atom 2.5238734867946371 7.7274588229214620 22.8601661436813117 Ba
atom 7.5715971420143742 7.4156917638229967 22.8601661436821750 Ba
atom 2.5238771216152185 2.5538197633624757 27.5156243182867293 Ba
atom 7.5716007768356244 2.4938970988820119 27.5156243182870135 Ba
atom 2.5238771216157874 7.5416139611312047 27.5156243182864060 Ba
atom 7.5716007768350737 7.6015366256131944 27.5156243182866938 Ba
atom 5.0346467883869082 5.0477168622494393 24.8993566321038990 Zr
atom 10.1085768230592432 5.0477168622478921 24.8993576984375018 Zr
atom 5.0608531678368394 10.0954337244933221 24.8993576984367024 Zr
atom 10.0823704436114596 10.0954337244948444 24.8993566321044817 Zr
atom 5.0480817861327969 5.0477168622492234 29.9100399455964556 Zr
atom 10.0951102221196418 5.0477168622466504 29.9100461256389671 Zr
atom 5.0473865668977140 10.0954337244935424 29.9100461256393402 Zr
atom 10.0958054413539031 10.0954337244961749 29.9100399455939936 Zr
atom 5.4046589229537787 5.0477168622475270 22.4187665943041488 S
atom 9.7385299763599100 5.0477168622475546 22.4187705624353022 S
atom 4.6908063211419853 10.0954337244954857 22.4187705624437612 S
atom 10.4523825781730775 10.0954337244952868 22.4187665943004859 S
atom 4.5732116155897309 5.0477168622461193 27.4384649444963671 S
atom 10.5699555581987124 5.0477168622465802 27.4384700919353222 S
atom 5.5222319029800131 10.0954337244966776 27.4384700919274849 S
atom 9.6209352708073439 10.0954337244964343 27.4384649445016962 S
atom 5.0477365521703401 2.5238663720640426 25.0329712647265303 S
atom 10.0954602073887987 2.5238504901870042 25.0329712647264699 S
atom 5.0477365521704822 7.5715673524305869 25.0329712647275748 S
atom 10.0954602073887756 7.5715832343076155 25.0329712647275855 S
atom 5.0477070642814708 2.5238607971050468 29.9195898815350247 S
atom 10.0954307195008628 2.5238560651420388 29.9195898815340833 S
atom 5.0477070642822337 7.5715729273895604 29.9195898815327652 S
atom 10.0954307195001292 7.5715776593526734 29.9195898815318913 S
atom 2.5238731690593759 5.0477168622470030 24.5819227157393030 S
atom 7.5716077133141706 5.0477168622470119 25.3741016361944567 S
atom 2.5238840581038740 10.0954337244958641 25.3741016361934975 S
atom 7.5715968242664262 10.0954337244957273 24.5819227157386386 S
atom 2.5238582268571621 5.0477168622472579 30.3773064705433846 S
atom 7.5715873330804655 5.0477168622469346 29.4484467465872939 S
atom 2.5238636778639338 10.0954337244953489 29.4484467465881536 S
atom 7.5715818820749146 10.0954337244961856 30.3773064705442444 S
atom 2.5238508007992380 2.5137686505553658 32.3901303383485129 Ba
atom 7.5715744560194347 2.5339482116914707 32.3901303383485413 Ba
atom 2.5238508007998210 7.5816650739381473 32.3901303383481860 Ba
atom 7.5715744560189036 7.5614855128043050 32.3901303383470989 Ba
atom 2.5238771216156279 2.5538197633654574 37.2646363584071736 Ba
atom 7.5716007768353037 2.4938970988832199 37.2646363584071807 Ba
atom 2.5238771216162856 7.5416139611285082 37.2646363584064417 Ba
atom 7.5716007768346705 7.6015366256131429 37.2646363584064204 Ba
atom 5.0480817861326983 5.0477168622477908 34.8702207311099315 Zr
atom 10.0951102221193203 5.0477168622448874 34.8702145510643930 Zr
atom 5.0473865668981635 10.0954337244952406 34.8702145510635191 Zr
atom 10.0958054413540683 10.0954337244981698 34.8702207311060164 Zr
atom 5.0346467883881338 5.0477168622462543 39.8809040445790686 Zr
atom 10.1085768230600337 5.0477168622441706 39.8809029782455653 Zr
atom 5.0608531678381405 10.0954337244967434 39.8809029782491749 Zr
atom 10.0823704436082906 10.0954337244987844 39.8809040445818397 Zr
atom 5.5550772973840088 5.0477168622485049 32.3901303383460046 S
atom 9.5880964364425374 5.0477168622487376 32.3901303383430204 S
atom 4.5403727812238674 10.0954337244944341 32.3901303383408319 S
atom 10.6028009526025908 10.0954337244943400 32.3901303383446475 S
atom 4.5732116155907026 5.0477168622463200 37.3417957321896878 S
atom 10.5699555581974423 5.0477168622470234 37.3417905847667768 S
atom 5.5222319029791924 10.0954337244966421 37.3417905847617391 S
atom 9.6209352708089266 10.0954337244960488 37.3417957321940790 S
atom 5.0477070642826680 2.5238607971077482 34.8606707951586969 S
atom 10.0954307194998201 2.5238560651415969 34.8606707951585761 S
atom 5.0477070642815010 7.5715729273870362 34.8606707951610844 S
atom 10.0954307195009303 7.5715776593532560 34.8606707951605017 S
atom 5.0477365521703774 2.5238663720620775 39.7472894119700371 S
atom 10.0954602073888786 2.5238504901860623 39.7472894119706197 S
atom 5.0477365521704982 7.5715673524327674 39.7472894119681612 S
atom 10.0954602073888378 7.5715832343087417 39.7472894119684383 S
atom 2.5238582268574574 5.0477168622468707 34.4029542061478750 S
atom 7.5715873330806565 5.0477168622481345 35.3318139301046585 S
atom 2.5238636778637873 10.0954337244958356 35.3318139301057172 S
atom 7.5715818820742431 10.0954337244949759 34.4029542061480456 S
atom 2.5238731690489100 5.0477168622475483 40.1983379609578719 S
atom 7.5716077133220390 5.0477168622481106 39.4061590405042352 S
atom 2.5238840580967694 10.0954337244951535 39.4061590405022812 S
atom 7.5715968242761438 10.0954337244952512 40.1983379609570832 S
atom 2.5238734867952624 2.3679749015742186 41.9200945330100581 Ba
atom 7.5715971420137134 2.6797419606715249 41.9200945330108823 Ba
atom 2.5238734867957668 7.7274588229204291 41.9200945330108539 Ba
atom 7.5715971420132648 7.4156917638234754 41.9200945330121897 Ba
atom 5.4046589229550701 5.0477168622483441 42.3614940823938255 S
atom 9.7385299763599029 5.0477168622484347 42.3614901142523195 S
atom 4.6908063211406894 10.0954337244947947 42.3614901142595670 S
atom 10.4523825781731805 10.0954337244945052 42.3614940823918076 S
