#=======================================================
# FHI-aims file: full_relax/full_relax_RP_3_Rx1Ry20_-Rx2-Ry10.in
# Created using the Atomic Simulation Environment (ASE)
# Fri Mar 14 11:19:30 2025
#=======================================================
lattice_vector 10.1029668584255212 0.0000028134959856 -0.0000000000008341 
lattice_vector 0.0000028134959851 10.1029668584251162 -0.0000000000000097 
lattice_vector -0.0000000000030990 -0.0000000000000358 35.2420692824198198 
atom -0.1572528251504402 -0.0000052275528845 0.2857296374474622 Ba
atom 5.2087362543665270 0.0000066343469354 0.2857296375109013 Ba
atom 0.1572542318905712 5.0514886567642936 0.2857296374463988 Ba
atom 4.8942320108210842 5.0514796083648701 0.2857296374906351 Ba
atom 0.0302045475363180 -0.0000191672824846 4.9297026993968123 Ba
atom 5.0212788816813596 0.0000205739373352 4.9297026993968016 Ba
atom -0.0302031407847867 5.0515025964870537 4.9297026994438911 Ba
atom 5.0816893834989676 5.0514656687539157 4.9297026994370956 Ba
atom 2.5257404936807739 2.5117062917282000 2.3306026833398876 Zr
atom 7.5772277713102874 2.5397799506157726 2.3306026835444804 Zr
atom 2.5257457489902175 7.5912619734882991 2.3306026837053873 Zr
atom 7.5772253296531558 7.5631911279839743 2.3306026836351799 Zr
atom 2.5257424179598251 2.5257424185027038 7.3420977677904888 Zr
atom 7.5772258470709097 2.5257438247147146 7.3420977674438674 Zr
atom 2.5257438246950792 7.5772258472679948 7.3420977670018566 Zr
atom 7.5772272539209187 7.5772272543996273 7.3420977677170667 Zr
atom 2.5257446787564604 2.8840015879443883 -0.1508016491741094 S
atom 7.5772235863569417 2.1674846545699569 -0.1508016492170496 S
atom 2.5257415638930043 7.2189666772123413 -0.1508016490064508 S
atom 7.5772295147591429 7.9354864240794747 -0.1508016492950395 S
atom 2.5257462201817673 2.0518294953350136 4.8654205024050876 S
atom 7.5772220448807559 2.9996567475916533 4.8654205025667423 S
atom 2.5257400224503144 8.0511387699821473 4.8654205026289432 S
atom 7.5772310561951306 7.1033143312281819 4.8654205021001840 S
atom 2.5257417145814278 0.0000007035136285 2.0083767918535740 S
atom 7.5772251437865741 0.0000021099908965 2.7993271625276579 S
atom 2.5257431213023773 5.0514841324503275 2.7993271625834732 S
atom 7.5772265505507823 5.0514855395282705 2.0083767919345110 S
atom 2.5257417145704188 0.0000007028151625 7.7937889781337484 S
atom 7.5772251437929921 0.0000021093324848 6.8904065564711932 S
atom 2.5257431213184249 5.0514841319460748 6.8904065564055550 S
atom 7.5772265505434273 5.0514855390779534 7.7937889781751304 S
atom 0.0000007034245762 2.5257417146196270 2.4579585865197275 S
atom 5.0514841329263644 2.5257431213492900 2.4579652857478007 S
atom 0.0000021104586903 7.5772251437837710 2.4579652857168979 S
atom 5.0514855390517805 7.5772265505526288 2.4579585864910833 S
atom 0.0000007034527014 2.5257417147877224 7.3420671826235671 S
atom 5.0514841328164737 2.5257431215355157 7.3421283519429874 S
atom 0.0000021104336039 7.5772251440174392 7.3421283519822840 S
atom 5.0514855391344327 7.5772265507660599 7.3420671826587975 S
atom -0.0302045476162245 0.0000191672488240 9.7544928349280102 Ba
atom 5.0816879768265970 -0.0000177604649316 9.7544928349340125 Ba
atom 0.0302059543168183 5.0514642619354371 9.7544928349299926 Ba
atom 5.0212802883942000 5.0515040031483807 9.7544928349455677 Ba
atom 0.1572528251612424 0.0000052276826417 14.3984658971598360 Ba
atom 4.8942306040530159 -0.0000038207227308 14.3984658971777577 Ba
atom -0.1572514185559002 5.0514782015686777 14.3984658972834261 Ba
atom 5.2087376612773300 5.0514900634700624 14.3984658972125157 Ba
atom 2.5257443422478389 2.5397785441261664 12.3535928513696103 Zr
atom 7.5772239228391944 2.5117076989719891 12.3535928513824107 Zr
atom 2.5257419005326529 7.5631897213289196 12.3535928507473933 Zr
atom 7.5772291780595182 7.5912633797468088 12.3535928512294220 Zr
atom 2.5257386156643729 2.9996553408206830 9.8187750307092401 S
atom 7.5772296494295377 2.0518309020692533 9.8187750310815520 S
atom 2.5257476269592991 7.1033129246500124 9.8187750314670037 S
atom 7.5772234516635271 8.0511401767163218 9.8187750306574948 S
atom 2.5257401571869647 2.1674832480341055 14.8349971826733871 S
atom 7.5772281079842614 2.8840029948156300 14.8349971828465250 S
atom 2.5257460855664102 7.9354850172640603 14.8349971836150036 S
atom 7.5772249931023277 7.2189680838815491 14.8349971829159752 S
atom 2.5257417146019838 0.0000007030176002 11.8848683718917538 S
atom 7.5772251437738385 0.0000021099481451 12.6758187426430275 S
atom 2.5257431213048420 5.0514841320115620 12.6758187425891382 S
atom 7.5772265505786756 5.0514855394674347 11.8848683719738322 S
atom 0.0000007034944881 2.5257417146874586 12.2262302488164423 S
atom 5.0514841326304083 2.5257431213853780 12.2262369480676707 S
atom 0.0000021102202998 7.5772251438447054 12.2262369479426987 S
atom 5.0514855393812095 7.5772265506425338 12.2262302487384957 S
atom 2.5257476455526540 2.6829952430719826 17.9067642788642800 Ba
atom 7.5772206197779068 2.3684909994329510 17.9067642787686907 Ba
atom 2.5257385971397843 7.4199730221063769 17.9067642788380184 Ba
atom 7.5772324816913406 7.7344800792581205 17.9067642788069996 Ba
atom 2.5257615852111943 2.4955378703453315 22.5507373405159690 Ba
atom 7.5772066799856139 2.5559483721207843 22.5507373404896327 Ba
atom 2.5257246574654073 7.6074303948310975 22.5507373405096629 Ba
atom 7.5772464212188027 7.5470227065555173 22.5507373404743809 Ba
atom 5.0655209616347836 5.0514867601474727 19.9516373241610125 Zr
atom 10.0889321392503906 5.0514843184076721 19.9516373249884644 Zr
atom 5.0374501169351342 10.1029663408424799 19.9516373251640076 Zr
atom 10.1170057975447865 10.1029715959366904 19.9516373236429914 Zr
atom 5.0514848358521434 5.0514848358896449 24.9631324095046914 Zr
atom 10.1029682650963046 5.0514862427085214 24.9631324094318678 Zr
atom 5.0514862423209355 10.1029682652099915 24.9631324086681552 Zr
atom 10.1029696724837130 10.1029696718219562 24.9631324078278034 Zr
atom 4.6932256659211600 5.0514825751596844 17.4702329914078760 S
atom 10.4612274351899153 5.0514885035143280 17.4702329905593139 S
atom 5.4097454126769415 10.1029705259428244 17.4702329909047691 S
atom 9.7447105019628584 10.1029674110454355 17.4702329927730950 S
atom 5.5253977588086478 5.0514810336687734 22.4864551441122273 S
atom 9.6290553422402585 5.0514900448923212 22.4864551440353395 S
atom 4.5775733199920667 10.1029720674083485 22.4864551448075396 S
atom 10.5768825947105558 10.1029658696034055 22.4864551445943519 S
atom 5.0514841326025097 2.5257431212396977 20.0789999270468122 S
atom 10.1029675617591366 2.5257445284113884 20.0789932277826537 S
atom 5.0514855393280342 7.5772265509815240 20.0789932278007690 S
atom 10.1029689685321991 7.5772279576109263 20.0789999269861816 S
atom 5.0514841325611819 2.5257431211313350 24.9631629929770931 S
atom 10.1029675617779429 2.5257445277818213 24.9631018235730266 S
atom 5.0514855393093345 7.5772265508635233 24.9631018236560003 S
atom 10.1029689685271826 7.5772279578534505 24.9631629928978107 S
atom 2.5257431214500099 5.0514841325335240 20.4203618040766024 S
atom 7.5772265507289474 5.0514855392589197 19.6294114332084391 S
atom 2.5257445280386177 10.1029675617251140 19.6294114329539440 S
atom 7.5772279571240713 10.1029689684973505 20.4203618038731207 S
atom 2.5257431212883827 5.0514841325664426 24.5114411974923492 S
atom 7.5772265510693400 5.0514855393158298 25.4148236191460590 S
atom 2.5257445281973836 10.1029675617786285 25.4148236189794048 S
atom 7.5772279571641379 10.1029689685287138 24.5114411972989252 S
atom 2.5257232507663336 2.5559469656474065 27.3755274761606415 Ba
atom 7.5772450143662784 2.4955392772834992 27.3755274761635832 Ba
atom 2.5257629919802200 7.5470212995287227 27.3755274761577461 Ba
atom 7.5772080866380813 7.6074318013899429 27.3755274761575400 Ba
atom 2.5257371903363932 2.3684895930740542 32.0195005381091633 Ba
atom 7.5772310747287213 2.6829966502484961 32.0195005382026068 Ba
atom 2.5257490522680541 7.7344786721088568 32.0195005380287725 Ba
atom 7.5772220263039678 7.4199744284293780 32.0195005381879696 Ba
atom 5.0374487101973706 5.0514829116181277 29.9746274929012486 Zr
atom 10.1170043910727596 5.0514881668673395 29.9746274920860287 Zr
atom 5.0655223688391926 10.1029701892346022 29.9746274909513133 Zr
atom 10.0889335458650464 10.1029677478049127 29.9746274917447835 Zr
atom 4.5775719132732036 5.0514886381719908 27.4398096720805498 S
atom 10.5768811877612645 5.0514824404422747 27.4398096722156524 S
atom 5.5253991653758492 10.1029644628536168 27.4398096724249676 S
atom 9.6290567491356231 10.1029734741728632 27.4398096742545015 S
atom 5.4097440059676174 5.0514870967369134 32.4560318231817462 S
atom 9.7447090951638256 5.0514839819126323 32.4560318240606307 S
atom 4.6932270726353584 10.1029660043222425 32.4560318255924614 S
atom 10.4612288419992634 10.1029719327340946 32.4560318250747457 S
atom 5.0514841326102342 2.5257431215188508 29.8472715892876970 S
atom 10.1029675617489154 2.5257445285021287 29.8472648898573674 S
atom 5.0514855393721811 7.5772265510011190 29.8472648900638333 S
atom 10.1029689684883124 7.5772279568161416 29.8472715890834692 S
atom 2.5257431215187314 5.0514841325582642 30.2968533840013201 S
atom 7.5772265503094598 5.0514855393079738 29.5059030132914017 S
atom 2.5257445283572233 10.1029675617677093 29.5059030129957911 S
atom 7.5772279571333945 10.1029689684951016 30.2968533835943106 S
