#=======================================================
# FHI-aims file: full_relax/full_relax_RP_8_Rx0Rz_0-RyRz.in
# Created using the Atomic Simulation Environment (ASE)
# Mon Mar 24 16:03:43 2025
#=======================================================
lattice_vector 9.9767127197125607 0.0000763228218582 0.0125830542988061 
lattice_vector 0.0000763228218583 9.9767127197125891 0.0125830542988043 
lattice_vector 0.1091306638412273 0.1091306638411966 86.4977578867779755 
atom -0.1777499166099960 0.0505307481576239 0.2409924360640699 Ba
atom 5.0426427635340856 0.0506285251593021 0.2449472253030752 Ba
atom 0.0543245650764349 5.0389467236156884 0.2449472253085143 Ba
atom 4.8106446046459679 5.0389252694359428 0.2535754903647411 Ba
atom -0.1043800048567206 0.0445294204048185 4.9448221290473571 Ba
atom 4.8372723632331383 0.0445748365039930 4.9218506487448419 Ba
atom -0.1510458352353735 5.0328930349511145 4.9218506487480091 Ba
atom 4.8840145163707342 5.0329239416747793 4.9574051833826296 Ba
atom 2.4304824587785196 2.5408671220264041 2.3312056957471410 Zr
atom 7.4188405018841177 2.5433814200065701 2.3363980987747222 Zr
atom 2.4305223034401040 7.5316996184489255 2.3363980987736879 Zr
atom 7.4188769800443994 7.5292616432943236 2.3437887500426910 Zr
atom 2.4567079870210233 2.5180700057019880 7.4195387128263963 Zr
atom 7.4450961820927875 2.5532617973296805 7.4253271885367313 Zr
atom 2.4567779836454533 7.5415799957724099 7.4253271885410985 Zr
atom 7.4451025082899775 7.5064645269672825 7.4321217671205959 Zr
atom 2.4381266599174705 2.8377663753559292 -0.1661372094680239 S
atom 7.4263261471394966 2.2527460440125600 -0.1616572890789491 S
atom 2.4380079486660051 7.2410642424563196 -0.1616572890701498 S
atom 7.4265211812123351 7.8261608966213796 -0.1535541551658023 S
atom 2.4499619706107336 2.2330641628026537 4.9124208193807162 S
atom 7.4385204273229117 2.8444981985513782 4.9192555637490827 S
atom 2.4502022289271794 7.8328163969897595 4.9192555637525510 S
atom 7.4383564918283289 7.2214586840637551 4.9250038736804695 S
atom 2.4235656198240418 0.0481876405497317 2.1148722560653548 S
atom 7.4211906679318789 0.0474999925652591 2.7506273586550782 S
atom 2.4328724694853796 5.0358181910077198 2.7506273586557168 S
atom 7.4119601410920284 5.0365821618167379 2.1274553103604390 S
atom 2.9584587067016161 0.0411121903988022 7.6657738137283635 S
atom 7.0182592592572242 0.0417222095263798 7.2012645307694338 S
atom 2.0299410608102684 5.0300404079710228 7.2012645307603602 S
atom 7.9468532279762476 5.0295067116658148 7.6783568680177767 S
atom -0.0614309033544989 2.5526277628030387 2.4417837891147820 S
atom 4.9270042591942866 2.5313204086971210 2.4482052468991209 S
atom -0.0613139392515553 7.5196386071432748 2.4482052469437723 S
atom 4.9269636179131382 7.5410222840711372 2.4543668433785988 S
atom -0.0299405276517543 2.0658058297289461 7.4380222476954581 S
atom 4.9583951202241749 3.0052349471813988 7.4453648082867616 S
atom -0.0299230782207191 7.9935531456295159 7.4453648082388879 S
atom 4.9584539936150094 7.0542003509986877 7.4506053020465810 S
atom -0.0486129267185907 0.0381343546497320 9.9618734816827157 Ba
atom 5.0859266897531930 0.0382422175593651 9.9810989270985075 Ba
atom 0.0976084912724060 5.0265604160060970 9.9810989271277357 Ba
atom 4.9397815945266546 5.0265288759157398 9.9744565360098871 Ba
atom 0.0897661623730563 0.0319252068462852 15.0387254021948795 Ba
atom 4.9556900431222193 0.0318190903854398 15.0428246132947834 Ba
atom -0.0326281553402678 5.0201372888308997 15.0428246133174550 Ba
atom 5.0781606836232251 5.0203197281143916 15.0513084565156330 Ba
atom 2.5069823551526680 2.5328124604720617 12.4955201858068783 Zr
atom 7.4953344865941327 2.5256549365043766 12.5014775660123210 Zr
atom 2.5070162881482787 7.5139731349499295 12.5014775660128077 Zr
atom 7.4953768764205693 7.5212069817396676 12.5081032401049779 Zr
atom 2.5165771224897027 2.5221753236428044 17.5797301573648390 Zr
atom 7.5048965940577439 2.5235064290840303 17.5857913679947835 Zr
atom 2.5165783956135437 7.5118246275300944 17.5857913679938065 Zr
atom 7.5049716437558338 7.5105698449106546 17.5923132116630150 Zr
atom 2.4764554648194808 2.7344351455303673 9.9683366250025003 S
atom 7.4647025238588443 2.3303930056820046 9.9739692028144127 S
atom 2.4763843253616109 7.3187112041204054 9.9739692028171110 S
atom 7.4648499861396003 7.7228296667909140 9.9809196793001203 S
atom 2.5021571416416055 2.3848855379341507 15.0426051848747093 S
atom 7.4906075893207387 2.6671558233530903 15.0491605049208044 S
atom 2.5022893909196915 7.6554740218018873 15.0491605049198220 S
atom 7.4905516628650020 7.3732800592048795 15.0551882391740843 S
atom 2.0207748055905079 0.0351942670482474 12.3685309554519360 S
atom 7.9908523127079052 0.0348784863510838 12.6503783476741862 S
atom 3.0025341142636468 5.0231966847965683 12.6503783476774814 S
atom 7.0091693268596069 5.0235887883158448 12.3811140097527872 S
atom 3.0170757232751604 0.0285122187846497 17.6874047976866073 S
atom 7.0054860775972205 0.0288147163172624 17.4798045128172816 S
atom 2.0171678791535368 5.0171329147626622 17.4798045128151820 S
atom 8.0054702445412964 5.0169067400518710 17.6999878519844103 S
atom 0.0069871277253686 3.0236100432433699 12.5076492159779100 S
atom 4.9953399623749251 2.0347404472555275 12.5127662552810932 S
atom 0.0070217639295749 7.0230586457009965 12.5127662553288506 S
atom 4.9953816489928160 8.0120045645107911 12.5202322702303093 S
atom 0.0204359273636433 2.0205605770933874 17.5791007999780433 S
atom 5.0087864581445150 3.0252046067662621 17.5865361986588624 S
atom 0.0204682596994708 8.0135228052108367 17.5865361986213991 S
atom 5.0088304486306541 7.0089550983597730 17.5916838543153915 S
atom -0.0302668063414479 0.0254257178826331 20.1142950411990924 Ba
atom 5.0693816145047830 0.0253708918224467 20.1235117821058118 Ba
atom 0.0810634160467646 5.0136890902678015 20.1235117821219589 Ba
atom 4.9581277149124832 5.0138202391499851 20.1268780955169539 Ba
atom 0.0834247650431164 0.0189775193199275 25.1949822100080318 Ba
atom 4.9493486457931306 0.0188714028581093 25.1990814211070955 Ba
atom -0.0389695526667079 5.0071896013038879 25.1990814211264578 Ba
atom 5.0718192862974139 5.0073720405865583 25.2075652643237618 Ba
atom 2.5226127353589791 2.5156847018880111 22.6645985096279823 Zr
atom 7.5109322069287243 2.5170158073292974 22.6706597202562534 Zr
atom 2.5226140084828108 7.5053340057743698 22.6706597202560438 Zr
atom 7.5110072566267361 7.5040792231549780 22.6771815639268191 Zr
atom 2.5321748428237036 2.5135361944678554 27.7489123116089189 Zr
atom 7.5205269742646088 2.5063786705002116 27.7548696918140791 Zr
atom 2.5322087758191487 7.4946968689452813 27.7548696918150135 Zr
atom 7.5205693640908438 7.5019307157350470 27.7614953659087824 Zr
atom 2.5196757716105420 2.6452705084922954 20.1222490924920336 S
atom 7.5078335578069950 2.3939206224797749 20.1281407851296734 S
atom 2.5195153593244499 7.3822388209253269 20.1281407851295704 S
atom 7.5080702929149608 7.6336650297597615 20.1348321467902096 S
atom 2.5369017400923615 2.3720353076178005 25.2012293727020982 S
atom 7.5253521877804399 2.6543055930368378 25.2077846927465430 S
atom 2.5370339893700917 7.6426237914812285 25.2077846927458040 S
atom 7.5252962613240761 7.3604298288842696 25.2138124270008319 S
atom 2.0220390848756407 0.0222843909204838 22.5504020256368669 S
atom 8.0103414502647148 0.0220582162098461 22.7705853648053953 S
atom 3.0220232518195975 5.0103764146548873 22.7705853648053314 S
atom 7.0104336061431844 5.0106789121874860 22.5629850799355047 S
atom 3.0183400025586784 0.0156023426567655 27.8692758678691277 S
atom 7.0249752151536846 0.0159944461763654 27.6000115299452027 S
atom 2.0366570167099733 5.0043126446207884 27.6000115299465207 S
atom 8.0067345238263723 5.0039968639233567 27.8818589221693038 S
atom 0.0303606823412340 3.0185542310579567 22.6587060233424928 S
atom 5.0187228712731971 2.0139865242068273 22.6638536789647276 S
atom 0.0304046728273908 7.0023047226514139 22.6638536789982723 S
atom 5.0187552036088068 8.0069487523242131 22.6712890776074829 S
atom 0.0438094819797078 2.0155047649073294 27.7301576073512450 S
atom 5.0321693670425756 3.0044506837170348 27.7376236223343753 S
atom 0.0438511685976166 7.9927688821616716 27.7376236222988304 S
atom 5.0322040032462416 7.0038992861736959 27.7427406616837935 S
atom -0.0468118815725216 0.0125543921441890 30.2567078961992770 Ba
atom 5.0877277348875305 0.0126622550565530 30.2759333416165148 Ba
atom 0.0994095364269243 5.0009804535006355 30.2759333416355290 Ba
atom 4.9415826396695586 5.0009489134127820 30.2692909505193377 Ba
atom 0.2018424449365761 0.0062217731982847 35.3159561745754971 Ba
atom 5.1434948130397489 0.0062671892967942 35.2929846942448862 Ba
atom 0.1551766145686394 4.9945853877457385 35.2929846942701815 Ba
atom 5.1902369661878689 4.9946162944683321 35.3285392288763944 Ba
atom 2.5824131473247900 2.4859293336430395 32.8250626890827135 Zr
atom 7.5708013423962832 2.5211211252708035 32.8308511647968544 Zr
atom 2.5824831439495406 7.5094393237170651 32.8308511648018708 Zr
atom 7.5708076685937815 7.4743238549118551 32.8376457433794400 Zr
atom 2.6086688275330481 2.4958097109654478 37.9139917788481995 Zr
atom 7.5970268706387865 2.4983240089457448 37.9191841818753588 Zr
atom 2.6087086721944535 7.4866422073899219 37.9191841818777746 Zr
atom 7.5970633487991890 7.4842042322355598 37.9265748331474413 Zr
atom 2.5628068055664994 2.7087981252909192 30.2764206748058733 S
atom 7.5510538645901875 2.3047559854426072 30.2820532526187272 S
atom 2.5627356661072711 7.2930741838930366 30.2820532526203863 S
atom 7.5512013268702658 7.6971926465636304 30.2890037291038148 S
atom 2.5889889020859607 2.1946929324222335 35.3311343138720986 S
atom 7.5775473588151119 2.8061269681709797 35.3379690582416686 S
atom 2.5892291604027600 7.7944451666193073 35.3379690582401267 S
atom 7.5773834233202546 7.1830874536934113 35.3437173681688392 S
atom 2.0806561014420542 0.0096844193055214 32.5720330096026629 S
atom 7.9975682686070977 0.0091507230011754 33.0491253468598671 S
atom 3.0092500701607467 4.9974689214464956 33.0491253468534509 S
atom 7.0690506227144727 4.9980789405730244 32.5846160638943871 S
atom 2.6155491883248887 0.0026089691581736 38.1229345672590938 S
atom 7.5946368599320175 0.0033729399629194 37.4997625189650208 S
atom 2.6063186614860441 4.9916911384040015 37.4997625189673585 S
atom 7.6039437095931524 4.9910034904239620 38.1355176215578382 S
atom 0.0807371373565442 2.9733089784211977 32.7997845756194835 S
atom 5.0691142091934775 2.0339561837904374 32.8050250693434080 S
atom 0.0807960107481553 7.0222743822334737 32.8050250693743877 S
atom 5.0691316586234851 7.9617034996863758 32.8123676298813720 S
atom 0.1122275130610420 2.4864870453472072 37.7960230342150822 S
atom 5.1005050702214385 2.5078707222747796 37.8021846307153169 S
atom 0.1121868717751765 7.4961889207191552 37.8021846306844154 S
atom 5.1006220343292643 7.4748815666134343 37.8086060885347948 S
atom -0.0035279553736827 0.0001680845338455 39.9928595980157624 Ba
atom 5.2168647247689659 0.0002658615354648 39.9968143872569115 Ba
atom 0.2285465263172953 4.9885840599930660 39.9968143872584534 Ba
atom 4.9848665658846860 4.9885626058131889 40.0054426523203048 Ba
atom 2.6011831822828104 2.7864450869582473 40.4120471667028340 S
atom 7.5893826694948139 2.2014247556150726 40.4165270870911684 S
atom 2.6010644710316839 7.1897429540638553 40.4165270870858890 S
atom 7.5895777035683398 7.7748396082289428 40.4246302209901884 S
atom 2.5992933407168843 2.3710126758909125 43.4961629066010502 Ba
atom 7.5877093161645650 2.6030871576734578 43.5001176958323228 Ba
atom 2.5993911177185427 7.5914053560456001 43.5001176958536746 Ba
atom 7.5876878619847004 7.3594071972528736 43.5087459609051663 Ba
atom 2.5932920129592496 2.4443825875279397 48.1999925997340526 Ba
atom 7.5816556275047624 2.3977167574105769 48.1770211192752100 Ba
atom 2.5933374290582085 7.3860349556951199 48.1770211192947642 Ba
atom 7.5816865342280533 7.4327771090934762 48.2125756537725607 Ba
atom 5.0896297145747926 4.9792450513276414 45.5863761662800115 Zr
atom 10.0804622110102375 4.9792848959888927 45.5915685693106951 Zr
atom 5.0921440125534412 9.9676030944429463 45.5915685693135799 Zr
atom 10.0780242358536771 9.9676395726035807 45.5989592205847742 Zr
atom 5.0668325982461742 5.0054705795832817 50.6747091833472894 Zr
atom 10.0903425883362825 5.0055405762078449 50.6804976590587515 Zr
atom 5.1020243898736748 9.9938587746379195 50.6804976590933478 Zr
atom 10.0552271195306684 9.9938651008351354 50.6872922376785482 Zr
atom 5.3865289679223149 4.9868892525856623 43.0890332610687921 S
atom 9.7898268349978608 4.9867705413343737 43.0935131814643597 S
atom 4.8015086365791300 9.9750887395789736 43.0935131814642389 S
atom 10.3749234891629243 9.9752837736519968 43.1016163153721337 S
atom 4.7818267553205205 4.9987245629584098 48.1675912899186187 S
atom 10.3815789895799391 4.9989648212751128 48.1744260342848136 S
atom 5.3932607910687427 9.9872830200828702 48.1744260342913080 S
atom 9.7702212766537002 9.9871190845880378 48.1801743442231469 S
atom 5.1013903553584417 2.4873316891988422 45.6969542594915197 S
atom 10.0684011996961829 2.4874486533018279 45.7033757173159856 S
atom 5.0800830012522917 7.4757668517486273 45.7033757176050131 S
atom 10.0897848766234883 7.4757262104675855 45.7095373140793768 S
atom 4.6145684222944281 2.5188220648999891 50.6931927184433206 S
atom 10.5423157381710233 2.5188395143314550 50.7005352789848374 S
atom 5.5539975397470309 7.5071577127798363 50.7005352786179060 S
atom 9.6029629435408825 7.5072165861705216 50.7057757723763913 S
atom 2.5969502331044154 4.9723282123817913 45.3700427265672133 S
atom 7.5845807835622114 4.9816350620436252 46.0057978292089942 S
atom 2.5962625851185233 9.9699532604810877 46.0057978291794143 S
atom 7.5853447543702144 9.9607227336423385 45.3826257809363298 S
atom 2.5898747829524345 5.5072212992876528 50.9209442842321991 S
atom 7.5788030005252329 4.5787036533722478 50.4564350013319896 S
atom 2.5904848020800948 9.5670218518024797 50.4564350012749969 S
atom 7.5782693042191642 10.4956158204982568 50.9335273385916594 S
atom 2.5868969472025105 2.5001496657445745 53.2170439523377965 Ba
atom 7.5753230085591019 2.6463710839730679 53.2362693975396084 Ba
atom 2.5870048101133274 7.6346892821596208 53.2362693977634436 Ba
atom 7.5752914684701436 7.4885441871709721 53.2296270064321462 Ba
atom 2.5806877994005237 2.6385287548515191 58.2938958728307597 Ba
atom 7.5688998813841382 2.5161344372880468 58.2979950837597798 Ba
atom 2.5805816829392643 7.5044526356013428 58.2979950839306085 Ba
atom 7.5690823206673690 7.6269232762522474 58.3064789269574035 Ba
atom 5.0815750530276524 5.0557449477082761 55.7506906563436075 Zr
atom 10.0627357275016589 5.0557788807037678 55.7566480365502244 Zr
atom 5.0744175290599074 10.0440970791461446 55.7566480365549282 Zr
atom 10.0699695742914930 10.0441394689725652 55.7632737106445546 Zr
atom 5.0709379161987309 5.0653397150411781 60.8349006279014191 Zr
atom 10.0605872200811124 5.0653409881650093 60.8409618385331825 Zr
atom 5.0722690216400537 10.0536591866136575 60.8409618385345468 Zr
atom 10.0593324374618032 10.0537342363117421 60.8474836822022596 Zr
atom 5.2831977380577841 5.0252180575932011 53.2235070955336838 S
atom 9.8674737967005051 5.0251469181347810 53.2291396733477455 S
atom 4.8791555982093131 10.0134651161931298 53.2291396733605708 S
atom 10.2715922593709355 10.0136125784735324 53.2360901498449550 S
atom 4.9336481304988622 5.0509197340034468 58.2977756554140853 S
atom 10.2042366143443761 5.0510519832814005 58.3043309754615180 S
atom 5.2159184159180709 10.0393701820665537 58.3043309754572121 S
atom 9.9220426517471623 10.0393142556106572 58.3103587097092344 S
atom 5.5723726357995469 2.5557497202807800 55.7628196863161421 S
atom 9.5718212382524221 2.5557843564849136 55.7679367256669281 S
atom 4.5835030398112844 7.5441025549270080 55.7679367260203946 S
atom 10.5607671570616137 7.5441442415448261 55.7754027409694118 S
atom 4.5693231696453109 2.5691985199159131 60.8342712706875446 S
atom 10.5622853977655726 2.5692308522517315 60.8417066693301578 S
atom 5.5739671993188562 7.5575490506996399 60.8417066690270971 S
atom 9.5577176909149628 7.5575930411857311 60.8468543246828943 S
atom 2.5839568596022375 4.5695373981513283 55.6237014259977727 S
atom 7.5719592773499116 5.5512967068112991 55.9055488182052400 S
atom 2.5836410789050199 10.5396149052675536 55.9055488182233802 S
atom 7.5723513808690832 9.5579319194062915 55.6362844802841607 S
atom 2.5772748113382740 5.5658383158264373 60.9425752682231092 S
atom 7.5658955073161778 4.5659304717019831 60.7349749833602672 S
atom 2.5775773088709837 9.5542486701562233 60.7349749833491330 S
atom 7.5656693326054683 10.5542328370973344 60.9551583225252926 S
atom 2.5741883104365604 2.5184957861512820 63.3694655118216303 Ba
atom 7.5624516828214183 2.6298260086604799 63.3786822525810507 Ba
atom 2.5741334843761887 7.6181442069985126 63.3786822527241966 Ba
atom 7.5625828317034269 7.5068903075270317 63.3820485659721484 Ba
atom 2.5677401118729919 2.6321873575286658 68.4501526806344316 Ba
atom 7.5559521938578769 2.5097930399583079 68.4542518915722269 Ba
atom 2.5676339954116165 7.4981112382752793 68.4542518917384086 Ba
atom 7.5561346331410917 7.6205818789191726 68.4627357347741281 Ba
atom 5.0644472944399856 5.0713753279124898 65.9197689801656423 Zr
atom 10.0540965983295987 5.0713766010364862 65.9258301907924533 Zr
atom 5.0657783998812800 10.0596947994824131 65.9258301907932776 Zr
atom 10.0528418157100887 10.0597698491803360 65.9323520344687637 Zr
atom 5.0622987870204526 5.0809374353777876 71.0040827821470941 Zr
atom 10.0434594615001362 5.0809713683734241 71.0100401623514585 Zr
atom 5.0551412630525281 10.0692895668178206 71.0100401623547413 Zr
atom 10.0506933082897927 10.0693319566439872 71.0166658364481833 Zr
atom 5.1940331010466565 5.0684383643376067 63.3774195630288943 S
atom 9.9310014134782616 5.0682779520515631 63.3833112556670244 S
atom 4.9426832150337443 10.0565961501872518 63.3833112556696534 S
atom 10.1824276223130212 10.0568328852952220 63.3900026173319162 S
atom 4.9207979001636568 5.0856643324671449 68.4563998432440144 S
atom 10.1913863840427457 5.0857965817452087 68.4629551632859119 S
atom 5.2030681855828922 10.0741147805128364 68.4629551632826576 S
atom 9.9091924214453488 10.0740588540565046 68.4689828975388650 S
atom 5.5673168236104926 2.5791232748964719 65.9138764937168276 S
atom 9.5510673152064829 2.5791672653824249 65.9190241493725608 S
atom 4.5627491167590906 7.5674854638253111 65.9190241496675498 S
atom 10.5557113448789011 7.5675177961611553 65.9264595483101772 S
atom 4.5642673574576396 2.5925720745315228 70.9853280780713050 S
atom 10.5415314747182940 2.5926137611495905 70.9927940930200663 S
atom 5.5532132762670559 7.5809319595979998 70.9927940926898060 S
atom 9.5526618787310991 7.5809665958018648 70.9979111320401586 S
atom 2.5710469834739151 4.5708016774291007 65.8055724961738520 S
atom 7.5591390072087856 5.5707858443702971 66.0257558353485337 S
atom 2.5708208087629765 10.5591040428214971 66.0257558353399503 S
atom 7.5594415047415939 9.5591961986970571 65.8181555504753817 S
atom 2.5643649352104778 5.5671025951173521 71.1244463384141739 S
atom 7.5530752371745375 4.5854196092570865 70.8551820004771145 S
atom 2.5647570387300158 9.5737378077144157 70.8551820004917516 S
atom 7.5527594564769851 10.5554971163747506 71.1370293927012796 S
atom 2.5613169846977661 2.5019507108494126 73.5118783668527414 Ba
atom 7.5497430460549184 2.6481721290613827 73.5311038120718337 Ba
atom 2.5614248476091754 7.6364903273607618 73.5311038122580243 Ba
atom 7.5497115059659619 7.4903452323552830 73.5244614209438083 Ba
atom 2.5549843657537412 2.7506050374097120 78.5711266451236412 Ba
atom 7.5433479802981092 2.7039392072706656 78.5481551646773966 Ba
atom 2.5550297818525380 7.6922574054452326 78.5481551649140357 Ba
atom 7.5433788870209009 7.7389995588226697 78.5837096994049631 Ba
atom 5.0346919262062553 5.1311757398871976 76.0802331596033525 Zr
atom 10.0582019162623322 5.1312457365116844 76.0860216353248120 Zr
atom 5.0698837178335481 10.1195639349417892 76.0860216353561327 Zr
atom 10.0230864474570289 10.1195702611391614 76.0928162139314992 Zr
atom 5.0445723035262731 5.1574314200823981 81.1691622493846836 Zr
atom 10.0354047999389149 5.1574712647439238 81.1743546524122621 Zr
atom 5.0470866015047458 10.1457894631974099 81.1743546524149053 Zr
atom 10.0329668247829726 10.1458259413576215 81.1817453036882455 Zr
atom 5.2575607178690085 5.1115693983163704 73.5315911453370177 S
atom 9.8418367764226513 5.1114982588578046 73.5372237231531187 S
atom 4.8535185780200649 10.0998164569472966 73.5372237231643311 S
atom 10.2459552390935134 10.0999639192279478 73.5441741996485234 S
atom 4.7434555250080148 5.1377514944594251 78.5863047844055274 S
atom 10.3432077591417073 5.1379917527755401 78.5931395287769874 S
atom 5.3548895607565408 10.1263099515493042 78.5931395287844339 S
atom 9.7318500462151025 10.1261460160553156 78.5988878387084355 S
atom 5.5220715709639689 2.6294997299106910 76.0549550459723491 S
atom 9.5710369747986732 2.6295586033034666 76.0601955397300600 S
atom 4.5827187763330137 7.6178768017467986 76.0601955400646119 S
atom 10.5104660922506472 7.6178942511760583 76.0675381006060576 S
atom 5.0352496378995282 2.6609901056168184 81.0511935048951955 S
atom 10.0449515132743930 2.6609494643283602 81.0573551013697369 S
atom 5.0566333148278026 7.6492676627734921 81.0573551011083850 S
atom 10.0236441591686329 7.6493846268840224 81.0637765589321191 S
atom 2.5584470118584468 4.6294186940247375 75.8272034801096453 S
atom 7.5462315140010539 5.5580126627219455 76.3042958174211776 S
atom 2.5579133155552198 10.5463308611533364 76.3042958173698054 S
atom 7.5468415331265435 9.6178132152397637 75.8397865344638973 S
atom 2.5513715617133710 5.1643117808828949 81.3781050377660620 S
atom 7.5404537309583795 5.1550812540436217 80.7549329895177834 S
atom 2.5521355325141095 10.1433994524817255 80.7549329894918770 S
atom 7.5397660829794191 10.1527063021437378 81.3906880921290110 S
atom 2.5489306770931819 2.5452346371434373 83.2480300685654839 Ba
atom 7.5373466525417490 2.7773091189172687 83.2519848577975665 Ba
atom 2.5490284540947452 7.7656273172766461 83.2519848577931754 Ba
atom 7.5373251983620495 7.5336291584758426 83.2606131228457400 Ba
atom 5.3352076795018597 5.1499457749365680 83.6672176372362344 S
atom 9.7385055466283763 5.1498270636854349 83.6716975576245545 S
atom 4.7501873481585326 10.1381452619493597 83.6716975576255635 S
atom 10.3236022007932409 10.1383402960224593 83.6798006915357178 S
