#=======================================================
# FHI-aims file: full_relax/full_relax_RP_8_RxRyMz_-Rx-RyMz.in
# Created using the Atomic Simulation Environment (ASE)
# Mon Mar 24 16:13:25 2025
#=======================================================
lattice_vector 10.0082421533362584 -0.0734500141239215 0.0000000000002249 
lattice_vector -0.0734500141239153 10.0082421533364219 0.0000000000000695 
lattice_vector 0.0000000000019312 0.0000000000005837 86.0109718241754280 
atom 0.0614355621831583 -0.1458856808675849 0.2229237000333844 Ba
atom 5.1500067574662900 -0.0981605692478388 0.2229237008362114 Ba
atom 0.1091606738921899 4.9426855144417710 0.2229237005493674 Ba
atom 5.0288316316819319 4.8215103887137962 0.2229237000727067 Ba
atom -0.3024367521858961 0.2222997891220649 5.0128770788943280 Ba
atom 4.7818212877330390 0.2657117452053451 5.0128770790885975 Ba
atom -0.2590247961753648 5.3065578287295141 5.0128770789248973 Ba
atom 4.6649593175452946 5.1896958584458579 5.0128770791385717 Ba
atom 2.4500789494634350 2.5079030000257472 2.4060362774869559 Zr
atom 7.4636141478069034 2.4805921119539112 2.4060362780924032 Zr
atom 2.4227680617144207 7.5214381956577316 2.4060362771550006 Zr
atom 7.4174750213693432 7.4752990694482824 2.4060362777526225 Zr
atom 2.4397708145069714 2.5234682699783089 7.4639786537985531 Zr
atom 7.4480488766239246 2.4909002479124762 7.4639786541451185 Zr
atom 2.4072027923661561 7.5317463313699760 7.4639786543285105 Zr
atom 7.4071668846423222 7.4908643394098213 7.4639786543210969 Zr
atom 2.5749219125905300 2.7241805040322418 -0.1005386923227922 S
atom 7.2473366420937966 2.3557491502747721 -0.1005386917143533 S
atom 2.2064905588959158 7.3965952340958827 -0.1005386910553088 S
atom 7.5423179816704318 7.6915765736203712 -0.1005386921741808 S
atom 2.2009160996437562 2.2237357347033049 4.9700283372628471 S
atom 7.7477814114277050 2.7297549630337259 4.9700283353579850 S
atom 2.7069353278266881 7.7706010467678581 4.9700283362474948 S
atom 7.1683121689406306 7.1911318043631987 4.9700283365557398 S
atom 2.7639527622817703 0.0212257081187456 2.2539184255510420 S
atom 7.1467183985457865 -0.0127551191905576 2.7609713617584553 S
atom 2.1058723151918626 5.0280909651724448 2.7609713617901313 S
atom 7.7313488313927126 4.9886217785678664 2.2539184256212437 S
atom 2.8629617084440344 0.0172750290995309 7.7933197100646856 S
atom 7.0818111799223216 -0.0164634264982387 7.1766554084611540 S
atom 2.0409650964645718 5.0243826582373794 7.1766554085903564 S
atom 7.8303577780650091 4.9846710996437622 7.7933197101433915 S
atom -0.0579507184849895 2.2401683147812044 2.2539184256701139 S
atom 4.9434261837902360 2.8247987477005583 2.7609713618389469 S
atom -0.0974199002938451 7.8656448312202185 2.7609713617303853 S
atom 4.9094453514449636 7.2075643842677541 2.2539184255655758 S
atom -0.0540000358952501 2.1411593681328838 7.7933197101375828 S
atom 4.9471344877830479 2.8897059662945721 7.1766554084546277 S
atom -0.0937115944059514 7.9305520498620323 7.1766554085800136 S
atom 4.9133960321741439 7.1085554378864915 7.7933197100796479 S
atom 0.2495142878066638 -0.1484513557268218 9.9918383145227221 Ba
atom 5.1525724326396611 -0.2862392950567303 9.9918383146229228 Ba
atom 0.1117263485614559 4.7546067886296672 9.9918383145603809 Ba
atom 5.2169103577445322 4.8189447137937114 9.9918383146351815 Ba
atom -0.3195299218711210 0.2165734976948028 14.9958360742756263 Ba
atom 4.7875475791084350 0.2828049147542864 14.9958360743300538 Ba
atom -0.2532985047688743 5.3236509983896720 14.9958360742648082 Ba
atom 4.6478661478553089 5.1839695672315083 14.9958360743586123 Ba
atom 2.4535142661935012 2.5164689269384812 12.4814714000130635 Zr
atom 7.4550482195041159 2.4771567966462218 12.4814714001344704 Zr
atom 2.4142021359894210 7.5180028799366125 12.4814714004821141 Zr
atom 7.4209103356437200 7.4838649961527794 12.4814713997148914 Zr
atom 2.4481167627098972 2.5186038462359934 17.4959045860809432 Zr
atom 7.4529132999196328 2.4825543004330384 17.4959045861195008 Zr
atom 2.4120672168753163 7.5234003836406158 17.4959045863218599 Zr
atom 7.4155128316269119 7.4859999154396748 17.4959045866059206 Zr
atom 2.7120049627824492 2.8456038355175246 9.9834132766054164 S
atom 7.1259133106891888 2.2186660997335421 9.9834132777393272 S
atom 2.0850672271249144 7.2595121835622392 9.9834132766343515 S
atom 7.6794010324010600 7.8129999051984012 9.9834132764962895 S
atom 2.1828607848276733 2.1869263867987829 14.9931952733776832 S
atom 7.7845907595501078 2.7478102776831888 14.9931952715249714 S
atom 2.7437446756657353 7.7886563614793420 14.9931952718400385 S
atom 7.1502568544643745 7.1543224564653674 14.9931952734418577 S
atom 2.8542270717339866 0.0136257007933307 12.1747657725576452 S
atom 7.0858904047383353 -0.0204551527810318 12.8128461731126073 S
atom 2.0450443210849696 5.0203909307468049 12.8128461730538401 S
atom 7.8216231413976587 4.9810217701566515 12.1747657725872287 S
atom 2.8526703699682114 0.0151127729481273 17.8203218970482133 S
atom 7.0864586320164760 -0.0189656937983566 17.1779930657831521 S
atom 2.0456125482686840 5.0218803901942488 17.1779930659260494 S
atom 7.8200664397579747 4.9825088427306437 17.8203218970045789 S
atom -0.0503507087181308 2.1498940048995663 12.1747657725657366 S
atom 4.9511262163819421 2.8856267414019614 12.8128461730276193 S
atom -0.0897198667824869 7.9264728252480836 12.8128461731336074 S
atom 4.9170453602921924 7.1172900746119643 12.1747657725857419 S
atom -0.0518377776645665 2.1514507064417767 17.8203218970727306 S
atom 4.9496367537572690 2.8850585142776675 17.1779930658536522 S
atom -0.0912093291257918 7.9259045981185547 17.1779930658429016 S
atom 4.9155582911001918 7.1188467762461620 17.8203218969918957 S
atom 0.2509573392461399 -0.1472218580492167 20.0025515865503465 Ba
atom 5.1513429347284259 -0.2876823465218808 20.0025515865483570 Ba
atom 0.1104968507578911 4.7531637374464077 20.0025515865956649 Ba
atom 5.2183534090663741 4.8201742117438577 20.0025515865511814 Ba
atom -0.3195299216310195 0.2165734973968668 25.0092671008877332 Ba
atom 4.7875475789695017 0.2828049147077035 25.0092671009184997 Ba
atom -0.2532985045003064 5.3236509985536511 25.0092671007908152 Ba
atom 4.6478661477272558 5.1839695672186474 25.0092671008488381 Ba
atom 2.4481167627098195 2.5186038464869296 22.5091985882045904 Zr
atom 7.4529132997153926 2.4825543004571791 22.5091985867990800 Zr
atom 2.4120672166377495 7.5234003833997223 22.5091985876829916 Zr
atom 7.4155128318119417 7.4859999153969294 22.5091985874234197 Zr
atom 2.4535142663603646 2.5164689268082800 27.5236317767197356 Zr
atom 7.4550482191954313 2.4771567966154713 27.5236317769068890 Zr
atom 2.4142021361408066 7.5180028801166436 27.5236317771011620 Zr
atom 7.4209103352819534 7.4838649962828319 27.5236317771841819 Zr
atom 2.7162511620291241 2.8504220873845290 20.0025515876173827 S
atom 7.1210950588296988 2.2144199004017215 20.0025515901721960 S
atom 2.0802489750074433 7.2552659841970568 20.0025515888947858 S
atom 7.6836472317923192 7.8178181571941563 20.0025515872559829 S
atom 2.1828607846146499 2.1869263866506548 25.0119078970894826 S
atom 7.7845907595024411 2.7478102777271927 25.0119078971756146 S
atom 2.7437446757669153 7.7886563615956410 25.0119078967358703 S
atom 7.1502568543635734 7.1543224562842322 25.0119078982233525 S
atom 2.8526703699226101 0.0151127717214884 22.1847812774610560 S
atom 7.0864586320916940 -0.0189656910739174 22.8271101080598626 S
atom 2.0456125483474286 5.0218803914054337 22.8271101080143950 S
atom 7.8200664396218764 4.9825088400144359 22.1847812775032942 S
atom 2.8542270718605010 0.0136257013055357 27.8303374011836908 S
atom 7.0858904046842728 -0.0204551529980192 27.1922569999715158 S
atom 2.0450443207145836 5.0203909301902687 27.1922569999980581 S
atom 7.8216231414843458 4.9810217702992814 27.8303374010353508 S
atom -0.0518377800033606 2.1514507066957274 22.1847812774673621 S
atom 4.9496367561742645 2.8850585139401166 22.8271101079451704 S
atom -0.0912093275409764 7.9259045980164604 22.8271101081263126 S
atom 4.9155582895313339 7.1188467764093799 22.1847812775029745 S
atom -0.0503507092905222 2.1498940048240560 27.8303374011258526 S
atom 4.9511262170294605 2.8856267415825805 27.1922570000140702 S
atom -0.0897198680140549 7.9264728255345611 27.1922569999399144 S
atom 4.9170453616527121 7.1172900744035346 27.8303374011068207 S
atom 0.2495142881523388 -0.1484513561549939 30.0132648586318815 Ba
atom 5.1525724325354192 -0.2862392953780468 30.0132648586344217 Ba
atom 0.1117263490179834 4.7546067887685002 30.0132648586033532 Ba
atom 5.2169103575388531 4.8189447139066894 30.0132648585908548 Ba
atom -0.3024367517919884 0.2222997884414166 34.9922260946562105 Ba
atom 4.7818212875849904 0.2657117447186880 34.9922260946611345 Ba
atom -0.2590247955859365 5.3065578290409467 34.9922260944961323 Ba
atom 4.6649593172869475 5.1896958587294257 34.9922260945244403 Ba
atom 2.4397708145387704 2.5234682695347410 32.5411245133298550 Zr
atom 7.4480488764410220 2.4909002483091589 32.5411245128816518 Zr
atom 2.4072027933576559 7.5317463320059197 32.5411245139582448 Zr
atom 7.4071668836244040 7.4908643390584277 32.5411245129514768 Zr
atom 2.4500789504018625 2.5079029990230519 37.5990669013625123 Zr
atom 7.4636141464968011 2.4805921117683041 37.5990669023781692 Zr
atom 2.4227680629119197 7.5214381965505517 37.5990669006813576 Zr
atom 7.4174750195319454 7.4752990697913031 37.5990669010516854 Zr
atom 2.7120049625314548 2.8456038353491788 30.0216899007356197 S
atom 7.1259133111111828 2.2186661000879866 30.0216899011662299 S
atom 2.0850672270679103 7.2595121836994743 30.0216899004078535 S
atom 7.6794010322038160 7.8129999050781382 30.0216898995342412 S
atom 2.2009160991592238 2.2237357346679332 35.0350748398514398 S
atom 7.7477814115557706 2.7297549632732618 35.0350748394650182 S
atom 2.7069353279686457 7.7706010470056190 35.0350748390568683 S
atom 7.1683121688803340 7.1911318040616212 35.0350748413041444 S
atom 2.8629617082921843 0.0172750298215820 32.2117834649877466 S
atom 7.0818111800284909 -0.0164634238393772 32.8284477664579555 S
atom 2.0409650961361963 5.0243826573544830 32.8284477664774812 S
atom 7.8303577779584268 4.9846710969949823 32.2117834650741912 S
atom 2.7639527618183948 0.0212257111529276 37.7511847475511217 S
atom 7.1467183989052190 -0.0127551197244160 37.2441318114528741 S
atom 2.1058723148386598 5.0280909625764965 37.2441318113563327 S
atom 7.7313488313711529 4.9886217790449630 37.7511847473781330 S
atom -0.0540000379438849 2.1411593684989900 32.2117834650782342 S
atom 4.9471344900013046 2.8897059660910602 32.8284477664039755 S
atom -0.0937115947283928 7.9305520501599052 32.8284477665292798 S
atom 4.9133960326182446 7.1085554378919964 32.2117834649729247 S
atom -0.0579507180524694 2.2401683150086011 37.7511847474218243 S
atom 4.9434261835250437 2.8247987475222915 37.2441318114050333 S
atom -0.0974199027530771 7.8656448312614291 37.2441318114044932 S
atom 4.9094453547950092 7.2075643842332893 37.7511847475180105 S
atom 0.0614355622423608 -0.1458856811215083 39.7821794743243160 Ba
atom 5.1500067576783524 -0.0981605691789698 39.7821794738958516 Ba
atom 0.1091606741778323 4.9426855145216262 39.7821794746548179 Ba
atom 5.0288316316656987 4.8215103884667254 39.7821794742551020 Ba
atom 2.5749219120783469 2.7241805037804903 40.1056418625321101 S
atom 7.2473366426371717 2.3557491506209036 40.1056418614443899 S
atom 2.2064905586632975 7.3965952340880818 40.1056418636565297 S
atom 7.5423179815986119 7.6915765732653760 40.1056418621515789 S
atom 2.4222624723749400 2.6295837161387645 43.2284096111895408 Ba
atom 7.3419334307139348 2.5084085899577815 43.2284096114496421 Ba
atom 2.3010873461815118 7.5492546733964065 43.2284096108733991 Ba
atom 7.3896585426599577 7.5969797854198129 43.2284096112488712 Ba
atom 2.7861347865086956 2.2613982464749989 48.0183629929587994 Ba
atom 7.7101189005810715 2.1445362758497328 48.0183629927857041 Ba
atom 2.6692728159952179 7.1853823590673978 48.0183629931965328 Ba
atom 7.7535308569364387 7.2287943154264269 48.0183629930325253 Ba
atom 5.0010151546033033 4.9431911033209994 45.4115221872239374 Zr
atom 9.9957221112664527 4.8970519776041330 45.4115221878483979 Zr
atom 4.9548760282616930 9.9378980627019775 45.4115221868033885 Zr
atom 9.9684112224409098 9.9105871749153032 45.4115221874538264 Zr
atom 5.0113232902940901 4.9276258347927371 50.4694645746815169 Zr
atom 10.0112873807216900 4.8867438424888423 50.4694645717165429 Zr
atom 4.9704412980899226 9.9275899255318976 50.4694645738731253 Zr
atom 9.9787193592453036 9.8950219041973391 50.4694645700959299 Zr
atom 4.8761721923952361 4.7269136007835089 42.9049472246551034 S
atom 10.2119996155106136 5.0218949400289210 42.9049472222195689 S
atom 5.1711535310978531 10.0627410232959136 42.9049472260799973 S
atom 9.8435682619138358 9.6943096701876286 42.9049472234112770 S
atom 5.2501780051760765 5.2273583700411050 47.9755142390503337 S
atom 9.7115548459643399 4.6478891269535350 47.9755142431544215 S
atom 4.6707087621865711 9.6887352106221076 47.9755142383472730 S
atom 10.2175740748749746 10.1947544393850684 47.9755142432160824 S
atom 5.3452217888408571 2.4230031390362776 45.7664572740917635 S
atom 9.7279874263706674 2.3890223090251808 45.2594043384332210 S
atom 4.6871413427244670 7.4298683967755528 45.2594043389240284 S
atom 10.3126178592706097 7.3903992116977060 45.7664572742381779 S
atom 5.4101290084921176 2.4267114458159167 50.1821413187635699 S
atom 9.6289784797215887 2.3929729897625740 50.7988056216011117 S
atom 4.5881323955581017 7.4338190758679890 50.7988056214512866 S
atom 10.3775250780509989 7.3941075176516584 50.1821413191704053 S
atom 2.5076679247332940 4.6262953569388818 45.7664572742684825 S
atom 7.5090448175912687 5.2109257898096519 45.2594043386271068 S
atom 2.4681987416088682 10.2517718728127871 45.2594043387281459 S
atom 7.4750639882887508 9.5936914267019819 45.7664572740470774 S
atom 2.5039596149798520 4.5613881375871008 50.1821413188560754 S
atom 7.5050941419176329 5.3099347363948004 50.7988056214809731 S
atom 2.4642480559097475 10.3507808201053635 50.7988056215692296 S
atom 7.4713556866845021 9.5287842075995748 50.1821413190815733 S
atom 2.2341837471384163 2.6321493916462098 52.9973242254467749 Ba
atom 7.3393677548606986 2.6964873165125200 52.9973242254204351 Ba
atom 2.2985216722242905 7.7373333988198292 52.9973242254541077 Ba
atom 7.2015798158068236 7.5995454598067163 52.9973242254350723 Ba
atom 2.8032279557933379 2.2671245376653659 58.0013219862050988 Ba
atom 7.7043926095889805 2.1274431062170738 58.0013219861027522 Ba
atom 2.6635465244299086 7.1682891896167025 58.0013219861400771 Ba
atom 7.7706240268005677 7.2345206067351633 58.0013219860202298 Ba
atom 4.9975798389986652 4.9346251782290302 55.4869573014435673 Zr
atom 10.0042880373667451 4.9004872939252655 55.4869573050841964 Zr
atom 4.9634419548417767 9.9413333765503271 55.4869573025457541 Zr
atom 9.9649759081094427 9.9020212473662106 55.4869573069316218 Zr
atom 5.0029773419193893 4.9324902590747124 60.5013905035785555 Zr
atom 10.0064229571779446 4.8950897902487736 60.5013904993384841 Zr
atom 4.9655768735885273 9.9359358730492175 60.5013905055771275 Zr
atom 9.9703734122797201 9.8998863274606173 60.5013905037688389 Zr
atom 4.7390891419742864 4.6054902689112120 52.9888991941000498 S
atom 10.3334229468652197 5.1589779902865223 52.9888991921275334 S
atom 5.2925768628447960 10.1998240737094452 52.9888991958608173 S
atom 9.7064852117374514 9.5728863391231229 52.9888991945632455 S
atom 5.2682333198298306 5.2641677177524464 57.9986811882658415 S
atom 9.6747454979177441 4.6298338122045291 57.9986811877646531 S
atom 4.6338994144734249 9.6706798960464688 57.9986811840586327 S
atom 10.2356293896143296 10.2315637875642320 57.9986811803403768 S
atom 5.4060497833596965 2.4307031717042711 55.8183320865992556 S
atom 9.6377131168079480 2.3966223155858115 55.1802516860874164 S
atom 4.5968670327818595 7.4374684058664720 55.1802516864555912 S
atom 10.3734458529883398 7.3980992475704292 55.8183320862163441 S
atom 5.4054815560087830 2.4292137146482569 60.1834789771935093 S
atom 9.6392698177675804 2.3951352519303111 60.8258078085233578 S
atom 4.5984237348519041 7.4359813310889562 60.8258078077515734 S
atom 10.3728776259652253 7.3966097798739305 60.1834789773448762 S
atom 2.4999678892321282 4.5654673624054452 55.8183320866035686 S
atom 7.5014448119471053 5.3012000994366932 55.1802516860594494 S
atom 2.4605987286170170 10.3420461828231911 55.1802516864769075 S
atom 7.4673639580376499 9.5328634329559367 55.8183320862142409 S
atom 2.5014573507240732 4.5660355901453000 60.1834789774136780 S
atom 7.5029318821183191 5.2996433973634351 60.8258078080032689 S
atom 2.4620858029101340 10.3404894816315398 60.8258078082893476 S
atom 7.4688534154204964 9.5334316597206659 60.1834789771198970 S
atom 2.2327406957441207 2.6309198919446573 63.0080374995656598 Ba
atom 7.3405972532507420 2.6979303665028271 63.0080374997454626 Ba
atom 2.2997511697314525 7.7387764516359487 63.0080374996292036 Ba
atom 7.2001367649143022 7.5983159631992869 63.0080374997899000 Ba
atom 2.8032279556832145 2.2671245370874291 68.0147530125012167 Ba
atom 7.7043926100666820 2.1274431055660679 68.0147530126593267 Ba
atom 2.6635465243896315 7.1682891898292711 68.0147530126114788 Ba
atom 7.7706240270935023 7.2345206070935841 68.0147530128044338 Ba
atom 5.0029773416984646 4.9324902586286248 65.5146844996145035 Zr
atom 10.0064229574209396 4.8950897908869706 65.5146845038824068 Zr
atom 4.9655768744178328 9.9359358734492460 65.5146844984438985 Zr
atom 9.9703734114596365 9.8998863270680992 65.5146845014924395 Zr
atom 4.9975798381823680 4.9346251782056578 70.5291176867038132 Zr
atom 10.0042880381891877 4.9004872948707154 70.5291176844557981 Zr
atom 4.9634419554710494 9.9413333769877728 70.5291176885543649 Zr
atom 9.9649759075700164 9.9020212466740514 70.5291176813904883 Zr
atom 4.7348429424222251 4.6006720170419682 63.0080374945347117 S
atom 10.3382411987169398 5.1632241895273143 63.0080374992894363 S
atom 5.2973951150342211 10.2040702735246693 63.0080374961466987 S
atom 9.7022390118907538 9.5680680863416505 63.0080374985715750 S
atom 5.2682333194901529 5.2641677173727341 68.0173938140257945 S
atom 9.6747454981708767 4.6298338125702765 68.0173938048642128 S
atom 4.6338994146486856 9.6706798962635947 68.0173938122432986 S
atom 10.2356293894086203 10.2315637876073442 68.0173938094217618 S
atom 5.4054815561780529 2.4292137130328348 65.8325960205095981 S
atom 9.6392698179726271 2.3951352524478735 65.1902671891102869 S
atom 4.5984237343363628 7.4359813326693214 65.1902671894417693 S
atom 10.3728776257126523 7.3966097791999896 65.8325960197959859 S
atom 5.4060497830954795 2.4307031756169901 70.1977429127296659 S
atom 9.6377131157906319 2.3966223188026716 70.8358233142987075 S
atom 4.5968670328567054 7.4374684016785171 70.8358233134276247 S
atom 10.3734458536082883 7.3980992442387743 70.1977429123279251 S
atom 2.5014573462406653 4.5660355903011967 65.8325960200188689 S
atom 7.5029318866620143 5.2996433973411916 65.1902671893041941 S
atom 2.4620858007062010 10.3404894818266868 65.1902671892390373 S
atom 7.4688534176596537 9.5334316597903417 65.8325960202828355 S
atom 2.4999678940580976 4.5654673623820869 70.1977429125614947 S
atom 7.5014448071442281 5.3012000996601349 70.8358233138785494 S
atom 2.4605987326536032 10.3420461836018269 70.8358233138438607 S
atom 7.4673639540971894 9.5328634325962422 70.1977429124958974 S
atom 2.2341837470475534 2.6321493907424651 73.0187507700385368 Ba
atom 7.3393677552745578 2.6964873156123068 73.0187507701421765 Ba
atom 2.2985216725315105 7.7373333993319200 73.0187507697629457 Ba
atom 7.2015798157396382 7.5995454604313197 73.0187507698955045 Ba
atom 2.7861347876796168 2.2613982461003568 77.9977120073750285 Ba
atom 7.7101188994569707 2.1445362758658093 77.9977120075293016 Ba
atom 2.6692728178774812 7.1853823590758745 77.9977120073679515 Ba
atom 7.7535308553678943 7.2287943153307292 77.9977120074778014 Ba
atom 5.0113232900331077 4.9276258349247053 75.5466104300765835 Zr
atom 10.0112873814852499 4.8867438416481006 75.5466104251481170 Zr
atom 4.9704412969347027 9.9275899261763563 75.5466104256857847 Zr
atom 9.9787193599531001 9.8950219051133104 75.5466104279225448 Zr
atom 5.0010151544013386 4.9431911037513148 80.6045528103116595 Zr
atom 9.9957221107064562 4.8970519766391316 80.6045528148321324 Zr
atom 4.9548760254753175 9.9378980621575526 80.6045528104364450 Zr
atom 9.9684112239671805 9.9105871749523633 80.6045528156343494 Zr
atom 4.7390891417500889 4.6054902689924688 73.0271758099505206 S
atom 10.3334229469816634 5.1589779904685757 73.0271758210380995 S
atom 5.2925768633891819 10.1998240742048338 73.0271758096198198 S
atom 9.7064852114104134 9.5728863386796341 73.0271758232519232 S
atom 5.2501780052771512 5.2273583700234179 78.0405607488574162 S
atom 9.7115548465621178 4.6478891271927054 78.0405607483324530 S
atom 4.6707087621483314 9.6887352107164304 78.0405607571609323 S
atom 10.2175740743064551 10.1947544389263616 78.0405607410031621 S
atom 5.4101290086053657 2.4267114483785659 75.8339336783346880 S
atom 9.6289784806878664 2.3929729886904103 75.2172693773713377 S
atom 4.5881323956625657 7.4338190731419589 75.2172693765499076 S
atom 10.3775250768157967 7.3941075188235796 75.8339336774241843 S
atom 5.3452217893227161 2.4230031344492344 80.2496177238998882 S
atom 9.7279874257469618 2.3890223165361801 80.7566706600636763 S
atom 4.6871413422942618 7.4298684022018788 80.7566706598759225 S
atom 10.3126178591792339 7.3903992057811321 80.2496177233599042 S
atom 2.5039596108146291 4.5613881385187627 75.8339336779028486 S
atom 7.5050941456873081 5.3099347359342639 75.2172693769332597 S
atom 2.4642480483486295 10.3507808197446458 75.2172693769884120 S
atom 7.4713556947118400 9.5287842075365425 75.8339336779108777 S
atom 2.5076679180389063 4.6262953568564926 80.2496177236121184 S
atom 7.5090448255390863 5.2109257896861356 80.7566706600159989 S
atom 2.4681987468460616 10.2517718726817044 80.7566706598043282 S
atom 7.4750639842687789 9.5936914262318744 80.2496177235222916 S
atom 2.4222624720243360 2.6295837157778426 82.7876653861485607 Ba
atom 7.3419334311713573 2.5084085901727859 82.7876653860015779 Ba
atom 2.3010873460282548 7.5492546737581536 82.7876653863363288 Ba
atom 7.3896585429717350 7.5969797852074281 82.7876653864958172 Ba
atom 4.8761721921142795 4.7269136002529262 83.1111277782599274 S
atom 10.2119996152378825 5.0218949397917578 83.1111277736696223 S
atom 5.1711535313222958 10.0627410234075434 83.1111277734620586 S
atom 9.8435682615190530 9.6943096697491971 83.1111277771572787 S
