#=======================================================
# FHI-aims file: full_relax/full_relax_RP_5_Rx0Mz_0-Ry0.in
# Created using the Atomic Simulation Environment (ASE)
# Fri Mar 14 11:33:16 2025
#=======================================================
lattice_vector 10.0802576345675199 0.0000000000174180 -0.0042778358356993 
lattice_vector 0.0000000000173926 10.0854615950724771 0.0000000000159321 
lattice_vector -0.0252034774095997 0.0000000000912901 55.1970621635434640 
atom -0.1546640306663775 -0.0000000001669266 0.2857229182419507 Ba
atom 5.2227699611219922 0.0000000001855910 0.2853907846152968 Ba
atom 0.1826411440223630 5.0427307975584563 0.2875297022594892 Ba
atom 4.8854647864774341 5.0427307972229567 0.2835840005689323 Ba
atom 0.0654819303139497 -0.0000000001902344 4.9444787481375547 Ba
atom 5.0529001628427697 0.0000000003687219 4.9628650853915950 Ba
atom 0.0127713454581066 5.0427307975647775 4.9650040035122371 Ba
atom 5.1056107477055290 5.0427307970332755 4.9423398301075787 Ba
atom 2.5368178899458669 2.4994942262739492 2.3356668684995836 Zr
atom 7.5769467037784004 2.5432365710889631 2.3335279521820320 Zr
atom 2.5368178881558405 7.5859673689657559 2.3356668691832221 Zr
atom 7.5769467055928574 7.5422250239323736 2.3335279505999509 Zr
atom 2.5329890031925384 2.5204938425520269 7.3534698212452998 Zr
atom 7.5731178182672094 2.5222369547701660 7.3513309043748123 Zr
atom 2.5329890011122216 7.5649677521740175 7.3534698223792283 Zr
atom 7.5731178203588430 7.5632246399810175 7.3513309032695622 Zr
atom 2.5335691261475821 2.8066147043023135 -0.1434442355817339 S
atom 7.5736979437105152 2.2361160931099939 -0.1455831541293448 S
atom 2.5335691262178424 7.2788468907101684 -0.1434442355430939 S
atom 7.5736979436592380 7.8493455017457388 -0.1455831531052658 S
atom 2.5315018592243117 2.0614333800548339 4.8806801034807172 S
atom 7.5716306771125117 2.9812974178432241 4.8785411823133282 S
atom 2.5315018596895906 8.0240282152113362 4.8806801006808804 S
atom 7.5716306766787662 7.1041641777434004 4.8785411853306844 S
atom 2.5326445421609147 -0.0000000006475005 2.0403780258545603 S
atom 7.5799397683280922 -0.0000000008617053 2.7718568356319624 S
atom 2.5398109507655358 5.0427307978113074 2.7739957536313153 S
atom 7.5727733597673392 5.0427307985953762 2.0382391079427937 S
atom 2.4234834140736146 0.0000000021811363 7.8185959346665923 S
atom 7.6558006460512171 -0.0000000035494942 6.8998301580141534 S
atom 2.6156718287000982 5.0427307953386604 6.9019690759375427 S
atom 7.4636122313916538 5.0427308010676093 7.8164570168192720 S
atom 0.0156036582093443 2.5222745361352277 2.4736385285494875 S
atom 5.0557324753420394 2.5204562613800419 2.4714996106966680 S
atom 0.0156036576508250 7.5631870588571690 2.4736385286318567 S
atom 5.0557324759098750 7.5650053336279894 2.4714996105839981 S
atom 0.0075168644353997 2.6337872100167186 7.3690357892747764 S
atom 5.0476456734703685 2.4089435873912355 7.3668968710542817 S
atom 0.0075168567649796 7.4516743849855143 7.3690357889444904 S
atom 5.0476456811549699 7.6765180075373660 7.3668968713431129 S
atom -0.0083169625530141 0.0000000001644751 9.9026930474475847 Ba
atom 5.0508759447773013 0.0000000002452381 9.8000950686642980 Ba
atom 0.0107471274118948 5.0427307974388107 9.8022339865361854 Ba
atom 5.0318118548310116 5.0427307973730571 9.9005541296191364 Ba
atom -0.0029345899337772 0.0000000002372046 14.7388525610730774 Ba
atom 5.0181301374546212 0.0000000000965542 14.8371727040532129 Ba
atom -0.0219986800718199 5.0427307973029452 14.8393116219804231 Ba
atom 5.0371942276033277 5.0427307974618687 14.7367136430943457 Ba
atom 2.5144386327585933 2.5213653986819784 12.3197033447861983 Zr
atom 7.5545674494486006 2.5213653990956666 12.3175644271981035 Zr
atom 2.5144386329419763 7.5640961964353117 12.3197033448271540 Zr
atom 7.5545674492825663 7.5640961960274762 12.3175644272031590 Zr
atom 2.4958882618401717 2.5222369550256540 17.2859368685537618 Zr
atom 7.5360170810311402 2.5204938429902972 17.2837979492793004 Zr
atom 2.4958882642423923 7.5632246405265819 17.2859368673169733 Zr
atom 7.5360170786510530 7.5649677525323566 17.2837979503858463 Zr
atom 2.5198274439903821 3.0194116870522860 9.8408916844667988 S
atom 7.5599562612268700 2.0233191097655396 9.8387527664658165 S
atom 2.5198274438578632 7.0660499075562582 9.8408916845215124 S
atom 7.5599562613797646 8.0621424845136271 9.8387527665343839 S
atom 2.5090498208234950 2.0233191105712116 14.7985150081261114 S
atom 7.5491786383049755 3.0194116877031032 14.7963760901352650 S
atom 2.5090498209277943 8.0621424850272767 14.7985150081259409 S
atom 7.5491786382164783 7.0660499083072548 14.7963760901035108 S
atom 2.6121602707421054 0.0000000020722852 11.8504906875697955 S
atom 7.4568458114041567 -0.0000000033736561 12.7867770853164497 S
atom 2.4167169940017867 5.0427307955069409 12.7889160032286924 S
atom 7.6522890881927266 5.0427308009759582 11.8483517696099998 S
atom 2.4132054361206801 0.0000000021829279 17.7374376148742776 S
atom 7.6455226681073887 -0.0000000035035783 16.8186718384789167 S
atom 2.6053938506996062 5.0427307954292919 16.8208107564082248 S
atom 7.4533342534477978 5.0427308011864849 17.7352986970813191 S
atom -0.0056257722403834 2.4026538579566492 12.3207728041606863 S
atom 5.0345030370183244 2.6400769395834183 12.3186338865622602 S
atom -0.0056257795723476 7.6828077371014816 12.3207728044889269 S
atom 5.0345030443679022 7.4453846555884606 12.3186338862400273 S
atom -0.0187684084602498 2.6337872101633080 17.2725098198780636 S
atom 5.0213604002692342 2.4089435875724643 17.2703709016575324 S
atom -0.0187684161246011 7.4516743851451981 17.2725098196263502 S
atom 5.0213604079586212 7.6765180076590207 17.2703709020300806 S
atom -0.0767334827770365 0.0000000006033825 19.6970668609441901 Ba
atom 5.0161059193514310 0.0000000000017934 19.6744026875234255 Ba
atom -0.0240228980557351 5.0427307971582698 19.6765416055475129 Ba
atom 4.9633953346504853 5.0427307977720588 19.6949279427743562 Ba
atom 0.1434124782762293 0.0000000002468497 24.3558226904918662 Ba
atom 4.8462361209767533 -0.0000000001333691 24.3518769886517639 Ba
atom -0.1938926966293384 5.0427307975031939 24.3540159065049870 Ba
atom 5.1835412959083111 5.0427307979013580 24.3536837727366020 Ba
atom 2.4920593750370470 2.5432365709098090 22.3037398238384199 Zr
atom 7.5321881955294527 2.4994942259398911 22.3016009052532631 Zr
atom 2.4920593770783102 7.5422250241854849 22.3037398236193276 Zr
atom 7.5321881934979888 7.5859673692061129 22.3016009072248025 Zr
atom 2.4973754056104815 2.9812974176077267 19.7587265873445581 S
atom 7.5375042223572466 2.0614333796687303 19.7565876722289069 S
atom 2.4973754051260482 7.1041641773340469 19.7587265900514240 S
atom 7.5375042228507096 8.0240282150409801 19.7565876690389146 S
atom 2.4953081386837765 2.2361160934396298 24.7828509253810836 S
atom 7.5354369557664587 2.8066147044632728 24.7807120078834338 S
atom 2.4953081386079452 7.8493455017230227 24.7828509249027569 S
atom 7.5354369558599918 7.2788468909979338 24.7807120065202007 S
atom 2.4890663140527400 -0.0000000001483227 21.8654109370716654 S
atom 7.5363615397213195 -0.0000000007194371 22.5968897468842513 S
atom 2.4962327226580987 5.0427307980194920 22.5990286648261289 S
atom 7.5291951311626217 5.0427307983190008 21.8632720190214300 S
atom -0.0268552095755067 2.5222745362981742 22.1679070800133680 S
atom 5.0132736057913707 2.5204562615411752 22.1657681621540341 S
atom -0.0268552100549550 7.5631870589246919 22.1679070800712203 S
atom 5.0132736062973926 7.5650053336987568 22.1657681620357714 S
atom 2.4968437141439446 2.3521715719623764 27.8938873268415328 Ba
atom 7.5369725314973088 2.6905592254351816 27.8917484090732124 Ba
atom 2.4968437141913302 7.7332900231808450 27.8938873272771488 Ba
atom 7.5369725314669171 7.3949023699370358 27.8917484094740082 Ba
atom 2.4987396171418443 2.5483270036910630 32.5640424341705526 Ba
atom 7.5388684346661750 2.4944037938856356 32.5619035161312880 Ba
atom 2.4987396170351635 7.5371345914247492 32.5640424340042003 Ba
atom 7.5388684347905111 7.5910578015505319 32.5619035159432855 Ba
atom 4.9958692654416117 5.0427307990435732 29.9424913001844999 Zr
atom 10.0798114055571020 5.0427307989269137 29.9398470821327898 Zr
atom 5.0396825897203970 10.0854615937466754 29.9419859992798578 Zr
atom 10.0359980812474632 10.0854615938816163 29.9403523825665054 Zr
atom 5.0194055638524375 5.0427307978306946 34.9569459826493230 Zr
atom 10.0604431693974270 5.0427307980638982 34.9546439102560171 Zr
atom 5.0203143523051894 10.0854615949538662 34.9567828283532833 Zr
atom 10.0595343807643722 10.0854615947375770 34.9548070639308506 Zr
atom 5.3041257107153292 5.0427307974809183 27.4635397072793346 S
atom 9.7693996794395215 5.0427307975902691 27.4611344412517404 S
atom 4.7292708619470307 10.0854615953046007 27.4632733590965721 S
atom 10.3442545283288094 10.0854615952124469 27.4614007887376843 S
atom 4.5521171764561883 5.0427307974393658 32.4861364558848962 S
atom 10.5255289600680513 5.0427307972580095 32.4835042804950760 S
atom 5.4854001425002590 10.0854615953455298 32.4856431999884236 S
atom 9.5922459937015674 10.0854615955440448 32.4839975380705965 S
atom 5.0177588368668991 2.5213421098164384 30.0802066672461628 S
atom 10.0578876544225100 2.5213886898720452 30.0780677491885946 S
atom 5.0177588368611437 7.5641194854475744 30.0802066672807022 S
atom 10.0578876544460307 7.5640729054086524 30.0780677495093336 S
atom 5.0198138808979289 2.5213713457019633 34.9738723653858727 S
atom 10.0599426981206825 2.5213594519537361 34.9717334477379680 S
atom 5.0198138808020278 7.5640902495411364 34.9738723653695871 S
atom 10.0599426982335913 7.5641021433073128 34.9717334471038299 S
atom 2.4975503363289402 5.0427307973771640 29.6426009583714922 S
atom 7.5380168264862837 5.0427307974031566 30.3830192266823644 S
atom 2.4978880096349383 10.0854615953879350 30.3851581447884378 S
atom 7.5376791531258034 10.0854615954159179 29.6404620404352706 S
atom 2.4999700846830919 5.0427307975527214 35.4314943944837495 S
atom 7.5396818699820969 5.0427307975742695 34.4950430000835979 S
atom 2.4995530547177167 10.0854615952835687 34.4971819179485522 S
atom 7.5400989001201362 10.0854615951275406 35.4293554765161431 S
atom 2.5008517774484962 2.5130112045038682 37.4545862480503118 Ba
atom 7.5409805949045774 2.5297195931538567 37.4524473300593073 Ba
atom 2.5008517776021120 7.5724503905375089 37.4545862474231157 Ba
atom 7.5409805947696391 7.5557420022805895 37.4524473295579554 Ba
atom 2.5028220102820313 2.5297195929185654 42.3818826057738960 Ba
atom 7.5429508268598218 2.5130112048349766 42.3797436879041740 Ba
atom 2.5028220100639316 7.5557420020502271 42.3818826063063696 Ba
atom 7.5429508270950718 7.5724503905479690 42.3797436883583245 Ba
atom 5.0219013022030161 5.0427307951793185 39.9171649661499828 Zr
atom 10.0620301196179120 5.0427307954681284 39.9150260471750897 Zr
atom 5.0219013026765875 10.0854615975679547 39.9171649658869043 Zr
atom 10.0620301195764323 10.0854615972968062 39.9150260470415574 Zr
atom 5.0243970411161198 5.0427307976010374 44.8773839545483710 Zr
atom 10.0636170694380258 5.0427307975117808 44.8754081925651533 Zr
atom 5.0234882527300231 10.0854615951181739 44.8775471087446149 Zr
atom 10.0645258585833393 10.0854615952250573 44.8752450387710979 Zr
atom 5.5285691221297881 5.0427307978425189 37.4412714747413133 S
atom 9.5533347812724525 5.0427307981103668 37.4395274244981380 S
atom 4.5132059639189741 10.0854615949214796 37.4416663400874015 S
atom 10.5686979394477714 10.0854615946706438 37.4391325589032178 S
atom 4.5152334822846800 5.0427307977794023 42.3930584646284743 S
atom 10.5707254582955077 5.0427307974793880 42.3905246802378670 S
atom 5.5305966410916190 10.0854615949578204 42.3926635997330621 S
atom 9.5553622997125149 10.0854615952757474 42.3909195459755068 S
atom 5.0219013022802574 2.5213689624285687 39.9171649683824015 S
atom 10.0620301197472344 2.5213618355584893 39.9150260501379748 S
atom 5.0219013024391588 7.5640926327833427 39.9171649684207281 S
atom 10.0620301196058186 7.5640997596706461 39.9150260509638315 S
atom 5.0239887238749645 2.5213713451965138 44.8604575709229394 S
atom 10.0641175411675849 2.5213594518022164 44.8583186531715441 S
atom 5.0239887238545355 7.5640902499919855 44.8604575708627280 S
atom 10.0641175412051673 7.5641021434027715 44.8583186525071014 S
atom 2.5016448341410018 5.0427307980719673 39.4399157880278324 S
atom 7.5421577707262966 5.0427307979771800 40.3944141490316113 S
atom 2.5020289513824601 10.0854615946499724 40.3965530670130235 S
atom 7.5417736532830979 10.0854615948061692 39.4377768701181850 S
atom 2.5041207338073086 5.0427307976045936 45.3392869357670847 S
atom 7.5438325211456210 5.0427307976809139 44.4028355420927383 S
atom 2.5037037038426102 10.0854615950701891 44.4049744600284129 S
atom 7.5442495507476490 10.0854615951008206 45.3371480177588069 S
atom 2.5049341698557832 2.4944037936565691 47.2724264212161103 Ba
atom 7.5450629878240330 2.5483270039706971 47.2702875032915486 Ba
atom 2.5049341699955106 7.5910578013570289 47.2724264211197180 Ba
atom 7.5450629877019182 7.5371345913657377 47.2702875031979843 Ba
atom 2.5068300732550877 2.6905592254487005 51.9425815272076647 Ba
atom 7.5469588905914256 2.3521715721536856 51.9404426091913933 Ba
atom 2.5068300732828779 7.3949023696339493 51.9425815273512086 Ba
atom 7.5469588905815685 7.7332900231188537 51.9404426093622220 Ba
atom 5.0479333405476403 5.0427307969722737 49.8918386385810138 Zr
atom 10.0442488326244881 5.0427307968065005 49.8902050202339780 Zr
atom 5.0041200154941832 10.0854615957444178 49.8923439393159001 Zr
atom 10.0880621575797882 10.0854615959289085 49.8896997194983243 Zr
atom 5.4916854281585312 5.0427307977189955 47.3481934781967482 S
atom 9.5985312795087570 5.0427307979309708 47.3465478158000650 S
atom 4.5584024622893136 10.0854615950010356 47.3486867343062201 S
atom 10.5318142455469133 10.0854615948071267 47.3460545587355526 S
atom 4.7396768939817511 5.0427307976206048 52.3707902282704367 S
atom 10.3546605600582087 5.0427307975595745 52.3689176594313892 S
atom 5.3145317426461034 10.0854615951018207 52.3710565763332809 S
atom 9.7798057110744381 10.0854615951814992 52.3686513118343484 S
atom 5.0260437677422640 2.5213421090635153 49.7541232690804591 S
atom 10.0661725850295856 2.5213886890639641 49.7519843511908419 S
atom 5.0260437677346532 7.5641194861120411 49.7541232691282858 S
atom 10.0661725850549786 7.5640729061270013 49.7519843515129878 S
atom 2.5057857789867621 5.0427307976966160 49.4513107094038844 S
atom 7.5462522674687600 5.0427307977163087 50.1917289782274310 S
atom 2.5061234525495175 10.0854615949952251 50.1938678961997198 S
atom 7.5459145944543691 10.0854615950226751 49.4491717915107074 S
