#=======================================================
# FHI-aims file: full_relax/full_relax_RP_1_00Rz_00Rz.in
# Created using the Atomic Simulation Environment (ASE)
# Fri Mar 14 11:16:58 2025
#=======================================================
lattice_vector 10.0137827556705243 -0.0000000807142028 -0.0000000000000015 
lattice_vector -0.0000000807142028 10.0137827556705243 -0.0000000000000027 
lattice_vector -0.0000000000000023 -0.0000000000000042 15.6661189771972236 
atom 0.0000000000000009 -0.0000000000000848 0.2276090638398353 Ba
atom 5.0068913778351796 -0.0000000403571708 0.2276090638398799 Ba
atom -0.0000000403572899 5.0068913778352790 0.2276090638398547 Ba
atom 5.0068913374783630 5.0068913374779740 0.2276090638398274 Ba
atom 0.0000000000000167 -0.0000000000001105 4.6680531165346251 Ba
atom 5.0068913778350561 -0.0000000403571852 4.6680531165348045 Ba
atom -0.0000000403572469 5.0068913778350757 4.6680531165346482 Ba
atom 5.0068913374779491 5.0068913374780504 4.6680531165346935 Ba
atom 2.5034456687391176 2.5034456687389866 2.4478310901871350 Zr
atom 7.5103370465742794 2.5034456283818929 2.4478310901873108 Zr
atom 2.5034456283818654 7.5103370465742172 2.4478310901872828 Zr
atom 7.5103370062170294 7.5103370062171821 2.4478310901871065 Zr
atom 2.5034456687390647 2.5034456687390807 -0.1067287623158293 S
atom 7.5103370465739738 2.5034456283819475 -0.1067287623157867 S
atom 2.5034456283820012 7.5103370465743753 -0.1067287623158132 S
atom 7.5103370062170969 7.5103370062171901 -0.1067287623159250 S
atom 2.5034456687390847 2.5034456687390167 5.0023909426901492 S
atom 7.5103370465739152 2.5034456283817921 5.0023909426902291 S
atom 2.5034456283820736 7.5103370465744135 5.0023909426902931 S
atom 7.5103370062170560 7.5103370062168979 5.0023909426900355 S
atom 2.5034359681074490 0.0000002841582318 2.4478310901873415 S
atom 7.5103467875627059 -0.0000003648726800 2.4478310901873050 S
atom 2.5034553693704762 5.0068910533196931 2.4478310901874085 S
atom 7.5103273055853395 5.0068916216363855 2.4478310901873885 S
atom -0.0000003245155632 2.5034554097275570 2.4478310901873552 S
atom 5.0068916619935031 2.5034359277503100 2.4478310901873375 S
atom 0.0000002438011011 7.5103273459425077 2.4478310901873317 S
atom 5.0068910129625444 7.5103467472056895 2.4478310901872993 S
atom 2.5034456687388120 2.5034456687390385 8.0606685524379849 Ba
atom 7.5103370465742536 2.5034456283818041 8.0606685524381732 Ba
atom 2.5034456283818396 7.5103370465743842 8.0606685524383881 Ba
atom 7.5103370062167079 7.5103370062169468 8.0606685524378090 Ba
atom 2.5034456687387268 2.5034456687389715 12.5011126051330415 Ba
atom 7.5103370465742678 2.5034456283818094 12.5011126051330823 Ba
atom 2.5034456283818458 7.5103370465742039 12.5011126051330521 Ba
atom 7.5103370062169992 7.5103370062168713 12.5011126051328727 Ba
atom 5.0068913374780832 5.0068913374782156 10.2808905787855736 Zr
atom 10.0137827153133614 5.0068912971211290 10.2808905787855807 Zr
atom 5.0068912971209594 10.0137827153136119 10.2808905787857263 Zr
atom 10.0137826749561611 10.0137826749563388 10.2808905787855149 Zr
atom 5.0068913374781294 5.0068913374781374 7.7263307262825869 S
atom 10.0137827153131553 5.0068912971212454 7.7263307262825869 S
atom 5.0068912971212214 10.0137827153134147 7.7263307262826748 S
atom 10.0137826749560475 10.0137826749561665 7.7263307262825194 S
atom 5.0068913374781934 5.0068913374781037 12.8354504312886259 S
atom 10.0137827153131145 5.0068912971210153 12.8354504312886863 S
atom 5.0068912971212027 10.0137827153135657 12.8354504312886757 S
atom 10.0137826749560297 10.0137826749564081 12.8354504312886082 S
atom 5.0068816368463054 2.5034459528974611 10.2808905787851810 S
atom 10.0137924563023191 2.5034453038665045 10.2808905787853853 S
atom 5.0069010381095040 7.5103367220589030 10.2808905787856411 S
atom 10.0137729743248372 7.5103372903755643 10.2808905787856162 S
atom 2.5034453442235329 5.0069010784665835 10.2808905787854972 S
atom 7.5103373307326207 5.0068815964892357 10.2808905787853586 S
atom 2.5034459125402195 10.0137730146818189 10.2808905787852183 S
atom 7.5103366817016930 10.0137924159448506 10.2808905787851241 S
