#=======================================================
# FHI-aims file: full_relax/full_relax_RP_6_RxRyMz_-Rx-Ry-Mz.in
# Created using the Atomic Simulation Environment (ASE)
# Fri Mar 14 11:48:30 2025
#=======================================================
lattice_vector 10.0106915384174666 -0.0667210904531749 -0.0000000000000049 
lattice_vector -0.0667210904531753 10.0106915384174666 -0.0000000000000007 
lattice_vector -0.0000000000000326 -0.0000000000000041 65.9336563580318540 
atom 0.0960322795761504 -0.1825091901601580 0.2185441178120939 Ba
atom 5.1878549593677707 -0.1293928248042618 0.2185441178136384 Ba
atom 0.1491486449333408 4.9093134896307511 0.2185441178094368 Ba
atom 5.0680175035580435 4.7894760338211091 0.2185441178195202 Ba
atom -0.2638272125728509 0.1853913804171836 5.0068791670628991 Ba
atom 4.8199543887988643 0.2304666673540675 5.0068791670640254 Ba
atom -0.2187519256353309 5.2691729817719120 5.0068791670618404 Ba
atom 4.7081580114094779 5.1573766043795928 5.0068791670626602 Ba
atom 2.4872584767960828 2.4744659224658299 2.4030610515007669 Zr
atom 7.5028650707290003 2.4513662019520317 2.4030610514973891 Zr
atom 2.4641587562873144 7.4900725163935187 2.4030610514708131 Zr
atom 7.4592437007807124 7.4464511464512766 2.4030610514733590 Zr
atom 2.4791741553951629 2.4892215438959333 7.4598832321641080 Zr
atom 7.4881094492847335 2.4594505233522956 7.4598832321704531 Zr
atom 2.4494031348514453 7.4981568378010213 7.4598832321702888 Zr
atom 7.4511593793751629 7.4612067678926044 7.4598832321666189 Zr
atom 2.6120432018762356 2.6954512212419117 -0.1038798071868875 S
atom 7.2818797719491242 2.3265814768800821 -0.1038798071701183 S
atom 2.2431734575160620 7.3652877913163195 -0.1038798071565660 S
atom 7.5840284258548545 7.6674364452201811 -0.1038798071601326 S
atom 2.2377882949696106 2.1884759298800103 4.9649506944330239 S
atom 7.7888550633072740 2.7008363837865526 4.9649506944171398 S
atom 2.7501487488684822 7.7395426982164537 4.9649506944499677 S
atom 7.2097735189520069 7.1604611538667493 4.9649506944463004 S
atom 2.8013070643399058 -0.0131864131290002 2.2481002390342066 S
atom 7.1879430232714414 -0.0437143657273066 2.7567404442403176 S
atom 2.1492367088342217 4.9949919487467627 2.7567404442412142 S
atom 7.7732922883199684 4.9587988109009471 2.2481002390355362 S
atom 2.8977608821294933 -0.0176192182542517 7.7868154199158912 S
atom 7.1222510955254394 -0.0477715742142285 7.1690722230036679 S
atom 2.0835447810868422 4.9909347403109976 7.1690722230040391 S
atom 7.8697461061117728 4.9543660058156647 7.7868154199170050 S
atom -0.0201741321617351 2.2040387048696002 2.2481002390344509 S
atom 4.9823390444932993 2.7893879699207931 2.7567404442413630 S
atom -0.0563672699537033 7.8280942843514563 2.7567404442409278 S
atom 4.9518110918362233 7.1760239288528576 2.2481002390352187 S
atom -0.0157413270264504 2.1075848870742142 7.7868154199187973 S
atom 4.9863962529324919 2.8550798976709224 7.1690722230011410 S
atom -0.0523100614934799 7.8937862120944038 7.1690722230064230 S
atom 4.9562438969468792 7.0795701110636378 7.7868154199142081 S
atom 0.2829962936834691 -0.1842070492222277 9.9845836599460700 Ba
atom 5.1895528184394895 -0.3163568389037137 9.9845836599454216 Ba
atom 0.1508465040044109 4.7223494755142195 9.9845836599472477 Ba
atom 5.2549815176662129 4.7877781747404500 9.9845836599466757 Ba
atom -0.2800969291998170 0.1804808351895260 14.9849218995572393 Ba
atom 4.8248649340176106 0.2467363839704224 14.9849218995578646 Ba
atom -0.2138413804181334 5.2854426984070679 14.9849218995562854 Ba
atom 4.6918882947831468 5.1524660591724682 14.9849218995569107 Ba
atom 2.4903509888151807 2.4831816368427488 12.4770711919688271 Zr
atom 7.4941493563485695 2.4482736899368214 12.4770711919711559 Zr
atom 2.4554430419145881 7.4869800043745141 12.4770711920027946 Zr
atom 7.4623362127977746 7.4551668608213228 12.4770711919989559 Zr
atom 2.4903509888211950 2.4831816368425184 17.4927726071441754 Zr
atom 7.4941493563436818 2.4482736899302822 17.4927726071176046 Zr
atom 2.4554430419090743 7.4869800043753347 17.4927726071322560 Zr
atom 7.4623362127973705 7.4551668608283759 17.4927726070918119 Zr
atom 2.7514840242451397 2.8127352375630683 9.9765977865908297 S
atom 7.1645957556291000 2.1871406545082652 9.9765977865921336 S
atom 2.1258894411963252 7.2258469689455982 9.9765977865547537 S
atom 7.7234692482273042 7.7847204615380674 9.9765977865679272 S
atom 2.2212117667672486 2.1533183999163867 14.9849218995376532 S
atom 7.8240125932724371 2.7174129119863459 14.9849218995417495 S
atom 2.7853062788368828 7.7561192264202168 14.9849218995168005 S
atom 7.1931969907521767 7.1253036239001029 14.9849218995326527 S
atom 2.8886556989341923 -0.0204862767966854 12.1654122653996772 S
atom 7.1258338538116384 -0.0509567495383573 12.8032964315286772 S
atom 2.0871275393757247 4.9877495649251049 12.8032964315305211 S
atom 7.8606409229148539 4.9514989472169617 12.1654122653979258 S
atom 2.8886556989362924 -0.0204862767767306 17.8044315337009387 S
atom 7.1258338538112662 -0.0509567495303190 17.1665473675635312 S
atom 2.0871275393723510 4.9877495649052923 17.1665473675607814 S
atom 7.8606409229165539 4.9514989472080009 17.8044315337021857 S
atom -0.0128742684511356 2.1166900702721789 12.1654122653988672 S
atom 4.9895814282820909 2.8514971393793886 12.8032964315308444 S
atom -0.0491248861555684 7.8902034538119006 12.8032964315284001 S
atom 4.9591109555337463 7.0886752942577180 12.1654122653987375 S
atom -0.0128742684548818 2.1166900702727207 17.8044315337002175 S
atom 4.9895814282851934 2.8514971393808839 17.1665473675617122 S
atom -0.0491248861691964 7.8902034538145571 17.1665473675626075 S
atom 4.9591109555500612 7.0886752942527576 17.8044315337027577 S
atom 0.2829962936944964 -0.1842070492303865 19.9852601391380418 Ba
atom 5.1895528184303021 -0.3163568389060388 19.9852601391366420 Ba
atom 0.1508465040169830 4.7223494755186053 19.9852601391373490 Ba
atom 5.2549815176568879 4.7877781747419252 19.9852601391361695 Ba
atom -0.2638272125685185 0.1853913804090604 24.9629646320469547 Ba
atom 4.8199543887988288 0.2304666673514237 24.9629646320436756 Ba
atom -0.2187519256291961 5.2691729817751130 24.9629646320458640 Ba
atom 4.7081580114086039 5.1573766043779941 24.9629646320423895 Ba
atom 2.4791741553936366 2.4892215438954111 22.5099605668644784 Zr
atom 7.4881094492834182 2.4594505233525221 22.5099605668596645 Zr
atom 2.4494031348469538 7.4981568378029655 22.5099605668306211 Zr
atom 7.4511593793740527 7.4612067678923033 22.5099605668847431 Zr
atom 2.4872584767806312 2.4744659224551580 27.5667827477315477 Zr
atom 7.5028650707402305 2.4513662019544493 27.5667827477488458 Zr
atom 2.4641587562913445 7.4900725164127984 27.5667827477625309 Zr
atom 7.4592437007820438 7.4464511464630192 27.5667827477748517 Zr
atom 2.7514840242438052 2.8127352375608643 19.9932460125491502 S
atom 7.1645957556340347 2.1871406545114218 19.9932460125856579 S
atom 2.1258894411944245 7.2258469689469749 19.9932460125861553 S
atom 7.7234692482230063 7.7847204615350076 19.9932460126212419 S
atom 2.2377882949645627 2.1884759298779257 25.0048931046609724 S
atom 7.7888550633059292 2.7008363837905427 25.0048931046593736 S
atom 2.7501487488738268 7.7395426982207862 25.0048931046906446 S
atom 7.2097735189486167 7.1604611538637633 25.0048931045712273 S
atom 2.8977608821306040 -0.0176192182374265 22.1830283792004721 S
atom 7.1222510955310758 -0.0477715742178087 22.8007715761033403 S
atom 2.0835447810838756 4.9909347402924009 22.8007715761112486 S
atom 7.8697461061034257 4.9543660058175023 22.1830283792029306 S
atom 2.8013070643371218 -0.0131864131594899 27.7217435600405366 S
atom 7.1879430232699582 -0.0437143656737109 27.2131033548365444 S
atom 2.1492367088377105 4.9949919487685772 27.2131033548350878 S
atom 7.7732922883204543 4.9587988108307659 27.7217435600458124 S
atom -0.0157413270634410 2.1075848870797822 22.1830283791993672 S
atom 4.9863962529718480 2.8550798976684337 22.8007715761098666 S
atom -0.0523100615525006 7.8937862120953568 22.8007715761052197 S
atom 4.9562438970071794 7.0795701110637230 22.1830283792040426 S
atom -0.0201741321839437 2.2040387048768446 27.7217435600429454 S
atom 4.9823390445154851 2.7893879699218149 27.2131033548353400 S
atom -0.0563672698904617 7.8280942843508834 27.2131033548351375 S
atom 4.9518110917602716 7.1760239288561358 27.7217435600423485 S
atom 0.0960322795706966 -0.1825091901703258 29.7512996812972297 Ba
atom 5.1878549593791803 -0.1293928248059205 29.7512996813041894 Ba
atom 0.1491486449366411 4.9093134896345862 29.7512996813110213 Ba
atom 5.0680175035576305 4.7894760338172908 29.7512996813201411 Ba
atom 2.6120432018682265 2.6954512212348929 30.0737236062059168 S
atom 7.2818797719585975 2.3265814768913686 30.0737236061721838 S
atom 2.2431734575271993 7.3652877913260886 30.0737236061461033 S
atom 7.5840284258484010 7.6674364452150625 30.0737236061956494 S
atom 2.6685018021668929 2.3899603324229992 33.1853722967931049 Ba
atom 7.5873706607666920 2.2701228766067314 33.1853722967878326 Ba
atom 2.5486643463435552 7.3088291910202789 33.1853722968090565 Ba
atom 7.6404870261357036 7.3619455563887852 33.1853722967930977 Ba
atom 2.3006012315996252 2.7498198245789589 37.9737073460787542 Ba
atom 7.2275111686143907 2.6380234471898492 37.9737073460792729 Ba
atom 2.1888048542014364 7.6767297615837702 37.9737073460744128 Ba
atom 7.2725864555603943 7.7218050485212313 37.9737073460751020 Ba
atom 4.9835119134848043 4.9707193592041383 35.3698892303692531 Zr
atom 9.9785968580023283 4.9270979892699405 35.3698892303352608 Zr
atom 4.9398905435227212 9.9658043036268324 35.3698892303166588 Zr
atom 9.9554971375261339 9.9427045831359369 35.3698892303172556 Zr
atom 4.9687562920644002 4.9788036805850311 40.4267114112445185 Zr
atom 9.9705125366015004 4.9418536106696145 40.4267114112933825 Zr
atom 4.9318062221340240 9.9805599250997759 40.4267114112922314 Zr
atom 9.9407415160677921 9.9507889045568341 40.4267114113316168 Zr
atom 4.7625266147352052 4.8459346340973770 32.8629483718961382 S
atom 10.1033815830594484 5.1480832879938285 32.8629483719589146 S
atom 5.0646752686318273 10.1867896024293145 32.8629483719910951 S
atom 9.7345118387261174 9.8179198581004119 32.8629483720273114 S
atom 5.2695019061005013 5.2201895410073877 37.9317788734985726 S
atom 9.7291266761625863 4.6411079966399367 37.9317788734678203 S
atom 4.6904203617340787 9.6798143110874673 37.9317788734408055 S
atom 10.2414871300673980 10.1921747649924264 37.9317788733602015 S
atom 4.6685898660520406 2.4756387913840729 35.7235686232870435 S
atom 10.2926454455290095 2.4394456535605253 35.2149284180836801 S
atom 5.2539391311002070 7.4781519682452391 35.2149284180778182 S
atom 9.6405750900373608 7.4476240155664204 35.7235686232823042 S
atom 4.6028979383099600 2.4715815829842032 40.1359004020069463 S
atom 10.3890992633214356 2.4350128485774127 40.7536435989106209 S
atom 5.3503929488923072 7.4737191630479698 40.7536435989135413 S
atom 9.5748831622876285 7.4435668070068060 40.1359004020050349 S
atom 2.4629858871900292 5.3087411271377976 35.7235686232842866 S
atom 7.4711642491500472 4.6566707716210631 35.2149284180722972 S
atom 2.4324579345655675 9.6953770860913391 35.2149284180889453 S
atom 7.4349711112939980 10.2807263511147635 35.7235686232861198 S
atom 2.4670430956688945 5.3744330548847454 40.1359004020078558 S
atom 7.4755970542173893 4.5602169538403636 40.7536435989136621 S
atom 2.4368907397726138 9.5989232682851160 40.7536435989096404 S
atom 7.4390283196657050 10.3464182788653130 40.1359004020038483 S
atom 2.6701996612212433 2.2029963183116323 42.9514118389858055 Ba
atom 7.7743346748866431 2.2684250175370395 42.9514118389878945 Ba
atom 2.7356283604468152 7.3071313319577689 42.9514118389843489 Ba
atom 7.6421848852079171 7.1749815422822900 42.9514118389866084 Ba
atom 2.3055117768044253 2.7660895411928155 47.9517500785638759 Ba
atom 7.2112414519928478 2.6331129019585435 47.9517500785618438 Ba
atom 2.1725351375696729 7.6718192163876520 47.9517500785635846 Ba
atom 7.2774970007750701 7.7380747651693067 47.9517500785615454 Ba
atom 4.9747961991175877 4.9676268471450582 45.4438993710328489 Zr
atom 9.9816893700285920 4.9358137036098420 45.4438993710236474 Zr
atom 4.9429830555767627 9.9745200180490876 45.4438993710577392 Zr
atom 9.9467814231114371 9.9396120711343539 45.4438993710224963 Zr
atom 4.9747961991095195 4.9676268471393659 50.4596007860410367 Zr
atom 9.9816893700387688 4.9358137035980283 50.4596007860369156 Zr
atom 4.9429830555691430 9.9745200180596427 50.4596007860778428 Zr
atom 9.9467814231224185 9.9396120711403366 50.4596007860777149 Zr
atom 4.6452425984119987 4.7064938117251316 42.9434259655072381 S
atom 10.2428224054397639 5.2653673043229947 42.9434259654736366 S
atom 5.2041160910085029 10.3040736187527671 42.9434259654998201 S
atom 9.6172278223948169 9.6784790357136483 42.9434259655390562 S
atom 5.3046594360577410 5.2367660692031954 47.9517500786050377 S
atom 9.7125501479693508 4.6059504666845568 47.9517500786250679 S
atom 4.6738438335362478 9.6446567811169590 47.9517500785189839 S
atom 10.2766446600312040 10.2087512931817930 47.9517500785312194 S
atom 4.6064806965938798 2.4683964076439127 45.7701246105467376 S
atom 10.3799940801351731 2.4321457899391690 45.1322404444105629 S
atom 5.3412877657013729 7.4708521044692136 45.1322404444073797 S
atom 9.5784659205717819 7.4403816317194300 45.7701246105501696 S
atom 4.6064806965934784 2.4683964077232674 50.1333755465907984 S
atom 10.3799940801284425 2.4321457900297885 50.7712597127303695 S
atom 5.3412877657096614 7.4708521043882330 50.7712597127337517 S
atom 9.5784659205735974 7.4403816316322544 50.1333755465934416 S
atom 2.4702282710523269 5.3708502966017990 45.7701246105487982 S
atom 7.4784641127594051 4.5693221370302233 45.1322404444034717 S
atom 2.4397577983110676 9.6080284514752599 45.1322404444149541 S
atom 7.4422134950512575 10.3428355205746687 45.7701246105478887 S
atom 2.4702282710300674 5.3708502965953038 50.1333755465958646 S
atom 7.4784641127816505 4.5693221370380144 50.7712597127304548 S
atom 2.4397577982971881 9.6080284514659109 50.7712597127337375 S
atom 7.4422134950629841 10.3428355205812750 50.1333755465883399 S
atom 2.6701996612266132 2.2029963182974099 52.9520883181440922 Ba
atom 7.7743346748787543 2.2684250175245357 52.9520883181480002 Ba
atom 2.7356283604526128 7.3071313319780602 52.9520883181462310 Ba
atom 7.6421848851953671 7.1749815422974343 52.9520883181502668 Ba
atom 2.3006012315707962 2.7498198245607517 57.9297928110726446 Ba
atom 7.2275111686366138 2.6380234471707080 57.9297928110781584 Ba
atom 2.1888048541855607 7.6767297616106607 57.9297928110695821 Ba
atom 7.2725864555696598 7.7218050485470284 57.9297928110747478 Ba
atom 4.9687562920623476 4.9788036805745843 55.4767887459327227 Zr
atom 9.9705125365963063 4.9418536106571249 55.4767887460050204 Zr
atom 4.9318062221520096 9.9805599251057444 55.4767887459328293 Zr
atom 9.9407415160587291 9.9507889045626339 55.4767887459561138 Zr
atom 4.9835119135443833 4.9707193591634864 60.5336109266704554 Zr
atom 9.9785968579729563 4.9270979892105595 60.5336109266575093 Zr
atom 4.9398905435718312 9.9658043036812920 60.5336109266646432 Zr
atom 9.9554971374777779 9.9427045831763774 60.5336109266629947 Zr
atom 4.6452425984122963 4.7064938117279169 52.9600741916411835 S
atom 10.2428224054442349 5.2653673043235782 52.9600741916049458 S
atom 5.2041160910138586 10.3040736187622706 52.9600741916575970 S
atom 9.6172278223913157 9.6784790357038641 52.9600741916492623 S
atom 5.2695019060825956 5.2201895410020693 57.9717212836548086 S
atom 9.7291266761719637 4.6411079966500681 57.9717212835640439 S
atom 4.6904203617335041 9.6798143110810084 57.9717212836115934 S
atom 10.2414871300699080 10.1921747649807397 57.9717212835956559 S
atom 4.6028979383113002 2.4715815830545913 55.7675997551029923 S
atom 10.3890992633224002 2.4350128485605467 55.1498565582047604 S
atom 5.3503929488922815 7.4737191629826434 55.1498565582029840 S
atom 9.5748831622909485 7.4435668070256575 55.7675997551019478 S
atom 4.6685898660528435 2.4756387915551010 60.1799315338712901 S
atom 10.2926454455476701 2.4394456536418527 60.6885717390872088 S
atom 5.2539391311006920 7.4781519680386142 60.6885717390794497 S
atom 9.6405750900313620 7.4476240155063742 60.1799315338674674 S
atom 2.4670430957165266 5.3744330548780503 55.7675997551019549 S
atom 7.4755970541732983 4.5602169538472719 55.1498565582019964 S
atom 2.4368907397292920 9.5989232682806485 55.1498565582055065 S
atom 7.4390283197050620 10.3464182788611954 55.7675997551036602 S
atom 2.4629858873493427 5.3087411271405438 60.1799315338678156 S
atom 7.4711642489487913 4.6566707716414824 60.6885717390817518 S
atom 2.4324579346325286 9.6953770860631252 60.6885717390841535 S
atom 7.4349711112346419 10.2807263511185436 60.1799315338691727 S
atom 2.6685018021436169 2.3899603324098440 62.7181278602943379 Ba
atom 7.5873706607820992 2.2701228766028505 62.7181278602868986 Ba
atom 2.5486643463348813 7.3088291910422409 62.7181278602987788 Ba
atom 7.6404870261392848 7.3619455563945593 62.7181278602928955 Ba
atom 4.7625266147348375 4.8459346341021332 63.0405517852543156 S
atom 10.1033815830801359 5.1480832880079541 63.0405517853212558 S
atom 5.0646752686359537 10.1867896024394451 63.0405517852970831 S
atom 9.7345118387145870 9.8179198580788878 63.0405517852963797 S
