#=======================================================
# FHI-aims file: full_relax/full_relax_RP_9_RxRyRz_RxRy0.in
# Created using the Atomic Simulation Environment (ASE)
# Mon Mar 24 18:07:43 2025
#=======================================================
lattice_vector 9.9751779056641325 -0.0419406015421072 -0.0031895126957185 
lattice_vector -0.0419406015421029 9.9751779056647543 0.0031895126992353 
lattice_vector -0.0292992725468783 0.0292992725801913 96.6455981037830867 
atom 0.0293302576872441 -0.1110138998530367 0.1108347919218542 Ba
atom 5.0986028526462075 -0.0503005589039544 0.1092400396533950 Ba
atom 0.0900435990511057 4.9582586947121126 0.1124295523941535 Ba
atom 4.9959489097402603 4.8556047522245649 0.1108347919601431 Ba
atom -0.2925315584394865 0.2147866041504098 4.9263290506498407 Ba
atom 4.7728023486881934 0.2715612577274971 4.9247342942013583 Ba
atom -0.2357569049407730 5.2801205113128793 4.9279238068932960 Ba
atom 4.6740870936455607 5.1814052561892954 4.9263290506382766 Ba
atom 2.4348232830896310 2.5258441694258629 2.3066966852077950 Zr
atom 7.4283634371106926 2.5108250681401350 2.3051019301255926 Zr
atom 2.4198041835158870 7.5193843217185705 2.3082914427226804 Zr
atom 7.4014419351347360 7.4924628214715678 2.3066966852080735 Zr
atom 2.3913782858135941 2.5380388998246439 7.3932676750724458 Zr
atom 7.4161687049544893 2.5542700643818983 7.3916729218154149 Zr
atom 2.4076094513426005 7.5628293180302801 7.3948624345343585 Zr
atom 7.3579969379033656 7.5046575519192151 7.3932676750603346 Zr
atom 2.5478860020781493 2.7166841188182249 -0.2051588248450871 S
atom 7.2375234866065661 2.3977623497086400 -0.2067535765521081 S
atom 2.2289642330043300 7.4063216033157380 -0.2035640638112988 S
atom 7.5145046541400236 7.6833027708829036 -0.2051588248464690 S
atom 2.2264915981074478 2.3037426496270061 4.8857605051295083 S
atom 7.6504649551707793 2.7191567532151781 4.8841657385123414 S
atom 2.6419057015579286 7.7277160068132318 4.8873552513731955 S
atom 7.1931102501664492 7.2703613016886415 4.8857605051546482 S
atom 2.7546610042590416 0.0445442467649984 2.1897282422141533 S
atom 7.0955281865512925 0.0256152361974616 2.6278758928943891 S
atom 2.0869689329478658 5.0341744897759373 2.6310654055949154 S
atom 7.7212796563237776 5.0111628987902446 2.1897282422163817 S
atom 2.9195095396051047 0.0499485755691471 7.6119868661385945 S
atom 6.9805664834787988 0.0290507731190151 7.2204628001411448 S
atom 1.9720072298903468 5.0376100268931276 7.2236523128476557 S
atom 7.8861281916830492 5.0165672278207021 7.6119868661428978 S
atom -0.0655145630851087 2.2329279489063194 2.1913229987506173 S
atom 4.9200331282477343 2.8586794187130145 2.6294706493072977 S
atom -0.0885261253440841 7.8672386723227650 2.6326601620070358 S
atom 4.9011040889672399 7.1995466009691400 2.1913229987481682 S
atom -0.0709188686377426 2.0680794130758975 7.6135816224147614 S
atom 4.9165975711766086 2.9736411214785723 7.2220575564791831 S
atom -0.0919616822724608 7.9822003750543580 7.2252470691873816 S
atom 4.8956997832527067 7.0346980651515594 7.6135816224184740 S
atom 0.0031005976526888 -0.0729022077770898 9.9489288221522241 Ba
atom 5.0604911606543359 -0.0240708982610950 9.9473340657993106 Ba
atom 0.0519319070381357 4.9844883553265804 9.9505235785036490 Ba
atom 4.9697192497257880 4.8937164442692840 9.9489288221561623 Ba
atom 0.0507039917193418 0.0070795312682644 15.0235397643864790 Ba
atom 4.9805094216064436 -0.0716742924866268 15.0219450080374024 Ba
atom -0.0280498319466413 4.9368849611494019 15.0251345207335589 Ba
atom 5.0173226437306653 4.9736981833605469 15.0235397643874133 Ba
atom 2.4869040492909322 2.4921522512965253 12.4727187061619116 Zr
atom 7.4620553535224099 2.4587443017982440 12.4711239462670580 Zr
atom 2.4534960999129485 7.4673035554134701 12.4743134591572549 Zr
atom 7.4535227013691765 7.4587709033578120 12.4727187061376128 Zr
atom 2.4802435163592258 2.4862060661822118 17.5614499226203229 Zr
atom 7.4680015387945931 2.4654048347504043 17.5598551689531313 Zr
atom 2.4594422851835152 7.4739640883621519 17.5630446813967858 Zr
atom 7.4468621684303766 7.4528247182481575 17.5614499226375607 Zr
atom 2.5586429336442933 2.6736287416257944 9.9443124115004000 S
atom 7.2805788630033854 2.3870054175122211 9.9427176601530540 S
atom 2.2720196094106071 7.3955646711192093 9.9459071725449189 S
atom 7.5252615857055360 7.6402473936800668 9.9443124114939749 S
atom 2.4068811930802054 2.4607332238803168 15.0235950515306680 S
atom 7.4934743809793698 2.5387671581740534 15.0220002962818135 S
atom 2.4849151273792121 7.5473264117814063 15.0251898090223932 S
atom 7.3734998451412093 7.4273518759394301 15.0235950515915100 S
atom 2.0033331346110881 0.0017051304934556 12.4210532145483796 S
atom 7.9924964331243125 -0.0173599901322043 12.5520263890944150 S
atom 2.9839371795418361 4.9911992633495572 12.5552159017885554 S
atom 6.9699517866837484 4.9683237824413879 12.4210532145552968 S
atom 3.0000062827788652 -0.0013402979281308 17.5899551043547007 S
atom 6.9659867777202731 -0.0231598190652609 17.5418820206133574 S
atom 1.9574275241020580 4.9853994345121651 17.5450715333152019 S
atom 7.9666249348231926 4.9652783541109384 17.5899551043508779 S
atom -0.0226754328773886 2.9842558181928114 12.4226479709508837 S
atom 4.9630083433411132 1.9617111717209157 12.5536211453911069 S
atom -0.0455509103871752 6.9702704253128269 12.5568106580888514 S
atom 4.9439432192979291 7.9508744702673209 12.4226479709447339 S
atom -0.0196300067178489 1.9875826701130914 17.5915498607003329 S
atom 4.9688081742678865 2.9882208271670652 17.5434767769524314 S
atom -0.0397510794714684 7.9967800807715363 17.5466662896590293 S
atom 4.9469886454800811 6.9542013221690668 17.5915498607098613 S
atom -0.0138422416674953 -0.0105160815512260 20.1083868367508103 Ba
atom 4.9981050344430829 -0.0071280591044311 20.1067920804200604 Ba
atom -0.0104542191887781 5.0014311944638461 20.1099815931170021 Ba
atom 4.9527764104223211 4.9561025704748483 20.1083868367551766 Ba
atom 0.0001082076166864 0.0242501155526609 25.1942372737604643 Ba
atom 4.9633388372477105 -0.0210785083950989 25.1926425173948623 Ba
atom -0.0452204163745808 4.9874807452414309 25.1958320300932854 Ba
atom 4.9667268597002128 4.9908687676504169 25.1942372737639708 Ba
atom 2.4764423090244763 2.4901763430471071 22.6513120534209094 Zr
atom 7.4640312618461158 2.4692060422670998 22.6497172966644733 Zr
atom 2.4554720082431825 7.4777652958708831 22.6529068094971535 Zr
atom 7.4430609610858367 7.4567949951067130 22.6513120535309511 Zr
atom 2.4726411017568273 2.4941466198680118 27.7411741916415870 Zr
atom 7.4600609849119612 2.4730072497847231 27.7395794324893536 Zr
atom 2.4515017313105942 7.4815665033752818 27.7427689452465600 Zr
atom 7.4392597538135217 7.4607652719129964 27.7411741914952650 Zr
atom 2.4941767387839491 2.5174627386727275 20.1084835140460747 S
atom 7.4367448662405735 2.4514716124851810 20.1068887515812769 S
atom 2.4281856126380301 7.4600308660894417 20.1100782645802418 S
atom 7.4607953908448525 7.4840813907327437 20.1084835139232112 S
atom 2.4587078792523487 2.4628899474024437 25.1941405990409102 S
atom 7.4913176574688869 2.4869404720601627 25.1925458499154402 S
atom 2.4827584038671517 7.4954997256640068 25.1957353621735862 S
atom 7.4253265313132548 7.4295085994632082 25.1941405990271186 S
atom 1.9755947576874560 -0.0039693571468934 22.6353028556833138 S
atom 7.9858491140062453 -0.0242372105231513 22.6641317436138152 S
atom 2.9772898603700222 4.9843220432165420 22.6673212563070265 S
atom 6.9422134097152641 4.9626492950515626 22.6353028556876978 S
atom 2.9954570936982599 -0.0050467493346262 27.7575525773446898 S
atom 6.9614375891305897 -0.0268662683583433 27.7094794937053948 S
atom 1.9528783355147565 4.9816929849554743 27.7126690063948153 S
atom 7.9620757457431566 4.9615719024405829 27.7575525773495215 S
atom -0.0170009365983340 3.0119941951156814 22.6368976120193039 S
atom 4.9698855546622935 1.9683584909555436 22.6657264999835810 S
atom -0.0386736986813768 6.9769177445720301 22.6689160126692890 S
atom 4.9496177152025886 7.9786128471643840 22.6368976120131791 S
atom -0.0159235572810517 1.9921318591848951 27.7591473337137487 S
atom 4.9725146257976220 2.9927700156801427 27.7110742500346099 S
atom -0.0360446279439676 8.0013292693223637 27.7142637627292316 S
atom 4.9506950949183883 6.9587505112121244 27.7591473337170918 S
atom -0.0644380256903924 0.0066545026950420 30.2790843483524412 Ba
atom 4.9809344500229091 0.0434677249201482 30.2774895920063614 Ba
atom -0.0276248035396358 5.0520269785312024 30.2806791046982511 Ba
atom 4.9021806263313490 4.9732731547665319 30.2790843483459753 Ba
atom -0.0168346318909035 0.0866362419180103 35.3536952879222852 Ba
atom 4.9009527109433657 -0.0041356693762448 35.3521005315839645 Ba
atom -0.1076065426954706 5.0044235841494595 35.3552900442809559 Ba
atom 4.9497840202012746 5.0532548939022819 35.3536952879424931 Ba
atom 2.4659805687304952 2.4882004350706231 32.8299054040021900 Zr
atom 7.4660071703807267 2.4796677826356772 32.8283106553539028 Zr
atom 2.4574479167619034 7.4882270362731598 32.8315001677819538 Zr
atom 7.4325992207925555 7.4548190871631697 32.8299054039877873 Zr
atom 2.5615063331910517 2.4423137867592177 37.9093564361878776 Zr
atom 7.5118938188170477 2.3841420206304083 37.9077616679903500 Zr
atom 2.5033345652378172 7.3927012742107197 37.9109511810006055 Zr
atom 7.5281249851961043 7.4089324388196367 37.9093564363462079 Zr
atom 2.5460034249923220 2.5196194621735413 30.2790290555036528 S
atom 7.4345881427377485 2.3996449263335471 30.2774342957805160 S
atom 2.4260288891333275 7.4082041799373757 30.2806238088551467 S
atom 7.5126220770488930 7.4862381142320258 30.2790290557488859 S
atom 2.3942416845766927 2.3067239446502033 35.3583117055475569 S
atom 7.6474836608471914 2.5514066670750695 35.3567169401673524 S
atom 2.6389244072300313 7.5599659206742071 35.3599064528117708 S
atom 7.3608603366338698 7.2733425967154846 35.3583117053477878 S
atom 1.9689474381657819 -0.0108465764732264 32.7474082091515015 S
atom 7.9581107372946525 -0.0299116992805514 32.8783813839028696 S
atom 2.9495514836954420 4.9786475546156641 32.8815708966130131 S
atom 6.9355660902202043 4.9557720758933614 32.7474082091444032 S
atom 2.9808773880855473 -0.0572573362438822 38.0789717989622574 S
atom 7.0419343323324028 -0.0781551483269756 37.6874477331187805 S
atom 2.0333750787370333 4.9304041053319416 37.6906372458197580 S
atom 7.9474960401679455 4.9093613158553113 38.0789717989753029 S
atom -0.0101237241275313 3.0186415147043770 32.7490029655528332 S
atom 4.9755600497929438 1.9960968676096382 32.8799761402034321 S
atom -0.0329992038147686 7.0046561212446887 32.8831656529075005 S
atom 4.9564949279490245 7.9852601667240268 32.7490029655683728 S
atom 0.0362870513909306 2.0067115646158427 38.0805665553735437 S
atom 5.0238034814805586 2.9122732729214693 37.6890424896106069 S
atom 0.0152442280172468 7.9208325265195914 37.6922320023008410 S
atom 5.0029057033318507 6.9733302166879181 38.0805665553607611 S
atom 0.2787975241729654 -0.2010525698823111 40.3762950604806790 Ba
atom 5.1886415229924072 -0.2997678254563582 40.3747003042482220 Ba
atom 0.1800822693944720 4.7087914282061680 40.3778898169518996 Ba
atom 5.2454161762246718 4.7655660822395021 40.3762950604735096 Ba
atom -0.0430642913098946 0.1247479337743231 45.1917893191540188 Ba
atom 4.8628410185084139 0.0220939916452344 45.1901945609752786 Ba
atom -0.1457182350670188 5.0306532452800585 45.1933840736470671 Ba
atom 4.9235543607271044 5.0913665858736330 45.1917893191315159 Ba
atom 2.5180613352331291 2.4545085148145933 42.9959274310538859 Zr
atom 7.4996990845377836 2.4275870161877933 42.9943326721059762 Zr
atom 2.4911398309535331 7.4361462697653025 42.9975221847639304 Zr
atom 7.4846799872973344 7.4211271668126502 42.9959274309819577 Zr
atom 2.7263930200933868 2.6766100367399077 40.4168635959661913 S
atom 7.2775975687677752 2.2192553312515000 40.4152688715346358 S
atom 2.2690383151565139 7.2278145848552846 40.4184583838693356 S
atom 7.6930116721571355 7.6432286888130889 40.4168635959224005 S
atom 2.4049986156746725 2.2636685668370968 45.5077829388748256 S
atom 7.6905390362264470 2.5406497341095253 45.5061881658537288 S
atom 2.6819797826458753 7.5492089877257786 45.5093776787586322 S
atom 7.3716172677358944 7.2302872188833947 45.5077829389555006 S
atom 2.8659156849821676 -0.0538218201030282 42.6715587048876941 S
atom 7.2067828667496254 -0.0727507943214164 43.1097063554348807 S
atom 2.1982236131427357 4.9358084588791318 43.1128958681436956 S
atom 7.8325343370283180 4.9127968316198505 42.6715587048957019 S
atom 0.0328514730048068 2.1216732673113698 42.6731534609991030 S
atom 5.0183992009172718 2.7474247362406783 43.1113011115738658 S
atom 0.0098399470981041 7.7559839898834992 43.1144906242979715 S
atom 4.9994701252460709 7.0882919193486824 42.6731534610068550 S
atom 2.5464227893337696 2.3386759505420329 48.6294772724953788 Ba
atom 7.6155316546108089 2.3992255612066997 48.6278825189545572 Ba
atom 2.6069724010050206 7.4077848148488643 48.6310720316048730 Ba
atom 7.5130414413985624 7.3052946026446515 48.6294772724913287 Ba
atom 2.1995564868787474 2.6945302634474144 53.4381409564693968 Ba
atom 7.2596773408390627 2.7460918653130695 53.4365462000587499 Ba
atom 2.2511180872689991 7.7546511188750911 53.4397357127519825 Ba
atom 7.1661751389149888 7.6611489154607888 53.4381409564696241 Ba
atom 4.9405258833237671 4.9857061015022790 50.8271749078387245 Zr
atom 9.9351201592623202 4.9717411202188435 50.8255801506988760 Zr
atom 4.9265609056815673 9.9803003738347549 50.8287696633291546 Zr
atom 9.9071445353528702 9.9523247536263675 50.8271749076788595 Zr
atom 4.9309922146938634 4.9979207790041738 55.8953145907296758 Zr
atom 9.9229054762918985 4.9812747882688146 55.8937198474702726 Zr
atom 4.9143462227104520 9.9898340418970424 55.8969093601921188 Zr
atom 9.8976108667335545 9.9645394310924029 55.8953145906798312 Zr
atom 5.0698091936211895 5.1939273796556558 48.3146822594469825 S
atom 9.7268988787431443 4.8424578109492833 48.3130875149181662 S
atom 4.7183396251314305 9.8510170645410504 48.3162770275484377 S
atom 10.0364278456775153 10.1605460317216103 48.3146822594708638 S
atom 4.6927704259584617 4.7090568669724826 53.3960681653032196 S
atom 10.2117693895446688 5.2194965774132589 53.3944733908432454 S
atom 5.2032101359393055 10.2280558310012140 53.3976629037581816 S
atom 9.6593890780347333 9.6756755190582204 53.3960681656515916 S
atom 5.2554864362705525 2.5055502657149198 50.6765582058633512 S
atom 9.5975488620126637 2.4876657797597423 51.1752570396712017 S
atom 4.5889896083960231 7.4962250332102780 51.1784465523739769 S
atom 10.2221050883419373 7.4721689175650186 50.6765582058629818 S
atom 5.3560047333147329 2.4998959717308291 56.2182189714686302 S
atom 9.5389473347822218 2.4825988590230530 55.6130868562500069 S
atom 4.5303880811403463 7.4911581130671161 55.6162763689228470 S
atom 10.3226233853529354 7.4665146242170817 56.2182189714763396 S
atom 2.4400980481955763 4.6987211700703240 50.6781529624431784 S
atom 7.4246012544851165 5.3232773955117185 51.1768517961902134 S
atom 2.4160420008328991 10.3318366491248952 51.1800413088981188 S
atom 7.4067167003176868 9.6653398221128946 50.6781529624314189 S
atom 2.4457523841536868 4.5982028714038545 56.2198137278011032 S
atom 7.4296681397714961 5.3818789222837555 55.6146816125188508 S
atom 2.4211088859521368 10.3904381758486348 55.6178711252496996 S
atom 7.4123710364266042 9.5648215234997487 56.2198137277823733 S
atom 2.7303577126056791 2.3288346966435234 58.4293928368058459 Ba
atom 7.6253729073040803 2.2152906399623427 58.4277980803543642 Ba
atom 2.6168136537604378 7.2238498935199225 58.4309875930409888 Ba
atom 7.6969763646149270 7.2954533486602280 58.4293928367925517 Ba
atom 2.1853460781766239 2.6865557385838388 63.4455521519064050 Ba
atom 7.2676518662263945 2.7603022731817926 63.4439573957948184 Ba
atom 2.2590926125452264 7.7688615268588395 63.4471469084972099 Ba
atom 7.1519647303029688 7.6531743907183998 63.4455521519085153 Ba
atom 4.9462136275138775 4.9897686906181988 60.9241889180155880 Zr
atom 9.9310575649927699 4.9660533757947789 60.9225941545590928 Zr
atom 4.9224983113496821 9.9746126294742652 60.9257836672592887 Zr
atom 9.9128322795949320 9.9563873427083927 60.9241889184105716 Zr
atom 4.9418787451732511 4.9903002504505238 65.9499061993239195 Zr
atom 9.9305260073005535 4.9703882583083301 65.9483114375500321 Zr
atom 4.9219667536798921 9.9789475119418007 65.9515009500990885 Zr
atom 9.9084973972599570 9.9569189025058549 65.9499061991253228 Zr
atom 5.2024499958811363 5.3075410798124976 58.4212255038534209 S
atom 9.6132851761632399 4.7098170069526066 58.4196307390966467 S
atom 4.6047259225509656 9.7183762605523274 58.4228202515498793 S
atom 10.1690686479417227 10.2741597318548994 58.4212255033920798 S
atom 4.6775569219987192 4.6710705918332049 63.4427013102629829 S
atom 10.2497556649912926 5.2347100812727376 63.4411065769834295 S
atom 5.2411964113774125 10.2432693348744657 63.4442960900031210 S
atom 9.6441755740456259 9.6376892438624964 63.4427013101510298 S
atom 5.3486903575196010 2.4948158987013143 60.6244713322962312 S
atom 9.5447597237209063 2.4768214483036526 61.2482251190014395 S
atom 4.5362004701277225 7.4853807016504010 61.2514146317078314 S
atom 10.3153090095797140 7.4614345505235926 60.6244713322940427 S
atom 5.3484941172647593 2.4947789957369011 66.2692104354709812 S
atom 9.5465501000384148 2.4771764032992265 65.6379971166454510 S
atom 4.5379908464820771 7.4857356568459883 65.6411866293718020 S
atom 10.3151127693611802 7.4613976477614070 66.2692104354917291 S
atom 2.4508324744050900 4.6055172467983283 60.6260660886223377 S
atom 7.4354455341486378 5.3760665336685802 61.2498198753752163 S
atom 2.4268862805388700 10.3846257872777414 61.2530093880751423 S
atom 7.4174511264903895 9.5721358988216387 60.6260660885961400 S
atom 2.4508693317070351 4.6057134882447253 66.2708051918438485 S
atom 7.4350906237866923 5.3742761563420656 65.6395918729998016 S
atom 2.4265313706066944 10.3828354099356091 65.6427813857159776 S
atom 7.4174879833486331 9.5723321403045656 66.2708051918666143 S
atom 2.7355539884471316 2.3267903546488755 68.4638579445569775 Ba
atom 7.6274172511605034 2.2100943617690358 68.4622631880652506 Ba
atom 2.6188579975067481 7.2186536153425820 68.4654527007775471 Ba
atom 7.7021726405597866 7.2934090066785053 68.4638579445615818 Ba
atom 2.1880313558847408 2.6828616049707965 73.4843642709568599 Ba
atom 7.2713460008187347 2.7576169942301116 73.4827695144875719 Ba
atom 2.2627867473240677 7.7661762478951939 73.4859590271885708 Ba
atom 7.1546500078389750 7.6494802571098361 73.4843642709542166 Ba
atom 4.9451019989890499 4.9881353064931213 70.9741111029009346 Zr
atom 9.9326909525058191 4.9671650045968789 70.9725163587524435 Zr
atom 4.9241316989186661 9.9757242581595342 70.9757058718660545 Zr
atom 9.9117206510935549 9.9547539584995857 70.9741111028070009 Zr
atom 4.9483252526151817 4.9859703615501481 75.9983160211091189 Zr
atom 9.9348558969553054 4.9639417508398704 75.9967212557613720 Zr
atom 4.9262966433371354 9.9725010044200388 75.9999107680553720 Zr
atom 9.9149439047421222 9.9525890135687654 75.9983160211212549 Zr
atom 5.2103352297904664 5.3096760111247416 68.4637441454221118 S
atom 9.6111502466460905 4.7019317739821345 68.4621493760414523 S
atom 4.6025909930564728 9.7104910275820746 68.4653388884513419 S
atom 10.1769538818605234 10.2762946631956069 68.4637441457736173 S
atom 4.6798687682596656 4.6665946004535330 73.4844780795198602 S
atom 10.2542316572882228 5.2323982354922824 73.4828833136005102 S
atom 5.2456724037213798 10.2409574891012376 73.4860728261163985 S
atom 9.6464874203331092 9.6332132525188072 73.4844780794552861 S
atom 5.3501538899538739 2.4928574695200756 70.6577901255904521 S
atom 9.5486093613659868 2.4748538872490160 71.2872425761601818 S
atom 4.5400501077515356 7.4834131408607369 71.2904320888561500 S
atom 10.3167725419879925 7.4594761216046130 70.6577901256190444 S
atom 5.3522131507103961 2.4905349759219195 76.3070355861743366 S
atom 9.5502691343946591 2.4729323392331639 75.6758222669587326 S
atom 4.5417098807815206 7.4814915925931498 75.6790117796504234 S
atom 10.3188318027333086 7.4571536277557717 76.3070355861428737 S
atom 2.4527908832442535 4.6040537149970193 70.6593848819405110 S
atom 7.4374131139603090 5.3722168957293635 71.2888373325131823 S
atom 2.4288538601513356 10.3807761493511315 71.2920268451889001 S
atom 7.4194095354845571 9.5706723670660043 70.6593848819235859 S
atom 2.4551133953569777 4.6019944537067223 76.3086303425053671 S
atom 7.4393346439132308 5.3705571230934392 75.6774170233269814 S
atom 2.4307753899943907 10.3791163767328669 75.6806065360125899 S
atom 7.4217320477116155 9.5686131057476942 76.3086303425320125 S
atom 2.7382392670416227 2.3230962202790240 78.5026700619284981 Ba
atom 7.6311113851576149 2.2074090837009321 78.5010753058840010 Ba
atom 2.6225521315348725 7.2159683372517467 78.5042648185711158 Ba
atom 7.7048579191244331 7.2897148722795784 78.5026700619425810 Ba
atom 2.1932276331737310 2.6808172618466615 83.5188293791211862 Ba
atom 7.2733903437271028 2.7524207174301147 83.5172346224091200 Ba
atom 2.2648310900632338 7.7609799709279841 83.5204241351033119 Ba
atom 7.1598462852989071 7.6474359137852010 83.5188293791461547 Ba
atom 4.9439903700740047 4.9865019197779512 81.0240332961041503 Zr
atom 9.9343243380899100 4.9682766334976867 81.0224385467916193 Zr
atom 4.9257650844793313 9.9768358871229506 81.0256280593411446 Zr
atom 9.9106090221235199 9.9531205718784523 81.0240332960823650 Zr
atom 4.9592117828668965 4.9783498308415188 86.0529076269270092 Zr
atom 9.9424764264772509 4.9530552213168821 86.0513128584841667 Zr
atom 4.9339171729246623 9.9616144749125102 86.0545023717608331 Zr
atom 9.9258304348221102 9.9449684829570675 86.0529076271808435 Zr
atom 5.2126470754948535 5.3052000188160022 78.5055208850493642 S
atom 9.6156262381000221 4.6996199277753572 78.5039261507275086 S
atom 4.6070669845099488 9.7081791813880667 78.5071156641928383 S
atom 10.1792657275497689 10.2718186708605135 78.5055208851415216 S
atom 4.6877540012835768 4.6687295304206220 83.5269967273908094 S
atom 10.2520967266959442 5.2245130019880568 83.5254019429416843 S
atom 5.2435374730547286 10.2330722555763316 83.5285914550860724 S
atom 9.6543726533381609 9.6353481824996443 83.5269967272104168 S
atom 5.3540035277622966 2.4908898867147391 80.6968075836459349 S
atom 9.5500728931026764 2.4728954803705370 81.3205613700265957 S
atom 4.5415136395154718 7.4814547345845472 81.3237508827021571 S
atom 10.3206221798471418 7.4575085393709246 80.6968075836259402 S
atom 5.3598159159339449 2.4851125120512809 86.3319458455224975 S
atom 9.5427585180198005 2.4678153717271152 85.7268137301487769 S
atom 4.5341992643945925 7.4763746252242953 85.7300032428348970 S
atom 10.3264345680205700 7.4517311639654320 86.3319458455287219 S
atom 2.4547584416820247 4.6002040776355004 80.6984023400166848 S
atom 7.4393715451187612 5.3707533632212927 81.3221561262559334 S
atom 2.4308122918740107 10.3793126167518750 81.3253456389293916 S
atom 7.4213770933947281 9.5668227297562698 80.6984023400676307 S
atom 2.4605358720089772 4.5943916880331743 86.3335406020127039 S
atom 7.4444515998789180 5.3780677396642869 85.7284084865611788 S
atom 2.4358923462624928 10.3866269932767228 85.7315979992386730 S
atom 7.4271545241040968 9.5610103400808057 86.3335406020053711 S
atom 2.7240288588407386 2.3151216949236484 88.5100812584809375 Ba
atom 7.6390859103050728 2.2216194918612744 88.5084865023933816 Ba
atom 2.6305266567367860 7.2301787456058957 88.5116760151139772 Ba
atom 7.6906475108614991 7.2817403471342272 88.5100812584744716 Ba
atom 2.3771625566525203 2.6709760075364679 93.3187449407665497 Ba
atom 7.2832315964204186 2.5684857964413075 93.3171501833523962 Ba
atom 2.2746723428300948 7.5770450500925275 93.3203396960386016 Ba
atom 7.3437812087028069 7.6375946596581441 93.3187449407461713 Ba
atom 4.9496781138481492 4.9905645062051409 91.1210473067498725 Zr
atom 9.9302617410709999 4.9625888890365903 91.1194525447461956 Zr
atom 4.9217024874710642 9.9711481425667827 91.1226420572425866 Zr
atom 9.9162967659053987 9.9571831581181360 91.1210473066405058 Zr
atom 5.1974335711672408 5.2672137434104265 88.5521540332421893 S
atom 9.6536125135273938 4.7148334316017433 88.5505593267251783 S
atom 4.6450532598966650 9.7233926852031054 88.5537488390753964 S
atom 10.1640522232318631 10.2338323954991441 88.5521540330458947 S
atom 4.8203948031036763 4.7823432300360391 93.6335399644228232 S
atom 10.1384830238828041 5.0918721977733252 93.6319451836602781 S
atom 5.1299237703103593 10.1004314514218478 93.6351346966897609 S
atom 9.7870134551593519 9.7489618820799624 93.6335399646262374 S
atom 5.3012143890158105 2.4800455593386066 90.7697756634554906 S
atom 9.6432768136824514 2.4621611147223255 91.2684744972772535 S
atom 4.6347175600934021 7.4707203675899585 91.2716640099822030 S
atom 10.2678330410634047 7.4466642107953573 90.7697756634559454 S
atom 2.4656027247641310 4.6529932150152664 90.7713704193781439 S
atom 7.4501059723111593 5.2775494396666289 91.2700692532493321 S
atom 2.4415467185494912 10.2861086933416388 91.2732587659996284 S
atom 7.4322213769663268 9.6196118670377366 90.7713704193860167 S
