#=======================================================
# FHI-aims file: full_relax/full_relax_RP_9_Rx00_0Ry0.in
# Created using the Atomic Simulation Environment (ASE)
# Mon Mar 24 16:24:17 2025
#=======================================================
lattice_vector 10.0778697932053127 0.0000000000000125 -0.0000000000000013 
lattice_vector 0.0000000000000125 10.0778697932052470 0.0000000000000043 
lattice_vector -0.0000000000000128 0.0000000000000420 94.8362459403066396 
atom -0.1680730411687468 -0.0000000000006488 0.2881943091858882 Ba
atom 5.2070079377700020 -0.0000000000006103 0.2881943091858996 Ba
atom 0.1680730411674732 5.0389348966020489 0.2881943091857372 Ba
atom 4.8708618554339802 5.0389348966020311 0.2881943091858895 Ba
atom 0.0261963115187635 -0.0000000000005704 4.9615168116975772 Ba
atom 5.0127385850825741 -0.0000000000004737 4.9615168116976927 Ba
atom -0.0261963115198493 5.0389348966020657 4.9615168116976136 Ba
atom 5.0651312081215698 5.0389348966019787 4.9615168116975585 Ba
atom 2.5194674483006776 2.4977359988329750 2.3384657459208222 Zr
atom 7.5584023449033690 2.5411988977684627 2.3384657459208147 Zr
atom 2.5194674483007042 7.5801337943710889 2.3384657459208040 Zr
atom 7.5584023449033566 7.5366708954355763 2.3384657459208511 Zr
atom 2.5194674483007304 2.5186080769896284 7.3539438761963378 Zr
atom 7.5584023449033637 2.5203268196119084 7.3539438761963893 Zr
atom 2.5194674483007113 7.5592617162145137 7.3539438761963627 Zr
atom 7.5584023449034019 7.5575429735922457 7.3539438761963281 Zr
atom 2.5194674483007726 2.8050994475018109 -0.1406091823525958 S
atom 7.5584023449032136 2.2338354490995909 -0.1406091823525977 S
atom 2.5194674483007407 7.2727703457022637 -0.1406091823526567 S
atom 7.5584023449032491 7.8440343441044060 -0.1406091823525695 S
atom 2.5194674483004280 2.0541068631856301 4.8837937953259809 S
atom 7.5584023449036337 2.9848280334159192 4.8837937953260040 S
atom 2.5194674483006505 8.0237629300185347 4.8837937953259543 S
atom 7.5584023449034321 7.0930417597881315 4.8837937953259818 S
atom 2.5194674483006678 -0.0000000000005857 2.0402611558892851 S
atom 7.5584023449033433 -0.0000000000005974 2.7805190909498503 S
atom 2.5194674483007202 5.0389348966020195 2.7805190909498250 S
atom 7.5584023449033229 5.0389348966020213 2.0402611558892185 S
atom 2.5194674483004849 -0.0000000000005445 7.8312256256169350 S
atom 7.5584023449035440 -0.0000000000005685 6.8957549410782573 S
atom 2.5194674483009143 5.0389348966020879 6.8957549410782688 S
atom 7.5584023449031656 5.0389348966020968 7.8312256256169954 S
atom -0.0000000000006379 2.5194674483007367 2.4774765662785487 S
atom 5.0389348966020266 2.5194674483007136 2.4774765662789400 S
atom -0.0000000000006285 7.5584023449033131 2.4774765662787290 S
atom 5.0389348966020204 7.5584023449033406 2.4774765662788520 S
atom -0.0000000000006158 2.5194674483010027 7.3738257725786243 S
atom 5.0389348966020417 2.5194674483005279 7.3738257725778018 S
atom -0.0000000000005896 7.5584023449031372 7.3738257725782201 S
atom 5.0389348966020400 7.5584023449036302 7.3738257725781864 S
atom -0.0068173469259911 -0.0000000000003937 9.8596089374659623 Ba
atom 5.0457522435271720 -0.0000000000006810 9.8596089374657261 Ba
atom 0.0068173469247549 5.0389348966019831 9.8596089374657900 Ba
atom 5.0321175496768733 5.0389348966022558 9.8596089374659623 Ba
atom 0.0066835733832036 -0.0000000000006863 14.8016932253020865 Ba
atom 5.0322513232180555 -0.0000000000002348 14.8016932253021505 Ba
atom -0.0066835733843383 5.0389348966023046 14.8016932253022127 Ba
atom 5.0456184699860653 5.0389348966018757 14.8016932253020581 Ba
atom 2.5194674483007131 2.5211552448238752 12.3137246119847550 Zr
atom 7.5584023449033948 2.5177796517777566 12.3137246119848101 Zr
atom 2.5194674483007411 7.5567145483803602 12.3137246119848438 Zr
atom 7.5584023449033735 7.5600901414265165 12.3137246119848189 Zr
atom 2.5194674483007726 2.5191018433795982 17.2710949880216980 Zr
atom 7.5584023449034028 2.5198330532220727 17.2710949880215949 Zr
atom 2.5194674483007615 7.5587679498246469 17.2710949880215878 Zr
atom 7.5584023449034223 7.5580367399822412 17.2710949880216234 Zr
atom 2.5194674483011728 3.0269404534992828 9.8411113065194193 S
atom 7.5584023449029063 2.0119944431022607 9.8411113065194336 S
atom 2.5194674483007278 7.0509293397049833 9.8411113065194797 S
atom 7.5584023449033868 8.0658753501018907 9.8411113065194549 S
atom 2.5194674483001416 2.0106588968931414 14.7951167467124325 S
atom 7.5584023449039597 3.0282759997085424 14.7951167467124787 S
atom 2.5194674483008566 8.0672108963111828 14.7951167467124414 S
atom 7.5584023449032749 7.0495937934956068 14.7951167467124431 S
atom 2.5194674483008446 -0.0000000000005121 11.8422969837735632 S
atom 7.5584023449032793 -0.0000000000004850 12.8025015875764776 S
atom 2.5194674483006310 5.0389348966021377 12.8025015875764225 S
atom 7.5584023449035014 5.0389348966020311 11.8422969837735259 S
atom 2.5194674483005088 -0.0000000000004677 17.7550845414029759 S
atom 7.5584023449035236 -0.0000000000004651 16.7925097873922127 S
atom 2.5194674483009178 5.0389348966021714 16.7925097873923121 S
atom 7.5584023449031523 5.0389348966021394 17.7550845414030363 S
atom -0.0000000000005852 2.5194674483006496 12.3225362652910260 S
atom 5.0389348966020417 2.5194674483009529 12.3225362652923156 S
atom -0.0000000000006009 7.5584023449035707 12.3225362652917649 S
atom 5.0389348966020666 7.5584023449032847 12.3225362652915482 S
atom -0.0000000000006075 2.5194674483010759 17.2735425401656890 S
atom 5.0389348966020862 2.5194674483005657 17.2735425401642395 S
atom -0.0000000000006026 7.5584023449031790 17.2735425401646054 S
atom 5.0389348966020950 7.5584023449037012 17.2735425401650424 S
atom -0.0057936858496180 -0.0000000000002639 19.7508506721212136 Ba
atom 5.0447285824510510 -0.0000000000007613 19.7508506721207517 Ba
atom 0.0057936858485632 5.0389348966019156 19.7508506721206984 Ba
atom 5.0331412107532323 5.0389348966024379 19.7508506721213450 Ba
atom 0.0057936858483240 -0.0000000000007265 24.7036396124069029 Ba
atom 5.0331412107529623 -0.0000000000001946 24.7036396124070947 Ba
atom -0.0057936858496158 5.0389348966024059 24.7036396124071125 Ba
atom 5.0447285824509871 5.0389348966018899 24.7036396124070095 Ba
atom 2.5194674483007495 2.5194674483008086 22.2272451422642128 Zr
atom 7.5584023449034072 2.5194674483008583 22.2272451422640316 Zr
atom 2.5194674483007597 7.5584023449034738 22.2272451422640422 Zr
atom 7.5584023449034170 7.5584023449034596 22.2272451422640422 Zr
atom 2.5194674483007122 2.5198330532220692 27.1833952965068129 Zr
atom 7.5584023449033824 2.5191018433795969 27.1833952965068022 Zr
atom 2.5194674483007300 7.5580367399821942 27.1833952965067844 Zr
atom 7.5584023449033690 7.5587679498246940 27.1833952965065500 Zr
atom 2.5194674483013362 3.0291572337697392 19.7499223061178100 S
atom 7.5584023449028273 2.0097776628319375 19.7499223061177887 S
atom 2.5194674483005111 7.0487125594346081 19.7499223061177247 S
atom 7.5584023449036613 8.0680921303722783 19.7499223061176750 S
atom 2.5194674483002859 2.0097776628320294 24.7045679784105161 S
atom 7.5584023449038549 3.0291572337696673 24.7045679784103349 S
atom 2.5194674483011315 8.0680921303722890 24.7045679784104273 S
atom 7.5584023449030324 7.0487125594346445 24.7045679784103207 S
atom 2.5194674483011901 -0.0000000000004765 21.7451306308127528 S
atom 7.5584023449030546 -0.0000000000005781 22.7093596537152571 S
atom 2.5194674483003836 5.0389348966021537 22.7093596537153601 S
atom 7.5584023449039313 5.0389348966021652 21.7451306308127847 S
atom 2.5194674483007042 -0.0000000000004690 27.6619804971358967 S
atom 7.5584023449034072 -0.0000000000004744 26.6994057431251548 S
atom 2.5194674483007802 5.0389348966021617 26.6994057431252259 S
atom 7.5584023449032749 5.0389348966021172 27.6619804971359393 S
atom -0.0000000000005608 2.5194674483003383 22.2272451422634134 S
atom 5.0389348966020862 2.5194674483013606 22.2272451422646640 S
atom -0.0000000000005700 7.5584023449039597 22.2272451422643265 S
atom 5.0389348966021181 7.5584023449029472 22.2272451422635022 S
atom -0.0000000000006097 2.5194674483008983 27.1809477443637419 S
atom 5.0389348966020524 2.5194674483007606 27.1809477443627827 S
atom -0.0000000000005630 7.5584023449033788 27.1809477443626726 S
atom 5.0389348966020187 7.5584023449035520 27.1809477443636247 S
atom -0.0066835733843940 -0.0000000000002703 29.6527970592261632 Ba
atom 5.0456184699859223 -0.0000000000007187 29.6527970592261774 Ba
atom 0.0066835733832377 5.0389348966019440 29.6527970592261028 Ba
atom 5.0322513232180999 5.0389348966023686 29.6527970592263443 Ba
atom 0.0068173469247083 -0.0000000000006157 34.5948813470628309 Ba
atom 5.0321175496768964 -0.0000000000003796 34.5948813470629801 Ba
atom -0.0068173469258504 5.0389348966022229 34.5948813470630938 Ba
atom 5.0457522435272724 5.0389348966019849 34.5948813470630157 Ba
atom 2.5194674483007380 2.5177796517777389 32.1407656725438926 Zr
atom 7.5584023449033761 2.5211552448239547 32.1407656725439992 Zr
atom 2.5194674483007127 7.5600901414265360 32.1407656725440205 Zr
atom 7.5584023449034188 7.5567145483803424 32.1407656725439637 Zr
atom 2.5194674483006754 2.5203268196119581 37.1005464083328178 Zr
atom 7.5584023449033673 2.5186080769896297 37.1005464083326686 Zr
atom 2.5194674483007180 7.5575429735922937 37.1005464083329386 Zr
atom 7.5584023449033380 7.5592617162145661 37.1005464083331162 Zr
atom 2.5194674483009920 3.0282759997084461 29.6593735378160304 S
atom 7.5584023449030999 2.0106588968932164 29.6593735378160055 S
atom 2.5194674483003148 7.0495937934959354 29.6593735378160908 S
atom 7.5584023449038096 8.0672108963109785 29.6593735378159273 S
atom 2.5194674483006119 2.0119944431025947 34.6133789780093437 S
atom 7.5584023449034738 3.0269404534990154 34.6133789780095995 S
atom 2.5194674483010036 8.0658753501016101 34.6133789780095213 S
atom 7.5584023449030804 7.0509293397051716 34.6133789780095498 S
atom 2.5194674483007322 -0.0000000000005145 31.6519886969522020 S
atom 7.5584023449033424 -0.0000000000004189 32.6121933007549032 S
atom 2.5194674483007229 5.0389348966020764 32.6121933007550382 S
atom 7.5584023449034232 5.0389348966020773 31.6519886969520989 S
atom 2.5194674483004724 -0.0000000000005527 37.5587353434508131 S
atom 7.5584023449035840 -0.0000000000005824 36.6232646589121700 S
atom 2.5194674483009090 5.0389348966021252 36.6232646589123902 S
atom 7.5584023449031310 5.0389348966022247 37.5587353434507136 S
atom -0.0000000000006091 2.5194674483007784 32.1319540192366517 S
atom 5.0389348966020533 2.5194674483008521 32.1319540192371136 S
atom -0.0000000000006030 7.5584023449034738 32.1319540192373978 S
atom 5.0389348966020711 7.5584023449034241 32.1319540192364883 S
atom -0.0000000000006203 2.5194674483010315 37.0806645119509923 S
atom 5.0389348966020142 2.5194674483005293 37.0806645119508147 S
atom -0.0000000000006655 7.5584023449031097 37.0806645119509071 S
atom 5.0389348966020675 7.5584023449036346 37.0806645119512410 S
atom -0.0261963115201041 -0.0000000000005613 39.4929734728318920 Ba
atom 5.0651312081214117 -0.0000000000005839 39.4929734728317499 Ba
atom 0.0261963115185675 5.0389348966020906 39.4929734728318991 Ba
atom 5.0127385850826842 5.0389348966021377 39.4929734728319275 Ba
atom 0.1680730411672441 -0.0000000000005237 44.1662959753444326 Ba
atom 4.8708618554340832 -0.0000000000005565 44.1662959753444042 Ba
atom -0.1680730411686121 5.0389348966019805 44.1662959753445747 Ba
atom 5.2070079377699248 5.0389348966020231 44.1662959753444682 Ba
atom 2.5194674483006727 2.5411988977684543 42.1160245386091674 Zr
atom 7.5584023449033078 2.4977359988330590 42.1160245386089542 Zr
atom 2.5194674483006665 7.5366708954356589 42.1160245386092740 Zr
atom 7.5584023449033353 7.5801337943710942 42.1160245386090395 Zr
atom 2.5194674483007113 2.9848280334157100 39.5706964892034918 S
atom 7.5584023449033193 2.0541068631858734 39.5706964892032715 S
atom 2.5194674483006096 7.0930417597884823 39.5706964892035344 S
atom 7.5584023449034339 8.0237629300182398 39.5706964892038542 S
atom 2.5194674483007273 2.2338354490996308 44.5950994668826866 S
atom 7.5584023449032571 2.8050994475017021 44.5950994668824805 S
atom 2.5194674483006789 7.8440343441045384 44.5950994668827718 S
atom 7.5584023449033264 7.2727703457023409 44.5950994668823526 S
atom 2.5194674483007069 -0.0000000000005593 41.6739711935799804 S
atom 7.5584023449033211 -0.0000000000004914 42.4142291286404998 S
atom 2.5194674483006794 5.0389348966020551 42.4142291286406774 S
atom 7.5584023449033664 5.0389348966019938 41.6739711935801864 S
atom -0.0000000000006264 2.5194674483007433 41.9770137182511931 S
atom 5.0389348966019751 2.5194674483007820 41.9770137182510652 S
atom -0.0000000000006114 7.5584023449033575 41.9770137182514347 S
atom 5.0389348966019796 7.5584023449033344 41.9770137182512499 S
atom 2.5194674483005426 2.3513944071326440 47.7063172793398209 Ba
atom 7.5584023449032642 2.6875404894684811 47.7063172793397925 Ba
atom 2.5194674483006323 7.7264753860713498 47.7063172793398991 Ba
atom 7.5584023449031994 7.3903293037354105 47.7063172793400909 Ba
atom 2.5194674483002659 2.5456637598200240 52.3796397818520916 Ba
atom 7.5584023449034756 2.4932711367811793 52.3796397818521768 Ba
atom 2.5194674483008357 7.5322060333840568 52.3796397818522266 Ba
atom 7.5584023449029019 7.5845986564226324 52.3796397818522337 Ba
atom 5.0172034471341638 5.0389348966019272 49.7565887160747735 Zr
atom 10.0996012426722412 5.0389348966020071 49.7565887160745532 Zr
atom 5.0606663460696000 10.0778697932046484 49.7565887160748161 Zr
atom 10.0561383437368512 10.0778697932045507 49.7565887160749512 Zr
atom 5.0380755252906830 5.0389348966019689 54.7720668463513007 Zr
atom 10.0787291645156483 5.0389348966018579 54.7720668463514073 Zr
atom 5.0397942679129972 10.0778697932044921 54.7720668463513860 Zr
atom 10.0770104218933465 10.0778697932045809 54.7720668463512297 Zr
atom 5.3245668958029624 5.0389348966021652 47.2775137878013041 S
atom 9.7922377940034568 5.0389348966016536 47.2775137878010838 S
atom 4.7533028974009959 10.0778697932044139 47.2775137878013183 S
atom 10.3635017924055024 10.0778697932048900 47.2775137878015173 S
atom 4.5735743114869036 5.0389348966014467 52.3019167654805202 S
atom 10.5432303783194907 5.0389348966026954 52.3019167654805770 S
atom 5.5042954817168122 10.0778697932050427 52.3019167654805841 S
atom 9.6125092080896213 10.0778697932038153 52.3019167654802430 S
atom 5.0389348966018943 2.5194674483006838 49.8955995364326341 S
atom 10.0778697932045418 2.5194674483007193 49.8955995364334726 S
atom 5.0389348966018765 7.5584023449032260 49.8955995364334157 S
atom 10.0778697932045667 7.5584023449032065 49.8955995364325062 S
atom 5.0389348966020027 2.5194674483005772 54.7919487427340286 S
atom 10.0778697932043659 2.5194674483005581 54.7919487427318899 S
atom 5.0389348966017069 7.5584023449032349 54.7919487427322878 S
atom 10.0778697932046821 7.5584023449032598 54.7919487427344549 S
atom 2.5194674483005484 5.0389348966019343 49.4583841260434625 S
atom 7.5584023449032154 5.0389348966019583 50.1986420611042661 S
atom 2.5194674483006239 10.0778697932045826 50.1986420611041737 S
atom 7.5584023449031790 10.0778697932045880 49.4583841260439385 S
atom 2.5194674483005466 5.0389348966017948 55.2493485957717496 S
atom 7.5584023449031923 5.0389348966020178 54.3138779112332415 S
atom 2.5194674483005177 10.0778697932046608 54.3138779112333054 S
atom 7.5584023449031497 10.0778697932043411 55.2493485957719415 S
atom 2.5194674483011967 2.5126501013754581 57.2777319076209679 Ba
atom 7.5584023449024738 2.5262847952256693 57.2777319076210816 Ba
atom 2.5194674482998551 7.5652196918284202 57.2777319076210603 Ba
atom 7.5584023449038424 7.5515849979777965 57.2777319076212166 Ba
atom 2.5194674482995665 2.5261510216844281 62.2198161954578097 Ba
atom 7.5584023449040973 2.5127838749164706 62.2198161954573834 Ba
atom 2.5194674483014694 7.5517187715193206 62.2198161954576605 Ba
atom 7.5584023449021815 7.5650859182867727 62.2198161954578097 Ba
atom 5.0406226931249156 5.0389348966017851 59.7318475821400057 Zr
atom 10.0761819966814397 5.0389348966018952 59.7318475821400767 Zr
atom 5.0372471000787629 10.0778697932044992 59.7318475821401051 Zr
atom 10.0795575897275693 10.0778697932043979 59.7318475821402188 Zr
atom 5.0385692916806004 5.0389348966017993 64.6892179581771245 Zr
atom 10.0782353981257184 5.0389348966017735 64.6892179581768829 Zr
atom 5.0393005015230896 10.0778697932043890 64.6892179581773661 Zr
atom 10.0775041882832994 10.0778697932044334 64.6892179581772950 Zr
atom 5.5464079018000900 5.0389348966027878 57.2592342766746043 S
atom 9.5703967880062617 5.0389348966005691 57.2592342766746256 S
atom 4.5314618914035956 10.0778697932036234 57.2592342766745901 S
atom 10.5853427984027597 10.0778697932058332 57.2592342766746043 S
atom 4.5301263451942049 5.0389348966005922 62.2132397168678466 S
atom 10.5866783446121566 5.0389348966036556 62.2132397168678253 S
atom 5.5477434480093963 10.0778697932057284 62.2132397168678963 S
atom 9.5690612417968346 10.0778697932026819 62.2132397168682303 S
atom 5.0389348966019201 2.5194674483005413 59.7406592354457189 S
atom 10.0778697932043340 2.5194674483005302 59.7406592354489163 S
atom 5.0389348966017149 7.5584023449031639 59.7406592354485184 S
atom 10.0778697932045507 7.5584023449031754 59.7406592354452144 S
atom 5.0389348966011536 2.5194674483005746 64.6916655103223235 S
atom 10.0778697932051404 2.5194674483005852 64.6916655103181881 S
atom 5.0389348966025151 7.5584023449030617 64.6916655103190692 S
atom 10.0778697932037851 7.5584023449030733 64.6916655103229914 S
atom 2.5194674483005248 5.0389348966017886 59.2604199539289311 S
atom 7.5584023449031932 5.0389348966019485 60.2206245577316253 S
atom 2.5194674483004325 10.0778697932045223 60.2206245577316537 S
atom 7.5584023449032527 10.0778697932044654 59.2604199539291017 S
atom 2.5194674483004502 5.0389348966024441 65.1732075115585019 S
atom 7.5584023449031008 5.0389348966013383 64.2106327575477849 S
atom 2.5194674483005248 10.0778697932039698 64.2106327575480975 S
atom 7.5584023449031505 10.0778697932049539 65.1732075115588714 S
atom 2.5194674483015227 2.5136737624515026 67.1689736422761143 Ba
atom 7.5584023449020892 2.5252611341491873 67.1689736422772512 Ba
atom 2.5194674482993218 7.5641960307521616 67.1689736422772796 Ba
atom 7.5584023449043150 7.5526086590538233 67.1689736422762707 Ba
atom 2.5194674482994937 2.5252611341501328 72.1217625825630932 Ba
atom 7.5584023449041648 2.5136737624516270 72.1217625825621695 Ba
atom 2.5194674483016559 7.5526086590546120 72.1217625825624111 Ba
atom 7.5584023449019870 7.5641960307523286 72.1217625825630364 Ba
atom 5.0389348966018233 5.0389348966018899 69.6453681124197885 Zr
atom 10.0778697932044405 5.0389348966018961 69.6453681124196748 Zr
atom 5.0389348966018206 10.0778697932044992 69.6453681124200870 Zr
atom 10.0778697932044654 10.0778697932044992 69.6453681124197885 Zr
atom 5.0393005015230417 5.0389348966019067 74.6015182666619552 Zr
atom 10.0775041882832390 5.0389348966020089 74.6015182666620547 Zr
atom 5.0385692916806315 10.0778697932046128 74.6015182666621826 Zr
atom 10.0782353981256687 10.0778697932045311 74.6015182666620831 Zr
atom 5.5486246820707912 5.0389348966032479 67.1680452762735314 S
atom 9.5681800077356716 5.0389348965997618 67.1680452762733040 S
atom 4.5292451111328589 10.0778697932030461 67.1680452762736024 S
atom 10.5875595786732646 10.0778697932065562 67.1680452762734319 S
atom 4.5292451111330854 5.0389348966005159 72.1226909485659888 S
atom 10.5875595786733818 5.0389348966039753 72.1226909485661309 S
atom 5.5486246820706357 10.0778697932058616 72.1226909485661452 S
atom 9.5681800077355259 10.0778697932023995 72.1226909485661025 S
atom 5.0389348966033367 2.5194674483005142 69.6453681124179411 S
atom 10.0778697932029164 2.5194674483005302 69.6453681124222470 S
atom 5.0389348966002592 7.5584023449032065 69.6453681124214938 S
atom 10.0778697932060126 7.5584023449032074 69.6453681124171169 S
atom 5.0389348966018446 2.5194674483004551 74.5990707145204368 S
atom 10.0778697932044636 2.5194674483005115 74.5990707145163867 S
atom 5.0389348966018410 7.5584023449033380 74.5990707145170688 S
atom 10.0778697932044619 7.5584023449032935 74.5990707145211189 S
atom 2.5194674483004040 5.0389348966005310 69.1632536009684600 S
atom 7.5584023449030946 5.0389348966031307 70.1274826238709608 S
atom 2.5194674483004844 10.0778697932057550 70.1274826238711171 S
atom 7.5584023449032074 10.0778697932031882 69.1632536009685310 S
atom 2.5194674483005270 5.0389348966017806 75.0801034672914511 S
atom 7.5584023449031674 5.0389348966017975 74.1175287132808478 S
atom 2.5194674483006292 10.0778697932045347 74.1175287132809331 S
atom 7.5584023449030378 10.0778697932043855 75.0801034672916927 S
atom 2.5194674483013242 2.5127838749167588 77.0709200293815400 Ba
atom 7.5584023449022988 2.5261510216843415 77.0709200293813836 Ba
atom 2.5194674482995931 7.5650859182872399 77.0709200293815115 Ba
atom 7.5584023449040796 7.5517187715191447 77.0709200293817247 Ba
atom 2.5194674482999435 2.5262847952256950 82.0130043172181757 Ba
atom 7.5584023449037359 2.5126501013751921 82.0130043172174084 Ba
atom 2.5194674483010751 7.5515849979779786 82.0130043172178205 Ba
atom 7.5584023449026141 7.5652196918282479 82.0130043172180905 Ba
atom 5.0372471000787256 5.0389348966019254 79.5588886426986761 Zr
atom 10.0795575897275640 5.0389348966018241 79.5588886426987614 Zr
atom 5.0406226931248908 10.0778697932044370 79.5588886426986619 Zr
atom 10.0761819966814645 10.0778697932045365 79.5588886426988893 Zr
atom 5.0397942679130185 5.0389348966018694 84.5186693784875303 Zr
atom 10.0770104218933714 5.0389348966020044 84.5186693784871608 Zr
atom 5.0380755252907514 10.0778697932046253 84.5186693784874024 Zr
atom 10.0787291645156341 10.0778697932044992 84.5186693784874024 Zr
atom 5.5477434480095775 5.0389348966030640 77.0774965079709489 S
atom 9.5690612417968026 5.0389348966002077 77.0774965079710483 S
atom 4.5301263451940885 10.0778697932033605 77.0774965079712757 S
atom 10.5866783446121673 10.0778697932061796 77.0774965079712899 S
atom 4.5314618914032820 5.0389348966011092 82.0315019481642054 S
atom 10.5853427984030581 5.0389348966029939 82.0315019481640064 S
atom 5.5464079018003156 10.0778697932053074 82.0315019481641343 S
atom 9.5703967880060201 10.0778697932034653 82.0315019481641201 S
atom 5.0389348966018677 2.5194674483006811 79.5500769893909165 S
atom 10.0778697932044121 2.5194674483006465 79.5500769893936166 S
atom 5.0389348966017886 7.5584023449030848 79.5500769893934887 S
atom 10.0778697932045258 7.5584023449031399 79.5500769893905186 S
atom 5.0389348966011722 2.5194674483005848 84.4987874821062235 S
atom 10.0778697932052239 2.5194674483005550 84.4987874821044613 S
atom 5.0389348966025560 7.5584023449032403 84.4987874821048024 S
atom 10.0778697932038401 7.5584023449032998 84.4987874821065503 S
atom 2.5194674483005683 5.0389348966019076 79.0701116671073265 S
atom 7.5584023449032411 5.0389348966020293 80.0303162709102622 S
atom 2.5194674483003721 10.0778697932044743 80.0303162709104754 S
atom 7.5584023449031346 10.0778697932044938 79.0701116671075965 S
atom 2.5194674483006674 5.0389348966024725 84.9768583136055042 S
atom 7.5584023449030697 5.0389348966012433 84.0413876290666479 S
atom 2.5194674483005879 10.0778697932039485 84.0413876290669322 S
atom 7.5584023449031115 10.0778697932050747 84.9768583136055611 S
atom 2.5194674483007402 2.4932711367814329 86.9110964429861355 Ba
atom 7.5584023449029552 2.5456637598201151 86.9110964429862918 Ba
atom 2.5194674483003729 7.5845986564228314 86.9110964429864907 Ba
atom 7.5584023449033904 7.5322060333840364 86.9110964429863060 Ba
atom 2.5194674483005977 2.6875404894687680 91.5844189454976032 Ba
atom 7.5584023449031843 2.3513944071325832 91.5844189454976174 Ba
atom 2.5194674483005457 7.3903293037352062 91.5844189454977737 Ba
atom 7.5584023449032296 7.7264753860713595 91.5844189454976600 Ba
atom 5.0606663460696177 5.0389348966020142 89.5341475087631977 Zr
atom 10.0561383437368139 5.0389348966019529 89.5341475087632404 Zr
atom 5.0172034471341167 10.0778697932045844 89.5341475087634535 Zr
atom 10.0996012426722785 10.0778697932046395 89.5341475087633540 Zr
atom 5.5042954817171665 5.0389348966023162 86.9888194593581687 S
atom 9.6125092080892003 5.0389348966014440 86.9888194593576713 S
atom 4.5735743114867429 10.0778697932042149 86.9888194593584103 S
atom 10.5432303783196613 10.0778697932050552 86.9888194593579556 S
atom 4.7533028974008245 5.0389348966018801 92.0132224370364895 S
atom 10.3635017924056481 5.0389348966020959 92.0132224370366885 S
atom 5.3245668958028851 10.0778697932047123 92.0132224370367453 S
atom 9.7922377940035652 10.0778697932044885 92.0132224370367311 S
atom 5.0389348966018934 2.5194674483006354 89.3951366884045768 S
atom 10.0778697932045151 2.5194674483007322 89.3951366884050742 S
atom 5.0389348966018348 7.5584023449033113 89.3951366884052163 S
atom 10.0778697932045418 7.5584023449032163 89.3951366884045768 S
atom 2.5194674483003996 5.0389348966019432 89.0920941637335488 S
atom 7.5584023449033628 5.0389348966019849 89.8323520987944590 S
atom 2.5194674483005022 10.0778697932045969 89.8323520987945301 S
atom 7.5584023449032935 10.0778697932045365 89.0920941637339752 S
