#=======================================================
# FHI-aims file: full_relax/full_relax_RP_9_RxRyMz_-Rx-Ry-Mz.in
# Created using the Atomic Simulation Environment (ASE)
# Mon Mar 24 18:02:34 2025
#=======================================================
lattice_vector 10.0102273137239610 -0.0731727490842504 -0.0104502837818354 
lattice_vector -0.0731727490842426 10.0102273137230746 0.0104502837810968 
lattice_vector -0.1006687042173746 0.1006687042103268 95.9798194005188492 
atom 0.0857097250407538 -0.1251973353742944 0.2181664274495907 Ba
atom 5.1303109920913084 -0.1222961007161281 0.2129412936924450 Ba
atom 0.0886109599228268 4.9194039326722327 0.2233915750724453 Ba
atom 5.0542370078686485 4.8433299486585222 0.2181664322261766 Ba
atom -0.3096680877312718 0.2325117549299225 5.0106759371361127 Ba
atom 4.7726019060095819 0.2730817124590831 5.0054507941545259 Ba
atom -0.2690981301179867 5.3147817406546807 5.0159010789297689 Ba
atom 4.6588591995339126 5.2010390335771621 5.0106759360902009 Ba
atom 2.4558255409279854 2.5200692728113512 2.3995687944373496 Zr
atom 7.4535716585885101 2.4761153703344405 2.3943436585983999 Zr
atom 2.4118716393171922 7.5178154065654414 2.4047939285242883 Zr
atom 7.4243528104643763 7.4885965610655560 2.3995687919314812 Zr
atom 2.4341703195366544 2.5292444123602333 7.4539422748358044 Zr
atom 7.4443965241526264 2.4977705883847170 7.4487171273100943 Zr
atom 2.4026964938909279 7.5394706225891648 7.4591674248548001 Zr
atom 7.4026975985356014 7.4977716980917890 7.4539422707926128 Zr
atom 2.6125842191484905 2.7795503570557183 -0.1067699229966254 S
atom 7.1940905833377000 2.3193566887375354 -0.1119950678740183 S
atom 2.1523905508674797 7.3610567183963820 -0.1015447751815704 S
atom 7.5811115036015195 7.7480776384146059 -0.1067699265537261 S
atom 2.1902997077926298 2.2222375200732989 4.9610240281923685 S
atom 7.7514034206404299 2.7416412003041146 4.9557988825163619 S
atom 2.7097033862906548 7.7833412304836029 4.9662491706745922 S
atom 7.1588269907804092 7.1907648021910271 4.9610240382853714 S
atom 2.7459101903104672 0.0278333993218522 2.2256857564328891 S
atom 7.1330396599903478 -0.0062635213938002 2.7716474401027540 S
atom 2.0913396270351869 5.0354365086114719 2.7820977241164466 S
atom 7.7144374766238508 4.9963606791083972 2.2256857544409763 S
atom 2.8556873016970434 0.0218249396052423 7.7847849995870124 S
atom 7.0819016526373462 -0.0109927461494613 7.1572955673570515 S
atom 2.0402016207117852 5.0307073008121712 7.1677458509213308 S
atom 7.8242145854150493 4.9903522365374826 7.7847850007382693 S
atom -0.0644197750634317 2.2592034649149082 2.2309108972947858 S
atom 4.9382044313625109 2.8406012805823870 2.7768725813326345 S
atom -0.1034955845841457 7.8823013116212435 2.7873228665694523 S
atom 4.9041074910145230 7.2277307468879179 2.2309108978976178 S
atom -0.0584113129966649 2.1494263537848357 7.7900101426231076 S
atom 4.9429336370619010 2.8917392880828841 7.1625207089054026 S
atom -0.0987663842830817 7.9334393172376574 7.1729709931036707 S
atom 4.9101159606425933 7.1179536372352805 7.7900101414467242 S
atom 0.2473538313891850 -0.1462947703478976 9.9821829439143421 Ba
atom 5.1514084264216464 -0.2839402049294949 9.9769578015148674 Ba
atom 0.1097083960573634 4.7577598263673284 9.9874080857951917 Ba
atom 5.2158811125826459 4.8222325118842404 9.9821829433773139 Ba
atom -0.3163416960875911 0.2132735360259012 14.9857540828961771 Ba
atom 4.7918401192311064 0.2797553223051613 14.9805289412991023 Ba
atom -0.2498599111260468 5.3214553544689265 14.9909792248097595 Ba
atom 4.6521855853164791 5.1818008193713299 14.9857540830204652 Ba
atom 2.4551332831258845 2.5164176782742316 12.4701350793117420 Zr
atom 7.4572232599542234 2.4768076239262569 12.4649099316644794 Zr
atom 2.4155232280250210 7.5185076560274844 12.4753602168287401 Zr
atom 7.4236605658378396 7.4849449611540582 12.4701350808410023 Zr
atom 2.4538095223479046 2.5136401407915314 17.4834534149060268 Zr
atom 7.4600007971158711 2.4781313863715617 17.4782282775420050 Zr
atom 2.4183007666551419 7.5198314171315292 17.4886785642082998 Zr
atom 7.4223368035195652 7.4821674235133164 17.4834534211311876 Zr
atom 2.7117177736270301 2.8500527145793617 9.9733647641602712 S
atom 7.1235882248899713 2.2202231341396663 9.9681396347229843 S
atom 2.0818881931746329 7.2619231654095779 9.9785898944979508 S
atom 7.6802450560991238 7.8185799964630878 9.9733647600022124 S
atom 2.1859963092479187 2.1833562917058802 14.9822049841802478 S
atom 7.7902846467285514 2.7459445979192680 14.9769798439326554 S
atom 2.7485846157897424 7.7876446297142232 14.9874301418055307 S
atom 7.1545235916691245 7.1518835736436577 14.9822049845281651 S
atom 2.8535622978221573 0.0133594841144402 12.1608956150673038 S
atom 7.0894565894373720 -0.0211858274729561 12.7961156075086304 S
atom 2.0477565575473715 5.0205141923318433 12.8065658922659260 S
atom 7.8220895795402186 4.9818867548004135 12.1608956152587506 S
atom 2.8578985645813435 0.0093085491456820 17.8073879211576305 S
atom 7.0943715110428345 -0.0239224283968721 17.1593902615675802 S
atom 2.0526714795264906 5.0177776055661951 17.1698405455030887 S
atom 7.8264258473788368 4.9778358335193715 17.8073879216014248 S
atom -0.0499458579196278 2.1515513599924363 12.1661207572487342 S
atom 4.9531267463512076 2.8841843493286130 12.8013407492874336 S
atom -0.0885732947394413 7.9258843819486744 12.8117910343263617 S
atom 4.9185814343207364 7.1200786409078640 12.1661207568308907 S
atom -0.0458949392768937 2.1472150924253759 17.8126130636989579 S
atom 4.9558633497282365 2.8792694276265611 17.1646154035272538 S
atom -0.0858366783025573 7.9209694590848709 17.1750656872216751 S
atom 4.9226323396563920 7.1157423750189412 17.8126130629530337 S
atom 0.2593448476123107 -0.1551771238340233 19.9908467478473177 Ba
atom 5.1602907790835282 -0.2959312240010964 19.9856216060188565 Ba
atom 0.1185907472504011 4.7457688108982161 19.9960718893098104 Ba
atom 5.2278721299699109 4.8133501622463903 19.9908467477537677 Ba
atom -0.3065333037323263 0.2023655763826644 24.9996935989350177 Ba
atom 4.8027480823336912 0.2699469292254448 24.9944684571440696 Ba
atom -0.2389519515530162 5.3116469589285611 25.0049187405101421 Ba
atom 4.6619939810449491 5.1708928568087495 24.9996935983780304 Ba
atom 2.4606694154189004 2.5078578695609735 22.4952701701829731 Zr
atom 7.4657830684869069 2.4712714937596383 22.4900450302075718 Zr
atom 2.4240830379808940 7.5129715245095348 22.5004953015385212 Zr
atom 7.4291966954127968 7.4763851526723206 22.4952701653674723 Zr
atom 2.4675293043563351 2.5020755955151146 27.5070869557143922 Zr
atom 7.4715653438260814 2.4644116041747628 27.5018618075791821 Zr
atom 2.4298653122784608 7.5061116351289296 27.5123121035671723 Zr
atom 7.4360565851812792 7.4706028781280720 27.5070869557740814 Zr
atom 2.7257725832774358 2.8438954759339343 19.9910856907601691 S
atom 7.1297454634438582 2.2061683248064288 19.9858605390635269 S
atom 2.0880454316082466 7.2478683558637993 19.9963108094501258 S
atom 7.6942998658773440 7.8124227592887090 19.9910856812904463 S
atom 2.1955662422627107 2.1718202595126894 24.9994546375812767 S
atom 7.8018206794134803 2.7363746651635648 24.9942295043114981 S
atom 2.7601206471839994 7.7780746968844783 25.0046798153081689 S
atom 7.1640935242257973 7.1403475416921713 24.9994546520682270 S
atom 2.8626279883841792 0.0042903242993182 22.1700288232000631 S
atom 7.1004108693879999 -0.0302745993296539 22.8100612409578787 S
atom 2.0587108381879631 5.0114254133578404 22.8205115250780004 S
atom 7.8311552718566437 4.9728175869762730 22.1700288229080122 S
atom 2.8686673471779991 -0.0020618800991423 27.8206997927211255 S
atom 7.1051402927013108 -0.0352928516438654 27.1727021326766618 S
atom 2.0634402615226803 5.0064072000666355 27.1831524169520442 S
atom 7.8371946301198037 4.9664654219629973 27.8206997939763241 S
atom -0.0408766831988319 2.1424856685057012 22.1752539651408931 S
atom 4.9622155105049437 2.8732300690252517 22.8152863821030039 S
atom -0.0794845209640244 7.9149301021716427 22.8257366679191520 S
atom 4.9276505997003541 7.1110129491504441 22.1752539645577720 S
atom -0.0345245212989757 2.1364463090880492 27.8259249363506171 S
atom 4.9672337657850090 2.8685006466376426 27.1779272743512124 S
atom -0.0744662536454651 7.9102006759945986 27.1883775589195977 S
atom 4.9340027496894283 7.1049735933865117 27.8259249342246697 S
atom 0.2691532428184760 -0.1660850838622562 30.0047862614687553 Ba
atom 5.1711987396007917 -0.3057396183465934 29.9995611193286074 Ba
atom 0.1294987093429847 4.7359604149965309 30.0100114028362022 Ba
atom 5.2376805239422408 4.8024422005883327 30.0047862610221188 Ba
atom -0.2945422853588036 0.1934832235255871 35.0083573917974675 Ba
atom 4.8116304332254165 0.2579559097502555 35.0031322498886084 Ba
atom -0.2300695977032334 5.2996559420650531 35.0135825334268134 Ba
atom 4.6739849963300077 5.1620105070808302 35.0083573914517672 Ba
atom 2.4662055404889993 2.4992980571274970 32.5204052153939784 Zr
atom 7.4743428842082071 2.4657353686409982 32.5151800829476230 Zr
atom 2.4326428532669695 7.5074353981124444 32.5256303636143826 Zr
atom 7.4347328220178346 7.4678253376551709 32.5204052150622758 Zr
atom 2.4871685092519136 2.4864713269541010 37.5365980964317956 Zr
atom 7.4871696142938591 2.4447724006963227 37.5313729545476633 Zr
atom 2.4454695851528485 7.4864724284445803 37.5418232268360299 Zr
atom 7.4556957910651125 7.4549986047598233 37.5365980983674987 Zr
atom 2.7353425158355154 2.8323594440580782 30.0083353694390453 S
atom 7.1412814955621311 2.1965983921517949 30.0031102245103583 S
atom 2.0995814638193666 7.2382984236534664 30.0135604684616055 S
atom 7.7038697981854050 7.8008867269236202 30.0083353579377317 S
atom 2.2096210514720442 2.1656630217055453 35.0171756132713128 S
atom 7.8079779179271753 2.7223198560742929 35.0119504565204949 S
atom 2.7662778867518720 7.7640198883948726 35.0224007825668551 S
atom 7.1781483339717900 7.1341903040994019 35.0171756234954614 S
atom 2.8735822695114175 -0.0047984417489554 32.1839744574595343 S
atom 7.1094765598659935 -0.0393437633039006 32.8191944533848954 S
atom 2.0677765279988671 5.0023562393145067 32.8296447380123055 S
atom 7.8421095512852421 4.9637288118869591 32.1839744585267340 S
atom 2.8811372038531453 -0.0149915654347003 37.8227944844780950 S
atom 7.1073515570588111 -0.0478092531987841 37.1953050568026740 S
atom 2.0656515268260587 4.9938907991467367 37.2057553422978486 S
atom 7.8496644867526610 4.9535357389210093 37.8227944849780968 S
atom -0.0317879164413757 2.1315313887003966 32.1891996007668908 S
atom 4.9712846829628088 2.8641643782442316 32.8244195946108874 S
atom -0.0704153638265782 7.9058644130710869 32.8348698806935886 S
atom 4.9367393811713391 7.1000586683900515 32.1891995988801867 S
atom -0.0215948049237733 2.1239764507477008 37.8280196274089349 S
atom 4.9797501357672376 2.8662893823481488 37.2005301988912578 S
atom -0.0619498806283530 7.9079894125432979 37.2109804840765506 S
atom 4.9469324611549252 7.0925037365469601 37.8280196258251209 S
atom 0.2624796278513415 -0.1853232984555344 39.9798644172304236 Ba
atom 5.1904369587293697 -0.2990660037243489 39.9746392756367470 Ba
atom 0.1487369234233375 4.7426340259002773 39.9850895590855728 Ba
atom 5.2310069140175139 4.7832039813699376 39.9798644174421653 Ba
atom -0.1328981804705018 0.1723857863859667 44.7723739052952681 Ba
atom 4.8327278681322641 0.0963118051680413 44.7671487635367527 Ba
atom -0.2089721623867749 5.1380118396219112 44.7775990443329022 Ba
atom 4.8356291008015919 5.1409130721271916 44.7723739029336798 Ba
atom 2.4655132955635040 2.4956464692213163 42.5909715447210004 Zr
atom 7.4779944710089667 2.4664276165541597 42.5857463947590347 Zr
atom 2.4362944434046296 7.5081276418950855 42.5961966940088601 Zr
atom 7.4340405755253558 7.4641737430770885 42.5909715448344457 Zr
atom 2.7310391171482977 2.7934782156113540 40.0295162777455715 S
atom 7.1801627225617350 2.2009017893026157 40.0242911513526280 S
atom 2.1384626924425141 7.2426018220766109 40.0347414127386827 S
atom 7.6995664005500437 7.7620054985132141 40.0295162666574811 S
atom 2.3087546058135540 2.2361653800279901 45.0973102834711099 S
atom 7.7374755593102744 2.6231863006365006 45.0920851406271339 S
atom 2.6957755272334838 7.6648863327752030 45.1025354230288826 S
atom 7.2772818891566580 7.2046926616553497 45.0973102888282398 S
atom 2.8299992004737806 -0.0197207657493929 42.2084426197664726 S
atom 7.2171286646860286 -0.0538176816509770 42.7544043097990141 S
atom 2.1754286338173361 4.9878823316861842 42.7648545929710551 S
atom 7.7985264832940189 4.9488065018042375 42.2084426210817583 S
atom -0.0168656122618060 2.1751144558642710 42.2136677627144934 S
atom 4.9857586113778583 2.7565122723472801 42.7596294507254555 S
atom -0.0559414181689607 7.7982123062813322 42.7700797355851137 S
atom 4.9516616677013747 7.1436417386460969 42.2136677618515819 S
atom 2.5591266228862781 2.4488882663522600 48.2080761408306060 Ba
atom 7.5247526699362437 2.3728142840793747 48.2028510001388568 Ba
atom 2.4830526412170153 7.4145143192093608 48.2133012836267412 Ba
atom 7.5276539028267395 7.4174155516030300 48.2080761415566457 Ba
atom 2.2014175293539235 2.8442660793651124 53.0005856346853577 Ba
atom 7.1293748646572430 2.7305233734198340 52.9953604924747239 Ba
atom 2.0876748234568638 7.7722234047960539 53.0058107753375083 Ba
atom 7.1699448223443705 7.8127933611582625 53.0005856328877769 Ba
atom 4.8823872934615791 5.0472997429970405 50.3894785265092153 Zr
atom 9.8948684838168646 5.0180808989267911 50.3842534000804179 Zr
atom 4.8531684541751865 10.0597809238994884 50.3947036616290376 Zr
atom 9.8509145768710589 10.0158270143337873 50.3894785406866319 Zr
atom 4.8732121527305683 5.0689549528106355 55.4438519414844535 Zr
atom 9.8732132666263350 5.0272560358701597 55.4386267825594246 Zr
atom 4.8315132359562254 10.0689560665202311 55.4490770580670613 Zr
atom 9.8417394364101813 10.0374822354502999 55.4438519295499717 Zr
atom 4.6229062141762469 4.8905410540083016 47.8831397537748273 S
atom 10.0516271671840087 5.2775619751180285 47.8779146049848947 S
atom 5.0099271356939772 10.3192620088224629 47.8883648925115608 S
atom 9.5914334954669194 9.8590683366036096 47.8831397397467740 S
atom 5.1802190494403408 5.3128255659555981 52.9509337375446592 S
atom 9.6293426552015244 4.7202491387408037 52.9457085888215815 S
atom 4.5876426259772201 9.7619491738763458 52.9561589153015575 S
atom 10.1487463350855638 10.2813528487510908 52.9509337388822274 S
atom 4.5618552910403958 2.5649208489128559 50.7667822765687831 S
atom 10.1849531395893447 2.5258450347354060 50.2103703054564221 S
atom 5.1432531079856352 7.5675450445845032 50.2208205897323197 S
atom 9.5303825731988070 7.5334481143881042 50.7667822754046085 S
atom 4.5107172881549662 2.5601916044545412 55.1524304168794117 S
atom 10.2947302524542827 2.5198365659434994 55.7694695679768984 S
atom 5.2530302145782031 7.5615366228471874 55.7799198487155508 S
atom 9.4792445648675052 7.5287189123847496 55.1524304144980917 S
atom 2.3670200691006746 5.4117856464395020 50.7720074176818699 S
atom 7.3746231653302594 4.7572150818849437 50.2155954485783340 S
atom 2.3329231427529611 9.7989151135549335 50.2260457304350680 S
atom 7.3355473417049897 10.3803129323673584 50.7720074178982372 S
atom 2.3717492885988158 5.4629236549182787 55.1576555570545679 S
atom 7.3806316144152531 4.6474379708850151 55.7746947088305873 S
atom 2.3389316347900411 9.6891380034434658 55.7851449909763701 S
atom 7.3402765171629225 10.4314509366970185 55.1576555584648531 S
atom 2.5802240520446431 2.2872441679216062 57.9720926373577470 Ba
atom 7.6863967816460903 2.3517168518308051 57.9668674953140695 Ba
atom 2.6446967419438629 7.3934168763436725 57.9773177789831564 Ba
atom 7.5487513444285206 7.2557714435972507 57.9720926364126683 Ba
atom 2.2206557486953642 2.8509396943101142 62.9756637879927297 Ba
atom 7.1227012509639733 2.7112851623881098 62.9704386443750934 Ba
atom 2.0810012144661387 7.7529851831729477 62.9808889312068843 Ba
atom 7.1891830375226826 7.8194669663467362 62.9756637881952059 Ba
atom 4.8860388937176511 5.0479919908739284 60.4600447892098032 Zr
atom 9.8941762284521175 5.0144292937012249 60.4548196516266501 Zr
atom 4.8524761986013552 10.0561293291675113 60.4652699349316620 Zr
atom 9.8545661731703138 10.0165192762067647 60.4600447775879104 Zr
atom 4.8888164312752744 5.0493157605599626 65.4733631003708609 Zr
atom 9.8928524692004487 5.0116517599920360 65.4681379620106441 Zr
atom 4.8511524320797799 10.0533517915965529 65.4785883146282259 Zr
atom 9.8573437210954324 10.0178430331135040 65.4733631154837354 Zr
atom 4.5524038548844885 4.7914074988317150 57.9632744718824355 S
atom 10.1507607213068400 5.3480643344078889 57.9580493702327431 S
atom 5.1090606872992552 10.3897643614466322 57.9684996310958169 S
atom 9.5209311352450250 9.7599347820689903 57.9632744921493526 S
atom 5.2191002793201395 5.3171289660753294 62.9721146965328060 S
atom 9.6250392564593898 4.6813679104273600 62.9668895054762103 S
atom 4.5833392254519651 9.7230679448517954 62.9773397845641085 S
atom 10.1876275617683056 10.2856562474106870 62.9721146939380745 S
atom 4.5182722246920966 2.5499984901611592 60.7912504455876288 S
atom 10.2926052426775794 2.5113711183211689 60.1455801715909573 S
atom 5.2509052086325907 7.5530711732610500 60.1560304572797548 S
atom 9.4867995047717244 7.5185257965682712 60.7912504448376652 S
atom 4.5231871446466227 2.5472619358067656 65.1545251050200704 S
atom 10.2969415108538609 2.5073201543810160 65.7920724816235776 S
atom 5.2552414801347682 7.5490202023692090 65.8025227645508011 S
atom 9.4917144236026409 7.5157892392433459 65.1545251038010633 S
atom 2.3819423470209657 5.4553687190229638 60.7964755870216464 S
atom 7.3890971193351440 4.6495629771129039 60.1508053128735583 S
atom 2.3473971006719050 9.6912630097734631 60.1612555993024500 S
atom 7.3504696169569783 10.4238959978652730 60.7964755875661496 S
atom 2.3846789957934966 5.4504537951651075 65.1597502463121714 S
atom 7.3931479927500972 4.6452267100183589 65.7972976249544388 S
atom 2.3514479728518243 9.6869267444372422 65.8077479052619481 S
atom 7.3532062642997600 10.4189810784970724 65.1597502462178824 S
atom 2.5891064181886434 2.2752531361942312 67.9807564516971752 Ba
atom 7.6983877863908683 2.3428344913294468 67.9755313093377822 Ba
atom 2.6566877655219256 7.3845345383853624 67.9859815916658903 Ba
atom 7.5576336873685106 7.2437804337016711 67.9807564494902579 Ba
atom 2.2315637190218354 2.8411312933981256 72.9896033016141956 Ba
atom 7.1325096367519230 2.7003771923726942 72.9843781592904151 Ba
atom 2.0908096165136509 7.7420772300202696 72.9948284423431488 Ba
atom 7.2000909884187898 7.8096585819483080 72.9896032990650951 Ba
atom 4.8945987023725195 5.0424558595704063 70.4851799127562799 Zr
atom 9.8997123623084367 5.0058694901595491 70.4799547494898633 Zr
atom 4.8580123306884655 10.0475695247888428 70.4904050183986044 Zr
atom 9.8631259835826981 10.0109831419934299 70.4851798964795080 Zr
atom 4.9003809763387789 5.0355959649781443 75.4969966035595803 Zr
atom 9.9065722521142572 5.0000872149818152 75.4917714872089505 Zr
atom 4.8648722228151628 10.0417872508533783 75.5022217444318500 Zr
atom 9.8689082525392990 10.0041232541728231 75.4969966219533148 Zr
atom 4.5585610951819966 4.7773526929268142 67.9809953828086009 S
atom 10.1648155300421781 5.3419070944785316 67.9757702743258960 S
atom 5.1231155008878497 10.3836071317275529 67.9862204496388784 S
atom 9.5270883789716283 9.7458799736553186 67.9809953715935791 S
atom 5.2306363109130567 5.3075590305523939 72.9893643106786953 S
atom 9.6346091911812390 4.6698318818029323 72.9841391709963858 S
atom 4.5929091561795206 9.7115319078651368 72.9945895694576450 S
atom 10.1991635911465099 10.2760863142926873 72.9893643339382123 S
atom 4.5292264959497679 2.5409098363798233 70.8051960815298571 S
atom 10.3016709312034358 2.5023019494509620 70.1547133792804800 S
atom 5.2599709105075734 7.5440018862950309 70.1651636577829549 S
atom 9.4977537884884189 7.5094370257607501 70.8051960761202679 S
atom 4.5339559257698330 2.5358914796880572 75.1678369795433667 S
atom 10.3077102953379676 2.4959497589053927 75.8053843604904358 S
atom 5.2660102619068505 7.5376498276579147 75.8158346436167534 S
atom 9.5024832075537553 7.5044187985209172 75.1678369786098415 S
atom 2.3910311339787618 5.4444144333904756 70.8104212166854268 S
atom 7.3981662703959330 4.6404972902130499 70.1599385205613970 S
atom 2.3564661608492958 9.6821973148024618 70.1703888006858989 S
atom 7.3595584945933403 10.4129417217093021 70.8104212242780306 S
atom 2.3960493781032439 5.4396850170030246 75.1730621196643654 S
atom 7.4045184430245294 4.6344579256715841 75.8106095042180641 S
atom 2.3628184203330118 9.6761579576303642 75.8210597838449871 S
atom 7.3645766539024580 10.4082122948769982 75.1730621221473285 S
atom 2.6000143703463658 2.2654447495979899 77.9946959500554158 Ba
atom 7.7081961889355686 2.3319265348364389 77.9894708063508659 Ba
atom 2.6664961554503095 7.3736265697351548 77.9999210925713129 Ba
atom 7.5685416546108977 7.2339720347649417 77.9946959498405477 Ba
atom 2.2404460612689192 2.8291402799272727 82.9982671035959498 Ba
atom 7.1445006645416980 2.6914948423389635 82.9930419621800297 Ba
atom 2.1028006288836516 7.7331948727248738 83.0034922437542804 Ba
atom 7.2089733484942444 7.7976675612862358 82.9982671017255598 Ba
atom 4.9031585146394114 5.0369197395323146 80.5103149238507285 Zr
atom 9.9052484869736475 4.9973096753743027 80.5050897951563371 Zr
atom 4.8635484541736398 10.0390097005555923 80.5155400682209716 Zr
atom 9.8716857980619821 10.0054470146394952 80.5103149193782173 Zr
atom 4.9159852521957443 5.0159567690486639 85.5265078372736838 Zr
atom 9.9262114483905766 4.9844829398478741 85.5212826783441784 Zr
atom 4.8845114238691991 10.0261829649310368 85.5317329198449414 Zr
atom 9.8845125246489669 9.9844840519981872 85.5265078348098911 Zr
atom 4.5700971268308486 4.7677827590811299 77.9982451485610540 S
atom 10.1743854630811370 5.3303710637656696 77.9930199635924453 S
atom 5.1326854317530097 10.3720710961590612 78.0034701925685425 S
atom 9.5386244090046119 9.7363100412381200 77.9982451052047310 S
atom 5.2367935474308114 5.2935042227584415 83.0070852364059419 S
atom 9.6486639964250873 4.6636746384261238 83.0018601031869565 S
atom 4.6069639661710680 9.7053746721508229 83.0123104879487528 S
atom 10.2053208323915943 10.2620315063241367 83.0070852778138999 S
atom 4.5382921918100223 2.5318406543844230 80.8143292905241992 S
atom 10.3126252132753233 2.4932131577698686 80.1686590197193993 S
atom 5.2709251838511308 7.5349131309932531 80.1791093007298912 S
atom 9.5068194760620273 7.5003678783373768 80.8143292913689493 S
atom 4.5361671907332681 2.5233750845816640 85.1904398964300213 S
atom 10.3201801552615322 2.4830200285922528 85.8074790435057793 S
atom 5.2784801140950854 7.5247201396121364 85.8179293253860607 S
atom 9.5046944680246348 7.4919024415047906 85.1904398937575422 S
atom 2.4001003394958227 5.4353487412750541 80.8195544309958223 S
atom 7.4072550058556281 4.6295430107454623 80.1738841632402881 S
atom 2.3655549688263400 9.6712430387804744 80.1843344414920125 S
atom 7.3686276274393601 10.4038760299332367 80.8195544339745595 S
atom 2.4085657973822685 5.4374737541228946 85.1956650340130039 S
atom 7.4174481108823862 4.6219880677204674 85.8127041862500306 S
atom 2.3757481316713660 9.6636881042521114 85.8231544659728200 S
atom 7.3770930304865123 10.4060010300174959 85.1956650401802307 S
atom 2.6192525787417842 2.2721183719729847 87.9697741177967885 Ba
atom 7.7015225855017277 2.3126883255486201 87.9645489738386743 Ba
atom 2.6598225388119068 7.3543883416826192 87.9749992589242424 Ba
atom 7.5877798787405828 7.2406456393959369 87.9697741154382129 Ba
atom 2.2615435007983948 2.6674961707576523 92.7622836028308626 Ba
atom 7.3061447644549142 2.6703974052617796 92.7570584610383690 Ba
atom 2.2644447324233443 7.7120974417802683 92.7675087446791338 Ba
atom 7.2300707848170580 7.6360234580096078 92.7622836048050772 Ba
atom 4.9068101091028851 5.0376119782099877 90.5808812312674263 Zr
atom 9.9045562386567916 4.9936580900915457 90.5756560734592711 Zr
atom 4.8628562036183638 10.0353581173539368 90.5861064094109452 Zr
atom 9.8753373969734568 10.0061392648575005 90.5808812374619947 Zr
atom 4.6089783546825833 4.7720861561493528 88.0194259775446426 S
atom 10.1700820641719805 5.2914898368504986 88.0142008761017536 S
atom 5.1283820301432250 10.3331898609427011 88.0246511226775254 S
atom 9.5775056352159069 9.7406134412262997 88.0194259453969750 S
atom 5.1662911920536301 5.1943706701661299 93.0872199966520952 S
atom 9.7477975525625631 4.7341770002171781 93.0819948430212918 S
atom 4.7060975240853402 9.7758770329536890 93.0924450962864825 S
atom 10.1348184761010423 10.1628979537898658 93.0872200089068542 S
atom 4.6459443012018919 2.5173666224751874 90.7495391503766342 S
atom 10.2690421480946021 2.4782908941695383 90.1931271800290659 S
atom 5.2273421130106454 7.5199909271193235 90.2035774634998830 S
atom 9.6144715803687468 7.4858939009633625 90.7495391537748048 S
atom 2.4145742112823609 5.3276966431824455 90.7547642947737785 S
atom 7.4221773613539597 4.6731260753356736 90.1983523235108038 S
atom 2.3804773717474239 9.7148261061793466 90.2088026049906659 S
atom 7.3831014472243233 10.2962239269109865 90.7547642945360309 S
