#=======================================================
# FHI-aims file: full_relax/full_relax_RP_5_RxRyMz_RxRy-Mz.in
# Created using the Atomic Simulation Environment (ASE)
# Fri Mar 14 11:34:40 2025
#=======================================================
lattice_vector 10.0134996299851338 -0.0600650726036644 -0.0000000000000985 
lattice_vector -0.0600650726036585 10.0134996299853807 0.0000000000000747 
lattice_vector -0.0000000000005560 0.0000000000004229 55.8953204850996030 
atom 0.0887200337971890 -0.1794633776439085 0.2209293326727622 Ba
atom 5.1862131925885775 -0.1187525699939976 0.2209293325848899 Ba
atom 0.1494308414449327 4.9180297812305458 0.2209293326654632 Ba
atom 5.0654373123522811 4.7972539009758597 0.2209293325463960 Ba
atom -0.2622381161230879 0.1864563052778784 5.0045857205222140 Ba
atom 4.8202935096177502 0.2322055798474653 5.0045857205492776 Ba
atom -0.2164888415765323 5.2689879312107628 5.0045857205297146 Ba
atom 4.7144791624652704 5.1631735840344151 5.0045857205551183 Ba
atom 2.4867170213668319 2.4791314755750764 2.4024842652957310 Zr
atom 7.5043356183318854 2.4599677208131294 2.4024842653428231 Zr
atom 2.4675532665097628 7.4967500722256402 2.4024842654748748 Zr
atom 7.4634343004289017 7.4558487542770493 2.4024842655680581 Zr
atom 2.4809061230415459 2.4928857340621513 7.4589165047242139 Zr
atom 7.4905813596171988 2.4657786192896851 7.4589165048358970 Zr
atom 2.4537990082146632 7.5025609706531613 7.4589165047036667 Zr
atom 7.4576234018490766 7.4696030127837165 7.4589165046423096 Zr
atom 2.6131218840751771 2.7009853106581962 -0.1040825123243691 S
atom 7.2824817830469568 2.3335628583624732 -0.1040825121444082 S
atom 2.2456994317622736 7.3703452096506750 -0.1040825123643900 S
atom 7.5898391626646058 7.6777025892956416 -0.1040825121524469 S
atom 2.2374194545103601 2.1916966888335963 4.9629858835821183 S
atom 7.7917704048279690 2.7092652878863794 4.9629858832280602 S
atom 2.7549880536103766 7.7460476391948321 4.9629858833614859 S
atom 7.2141367331609434 7.1684139675021141 4.9629858829557856 S
atom 2.7946027845431143 -0.0094036447311498 2.2465327663255334 S
atom 7.1937611627031464 -0.0364995527805789 2.7552241572455665 S
atom 2.1569788114098034 5.0002827986643359 2.7552241572814675 S
atom 7.7713200630736612 4.9673136342257669 2.2465327663664754 S
atom 2.8945790494604471 -0.0146855710338545 7.7827676290922563 S
atom 7.1250866245024627 -0.0412656814716989 7.1650132106052959 S
atom 2.0883042732312442 4.9955166694569897 7.1650132106136306 S
atom 7.8712963281261237 4.9620317073322928 7.7827676290952459 S
atom -0.0206288922095737 2.2121470305530000 2.2465327663542398 S
atom 4.9831842954548522 2.7897059310071208 2.7552241572830405 S
atom -0.0535980566848973 7.8264882822512760 2.7552241572374889 S
atom 4.9560883875945336 7.1888643091874940 2.2465327663381252 S
atom -0.0153469651417038 2.1121707655677944 7.7827676290666910 S
atom 4.9879504240730679 2.8583804691613715 7.1650132106013009 S
atom -0.0488319272620587 7.8951628204637760 7.1650132106211784 S
atom 4.9613703135855980 7.0888880442053521 7.7827676291218344 S
atom 0.2782165809780538 -0.1823827163444204 9.9787887251744252 Ba
atom 5.1891325312850194 -0.3082491172230550 9.9787887251579317 Ba
atom 0.1523501800750234 4.7285332340486015 9.9787887251963028 Ba
atom 5.2549338596020654 4.7943345623375384 9.9787887251776723 Ba
atom -0.2782165808974498 0.1823827163302653 14.9744793482564305 Ba
atom 4.8243670985731875 0.2481840445422482 14.9744793482486553 Ba
atom -0.2124152526459426 5.2849663959675848 14.9744793482743113 Ba
atom 4.6985006977109585 5.1590999951714016 14.9744793482683409 Ba
atom 2.4883586391791104 2.4883586393034207 12.4766340363857804 Zr
atom 7.4951084545251954 2.4583261031488042 12.4766340364732375 Zr
atom 2.4583261030848385 7.4951084543787392 12.4766340366959909 Zr
atom 7.4650759180326123 7.4650759178815713 12.4766340366568116 Zr
atom 2.4958111555458613 2.4838315446566570 17.4943515679916999 Zr
atom 7.4996355492181346 2.4508735868176790 17.4943515676446069 Zr
atom 2.4628531977576098 7.4876559379409571 17.4943515680851291 Zr
atom 7.4725284343553735 7.4605488231980379 17.4943515677588053 Zr
atom 2.7525220600420059 2.8169618996190127 9.9731162653808560 S
atom 7.1665051940531397 2.1941626823558948 9.9731162654404741 S
atom 2.1297228427462902 7.2309450336403884 9.9731162653624637 S
atom 7.7292393386936622 7.7936791783034263 9.9731162659293648 S
atom 2.2241952187207348 2.1597553791189643 14.9801518096508275 S
atom 7.8237117145406732 2.7224895236527558 14.9801518095377784 S
atom 2.7869293633421943 7.7592718750153935 14.9801518091344512 S
atom 7.2009124974113963 7.1364726578113142 14.9801518088168866 S
atom 2.8861349474539710 -0.0165763383178245 12.1592936110096890 S
atom 7.1273646825776344 -0.0434887344147100 12.7939744626994223 S
atom 2.0905823312699123 4.9932936170003925 12.7939744627332086 S
atom 7.8628522260399176 4.9601409405178005 12.1592936110352241 S
atom 2.8884130054627573 -0.0187993902552093 17.7882548632707262 S
atom 7.1189205805940938 -0.0453795010050508 17.1705004449367067 S
atom 2.0821382293342019 4.9914028492569775 17.1705004449236363 S
atom 7.8651302840981732 4.9579178873521190 17.7882548632593469 S
atom -0.0134561978952419 2.1206148675808256 12.1592936110231538 S
atom 4.9901734765843422 2.8561024111146041 12.7939744627298655 S
atom -0.0466088753228903 7.8928847624289489 12.7939744627027565 S
atom 4.9632610813992590 7.0973321462641774 12.1592936110225978 S
atom -0.0112331453486990 2.1183368095930488 17.7882548632276283 S
atom 4.9920642437605158 2.8645465130120114 17.1705004449543530 S
atom -0.0447181077565190 7.9013288644348636 17.1705004449064589 S
atom 4.9654841335746056 7.0950540881951571 17.7882548632959185 S
atom 0.2622381162790430 -0.1864563053537404 19.9486823534512929 Ba
atom 5.1932061200966997 -0.2922706525696865 19.9486823534108311 Ba
atom 0.1564237690480625 4.7445116989359679 19.9486823535138171 Ba
atom 5.2389553947477028 4.7902609735797164 19.9486823534774054 Ba
atom -0.0887200336012725 0.1794633778636309 24.7323387416451688 Ba
atom 4.8272864370506747 0.0586874973563391 24.7323387415235167 Ba
atom -0.2094959140912837 5.0954698486550152 24.7323387415491318 Ba
atom 4.8879972449382132 5.1561806565678037 24.7323387413695386 Ba
atom 2.4900002571446280 2.4975858035353422 22.5507838118132575 Zr
atom 7.4858812906398011 2.4566844854054333 22.5507838120322006 Zr
atom 2.4490989392326830 7.4934668360109749 22.5507838115186594 Zr
atom 7.4667175362092468 7.4743030815165765 22.5507838117792581 Zr
atom 2.7392978243063570 2.7850205898452143 19.9902821892493954 S
atom 7.1984465037695484 2.2073869180745840 19.9902821897326071 S
atom 2.1616641524340814 7.2441692694074149 19.9902821894747476 S
atom 7.7160151029581829 7.7617378686562404 19.9902821902283243 S
atom 2.3635953949207220 2.2757319682494876 25.0573505840235953 S
atom 7.7077351253071882 2.5830893474281540 25.0573505835882813 S
atom 2.6709527742060128 7.6198716988634505 25.0573505843740740 S
atom 7.3403126736027335 7.2524492470565987 25.0573505835246557 S
atom 2.8197384673765216 -0.0235655194331619 22.1980439158116418 S
atom 7.2188968456075964 -0.0506614281044267 22.7067353067959985 S
atom 2.1821144942956852 4.9861209227525656 22.7067353068568494 S
atom 7.7964557458692108 4.9531517588965448 22.1980439158766458 S
atom -0.0064670168350050 2.1870113476987236 22.1980439158527254 S
atom 4.9973461709303306 2.7645702480262737 22.7067353068349362 S
atom -0.0394361821887830 7.8013525994988973 22.7067353068247186 S
atom 4.9702502632031758 7.1637286264441817 22.1980439158434457 S
atom 2.3088952612336406 2.5770786729955275 28.1685895744879851 Ba
atom 7.4063884208921271 2.6377894808989226 28.1685895745896140 Ba
atom 2.3696060691619580 7.6745718322249665 28.1685895746106034 Ba
atom 7.2856125403997716 7.5537959517178077 28.1685895747741846 Ba
atom 2.6748149445751914 2.2261205229908692 32.9522459632190916 Ba
atom 7.7573465704676794 2.2718697976940625 32.9522459630716114 Ba
atom 2.7205642192245998 7.3086521493388039 32.9522459631477957 Ba
atom 7.6515322231900544 7.2028378020281565 32.9522459629989655 Ba
atom 4.9674901149552211 4.9750756611866258 30.3501445044813032 Zr
atom 9.9851087113457861 4.9559119066162003 30.3501445039528335 Zr
atom 4.9483263606592667 9.9926942569566535 30.3501445050607686 Zr
atom 9.9442073935547963 9.9517929389011943 30.3501445043519773 Zr
atom 4.9812443734455059 4.9692647624975823 35.4065767506244029 Zr
atom 9.9909196101407574 4.9421576476101876 35.4065767496611130 Zr
atom 4.9541372585057921 9.9789399988246963 35.4065767495224648 Zr
atom 9.9579616523182874 9.9459820409771904 35.4065767487987202 Zr
atom 5.1893439496135567 5.1014805230369831 27.8435777332976286 S
atom 9.8587038492179424 4.7340580712723108 27.8435777324761666 S
atom 4.8219214979584564 9.7708404226757466 27.8435777325432987 S
atom 10.1660612285279015 10.0781978018850307 27.8435777321819167 S
atom 4.6800553280392796 4.7257780936521607 32.9106461242263748 S
atom 10.2344062786457304 5.2433466929037573 32.9106461269190902 S
atom 5.1976239274186060 10.2801290444145046 32.9106461246596709 S
atom 9.6567726068210131 9.7024953724448029 32.9106461270323010 S
atom 4.7005056699704868 2.4677297484717253 30.1941930095820545 S
atom 10.3148469217438663 2.4347605834092989 30.7028844004658445 S
atom 5.2780645701460811 7.4715429337612393 30.7028844003297969 S
atom 9.6772229486092183 7.4444470261437905 30.1941930094098296 S
atom 4.6005294048304055 2.4730116745765955 35.7304278711917220 S
atom 10.3835214596825534 2.4395267123020052 35.1126734527642625 S
atom 5.3467391086893246 7.4763090630423701 35.1126734525779867 S
atom 9.5772466837381121 7.4497289528344179 35.7304278710682865 S
atom 2.4789549964878570 5.2829614235544380 30.1941930095538780 S
atom 7.4886414365456542 4.6453374507465179 30.7028844004196770 S
atom 2.4518590875055661 9.6821198020972403 30.7028844003796060 S
atom 7.4556722721814932 10.2596787025656369 30.1941930094437758 S
atom 2.4736730668555600 5.3829376887324321 35.7304278710951451 S
atom 7.4838753102186502 4.5766629125093283 35.1126734526725173 S
atom 2.4470929561895081 9.6134452638735883 35.1126734526664421 S
atom 7.4503903482616467 10.3596549674367999 35.7304278711685797 S
atom 2.3059759231053700 2.7665752204270184 37.9264489677908827 Ba
atom 7.2168918731491463 2.6407088196958108 37.9264489677820364 Ba
atom 2.1801095223360161 7.6774911706598932 37.9264489677485059 Ba
atom 7.2826932012910230 7.7432924988512344 37.9264489677458059 Ba
atom 2.6707413554727770 2.2101420586399465 42.9221395907369825 Ba
atom 7.7733250353089316 2.2759433870343635 42.9221395907203984 Ba
atom 2.7365426838262898 7.3127257379080213 42.9221395907061947 Ba
atom 7.6474586343765552 7.1868593369375358 42.9221395906910104 Ba
atom 4.9767172787474028 4.9767172785700149 40.4242942759569388 Zr
atom 9.9834670938531769 4.9466847424113807 40.4242942772352833 Zr
atom 4.9466847424528479 9.9834670936568859 40.4242942758877604 Zr
atom 9.9534345573327752 9.9534345573317911 40.4242942768815325 Zr
atom 4.9721901838433178 4.9841697946354167 45.4420118150008747 Zr
atom 9.9760145776725881 4.9512118372403515 45.4420118138633740 Zr
atom 4.9392322263183157 9.9879941886208741 45.4420118154257295 Zr
atom 9.9489074624458542 9.9608870735965223 45.4420118147500531 Zr
atom 5.3053205389113813 5.2408806991996197 37.9207765080369654 S
atom 9.7193036731703959 4.6180814822015774 37.9207765063568516 S
atom 4.6825213218554254 9.6548638335588439 37.9207765092832005 S
atom 10.2820378174278719 10.2175979778830079 37.9207765077076857 S
atom 4.6481140182767309 4.7125538578033144 42.9278120524405438 S
atom 10.2476305145118456 5.2752880028707025 42.9278120529002933 S
atom 5.2108481632429129 10.3120703540212784 42.9278120516091590 S
atom 9.6248312970261019 9.6892711365921453 42.9278120521591333 S
atom 4.6089735069813154 2.4749024406870990 40.1069538541404924 S
atom 10.3812434018523732 2.4417497634367979 40.7416347058047634 S
atom 5.3444610504802137 7.4785321167449261 40.7416347058656072 S
atom 9.5856907856077704 7.4516197213684983 40.1069538540040398 S
atom 4.6066954490207426 2.4771254939591274 45.7359151049031709 S
atom 10.3896875036945300 2.4436405314519272 45.1181606869414296 S
atom 5.3529051524458877 7.4804228832402986 45.1181606868176317 S
atom 9.5834127277449674 7.4538427730760990 45.7359151049899708 S
atom 2.4717823011338562 5.3744935868254915 40.1069538540186699 S
atom 7.4816522561242609 4.5789409704809820 40.7416347059032518 S
atom 2.4448699052838299 9.6157233219426814 40.7416347057735422 S
atom 7.4484995794881543 10.3512108653137762 40.1069538541247184 S
atom 2.4695592482336326 5.3767716446913640 45.7359151049583517 S
atom 7.4797614892858286 4.5704968686481742 45.1181606868816516 S
atom 2.4429791374583631 9.6072792199741652 45.1181606868725282 S
atom 7.4462765275815759 10.3534889232638818 45.7359151049298234 S
atom 2.3019023340659528 2.7505967555238668 47.8963425967461305 Ba
atom 7.2328703379708763 2.6447824085030556 47.8963425966665071 Ba
atom 2.1960879870462398 7.6815647597849281 47.8963425967290561 Ba
atom 7.2786196123872102 7.7273140342265050 47.8963425966542431 Ba
atom 2.6678220169037710 2.3996386055608334 52.6799989826712434 Ba
atom 7.5838284881301892 2.2788627254496787 52.6799989827306305 Ba
atom 2.5470461368182904 7.3156450767774039 52.6799989827120783 Ba
atom 7.6445392955828186 7.3763558842891079 52.6799989827761621 Ba
atom 4.9859444422299539 4.9783588963466094 50.4984440497629734 Zr
atom 9.9818254762164180 4.9374575781717871 50.4984440503647534 Zr
atom 4.9450431242601933 9.9742399299048881 50.4984440498321163 Zr
atom 9.9626617215757083 9.9550761755222030 50.4984440504206020 Zr
atom 5.2733792291706951 5.2276564634345224 47.9379424290307554 S
atom 9.7325279089275867 4.6500227920136714 47.9379424296296079 S
atom 4.6957455576787410 9.6868051432426689 47.9379424291316596 S
atom 10.2500965077087329 10.2043737420541394 47.9379424289803566 S
atom 4.7640906073756204 4.8519540339357290 53.0050108308675902 S
atom 10.1082303383569769 5.1593114137268383 53.0050108301464604 S
atom 5.0714479871970140 10.1960937649934138 53.0050108306629966 S
atom 9.7408078860287617 9.8286713125983756 53.0050108302517700 S
atom 4.6753699869927861 2.4818916228282339 50.1457041590900374 S
atom 10.2897112388248662 2.4489224586980116 50.6543955503157122 S
atom 5.2529288877459432 7.4857048099814714 50.6543955504349768 S
atom 9.6520872656231376 7.4586089014793400 50.1457041590240848 S
atom 2.4647931187133931 5.3080971067379270 50.1457041590713075 S
atom 7.4744795633633085 4.6704731334240721 50.6543955503711132 S
atom 2.4376972109944588 9.7072554847003740 50.6543955503871288 S
atom 7.4415103983938877 10.2848143853762863 50.1457041590588162 S
