#=======================================================
# FHI-aims file: full_relax/full_relax_RP_4_Rx0Rz_0Ry0.in
# Created using the Atomic Simulation Environment (ASE)
# Fri Mar 14 11:25:17 2025
#=======================================================
lattice_vector 10.0855443906332454 0.0000000000000000 0.0036237782046706 
lattice_vector 0.0000000000000000 10.0891736892101864 -0.0000000000000396 
lattice_vector 0.0147655002220180 -0.0000000000001870 45.2721479034212564 
atom -0.1788560975257632 -0.0000000000018417 0.2913577460345296 Ba
atom 5.2031497049973767 0.0000000000003390 0.2916446250064212 Ba
atom 0.1603775096818119 5.0445868446051021 0.2898327359027938 Ba
atom 4.8639160978009670 5.0445868446029065 0.2931696351467301 Ba
atom -0.0048750557300720 0.0000000000010142 4.9619925660964865 Ba
atom 4.9829622168352108 0.0000000000034748 4.9458866604134704 Ba
atom -0.0598099784693091 5.0445868446022271 4.9440747713102224 Ba
atom 5.0378971395935013 5.0445868445998254 4.9638044551955698 Ba
atom 2.5096335304739097 2.5001269746549499 2.3418031617949855 Zr
atom 7.5524057257288923 2.5444598699274050 2.3436150508840430 Zr
atom 2.5096335304628274 7.5890467145570062 2.3418031617760664 Zr
atom 7.5524057257398711 7.5447138192773311 2.3436150508687135 Zr
atom 2.5134882381291752 2.5224991590721109 7.3592709306473498 Zr
atom 7.5562604334123549 2.5220876855199008 7.3610828197637614 Zr
atom 2.5134882381191117 7.5666745301375542 7.3592709306428379 Zr
atom 7.5562604334222376 7.5670860036883081 7.3610828197609237 Zr
atom 2.5125630133601420 2.8086567873833332 -0.1373661146548726 S
atom 7.5553352086772216 2.2359300572256511 -0.1355542255404899 S
atom 2.5125630133613321 7.2805169018296967 -0.1373661146178222 S
atom 7.5553352086760004 7.8532436319786445 -0.1355542255103633 S
atom 2.5147505991259411 2.0609850487777468 4.8851623992054378 S
atom 7.5575227944686230 2.9836017958287635 4.8869742882977221 S
atom 2.5147505991272947 8.0281886404278957 4.8851623991934403 S
atom 7.5575227944670820 7.1055718933801737 4.8869742882759892 S
atom 2.5135333481306716 -0.0000000000285609 2.0445109975175288 S
atom 7.5494517183760275 -0.0000000000182975 2.7805980911729380 S
atom 2.5066795230509542 5.0445868446234998 2.7787862020693361 S
atom 7.5563055434572544 5.0445868446298521 2.0463228866211591 S
atom 2.6166845483225889 -0.0000000000113165 7.8193458132877245 S
atom 7.4795630684126584 0.0000000000028042 6.9043260395167794 S
atom 2.4367908730907595 5.0445868446139404 6.9025141504178809 S
atom 7.6594567436466630 5.0445868446010520 7.8211577023902077 S
atom -0.0106720401429648 2.5213035489058835 2.4766802048979084 S
atom 5.0321001551870266 2.5232832957016100 2.4784920940129798 S
atom -0.0106720401404362 7.5678701403023849 2.4766802048981842 S
atom 5.0321001551846791 7.5658903935067352 2.4784920940141255 S
atom -0.0028280626871912 2.4172951235054896 7.3667218785430837 S
atom 5.0399441326242771 2.6272917210994673 7.3685337676248128 S
atom -0.0028280626690246 7.6718785657024817 7.3667218785415107 S
atom 5.0399441326065890 7.4618819681092239 7.3685337676232088 S
atom -0.0069397670393895 0.0000000000026788 9.7909181264305687 Ba
atom 5.0561317450483942 0.0000000000049953 9.8944363294166990 Ba
atom 0.0133595497388974 5.0445868446002189 9.8926244403000059 Ba
atom 5.0358324282931726 5.0445868445986397 9.7927300155309283 Ba
atom 0.0662297611769381 0.0000000000059119 14.7394677954020601 Ba
atom 5.0540670337395204 0.0000000000073260 14.7233618897217191 Ba
atom 0.0112948384328984 5.0445868445975623 14.7215500006135880 Ba
atom 5.1090019565016123 5.0445868445963686 14.7412796845024001 Ba
atom 2.5357037399520146 2.5224991590676398 12.3260835252272738 Zr
atom 7.5784759351810163 2.5220876855179473 12.3278954143158384 Zr
atom 2.5357037399450522 7.5666745301380356 12.3260835252187970 Zr
atom 7.5784759351873907 7.5670860036932641 12.3278954143051944 Zr
atom 2.5395584476380439 2.5001269746434303 17.3435512939435910 Zr
atom 7.5823306428318515 2.5444598699296850 17.3453631830609254 Zr
atom 2.5395584476332522 7.5890467145592089 17.3435512939845253 Zr
atom 7.5823306428369808 7.5447138192855938 17.3453631831000941 Zr
atom 2.5245959890147951 3.0210677216185506 9.8426772278460781 S
atom 7.5673681843223175 2.0235191229890019 9.8444891169518574 S
atom 2.5245959890159706 7.0681059675964493 9.8426772278777701 S
atom 7.5673681843209426 8.0656545662144925 9.8444891169992399 S
atom 2.5344413788627462 2.0609850487793100 14.8001920566639988 S
atom 7.5772135742157687 2.9836017958294354 14.8020039457684032 S
atom 2.5344413788638636 8.0281886404225133 14.8001920566297525 S
atom 7.5772135742151185 7.1055718933856875 14.8020039457303501 S
atom 2.4325074296850251 -0.0000000000391568 11.8660086425205478 S
atom 7.6551733002522058 -0.0000000000405128 12.7846521945057194 S
atom 2.6124011049187197 5.0445868446446358 12.7828403054057436 S
atom 7.4752796250169400 5.0445868446419500 11.8678205316221437 S
atom 2.5356586298735917 -0.0000000000045788 17.6408434583107052 S
atom 7.5852846502919054 -0.0000000000016243 16.9083801428658056 S
atom 2.5425124549548030 5.0445868446102100 16.9065682537620710 S
atom 7.5784308252115409 5.0445868446009161 17.6426553474147241 S
atom 0.0092478453924538 2.6272917211028446 12.3168206881707807 S
atom 5.0520200407090856 2.4172951235048710 12.3186325772933518 S
atom 0.0092478453932420 7.4618819681080621 12.3168206881724949 S
atom 5.0520200407086300 7.6718785657014230 12.3186325772950322 S
atom 0.0170918228416207 2.5232832957020892 17.2068623618290779 S
atom 5.0598640181550323 2.5213035489066917 17.2086742509209323 S
atom 0.0170918228483513 7.5658903935067432 17.2068623618279339 S
atom 5.0598640181478975 7.5678701403021815 17.2086742509192874 S
atom -0.1539577269789679 -0.0000000000055834 19.3937098308120568 Ba
atom 5.2280480755355585 -0.0000000000044781 19.3939967097597830 Ba
atom 0.1852758802201841 5.0445868446090802 19.3921848206802174 Ba
atom 4.8888144683487633 5.0445868446079976 19.3955217199025327 Ba
atom 2.5366289646570208 2.8086567873862793 19.8227205705095919 S
atom 7.5794011599791862 2.2359300572228231 19.8245324596015742 S
atom 2.5366289646576083 7.2805169018232379 19.8227205704840657 S
atom 7.5794011599786026 7.8532436319853316 19.8245324595769361 S
atom 2.5353569739904063 2.6923629427767044 22.9332724479320227 Ba
atom 7.5781291692960462 2.3522239018259348 22.9350843370335902 Ba
atom 2.5353569739861825 7.3968107464326973 22.9332724479431960 Ba
atom 7.5781291693002135 7.7369497873810147 22.9350843370465149 Ba
atom 2.5337845643824570 2.4942030166250833 27.5973359678313805 Ba
atom 7.5765567597072163 2.5503838279719018 27.5991478569334454 Ba
atom 2.5337845643767172 7.5949706725835631 27.5973359678347592 Ba
atom 7.5765567597129477 7.5387898612386799 27.5991478569372823 Ba
atom 5.0782285675462271 5.0445868446415032 24.9841652763073654 Zr
atom 10.0765772211272147 5.0445868446640709 24.9855112304236187 Zr
atom 5.0338050258228213 10.0891736891721795 24.9836993412944572 Zr
atom 10.1210007628490430 10.0891736891495363 24.9859771654461618 Zr
atom 5.0535084662579699 5.0445868446531890 29.9988940886807143 Zr
atom 10.0978505149536826 5.0445868446794364 30.0004514133021623 Zr
atom 5.0550783196345579 10.0891736891604609 29.9986395241353030 Zr
atom 10.0962806615581790 10.0891736891341974 30.0007059778243281 Zr
atom 4.7688641039565534 5.0445868445984123 22.5051402702348256 S
atom 10.3877471483221449 5.0445868445961866 22.5067165780290139 S
atom 5.3449749529948418 10.0891736892153787 22.5049046889712905 S
atom 9.8116362992715729 10.0891736892175263 22.5069521593188568 S
atom 5.5219883659812314 5.0445868445955986 27.5264159597120397 S
atom 9.6311239223756147 5.0445868445919375 27.5277856728772079 S
atom 4.5883517270625855 10.0891736892179047 27.5259737837924661 S
atom 10.5647605613080628 10.0891736892215391 27.5282278487503476 S
atom 5.0559678727810038 2.5222748279832818 25.1207110610744309 S
atom 10.0987400681008914 2.5223120166124913 25.1225229501785208 S
atom 5.0559678727814905 7.5668988612253871 25.1207110610721358 S
atom 10.0987400681003443 7.5668616725960822 25.1225229501747656 S
atom 5.0542912431751983 2.5222948802188574 30.0099304665372486 S
atom 10.0970634384980720 2.5222919644305075 30.0117423556402798 S
atom 5.0542912431797893 7.5668788089894283 30.0099304665370852 S
atom 10.0970634384934783 7.5668817247777680 30.0117423556394094 S
atom 2.5344616218797080 5.0445868445947726 25.4227122051115657 S
atom 7.5775236190610844 5.0445868445957451 24.6832737611192954 S
atom 2.5347514237807247 10.0891736892185335 24.6814618720161469 S
atom 7.5772338171707823 10.0891736892186437 25.4245240942111579 S
atom 2.5330879994155824 5.0445868445931028 29.5330106815865143 S
atom 7.5755157006983271 5.0445868445894604 30.4660927257009888 S
atom 2.5327435054815957 10.0891736892200399 30.4642808366049742 S
atom 7.5758601946410717 10.0891736892232320 29.5348225706867886 S
atom 2.5319787391035131 2.5309330668495966 32.4787511796229182 Ba
atom 7.5747509344551851 2.5136537777564398 32.4805630687284506 Ba
atom 2.5319787390974522 7.5582406223592109 32.4787511796260802 Ba
atom 7.5747509344611981 7.5755199114511163 32.4805630687263189 Ba
atom 2.5301729138468905 2.4942030166305207 37.3601663914056203 Ba
atom 7.5729451091807922 2.5503838279756477 37.3619782805080831 Ba
atom 2.5301729138413283 7.5949706725751884 37.3601663914051301 Ba
atom 7.5729451091863940 7.5387898612321411 37.3619782805084029 Ba
atom 5.0516513539287082 5.0445868446558375 34.9606747242077205 Zr
atom 10.0959934026235825 5.0445868446821640 34.9622320487423721 Zr
atom 5.0532212073129692 10.0891736891570751 34.9604201596751025 Zr
atom 10.0944235492292513 10.0891736891307371 34.9624866132686378 Zr
atom 5.0729246477430081 5.0445868446627653 39.9756149070504563 Zr
atom 10.0712733013224653 5.0445868446835371 39.9769608610758596 Zr
atom 5.0285011060394655 10.0891736891500976 39.9751489720604809 Zr
atom 10.1156968430492977 10.0891736891292840 39.9774267961228631 Zr
atom 4.5461377361403787 5.0445868445934803 32.4795211771364052 S
atom 10.6033641327541446 5.0445868445898707 32.4816049602224339 S
atom 5.5605919374154862 10.0891736892198942 32.4797930712182321 S
atom 9.5889099314407034 10.0891736892233759 32.4813330662283946 S
atom 5.5183779464904239 5.0445868445932076 37.4333404645406560 S
atom 9.6275135028828185 5.0445868445897784 37.4347101778665703 S
atom 4.5847413075774570 10.0891736892198391 37.4328982886053865 S
atom 10.5611501418236031 10.0891736892232142 37.4351523536997774 S
atom 5.0524384303818852 2.5222919643732058 34.9493837818074269 S
atom 10.0952106256957901 2.5222948801652567 34.9511956709103231 S
atom 5.0524384303768421 7.5668817248348867 34.9493837818070716 S
atom 10.0952106257007923 7.5668788090427963 34.9511956709107636 S
atom 5.0507618007745831 2.5223120166476289 39.8386031872682054 S
atom 10.0935339960937807 2.5222748280223817 39.8404150763679255 S
atom 5.0507618007747501 7.5668616725600462 39.8386031872718647 S
atom 10.0935339960936545 7.5668988611853365 39.8404150763730200 S
atom 2.5308694789647270 5.0445868445883475 35.4244916776628997 S
atom 7.5739861680341427 5.0445868445933444 34.4950334117360811 S
atom 2.5312139729096765 10.0891736892248751 34.4932215226398071 S
atom 7.5736416740897576 10.0891736892206971 35.4263035667600121 S
atom 2.5294958563669709 5.0445868445905084 39.5347901541341500 S
atom 7.5719782498141575 5.0445868445918807 40.2778523763221870 S
atom 2.5292060544642050 10.0891736892212638 40.2760404872257496 S
atom 7.5722680516971090 10.0891736892217700 39.5366020432320582 S
atom 2.5286005042676294 2.6923629427711950 42.0242299113200772 Ba
atom 7.5713726995631072 2.3522239018160827 42.0260418004221421 Ba
atom 2.5286005042637045 7.3968107464388853 42.0242299112968070 Ba
atom 7.5713726995670241 7.7369497873896211 42.0260418004007974 Ba
atom 4.7617547205604795 5.0445868445962283 42.4544095593742270 S
atom 10.3806377649191361 5.0445868445941988 42.4559858672199724 S
atom 5.3378655695981996 10.0891736892164676 42.4541739780994689 S
atom 9.8045269158773625 10.0891736892184838 42.4562214485115277 S
