#=======================================================
# FHI-aims file: full_relax/full_relax_RP_6_RxRyRz_-Rx-RyRz.in
# Created using the Atomic Simulation Environment (ASE)
# Fri Mar 14 11:48:07 2025
#=======================================================
lattice_vector 9.9638840541126559 -0.0035845878108066 0.0000000003743543 
lattice_vector -0.0035845878108713 9.9638840543076714 0.0000000004579125 
lattice_vector 0.0000000024408451 0.0000000029863055 66.5349032501642199 
atom 0.0331278759448103 -0.1225075480359046 0.2023651707066691 Ba
atom 5.1044498901343420 -0.0349197085917339 0.2023618892737079 Ba
atom 0.1207160095475580 4.9488144616427086 0.2023608796431373 Ba
atom 5.0132772562465657 4.8576417867025379 0.2023631935906923 Ba
atom -0.2550634914246763 0.1913309265155459 5.0172487274289059 Ba
atom 4.7906104339250595 0.2532710132210994 5.0172488787358516 Ba
atom -0.1931233552435703 5.2370061869248099 5.0172487980009670 Ba
atom 4.7250855648240844 5.1714816473676581 5.0172487440212565 Ba
atom 2.4580549977750694 2.5163773389302539 2.4004301251796720 Zr
atom 7.4457144976913945 2.5203026525873282 2.4004298556846662 Zr
atom 2.4619805967526625 7.5040368279320644 2.4004311428805263 Zr
atom 7.4382046382411628 7.4965266363571157 2.4004308482790306 Zr
atom 2.4167217523849112 2.5280007140086895 7.4913376889386196 Zr
atom 7.4340911667741114 2.5616357921545228 7.4913370654963369 Zr
atom 2.4503569983674107 7.5453702299674985 7.4913345403036180 Zr
atom 7.3968714521051853 7.5081501456745166 7.4913376511115857 Zr
atom 2.5790030001464666 2.7063784877931019 -0.1141788834614663 S
atom 7.2557134435284398 2.3993543042957044 -0.1141797001441508 S
atom 2.2719790023428854 7.3830884324495614 -0.1141758592163714 S
atom 7.5591528268788526 7.6865277689400129 -0.1141787346298131 S
atom 2.2512039329076883 2.2968692846789485 4.9792365794006468 S
atom 7.6652224232596069 2.7271535601188326 4.9792357082877770 S
atom 2.6814882891737786 7.7108878041756208 4.9792340720440622 S
atom 7.2313536572121464 7.2770188718135644 4.9792375497154397 S
atom 2.7657634777636075 0.0357522461446712 2.2839124036147607 S
atom 7.1104011865804999 0.0368797796618156 2.7176148547758912 S
atom 2.1266667683241582 5.0206129368918413 2.7176143968449806 S
atom 7.7459130700797658 5.0159013142934885 2.2839125621894696 S
atom 2.9375134658641486 0.0416585252374485 7.7009354211802981 S
atom 6.9860598163037348 0.0407344280376999 7.3216819866015630 S
atom 2.0023255090748271 5.0244689558103763 7.3216825806004486 S
atom 7.9176631393222774 5.0218093515797371 7.7009346711979090 S
atom -0.0375440324109039 2.2161781857050045 2.2839120262622359 S
atom 4.9414780714621216 2.8516906270695119 2.7176148285388591 S
atom -0.0422568818553569 7.8354250735573503 2.7176140028869167 S
atom 4.9426061368697090 7.1963281441311997 2.2839118964500886 S
atom -0.0434517455382721 2.0444285939149118 7.7009348527565713 S
atom 4.9376229476356706 2.9760318497859051 7.3216821076029923 S
atom -0.0461104925324113 7.9597661972293148 7.3216825079118717 S
atom 4.9366977298934929 7.0245781964607250 7.7009353645654750 S
atom -0.0009353332942294 -0.0808137149800279 10.0460842860654260 Ba
atom 5.0627557519941551 -0.0008572842885124 10.0460842036064797 Ba
atom 0.0790212315380850 4.9828768457720427 10.0460843626162326 Ba
atom 4.9792149107786026 4.8993361915863964 10.0460842226289433 Ba
atom 0.0457453983368482 0.0457461822123240 15.1215685451051947 Ba
atom 4.9361964964225029 -0.0475377126481184 15.1215685230968884 Ba
atom -0.0475385376010779 4.9361958691099765 15.1215685466277776 Ba
atom 5.0258959211903580 5.0258952166531161 15.1215685416286743 Ba
atom 2.4976313767688194 2.4931336446624663 12.5755253832776628 Zr
atom 7.4689582778283601 2.4807264055522080 12.5755274939342350 Zr
atom 2.4852239419065496 7.4644604363736997 12.5755258906951397 Zr
atom 7.4777809780897382 7.4732832791463562 12.5755249214080926 Zr
atom 2.4931337259568740 2.4976313046472072 17.6676107099744932 Zr
atom 7.4644603242058762 2.4852238341523285 17.6676104572423682 Zr
atom 2.4807259721625372 7.4689582781376753 17.6676129071516428 Zr
atom 7.4732834354497957 7.4777810531100579 17.6676104461193439 Zr
atom 2.5865881732632574 2.6627772366091182 10.0408399161715671 S
atom 7.2993145201637910 2.3917691814784159 10.0408413606282085 S
atom 2.3155802164957469 7.3755036315245839 10.0408401660403417 S
atom 7.5667378724107266 7.6429269930200441 10.0408399606722227 S
atom 2.4118316342760702 2.4118315801737071 15.1215673873137497 S
atom 7.5502602497539995 2.5665259047718876 15.1215692953174283 S
atom 2.5665258435809002 7.5502601496461406 15.1215687192645447 S
atom 7.3919813254442071 7.3919813092363142 15.1215672202069573 S
atom 2.0045277071070950 0.0011158288757841 12.5092681665257910 S
atom 7.9892822390523603 0.0001354892455979 12.6578143534195977 S
atom 3.0055477625302069 4.9838693860728434 12.6578146336412658 S
atom 6.9846773331150533 4.9812649166763006 12.5092679282000265 S
atom 2.9774143732622949 -0.0029080342640380 17.7338702231401228 S
atom 6.9565441290981740 -0.0055115577145694 17.5853244237025024 S
atom 1.9728097794742518 4.9782221027982452 17.5853238852995624 S
atom 7.9575641953423624 4.9772414104144822 17.7338706394674546 S
atom -0.0029084234920240 2.9774144418570980 12.5092678389371486 S
atom 4.9782223615135157 1.9728095965101475 12.6578143002024301 S
atom -0.0055121448629724 6.9565439838987562 12.6578146738041522 S
atom 4.9772418717070277 7.9575641087310114 12.5092682311660219 S
atom 0.0011152397022799 2.0045275874571513 17.7338706019260322 S
atom 4.9838697293054093 3.0055477147589609 17.5853242503468259 S
atom 0.0001351621048949 7.9892819869401297 17.5853239711796334 S
atom 4.9812652532481208 6.9846773799691437 17.7338703668054762 S
atom -0.0808130782098181 -0.0009347634907089 20.1970540555087332 Ba
atom 4.9828770341613984 0.0790209949382793 20.1970540788993489 Ba
atom -0.0008572840912485 5.0627554527431506 20.1970539268461344 Ba
atom 4.8993362392066366 4.9792147707727814 20.1970539544802392 Ba
atom 0.1913316704446971 -0.2550639832258088 25.2258902084072432 Ba
atom 5.2370052747745230 -0.1931239597577078 25.2258901270751181 Ba
atom 0.2532719882783981 4.7906110005028841 25.2258901335694681 Ba
atom 5.1714802012275394 4.7250865792174483 25.2258900687990284 Ba
atom 2.5280003904291242 2.4167214676799116 22.7518025239743231 Zr
atom 7.5453700923611207 2.4503571026919100 22.7517989747055616 Zr
atom 2.5616358238103505 7.4340912480488486 22.7518011318029920 Zr
atom 7.5081499783249086 7.3968706922150522 22.7518024479027758 Zr
atom 2.5163772196323868 2.4580546766265887 27.8427090914632025 Zr
atom 7.5040371537028232 2.4619801188513009 27.8427113354577749 Zr
atom 2.5203024495174624 7.4457143648778654 27.8427089924423363 Zr
atom 7.4965273966225370 7.4382042110825086 27.8427096372249885 Zr
atom 2.6627772870904969 2.5865881949009384 20.2022981040168546 S
atom 7.3755035845212600 2.3155800561919992 20.2022962412229212 S
atom 2.3917693280935115 7.2993144921959621 20.2022980413724440 S
atom 7.6429269352179121 7.5667379340381409 20.2022977105794084 S
atom 2.2968692657092089 2.2512040598384693 25.2639047453900538 S
atom 7.7108882598233013 2.6814877631892409 25.2639012777547833 S
atom 2.7271533598736690 7.6652222766143954 25.2639030451331550 S
atom 7.2770193455165195 7.2313537789360840 25.2639048237002193 S
atom 2.0444283151387799 -0.0434514448084528 22.5422010589006199 S
atom 7.9597662202590751 -0.0461114248455494 22.9214549789531290 S
atom 2.9760318956514595 4.9376234686047402 22.9214544295835623 S
atom 7.0245783494911667 4.9366989378591040 22.5422017957256458 S
atom 2.2161768346869315 -0.0375439407339478 27.9592283500857732 S
atom 7.8354258195305198 -0.0422555821086042 27.5255234891998484 S
atom 2.8516912871227826 4.9414782964121828 27.5255243567571277 S
atom 7.1963270596353741 4.9426049849632463 27.9592274048923741 S
atom 0.0416599843019957 2.9375134606003201 22.5422018986155805 S
atom 5.0244678706947132 2.0023256841328068 22.9214548143519075 S
atom 0.0407344521096257 6.9860599726173476 22.9214544109366436 S
atom 5.0218089882871046 7.9176633648566872 22.5422010702566702 S
atom 0.0357507912780323 2.7657641581981820 27.9592269331106387 S
atom 5.0206143762133673 2.1266665035373657 27.5255239476151701 S
atom 0.0368794612636031 7.1104007622318468 27.5255238718951212 S
atom 5.0159011959608550 7.7459144575657115 27.9592281329953423 S
atom -0.1225071540565910 0.0331281675008464 30.0407655616693603 Ba
atom 4.9488141041287452 0.1207148448494648 30.0407653625987443 Ba
atom -0.0349205088907386 5.1044495735805464 30.0407687962941949 Ba
atom 4.8576426925060252 5.0132777375934676 30.0407678051758644 Ba
atom 2.7063777168981171 2.5790026593919007 30.3573119984376305 S
atom 7.3830889370192736 2.2719798109107758 30.3573171635011505 S
atom 2.3993549092808437 7.2557140628064465 30.3573127619226319 S
atom 7.6865273404913719 7.5591522770741939 30.3573131684718902 S
atom 2.4569466202403021 2.6125816887320745 33.4698201811124818 Ba
atom 7.3495100664922299 2.5214109756513601 33.4698174466133338 Ba
atom 2.3657759807790604 7.5051446150895869 33.4698199492766406 Ba
atom 7.4370965347911095 7.5927311149612482 33.4698187206202533 Ba
atom 2.7451389280292657 2.2987417759940874 38.2847012469400667 Ba
atom 7.6633484423096272 2.2332179121266078 38.2847011673269151 Ba
atom 2.6796143566978206 7.2169544237181746 38.2847010678355630 Ba
atom 7.7252880036976821 7.2788940201099628 38.2847009417524902 Ba
atom 5.0121705655995221 4.9538477283248294 35.6678822662633337 Zr
atom 9.9883930721243050 4.9463368507512886 35.6678823286752831 Zr
atom 5.0046592191487722 9.9300716261351596 35.6678862903009986 Zr
atom 9.9923196750323697 9.9339981788391505 35.6678850377638454 Zr
atom 5.0535020515963796 4.9422239468177942 40.7587909324039828 Zr
atom 10.0000177043382337 4.9050036022524797 40.7587885902879350 Zr
atom 5.0162831075598451 9.8887390431868667 40.7587849155903044 Zr
atom 10.0336529663459064 9.9223739833164704 40.7587896793881868 Zr
atom 4.8912215809300976 4.7638465235733323 33.1532745693618622 S
atom 10.1783952481624542 5.0672856706521010 33.1532752680201455 S
atom 5.1946606090065091 10.0510196134925280 33.1532813828968926 S
atom 9.8713716221144114 9.7439962695994140 33.1532789896608691 S
atom 5.2190207233865316 5.1733549491850592 38.2466962004289854 S
atom 9.7688862556910436 4.7394863370799882 38.2466884694993325 S
atom 4.7851522206960500 9.7232216055452412 38.2466854421674824 S
atom 10.1991701044457326 10.1535050497944557 38.2466907661658269 S
atom 5.3435580032016805 2.4496113892881888 35.9850629937702990 S
atom 9.6881947446018035 2.4507381134507114 35.5513608271157082 S
atom 4.7044597727837472 7.4344721513076264 35.5513593123874685 S
atom 10.3237077925716534 7.4297610909826686 35.9850630856734668 S
atom 5.4678993236242057 2.4457541543326276 40.5891330435863296 S
atom 9.5164456792003982 2.4448314713055361 40.9683857036787842 S
atom 4.5327112860258456 7.4285652402261686 40.9683860444717283 S
atom 10.4480486887889708 7.4259064023831600 40.5891334615193387 S
atom 2.5287465460919956 4.6185337861725495 35.9850635162293813 S
atom 7.5077684030086198 5.2540466255639444 35.5513607909929235 S
atom 2.5240332543535020 10.2377815169599131 35.5513593229558253 S
atom 7.5088967777515281 9.5986837309113646 35.9850624496086056 S
atom 2.5326016673087985 4.4941930554475817 40.5891327266730215 S
atom 7.5136773842071829 5.4257958571120302 40.9683849440412544 S
atom 2.5299414222400656 10.4095306012915056 40.9683868666427458 S
atom 7.5127503061846106 9.4743423590429483 40.5891338100238173 S
atom 2.4910102412919226 2.5708884051040868 43.3135354810119679 Ba
atom 7.3912029331352365 2.4873475855846383 43.3135360419396136 Ba
atom 2.4074687793333487 7.4710818148006659 43.3135357428914247 Ba
atom 7.4711599017750618 7.5510389825369675 43.3135362427623392 Ba
atom 2.4443290433345619 2.4443298097592505 48.3890187205750593 Ba
atom 7.5177632585155285 2.5340291393597658 48.3890187677345054 Ba
atom 2.5340283995542507 7.5177616784318815 48.3890188562532515 Ba
atom 7.4244790999095969 7.4244777463471090 48.3890189574848790 Ba
atom 4.9725930870924051 4.9770905990421586 45.8429758374469216 Zr
atom 9.9651506468180830 4.9859133479511062 45.8429805245670821 Zr
atom 4.9814163938541558 9.9696483134826543 45.8429763509387698 Zr
atom 9.9527426347184349 9.9572410363637651 45.8429733561637676 Zr
atom 4.9770912278604982 4.9725935491893765 50.9350591542400295 Zr
atom 9.9696483195937464 4.9814159770680675 50.9350603834942603 Zr
atom 4.9859139527032754 9.9651502130265346 50.9350624131808800 Zr
atom 9.9572411203255111 9.9527428968434144 50.9350599591140849 Zr
atom 4.8836365212127673 4.8074476902756853 43.3082912699020923 S
atom 10.1347938802092319 5.0748707859392379 43.3082915749703190 S
atom 5.1510597955353354 10.0586049357063523 43.3082915773844803 S
atom 9.8637865049575382 9.7875969926503963 43.3082895977129709 S
atom 5.0583930586505579 5.0583929931424922 48.3890142336152067 S
atom 9.8838484917778224 4.9001139751401768 48.3890203203030325 S
atom 4.9001142399844442 9.8838484924753907 48.3890207313098202 S
atom 10.0385427108563690 10.0385426689839186 48.3890159493527179 S
atom 4.4646765846822882 2.4863556413169983 45.9252677491267249 S
atom 10.4494311903674610 2.4853748851705388 45.7767210441023167 S
atom 5.4656969747593402 7.4691087762005051 45.7767208839013691 S
atom 9.4448261872909089 7.4665045143546855 45.9252673772722417 S
atom 5.4974146607413319 2.4920034289398112 50.8527776171043868 S
atom 9.4765443568821528 2.4893990601896014 51.0013237509920145 S
atom 4.4928101438389403 7.4731315718380085 51.0013239061679187 S
atom 10.4775644820342180 7.4721520507003980 50.8527776389564679 S
atom 2.4920027287228192 5.4974152802654288 45.9252672202673722 S
atom 7.4731320419680056 4.4928101484508565 45.7767206178564692 S
atom 2.4893984687981314 9.4765445670049928 45.7767212284047034 S
atom 7.4721522561568676 10.4775648324623614 45.9252679247425064 S
atom 2.4863550093456586 4.4646769139526672 50.8527780580927455 S
atom 7.4691086100187363 5.4656972598285787 51.0013244012537683 S
atom 2.4853745047625249 10.4494313065793101 51.0013234591078799 S
atom 7.4665045206707061 9.4448267989908512 50.8527769971021399 S
atom 2.5708880016364852 2.4910098724099003 53.4645045556451279 Ba
atom 7.4710821145078965 2.4074693757585020 53.4645044179738136 Ba
atom 2.4873475738504363 7.3912034725086997 53.4645045354943846 Ba
atom 7.5510378834333762 7.4711585523863757 53.4645044132830378 Ba
atom 2.2987447187543451 2.7451374170626663 58.4933427590044062 Ba
atom 7.2169526906962416 2.6796129821446906 58.4933427150489251 Ba
atom 2.2332185423660893 7.6633490939448876 58.4933428533801560 Ba
atom 7.2788939411360341 7.7252889827376192 58.4933426727425001 Ba
atom 4.9422244433604767 5.0535031834973339 56.0192546984001751 Zr
atom 9.8887382254431682 5.0162834119994963 56.0192482963770999 Zr
atom 4.9050049233840998 10.0000173197391540 56.0192521646640458 Zr
atom 9.9223740580076836 10.0336540161898817 56.0192571350336905 Zr
atom 4.9538472517759597 5.0121692337785815 61.1101623723984204 Zr
atom 9.9300717293722549 5.0046602142722305 61.1101653250780217 Zr
atom 4.9463370360578676 9.9883948471473438 61.1101647535945034 Zr
atom 9.9339975997040781 9.9923192192595618 61.1101609199187976 Zr
atom 4.8074471945401216 4.8836361613481269 53.4697488803044578 S
atom 10.0586052917220883 5.1510602624062267 53.4697477219122277 S
atom 5.0748708889883840 10.1347942429126867 53.4697500621518387 S
atom 9.7875972238716678 9.8637860821286765 53.4697519972561182 S
atom 5.1733555258713046 5.2190207175917065 58.5313586359094344 S
atom 9.7232199791695511 4.7851520660621825 58.5313506003429822 S
atom 4.7394862491782250 9.7688858874342266 58.5313512253878869 S
atom 10.1535052195396727 10.1991702759624374 58.5313607594081446 S
atom 4.4941926188471957 2.5326014015952985 56.1889060163899572 S
atom 10.4095302654068984 2.5299381872487832 55.8096529414519722 S
atom 5.4257959271067984 7.5136763453337032 55.8096530704412288 S
atom 9.4743423498501400 7.5127522887671185 56.1889060121859600 S
atom 4.6185334242190477 2.5287470731887653 60.7929722536272763 S
atom 10.2377805583871240 2.5240363004646551 61.2266754986629564 S
atom 5.2540470032608972 7.5077687416370535 61.2266757817677387 S
atom 9.5986830030842700 7.5088952627293049 60.7929722611690053 S
atom 2.4457572475781340 5.4678988641408690 56.1889064317217901 S
atom 7.4285639739014089 4.5327114215753239 55.8096540419303224 S
atom 2.4448291903280532 9.5164455089617466 55.8096521987342271 S
atom 7.4259069458888929 10.4480484281260697 56.1889051028067357 S
atom 2.4496098741783334 5.3435577557574412 60.7929719870797456 S
atom 7.4344738484271806 4.7044612120179501 61.2266745701302639 S
atom 2.4507390318275326 9.6881950247218249 61.2266759568107091 S
atom 7.4297600225048592 10.3237077836996107 60.7929727758184910 S
atom 2.6125836277706287 2.4569470266437614 63.3082235190021265 Ba
atom 7.5051441104494065 2.3657737685837534 63.3082244530151002 Ba
atom 2.5214103444006337 7.3495089100931832 63.3082224647672547 Ba
atom 7.5927325028697439 7.4370969506502762 63.3082228058776408 Ba
atom 4.7638465154095293 4.8912215852205829 63.6247700894444534 S
atom 10.0510201406360125 5.1946604684476627 63.6247757446873123 S
atom 5.0672856792773198 10.1783948747165223 63.6247709606229037 S
atom 9.7439964381953672 9.8713715801100381 63.6247650983687763 S
