#=======================================================
# FHI-aims file: full_relax/full_relax_RP_8_RxRyMz_RxRyMz.in
# Created using the Atomic Simulation Environment (ASE)
# Mon Mar 24 16:10:13 2025
#=======================================================
lattice_vector 10.0109424061346921 -0.0712228378344094 -0.0000000000000057 
lattice_vector -0.0712228378344140 10.0109424061346459 0.0000000000000069 
lattice_vector -0.0000000000000493 0.0000000000000600 85.9339948418826083 
atom 0.1365866114466521 -0.1714936676706961 0.2120050843765125 Ba
atom 5.1769648707274145 -0.1721980303651335 0.2120050843862534 Ba
atom 0.1358822487514871 4.8688845916254770 0.2120050843590994 Ba
atom 5.1064463955882466 4.7983661164895643 0.2120050843481066 Ba
atom -0.2673182780682985 0.1903712624372461 5.0047403182499286 Ba
atom 4.8150999406063972 0.2317068591399943 5.0047403182494214 Ba
atom -0.2259826813651601 5.2727894811543194 5.0047403182570838 Ba
atom 4.7025415060679094 5.1602310466191170 5.0047403182571637 Ba
atom 2.5011647709325215 2.4764866953127114 2.3958030750311794 Zr
atom 7.4988442918849696 2.4330835942586635 2.3958030750266999 Zr
atom 2.4577616698781877 7.4741662162965818 2.3958030750709840 Zr
atom 7.4710245551059353 7.4463464795224583 2.3958030750571346 Zr
atom 2.4744523424413258 2.4904067139325781 7.4492806267973890 Zr
atom 7.4849242732925987 2.4597960227857230 7.4492806268488030 Zr
atom 2.4438416513045320 7.5008786447597124 7.4492806267652982 Zr
atom 7.4443121266064205 7.4602664980697835 7.4492806268179939 Zr
atom 2.6596557555745006 2.7370236600058022 -0.1109985991401085 S
atom 7.2383073272116834 2.2745926096620184 -0.1109985991147196 S
atom 2.1972247052200897 7.3156752316354750 -0.1109985991976559 S
atom 7.6295155397233678 7.7068834441568645 -0.1109985991642123 S
atom 2.2321129645569133 2.1801296716758940 4.9563177325531536 S
atom 7.7952013155413082 2.7021354006761698 4.9563177325055285 S
atom 2.7541186935658777 7.7432180226606997 4.9563177325774888 S
atom 7.2019727487044936 7.1499894558157679 4.9563177325479009 S
atom 2.7927870924123970 -0.0165518870018385 2.2228292423522489 S
atom 7.1784418147145255 -0.0491800893372686 2.7754274136994699 S
atom 2.1373591927250857 4.9919025325234516 2.7754274137017307 S
atom 7.7626468765606313 4.9533078970103439 2.2228292423578693 S
atom 2.8941046377918891 -0.0167970228360500 7.7828587651063650 S
atom 7.1228942517999219 -0.0492202979137776 7.1590562904193229 S
atom 2.0818116298202658 4.9918623240134909 7.1590562904214465 S
atom 7.8639644219409215 4.9530627612606262 7.7828587651031258 S
atom -0.0190595318802218 2.2126841106639192 2.2228292423602856 S
atom 4.9834284546598315 2.7968891725041023 2.7754274137014745 S
atom -0.0576541673955940 7.8379717944891603 2.7754274136992039 S
atom 4.9508002523460366 7.1825438947922278 2.2228292423510978 S
atom -0.0188143960296827 2.1113665652753393 7.7828587651027972 S
atom 4.9834686631484839 2.8524367354100257 7.1590562904200148 S
atom -0.0576139588360553 7.8935193574022620 7.1590562904206632 S
atom 4.9510453881149594 7.0812263494213479 7.7828587651063561 S
atom 0.2833424026573554 -0.1828483645978654 9.9772097326642459 Ba
atom 5.1883195676672544 -0.3189538215903693 9.9772097326669975 Ba
atom 0.1472369456630763 4.7221288004049908 9.9772097326647167 Ba
atom 5.2532021868249705 4.7870114195630027 9.9772097326674327 Ba
atom -0.2840213958620608 0.1816243392585839 14.9793059964820525 Ba
atom 4.8238468638135474 0.2484099769390331 14.9793059964827737 Ba
atom -0.2172357581788213 5.2894925989210826 14.9793059964799795 Ba
atom 4.6858383882951786 5.1514841234057709 14.9793059964811182 Ba
atom 2.4896372353201497 2.4830330366510380 12.4652714524143846 Zr
atom 7.4922979505675666 2.4446111299195201 12.4652714524065953 Zr
atom 2.4512153285875407 7.4856937518902464 12.4652714524011969 Zr
atom 7.4594970194674586 7.4528928207919920 12.4652714523805717 Zr
atom 2.4839425585941721 2.4852056496520727 17.4785543120009734 Zr
atom 7.4901253375686778 2.4503058066395669 17.4785543119449152 Zr
atom 2.4490427155752941 7.4913884286215575 17.4785543120240376 Zr
atom 7.4538023427400377 7.4550654337970084 17.4785543119430216 Zr
atom 2.7495443806372886 2.8144388060129244 9.9679756575573961 S
atom 7.1608921811950763 2.1847039845924043 9.9679756575284593 S
atom 2.1198095592135835 7.2257866065750962 9.9679756575711203 S
atom 7.7194041647900660 7.7842985901717361 9.9679756575278518 S
atom 2.2178862126067420 2.1521826027290083 14.9764418203445437 S
atom 7.8231483844893575 2.7163621526243817 14.9764418203861691 S
atom 2.7820657625042760 7.7574447746120363 14.9764418203555909 S
atom 7.1877459967568216 7.1220423868803087 14.9764418204526564 S
atom 2.8874304098743027 -0.0205554304262220 12.1577798183665085 S
atom 7.1244327497723257 -0.0533853222642803 12.7977801387428265 S
atom 2.0833501277963342 4.9876972996803604 12.7977801387373429 S
atom 7.8572901940333510 4.9493043536812529 12.1577798183618153 S
atom 2.8862807985569603 -0.0190102644703660 17.8036629225959189 S
atom 7.1248549088703896 -0.0518711446183211 17.1600899351481537 S
atom 2.0837722868797419 4.9892114773985856 17.1600899351414888 S
atom 7.8561405826991821 4.9508495197105979 17.8036629225960574 S
atom -0.0150559884241831 2.1180407931859500 12.1577798183658814 S
atom 4.9876336874685432 2.8508982374367715 12.7977801387386751 S
atom -0.0534489344420314 7.8919808594259653 12.7977801387408796 S
atom 4.9548037956496884 7.0879005773372201 12.1577798183629664 S
atom -0.0166011544337393 2.1191904045103711 17.8036629225972227 S
atom 4.9861195097996873 2.8504760783505216 17.1600899351440859 S
atom -0.0549631122395022 7.8915587003334293 17.1600899351461038 S
atom 4.9532586297774790 7.0890501886604982 17.8036629225941603 S
atom 0.2847355241259822 -0.1815406057688316 19.9846499632140926 Ba
atom 5.1870118088090615 -0.3203469430273302 19.9846499632135099 Ba
atom 0.1459291868613892 4.7207356789616561 19.9846499632128349 Ba
atom 5.2545953082428820 4.7883191783889885 19.9846499632122132 Ba
atom -0.2840213958601654 0.1816243392520865 24.9899939299895557 Ba
atom 4.8238468638143175 0.2484099769302237 24.9899939299872393 Ba
atom -0.2172357581772448 5.2894925989243466 24.9899939299915417 Ba
atom 4.6858383882946413 5.1514841234127768 24.9899939299892715 Ba
atom 2.4839425585857486 2.4852056496478010 22.4907456143919191 Zr
atom 7.4901253375777257 2.4503058066456114 22.4907456144573032 Zr
atom 2.4490427155816117 7.4913884286278041 22.4907456143989180 Zr
atom 7.4538023427361679 7.4550654337898790 22.4907456144673930 Zr
atom 2.4896372353085781 2.4830330366555935 27.5040284741113510 Zr
atom 7.4922979505778473 2.4446111299332469 27.5040284741223466 Zr
atom 2.4512153285944414 7.4856937518893112 27.5040284740648495 Zr
atom 7.4594970194680350 7.4528928207794216 27.5040284741494894 Zr
atom 2.7528407333108587 2.8182414679956493 19.9846499633103818 S
atom 7.1570895192190456 2.1814076319186873 19.9846499633303800 S
atom 2.1160068972252200 7.2224902539039721 19.9846499632512824 S
atom 7.7227005174565875 7.7881012521452337 19.9846499632816155 S
atom 2.2178862126067909 2.1521826027299999 24.9928581060543422 S
atom 7.8231483844897882 2.7163621526248387 24.9928581059413588 S
atom 2.7820657625066558 7.7574447746151112 24.9928581061126103 S
atom 7.1877459967548702 7.1220423868789151 24.9928581059618899 S
atom 2.8862807985529386 -0.0190102644150519 22.1656370038719324 S
atom 7.1248549088737612 -0.0518711445713007 22.8092099913065169 S
atom 2.0837722868834985 4.9892114773413292 22.8092099913143826 S
atom 7.8561405826927162 4.9508495196638735 22.1656370038774710 S
atom 2.8874304098730676 -0.0205554304365597 27.8115201080847783 S
atom 7.1244327497668589 -0.0533853222995893 27.1715197877019925 S
atom 2.0833501277998230 4.9876972996879276 27.1715197877144732 S
atom 7.8572901940336166 4.9493043537161787 27.8115201080908605 S
atom -0.0166011544532079 2.1191904045207726 22.1656370038776949 S
atom 4.9861195098197442 2.8504760783420866 22.8092099913083715 S
atom -0.0549631122691229 7.8915587003355698 22.8092099913122333 S
atom 4.9532586298068670 7.0890501886601065 22.1656370038722237 S
atom -0.0150559883753105 2.1180407931809864 27.8115201080890060 S
atom 4.9876336874222797 2.8508982374400826 27.1715197877081742 S
atom -0.0534489344220114 7.8919808594271990 27.1715197877083661 S
atom 4.9548037956275612 7.0879005773415988 27.8115201080868388 S
atom 0.2833424026464321 -0.1828483645930870 29.9920901937952138 Ba
atom 5.1883195676789136 -0.3189538215897265 29.9920901937966491 Ba
atom 0.1472369456545886 4.7221288004009319 29.9920901937957751 Ba
atom 5.2532021868334446 4.7870114195594873 29.9920901937961091 Ba
atom -0.2673182780683259 0.1903712624570504 34.9645596082146568 Ba
atom 4.8150999406050943 0.2317068591608940 34.9645596082174848 Ba
atom -0.2259826813671529 5.2727894811360168 34.9645596082134560 Ba
atom 4.7025415060690650 5.1602310465996508 34.9645596082168382 Ba
atom 2.4744523424550926 2.4904067139440662 32.5200192997256678 Zr
atom 7.4849242732781054 2.4597960227957021 32.5200192996610511 Zr
atom 2.4438416513059531 7.5008786447438682 32.5200192997205093 Zr
atom 7.4443121266056371 7.4602664980670577 32.5200192996275845 Zr
atom 2.5011647709584306 2.4764866953564724 37.5734968513559053 Zr
atom 7.4988442918599008 2.4330835943037123 37.5734968513875955 Zr
atom 2.4577616698922577 7.4741662162502198 37.5734968513739034 Zr
atom 7.4710245550882473 7.4463464794669703 37.5734968513770369 Zr
atom 2.7495443806357382 2.8144388060123275 30.0013242688430992 S
atom 7.1608921811934962 2.1847039845904201 30.0013242689568216 S
atom 2.1198095592187984 7.2257866065792067 30.0013242688881654 S
atom 7.7194041647913778 7.7842985901738011 30.0013242688788715 S
atom 2.2321129645543993 2.1801296716664766 35.0129821938537447 S
atom 7.7952013155444346 2.7021354006712865 35.0129821938329755 S
atom 2.7541186935578983 7.7432180226607583 35.0129821938298065 S
atom 7.2019727487058427 7.1499894558238530 35.0129821939520909 S
atom 2.8941046377909077 -0.0167970228972875 32.1864411613481423 S
atom 7.1228942517986553 -0.0492202978763189 32.8102436360366099 S
atom 2.0818116298201428 4.9918623240786593 32.8102436360286376 S
atom 7.8639644219450853 4.9530627612208198 32.1864411613532084 S
atom 2.7927870924165088 -0.0165518870722551 37.7464706841213413 S
atom 7.1784418147141391 -0.0491800894637211 37.1938725127554477 S
atom 2.1373591927234146 4.9919025325909745 37.1938725127615157 S
atom 7.7626468765612584 4.9533078971553870 37.7464706841122535 S
atom -0.0188143960622973 2.1113665652707354 32.1864411613511905 S
atom 4.9834686631833014 2.8524367354055875 32.8102436360300729 S
atom -0.0576139587661366 7.8935193574002085 32.8102436360342722 S
atom 4.9510453880455749 7.0812263494280234 32.1864411613501531 S
atom -0.0190595318367176 2.2126841106417428 37.7464706841199202 S
atom 4.9834284546177203 2.7968891725036906 37.1938725127599881 S
atom -0.0576541674178708 7.8379717944914722 37.1938725127589933 S
atom 4.9508002523710255 7.1825438948020910 37.7464706841135609 S
atom 0.1365866114472791 -0.1714936676580419 39.7572948420473864 Ba
atom 5.1769648707243574 -0.1721980303601771 39.7572948420313068 Ba
atom 0.1358822487443118 4.8688845916188166 39.7572948420259564 Ba
atom 5.1064463955945474 4.7983661164840381 39.7572948420286352 Ba
atom 2.6596557555757530 2.7370236600062321 40.0802985257054800 S
atom 7.2383073272076883 2.2745926096507540 40.0802985257022968 S
atom 2.1972247052218825 7.3156752316402045 40.0802985256978985 S
atom 7.6295155397236218 7.7068834441542080 40.0802985256532978 S
atom 2.6215165035019665 2.3134362243935795 43.1790025052499757 Ba
atom 7.6618947628261225 2.3127318617123960 43.1790025052521926 Ba
atom 2.6208121408257412 7.3538144837072359 43.1790025052621615 Ba
atom 7.5913762876673383 7.2832960085555740 43.1790025052700983 Ba
atom 2.2176116140014193 2.6753011545084342 47.9717377393206590 Ba
atom 7.3000298327043289 2.7166367512378256 47.9717377393193019 Ba
atom 2.2589472107120945 7.7577193732194774 47.9717377393133617 Ba
atom 7.1874713981580998 7.6451609386548274 47.9717377393106474 Ba
atom 4.9860946630387781 4.9614165874856546 45.3628004960219471 Zr
atom 9.9837741839129794 4.9180134863768554 45.3628004959834570 Zr
atom 4.9426915619581244 9.9590961082915186 45.3628004959797764 Zr
atom 9.9559544471728518 9.9312763715756525 45.3628004960032030 Zr
atom 4.9593822345019714 4.9753366059979340 50.4162780480716819 Zr
atom 9.9698541653634312 4.9447259148778180 50.4162780481542967 Zr
atom 4.9287715433674082 9.9858085368494702 50.4162780481464026 Zr
atom 9.9292420186618777 9.9451963901234262 50.4162780479678290 Zr
atom 5.1445856476443099 5.2219535520746634 42.8559988218906582 S
atom 9.7232372192914340 4.7595225017386165 42.8559988219438637 S
atom 4.6821545973092853 9.8006051237279390 42.8559988219490293 S
atom 10.1144454318016717 10.1918133362382193 42.8559988218390089 S
atom 4.7170428566111999 4.6650595637194732 47.9233151529891614 S
atom 10.2801312076315607 5.1870652927611980 47.9233151529848485 S
atom 5.2390485856445475 10.2281479147511156 47.9233151530009849 S
atom 9.6869026407653784 9.6349193478821480 47.9233151531571835 S
atom 5.2777169844748553 2.4683780049167621 45.1898266633346637 S
atom 9.6633717067921339 2.4357498028153408 45.7424248346321392 S
atom 4.6222890848171891 7.4768324247389861 45.7424248346250550 S
atom 10.2475767686363088 7.4382377889904774 45.1898266633262224 S
atom 5.3790345298868143 2.4681328691103812 50.7498561860131332 S
atom 9.6078241438522607 2.4357095941208624 50.1260537112655129 S
atom 4.5667415218640315 7.4767922162165608 50.1260537112607452 S
atom 10.3488943140236334 7.4379926533726985 50.7498561860115700 S
atom 2.4658703601705119 4.6976140027393214 45.1898266633345855 S
atom 7.4683583467596497 5.2818190645587144 45.7424248346292188 S
atom 2.4272757248697663 10.3229016865606305 45.7424248346321178 S
atom 7.4357301442074615 9.6674737868999649 45.1898266633272812 S
atom 2.4661154959748952 4.5962964573288678 50.7498561860117618 S
atom 7.4683985553007988 5.3373666275135712 50.1260537112567377 S
atom 2.4273159332598686 10.3784492494924176 50.1260537112692290 S
atom 7.4359752801821957 9.5661562414906740 50.7498561860126074 S
atom 2.7682722947618648 2.3020815274749697 52.9442071535174890 Ba
atom 7.6732494597356595 2.1659760705037714 52.9442071535136307 Ba
atom 2.6321668377737812 7.2070586924562914 52.9442071535115275 Ba
atom 7.7381320788951529 7.2719413115926637 52.9442071535115346 Ba
atom 2.2009084962121435 2.6665542312989325 57.9463034173842431 Ba
atom 7.3087767559162415 2.7333398689784900 57.9463034173850318 Ba
atom 2.2676941339092638 7.7744224910026407 57.9463034173878171 Ba
atom 7.1707682803775192 7.6364140154896916 57.9463034173855647 Ba
atom 4.9745671273388501 4.9679629286989453 55.4322688726249737 Zr
atom 9.9772278426862897 4.9295410220260720 55.4322688726945998 Zr
atom 4.9361452206713166 9.9706236440210461 55.4322688727536104 Zr
atom 9.9444269115187094 9.9378227128328991 55.4322688728024673 Zr
atom 4.9688724506304505 4.9701355417269237 60.4455517334107313 Zr
atom 9.9750552296715256 4.9352356987396044 60.4455517333153338 Zr
atom 4.9339726076767336 9.9763183207251380 60.4455517331844590 Zr
atom 9.9387322348078211 9.9399953258665708 60.4455517333804195 Zr
atom 5.2344742726855502 5.2993686980690144 52.9349730790204660 S
atom 9.6458220732846041 4.6696338766858840 52.9349730787781496 S
atom 4.6047394513021018 9.7107164986754100 52.9349730787393042 S
atom 10.2043340568332432 10.2692284822142490 52.9349730789333535 S
atom 4.7028161046628769 4.6371124947965745 57.9434392414221833 S
atom 10.3080782765856220 5.2012920447255535 57.9434392415474804 S
atom 5.2669956546016055 10.2423746667129727 57.9434392415569306 S
atom 9.6726758888054576 9.6069722789347729 57.9434392412572024 S
atom 5.3723603019373360 2.4643744617920200 55.1247772394156001 S
atom 9.6093626418473441 2.4315445696174809 55.7647775597726607 S
atom 4.5682800198701843 7.4726271915939639 55.7647775597741102 S
atom 10.3422200860772122 7.4342342459466355 55.1247772394175470 S
atom 5.3712106906042791 2.4659196276323923 60.7706603434449306 S
atom 9.6097848009330438 2.4330587476007626 60.1270873560272321 S
atom 4.5687021789748723 7.4741413694277812 60.1270873560459691 S
atom 10.3410704747689319 7.4357794116333231 60.7706603434448382 S
atom 2.4698739037793511 4.6029706852730277 55.1247772394207374 S
atom 7.4725635794237713 5.3358281295253081 55.7647775597781816 S
atom 2.4314809574234686 10.3769107515072072 55.7647775597678717 S
atom 7.4397336879489737 9.5728304694192889 55.1247772394116353 S
atom 2.4683287376982155 4.6041202966106534 60.7706603434364538 S
atom 7.4710494018279210 5.3354059704136301 60.1270873560385297 S
atom 2.4299667799939084 10.3764885924076609 60.1270873560357373 S
atom 7.4381885216905754 9.5739800807515341 60.7706603434530805 S
atom 2.7696654161531016 2.3033892863140197 62.9516473842577824 Ba
atom 7.6719417009432913 2.1645829490435622 62.9516473842592035 Ba
atom 2.6308590789086024 7.2056655710194990 62.9516473842675595 Ba
atom 7.7395252003517889 7.2732490704506301 62.9516473842676234 Ba
atom 2.2009084962531431 2.6665542313362969 67.9569913508694867 Ba
atom 7.3087767558417216 2.7333398690241126 67.9569913508736931 Ba
atom 2.2676941339447443 7.7744224909891804 67.9569913508699273 Ba
atom 7.1707682803245474 7.6364140154748412 67.9569913508779138 Ba
atom 4.9688724506670923 4.9701355417553890 65.4577430354943459 Zr
atom 9.9750552296239086 4.9352356987316606 65.4577430353672725 Zr
atom 4.9339726076643888 9.9763183206696961 65.4577430355641923 Zr
atom 9.9387322348305140 9.9399953258781721 65.4577430352722160 Zr
atom 4.9745671274146464 4.9679629287283493 70.4710258947032031 Zr
atom 9.9772278426193139 4.9295410219935807 70.4710258948185668 Zr
atom 4.9361452206556002 9.9706236439419627 70.4710258948695412 Zr
atom 9.9444269115476303 9.9378227128785781 70.4710258949313015 Zr
atom 5.2377706253744636 5.3031713600654538 62.9516473836623831 S
atom 9.6420194112999020 4.6663375240084495 62.9516473838172956 S
atom 4.6009367893268349 9.7074201459941971 62.9516473839187753 S
atom 10.2076304095271801 10.2730311442214539 62.9516473839092825 S
atom 4.7028161046758674 4.6371124947949669 67.9598555272390712 S
atom 10.3080782765531858 5.2012920446974800 67.9598555272432492 S
atom 5.2669956545869692 10.2423746666854800 67.9598555268404994 S
atom 9.6726758888356645 9.6069722789594145 67.9598555272843754 S
atom 5.3712106906440260 2.4659196273976121 65.1326344247863318 S
atom 9.6097848009312798 2.4330587475109868 65.7762074122832416 S
atom 4.5687021789426208 7.4741413696777848 65.7762074122688034 S
atom 10.3410704747873758 7.4357794117254015 65.1326344247955404 S
atom 5.3723603019650357 2.4643744618196277 70.7785175290701289 S
atom 9.6093626418772882 2.4315445697677518 70.1385172086972375 S
atom 4.5682800198537015 7.4726271915957057 70.1385172086767597 S
atom 10.3422200860874991 7.4342342457947286 70.7785175290416362 S
atom 2.4683287375529974 4.6041202965662134 65.1326344247830349 S
atom 7.4710494019746703 5.3354059704314976 65.7762074122795326 S
atom 2.4299667799979576 10.3764885924122989 65.7762074122717166 S
atom 7.4381885216742649 9.5739800807451143 65.1326344247989653 S
atom 2.4698739035137733 4.6029706852667740 70.7785175290585187 S
atom 7.4725635796799592 5.3358281294955852 70.1385172086998523 S
atom 2.4314809572891898 10.3769107515155419 70.1385172086733917 S
atom 7.4397336880673741 9.5728304693954716 70.7785175290543549 S
atom 2.7682722947579852 2.3020815274465245 72.9590876147127716 Ba
atom 7.6732494597120535 2.1659760704612805 72.9590876147258456 Ba
atom 2.6321668377543137 7.2070586925134741 72.9590876147084231 Ba
atom 7.7381320788771379 7.2719413116701004 72.9590876147184133 Ba
atom 2.2176116139644653 2.6753011545632632 77.9315570291811213 Ba
atom 7.3000298327198339 2.7166367512651379 77.9315570291822155 Ba
atom 2.2589472106543114 7.7577193731875465 77.9315570291744564 Ba
atom 7.1874713981967675 7.6451609386449588 77.9315570291774975 Ba
atom 4.9593822345651901 4.9753366059645447 75.4870167207641032 Zr
atom 9.9698541653433406 4.9447259148400855 75.4870167208280520 Zr
atom 4.9287715433827923 9.9858085368491700 75.4870167204410194 Zr
atom 9.9292420186395560 9.9451963901686753 75.4870167207086240 Zr
atom 4.9860946630547369 4.9614165873988147 80.5404942723705943 Zr
atom 9.9837741839353988 4.9180134863298317 80.5404942722817054 Zr
atom 4.9426915620199203 9.9590961083805229 80.5404942724662760 Zr
atom 9.9559544471084767 9.9312763715814967 80.5404942723190516 Zr
atom 5.2344742727197069 5.2993686980905048 72.9683216899961735 S
atom 9.6458220732772126 4.6696338766634131 72.9683216898197600 S
atom 4.6047394512691415 9.7107164986407906 72.9683216901962481 S
atom 10.2043340568647576 10.2692284822473354 72.9683216897052631 S
atom 4.7170428566320437 4.6650595637486232 77.9799796145751429 S
atom 10.2801312076300828 5.1870652927497005 77.9799796146661777 S
atom 5.2390485856076916 10.2281479147247687 77.9799796148523541 S
atom 9.6869026407808523 9.6349193478890722 77.9799796148213318 S
atom 5.3790345298430600 2.4681328692018218 75.1534385822920825 S
atom 9.6078241438777141 2.4357095942236446 75.7772410569542956 S
atom 4.5667415218988809 7.4767922161415683 75.7772410569466501 S
atom 10.3488943140342720 7.4379926532670106 75.1534385822715620 S
atom 5.2777169844868252 2.4683780047031694 80.7134681050442708 S
atom 9.6633717067874922 2.4357498026142053 80.1608699337010790 S
atom 4.6222890847932199 7.4768324249240559 80.1608699336879482 S
atom 10.2475767686523032 7.4382377892298956 80.7134681050619776 S
atom 2.4661154960972063 4.5962964573564955 75.1534385822768627 S
atom 7.4683985551574521 5.3373666274847169 75.7772410569399284 S
atom 2.4273159334182397 10.3784492494598410 75.7772410569612305 S
atom 7.4359752800302488 9.5661562414982999 75.1534385822866398 S
atom 2.4658703601943457 4.6976140027173834 80.7134681050715415 S
atom 7.4683583467209056 5.2818190646001515 80.1608699336966595 S
atom 2.4272757248973260 10.3229016865478265 80.1608699336880193 S
atom 7.4357301441892067 9.6674737868917777 80.7134681050338969 S
atom 2.6215165035200019 2.3134362244324702 82.7242922630105397 Ba
atom 7.6618947628051997 2.3127318617221220 82.7242922629902750 Ba
atom 2.6208121408197327 7.3538144836798134 82.7242922630211694 Ba
atom 7.5913762876665638 7.2832960085457064 82.7242922630017716 Ba
atom 5.1445856476498886 5.2219535520967844 83.0472959466594460 S
atom 9.7232372192825345 4.7595225017283980 83.0472959466584797 S
atom 4.6821545973055860 9.8006051237246066 83.0472959464466953 S
atom 10.1144454318092567 10.1918133362266357 83.0472959466037537 S
