#=======================================================
# FHI-aims file: full_relax/full_relax_RP_7_Rx00_0Ry0.in
# Created using the Atomic Simulation Environment (ASE)
# Mon Mar 24 15:36:51 2025
#=======================================================
lattice_vector 10.0804801355446134 -0.0000000000000013 0.0000000000000001 
lattice_vector -0.0000000000000013 10.0804801355446134 0.0000000000000002 
lattice_vector 0.0000000000000005 0.0000000000000019 75.0045903084352830 
atom -0.1686949001276090 -0.0000000000007167 0.2899630600154266 Ba
atom 5.2089349678984966 -0.0000000000007226 0.2899630600154575 Ba
atom 0.1686949001263179 5.0402400677715846 0.2899630600154167 Ba
atom 4.8715451676446584 5.0402400677715971 0.2899630600154227 Ba
atom 0.0264774672589553 -0.0000000000006643 4.9622388748828463 Ba
atom 5.0137626005120586 -0.0000000000006568 4.9622388748828703 Ba
atom -0.0264774672603684 5.0402400677716468 4.9622388748828437 Ba
atom 5.0667175350314340 5.0402400677716512 4.9622388748828179 Ba
atom 2.5201200338854823 2.4982578696886253 2.3393060698473396 Zr
atom 7.5603601016578006 2.5419821980825588 2.3393060698477721 Zr
atom 2.5201200338855254 7.5822222658545391 2.3393060698473840 Zr
atom 7.5603601016577420 7.5384979374607060 2.3393060698477890 Zr
atom 2.5201200338855330 2.5193170762686621 7.3541985062137636 Zr
atom 7.5603601016578379 2.5209229915023892 7.3541985062135664 Zr
atom 2.5201200338855370 7.5611630592747439 7.3541985062135709 Zr
atom 7.5603601016578388 7.5595571440409159 7.3541985062134847 Zr
atom 2.5201200338854344 2.8064134408718324 -0.1394655138450930 S
atom 7.5603601016577482 2.2338266268989924 -0.1394655138452572 S
atom 2.5201200338854028 7.2740666946713146 -0.1394655138450965 S
atom 7.5603601016577846 7.8466535086441862 -0.1394655138452394 S
atom 2.5201200338854690 2.0541390919089753 4.8841551185956771 S
atom 7.5603601016578672 2.9861009758619756 4.8841551185958831 S
atom 2.5201200338854841 8.0263410436342699 4.8841551185960679 S
atom 7.5603601016578406 7.0943791596813215 4.8841551185957215 S
atom 2.5201200338854717 -0.0000000000007330 2.0406383112242859 S
atom 7.5603601016577935 -0.0000000000007467 2.7813342779550880 S
atom 2.5201200338854730 5.0402400677717436 2.7813342779551320 S
atom 7.5603601016577944 5.0402400677715633 2.0406383112242863 S
atom 2.5201200338854841 -0.0000000000007486 7.8309247755270865 S
atom 7.5603601016578663 -0.0000000000006886 6.8957001344247981 S
atom 2.5201200338855432 5.0402400677716512 6.8957001344247564 S
atom 7.5603601016578184 5.0402400677717498 7.8309247755271914 S
atom -0.0000000000006245 2.5201200338854299 2.4782725881869263 S
atom 5.0402400677715455 2.5201200338854055 2.4782725881870231 S
atom -0.0000000000006078 7.5603601016577695 2.4782725881869379 S
atom 5.0402400677715340 7.5603601016577926 2.4782725881869960 S
atom -0.0000000000006502 2.5201200338855467 7.3735104179562860 S
atom 5.0402400677716850 2.5201200338854761 7.3735104179561661 S
atom -0.0000000000005426 7.5603601016577944 7.3735104179562319 S
atom 5.0402400677715766 7.5603601016578930 7.3735104179561555 S
atom -0.0070829814768283 -0.0000000000005977 9.8590585020430304 Ba
atom 5.0473230492478693 -0.0000000000006232 9.8590585020428847 Ba
atom 0.0070829814755823 5.0402400677716654 9.8590585020429025 Ba
atom 5.0331570862955921 5.0402400677716770 9.8590585020430126 Ba
atom 0.0071997277685883 -0.0000000000006153 14.7992612213342216 Ba
atom 5.0330403400024029 -0.0000000000006213 14.7992612213342820 Ba
atom -0.0071997277697567 5.0402400677716885 14.7992612213343246 Ba
atom 5.0474397955408712 5.0402400677717187 14.7992612213341932 Ba
atom 2.5201200338855494 2.5216947573160606 12.3134742386098086 Zr
atom 7.5603601016578592 2.5185453104548872 12.3134742386094658 Zr
atom 2.5201200338855236 7.5587853782271868 12.3134742386096274 Zr
atom 7.5603601016578583 7.5619348250884739 12.3134742386095937 Zr
atom 2.5201200338855467 2.5201200338855352 17.2707938210244940 Zr
atom 7.5603601016578299 2.5201200338855392 17.2707938210249878 Zr
atom 2.5201200338855103 7.5603601016577304 17.2707938210248280 Zr
atom 7.5603601016578494 7.5603601016578761 17.2707938210246397 Zr
atom 2.5201200338855858 3.0281138997722907 9.8406367890761519 S
atom 7.5603601016577739 2.0121261679987379 9.8406367890759814 S
atom 2.5201200338855960 7.0523662357710535 9.8406367890763953 S
atom 7.5603601016577882 8.0683539675445903 9.8406367890762354 S
atom 2.5201200338855014 2.0112455118492965 14.7937586168307487 S
atom 7.5603601016578788 3.0289945559218414 14.7937586168305089 S
atom 2.5201200338854650 8.0692346236940704 14.7937586168305053 S
atom 7.5603601016579249 7.0514855796215574 14.7937586168310844 S
atom 2.5201200338856560 -0.0000000000004924 11.8413891242008962 S
atom 7.5603601016577562 -0.0000000000005923 12.8009136038709741 S
atom 2.5201200338854379 5.0402400677717489 12.8009136038709173 S
atom 7.5603601016579498 5.0402400677717329 11.8413891242008802 S
atom 2.5201200338855068 -0.0000000000005319 17.7506980209515817 S
atom 7.5603601016578823 -0.0000000000003907 16.7908896210962268 S
atom 2.5201200338856009 5.0402400677717534 16.7908896210963832 S
atom 7.5603601016577890 5.0402400677712125 17.7506980209514964 S
atom -0.0000000000003826 2.5201200338853975 12.3210487108804490 S
atom 5.0402400677714532 2.5201200338856498 12.3210487108805626 S
atom -0.0000000000005666 7.5603601016579649 12.3210487108803441 S
atom 5.0402400677716601 7.5603601016577144 12.3210487108805200 S
atom -0.0000000000006630 2.5201200338856071 17.2707938210239647 S
atom 5.0402400677717063 2.5201200338855041 17.2707938210239718 S
atom -0.0000000000004220 7.5603601016577802 17.2707938210240393 S
atom 5.0402400677714967 7.5603601016579107 17.2707938210238190 S
atom -0.0071997277700620 -0.0000000000006575 19.7423264207140967 Ba
atom 5.0474397955410799 -0.0000000000006052 19.7423264207141180 Ba
atom 0.0071997277687187 5.0402400677717480 19.7423264207141393 Ba
atom 5.0330403400023327 5.0402400677716797 19.7423264207140932 Ba
atom 0.0070829814755606 -0.0000000000006029 24.6825291400057374 Ba
atom 5.0331570862955166 -0.0000000000006778 24.6825291400056841 Ba
atom -0.0070829814769365 5.0402400677716050 24.6825291400057303 Ba
atom 5.0473230492479750 5.0402400677716894 24.6825291400057125 Ba
atom 2.5201200338855694 2.5185453104548503 22.2281134034386803 Zr
atom 7.5603601016577935 2.5216947573161157 22.2281134034386447 Zr
atom 2.5201200338855299 7.5619348250883744 22.2281134034386376 Zr
atom 7.5603601016578459 7.5587853782272560 22.2281134034386874 Zr
atom 2.5201200338855050 2.5209229915023537 27.1873891358347173 Zr
atom 7.5603601016578184 2.5193170762686954 27.1873891358340387 Zr
atom 2.5201200338855596 7.5595571440409373 27.1873891358344295 Zr
atom 7.5603601016577811 7.5611630592746986 27.1873891358344402 Zr
atom 2.5201200338855050 3.0289945559215141 19.7478290252184294 S
atom 7.5603601016578699 2.0112455118495789 19.7478290252193851 S
atom 2.5201200338856262 7.0514855796218328 19.7478290252188948 S
atom 7.5603601016577526 8.0692346236938466 19.7478290252188451 S
atom 2.5201200338855960 2.0121261679989195 24.7009508529713138 S
atom 7.5603601016577535 3.0281138997720141 24.7009508529710331 S
atom 2.5201200338854526 8.0683539675442937 24.7009508529709478 S
atom 7.5603601016578956 7.0523662357712809 24.7009508529713173 S
atom 2.5201200338854868 -0.0000000000007352 21.7406740381778576 S
atom 7.5603601016578930 -0.0000000000008733 22.7001985178474577 S
atom 2.5201200338855574 5.0402400677720562 22.7001985178476211 S
atom 7.5603601016577997 5.0402400677718608 21.7406740381777865 S
atom 2.5201200338854970 -0.0000000000006025 27.6458875076242165 S
atom 7.5603601016578210 -0.0000000000003137 26.7106628665219823 S
atom 2.5201200338855188 5.0402400677716539 26.7106628665219006 S
atom 7.5603601016578192 5.0402400677711716 27.6458875076242201 S
atom -0.0000000000006033 2.5201200338855232 22.2205389311680861 S
atom 5.0402400677716459 2.5201200338854388 22.2205389311679227 S
atom -0.0000000000005707 7.5603601016577651 22.2205389311679902 S
atom 5.0402400677716095 7.5603601016578672 22.2205389311681429 S
atom -0.0000000000006769 2.5201200338854650 27.1680772240926274 S
atom 5.0402400677716992 2.5201200338854806 27.1680772240928370 S
atom -0.0000000000005371 7.5603601016577855 27.1680772240928228 S
atom 5.0402400677715420 7.5603601016577917 27.1680772240927020 S
atom -0.0264774672601079 -0.0000000000007075 29.5793487671662589 Ba
atom 5.0667175350311009 -0.0000000000006841 29.5793487671662696 Ba
atom 0.0264774672588455 5.0402400677716361 29.5793487671662731 Ba
atom 5.0137626005121430 5.0402400677716006 29.5793487671662376 Ba
atom 0.1686949001260352 -0.0000000000007774 34.2516245820328820 Ba
atom 4.8715451676448556 -0.0000000000007653 34.2516245820331733 Ba
atom -0.1686949001274561 5.0402400677715855 34.2516245820330454 Ba
atom 5.2089349678983359 5.0402400677715802 34.2516245820330312 Ba
atom 2.5201200338854672 2.5419821980823833 32.2022815722017839 Zr
atom 7.5603601016577571 2.4982578696883846 32.2022815722021676 Zr
atom 2.5201200338854370 7.5384979374608676 32.2022815722020042 Zr
atom 7.5603601016578015 7.5822222658547789 32.2022815722021321 Zr
atom 2.5201200338854219 2.9861009758620551 29.6574325234529859 S
atom 7.5603601016578539 2.0541390919089229 29.6574325234531280 S
atom 2.5201200338855356 7.0943791596811305 29.6574325234529859 S
atom 7.5603601016577544 8.0263410436342983 29.6574325234524885 S
atom 2.5201200338854934 2.2338266268989595 34.6810531558961230 S
atom 7.5603601016577393 2.8064134408718195 34.6810531558963007 S
atom 2.5201200338854561 7.8466535086441924 34.6810531558963575 S
atom 7.5603601016577624 7.2740666946713270 34.6810531558962012 S
atom 2.5201200338855023 -0.0000000000007086 31.7602533640934723 S
atom 7.5603601016577358 -0.0000000000007933 32.5009493308245538 S
atom 2.5201200338854481 5.0402400677713706 32.5009493308246746 S
atom 7.5603601016577855 5.0402400677716761 31.7602533640933835 S
atom -0.0000000000005886 2.5201200338854388 32.0633150538618565 S
atom 5.0402400677715118 2.5201200338854362 32.0633150538618565 S
atom -0.0000000000007207 7.5603601016577153 32.0633150538619489 S
atom 5.0402400677716148 7.5603601016577295 32.0633150538619915 S
atom 2.5201200338853273 2.3514251337584753 37.7922582142340175 Ba
atom 7.5603601016576052 2.6888149340120409 37.7922582142340033 Ba
atom 2.5201200338852923 7.7290550017843263 37.7922582142339039 Ba
atom 7.5603601016576221 7.3916652015307900 37.7922582142338683 Ba
atom 2.5201200338852652 2.5465975011448263 42.4645340291010882 Ba
atom 7.5603601016576052 2.4936425666257276 42.4645340291012729 Ba
atom 2.5201200338851590 7.5338826343978917 42.4645340291011522 Ba
atom 7.5603601016576913 7.5868375689170096 42.4645340291010385 Ba
atom 5.0183779035744491 5.0402400677713377 39.8416012240660962 Zr
atom 10.1023422997406431 5.0402400677713786 39.8416012240660109 Zr
atom 5.0621022319684155 10.0804801355437519 39.8416012240659043 Zr
atom 10.0586179713468411 10.0804801355437323 39.8416012240661317 Zr
atom 5.0394371101545845 5.0402400677712951 44.8564936604317097 Zr
atom 10.0812830931606072 5.0402400677713155 44.8564936604317168 Zr
atom 5.0410430253882685 10.0804801355435991 44.8564936604321574 Zr
atom 10.0796771779267704 10.0804801355436187 44.8564936604315250 Zr
atom 5.3265334747578867 5.0402400677713999 37.3628296403721194 S
atom 9.7941867285572997 5.0402400677714567 37.3628296403716789 S
atom 4.7539466607849770 10.0804801355436862 37.3628296403707481 S
atom 10.3667735425302645 10.0804801355436950 37.3628296403716078 S
atom 4.5742591257949288 5.0402400677714425 42.3864502728130290 S
atom 10.5464610775201653 5.0402400677712045 42.3864502728150754 S
atom 5.5062210097479722 10.0804801355435565 42.3864502728149972 S
atom 9.6144991935672692 10.0804801355438229 42.3864502728130859 S
atom 5.0402400677714381 2.5201200338854921 39.9805677424055617 S
atom 10.0804801355437608 2.5201200338853278 39.9805677424051780 S
atom 5.0402400677714585 7.5603601016572783 39.9805677424053130 S
atom 10.0804801355437164 7.5603601016574604 39.9805677424054835 S
atom 5.0402400677716512 2.5201200338849681 44.8758055721747411 S
atom 10.0804801355436027 2.5201200338852860 44.8758055721751106 S
atom 5.0402400677713581 7.5603601016575848 44.8758055721748619 S
atom 10.0804801355438904 7.5603601016572899 44.8758055721745990 S
atom 2.5201200338854286 5.0402400677713910 39.5429334654425375 S
atom 7.5603601016577207 5.0402400677713493 40.2836294321735622 S
atom 2.5201200338849947 10.0804801355436684 40.2836294321737611 S
atom 7.5603601016575670 10.0804801355436613 39.5429334654427223 S
atom 2.5201200338852150 5.0402400677711343 45.3332199297458729 S
atom 7.5603601016574347 5.0402400677714772 44.3979952886436209 S
atom 2.5201200338851035 10.0804801355437732 44.3979952886432585 S
atom 7.5603601016576025 10.0804801355434783 45.3332199297457024 S
atom 2.5201200338851879 2.5130370524088095 47.3613536562615351 Ba
atom 7.5603601016576425 2.5272030153610956 47.3613536562618052 Ba
atom 2.5201200338853602 7.5674430831333872 47.3613536562617483 Ba
atom 7.5603601016574222 7.5532771201813338 47.3613536562615778 Ba
atom 2.5201200338853789 2.5273197616542418 52.3015563755532540 Ba
atom 7.5603601016573707 2.5129203061156882 52.3015563755530550 Ba
atom 2.5201200338851044 7.5531603738880140 52.3015563755529485 Ba
atom 7.5603601016576683 7.5675598294270392 52.3015563755532114 Ba
atom 5.0418147912017064 5.0402400677713111 49.8157693928300347 Zr
atom 10.0789054121131905 5.0402400677712551 49.8157693928285497 Zr
atom 5.0386653443406075 10.0804801355434499 49.8157693928287202 Zr
atom 10.0820548589741072 10.0804801355435085 49.8157693928293028 Zr
atom 5.0402400677713652 5.0402400677712977 54.7730889752426648 Zr
atom 10.0804801355435689 5.0402400677712018 54.7730889752436454 Zr
atom 5.0402400677715571 10.0804801355435494 54.7730889752423451 Zr
atom 10.0804801355435760 10.0804801355436737 54.7730889752427927 Zr
atom 5.5482339336582180 5.0402400677711814 47.3429319432946798 S
atom 9.5724862696569435 5.0402400677715669 47.3429319432948574 S
atom 4.5322462018846439 10.0804801355436595 47.3429319432960156 S
atom 10.5884740014305496 10.0804801355433256 47.3429319432964277 S
atom 4.5313655457354169 5.0402400677712844 52.2960537710493654 S
atom 10.5893546575798929 5.0402400677708128 52.2960537710489177 S
atom 5.5491145898073837 10.0804801355434961 52.2960537710495359 S
atom 9.5716056135076197 10.0804801355440219 52.2960537710498485 S
atom 5.0402400677717170 2.5201200338853620 49.8233438650991260 S
atom 10.0804801355433238 2.5201200338848522 49.8233438650985008 S
atom 5.0402400677709638 7.5603601016570625 49.8233438650988489 S
atom 10.0804801355440716 7.5603601016576585 49.8233438650994174 S
atom 5.0402400677710295 2.5201200338850098 54.7730889752428638 S
atom 10.0804801355440592 2.5201200338852128 54.7730889752434109 S
atom 5.0402400677717267 7.5603601016575146 54.7730889752429277 S
atom 10.0804801355433540 7.5603601016572890 54.7730889752423522 S
atom 2.5201200338854091 5.0402400677709407 49.3436842784194596 S
atom 7.5603601016571407 5.0402400677715749 50.3032087580894611 S
atom 2.5201200338856689 10.0804801355438425 50.3032087580890632 S
atom 7.5603601016576354 10.0804801355432208 49.3436842784192180 S
atom 2.5201200338854388 5.0402400677715242 55.2529931751704950 S
atom 7.5603601016569506 5.0402400677709576 54.2931847753151402 S
atom 2.5201200338854624 10.0804801355432190 54.2931847753153320 S
atom 7.5603601016571673 10.0804801355437856 55.2529931751706371 S
atom 2.5201200338850258 2.5129203061156944 57.2446215749327791 Ba
atom 7.5603601016576842 2.5273197616547391 57.2446215749328360 Ba
atom 2.5201200338853194 7.5675598294268163 57.2446215749328147 Ba
atom 7.5603601016573938 7.5531603738880948 57.2446215749327720 Ba
atom 2.5201200338851732 2.5272030153614344 62.1848242942243985 Ba
atom 7.5603601016575253 2.5130370524092531 62.1848242942243559 Ba
atom 2.5201200338849494 7.5532771201810283 62.1848242942244127 Ba
atom 7.5603601016577633 7.5674430831333481 62.1848242942243417 Ba
atom 5.0386653443408012 5.0402400677711734 59.7304085576566521 Zr
atom 10.0820548589745194 5.0402400677712045 59.7304085576581159 Zr
atom 5.0418147912020359 10.0804801355436897 59.7304085576570856 Zr
atom 10.0789054121131976 10.0804801355436737 59.7304085576561334 Zr
atom 5.0410430253882836 5.0402400677712382 64.6896842900526252 Zr
atom 10.0796771779271221 5.0402400677711947 64.6896842900510620 Zr
atom 5.0394371101545019 10.0804801355437128 64.6896842900534779 Zr
atom 10.0812830931605291 10.0804801355437661 64.6896842900532789 Zr
atom 5.5491145898073517 5.0402400677712382 57.2501241794377833 S
atom 9.5716056135076766 5.0402400677716770 57.2501241794374636 S
atom 4.5313655457353770 10.0804801355436098 57.2501241794375701 S
atom 10.5893546575796709 10.0804801355431781 57.2501241794366962 S
atom 4.5322462018845195 5.0402400677714514 62.2032460071884898 S
atom 10.5884740014302725 5.0402400677710251 62.2032460071887954 S
atom 5.5482339336582189 10.0804801355434375 62.2032460071885964 S
atom 9.5724862696568440 10.0804801355438638 62.2032460071899251 S
atom 5.0402400677713670 2.5201200338851133 59.7228340853871345 S
atom 10.0804801355436808 2.5201200338850795 59.7228340853865447 S
atom 5.0402400677713919 7.5603601016574418 59.7228340853869426 S
atom 10.0804801355436489 7.5603601016575013 59.7228340853873618 S
atom 5.0402400677712826 2.5201200338853540 64.6703723783108586 S
atom 10.0804801355437146 2.5201200338852576 64.6703723783113702 S
atom 5.0402400677715287 7.5603601016572268 64.6703723783111286 S
atom 10.0804801355434748 7.5603601016573903 64.6703723783107876 S
atom 2.5201200338846976 5.0402400677713191 59.2429691923966857 S
atom 7.5603601016580821 5.0402400677712587 60.2024936720664954 S
atom 2.5201200338846577 10.0804801355435814 60.2024936720666943 S
atom 7.5603601016580066 10.0804801355436418 59.2429691923968917 S
atom 2.5201200338858492 5.0402400677714301 65.1481826618428101 S
atom 7.5603601016569106 5.0402400677712293 64.2129580207403166 S
atom 2.5201200338856502 10.0804801355434428 64.2129580207399044 S
atom 7.5603601016570732 10.0804801355436506 65.1481826618425259 S
atom 2.5201200338852656 2.4936425666254780 67.0816439213846110 Ba
atom 7.5603601016574977 2.5465975011444284 67.0816439213846252 Ba
atom 2.5201200338853242 7.5868375689172778 67.0816439213848952 Ba
atom 7.5603601016574569 7.5338826343983252 67.0816439213847531 Ba
atom 2.5201200338854646 2.6888149340121665 71.7539197362503671 Ba
atom 7.5603601016574915 2.3514251337583953 71.7539197362501255 Ba
atom 2.5201200338854521 7.3916652015306719 71.7539197362504666 Ba
atom 7.5603601016575128 7.7290550017844390 71.7539197362501966 Ba
atom 5.0621022319682902 5.0402400677714772 69.7045767264209104 Zr
atom 10.0586179713467132 5.0402400677715287 69.7045767264206688 Zr
atom 5.0183779035745291 10.0804801355436116 69.7045767264197167 Zr
atom 10.1023422997406787 10.0804801355435671 69.7045767264198020 Zr
atom 5.5062210097482707 5.0402400677713306 67.1597276776724925 S
atom 9.6144991935667665 5.0402400677714443 67.1597276776720804 S
atom 4.5742591257945682 10.0804801355437004 67.1597276776721088 S
atom 10.5464610775206307 10.0804801355435636 67.1597276776721941 S
atom 4.7539466607851546 5.0402400677714096 72.1833483101137006 S
atom 10.3667735425300460 5.0402400677713910 72.1833483101151501 S
atom 5.3265334747578859 10.0804801355437466 72.1833483101147806 S
atom 9.7941867285573405 10.0804801355437910 72.1833483101147948 S
atom 5.0402400677714390 2.5201200338854730 69.5656102080793204 S
atom 10.0804801355437270 2.5201200338859566 69.5656102080793488 S
atom 5.0402400677714265 7.5603601016573174 69.5656102080792778 S
atom 10.0804801355437288 7.5603601016568787 69.5656102080794767 S
atom 2.5201200338847167 5.0402400677713697 69.2625485183111067 S
atom 7.5603601016583353 5.0402400677713830 70.0032444850423872 S
atom 2.5201200338852550 10.0804801355437341 70.0032444850423161 S
atom 7.5603601016574125 10.0804801355436702 69.2625485183110641 S
