#=======================================================
# FHI-aims file: full_relax/full_relax_RP_9_00Mz_00Mz.in
# Created using the Atomic Simulation Environment (ASE)
# Mon Mar 24 16:21:00 2025
#=======================================================
lattice_vector 9.9086195299683091 0.0000000330151397 -0.0000000000000470 
lattice_vector 0.0000000330151397 9.9086195299683091 0.0000000000000067 
lattice_vector -0.0000000000004386 0.0000000000000622 97.8449461636328550 
atom 0.0000000000101024 -0.0000000000016913 0.1615484076185560 Ba
atom 4.9543097649848695 0.0000000165060252 0.1615484076186251 Ba
atom 0.0000000165082861 4.9543097649827832 0.1615484076177081 Ba
atom 4.9543097815020483 4.9543097814900943 0.1615484076179179 Ba
atom 0.0000000000021729 -0.0000000000007713 5.0649811712876369 Ba
atom 4.9543097650172303 0.0000000165065169 5.0649811712875534 Ba
atom 0.0000000165405579 4.9543097649828853 5.0649811712877018 Ba
atom 4.9543097814940245 4.9543097814909318 5.0649811712875739 Ba
atom 2.4771548907459304 2.4771548907447394 2.4347876691148302 Zr
atom 7.4314646557302675 2.4771549072516925 2.4347876691147468 Zr
atom 2.4771549072537651 7.4314646557281421 2.4347876691147130 Zr
atom 7.4314646722376017 7.4314646722364408 2.4347876691145385 Zr
atom 2.4771548907394023 2.4771548907395915 7.5729042427514122 Zr
atom 7.4314646557232562 2.4771549072570491 7.5729042427509192 Zr
atom 2.4771549072467822 7.4314646557336514 7.5729042427507824 Zr
atom 7.4314646722309874 7.4314646722311748 7.5729042427512816 Zr
atom 2.4771548907410841 2.4771548907345626 -0.1079962131032739 S
atom 7.4314646557261828 2.4771549072615824 -0.1079962131028064 S
atom 2.4771549072499019 7.4314646557382895 -0.1079962131033025 S
atom 7.4314646722326527 7.4314646722263129 -0.1079962131034677 S
atom 2.4771548907383165 2.4771548907759358 5.0356713824873474 S
atom 7.4314646557229294 2.4771549072203949 5.0356713824871369 S
atom 2.4771549072464065 7.4314646556969368 5.0356713824871262 S
atom 7.4314646722299988 7.4314646722676709 5.0356713824873793 S
atom 2.0524824495484615 -0.0000032832386221 2.5285036272454104 S
atom 7.8561370804227293 0.0000033162506957 2.5285036272168924 S
atom 2.9018273319462855 4.9543130647274101 2.5285036272167654 S
atom 7.0067922310399560 4.9543064982533096 2.5285036272451822 S
atom 2.9977808380136883 -0.0000003266717828 7.5895052872778432 S
atom 6.9108386919594835 0.0000003596843797 7.5895052873858848 S
atom 1.9565289434827877 4.9543101081609278 7.5895052873857782 S
atom 7.9520906195054204 4.9543094548199198 7.5895052872777704 S
atom 0.0000032997433016 2.9018273154359226 2.5285036272313044 S
atom 4.9543064817456646 2.0524824660530347 2.5285036272305641 S
atom -0.0000032667308779 7.0067922145299573 2.5285036272309642 S
atom 4.9543130812350915 7.8561370969278244 2.5285036272311561 S
atom 0.0000003431743636 1.9565289269718502 7.5895052873322255 S
atom 4.9543094383099788 2.9977808545176523 7.5895052873314750 S
atom -0.0000003101665877 7.9520906029944900 7.5895052873314599 S
atom 4.9543101246660717 6.9108387084633387 7.5895052873322300 S
atom -0.0000000000869498 -0.0000000000013839 10.1538309886988944 Ba
atom 4.9543097649158865 0.0000000165051538 10.1538309886987630 Ba
atom 0.0000000164393643 4.9543097649816366 10.1538309886988056 Ba
atom 4.9543097814048727 4.9543097814902834 10.1538309886987790 Ba
atom 0.0000000001175875 -0.0000000000033868 15.2624889545981866 Ba
atom 4.9543097650823897 0.0000000165046906 15.2624889545983091 Ba
atom 0.0000000166058966 4.9543097649813683 15.2624889545981990 Ba
atom 4.9543097816093962 4.9543097814883792 15.2624889545981866 Ba
atom 2.4771548907480461 2.4771548907458256 12.6946898736208968 Zr
atom 7.4314646557318449 2.4771549072505525 12.6946898736205167 Zr
atom 2.4771549072551631 7.4314646557270603 12.6946898736204989 Zr
atom 7.4314646722397626 7.4314646722375093 12.6946898736208205 Zr
atom 2.4771548907427250 2.4771548907443832 17.8139673558873710 Zr
atom 7.4314646557276758 2.4771549072540311 17.8139673558875238 Zr
atom 2.4771549072510690 7.4314646557305188 17.8139673558879537 Zr
atom 7.4314646722344628 7.4314646722360207 17.8139673558872005 Zr
atom 2.4771548907573795 2.4771548906753056 10.1451945239217007 S
atom 7.4314646557416175 2.4771549073213945 10.1451945239214876 S
atom 2.4771549072649228 7.4314646557978401 10.1451945239215195 S
atom 7.4314646722492830 7.4314646721669186 10.1451945239217185 S
atom 2.4771548907293535 2.4771548908449157 15.2602894506196645 S
atom 7.4314646557084636 2.4771549071531909 15.2602894506197444 S
atom 2.4771549072318595 7.4314646556297488 15.2602894506198972 S
atom 7.4314646722210647 7.4314646723365634 15.2602894506196733 S
atom 2.9798357210063413 -0.0000000308282107 12.7084651545383789 S
atom 6.9287838089649139 0.0000000638406860 12.7084651543494527 S
atom 1.9744740604881055 4.9543098123171809 12.7084651543494864 S
atom 7.9341455024979934 4.9543097506634455 12.7084651545384286 S
atom 2.9819614239609096 0.0000000119125007 17.8192216116560758 S
atom 6.9266581060047852 0.0000000211011649 17.8192216118977242 S
atom 1.9723483575277858 4.9543097695778195 17.8192216118975288 S
atom 7.9362712054526874 4.9543097934042226 17.8192216116560722 S
atom 0.0000000473358391 1.9744740439780535 12.7084651544448786 S
atom 4.9543097341587137 2.9798357375111464 12.7084651544426279 S
atom -0.0000000143178195 7.9341454859877745 12.7084651544428802 S
atom 4.9543098288276628 6.9287838254696537 12.7084651544449994 S
atom 0.0000000045921903 1.9723483410209048 17.8192216117719902 S
atom 4.9543097768952293 2.9819614404687922 17.8192216117819235 S
atom 0.0000000284186398 7.9362711889455468 17.8192216117819200 S
atom 4.9543097860839023 6.9266581225124080 17.8192216117718658 S
atom -0.0000000001392953 0.0000000000056114 20.3751720279038260 Ba
atom 4.9543097648676993 0.0000000165141970 20.3751720279040818 Ba
atom 0.0000000163913093 4.9543097649907457 20.3751720279039645 Ba
atom 4.9543097813523529 4.9543097814975079 20.3751720279040178 Ba
atom 0.0000000001347320 -0.0000000000124453 25.4896464863135712 Ba
atom 4.9543097650967214 0.0000000164925725 25.4896464863134575 Ba
atom 0.0000000166200173 4.9543097649690786 25.4896464863134184 Ba
atom 4.9543097816263533 4.9543097814791981 25.4896464863136281 Ba
atom 2.4771548907448659 2.4771548907438312 22.9324092571079241 Zr
atom 7.4314646557282167 2.4771549072517889 22.9324092571084748 Zr
atom 2.4771549072516978 7.4314646557284050 22.9324092571090183 Zr
atom 7.4314646722365074 7.4314646722355651 22.9324092571078992 Zr
atom 2.4771548907464496 2.4771548907462821 28.0508511583300120 Zr
atom 7.4314646557310766 2.4771549072514962 28.0508511583303388 Zr
atom 2.4771549072545023 7.4314646557282096 28.0508511583306799 Zr
atom 7.4314646722381301 7.4314646722381568 28.0508511583302393 Zr
atom 2.4771548907587646 2.4771548906283773 20.3750540125040871 S
atom 7.4314646557567245 2.4771549073661174 20.3750540125044139 S
atom 2.4771549072800911 7.4314646558426105 20.3750540125044139 S
atom 7.4314646722505131 7.4314646721200717 20.3750540125041226 S
atom 2.4771548907353211 2.4771548908603869 25.4897645017133812 S
atom 7.4314646556968142 2.4771549071406782 25.4897645017135730 S
atom 2.4771549072202212 7.4314646556173480 25.4897645017135801 S
atom 7.4314646722270528 7.4314646723521181 25.4897645017132675 S
atom 2.9824713829023466 0.0000000119266293 22.9324092572370652 S
atom 6.9261481470635857 0.0000000210853417 22.9324092569805202 S
atom 1.9718383985870735 4.9543097695619380 22.9324092569804634 S
atom 7.9367811643941062 4.9543097934183891 22.9324092572370475 S
atom 2.9819614239619612 0.0000000119123760 28.0455969023225116 S
atom 6.9266581060046404 0.0000000211011314 28.0455969025580529 S
atom 1.9723483575284138 4.9543097695776384 28.0455969025579890 S
atom 7.9362712054536475 4.9543097934040672 28.0455969023224760 S
atom 0.0000000045781002 1.9718383820792142 22.9324092571190583 S
atom 4.9543097769110016 2.9824713994097407 22.9324092570986018 S
atom 0.0000000284344763 7.9367811478864922 22.9324092570984064 S
atom 4.9543097860698406 6.9261481635711322 22.9324092571189162 S
atom 0.0000000045944048 1.9723483410205276 28.0455969024264462 S
atom 4.9543097768975635 2.9819614404692620 28.0455969024545269 S
atom 0.0000000284208272 7.9362711889457591 28.0455969024542995 S
atom 4.9543097860862169 6.9266581225121397 28.0455969024262401 S
atom -0.0000000001147128 0.0000000000125019 30.6023295596190827 Ba
atom 4.9543097648870855 0.0000000165234717 30.6023295596193634 Ba
atom 0.0000000164105026 4.9543097649999988 30.6023295596192426 Ba
atom 4.9543097813771526 4.9543097815042216 30.6023295596190970 Ba
atom 0.0000000000805906 -0.0000000000123382 35.7109875255189948 Ba
atom 4.9543097650471921 0.0000000164909163 35.7109875255188243 Ba
atom 0.0000000165708668 4.9543097649673671 35.7109875255188598 Ba
atom 4.9543097815721131 4.9543097814794734 35.7109875255187603 Ba
atom 2.4771548907416561 2.4771548907433991 33.1701286405964595 Zr
atom 7.4314646557259358 2.4771549072539214 33.1701286405960047 Zr
atom 2.4771549072492247 7.4314646557304078 33.1701286405966016 Zr
atom 7.4314646722334308 7.4314646722349069 33.1701286405965021 Zr
atom 2.4771548907509953 2.4771548907482219 38.2919142714668723 Zr
atom 7.4314646557331407 2.4771549072465349 38.2919142714662755 Zr
atom 2.4771549072567369 7.4314646557230919 38.2919142714669434 Zr
atom 7.4314646722424555 7.4314646722398798 38.2919142714675829 Zr
atom 2.4771548907489107 2.4771548906460263 30.6045290635986085 S
atom 7.4314646557595267 2.4771549073462098 30.6045290635985090 S
atom 2.4771549072831949 7.4314646558229143 30.6045290635985197 S
atom 7.4314646722404163 7.4314646721378388 30.6045290635985801 S
atom 2.4771548907437602 2.4771548908131673 35.7196239902958794 S
atom 7.4314646557051809 2.4771549071878032 35.7196239902958510 S
atom 2.4771549072286283 7.4314646556642376 35.7196239902959221 S
atom 7.4314646722353705 7.4314646723048394 35.7196239902959718 S
atom 2.9798357210014159 -0.0000000308278487 33.1563533598645250 S
atom 6.9287838089594702 0.0000000638409540 33.1563533596825479 S
atom 1.9744740604830811 4.9543098123176055 33.1563533596823063 S
atom 7.9341455024934486 4.9543097506639970 33.1563533598646814 S
atom 2.9977808380068107 -0.0000003266722045 38.2753132268336671 S
atom 6.9108386919527485 0.0000003596839714 38.2753132269381098 S
atom 1.9565289434761068 4.9543101081605831 38.2753132269378611 S
atom 7.9520906194984846 4.9543094548195699 38.2753132268340863 S
atom 0.0000000473307853 1.9744740439782211 33.1563533597880280 S
atom 4.9543097341536351 2.9798357375120674 33.1563533597597626 S
atom -0.0000000143229568 7.9341454859885046 33.1563533597593292 S
atom 4.9543098288227112 6.9287838254697860 33.1563533597874880 S
atom 0.0000003431794226 1.9565289269726136 38.2753132268760652 S
atom 4.9543094383149819 2.9977808545181763 38.2753132268949301 S
atom -0.0000003101615242 7.9520906029948630 38.2753132268952996 S
atom 4.9543101246710206 6.9108387084642358 38.2753132268764276 S
atom -0.0000000000017623 0.0000000000047202 40.7998373429301253 Ba
atom 4.9543097649505441 0.0000000165059960 40.7998373429301964 Ba
atom 0.0000000164736431 4.9543097649828081 40.7998373429307080 Ba
atom 4.9543097814893269 4.9543097814966686 40.7998373429300685 Ba
atom -0.0000000000149495 -0.0000000000010922 45.7032701066008400 Ba
atom 4.9543097649791044 0.0000000165087305 45.7032701066004492 Ba
atom 0.0000000165026202 4.9543097649854477 45.7032701066007476 Ba
atom 4.9543097814772050 4.9543097814908146 45.7032701066009110 Ba
atom 2.4771548907428236 2.4771548907446195 43.4300308451047599 Zr
atom 7.4314646557269546 2.4771549072523347 43.4300308451041062 Zr
atom 2.4771549072502785 7.4314646557289343 43.4300308451040351 Zr
atom 7.4314646722345499 7.4314646722362845 43.4300308451048807 Zr
atom 2.4771548907437846 2.4771548907113328 40.8291471317311760 S
atom 7.4314646557404123 2.4771549072831909 40.8291471317309203 S
atom 2.4771549072636962 7.4314646557598287 40.8291471317312755 S
atom 7.4314646722356814 7.4314646722030728 40.8291471317313821 S
atom 2.4771548907500929 2.4771548907565935 45.9728147273211647 S
atom 7.4314646557292612 2.4771549072379457 45.9728147273209444 S
atom 2.4771549072526091 7.4314646557145281 45.9728147273211505 S
atom 7.4314646722418356 7.4314646722484676 45.9728147273217260 S
atom 2.0524824495430063 -0.0000032832386474 43.3363148870049599 S
atom 7.8561370804188426 0.0000033162506585 43.3363148869714507 S
atom 2.9018273319425933 4.9543130647274083 43.3363148869711168 S
atom 7.0067922310348756 4.9543064982532909 43.3363148870050949 S
atom 0.0000032997434961 2.9018273154369316 43.3363148869914383 S
atom 4.9543064817456743 2.0524824660525081 43.3363148869845176 S
atom -0.0000032667307655 7.0067922145292858 43.3363148869849155 S
atom 4.9543130812349947 7.8561370969287001 43.3363148869907207 S
atom 2.4771548907429448 2.4771548907368617 49.0840214894361253 Ba
atom 7.4314646557242954 2.4771549072499468 49.0840214894358482 Ba
atom 2.4771549072484462 7.4314646557266260 49.0840214894361324 Ba
atom 7.4314646722342612 7.4314646722288744 49.0840214894366724 Ba
atom 2.4771548907352181 2.4771548907457053 53.9874542531060655 Ba
atom 7.4314646557281074 2.4771549072378201 53.9874542531062289 Ba
atom 2.4771549072503212 7.4314646557142696 53.9874542531062858 Ba
atom 7.4314646722267179 7.4314646722375519 53.9874542531063710 Ba
atom 4.9543097814895827 4.9543097814893677 51.3572607509312391 Zr
atom 9.9086195464732967 4.9543097979966975 51.3572607509324470 Zr
atom 4.9543097979964488 9.9086195464732238 51.3572607509316086 Zr
atom 9.9086195629813414 9.9086195629811442 51.3572607509315020 Zr
atom 4.9543097814932873 4.9543097814912720 56.4953773245696382 Zr
atom 9.9086195464734903 4.9543097980013648 56.4953773245691977 Zr
atom 4.9543097979968040 9.9086195464778921 56.4953773245694606 Zr
atom 9.9086195629849634 9.9086195629828921 56.4953773245694535 Zr
atom 4.9543097814988668 4.9543097814891226 48.8144768687143511 S
atom 9.9086195464660634 4.9543097980019928 48.8144768687151398 S
atom 4.9543097979892323 9.9086195464787732 48.8144768687146779 S
atom 9.9086195629908556 9.9086195629810856 48.8144768687145501 S
atom 4.9543097814762120 4.9543097815002932 53.9581444643056471 S
atom 9.9086195464903746 4.9543097979916224 53.9581444643060379 S
atom 4.9543097980141031 9.9086195464683673 53.9581444643061019 S
atom 9.9086195629679210 9.9086195629921541 53.9581444643062937 S
atom 5.3789822061807877 2.4771581904890159 51.4509767090525258 S
atom 9.4839471052732911 2.4771516240148155 51.4509767090452002 S
atom 4.5296373567971671 7.4314613724913272 51.4509767090449870 S
atom 10.3332919876729932 7.4314679719806920 51.4509767090528811 S
atom 4.4336838177158500 2.4771552339234888 56.5119783691375446 S
atom 10.4292454937381223 2.4771545805824506 56.5119783691638276 S
atom 5.4749357452612397 7.4314643290587998 56.5119783691635078 S
atom 9.3879935992076362 7.4314650154149087 56.5119783691385820 S
atom 2.4771516075066788 4.5296373402900247 51.4509767090388124 S
atom 7.4314679554727396 5.3789822226895483 51.4509767090579189 S
atom 2.4771582069959885 10.3332919711661546 51.4509767090583523 S
atom 7.4314613889986250 9.4839471217819771 51.4509767090394590 S
atom 2.4771545640740831 5.4749357287535965 56.5119783691721835 S
atom 7.4314649989067529 4.4336838342232197 56.5119783691290323 S
atom 2.4771552504301533 9.3879935826999024 56.5119783691295225 S
atom 7.4314643455657912 10.4292455102453232 56.5119783691722688 S
atom 2.4771548907588934 2.4771548907795746 59.0763040705177076 Ba
atom 7.4314646557505641 2.4771549072765708 59.0763040705176579 Ba
atom 2.4771549072735546 7.4314646557533344 59.0763040705179492 Ba
atom 7.4314646722504119 7.4314646722714315 59.0763040705183613 Ba
atom 2.4771548907297540 2.4771548907083201 64.1849620364171045 Ba
atom 7.4314646557082265 2.4771549072233836 64.1849620364166640 Ba
atom 2.4771549072314953 7.4314646556997825 64.1849620364168629 Ba
atom 7.4314646722215221 7.4314646722001374 64.1849620364164366 Ba
atom 4.9543097814904833 4.9543097814895907 61.6171629554383813 Zr
atom 9.9086195464738971 4.9543097979978912 61.6171629554390066 Zr
atom 4.9543097979976265 9.9086195464747213 61.6171629554391203 Zr
atom 9.9086195629819791 9.9086195629816185 61.6171629554387366 Zr
atom 4.9543097814876615 4.9543097814898625 66.7364404377072304 Zr
atom 9.9086195464729396 4.9543097979954620 66.7364404377063209 Zr
atom 4.9543097979965811 9.9086195464719804 66.7364404377066904 Zr
atom 9.9086195629793075 9.9086195629814267 66.7364404377062215 Zr
atom 4.9543097815127082 4.9543097814711139 59.0676676057398637 S
atom 9.9086195464462996 4.9543097980081745 59.0676676057399774 S
atom 4.9543097979698709 9.9086195464843634 59.0676676057399277 S
atom 9.9086195630042830 9.9086195629625031 59.0676676057402403 S
atom 4.9543097814641079 4.9543097815084813 64.1827625324373656 S
atom 9.9086195465041591 4.9543097979891018 64.1827625324374509 S
atom 4.9543097980275661 9.9086195464655233 64.1827625324376640 S
atom 9.9086195629557494 9.9086195630001068 64.1827625324369819 S
atom 4.4516289347224411 2.4771549380784412 61.6309382362794196 S
atom 10.4113003767329388 2.4771548764246965 61.6309382362467417 S
atom 5.4569906282564347 7.4314646249015395 61.6309382362458678 S
atom 9.4059387162146013 7.4314647195703278 61.6309382362803717 S
atom 4.4495032317652621 2.4771548953375686 66.7416946935860551 S
atom 10.4134260796903355 2.4771549191640392 66.7416946936047566 S
atom 5.4591163312134743 7.4314646676409577 66.7416946936053819 S
atom 9.4038130132570021 7.4314646768296040 66.7416946935845914 S
atom 2.4771548599170847 5.4569906117485383 61.6309382362324598 S
atom 7.4314647030627361 4.4516289512299121 61.6309382362936375 S
atom 2.4771549545859739 9.4059386997066365 61.6309382362940568 S
atom 7.4314646414089145 10.4113003932405519 61.6309382362325238 S
atom 2.4771549026561415 5.4591163147058586 66.7416946936223354 S
atom 7.4314646603213372 4.4495032482730572 66.7416946935672257 S
atom 2.4771549118449463 9.4038129967498865 66.7416946935666857 S
atom 7.4314646841477421 10.4134260961982434 66.7416946936226196 S
atom 2.4771548907472081 2.4771548907707523 69.2976451097229074 Ba
atom 7.4314646557342021 2.4771549072727970 69.2976451097228221 Ba
atom 2.4771549072574830 7.4314646557498376 69.2976451097214721 Ba
atom 7.4314646722390494 7.4314646722624644 69.2976451097225663 Ba
atom 2.4771548907566636 2.4771548907349801 74.4121195681323542 Ba
atom 7.4314646557444446 2.4771549072430852 74.4121195681316863 Ba
atom 2.4771549072671299 7.4314646557195090 74.4121195681312173 Ba
atom 7.4314646722484170 7.4314646722264701 74.4121195681322689 Ba
atom 4.9543097814933947 4.9543097814903723 71.8548823389272826 Zr
atom 9.9086195464753200 4.9543097980009927 71.8548823389281637 Zr
atom 4.9543097979988060 9.9086195464777269 71.8548823389271973 Zr
atom 9.9086195629851339 9.9086195629821781 71.8548823389278368 Zr
atom 4.9543097814868737 4.9543097814895605 76.9733242401490827 Zr
atom 9.9086195464731635 4.9543097979949762 76.9733242401473916 Zr
atom 4.9543097979964452 9.9086195464714493 76.9733242401487985 Zr
atom 9.9086195629787159 9.9086195629812455 76.9733242401478890 Zr
atom 4.9543097815108936 4.9543097814836257 69.2975270943224473 S
atom 9.9086195464525133 4.9543097979967499 69.2975270943224899 S
atom 4.9543097979761415 9.9086195464731297 69.2975270943224331 S
atom 9.9086195630022331 9.9086195629753355 69.2975270943220494 S
atom 4.9543097814786057 4.9543097814792798 74.4122375835306826 S
atom 9.9086195464809173 4.9543097980120567 74.4122375835313363 S
atom 4.9543097980040232 9.9086195464883851 74.4122375835304126 S
atom 9.9086195629706282 9.9086195629708769 74.4122375835307110 S
atom 4.4489932728250192 2.4771548953251208 71.8548823389224509 S
atom 10.4139360386320874 2.4771549191813658 71.8548823389332227 S
atom 5.4596262901552608 7.4314646676575116 71.8548823389328675 S
atom 9.4033030543173961 7.4314646768162813 71.8548823389227209 S
atom 4.4495032317648677 2.4771548953374611 76.9680699842789693 S
atom 10.4134260796898932 2.4771549191639148 76.9680699842381273 S
atom 5.4591163312137159 7.4314646676406175 76.9680699842368199 S
atom 9.4038130132571052 7.4314646768292638 76.9680699842801346 S
atom 2.4771549026736626 5.4596262736477259 71.8548823389102580 S
atom 7.4314646603091727 4.4489932893325177 71.8548823389448899 S
atom 2.4771549118323222 9.4033030378100424 71.8548823389444351 S
atom 7.4314646841656486 10.4139360551398301 71.8548823389109970 S
atom 2.4771549026558368 5.4591163147064767 76.9680699842625842 S
atom 7.4314646603210992 4.4495032482727579 76.9680699842552798 S
atom 2.4771549118446199 9.4038129967496946 76.9680699842551661 S
atom 7.4314646841475280 10.4134260961979113 76.9680699842607794 S
atom 2.4771548907196186 2.4771548907389387 79.5248026414365512 Ba
atom 7.4314646556956738 2.4771549072493864 79.5248026414362243 Ba
atom 2.4771549072198704 7.4314646557256587 79.5248026414370912 Ba
atom 7.4314646722109776 7.4314646722307769 79.5248026414368070 Ba
atom 2.4771548907676433 2.4771548907570922 84.6334606073374260 Ba
atom 7.4314646557639410 2.4771549072595538 84.6334606073365876 Ba
atom 2.4771549072869945 7.4314646557356046 84.6334606073358060 Ba
atom 7.4314646722600717 7.4314646722489401 84.6334606073367439 Ba
atom 4.9543097814910038 4.9543097814902399 82.0926017224139457 Zr
atom 9.9086195464737870 4.9543097979989090 82.0926017224148126 Zr
atom 4.9543097979974098 9.9086195464756219 82.0926017224145852 Zr
atom 9.9086195629824090 9.9086195629823024 82.0926017224140168 Zr
atom 4.9543097814926469 4.9543097814893482 87.2143873532850478 Zr
atom 9.9086195464759843 4.9543097980009616 87.2143873532830440 Zr
atom 4.9543097979989517 9.9086195464770164 87.2143873532848204 Zr
atom 9.9086195629847484 9.9086195629807463 87.2143873532834419 Zr
atom 4.9543097814918173 4.9543097815138450 79.5270021454167590 S
atom 9.9086195464796738 4.9543097979739885 79.5270021454167448 S
atom 4.9543097980032558 9.9086195464506783 79.5270021454168301 S
atom 9.9086195629835281 9.9086195630057468 79.5270021454167022 S
atom 4.9543097814928139 4.9543097814652137 84.6420970721137564 S
atom 9.9086195464628659 4.9543097980209163 84.6420970721136712 S
atom 4.9543097979862702 9.9086195464974374 84.6420970721143249 S
atom 9.9086195629845637 9.9086195629567939 84.6420970721137707 S
atom 4.4516289347223950 2.4771549380792774 82.0788264415637201 S
atom 10.4113003767320382 2.4771548764253373 82.0788264416200093 S
atom 5.4569906282560110 7.4314646249020440 82.0788264416201088 S
atom 9.4059387162143917 7.4314647195710224 82.0788264415631943 S
atom 4.4336838177149644 2.4771552339226059 87.1977863087249858 S
atom 10.4292454937377155 2.4771545805817254 87.1977863086821969 S
atom 5.4749357452607388 7.4314643290585485 87.1977863086829075 S
atom 9.3879935992061192 7.4314650154145623 87.1977863087242611 S
atom 2.4771548599173432 5.4569906117490454 82.0788264415979825 S
atom 7.4314647030624750 4.4516289512313607 82.0788264415850080 S
atom 2.4771549545861244 9.4059386997075656 82.0788264415853064 S
atom 7.4314646414088603 10.4113003932408219 82.0788264415979967 S
atom 2.4771545640741879 5.4749357287546623 87.1977863086958109 S
atom 7.4314649989072983 4.4336838342239471 87.1977863087104765 S
atom 2.4771552504304108 9.3879935827004743 87.1977863087098797 S
atom 7.4314643455662255 10.4292455102468971 87.1977863086970757 S
atom 2.4771548907302718 2.4771548907458083 89.7223104247484997 Ba
atom 7.4314646557289548 2.4771549072462409 89.7223104247480592 Ba
atom 2.4771549072520465 7.4314646557237340 89.7223104247473628 Ba
atom 7.4314646722209137 7.4314646722373752 89.7223104247482439 Ba
atom 2.4771548907425065 2.4771548907407750 94.6257431884172888 Ba
atom 7.4314646557212622 2.4771549072505743 94.6257431884170614 Ba
atom 2.4771549072446812 7.4314646557265602 94.6257431884170330 Ba
atom 7.4314646722343154 7.4314646722320221 94.6257431884170472 Ba
atom 4.9543097814890338 4.9543097814896635 92.3525039269211021 Zr
atom 9.9086195464731919 4.9543097979975261 92.3525039269220684 Zr
atom 4.9543097979965083 9.9086195464740214 92.3525039269212868 Zr
atom 9.9086195629809133 9.9086195629815226 92.3525039269217842 Zr
atom 4.9543097814855175 4.9543097815055175 89.7516202135485912 S
atom 9.9086195464826812 4.9543097979838224 89.7516202135484491 S
atom 4.9543097980054664 9.9086195464604678 89.7516202135482359 S
atom 9.9086195629779414 9.9086195629971865 89.7516202135483070 S
atom 4.9543097814947599 4.9543097814842740 94.8952878091381820 S
atom 9.9086195464725986 4.9543097980053377 94.8952878091380256 S
atom 4.9543097979961548 9.9086195464819546 94.8952878091379972 S
atom 9.9086195629863152 9.9086195629758844 94.8952878091377983 S
atom 5.3789822061808854 2.4771581904890474 92.2587879687958292 S
atom 9.4839471052741242 2.4771516240147804 92.2587879688125412 S
atom 4.5296373567978492 7.4314613724914160 92.2587879688122001 S
atom 10.3332919876725295 7.4314679719808900 92.2587879687957724 S
atom 2.4771516075072428 4.5296373402913161 92.2587879688080932 S
atom 7.4314679554725744 5.3789822226883803 92.2587879687996377 S
atom 2.4771582069964211 10.3332919711660605 92.2587879687998083 S
atom 7.4314613889985282 9.4839471217831619 92.2587879688075816 S
