#=======================================================
# FHI-aims file: full_relax/full_relax_RP_6_RxRyRz_RxRy0.in
# Created using the Atomic Simulation Environment (ASE)
# Fri Mar 14 11:50:42 2025
#=======================================================
lattice_vector 9.9986680709571090 -0.0084518060735163 -0.0104645850572294 
lattice_vector -0.0084518060734836 9.9986680709546789 0.0104645850285464 
lattice_vector -0.0688723650217321 0.0688723648329375 66.1071906743414388 
atom 0.0109259273938592 -0.0760225789084692 0.1785039477742412 Ba
atom 5.0753566159318311 -0.0151518301207280 0.1732716635714883 Ba
atom 0.0717966766774158 4.9884081076388069 0.1837362521574157 Ba
atom 5.0060340605383660 4.9190855524351669 0.1785039480954766 Ba
atom -0.2991368632597406 0.2372366076803550 4.9636036192784720 Ba
atom 4.7620974296387164 0.2949109600188153 4.9583713266667981 Ba
atom -0.2414625083384665 5.2984708966523328 4.9688359112455363 Ba
atom 4.6959712687889086 5.2323447382314869 4.9636036195426714 Ba
atom 2.4359035221591867 2.5662450713001310 2.3449123469779867 Zr
atom 7.4281971007566385 2.5549787081270949 2.3396800620554425 Zr
atom 2.4246371615285174 7.5585386441016977 2.3501446470857541 Zr
atom 7.4310116554321635 7.5613532007915589 2.3449123437322199 Zr
atom 2.3878094749617627 2.5703000391927224 7.4176906304490062 Zr
atom 7.4241421300956976 2.6030727505917723 7.4124583279363536 Zr
atom 2.4205821926019930 7.6066326879180197 7.4229229217137824 Zr
atom 7.3829176054309720 7.5654081711962871 7.4176906364982402 Zr
atom 2.5970222651927584 2.8126225935134097 -0.1606255318164361 S
atom 7.1818195744361084 2.3938599640883869 -0.1658578224696701 S
atom 2.1782596362780180 7.3974199029358916 -0.1553932342679735 S
atom 7.5921303976990133 7.8077307255458255 -0.1606255283229403 S
atom 2.2018084961085349 2.3087071586504067 4.9148343097413942 S
atom 7.6857350099134454 2.7890737337598690 4.9096019967930662 S
atom 2.6821750713221206 7.7926336724190115 4.9200665731301019 S
atom 7.1969166286278181 7.3038152917721195 4.9148343082504011 S
atom 2.6860202263792528 0.0737074253753157 2.1960321473156981 S
atom 7.1253243338571970 0.0722363754062025 2.6964805891478569 S
atom 2.1217643958921695 5.0757963231777978 2.7069451739791206 S
atom 7.6811283586225301 5.0688155679939291 2.1960321471622448 S
atom 2.8867543804188123 0.0728929773336137 7.6482989349480217 S
atom 7.0031239609992726 0.0704764324697458 7.2180951915055500 S
atom 1.9995640217090218 5.0740363704285674 7.2285597762398641 S
atom 7.8818625124905521 5.0680011086657624 7.6482989348718000 S
atom -0.0779333442051211 2.3133138085508653 2.2012644397797607 S
atom 4.9186458581643988 2.8691178348558988 2.7017128813804359 S
atom -0.0849140780138007 7.8726777731048188 2.7121774665956790 S
atom 4.9171747855396601 7.3084219421451406 2.2012644406570532 S
atom -0.0771188402702301 2.1125796548967264 7.6535312269494824 S
atom 4.9204057616931749 2.9913182072540430 7.2233274842692987 S
atom -0.0831541817725100 7.9948781461294374 7.2337920689130151 S
atom 4.9179892977100410 7.1076877874200308 7.6535312265865070 S
atom -0.0246939438403131 -0.0551413052635296 9.9654658183002933 Ba
atom 5.0544753390931021 0.0204680399406524 9.9602335255593797 Ba
atom 0.0509154017416431 5.0240279810717050 9.9706981105135615 Ba
atom 4.9704141875634535 4.9399668296577506 9.9654658177265958 Ba
atom 0.0359139599721666 0.0672195819016999 15.0243615030176869 Ba
atom 4.9321144549965279 -0.0401398635203526 15.0191292104855005 Ba
atom -0.0714454847296725 4.9634200754389406 15.0295937955657504 Ba
atom 5.0310220936095309 5.0623277147419996 15.0243615029733881 Ba
atom 2.4866955328133553 2.5206362864678535 12.4853887164963133 Zr
atom 7.4738058817301818 2.5041866937035864 12.4801564146500343 Zr
atom 2.4702459428911969 7.5077466328816076 12.4906209923740299 Zr
atom 7.4818036650005162 7.5157444194174783 12.4853887169321300 Zr
atom 2.4893306644316797 2.5180011545728012 17.5633342663629719 Zr
atom 7.4764410124968483 2.5015515602099039 17.5581020244121078 Zr
atom 2.4728810735434084 7.5051114995158450 17.5685666042997539 Zr
atom 7.4844387967548673 7.5131092875006216 17.5633342591631667 Zr
atom 2.5877697517063791 2.7190766789583409 9.9582723744310062 S
atom 7.2753654879452450 2.4031124774850308 9.9530401302278051 S
atom 2.2718055488853737 7.4066724158028130 9.9635047122805940 S
atom 7.5828778840465363 7.7141848115622214 9.9582723659338512 S
atom 2.3852498880604975 2.4165555093566189 15.0243615798814574 S
atom 7.5778866583202822 2.6056323405483179 15.0191292442752751 S
atom 2.5743267195427344 7.6091922791127997 15.0295938446821928 S
atom 7.3803580202559971 7.4116636417075794 15.0243615884183974 S
atom 2.0142593313339097 0.0196487700861788 12.4001937919977525 S
atom 7.9791158408551324 0.0161797505608378 12.5769501401069412 S
atom 2.9755559024184626 5.0197396768706470 12.5874147250889905 S
atom 7.0093674637416887 5.0147568907863995 12.4001937916728320 S
atom 2.9537690789061766 0.0074309303331878 17.6432969520276757 S
atom 6.9875806502143991 0.0024481820769091 17.4560760250004030 S
atom 1.9840207124553781 5.0060081311593416 17.4665406103137926 S
atom 7.9488772121311104 5.0025390732295651 17.6432969523328929 S
atom -0.0238747221299001 2.9850747031292899 12.4054260854896086 S
atom 4.9747025418517499 2.0153263272765649 12.5821824314142816 S
atom -0.0288573964713275 7.0188862642235286 12.5926470167566702 S
atom 4.9712334105400000 7.9801828369126966 12.4054260852429543 S
atom -0.0116568168644125 2.0455649554608040 17.6485292445958386 S
atom 4.9884340220657943 3.0068615180040261 17.4613083174860009 S
atom -0.0151259097249569 8.0104214550890376 17.4717729028816500 S
atom 4.9834513094710733 7.0406730890816842 17.6485292446824360 S
atom -0.0864469225510563 0.0066116793702094 20.0832572329131906 Ba
atom 4.9927223615825591 0.0822210215016078 20.0780249402025639 Ba
atom -0.0108375776777700 5.0857809567597529 20.0884895257576943 Ba
atom 4.9086612104425598 5.0017198085298151 20.0832572333428381 Ba
atom 0.2059309886795705 -0.2678312423320218 25.0851194174769638 Ba
atom 5.2671652788713406 -0.2101568928329974 25.0798871261853975 Ba
atom 0.2636053419932779 4.7934030472431717 25.0903517106445584 Ba
atom 5.2010391193373122 4.7272768917516084 25.0851194174832273 Ba
atom 2.5389944185667650 2.4191150937397556 22.6310325241453256 Zr
atom 7.5753270590546000 2.4518878061031417 22.6258001520419008 Zr
atom 2.5717671196003185 7.4554477434731101 22.6362647492249103 Zr
atom 7.5341025515938016 7.4142232234391470 22.6310325287666672 Zr
atom 2.5349394670009886 2.4672091452018963 27.7038106120093097 Zr
atom 7.5272330157931853 2.4559427953726902 27.6985783033524235 Zr
atom 2.5236730791722577 7.4595027319110461 27.7090428861116962 Zr
atom 7.5300475970678189 7.4623172763636836 27.7038106136657589 Zr
atom 2.6877710583123391 2.6190753724419444 20.0904506003234431 S
atom 7.3753667930017803 2.3031111667990003 20.0852182667955255 S
atom 2.3718068545290056 7.3066711058744316 20.0956828442316429 S
atom 7.6828791903772125 7.6141835046101676 20.0904506028328633 S
atom 2.2774015365954519 2.2331141177181539 25.1338886256958389 S
atom 7.7613280481595170 2.7134806869146351 25.1286565267525361 S
atom 2.7577681096561206 7.7170406261356268 25.1391211016569116 S
atom 7.2725096694012938 7.2282222503354339 25.1338886181180570 S
atom 2.0812740308774469 -0.0458131869736822 22.3951917920080703 S
atom 7.9635725253703065 -0.0518485900571298 22.8149309520590862 S
atom 2.9600125872478222 4.9517113534247352 22.8253955370911754 S
atom 7.0763821636230260 4.9492949515349647 22.3951917922651234 S
atom 2.2820081904324536 -0.0466278753456010 27.8474586106571422 S
atom 7.8413721537065069 -0.0536083145006331 27.3365455809746294 S
atom 2.8378122151890244 4.9499516116054600 27.3470101662802918 S
atom 7.2771163239262719 4.9484802432410584 27.8474586100406576 S
atom 0.0415873899889550 2.9180600029925294 22.4004240833810542 S
atom 5.0427307224799307 2.0308696417472603 22.8201632449109297 S
atom 0.0391707806331768 7.0344295812415707 22.8306278292931353 S
atom 5.0366955258049675 7.9131681351593910 22.4004240831444896 S
atom 0.0424016504103445 2.7173258528651285 27.8526909033395995 S
atom 5.0444908413857794 2.1530700160688871 27.3417778750458318 S
atom 0.0409308972379803 7.1566299537190741 27.3522424600134393 S
atom 5.0375097891195058 7.7124339863071212 27.8526909044700659 S
atom -0.1073281941372931 0.0422315443633756 29.8702190571132604 Ba
atom 4.9571024825649745 0.1031022945993578 29.8649867737887433 Ba
atom -0.0464574556978974 5.1066622349269979 29.8754513615772979 Ba
atom 4.8877799378377178 5.0373396783954822 29.8702190563673753 Ba
atom 2.7813169812478944 2.6283278925377025 30.2093486675754264 S
atom 7.3661142850611929 2.2095652596127380 30.2041162762507263 S
atom 2.3625543463078857 7.2131251976262210 30.2145808671371014 S
atom 7.7764251136568250 7.6234360257086236 30.2093486687579258 S
atom 2.5621815365500815 2.3650763615820316 33.3132594235994191 Ba
atom 7.6293658061725456 2.4287006991976878 33.3080271461119182 Ba
atom 2.6258058643551410 7.4322606354474994 33.3184917306884856 Ba
atom 7.5572896717108886 7.3601844914136878 33.3132594245484768 Ba
atom 2.2370163901431663 2.6976239034584020 38.0938288795381865 Ba
atom 7.2968182698798891 2.7538658382029388 38.0885965885630569 Ba
atom 2.2932583286497028 7.7574257711852912 38.0990611723148334 Ba
atom 7.2321245256949771 7.6927320301215545 38.0938288796498696 Ba
atom 4.9806353607263629 5.0137437348559235 35.4824879646116287 Zr
atom 9.9758065392568636 5.0053550065137928 35.4772556567545507 Zr
atom 4.9722466046867995 10.0089149407490758 35.4877202348530147 Zr
atom 9.9757434903807276 10.0088518608578951 35.4824879601472389 Zr
atom 4.9680168242989104 5.0150388747701582 40.5404997520256742 Zr
atom 9.9745114268463642 5.0179735441465958 40.5352673925111588 Zr
atom 4.9709514895630766 10.0215334833824077 40.5457320212379599 Zr
atom 9.9631249503914443 10.0101470104576826 40.5404997542600896 Zr
atom 5.1490925290279224 5.2683477063298039 32.9756718656219832 S
atom 9.7212025831955344 4.8368978225457768 32.9704394899909587 S
atom 4.7176426463383665 9.8404577630662722 32.9809040920132688 S
atom 10.1442006624264796 10.2634558387903780 32.9756718668893569 S
atom 4.7177179233830646 4.7142331962097268 38.0445413250049072 S
atom 10.2753171057333557 5.2682724374810883 38.0393092031403128 S
atom 5.2717571662896825 10.2718323763507815 38.0497737552498521 S
atom 9.7128260564268416 9.7093413297052287 38.0445413300291619 S
atom 5.2327141772888766 2.5225299560631274 35.3113042150996250 S
atom 9.6684039196938372 2.5217970672246111 35.8496525849684815 S
atom 4.6648439826550554 7.5253570299077230 35.8601171698209171 S
atom 10.2278223111846316 7.5176381161867916 35.3113042128850267 S
atom 5.3763606732397111 2.5111457320870909 40.8612089275242454 S
atom 9.5970779144282066 2.5122243418041705 40.2479647950706436 S
atom 4.5935179732102416 7.5157842786963833 40.2584293776833420 S
atom 10.3714688054425164 7.5062538608654945 40.8612089285296776 S
atom 2.4683525317397526 4.7617279793742986 35.3165365041740671 S
atom 7.4641930496753561 5.3211463788853113 35.8548848758864125 S
atom 2.4606331341471153 10.3247063165140727 35.8653494615205233 S
atom 7.4634606379538475 9.7568361151219296 35.3165365071147548 S
atom 2.4797364021389199 4.6180814967897614 40.8664412216199153 S
atom 7.4737661159396422 5.3924723855136367 40.2531970871995171 S
atom 2.4702061633494323 10.3960323241845565 40.2636616708493591 S
atom 7.4748445505367389 9.6131896281157534 40.8664412204418070 S
atom 2.7380247374083839 2.3345448999122085 43.0759199600241303 Ba
atom 7.6598972600928246 2.2528574897850753 43.0706876659129065 Ba
atom 2.6563373311704797 7.2564174362751004 43.0811522501391764 Ba
atom 7.7331328603248766 7.3296530418332395 43.0759199582236221 Ba
atom 2.4531290993598391 2.5533070878060915 48.0779568663355263 Ba
atom 7.4411350805360481 2.5377531261598745 48.0727245722999896 Ba
atom 2.4375751380554171 7.5413130656128482 48.0831891600113082 Ba
atom 7.4482372365960750 7.5484152223135004 48.0779568657393668 Ba
atom 5.0188711557472940 4.9857461278568556 45.5635289060802506 Zr
atom 10.0038041704427147 4.9671192083714546 45.5582966661819100 Zr
atom 5.0002442300097742 9.9706791568825039 45.5687612171851271 Zr
atom 10.0139792879415097 9.9808542698413127 45.5635289168526896 Zr
atom 4.8855681359552463 5.1190491359389689 50.5923848206704108 Zr
atom 9.8705011727500196 5.1004222159828378 50.5871525387697147 Zr
atom 4.8669412218467736 10.1039821577103890 50.5976170979757498 Zr
atom 9.8806762791571998 10.1141572707247605 50.5923848111240773 Zr
atom 5.2371746766902723 5.3203640315589604 43.0577967868836637 S
atom 9.6691862723799993 4.7488156867723514 43.0525644340843243 S
atom 4.6656263303985801 9.7523756241363984 43.0630289956886472 S
atom 10.2322828083387574 10.3154721641979350 43.0577967744093399 S
atom 4.6901707169378897 4.7903487012394645 48.0779568056474602 S
atom 10.1992016015933622 5.2958196481526141 48.0727244867932484 S
atom 5.1956416625042188 10.2993795862162276 48.0831891477948474 S
atom 9.6852788469864244 9.7854568317702046 48.0779568037523859 S
atom 5.3722855121377906 2.4937720476379068 45.2915823832452347 S
atom 9.6480231689334826 2.4928055921681271 45.8350551462361011 S
atom 4.6444632275772024 7.4963654890130416 45.8455197346050269 S
atom 10.3673936433702814 7.4888801401155005 45.2915823837093399 S
atom 4.5219786715451713 2.5972881927896916 50.8590990302003050 S
atom 10.2449090915229029 2.5898027911987294 50.3051616702547051 S
atom 5.2413491502299383 7.5933627653768756 50.3156262575275264 S
atom 9.5170867971102737 7.5923963603504143 50.8590990325104855 S
atom 2.4971102228665383 4.6221566587043537 45.2968146764890065 S
atom 7.4931847632406168 5.3415271324886149 45.8402874391709290 S
atom 2.4896247961974227 10.3450870729005580 45.8507520260661749 S
atom 7.4922183839650778 9.6172647855305691 45.2968146748377194 S
atom 2.3935940575388726 5.4724635006039843 50.8643313243700064 S
atom 7.3961875118145963 4.7446412085624798 50.3103939618344782 S
atom 2.3926276262921080 9.7482011503083132 50.3208585506150214 S
atom 7.3887021401911728 10.4675716311059723 50.8643313235106120 S
atom 2.2343669105816621 2.8382027262939573 53.0799937334976875 Ba
atom 7.1562394530635203 2.7565153161974485 53.0747614422201224 Ba
atom 2.1526795059234933 7.7600752453226134 53.0852260266244329 Ba
atom 7.2294750532773380 7.8333108493395125 53.0799937359029528 Ba
atom 2.5974459146457467 2.3371943779790874 58.0620848245749386 Ba
atom 7.6572477866978774 2.3934363142181483 58.0568525333835908 Ba
atom 2.6536878555643759 7.3969962572395920 58.0673171169263895 Ba
atom 7.5925540392646935 7.3323025152681565 58.0620848245949048 Ba
atom 4.9148608803427827 5.0681948013679117 55.6154139183144380 Zr
atom 9.9213555005748386 5.0711294748484592 55.6101815541155915 Zr
atom 4.9177955607337651 10.0746894120731110 55.6206461895516853 Zr
atom 9.9099690172852100 10.0633029267769523 55.6154139142632076 Zr
atom 4.9135657717533148 5.0808133391742381 60.6734258323508087 Zr
atom 9.9087369581837894 5.0724246171755691 60.6681935424583756 Zr
atom 4.9051770244388271 10.0759845510943240 60.6786581157269751 Zr
atom 9.9086738969534824 10.0759214679413116 60.6734258371081836 Zr
atom 5.2201860428092717 5.3373526585025779 53.0981170137447975 S
atom 9.6521976403713463 4.7658043154637832 53.0928847346667965 S
atom 4.6486377032810617 9.7693642574685651 53.1033492821833946 S
atom 10.2152941754643596 10.3324607900407681 53.0981170272366896 S
atom 4.6140552063209057 4.8178959054345354 58.1113722717183876 S
atom 10.1716543938432284 5.3719351507598923 58.1061401011482488 S
atom 5.1680944552879424 10.3754950910547397 58.1166046533071352 S
atom 9.6091633399749519 9.8130040382877315 58.1113722679635103 S
atom 4.5179035124335218 2.5799144545290136 55.2894725023956113 S
atom 10.2958543400070610 2.5703840900298278 55.8922520495169692 S
atom 5.2922944020629012 7.5739440363592161 55.9027166333986045 S
atom 9.5130116440113763 7.5750225969322136 55.2894725037093906 S
atom 4.6615500036075082 2.5685302840885398 60.8393771860075390 S
atom 10.2245283320975933 2.5608113242652366 60.2905642310072309 S
atom 5.2209683947809795 7.5643712354229571 60.3010288168251734 S
atom 9.6566581399013494 7.5636383855952269 60.8393771824722265 S
atom 2.4109678067983693 5.4765386544891044 55.2947047961119793 S
atom 7.4156062331590045 4.6936959591505225 55.8974843422156340 S
atom 2.4120462915734642 9.6972559000711573 55.9079489252630992 S
atom 7.4060759398286340 10.4716467874979688 55.2947047947314445 S
atom 2.4223517320357204 5.3328921678073957 60.8446094766618302 S
atom 7.4251792473545342 4.7650219703924659 60.2957965248276437 S
atom 2.4216192794933398 9.7685819072021189 60.3062611097831294 S
atom 7.4174598979683655 10.3280003020419358 60.8446094791846974 S
atom 2.2648983755749543 2.6623595154550559 62.8426542969400401 Ba
atom 7.3320826455814458 2.7259838563165091 62.8374220016644287 Ba
atom 2.3285227095096319 7.7295437984008419 62.8478865865005503 Ba
atom 7.2600065050898923 7.6574676507512267 62.8426542949630758 Ba
atom 5.1681697269891371 5.2492705195914739 63.1802418572187392 S
atom 9.7402797879539502 4.8178206434625137 63.1750094897477439 S
atom 4.7367198471446388 9.8213805799444511 63.1854740961628778 S
atom 10.1632778593026440 10.2443786530738485 63.1802418553995935 S
