#=======================================================
# FHI-aims file: full_relax/full_relax_RP_4_RxRyMz_-Rx-RyMz.in
# Created using the Atomic Simulation Environment (ASE)
# Fri Mar 14 11:26:42 2025
#=======================================================
lattice_vector 10.0197858707376515 -0.0463590832329139 -0.0000000000007422 
lattice_vector -0.0463590832329153 10.0197858707367402 -0.0000000000001572 
lattice_vector -0.0000000000034284 -0.0000000000007110 45.8528575302156796 
atom 0.0466994773786921 -0.1484684849786211 0.2316938439608940 Ba
atom 5.1583614200129393 -0.0698790192544453 0.2316938430659356 Ba
atom 0.1252889426999051 4.9631934584428476 0.2316938438258069 Ba
atom 5.0334128712197765 4.8382449095422455 0.2316938431438137 Ba
atom -0.2795978586520481 0.2105026893065168 5.0007952002807370 Ba
atom 4.7993902465362828 0.2564183165630293 5.0007952004183949 Ba
atom -0.2336822312727529 5.2894907935457320 5.0007952003906642 Ba
atom 4.7071155359359222 5.1972160830597742 5.0007952007563157 Ba
atom 2.4634759460363544 2.5113197103628444 2.4021989892051945 Zr
atom 7.4852866172304875 2.5000579057020982 2.4021989897799836 Zr
atom 2.4522141403604389 7.5331303850375644 2.4021989875631684 Zr
atom 7.4501893396923169 7.4980331061714081 2.4021989887629256 Zr
atom 2.4635459901638064 2.5219545674489039 7.4588094819842974 Zr
atom 7.4746517616288610 2.4999878616531821 7.4588094828521045 Zr
atom 2.4415792864575327 7.5330603389149635 7.4588094826526508 Zr
atom 7.4502593818365881 7.5086679611527876 7.4588094821612119 Zr
atom 2.5949031206682487 2.7307109162540679 -0.1027581569097068 S
atom 7.2658954128667226 2.3686307315389654 -0.1027581570595036 S
atom 2.2328229361451637 7.4017032084400709 -0.1027581572438404 S
atom 7.5816165142585010 7.7174243099068818 -0.1027581578351783 S
atom 2.2158276638546868 2.2214651776672123 4.9611319375440690 S
atom 7.7751411520644060 2.7477061884074327 4.9611319358285586 S
atom 2.7420686745623972 7.7807786654783309 4.9611319388463349 S
atom 7.2025410575805751 7.2081785708746473 4.9611319392792756 S
atom 2.7514498491377508 0.0208988861067642 2.2468735166684972 S
atom 7.1873804614183374 0.0008464152785970 2.7529991095359811 S
atom 2.1543079845099529 5.0339188885781549 2.7529991096968263 S
atom 7.7381632433189020 5.0076122774518712 2.2468735164458948 S
atom 2.8674620092480798 0.0130224311291295 7.7740532711207067 S
atom 7.1086538741234619 -0.0062071196779933 7.1589673375804344 S
atom 2.0755813971535346 5.0268653566698935 7.1589673378008873 S
atom 7.8541754036507809 4.9997358250213715 7.7740532713135266 S
atom -0.0440784253229734 2.2584430862619267 2.2468735166831371 S
atom 4.9626874370801382 2.8092258677610089 2.7529991094700090 S
atom -0.0703850373587585 7.8422983446957097 2.7529991097015851 S
atom 4.9426349658459197 7.2451564795944767 2.2468735163857478 S
atom -0.0362019706144792 2.1424309257159910 7.7740532714195130 S
atom 4.9697409694793926 2.8879524550649660 7.1589673378599334 S
atom -0.0633315044648674 7.9210249320871098 7.1589673374485310 S
atom 4.9505114208728811 7.1291443196285078 7.7740532709286851 S
atom 0.2467194996434509 -0.1566330359049593 9.9680125078872077 Ba
atom 5.1665259719495626 -0.2698990418715155 9.9680125077374910 Ba
atom 0.1334534942575352 4.7631734352969355 9.9680125077693216 Ba
atom 5.2334328939467074 4.8300803578899689 9.9680125075546915 Ba
atom -0.2795978577255666 0.2105026893202379 14.9352298119943754 Ba
atom 4.7993902451501080 0.2564183161896674 14.9352298120833655 Ba
atom -0.2336822305977221 5.2894907939657685 14.9352298120192764 Ba
atom 4.7071155348444247 5.1972160839026387 14.9352298116575497 Ba
atom 2.4635459890440243 2.5219545667667447 12.4772155393249307 Zr
atom 7.4746517626134192 2.4999878611325719 12.4772155358390702 Zr
atom 2.4415792864915153 7.5330603392670543 12.4772155398591273 Zr
atom 7.4502593824395484 7.5086679617062480 12.4772155369026709 Zr
atom 2.4634759466346186 2.5113197093400741 17.5338260093844731 Zr
atom 7.4852866168631920 2.5000579043662983 17.5338260133933090 Zr
atom 2.4522141389715149 7.5331303837191594 17.5338260082229631 Zr
atom 7.4501893409235365 7.4980331067127812 17.5338260112893742 Zr
atom 2.7311431630056053 2.8463013689979748 9.9680125014017946 S
atom 7.1503049601169755 2.2323906893267904 9.9680125026509057 S
atom 2.1172324829413225 7.2654631661185540 9.9680125006885199 S
atom 7.7178565569004993 7.8330147625881219 9.9680125033210754 S
atom 2.2158276642672745 2.2214651776164427 14.9748930743661059 S
atom 7.7751411514018942 2.7477061881972760 14.9748930761353893 S
atom 2.7420686745836487 7.7807786645738934 14.9748930749988887 S
atom 7.2025410578695386 7.2081785710816106 14.9748930748136289 S
atom 2.8674620097695871 0.0130224319469262 12.1619717406988030 S
atom 7.1086538741749576 -0.0062071200954932 12.7770576752318341 S
atom 2.0755813968993424 5.0268653560332961 12.7770576749989466 S
atom 7.8541754037274227 4.9997358250531372 12.1619717410082426 S
atom 2.7514498494244548 0.0208988880369799 17.6891514990495793 S
atom 7.1873804613827481 0.0008464155138822 17.1830259060343415 S
atom 2.1543079841748995 5.0339188911694102 17.1830259059358958 S
atom 7.7381632429718810 5.0076122777751708 17.6891514988207099 S
atom -0.0362019718050236 2.1424309257094278 12.1619717409856882 S
atom 4.9697409708382274 2.8879524553681359 12.7770576752843343 S
atom -0.0633315065910121 7.9210249322511119 12.7770576750508251 S
atom 4.9505114224437845 7.1291443192152668 12.1619717408472923 S
atom -0.0440784282793364 2.2584430857615456 17.6891514989750895 S
atom 4.9626874401156194 2.8092258677029465 17.1830259059880852 S
atom -0.0703850394288805 7.8422983442570997 17.1830259060860335 S
atom 4.9426349695427634 7.2451564787498954 17.6891514989999017 S
atom 0.0466994773360828 -0.1484684838524278 19.7043311677747930 Ba
atom 5.1583614194325005 -0.0698790189239450 19.7043311677941944 Ba
atom 0.1252889420634284 4.9631934579136443 19.7043311687512883 Ba
atom 5.0334128715856110 4.8382449096778277 19.7043311689720504 Ba
atom 2.5949031215561091 2.7307109173475346 20.0387831816526614 S
atom 7.2658954122162660 2.3686307311066073 20.0387831769370379 S
atom 2.2328229347278685 7.4017032070302147 20.0387831817320645 S
atom 7.5816165151301274 7.7174243105942084 20.0387831792882771 S
atom 2.4466572194934275 2.6418251805658928 23.1581226132841422 Ba
atom 7.3547811483030259 2.5168766328045069 23.1581226139430534 Ba
atom 2.3217086724085227 7.5499491095678888 23.1581226146878656 Ba
atom 7.4333706123790373 7.6285385742168970 23.1581226151206288 Ba
atom 2.7729545551899304 2.2828540081946023 27.9272239636053037 Ba
atom 7.7137523218312989 2.1905792968211864 27.9272239636426605 Ba
atom 2.6806798451990890 7.2236517731049963 27.9272239626611700 Ba
atom 7.7596679485304740 7.2695674010257347 27.9272239626132688 Ba
atom 5.0165941451389182 4.9687503828543313 25.3286277716193773 Zr
atom 10.0145693411128445 4.9336531048165462 25.3286277689667898 Zr
atom 4.9814968699229034 9.9667255756666133 25.3286277654358543 Zr
atom 10.0033075342324445 9.9554637698264052 25.3286277709946006 Zr
atom 5.0165240996429104 4.9581155221976410 30.3852382294423577 Zr
atom 10.0252042010521301 4.9337231456056116 30.3852382341736487 Zr
atom 4.9921317261708813 9.9667956236398982 30.3852382339317231 Zr
atom 10.0032374913895268 9.9448289165182882 30.3852382292311454 Zr
atom 4.8851669681010277 4.7493591726840192 22.8236705852236881 S
atom 10.2339605496855270 5.0650802766990122 22.8236705901929398 S
atom 5.2008880718222894 10.0981527540987042 22.8236705932889770 S
atom 9.8718803630764640 9.7360725674062305 22.8236705905047721 S
atom 5.2642424259681277 5.2586049129787673 27.8875607190548145 S
atom 9.7247148098853984 4.6860048189075396 27.8875607096341049 S
atom 4.6916423326094412 9.7190772972997816 27.8875607203670803 S
atom 10.2509558205139690 10.2453183068624085 27.8875607123619389 S
atom 5.3257621062312346 2.4461511952008292 25.6794278727325000 S
atom 9.7616927176677777 2.4260987265224419 25.1733022787918763 S
atom 4.7286202394408301 7.4591712087009112 25.1733022774665258 S
atom 10.3124754999124537 7.4328645954569010 25.6794278726762997 S
atom 5.4044886929387905 2.4532047297494408 30.0853961048155405 S
atom 9.6456805579679390 2.4339751829004945 30.7004820379199259 S
atom 4.6126080810842955 7.4670476626664612 30.7004820375700938 S
atom 10.3912020873785185 7.4399181273597037 30.0853961043930802 S
atom 2.5173826496383258 4.6708442217036907 25.6794278731544487 S
atom 7.5241485233782859 5.2216270048091333 25.1733022785181966 S
atom 2.4910760393677225 10.2546994830752105 25.1733022778828897 S
atom 7.5040960497550984 9.6575576172760460 25.6794278720946245 S
atom 2.5103291199094429 4.5921176355257813 30.0853961039068949 S
atom 7.5162720618726873 5.3376391650763733 30.7004820375688219 S
atom 2.4831995906500870 10.3707116417271941 30.7004820380749734 S
atom 7.4970425077781284 9.5788310301145856 30.0853961053225376 S
atom 2.2466371971120260 2.6499897342627166 32.8944412705315870 Ba
atom 7.3466165956785510 2.7168966553542209 32.8944412708329565 Ba
atom 2.3135441191493316 7.7499691309371306 32.8944412712646255 Ba
atom 7.2333505905118560 7.6367031266852035 32.8944412715279029 Ba
atom 2.7729545551988379 2.2828540065088974 37.8616585792937599 Ba
atom 7.7137523217704134 2.1905792957838988 37.8616585800964742 Ba
atom 2.6806798448576399 7.2236517748979576 37.8616585788508573 Ba
atom 7.7596679488090095 7.2695674022349639 37.8616585796013823 Ba
atom 5.0165241005309795 4.9581155237274812 35.4036443027826024 Zr
atom 10.0252042006466073 4.9337231484754511 35.4036442995295388 Zr
atom 4.9921317244886154 9.9667956212318209 35.4036443056109391 Zr
atom 10.0032374924434215 9.9448289148694542 35.4036443104389846 Zr
atom 5.0165941489767416 4.9687503805480908 40.4602547873158684 Zr
atom 10.0145693388022394 4.9336531015334169 40.4602547882188190 Zr
atom 4.9814968700775575 9.9667255778830679 40.4602547840588613 Zr
atom 10.0033075339721425 9.9554637727297859 40.4602547847687433 Zr
atom 4.7489269277604729 4.6337687215181882 32.8944412768240824 S
atom 10.3495510014166605 5.2013203181556529 32.8944412812687617 S
atom 5.3164785239242738 10.2343927953497325 32.8944412641558515 S
atom 9.7356403213824887 9.6204821154571896 32.8944412779334669 S
atom 5.2642424262967848 5.2586049129879529 37.9013218322338119 S
atom 9.7247148101401653 4.6860048191678487 37.9013218391443090 S
atom 4.6916423318944069 9.7190772962721734 37.9013218364490072 S
atom 10.2509558200725959 10.2453183068616944 37.9013218250332855 S
atom 5.4044886931073552 2.4532047363309939 35.7034864395082963 S
atom 9.6456805585421890 2.4339751808262204 35.0884005055918990 S
atom 4.6126080808794629 7.4670476568585311 35.0884005062067743 S
atom 10.3912020869362305 7.4399181286480918 35.7034864383745401 S
atom 5.3257621054246744 2.4461512004819053 40.1094546687433180 S
atom 9.7616927182729487 2.4260987307547035 40.6155802634041834 S
atom 4.7286202402854736 7.4591712022064893 40.6155802622989412 S
atom 10.3124755001960011 7.4328645911166911 40.1094546695727630 S
atom 2.5103291185175163 4.5921176356757964 35.7034864386702324 S
atom 7.5162720624737007 5.3376391646028969 35.0884005055289165 S
atom 2.4831995821712134 10.3707116422908197 35.0884005061200028 S
atom 7.4970425174227451 9.5788310297364472 35.7034864393924281 S
atom 2.5173826504121379 4.6708442228430327 40.1094546686065954 S
atom 7.5241485203178735 5.2216270044990774 40.6155802620984971 S
atom 2.4910760394803781 10.2546994825279736 40.6155802636025101 S
atom 7.5040960489655610 9.6575576167338202 40.1094546697924628 S
atom 2.4466572194526233 2.6418251809610847 42.6307599335173322 Ba
atom 7.3547811482017043 2.5168766328239052 42.6307599321948913 Ba
atom 2.3217086708926824 7.5499491095828493 42.6307599340114081 Ba
atom 7.4333706131297701 7.6285385748489007 42.6307599323929054 Ba
atom 4.8851669691622934 4.7493591742444412 42.9652119408480146 S
atom 10.2339605488021270 5.0650802757889366 42.9652119363217437 S
atom 5.2008880712865242 10.0981527535960449 42.9652119434365787 S
atom 9.8718803639708899 9.7360725682676623 42.9652119397913097 S
