#=======================================================
# FHI-aims file: full_relax/full_relax_RP_5_RxRyMz_RxRyMz.in
# Created using the Atomic Simulation Environment (ASE)
# Fri Mar 14 11:34:07 2025
#=======================================================
lattice_vector 10.0145622591762162 -0.0585803942826836 -0.0106060211727704 
lattice_vector -0.0585803942827021 10.0145622591739816 0.0106060212020122 
lattice_vector -0.0594038997575483 0.0594038999208928 55.9021319135766603 
atom 0.0570238348540629 -0.1508581225149637 0.2276010030280121 Ba
atom 5.1581392539231326 -0.0863140253712981 0.2222980263349627 Ba
atom 0.1215679387082325 4.9502572910480316 0.2329040232813557 Ba
atom 5.0350147575334709 4.8271327983118839 0.2276010118815905 Ba
atom -0.2819920208706458 0.2074847315354184 5.0080735833075538 Ba
atom 4.7997964028256392 0.2527018022037745 5.0027705778284233 Ba
atom -0.2367749510266111 5.2892731476139092 5.0133765944081974 Ba
atom 4.6959989328331968 5.1854756856521984 5.0080735876103128 Ba
atom 2.4631349506223454 2.5041020587787761 2.4040892573484154 Zr
atom 7.4811700769329885 2.4855658103719973 2.3987863016224371 Zr
atom 2.4445987312972552 7.5221370468495241 2.4093923257010288 Zr
atom 7.4411258938085494 7.4820928967665701 2.4040893735760234 Zr
atom 2.4629981528496896 2.5121305938869347 7.4608112371379605 Zr
atom 7.4731415010335542 2.4857026218914067 7.4555082055247661 Zr
atom 2.4365701999173459 7.5222738802301281 7.4661142014858344 Zr
atom 7.4409890570134660 7.4901214505795890 7.4608111922407083 Zr
atom 2.5889670439010195 2.7250249766492427 -0.1014020939967731 S
atom 7.2602470705080311 2.3597336826014654 -0.1067051585775137 S
atom 2.2236757476314062 7.3963050303636342 -0.0960991202406848 S
atom 7.5669579759344403 7.7030159340742452 -0.1014021710185366 S
atom 2.2169188284149670 2.2137067499458731 4.9652038100715163 S
atom 7.7715653091408088 2.7317819005124870 4.9599008014961825 S
atom 2.7349939759946280 7.7683532452773489 4.9705068066458749 S
atom 7.1949097568320601 7.1916976865529936 4.9652037141160523 S
atom 2.7630725301307830 0.0155920552272461 2.2471499906610002 S
atom 7.1743421872203328 -0.0112488061063116 2.7496644386054836 S
atom 2.1377708710694621 5.0253225328833251 2.7602704579554955 S
atom 7.7410634551442774 4.9935829830094560 2.2471499931346628 S
atom 2.8760533357500986 0.0038677100990051 7.7817027216885259 S
atom 7.1076547695148324 -0.0212460224178515 7.1595298847840878 S
atom 2.0710834606992568 5.0153251772406415 7.1701359150863047 S
atom 7.8540442813467983 4.9818585196570924 7.7817027248529591 S
atom -0.0448822538034117 2.2442085979759652 2.2524530037620654 S
atom 4.9599495184681608 2.8109298644746068 2.7549674521550118 S
atom -0.0766217748164398 7.8475012063680172 2.7655734685989120 S
atom 4.9331086573083400 7.2221995466377207 2.2524530028691983 S
atom -0.0331578598427593 2.1312277856164528 7.7870057284548011 S
atom 4.9699468334815107 2.8776172693426778 7.1648329010852141 S
atom -0.0666243705783723 7.9141886211702106 7.1754389184887870 S
atom 4.9448329564974394 7.1092187259734940 7.7870057395019838 S
atom 0.2617683310011595 -0.1663281059310570 9.9801693626083310 Ba
atom 5.1736092491710028 -0.2910585458949350 9.9748663457993896 Ba
atom 0.1370379004038612 4.7455127864347251 9.9854723705140938 Ba
atom 5.2397592849774544 4.8116628297159396 9.9801693551918884 Ba
atom -0.2882879471975328 0.1928476807196740 14.9761395345847674 Ba
atom 4.8144334377904698 0.2589977300587254 14.9708365280834368 Ba
atom -0.2221379020932820 5.2955690889282234 14.9814425396832007 Ba
atom 4.6897029939190231 5.1708386503421808 14.9761395327909312 Ba
atom 2.4757356712906566 2.5022553093248141 12.4781544216161056 Zr
atom 7.4830167831913768 2.4729650772696892 12.4728513914642232 Zr
atom 2.4464454587191584 7.5095363593719355 12.4834574851525240 Zr
atom 7.4537266091059102 7.4802461878928135 12.4781544612983719 Zr
atom 2.4884731828924567 2.4923799602416601 17.4954977171379689 Zr
atom 7.4928920925795035 2.4602275436011842 17.4901947043647112 Zr
atom 2.4563207905526308 7.4967988837559689 17.5008007519255955 Zr
atom 7.4664640917348750 7.4703709171382684 17.4954977698275300 Zr
atom 2.7375472966591454 2.8339258974212385 9.9749480857052824 S
atom 7.1513461553543705 2.2111534306589742 9.9696450839462312 S
atom 2.1147748323166069 7.2477247674468499 9.9802511387263326 S
atom 7.7155382407096695 7.8119168502387417 9.9749481978162837 S
atom 2.2139240278564754 2.1705846235518775 14.9813607689053363 S
atom 7.8146874380138049 2.7347767006009138 14.9760578246467553 S
atom 2.7781161098857674 7.7713480368696946 14.9866636864622311 S
atom 7.1919149596690639 7.1485755438368876 14.9813606108100217 S
atom 2.8720467086232668 -0.0026341000632272 12.1575734453255180 S
atom 7.1159959486804985 -0.0294267237914632 12.7881294374108485 S
atom 2.0794246313467117 5.0071446254951715 12.7987354559743363 S
atom 7.8500376396440705 4.9753568603132985 12.1575734474194093 S
atom 2.8803878720565126 -0.0108146020274980 17.7861729728504052 S
atom 7.1119893131744520 -0.0359282740596396 17.1640001383692429 S
atom 2.0754179918486413 5.0006427755241587 17.1746061634300524 S
atom 7.8583788265658550 4.9671760430517438 17.7861729752279487 S
atom -0.0266561008385564 2.1352344151693199 12.1628764541910659 S
atom 4.9781274384330878 2.8692761040984776 12.7934324496121246 S
atom -0.0584438483154010 7.9058474393765463 12.8040384660434263 S
atom 4.9513347890461423 7.1132253609433462 12.1628764595570580 S
atom -0.0184755710011119 2.1268932651699433 17.7914759787156207 S
atom 4.9846292639068421 2.8732827296896790 17.1693031592232579 S
atom -0.0519420165092260 7.9098540837470654 17.1799091610396530 S
atom 4.9595153129359906 7.1048841696571676 17.7914759913110778 S
atom 0.2554724064991754 -0.1809651649028986 19.9482353125121321 Ba
atom 5.1882462806981939 -0.2847626496359997 19.9429323108793639 Ba
atom 0.1516749338432557 4.7518087380316798 19.9535383200771079 Ba
atom 5.2334633517539366 4.7970258327996156 19.9482353188974209 Ba
atom -0.0835434216998326 0.1773777406397592 24.7287078657031181 Ba
atom 4.8299033908578952 0.0542532220231971 24.7234048492767471 Ba
atom -0.2066679350899761 5.0908245473103007 24.7340108929400699 Ba
atom 4.8944475111195160 5.1553686754834684 24.7287078869469106 Ba
atom 2.4883363711114113 2.5004084611688198 22.5522196552312693 Zr
atom 7.4848635495884981 2.4603643724303352 22.5469166381590718 Zr
atom 2.4482923179026046 7.4969357528457206 22.5575226007407217 Zr
atom 7.4663271968216041 7.4783994391688795 22.5522195212546421 Zr
atom 2.7345525061984706 2.7908037753936976 19.9911050752606450 S
atom 7.1944682936237694 2.2141482359016194 19.9858019998963812 S
atom 2.1578969499666956 7.2507195473928787 19.9964081146269699 S
atom 7.7125434549784107 7.7687947251157938 19.9911051472787804 S
atom 2.3625042951303712 2.2794855626500281 25.0577109707237611 S
atom 7.7057865154600709 2.5861964335415841 25.0524079980967116 S
atom 2.6692151659463130 7.6227677606426418 25.0630140218867012 S
atom 7.3404952425742840 7.2574764796570843 25.0577110821174465 S
atom 2.8137004520913176 -0.0208119680961029 22.1960384209894563 S
atom 7.2249701435857867 -0.0476527643615318 22.6985528650750652 S
atom 2.1883988008686441 4.9889184209035342 22.7091588850681276 S
atom 7.7916914141115230 4.9571788625729010 22.1960384178086514 S
atom -0.0084781868908398 2.1935806693825985 22.2013414286067530 S
atom 4.9963535690796759 2.7603019247187457 22.7038558705796270 S
atom -0.0402176791091699 7.7968732568265526 22.7144619015126175 S
atom 4.9695126848130275 7.1715715910290241 22.2013414332627868 S
atom 2.5163173635817304 2.3678392969432696 28.1786669825009710 Ba
atom 7.6174327574754805 2.4323834094426449 28.1733639487992740 Ba
atom 2.5808614833479604 7.4689547034003017 28.1839699981441427 Ba
atom 7.4943082494345745 7.3458301922054607 28.1786669648911925 Ba
atom 2.1773014869455158 2.7261821520143026 32.9591395489446413 Ba
atom 7.2590899275989313 2.7713992356899313 32.9538365591891207 Ba
atom 2.2225185642290266 7.8079705594447990 32.9644425623831978 Ba
atom 7.1552924496774599 7.7041730824786709 32.9591395749414531 Ba
atom 4.9224284561655747 5.0227995111819146 30.3551552056021023 Zr
atom 9.9404636277478033 5.0042631962040218 30.3498523551879238 Zr
atom 4.9038921446488670 10.0408344690299334 30.3604582776903698 Zr
atom 9.9004194995646060 10.0007903285922115 30.3551553817000830 Zr
atom 4.9222917244317212 5.0308280196048312 35.4118769240675348 Zr
atom 9.9324349618869441 5.0044000117067480 35.4065739300291966 Zr
atom 4.8958636944005871 10.0409712850981148 35.4171800475204037 Zr
atom 9.9002825830457581 10.0088189062372273 35.4118769932202682 Zr
atom 5.0482605630962576 5.2437223989475914 27.8496637847808373 S
atom 9.7195405965507060 4.8784311062560377 27.8443607687397616 S
atom 4.6829692870136936 9.9150024588790995 27.8549669346391298 S
atom 10.0262514727700385 10.2217133236797828 27.8496638421899121 S
atom 4.6762123497599015 4.7324041731641797 32.9162699876591276 S
atom 10.2308588330628147 5.2504793170099120 32.9109666663995526 S
atom 5.1942875027397735 10.2870506667023136 32.9215725685888145 S
atom 9.6542032681542267 9.7103950990445380 32.9162695375737258 S
atom 5.2223660689320832 2.5342892445637899 30.1982159385327478 S
atom 9.6336357044396213 2.5074485478574706 30.7007303821303061 S
atom 4.5970643919121281 7.5440201296260270 30.7113364069504726 S
atom 10.2003569510975964 7.5122805005519719 30.1982159522000195 S
atom 5.3353468491150196 2.5225653439208178 35.7327687095581510 S
atom 9.5669482780222932 2.4974513648895531 35.1105958294630227 S
atom 4.5303769752297933 7.5340223748047519 35.1212018688732925 S
atom 10.3133378237645577 7.5005559627410472 35.7327687258511517 S
atom 2.4144111046656995 4.7629060158747700 30.2035189481467263 S
atom 7.4192431645425554 5.3296272919481771 30.7060333991521297 S
atom 2.3826717235642976 10.3661986030510160 30.7166394100876694 S
atom 7.3924022034077916 9.7408969659116522 30.2035189659120462 S
atom 2.4261358356102125 4.6499251919930389 35.7380717191489765 S
atom 7.4292401671447772 5.3963146924551539 35.1158988582666680 S
atom 2.3926690852457915 10.4328860546557571 35.1265048619056799 S
atom 7.4041265366014803 9.6279161157806445 35.7380717362377851 S
atom 2.7210618531630528 2.3523692775344123 37.9312351962412606 Ba
atom 7.6329027670593463 2.2276388535179819 37.9259321823221285 Ba
atom 2.5963314160500492 7.2642102298484525 37.9365382051963635 Ba
atom 7.6990528043456328 7.3303602605971943 37.9312351857468073 Ba
atom 2.1710056134282194 2.7115450431645258 42.9272056133416982 Ba
atom 7.2737269294582667 2.7776951103200775 42.9219025855953191 Ba
atom 2.2371556532613028 7.8142665332310495 42.9325086251802475 Ba
atom 7.1489964916661730 7.6895360889545712 42.9272055972286637 Ba
atom 4.9350291885279765 5.0209526763166306 40.4292202700699903 Zr
atom 9.9423102720955274 4.9916624873668622 40.4239170389934799 Zr
atom 4.9057390257425215 10.0282338162489015 40.4345232757149802 Zr
atom 9.9130200721595916 9.9989436058227188 40.4292202290982416 Zr
atom 4.9477666240576426 5.0110773356666458 45.4465642418902149 Zr
atom 9.9521856426771826 4.9789250065341752 45.4412614876923016 Zr
atom 4.9156143105647061 10.0154963486586439 45.4518671814437241 Zr
atom 9.9257576168096087 9.9890682934574926 45.4465643832276811 Zr
atom 5.1968408037255047 5.3526233041542612 37.9260143123566280 S
atom 9.6106396848466034 4.7298508636507970 37.9207116739643482 S
atom 4.5740683409603893 9.7664221787673675 37.9313176088834965 S
atom 10.1748317531197827 10.3306142630261615 37.9260146357643393 S
atom 4.6732175241836451 4.6892820361795318 42.9324264110583442 S
atom 10.2739809551961017 5.2534741358357282 42.9271232743163864 S
atom 5.2374096489970947 10.2900454694391019 42.9377291503140484 S
atom 9.6512084605435984 9.6672729359161735 42.9324260707081820 S
atom 5.3313402010855162 2.5160633053501993 40.1086394702388702 S
atom 9.5752894955622079 2.4892708081964043 40.7391953992943812 S
atom 4.5387181462169295 7.5258420528243573 40.7498014174011161 S
atom 10.3093311313422031 7.4940541626386032 40.1086394951087613 S
atom 5.3396813897854702 2.5078829788667254 45.7372388588827832 S
atom 9.5712828051076215 2.4827692414571350 45.1150659859664671 S
atom 4.5347114995866074 7.5193400216516046 45.1256720155632536 S
atom 10.3176723330544036 7.4858733569983507 45.7372388445824711 S
atom 2.4326372598205226 4.6539318692826948 40.1139424929941768 S
atom 7.4374211282380598 5.3879734934348607 40.7444984089276616 S
atom 2.4008496294853554 10.4245448448357330 40.7551044290804541 S
atom 7.4106283487014437 9.6319227936151339 40.1139424957594741 S
atom 2.4408179802283847 4.6455906975746633 45.7425418415716365 S
atom 7.4439227738672011 5.3919801520685056 45.1203690150407510 S
atom 2.4073514602501969 10.4285515303321699 45.1309750049532070 S
atom 7.4188088679829960 9.6235815721740945 45.7425418856531323 S
atom 2.7147658957379517 2.3377322379684626 47.8993013188275540 Ba
atom 7.6475398476458061 2.2339347767188729 47.8939982913946309 Ba
atom 2.6109684318079553 7.2705061407089131 47.9046043161340975 Ba
atom 7.6927569119850316 7.3157232171038711 47.8993012886383980 Ba
atom 2.3757500773638522 2.6960751572194490 52.6797736949414102 Ba
atom 7.2891969508339338 2.5729506700834262 52.6744707118300326 Ba
atom 2.2526255770700558 7.6095219533908756 52.6850767291142077 Ba
atom 7.3537410494912745 7.6740660363278561 52.6797737446475765 Ba
atom 4.9476297126230504 5.0191057761124513 50.5032852124858920 Zr
atom 9.9441572091005614 4.9790617854473300 50.4979820930937180 Zr
atom 4.9075856455901210 10.0156332432873700 50.5085880478220943 Zr
atom 9.9256208420207788 9.9970968827359474 50.5032850133222055 Zr
atom 5.1938460128022550 5.3095011780960393 47.9421707491543359 S
atom 9.6537618062486228 4.7328456832802912 47.9368676324864538 S
atom 4.6171905021442665 9.7694169763134528 47.9474741996814657 S
atom 10.1718369343619131 10.2874921301148134 47.9421709079112048 S
atom 4.8217978171802676 4.7981829587645786 53.0087772829903869 S
atom 10.1650800333433509 5.1048938795421037 53.0034743518973812 S
atom 5.1285087099961961 10.1414651788505594 53.0140802270514300 S
atom 9.7997887018689500 9.7761738675057011 53.0087774328600290 S
atom 5.2729939809098409 2.4978851747151691 50.1471044629288940 S
atom 9.6842636040558023 2.4710446296761264 50.6496189341645220 S
atom 4.6476923254394364 7.5076161647494892 50.6602249251254406 S
atom 10.2509849232575938 7.4758762853645457 50.1471044557949526 S
atom 2.4508153887318045 4.7122780843901682 50.1524074732676226 S
atom 7.4556470586725387 5.2789993847015024 50.6549219455725463 S
atom 2.4190761986620064 10.3155706447716256 50.6655279322823802 S
atom 7.4288059057251443 9.6902689968899782 50.1524074644826783 S
