#=======================================================
# FHI-aims file: full_relax/full_relax_RP_1_RxRyMz_-Rx-Ry-Mz.in
# Created using the Atomic Simulation Environment (ASE)
# Fri Mar 14 11:17:16 2025
#=======================================================
lattice_vector 10.0858340682478058 0.2044642146131678 -0.0009255820626377 
lattice_vector 0.2044642146131298 10.0858340682463954 0.0009255820599233 
lattice_vector 0.0014275557574068 -0.0014275557619970 15.5513170566255585 
atom -0.1071950538663906 -0.1072347935981859 0.2366436966705961 Ba
atom 5.1501518275580906 0.2094271609868815 0.2361809053020078 Ba
atom 0.2094669004272291 5.1501120878107329 0.2371064874562922 Ba
atom 5.0379540877080728 5.0379143482878739 0.2366436965527735 Ba
atom 0.1076411649269239 0.1067886819732315 4.6231428840276108 Ba
atom 4.9361283520411021 -0.0054090576203081 4.6226800927376521 Ba
atom -0.0045565749144128 4.9352758693614858 4.6236056749189620 Ba
atom 5.2527903062398495 5.2519378235960739 4.6231428833766692 Ba
atom 2.5727976263260746 2.5723515151798302 2.4298932901634629 Zr
atom 7.6157146605171731 2.6745836225558666 2.4294304988568314 Zr
atom 2.6750297337390574 7.6152685493558980 2.4303560808994771 Zr
atom 7.7179467678061773 7.7175006566180677 2.4298932902577137 Zr
atom 2.7865318270866770 2.7865578835541278 -0.1074765678664619 S
atom 7.4015082919137676 2.4608494216346464 -0.1079393592151465 S
atom 2.4608233652938156 7.4015343486157654 -0.1070137770472937 S
atom 7.9316809687218335 7.9317070251394561 -0.1074765685169057 S
atom 2.3590634254866520 2.3581451468190502 4.9672631486156114 S
atom 7.8299210288045886 2.8883178232981139 4.9668003578795616 S
atom 2.8892361020352837 7.8290027499105053 4.9677259396851117 S
atom 7.5042125669193931 7.5032942882406326 4.9672631487422727 S
atom 2.5216630683210783 0.0509124941720821 2.2207138701786886 S
atom 7.5646171108089124 0.1531056085132979 2.6381471276569499 S
atom 2.6239321843520615 5.0937905356561179 2.6390727097591586 S
atom 7.6668122100840357 5.1960616356445932 2.2207138703829155 S
atom 0.0513196127229943 2.5212539655981265 2.2211766613482511 S
atom 5.0942756398830191 2.6234490649560707 2.6386099187056993 S
atom 0.1535907127169431 7.5641339918466421 2.6395355006865153 S
atom 5.1964687542071681 7.6664031068625569 2.2211766614925303 S
atom 2.6805231416683091 2.6790558462938523 8.0123022248913873 Ba
atom 7.5090103291323143 2.5668581066605376 8.0118394336530052 Ba
atom 2.5683254019480861 7.5075430337676252 8.0127650156420529 Ba
atom 7.8256722837795030 7.8242049883809202 8.0123022241378656 Ba
atom 2.4664996662848746 2.4642196278607624 12.3988014113823315 Ba
atom 7.7238465477617044 2.7808815822265323 12.3983386205703372 Ba
atom 2.7831616204674856 7.7215665088903034 12.3992642033842611 Ba
atom 7.6116488081777112 7.6093687696880421 12.3988014123609958 Ba
atom 5.1460859752037811 5.1442123083983242 10.2055518185035154 Zr
atom 10.1890030093729074 5.2464444153915331 10.2050890270807084 Zr
atom 5.2483180824747668 10.1871293421010325 10.2060146092430024 Zr
atom 10.2912351163265239 10.2893614495429464 10.2055518183979199 Zr
atom 4.9318796068441033 4.9304781074795541 7.6681819601715482 S
atom 10.4027372096738322 5.4606507836337004 7.6677191685487696 S
atom 5.4620522827193581 10.4013357101792163 7.6686447512494835 S
atom 10.0770287477817302 10.0756272483319922 7.6681819604739525 S
atom 5.3602923429516203 5.3579465081672355 12.7429216764250626 S
atom 9.9752688083227063 5.0322380466870591 12.7424588866994206 S
atom 5.0345838819592741 9.9729229743755976 12.7433844677228496 S
atom 10.5054414845973483 10.5030956503596435 12.7429216756306598 S
atom 5.0949884252766626 2.6227342942228482 10.4142684477436287 S
atom 10.1378684515889379 2.7250053948454309 9.9959096079910950 S
atom 5.1971835248483877 7.6656903212367533 9.9968351894752274 S
atom 10.2401375663259486 7.7678834355634567 10.4142684469406035 S
atom 2.6246469536050387 5.0930777498150235 10.4147312384797779 S
atom 7.6675249952971436 5.1953468659679265 9.9963723985239401 S
atom 2.7268400685712386 10.1360317926841343 9.9972979806204147 S
atom 7.7697960955801353 10.2382268915940529 10.4147312384972253 S
