#=======================================================
# FHI-aims file: full_relax/full_relax_RP_5_RxRyRz_RxRyRz.in
# Created using the Atomic Simulation Environment (ASE)
# Fri Mar 14 11:34:25 2025
#=======================================================
lattice_vector 9.9848047750962987 0.0050240261329333 0.0054324390721063 
lattice_vector 0.0050240261329650 9.9848047755127816 -0.0054324395787207 
lattice_vector 0.0315885439624492 -0.0315885467847474 56.2239615845972480 
atom 0.0246634363441583 -0.1305226530942231 0.2200571916543477 Ba
atom 5.1229249204282041 -0.0221513804366239 0.2227742094534015 Ba
atom 0.1330344345473164 4.9677389411605413 0.2173419468104565 Ba
atom 5.0195779795886644 4.8643918341045254 0.2200582070467424 Ba
atom -0.2418141835843778 0.1850056512803584 5.0081203323174188 Ba
atom 4.8073965622174244 0.2443262752904835 5.0108364067255264 Ba
atom -0.1824937263975496 5.2342167461936189 5.0054037365164064 Ba
atom 4.7531000833549495 5.1799201932567485 5.0081199128793434 Ba
atom 2.4716354166601753 2.5157588820704224 2.3940989483800243 Zr
atom 7.4715586285211497 2.5257930893798166 2.3968145913395915 Zr
atom 2.4816687453970436 7.5156812183349055 2.3913824482394768 Zr
atom 7.4665488563394815 7.5106706562305581 2.3940988068333406 Zr
atom 2.4298017948484483 2.5309524233304392 7.4768428740994928 Zr
atom 7.4563645213585623 2.5676243463382207 7.4795597867803405 Zr
atom 2.4664740561855618 7.5575148277067337 7.4741269025813910 Zr
atom 7.4247161321766759 7.5258668164567846 7.4768430181255123 Zr
atom 2.6011545991353722 2.7102534423771862 -0.1150849393719315 S
atom 7.2770632629522929 2.3962715884806052 -0.1123694963756151 S
atom 2.2871728605187873 7.3861624808936730 -0.1178007273293208 S
atom 7.5960690424782671 7.7051682186730028 -0.1150850627847465 S
atom 2.2598217061523642 2.2838236001934846 4.9678553804825789 S
atom 7.7034932801825731 2.7376046176159403 4.9705715314713617 S
atom 2.7136027047716764 7.7274952250799762 4.9651394192901144 S
atom 7.2547360870141766 7.2787380879554435 4.9678554407242554 S
atom 2.7456549294656760 0.0301426698461857 2.2746262947833871 S
atom 7.1648874384824426 0.0359365514966421 2.7222071967815111 S
atom 2.1749970688221874 5.0258267095856777 2.7167744653761581 S
atom 7.7405693796993846 5.0250575108603979 2.2746265600818707 S
atom 2.9314864957316185 0.0357649355644944 7.6939328689009105 S
atom 7.0222006934268233 0.0395439379102172 7.2971248639479365 S
atom 2.0323103315287097 5.0294340750932198 7.2916925030074724 S
atom 7.9264008782411333 5.0306792584254838 7.6939328198625283 S
atom -0.0276309276476931 2.2467472728586366 2.2719103984478468 S
atom 4.9614891902918785 2.8224292586060380 2.7194908431944049 S
atom -0.0284003244431112 7.8123200178999719 2.7140583200825108 S
atom 4.9672837518127588 7.2416619506728344 2.2719100823420781 S
atom -0.0332530006049161 2.0609159360259435 7.6912165650459734 S
atom 4.9578825104492301 2.9651160609272691 7.2944086896000382 S
atom -0.0320075648481985 7.9550065170616309 7.2889762137090566 S
atom 4.9616616589221589 7.0558302996065239 7.6912166570176108 S
atom -0.0156563973809553 -0.0771009338156668 10.0237399088021153 Ba
atom 5.0695032931567656 0.0181683744807464 10.0264560969572116 Ba
atom 0.0796129136763023 5.0080588182589727 10.0210237512095670 Ba
atom 4.9792580379627189 4.9178135660339768 10.0237399673868488 Ba
atom 0.0297584673756065 0.0629990800423614 15.0762424800826889 Ba
atom 4.9294032719457554 -0.0272463858203509 15.0789587618556418 Ba
atom -0.0604869790943110 4.9626439727253286 15.0735262815796798 Ba
atom 5.0246727103065627 5.0579134137463351 15.0762425701736671 Ba
atom 2.5045088814098233 2.4904067716996692 12.5499932306669386 Zr
atom 7.4969102981390172 2.4929176850531616 12.5527092001278913 Zr
atom 2.5070198102703500 7.4828076330903679 12.5472770095013466 Zr
atom 7.4994233925963227 7.4853204865227934 12.5499928081346788 Zr
atom 2.5792151381054618 2.4498595721606637 17.6231347672829379 Zr
atom 7.5374574359674149 2.4182121270369268 17.6258510549181544 Zr
atom 2.5475673129863918 7.4081013018767718 17.6204180383863580 Zr
atom 7.5741290084829247 7.4447735970949918 17.6231350539910210 Zr
atom 2.6302738079909980 2.6740780115705967 10.0171103740010938 S
atom 7.3132387812230411 2.3671525790296122 10.0198270182414308 S
atom 2.3233483679376374 7.3570430646423821 10.0143938403396433 S
atom 7.6251881320380068 7.6689923912740721 10.0171104600471068 S
atom 2.3787430080641681 2.3067342103014719 15.0828757134220517 S
atom 7.6805825148359723 2.6186833890521228 15.0855915055971757 S
atom 2.6906920631989588 7.6085737810418612 15.0801594390278169 S
atom 7.3736573988182190 7.3016488601201157 15.0828758798905334 S
atom 2.0303834420584002 -0.0061218689517439 12.4398723157700903 S
atom 7.9685232282946474 -0.0029553869448576 12.6655413251070126 S
atom 2.9786328720656661 4.9869344260726676 12.6601088254135590 S
atom 7.0252979530141761 4.9887926375094604 12.4398723308541967 S
atom 2.9767063735854027 -0.0486206887774754 17.8082907973966691 S
atom 7.0674208540624122 -0.0448424948466034 17.4114829627331673 S
atom 2.0775305089328393 4.9450493680374468 17.4060506720382442 S
atom 7.9716207603507048 4.9462931982314409 17.8082907328745144 S
atom 0.0086334702378551 2.9620187702991005 12.4371561072446450 S
atom 5.0003827396607798 2.0187934999998318 12.6628250159674796 S
atom 0.0104916182591129 7.0086839358670048 12.6573926617751269 S
atom 5.0035485495344405 7.9569333097538264 12.4371561344710155 S
atom 0.0511327812993930 2.0156959550026716 17.8055745565919672 S
atom 5.0422678971335699 2.9198959090313674 17.4087668796184474 S
atom 0.0523774853514622 7.9097863748749813 17.4033343230002764 S
atom 5.0460475485449319 7.0106105233064708 17.8055745416097473 S
atom 0.2559161014776899 -0.1991075397360967 20.0918630253720778 Ba
atom 5.1915101579175156 -0.2534041850168097 20.0945789903744085 Ba
atom 0.2016196841151283 4.7364860583159532 20.0891464607139909 Ba
atom 5.2508306359926396 4.7958067040540842 20.0918623700161980 Ba
atom -0.0105618363137760 0.1164202692375829 24.8799258022191232 Ba
atom 4.8759823303006726 0.0130738417518618 24.8826420502733683 Ba
atom -0.1139080358442201 5.0029640513649793 24.8772099579707877 Ba
atom 4.9843525583743622 5.1113344708282131 24.8799266407036619 Ba
atom 2.5373815386888148 2.4650565071917327 22.7058833806088352 Zr
atom 7.5222605061052752 2.4600423333860246 22.7086001064679905 Zr
atom 2.5323682024266088 7.4499341364419944 22.7031673474125952 Zr
atom 7.5322986212432257 7.4599730825765214 22.7058828824573133 Zr
atom 2.7491949806134008 2.6969886841081707 20.1321281520444160 S
atom 7.2903278781290437 2.2482316846327572 20.1348440015561110 S
atom 2.3004377518529675 7.2381216944841436 20.1294117792181702 S
atom 7.7441092635005084 7.6919032017382891 20.1321279661600414 S
atom 2.4078612325855233 2.2705581694275598 25.2150718804337650 S
atom 7.7167584178708957 2.5895654596065030 25.2177881765156862 S
atom 2.7268685056513089 7.5794555510486736 25.2123566584529790 S
atom 7.4027753152768287 7.2654723585874299 25.2150732752927382 S
atom 2.8340193555328370 -0.0450144499176492 22.3832071726796542 S
atom 7.2532515989588466 -0.0392229377206717 22.8307878320595350 S
atom 2.2633615350973328 4.9506681124394269 22.8253553220023591 S
atom 7.8289335215980671 4.9498995310033846 22.3832070976914608 S
atom 0.0475277181483631 2.1583832882212466 22.3804910761564244 S
atom 5.0366491420146460 2.7340651742020956 22.8280716244567294 S
atom 0.0467584027359511 7.7239551608496493 22.8226390032221111 S
atom 5.0424407614675424 7.1532973126742174 22.3804907718290877 S
atom 2.5379152602510833 2.3511408994948133 28.3320388612628982 Ba
atom 7.6361760223688062 2.4595110877973938 28.3347551207932611 Ba
atom 2.6462853190882911 7.4494014525973151 28.3293221114279170 Ba
atom 7.5328299213031036 7.3460552876879142 28.3320385318768011 Ba
atom 2.2714372526578575 2.6666686783692160 33.1201006774821423 Ba
atom 7.3206483435495855 2.7259888538926038 33.1228166619125588 Ba
atom 2.3307580168935371 7.7158794413474681 33.1173845083608924 Ba
atom 7.2663515813296060 7.6615832617639512 33.1201008908909600 Ba
atom 4.9848843751826166 4.9974167785437391 30.5060820554457948 Zr
atom 9.9848129443955322 5.0074554306416124 30.5087967827199087 Zr
atom 4.9949231548538657 9.9973481484369646 30.5033650762790458 Zr
atom 9.9797988462590794 9.9923332817022530 30.5060811953457680 Zr
atom 4.9430519875595404 5.0126170246171293 35.5888285556488668 Zr
atom 9.9696170839228682 5.0492863912946024 35.5915458602742945 Zr
atom 4.9797267865940906 10.0391769258101551 35.5861127354410627 Zr
atom 9.9379661976361557 10.0075313923780040 35.5888283333224109 Zr
atom 5.1144068201652280 5.1919175526431944 27.9968873520781365 S
atom 9.7903138426070591 4.8779341682645319 27.9996051914689339 S
atom 4.8004235897815262 9.8678242271642702 27.9941731655934234 S
atom 10.1093212108119648 10.1868314916891602 27.9968890646102118 S
atom 4.7730731592118527 4.7654867514211094 33.0798356431715490 S
atom 10.2167447020854603 5.2192681198025745 33.0825510471844240 S
atom 5.2268542919444609 10.2091582786104578 33.0771178763586278 S
atom 9.7679876675642205 9.7604008626352634 33.0798362508365713 S
atom 5.2589063610985676 2.5118067838143237 30.3866085408350131 S
atom 9.6781388685081602 2.5175988952311155 30.8341892127339925 S
atom 4.6882483764871683 7.5074894120441460 30.8287569296187201 S
atom 10.2538209550610500 7.5067219935061598 30.3866084107108030 S
atom 5.4447379679667440 2.5174254024491782 35.8059134122874170 S
atom 9.5354523939764491 2.5212068253893114 35.4091054223004207 S
atom 4.5455619522506190 7.5110968164395411 35.4036730809356470 S
atom 10.4396524092889891 7.5123397161031296 35.8059131927356802 S
atom 2.4856202710388309 4.7284104942991352 30.3838923553756288 S
atom 7.4747411300051168 5.3040925958469005 30.8314731606930579 S
atom 2.4848508799880227 10.2939826177009675 30.8260405203007544 S
atom 7.4805336003882017 9.7233246112297884 30.3838921638951724 S
atom 2.4799970775807951 4.5425795055816982 35.8031968423468783 S
atom 7.4711347699872830 5.4467794623268020 35.4063890688384291 S
atom 2.4812445069140017 10.4366698186066689 35.4009568501587282 S
atom 7.4749118553974663 9.5374938394664692 35.8031971093672823 S
atom 2.4975951059648107 2.4045620292136434 38.1357208517573483 Ba
atom 7.5827549764658819 2.4998314155368209 38.1384369231706657 Ba
atom 2.5928645642969474 7.4897216029829980 38.1330045725178763 Ba
atom 7.4925095469270335 7.3994763316139966 38.1357208853097447 Ba
atom 2.5430098820955274 2.5446618730261199 43.1882235320515306 Ba
atom 7.4426550345271627 2.4544166110059820 43.1909394177665789 Ba
atom 2.4527645669757039 7.4443069022460300 43.1855070946657591 Ba
atom 7.5379244535871077 7.5395762391833712 43.1882233055854172 Ba
atom 5.0177597785148711 4.9720678522680943 40.6619699027320181 Zr
atom 10.0101614080767884 4.9745825733239624 40.6646848606602163 Zr
atom 5.0202712538843590 9.9644723515288689 40.6592527025215489 Zr
atom 10.0126739926405719 9.9669814132749224 40.6619705530584454 Zr
atom 5.0924653549713526 4.9315240178908626 45.7351200156328801 Zr
atom 10.0507109780170225 4.8998747658833679 45.7378374776679024 Zr
atom 5.0608193334868474 9.8897639972448221 45.7324053688844927 Zr
atom 10.0873793801302281 9.9264387863103796 45.7351190632401554 Zr
atom 5.1435252420518101 5.1557410063093991 38.1290885391420815 S
atom 9.8264904824508115 4.8488158125756291 38.1318063661554305 S
atom 4.8366001212750636 9.8387063265453119 38.1263727644516806 S
atom 10.1384396182622663 10.1506553812514131 38.1290877756987001 S
atom 4.8919946218585855 4.7883973653826084 43.1948551819742050 S
atom 10.1938344606971860 5.1003469206286223 43.1975699927753496 S
atom 5.2039437579693448 10.0902370082440669 43.1921382903385620 S
atom 9.8869087854363578 9.7833121078236864 43.1948551363951125 S
atom 4.5436350797105378 2.4755410294096425 40.5518548457574397 S
atom 10.4817749328461751 2.4787080587893833 40.7775238234372495 S
atom 5.4918845176902611 7.4685981307720164 40.7720914514611934 S
atom 9.5385496368015872 7.4704555524340703 40.5518549050572972 S
atom 5.4899581018392274 2.4330411921410557 45.9202711282489773 S
atom 9.5806724684775570 2.4368153049091883 45.5234636554407359 S
atom 4.5907822087220405 7.4267098300345795 45.5180308553323485 S
atom 10.4848724959374504 7.4279553890341816 45.9202714007794555 S
atom 2.5218845907763536 5.4436815073984137 40.5491386344894096 S
atom 7.5136347358313191 4.5004562195578259 40.7748074867901593 S
atom 2.5237436292113338 9.4903466853498166 40.7693752287672453 S
atom 7.5167995176136904 10.4385960123247798 40.5491387204514098 S
atom 2.5643849868140252 4.4973597276729151 45.9175550275916891 S
atom 7.5555161584650303 5.4015598428096974 45.5207472307409660 S
atom 2.5656283882042858 10.3914500997244730 45.5153146381606817 S
atom 7.5592993503601411 9.4922743285703923 45.9175548323072391 S
atom 2.7691679990955147 2.2825552104377649 48.2038440196640536 Ba
atom 7.7047613494049880 2.2282586435930507 48.2065602971102507 Ba
atom 2.7148713490027210 7.2181489714340490 48.2011274352932944 Ba
atom 7.7640820193261888 7.2774695890260759 48.2038442664396811 Ba
atom 2.5026900548978070 2.5980834802298607 52.9919057049532327 Ba
atom 7.3892330957696277 2.4947366829203177 52.9946219478096552 Ba
atom 2.3993427800498734 7.4846266093474112 52.9891892330614738 Ba
atom 7.4976045321906497 7.5929974149655317 52.9919053930209003 Ba
atom 5.0506355474177287 4.9467169620126397 50.8178665159749414 Zr
atom 10.0355119773607964 4.9417085308032922 50.8205841019414706 Zr
atom 5.0456231401852687 9.9315994933534899 50.8151498651287312 Zr
atom 10.0455476511720843 9.9416321944147334 50.8178658043019666 Zr
atom 5.2624466018708844 5.1786518484313291 48.2441059659094620 S
atom 9.8035800374498940 4.7298949430904846 48.2468221207860850 S
atom 4.8136891685599617 9.7197851719950901 48.2413903851455430 S
atom 10.2573608177079940 10.1735665543449958 48.2441059047666556 S
atom 4.9211131919190327 4.7522219266629966 53.3270485399077927 S
atom 10.2300095510791440 5.0712274229332515 53.3297623841627839 S
atom 5.2401190353052431 10.0611177309978697 53.3243312110746999 S
atom 9.9160275780930256 9.7471361622143924 53.3270506404986762 S
atom 5.3472708102796123 2.4366471637209330 50.4951889836804071 S
atom 9.7665035623179790 2.4424411239145210 50.9427695899560717 S
atom 4.7766126167336100 7.4323321818806107 50.9373374692366170 S
atom 10.3421855417110020 7.4315618284643703 50.4951889529094942 S
atom 2.5607769554355966 4.6400460233615926 50.4924726789673883 S
atom 7.5498991237664628 5.2157281462209228 50.9400536562353139 S
atom 2.5600083183649680 10.2056184863212280 50.9346209590691927 S
atom 7.5556930279185508 9.6349605083498844 50.4924726459709632 S
