#=======================================================
# FHI-aims file: full_relax/full_relax_RP_5_Rx0Mz_0Ry0.in
# Created using the Atomic Simulation Environment (ASE)
# Fri Mar 14 11:32:23 2025
#=======================================================
lattice_vector 10.0873272061276751 0.0000000000078852 0.0032784651683498 
lattice_vector 0.0000000000078838 10.0904188323472077 -0.0000000000031418 
lattice_vector 0.0179702455845746 -0.0000000000180583 55.0815381864595395 
atom -0.1642735716814571 0.0000000100365913 0.2796746780982368 Ba
atom 5.1877643154478852 0.0000000219011415 0.2804661130284681 Ba
atom 0.1441007195935813 5.0452094062003709 0.2788267890878216 Ba
atom 4.8793900381602020 5.0452093943110015 0.2813140260964974 Ba
atom 0.0014775010152464 -0.0000000039340886 4.9463455793622781 Ba
atom 4.9884877186887389 0.0000000103034383 4.9369316224336313 Ba
atom -0.0551758830756997 5.0452094193909787 4.9352924463870940 Ba
atom 5.0451411005992224 5.0452094053657781 4.9479847388960723 Ba
atom 2.5097812358729508 2.5099132993132622 2.3203450633999676 Zr
atom 7.5534442021145196 2.5352962216533235 2.3219843000423670 Zr
atom 2.5097811703738881 7.5805055539005819 2.3203450977629272 Zr
atom 7.5534442674371443 7.5551225911931397 2.3219843299930756 Zr
atom 2.5114090404150717 2.5214862067888042 7.3328947755627008 Zr
atom 7.5550726316098880 2.5237232401478211 7.3345340003163537 Zr
atom 2.5114089825200980 7.5689326355003175 7.3328947388309489 Zr
atom 7.5550726891265931 7.5666955876677982 7.3345339723400862 Zr
atom 2.5120641921921902 2.8774374101338149 -0.1605958536565164 S
atom 7.5557278636916134 2.1677719886738416 -0.1589566209101664 S
atom 2.5120641980389218 7.2129814359545064 -0.1605958448057327 S
atom 7.5557278577946221 7.9226468296854256 -0.1589566223453563 S
atom 2.5135078855762139 2.0516840397223866 4.8616514357366789 S
atom 7.5571715436227231 2.9935253633291947 4.8632906634643849 S
atom 2.5135078946191234 8.0387347885127269 4.8616513815029343 S
atom 7.5571715344726398 7.0968934723701196 4.8632906203201536 S
atom 2.5125811800269999 -0.0000000809075383 2.0062227547237339 S
atom 7.5504645674756308 -0.0000000544731006 2.7974115408305291 S
atom 2.5068008644420061 5.0452094716801215 2.7957723002517021 S
atom 7.5562448841711634 5.0452094957086739 2.0078619952874237 S
atom 2.5880488666838892 -0.0000000061355657 7.8036549428740321 S
atom 7.5013288680496801 -0.0000000021124775 6.8815506838281575 S
atom 2.4576652602800024 5.0452094172049975 6.8799114555337946 S
atom 7.6317124576155431 5.0452094212255973 7.8052941720522808 S
atom -0.0113459747326755 2.5215602769789447 2.4535025635924965 S
atom 5.0323176406763190 2.5236491202849396 2.4551417795084873 S
atom -0.0113459720911496 7.5688585552180241 2.4535025549114944 S
atom 5.0323176384952450 7.5667697120827446 2.4551417755768545 S
atom -0.0058859477234174 2.4449210612031629 7.3452539664545604 S
atom 5.0377776535103340 2.6002883488243165 7.3468932032873822 S
atom -0.0058859459705842 7.6454977705961493 7.3452539647526640 S
atom 5.0377776528526459 7.4901304836963458 7.3468932019917421 S
atom -0.0164372383545677 0.0000000065620399 9.7859799332026860 Ba
atom 5.0467794692436234 0.0000000185152679 9.8729549268771741 Ba
atom 0.0031158651887012 5.0452094084670147 9.8713157054621608 Ba
atom 5.0272263655612921 5.0452093983187236 9.7876191546725906 Ba
atom 0.0244596736314860 0.0000000169861491 14.8039924787859558 Ba
atom 5.0485701642168914 0.0000000255543066 14.7202959516361442 Ba
atom 0.0049065630702070 5.0452093988726006 14.7186567023040737 Ba
atom 5.0681232748797749 5.0452093914858374 14.8056317197011911 Ba
atom 2.5258429636185116 2.5226047081270355 12.2958058597117148 Zr
atom 7.5695066735590082 2.5226047198258268 12.2974450892866169 Zr
atom 2.5258429260265736 7.5678141176223281 12.2958058309068541 Zr
atom 7.5695067106366691 7.5678141155151408 12.2974450610425379 Zr
atom 2.5402769986737073 2.5237232244977075 17.2587168636022028 Zr
atom 7.5839406038432937 2.5214861846337779 17.2603561050648615 Zr
atom 2.5402769679022019 7.5666956119762192 17.2587168451718540 Zr
atom 7.5839406338581217 7.5689326443887630 17.2603560796166953 Zr
atom 2.5216309074661361 3.0244743182968175 9.8185848101548352 S
atom 7.5652945031775323 2.0207350926665075 9.8202240411787525 S
atom 2.5216309136959270 7.0659445283420848 9.8185849270593906 S
atom 7.5652944960608695 8.0696837245744799 9.8202241600830931 S
atom 2.5300551351593294 2.0207350951186394 14.7730267691015040 S
atom 7.5737187286140824 3.0244743207646749 14.7746660105725791 S
atom 2.5300551400634657 8.0696837136306652 14.7730267337322463 S
atom 7.5737187239912682 7.0659445356843236 14.7746659682053298 S
atom 2.4352415372756711 -0.0000001014852305 11.8248984367484713 S
atom 7.6601080993098432 -0.0000001028685785 12.7683524211499968 S
atom 2.6164445233246956 5.0452095211955905 12.7667131887244327 S
atom 7.4789051130968422 5.0452095169580060 11.8265376703508043 S
atom 2.5940207704718294 -0.0000000734346907 17.7117001893882851 S
atom 7.5073007718737621 -0.0000000678987184 16.7895959269963058 S
atom 2.4636371778272701 5.0452094865772263 16.7879566960147670 S
atom 7.6376843759480124 5.0452094863428263 17.7133394218410167 S
atom 0.0040112150695217 2.6315871196525258 12.2949861987088003 S
atom 5.0476748189892788 2.4136222917726649 12.2966254316676800 S
atom 0.0040112176824186 7.4588317187140341 12.2949861962240874 S
atom 5.0476748181983231 7.6767965339524729 12.2966254285975420 S
atom 0.0139083731332072 2.4449210633184597 17.2447184389211685 S
atom 5.0575719890861013 2.6002883547704747 17.2463576687650786 S
atom 0.0139083758629550 7.6454977660188916 17.2447184407325800 S
atom 5.0575719871208733 7.4901304816319216 17.2463576702629382 S
atom 0.0065449324111962 0.0000000226331944 19.6436268325438270 Ba
atom 5.1068619162956068 0.0000000301397831 19.6563192293670959 Ba
atom 0.0631983139528052 5.0452093935978048 19.6546799568038857 Ba
atom 5.0502085361470010 5.0452093859771434 19.6452661040908403 Ba
atom 0.1722960044127510 0.0000000162735374 24.3102976882515414 Ba
atom 4.9075853169802199 0.0000000222012538 24.3127847631070573 Ba
atom -0.1360782821431111 5.0452093998170238 24.3111455882534635 Ba
atom 5.2159595955522775 5.0452093938454530 24.3119368613952993 Ba
atom 2.5419053061006887 2.5352961543054118 22.2712665017551004 Zr
atom 7.5855685298961166 2.5099132442759222 22.2729057144660167 Zr
atom 2.5419052710802843 7.5551226560570832 22.2712665426325422 Zr
atom 7.5855685656046550 7.5805056087138327 22.2729057587728114 Zr
atom 2.5381781048483645 2.9935253808114339 19.7299602332593800 S
atom 7.5818417398337230 2.0516840396870193 19.7315994706598943 S
atom 2.5381781099909255 7.0968934716158971 19.7299602973275903 S
atom 7.5818417355116861 8.0387347734702370 19.7315995244914895 S
atom 2.5396217893402633 2.1677719924411378 24.7522075460580737 S
atom 7.5832854291706813 2.8774374275568930 24.7538467865053846 S
atom 2.5396217923003084 7.9226468155221950 24.7522074601152404 S
atom 7.5832854262887084 7.2129814292860557 24.7538467114780829 S
atom 2.5448850903088327 -0.0000001238787087 21.7958393443733804 S
atom 7.5827684364052992 -0.0000001609911102 22.5870281188167397 S
atom 2.5391047738687571 5.0452095791680822 22.5853888869723285 S
atom 7.5885487521009756 5.0452095385680558 21.7974785777044673 S
atom 0.0193683913439856 2.5215602876080472 22.1364698553690928 S
atom 5.0630320114236298 2.5236491310768265 22.1381090992360505 S
atom 0.0193683935772842 7.5688585445210110 22.1364698565075351 S
atom 5.0630320083458029 7.5667697013566153 22.1381090977159296 S
atom 2.5388027048426736 2.6770812579805638 27.8267650967947802 Ba
atom 7.5824663476778502 2.3681281481887511 27.8284043230286464 Ba
atom 2.5388027188808722 7.4133375655200897 27.8267650563292541 Ba
atom 7.5824663336084743 7.7222906929096675 27.8284042791945474 Ba
atom 2.5372879448851977 2.4941109546951936 32.4894834734266098 Ba
atom 7.5809515305038424 2.5510984704667954 32.4911227114821131 Ba
atom 2.5372879640827248 7.5963078815674780 32.4894834575047327 Ba
atom 7.5809515112993875 7.5393203579687595 32.4911226956805166 Ba
atom 5.0727455254605029 5.0452092514661171 29.8673648818599560 Zr
atom 10.0908932593444440 5.0452091743134275 29.8692727417165358 Zr
atom 5.0472295687024431 10.0904189972738187 29.8676335619082884 Zr
atom 10.1164091566309722 10.0904190743890467 29.8690040038254736 Zr
atom 5.0592501294373005 5.0452092019426535 34.8783179840576807 Zr
atom 10.1011855821150718 5.0452091141030655 34.8800309486659827 Zr
atom 5.0575219594375733 10.0904190465740378 34.8783916813473027 Zr
atom 10.1029137189318003 10.0904191345104604 34.8799573031322723 Zr
atom 4.7052778520193375 5.0452094384403878 27.3864504496706971 S
atom 10.4599126249741339 5.0452094454303325 27.3886038804116723 S
atom 5.4162490201028461 10.0904188099971748 27.3869646893812302 S
atom 9.7489414357808712 10.0904188029654289 27.3880896572515340 S
atom 5.5333361583638299 5.0452094536069216 32.4082779363901494 S
atom 9.6285196095978680 5.0452094655574520 32.4096578409348837 S
atom 4.5848559903946784 10.0904187950140098 32.4080184178279325 S
atom 10.5769997366625059 10.0904187830214926 32.4099173712247932 S
atom 5.0599273225181660 2.5226167777189477 30.0020086061556732 S
atom 10.1035909150232222 2.5225926530760390 30.0036478359131245 S
atom 5.0599273226895800 7.5678020542018158 30.0020086173945053 S
atom 10.1035909148650305 7.5678261790789119 30.0036478533644768 S
atom 5.0582085793851279 2.5226002630846454 34.8936386397110425 S
atom 10.1018721816657351 2.5226091494375518 34.8952778733755906 S
atom 5.0582085794030212 7.5678185691710915 34.8936386405384127 S
atom 10.1018721816151711 7.5678096826802026 34.8952778751047319 S
atom 2.5379975961203214 5.0452094548433690 30.3436346950212794 S
atom 7.5819043913912179 5.0452094526145581 29.5515371226715367 S
atom 2.5382409546608153 10.0904187958964400 29.5498978958569865 S
atom 7.5816610968381468 10.0904187934307181 30.3452739363621369 S
atom 2.5366113658402898 5.0452094686358633 34.4195509714809162 S
atom 7.5799804772846047 5.0452094652486696 35.3547067398268524 S
atom 2.5363165940918515 10.0904187832942238 35.3530675022164473 S
atom 7.5802752753135039 10.0904187798568419 34.4211901984598114 S
atom 2.5357027322172314 2.5317994843330798 37.3747719362135626 Ba
atom 7.5793663556280553 2.5134099239357699 37.3764111712626459 Ba
atom 2.5357027523416815 7.5586193471631731 37.3747719736031101 Ba
atom 7.5793663355410290 7.5770089091906350 37.3764112085769895 Ba
atom 2.5339535201685619 2.5134099300427000 42.2983778462770843 Ba
atom 7.5776171575295770 2.5317994888654827 42.3000170785796215 Ba
atom 2.5339535374256577 7.5770089033954786 42.2983778430247170 Ba
atom 7.5776171402811352 7.5586193423820305 42.3000170753002465 Ba
atom 5.0566599544719848 5.0452093741672401 39.8373944459120679 Zr
atom 10.1003235283215798 5.0452092907372030 39.8390337032582593 Zr
atom 5.0566599459984101 10.0904188743236940 39.8373944237110251 Zr
atom 10.1003235428406413 10.0904189577663246 39.8390336804799787 Zr
atom 5.0540697765451688 5.0452093483703493 44.7964709752915482 Zr
atom 10.0994615150172979 5.0452092833476909 44.7980366337561406 Zr
atom 5.0557979127251764 10.0904189001284550 44.7963973263797541 Zr
atom 10.0977333486274734 10.0904189652049734 44.7981103276860040 Zr
atom 4.5494851421094760 5.0452094427091208 37.3621307606817794 S
atom 10.6091729563115429 5.0452094549786732 37.3641188223205987 S
atom 5.5655093504708049 10.0904188057979081 37.3624799041173574 S
atom 9.5931487481172404 10.0904187935468244 37.3637696640046073 S
atom 5.5638347326524595 5.0452094303892920 42.3126584856730901 S
atom 9.5914741240326435 5.0452094406590193 42.3139487600541742 S
atom 4.5478105315430204 10.0904188181089065 42.3123093420663636 S
atom 10.6074983579621023 10.0904188078596668 42.3142979178022856 S
atom 5.0566599399113557 2.5226017330388735 39.8373945286587769 S
atom 10.1003235460375294 2.5226076983791841 39.8390337694032013 S
atom 5.0566599399091103 7.5678170992919416 39.8373945278921298 S
atom 10.1003235460458161 7.5678111339536214 39.8390337687920564 S
atom 5.0551113022438559 2.5226002659268780 44.7811504139117034 S
atom 10.0987749080894549 2.5226091479618598 44.7827896405926680 S
atom 5.0551113023159573 7.5678185663770225 44.7811504146600043 S
atom 10.0987749080442306 7.5678096842688367 44.7827896392797768 S
atom 2.5346667240133174 5.0452094340373268 40.3134112397936590 S
atom 7.5786531611443895 5.0452094379842620 39.3613778300502020 S
atom 2.5349898276068989 10.0904188105555459 39.3597385987703916 S
atom 7.5783300525244393 10.0904188144001612 40.3150504745368394 S
atom 2.5333395086402604 5.0452094364460960 44.3200823284943581 S
atom 7.5767083964576099 5.0452094401616785 45.2552380719227898 S
atom 2.5330447258483080 10.0904188084679181 45.2535988361906760 S
atom 7.5770031889300284 10.0904188120064031 44.3217215594103919 S
atom 2.5323683064007003 2.5510984623907884 47.1836663921071775 Ba
atom 7.5760319837678338 2.4941109466295672 47.1853056218676485 Ba
atom 2.5323683184195267 7.5393203678523086 47.1836663690963078 Ba
atom 7.5760319717293854 7.5963078876385168 47.1853055986506291 Ba
atom 2.5308535298660813 2.3681281550798374 51.8463847438411207 Ba
atom 7.5745171831897249 2.6770812802832480 51.8480239776744227 Ba
atom 2.5308535358171662 7.7222906863221654 51.8463847934325415 Ba
atom 7.5745171772949558 7.4133375431470787 51.8480240304003104 Ba
atom 5.0405743176889999 5.0452092125068004 49.8074244220045799 Zr
atom 10.1097538625512033 5.0452091777206727 49.8087948627953949 Zr
atom 5.0660902833270178 10.0904190358285604 49.8071556650344434 Zr
atom 10.0842379688461126 10.0904190706251224 49.8090635248376401 Zr
atom 4.5799837398329011 5.0452094426157634 47.2665110632946792 S
atom 10.5721274947201866 5.0452094500763582 47.2684095396380712 S
atom 5.5284638787999638 10.0904188058403985 47.2667705876394066 S
atom 9.6236473353738923 10.0904187983575291 47.2681500147163547 S
atom 5.4080420173469967 5.0452094424744933 52.2883384180674966 S
atom 9.7407344509480929 5.0452094452513876 52.2894636482745128 S
atom 4.6970708861638935 10.0904188061269977 52.2878242199354446 S
atom 10.4517056551086540 10.0904188033184958 52.2899779088115721 S
atom 5.0533925667980659 2.5226167611654322 49.6727804277158924 S
atom 10.0970561670898711 2.5225926297723711 49.6744196789881443 S
atom 5.0533925670838897 7.5678020712654623 49.6727804168882585 S
atom 10.0970561668102672 7.5678262028022401 49.6744196651024623 S
atom 2.5314156995298420 5.0452094561139891 50.1232519172710340 S
atom 7.5753221153155401 5.0452094559850140 49.3311543325512929 S
atom 2.5316589524500976 10.0904187928810547 49.3295151061945347 S
atom 7.5750787269505491 10.0904187921909436 50.1248911530804548 S
