#=======================================================
# FHI-aims file: full_relax/full_relax_RP_2_RxRyRz_-RxRy0.in
# Created using the Atomic Simulation Environment (ASE)
# Fri Mar 14 11:18:47 2025
#=======================================================
lattice_vector 10.0810486327984243 0.1195043355179084 0.0001186807363471 
lattice_vector 0.1195043355187219 10.0810486328667608 -0.0001186807544379 
lattice_vector -0.0004557519315150 0.0004557518826237 25.5129816906970532 
atom -0.0998348226093832 -0.0997993311804620 0.2830082798295246 Ba
atom 5.1403236478604857 0.1595869919764472 0.2830676176531156 Ba
atom 0.1595515001152482 5.1403591396768187 0.2829489324336170 Ba
atom 5.0004416604662065 5.0004771506138228 0.2830082728212667 Ba
atom 0.0262560143350176 0.0264313050860365 4.9063426326806416 Ba
atom 5.0140930129322738 0.0334961527703164 4.9064019732072195 Ba
atom 0.0333208613820197 5.0142683002653117 4.9062832925773421 Ba
atom 5.1265325010826963 5.1267077884642109 4.9063426331570312 Ba
atom 2.5407407098878330 2.5408822275937082 2.3646992132645686 Zr
atom 7.5999185678173875 2.6192879420821344 2.3647585578661676 Zr
atom 2.6191464229390609 7.6000600964196945 2.3646398773668347 Zr
atom 7.6410171909040114 7.6411587144303486 2.3646992185463378 Zr
atom 2.5407069431614189 2.5409159956370968 7.4479860451101061 Zr
atom 7.5998848013146345 2.6193217097985761 7.4480453831274422 Zr
atom 2.6191126554813677 7.6000938600127128 7.4479267083960412 Zr
atom 7.6409834243530046 7.6411924822893083 7.4479860448992383 Zr
atom 2.7330567930538217 2.7330616342222127 -0.1263111219536313 S
atom 7.4077391668673283 2.4269718596984236 -0.1262517710844360 S
atom 2.4269670177212346 7.4077440069485396 -0.1263704624733341 S
atom 7.8333332765254475 7.8333381164289273 -0.1263111149679932 S
atom 2.2948188020109552 2.2949940923186971 4.9063426480988817 S
atom 7.8458067094376709 2.8652098490428730 4.9064019701199264 S
atom 2.8650345599901894 7.8459819973091367 4.9062832809298182 S
atom 7.3950952868507764 7.3952705761547914 4.9063426312852503 S
atom 2.5202175866719689 0.0299387276630910 2.2328682019646218 S
atom 7.5606856050944753 0.0896969852929293 2.6834471875368329 S
atom 2.5799134566763020 5.0704691416872638 2.6833285089346539 S
atom 7.6204940711285953 5.1302152233581202 2.2328682003969460 S
atom 2.5201314396781167 0.0299887310007360 7.5798764058694790 S
atom 7.5607120550979712 0.0897348041824893 7.1294161008898875 S
atom 2.5799399056080294 5.0705069469481350 7.1292974183201476 S
atom 7.6204079246335388 5.1302652088866090 7.5798764080939893 S
atom 0.0298134456584169 2.5203067296902693 2.2328088590265183 S
atom 5.0703316549811293 2.5801151958448014 2.6833878476278348 S
atom 0.0895595044081434 7.5608873434077752 2.6832691686909573 S
atom 5.1300899294274469 7.6205832137077847 2.2328088616007182 S
atom 0.0297634390889784 2.5203928754896059 7.5798170664365792 S
atom 5.0702938522710106 2.5800887457643125 7.1293567592818361 S
atom 0.0895217091611651 7.5608608939870443 7.1292380785249225 S
atom 5.1300399173344662 7.6206693596946389 7.5798170677253216 S
atom -0.0999746197547702 -0.0996595334104914 9.5296769818346032 Ba
atom 5.1401838494769700 0.1597267878797639 9.5297363252621103 Ba
atom 0.1594117012713918 5.1404989377193075 9.5296176469304967 Ba
atom 5.0003018635717877 5.0006169508238143 9.5296769876387106 Ba
atom 2.7328863443905917 2.7332320824856988 9.9389963843178872 S
atom 7.4075687190764850 2.4271423085372641 9.9390557199955225 S
atom 2.4267965692730193 7.4079144557299674 9.9389370458683626 S
atom 7.8331628290501714 7.8335085653761718 9.9389963849539580 S
atom 2.6496831030881722 2.6502237045074177 13.0395131632767054 Ba
atom 7.4905770947430232 2.5103455500171816 13.0395725059877030 Ba
atom 2.5098049493396739 7.4911176990837633 13.0394538218502163 Ba
atom 7.7499595832333368 7.7505001885996965 13.0395131632126713 Ba
atom 2.5235021011706049 2.5241331396703597 17.6628334784799357 Ba
atom 7.6166676576919432 2.6365265472808876 17.6628928192720096 Ba
atom 2.6358955085151159 7.6172987018968561 17.6627741385610975 Ba
atom 7.6237785866636480 7.6244096298153412 17.6628334792415167 Ba
atom 5.1093386849381055 5.1098699806292425 15.1211972439888971 Zr
atom 10.1312073027229417 5.1509664460592495 15.1212565845113875 Zr
atom 5.1504351552306398 10.1317386034235817 15.1211379043989371 Zr
atom 10.2096151709417953 10.2101464701583442 15.1211972507556744 Zr
atom 5.1092389421105668 5.1099697208502910 20.2044697221207592 Zr
atom 10.1311075578794334 5.1510661934246365 20.2045290578057077 Zr
atom 5.1503354080025918 10.1318383490208515 20.2044103677853357 Zr
atom 10.2095154281047371 10.2102462161891641 20.2044697089389764 Zr
atom 4.9171028540870738 4.9175756783672089 12.6301908182447331 S
atom 10.3235016069787964 5.3432022808761914 12.6302501599594361 S
atom 5.3427294585497371 10.3239744290037834 12.6301314840516223 S
atom 10.0173793401945854 10.0178521621469212 12.6301908277499884 S
atom 5.3552006179740017 5.3558316591425843 17.6628334484492306 S
atom 9.8852456256742549 4.9051045198232455 17.6628928197806800 S
atom 4.9044734771187715 9.8858766665654141 17.6627741399960989 S
atom 10.4554771021937878 10.4561081423735232 17.6628334932661240 S
atom 5.0700938248510763 2.5802906410572657 15.4398967488795797 S
atom 10.1106753400918166 2.6400358383323024 14.9894192006669620 S
atom 5.1299031923872400 7.6208079789924410 14.9893005264102257 S
atom 10.1703703079907370 7.6805671247124696 15.4398967434290881 S
atom 5.0700759356182283 2.5803690598043580 19.8858295501285767 S
atom 10.1105430513255623 2.6401281903828684 20.3364257693680521 S
atom 5.1297709029316589 7.6209003326856370 20.3363070933591636 S
atom 10.1703524202153996 7.6806455334473815 19.8858295465746515 S
atom 2.5797379973453851 5.0707069779173981 15.4398374093260475 S
atom 7.6202693151282626 5.1304019453927010 14.9893598667412569 S
atom 2.6394971356892860 10.1111740917409829 14.9892411782606416 S
atom 7.6800145086912233 10.1709834602338614 15.4398374032303973 S
atom 2.5796596162048333 5.0707248662891287 19.8857702067381901 S
atom 7.6201769235466656 5.1305342332486985 20.3363664323105731 S
atom 2.6394047983893465 10.1113063812192117 20.3362477508676349 S
atom 7.6799360771915355 10.1710013493513518 19.8857702080041214 S
atom 2.6495926636922227 2.6503141443496827 22.2861537963408409 Ba
atom 7.4904866583193561 2.5104359892929407 22.2862131327125432 Ba
atom 2.5097145074484097 7.4912081354465876 22.2860944568589368 Ba
atom 7.7498691492164076 7.7505906268201059 22.2861537957411748 Ba
atom 4.9169446364243621 4.9177338975375253 22.6954761409939856 S
atom 10.3233433898722957 5.3433605004391422 22.6955354840473689 S
atom 5.3425712397107343 10.3241326468539736 22.6954167972242224 S
atom 10.0172211210711719 10.0180103810128642 22.6954761264661116 S
