#=======================================================
# FHI-aims file: full_relax/full_relax_RP_1_RxRyRz_RxRy-Rz.in
# Created using the Atomic Simulation Environment (ASE)
# Fri Mar 14 11:17:14 2025
#=======================================================
lattice_vector 10.0577715367969862 0.1251877056982003 0.0000000000000444 
lattice_vector 0.1251877056981990 10.0577715367969844 -0.0000000000000261 
lattice_vector 0.0000000000000730 -0.0000000000000422 15.6289940404737582 
atom -0.0907992412374604 -0.0908454978823894 0.2364304536315358 Ba
atom 5.1197312663143979 0.1533930941081161 0.2364304535759708 Ba
atom 0.1534393507525582 5.1196850096194719 0.2364304535600443 Ba
atom 5.0006803800120760 5.0006341233167246 0.2364304535533769 Ba
atom 0.0907992412198666 0.0908454978970210 4.6476301840481895 Ba
atom 4.9380402705114497 -0.0282053883927805 4.6476301839339147 Ba
atom -0.0282516450739885 4.9380865271722927 4.6476301839372578 Ba
atom 5.1822788625056972 5.1823251191612822 4.6476301838884861 Ba
atom 2.5457398106181879 2.5457398106215643 2.4420303188237229 Zr
atom 7.5746255790226789 2.6083336634717256 2.4420303188420065 Zr
atom 2.6083336634636889 7.5746255790209993 2.4420303188778480 Zr
atom 7.6372194318726816 7.6372194318653515 2.4420303189004247 Zr
atom 2.6909587902069010 2.6909675998943974 -0.0990304222804703 S
atom 7.4293977897584602 2.4631146838916451 -0.0990304222230152 S
atom 2.4631058742142087 7.4294065994360272 -0.0990304222246243 S
atom 7.7824384114435023 7.7824472211267439 -0.0990304222273842 S
atom 2.4005208310622828 2.4005120213750266 4.9830910597929474 S
atom 7.7198533682733315 2.7535526430500230 4.9830910597904987 S
atom 2.7535614527304206 7.7198445585923805 4.9830910598728089 S
atom 7.4920004522858887 7.4919916426031721 4.9830910599280394 S
atom 2.5145097287421025 0.0312918486683406 2.2904956242189933 S
atom 7.5432618080459592 0.0938958570274049 2.5935650134509753 S
atom 2.5769698925075524 5.0601877726008970 2.5935650134720682 S
atom 7.6059893499875244 5.1227714699240936 2.2904956242133396 S
atom 0.0313020041908296 2.5143760396392443 2.2904956242354877 S
atom 5.0601776170605151 2.5771035816078585 2.5935650134927992 S
atom 0.0938857015053967 7.5433954971332069 2.5935650134346537 S
atom 5.1227816254529746 7.6058556608935897 2.2904956241970660 S
atom 2.4548943127034235 2.4549405693683122 8.0509274739361700 Ba
atom 7.6654248202624116 2.6991791613450031 8.0509274739034993 Ba
atom 2.6991329046852273 7.6654710769431649 8.0509274739057144 Ba
atom 7.5463739339898854 7.5464201906655015 8.0509274738122638 Ba
atom 2.6365853085412563 2.6365390518725622 12.4621272042870093 Ba
atom 7.4838263377774474 2.5174881655687753 12.4621272042609981 Ba
atom 2.5175344222308529 7.4837800811040447 12.4621272042018916 Ba
atom 7.7280649297775179 7.7280186731026506 12.4621272042586035 Ba
atom 5.0914796212352504 5.0914796212504640 10.2565273391263769 Zr
atom 10.1203653896389749 5.1540734741093095 10.2565273391609750 Zr
atom 5.1540734741033667 10.1203653896397743 10.2565273391405523 Zr
atom 10.1829592424879714 10.1829592424791109 10.2565273390291658 Zr
atom 5.2367074104879228 5.2366986008236660 7.7154665981128003 S
atom 9.9751464100816527 5.0088456848475298 7.7154665980894537 S
atom 5.0088544945152131 9.9751376003808598 7.7154665980793338 S
atom 10.3281870317595548 10.3281782220714629 7.7154665980004777 S
atom 4.9462518319842150 4.9462606416642947 12.7975880802673441 S
atom 10.2655843692220774 5.2993012633567584 12.7975880801466122 S
atom 5.2992924536654016 10.2655931788985697 12.7975880801178690 S
atom 10.0377314532423689 10.0377402629214316 12.7975880801149913 S
atom 5.0601158502767296 2.5770418148233678 10.1049926443696076 S
atom 10.0891353077589656 2.6396255121378753 10.4080620336586129 S
atom 5.1228433922128458 7.6059174276809474 10.4080620336207801 S
atom 10.1515954715207819 7.6685214360741254 10.1049926443993510 S
atom 2.5770316593067730 5.0602495393765139 10.1049926443534446 S
atom 7.6059275832238118 5.1227097031251674 10.4080620336228051 S
atom 2.6396356676612420 10.0890016186576847 10.4080620336605723 S
atom 7.6685112805532860 10.1517291606160409 10.1049926444176474 S
