#=======================================================
# FHI-aims file: full_relax/full_relax_RP_8_00Mz1_00Mz2.in
# Created using the Atomic Simulation Environment (ASE)
# Mon Mar 24 15:53:40 2025
#=======================================================
lattice_vector 9.9088396216453862 -0.0000000165625251 0.0000000000000719 
lattice_vector -0.0000000165625251 9.9088396216453862 0.0000000000000008 
lattice_vector 0.0000000000006021 0.0000000000000065 87.6116237411320213 
atom -0.0000000000054447 0.0000000000014560 0.1620578771295039 Ba
atom 4.9544198108196005 -0.0000000082742242 0.1620578771294892 Ba
atom -0.0000000082846278 4.9544198108297897 0.1620578771294924 Ba
atom 4.9544198025359680 4.9544198025428869 0.1620578771294550 Ba
atom 0.0000000000023751 0.0000000000188654 5.0652964151623774 Ba
atom 4.9544198108187167 -0.0000000082811473 5.0652964151623996 Ba
atom -0.0000000082852213 4.9544198108227668 5.0652964151623641 Ba
atom 4.9544198025438542 4.9544198025603015 5.0652964151623703 Ba
atom 2.4772099012692275 2.4772099012715429 2.4354159248654983 Zr
atom 7.4316297120919694 2.4772098929892863 2.4354159248654699 Zr
atom 2.4772098929880251 7.4316297120932546 2.4354159248654508 Zr
atom 7.4316297038106285 7.4316297038129786 2.4354159248654956 Zr
atom 2.4772099012734787 2.4772099012670599 7.5736685804173867 Zr
atom 7.4316297120905537 2.4772098929850106 7.5736685804173751 Zr
atom 2.4772098929865898 7.4316297120889434 7.5736685804173600 Zr
atom 7.4316297038149113 7.4316297038084436 7.5736685804174275 Zr
atom 2.4772099012780591 2.4772099012743496 -0.1074954128246155 S
atom 7.4316297120857016 2.4772098929810324 -0.1074954128246381 S
atom 2.4772098929817994 7.4316297120850923 -0.1074954128246200 S
atom 7.4316297038194312 7.4316297038158581 -0.1074954128246196 S
atom 2.4772099012509319 2.4772099012609288 5.0360196118425105 S
atom 7.4316297121116497 2.4772098929911008 5.0360196118425051 S
atom 2.4772098930076991 7.4316297120949821 5.0360196118425158 S
atom 7.4316297037923524 7.4316297038022752 5.0360196118425424 S
atom 2.0526573855775019 -0.0000003668744887 2.5288403580696390 S
atom 7.8561822360673368 0.0000003503106273 2.5288403580810992 S
atom 2.9017624169633947 4.9544201694146199 2.5288403580810614 S
atom 7.0070771881190117 4.9544194356669458 2.5288403580695098 S
atom 2.9977857113276771 -0.0000000353551795 7.5895870316090193 S
atom 6.9110539103153323 0.0000000187880145 7.5895870315993452 S
atom 1.9566340912113331 4.9544198378919662 7.5895870315993861 S
atom 7.9522055138691723 4.9544197671862369 7.5895870316090726 S
atom 0.0000003585915844 2.9017624252454715 2.5288403580655783 S
atom 4.9544194439478906 2.0526573772971188 2.5288403580850782 S
atom -0.0000003751560599 7.0070771964010881 2.5288403580850258 S
atom 4.9544201611330081 7.8561822277869418 2.5288403580657004 S
atom 0.0000000270709880 1.9566340994949891 7.5895870316350935 S
atom 4.9544197754692449 2.9977857030488213 7.5895870315732923 S
atom -0.0000000436347283 7.9522055221527559 7.5895870315732683 S
atom 4.9544198296124247 6.9110539020364117 7.5895870316351548 S
atom 0.0000000000072487 -0.0000000000387879 10.1539918834391436 Ba
atom 4.9544198108262645 -0.0000000083315329 10.1539918834391258 Ba
atom -0.0000000082777134 4.9544198107724826 10.1539918834392129 Ba
atom 4.9544198025486743 4.9544198025026347 10.1539918834392484 Ba
atom -0.0000000000011869 0.0000000000526435 15.2623924040499812 Ba
atom 4.9544198108222623 -0.0000000082180626 15.2623924040499510 Ba
atom -0.0000000082817114 4.9544198108859376 15.2623924040499404 Ba
atom 4.9544198025402411 4.9544198025940789 15.2623924040500256 Ba
atom 2.4772099012701703 2.4772099012717099 12.6956684206436670 Zr
atom 7.4316297120941588 2.4772098929894053 12.6956684206436687 Zr
atom 2.4772098929901998 7.4316297120933799 12.6956684206436403 Zr
atom 7.4316297038116073 7.4316297038131554 12.6956684206437291 Zr
atom 2.4772099012691271 2.4772099012687412 17.8152940153072024 Zr
atom 7.4316297120912065 2.4772098929887707 17.8152940153072485 Zr
atom 2.4772098929872381 7.4316297120927359 17.8152940153071775 Zr
atom 7.4316297038105601 7.4316297038101977 17.8152940153072308 Zr
atom 2.4772099013082300 2.4772099012809874 10.1453763276528957 S
atom 7.4316297120532155 2.4772098929917012 10.1453763276529578 S
atom 2.4772098929492681 7.4316297120956616 10.1453763276529170 S
atom 7.4316297038496524 7.4316297038224111 10.1453763276529738 S
atom 2.4772099012163835 2.4772099012608280 15.2602921157310583 S
atom 7.4316297121458259 2.4772098929783302 15.2602921157310867 S
atom 2.4772098930418340 7.4316297120823123 15.2602921157310245 S
atom 7.4316297037578547 7.4316297038022752 15.2602921157311116 S
atom 2.9797955197347461 -0.0000000029403987 12.7081959562291669 S
atom 6.9290441019091276 -0.0000000136215085 12.7081959562340394 S
atom 1.9746242828051856 4.9544198054824617 12.7081959562340234 S
atom 7.9342153222761702 4.9544197996010331 12.7081959562292166 S
atom 2.9819828019243926 -0.0000000033457178 17.8185287650845758 S
atom 6.9268568197189415 -0.0000000132192239 17.8185287650935784 S
atom 1.9724370006150063 4.9544198058847506 17.8185287650935642 S
atom 7.9364026044658029 4.9544197991957430 17.8185287650846362 S
atom -0.0000000053408057 1.9746242910876417 12.7081959561796758 S
atom 4.9544198078817274 2.9797955114546819 12.7081959562835571 S
atom -0.0000000112222336 7.9342153305586516 12.7081959562834701 S
atom 4.9544197972006314 6.9290440936290905 12.7081959561797682 S
atom -0.0000000049382557 1.9724370088962697 17.8185287651518429 S
atom 4.9544198074766896 2.9819827936431333 17.8185287650264250 S
atom -0.0000000116272815 7.9364026127471003 17.8185287650264215 S
atom 4.9544197976031823 6.9268568114377116 17.8185287651518216 S
atom -0.0000000000104002 -0.0000000000587487 20.3747962188680987 Ba
atom 4.9544198108143025 -0.0000000083519978 20.3747962188680560 Ba
atom -0.0000000082896453 4.9544198107518875 20.3747962188679885 Ba
atom 4.9544198025310857 4.9544198024826898 20.3747962188680738 Ba
atom 0.0000000000159984 0.0000000000514317 25.4872000336861113 Ba
atom 4.9544198108347812 -0.0000000082199560 25.4872000336861291 Ba
atom -0.0000000082691705 4.9544198108840654 25.4872000336860722 Ba
atom 4.9544198025574842 4.9544198025928425 25.4872000336861646 Ba
atom 2.4772099012712809 2.4772099012696267 22.9342984224288600 Zr
atom 7.4316297120931152 2.4772098929874340 22.9342984224289310 Zr
atom 2.4772098929891713 7.4316297120913815 22.9342984224288280 Zr
atom 7.4316297038127077 7.4316297038110530 22.9342984224289026 Zr
atom 2.4772099012692124 2.4772099012710576 28.0539240170923954 Zr
atom 7.4316297120933008 2.4772098929900710 28.0539240170924344 Zr
atom 2.4772098929893178 7.4316297120940193 28.0539240170924060 Zr
atom 7.4316297038106693 7.4316297038125008 28.0539240170924344 Zr
atom 2.4772099013293527 2.4772099012727171 20.3747962188680418 S
atom 7.4316297120359840 2.4772098930066093 20.3747962188681022 S
atom 2.4772098929320197 7.4316297121106079 20.3747962188680347 S
atom 7.4316297038707919 7.4316297038141865 20.3747962188680916 S
atom 2.4772099012156383 2.4772099012727105 25.4893003220050005 S
atom 7.4316297121428629 2.4772098929667821 25.4893003220050325 S
atom 2.4772098930389670 7.4316297120706878 25.4893003220050147 S
atom 7.4316297037570154 7.4316297038140888 25.4893003220050680 S
atom 2.9819828019248598 -0.0000000033458600 22.9310636726585244 S
atom 6.9268568197194984 -0.0000000132193721 22.9310636726354922 S
atom 1.9724370006155050 4.9544198058845916 22.9310636726353749 S
atom 7.9364026044663216 4.9544197991955770 22.9310636726585457 S
atom 2.9797955197351316 -0.0000000029404264 28.0413964814902954 S
atom 6.9290441019095601 -0.0000000136215337 28.0413964815184222 S
atom 1.9746242828056075 4.9544198054824449 28.0413964815183867 S
atom 7.9342153222765592 4.9544197996010046 28.0413964814904766 S
atom -0.0000000049369325 1.9724370088962548 22.9310636725849903 S
atom 4.9544198074780343 2.9819827936430849 22.9310636727090369 S
atom -0.0000000116259511 7.9364026127470098 22.9310636727090866 S
atom 4.9544197976045252 6.9268568114376476 22.9310636725849903 S
atom -0.0000000053412227 1.9746242910875227 28.0413964815549832 S
atom 4.9544198078813046 2.9797955114545323 28.0413964814539973 S
atom -0.0000000112226539 7.9342153305585432 28.0413964814538588 S
atom 4.9544197972002078 6.9290440936289919 28.0413964815550507 S
atom -0.0000000000179167 -0.0000000000377704 30.5956005542968974 Ba
atom 4.9544198108103421 -0.0000000083292530 30.5956005542967731 Ba
atom -0.0000000082935531 4.9544198107747057 30.5956005542967944 Ba
atom 4.9544198025235264 4.9544198025036827 30.5956005542968441 Ba
atom 0.0000000000005764 0.0000000000178916 35.6842960225736405 Ba
atom 4.9544198108286830 -0.0000000082837578 35.6842960225735837 Ba
atom -0.0000000082753028 4.9544198108201885 35.6842960225735339 Ba
atom 4.9544198025419952 4.9544198025593564 35.6842960225735482 Ba
atom 2.4772099012714572 2.4772099012655935 33.1759238573187645 Zr
atom 7.4316297120888475 2.4772098929863309 33.1759238573187005 Zr
atom 2.4772098929848978 7.4316297120903103 33.1759238573187005 Zr
atom 7.4316297038128729 7.4316297038070447 33.1759238573186721 Zr
atom 2.4772099012700388 2.4772099012715878 38.3141765128705742 Zr
atom 7.4316297120918691 2.4772098929896460 38.3141765128706027 Zr
atom 2.4772098929878932 7.4316297120936055 38.3141765128705671 Zr
atom 7.4316297038114589 7.4316297038130230 38.3141765128705529 Zr
atom 2.4772099013096058 2.4772099012651894 30.6042161100831223 S
atom 7.4316297120568375 2.4772098930071502 30.6042161100831223 S
atom 2.4772098929527688 7.4316297121111674 30.6042161100831329 S
atom 7.4316297038511490 7.4316297038066965 30.6042161100831471 S
atom 2.4772099012480764 2.4772099012723503 35.7135728258936496 S
atom 7.4316297121112331 2.4772098929804498 35.7135728258935714 S
atom 2.4772098930073900 7.4316297120844403 35.7135728258935572 S
atom 7.4316297037893850 7.4316297038138233 35.7135728258935288 S
atom 2.9977857113290924 -0.0000000353551360 33.1600054061414511 S
atom 6.9110539103166682 0.0000000187880343 33.1600054061220746 S
atom 1.9566340912127516 4.9544198378919511 33.1600054061221599 S
atom 7.9522055138704850 4.9544197671862493 33.1600054061413800 S
atom 2.0526573855775423 -0.0000003668745159 38.2207520796593911 S
atom 7.8561822360672542 0.0000003503106281 38.2207520796619349 S
atom 2.9017624169633063 4.9544201694146057 38.2207520796618851 S
atom 7.0070771881189433 4.9544194356669262 38.2207520796594125 S
atom 0.0000000270702544 1.9566340994946561 33.1600054061015399 S
atom 4.9544197754684784 2.9977857030484474 33.1600054061621350 S
atom -0.0000000436354721 7.9522055221524131 33.1600054061622487 S
atom 4.9544198296116759 6.9110539020360600 33.1600054061014120 S
atom 0.0000003585912333 2.9017624252445371 38.2207520796732538 S
atom 4.9544194439475753 2.0526573772962391 38.2207520796481148 S
atom -0.0000003751564081 7.0070771964002105 38.2207520796479088 S
atom 4.9544201611326768 7.8561822277859603 38.2207520796734173 S
atom 0.0000000000001786 0.0000000000026705 40.5875345606065210 Ba
atom 4.9544198108204380 -0.0000000082724388 40.5875345606066134 Ba
atom -0.0000000082835125 4.9544198108315731 40.5875345606065139 Ba
atom 4.9544198025416248 4.9544198025440211 40.5875345606065210 Ba
atom 2.4772099012801636 2.4772099012683002 40.8570878505606387 S
atom 7.4316297120796895 2.4772098929866830 40.8570878505607453 S
atom 2.4772098929756159 7.4316297120906452 40.8570878505606458 S
atom 7.4316297038216810 7.4316297038096986 40.8570878505606885 S
atom 2.4772099012458324 2.4772099012748354 43.9682278654319916 Ba
atom 7.4316297120857717 2.4772098930034310 43.9682278654319560 Ba
atom 2.4772098929815969 7.4316297121073962 43.9682278654320271 Ba
atom 7.4316297037872507 7.4316297038161956 43.9682278654320697 Ba
atom 2.4772099012717246 2.4772099013010562 48.8714273094177756 Ba
atom 7.4316297120416053 2.4772098929873616 48.8714273094177969 Ba
atom 2.4772098929377231 7.4316297120912154 48.8714273094178182 Ba
atom 7.4316297038131225 7.4316297038425301 48.8714273094177258 Ba
atom 4.9544198025376227 4.9544198025427493 46.2415526365980867 Zr
atom 9.9088396133599712 4.9544197942607378 46.2415526365981577 Zr
atom 4.9544197942560286 9.9088396133646981 46.2415526365980796 Zr
atom 9.9088396050790752 9.9088396050842036 46.2415526365980085 Zr
atom 4.9544198025535957 4.9544198025420156 51.3797431762831138 Zr
atom 9.9088396133673822 4.9544197942463768 51.3797431762832062 Zr
atom 4.9544197942633881 9.9088396133503274 51.3797431762831920 Zr
atom 9.9088396050950571 9.9088396050834380 51.3797431762830641 Zr
atom 4.9544198025600039 4.9544198025615858 43.6986619528975453 S
atom 9.9088396133543100 4.9544197942320789 43.6986619528976448 S
atom 4.9544197942503745 9.9088396133359726 43.6986619528975595 S
atom 9.9088396051013916 9.9088396051029815 43.6986619528975311 S
atom 4.9544198025163073 4.9544198024832413 48.8421300407820596 S
atom 9.9088396134035452 4.9544197943059816 48.8421300407821803 S
atom 4.9544197942994543 9.9088396134099970 48.8421300407821235 S
atom 9.9088396050579011 9.9088396050247027 48.8421300407821590 S
atom 4.5298731941029828 2.4772095450897513 46.3349960973626054 S
atom 10.3333862300772523 2.4772102408873242 46.3349960974217225 S
atom 5.3789664109733240 7.4316300599913170 46.3349960974218220 S
atom 9.4842929966443812 7.4316293476311950 46.3349960973626551 S
atom 5.4749631537855823 2.4772098738517090 51.3956738109364508 S
atom 9.3882962703880093 2.4772099121200726 51.3956738107793498 S
atom 4.4338764512840587 7.4316297312240245 51.3956738107793996 S
atom 10.4293829563270215 7.4316296763931149 51.3956738109363727 S
atom 2.4772102491685168 5.3789664192584361 46.3349960973741588 S
atom 7.4316293559123388 4.5298731858255801 46.3349960974103752 S
atom 2.4772095368083682 9.4842930049295227 46.3349960974101407 S
atom 7.4316300517099627 10.3333862217998504 46.3349960973742441 S
atom 2.4772099204076699 4.4338764595741296 51.3956738109067501 S
atom 7.4316296846807859 5.4749631455131542 51.3956738108089368 S
atom 2.4772098655768358 10.4293829646171563 51.3956738108089937 S
atom 7.4316297229491024 9.3882962621156221 51.3956738109067288 S
atom 2.4772099013972944 2.4772099012111459 53.9600408487920120 Ba
atom 7.4316297121859671 2.4772098929087503 53.9600408487918273 Ba
atom 2.4772098930820112 7.4316297120128807 53.9600408487919267 Ba
atom 7.4316297039386647 7.4316297037525487 53.9600408487918841 Ba
atom 2.4772099011252555 2.4772099013440054 59.0683447176919927 Ba
atom 7.4316297119736694 2.4772098930783000 59.0683447176919785 Ba
atom 2.4772098928698232 7.4316297121823336 59.0683447176920282 Ba
atom 7.4316297036668786 7.4316297038853874 59.0683447176922414 Ba
atom 4.9544198025389807 4.9544198025405954 56.5016581948273782 Zr
atom 9.9088396133621437 4.9544197942599570 56.5016581948274705 Zr
atom 4.9544197942582144 9.9088396133638952 56.5016581948274350 Zr
atom 9.9088396050803702 9.9088396050819743 56.5016581948272858 Zr
atom 4.9544198025384887 4.9544198025401265 61.6211692024368318 Zr
atom 9.9088396133618506 4.9544197942603709 61.6211692024368816 Zr
atom 4.9544197942578974 9.9088396133643322 61.6211692024368602 Zr
atom 9.9088396050798977 9.9088396050815746 61.6211692024367110 Zr
atom 4.9544198025827679 4.9544198026456723 53.9514213812440389 S
atom 9.9088396132870038 4.9544197941745436 53.9514213812442165 S
atom 4.9544197941831847 9.9088396132784453 53.9514213812441028 S
atom 9.9088396051240704 9.9088396051870298 53.9514213812440460 S
atom 4.9544198024874255 4.9544198024093733 59.0662317684915621 S
atom 9.9088396134580616 4.9544197943630577 59.0662317684916900 S
atom 4.9544197943542096 9.9088396134670269 59.0662317684915266 S
atom 9.9088396050287653 9.9088396049507992 59.0662317684915976 S
atom 5.4569585089967338 2.4772098975955452 56.5142030968130200 S
atom 9.4063009151820189 2.4772098883826881 56.5142030970547253 S
atom 4.4518810960780586 7.4316297074866853 56.5142030970547680 S
atom 10.4113783115382521 7.4316297001369946 56.5142030968131834 S
atom 5.4591634094891610 2.4772098978642973 61.6244119710846761 S
atom 9.4040960146947441 2.4772098881128510 61.6244119708256335 S
atom 4.4496761955908983 7.4316297072168434 61.6244119708255695 S
atom 10.4135832120306038 7.4316297004057539 61.6244119710846689 S
atom 2.4772098966617486 4.4518811043639506 56.5142030968583953 S
atom 7.4316297084159482 5.4569585007201473 56.5142030970096485 S
atom 2.4772098893119878 10.4113783198240171 56.5142030970094709 S
atom 7.4316296992031861 9.4063009069052939 56.5142030968584166 S
atom 2.4772098963930289 4.4496762038723245 61.6244119710376168 S
atom 7.4316297086858363 5.4591634012081105 61.6244119708728206 S
atom 2.4772098895819186 10.4135832203121179 61.6244119708724867 S
atom 7.4316296989344073 9.4040960064137931 61.6244119710378584 S
atom 2.4772099014042217 2.4772099011972890 64.1806080894340170 Ba
atom 7.4316297122037218 2.4772098929021538 64.1806080894340170 Ba
atom 2.4772098930998068 7.4316297120059982 64.1806080894339885 Ba
atom 7.4316297039456831 7.4316297037387713 64.1806080894342017 Ba
atom 2.4772099011709687 2.4772099013281528 69.2928714611761762 Ba
atom 7.4316297120071004 2.4772098930560458 69.2928714611760057 Ba
atom 2.4772098929033031 7.4316297121602046 69.2928714611761194 Ba
atom 7.4316297037131234 7.4316297038695787 69.2928714611758920 Ba
atom 4.9544198025452992 4.9544198025403938 66.7400469764315574 Zr
atom 9.9088396133659042 4.9544197942547292 66.7400469764313868 Zr
atom 4.9544197942618915 9.9088396133587455 66.7400469764315005 Zr
atom 9.9088396050868255 9.9088396050818783 66.7400469764313300 Zr
atom 4.9544198025357931 4.9544198025397650 71.8595579840409044 Zr
atom 9.9088396133604526 4.9544197942626527 71.8595579840407055 Zr
atom 4.9544197942565189 9.9088396133665366 71.8595579840409755 Zr
atom 9.9088396050771763 9.9088396050811287 71.8595579840407908 Zr
atom 4.9544198025926747 4.9544198026649537 64.1806080894342301 S
atom 9.9088396132706311 4.9544197941602528 64.1806080894340170 S
atom 4.9544197941664292 9.9088396132642309 64.1806080894342159 S
atom 9.9088396051343359 9.9088396052064027 64.1806080894340027 S
atom 4.9544198024969903 4.9544198024428869 69.2949844103766566 S
atom 9.9088396134385661 4.9544197943339032 69.2949844103764150 S
atom 4.9544197943344361 9.9088396134379160 69.2949844103765997 S
atom 9.9088396050386063 9.9088396049843759 69.2949844103765997 S
atom 5.4591634094905732 2.4772098978625796 66.7368042078021944 S
atom 9.4040960146961083 2.4772098881111257 66.7368042080236421 S
atom 4.4496761955922910 7.4316297072150679 66.7368042080236279 S
atom 10.4135832120318863 7.4316297004039757 66.7368042078022796 S
atom 5.4569585089977384 2.4772098975958867 71.8470130820110739 S
atom 9.4063009151831434 2.4772098883831113 71.8470130818572272 S
atom 4.4518810960790329 7.4316297074870530 71.8470130818575115 S
atom 10.4113783115392753 7.4316297001372948 71.8470130820107897 S
atom 2.4772098963965301 4.4496762038716051 66.7368042078393984 S
atom 7.4316297086894449 5.4591634012073671 66.7368042079864665 S
atom 2.4772098895854340 10.4135832203115140 66.7368042079869497 S
atom 7.4316296989380159 9.4040960064132193 66.7368042078393273 S
atom 2.4772098966606215 4.4518811043633564 71.8470130819895871 S
atom 7.4316297084147909 5.4569585007195176 71.8470130818785435 S
atom 2.4772098893109056 10.4113783198233598 71.8470130818790125 S
atom 7.4316296992019568 9.4063009069046828 71.8470130819892034 S
atom 2.4772099013303812 2.4772099012303364 74.4011753300761427 Ba
atom 7.4316297121435539 2.4772098929399515 74.4011753300761285 Ba
atom 2.4772098930392952 7.4316297120436250 74.4011753300762706 Ba
atom 7.4316297038710655 7.4316297037718639 74.4011753300761711 Ba
atom 2.4772099012666224 2.4772099012884774 79.4897888694504928 Ba
atom 7.4316297120685162 2.4772098929866222 79.4897888694502086 Ba
atom 2.4772098929647455 7.4316297120905919 79.4897888694504786 Ba
atom 7.4316297038084089 7.4316297038298451 79.4897888694502228 Ba
atom 4.9544198025470827 4.9544198025401860 76.9814730025851759 Zr
atom 9.9088396133643712 4.9544197942519013 76.9814730025849059 Zr
atom 4.9544197942603621 9.9088396133558856 76.9814730025849911 Zr
atom 9.9088396050885628 9.9088396050816439 76.9814730025849485 Zr
atom 4.9544198025398263 4.9544198025411399 82.1196635422700609 Zr
atom 9.9088396133619892 4.9544197942604269 82.1196635422700609 Zr
atom 4.9544197942580448 9.9088396133643712 82.1196635422701888 Zr
atom 9.9088396050812584 9.9088396050825533 82.1196635422700041 Zr
atom 4.9544198025706754 4.9544198026007065 74.4097947976241301 S
atom 9.9088396133128143 4.9544197942133863 74.4097947976238885 S
atom 4.9544197942092589 9.9088396133169852 74.4097947976242011 S
atom 9.9088396051117051 9.9088396051417966 74.4097947976240590 S
atom 4.9544198025241215 4.9544198025149564 79.5190861380860525 S
atom 9.9088396133885137 4.9544197942773476 79.5190861380858962 S
atom 4.9544197942840933 9.9088396133818168 79.5190861380860099 S
atom 9.9088396050660119 9.9088396050569258 79.5190861380859957 S
atom 5.4749631537893535 2.4772098738523338 76.9655423679703290 S
atom 9.3882962703918835 2.4772099121206277 76.9655423680496114 S
atom 4.4338764512878202 7.4316297312246222 76.9655423680498956 S
atom 10.4293829563308602 7.4316296763938006 76.9655423679710395 S
atom 4.5298731941035433 2.4772095450893690 82.0262200814858460 S
atom 10.3333862300778616 2.4772102408870076 82.0262200814668034 S
atom 5.3789664109739732 7.4316300599909644 82.0262200814662918 S
atom 9.4842929966449816 7.4316293476307758 82.0262200814851639 S
atom 2.4772099204059783 4.4338764595720424 76.9655423679785002 S
atom 7.4316296846790566 5.4749631455110537 76.9655423680419091 S
atom 2.4772098655750630 10.4293829646150709 76.9655423680417528 S
atom 7.4316297229474175 9.3882962621135224 76.9655423679787702 S
atom 2.4772102491686820 5.3789664192571767 82.0262200814883187 S
atom 7.4316293559125413 4.5298731858242141 82.0262200814635349 S
atom 2.4772095368086027 9.4842930049282401 82.0262200814638902 S
atom 7.4316300517101235 10.3333862217986354 82.0262200814878071 S
atom 2.4772099012627598 2.4772099012732025 84.3929883134364474 Ba
atom 7.4316297120911710 2.4772098929979154 84.3929883134358789 Ba
atom 2.4772098929870747 7.4316297121019552 84.3929883134363479 Ba
atom 7.4316297038041768 7.4316297038145471 84.3929883134360068 Ba
atom 4.9544198025525219 4.9544198025450212 84.6625542259708510 S
atom 9.9088396133545853 4.9544197942504882 84.6625542259705952 S
atom 4.9544197942510166 9.9088396133540382 84.6625542259707800 S
atom 9.9088396050935952 9.9088396050860794 84.6625542259705242 S
