#=======================================================
# FHI-aims file: full_relax/full_relax_RP_7_RxRyRz_-RxRy0.in
# Created using the Atomic Simulation Environment (ASE)
# Mon Mar 24 15:52:09 2025
#=======================================================
lattice_vector 9.9896251426133063 -0.0332090593250646 -0.0059608165236764 
lattice_vector -0.0332090593250629 9.9896251426132814 0.0059608165246723 
lattice_vector -0.0447035313071599 0.0447035313146682 76.2706052998845365 
atom 0.0447232699803360 -0.0930831003230380 0.1498140720931292 Ba
atom 5.0878956713800827 -0.0613277994539255 0.1468336622380391 Ba
atom 0.0764785705719289 4.9500893014558152 0.1527944791646276 Ba
atom 5.0229313115121128 4.8851249412463638 0.1498140716632428 Ba
atom -0.3030320415742418 0.2317902713346556 4.9512139787476519 Ba
atom 4.7630223000324827 0.2864275117555285 4.9482335704943381 Ba
atom -0.2483948009688060 5.2978446127735923 4.9541943870536800 Ba
atom 4.6751760000775917 5.2099983130296126 4.9512139787434934 Ba
atom 2.4419660453219856 2.5453333351449010 2.3304143130124744 Zr
atom 7.4276872770150311 2.5196374668858161 2.3274339046942658 Zr
atom 2.4162701757003457 7.5310545678982255 2.3333947212025157 Zr
atom 7.4201740872079691 7.5235413768065449 2.3304143133933368 Zr
atom 2.3865240697118439 2.5539104903582124 7.4066412489308444 Zr
atom 7.4191101228962584 2.5750794425105714 7.4036608382872338 Zr
atom 2.4076930217016792 7.5864965433594413 7.4096216546492757 Zr
atom 7.3647321117276006 7.5321185320110562 7.4066412493981586 Zr
atom 2.5973419474902455 2.7874722436968993 -0.1778345407706057 S
atom 7.1855483690307604 2.3642615642182498 -0.1808149516424352 S
atom 2.1741312679613474 7.3756786651965340 -0.1748541354930286 S
atom 7.5755499891677562 7.7656802853081324 -0.1778345405154341 S
atom 2.2064949237497102 2.2962027429085086 4.9026158994142799 S
atom 7.6768178702301499 2.7551085883071402 4.8996354953438486 S
atom 2.6654007692946826 7.7665256892823589 4.9055963125690942 S
atom 7.1847029653480048 7.2744107845260979 4.9026158980144601 S
atom 2.7174097123520315 0.0557461503773818 2.1832201156066429 S
atom 7.1060811849101162 0.0416937980809414 2.6842931748316778 S
atom 2.0946640839245054 5.0531108992542668 2.6902539913679298 S
atom 7.6956177538848785 5.0339541922575455 2.1832201156889286 S
atom 2.8982110859966288 0.0606224873175097 7.6384941560720803 S
atom 6.9964588673785881 0.0449322368590512 7.2151023401230319 S
atom 1.9850417665895104 5.0563493373302864 7.2210631567316907 S
atom 7.8764191277357112 5.0388305284007417 7.6384941560845760 S
atom -0.0723506711833196 2.2774028587611737 2.1862005238308604 S
atom 4.9199097057434367 2.8669394279597400 2.6872735830660623 S
atom -0.0915073961805087 7.8783565288881903 2.6932343995489934 S
atom 4.9058573715530551 7.2556109003935561 2.1862005238559803 S
atom -0.0772270182800947 2.0966014853430455 7.6414745643462751 S
atom 4.9166712767059062 2.9765617454568405 7.2180827484546599 S
atom -0.0947458231085886 7.9879788464589474 7.2240435649469381 S
atom 4.9009810220278904 7.0748095269214364 7.6414745643744801 S
atom -0.0051685162945977 -0.0661148639014799 9.9572696192061088 Ba
atom 5.0609274352335190 -0.0114360136578612 9.9542892109748102 Ba
atom 0.0495103340690591 4.9999810874345085 9.9602500274620507 Ba
atom 4.9730395255440865 4.9120931778759944 9.9572696192372696 Ba
atom 0.0531016708499434 0.0218461422948098 15.0232613493621248 Ba
atom 4.9729664290185553 -0.0697062004016392 15.0202809411023139 Ba
atom -0.0384506718195325 4.9417109004327520 15.0262417576335761 Ba
atom 5.0313097123580262 5.0000541837978068 15.0232613493628904 Ba
atom 2.4894915753041325 2.5023030087984108 12.4786316263327866 Zr
atom 7.4707176043463441 2.4721119365390085 12.4756512190525140 Zr
atom 2.4593005033938868 7.4835290375049439 12.4816120356737805 Zr
atom 7.4676996169919176 7.4805110504781505 12.4786316253110723 Zr
atom 2.4788104445446995 2.4993975970991489 17.5623104327534385 Zr
atom 7.4736230158476298 2.4827930674145100 17.5593300250858313 Zr
atom 2.4622059148760287 7.4942101683727609 17.5652908416327591 Zr
atom 7.4570184862037623 7.4776056387411121 17.5623104331398636 Zr
atom 2.5731142216057719 2.6997905676674656 9.9515840995682474 S
atom 7.2732300453174297 2.3884892904279269 9.9486036922909200 S
atom 2.2618129444127244 7.3999063913925420 9.9545645082176293 S
atom 7.5513222632698787 7.6779986093661945 9.9515841006247410 S
atom 2.3969798651577494 2.4492008105947227 15.0234709574959826 S
atom 7.5238198023453275 2.5646236467950203 15.0204905461819216 S
atom 2.5124027013812897 7.5760407477659539 15.0264513632233445 S
atom 7.3751879068117674 7.4274088522460842 15.0234709579292947 S
atom 2.0141128664705250 0.0071137775453561 12.4102597295579251 S
atom 7.9923047275403780 -0.0078869301317145 12.5649481593992398 S
atom 2.9808876266090554 5.0035301707521276 12.5709089759118307 S
atom 6.9923209081398046 4.9853218190704904 12.4102597295922923 S
atom 2.9907826900705174 0.0022972079517768 17.6017890008025724 S
atom 6.9782552999895042 -0.0149191154342934 17.5168710437977779 S
atom 1.9668381989788981 4.9964979863150356 17.5228318603536088 S
atom 7.9689907316689501 4.9805052503723735 17.6017890007861624 S
atom -0.0237183097138299 2.9806997048066242 12.4132401378569472 S
atom 4.9694904447551727 1.9807158853483722 12.5679285676238699 S
atom -0.0419266565476221 6.9921329863173343 12.5738893841741461 S
atom 4.9544897322280468 7.9589077464687090 12.4132401378625250 S
atom -0.0189017350126652 2.0040298811895574 17.6047694090357645 S
atom 4.9765226240481555 2.9947653130443697 17.5198514521117978 S
atom -0.0348944771835742 8.0061824139198894 17.5258122686326061 S
atom 4.9593063068864280 6.9822379229291913 17.6047694090069484 S
atom -0.0736888233814308 -0.0012589896701209 20.1013595131905056 Ba
atom 4.9960715609938777 0.0570842937642804 20.0983791049259359 Ba
atom -0.0153455399381130 5.0685013947120270 20.1043399214543115 Ba
atom 4.9045192182255199 4.9769490519475843 20.1013595131968330 Ba
atom -0.0154186364484955 0.0867020164103162 25.1673512412956768 Ba
atom 4.9081105548916746 -0.0011858931158653 25.1643708330344928 Ba
atom -0.1033065460817409 5.0102312078999596 25.1703316495653411 Ba
atom 4.9627894052009864 5.0649100580962516 25.1673512413003806 Ba
atom 2.4681293136918376 2.4964921855292053 22.6459892339612594 Zr
atom 7.4765284272597672 2.4934741983282240 22.6430088237888683 Zr
atom 2.4651113263038047 7.5048912992526553 22.6489696403618233 Zr
atom 7.4463373553168370 7.4747002271485243 22.6459892341228013 Zr
atom 2.5710968192952803 2.4448847041689521 27.7179796106669301 Zr
atom 7.5281359086665312 2.3905066921834091 27.7149992049891729 Zr
atom 2.5167188077388065 7.4019237930572261 27.7209600213301250 Zr
atom 7.5493048608819153 7.4230927457407097 27.7179796108456173 Zr
atom 2.5606410238981168 2.5495943835820842 20.1011499023290341 S
atom 7.4234262293546296 2.4009624880792453 20.0981694962034680 S
atom 2.4120091283850620 7.4123795890424882 20.1041303120880634 S
atom 7.5388490655437970 7.5278024252261524 20.1011499015911106 S
atom 2.3845066674677722 2.2990046265258237 25.1730367654477121 S
atom 7.6740159862805548 2.5770968444309927 25.1700563583575061 S
atom 2.6625988852994209 7.5885139454026973 25.1760171754714079 S
atom 7.3627147091113914 7.2772126681734068 25.1730367655614415 S
atom 1.9767332621909481 -0.0047349756321928 22.5537118861602508 S
atom 7.9549251237604723 -0.0197356847806798 22.7084003162032850 S
atom 2.9435080228033912 4.9916814157049822 22.7143611327066566 S
atom 6.9549413038679884 4.9734730655068793 22.5537118861766253 S
atom 2.9725791224324745 -0.0575541441356483 27.9035577052577146 S
atom 7.0708269042089587 -0.0732443930829772 27.4801658896423611 S
atom 2.0594098032746806 4.9381727080857338 27.4861267061837822 S
atom 7.9507871641073766 4.9206538976779344 27.9035577052563006 S
atom -0.0118695547600679 3.0180793090815188 22.5566922944257939 S
atom 4.9813391980304820 2.0180954892058689 22.7113807244426162 S
atom -0.0300779030928031 7.0295125901232591 22.7173415409939317 S
atom 4.9663384870449674 7.9962873507814791 22.5566922944266040 S
atom 0.0409496112626460 2.0222334488575422 27.9065381135150972 S
atom 5.0348479085692155 2.9021937086522311 27.4831462978681351 S
atom 0.0234308079092597 7.9136108096250704 27.4891071144001806 S
atom 5.0191576526195929 7.0004414905383081 27.9065381135071640 S
atom 0.2824448888743524 -0.2112031187307189 30.1734068835375560 Ba
atom 5.2060156900541656 -0.2990494185405027 30.1704264752055309 Ba
atom 0.1945985889662658 4.7123676824673666 30.1763872917539544 Ba
atom 5.2606529306291385 4.7670049229435998 30.1734068835286635 Ba
atom -0.0653104224707885 0.1136702530253158 34.9748067902380484 Ba
atom 4.8811423184789104 0.0487058927399851 34.9718263839986250 Ba
atom -0.1302747824931952 5.0601229937523113 34.9777872002579571 Ba
atom 4.9128976191769551 5.0918782947411945 34.9748067899884703 Ba
atom 2.5156548438829467 2.4534618594577409 32.7942065519973767 Zr
atom 7.5195587546617428 2.4459486677598989 32.7912261441000865 Zr
atom 2.5081416535746186 7.4573657685387067 32.7971869608382534 Zr
atom 7.4938628856380030 7.4316699008837048 32.7942065518343355 Zr
atom 2.7511259654077129 2.7025924513203226 30.2220049623539175 S
atom 7.2704281614449497 2.2104775465294146 30.2190245481388118 S
atom 2.2590110605027363 7.2218946475114825 30.2249853643614799 S
atom 7.7293340070597898 7.6808004930057718 30.2220049619999145 S
atom 2.3602789416561949 2.2113229506359708 35.3024554003733400 S
atom 7.7616976625818017 2.6013245706080852 35.2994749951837861 S
atom 2.7502805616332036 7.6127416715521257 35.3054358117193843 S
atom 7.3384869832620918 7.1895309922108863 35.3024554007814757 S
atom 2.8629568052121415 -0.0543157046102826 32.4343668698074623 S
atom 7.2516282777293819 -0.0683680569654158 32.9354399290675062 S
atom 2.2402111768193613 4.9430490434197045 32.9414007455630653 S
atom 7.8411648468530037 4.9238923365128731 32.4343668698305478 S
atom 0.0377111838963527 2.1318557663073725 32.4373472781154888 S
atom 5.0299715595149825 2.7213923353475833 32.9384203374065478 S
atom 0.0185544589010378 7.7328094363672184 32.9443811539554474 S
atom 5.0159192252136062 7.1100638079453136 32.4373472781034025 S
atom 2.6092627679712441 2.4205260473059931 38.4104528773646052 Ba
atom 7.5524945646671560 2.3523407444017779 38.4074724683256647 Ba
atom 2.5410774636367428 7.3637578459045905 38.4134332847789182 Ba
atom 7.5874708096836549 7.3987340894071627 38.4104528771116165 Ba
atom 2.2631354805670223 2.7818509367028357 43.2054133284193682 Ba
atom 7.1911696770721214 2.6984680306640385 43.2024329202380457 Ba
atom 2.1797525762210368 7.7098851318797585 43.2083937366786799 Ba
atom 7.2413435220886200 7.7600589786259677 43.2054133284769577 Ba
atom 4.9422691345476952 5.0078934202004728 40.5937909666405261 Zr
atom 9.9433352329993330 4.9975424227354850 40.5908105592366013 Zr
atom 4.9319181317308773 10.0089595247256469 40.5967713758431543 Zr
atom 9.9204771764965152 9.9861014624809439 40.5937909661710492 Zr
atom 4.9343542836021674 5.0266992155627719 45.6543140553605724 Zr
atom 9.9245294383151492 5.0054572682948617 45.6513336348746321 Zr
atom 4.9131123375924419 10.0168743693661746 45.6572944490735182 Zr
atom 9.9125623250532335 10.0049072576369991 45.6543140539573713 Zr
atom 4.6916202538032294 4.8443123435254769 38.0843469541866426 S
atom 10.1069163125338033 5.2481913013852468 38.0813665324426296 S
atom 5.0954992116227364 10.2596084024792837 38.0873273478443082 S
atom 9.6698282953058623 9.8225203849500833 38.0843469531827168 S
atom 5.2361426447186918 5.2728915490840285 43.1577501456896044 S
atom 9.6783371052360714 4.7036689078823892 43.1547697557355860 S
atom 4.6669200042999632 9.7150860087903848 43.1607305750836261 S
atom 10.2143506863120201 10.2510995905911013 43.1577501488158504 S
atom 4.6176331820050329 2.5290810722012500 40.9673712890964055 S
atom 10.2193950080431541 2.5091072170063331 40.4203685346878387 S
atom 5.2079779072662227 7.5205243139390081 40.4263293511615558 S
atom 9.5958412235518686 7.5072891104112793 40.9673712891936219 S
atom 4.5596092856207511 2.5242070146662061 45.3654207409751606 S
atom 10.3375492724713833 2.5031980810161807 45.9781680510519095 S
atom 5.3261321714301486 7.5146151846802631 45.9841288676655111 S
atom 9.5378173272644311 7.5024150588998575 45.3654207409265382 S
atom 2.4325224787949966 5.3553874311673955 40.9703516976652651 S
atom 7.4307042956546399 4.7318336481527465 40.4233489432787536 S
atom 2.4192871947887085 9.7432507487358126 40.4293097594758208 S
atom 7.4107305203637068 10.3335954729816528 40.9703516977233804 S
atom 2.4373964971150661 5.4134113273676396 45.3684011489684451 S
atom 7.4366134707583873 4.6136793819492743 45.9811484593728892 S
atom 2.4251963695313474 9.6250964830999326 45.9871092758994493 S
atom 7.4156045390687924 10.3916193686884402 45.3684011492922181 S
atom 2.6310132734489002 2.2567007172307045 48.1844745528703982 Ba
atom 7.7163198970346514 2.3305902381949553 48.1814941447044589 Ba
atom 2.7049027958871044 7.3420073383111966 48.1874549611774157 Ba
atom 7.6092213153535759 7.2349087580532476 48.1844745528674991 Ba
atom 2.2765772780167337 2.7939062156929380 53.1931346989954648 Ba
atom 7.1791143964188349 2.6850262340885025 53.1901542906553004 Ba
atom 2.1676972957364886 7.6964433357441484 53.1961151071937763 Ba
atom 7.2547853192677207 7.7721142580069706 53.1931346990654959 Ba
atom 4.9439735189625722 5.0100575488183834 50.6771021147716212 Zr
atom 9.9411711054696958 4.9958380343427562 50.6741217079014419 Zr
atom 4.9297540048478696 10.0072551352276893 50.6800825276508746 Zr
atom 9.9221815602974743 9.9882655908947839 50.6771021164515219 Zr
atom 4.9455627001770059 5.0108533835165536 55.6976130778599838 Zr
atom 9.9403752710047080 4.9942488545228718 55.6946326754548053 Zr
atom 4.9289581703162400 10.0056659554295173 55.7005934910322793 Zr
atom 9.9237707417431071 9.9890614253198127 55.6976130761265011 Zr
atom 4.6179967481908308 4.7493430939076191 48.1755880132896266 S
atom 10.2018855603335314 5.3218148048964791 48.1726076134985632 S
atom 5.1904684593610675 10.3332319056443982 48.1785684293849954 S
atom 9.5962047899030445 9.7275511355668822 48.1755880115472337 S
atom 5.2699233433576289 5.2811135353837031 53.1902526178570909 S
atom 9.6701151194772113 4.6698882107761728 53.1872721997831945 S
atom 4.6586980184358300 9.6813053115319772 53.1932330127243560 S
atom 10.2481313849727691 10.2593215770226962 53.1902526182519537 S
atom 4.5642243619636842 2.5170740137636773 51.0029685615398947 S
atom 10.3326764240753342 2.4972172939833936 50.3669852033862995 S
atom 5.3212593229382570 7.5086343955291417 50.3729460199629884 S
atom 9.5424324036283554 7.4952820557232016 51.0029685616239448 S
atom 4.5675720148047327 2.5154413210360071 55.3785923720646664 S
atom 10.3349704852980402 2.4948483477391625 56.0106729731562609 S
atom 5.3235533846185170 7.5062654460368865 56.0166337897505144 S
atom 9.5457800568516848 7.4936493598756231 55.3785923723630020 S
atom 2.4445294819619265 5.4087962513823582 51.0059489699867754 S
atom 7.4425942757196877 4.6185522302420718 50.3699656117261796 S
atom 2.4311771756412526 9.6299693311611847 50.3759264280716224 S
atom 7.4227375227869885 10.3870042929191868 51.0059489697494612 S
atom 2.4461621969830243 5.4054485977785269 55.3815727805114051 S
atom 7.4449632022657761 4.6162581694526370 56.0136533813151516 S
atom 2.4335460982046140 9.6276752702120891 56.0196141981440334 S
atom 7.4243702416550788 10.3836566395838208 55.3815727804454028 S
atom 2.6363400806111366 2.2495925090403572 58.2020914623983927 Ba
atom 7.7234281029774579 2.3252634322983985 58.1991110541596939 Ba
atom 2.7120110025319684 7.3366805330886056 58.2050718707683714 Ba
atom 7.6145481217230611 7.2278005505590626 58.2020914625481325 Ba
atom 2.2819040833589388 2.7867980090847584 63.2107516091931885 Ba
atom 7.1862226042393047 2.6796994284811078 63.2077712010696260 Ba
atom 2.1748055019839647 7.6911165290702472 63.2137320176208348 Ba
atom 7.2601121264253301 7.7650060502829410 63.2107516092278630 Ba
atom 4.9471518806168602 5.0116492185089498 60.7181240475292725 Zr
atom 9.9395794364622869 4.9926596739579194 60.7151436354678040 Zr
atom 4.9281623357054674 10.0040767747146688 60.7211044485251890 Zr
atom 9.9253599226116584 9.9898572596436654 60.7181240501300508 Zr
atom 4.9567711151037797 4.9950075517862773 65.7409121140621409 Zr
atom 9.9562211032873158 4.9830404385569862 65.7379317066574060 Zr
atom 4.9448040026532398 9.9944575394823048 65.7438925274658743 Zr
atom 9.9349791568059000 9.9732155929088631 65.7409121123023681 Zr
atom 4.6212020564401639 4.7405932320293855 58.2049735506374759 S
atom 10.2106354228311211 5.3186094976207317 58.2019931391614591 S
atom 5.1992183218746586 10.3300265986360404 58.2079539610408290 S
atom 9.5994100981853592 9.7188012736467293 58.2049735512154314 S
atom 5.2731286508714570 5.2723636731668932 63.2196381386838695 S
atom 9.6788649814441232 4.6666829027011349 63.2166577412848554 S
atom 4.6674478805698616 9.6781000039687832 63.2226185571193611 S
atom 10.2513366927681115 10.2505717147343685 63.2196381353641570 S
atom 4.5698660762832519 2.5130723825097747 61.0222801417217653 S
atom 10.3383181387369181 2.4932156386109203 60.3862967834879640 S
atom 5.3269010375327719 7.5046327426078117 60.3922576003208675 S
atom 9.5480741176943127 7.4912804272696052 61.0222801416041136 S
atom 4.5649932281151981 2.5070915760913199 65.4110972937165656 S
atom 10.3429332146636845 2.4860826593170828 66.0238446042856282 S
atom 5.3315161133253266 7.4974997593175701 66.0298054203525453 S
atom 9.5432012694086499 7.4852996169419868 65.4110972936706361 S
atom 2.4485311362582509 5.4031545366781319 61.0252605499707101 S
atom 7.4465959049616348 4.6129105159883714 60.3892771918063005 S
atom 2.4351788054489756 9.6243276173348633 60.3952380085535054 S
atom 7.4267391761202601 10.3813625782042891 61.0252605497908434 S
atom 2.4545119227075558 5.4080273851765250 65.4140777020758009 S
atom 7.4537289087628151 4.6082954397219886 66.0268250123259577 S
atom 2.4423118117214906 9.6197125406078570 66.0327858288756602 S
atom 7.4327199602613936 10.3862354270503356 65.4140777019619719 S
atom 2.6497818771759594 2.2616477890324176 68.1898128333000244 Ba
atom 7.7113728235635097 2.3118216348135561 68.1868324249271041 Ba
atom 2.6999557230666005 7.3232387361257363 68.1927932413254325 Ba
atom 7.6279899183534958 7.2398558310060190 68.1898128332054512 Ba
atom 2.3036545904542689 2.6229726778963500 72.9847732839272965 Ba
atom 7.3500479352229169 2.6579489215562457 72.9817928760067929 Ba
atom 2.3386308349901559 7.6693660225550593 72.9877536928555344 Ba
atom 7.2818626312313546 7.6011807195428567 72.9847732837932739 Ba
atom 4.9488562663669713 5.0138133462567609 70.8014351910691602 Zr
atom 9.9374153081504790 4.9909552849618475 70.7984547854701560 Zr
atom 4.9259982079756757 10.0023723865145140 70.8044156017529787 Zr
atom 9.9270643065156126 9.9920213883124944 70.8014351902993724 Zr
atom 4.6549827540867339 4.7488152179734628 68.2374760115881998 S
atom 10.2024134364661254 5.2848287992832397 68.2344955908613144 S
atom 5.1909963353064805 10.2962459002927265 68.2404564027246465 S
atom 9.6331907957394804 9.7270232595160309 68.2374760163230150 S
atom 5.1995051462506012 5.1773944242206325 73.3108792141496224 S
atom 9.7738342298950052 4.7403064068224223 73.3078988104838203 S
atom 4.7624171285782406 9.7517235075426214 73.3138596290739457 S
atom 10.1777131876778650 10.1556024657774344 73.3108792127561060 S
atom 4.6831474921890184 2.5011824413970491 70.9688968113070615 S
atom 10.2849093182960587 2.4812086049474424 70.4218940565005482 S
atom 5.2734922176545318 7.4926257052734453 70.4278548729265310 S
atom 9.6613555344217534 7.4793904824452406 70.9688968107772951 S
atom 2.4604210903024453 5.2898731197514897 70.9718772191502438 S
atom 7.4586029324122771 4.6663193360486002 70.4248744646032776 S
atom 2.4471858258949628 9.6777364368269261 70.4308352810872691 S
atom 7.4386291384903425 10.2680811611290803 70.9718772191844920 S
