#=======================================================
# FHI-aims file: full_relax/full_relax_RP_6_RxRyMz_RxRy-Mz.in
# Created using the Atomic Simulation Environment (ASE)
# Fri Mar 14 11:46:42 2025
#=======================================================
lattice_vector 10.0163434566868919 -0.0606445025205243 0.0000000000000484 
lattice_vector -0.0606445025205389 10.0163434566868119 0.0000000000000201 
lattice_vector 0.0000000000003202 0.0000000000001307 65.8714059206803739 
atom 0.0752672590957474 -0.1238613068415539 0.2226982233529347 Ba
atom 5.1320330352318519 -0.1055895103899705 0.2226982233540689 Ba
atom 0.0935390555857261 4.9329044692032387 0.2226982236296250 Ba
atom 5.0531167362373601 4.8539881702073506 0.2226982235843662 Ba
atom -0.3074181291234186 0.2344026464256546 5.0052388618194454 Ba
atom 4.7737690817639349 0.2770958778199301 5.0052388618214660 Ba
atom -0.2647248977737546 5.3155898575890417 5.0052388618431731 Ba
atom 4.6704313478928370 5.2122521237350501 5.0052388618422734 Ba
atom 2.4568248488436466 2.5269779132178760 2.3970054006038182 Zr
atom 7.4590432920854726 2.4907023774208978 2.3970054003655665 Zr
atom 2.4205493131606524 7.5291963566810693 2.3970054009595283 Zr
atom 7.4346743253386327 7.5048273899485691 2.3970054007470907 Zr
atom 2.4340245142226800 2.5394930958546653 7.4495809342939205 Zr
atom 7.4465281094472040 2.5135027120890081 7.4495809347440645 Zr
atom 2.4080341304437796 7.5519966912761660 7.4495809343901795 Zr
atom 7.4118739907643594 7.5173425725568563 7.4495809347765958 Zr
atom 2.6193504481067182 2.7860642644149687 -0.1083435415336211 S
atom 7.1999569410659738 2.3281767776660631 -0.1083435414286257 S
atom 2.1614629613504510 7.3666707572426251 -0.1083435415908199 S
atom 7.5971999253407372 7.7639137415171859 -0.1083435417011825 S
atom 2.1888528388133426 2.2281157846057265 4.9563870958460425 S
atom 7.7579054208387159 2.7586743868924275 4.9563870959067096 S
atom 2.7194114411821193 7.7971683665995908 4.9563870951954154 S
atom 7.1667023160109711 7.2059652616758569 4.9563870954411788 S
atom 2.7355032699624715 0.0327205386389579 2.2248900636952920 S
atom 7.1471967799215985 0.0057175403009302 2.7758271587876902 S
atom 2.1087028002560988 5.0442115197356845 2.7758271587121572 S
atom 7.7133527471606724 5.0105700155179891 2.2248900637043247 S
atom 2.8464647225280251 0.0306843585078050 7.7810108348720108 S
atom 7.0859834261435592 0.0039579301095544 7.1557830864368537 S
atom 2.0474894464737541 5.0424519083438302 7.1557830864248979 S
atom 7.8243141997200238 5.0085338342236376 7.7810108348446017 S
atom -0.0630427899744915 2.2726684582900978 2.2248900636855127 S
atom 4.9418096857742686 2.8388244254716777 2.7758271587234318 S
atom -0.0966842935864701 7.8773184052043108 2.7758271587812318 S
atom 4.9148066867883955 7.2505179354584328 2.2248900637169706 S
atom -0.0610066093021888 2.1617070057625880 7.7810108348461462 S
atom 4.9435692966225186 2.9000377791685832 7.1557830864915415 S
atom -0.0949246832365589 7.9385317590560982 7.1557830863689418 S
atom 4.9168428680160492 7.1395564828425053 7.7810108348729354 S
atom 0.2338483361084798 -0.1366351654395314 9.9740868785866557 Ba
atom 5.1448068937340681 -0.2641705875903963 9.9740868786125656 Ba
atom 0.1063129139434224 4.7743233923085322 9.9740868785373671 Ba
atom 5.2116978133287564 4.8412143119287929 9.9740868785610459 Ba
atom -0.3246041048695144 0.2265000652728877 14.9707740735394843 Ba
atom 4.7816716631774243 0.2942818534078986 14.9707740735267265 Ba
atom -0.2568223167721200 5.3327758331061190 14.9707740735839430 Ba
atom 4.6532453725206988 5.2043495424819310 14.9707740735739545 Ba
atom 2.4466781896283463 2.5329097319044953 12.4641338583226720 Zr
atom 7.4531114731917061 2.5008490364804161 12.4641338585397055 Zr
atom 2.4146174941560052 7.5393430161422446 12.4641338581393555 Zr
atom 7.4245276660855097 7.5107592090800530 12.4641338583187036 Zr
atom 2.4466781890553322 2.5329097314760336 17.4774142909214696 Zr
atom 7.4531114737700639 2.5008490371259096 17.4774142911131243 Zr
atom 2.4146174947303525 7.5393430165233122 17.4774142907832939 Zr
atom 7.4245276656211132 7.5107592083871753 17.4774142911452905 Zr
atom 2.7100763857917012 2.8659849864188942 9.9650410926152766 S
atom 7.1200362189778890 2.2374508399625372 9.9650410917555803 S
atom 2.0815422392855361 7.2759448195398875 9.9650410930845492 S
atom 7.6879258630443994 7.8438344636686796 9.9650410921850821 S
atom 2.1753873120685321 2.2003213179038048 14.9707740698425571 S
atom 7.7856998876696011 2.7721399137245237 14.9707740700079430 S
atom 2.7472059078542128 7.8106338933522501 14.9707740696657101 S
atom 7.1532367891705135 7.1781707948813906 14.9707740698930571 S
atom 2.8390223525950580 0.0277017427842406 12.1510829816076349 S
atom 7.0872532757362681 0.0005458443417753 12.7920860956282976 S
atom 2.0487592961550258 5.0390398234731579 12.7920860955238371 S
atom 7.8168718299574396 5.0055512193585656 12.1510829815530457 S
atom 2.8390223526984353 0.0277017429581034 17.7904651641165898 S
atom 7.0872532755084112 0.0005458444367329 17.1494620495833345 S
atom 2.0487592959488028 5.0390398232772382 17.1494620496558028 S
atom 7.8168718300138034 5.0055512192448841 17.7904651641214748 S
atom -0.0580239932352495 2.1691493756018922 12.1510829815628387 S
atom 4.9469813811367747 2.8987679296442312 12.7920860955433007 S
atom -0.0915125970454659 7.9372619093054739 12.7920860956094824 S
atom 4.9198254824614240 7.1469988527041455 12.1510829815969750 S
atom -0.0580239934029033 2.1691493755020463 17.7904651641370606 S
atom 4.9469813813435159 2.8987679298219438 17.1494620496709409 S
atom -0.0915125972623443 7.9372619095664669 17.1494620495666084 S
atom 4.9198254826723034 7.1469988526399284 17.7904651641022191 S
atom 0.2338483360814620 -0.1366351653392273 19.9674612670047118 Ba
atom 5.1448068938843194 -0.2641705876544248 19.9674612670394751 Ba
atom 0.1063129138027828 4.7743233921169237 19.9674612670667102 Ba
atom 5.2116978135772047 4.8412143118496065 19.9674612670941656 Ba
atom -0.3074181292374025 0.2344026464996737 24.9363092830703010 Ba
atom 4.7737690819221736 0.2770958779375975 24.9363092832210214 Ba
atom -0.2647248977823134 5.3155898574724656 24.9363092829972288 Ba
atom 4.6704313479520652 5.2122521235651558 24.9363092831602664 Ba
atom 2.4340245138847028 2.5394930954833312 22.4919672085025901 Zr
atom 7.4465281097986811 2.5135027125407330 22.4919672079412969 Zr
atom 2.4080341309720654 7.5519966916006434 22.4919672085049420 Zr
atom 7.4118739902610979 7.5173425721406044 22.4919672076538042 Zr
atom 2.4568248500532812 2.5269779135782082 27.5445427416310906 Zr
atom 7.4590432909002740 2.4907023765900038 27.5445427417066320 Zr
atom 2.4205493131067799 7.5291963562184216 27.5445427418942508 Zr
atom 7.4346743252152816 7.5048273908396554 27.5445427419104796 Zr
atom 2.7100763856832173 2.8659849863791123 19.9765070534989526 S
atom 7.1200362189760238 2.2374508400228197 19.9765070532943376 S
atom 2.0815422393618710 7.2759448196567407 19.9765070540562952 S
atom 7.6879258629863907 7.8438344636403263 19.9765070535682199 S
atom 2.1888528387332138 2.2281157845333603 24.9851610533230506 S
atom 7.7579054210339873 2.7586743869982255 24.9851610541080973 S
atom 2.7194114411155543 7.7971683666019800 24.9851610527473937 S
atom 7.1667023159998644 7.2059652616134668 24.9851610543082572 S
atom 2.8464647224741944 0.0306843577248784 22.1605373111803985 S
atom 7.0859834259569832 0.0039579295513666 22.7857650598514638 S
atom 2.0474894463680351 5.0424519091462807 22.7857650597386971 S
atom 7.8243141998454400 5.0085338347274906 22.1605373111406188 S
atom 2.7355032699030595 0.0327205391733588 27.7166580824432245 S
atom 7.1471967801278620 0.0057175401942056 27.1657209874695411 S
atom 2.1087028001721402 5.0442115193776349 27.1657209874806043 S
atom 7.7133527472886252 5.0105700156828226 27.7166580823151421 S
atom -0.0610066084741099 2.1617070056266150 22.1605373111257506 S
atom 4.9435692957975954 2.9000377793765346 22.7857650597528298 S
atom -0.0949246821437759 7.9385317591242739 22.7857650598375301 S
atom 4.9168428669720692 7.1395564829232816 22.1605373111960162 S
atom -0.0630427898984563 2.2726684582488104 27.7166580823966413 S
atom 4.9418096856012337 2.8388244254023580 27.1657209875648391 S
atom -0.0966842942953094 7.8773184051607696 27.1657209873790144 S
atom 4.9148066876303131 7.2505179353583671 27.7166580823573057 S
atom 0.0752672590974047 -0.1238613068386537 29.7188499214691326 Ba
atom 5.1320330351261649 -0.1055895104378611 29.7188499210120938 Ba
atom 0.0935390555382922 4.9329044693152211 29.7188499213881983 Ba
atom 5.0531167361816918 4.8539881703789893 29.7188499211172825 Ba
atom 2.6193504481310335 2.7860642644658200 30.0498916898208499 S
atom 7.1999569410270237 2.3281767775934998 30.0498916895149506 S
atom 2.1614629611825320 7.3666707571743713 30.0498916900241397 S
atom 7.5971999254238236 7.7639137415872383 30.0498916894215249 S
atom 2.3650634314797943 2.5641919975462018 33.1584011836163768 Ba
atom 7.4218292079114931 2.5824637942562001 33.1584011841573130 Ba
atom 2.3833352281708073 7.6209577738374916 33.1584011835602723 Ba
atom 7.3429129087319733 7.5420414746771121 33.1584011841469462 Ba
atom 2.7233273849148132 2.1815066092752016 37.9409418238792782 Ba
atom 7.8045145960386497 2.2241998406672359 37.9409418235870177 Ba
atom 2.7660206164939791 7.2626938206630847 37.9409418238090836 Ba
atom 7.7011768619791763 7.1593560866259445 37.9409418235397382 Ba
atom 5.0159026540726526 4.9457495880349578 35.3327083631241408 Zr
atom 10.0181210930573172 4.9094740507680115 35.3327083633067645 Zr
atom 4.9796271170820239 9.9479680299463453 35.3327083637153905 Zr
atom 9.9937521277792420 9.9235990646950576 35.3327083636911965 Zr
atom 5.0284178341946335 4.9229492518442290 40.3852838992533094 Zr
atom 10.0409214299713678 4.8969588692336652 40.3852838996045236 Zr
atom 5.0024274518272689 9.9354528489799545 40.3852838993435554 Zr
atom 10.0062673098139765 9.9007987289793977 40.3852838983826317 Zr
atom 5.2749890027758379 5.1082751866683500 32.8273594186785900 S
atom 9.8555954960136791 4.6503876999309739 32.8273594186006221 S
atom 4.8171015160322224 9.6888816796131625 32.8273594190733462 S
atom 10.2528384803580312 10.0861246638575288 32.8273594178468642 S
atom 4.7170405228095591 4.6777775772819208 37.8920900497576127 S
atom 10.2860931054492806 5.2083361798347347 37.8920900496052155 S
atom 5.2475991253966576 10.2468301595988933 37.8920900474413003 S
atom 9.6948900003129594 9.6556270543694183 37.8920900500488500 S
atom 4.7615931967507530 2.4258819478099563 35.1605930242637044 S
atom 10.3662431438960283 2.3922404454675297 35.7115301187031164 S
atom 5.3277491635757634 7.4307344249281071 35.7115301186151868 S
atom 9.7394426743351268 7.4037314247307231 35.1605930241446600 S
atom 4.6506317439641593 2.4279181310767539 40.7167137951235532 S
atom 10.4274564978546209 2.3940000559390056 40.0914860460758860 S
atom 5.3889625180707323 7.4324940332783136 40.0914860460069917 S
atom 9.6284812214605893 7.4057676059717812 40.7167137951062585 S
atom 2.5216452769018902 5.2244280085347468 35.1605930241581888 S
atom 7.5331362586311599 4.5976275390668491 35.7115301185326928 S
atom 2.4946422799622932 9.6361215184742530 35.7115301187847649 S
atom 7.4994947525876814 10.2022774855698994 35.1605930242370377 S
atom 2.5196090964829665 5.3353894612059234 40.7167137950887081 S
atom 7.5313766474877113 4.5364141849501429 40.0914860461943903 S
atom 2.4928826668758237 9.5749081642112071 40.0914860458916493 S
atom 7.4974585744744848 10.3132389383246501 40.7167137951379132 S
atom 2.3522895731906228 2.7227730748500982 42.9097898386216627 Ba
atom 7.2632481306420162 2.5952376525275187 42.9097898384912924 Ba
atom 2.2247541510169055 7.6337316321724051 42.9097898386438814 Ba
atom 7.3301390502584791 7.7006225520242682 42.9097898385080825 Ba
atom 2.7154248035611643 2.1643206338727525 47.9064770339645420 Ba
atom 7.8217005718638939 2.2321024220494960 47.9064770338723349 Ba
atom 2.7832065919191904 7.2705964015081994 47.9064770340445136 Ba
atom 7.6932742810893355 7.1421701107989133 47.9064770339392823 Ba
atom 5.0218344705045670 4.9356029276792341 45.3998368171147462 Zr
atom 10.0282677546195966 4.9035422327292411 45.3998368171783895 Zr
atom 4.9897737757308089 9.9420362121016872 45.3998368161152257 Zr
atom 9.9996839467889682 9.9134524046266570 45.3998368175749434 Zr
atom 5.0218344708387725 4.9356029285418437 50.4131172469089250 Zr
atom 10.0282677543558201 4.9035422324054814 50.4131172474179365 Zr
atom 4.9897737749314315 9.9420362112760348 50.4131172469599704 Zr
atom 9.9996839478468367 9.9134524048433423 50.4131172474266407 Zr
atom 5.3549097248274755 5.1990011242621037 42.9007440536881148 S
atom 9.7648695582736398 4.5704669778859905 42.9007440526383803 S
atom 4.7263755784704315 9.6089609575106163 42.9007440561390396 S
atom 10.3327592021817107 10.1768506014133369 42.9007440543959149 S
atom 4.6892460563761285 4.6643120505319571 47.9064770310549690 S
atom 10.2995586319918111 5.2361306465539093 47.9064770320178184 S
atom 5.2610646521992885 10.2746246261194294 47.9064770305264531 S
atom 9.6670955334143613 9.6421615277249622 47.9064770296757061 S
atom 4.6580741141805513 2.4309007439819967 45.0867859421390307 S
atom 10.4261866480552303 2.3974121395722623 45.7277890560122700 S
atom 5.3876926680639832 7.4359061210531259 45.7277890558864968 S
atom 9.6359235912676731 7.4087502229265612 45.0867859420800485 S
atom 4.6580741138716792 2.4309007445524982 50.7261681249411609 S
atom 10.4261866482346228 2.3974121418147791 50.0851650097163628 S
atom 5.3876926683730400 7.4359061204696530 50.0851650098510888 S
atom 9.6359235909046532 7.4087502207099440 50.7261681249355334 S
atom 2.5166264822033622 5.3279470913111764 45.0867859420086887 S
atom 7.5279645611164110 4.5376840346128215 45.7277890560120710 S
atom 2.4894705831218551 9.5761780142986836 45.7277890558916056 S
atom 7.4944759576932922 10.3057965682154187 45.0867859422150659 S
atom 2.5166264812615728 5.3279470914846474 50.7261681248824345 S
atom 7.5279645620541578 4.5376840343541183 50.0851650098281169 S
atom 2.4894705838844704 9.5761780139943298 50.0851650097342258 S
atom 7.4944759568313639 10.3057965688342037 50.7261681249900889 S
atom 2.3522895727668809 2.7227730748459011 52.9031642255598129 Ba
atom 7.2632481310236967 2.5952376527007193 52.9031642254874441 Ba
atom 2.2247541506859281 7.6337316322039204 52.9031642255583137 Ba
atom 7.3301390506420789 7.7006225517625682 52.9031642255069769 Ba
atom 2.7233273848871411 2.1815066094287481 57.8720122448783982 Ba
atom 7.8045145960456006 2.2241998406343146 57.8720122447951439 Ba
atom 2.7660206162234533 7.2626938204445626 57.8720122447873422 Ba
atom 7.7011768622394889 7.1593560867349408 57.8720122446879444 Ba
atom 5.0284178336032417 4.9229492525247549 55.4276701661026365 Zr
atom 10.0409214306496057 4.8969588696047612 55.4276701654198263 Zr
atom 5.0024274510270743 9.9354528483548190 55.4276701667352398 Zr
atom 10.0062673107582771 9.9007987286047641 55.4276701658420592 Zr
atom 5.0159026506706788 4.9457495866554329 60.4802457105791618 Zr
atom 10.0181210965844176 4.9094740523515625 60.4802457098956694 Zr
atom 4.9796271164847576 9.9479680311904044 60.4802457108182452 Zr
atom 9.9937521279581123 9.9235990633298474 60.4802457100719550 Zr
atom 5.3549097248815851 5.1990011242195626 52.9122100222282299 S
atom 9.7648695581537712 4.5704669778248874 52.9122100207862474 S
atom 4.7263755786841779 9.6089609577169668 52.9122100228863133 S
atom 10.3327592022159376 10.1768506014768576 52.9122100226470380 S
atom 4.7170405232266246 4.6777775771939289 57.9208640086803470 S
atom 10.2860931052465698 5.2083361797553067 57.9208640108921244 S
atom 5.2475991255860848 10.2468301594173710 57.9208640068473457 S
atom 9.6948900001166063 9.6556270544009486 57.9208640086691986 S
atom 4.6506317447969225 2.4279181286650484 55.0962402724485116 S
atom 10.4274564975057142 2.3940000546780693 55.7214680200723791 S
atom 5.3889625175166582 7.4324940357792970 55.7214680198430372 S
atom 9.6284812215994400 7.4057676072878253 55.0962402723622802 S
atom 4.7615931968566745 2.4258819498929780 60.6523610418413526 S
atom 10.3662431437155664 2.3922404463917828 60.1014239464591498 S
atom 5.3277491642361747 7.4307344232983805 60.1014239465063014 S
atom 9.7394426740996671 7.4037314237707541 60.6523610416871719 S
atom 2.5196090978339831 5.3353894606880443 55.0962402723742954 S
atom 7.5313766459832836 4.5364141850767474 55.7214680200317929 S
atom 2.4928826694809674 9.5749081649227019 55.7214680198849166 S
atom 7.4974585718332323 10.3132389379330256 55.0962402724541107 S
atom 2.5216452764099291 5.2244280083837760 60.6523610416542738 S
atom 7.5331362586978861 4.5976275387843737 60.1014239464853546 S
atom 2.4946422782296311 9.6361215182808380 60.1014239464526412 S
atom 7.4994947546411970 10.2022774857225933 60.6523610418755297 S
atom 2.3650634317318957 2.5641919975924257 62.6545528830442464 Ba
atom 7.4218292075589334 2.5824637939895880 62.6545528830980274 Ba
atom 2.3833352282260800 7.6209577740128092 62.6545528829439746 Ba
atom 7.3429129085093461 7.5420414750189062 62.6545528830082503 Ba
atom 5.2749890029558379 5.1082751865208094 62.9855946451184607 S
atom 9.8555954959022767 4.6503877000768368 62.9855946449013189 S
atom 4.8171015162771571 9.6888816795390333 62.9855946457623119 S
atom 10.2528384800173491 10.0861246637769941 62.9855946459139844 S
