#=======================================================
# FHI-aims file: full_relax/full_relax_RP_5_Rx00_0Ry0.in
# Created using the Atomic Simulation Environment (ASE)
# Fri Mar 14 11:29:27 2025
#=======================================================
lattice_vector 10.0851565031464947 0.0000000000000013 0.0000000000000002 
lattice_vector 0.0000000000000013 10.0851565031463615 0.0000000000000007 
lattice_vector 0.0000000000000010 0.0000000000000042 55.1728149013276763 
atom -0.1697112348162793 -0.0000000000002136 0.2927151787832185 Ba
atom 5.2122894863890483 -0.0000000000002088 0.2927151787832155 Ba
atom 0.1697112348157996 5.0425782515730857 0.2927151787831938 Ba
atom 4.8728670167569845 5.0425782515730866 0.2927151787832440 Ba
atom 0.0273176708889231 -0.0000000000001351 4.9622026524597125 Ba
atom 5.0152605806838819 -0.0000000000001355 4.9622026524597134 Ba
atom -0.0273176708893657 5.0425782515730164 4.9622026524597000 Ba
atom 5.0698959224621447 5.0425782515729880 4.9622026524597045 Ba
atom 2.5212891257863874 2.4992101775809688 2.3410920639786794 Zr
atom 7.5638673773596388 2.5433680739918496 2.3410920639784525 Zr
atom 2.5212891257864039 7.5859463255651320 2.3410920639784516 Zr
atom 7.5638673773596494 7.5417884291541215 2.3410920639784911 Zr
atom 2.5212891257864136 2.5208405993259295 7.3554408055597342 Zr
atom 7.5638673773596752 2.5217376522470456 7.3554408055595388 Zr
atom 2.5212891257863896 7.5643159038201935 7.3554408055594527 Zr
atom 7.5638673773596521 7.5634188508991587 7.3554408055596916 Zr
atom 2.5212891257863959 2.8086720898777009 -0.1373524067407351 S
atom 7.5638673773596077 2.2339061616951534 -0.1373524067404782 S
atom 2.5212891257863839 7.2764844132684461 -0.1373524067404203 S
atom 7.5638673773596086 7.8512503414508084 -0.1373524067406781 S
atom 2.5212891257864003 2.0547239444348926 4.8847643351113641 S
atom 7.5638673773596645 2.9878543071379968 4.8847643351112691 S
atom 2.5212891257864216 8.0304325587112189 4.8847643351110035 S
atom 7.5638673773596201 7.0973021960080453 4.8847643351111856 S
atom 2.5212891257864087 -0.0000000000000520 2.0415295323749505 S
atom 7.5638673773596361 -0.0000000000002073 2.7823804630341029 S
atom 2.5212891257863910 5.0425782515727269 2.7823804630340776 S
atom 7.5638673773596459 5.0425782515731141 2.0415295323749416 S
atom 2.5212891257864372 -0.0000000000002346 7.8282259391026701 S
atom 7.5638673773596388 -0.0000000000002818 6.8956416677162098 S
atom 2.5212891257863888 5.0425782515730937 6.8956416677161885 S
atom 7.5638673773596636 5.0425782515728201 7.8282259391026683 S
atom -0.0000000000003232 2.5212891257864496 2.4794512620876530 S
atom 5.0425782515731044 2.5212891257864527 2.4794512620876770 S
atom -0.0000000000001833 7.5638673773596157 2.4794512620877471 S
atom 5.0425782515729356 7.5638673773596032 2.4794512620877036 S
atom -0.0000000000002687 2.5212891257864554 7.3726369188074861 S
atom 5.0425782515730102 2.5212891257865109 7.3726369188074221 S
atom -0.0000000000001751 7.5638673773596636 7.3726369188074194 S
atom 5.0425782515730289 7.5638673773596166 7.3726369188075020 S
atom -0.0086069241431905 -0.0000000000001024 9.8520510628437830 Ba
atom 5.0511851757160251 -0.0000000000001539 9.8520510628438025 Ba
atom 0.0086069241427824 5.0425782515729676 9.8520510628438220 Ba
atom 5.0339713274300522 5.0425782515730049 9.8520510628438043 Ba
atom 0.0086069241427527 -0.0000000000002095 14.7786698752566519 Ba
atom 5.0339713274300770 -0.0000000000001665 14.7786698752566910 Ba
atom -0.0086069241432817 5.0425782515730893 14.7786698752567425 Ba
atom 5.0511851757160819 5.0425782515730475 14.7786698752566821 Ba
atom 2.5212891257863941 2.5212891257864953 12.3153604690501268 Zr
atom 7.5638673773596707 2.5212891257863559 12.3153604690504874 Zr
atom 2.5212891257864309 7.5638673773597072 12.3153604690506633 Zr
atom 7.5638673773596752 7.5638673773597205 12.3153604690503702 Zr
atom 2.5212891257864105 2.5217376522470412 17.2752801325411163 Zr
atom 7.5638673773596921 2.5208405993260077 17.2752801325403773 Zr
atom 2.5212891257864132 7.5634188508990903 17.2752801325406509 Zr
atom 7.5638673773596752 7.5643159038200425 17.2752801325406153 Zr
atom 2.5212891257864318 3.0289956160393139 9.8399002417547390 S
atom 7.5638673773596343 2.0135826355336124 9.8399002417552932 S
atom 2.5212891257863692 7.0561608871067101 9.8399002417552417 S
atom 7.5638673773596921 8.0715738676124822 9.8399002417549895 S
atom 2.5212891257863910 2.0135826355336355 14.7908206963458699 S
atom 7.5638673773596636 3.0289956160391545 14.7908206963463531 S
atom 2.5212891257864727 8.0715738676123223 14.7908206963457669 S
atom 7.5638673773596148 7.0561608871068975 14.7908206963465574 S
atom 2.5212891257864349 -0.0000000000001313 11.8379014526813897 S
atom 7.5638673773596352 -0.0000000000001547 12.7928194854188888 S
atom 2.5212891257863843 5.0425782515729933 12.7928194854190274 S
atom 7.5638673773596716 5.0425782515730884 11.8379014526812494 S
atom 2.5212891257864003 -0.0000000000002282 17.7350792703843361 S
atom 7.5638673773596707 0.0000000000000099 16.8024949989979895 S
atom 2.5212891257864434 5.0425782515732651 16.8024949989980037 S
atom 7.5638673773596334 5.0425782515729800 17.7350792703842934 S
atom -0.0000000000002735 2.5212891257863985 12.3153604690501144 S
atom 5.0425782515731230 2.5212891257864674 12.3153604690501943 S
atom -0.0000000000004920 7.5638673773596494 12.3153604690501037 S
atom 5.0425782515732473 7.5638673773595704 12.3153604690499989 S
atom -0.0000000000001715 2.5212891257864549 17.2580840192930545 S
atom 5.0425782515729498 2.5212891257864207 17.2580840192930260 S
atom -0.0000000000000241 7.5638673773595615 17.2580840192931042 S
atom 5.0425782515728335 7.5638673773596183 17.2580840192931930 S
atom -0.0273176708892666 -0.0000000000001332 19.6685182856410563 Ba
atom 5.0698959224620808 -0.0000000000001677 19.6685182856410812 Ba
atom 0.0273176708889263 5.0425782515730040 19.6685182856410492 Ba
atom 5.0152605806838668 5.0425782515730146 19.6685182856411025 Ba
atom 0.1697112348157449 -0.0000000000000952 24.3380057593181967 Ba
atom 4.8728670167570431 -0.0000000000000942 24.3380057593180936 Ba
atom -0.1697112348161371 5.0425782515729631 24.3380057593181114 Ba
atom 5.2122894863888902 5.0425782515729667 24.3380057593181398 Ba
atom 2.5212891257863554 2.5433680739918385 22.2896288741223252 Zr
atom 7.5638673773596716 2.4992101775809608 22.2896288741220125 Zr
atom 2.5212891257863697 7.5417884291541473 22.2896288741220019 Zr
atom 7.5638673773596699 7.5859463255650637 22.2896288741221085 Zr
atom 2.5212891257864367 2.9878543071378521 19.7459566029895939 S
atom 7.5638673773596192 2.0547239444349263 19.7459566029898319 S
atom 2.5212891257863865 7.0973021960081715 19.7459566029897431 S
atom 7.5638673773596858 8.0304325587110625 19.7459566029893416 S
atom 2.5212891257863363 2.2339061616951481 24.7680733448417989 S
atom 7.5638673773596539 2.8086720898777418 24.7680733448425912 S
atom 2.5212891257863879 7.8512503414509229 24.7680733448423922 S
atom 7.5638673773596086 7.2764844132682924 24.7680733448424064 S
atom 2.5212891257863972 -0.0000000000002544 21.8483404750667844 S
atom 7.5638673773596388 -0.0000000000002281 22.5891914057259058 S
atom 2.5212891257864065 5.0425782515730591 22.5891914057258987 S
atom 7.5638673773596414 5.0425782515730173 21.8483404750667667 S
atom -0.0000000000001667 2.5212891257863923 22.1512696760131718 S
atom 5.0425782515729800 2.5212891257864380 22.1512696760132215 S
atom -0.0000000000003318 7.5638673773596157 22.1512696760133032 S
atom 5.0425782515730697 7.5638673773595739 22.1512696760132606 S
atom 2.5212891257864047 2.3515778909704435 27.8791226294468295 Ba
atom 7.5638673773595642 2.6910003606024455 27.8791226294468011 Ba
atom 2.5212891257864198 7.7335786121756245 27.8791226294468402 Ba
atom 7.5638673773595810 7.3941561425435189 27.8791226294468402 Ba
atom 2.5212891257864229 2.5486067966757373 32.5486101031242470 Ba
atom 7.5638673773594878 2.4939714548970695 32.5486101031241688 Ba
atom 2.5212891257863532 7.5365497064704243 32.5486101031243038 Ba
atom 7.5638673773594718 7.5911850482487777 32.5486101031241191 Ba
atom 5.0204993033676484 5.0425782515730342 29.9274995146429390 Zr
atom 10.1072354513515581 5.0425782515730235 29.9274995146428680 Zr
atom 5.0646571997783152 10.0851565031461750 29.9274995146428573 Zr
atom 10.0630775549407456 10.0851565031461341 29.9274995146432339 Zr
atom 5.0421297251120825 5.0425782515729374 34.9418482562235511 Zr
atom 10.0856050296072830 5.0425782515730271 34.9418482562234729 Zr
atom 5.0430267780338198 10.0851565031462194 34.9418482562234587 Zr
atom 10.0847079766854133 10.0851565031461572 34.9418482562243540 Zr
atom 5.3299612156642260 5.0425782515729214 27.4490550439241687 S
atom 9.7977735390549476 5.0425782515729169 27.4490550439241687 S
atom 4.7551952874817669 10.0851565031462620 27.4490550439245204 S
atom 10.3725394672374645 10.0851565031462087 27.4490550439234333 S
atom 4.5760130702216655 5.0425782515731958 32.4711717857768605 S
atom 10.5517216844975579 5.0425782515731132 32.4711717857757378 S
atom 5.5091434329242128 10.0851565031460222 32.4711717857761997 S
atom 9.6185913217948809 10.0851565031459991 32.4711717857761570 S
atom 5.0425782515729605 2.5212891257864607 30.0658587127518402 S
atom 10.0851565031462229 2.5212891257864691 30.0658587127520214 S
atom 5.0425782515730102 7.5638673773595437 30.0658587127516270 S
atom 10.0851565031461767 7.5638673773595775 30.0658587127517976 S
atom 5.0425782515730138 2.5212891257863275 34.9590443694718758 S
atom 10.0851565031461412 2.5212891257866921 34.9590443694719326 S
atom 5.0425782515729134 7.5638673773597329 34.9590443694724584 S
atom 10.0851565031462123 7.5638673773593528 34.9590443694723021 S
atom 2.5212891257865691 5.0425782515730280 29.6279369830390955 S
atom 7.5638673773592391 5.0425782515729525 30.3687879136981245 S
atom 2.5212891257863861 10.0851565031461554 30.3687879136982666 S
atom 7.5638673773596450 10.0851565031461874 29.6279369830392874 S
atom 2.5212891257853856 5.0425782515730209 35.4146333897671681 S
atom 7.5638673773598830 5.0425782515730244 34.4820491183808642 S
atom 2.5212891257859500 10.0851565031461998 34.4820491183811768 S
atom 7.5638673773600118 10.0851565031460684 35.4146333897672960 S
atom 2.5212891257862586 2.5126822016435946 37.4384585135084933 Ba
atom 7.5638673773595162 2.5298960499292007 37.4384585135085075 Ba
atom 2.5212891257862995 7.5724743015027540 37.4384585135084791 Ba
atom 7.5638673773595428 7.5552604532165724 37.4384585135087562 Ba
atom 2.5212891257862919 2.5298960499294911 42.3650773259212841 Ba
atom 7.5638673773595944 2.5126822016433628 42.3650773259213054 Ba
atom 2.5212891257862609 7.5552604532167678 42.3650773259214475 Ba
atom 7.5638673773594922 7.5724743015023330 42.3650773259213977 Ba
atom 5.0425782515733708 5.0425782515729916 39.9017679197144091 Zr
atom 10.0851565031458517 5.0425782515729800 39.9017679197142670 Zr
atom 5.0425782515727624 10.0851565031462087 39.9017679197150272 Zr
atom 10.0851565031465693 10.0851565031461892 39.9017679197142598 Zr
atom 5.0430267780331910 5.0425782515730466 44.8616875832060202 Zr
atom 10.0847079766861025 5.0425782515730369 44.8616875832059918 Zr
atom 5.0421297251128276 10.0851565031462638 44.8616875832061126 Zr
atom 10.0856050296065565 10.0851565031460915 44.8616875832061766 Zr
atom 5.5502847418259167 5.0425782515727162 37.4263076924185896 S
atom 9.5774500128933777 5.0425782515727233 37.4263076924203943 S
atom 4.5348717613200415 10.0851565031465089 37.4263076924193356 S
atom 10.5928629933988958 10.0851565031464308 37.4263076924189093 S
atom 4.5348717613200105 5.0425782515733504 42.3772281470114791 S
atom 10.5928629933992244 5.0425782515732731 42.3772281470116852 S
atom 5.5502847418259842 10.0851565031459476 42.3772281470108467 S
atom 9.5774500128932178 10.0851565031458090 42.3772281470114507 S
atom 5.0425782515728086 2.5212891257866890 39.9017679197152830 S
atom 10.0851565031463259 2.5212891257861414 39.9017679197150699 S
atom 5.0425782515730964 7.5638673773593332 39.9017679197147075 S
atom 10.0851565031460542 7.5638673773598741 39.9017679197145014 S
atom 5.0425782515729933 2.5212891257862324 44.8444914699570134 S
atom 10.0851565031462620 2.5212891257863888 44.8444914699570205 S
atom 5.0425782515730262 7.5638673773596770 44.8444914699575747 S
atom 10.0851565031462638 7.5638673773598022 44.8444914699575889 S
atom 2.5212891257859971 5.0425782515731372 39.4243089033459526 S
atom 7.5638673773591405 5.0425782515729125 40.3792269360836187 S
atom 2.5212891257859940 10.0851565031460506 40.3792269360838318 S
atom 7.5638673773594958 10.0851565031462727 39.4243089033461942 S
atom 2.5212891257864394 5.0425782515730884 45.3214867210484229 S
atom 7.5638673773589344 5.0425782515729587 44.3889024496621118 S
atom 2.5212891257863062 10.0851565031462105 44.3889024496621118 S
atom 7.5638673773587515 10.0851565031461643 45.3214867210485224 S
atom 2.5212891257863062 2.4939714548974092 47.2549257363053528 Ba
atom 7.5638673773595100 2.5486067966755162 47.2549257363053599 Ba
atom 2.5212891257863679 7.5911850482489527 47.2549257363053741 Ba
atom 7.5638673773595633 7.5365497064702698 47.2549257363054025 Ba
atom 2.5212891257863150 2.6910003606025241 51.9244132099823545 Ba
atom 7.5638673773596379 2.3515778909703675 51.9244132099823759 Ba
atom 2.5212891257862919 7.3941561425436575 51.9244132099823332 Ba
atom 7.5638673773596166 7.7335786121755490 51.9244132099823901 Ba
atom 5.0646571997785594 5.0425782515729978 49.8760363247858010 Zr
atom 10.0630775549406764 5.0425782515730289 49.8760363247859360 Zr
atom 5.0204993033673331 10.0851565031462336 49.8760363247855878 Zr
atom 10.1072354513516469 10.0851565031462105 49.8760363247860710 Zr
atom 5.5091434329243967 5.0425782515728059 47.3323640536552332 S
atom 9.6185913217947867 5.0425782515727597 47.3323640536541603 S
atom 4.5760130702216104 10.0851565031464947 47.3323640536547288 S
atom 10.5517216844976964 10.0851565031464059 47.3323640536546151 S
atom 4.7551952874817198 5.0425782515731798 52.3544807955053173 S
atom 10.3725394672374520 5.0425782515731399 52.3544807955053315 S
atom 5.3299612156641842 10.0851565031460737 52.3544807955056726 S
atom 9.7977735390549707 10.0851565031460257 52.3544807955051326 S
atom 5.0425782515729312 2.5212891257864349 49.7376771266777240 S
atom 10.0851565031462336 2.5212891257863759 49.7376771266777951 S
atom 5.0425782515729711 7.5638673773596938 49.7376771266772835 S
atom 10.0851565031461483 7.5638673773596512 49.7376771266774256 S
atom 2.5212891257858736 5.0425782515730599 49.4347479257314717 S
atom 7.5638673773597995 5.0425782515729844 50.1755988563900814 S
atom 2.5212891257864269 10.0851565031461892 50.1755988563901596 S
atom 7.5638673773596619 10.0851565031462087 49.4347479257314717 S
