#=======================================================
# FHI-aims file: full_relax/full_relax_RP_6_00Rz_00Rz.in
# Created using the Atomic Simulation Environment (ASE)
# Fri Mar 14 11:38:46 2025
#=======================================================
lattice_vector 9.9009233785158433 0.0000000483908722 -0.0000000000000053 
lattice_vector 0.0000000483908722 9.9009233785158433 -0.0000000000000019 
lattice_vector -0.0000000000000344 -0.0000000000000121 67.1542762955701278 
atom -0.0000000000007535 -0.0000000000006463 0.1625327519773883 Ba
atom 4.9504616892569748 0.0000000241949704 0.1625327519773757 Ba
atom 0.0000000241944792 4.9504616892573479 0.1625327519774850 Ba
atom 4.9504617134524800 4.9504617134530529 0.1625327519772238 Ba
atom -0.0000000000007542 -0.0000000000005374 5.0702179191694272 Ba
atom 4.9504616892571676 0.0000000241947915 5.0702179191694876 Ba
atom 0.0000000241947478 4.9504616892571951 5.0702179191693473 Ba
atom 4.9504617134526026 4.9504617134527580 5.0702179191693535 Ba
atom 2.4752308567259100 2.4752308567261831 2.4407607167098391 Zr
atom 7.4256925459837841 2.4752308809215888 2.4407607167098924 Zr
atom 2.4752308809213321 7.4256925459841217 2.4407607167097587 Zr
atom 7.4256925701792662 7.4256925701795788 2.4407607167098391 Zr
atom 2.4752308567259513 2.4752308567261863 7.5829482294538391 Zr
atom 7.4256925459838428 2.4752308809215799 7.5829482294539661 Zr
atom 2.4752308809214321 7.4256925459841057 7.5829482294537804 Zr
atom 7.4256925701793399 7.4256925701794998 7.5829482294536605 Zr
atom 2.4752308567259380 2.4752308567261792 -0.1030540443092093 S
atom 7.4256925459837504 2.4752308809215493 -0.1030540443092215 S
atom 2.4752308809213091 7.4256925459841581 -0.1030540443093351 S
atom 7.4256925701792920 7.4256925701795762 -0.1030540443092180 S
atom 2.4752308567258403 2.4752308567261667 5.0441930628199314 S
atom 7.4256925459839289 2.4752308809215409 5.0441930628198790 S
atom 2.4752308809214596 7.4256925459841430 5.0441930628198390 S
atom 7.4256925701792298 7.4256925701795797 5.0441930628198053 S
atom 2.0459912601565229 0.0000049779111487 2.5339475767405260 S
atom 7.8549321183579703 -0.0000049295212865 2.5339475767405535 S
atom 2.9044704532952843 4.9504567355412128 2.5339475767405037 S
atom 6.9964529736098591 4.9504666913645341 2.5339475767405348 S
atom 3.0113275565119810 -0.0000000609540700 7.6028539435716098 S
atom 6.8895958220024216 0.0000001093440029 7.6028539435714766 S
atom 1.9391341569399778 4.9504617744065547 7.6028539435714837 S
atom 7.9617892699653181 4.9504616524992304 7.6028539435713682 S
atom -0.0000049537169778 2.9044704291001957 2.5339475767405202 S
atom 4.9504666671688007 2.0459912843520378 2.5339475767406698 S
atom 0.0000050021063482 6.9964529494146497 2.5339475767405824 S
atom 4.9504567597363600 7.8549321425534870 2.5339475767405215 S
atom 0.0000000851483801 1.9391341327448839 7.6028539435715929 S
atom 4.9504616283036729 3.0113275807076807 7.6028539435714064 S
atom -0.0000000367588713 7.9617892457700439 7.6028539435715565 S
atom 4.9504617986017445 6.8895958461981124 7.6028539435714526 S
atom -0.0000000000006247 -0.0000000000004659 10.1573187835954286 Ba
atom 4.9504616892572928 0.0000000241951256 10.1573187835954197 Ba
atom 0.0000000241946847 4.9504616892573612 10.1573187835952883 Ba
atom 4.9504617134525724 4.9504617134528379 10.1573187835952794 Ba
atom -0.0000000000006396 -0.0000000000004925 15.2623355217186596 Ba
atom 4.9504616892571542 0.0000000241951201 15.2623355217184393 Ba
atom 0.0000000241947514 4.9504616892572804 15.2623355217187235 Ba
atom 4.9504617134528246 4.9504617134528548 15.2623355217186685 Ba
atom 2.4752308567259731 2.4752308567262431 12.7024578034174827 Zr
atom 7.4256925459839342 2.4752308809216519 12.7024578034176354 Zr
atom 2.4752308809214685 7.4256925459840897 12.7024578034173334 Zr
atom 7.4256925701793914 7.4256925701795389 12.7024578034172251 Zr
atom 2.4752308567260108 2.4752308567262156 17.8222132400193800 Zr
atom 7.4256925459838721 2.4752308809216239 17.8222132400197282 Zr
atom 2.4752308809214929 7.4256925459840932 17.8222132400193090 Zr
atom 7.4256925701793168 7.4256925701795140 17.8222132400191313 Zr
atom 2.4752308567260801 2.4752308567263066 10.1526777871197709 S
atom 7.4256925459838152 2.4752308809215346 10.1526777871198881 S
atom 2.4752308809214671 7.4256925459840959 10.1526777871197922 S
atom 7.4256925701793000 7.4256925701795993 10.1526777871196892 S
atom 2.4752308567259136 2.4752308567262888 15.2623355217185495 S
atom 7.4256925459839342 2.4752308809217518 15.2623355217187129 S
atom 2.4752308809215591 7.4256925459841581 15.2623355217184145 S
atom 7.4256925701793159 7.4256925701794900 15.2623355217185264 S
atom 1.9404267153127595 0.0000000100363795 12.7104828672356653 S
atom 7.9604966632018277 0.0000000383535947 12.7104828672356334 S
atom 3.0100349981393850 4.9504617034160594 12.7104828672357169 S
atom 6.8908884287661358 4.9504617234896875 12.7104828672353882 S
atom 3.0100349739439758 0.0000000141581890 17.8141881762012240 S
atom 6.8908884045705374 0.0000000342318037 17.8141881762015686 S
atom 1.9404267395080446 4.9504616992942374 17.8141881762013945 S
atom 7.9604966873973817 4.9504617276114518 17.8141881762014762 S
atom 0.0000000141579477 3.0100349739441095 12.7104828672355019 S
atom 4.9504616992940536 1.9404267395084718 12.7104828672356724 S
atom 0.0000000342315440 6.8908884045708030 12.7104828672357701 S
atom 4.9504617276113532 7.9604966873974607 12.7104828672355552 S
atom 0.0000000100361466 1.9404267153128618 17.8141881762013696 S
atom 4.9504617034158578 3.0100349981396879 17.8141881762017356 S
atom 0.0000000383534414 7.9604966632020187 17.8141881762013874 S
atom 4.9504617234894912 6.8908884287659529 17.8141881762017356 S
atom -0.0000000000009525 -0.0000000000004138 20.3673522598414536 Ba
atom 4.9504616892572102 0.0000000241946532 20.3673522598414465 Ba
atom 0.0000000241949992 4.9504616892572129 20.3673522598414323 Ba
atom 4.9504617134530173 4.9504617134525688 20.3673522598419794 Ba
atom -0.0000000000004770 -0.0000000000010121 25.4544531242666707 Ba
atom 4.9504616892572537 0.0000000241948391 25.4544531242662231 Ba
atom 0.0000000241944507 4.9504616892575326 25.4544531242664966 Ba
atom 4.9504617134523308 4.9504617134529498 25.4544531242672036 Ba
atom 2.4752308567259607 2.4752308567261729 22.9417228139821248 Zr
atom 7.4256925459838810 2.4752308809215302 22.9417228139825902 Zr
atom 2.4752308809213459 7.4256925459840275 22.9417228139821248 Zr
atom 7.4256925701792955 7.4256925701794323 22.9417228139819542 Zr
atom 2.4752308567259078 2.4752308567261543 28.0839103267258636 Zr
atom 7.4256925459838916 2.4752308809215005 28.0839103267261834 Zr
atom 2.4752308809213157 7.4256925459841110 28.0839103267259631 Zr
atom 7.4256925701792387 7.4256925701794776 28.0839103267259098 Zr
atom 2.4752308567259287 2.4752308567262360 20.3719932563167667 S
atom 7.4256925459839707 2.4752308809214201 20.3719932563169621 S
atom 2.4752308809215187 7.4256925459842256 20.3719932563166495 S
atom 7.4256925701793026 7.4256925701796401 20.3719932563165749 S
atom 2.4752308567261432 2.4752308567262942 25.4804779806158201 S
atom 7.4256925459837806 2.4752308809216048 25.4804779806161861 S
atom 2.4752308809212407 7.4256925459841021 25.4804779806159090 S
atom 7.4256925701794367 7.4256925701792973 25.4804779806158699 S
atom 1.9391341327449385 0.0000000851485349 22.9218170998647253 S
atom 7.9617892457695554 -0.0000000367587963 22.9218170998652226 S
atom 3.0113275807071949 4.9504616283038168 22.9218170998650947 S
atom 6.8895958461981790 4.9504617986018298 22.9218170998654038 S
atom 2.9044704290998440 -0.0000049537167328 27.9907234666946287 S
atom 6.9964529494144223 0.0000050021064631 27.9907234666950266 S
atom 2.0459912843520298 4.9504666671690645 27.9907234666948668 S
atom 7.8549321425532161 4.9504567597366025 27.9907234666951830 S
atom -0.0000000609543657 3.0113275565118118 22.9218170998648283 S
atom 4.9504617744063140 1.9391341569404179 22.9218170998646649 S
atom 0.0000001093437873 6.8895958220029465 22.9218170998646045 S
atom 4.9504616524990590 7.9617892699649877 22.9218170998647430 S
atom 0.0000049779109534 2.0459912601566206 27.9907234666948312 S
atom 4.9504567355409499 2.9044704532954455 27.9907234666956768 S
atom -0.0000049295215088 7.8549321183578771 27.9907234666954565 S
atom 4.9504666913641842 6.9964529736101797 27.9907234666953890 S
atom -0.0000000000005959 -0.0000000000004192 30.3621382914584537 Ba
atom 4.9504616892570414 0.0000000241944602 30.3621382914578675 Ba
atom 0.0000000241947969 4.9504616892577378 30.3621382914580948 Ba
atom 4.9504617134523636 4.9504617134527722 30.3621382914584466 Ba
atom 2.4752308567257493 2.4752308567261649 30.6277250877449099 S
atom 7.4256925459840204 2.4752308809213384 30.6277250877449490 S
atom 2.4752308809214076 7.4256925459841687 30.6277250877448992 S
atom 7.4256925701792094 7.4256925701796783 30.6277250877448957 S
atom 2.4752308567259882 2.4752308567256587 33.7396708997626007 Ba
atom 7.4256925459845071 2.4752308809212220 33.7396708997625723 Ba
atom 2.4752308809209849 7.4256925459844769 33.7396708997625581 Ba
atom 7.4256925701795664 7.4256925701796845 33.7396708997627073 Ba
atom 2.4752308567252062 2.4752308567257422 38.6473560669546927 Ba
atom 7.4256925459833241 2.4752308809213446 38.6473560669544227 Ba
atom 2.4752308809212784 7.4256925459837042 38.6473560669546430 Ba
atom 7.4256925701790015 7.4256925701792049 38.6473560669540674 Ba
atom 4.9504617134524826 4.9504617134527447 36.0178988644947253 Zr
atom 9.9009234027104185 4.9504617376482045 36.0178988644950167 Zr
atom 4.9504617376478564 9.9009234027108839 36.0178988644947040 Zr
atom 9.9009234269058766 9.9009234269060826 36.0178988644961748 Zr
atom 4.9504617134523219 4.9504617134526461 41.1600863772384855 Zr
atom 9.9009234027103350 4.9504617376480455 41.1600863772386987 Zr
atom 4.9504617376476725 9.9009234027105695 41.1600863772385281 Zr
atom 9.9009234269056829 9.9009234269059405 41.1600863772402192 Zr
atom 4.9504617134525297 4.9504617134521247 33.4740841034755761 S
atom 9.9009234027098323 4.9504617376485323 33.4740841034757182 S
atom 4.9504617376476316 9.9009234027115145 33.4740841034753629 S
atom 9.9009234269058997 9.9009234269058943 33.4740841034762653 S
atom 4.9504617134524214 4.9504617134532580 38.6213312106049926 S
atom 9.9009234027101698 4.9504617376482640 38.6213312106046303 S
atom 4.9504617376477338 9.9009234027103332 38.6213312106049642 S
atom 9.9009234269057185 9.9009234269060773 38.6213312106051561 S
atom 4.5212221168830604 2.4752358346378109 36.1110857245260704 S
atom 10.3301629750840203 2.4752259272053765 36.1110857245258146 S
atom 5.3797013100213196 7.4256875922678853 36.1110857245251680 S
atom 9.4716838303366373 7.4256975480910317 36.1110857245261698 S
atom 5.4865584132376783 2.4752307957723803 41.1799920913554018 S
atom 9.3648266787294308 2.4752309660705536 41.1799920913556363 S
atom 4.4143650136668535 7.4256926311329767 41.1799920913563753 S
atom 10.4370201266912375 7.4256925092256107 41.1799920913563398 S
atom 2.4752259030096031 5.3797012858266120 36.1110857245253882 S
atom 7.4256975238951606 4.5212221410789359 36.1110857245257577 S
atom 2.4752358588329728 9.4716838061415398 36.1110857245260064 S
atom 7.4256876164627172 10.3301629992798336 36.1110857245263759 S
atom 2.4752309418746372 4.4143649894716663 41.1799920913555439 S
atom 7.4256924850300861 5.4865584374333842 41.1799920913555084 S
atom 2.4752308199674324 10.4370201024960227 41.1799920913560058 S
atom 7.4256926553280334 9.3648267029252477 41.1799920913557216 S
atom 2.4752308567259398 2.4752308567258097 43.7344569313794622 Ba
atom 7.4256925459838330 2.4752308809212513 43.7344569313792277 Ba
atom 2.4752308809209160 7.4256925459838410 43.7344569313799454 Ba
atom 7.4256925701789829 7.4256925701796579 43.7344569313785740 Ba
atom 2.4752308567253514 2.4752308567258248 48.8394736695022118 Ba
atom 7.4256925459835843 2.4752308809214787 48.8394736695019702 Ba
atom 2.4752308809208374 7.4256925459839973 48.8394736695020129 Ba
atom 7.4256925701788106 7.4256925701792822 48.8394736695019276 Ba
atom 4.9504617134523832 4.9504617134528086 46.2795959512010668 Zr
atom 9.9009234027101414 4.9504617376480402 46.2795959512018840 Zr
atom 4.9504617376478173 9.9009234027108199 46.2795959512013013 Zr
atom 9.9009234269056741 9.9009234269059547 46.2795959512031914 Zr
atom 4.9504617134524453 4.9504617134526328 51.3993513878028381 Zr
atom 9.9009234027103634 4.9504617376480127 51.3993513878038613 Zr
atom 4.9504617376477347 9.9009234027104878 51.3993513878032928 Zr
atom 9.9009234269056741 9.9009234269059778 51.3993513878048276 Zr
atom 4.9504617134520634 4.9504617134521745 43.7298159349037903 S
atom 9.9009234027104558 4.9504617376480633 43.7298159349043374 S
atom 4.9504617376478590 9.9009234027109994 43.7298159349040247 S
atom 9.9009234269053756 9.9009234269061039 43.7298159349042521 S
atom 4.9504617134524445 4.9504617134526390 48.8394736695016078 S
atom 9.9009234027101094 4.9504617376479265 48.8394736695025458 S
atom 4.9504617376473705 9.9009234027104700 48.8394736695018423 S
atom 9.9009234269060737 9.9009234269059974 48.8394736695027021 S
atom 4.4156575720389526 2.4752308667627734 46.2876210150197309 S
atom 10.4357275199279744 2.4752308950798603 46.2876210150196243 S
atom 5.4852658548656317 7.4256925601425694 46.2876210150188570 S
atom 9.3661192854920987 7.4256925802161717 46.2876210150196457 S
atom 5.4852658306703699 2.4752308708845745 51.3913263239843516 S
atom 9.3661192612966531 2.4752308909580769 51.3913263239852895 S
atom 4.4156575962341567 7.4256925560205982 51.3913263239845861 S
atom 10.4357275441238233 7.4256925843379289 51.3913263239858367 S
atom 2.4752308708841007 5.4852658306702295 46.2876210150196812 S
atom 7.4256925560203637 4.4156575962346389 46.2876210150191625 S
atom 2.4752308909577057 9.3661192612973547 46.2876210150193828 S
atom 7.4256925843376891 10.4357275441238091 46.2876210150201857 S
atom 2.4752308667625513 4.4156575720390538 51.3913263239850053 S
atom 7.4256925601421058 5.4852658548660731 51.3913263239852114 S
atom 2.4752308950796715 10.4357275199285926 51.3913263239856590 S
atom 7.4256925802157774 9.3661192854923669 51.3913263239853038 S
atom 2.4752308567256303 2.4752308567262684 53.9444904076251817 Ba
atom 7.4256925459833800 2.4752308809215751 53.9444904076250609 Ba
atom 2.4752308809214516 7.4256925459838969 53.9444904076251817 Ba
atom 7.4256925701791285 7.4256925701790824 53.9444904076250680 Ba
atom 2.4752308567260752 2.4752308567260197 59.0315912720513793 Ba
atom 7.4256925459835736 2.4752308809214369 59.0315912720512372 Ba
atom 2.4752308809214276 7.4256925459835257 59.0315912720518128 Ba
atom 7.4256925701790175 7.4256925701790397 59.0315912720513936 Ba
atom 4.9504617134523867 4.9504617134526949 56.5188609617664142 Zr
atom 9.9009234027102977 4.9504617376480171 56.5188609617677500 Zr
atom 4.9504617376477897 9.9009234027105304 56.5188609617674729 Zr
atom 9.9009234269057291 9.9009234269058641 56.5188609617679560 Zr
atom 4.9504617134523468 4.9504617134527686 61.6610484745104230 Zr
atom 9.9009234027101698 4.9504617376481939 61.6610484745114036 Zr
atom 4.9504617376478262 9.9009234027107631 61.6610484745107925 Zr
atom 9.9009234269055906 9.9009234269061217 61.6610484745115102 Zr
atom 4.9504617134523414 4.9504617134527455 53.9491314041005481 S
atom 9.9009234027101609 4.9504617376479256 53.9491314041009815 S
atom 4.9504617376478794 9.9009234027104220 53.9491314041007541 S
atom 9.9009234269055035 9.9009234269062247 53.9491314041013297 S
atom 4.9504617134524525 4.9504617134526221 59.0576161284003618 S
atom 9.9009234027100064 4.9504617376484594 59.0576161284008947 S
atom 4.9504617376475908 9.9009234027105553 59.0576161284007739 S
atom 9.9009234269055622 9.9009234269060649 59.0576161284011931 S
atom 4.4143649894708439 2.4752309418749694 56.4989552476484675 S
atom 10.4370201024962999 2.4752308199677104 56.4989552476494126 S
atom 5.4865584374339038 7.4256924850302504 56.4989552476487731 S
atom 9.3648267029240753 7.4256926553283620 56.4989552476494552 S
atom 5.3797012858264699 2.4752259030099042 61.5678616144798099 S
atom 9.4716838061406747 2.4752358588331425 61.5678616144800728 S
atom 4.5212221410785682 7.4256975238956686 61.5678616144805275 S
atom 10.3301629992797821 7.4256876164632279 61.5678616144808615 S
atom 2.4752307957720108 5.4865584132387522 56.4989552476491639 S
atom 7.4256926311325948 4.4143650136665631 56.4989552476489507 S
atom 2.4752309660701397 9.3648266787288375 56.4989552476494978 S
atom 7.4256925092253949 10.4370201266919125 56.4989552476496826 S
atom 2.4752358346372629 4.5212221168833349 61.5678616144799733 S
atom 7.4256875922673533 5.3797013100222788 61.5678616144803712 S
atom 2.4752259272048449 10.3301629750846242 61.5678616144801225 S
atom 7.4256975480906382 9.4716838303364437 61.5678616144800301 S
atom 2.4752308567257533 2.4752308567262937 63.9392764392436064 Ba
atom 7.4256925459832077 2.4752308809215551 63.9392764392438195 Ba
atom 2.4752308809210550 7.4256925459840541 63.9392764392439616 Ba
atom 7.4256925701788052 7.4256925701795753 63.9392764392437911 Ba
atom 4.9504617134522224 4.9504617134525271 64.2048632355295013 S
atom 9.9009234027103208 4.9504617376481832 64.2048632355297002 S
atom 4.9504617376481992 9.9009234027111575 64.2048632355295155 S
atom 9.9009234269053739 9.9009234269059903 64.2048632355302260 S
