#=======================================================
# FHI-aims file: full_relax/full_relax_RP_8_000_000.in
# Created using the Atomic Simulation Environment (ASE)
# Mon Mar 24 15:52:24 2025
#=======================================================
lattice_vector 10.0662460283968720 -0.0000000000000000 -0.0000000000000002 
lattice_vector -0.0000000000000000 10.0662460283968720 -0.0000000000000002 
lattice_vector -0.0000000000000014 -0.0000000000000017 85.9146421342590401 
atom -0.0000000000018926 -0.0000000000026971 0.2853456457307766 Ba
atom 5.0331230141992211 -0.0000000000013223 0.2853456457088390 Ba
atom -0.0000000000029400 5.0331230141999672 0.2853456457203971 Ba
atom 5.0331230142003092 5.0331230141986705 0.2853456457214849 Ba
atom -0.0000000000009592 0.0000000000003767 5.0603342462865761 Ba
atom 5.0331230141987700 -0.0000000000010506 5.0603342462868595 Ba
atom -0.0000000000000488 5.0331230141972627 5.0603342462856533 Ba
atom 5.0331230141977121 5.0331230141985381 5.0603342462848486 Ba
atom 2.5165615071011804 2.5165615070994880 2.3085437683372878 Zr
atom 7.5496845212947035 2.5165615070988725 2.3085437683370067 Zr
atom 2.5165615071015535 7.5496845212960482 2.3085437683363432 Zr
atom 7.5496845212936501 7.5496845212965100 2.3085437683289598 Zr
atom 2.5165615070985141 2.5165615070986282 7.3871895508140213 Zr
atom 7.5496845212971984 2.5165615070987655 7.3871895508163297 Zr
atom 2.5165615070985812 7.5496845212970642 7.3871895508145657 Zr
atom 7.5496845212972907 7.5496845212969506 7.3871895508094543 Zr
atom 2.5165615070986589 2.5165615071013443 -0.1828780079922199 S
atom 7.5496845212971699 2.5165615071020411 -0.1828780079940359 S
atom 2.5165615071012777 7.5496845212944903 -0.1828780079956147 S
atom 7.5496845212944228 7.5496845212937904 -0.1828780080013222 S
atom 2.5165615070956702 2.5165615070955640 4.8967402427506679 S
atom 7.5496845213000752 2.5165615070919745 4.8967402427489226 S
atom 2.5165615071009393 7.5496845213001897 4.8967402427463815 S
atom 7.5496845212946875 7.5496845213037505 4.8967402427490150 S
atom 2.5165615070968119 -0.0000000000018585 2.4390590893722535 S
atom 7.5496845212987918 -0.0000000000010875 2.4390590893712987 S
atom 2.5165615071003886 5.0331230141998864 2.4390590893753061 S
atom 7.5496845212952843 5.0331230141995214 2.4390590893787798 S
atom 2.5165615071323861 -0.0000000000001908 7.4220777692862487 S
atom 7.5496845212634343 0.0000000000008172 7.4220777692908184 S
atom 2.5165615070650720 5.0331230141983427 7.4220777692773190 S
atom 7.5496845213307546 5.0331230141972254 7.4220777692736490 S
atom -0.0000000000001691 2.5165615071005663 2.4390590893725337 S
atom 5.0331230141973853 2.5165615070971534 2.4390590893742705 S
atom -0.0000000000030292 7.5496845212950046 2.4390590893765065 S
atom 5.0331230142017320 7.5496845212984125 2.4390590893743527 S
atom 0.0000000000006511 2.5165615070654774 7.4220777692857673 S
atom 5.0331230141974519 2.5165615071313812 7.4220777692773270 S
atom 0.0000000000016605 7.5496845213303425 7.4220777692784639 S
atom 5.0331230141960743 7.5496845212644335 7.4220777692865649 S
atom 0.0000000000002004 0.0000000000003465 9.9969775372958569 Ba
atom 5.0331230141974999 0.0000000000011778 9.9969775372958356 Ba
atom -0.0000000000001246 5.0331230141973560 9.9969775372972371 Ba
atom 5.0331230141978862 5.0331230141964935 9.9969775372972869 Ba
atom -0.0000000000005428 0.0000000000000972 14.9818951165185723 Ba
atom 5.0331230141982566 -0.0000000000002863 14.9818951165184657 Ba
atom -0.0000000000003552 5.0331230141976668 14.9818951165176841 Ba
atom 5.0331230141983090 5.0331230141981580 14.9818951165175065 Ba
atom 2.5165615070989382 2.5165615070989675 12.4280156819421297 Zr
atom 7.5496845212968013 2.5165615070987855 12.4280156819443821 Zr
atom 2.5165615070988827 7.5496845212967241 12.4280156819439380 Zr
atom 7.5496845212970465 7.5496845212974319 12.4280156819478709 Zr
atom 2.5165615070989147 2.5165615070990528 17.4633082668684771 Zr
atom 7.5496845212969763 2.5165615070985745 17.4633082668603734 Zr
atom 2.5165615070986314 7.5496845212970234 17.4633082668651660 Zr
atom 7.5496845212968591 7.5496845212970376 17.4633082668753943 Zr
atom 2.5165615071035337 2.5165615071043512 9.9242772383086422 S
atom 7.5496845212921890 2.5165615071087895 9.9242772383081483 S
atom 2.5165615070932996 7.5496845212914057 9.9242772383096334 S
atom 7.5496845213025763 7.5496845212871682 9.9242772383057360 S
atom 2.5165615070920482 2.5165615070904801 14.9518280176532645 S
atom 7.5496845213037540 2.5165615070879079 14.9518280176535576 S
atom 2.5165615071063705 7.5496845213053509 14.9518280176598477 S
atom 7.5496845212893708 7.5496845213079862 14.9518280176604126 S
atom 2.5165615070955356 -0.0000000000012388 12.4441428882007816 S
atom 7.5496845213003541 -0.0000000000006812 12.4441428881972111 S
atom 2.5165615071017391 5.0331230141995693 12.4441428882156337 S
atom 7.5496845212941093 5.0331230141978320 12.4441428882189307 S
atom 2.5165615071089475 0.0000000000030016 17.4671370997830842 S
atom 7.5496845212870323 0.0000000000006416 17.4671370997835638 S
atom 2.5165615070884209 5.0331230141948318 17.4671370997659068 S
atom 7.5496845213075288 5.0331230141979777 17.4671370997640594 S
atom -0.0000000000007172 2.5165615071023648 12.4441428882027587 S
atom 5.0331230141990924 2.5165615070953584 12.4441428882150600 S
atom -0.0000000000001307 7.5496845212934893 12.4441428882142198 S
atom 5.0331230141980781 7.5496845213005201 12.4441428882007319 S
atom -0.0000000000018946 2.5165615070887868 17.4671370997830664 S
atom 5.0331230142000942 2.5165615071088205 17.4671370997665960 S
atom -0.0000000000020568 7.5496845213070944 17.4671370997648658 S
atom 5.0331230142012018 7.5496845212870367 17.4671370997827253 S
atom -0.0000000000009265 -0.0000000000016518 19.9801493335487770 Ba
atom 5.0331230141985976 -0.0000000000013894 19.9801493335488622 Ba
atom -0.0000000000008520 5.0331230141994254 19.9801493335484928 Ba
atom 5.0331230141985488 5.0331230141991297 19.9801493335486846 Ba
atom 0.0000000000003134 -0.0000000000002784 24.9784035505783244 Ba
atom 5.0331230141976819 -0.0000000000009878 24.9784035505783883 Ba
atom 0.0000000000001648 5.0331230141979413 24.9784035505786690 Ba
atom 5.0331230141977921 5.0331230141986811 24.9784035505788680 Ba
atom 2.5165615070984675 2.5165615070984297 22.4969904002149867 Zr
atom 7.5496845212973440 2.5165615070988743 22.4969904002138286 Zr
atom 2.5165615070991216 7.5496845212972721 22.4969904002162444 Zr
atom 7.5496845212970394 7.5496845212970820 22.4969904002058563 Zr
atom 2.5165615070992073 2.5165615070986918 27.5322829851783197 Zr
atom 7.5496845212967667 2.5165615070988410 27.5322829851827358 Zr
atom 2.5165615070989205 7.5496845212969674 27.5322829851812969 Zr
atom 7.5496845212970687 7.5496845212972330 27.5322829851680275 Zr
atom 2.5165615071080145 2.5165615071079341 19.9801493335387619 S
atom 7.5496845212878325 2.5165615071079834 19.9801493335376925 S
atom 2.5165615070885994 7.5496845212879471 19.9801493335290843 S
atom 7.5496845213072410 7.5496845212878032 19.9801493335381188 S
atom 2.5165615070850063 2.5165615070902936 25.0084706494471511 S
atom 7.5496845213107608 2.5165615070922098 25.0084706494521782 S
atom 2.5165615071108243 7.5496845213054797 25.0084706494520326 S
atom 7.5496845212851502 7.5496845213037149 25.0084706494491193 S
atom 2.5165615071057652 -0.0000000000022804 22.4931615673191807 S
atom 7.5496845212902155 -0.0000000000039502 22.4931615673208363 S
atom 2.5165615070920739 5.0331230142006591 22.4931615673354024 S
atom 7.5496845213038837 5.0331230142016654 22.4931615673344432 S
atom 2.5165615070875211 0.0000000000011820 27.5161557788853699 S
atom 7.5496845213084915 0.0000000000002890 27.5161557788834479 S
atom 2.5165615071096754 5.0331230141972148 27.5161557788716991 S
atom 7.5496845212863208 5.0331230141971162 27.5161557788748858 S
atom -0.0000000000010610 2.5165615070925629 22.4931615673149849 S
atom 5.0331230141994805 2.5165615071045271 22.4931615673388734 S
atom 0.0000000000005370 7.5496845213033659 22.4931615673389764 S
atom 5.0331230141971579 7.5496845212913826 22.4931615673177383 S
atom 0.0000000000003735 2.5165615071102785 27.5161557788942517 S
atom 5.0331230141973622 2.5165615070874088 27.5161557788624300 S
atom 0.0000000000015215 7.5496845212855588 27.5161557788679083 S
atom 5.0331230141965069 7.5496845213084560 27.5161557788910649 S
atom 0.0000000000009671 -0.0000000000001914 29.9633211298004092 Ba
atom 5.0331230141966357 0.0000000000017876 29.9633211298000788 Ba
atom 0.0000000000012371 5.0331230141977894 29.9633211297999011 Ba
atom 5.0331230141965273 5.0331230141959615 29.9633211297990876 Ba
atom 0.0000000000002328 0.0000000000029631 34.8999644208060005 Ba
atom 5.0331230141974386 -0.0000000000029695 34.8999644208065831 Ba
atom -0.0000000000002663 5.0331230141948469 34.8999644208065973 Ba
atom 5.0331230141980132 5.0331230142005241 34.8999644208073363 Ba
atom 2.5165615070985425 2.5165615070988840 32.5731091162762567 Zr
atom 7.5496845212971539 2.5165615070988250 32.5731091162746793 Zr
atom 2.5165615070988121 7.5496845212969506 32.5731091162718158 Zr
atom 7.5496845212968351 7.5496845212966663 32.5731091162797810 Zr
atom 2.5165615070981864 2.5165615070993845 37.6517548987438531 Zr
atom 7.5496845212979578 2.5165615070995830 37.6517548987525288 Zr
atom 2.5165615070986114 7.5496845212961672 37.6517548987506103 Zr
atom 7.5496845212967454 7.5496845212962569 37.6517548987503403 Zr
atom 2.5165615071161271 2.5165615071044170 30.0360214288057428 S
atom 7.5496845212796320 2.5165615071020935 30.0360214288073415 S
atom 2.5165615070861183 7.5496845212914225 30.0360214288056717 S
atom 7.5496845213097616 7.5496845212936767 30.0360214288051104 S
atom 2.5165615070812151 2.5165615070957852 35.0635584243325837 S
atom 7.5496845213146173 2.5165615070976712 35.0635584243207177 S
atom 2.5165615071096830 7.5496845212999864 35.0635584243266152 S
atom 7.5496845212860144 7.5496845212980102 35.0635584243457998 S
atom 2.5165615071125309 0.0000000000006884 32.5382208978117120 S
atom 7.5496845212833081 -0.0000000000037236 32.5382208978128418 S
atom 2.5165615070848473 5.0331230141970371 32.5382208978214251 S
atom 7.5496845213109713 5.0331230142022534 32.5382208978176237 S
atom 2.5165615070993659 -0.0000000000004646 37.5212395777299719 S
atom 7.5496845212963990 0.0000000000029830 37.5212395777235272 S
atom 2.5165615070980936 5.0331230141987016 37.5212395777247423 S
atom 7.5496845212976824 5.0331230141942473 37.5212395777227883 S
atom 0.0000000000009310 2.5165615070842398 32.5382208978000520 S
atom 5.0331230141972032 2.5165615071126188 32.5382208978334617 S
atom -0.0000000000007154 7.5496845213114900 32.5382208978269887 S
atom 5.0331230141992620 7.5496845212830772 32.5382208978031784 S
atom -0.0000000000033956 2.5165615071009548 37.5212395777400403 S
atom 5.0331230142001049 2.5165615070967080 37.5212395777135441 S
atom -0.0000000000018342 7.5496845212947816 37.5212395777119312 S
atom 5.0331230142003180 7.5496845212991195 37.5212395777354573 S
atom -0.0000000000034110 -0.0000000000085549 39.6749530214055497 Ba
atom 5.0331230142007692 0.0000000000057510 39.6749530213989843 Ba
atom -0.0000000000022818 5.0331230142059669 39.6749530214007535 Ba
atom 5.0331230141996679 5.0331230141917160 39.6749530213995314 Ba
atom 2.5165615071129466 2.5165615071009242 40.1431766750887675 S
atom 7.5496845212829493 2.5165615070985643 40.1431766750983527 S
atom 2.5165615070888219 7.5496845212949113 40.1431766750886609 S
atom 7.5496845213069461 7.5496845212971468 40.1431766751061190 S
atom 2.5165615070977059 2.5165615070958958 43.2426667128392381 Ba
atom 7.5496845212980110 2.5165615070984018 43.2426667128296671 Ba
atom 2.5165615070985550 7.5496845213001809 43.2426667128376820 Ba
atom 7.5496845212971646 7.5496845212976273 43.2426667128237767 Ba
atom 2.5165615070981024 2.5165615070983374 48.0176553134154176 Ba
atom 7.5496845212973307 2.5165615070973328 48.0176553134153536 Ba
atom 2.5165615070987180 7.5496845212972037 48.0176553134158297 Ba
atom 7.5496845212963875 7.5496845212983690 48.0176553134154105 Ba
atom 5.0331230141997887 5.0331230141981438 45.2658648354732023 Zr
atom 10.0662460283948025 5.0331230141983117 45.2658648354730389 Zr
atom 5.0331230141994112 10.0662460283960620 45.2658648354701327 Zr
atom 10.0662460283948896 10.0662460283965114 45.2658648354659690 Zr
atom 5.0331230141973702 5.0331230141978409 50.3445106179915101 Zr
atom 10.0662460283965611 5.0331230141975389 50.3445106179946720 Zr
atom 5.0331230141984511 10.0662460283953852 50.3445106179715438 Zr
atom 10.0662460283956516 10.0662460283963338 50.3445106179694761 Zr
atom 5.0331230141999423 5.0331230141997754 42.7744430590838860 S
atom 10.0662460283944348 5.0331230141952643 42.7744430590797222 S
atom 5.0331230141952998 10.0662460283944633 42.7744430590908777 S
atom 10.0662460283988917 10.0662460283989770 42.7744430590917872 S
atom 5.0331230141945538 5.0331230141980052 47.8540613098938081 S
atom 10.0662460283997746 5.0331230141978383 47.8540613099054681 S
atom 5.0331230141992087 10.0662460283959909 47.8540613098935381 S
atom 10.0662460283950725 10.0662460283963675 47.8540613098834484 S
atom 5.0331230141976038 2.5165615070978440 45.3963801565090890 S
atom 10.0662460283967032 2.5165615070977747 45.3963801565102898 S
atom 5.0331230141972094 7.5496845212984551 45.3963801565094656 S
atom 10.0662460283971118 7.5496845212968182 45.3963801565090606 S
atom 5.0331230142056080 2.5165615071020198 50.3793988363952252 S
atom 10.0662460283885178 2.5165615071024678 50.3793988364003198 S
atom 5.0331230141899095 7.5496845212957453 50.3793988364014211 S
atom 10.0662460284042261 7.5496845212936812 50.3793988363975842 S
atom 2.5165615070956657 5.0331230141990710 45.3963801565055292 S
atom 7.5496845212993948 5.0331230141967289 45.3963801565121017 S
atom 2.5165615070997682 10.0662460283954509 45.3963801565107232 S
atom 7.5496845212956512 10.0662460283977655 45.3963801565097995 S
atom 2.5165615071025020 5.0331230141894938 50.3793988363975629 S
atom 7.5496845212934911 5.0331230142058230 50.3793988363934631 S
atom 2.5165615070973524 10.0662460284043060 50.3793988364017196 S
atom 7.5496845212980714 10.0662460283880062 50.3793988364020038 S
atom 2.5165615070986704 2.5165615071038858 52.9542986044257589 Ba
atom 7.5496845212965944 2.5165615071038760 52.9542986044264694 Ba
atom 2.5165615070981144 7.5496845212917156 52.9542986044265049 Ba
atom 7.5496845212971531 7.5496845212914829 52.9542986044263699 Ba
atom 2.5165615070979004 2.5165615070975345 57.9392161836447386 Ba
atom 7.5496845212973938 2.5165615070980407 57.9392161836446249 Ba
atom 2.5165615070982237 7.5496845212980643 57.9392161836449375 Ba
atom 7.5496845212972525 7.5496845212975963 57.9392161836452857 Ba
atom 5.0331230141979644 5.0331230141977530 55.3853367490480082 Zr
atom 10.0662460283953266 5.0331230141982228 55.3853367490441499 Zr
atom 5.0331230141974519 10.0662460283952289 55.3853367490619632 Zr
atom 10.0662460283956499 10.0662460283962591 55.3853367490713637 Zr
atom 5.0331230141977548 5.0331230141969963 60.4206293339729328 Zr
atom 10.0662460283956889 5.0331230141988952 60.4206293339841025 Zr
atom 5.0331230141984999 10.0662460283967530 60.4206293340042819 Zr
atom 10.0662460283954722 10.0662460283953692 60.4206293339938512 Zr
atom 5.0331230141998207 5.0331230141945076 52.8815983054371230 S
atom 10.0662460283939570 5.0331230142000338 52.8815983054326324 S
atom 5.0331230141990311 10.0662460283990303 52.8815983054285823 S
atom 10.0662460283948203 10.0662460283941666 52.8815983054276018 S
atom 5.0331230141989209 5.0331230142058798 57.9091490847544961 S
atom 10.0662460283945681 5.0331230141935128 57.9091490847407542 S
atom 5.0331230141910357 10.0662460283876403 57.9091490847753718 S
atom 10.0662460284027038 10.0662460284007089 57.9091490847961268 S
atom 5.0331230141911911 2.5165615070971157 55.4014639553489161 S
atom 10.0662460284023787 2.5165615070917493 55.4014639553392811 S
atom 5.0331230142040218 7.5496845213005637 55.4014639553356290 S
atom 10.0662460283895498 7.5496845213027379 55.4014639553459531 S
atom 5.0331230142120038 2.5165615070954717 60.4244581668949579 S
atom 10.0662460283816788 2.5165615070965588 60.4244581669152439 S
atom 5.0331230141827374 7.5496845213002493 60.4244581669202887 S
atom 10.0662460284109372 7.5496845212982260 60.4244581669035981 S
atom 2.5165615071008123 5.0331230142039312 55.4014639553464718 S
atom 7.5496845212959593 5.0331230141911218 55.4014639553474453 S
atom 2.5165615070950755 10.0662460283898341 55.4014639553335613 S
atom 7.5496845213022601 10.0662460284026931 55.4014639553426491 S
atom 2.5165615070989955 5.0331230141831105 60.4244581669122525 S
atom 7.5496845212975483 5.0331230142128369 60.4244581669162173 S
atom 2.5165615070998681 10.0662460284107933 60.4244581669131193 S
atom 7.5496845212955659 10.0662460283811122 60.4244581668914407 S
atom 2.5165615070984804 2.5165615070905978 62.9374704006736323 Ba
atom 7.5496845212971930 2.5165615070898868 62.9374704006747407 Ba
atom 2.5165615070984204 7.5496845213049122 62.9374704006745276 Ba
atom 7.5496845212969195 7.5496845213055153 62.9374704006744423 Ba
atom 2.5165615070999205 2.5165615071006040 67.9357246177058158 Ba
atom 7.5496845212957675 2.5165615071017995 67.9357246177090133 Ba
atom 2.5165615071005534 7.5496845212949992 67.9357246177062706 Ba
atom 7.5496845212949717 7.5496845212937345 67.9357246177067111 Ba
atom 5.0331230141978764 5.0331230141995036 65.4543114673561917 Zr
atom 10.0662460283956552 5.0331230141974430 65.4543114673593607 Zr
atom 5.0331230141979404 10.0662460283951436 65.4543114673316211 Zr
atom 10.0662460283969750 10.0662460283964368 65.4543114673039526 Zr
atom 5.0331230141982193 5.0331230141973027 70.4896040523161957 Zr
atom 10.0662460283956676 5.0331230141984662 70.4896040523049265 Zr
atom 5.0331230141973595 10.0662460283960051 70.4896040522880298 Zr
atom 10.0662460283964297 10.0662460283954420 70.4896040522969258 Zr
atom 5.0331230141934604 5.0331230141804495 62.9374704006686230 S
atom 10.0662460284000623 5.0331230142054002 62.9374704006603807 S
atom 5.0331230142090853 10.0662460284136390 62.9374704006794445 S
atom 10.0662460283851658 10.0662460283885782 62.9374704006714936 S
atom 5.0331230141996190 5.0331230142257688 67.9657917165988437 S
atom 10.0662460283941275 5.0331230141838477 67.9657917165988721 S
atom 5.0331230141856418 10.0662460283681945 67.9657917165319247 S
atom 10.0662460284085284 10.0662460284099549 67.9657917165825722 S
atom 5.0331230142015118 2.5165615071064718 65.4504826344793713 S
atom 10.0662460283925785 2.5165615071032641 65.4504826344477806 S
atom 5.0331230141941177 7.5496845212879995 65.4504826344365540 S
atom 10.0662460284000499 7.5496845212925452 65.4504826344666526 S
atom 5.0331230141794059 2.5165615070929270 70.4734768459757248 S
atom 10.0662460284144792 2.5165615070995409 70.4734768460195511 S
atom 5.0331230142161036 7.5496845213041297 70.4734768460345578 S
atom 10.0662460283777992 7.5496845212956769 70.4734768459920815 S
atom 2.5165615070918235 5.0331230141942926 65.4504826344554402 S
atom 7.5496845213045471 5.0331230142010535 65.4504826344488606 S
atom 2.5165615070865286 10.0662460283999824 65.4504826344491875 S
atom 7.5496845213068884 10.0662460283932109 65.4504826344763160 S
atom 2.5165615071156506 5.0331230142172236 70.4734768460027396 S
atom 7.5496845212803434 5.0331230141782424 70.4734768460013044 S
atom 2.5165615071188063 10.0662460283764776 70.4734768460195511 S
atom 7.5496845212773991 10.0662460284155078 70.4734768459974674 S
atom 2.5165615071018346 2.5165615071062279 72.9206421969298475 Ba
atom 7.5496845212939556 2.5165615071056622 72.9206421969283411 Ba
atom 2.5165615070986105 7.5496845212890040 72.9206421969299612 Ba
atom 7.5496845212968022 7.5496845212897803 72.9206421969288812 Ba
atom 2.5165615070876894 2.5165615070952705 77.8572854879376735 Ba
atom 7.5496845213077206 2.5165615070936340 77.8572854879384266 Ba
atom 2.5165615070980403 7.5496845213001409 77.8572854879358118 Ba
atom 7.5496845212971344 7.5496845213017947 77.8572854879362950 Ba
atom 5.0331230141975301 5.0331230141985168 75.5304301833870255 Zr
atom 10.0662460283959003 5.0331230141979084 75.5304301834189999 Zr
atom 5.0331230141986758 10.0662460283953958 75.5304301834215721 Zr
atom 10.0662460283955433 10.0662460283959447 75.5304301834587477 Zr
atom 5.0331230141984005 5.0331230141993766 80.6090759658601002 Zr
atom 10.0662460283961170 5.0331230141985435 80.6090759658635108 Zr
atom 5.0331230141986047 10.0662460283946125 80.6090759658654576 Zr
atom 10.0662460283952964 10.0662460283960176 80.6090759658548421 Zr
atom 5.0331230142024337 5.0331230141627419 72.9933424959650097 S
atom 10.0662460283914914 5.0331230142168994 72.9933424959255888 S
atom 5.0331230142059660 10.0662460284310828 72.9933424959668713 S
atom 10.0662460283879920 10.0662460283770319 72.9933424959572505 S
atom 5.0331230141879812 5.0331230142321637 78.0208794914502164 S
atom 10.0662460284062281 5.0331230141782193 78.0208794914841235 S
atom 5.0331230141973675 10.0662460283618902 78.0208794915039050 S
atom 10.0662460283967068 10.0662460284158968 78.0208794914832993 S
atom 5.0331230142096448 2.5165615070953380 75.4955419649685808 S
atom 10.0662460283843327 2.5165615071035754 75.4955419649185728 S
atom 5.0331230141857901 7.5496845213004722 75.4955419649060673 S
atom 10.0662460284081199 7.5496845212921500 75.4955419649526220 S
atom 5.0331230141981580 2.5165615071048761 80.4785606448342463 S
atom 10.0662460283960300 2.5165615070974261 80.4785606448849791 S
atom 5.0331230141970398 7.5496845212918480 80.4785606448802326 S
atom 10.0662460283974049 7.5496845212978325 80.4785606448478603 S
atom 2.5165615070886100 5.0331230141864989 75.4955419649365780 S
atom 7.5496845213085253 5.0331230142088312 75.4955419649500925 S
atom 2.5165615070954606 10.0662460284073987 75.4955419649243566 S
atom 7.5496845212996826 10.0662460283850592 75.4955419649343469 S
atom 2.5165615071023888 5.0331230141990462 80.4785606448716209 S
atom 7.5496845212930737 5.0331230141961658 80.4785606448528910 S
atom 2.5165615070995733 10.0662460283952999 80.4785606448618580 S
atom 7.5496845212967090 10.0662460283982647 80.4785606448609911 S
atom 2.5165615071105787 2.5165615070923946 82.6322740885154872 Ba
atom 7.5496845212853714 2.5165615071000169 82.6322740885154161 Ba
atom 2.5165615070852936 7.5496845213036430 82.6322740885186846 Ba
atom 7.5496845213105477 7.5496845212959904 82.6322740885311759 Ba
atom 5.0331230142065664 5.0331230141713945 83.1004977422343103 S
atom 10.0662460283878019 5.0331230142147083 83.1004977422019664 S
atom 5.0331230141929852 10.0662460284227446 83.1004977422222311 S
atom 10.0662460284009789 10.0662460283794779 83.1004977421713136 S
