#=======================================================
# FHI-aims file: full_relax/full_relax_RP_6_Rx0Rz_0Ry0.in
# Created using the Atomic Simulation Environment (ASE)
# Fri Mar 14 11:44:02 2025
#=======================================================
lattice_vector 9.9987908641339622 -0.0000000000000186 0.0139645378666411 
lattice_vector -0.0000000000000184 10.0888237336610516 0.0000000000000463 
lattice_vector 0.0919794151741092 0.0000000000003102 65.5570304770021579 
atom -0.1994496309286271 -0.0000000000009651 0.1836709246867557 Ba
atom 5.0881296861942191 -0.0000000000010037 0.1884338233594209 Ba
atom 0.0887342539876139 5.0444118668296190 0.1814515544643809 Ba
atom 4.7999458009629121 5.0444118668296474 0.1906531936229857 Ba
atom -0.1099839960132144 -0.0000000000010136 4.8758876155371036 Ba
atom 4.8389319239927975 -0.0000000000009826 4.8499807857657355 Ba
atom -0.1604635084168778 5.0444118668294911 4.8429985169259409 Ba
atom 4.8894114354764655 5.0444118668295390 4.8828698850339798 Ba
atom 2.4408917664856209 2.5084511203833926 2.2513580746666384 Zr
atom 7.4402871985408146 2.5359607464747791 2.2583403435894169 Zr
atom 2.4408917664856151 7.5803726132757481 2.2513580746667037 Zr
atom 7.4402871985408190 7.5528629871843629 2.2583403435894112 Zr
atom 2.4600167546755225 2.5065242136453119 7.3239529433132953 Zr
atom 7.4594121867851824 2.5378876532276671 7.3309352121931708 Zr
atom 2.4600167546754999 7.5822995200137946 7.3239529433131780 Zr
atom 7.4594121867851948 7.5509360804313870 7.3309352121931077 Zr
atom 2.4507455515558423 2.7567764608312517 -0.2343864329531312 S
atom 7.4501409840696153 2.2876354059483366 -0.2274041640238936 S
atom 2.4507455515558862 7.3320472728280430 -0.2343864329531455 S
atom 7.4501409840695496 7.8011883277106886 -0.2274041640239602 S
atom 2.4620564515976433 2.2140344007796906 4.8274706407372925 S
atom 7.4614518828567755 2.8303774661966958 4.8344529096613513 S
atom 2.4620564515975065 7.8747893328795096 4.8274706407374133 S
atom 7.4614518828569230 7.2584462674623786 4.8344529096614544 S
atom 2.4367014420869593 -0.0000000000008055 2.0680186837246128 S
atom 7.4414631699875384 -0.0000000000008864 2.6319079863505221 S
atom 2.4420677379133302 5.0444118668294946 2.6249257173688894 S
atom 7.4360968741885438 5.0444118668294502 2.0750009525213295 S
atom 2.9151264113418831 -0.0000000000009652 7.5918732292782911 S
atom 7.0668371675133219 -0.0000000000009707 7.0931725278939783 S
atom 2.0674417354482926 5.0444118668295559 7.0861902588564512 S
atom 7.9145218435320661 5.0444118668295204 7.5988554981011251 S
atom -0.0557535435009436 2.5313990368592099 2.3728980639598976 S
atom 4.9436418885685889 2.5130128299571175 2.3798803322545847 S
atom -0.0557535435009528 7.5574246967999743 2.3728980639598380 S
atom 4.9436418885685924 7.5758109037020214 2.3798803322547437 S
atom -0.0302332617406215 2.0794880742610498 7.3434897601495859 S
atom 4.9691621703217193 2.9649237925161462 7.3504720299694695 S
atom -0.0302332617406097 8.0093356593981095 7.3434897601497369 S
atom 4.9691621703216988 7.1238999411429820 7.3504720299693531 S
atom -0.0715949013592951 -0.0000000000009275 9.8516864934040722 Ba
atom 5.0881688653833832 -0.0000000000009498 9.8851571677615020 Ba
atom 0.0887734326325294 5.0444118668295141 9.8781748994802516 Ba
atom 4.9278005302118908 5.0444118668295550 9.8586687628366381 Ba
atom 0.1009120523198749 -0.0000000000009145 14.9049875164180623 Ba
atom 4.9402922053855249 -0.0000000000009468 14.9006449687588418 Ba
atom -0.0591032272418809 5.0444118668295648 14.8936627003930333 Ba
atom 5.1003074838222417 5.0444118668295221 14.9119697859254821 Ba
atom 2.5112984814900585 2.5246407237202089 12.3744746169468556 Zr
atom 7.5106939135429043 2.5197711431083611 12.3814568858758935 Zr
atom 2.5112984814900408 7.5641830099388896 12.3744746169468787 Zr
atom 7.5106939135428883 7.5690525905507569 12.3814568858758385 Zr
atom 2.5299057756649530 2.5246407237212432 17.4311578688060251 Zr
atom 7.5293012077215788 2.5197711431093905 17.4381401377337539 Zr
atom 2.5299057756649410 7.5641830099378833 17.4311578688062134 Zr
atom 7.5293012077215664 7.5690525905497079 17.4381401377338747 Zr
atom 2.4872362028335622 2.7687558913006756 9.8576048049728300 S
atom 7.4866316359300029 2.2756559755957011 9.8645870738779120 S
atom 2.4872362028336248 7.3200678423584487 9.8576048049730964 S
atom 7.4866316359298715 7.8131677580634005 9.8645870738779706 S
atom 2.5206021291218548 2.3073565423470210 14.9028162428650646 S
atom 7.5199975600878766 2.7370553244845133 14.9097985118162839 S
atom 2.5206021291217140 7.7814671913120792 14.9028162428650042 S
atom 7.5199975600878890 7.3517684091746061 14.9097985118163887 S
atom 2.0693004711654415 -0.0000000000011409 12.1950491474692218 S
atom 7.9578930266215551 -0.0000000000009940 12.5768376294685478 S
atom 2.9584975946308800 5.0444118668297362 12.5698553604646719 S
atom 7.0686959032876402 5.0444118668295701 12.2020314163524173 S
atom 2.9719037859204049 -0.0000000000010598 17.6105833383291319 S
atom 7.0821020945796427 -0.0000000000010897 17.2427593942151027 S
atom 2.0827066625872011 5.0444118668296580 17.2357771252142697 S
atom 7.9712992180463154 5.0444118668296527 17.6175656072111906 S
atom 0.0090578870166360 2.9864337761485662 12.3822669133087189 S
atom 5.0084533190912000 2.0579780906487537 12.3892491812042742 S
atom 0.0090578870168012 7.1023899575105531 12.3822669133086798 S
atom 5.0084533190909912 8.0308456430103092 12.3892491812043559 S
atom 0.0327509380591301 2.0579780906778247 17.4163833034982787 S
atom 5.0321463701185554 2.9864337761778459 17.4233655734844852 S
atom 0.0327509380590777 8.0308456429813120 17.4163833034983071 S
atom 5.0321463701185509 7.1023899574812726 17.4233655734845101 S
atom -0.0469646075476525 -0.0000000000009671 19.9204753173287799 Ba
atom 5.1127991590060970 -0.0000000000010201 19.9539459918340363 Ba
atom 0.1134037264268958 5.0444118668294857 19.9469637234210388 Ba
atom 4.9524308238171981 5.0444118668295523 19.9274575869256125 Ba
atom 0.2022723335022201 -0.0000000000009355 24.9556516998871132 Ba
atom 5.1511882537475833 -0.0000000000009721 24.9297448696363659 Ba
atom 0.1517928210749181 5.0444118668296234 24.9227626012897119 Ba
atom 5.2016677652072154 5.0444118668296420 24.9626339689185741 Ba
atom 2.5811875024247626 2.5065242136003172 22.4816795424897649 Zr
atom 7.5805829345339752 2.5378876531827332 22.4886618113674785 Zr
atom 2.5811875024247271 7.5822995200588359 22.4816795424899318 Zr
atom 7.5805829345339601 7.5509360804763626 22.4886618113676633 Zr
atom 2.6003124906687831 2.5084511203530986 27.5542744110932496 Zr
atom 7.5997079227240043 2.5359607464444891 27.5612566800155925 Zr
atom 2.6003124906687805 7.5803726133058449 27.5542744110931714 Zr
atom 7.5997079227239528 7.5528629872146089 27.5612566800155072 Zr
atom 2.5539680532652795 2.7687558912320789 19.9480276808041417 S
atom 7.5533634863905803 2.2756559755279153 19.9550099497078968 S
atom 2.5539680532653457 7.3200678424269965 19.9480276808040244 S
atom 7.5533634863904444 7.8131677581311774 19.9550099497076481 S
atom 2.5791478063730779 2.2140344006293522 24.9781618450209209 S
atom 7.5785432375917630 2.8303774660453849 24.9851441139443970 S
atom 2.5791478063728563 7.8747893330296632 24.9781618450208533 S
atom 7.5785432375919077 7.2584462676136772 24.9851441139443438 S
atom 2.1260778456753839 -0.0000000000009646 22.2137592565831845 S
atom 7.9731579537623949 -0.0000000000008949 22.7264244958276542 S
atom 2.9737625216962988 5.0444118668295124 22.7194422267842455 S
atom 7.1254732778690615 5.0444118668294431 22.2207415254014045 S
atom 2.6045028150210738 -0.0000000000008541 27.7376138021640202 S
atom 7.5985319512965068 -0.0000000000008343 27.1876890373150459 S
atom 2.5991365192216871 5.0444118668293543 27.1807067683308219 S
atom 7.6038982471227792 5.0444118668293267 27.7445960709542092 S
atom 0.0720420868160932 2.9649237925674017 22.4551604566826732 S
atom 5.0714375188882048 2.0794880743113473 22.4621427246946297 S
atom 0.0720420868161579 7.1238999410916168 22.4551604566824849 S
atom 5.0714375188880725 8.0093356593476983 22.4621427246948073 S
atom 0.0975623685767421 2.5130128299695214 27.4257521528378980 S
atom 5.0969578006408618 2.5313990368717958 27.4327344224457228 S
atom 0.0975623685767521 7.5758109036895043 27.4257521528381432 S
atom 5.0969578006408192 7.5574246967872183 27.4327344224456908 S
atom -0.0469254289068515 -0.0000000000009365 29.6171986623507379 Ba
atom 5.2406538882525986 -0.0000000000009709 29.6219615610600400 Ba
atom 0.2412584559981551 5.0444118668294449 29.6149792921291599 Ba
atom 4.9524700030105002 5.0444118668294768 29.6241809313245632 Ba
atom 2.5904587051260424 2.7567764608813357 30.0400189187066218 S
atom 7.5898541376676665 2.2876354059989223 30.0470011876356473 S
atom 2.5904587051261112 7.3320472727776025 30.0400189187067426 S
atom 7.5898541376675750 7.8011883276601663 30.0470011876358107 S
atom 2.5871497315274770 2.6828317906196180 33.1488595265238857 Ba
atom 7.5865451636637555 2.3615800762132775 33.1558417954574978 Ba
atom 2.5871497315275107 7.4059919430392593 33.1488595265239709 Ba
atom 7.5865451636637511 7.7272436574456629 33.1558417954575972 Ba
atom 2.5805334226038781 2.5008556067308509 37.8298770778655467 Ba
atom 7.5799288546564441 2.5435562600974295 37.8368593467987822 Ba
atom 2.5805334226039673 7.5879681269290593 37.8298770778650137 Ba
atom 7.5799288546563455 7.5452674735625171 37.8368593467995282 Ba
atom 5.1029304583044732 5.0444118668294013 35.2164695683280158 Zr
atom 10.0643603811627234 5.0444118668295559 35.2227610133264690 Zr
atom 5.0649649491123094 10.0888237336601190 35.2157787443777863 Zr
atom 10.1023258903869237 10.0888237336599520 35.2234518372649177 Zr
atom 5.0776038651243933 5.0444118668290816 40.2359386470960487 Zr
atom 10.0753454596441063 5.0444118668291580 40.2425947448105248 Zr
atom 5.0759500275776457 10.0888237336598472 40.2356124758767422 Zr
atom 10.0769992971926712 10.0888237336597673 40.2429209160257955 Zr
atom 4.7974616658528006 5.0444118668294537 32.7301887582375954 S
atom 10.3766750832318060 5.0444118668293498 32.7372877616678437 S
atom 5.3772796512563668 10.0888237336600071 32.7303054927100590 S
atom 9.7968570979897791 10.0888237336601350 32.7371710271828604 S
atom 5.5486453083649492 5.0444118668293143 37.7611190051675933 S
atom 9.6114195551863411 5.0444118668295488 37.7666169267948391 S
atom 4.6120241231475818 10.0888237336600088 37.7596346578522599 S
atom 10.5480407404571341 10.0888237336597211 37.7681012741050708 S
atom 5.0838318006999410 2.5221824047658439 35.3485961232935821 S
atom 10.0832272327667845 2.5222294620607162 35.3555783922515161 S
atom 5.0838318006999952 7.5666413288931302 35.3485961232936887 S
atom 10.0832272327666832 7.5665942715982046 35.3555783922512035 S
atom 5.0767641378375199 2.5222079121404755 40.2512871293104126 S
atom 10.0761595699095388 2.5222039546873858 40.2582693982465400 S
atom 5.0767641378424653 7.5666158215179165 40.2512871293099010 S
atom 10.0761595699045703 7.5666197789709662 40.2582693982468314 S
atom 2.5835915847996040 5.0444118668296127 35.6665394097778474 S
atom 7.5840991076853017 5.0444118668294422 34.8999195429059057 S
atom 2.5847036756405291 10.0888237336598632 34.8929372739677746 S
atom 7.5829870168801206 10.0888237336600906 35.6735216787132075 S
atom 2.5777873457204517 5.0444118668312372 39.7557902788773490 S
atom 7.5757980730414722 5.0444118668267572 40.7297599116079070 S
atom 2.5764026409796315 10.0888237336573479 40.7227776426728241 S
atom 7.5771827777922613 10.0888237336618047 39.7627725478121761 S
atom 2.5735238941587530 2.5258852123169833 42.7367572499249277 Ba
atom 7.5729193262313785 2.5185266545077893 42.7437395188595346 Ba
atom 2.5735238941584742 7.5629385213397438 42.7367572499258870 Ba
atom 7.5729193262316254 7.5702970791485669 42.7437395188585469 Ba
atom 2.5665918361592643 2.5173586831828474 47.6813314813747127 Ba
atom 7.5659872682239024 2.5270531836434142 47.6883137503125738 Ba
atom 2.5665918361596138 7.5714650504742043 47.6813314813795301 Ba
atom 7.5659872682236369 7.5617705500131729 47.6883137503076711 Ba
atom 5.0684880219171733 5.0444118668287645 45.2021157909508204 Zr
atom 10.0704735049059071 5.0444118668288391 45.2088975466984024 Zr
atom 5.0710780728394464 10.0888237336593694 45.2019152777628506 Zr
atom 10.0678834539843400 10.0888237336593072 45.2090980598839494 Zr
atom 5.0615010315437816 5.0444118668293552 50.1677299539241801 Zr
atom 10.0634865145327428 5.0444118668294449 50.1745117096694102 Zr
atom 5.0640910824659668 10.0888237336599857 50.1675294407359900 Zr
atom 10.0608964636112237 10.0888237336598667 50.1747122228550708 Zr
atom 4.5656219574844474 5.0444118668295772 42.7233833410331627 S
atom 10.5802727685369806 5.0444118668290869 42.7316848240799061 S
atom 5.5808773364753481 10.0888237336594067 42.7247025551452424 S
atom 9.5650173895595856 10.0888237336598454 42.7303656099658937 S
atom 5.5738287781827740 5.0444118668288684 47.6855771389028220 S
atom 9.5581457582635654 5.0444118668293907 47.6910503617175294 S
atom 4.5587503262003795 10.0888237336603233 47.6840680927837113 S
atom 10.5732242102536365 10.0888237336597530 47.6925594078362352 S
atom 5.0697531981509076 2.5222054447882227 45.2072018337120554 S
atom 10.0691486302223332 2.5222064220400005 45.2141841026475575 S
atom 5.0697531981554240 7.5666182888700160 45.2072018337132278 S
atom 10.0691486302177822 7.5666173116182165 45.2141841026473799 S
atom 5.0628259062370846 2.5222064220399365 50.1624433979753235 S
atom 10.0622213382900085 2.5222054447883822 50.1694256669064771 S
atom 5.0628259062229697 7.5666173116189608 50.1624433979740303 S
atom 10.0622213383040950 7.5666182888704849 50.1694256669066192 S
atom 2.5693707867145483 5.0444118668313509 45.6976690668542531 S
atom 7.5701428281255367 5.0444118668277795 44.7173044473532713 S
atom 2.5707473960605900 10.0888237336582378 44.7103221784204052 S
atom 7.5687662187821516 10.0888237336619166 45.7046513357868989 S
atom 2.5638128856006785 5.0444118668235687 49.6649938959002384 S
atom 7.5618317083230364 5.0444118668353131 50.6593230532669452 S
atom 2.5624362762574022 10.0888237336659419 50.6523407843341360 S
atom 7.5632083176687956 10.0888237336540421 49.6719761648328983 S
atom 2.5596597781522190 2.5258852123201154 52.6259057128307148 Ba
atom 7.5590552102240594 2.5185266545108989 52.6328879817587136 Ba
atom 2.5596597781518939 7.5629385213406479 52.6259057128253005 Ba
atom 7.5590552102244661 7.5702970791493174 52.6328879817641351 Ba
atom 2.5526502497262187 2.5008556067329111 57.5327858848870264 Ba
atom 7.5520456817800428 2.5435562600993307 57.5397681538212922 Ba
atom 2.5526502497263333 7.5879681269290238 57.5327858848874030 Ba
atom 7.5520456817799460 7.5452674735619478 57.5397681538207308 Ba
atom 5.0566290768055193 5.0444118668300080 55.1340327558095353 Zr
atom 10.0543706713245626 5.0444118668301146 55.1406888535277844 Zr
atom 5.0549752392588259 10.0888237336606998 55.1337065845901577 Zr
atom 10.0560245088730156 10.0888237336606164 55.1410150247425648 Zr
atom 5.0676141552717029 5.0444118668299520 60.1538664873076385 Zr
atom 10.0290440781310259 5.0444118668300959 60.1601579322880440 Zr
atom 5.0296486460783338 10.0888237336605577 60.1531756633582475 Zr
atom 10.0670095873540504 10.0888237336604103 60.1608487562269616 Zr
atom 4.5517017679077885 5.0444118668301510 52.6449426765418380 S
atom 10.5663525789581971 5.0444118668296261 52.6532441595872953 S
atom 5.5669571468986678 10.0888237336596021 52.6462618906544364 S
atom 9.5510971999797007 10.0888237336601652 52.6519249454734535 S
atom 5.5205549812371846 5.0444118668294102 57.6100105738337973 S
atom 9.5833292280607552 5.0444118668297806 57.6155084954479122 S
atom 4.5839337960170887 10.0888237336608615 57.6085262265183431 S
atom 10.5199504133301254 10.0888237336604618 57.6169928427587905 S
atom 5.0558149665393248 2.5222039546875554 55.1183581023759359 S
atom 10.0552103986140597 2.5222079121412069 55.1253403713067343 S
atom 5.0558149665471523 7.5666197789720790 55.1183581023771580 S
atom 10.0552103986061976 7.5666158215184192 55.1253403713066632 S
atom 5.0487473036833244 2.5222294620630308 60.0210491083915443 S
atom 10.0481427357507176 2.5221824047677588 60.0280313773019145 S
atom 5.0487473036835580 7.5665942715969496 60.0210491083908906 S
atom 10.0481427357504671 7.5666413288921737 60.0280313773017653 S
atom 2.5553963265912478 5.0444118668325695 55.6068726838746201 S
atom 7.5561764634037605 5.0444118668261400 54.6468675890136169 S
atom 2.5567810313420365 10.0888237336566515 54.6398853200789674 S
atom 7.5547917586620299 10.0888237336630748 55.6138549528093122 S
atom 2.5495920875039535 5.0444118668302558 59.6961235529726864 S
atom 7.5478754287433736 5.0444118668297584 60.4767079577179842 S
atom 2.5484799966971665 10.0888237336603481 60.4697256887803078 S
atom 7.5489875195832878 10.0888237336607585 59.7031058219080748 S
atom 2.5460339407219545 2.6828317906159702 62.2138034362277921 Ba
atom 7.5454293728536435 2.3615800762091776 62.2207857051612407 Ba
atom 2.5460339407219617 7.4059919430440297 62.2138034362278347 Ba
atom 7.5454293728536372 7.7272436574504528 62.2207857051612763 Ba
atom 4.7552994531301591 5.0444118668301750 62.6393397389748827 S
atom 10.3345128705300535 5.0444118668300186 62.6464387423705134 S
atom 5.3351174385281164 10.0888237336601883 62.6394564734474599 S
atom 9.7546948852825111 10.0888237336603499 62.6463220078855443 S
