#=======================================================
# FHI-aims file: full_relax/full_relax_RP_3_Rx0Rz_0Ry0.in
# Created using the Atomic Simulation Environment (ASE)
# Fri Mar 14 11:20:29 2025
#=======================================================
lattice_vector 10.1029732912300556 0.0000000000000016 0.0003452462102266 
lattice_vector 0.0000000000000016 10.1029577076829735 0.0000000000000053 
lattice_vector -0.0011490624647203 0.0000000000000196 35.2420467964082675 
atom -0.1573285372323938 0.0000000000056890 0.2857313632648095 Ba
atom 5.2086986599751244 0.0000000000050905 0.2859058177422459 Ba
atom 0.1572120143396695 5.0514788538332454 0.2857331946651948 Ba
atom 4.8941581084146071 5.0514788538337489 0.2859039864348084 Ba
atom 0.0299415173941496 0.0000000000050632 4.9297306992995038 Ba
atom 5.0210285420875644 0.0000000000025608 4.9298228389117495 Ba
atom -0.0304581035182609 5.0514788538342943 4.9296502158322557 Ba
atom 5.0814281630008225 5.0514788538367217 4.9299033223820885 Ba
atom 2.5256047388171496 2.5116961458514466 2.3306861316358050 Zr
atom 7.5770913842991385 2.5397827079543078 2.3308587546932982 Zr
atom 2.5256047388214826 7.5912615618470412 2.3306861316356744 Zr
atom 7.5770913842943193 7.5631749997252014 2.3308587546632058 Zr
atom 2.5255039347413879 2.5257394268952136 7.3421793938381912 Zr
atom 7.5769905804593876 2.5257394269291877 7.3423520168962488 Zr
atom 2.5255039347562187 7.5772182807713291 7.3421793939140505 Zr
atom 7.5769905804429003 7.5772182807656909 7.3423520169797261 Zr
atom 2.5256970465719091 2.8840090593610781 -0.1507173136582181 S
atom 7.5771836922214657 2.1674697945002097 -0.1505446905289294 S
atom 2.5256970465716515 7.2189486483331189 -0.1507173135572283 S
atom 7.5771836922216611 7.9354879131750549 -0.1505446904581270 S
atom 2.5255638064382904 2.0518097971996170 4.8655014252778521 S
atom 7.5770504520545030 2.9996690566478508 4.8656740484000967 S
atom 2.5255638064363879 8.0511479104876891 4.8655014250677437 S
atom 7.5770504520555955 7.1032886510321553 4.8656740483017202 S
atom 2.5256311244326946 -0.0000000001226474 2.0084235531934427 S
atom 7.5770859730015774 -0.0000000000545863 2.7995935361825501 S
atom 2.5255993273590795 5.0514788539400675 2.7994209130715539 S
atom 7.5771177700785834 5.0514788538991260 2.0085961762849185 S
atom 2.5257489726684108 0.0000000001087348 7.7938620379524481 S
atom 7.5767455425351438 0.0000000000366433 6.8906693735308036 S
atom 2.5252588969333543 5.0514788537404440 6.8904967504200272 S
atom 7.5772356182641580 5.0514788538012585 7.7940346610488511 S
atom -0.0001367553784967 2.5257585002346938 2.4579748488388042 S
atom 5.0513498901989999 2.5257203536117574 2.4581474719474201 S
atom -0.0001367553202344 7.5771992074489418 2.4579748488492865 S
atom 5.0513498901419576 7.5772373540718752 2.4581474719573286 S
atom -0.0002393880215581 2.5254540338172733 7.3420930826262207 S
atom 5.0512472576101111 2.5260248200267479 7.3422657057325100 S
atom -0.0002393881107421 7.5775036738630748 7.3420930826220312 S
atom 5.0512472577030092 7.5769328876537472 7.3422657057282050 S
atom -0.0304202933705663 -0.0000000000158508 9.7544554658424438 Ba
atom 5.0814659730624241 -0.0000000000183835 9.7547085724110261 Ba
atom 0.0299793274871622 5.0514788538560929 9.7545359493204256 Ba
atom 5.0210663522035333 5.0514788538584687 9.7546280889498451 Ba
atom 0.1568497612471080 -0.0000000000013107 14.3984548019682528 Ba
atom 4.8937958551838312 -0.0000000000019576 14.3986255938206806 Ba
atom -0.1576907903994702 5.0514788538428537 14.3984529705252307 Ba
atom 5.2083364068126574 5.0514788538434257 14.3986274251229283 Ba
atom 2.5254031307665739 2.5397827079473618 12.3536726571128650 Zr
atom 7.5768897765234291 2.5116961459232696 12.3538452801744327 Zr
atom 2.5254031307700378 7.5631749997213538 12.3536726570436084 Zr
atom 7.5768897765175165 7.5912615617552515 12.3538452801436236 Zr
atom 2.5254440631579160 2.9996690566848980 9.8188573632300145 S
atom 7.5769307087530429 2.0518097971619151 9.8190299864561421 S
atom 2.5254440631557187 7.1032886509833357 9.8188573633526879 S
atom 7.5769307087537889 8.0511479105263657 9.8190299864439510 S
atom 2.5253108229950478 2.1674697945219861 14.8350761015853152 S
atom 7.5767974686164683 2.8840090593202179 14.8352487246555196 S
atom 2.5253108229943364 7.9354879131609763 14.8350761015678572 S
atom 7.5767974686163351 7.2189486483531855 14.8352487246674070 S
atom 2.5254085422290737 -0.0000000000178195 11.8849378751556110 S
atom 7.5768633907453156 0.0000000000437295 12.6761078580996482 S
atom 2.5253767451482858 5.0514788538602247 12.6759352350162846 S
atom 7.5768951878109876 5.0514788538078212 11.8851104982675135 S
atom -0.0003420207925284 2.5257585002233425 12.2262113162693513 S
atom 5.0511446251393624 2.5257203536024808 12.2263839393700096 S
atom -0.0003420207177809 7.5771992074558723 12.2262113162691470 S
atom 5.0511446250696954 7.5772373540767450 12.2263839393705371 S
atom 2.5252017985395021 2.6830055305308056 17.9068408248460003 Ba
atom 7.5766884439182487 2.3684733231369455 17.9070134479644238 Ba
atom 2.5252017985339954 7.4199521771582981 17.9068408249181097 Ba
atom 7.5766884439239339 7.7344843845350324 17.9070134480301881 Ba
atom 2.5250440173533772 2.4955383949651626 22.5507963465105696 Ba
atom 7.5765306627793887 2.5559404586154701 22.5509689696248969 Ba
atom 2.5250440173445585 7.6074193127116079 22.5507963465269476 Ba
atom 7.5765306627885796 7.5470172490713461 22.5509689696419002 Ba
atom 5.0649133389637173 5.0514788540718261 19.9517960333563771 Zr
atom 10.0883149592526369 5.0514788541000817 19.9519589047707555 Zr
atom 5.0368283137138059 10.1029577074537311 19.9517862819206862 Zr
atom 10.1163999847993527 10.1029577074218420 19.9519686565203962 Zr
atom 5.0506727264045379 5.0514788541177147 24.9632891036344589 Zr
atom 10.1021593721090213 5.0514788541677751 24.9634617276104294 Zr
atom 5.0506727262825040 10.1029577073954506 24.9632891034312152 Zr
atom 10.1021593719263620 10.1029577073546015 24.9634617272763819 Zr
atom 4.6927059566962193 5.0514788538136548 17.4703809612185594 S
atom 10.4606997105524169 5.0514788538102824 17.4705711748363015 S
atom 5.4092130651386636 10.1029577077102584 17.4703985506868662 S
atom 9.7441926023848549 10.1029577077125481 17.4705535844646747 S
atom 5.5246994879843072 5.0514788537899653 22.4866262921595066 S
atom 9.6283599384645484 5.0514788537853725 22.4867592172386175 S
atom 4.5768732928133469 10.1029577077304573 22.4865865958459565 S
atom 10.5761861336220537 10.1029577077369819 22.4867989145842806 S
atom 5.0508874513646989 2.5257388673852308 20.0791574514265001 S
atom 10.1023740969529960 2.5257399879707116 20.0793300745899828 S
atom 5.0508874513651936 7.5772188402900467 20.0791574514120477 S
atom 10.1023740969525058 7.5772177197125474 20.0793300745730932 S
atom 5.0506727263697080 2.5257387919202463 24.9632891039086395 S
atom 10.1021593719823954 2.5257400622586301 24.9634617269789523 S
atom 5.0506727263703510 7.5772189157826437 24.9632891039092577 S
atom 10.1021593719817382 7.5772176454237483 24.9634617269792685 S
atom 2.5251220733939692 5.0514788537927995 20.4204256807431968 S
atom 7.5766301269436811 5.0514788537971418 19.6296290899451229 S
atom 2.5251434793630043 10.1029577077265511 19.6294564667221429 S
atom 7.5766087204924162 10.1029577077300949 20.4205983038847165 S
atom 2.5249508583889781 5.0514788537772537 24.5115071560832760 S
atom 7.5763945942643209 5.0514788537779651 25.4150710516900737 S
atom 2.5249079494285129 10.1029577077417532 25.4148984285944373 S
atom 7.5764375033973783 10.1029577077425081 24.5116797791991523 S
atom 2.5248147897380186 2.5559404587006553 27.3756092381778373 Ba
atom 7.5763014355992384 2.4955383950300973 27.3757818612870665 Ba
atom 2.5248147897283832 7.5470172489852105 27.3756092381542651 Ba
atom 7.5763014356088991 7.6074193126463854 27.3757818612640023 Ba
atom 2.5246570087236528 2.3684733231745163 32.0195647598173920 Ba
atom 7.5761436542947322 2.6830055305405938 32.0197373829367464 Ba
atom 2.5246570087167597 7.7344843845004636 32.0195647597457622 Ba
atom 7.5761436543016112 7.4199521771486339 32.0197373828702752 Ba
atom 5.0364321136622765 5.0514788540374411 29.9747821745149352 Zr
atom 10.1160037847267201 5.0514788540724869 29.9749645486819496 Zr
atom 5.0645171390299302 10.1029577074895194 29.9747919261293134 Zr
atom 10.0879187592185371 10.1029577074504555 29.9749547971272818 Zr
atom 4.5766459648188036 5.0514788537931734 27.4399519161221406 S
atom 10.5759588055258771 5.0514788537881570 27.4401642359930271 S
atom 5.5244721598882007 10.1029577077276649 27.4399916125771739 S
atom 9.6281326103091391 10.1029577077346637 27.4401245391061117 S
atom 5.4086394959804069 5.0514788538176081 32.4561972462496158 S
atom 9.7436190333020711 5.0514788538134630 32.4563522798893089 S
atom 4.6921323876733130 10.1029577077063308 32.4561796567047978 S
atom 10.4601261416462687 10.1029577077090504 32.4563698699363457 S
atom 5.0504580013790292 2.5257388673014809 29.8474207563435456 S
atom 10.1019446469998400 2.5257399875137239 29.8475933794993331 S
atom 5.0504580013800489 7.5772188403711693 29.8474207563556888 S
atom 10.1019446469988594 7.5772177201674964 29.8475933795142794 S
atom 2.5247153271226890 5.0514788538028812 30.2969491179180466 S
atom 7.5762233782638839 5.0514788537985646 29.5061525270861793 S
atom 2.5247367330419106 10.1029577077261159 29.5059799039347972 S
atom 7.5762019723821581 10.1029577077205488 30.2971217410670199 S
