#=======================================================
# FHI-aims file: full_relax/full_relax_RP_5_RxRyMz_-Rx-Ry-Mz.in
# Created using the Atomic Simulation Environment (ASE)
# Fri Mar 14 11:35:48 2025
#=======================================================
lattice_vector 10.0204470793497684 -0.0520323364893457 -0.0150104033539853 
lattice_vector -0.0520323364893251 10.0204470793508307 0.0150104033416325 
lattice_vector -0.0841262376373959 0.0841262375682284 55.8279991885270590 
atom 0.0751447260764096 -0.1299333954674922 0.2251783927448086 Ba
atom 5.1401569293793035 -0.1011608873373474 0.2176732139475498 Ba
atom 0.1039172351020104 4.9350788184532872 0.2326835603867139 Ba
atom 5.0593520873946751 4.8542739810742894 0.2251783181804863 Ba
atom -0.2879489932874771 0.2181193443701961 5.0023532901451109 Ba
atom 4.7921041451407573 0.2619328468433143 4.9948480864233264 Ba
atom -0.2441354846950830 5.2981725812895242 5.0098585189882865 Ba
atom 4.6962583029090821 5.2023267434984408 5.0023533158517584 Ba
atom 2.4693564056071287 2.5198147829351920 2.3954321410968151 Zr
atom 7.4746161248187422 2.4888346594007795 2.3879268621207652 Zr
atom 2.4383762987935853 7.5250744904486764 2.4029373710487940 Zr
atom 7.4535638982097945 7.5040222867802582 2.3954320825957751 Zr
atom 2.4573139194000126 2.5233113657106889 7.4471818771344855 Zr
atom 7.4711196309651013 2.5008772671530890 7.4396767298781006 Zr
atom 2.4348798354426924 7.5371168926422101 7.4546870913482373 Zr
atom 7.4415213966748270 7.5075186629072874 7.4471819624324462 Zr
atom 2.6302746777966526 2.7838916291689531 -0.1091760018798070 S
atom 7.2105392869586851 2.3279165417214673 -0.1166811483900310 S
atom 2.1742995733149839 7.3641562297478336 -0.1016708374185241 S
atom 7.6144820343171116 7.7680989874459376 -0.1091759634268144 S
atom 2.2056035194046437 2.2149086679202461 4.9531608745427231 S
atom 7.7795222157846498 2.7525876865923204 4.9456557430103905 S
atom 2.7432825575896596 7.7888273997147888 4.9606660712729225 S
atom 7.1898108801418532 7.1991160403871612 4.9531609154135241 S
atom 2.7397223599176397 0.0245580940467287 2.2183004071382588 S
atom 7.1697707520522185 0.0011908270575782 2.7625495155520210 S
atom 2.1335310418817546 5.0374304616503389 2.7775599184664590 S
atom 7.7239297083391873 5.0087653812065280 2.2183004109498952 S
atom 2.8637058642880038 0.0129675573905986 7.7712797968846123 S
atom 7.1109660991673627 -0.0082120558681886 7.1391983530436773 S
atom 2.0747263893563757 5.0280275580354132 7.1542087432197325 S
atom 7.8479131816692957 4.9971748322061371 7.7712797701581104 S
atom -0.0505742811036126 2.2705012043107367 2.2258056136382560 S
atom 4.9570004901557834 2.8246601703625962 2.7700547220457628 S
atom -0.0792393891331534 7.8608998583229965 2.7850651156982322 S
atom 4.9336332735096375 7.2547085390185639 2.2258056094957497 S
atom -0.0389838162920293 2.1465177080219697 7.7787849812539775 S
atom 4.9664034571767957 2.8834648020228335 7.1467035456618797 S
atom -0.0698365524455942 7.9197045317396864 7.1617139535304855 S
atom 4.9452238351090090 7.1307250683665737 7.7787849887557750 S
atom 0.2527005297150772 -0.1588847090231417 9.9655614044221554 Ba
atom 5.1691082146581868 -0.2787167025916085 9.9580562048168009 Ba
atom 0.1328685373935254 4.7575230351522793 9.9730666006458009 Ba
atom 5.2369078785020129 4.8253227015480240 9.9655614016356324 Ba
atom -0.2902568741481895 0.1964410185657379 14.9576525702915752 Ba
atom 4.8137825153330942 0.2642406982818222 14.9501473682743260 Ba
atom -0.2224571961091431 5.3004804236699385 14.9651577621678378 Ba
atom 4.6939504970669850 5.1806484025352919 14.9576525597736758 Ba
atom 2.4733254731525953 2.5108819120199524 12.4616069058304859 Zr
atom 7.4835490773264564 2.4848656994164302 12.4541017777989556 Zr
atom 2.4473092520248256 7.5211053662181548 12.4691120735042578 Zr
atom 7.4575329498646621 7.4950892444132675 12.4616069349214307 Zr
atom 2.4893369445852036 2.4984523708102317 17.4760325813136959 Zr
atom 7.4959786002241664 2.4688541869163192 17.4685272811338059 Zr
atom 2.4597387452588086 7.5050939223385802 17.4835377568003878 Zr
atom 7.4735444437035312 7.4826597470518008 17.4760323876078800 Zr
atom 2.7367992567113659 2.8474339671151574 9.9598573168211928 S
atom 7.1469969353462108 2.2213919586722244 9.9523519592078777 S
atom 2.1107572303527666 7.2576316707373474 9.9673625054667028 S
atom 7.7210066008508829 7.8316413532816220 9.9598571356516157 S
atom 2.2098517603471888 2.1743297353589117 14.9633563863009815 S
atom 7.8201011626909134 2.7483394477800038 14.9558512237504910 S
atom 2.7838614865268392 7.7845791678510592 14.9708616530379519 S
atom 7.1940591118564221 7.1585371066431236 14.9633565692074786 S
atom 2.8633071254850808 0.0045008548029325 12.1378223639323348 S
atom 7.1195835938753573 -0.0189767087456824 12.7703812181169258 S
atom 2.0833439157588569 5.0172628689252239 12.7853916168156019 S
atom 7.8475144743159886 4.9887080938072241 12.1378223615574079 S
atom 2.8719246418823219 -0.0062638840118753 17.7690050952960341 S
atom 7.1191848655296459 -0.0274435555182291 17.1369236563764709 S
atom 2.0829451702651496 5.0087962113058619 17.1519340468055219 S
atom 7.8561319715451381 4.9779435579794331 17.7690051039518941 S
atom -0.0305169590711402 2.1469164342692277 12.1453275729754289 S
atom 4.9771679779901659 2.8748472986349141 12.7778864188731873 S
atom -0.0590717093681415 7.9110870142491594 12.7928968189006493 S
atom 4.9536903926470792 7.1311237896186803 12.1453275563226306 S
atom -0.0197523303574999 2.1382989254229554 17.7765102989998773 S
atom 4.9856347368364480 2.8752460502931818 17.1444288461424641 S
atom -0.0506051035757237 7.9114857379120593 17.1594392618033531 S
atom 4.9644551854972008 7.1225062795293885 17.7765103029201832 S
atom 0.2503927245714794 -0.1805630047433500 19.9208606416064065 Ba
atom 5.1907865136971356 -0.2764088311914569 19.9133554504619852 Ba
atom 0.1545468812970743 4.7598308404564795 19.9283658257370533 Ba
atom 5.2346000257012282 4.8036443376672464 19.9208606358104312 Ba
atom -0.1127010689905388 0.1674897289258667 24.6980353195487297 Ba
atom 4.8427338091467433 0.0866849202291991 24.6905301008469600 Ba
atom -0.1935058796698493 5.1229246090702762 24.7055405580235536 Ba
atom 4.8715062923780073 5.1516970771812236 24.6980353325952180 Ba
atom 2.4772944227343832 2.5019487059028918 22.5277810545779715 Zr
atom 7.4924821285760217 2.4808966762663718 22.5202759207570331 Zr
atom 2.4562423642829843 7.5171365672696737 22.5352862165314463 Zr
atom 7.4615018577025651 7.4861562531682022 22.5277811532777434 Zr
atom 2.7410474923754715 2.8068550616660817 19.9700529020406528 S
atom 7.1875758612049161 2.2171437281553295 19.9625477528734656 S
atom 2.1513361581505310 7.2533834249768949 19.9775581165144054 S
atom 7.7252548321052421 7.7910623978232074 19.9700529867921759 S
atom 2.3163763258850834 2.2378720905717637 25.0323905422678017 S
atom 7.7565588165432358 2.6418148907922898 25.0248852744706944 S
atom 2.7203191347199596 7.6780545757286127 25.0398957836737566 S
atom 7.3005836909221085 7.2220794541285214 25.0323904293410067 S
atom 2.8131199839867609 -0.0156668265250075 22.1456541201194952 S
atom 7.2431683591452884 -0.0390341149749998 22.6899032349475540 S
atom 2.2069286325052011 4.9972057252728614 22.7049136657792445 S
atom 7.7973273320941106 4.9685406754020640 22.1456541091335630 S
atom -0.0103494677639675 2.1971035799243697 22.1531593193020804 S
atom 4.9972253219789540 2.7512625832900439 22.6974084556950686 S
atom -0.0390146645023694 7.7875022529264131 22.7124188493046084 S
atom 4.9738581530136194 7.1813109220723401 22.1531593122720416 S
atom 2.5799739505045554 2.4590220840898485 28.1391779110011875 Ba
atom 7.5354088410238047 2.3782172298126270 28.1316726890985684 Ba
atom 2.4991690667720303 7.4144569356962275 28.1466830771453722 Ba
atom 7.5641813956511372 7.4432294643286339 28.1391778659473353 Ba
atom 2.2319212402225097 2.8221158678699219 32.9163531067049817 Ba
atom 7.1723150697555988 2.7262700140316949 32.9088479216533756 Ba
atom 2.1360753584626568 7.7625096357674552 32.9238583166337833 Ba
atom 7.2161286231810085 7.8063231602799217 32.9163531350234919 Ba
atom 4.9144329883937372 5.0490174861074495 30.3094319834823160 Zr
atom 9.9296206887873346 5.0279654674951066 30.3019266547245110 Zr
atom 4.8933808248845372 10.0642054432637327 30.3169369631804706 Zr
atom 9.8986404560778336 10.0332251097972485 30.3094317876081085 Zr
atom 4.9109366429192933 5.0610602017782353 35.3611825260006682 Zr
atom 9.9175780096478157 5.0314618176197676 35.3536769531688932 Zr
atom 4.8813382930074107 10.0677017175925752 35.3686879226102846 Zr
atom 9.8951440788462879 10.0452677056869195 35.3611823080297043 Zr
atom 4.6503563273251469 4.8880995297191774 27.8048237129287266 S
atom 10.0905387783530713 5.2920422844060280 27.7973184415834105 S
atom 5.0542990657391114 10.3282819412554137 27.8123290409825294 S
atom 9.6345636671995631 9.8723068698002834 27.8048237233680560 S
atom 5.2193393224123978 5.3127707247516129 32.8671593055086007 S
atom 9.6658675981362396 4.7230592916061171 32.8596546365755486 S
atom 4.6296278917169751 9.7592989757455779 32.8746646507421971 S
atom 10.2035466457248081 10.2969780305569341 32.8671597915606029 S
atom 4.6095878330716911 2.5613737205522837 30.6840542670341598 S
atom 10.1999864401154934 2.5327085475136690 30.1247948380565873 S
atom 5.1637467360355815 7.5689484250282542 30.1398052821684388 S
atom 9.5937951328677986 7.5455812523987618 30.6840542893860651 S
atom 4.5507830876027295 2.5519706274261544 35.0607029645381161 S
atom 10.3239699119422514 2.5211180833106130 35.6777740663342229 S
atom 5.2877302792748484 7.5573580716371342 35.6927844926991540 S
atom 9.5349904697332182 7.5361782978698377 35.0607029966248618 S
atom 2.3968176257695877 5.3848431428895474 30.6915594748551221 S
atom 7.4096896833563957 4.7786518626977239 30.1323000527215399 S
atom 2.3734503759312888 9.8148915305849158 30.1473104728908687 S
atom 7.3810246598224341 10.3690504608545009 30.6915594912718568 S
atom 2.4062200076075215 5.4436478546317542 35.0682081793686677 S
atom 7.4212807749593424 4.6546683218992131 35.6852792900686069 S
atom 2.3850405599827975 9.6909080459559345 35.7002896695359908 S
atom 7.3904278603872884 10.4278551649245621 35.0682081856988006 S
atom 2.6089253928786444 2.2814662578536593 37.8795610245893926 Ba
atom 7.7129645440632375 2.3492659198249801 37.8720558180060038 Ba
atom 2.6767250354549224 7.3855056410446247 37.8870662201674833 Ba
atom 7.5931325319600109 7.2656736514880462 37.8795610157108413 Ba
atom 2.2535995733856353 2.8244236508692122 42.8716519217332674 Ba
atom 7.1700072112671247 2.7045916203622378 42.8641467105297664 Ba
atom 2.1337675517875168 7.7408313904371324 42.8791571097852895 Ba
atom 7.2378068944846552 7.8086310884510208 42.8716518975911782 Ba
atom 4.9233660582026788 5.0450486321980268 40.3756055269701122 Zr
atom 9.9335895725970929 5.0190323927278175 40.3681007259761486 Zr
atom 4.8973498381409861 10.0552722474836465 40.3831108931964238 Zr
atom 9.9075735172059627 10.0292561507409861 40.3756058856218587 Zr
atom 4.9357954774505295 5.0290369540746109 45.3900316787823002 Zr
atom 9.9496011866269392 5.0066030306392992 45.3825266256790201 Zr
atom 4.9133614180373462 10.0428428618379488 45.3975361947760021 Zr
atom 9.9200028807142075 10.0132445768034053 45.3900314453593268 Zr
atom 4.5868139591862294 4.7815749873132605 37.8738569901878321 S
atom 10.1970632958759477 5.3555845850567954 37.8663517376136269 S
atom 5.1608236294041214 10.3918242969324464 37.8813616960230632 S
atom 9.5710213783157254 9.7657823160815358 37.8738567137497810 S
atom 5.2599182179874671 5.3085224568054032 42.8773571457314162 S
atom 9.6701158420698921 4.6824803788644056 42.8698513122941449 S
atom 4.6338761415841132 9.7187200455018594 42.8848627162795353 S
atom 10.2441255569672869 10.2927297832115396 42.8773570430678745 S
atom 4.5594005742294623 2.5412064460759622 40.6918861660050624 S
atom 10.3235711789850644 2.5126516002662824 40.0443168328591099 S
atom 5.2873315765376248 7.5488908894266551 40.0593271896175480 S
atom 9.5436079934644180 7.5254133837056010 40.6918861285050255 S
atom 4.5590019633249881 2.5327393944080629 45.0584285721180748 S
atom 10.3321887349283443 2.5018864003076611 45.6754995180005281 S
atom 5.2959489922703451 7.5381265894037233 45.6905099073816032 S
atom 9.5432092709166341 7.5169471756175446 45.0584285355990275 S
atom 2.4169847311086308 5.4350303078563309 40.6993913447012901 S
atom 7.4297474497068867 4.6550670728756725 40.0518220347934175 S
atom 2.3935070611549834 9.6913067386497502 40.0668323925650256 S
atom 7.4011927542236648 10.4192376833568527 40.6993913538821985 S
atom 2.4254520179983192 5.4354290134501033 45.0659337266778195 S
atom 7.4405115044008800 4.6464495714990797 45.6830047150914424 S
atom 2.4042722034667210 9.6826892798343529 45.6980151118120546 S
atom 7.4096590294411291 10.4196363055013101 45.0659337786301535 S
atom 2.6306034817763368 2.2837742655524309 47.8348602685140918 Ba
atom 7.7106568585643203 2.3275877657710140 47.8273550598987995 Ba
atom 2.6744169919751850 7.3638272060955305 47.8423655074771403 Ba
atom 7.6148110297108991 7.2679813777419078 47.8348602903062883 Ba
atom 2.2825508053173840 2.6468679091578031 52.6120351548085381 Ba
atom 7.3475630276149841 2.6756404485884029 52.6045299739013501 Ba
atom 2.3113233217648932 7.7118800650271471 52.6195403729794435 Ba
atom 7.2667581787096811 7.6310752049672184 52.6120351950439940 Ba
atom 4.9322990097018629 5.0410796167763356 50.4417815902870075 Zr
atom 9.9375587284685825 5.0100994909865788 50.4342761227376712 Zr
atom 4.9013188677538464 10.0463392874396362 50.4492870678471732 Zr
atom 9.9165065629909233 10.0252870374048690 50.4417816551592324 Zr
atom 4.6273928969714584 4.7773266745265026 47.8840521346685293 S
atom 10.2013116073130803 5.3150057408064342 47.8765473211952681 S
atom 5.1650719051885057 10.3512453458561122 47.8915580201740454 S
atom 9.6116002404507750 9.7615340503462651 47.8840524295345915 S
atom 5.1963758608794857 5.2019978553216939 52.9463896252427801 S
atom 9.7766404437181063 4.7460227250939022 52.9388844110170069 S
atom 4.7404007856796522 9.7822624966366067 52.9538942099014349 S
atom 10.1805832009444011 10.1862051849192436 52.9463893946017734 S
atom 4.6829854585417143 2.5211480756604359 50.6114078418107098 S
atom 10.2733840883043648 2.4924836445632015 50.0521483581045032 S
atom 5.2371443710068153 7.5287243252649647 50.0671587398465761 S
atom 9.6671927494280379 7.5053565735382577 50.6114078871093938 S
atom 2.4370420958475028 5.3114455581820179 50.6189131134559389 S
atom 7.4499148152101480 4.7052541677632096 50.0596535458846361 S
atom 2.4136754279157064 9.7414939474927120 50.0746639578244768 S
atom 7.4212491030886207 10.2956528605886390 50.6189130304859134 S
