#=======================================================
# FHI-aims file: full_relax/full_relax_RP_4_Rx0Rz_0RyRz.in
# Created using the Atomic Simulation Environment (ASE)
# Fri Mar 14 11:24:11 2025
#=======================================================
lattice_vector 10.0855839983687225 0.0001675219816894 0.0037997140757922 
lattice_vector 0.0001675219816872 10.0855839983495681 -0.0037997140812075 
lattice_vector 0.0148037130279928 -0.0148037130535402 45.2871870107939571 
atom -0.1787030525836140 -0.0067776832820001 0.2933403096742103 Ba
atom 5.2025080262740246 -0.0066103211741681 0.2936492034809984 Ba
atom 0.1597997668961781 5.0360978037354105 0.2898497894625004 Ba
atom 4.8641728474014947 5.0360979629563429 0.2933414185409484 Ba
atom -0.0058893266781428 -0.0050560532421966 4.9645716330582257 Ba
atom 4.9825650168588282 -0.0049770077484623 4.9482254837447242 Ba
atom -0.0601435195224047 5.0377313254495162 4.9444257474382214 Ba
atom 5.0369867141894948 5.0378198036522885 4.9645715856401020 Ba
atom 2.5093321239154793 2.4934308419648565 2.3438969985155098 Zr
atom 7.5521337594308342 2.5375763397535853 2.3452959078343349 Zr
atom 2.5094254639278737 7.5802847940431271 2.3414961465281152 Zr
atom 7.5522079289662880 7.5363065835626042 2.3438974512028450 Zr
atom 2.5132718140668375 2.5174628472670513 7.3615581030926460 Zr
atom 7.5560452865025827 2.5172166932952753 7.3631590701131957 Zr
atom 2.5133369868615740 7.5599249952599701 7.3593596604979927 Zr
atom 7.5561476282454585 7.5603386870237008 7.3615578187294224 Zr
atom 2.5124554630148190 2.8008960369794762 -0.1356872709733328 S
atom 7.5550570001221562 2.2282133351600115 -0.1340536621130988 S
atom 2.5123486927076484 7.2709217285865098 -0.1378535275890693 S
atom 7.5553312878023480 7.8437718163488084 -0.1356862323238073 S
atom 2.5143640145060937 2.0551649684795597 4.8872713156763510 S
atom 7.5574998374005595 2.9776322333832441 4.8886900498394388 S
atom 2.5147916038472706 8.0203404704865910 4.8848899070572962 S
atom 7.5572397693045534 7.0980406888794416 4.8872704881059397 S
atom 2.5133248867896940 -0.0060646214070260 2.0465762263931180 S
atom 7.5490034806094322 -0.0056760393237578 2.7838360218049738 S
atom 2.5062952066353503 5.0370325989357880 2.7800365814719905 S
atom 7.5562005983817571 5.0368117937796502 2.0465760658848029 S
atom 2.6181437805136185 -0.0039202733705124 7.8228492159920187 S
atom 7.4779125261923163 -0.0041887672908246 6.9070892549234788 S
atom 2.4352042981630277 5.0385190962185114 6.9032893578835060 S
atom 7.6610195472456555 5.0389550521125912 7.8228493937871537 S
atom -0.0109887220915083 2.5143819377014238 2.4780178392341230 S
atom 5.0318485629427290 2.5166044667163985 2.4801873675122765 S
atom -0.0108595394159274 7.5593127425761031 2.4763875896157712 S
atom 5.0318869342637091 7.5572577356292818 2.4780177914949602 S
atom -0.0029793780064150 2.4105973884301317 7.3688727939912617 S
atom 5.0398061540182084 2.6241116280511605 7.3702692280154407 S
atom -0.0029023381130961 7.6668199044254601 7.3664695804536056 S
atom 5.0398966460033439 7.4534731538434187 7.3688728574220406 S
atom -0.0068295689049000 -0.0031675075336176 9.7936509730148344 Ba
atom 5.0560580028940247 -0.0031851993453578 9.8983303721280222 Ba
atom 0.0133497705720799 5.0395231015191397 9.8945306194248523 Ba
atom 5.0360461277800193 5.0397083255326365 9.7936509223531800 Ba
atom 0.0666637848100727 -0.0013756260669718 14.7437556472533089 Ba
atom 5.0551173637656674 -0.0012965843439723 14.7274095068675912 Ba
atom 0.0124094453933078 5.0414115471720509 14.7236097771911059 Ba
atom 5.1095391759317295 5.0415000259750657 14.7437556355797668 Ba
atom 2.5360588563653605 2.5193062891970031 12.3288225588360554 Zr
atom 7.5788323705453600 2.5190601817733480 12.3304236590414860 Zr
atom 2.5361240504634814 7.5617685689668876 12.3266240248446177 Zr
atom 7.5789347078882967 7.5621822692268923 12.3288219441686504 Zr
atom 2.5399704873864466 2.4989467532170213 17.3466848756454972 Zr
atom 7.5827719540993712 2.5430923571956030 17.3480835554856085 Zr
atom 2.5400638510548026 7.5858004887609454 17.3442837160664425 Zr
atom 7.5828461121023674 7.5418224417642179 17.3466852100571494 Zr
atom 2.5248724086701375 3.0166668408902506 9.8449168187751930 S
atom 7.5672317517704331 2.0198563080309135 9.8470639043083317 S
atom 2.5245235296199211 7.0625644880682854 9.8432647059407845 S
atom 7.5677481531080746 8.0595425911095884 9.8449166445458456 S
atom 2.5346043046720186 2.0588909629570122 14.8032914892918139 S
atom 7.5777401606773944 2.9813580853180186 14.8047106824759780 S
atom 2.5350318959040901 8.0240663258384224 14.8009109456751080 S
atom 7.5774800989978424 7.1017667126071178 14.8032911900839057 S
atom 2.4310846073610173 -0.0024322806038975 11.8691316078895692 S
atom 7.6568998332000398 -0.0019960174909786 12.7886916880373835 S
atom 2.6141916312396387 5.0407122324786400 12.7848918299329526 S
atom 7.4739603721403665 5.0404435191357022 11.8691317697829124 S
atom 2.5359034964739835 -0.0002883736990139 17.6454052722578787 S
atom 7.5858089291401045 -0.0005092471135622 16.9119447882968039 S
atom 2.5431007107766201 5.0421989529751912 16.9081453639986741 S
atom 7.5787793403079196 5.0425873850006324 17.6454050651908929 S
atom 0.0094993275809145 2.6257582371773713 12.3193084986601828 S
atom 5.0522981838641359 2.4124114804792574 12.3217117666497842 S
atom 0.0095900311911549 7.4551196584036088 12.3179121281468351 S
atom 5.0523749833913607 7.6686339277380240 12.3193085554280319 S
atom 0.0175087296362561 2.5219736755375446 17.2101638248597624 S
atom 5.0602557002061577 2.5199186724178473 17.2117940280020605 S
atom 0.0175471729281700 7.5626268625696467 17.2079942333635003 S
atom 5.0603847851360007 7.5648493876187519 17.2101637648271542 S
atom -0.1532795135170537 0.0002577272915378 19.3983312163404200 Ba
atom 5.2279313348130172 0.0004250869879369 19.3986400214053916 Ba
atom 0.1852231368194066 5.0431333394232283 19.3948406633143158 Ba
atom 4.8895960742487565 5.0431335011245091 19.3983322581654889 Ba
atom 2.5370472324471343 2.8083096770574816 19.8260339867651751 S
atom 7.5796486428946084 2.2356271821099076 19.8276677032610920 S
atom 2.5369404630162395 7.2783353294671578 19.8238676254169128 S
atom 7.5799229327487883 7.8511853875972930 19.8260350417466782 S
atom 2.5356174920521659 2.6927390432606284 22.9369346351034196 Ba
atom 7.5783258428050102 2.3544038167044619 22.9372428147596708 Ba
atom 2.5356176484799984 7.3971119524130797 22.9334433124721109 Ba
atom 7.5784932082410119 7.7356147388336991 22.9369342039575237 Ba
atom 2.5338956330134415 2.5199246855089479 27.6081650978966628 Ba
atom 7.5766925703232255 2.5743464549679755 27.5918189577776900 Ba
atom 2.5339841066887150 7.6170557366590472 27.5880192400311515 Ba
atom 7.5767716080977587 7.5628014070481280 27.6081650992330196 Ba
atom 5.0782845808463009 5.0475796762284704 24.9874900917524378 Zr
atom 10.0770148795859384 5.0476538610735471 24.9888888970112149 Zr
atom 5.0343066795873126 10.0903620292092615 24.9850900234529796 Zr
atom 10.1211604333707204 10.0904553583631991 24.9874914218722104 Zr
atom 5.0542524784241945 5.0436400085995174 30.0051520280925992 Zr
atom 10.0973746072090815 5.0437423414332114 30.0067527860615506 Zr
atom 5.0546661655847727 10.0864504394107790 30.0029526708017080 Zr
atom 10.0971285630833219 10.0865156392955466 30.0051505274088477 Zr
atom 4.7708194571290878 5.0444563048435578 22.5079060689887527 S
atom 10.3863777815055744 5.0447305936972997 22.5095399798305991 S
atom 5.3436695330119139 10.0874388160234965 22.5057410353389855 S
atom 9.8136953567650593 10.0873320503651591 22.5079084753390113 S
atom 5.5165505312180123 5.0425477886853098 27.5308647298889078 S
atom 9.6369590957852687 5.0422877183612185 27.5322839908757189 S
atom 4.5942508319528841 10.0849959302583141 27.5284832447878927 S
atom 10.5594261645542158 10.0854235186907122 27.5308642654103330 S
atom 5.0551110546308502 2.5250635788722331 25.1237808287946685 S
atom 10.1000417583512174 2.5251925285762993 25.1254107883563584 S
atom 5.0573335796221919 7.5679000981898845 25.1216113175656410 S
atom 10.0979867544136681 7.5679386704999363 25.1237806029377246 S
atom 4.9476039196596000 2.5171060286347346 30.0138627443833315 S
atom 10.2038262506542576 2.5171825847455782 30.0162662530748499 S
atom 5.1611182028916156 7.5598908144935812 30.0124662950615075 S
atom 9.9904795228043550 7.5599817317787030 30.0138629635008307 S
atom 2.5346833709435970 5.0506165680277553 25.4236300992287205 S
atom 7.5777794833159104 5.0435869086885372 24.6901697086878151 S
atom 2.5350715798375609 10.0862951772997125 24.6863696186811161 S
atom 7.5775587289769710 10.0934923246087145 25.4236294845101263 S
atom 2.5331957601752015 5.1217074315670796 29.5468828229237594 S
atom 7.5756363874260577 4.9387680310929332 30.4664425710775468 S
atom 2.5329270595875579 9.9814762199789513 30.4626434883470623 S
atom 7.5760727393125933 10.1645832516465813 29.5468833650165479 S
atom 2.5320072715417368 2.5208656490642412 32.4372444039663890 Ba
atom 7.5749006001082773 2.5008537156024691 32.5419239843700510 Ba
atom 2.5321924866446177 7.5435620760128614 32.5381240949873956 Ba
atom 7.5748829035502556 7.5637413566004756 32.4372445774848472 Ba
atom 2.5302154065807452 2.4473728388855247 37.3873491465426682 Ba
atom 7.5730121419791985 2.5017945549116742 37.3710029858511419 Ba
atom 2.5303038848559960 7.5445021504732388 37.3672032951839341 Ba
atom 7.5730911779687942 7.4902478677687494 37.3873491190927396 Ba
atom 5.0524091664334749 5.0208529289289023 34.9724160289529706 Zr
atom 10.0955308340139656 5.0209552886802324 34.9740177926121589 Zr
atom 5.0528229437384438 10.0636634068458797 34.9702172425392419 Zr
atom 10.0952847701974040 10.0637285420748821 34.9724159251006483 Zr
atom 5.0727689201320567 5.0169413982803466 39.9902778635124463 Zr
atom 10.0714990650465470 5.0170154677039163 39.9916765140352766 Zr
atom 5.0287906023949684 10.0597237476398433 39.9878776107431761 Zr
atom 10.1156445744587096 10.0598171691941616 39.9902784474761361 Zr
atom 4.5550486740487930 5.0320393612690681 32.4885110350006983 S
atom 10.5947349721931889 5.0325557604719817 32.4906572481382625 S
atom 5.5520267973200790 10.0752640316264728 32.4868572320312197 S
atom 9.5979244128032892 10.0749151559354786 32.4885084555299386 S
atom 5.5128244679383318 5.0223074885851178 37.4468856641039238 S
atom 9.6332331170076362 5.0220474125932615 37.4483041085199488 S
atom 4.5905249023945141 10.0647556194934449 37.4445041385717516 S
atom 10.5557004022211220 10.0651831928613547 37.4468838806830107 S
atom 5.1593039325747121 2.5046141640297148 34.9653052820962884 S
atom 9.9886656197149737 2.5047044535893752 34.9667018848124087 S
atom 4.9459572046734763 7.5474118961347267 34.9629020162763240 S
atom 10.2021798796584804 7.5474891817884124 34.9653054640907683 S
atom 5.0517968476210369 2.4966565049396423 39.8553875340981207 S
atom 10.0924501155208226 2.4966947670091231 39.8575568954628636 S
atom 5.0497418492969510 7.5394025863794774 39.8537573246287238 S
atom 10.0946726376993432 7.5395319006208954 39.8553873556413265 S
atom 2.5310038528295009 4.9427201177084799 35.4284852486434758 S
atom 7.5741473210921271 5.1258271970855498 34.5127249695172438 S
atom 2.5314396069595144 10.1685354096681682 34.5089258122353613 S
atom 7.5738788476865402 9.9855959175338356 35.4284857825851560 S
atom 2.5295171687524953 5.0138110788152845 39.5517389541014737 S
atom 7.5720029645661091 5.0210082597585677 40.2889987472899023 S
atom 2.5292963070851062 10.0637164792008313 40.2851987787340704 S
atom 7.5723917155990073 10.0566868470222310 39.5517383685587021 S
atom 2.5285818859485492 2.6673155509267552 42.0419255885841991 Ba
atom 7.5712904797514504 2.3289803509431097 42.0422337585105339 Ba
atom 2.5285820613260670 7.3716887598867427 42.0384341855350527 Ba
atom 7.5714578262825114 7.7101914386242232 42.0419251486732293 Ba
atom 4.7634059103988191 5.0198645751611419 42.4696269397397685 S
atom 10.3789642268019620 5.0201388708919792 42.4712612136915553 S
atom 5.3362559490896233 10.0628471266109720 42.4674619620087199 S
atom 9.8062813589105318 10.0627403479776927 42.4696304688126318 S
