#=======================================================
# FHI-aims file: full_relax/full_relax_RP_5_00Rz_00Rz.in
# Created using the Atomic Simulation Environment (ASE)
# Fri Mar 14 11:28:59 2025
#=======================================================
lattice_vector 9.9029703519376771 -0.0000000406600807 -0.0000000000000037 
lattice_vector -0.0000000406600807 9.9029703519376735 -0.0000000000000045 
lattice_vector -0.0000000000000201 -0.0000000000000247 56.9199213934499895 
atom -0.0000000000007399 -0.0000000000010283 0.1641103514333086 Ba
atom 4.9514851759679051 -0.0000000203309692 0.1641103514339824 Ba
atom -0.0000000203310289 4.9514851759678429 0.1641103514332813 Ba
atom 4.9514851556380846 4.9514851556378536 0.1641103514332190 Ba
atom -0.0000000000006848 -0.0000000000009257 5.0697944674393005 Ba
atom 4.9514851759682417 -0.0000000203309739 5.0697944674390021 Ba
atom -0.0000000203308186 4.9514851759681147 5.0697944674395501 Ba
atom 4.9514851556380748 4.9514851556380215 5.0697944674393733 Ba
atom 2.4757425778187936 2.4757425778186284 2.4423417226581514 Zr
atom 7.4272277537876139 2.4757425574885441 2.4423417226581621 Zr
atom 2.4757425574885334 7.4272277537873101 2.4423417226578534 Zr
atom 7.4272277334573973 7.4272277334572516 2.4423417226580004 Zr
atom 2.4757425778188105 2.4757425778186768 7.5848193936886963 Zr
atom 7.4272277537875810 2.4757425574886094 7.5848193936889370 Zr
atom 2.4757425574887759 7.4272277537874709 7.5848193936887940 Zr
atom 7.4272277334574506 7.4272277334574754 7.5848193936884014 Zr
atom 2.4757425778188011 2.4757425778187341 -0.1019413343774671 S
atom 7.4272277537872089 2.4757425574887093 -0.1019413343773151 S
atom 2.4757425574885121 7.4272277537872426 -0.1019413343772502 S
atom 7.4272277334574328 7.4272277334570864 -0.1019413343770689 S
atom 2.4757425778186888 2.4757425778188074 5.0439982067557496 S
atom 7.4272277537874372 2.4757425574885108 5.0439982067555640 S
atom 2.4757425574886938 7.4272277537871911 5.0439982067554077 S
atom 7.4272277334574923 7.4272277334572401 5.0439982067554663 S
atom 2.0478083144504158 0.0000025765338230 2.5340404913414241 S
atom 7.8551620374854538 -0.0000026171956772 2.5340404913412677 S
atom 2.9036768411869240 4.9514825791031516 2.5340404913413490 S
atom 6.9992934700892411 4.9514877321725796 2.5340404913413543 S
atom 3.0108883187336568 -0.0000000568691280 7.6008161149567783 S
atom 6.8920820332023975 0.0000000162071714 7.6008161149568485 S
atom 1.9405968369035420 4.9514852125062649 7.6008161149567428 S
atom 7.9623734743730310 4.9514850987695169 7.6008161149566877 S
atom -0.0000025968654178 2.9036768615166291 2.5340404913413179 S
atom 4.9514877525026906 2.0478082941206335 2.5340404913413836 S
atom 0.0000025562038234 6.9992934904195625 2.5340404913412340 S
atom 4.9514825587732503 7.8551620171552177 2.5340404913413965 S
atom 0.0000000365373240 1.9405968572337176 7.6008161149568139 S
atom 4.9514851190996367 3.0108882984036094 7.6008161149569169 S
atom -0.0000000771992301 7.9623734947025557 7.6008161149567197 S
atom 4.9514851921761540 6.8920820128719704 7.6008161149568423 S
atom -0.0000000000006759 -0.0000000000007275 10.1542505024915268 Ba
atom 4.9514851759682488 -0.0000000203308139 10.1542505024919532 Ba
atom -0.0000000203308570 4.9514851759681884 10.1542505024910277 Ba
atom 4.9514851556384132 4.9514851556380703 10.1542505024914593 Ba
atom -0.0000000000009356 -0.0000000000007482 15.2564286910157438 Ba
atom 4.9514851759682834 -0.0000000203308394 15.2564286910150848 Ba
atom -0.0000000203309085 4.9514851759682585 15.2564286910156550 Ba
atom 4.9514851556382222 4.9514851556382409 15.2564286910153992 Ba
atom 2.4757425778185511 2.4757425778187310 12.7053395967537615 Zr
atom 7.4272277537875366 2.4757425574885232 12.7053395967538894 Zr
atom 2.4757425574886769 7.4272277537871698 12.7053395967540812 Zr
atom 7.4272277334574870 7.4272277334572090 12.7053395967539817 Zr
atom 2.4757425778187483 2.4757425778186506 17.8258597998188861 Zr
atom 7.4272277537874620 2.4757425574886445 17.8258597998190993 Zr
atom 2.4757425574888079 7.4272277537874434 17.8258597998192805 Zr
atom 7.4272277334574310 7.4272277334574248 17.8258597998185024 Zr
atom 2.4757425778186644 2.4757425778187216 10.1513006711664548 S
atom 7.4272277537872613 2.4757425574887852 10.1513006711662008 S
atom 2.4757425574887257 7.4272277537872631 10.1513006711663412 S
atom 7.4272277334574897 7.4272277334572010 10.1513006711664016 S
atom 2.4757425778187874 2.4757425778188344 15.2593785223408265 S
atom 7.4272277537875420 2.4757425574888638 15.2593785223409331 S
atom 2.4757425574887297 7.4272277537873377 15.2593785223410379 S
atom 7.4272277334574319 7.4272277334570784 15.2593785223409544 S
atom 1.9418009348402661 -0.0000000177496477 12.7053395967538005 S
atom 7.9611694170963219 -0.0000000229121155 12.7053395967541185 S
atom 3.0096842207975141 4.9514851733869083 12.7053395967539355 S
atom 6.8932860904782753 4.9514851378891427 12.7053395967533760 S
atom 3.0108883187342959 -0.0000000568692339 17.8098630785503005 S
atom 6.8920820332015671 0.0000000162072932 17.8098630785508902 S
atom 1.9405968369028257 4.9514852125061273 17.8098630785506238 S
atom 7.9623734743735977 4.9514850987696342 17.8098630785516363 S
atom -0.0000000025818805 3.0096842411272280 12.7053395967535767 S
atom 4.9514851582195591 1.9418009145101858 12.7053395967538076 S
atom -0.0000000380795407 6.8932861108086616 12.7053395967537153 S
atom 4.9514851530570274 7.9611693967659818 12.7053395967534435 S
atom 0.0000000365373755 1.9405968572332262 17.8098630785507339 S
atom 4.9514851190998268 3.0108882984041734 17.8098630785503005 S
atom -0.0000000771990646 7.9623734947033071 17.8098630785507233 S
atom 4.9514851921764018 6.8920820128715103 17.8098630785510430 S
atom -0.0000000000006366 -0.0000000000007652 20.3408847260680012 Ba
atom 4.9514851759682221 -0.0000000203308313 20.3408847260687295 Ba
atom -0.0000000203306405 4.9514851759678455 20.3408847260678840 Ba
atom 4.9514851556381165 4.9514851556378279 20.3408847260685341 Ba
atom -0.0000000000006449 -0.0000000000008675 25.2465688420741721 Ba
atom 4.9514851759676670 -0.0000000203308814 25.2465688420741827 Ba
atom -0.0000000203307834 4.9514851759679681 25.2465688420745948 Ba
atom 4.9514851556379442 4.9514851556378741 25.2465688420736996 Ba
atom 2.4757425778187510 2.4757425778186524 22.9683374708492991 Zr
atom 7.4272277537877116 2.4757425574884935 22.9683374708493417 Zr
atom 2.4757425574884282 7.4272277537874043 22.9683374708500736 Zr
atom 7.4272277334574612 7.4272277334573298 22.9683374708497006 Zr
atom 2.4757425778187554 2.4757425778188753 20.3666809867517067 S
atom 7.4272277537873945 2.4757425574884082 20.3666809867517848 S
atom 2.4757425574888541 7.4272277537872879 20.3666809867520691 S
atom 7.4272277334572285 7.4272277334573982 20.3666809867518666 S
atom 2.4757425778189379 2.4757425778188420 25.5126205278847316 S
atom 7.4272277537872951 2.4757425574888057 25.5126205278845148 S
atom 2.4757425574886094 7.4272277537870304 25.5126205278842484 S
atom 7.4272277334575918 7.4272277334571610 25.5126205278851472 S
atom 2.0478083144505610 0.0000025765338218 22.8766387021662965 S
atom 7.8551620374857514 -0.0000026171956198 22.8766387021664102 S
atom 2.9036768411865315 4.9514825791031933 22.8766387021660869 S
atom 6.9992934700897109 4.9514877321724304 22.8766387021671278 S
atom -0.0000025968653975 2.9036768615163324 22.8766387021659163 S
atom 4.9514877525027305 2.0478082941207720 22.8766387021665203 S
atom 0.0000025562037074 6.9992934904194639 22.8766387021674262 S
atom 4.9514825587733542 7.8551620171552150 22.8766387021669466 S
atom 2.4757425778188393 2.4757425778182522 28.6240710481593688 Ba
atom 7.4272277537877729 2.4757425574884797 28.6240710481585765 Ba
atom 2.4757425574888177 7.4272277537877871 28.6240710481589637 Ba
atom 7.4272277334575554 7.4272277334574914 28.6240710481597525 Ba
atom 2.4757425778179556 2.4757425778184752 33.5297551641637810 Ba
atom 7.4272277537869567 2.4757425574877971 33.5297551641651026 Ba
atom 2.4757425574882390 7.4272277537869007 33.5297551641637241 Ba
atom 7.4272277334571557 7.4272277334572525 33.5297551641639515 Ba
atom 4.9514851556378447 4.9514851556374992 30.9023024193843447 Zr
atom 9.9029703316064648 4.9514851353077640 30.9023024193845686 Zr
atom 4.9514851353079532 9.9029703316065198 30.9023024193845295 Zr
atom 9.9029703112766700 9.9029703112767287 30.9023024193843376 Zr
atom 4.9514851556375818 4.9514851556375925 36.0447800904133757 Zr
atom 9.9029703316064772 4.9514851353076832 36.0447800904137594 Zr
atom 4.9514851353079168 9.9029703316062143 36.0447800904127789 Zr
atom 9.9029703112767464 9.9029703112765937 36.0447800904121181 Zr
atom 4.9514851556380330 4.9514851556373793 28.3580193623482231 S
atom 9.9029703316064861 4.9514851353081291 28.3580193623488235 S
atom 4.9514851353073217 9.9029703316068591 28.3580193623492107 S
atom 9.9029703112768956 9.9029703112763361 28.3580193623482124 S
atom 4.9514851556377870 4.9514851556376316 33.5039589034799477 S
atom 9.9029703316069924 4.9514851353073883 33.5039589034796847 S
atom 4.9514851353081379 9.9029703316062818 33.5039589034795284 S
atom 9.9029703112765102 9.9029703112771923 33.5039589034801963 S
atom 4.5235508922700944 2.4757451543528504 30.9940011880670241 S
atom 10.3309046153046253 2.4757399606232342 30.9940011880672550 S
atom 5.3794194190054654 7.4272251569224883 30.9940011880674646 S
atom 9.4750360479087146 7.4272303099919865 30.9940011880669601 S
atom 5.4866308965532458 2.4757425209496335 36.0607768116821674 S
atom 9.3678246110210761 2.4757425940263480 36.0607768116825511 S
atom 4.4163394147225157 7.4272277903254089 36.0607768116840148 S
atom 10.4381160521921732 7.4272276765885268 36.0607768116820253 S
atom 2.4757399809539136 5.3794194393356145 30.9940011880657202 S
atom 7.4272303303218967 4.5235508719397552 30.9940011880668713 S
atom 2.4757451340228114 9.4750360682384080 30.9940011880670241 S
atom 7.4272251365927247 10.3309045949746459 30.9940011880666795 S
atom 2.4757426143562413 4.4163394350524081 36.0607768116835175 S
atom 7.4272276969189832 5.4866308762227085 36.0607768116822669 S
atom 2.4757425006199978 10.4381160725224422 36.0607768116830343 S
atom 7.4272277699954241 9.3678245906909900 36.0607768116833469 S
atom 2.4757425778185591 2.4757425778179822 38.6142111992176069 Ba
atom 7.4272277537869744 2.4757425574881977 38.6142111992172943 Ba
atom 2.4757425574883118 7.4272277537867337 38.6142111992172232 Ba
atom 7.4272277334569523 7.4272277334572783 38.6142111992174222 Ba
atom 2.4757425778183415 2.4757425778182842 43.7163893877425949 Ba
atom 7.4272277537874336 2.4757425574878762 43.7163893877413017 Ba
atom 2.4757425574884597 7.4272277537874007 43.7163893877416925 Ba
atom 7.4272277334575358 7.4272277334570536 43.7163893877402288 Ba
atom 4.9514851556378048 4.9514851556375001 41.1653002934802146 Zr
atom 9.9029703316066158 4.9514851353074372 41.1653002934778840 Zr
atom 4.9514851353077276 9.9029703316063031 41.1653002934794756 Zr
atom 9.9029703112765599 9.9029703112763556 41.1653002934784595 Zr
atom 4.9514851556379877 4.9514851556375437 46.2858204965448294 Zr
atom 9.9029703316064310 4.9514851353079221 46.2858204965450497 Zr
atom 4.9514851353076033 9.9029703316065891 46.2858204965447229 Zr
atom 9.9029703112762295 9.9029703112764977 46.2858204965445879 Zr
atom 4.9514851556383004 4.9514851556379638 38.6112613678906200 S
atom 9.9029703316064488 4.9514851353080953 38.6112613678905561 S
atom 4.9514851353078075 9.9029703316060438 38.6112613678910606 S
atom 9.9029703112763769 9.9029703112761762 38.6112613678907621 S
atom 4.9514851556377621 4.9514851556374877 43.7193392190671375 S
atom 9.9029703316064008 4.9514851353077534 43.7193392190671020 S
atom 4.9514851353078466 9.9029703316063813 43.7193392190671375 S
atom 9.9029703112764249 9.9029703112764924 43.7193392190673222 S
atom 4.4175435126596181 2.4757425600692340 41.1653002934786016 S
atom 10.4369119949152598 2.4757425549068977 41.1653002934790777 S
atom 5.4854267986162180 7.4272277512055007 41.1653002934786940 S
atom 9.3690286682973305 7.4272277157080087 41.1653002934795609 S
atom 5.4866308965528292 2.4757425209494186 46.2698237752750785 S
atom 9.3678246110212502 2.4757425940261872 46.2698237752754977 S
atom 4.4163394147224526 7.4272277903253148 46.2698237752761941 S
atom 10.4381160521925143 7.4272276765887693 46.2698237752771746 S
atom 2.4757425752370588 5.4854268189459692 41.1653002934796390 S
atom 7.4272277360384393 4.4175434923293171 41.1653002934795609 S
atom 2.4757425397393398 9.3690286886279104 41.1653002934790493 S
atom 7.4272277308760080 10.4369119745851897 41.1653002934789782 S
atom 2.4757426143570718 4.4163394350524019 46.2698237752765706 S
atom 7.4272276969188091 5.4866308762226783 46.2698237752755119 S
atom 2.4757425006203291 10.4381160725222344 46.2698237752749719 S
atom 7.4272277699951221 9.3678245906911677 46.2698237752751638 S
atom 2.4757425778184774 2.4757425778181141 48.8008454227938699 Ba
atom 7.4272277537871210 2.4757425574882044 48.8008454227946231 Ba
atom 2.4757425574881116 7.4272277537869655 48.8008454227934507 Ba
atom 7.4272277334571024 7.4272277334571744 48.8008454227942252 Ba
atom 2.4757425778185032 2.4757425778184934 53.7065295387983141 Ba
atom 7.4272277537875260 2.4757425574886374 53.7065295387978239 Ba
atom 2.4757425574883025 7.4272277537869256 53.7065295387982715 Ba
atom 7.4272277334570980 7.4272277334568892 53.7065295387985699 Ba
atom 4.9514851556378376 4.9514851556376263 51.4282981675752566 Zr
atom 9.9029703316067792 4.9514851353079479 51.4282981675742334 Zr
atom 4.9514851353077258 9.9029703316063529 51.4282981675736863 Zr
atom 9.9029703112766487 9.9029703112766541 51.4282981675749511 Zr
atom 4.9514851556380188 4.9514851556372896 48.8266416834779804 S
atom 9.9029703316065127 4.9514851353077738 48.8266416834777743 S
atom 4.9514851353079479 9.9029703316069231 48.8266416834785488 S
atom 9.9029703112768619 9.9029703112764160 48.8266416834781438 S
atom 4.9514851556378048 4.9514851556379682 53.9725812246094989 S
atom 9.9029703316064293 4.9514851353081504 53.9725812246102379 S
atom 4.9514851353079647 9.9029703316061362 53.9725812246106855 S
atom 9.9029703112767109 9.9029703112763396 53.9725812246096766 S
atom 4.5235508922692205 2.4757451543528877 51.3365993988914724 S
atom 10.3309046153049433 2.4757399606236845 51.3365993988908045 S
atom 5.3794194190062452 7.4272251569221410 51.3365993988916003 S
atom 9.4750360479081994 7.4272303099915433 51.3365993988921190 S
atom 2.4757399809535676 5.3794194393363401 51.3365993988929361 S
atom 7.4272303303221943 4.5235508719391513 51.3365993988925098 S
atom 2.4757451340229948 9.4750360682377668 51.3365993988917566 S
atom 7.4272251365924538 10.3309045949748484 51.3365993988905842 S
