#=======================================================
# FHI-aims file: full_relax/full_relax_RP_2_00Mz_000.in
# Created using the Atomic Simulation Environment (ASE)
# Fri Mar 14 11:17:24 2025
#=======================================================
lattice_vector 10.0572291443524104 0.0000000000000001 -0.0000000000000012 
lattice_vector 0.0000000000000001 10.0572291443524104 0.0000000000000001 
lattice_vector -0.0000000000000030 0.0000000000000003 25.6133873392591624 
atom -0.0000000000004088 -0.0000000000006172 0.2766341426538492 Ba
atom 5.0286145721757682 -0.0000000000003759 0.2766341426536361 Ba
atom -0.0000000000004694 5.0286145721759192 0.2766341426537319 Ba
atom 5.0286145721758659 5.0286145721757576 0.2766341426536979 Ba
atom -0.0000000000002240 -0.0000000000003062 4.9256514113948580 Ba
atom 5.0286145721759068 -0.0000000000002097 4.9256514113948473 Ba
atom -0.0000000000003677 5.0286145721760507 4.9256514113949503 Ba
atom 5.0286145721760498 5.0286145721760196 4.9256514113948606 Ba
atom 2.5143072860876936 2.5143072860877411 2.3624696418064253 Zr
atom 7.5429218582639068 2.5143072860877016 2.3624696418064808 Zr
atom 2.5143072860877385 7.5429218582639130 2.3624696418064164 Zr
atom 7.5429218582639246 7.5429218582639370 2.3624696418062996 Zr
atom 2.5143072860876998 2.5143072860877371 7.4888331809836837 Zr
atom 7.5429218582639130 2.5143072860877118 7.4888331809837005 Zr
atom 2.5143072860877114 7.5429218582639264 7.4888331809836206 Zr
atom 7.5429218582638944 7.5429218582639770 7.4888331809835140 Zr
atom 2.5143072860879361 2.5143072860877829 -0.1455403906661070 S
atom 7.5429218582636093 2.5143072860877957 -0.1455403906660776 S
atom 2.5143072860875990 7.5429218582639148 -0.1455403906661021 S
atom 7.5429218582640365 7.5429218582638304 -0.1455403906661595 S
atom 2.5143072860875235 2.5143072860876527 4.9256514113950125 S
atom 7.5429218582640658 2.5143072860875142 4.9256514113950409 S
atom 2.5143072860877562 7.5429218582639139 4.9256514113950072 S
atom 7.5429218582638082 7.5429218582640560 4.9256514113949272 S
atom 2.5579838340631813 -0.0000000000003891 2.4617462768597385 S
atom 7.4992453102884200 -0.0000000000004069 2.4617462768596297 S
atom 2.4706307381121384 5.0286145721758411 2.4617462768598095 S
atom 7.5865984062394958 5.0286145721758411 2.4617462768598766 S
atom 2.5579838340623713 -0.0000000000003644 7.3895565459305086 S
atom 7.4992453102891918 -0.0000000000003770 7.3895565459305930 S
atom 2.4706307381130554 5.0286145721758091 7.3895565459303292 S
atom 7.5865984062387648 5.0286145721758269 7.3895565459302217 S
atom -0.0000000000004102 2.4706307381121211 2.4617462768596079 S
atom 5.0286145721758118 2.5579838340632457 2.4617462768598952 S
atom -0.0000000000004017 7.5865984062395277 2.4617462768598743 S
atom 5.0286145721758411 7.4992453102883863 2.4617462768597114 S
atom -0.0000000000003960 2.4706307381129111 7.3895565459305628 S
atom 5.0286145721758269 2.5579838340624370 7.3895565459301835 S
atom -0.0000000000003837 7.5865984062387479 7.3895565459302981 S
atom 5.0286145721758189 7.4992453102891554 7.3895565459305619 S
atom -0.0000000000003531 -0.0000000000004658 9.5746686801365311 Ba
atom 5.0286145721757185 -0.0000000000003202 9.5746686801365222 Ba
atom -0.0000000000006092 5.0286145721759050 9.5746686801364724 Ba
atom 5.0286145721758713 5.0286145721757762 9.5746686801365151 Ba
atom 2.5143072860878615 2.5143072860876727 9.9968432134561169 S
atom 7.5429218582637469 2.5143072860878202 9.9968432134561134 S
atom 2.5143072860876621 7.5429218582639725 9.9968432134560210 S
atom 7.5429218582639992 7.5429218582637843 9.9968432134559926 S
atom 2.5143072860874489 2.5143072860876177 13.0845167312619584 Ba
atom 7.5429218582640818 2.5143072860876883 13.0845167312621289 Ba
atom 2.5143072860878375 7.5429218582638944 13.0845167312620170 Ba
atom 7.5429218582636972 7.5429218582638269 13.0845167312620063 Ba
atom 2.5143072860876878 2.5143072860876354 17.7323450810248069 Ba
atom 7.5429218582636848 2.5143072860876416 17.7323450810246115 Ba
atom 2.5143072860875222 7.5429218582638384 17.7323450810248282 Ba
atom 7.5429218582638971 7.5429218582638127 17.7323450810245689 Ba
atom 5.0286145721757682 5.0286145721757736 15.1693306104163721 Zr
atom 10.0572291443520214 5.0286145721758153 15.1693306104161216 Zr
atom 5.0286145721756883 10.0572291443519735 15.1693306104161429 Zr
atom 10.0572291443519148 10.0572291443520037 15.1693306104163170 Zr
atom 5.0286145721757887 5.0286145721758091 20.2953595516331049 Zr
atom 10.0572291443519166 5.0286145721758082 20.2953595516328882 Zr
atom 5.0286145721757123 10.0572291443520143 20.2953595516328811 Zr
atom 10.0572291443518456 10.0572291443519699 20.2953595516331511 Zr
atom 5.0286145721757540 5.0286145721762727 12.6615656513328716 S
atom 10.0572291443520374 5.0286145721754911 12.6615656513327064 S
atom 5.0286145721757523 10.0572291443514406 12.6615656513327242 S
atom 10.0572291443519344 10.0572291443523163 12.6615656513328219 S
atom 5.0286145721757425 5.0286145721751785 17.7323450810246293 S
atom 10.0572291443519646 5.0286145721760276 17.7323450810245511 S
atom 5.0286145721757993 10.0572291443525952 17.7323450810246648 S
atom 10.0572291443519095 10.0572291443516928 17.7323450810246079 S
atom 5.0286145721757247 2.5143071756140176 15.2684317071826001 S
atom 10.0572291443519397 2.5143073965613270 15.2684317071831295 S
atom 5.0286145721757096 7.5429219687375291 15.2684317071833764 S
atom 10.0572291443519859 7.5429217477902597 15.2684317071827085 S
atom 5.0286145721755693 2.5143071756140909 20.1962584548663351 S
atom 10.0572291443520641 2.5143073965612803 20.1962584548659017 S
atom 5.0286145721759290 7.5429219687374820 20.1962584548656103 S
atom 10.0572291443519148 7.5429217477902615 20.1962584548663031 S
atom 2.5143073965612852 5.0286145721757611 15.2684317071829856 S
atom 7.5429217477902668 5.0286145721758571 15.2684317071829270 S
atom 2.5143071756140176 10.0572291443519344 15.2684317071828843 S
atom 7.5429219687374234 10.0572291443519557 15.2684317071828985 S
atom 2.5143073965612905 5.0286145721759121 20.1962584548662534 S
atom 7.5429217477902197 5.0286145721755888 20.1962584548658590 S
atom 2.5143071756139559 10.0572291443519415 20.1962584548659905 S
atom 7.5429219687374633 10.0572291443519823 20.1962584548663884 S
atom 2.5143072860875848 2.5143072860877300 22.3801734307864280 Ba
atom 7.5429218582640418 2.5143072860877496 22.3801734307863818 Ba
atom 2.5143072860878704 7.5429218582638482 22.3801734307862681 Ba
atom 7.5429218582636874 7.5429218582639086 22.3801734307867903 Ba
atom 5.0286145721757869 5.0286145721761555 22.8031245107162910 S
atom 10.0572291443519006 5.0286145721755888 22.8031245107161489 S
atom 5.0286145721757505 10.0572291443515223 22.8031245107161311 S
atom 10.0572291443518491 10.0572291443521014 22.8031245107163336 S
