#=======================================================
# FHI-aims file: full_relax/full_relax_RP_8_Rx1Ry20_Rx2Ry10.in
# Created using the Atomic Simulation Environment (ASE)
# Mon Mar 24 15:56:15 2025
#=======================================================
lattice_vector 10.0790204339956411 0.0378171474902595 0.0000000000000078 
lattice_vector 0.0378171474902574 10.0790204339956890 0.0000000000000222 
lattice_vector 0.0000000000000693 0.0000000000001949 84.8649042640529387 
atom -0.0112778001150981 -0.1489134166497335 0.2744830999295448 Ba
atom 5.0507880171113877 0.1678219903970219 0.2744830999007716 Ba
atom 0.0301863738659679 5.1884236336470249 0.2744830999039840 Ba
atom 5.0471409906199174 4.9095053740875576 0.2744830999094148 Ba
atom -0.0309113666538034 0.0255684336957222 4.9385760230625610 Ba
atom 5.0704215836483328 -0.0066598599513564 4.9385760230629225 Ba
atom 0.0498199404063479 5.0139417833013393 4.9385760230630948 Ba
atom 5.0275074240783075 5.0839872244369086 4.9385760230614268 Ba
atom 2.5172685251043236 2.5254076132145795 2.3228613018258413 Zr
atom 7.5806604826358726 2.5519197512814848 2.3228613018187123 Zr
atom 2.5600588393938923 7.5725213945250802 2.3228613018278721 Zr
atom 7.5756873158337248 7.5838264039478291 2.3228613018235520 Zr
atom 2.5282993676083221 2.5339311236452384 7.3372349560777392 Zr
atom 7.5696296401252310 2.5433962408402442 7.3372349560992527 Zr
atom 2.5490279968729208 7.5639978840942463 7.3372349560719705 Zr
atom 7.5867181583562422 7.5923499143899456 7.3372349561255170 Zr
atom 2.8759697819677821 2.5864494241195262 -0.1598564266171190 S
atom 7.2219592257742704 2.4908779403737822 -0.1598564266405494 S
atom 2.2013575825256533 7.5114795836181241 -0.1598564266098488 S
atom 7.9343885726977179 7.6448682148530738 -0.1598564266591323 S
atom 2.0698936250819733 2.4262474702035841 4.8651727152181046 S
atom 8.0280353826563147 2.6510798942805835 4.8651727152706483 S
atom 3.0074337394005766 7.6716815375351795 4.8651727152142117 S
atom 7.1283124158233031 7.4846662609482255 4.8651727152618109 S
atom 2.5197551084984289 0.0094542868729971 2.3701678759930975 S
atom 7.5592653254940236 0.0283628606209873 2.5356612482926897 S
atom 2.5386636822424449 5.0489645038673823 2.5356612482901726 S
atom 7.5781738992406007 5.0678730776100123 2.3701678759875726 S
atom 2.5197551084961618 0.0094542868656362 7.4979563557054627 S
atom 7.5592653254926345 0.0283628606122946 7.2010388904649396 S
atom 2.5386636822403847 5.0489645038736688 7.2010388904838951 S
atom 7.5781738992382959 5.0678730776175227 7.4979563556876734 S
atom 0.0094542868577471 2.5197551084978613 2.0167138805106921 S
atom 5.0489645038715345 2.5386636822418587 2.7922259055321286 S
atom 0.0283628606085970 7.5592653254937758 2.7922259055381824 S
atom 5.0678730776260688 7.5781738992394843 2.0167138805108888 S
atom 0.0094542868771849 2.5197551084984342 7.8024614078873844 S
atom 5.0489645038652800 2.5386636822441240 6.8912851190786260 S
atom 0.0283628606245436 7.5592653254947981 6.8912851190745874 S
atom 5.0678730776254817 7.5781738992396441 7.8024614078863559 S
atom 0.0636526742453780 -0.0049217805267917 9.8349179182394089 Ba
atom 4.9758575427497638 0.0238303542643085 9.8349179182395527 Ba
atom -0.0447441005196177 5.0444319975223255 9.8349179182392863 Ba
atom 5.1220714650055088 5.0534970102222392 9.8349179182397268 Ba
atom -0.0716474996474456 0.0031580699150221 14.7823454113577029 Ba
atom 5.1111577166418458 0.0157505038275617 14.7823454113586852 Ba
atom 0.0905560733881310 5.0363521470822112 14.7823454113580937 Ba
atom 4.9867712910965611 5.0615768606590938 14.7823454113585182 Ba
atom 2.5305314640537380 2.5273418396759291 12.2983797420654444 Zr
atom 7.5673975436712109 2.5499855248092231 12.2983797420482155 Zr
atom 2.5467959004259337 7.5705871680633576 12.2983797420635881 Zr
atom 7.5889502548074796 7.5857606304210492 12.2983797420371754 Zr
atom 2.5290023705351392 2.5297179264916050 17.2570608459648263 Zr
atom 7.5689266371939006 2.5476094379961274 17.2570608459381027 Zr
atom 2.5483249939443704 7.5682110812478696 17.2570608459543102 Zr
atom 7.5874211612787503 7.5881367172332794 17.2570608459143102 Zr
atom 3.0149705641757456 2.6812516007967142 9.8237816011777817 S
atom 7.0829584435591340 2.3960757636919183 9.8237816011957495 S
atom 2.0623568003066017 7.4166774069416750 9.8237816011862211 S
atom 8.0733893549148732 7.7396703915357179 9.8237816012116497 S
atom 2.0494459436567816 2.3514307513334507 14.7794088491593065 S
atom 8.0484830640702860 2.7258966131527251 14.7794088491219302 S
atom 3.0278814208230838 7.7464982564056148 14.7794088491722775 S
atom 7.1078647344070705 7.4098495420778532 14.7794088490947004 S
atom 2.5197551084957088 0.0094542868771748 12.1092476711528114 S
atom 7.5592653254923858 0.0283628606071411 12.4964064177837972 S
atom 2.5386636822398687 5.0489645038616739 12.4964064177734215 S
atom 7.5781738992383731 5.0678730776209591 12.1092476711638728 S
atom 2.5197551084946714 0.0094542868789148 17.4685589441028313 S
atom 7.5592653254929152 0.0283628606129973 17.0464050443990764 S
atom 2.5386636822390654 5.0489645038606108 17.0464050443884005 S
atom 7.5781738992393270 5.0678730776154151 17.4685589441133580 S
atom 0.0094542868812222 2.5197551084979795 11.8429725030277808 S
atom 5.0489645038872730 2.5386636822443935 12.7680530981451597 S
atom 0.0283628606363263 7.5592653254955158 12.7680530981448239 S
atom 5.0678730775904199 7.5781738992405288 11.8429725030286299 S
atom 0.0094542868860235 2.5197551084968359 17.7185194596272559 S
atom 5.0489645038908266 2.5386636822429467 16.7987489696620784 S
atom 0.0283628606067142 7.5592653254980018 16.7987489696695285 S
atom 5.0678730776220773 7.5781738992413592 17.7185194596327271 S
atom 0.0732583782971624 -0.0019875283826578 19.7360242474524057 Ba
atom 4.9662518386996082 0.0208961021357138 19.7360242474523027 Ba
atom -0.0543498045366391 5.0414977453772885 19.7360242474525585 Ba
atom 5.1316771690225220 5.0564312623501486 19.7360242474525585 Ba
atom -0.0716474996528800 0.0031580699068844 24.6897030835491620 Ba
atom 5.1111577166473818 0.0157505038388762 24.6897030835479079 Ba
atom 0.0905560733877534 5.0363521470897403 24.6897030835492366 Ba
atom 4.9867712910968276 5.0615768606484997 24.6897030835481495 Ba
atom 2.5290023705393119 2.5297179264951151 22.2149876489045077 Zr
atom 7.5689266371923711 2.5476094379947494 22.2149876489463125 Zr
atom 2.5483249939413630 7.5682110812457823 22.2149876489163951 Zr
atom 7.5874211612764402 7.5881367172347822 22.2149876489638238 Zr
atom 2.5305314640567507 2.5273418396768066 27.1736687528544429 Zr
atom 7.5673975436723273 2.5499855248086947 27.1736687528709311 Zr
atom 2.5467959004206020 7.5705871680628389 27.1736687528773757 Zr
atom 7.5889502548066829 7.5857606304220031 27.1736687529014773 Zr
atom 3.0066232807692126 2.7144529570685014 19.7360242474456093 S
atom 7.0913057269530979 2.3628744074133956 19.7360242474427245 S
atom 2.0707040837071244 7.3834760506702830 19.7360242474133969 S
atom 8.0650420715260864 7.7728717478180984 19.7360242474412999 S
atom 2.0494459436469268 2.3514307513279076 24.6926396457596447 S
atom 8.0484830640821539 2.7258966131580440 24.6926396457770991 S
atom 3.0278814208339346 7.7464982564122522 24.6926396457599964 S
atom 7.1078647343917956 7.4098495420710409 24.6926396457955875 S
atom 2.5197551084947083 0.0094542868711432 22.0034895508176866 S
atom 7.5592653254916353 0.0283628606227268 22.4256434505210258 S
atom 2.5386636822385653 5.0489645038671638 22.4256434505327107 S
atom 7.5781738992383199 5.0678730776063121 22.0034895508065418 S
atom 2.5197551084971406 0.0094542868671992 27.3628008237344282 S
atom 7.5592653254910331 0.0283628606039584 26.9756420771142658 S
atom 2.5386636822404380 5.0489645038704207 26.9756420771155057 S
atom 7.5781738992373313 5.0678730776252348 27.3628008237341653 S
atom 0.0094542868994496 2.5197551084965628 21.7535290352927966 S
atom 5.0489645038774480 2.5386636822433326 22.6732995252595693 S
atom 0.0283628606239405 7.5592653254980524 22.6732995252595089 S
atom 5.0678730776159995 7.5781738992420689 21.7535290352907928 S
atom 0.0094542868708371 2.5197551084978431 27.6290759918686746 S
atom 5.0489645038849424 2.5386636822443029 26.7039953967494057 S
atom 0.0283628606322019 7.5592653254966358 26.7039953967380761 S
atom 5.0678730776122176 7.5781738992403849 27.6290759918594446 S
atom 0.0636526742471915 -0.0049217805318353 29.6371305766703372 Ba
atom 4.9758575427480887 0.0238303542567786 29.6371305766715274 Ba
atom -0.0447441005168187 5.0444319975280090 29.6371305766704687 Ba
atom 5.1220714650042583 5.0534970102281331 29.6371305766713569 Ba
atom -0.0309113666506529 0.0255684337084736 34.5334724718408879 Ba
atom 5.0704215836450750 -0.0066598599557792 34.5334724718437940 Ba
atom 0.0498199404060303 5.0139417832892779 34.5334724718399571 Ba
atom 5.0275074240775419 5.0839872244418212 34.5334724718450090 Ba
atom 2.5282993676127847 2.5339311236440931 32.1348135388733525 Zr
atom 7.5696296401266530 2.5433962408405599 32.1348135388363971 Zr
atom 2.5490279968734204 7.5639978840956541 32.1348135388645773 Zr
atom 7.5867181583486696 7.5923499143881426 32.1348135388062843 Zr
atom 2.5172685250997593 2.5254076132130083 37.1491871930425077 Zr
atom 7.5806604826405968 2.5519197512819014 37.1491871930475099 Zr
atom 2.5600588393911985 7.5725213945254168 37.1491871930545230 Zr
atom 7.5756873158362810 7.5838264039494554 37.1491871930591131 Zr
atom 3.0149705641835771 2.6812516007993628 29.6482668937593949 S
atom 7.0829584435599777 2.3960757636898320 29.6482668937312006 S
atom 2.0623568003018877 7.4166774069403241 29.6482668937890601 S
atom 8.0733893549124662 7.7396703915369418 29.6482668937503142 S
atom 2.0698936250917601 2.4262474702074868 34.6068757797442785 S
atom 8.0280353826497244 2.6510798942791802 34.6068757797188908 S
atom 3.0074337393868245 7.6716815375304099 34.6068757796343363 S
atom 7.1283124158327462 7.4846662609513004 34.6068757796121105 S
atom 2.5197551084981793 0.0094542869014110 31.9740921391882544 S
atom 7.5592653254902595 0.0283628606322958 32.2710096044244210 S
atom 2.5386636822422051 5.0489645038380502 32.2710096044088743 S
atom 7.5781738992376084 5.0678730776004359 31.9740921392016268 S
atom 2.5197551084972281 0.0094542868493385 37.1018806189339543 S
atom 7.5592653254953026 0.0283628605931967 36.9363872466273904 S
atom 2.5386636822395321 5.0489645038911011 36.9363872466362579 S
atom 7.5781738992435557 5.0678730776363752 37.1018806189320145 S
atom 0.0094542868417538 2.5197551084980692 31.6695870869892744 S
atom 5.0489645038785902 2.5386636822442474 32.5807633758015172 S
atom 0.0283628606401762 7.5592653254948434 32.5807633758183854 S
atom 5.0678730776309884 7.5781738992387453 31.6695870870140617 S
atom 0.0094542868641452 2.5197551084994640 37.4553346143992059 S
atom 5.0489645038662339 2.5386636822417148 36.6798225893941989 S
atom 0.0283628606157092 7.5592653254934179 36.6798225893961884 S
atom 5.0678730776195398 7.5781738992410910 37.4553346144203516 S
atom -0.0112778001151489 -0.1489134166492704 39.1975653949729548 Ba
atom 5.0507880171112935 0.1678219903980577 39.1975653949955500 Ba
atom 0.0301863738653841 5.1884236336451126 39.1975653949952658 Ba
atom 5.0471409906191314 4.9095053740861836 39.1975653949914999 Ba
atom 2.8759697819709626 2.5864494241191691 39.6319049214673598 S
atom 7.2219592257703189 2.4908779403720045 39.6319049215045354 S
atom 2.2013575825248348 7.5114795836195949 39.6319049214804195 S
atom 7.9343885726993522 7.6448682148540543 39.6319049215336818 S
atom 2.3802959787014846 2.5179315952401935 42.7069352319470994 Ba
atom 7.7176330290346815 2.5593957692249618 42.7069352319415927 Ba
atom 2.6970313857612673 7.5799974124923262 42.7069352319494229 Ba
atom 7.4387147694659106 7.5763503860009358 42.7069352319400934 Ba
atom 2.5547778290592018 2.4982980287033820 47.3710281550894479 Ba
atom 7.5431511786781780 2.5790293357614069 47.3710281550896113 Ba
atom 2.5225495353956298 7.5996309790361503 47.3710281550941730 Ba
atom 7.6131966198325980 7.5567168194710268 47.3710281550933772 Ba
atom 5.0546170085821833 5.0464779204682042 44.7553134338547665 Zr
atom 10.1017307898980757 5.0892682347639395 44.7553134338597758 Zr
atom 5.0811291466482453 10.1098698780079843 44.7553134338564647 Zr
atom 10.1130357993210254 10.1048967112114756 44.7553134338719829 Zr
atom 5.0631405190133831 5.0575087629803299 49.7696870881027209 Zr
atom 10.0932072794621170 5.0782373922385027 49.7696870880961129 Zr
atom 5.0726056362141563 10.0988390354997559 49.7696870880916720 Zr
atom 10.1215593097524703 10.1159275537126572 49.7696870879171271 Zr
atom 5.1156588194871810 5.4051791773292637 42.2725957054226242 S
atom 10.0406889789926890 4.7305669779037709 42.2725957054326713 S
atom 5.0200873357454494 9.7511686211489152 42.2725957054261272 S
atom 10.1740776102283785 10.4635979680795490 42.2725957055792065 S
atom 4.9554568655782552 4.5991030204633825 47.2976248472672864 S
atom 10.2008909329032527 5.5366431347701814 47.2976248472463467 S
atom 5.1802892896494388 10.5572447780157574 47.2976248473354985 S
atom 10.0138756563218276 9.6575218112137549 47.2976248470822256 S
atom 5.0489645038687883 2.5386636822370505 44.4491660125222552 S
atom 10.0884747208663335 2.5575722559959946 45.2246780375431925 S
atom 5.0678730776149647 7.5781738992600749 45.2246780375450541 S
atom 10.1073832946123634 7.5970824729551669 44.4491660125389032 S
atom 5.0489645038668245 2.5386636822491511 50.2349135399160431 S
atom 10.0884747208701899 2.5575722559639664 49.3237372511572687 S
atom 5.0678730776139327 7.5781738992401930 49.3237372511071399 S
atom 10.1073832946123261 7.5970824729827173 50.2349135399721760 S
atom 2.5386636822563671 5.0489645038712654 44.8026200080083612 S
atom 7.5781738992272354 5.0678730776162215 44.9681133803084450 S
atom 2.5575722560215115 10.0884747208648697 44.9681133803036843 S
atom 7.5970824729473598 10.1073832946099316 44.8026200080025916 S
atom 2.5386636822750988 5.0489645038685129 49.9304084877348018 S
atom 7.5781738992128025 5.0678730776123153 49.6334910225129278 S
atom 2.5575722559483181 10.0884747208770005 49.6334910225363402 S
atom 7.5970824730227289 10.1073832946222950 49.9304084877575747 S
atom 2.5242876148793378 2.5928620696456610 52.2673700502660452 Ba
atom 7.5736413928525721 2.4844652948735648 52.2673700502658320 Ba
atom 2.5530397496525827 7.5050669381005566 52.2673700502634730 Ba
atom 7.5827064055697759 7.6512808603576818 52.2673700502637573 Ba
atom 2.5323674652816783 2.4575618957270287 57.2147975433895439 Ba
atom 7.5655615424567442 2.6197654687666563 57.2147975433891105 Ba
atom 2.5449598992093789 7.6403671120085503 57.2147975433820832 Ba
atom 7.5907862560204027 7.5159806864595557 57.2147975433823248 Ba
atom 5.0565512350469408 5.0597408594272473 54.7308318740712991 Zr
atom 10.0997965634344204 5.0760052957841193 54.7308318740877837 Zr
atom 5.0791949201823527 10.0966069390315560 54.7308318740488531 Zr
atom 10.1149700257889261 10.1181596501687796 54.7308318741500059 Zr
atom 5.0589273218630035 5.0582117659083528 59.6895129779530933 Zr
atom 10.0974204766197033 5.0775343893185001 59.6895129780049771 Zr
atom 5.0768188333613020 10.0981360325759013 59.6895129780141858 Zr
atom 10.1173461126103490 10.1166305566555650 59.6895129781265936 Zr
atom 5.2104609961694353 5.5441799595527037 52.2562337332693971 S
atom 9.9458868023113709 4.5915661956692198 52.2562337331266207 S
atom 4.9252851590559770 9.6121678389245417 52.2562337331755202 S
atom 10.2688797869249360 10.6025987503229242 52.2562337331907187 S
atom 4.8806401467039171 4.5786553390285230 57.2118609811157768 S
atom 10.2757076517801007 5.5570908161963546 57.2118609812457777 S
atom 5.2551060085294052 10.5776924594568875 57.2118609811635181 S
atom 9.9390589374408442 9.6370741297582132 57.2118609813651631 S
atom 5.0489645038685342 2.5386636822407822 54.2754246350609364 S
atom 10.0884747208702041 2.5575722560383172 55.2005052301580221 S
atom 5.0678730776152072 7.5781738992948373 55.2005052301797363 S
atom 10.1073832946140918 7.5970824729619313 54.2754246350259493 S
atom 5.0489645038673210 2.5386636822490281 60.1509715916424241 S
atom 10.0884747208661025 2.5575722560171785 59.2312011016460289 S
atom 5.0678730776189589 7.5781738991971839 59.2312011016764899 S
atom 10.1073832946060183 7.5970824730004516 60.1509715916012198 S
atom 2.5386636822175088 5.0489645038641120 54.5416998031855655 S
atom 7.5781738992623184 5.0678730776051477 54.9288585498073658 S
atom 2.5575722559623562 10.0884747208645376 54.9288585497925155 S
atom 7.5970824730077444 10.1073832946134008 54.5416998031707863 S
atom 2.5386636822679445 5.0489645038728401 59.9010110761173138 S
atom 7.5781738992047254 5.0678730776147471 59.4788571764045457 S
atom 2.5575722560049958 10.0884747208592653 59.4788571763813323 S
atom 7.5970824729695767 10.1073832946077982 59.9010110760962462 S
atom 2.5272218669458808 2.6024677736353481 62.1684763794827262 Ba
atom 7.5707071407943483 2.4748595908118340 62.1684763794820014 Ba
atom 2.5501054974828028 7.4954612340989915 62.1684763794801327 Ba
atom 7.5856406577476561 7.6608865644204451 62.1684763794805164 Ba
atom 2.5323674652918324 2.4575618957194929 67.1221552155710555 Ba
atom 7.5655615424493590 2.6197654687559342 67.1221552155707855 Ba
atom 2.5449598992111504 7.6403671120176995 67.1221552155770524 Ba
atom 7.5907862560203805 7.5159806864692342 67.1221552155773793 Ba
atom 5.0589273218684676 5.0582117659054502 64.6474397809644046 Zr
atom 10.0974204766200408 5.0775343893063116 64.6474397809584076 Zr
atom 5.0768188333673399 10.0981360325594540 64.6474397810004007 Zr
atom 10.1173461126124131 10.1166305566600574 64.6474397808291741 Zr
atom 5.0565512350450428 5.0597408594256157 69.6061208849011734 Zr
atom 10.0997965634359979 5.0760052958084323 69.6061208848746276 Zr
atom 5.0791949201788666 10.0966069390421360 69.6061208848946080 Zr
atom 10.1149700257868425 10.1181596501644648 69.6061208847936825 Zr
atom 5.2436623524398964 5.5358326761405161 62.1684763795287836 S
atom 9.9126854460410581 4.5999134790814686 62.1684763794618291 S
atom 4.8920838027911850 9.6205151223313106 62.1684763794890074 S
atom 10.3020811431673849 10.5942514668526222 62.1684763794901585 S
atom 4.8806401467005518 4.5786553390220766 67.1250917778532710 S
atom 10.2757076517778199 5.5570908161939947 67.1250917777581435 S
atom 5.2551060085242547 10.5776924594439929 67.1250917777889242 S
atom 9.9390589374434644 9.6370741297648621 67.1250917776515195 S
atom 5.0489645038682447 2.5386636822768889 64.1859811673042771 S
atom 10.0884747208680849 2.5575722560124339 65.1057516573064987 S
atom 5.0678730776175893 7.5781738992736747 65.1057516572682715 S
atom 10.1073832946082209 7.5970824730316471 64.1859811673481886 S
atom 5.0489645038626580 2.5386636823166691 70.0615281239042389 S
atom 10.0884747208692396 2.5575722560280965 69.1364475287954008 S
atom 5.0678730776131404 7.5781738991929997 69.1364475287865474 S
atom 10.1073832946153939 7.5970824729083475 70.0615281239241767 S
atom 2.5386636822082873 5.0489645038636439 64.4359416828326061 S
atom 7.5781738992605572 5.0678730776042267 64.8580955825451468 S
atom 2.5575722559853671 10.0884747208477172 64.8580955825687795 S
atom 7.5970824729789985 10.1073832945962891 64.4359416828521461 S
atom 2.5386636822399504 5.0489645038694286 69.7952529557528720 S
atom 7.5781738992407215 5.0678730776116083 69.4080942091321589 S
atom 2.5575722559641672 10.0884747208680228 69.4080942091839717 S
atom 7.5970824730115512 10.1073832946161701 69.7952529558075270 S
atom 2.5242876148789937 2.5928620696513835 72.0695827086923373 Ba
atom 7.5736413928550634 2.4844652948799784 72.0695827086905609 Ba
atom 2.5530397496541584 7.5050669380928703 72.0695827086941847 Ba
atom 7.5827064055682749 7.6512808603494262 72.0695827086939573 Ba
atom 2.5547778290515417 2.4982980287057646 76.9659246038717129 Ba
atom 7.5431511786864727 2.5790293357659300 76.9659246038714855 Ba
atom 2.5225495353982552 7.5996309790331837 76.9659246038665117 Ba
atom 7.6131966198279617 7.5567168194669243 76.9659246038672507 Ba
atom 5.0631405190172165 5.0575087629708841 74.5672656707845505 Zr
atom 10.0932072794609606 5.0782373922273623 74.5672656708305936 Zr
atom 5.0726056362176841 10.0988390354837776 74.5672656708861012 Zr
atom 10.1215593097569627 10.1159275537216331 74.5672656710002855 Zr
atom 5.0546170085817028 5.0464779204708750 79.5816393250927092 Zr
atom 10.1017307898981770 5.0892682347634706 79.5816393251127607 Zr
atom 5.0811291466474131 10.1098698780091407 79.5816393251249394 Zr
atom 10.1130357993191495 10.1048967112104453 79.5816393250666607 Zr
atom 5.2104609961666242 5.5441799595374723 72.0807190258572916 S
atom 9.9458868023131135 4.5915661956768741 72.0807190258705219 S
atom 4.9252851590574975 9.6121678389182694 72.0807190256012831 S
atom 10.2688797869237334 10.6025987503230468 72.0807190257595209 S
atom 4.9554568655772950 4.5991030204464005 77.0393279115965726 S
atom 10.2008909329037056 5.5366431347800908 77.0393279116661631 S
atom 5.1802892896520989 10.5572447780087462 77.0393279116673568 S
atom 10.0138756563171150 9.6575218112082748 77.0393279119591199 S
atom 5.0489645038695707 2.5386636822137252 74.1020392190610977 S
atom 10.0884747208726857 2.5575722559031795 75.0132155078068337 S
atom 5.0678730776124716 7.5781738994012011 75.0132155078673435 S
atom 10.1073832946119744 7.5970824730498414 74.1020392189935251 S
atom 5.0489645038687136 2.5386636822661957 79.8877867464310327 S
atom 10.0884747208651575 2.5575722560018694 79.1122747214037929 S
atom 5.0678730776156344 7.5781738992081467 79.1122747214022723 S
atom 10.1073832946109530 7.5970824729337609 79.8877867464080964 S
atom 2.5386636822611526 5.0489645038585298 74.4065442712294782 S
atom 7.5781738992274308 5.0678730776027434 74.7034617364473661 S
atom 2.5575722559562450 10.0884747208699483 74.7034617364378164 S
atom 7.5970824730089586 10.1073832946144755 74.4065442712133773 S
atom 2.5386636822500988 5.0489645038751663 79.5343327509535527 S
atom 7.5781738992341285 5.0678730776208463 79.3688393786524671 S
atom 2.5575722560461687 10.0884747208684580 79.3688393786344761 S
atom 7.5970824729262549 10.1073832946125055 79.5343327509327622 S
atom 2.3802959787042117 2.5179315952391028 81.6300175270343829 Ba
atom 7.7176330290327426 2.5593957692240830 81.6300175270379640 Ba
atom 2.6970313857592036 7.5799974124975105 81.6300175270262685 Ba
atom 7.4387147694690521 7.5763503860068147 81.6300175270347808 Ba
atom 5.1156588194869528 5.4051791773294751 82.0643570536098963 S
atom 10.0406889789927654 4.7305669779038642 82.0643570535595472 S
atom 5.0200873357441891 9.7511686211492741 82.0643570535568614 S
atom 10.1740776102304729 10.4635979680856579 82.0643570534327012 S
