#=======================================================
# FHI-aims file: full_relax/full_relax_RP_9_RxRyMz_RxRyMz.in
# Created using the Atomic Simulation Environment (ASE)
# Mon Mar 24 17:55:49 2025
#=======================================================
lattice_vector 10.0072309614170525 -0.0758742747078310 -0.0073708315002476 
lattice_vector -0.0758742747078351 10.0072309614190722 0.0073708315086255 
lattice_vector -0.0709775515849615 0.0709775516647923 96.0432846021332693 
atom 0.0650576125914677 -0.1479778902310686 0.2219316904868781 Ba
atom 5.1515933685979878 -0.1029947522476534 0.2182463063602070 Ba
atom 0.1100407491614872 4.9385578686084921 0.2256171348403399 Ba
atom 5.0307359574702470 4.8177004561137045 0.2219316988753426 Ba
atom -0.2984462315776561 0.2174984064193064 5.0140016825601714 Ba
atom 4.7861170734182901 0.2605090944771360 5.0103162659218201 Ba
atom -0.2554355420733558 5.3020617123300555 5.0176870980477943 Ba
atom 4.6672321098231500 5.1831767500294506 5.0140016820793294 Ba
atom 2.4528564835871869 2.5036264712667919 2.4064130456467905 Zr
atom 7.4656673414777970 2.4748847273011854 2.4027276250696215 Zr
atom 2.4241147342853133 7.5164373447254027 2.4100984571416881 Zr
atom 7.4185348165616318 7.4693048176129411 2.4064130358070930 Zr
atom 2.4455895364654681 2.5157938198502663 7.4646727082493243 Zr
atom 7.4535000039827111 2.4821516730064563 7.4609872751973452 Zr
atom 2.4119473895516279 7.5237042897548605 7.4683581190347761 Zr
atom 7.4112678748811200 7.4814721626650611 7.4646727075024524 Zr
atom 2.5752543195199675 2.7213713868736891 -0.1003097201556549 S
atom 7.2479224359215602 2.3524868873420197 -0.1039951491497900 S
atom 2.2063698178581244 7.3940395032435653 -0.0966243178715585 S
atom 7.5409326628015858 7.6870497297336868 -0.1003097210140888 S
atom 2.2055585001373972 2.2182204776552803 4.9707461978260641 S
atom 7.7510733465769937 2.7221827047443812 4.9670608157335030 S
atom 2.7095207286332972 7.7637353230999269 4.9744316392305796 S
atom 7.1712368454451481 7.1838988216643989 4.9707462162350771 S
atom 2.7687817843518521 0.0173849148391785 2.2524660224080932 S
atom 7.1475019703147096 -0.0182207596604786 2.7562093657426003 S
atom 2.1059493507453850 5.0233318476091471 2.7635801971259637 S
atom 7.7344601302768856 4.9830632428271189 2.2524660211286536 S
atom 2.8705735757434283 0.0096703204110805 7.7923165520783959 S
atom 7.0868245118774675 -0.0249238879665289 7.1728903452406385 S
atom 2.0452718904064855 5.0166287307839736 7.1802611745971960 S
atom 7.8362519175074752 4.9753486635625759 7.7923165513900896 S
atom -0.0553220001928418 2.2348336914027169 2.2561514382559555 S
atom 4.9459619349779791 2.8217918555074042 2.7598947798969844 S
atom -0.0955906789558955 7.8633444750971444 2.7672656136481684 S
atom 4.9103563385685192 7.2005120339993516 2.2561514380288727 S
atom -0.0476074745649026 2.1330419061989208 7.7960019679433952 S
atom 4.9526651102517434 2.8824693130926109 7.1765757602738498 S
atom -0.0888875315135118 7.9240219325704100 7.1839465911412104 S
atom 4.9180708925368037 7.0987202491932573 7.7960019669695129 S
atom 0.2591743260920940 -0.1573740279297684 9.9928741065373554 Ba
atom 5.1609895035581870 -0.2971114629658364 9.9891886907081506 Ba
atom 0.1194368920126955 4.7444411590073408 9.9965595217285870 Ba
atom 5.2248526631754215 4.8083043202064113 9.9928741059201158 Ba
atom -0.3080909916404707 0.2043796800033275 14.9982756220005946 Ba
atom 4.7992358014820695 0.2701538531270609 14.9945902058403835 Ba
atom -0.2423168197435498 5.3117064719669287 15.0019610379532011 Ba
atom 4.6575873545267106 5.1700580240331648 14.9982756217310751 Ba
atom 2.4634916705947272 2.5049952043098167 12.4824592709632185 Zr
atom 7.4642986196840324 2.4642495360897971 12.4787738709393423 Zr
atom 2.4227460012855611 7.5058021552216996 12.4861446826300941 Zr
atom 7.4291700111708048 7.4706735486401143 12.4824592816640010 Zr
atom 2.4609233458970996 2.5037139406140163 17.4970496162592433 Zr
atom 7.4655798842494745 2.4668178611024798 17.4933642080867280 Zr
atom 2.4240272658024660 7.5083704760172747 17.5007350369720598 Zr
atom 7.4266016894892033 7.4693922793097247 17.4970496056317266 Zr
atom 2.7194258416904602 2.8355565070948598 9.9848386638374933 S
atom 7.1337373186140169 2.2083153649879153 9.9811532428241421 S
atom 2.0921846977037517 7.2498679824747407 9.9885240697281183 S
atom 7.6851041849113919 7.8012348511580010 9.9848386434691587 S
atom 2.1947622103829247 2.1741161477631059 14.9951551246782699 S
atom 7.7951776762101987 2.7329789950582155 14.9914696899553128 S
atom 2.7536250575198560 7.7745316137542311 14.9988405587833959 S
atom 7.1604405538651834 7.1397944910896909 14.9951551332069251 S
atom 2.8652469857312162 0.0026547453790285 12.1748799157448158 S
atom 7.0951057498467458 -0.0331845757356672 12.8094770329938488 S
atom 2.0535531311631292 5.0083680188431403 12.8168478655528482 S
atom 7.8309253293414454 4.9683330645473474 12.1748799155114433 S
atom 2.8674558488582340 0.0003038666365248 17.8210896712596529 S
atom 7.0987535649208739 -0.0346072340729824 17.1757838102013274 S
atom 2.0572009484033509 5.0069454032359513 17.1831546426026947 S
atom 7.8331341928038727 4.9659822295941929 17.8210896728712811 S
atom -0.0405918858775880 2.1383684966401959 12.1785653322043341 S
atom 4.9609258078698417 2.8741880731915734 12.8131624484940208 S
atom -0.0806268187643585 7.9157406934131007 12.8205332815539510 S
atom 4.9250864676428687 7.1040468370922412 12.1785653305929475 S
atom -0.0382410064506093 2.1361596299999750 17.8247750882744960 S
atom 4.9623484236093320 2.8705402589105069 17.1794692255414603 S
atom -0.0792041762997097 7.9120928754470254 17.1868400588197190 S
atom 4.9274373190608376 7.1018379763813213 17.8247750872145581 S
atom 0.2680548462185161 -0.1632911084639880 20.0051745082350969 Ba
atom 5.1669065896038582 -0.3059919814046214 20.0014890923187139 Ba
atom 0.1253539712490765 4.7355606343175491 20.0088599233819373 Ba
atom 5.2337331902075643 4.8023872322943113 20.0051745078721552 Ba
atom -0.3013255718983162 0.1965618296497473 25.0151151475899880 Ba
atom 4.8070536487667592 0.2633884318236629 25.0114297310319245 Ba
atom -0.2344989689896155 5.3049410551553722 25.0188005627902577 Ba
atom 4.6643527703009227 5.1622401784608698 25.0151151456878758 Ba
atom 2.4662038070265075 2.4994745385593293 22.5101447801851187 Zr
atom 7.4698192865542543 2.4615374005151804 22.5064593583701082 Zr
atom 2.4282666711537528 7.5030900156789144 22.5138302067700167 Zr
atom 7.4318821496633385 7.4651528763509933 22.5101447917358541 Zr
atom 2.4714842608973546 2.4952351320782489 27.5232401588971030 Zr
atom 7.4740586951722090 2.4562569409656891 27.5195547538890679 Zr
atom 2.4325060767045867 7.4978095604732191 27.5269255362806646 Zr
atom 7.4371626105446813 7.4609134705858251 27.5232401345454711 Zr
atom 2.7311676028257597 2.8333618587199823 20.0052910478463239 S
atom 7.1359319635029577 2.1965736017182742 20.0016056277825562 S
atom 2.0943793455173432 7.2381262202939753 20.0089764239991048 S
atom 7.6968459469637329 7.7990402027216206 20.0052910468880434 S
atom 2.2012400068058393 2.1655872068724120 25.0149986158112760 S
atom 7.8037066184371611 2.7265011999613966 25.0113132075069160 S
atom 2.7621540001377340 7.7680538175783633 25.0186840720216210 S
atom 7.1669183507582996 7.1312655504867299 25.0149986136568501 S
atom 2.8709166482508781 -0.0033735613737043 22.1864737648836261 S
atom 7.1030435852325011 -0.0392299710957384 22.8264450787392725 S
atom 2.0614909665785910 5.0023226305129844 22.8338159107240344 S
atom 7.8365949905941017 4.9623047668028315 22.1864737666770537 S
atom 2.8752066654192467 -0.0079963354833622 27.8371349932465364 S
atom 7.1065043828602290 -0.0429074273035330 27.1918291352854169 S
atom 2.0649517676786546 4.9986452029321926 27.1991999708026633 S
atom 7.8408850087685797 4.9576820237230619 27.8371349919881261 S
atom -0.0345635373551350 2.1326988321692339 22.1901591830073031 S
atom 4.9669711548822040 2.8662502389905353 22.8301304953033437 S
atom -0.0745814785487289 7.9078028599041676 22.8375013259132196 S
atom 4.9311148208598103 7.0983771746598370 22.1901591798497115 S
atom -0.0299408088032509 2.1284088145115820 27.8408204066474312 S
atom 4.9706486272113910 2.8627894404541694 27.1955145510611302 S
atom -0.0709039720810506 7.9043420565145190 27.2028853867229117 S
atom 4.9357375137049253 7.0940871601937951 27.8408204098527463 S
atom 0.2748202615645131 -0.1711089479730988 30.0220140539923754 Ba
atom 5.1747244399596326 -0.3127573941130516 30.0183286367619715 Ba
atom 0.1331718166840658 4.7287952080040654 30.0256994698831079 Ba
atom 5.2404986116545524 4.7945693779322660 30.0220140530995039 Ba
atom -0.2924450411339451 0.1906447437296325 35.0274155141061314 Ba
atom 4.8129707199270255 0.2545079040422478 35.0237300985469560 Ba
atom -0.2285818785472472 5.2960605374277181 35.0311009305978089 Ba
atom 4.6732332828758869 5.1563231046539970 35.0274155147753561 Ba
atom 2.4689159325668246 2.4939538643970400 32.5378302857283472 Zr
atom 7.4753399651454595 2.4588252650953049 32.5341448334460495 Zr
atom 2.4337873454532017 7.5003778845360110 32.5415157608629997 Zr
atom 7.4345942898735187 7.4596322020322354 32.5378302962654118 Zr
atom 2.4868180755167009 2.4831552517834821 37.5556169361824885 Zr
atom 7.4861385771175843 2.4409231197192089 37.5519315329739030 Zr
atom 2.4445859511713546 7.4824757442815040 37.5593022977469744 Zr
atom 7.4524964339343098 7.4488335999911675 37.5556169356061744 Zr
atom 2.7376454005310253 2.8248329198814592 30.0251344627677987 S
atom 7.1444609032500983 2.1900958049660328 30.0214490422662834 S
atom 2.1029082876729710 7.2316484230834410 30.0288198715837922 S
atom 7.7033237436808131 7.7905112605168947 30.0251344952755090 S
atom 2.2129817721613656 2.1633925631910667 35.0354511495582130 S
atom 7.8059012591681736 2.7147594344497246 35.0317657858433691 S
atom 2.7643486481795012 7.7563120514073063 35.0391365119683798 S
atom 7.1786601170966584 7.1290709055713064 35.0354511138937923 S
atom 2.8788544894489743 -0.0094189608459344 32.2034417951234531 S
atom 7.1087132433809019 -0.0452583224026850 32.8380389324491162 S
atom 2.0671606248717866 4.9962943342819530 32.8454097616128848 S
atom 7.8445328271541683 4.9562594259189536 32.2034417989654500 S
atom 2.8871357222645653 -0.0176796116981945 37.8400284805290923 S
atom 7.1033866669034209 -0.0522738248317196 37.2206022895330975 S
atom 2.0618340454519424 4.9892787026608110 37.2279731178761466 S
atom 7.8528140591632489 4.9479986408020977 37.8400284741427626 S
atom -0.0285181711070244 2.1247609911796390 32.2071272134545481 S
atom 4.9729994837572375 2.8605805832585567 32.8417243508799004 S
atom -0.0685531509645655 7.9021331988477570 32.8490951749422209 S
atom 4.9371601838976034 7.0904393382931730 32.2071272120209500 S
atom -0.0202575191801082 2.1164797680930594 37.8437138883090327 S
atom 4.9800151146628782 2.8659071545948436 37.2242877047763301 S
atom -0.0615375827125680 7.9074597816687184 37.2316585341345316 S
atom 4.9454209028210050 7.0821580989490398 37.8437138979870014 S
atom 0.2651755035455562 -0.1842276760499271 40.0062880001730008 Ba
atom 5.1878431587176710 -0.3031126401806028 40.0026025864417818 Ba
atom 0.1462905420683647 4.7384399738055247 40.0099734147213582 Ba
atom 5.2308538460889729 4.7814506648115280 40.0062880010241386 Ba
atom -0.0983283446333568 0.1812486292277417 44.7983579567669210 Ba
atom 4.8223668656423770 0.0603912097630845 44.7946725453751782 Ba
atom -0.2191857642605594 5.1019438134450121 44.8020433731808865 Ba
atom 4.8673500098269962 5.1469269556010344 44.7983579638811023 Ba
atom 2.4795511443181537 2.4953225767862666 42.6138767424729608 Zr
atom 7.4739712283033661 2.4481900468613498 42.6101913457836474 Zr
atom 2.4324185953800694 7.4897426908923048 42.6175621464196865 Zr
atom 7.4452294884083692 7.4610009637873702 42.6138767436375190 Zr
atom 2.7268491184984849 2.7807285941980284 40.0495433314340374 S
atom 7.1885652334194177 2.2008920929513218 40.0458578703655093 S
atom 2.1470126120030644 7.2424447042799347 40.0532288661834173 S
atom 7.6925274583415915 7.7464069354583938 40.0495433549202460 S
atom 2.3571533039781132 2.2775776896784468 45.1205993416770568 S
atom 7.6917161351450858 2.5705879063837629 45.1169139234773482 S
atom 2.6501635112137345 7.6121405159902302 45.1242847101603957 S
atom 7.3228316442086907 7.2432560328161726 45.1205993289226797 S
atom 2.8264582640227918 -0.0243828685529119 42.2567094377372285 S
atom 7.2051784460026438 -0.0599884666641920 42.7604527889203823 S
atom 2.1636258276506086 4.9815642745130289 42.7678236166065062 S
atom 7.7921366124734943 4.9412955716734777 42.2567094340586209 S
atom -0.0135543333840157 2.1771572127473373 42.2603948505460423 S
atom 4.9877296289266324 2.7641153839255641 42.7641382071312890 S
atom -0.0538229118547695 7.8056679846010928 42.7715090291299944 S
atom 4.9521239502333652 7.1428355586882653 42.2603948523768622 S
atom 2.5124080103823361 2.3703500489426736 48.2435739880876895 Ba
atom 7.5989437651579692 2.4153331941792966 48.2398885690399268 Ba
atom 2.5573911565323226 7.4568858203624027 48.2472594149253950 Ba
atom 7.4780863464710743 7.3360284028375977 48.2435739908289634 Ba
atom 2.1489041750303408 2.7358263461251715 53.0356439905989703 Ba
atom 7.2334674615405055 2.7788370373010758 53.0319585714048500 Ba
atom 2.1919148696773632 7.8203896641809640 53.0393294044962644 Ba
atom 7.1145824925972354 7.7015046997787300 53.0356439865514417 Ba
atom 4.9002068764739430 5.0219544258007787 50.4280552760993643 Zr
atom 9.9130177474774719 4.9932126833152104 50.4243698480495084 Zr
atom 4.8714651228959767 10.0347652889124710 50.4317407160736124 Zr
atom 9.8658852157075376 9.9876327690438096 50.4280552493657197 Zr
atom 4.8929399229389157 5.0341217781348355 55.4863150076709388 Zr
atom 9.9008503922302182 5.0004796155583540 55.4826297058351940 Zr
atom 4.8592977742582821 10.0420322300616327 55.4900003935634203 Zr
atom 9.8586182845920565 9.9998001111620969 55.4863150099238922 Zr
atom 5.0226047108939138 5.2396993276612669 47.9213326192434579 S
atom 9.6952728448864232 4.8708148425036084 47.9176472477160260 S
atom 4.6537202172652625 9.9123674552583214 47.9250180106884969 S
atom 9.9882830513115604 10.2053776703508969 47.9213326432014028 S
atom 4.6529088952724438 4.7365484239526987 52.9923885312093788 S
atom 10.1984237457491833 5.2405106580537621 52.9887029949578618 S
atom 5.1568711324106582 10.2820632748608070 52.9960739369033504 S
atom 9.6185872404749766 9.7022267719645257 52.9923885494791591 S
atom 5.2161321843620980 2.5357128689993411 50.2741083326877103 S
atom 9.5948523700709458 2.5001072342224564 50.7778516791978731 S
atom 4.5532997439405687 7.5416597883902776 50.7852225084301239 S
atom 10.1818105222468365 7.5013911318598359 50.2741083415134113 S
atom 5.3179239742054234 2.5279983085267141 55.8139588496417574 S
atom 9.5341749064954922 2.4934039623993653 55.1945326299602712 S
atom 4.4926222884221216 7.5349566326687079 55.2019034649862661 S
atom 10.2836023102015783 7.4936767088834051 55.8139588437551595 S
atom 2.3920283051935609 4.7531616476830720 50.2777937574989977 S
atom 7.3933124058626447 5.3401197976059276 50.7815370939856408 S
atom 2.3517596862738048 10.3816724243147469 50.7889079246070665 S
atom 7.3577067726505527 9.7188399822809792 50.2777937490701063 S
atom 2.3997429959867356 4.6513698463995672 55.8176442605775520 S
atom 7.4000154361738995 5.4007972669026101 55.1982180444286001 S
atom 2.3584627946815484 10.4423498823566909 55.2055888829130765 S
atom 7.3654213544628400 9.6170481972051398 55.8176442623857270 S
atom 2.7065247139750550 2.3609539323309630 58.0145163897217131 Ba
atom 7.6083399119221733 2.2212165080131894 58.0108309733888632 Ba
atom 2.5667872757138075 7.2627690933277957 58.0182018051885038 Ba
atom 7.6722030772517869 7.3266322382809976 58.0145163894721634 Ba
atom 2.1392594073279976 2.7227076225998230 63.0199179211721585 Ba
atom 7.2465862005704373 2.7884817986799004 63.0162325115986803 Ba
atom 2.2050335786350477 7.8300344185656972 63.0236033381153291 Ba
atom 7.1049377544636814 7.6883859670593946 63.0199179262220071 Ba
atom 4.9108420501395491 5.0233231500597730 60.5041014904686634 Zr
atom 9.9116490158380177 4.9825774881613487 60.5004159799138748 Zr
atom 4.8700963855096777 10.0241301059653516 60.5077868914584798 Zr
atom 9.8765204147367989 9.9890014835911991 60.5041015228848451 Zr
atom 4.9082737331768405 5.0220418652176448 65.5186921007739898 Zr
atom 9.9129302974420472 4.9851458165947697 65.5150066001396567 Zr
atom 4.8713776759026572 10.0266984477344323 65.5223775513005648 Zr
atom 9.8739520637099982 9.9877202249605954 65.5186920777979083 Zr
atom 5.1667762299164623 5.3538844489049291 58.0064810381351421 S
atom 9.5810877064675140 4.7266433120932287 58.0027955769589596 S
atom 4.5395350989422116 9.7681959344614402 58.0101664891531357 S
atom 10.1324545735438516 10.3195627859257417 58.0064810076678654 S
atom 4.6421126004042517 4.6924440910247931 63.0167973420466296 S
atom 10.2425280742068221 5.2513069484868486 63.0131121734665740 S
atom 5.2009754585631391 10.2928595666938012 63.0204827875564177 S
atom 9.6077909434977027 9.6581224333501865 63.0167973285136114 S
atom 5.3125973750822295 2.5209826900624219 60.1965222432215015 S
atom 9.5424561422640295 2.4851432428662199 60.8311193555382985 S
atom 4.5009035345339186 7.5266959656801848 60.8384901806142082 S
atom 10.2782757189319724 7.4866611450454030 60.1965222382136389 S
atom 5.3148062434220273 2.5186318030602601 65.8427319442536856 S
atom 9.5461039644711825 2.4837208523493075 65.1974261000111142 S
atom 4.5045513367656662 7.5252733612730074 65.2047969216291392 S
atom 10.2804845830684179 7.4843100338003774 65.8427319421818140 S
atom 2.4067586296066712 4.6566964369984802 60.2002076537769142 S
atom 7.4082760917203760 5.3925160294433123 60.8348047732439241 S
atom 2.3667235632907926 10.4340686343601998 60.8421755950150782 S
atom 7.3724368789672390 9.6223747940903728 60.2002076586406147 S
atom 2.4091092530640288 4.6544875969716495 65.8464173561856541 S
atom 7.4096989546216143 5.3888681983858104 65.2011115146678861 S
atom 2.3681462382416725 10.4304208258391906 65.2084823383627281 S
atom 7.3747877018847756 9.6201659220712337 65.8464173620960906 S
atom 2.7154052620103246 2.3550368213643558 68.0268168537036360 Ba
atom 7.6142569678631942 2.2123359454266818 68.0231314370740705 Ba
atom 2.5727043917670036 7.2538885922549445 68.0305022698407527 Ba
atom 7.6810835647193452 7.3207151999351403 68.0268168553360937 Ba
atom 2.1460248247332983 2.7148897880641010 73.0367574038437084 Ba
atom 7.2544040391671327 2.7817163891161458 73.0330719851022820 Ba
atom 2.2128514320917820 7.8232689946231817 73.0404428228027456 Ba
atom 7.1117031592933868 7.6805681192856579 73.0367574032104727 Ba
atom 4.9135542084040837 5.0178024762365814 70.5317870761471397 Zr
atom 9.9171696892214332 4.9798653449631738 70.5281017493973934 Zr
atom 4.8756170720700833 10.0214179700484411 70.5354724600260852 Zr
atom 9.8792325366239346 9.9834808366638121 70.5317870559372722 Zr
atom 4.9188346738954793 5.0135631011563637 75.5448822118172814 Zr
atom 9.9214090724044635 4.9745848799022019 75.5411968613614846 Zr
atom 4.8798564599738743 10.0161374780986350 75.5485676385490592 Zr
atom 9.8845130243232191 9.9792414358704953 75.5448823191153735 Zr
atom 5.1785180011131811 5.3516898073767258 68.0269331941718747 S
atom 9.5832823725528478 4.7149015566988508 68.0232476847965870 S
atom 4.5417297379587263 9.7564541690479381 68.0306185489117610 S
atom 10.1441963381054769 10.3173681512268534 68.0269332433433931 S
atom 4.6485904051401805 4.6839151548519924 73.0366411189418585 S
atom 10.2510570111192187 5.2448291441986097 73.0329556281757419 S
atom 5.2095043948248119 10.2863817628380154 73.0403266077348690 S
atom 9.6142687489529415 9.6495935007172715 73.0366410642494515 S
atom 5.3182670551602937 2.5149543973513055 70.2081160484510889 S
atom 9.5503939805485558 2.4790979806670528 70.8480873880916846 S
atom 4.5088413475298763 7.5206505698370503 70.8554582274193194 S
atom 10.2839453909708016 7.4806327049689356 70.2081160541788023 S
atom 5.3225570593060967 2.5103315923048299 75.8587773141452431 S
atom 9.5538547824873241 2.4754205005678309 75.2134714659081851 S
atom 4.5123021707031201 7.5169731751757043 75.2208423032216018 S
atom 10.2882354077402596 7.4760099888832370 75.8587773170209516 S
atom 2.4127868048481802 4.6510267769551268 70.2118014654729734 S
atom 7.4143216002353567 5.3845781941585207 70.8517728047014970 S
atom 2.3727688649705794 10.4261308163101187 70.8591436431052699 S
atom 7.3784652708630372 9.6167051096617691 70.2118014678014646 S
atom 2.4174096112123884 4.6467367564546329 75.8624627352318015 S
atom 7.4179989989855235 5.3811173822810598 75.2171568850632468 S
atom 2.3764464478518370 10.4226699979158273 75.2245277157268077 S
atom 7.3830878797858936 9.6124151116499288 75.8624627270086904 S
atom 2.7221706367158811 2.3472189933860137 78.0436563366286720 Ba
atom 7.6220748545765460 2.2055705457135888 78.0399709222885178 Ba
atom 2.5805221928885609 7.2471231675277226 78.0473417491385391 Ba
atom 7.6878490193436706 7.3128973369310737 78.0436563349816765 Ba
atom 2.1549053385241357 2.7089727043294047 83.0490578658428831 Ba
atom 7.2603211334840081 2.7728358538787714 83.0453724512336748 Ba
atom 2.2187685090816776 7.8143884709761817 83.0527432793634404 Ba
atom 7.1205836870148564 7.6746510459887363 83.0490578663666525 Ba
atom 4.9162663411371721 5.0122818211347466 80.5594726866781201 Zr
atom 9.9226903548637608 4.9771532046580109 80.5557872767933532 Zr
atom 4.8811377418053921 10.0187058214967006 80.5631581565956765 Zr
atom 9.8819446886489288 9.9779601687387487 80.5594726203641329 Zr
atom 4.9341684646869908 5.0014831947771397 85.5772594733110310 Zr
atom 9.9334889917199192 4.9592510814774435 85.5735739033079454 Zr
atom 4.8919363691275013 10.0008037068612712 85.5809447358489734 Zr
atom 9.8998468093333738 9.9671615405856322 85.5772594442745458 Zr
atom 5.1849957974660805 5.3431608651628784 78.0467769064853911 S
atom 9.5918112911704938 4.7084237475302464 78.0430914156991946 S
atom 4.5502586846698714 9.7499763665482959 78.0504622288649159 S
atom 10.1506741455378773 10.3088392137346858 78.0467768132306077 S
atom 4.6603321710585401 4.6817205135229267 83.0570931875145959 S
atom 10.2532516638521258 5.2330873848523458 83.0534078369689581 S
atom 5.2116990413210891 10.2746400005452472 83.0607786267558765 S
atom 9.6260105103525664 9.6473988541806825 83.0570933538584768 S
atom 5.3262048699485067 2.5089090478119362 80.2250840978567510 S
atom 9.5560636394996727 2.4730696568136064 80.8596812165398831 S
atom 4.5145110359558318 7.5146222219060288 80.8670520356366040 S
atom 10.2918832288858333 7.4745873382989316 80.2250840939362178 S
atom 5.3344861184629933 2.5006483220903273 85.8616707673180173 S
atom 9.5507370591297747 2.4660539771314629 85.2422445604391470 S
atom 4.5091844346398462 7.5076066595588546 85.2496153893236794 S
atom 10.3001644532869072 7.4663267342505311 85.8616707600925508 S
atom 2.4188323122604953 4.6430889444380599 80.2287695131411738 S
atom 7.4203497891157335 5.3789085219785546 80.8633666240841933 S
atom 2.3787973048216027 10.4204611411497154 80.8707374594909396 S
atom 7.3845105178047818 9.6087672883799069 80.2287695104739669 S
atom 2.4270929510266712 4.6348077043344942 85.8653561818458826 S
atom 7.4273654366580635 5.3842351197964531 85.2459299721991073 S
atom 2.3858127595489016 10.4257877310735037 85.2533008093988229 S
atom 7.3927713573843077 9.6004860501920675 85.8653561785585424 S
atom 2.7125258993781305 2.3341002744409263 88.0279302960741603 Ba
atom 7.6351935605272603 2.2152153042278142 88.0242448791191663 Ba
atom 2.5936409496747252 7.2567679111014289 88.0316157152882965 Ba
atom 7.6782042377947270 7.2997786061956447 88.0279302968690445 Ba
atom 2.3490220554846983 2.6995765520764081 92.8200002137801334 Ba
atom 7.2697172685220943 2.5787191526760069 92.8163148046210154 Ba
atom 2.2281646417659196 7.6202717777404052 92.8236856297751700 Ba
atom 7.3147004063740431 7.6652549025079475 92.8200002184534441 Ba
atom 4.9269015098805324 5.0136505291399756 90.6355188204181417 Zr
atom 9.9213216127019717 4.9665180221693745 90.6318334167140307 Zr
atom 4.8797689636660762 10.0080706252744438 90.6392042580020814 Zr
atom 9.8925798757514833 9.9793288486301286 90.6355188677235617 Zr
atom 5.1741995076040093 5.2990565403054815 88.0711855371554009 S
atom 9.6359156305940363 4.7192200412074579 88.0675003775264145 S
atom 4.5943630141621705 9.7607726628886695 88.0748712195883314 S
atom 10.1398778468424275 10.2647348791927371 88.0711854515235615 S
atom 4.8045036829078711 4.7959056171253653 93.1422418571549571 S
atom 10.1390665277273371 5.0889158506436667 93.1385562776061420 S
atom 5.0975139094538706 10.1304684717602864 93.1459270939629391 S
atom 9.7701820226095979 9.7615839607976813 93.1422418623287314 S
atom 5.2738086632089782 2.4939449278347547 90.2783517747659374 S
atom 9.6525288177545949 2.4583398009192274 90.7820951292768825 S
atom 4.6109762098850258 7.4998923980788472 90.7894659576875256 S
atom 10.2394870044196651 7.4596232573187446 90.2783517730060794 S
atom 2.4337958552982446 4.6954851591348934 90.2820371903868590 S
atom 7.4350802879243005 5.2824433156470532 90.7857805400574307 S
atom 2.3935277269387627 10.3239959342261187 90.7931513712331792 S
atom 7.3994741553288250 9.6611635030530572 90.2820371860984494 S
