#=======================================================
# FHI-aims file: full_relax/full_relax_RP_9_00Mz1_00Mz2.in
# Created using the Atomic Simulation Environment (ASE)
# Mon Mar 24 16:22:11 2025
#=======================================================
lattice_vector 9.9086248608688638 -0.0000000226122853 0.0000000000000317 
lattice_vector -0.0000000226122853 9.9086248608688638 -0.0000000000000081 
lattice_vector 0.0000000000002962 -0.0000000000000761 97.8450254243701067 
atom -0.0000000000039636 0.0000000000002564 0.1613788739354972 Ba
atom 4.9543124304320294 -0.0000000113010637 0.1613788739355458 Ba
atom -0.0000000113085445 4.9543124304395425 0.1613788739354296 Ba
atom 4.9543124191243146 4.9543124191286463 0.1613788739353758 Ba
atom 0.0000000000007796 0.0000000000203169 5.0648110659724219 Ba
atom 4.9543124304311066 -0.0000000113041530 5.0648110659724308 Ba
atom -0.0000000113094528 4.9543124304364303 5.0648110659724548 Ba
atom 4.9543124191290868 4.9543124191486063 5.0648110659724352 Ba
atom 2.4771562095622839 2.4771562095642414 2.4346318604450738 Zr
atom 7.4314686399973793 2.4771561982574650 2.4346318604450543 Zr
atom 2.4771561982568069 7.4314686399980276 2.4346318604450232 Zr
atom 7.4314686286905678 7.4314686286925031 2.4346318604450148 Zr
atom 2.4771562095666964 2.4771562095599515 7.5727916467573646 Zr
atom 7.4314686399948524 2.4771561982532249 7.5727916467573522 Zr
atom 2.4771561982542765 7.4314686399937893 7.5727916467573575 Zr
atom 7.4314686286949705 7.4314686286882372 7.5727916467573513 Zr
atom 2.4771562095684536 2.4771562095656021 -0.1081648205352730 S
atom 7.4314686399927528 2.4771561982514334 -0.1081648205352939 S
atom 2.4771561982521542 7.4314686399920609 -0.1081648205353170 S
atom 7.4314686286967619 7.4314686286938851 -0.1081648205353389 S
atom 2.4771562095439674 2.4771562095552788 5.0355255233524776 S
atom 7.4314686400166945 2.4771561982567585 5.0355255233524963 S
atom 2.4771561982761745 7.4314686399972922 5.0355255233524767 S
atom 7.4314686286722136 7.4314686286835290 5.0355255233524794 S
atom 2.0524828583089598 -0.0000001113935952 2.5283333757401700 S
atom 7.8561420025583839 0.0000000887790556 2.5283333757475539 S
atom 2.9018295608178617 4.9543125305196387 2.5283333757474882 S
atom 7.0067952774371864 4.9543123077346882 2.5283333757400990 S
atom 2.9978422496569750 0.0000000012916282 7.5893743811788319 S
atom 6.9107826112093811 -0.0000000239095307 7.5893743811711571 S
atom 1.9564701694688007 4.9543124178310336 7.5893743811711811 S
atom 7.9521546687852744 4.9543124204199085 7.5893743811788683 S
atom 0.0000001000851181 2.9018295721254588 2.5283333757359459 S
atom 4.9543123190407474 2.0524828470042622 2.5283333757517998 S
atom -0.0000001226998337 7.0067952887448488 2.5283333757517892 S
atom 4.9543125192134134 7.8561419912537289 2.5283333757359228 S
atom -0.0000000126014964 1.9564701807769718 7.5893743812098791 S
atom 4.9543124317279412 2.9978422383528738 7.5893743811401437 S
atom -0.0000000100126328 7.9521546800934386 7.5893743811400860 S
atom 4.9543124065267854 6.9107825999052430 7.5893743812099181 S
atom 0.0000000000047049 -0.0000000000458111 10.1537418495109222 Ba
atom 4.9543124304374784 -0.0000000113612400 10.1537418495109453 Ba
atom -0.0000000113030849 4.9543124303793684 10.1537418495109417 Ba
atom 4.9543124191329628 4.9543124190824512 10.1537418495109666 Ba
atom -0.0000000000058644 0.0000000000727352 15.2624404456897231 Ba
atom 4.9543124304287200 -0.0000000112214737 15.2624404456897391 Ba
atom -0.0000000113118557 4.9543124305189119 15.2624404456897356 Ba
atom 4.9543124191223020 4.9543124192010879 15.2624404456897302 Ba
atom 2.4771562095615782 2.4771562095661590 12.6946363860312612 Zr
atom 7.4314686399993581 2.4771561982598715 12.6946363860312506 Zr
atom 2.4771561982587795 7.4314686400004470 12.6946363860312772 Zr
atom 7.4314686286898679 7.4314686286944536 12.6946363860312239 Zr
atom 2.4771562095649005 2.4771562095602171 17.8139426601446687 Zr
atom 7.4314686399958445 2.4771561982539669 17.8139426601446758 Zr
atom 2.4771561982552814 7.4314686399945362 17.8139426601446758 Zr
atom 7.4314686286931773 7.4314686286885063 17.8139426601445940 Zr
atom 2.4771562096088564 2.4771562095759911 10.1451014403663589 S
atom 7.4314686399502747 2.4771561982616030 10.1451014403663518 S
atom 2.4771561982096824 7.4314686400022030 10.1451014403663482 S
atom 7.4314686287371474 7.4314686287042946 10.1451014403663535 S
atom 2.4771562094894191 2.4771562095445199 15.2602426386472825 S
atom 7.4314686400730778 2.4771561982479615 15.2602426386472736 S
atom 2.4771561983325112 7.4314686399885304 15.2602426386472843 S
atom 7.4314686286176812 7.4314686286728069 15.2602426386472878 S
atom 2.9798434586614917 -0.0000000028629550 12.7084029583456317 S
atom 6.9287814022050052 -0.0000000197468623 12.7084029583555616 S
atom 1.9744689604644439 4.9543124219937162 12.7084029583555509 S
atom 7.9341558777897916 4.9543124162653420 12.7084029583456353 S
atom 2.9819425960932273 -0.0000000053782124 17.8191849570787504 S
atom 6.9266822647736088 -0.0000000172402209 17.8191849570672503 S
atom 1.9723698230330418 4.9543124245003520 17.8191849570672041 S
atom 7.9362550152215308 4.9543124137500758 17.8191849570787397 S
atom -0.0000000084429420 1.9744689717724819 12.7084029582836227 S
atom 4.9543124275692474 2.9798434473572435 12.7084029584175831 S
atom -0.0000000141713236 7.9341558890978430 12.7084029584175351 S
atom 4.9543124106853398 6.9287813909007729 12.7084029582835942 S
atom -0.0000000059320027 1.9723698343382281 17.8191849571689325 S
atom 4.9543124250583048 2.9819425847861276 17.8191849569768692 S
atom -0.0000000166822821 7.9362550265266893 17.8191849569769367 S
atom 4.9543124131962895 6.9266822534664811 17.8191849571690639 S
atom 0.0000000000047505 -0.0000000000980097 20.3751488683509869 Ba
atom 4.9543124304390238 -0.0000000114223697 20.3751488683510686 Ba
atom -0.0000000113015652 4.9543124303182955 20.3751488683510011 Ba
atom 4.9543124191330046 4.9543124190302503 20.3751488683510686 Ba
atom -0.0000000000097370 0.0000000001073711 25.4897067993506177 Ba
atom 4.9543124304256896 -0.0000000111764233 25.4897067993506425 Ba
atom -0.0000000113148978 4.9543124305641459 25.4897067993505893 Ba
atom 4.9543124191186010 4.9543124192356540 25.4897067993506035 Ba
atom 2.4771562095617345 2.4771562095645638 22.9324278338510119 Zr
atom 7.4314686399982595 2.4771561982588008 22.9324278338510403 Zr
atom 2.4771561982576795 7.4314686399993723 22.9324278338510652 Zr
atom 7.4314686286900447 7.4314686286928522 22.9324278338509231 Zr
atom 2.4771562095633373 2.4771562095633390 28.0509130075575328 Zr
atom 7.4314686399982497 2.4771561982567607 28.0509130075575825 Zr
atom 2.4771561982576551 7.4314686399973091 28.0509130075576145 Zr
atom 7.4314686286916469 7.4314686286916061 28.0509130075575115 Zr
atom 2.4771562096596584 2.4771562095866790 20.3750490940381930 S
atom 7.4314686398986920 2.4771561982687724 20.3750490940382356 S
atom 2.4771561981581525 7.4314686400094017 20.3750490940382285 S
atom 7.4314686287879201 7.4314686287150149 20.3750490940382036 S
atom 2.4771562094554933 2.4771562095353903 25.4898065736635999 S
atom 7.4314686401081609 2.4771561982450625 25.4898065736636212 S
atom 2.4771561983675294 7.4314686399855123 25.4898065736636283 S
atom 7.4314686285838398 7.4314686286635627 25.4898065736635964 S
atom 2.9825062630870298 -0.0000000053715456 22.9324278338433594 S
atom 6.9261185977796291 -0.0000000172407707 22.9324278338583554 S
atom 1.9718061560390452 4.9543124244998014 22.9324278338582275 S
atom 7.9368186822153453 4.9543124137567407 22.9324278338433203 S
atom 2.9819425960933739 -0.0000000053761626 28.0456707106385537 S
atom 6.9266822647736204 -0.0000000172381681 28.0456707106189285 S
atom 1.9723698230329902 4.9543124245024064 28.0456707106190279 S
atom 7.9362550152217075 4.9543124137521311 28.0456707106387171 S
atom -0.0000000059358515 1.9718061673454743 22.9324278337348773 S
atom 4.9543124250616524 2.9825062517811793 22.9324278339667096 S
atom -0.0000000166789030 7.9368186935217935 22.9324278339666208 S
atom 4.9543124131924303 6.9261185864737929 22.9324278337349554 S
atom -0.0000000059317350 1.9723698343389646 28.0456707107481016 S
atom 4.9543124250585553 2.9819425847870558 28.0456707105094480 S
atom -0.0000000166820091 7.9362550265276530 28.0456707105094658 S
atom 4.9543124131965479 6.9266822534672778 28.0456707107481975 S
atom 0.0000000000109203 -0.0000000001045541 30.6024152220122261 Ba
atom 4.9543124304431307 -0.0000000114315018 30.6024152220121657 Ba
atom -0.0000000112974620 4.9543124303092370 30.6024152220123575 Ba
atom 4.9543124191392911 4.9543124190237053 30.6024152220122687 Ba
atom -0.0000000000137906 0.0000000000741918 35.7111138181918975 Ba
atom 4.9543124304247499 -0.0000000112073743 35.7111138181919685 Ba
atom -0.0000000113157973 4.9543124305332293 35.7111138181917127 Ba
atom 4.9543124191147605 4.9543124192024992 35.7111138181918051 Ba
atom 2.4771562095638981 2.4771562095607189 33.1702192816713861 Zr
atom 7.4314686399964858 2.4771561982548111 33.1702192816714856 Zr
atom 2.4771561982559618 7.4314686399954555 33.1702192816715637 Zr
atom 7.4314686286921461 7.4314686286890890 33.1702192816715424 Zr
atom 2.4771562095565813 2.4771562095687947 38.2920640209462348 Zr
atom 7.4314686400023175 2.4771561982640793 38.2920640209463272 Zr
atom 2.4771561982617802 7.4314686400045975 38.2920640209463983 Zr
atom 7.4314686286848266 7.4314686286970373 38.2920640209464409 Zr
atom 2.4771562096644111 2.4771562095909379 30.6046130290549172 S
atom 7.4314686398929144 2.4771561982657015 30.6046130290549030 S
atom 2.4771561981523602 7.4314686400063668 30.6046130290549563 S
atom 7.4314686287926799 7.4314686287193235 30.6046130290549705 S
atom 2.4771562094874922 2.4771562095400954 35.7197542273365514 S
atom 7.4314686400761127 2.4771561982513046 35.7197542273366082 S
atom 2.4771561983355439 7.4314686399921914 35.7197542273367148 S
atom 7.4314686286157672 7.4314686286687266 35.7197542273366224 S
atom 2.9798434586622702 -0.0000000028673975 33.1564527093413375 S
atom 6.9287814022051206 -0.0000000197512935 33.1564527093621777 S
atom 1.9744689604647032 4.9543124219892789 33.1564527093622914 S
atom 7.9341558777903547 4.9543124162609002 33.1564527093412664 S
atom 2.9978422496580541 0.0000000012961614 38.2754812865360918 S
atom 6.9107826112100543 -0.0000000239049822 38.2754812865209786 S
atom 1.9564701694694051 4.9543124178355704 38.2754812865206944 S
atom 7.9521546687863651 4.9543124204244489 38.2754812865354168 S
atom -0.0000000084429923 1.9744689717676818 33.1564527092500398 S
atom 4.9543124275692181 2.9798434473529571 33.1564527094533190 S
atom -0.0000000141713619 7.9341558890934518 33.1564527094534398 S
atom 4.9543124106853051 6.9287813908959048 33.1564527092501962 S
atom -0.0000000126019806 1.9564701807705285 38.2754812865904057 S
atom 4.9543124317274625 2.9978422383468648 38.2754812864661744 S
atom -0.0000000100131059 7.9521546800873688 38.2754812864663378 S
atom 4.9543124065262996 6.9107825998987229 38.2754812865905194 S
atom -0.0000000000013738 -0.0000000000409961 40.8000446017313294 Ba
atom 4.9543124304384287 -0.0000000113084816 40.8000446017315710 Ba
atom -0.0000000113022724 4.9543124304321084 40.8000446017313152 Ba
atom 4.9543124191267962 4.9543124190872820 40.8000446017315852 Ba
atom 0.0000000000010094 -0.0000000000063990 45.7034767937717987 Ba
atom 4.9543124304330357 -0.0000000113242457 45.7034767937719408 Ba
atom -0.0000000113072258 4.9543124304162856 45.7034767937718271 Ba
atom 4.9543124191293035 4.9543124191218340 45.7034767937720616 Ba
atom 2.4771562095633759 2.4771562095605137 43.4302238072599280 Zr
atom 7.4314686399975454 2.4771561982545456 43.4302238072600488 Zr
atom 2.4771561982569472 7.4314686399951073 43.4302238072600844 Zr
atom 7.4314686286916762 7.4314686286888074 43.4302238072601838 Zr
atom 2.4771562096011985 2.4771562095748751 40.8293301443516583 S
atom 7.4314686399577692 2.4771561982585055 40.8293301443517223 S
atom 2.4771561982173402 7.4314686399985472 40.8293301443518075 S
atom 7.4314686287293359 7.4314686287026630 40.8293301443517862 S
atom 2.4771562095478035 2.4771562095632444 45.9730204882410263 S
atom 7.4314686400113930 2.4771561982631076 45.9730204882411044 S
atom 2.4771561982706229 7.4314686400040335 45.9730204882411684 S
atom 7.4314686286762441 7.4314686286919205 45.9730204882412039 S
atom 2.0524828583067274 -0.0000001113939179 43.3365222919580049 S
atom 7.8561420025601096 0.0000000887787524 43.3365222919642008 S
atom 2.9018295608194906 4.9543125305193279 43.3365222919647053 S
atom 7.0067952774350166 4.9543123077343880 43.3365222919584383 S
atom 0.0000001000851442 2.9018295721227454 43.3365222919412219 S
atom 4.9543123190407803 2.0524828469976524 43.3365222919812894 S
atom -0.0000001226998152 7.0067952887382035 43.3365222919812112 S
atom 4.9543125192134374 7.8561419912509951 43.3365222919415984 S
atom 2.4771562095517297 2.4771562095597752 49.0842464202602216 Ba
atom 7.4314686399947663 2.4771561982477563 49.0842464202602926 Ba
atom 2.4771561982538621 7.4314686399883145 49.0842464202603921 Ba
atom 7.4314686286799976 7.4314686286881608 49.0842464202603779 Ba
atom 2.4771562095608859 2.4771562095390736 53.9876619267472151 Ba
atom 7.4314686399683252 2.4771561982541166 53.9876619267473004 Ba
atom 2.4771561982277492 7.4314686399948391 53.9876619267474425 Ba
atom 7.4314686286893181 7.4314686286672940 53.9876619267473927 Ba
atom 4.9543124191257313 4.9543124191249275 51.3574756610971264 Zr
atom 9.9086248495598284 4.9543124078193932 51.3574756610971619 Zr
atom 4.9543124078192342 9.9086248495599776 51.3574756610971193 Zr
atom 9.9086248382540099 9.9086248382531910 51.3574756610971122 Zr
atom 4.9543124191282439 4.9543124191342844 56.4955533857278169 Zr
atom 9.9086248495693852 4.9543124078199243 56.4955533857280159 Zr
atom 4.9543124078288105 9.9086248495604963 56.4955533857278880 Zr
atom 9.9086248382565145 9.9086248382625826 56.4955533857279377 Zr
atom 4.9543124191222301 4.9543124191367705 48.8146905366269905 S
atom 9.9086248495716340 4.9543124078135206 48.8146905366269266 S
atom 4.9543124078309253 9.9086248495540321 48.8146905366269621 S
atom 9.9086248382506206 9.9086248382649806 48.8146905366269408 S
atom 4.9543124191537116 4.9543124191033217 53.9583418238548234 S
atom 9.9086248495445357 4.9543124078513463 53.9583418238548518 S
atom 4.9543124078041112 9.9086248495920053 53.9583418238548234 S
atom 9.9086248382818241 9.9086248382317059 53.9583418238548518 S
atom 4.5296499238034622 2.4771560540376281 51.4511997887884220 S
atom 10.3332873561864744 2.4771563424744438 51.4511997888140939 S
atom 5.3789749144459522 7.4314687842150224 51.4511997888143071 S
atom 9.4839623429318287 7.4314684731658982 51.4511997887884149 S
atom 5.4749220386173914 2.4771562072555100 56.5121639828364053 S
atom 9.3880152413700966 2.4771561892602785 56.5121639827489091 S
atom 4.4337027996295513 7.4314686310008549 56.5121639827488167 S
atom 10.4292344577456539 7.4314686263838023 56.5121639828363840 S
atom 2.4771563537812473 5.3789749257520247 51.4511997888118771 S
atom 7.4314684844726804 4.5296499124972458 51.4511997887911079 S
atom 2.4771560427320907 9.4839623542378479 51.4511997887911008 S
atom 7.4314687729095317 10.3332873448802580 51.4511997888116142 S
atom 2.4771562005672285 4.4337028109362802 56.5121639827556379 S
atom 7.4314686376907604 5.4749220273118366 56.5121639828294065 S
atom 2.4771561959501933 10.4292344690523926 56.5121639828290867 S
atom 7.4314686196955018 9.3880152300645534 56.5121639827557800 S
atom 2.4771562096351016 2.4771562096078998 59.0764699740655885 Ba
atom 7.4314686400497898 2.4771561983146202 59.0764699740657520 Ba
atom 2.4771561983091677 7.4314686400552690 59.0764699740657875 Ba
atom 7.4314686287633469 7.4314686287363036 59.0764699740657520 Ba
atom 2.4771562094804187 2.4771562094945780 64.1850970517885173 Ba
atom 7.4314686399302596 2.4771561981755474 64.1850970517884036 Ba
atom 2.4771561981896135 7.4314686399163810 64.1850970517885315 Ba
atom 7.4314686286086271 7.4314686286229730 64.1850970517883042 Ba
atom 4.9543124191270955 4.9543124191242063 61.6172995343515524 Zr
atom 9.9086248495595441 4.9543124078183896 61.6172995343518153 Zr
atom 4.9543124078189100 9.9086248495589881 61.6172995343517798 Zr
atom 9.9086248382554363 9.9086248382525053 61.6172995343518437 Zr
atom 4.9543124191249008 4.9543124191269561 66.7365406228133082 Zr
atom 9.9086248495607698 4.9543124078220329 66.7365406228136209 Zr
atom 4.9543124078202005 9.9086248495626279 66.7365406228137914 Zr
atom 9.9086248382531696 9.9086248382552249 66.7365406228138198 Zr
atom 4.9543124190702814 4.9543124191712176 59.0678284104890423 S
atom 9.9086248495989633 4.9543124077581382 59.0678284104890992 S
atom 4.9543124078582048 9.9086248494986613 59.0678284104890636 S
atom 9.9086248381987243 9.9086248382994242 59.0678284104891560 S
atom 4.9543124192062038 4.9543124190727053 64.1828845751325190 S
atom 9.9086248495052711 4.9543124078986365 64.1828845751326185 S
atom 4.9543124077646770 9.9086248496391232 64.1828845751326469 S
atom 9.9086248383345161 9.9086248382008826 64.1828845751326043 S
atom 5.4569705159691102 2.4771562067861672 61.6310839108165496 S
atom 9.4059667640216276 2.4771561897227095 61.6310839109529454 S
atom 4.4516543222810503 7.4314686314632690 61.6310839109529240 S
atom 10.4112829350974092 7.4314686259144285 61.6310839108166135 S
atom 5.4590858103714375 2.4771562042030690 66.7417948665354999 S
atom 9.4038514696221345 2.4771561923107863 66.7417948663912881 S
atom 4.4495390278815767 7.4314686340513996 66.7417948663914018 S
atom 10.4133982294997463 7.4314686233313836 66.7417948665355425 S
atom 2.4771562010300321 4.4516543335867329 61.6310839109489237 S
atom 7.4314686372217915 5.4569705046625732 61.6310839108203297 S
atom 2.4771561954812240 10.4112829464032206 61.6310839108203226 S
atom 7.4314686201582960 9.4059667527151838 61.6310839109488597 S
atom 2.4771562036158006 4.4495390391879832 66.7417948663814400 S
atom 7.4314686346363548 5.4590857990656083 66.7417948665452769 S
atom 2.4771561928957686 10.4133982408061030 66.7417948665453196 S
atom 7.4314686227440827 9.4038514583162520 66.7417948663813263 S
atom 2.4771562096374788 2.4771562096402726 69.2977180417925069 Ba
atom 7.4314686400580499 2.4771561983499866 69.2977180417924785 Ba
atom 2.4771561983175014 7.4314686400907553 69.2977180417924785 Ba
atom 7.4314686287657974 7.4314686287685596 69.2977180417923364 Ba
atom 2.4771562095125641 2.4771562094854325 74.4121630502915963 Ba
atom 7.4314686399540237 2.4771561981639176 74.4121630502915252 Ba
atom 2.4771561982134678 7.4314686399048115 74.4121630502915252 Ba
atom 7.4314686286410305 7.4314686286136560 74.4121630502913405 Ba
atom 4.9543124191295398 4.9543124191282990 71.8549405460413908 Zr
atom 9.9086248495642035 4.9543124078189420 71.8549405460415898 Zr
atom 4.9543124078236085 9.9086248495595246 71.8549405460419450 Zr
atom 9.9086248382578184 9.9086248382566158 71.8549405460419592 Zr
atom 4.9543124191248733 4.9543124191235846 76.9733404692692176 Zr
atom 9.9086248495576896 4.9543124078207263 76.9733404692695160 Zr
atom 4.9543124078171106 9.9086248495613027 76.9733404692698997 Zr
atom 9.9086248382531785 9.9086248382518800 76.9733404692698286 Zr
atom 4.9543124190376435 4.9543124191732080 69.2976049532592526 S
atom 9.9086248496286853 4.9543124077451006 69.2976049532592953 S
atom 4.9543124078882048 9.9086248494857916 69.2976049532594516 S
atom 9.9086248381658031 9.9086248383015949 69.2976049532594232 S
atom 4.9543124192123047 4.9543124190968904 74.4122761388240690 S
atom 9.9086248494920692 4.9543124078781871 74.4122761388241685 S
atom 4.9543124077512219 9.9086248496187075 74.4122761388243106 S
atom 9.9086248383408364 9.9086248382251529 74.4122761388243532 S
atom 5.4596234078416179 2.4771562041822719 71.8549405459833963 S
atom 9.4033138721537739 2.4771561923303991 71.8549405461005648 S
atom 4.4490014304132428 7.4314686340709635 71.8549405461005648 S
atom 10.4139358269698388 7.4314686233105567 71.8549405459831831 S
atom 5.4590858103709543 2.4771562042014588 76.9680862256573164 S
atom 9.4038514696218058 2.4771561923092107 76.9680862255833063 S
atom 4.4495390278812348 7.4314686340497760 76.9680862255834199 S
atom 10.4133982294992773 7.4314686233297511 76.9680862256572453 S
atom 2.4771562036385761 4.4490014417184263 71.8549405461293134 S
atom 7.4314686346187591 5.4596233965345196 71.8549405459545625 S
atom 2.4771561928781147 10.4139358382751404 71.8549405459544914 S
atom 7.4314686227669133 9.4033138608467866 71.8549405461293418 S
atom 2.4771562036147281 4.4495390391874183 76.9680862255401479 S
atom 7.4314686346352827 5.4590857990648827 76.9680862257004037 S
atom 2.4771561928947321 10.4133982408054369 76.9680862257006169 S
atom 7.4314686227430009 9.4038514583157120 76.9680862255397926 S
atom 2.4771562095865458 2.4771562096280211 79.5247840402953017 Ba
atom 7.4314686400199275 2.4771561983336325 79.5247840402952875 Ba
atom 2.4771561982793910 7.4314686400740690 79.5247840402952306 Ba
atom 7.4314686287146783 7.4314686287563712 79.5247840402949322 Ba
atom 2.4771562095574073 2.4771562095177884 84.6334111180168378 Ba
atom 7.4314686399891077 2.4771561981994261 84.6334111180168804 Ba
atom 2.4771561982485659 7.4314686399401317 84.6334111180170936 Ba
atom 7.4314686286857858 7.4314686286460176 84.6334111180166246 Ba
atom 4.9543124191277945 4.9543124191295433 82.0925815577306253 Zr
atom 9.9086248495641502 4.9543124078211029 82.0925815577307958 Zr
atom 4.9543124078235721 9.9086248495616260 82.0925815577311369 Zr
atom 9.9086248382560989 9.9086248382577704 82.0925815577311369 Zr
atom 4.9543124191298329 4.9543124191223598 87.2143277063534867 Zr
atom 9.9086248495578033 4.9543124078169001 87.2143277063535578 Zr
atom 4.9543124078172243 9.9086248495575440 87.2143277063539699 Zr
atom 9.9086248382580759 9.9086248382506952 87.2143277063539557 Zr
atom 4.9543124190564765 4.9543124191383248 79.5269965169504189 S
atom 9.9086248496224680 4.9543124077845615 79.5269965169505753 S
atom 4.9543124078821723 9.9086248495250970 79.5269965169506179 S
atom 9.9086248381844744 9.9086248382665723 79.5269965169507458 S
atom 4.9543124191746770 4.9543124191260626 84.6420526815930714 S
atom 9.9086248495175830 4.9543124078379384 84.6420526815932419 S
atom 4.9543124077767589 9.9086248495783469 84.6420526815934693 S
atom 9.9086248383032309 9.9086248382541999 84.6420526815933556 S
atom 5.4569705159710900 2.4771562067895045 82.0787971811813577 S
atom 9.4059667640242797 2.4771561897260401 82.0787971812153927 S
atom 4.4516543222836145 7.4314686314666503 82.0787971812153501 S
atom 10.4112829350995000 7.4314686259178302 82.0787971811813435 S
atom 5.4749220386203143 2.4771562072521136 87.1977171092944161 S
atom 9.3880152413733917 2.4771561892568519 87.1977171092842411 S
atom 4.4337027996329486 7.4314686309973972 87.1977171092845111 S
atom 10.4292344577485085 7.4314686263803758 87.1977171092947572 S
atom 2.4771562010322699 4.4516543335905219 82.0787971812606685 S
atom 7.4314686372240244 5.4569705046657200 82.0787971811358545 S
atom 2.4771561954834680 10.4112829464062973 82.0787971811357409 S
atom 7.4314686201605564 9.4059667527187969 82.0787971812608674 S
atom 2.4771562005648451 4.4337028109410772 87.1977171092533041 S
atom 7.4314686376883579 5.4749220273161630 87.1977171093254668 S
atom 2.4771561959477775 10.4292344690567358 87.1977171093257084 S
atom 7.4314686196931197 9.3880152300693602 87.1977171092529488 S
atom 2.4771562095637290 2.4771562095848507 89.7222191653342236 Ba
atom 7.4314686399991796 2.4771561982564427 89.7222191653341667 Ba
atom 2.4771561982586929 7.4314686399967158 89.7222191653342520 Ba
atom 7.4314686286920999 7.4314686287132501 89.7222191653337831 Ba
atom 2.4771562095625916 2.4771562095658051 94.6256346718177923 Ba
atom 7.4314686399971697 2.4771561982660737 94.6256346718176786 Ba
atom 2.4771561982565351 7.4314686400066243 94.6256346718176076 Ba
atom 7.4314686286907339 7.4314686286934206 94.6256346718175081 Ba
atom 4.9543124191268850 4.9543124191279748 92.3524054309827420 Zr
atom 9.9086248495611766 4.9543124078215364 92.3524054309829268 Zr
atom 4.9543124078206171 9.9086248495620932 92.3524054309832678 Zr
atom 9.9086248382551450 9.9086248382562570 92.3524054309831826 Zr
atom 4.9543124191038102 4.9543124191241219 89.7515392682261250 S
atom 9.9086248495832052 4.9543124078147862 89.7515392682260682 S
atom 4.9543124078429885 9.9086248495558582 89.7515392682262103 S
atom 9.9086248382317343 9.9086248382528836 89.7515392682262956 S
atom 4.9543124191362082 4.9543124191253414 94.8951905554523449 S
atom 9.9086248495516731 4.9543124078176977 94.8951905554525155 S
atom 4.9543124078109413 9.9086248495579259 94.8951905554526292 S
atom 9.9086248382646573 9.9086248382532780 94.8951905554525439 S
atom 4.5296499238078161 2.4771560540378434 92.2586813032789763 S
atom 10.3332873561869203 2.4771563424746752 92.2586813032788626 S
atom 5.3789749144463626 7.4314687842152773 92.2586813032783226 S
atom 9.4839623429360813 7.4314684731661611 92.2586813032785642 S
atom 2.4771563537810222 5.3789749257531065 92.2586813032908992 S
atom 7.4314684844724859 4.5296499125023821 92.2586813032669681 S
atom 2.4771560427318748 9.4839623542428839 92.2586813032664566 S
atom 7.4314687729093380 10.3332873448814588 92.2586813032910840 S
