#=======================================================
# FHI-aims file: full_relax/full_relax_RP_8_Rx0Mz_0-Ry0.in
# Created using the Atomic Simulation Environment (ASE)
# Mon Mar 24 16:08:28 2025
#=======================================================
lattice_vector 10.0341395728388569 -0.0000000818800012 -0.0000000000000078 
lattice_vector -0.0000000814734209 10.0841757572493336 0.0000000002438321 
lattice_vector -0.0000000000000674 0.0000000021349738 85.1783713773959477 
atom -0.1532002201707134 -0.0000003363136371 0.2040654995850739 Ba
atom 5.1483570419992066 0.0000023513764684 0.1978279675392628 Ba
atom 0.1312872148429867 5.0420902709441071 0.1978279676606878 Ba
atom 4.8638695255122171 5.0420875013740805 0.2040654997072866 Ba
atom -0.0493363953600199 0.0000135933440652 4.9039070940162368 Ba
atom 4.9154432615361658 0.0000236634359839 4.8338937617849043 Ba
atom -0.1016265656196444 5.0421115830013337 4.8338937619068254 Ba
atom 4.9677333503225887 5.0421014310295593 4.9039070941380958 Ba
atom 2.4930168804282129 2.5124991895006961 2.2547860550048235 Zr
atom 7.5100892498622445 2.5295922359528289 2.2547874630793037 Zr
atom 2.4930194227063960 7.5716801555170807 2.2547874632001697 Zr
atom 7.5100866261107102 7.5545870271860256 2.2547860551250891 Zr
atom 2.5337973623973249 2.5181635444522197 7.2952057850135974 Zr
atom 7.5508616341077834 2.5239139672745585 7.2952057380320321 Zr
atom 2.5337918069515206 7.5660018868390990 7.2952057381535056 Zr
atom 7.5508671080798813 7.5602513821371025 7.2952057851350229 Zr
atom 2.4982666612174182 2.8579998249125613 -0.2300984886749130 S
atom 7.5153202891252313 2.1840894319230619 -0.2300978042325532 S
atom 2.4982504619690826 7.2261773514881451 -0.2300978041090246 S
atom 7.5153364069000466 7.9000876625966994 -0.2300984885522596 S
atom 2.5088455338172726 2.1093537932656465 4.8121370230216209 S
atom 7.5259744632055252 2.9327301512520774 4.8121367417523162 S
atom 2.5089046360492935 7.9748180708167187 4.8121367418746726 S
atom 7.5259152795000341 7.1514416309503437 4.8121370231438698 S
atom 2.5026186140899771 0.0000011024003451 1.9818909302907424 S
atom 7.5038282585078582 0.0000010899399809 2.7104659767294628 S
atom 2.4867584313515954 5.0420890095040409 2.7104659768512285 S
atom 7.5196883597727000 5.0420889400849953 1.9818909304128902 S
atom 2.8353217476702710 -0.0000030770506325 7.6978425843522702 S
atom 7.2648160231397645 -0.0000025608030519 6.9152102378476537 S
atom 2.2477461959835181 5.0420853587615779 6.9152102379694611 S
atom 7.8523914933528784 5.0420847606341610 7.6978425844741158 S
atom -0.0126192293580971 2.5193134395849572 2.3822477158571123 S
atom 5.0044499346342795 2.5227774992975398 2.3822850637678292 S
atom -0.0126198925219443 7.5648654188621594 2.3822850638906741 S
atom 5.0044505163247068 7.5614012772696384 2.3822477159801192 S
atom 0.0232282948153209 2.2105807130063084 7.3205890804886522 S
atom 5.0402957485082638 2.8315005464070451 7.3204788581074025 S
atom 0.0232259213521209 7.8735884659716575 7.3204788582301497 S
atom 5.0402980404979703 7.2526685506910917 7.3205890806112386 S
atom 0.1819143575834893 -0.0000466980733441 9.8244163464526704 Ba
atom 5.1925172186402815 -0.0000664936489124 9.8149708596834415 Ba
atom 0.1754473914844029 5.0420214259164329 9.8149708598054239 Ba
atom 5.1989841032659383 5.0420411396113050 9.8244163465745800 Ba
atom -0.1488758798685797 0.0000711112671197 14.8112491285607017 Ba
atom 4.8759473872302745 0.0001000716612124 14.8110508855449243 Ba
atom -0.1411224399258410 5.0421879912260223 14.8110508856667504 Ba
atom 4.8681938658141286 5.0421589489518093 14.8112491286826113 Ba
atom 2.5301026052682709 2.5234251524069036 12.2994495193538516 Zr
atom 7.5471776505550929 2.5186710156376892 12.2994491337054868 Zr
atom 2.5301078233990317 7.5607589352023643 12.2994491338269860 Zr
atom 7.5471723509509587 7.5655129900915536 12.2994495194757718 Zr
atom 2.5280311154207871 2.5205803531304656 17.3058562355214249 Zr
atom 7.5450988003438555 2.5215037238010782 17.3058560182433432 Zr
atom 2.5280289731878400 7.5635916433657364 17.3058560183649028 Zr
atom 7.5451008611033084 7.5626681908151046 17.3058562356432901 Zr
atom 2.5287291338473623 2.9201853128883926 9.8062615798882096 S
atom 7.5456494865005563 2.1219253463054231 9.8062608236002156 S
atom 2.5285796593444827 7.1640132658702900 9.8062608237220346 S
atom 7.5457988795303619 7.9622731505728961 9.8062615800102346 S
atom 2.5282552090109207 2.1301127115144607 14.8065720300745198 S
atom 7.5455490509806324 2.9119394062348567 14.8065715145151060 S
atom 2.5284792238245077 7.9540273257994283 14.8065715146366550 S
atom 7.5453249546935846 7.1722005491991192 14.8065720301963513 S
atom 2.8444131016388545 0.0000012973234831 11.9254616888994818 S
atom 7.2264433891969198 0.0000018228651047 12.6962555649663908 S
atom 2.2093735620407453 5.0420897424299449 12.6962555650884745 S
atom 7.8614828473215832 5.0420891350082266 11.9254616890212972 S
atom 2.8512417024051619 -0.0000010433435303 17.6911774912923718 S
atom 7.2238836401690145 -0.0000004237113785 16.9264687468222519 S
atom 2.2068138130128494 5.0420874958532798 16.9264687469443764 S
atom 7.8683114480879643 5.0420867943410510 17.6911774914141624 S
atom 0.0203388718899004 2.1875945876517009 12.3123647920173163 S
atom 5.0374049314205003 2.8544927251955432 12.3125648259605658 S
atom 0.0203351042644129 7.8965806447601832 12.3125648260826956 S
atom 5.0374086175726154 7.2296824253364340 12.3123647921392756 S
atom 0.0198542001396511 2.1829811857580190 17.3090991651160202 S
atom 5.0369193287319103 2.8591068839703260 17.3088426885827751 S
atom 0.0198495015757495 7.9011948035349571 17.3088426887046829 S
atom 5.0369239458224202 7.2250690234427415 17.3090991652381092 S
atom 0.1909469085680786 -0.0000809641321244 19.8089235761374027 Ba
atom 5.1984393406993634 -0.0001133308895793 19.8089235761516740 Ba
atom 0.1813695135428864 5.0419745886752150 19.8089235762736351 Ba
atom 5.2080166542509163 5.0420068735524790 19.8089235762592857 Ba
atom -0.1488758799994546 0.0000712983868146 24.8065980237246251 Ba
atom 4.8759473872209131 0.0001003492833453 24.8067962667553914 Ba
atom -0.1411224399352875 5.0421882688481201 24.8067962668774342 Ba
atom 4.8681938656831827 5.0421591360714402 24.8065980238466040 Ba
atom 2.5280310886848580 2.5205804082207854 22.3119909164128778 Zr
atom 7.5450988270715609 2.5215037788979688 22.3119911346690714 Zr
atom 2.5280289999155583 7.5635916984626208 22.3119911347912421 Zr
atom 7.5451008343674246 7.5626682459054466 22.3119909165346684 Zr
atom 2.5301026133844839 2.5234251332688502 27.3183976316892014 Zr
atom 7.5471776424392107 2.5186709965001439 27.3183980200877805 Zr
atom 2.5301078152831402 7.5607589160647279 27.3183980202104344 Zr
atom 7.5471723590672042 7.5655129709535567 27.3183976318111412 Zr
atom 2.5285042771750006 2.9104895722277435 19.8089235768254461 S
atom 7.5453207430285465 2.1316390254328583 19.8089235755989286 S
atom 2.5282509158725710 7.1737269449975951 19.8089235757207156 S
atom 7.5455740228577870 7.9525774099123012 19.8089235769471017 S
atom 2.5282549255681017 2.1301126727315696 24.8112751227717183 S
atom 7.5455493345207394 2.9119393673226988 24.8112756374790457 S
atom 2.5284795073646555 7.9540272868872659 24.8112756376012662 S
atom 7.5453246712506745 7.1722005104161246 24.8112751228935764 S
atom 2.8512417024084304 -0.0000010250932660 21.9266696610232401 S
atom 7.2238836401444493 -0.0000004039946429 22.6913784054573711 S
atom 2.2068138129882455 5.0420875155697438 22.6913784055793180 S
atom 7.8683114480912293 5.0420868125911795 21.9266696611451621 S
atom 2.8444131016658494 0.0000012892758704 27.6923854633619300 S
atom 7.2264433891694031 0.0000018184466579 26.9215915873637286 S
atom 2.2093735620131945 5.0420897380111906 26.9215915874856044 S
atom 7.8614828473485296 5.0420891269603727 27.6923854634838840 S
atom 0.0198542028677854 2.1829811748499912 22.3087478263834136 S
atom 5.0369193260075784 2.8591068730853957 22.3090046247526281 S
atom 0.0198494988514590 7.9011947926500783 22.3090046248745857 S
atom 5.0369239485504709 7.2250690125347097 22.3087478265051935 S
atom 0.0203388781380251 2.1875945923719917 27.3054827187068838 S
atom 5.0374049251746795 2.8544927299610507 27.3052819681438770 S
atom 0.0203350980186290 7.8965806495256983 27.3052819682654935 S
atom 5.0374086238206992 7.2296824300566804 27.3054827188287419 S
atom 0.1819143576943614 -0.0000469280027229 29.7934308058488106 Ba
atom 5.1925172186509192 -0.0000668346206445 29.8028762926111455 Ba
atom 0.1754473914950044 5.0420210849447136 29.8028762927331066 Ba
atom 5.1989841033769713 5.0420409096819707 29.7934308059707114 Ba
atom -0.0493363953790451 0.0000136728748908 34.7139400582894027 Ba
atom 4.9154432615313093 0.0000238223977827 34.7839533905019849 Ba
atom -0.1016265656248120 5.0421117419630717 34.7839533906238927 Ba
atom 4.9677333503035035 5.0421015105604177 34.7139400584115023 Ba
atom 2.5337973710835482 2.5181635190333194 32.3226413662318350 Zr
atom 7.5508616254247602 2.5239139418520291 32.3226414155537540 Zr
atom 2.5337917982684148 7.5660018614165576 32.3226414156764008 Zr
atom 7.5508671167661614 7.5602513567182239 32.3226413663545173 Zr
atom 2.4930168724536386 2.5124992059537092 37.3630611013450959 Zr
atom 7.5100892578362570 2.5295922524053007 37.3630596854037975 Zr
atom 2.4930194306801590 7.5716801719695361 37.3630596855265864 Zr
atom 7.5100866181364072 7.5545870436389464 37.3630611014685812 Zr
atom 2.5287294836579171 2.9201853572010612 29.8115855717993625 S
atom 7.5456491366124068 2.1219253907339026 29.8115863295410826 S
atom 2.5285793094564322 7.1640133102988930 29.8115863296634842 S
atom 7.5457992293408340 7.9622731948856211 29.8115855719214160 S
atom 2.5088453496567591 2.1093537846256263 34.8057101293103841 S
atom 7.5259746473735314 2.9327301425797336 34.8057104107456752 S
atom 2.5089048202175155 7.9748180621444495 34.8057104108673343 S
atom 7.5259150953393972 7.1514416223102453 34.8057101294321711 S
atom 2.8353217476935040 -0.0000030965689675 31.9200045679636801 S
atom 7.2648160231297281 -0.0000025761899132 32.7026369144248008 S
atom 2.2477461959734519 5.0420853433748247 32.7026369145468223 S
atom 7.8523914933760794 5.0420847411158478 31.9200045680856412 S
atom 2.5026186140930959 0.0000011141645032 37.6359562219969419 S
atom 7.5038282584982738 0.0000011020628113 36.9073811755714800 S
atom 2.4867584313420763 5.0420890216268432 36.9073811756934873 S
atom 7.5196883597756594 5.0420889518490331 37.6359562221188071 S
atom 0.0232283006833154 2.2105806862768622 32.2972577744980711 S
atom 5.0402957426356121 2.8315005197025660 32.2973685917381985 S
atom 0.0232259154795285 7.8735884392671851 32.2973685918594313 S
atom 5.0402980463659368 7.2526685239615567 32.2972577746190694 S
atom -0.0126192276231124 2.5193134543694220 37.2355995633974217 S
atom 5.0044499328982353 2.5227775140972124 37.2355619618179858 S
atom -0.0126198942578343 7.5648654336617858 37.2355619619388420 S
atom 5.0044505180595769 7.5614012920539810 37.2355995635187114 S
atom -0.1532002201684456 -0.0000003348433530 39.4137816527137943 Ba
atom 5.1483570419975644 0.0000023719258680 39.4200191847566259 Ba
atom 0.1312872148412084 5.0420902914934906 39.4200191848791164 Ba
atom 4.8638695255145770 5.0420875028442875 39.4137816528357163 Ba
atom 2.4982667209445335 2.8579998338527060 39.8479456431679822 S
atom 7.5153202293977239 2.1840894408682670 39.8479449545745226 S
atom 2.4982504022415428 7.2261773604333799 39.8479449546943982 S
atom 7.5153364666272937 7.9000876715369177 39.8479456432888597 S
atom 2.4969913534539132 2.3720458205275894 42.9258869825580263 Ba
atom 7.5140601161360809 2.6700421883096155 42.9258865694387097 Ba
atom 2.4969902889796241 7.7121301078521718 42.9258865695677940 Ba
atom 7.5140610991368630 7.4141336582342854 42.9258869826864995 Ba
atom 2.4972301683386924 2.5454407003156327 47.5998946332880024 Ba
atom 7.5143001604410058 2.4966471916121518 47.5998945201625148 Ba
atom 2.4972303332849690 7.5387351111166128 47.5998945202924304 Ba
atom 7.5142999140214055 7.5875285380599227 47.5998946334175272 Ba
atom 4.9938122218848857 5.0420880796971401 44.9772812423739907 Zr
atom 10.0343729435394931 5.0420877121735339 44.9789688994416039 Zr
atom 5.0173031163833670 10.0841756317388285 44.9789688995635188 Zr
atom 10.0108819675676166 10.0841759173825327 44.9772812424954651 Zr
atom 5.0043701169749637 5.0420878481225131 49.9933374783731068 Zr
atom 10.0239791223407959 5.0420878382746155 49.9940830737479587 Zr
atom 5.0069092951845553 10.0841757578389490 49.9940830738703070 Zr
atom 10.0214398626575889 10.0841756858068354 49.9933374784948228 Zr
atom 5.3541160126582259 5.0420891574095466 42.4920217949634633 S
atom 9.6741719651555993 5.0420868899530600 42.4935843658765222 S
atom 4.6571021379995958 10.0841748094647468 42.4935843659986787 S
atom 10.3711857583408182 10.0841769950413802 42.4920217950850230 S
atom 4.5329971118963837 5.0420876783172970 47.5206386182028311 S
atom 10.4955260293831554 5.0420880672092698 47.5210054192172962 S
atom 5.4784562022270133 10.0841759868897647 47.5210054193392466 S
atom 9.5500668575790364 10.0841755161178384 47.5206386183246536 S
atom 5.0056193608935295 2.5211112709174333 45.1098331833061721 S
atom 10.0226890761656495 2.5209766895586010 45.1098341403343781 S
atom 5.0056192490094249 7.5630646091233338 45.1098341405383323 S
atom 10.0226891065762551 7.5631991086022463 45.1098331835102258 S
atom 5.0057043901580789 2.5210258239656111 50.0098171894268404 S
atom 10.0227742008874685 2.5210619818915072 50.0098168506797052 S
atom 5.0057043737313274 7.5631499014563861 50.0098168506396945 S
atom 10.0227741358408178 7.5631136616504753 50.0098171893871850 S
atom 2.4970615598690964 5.0420880039297309 44.6538234852635370 S
atom 7.5140556938056058 5.0420879322406895 45.4591559715365392 S
atom 2.4969858666492497 10.0841758517965054 45.4591559716582978 S
atom 7.5141313055521142 10.0841758416156821 44.6538234853855442 S
atom 2.4971402710804056 5.0420878750872973 50.4809193093227506 S
atom 7.5142639092506718 5.0420878255505039 49.5278855098364801 S
atom 2.4971940820944196 10.0841757451194578 49.5278855099584376 S
atom 7.5142100167631884 10.0841757127879266 50.4809193094445661 S
atom 2.4970811415115692 2.5157660242580135 52.5006807732412497 Ba
atom 7.5141507913658163 2.5263218018121454 52.5006807716086215 Ba
atom 2.4970809642098581 7.5684097212835511 52.5006807717266852 Ba
atom 7.5141508871939227 7.5578538620361675 52.5006807733595693 Ba
atom 2.4971528736760447 2.5260817939683564 57.4460671048051452 Ba
atom 7.5142227386675469 2.5160060120572578 57.4460671040119308 Ba
atom 2.4971529115114981 7.5580939315036169 57.4460671041352882 Ba
atom 7.5142226193586659 7.5681696317721032 57.4460671049282681 Ba
atom 5.0072571521425537 5.0420878521297725 54.9567302582209294 Zr
atom 10.0211742495727005 5.0420877977794198 54.9570570139880772 Zr
atom 5.0041044224164031 10.0841757173452162 54.9570570141099211 Zr
atom 10.0243268978252011 10.0841756898155719 54.9567302583431854 Zr
atom 5.0053727486623263 5.0420878394620052 59.9179381687921904 Zr
atom 10.0229942354121029 5.0420878021499282 59.9180282451726356 Zr
atom 5.0059244082560799 10.0841757217141570 59.9180282452940531 Zr
atom 10.0224424943452206 10.0841756771461704 59.9179381689146382 Zr
atom 5.5126945008866537 5.0420879279066249 52.4816670056761581 S
atom 9.5156097660484171 5.0420877363503100 52.4818780179742390 S
atom 4.4985399388925051 10.0841756557254918 52.4818780180957347 S
atom 10.5297642465692807 10.0841757654019055 52.4816670057981298 S
atom 4.4972320478189465 5.0420878207712541 57.4395705810633288 S
atom 10.5312215390339698 5.0420878250880961 57.4396551010560543 S
atom 5.5141517118776218 10.0841757448956351 57.4396551011783529 S
atom 9.5143017935018754 10.0841756586988129 57.4395705811853574 S
atom 5.0056564628513627 2.5210390338596187 54.9644798076497025 S
atom 10.0227262553808476 2.5210487391415923 54.9644799414946306 S
atom 5.0056564282247171 7.5631366587059254 54.9644799418522823 S
atom 10.0227262085341113 7.5631268715439965 54.9644798080073471 S
atom 5.0056564099878100 2.5210352866223449 59.9193478861897759 S
atom 10.0227261964993577 2.5210524770245710 59.9193478283395180 S
atom 5.0056563693433169 7.5631403965893238 59.9193478281845202 S
atom 10.0227261556704494 7.5631231243070598 59.9193478860346644 S
atom 2.4971040822750084 5.0420878714185742 54.4776662666508571 S
atom 7.5141973886236784 5.0420878212093347 55.4527710281091331 S
atom 2.4971275614669173 10.0841757407577024 55.4527710282309840 S
atom 7.5141738279583050 10.0841757091015154 54.4776662667726086 S
atom 2.4971123539170277 5.0420878615531777 60.4087486182640490 S
atom 7.5141937675255575 5.0420878211073710 59.4310998170526901 S
atom 2.4971239403694181 10.0841757406670496 59.4310998171744487 S
atom 7.5141820995997639 10.0841756992495579 60.4087486183863973 S
atom 2.4970949936613582 2.5166548350130498 62.3981092649254734 Ba
atom 7.5141647178774953 2.5254329686270416 62.3981092648904223 Ba
atom 2.4970948907210961 7.5675208880635738 62.3981092650120743 Ba
atom 7.5141647393443769 7.5587426728261162 62.3981092650477720 Ba
atom 2.4971528741520568 2.5260817940991664 67.3501514249576019 Ba
atom 7.5142227381915365 2.5160060121880163 67.3501514258577316 Ba
atom 2.4971529110351778 7.5580939316343088 67.3501514259785523 Ba
atom 7.5142226198348832 7.5681696319027756 67.3501514250777689 Ba
atom 5.0053727486624835 5.0420878396327842 64.8782803611447321 Zr
atom 10.0229942354124759 5.0420878021189601 64.8781902847664611 Zr
atom 5.0059244082561607 10.0841757216831205 64.8781902848878786 Zr
atom 10.0224424943453734 10.0841756773169084 64.8782803612670165 Zr
atom 5.0072571521427420 5.0420878521540020 69.8394882717175705 Zr
atom 10.0211742495727432 5.0420877980326937 69.8391615159491153 Zr
atom 5.0041044224166003 10.0841757175986224 69.8391615160714565 Zr
atom 10.0243268978253326 10.0841756898399755 69.8394882718394143 Zr
atom 5.5146618438810222 5.0420878498494126 62.3981092649684399 S
atom 9.5136599539777507 5.0420877924771936 62.3981092649691433 S
atom 4.4965901268214914 10.0841757117793414 62.3981092650911009 S
atom 10.5317315895635897 10.0841756872715056 62.3981092650908664 S
atom 4.4972320478186818 5.0420878216554144 67.3566479488749508 S
atom 10.5312215390339521 5.0420878244015812 67.3565634288816000 S
atom 5.5141517118774033 10.0841757442087712 67.3565634290039554 S
atom 9.5143017935017795 10.0841756595825274 67.3566479489964252 S
atom 5.0056564101062317 2.5210352866847416 64.8768706441104683 S
atom 10.0227261963809333 2.5210524770870606 64.8768707009920718 S
atom 5.0056563692248757 7.5631403966521900 64.8768707013913257 S
atom 10.0227261557888969 7.5631231243698327 64.8768706445093386 S
atom 5.0056564628332314 2.5210390339818307 69.8317387206781746 S
atom 10.0227262553991121 2.5210487392638985 69.8317385898086798 S
atom 5.0056564282430340 7.5631366588286655 69.8317385896951919 S
atom 10.0227262085158966 7.5631268716666220 69.8317387205649283 S
atom 2.4971123539167444 5.0420878614754265 64.3874699116735485 S
atom 7.5141937675257715 5.0420878213094635 65.3651187128848505 S
atom 2.4971239403694039 10.0841757408691848 65.3651187130073481 S
atom 7.5141820995996822 10.0841756991718725 64.3874699117958329 S
atom 2.4971040822757220 5.0420878715757036 70.3185522632868185 S
atom 7.5141973886230495 5.0420878213177422 69.3434475018285355 S
atom 2.4971275614677144 10.0841757408659110 69.3434475019506920 S
atom 7.5141738279575190 10.0841757092586199 70.3185522634092592 S
atom 2.4970811405361548 2.5157660243311244 72.2955377566023145 Ba
atom 7.5141507923412139 2.5263218018851132 72.2955377581789804 Ba
atom 2.4970809651852233 7.5684097213565611 72.2955377583044907 Ba
atom 7.5141508862186690 7.5578538621091225 72.2955377567283364 Ba
atom 2.4972301695205279 2.5454407000388377 77.1963238969464527 Ba
atom 7.5143001592594585 2.4966471913351942 77.1963240092339902 Ba
atom 2.4972303321032867 7.5387351108398617 77.1963240093482028 Ba
atom 7.5142999152031891 7.5875285377831974 77.1963238970601395 Ba
atom 5.0043701169747346 5.0420878482372746 74.8028810515656488 Zr
atom 10.0239791223406591 5.0420878381023346 74.8021354561883811 Zr
atom 5.0069092951844745 10.0841757576666442 74.8021354563105234 Zr
atom 10.0214398626575907 10.0841756859215579 74.8028810516877058 Zr
atom 4.9938122218846726 5.0420880776681463 79.8189372875625764 Zr
atom 10.0343729435392390 5.0420877126005381 79.8172496304957377 Zr
atom 5.0173031163833643 10.0841756321658789 79.8172496306177663 Zr
atom 10.0108819675675882 10.0841759153535016 79.8189372876849035 Zr
atom 5.5126945008867319 5.0420879263188860 72.3145515242620007 S
atom 9.5156097660483248 5.0420877380621407 72.3143405119629250 S
atom 4.4985399388926126 10.0841756574379335 72.3143405120848541 S
atom 10.5297642465694423 10.0841757638146419 72.3145515243839867 S
atom 4.5329971118962620 5.0420876807841202 77.2755799117350932 S
atom 10.4955260293834041 5.0420880639159158 77.2752131107188234 S
atom 5.4784562022273757 10.0841759835959976 77.2752131108412499 S
atom 9.5500668575789174 10.0841755185841766 77.2755799118569939 S
atom 5.0057043903449374 2.5210258239243326 74.7864013430408079 S
atom 10.0227742007007805 2.5210619818498743 74.7864016764836776 S
atom 5.0057043735447539 7.5631499014143930 74.7864016767671984 S
atom 10.0227741360275786 7.5631136616087877 74.7864013433244992 S
atom 5.0056193607451673 2.5211112699742482 79.6863853415346455 S
atom 10.0226890763140535 2.5209766886158662 79.6863843944551604 S
atom 5.0056192491578289 7.5630646081805288 79.6863843944951213 S
atom 10.0226891064279862 7.5631991076589360 79.6863853415738390 S
atom 2.4971402710809780 5.0420878750498392 74.3152992206147331 S
atom 7.5142639092501682 5.0420878257265160 75.2683330201011245 S
atom 2.4971940820945502 10.0841757452954344 75.2683330202231957 S
atom 7.5142100167633537 10.0841757127505982 74.3152992207368612 S
atom 2.4970615598692434 5.0420880026236077 80.1423950446732363 S
atom 7.5140556938054326 5.0420879313636240 79.3370625584007740 S
atom 2.4969858666498936 10.0841758509194790 79.3370625585227032 S
atom 7.5141313055513237 10.0841758403097792 80.1423950447955633 S
atom 2.4969913497291034 2.3720458192655105 81.8703315484071794 Ba
atom 7.5140601198608774 2.6700421870478279 81.8703319592261067 Ba
atom 2.4969902927045347 7.7121301065901919 81.8703319593410015 Ba
atom 7.5140610954119582 7.4141336569720284 81.8703315485228700 Ba
atom 5.3541160126584471 5.0420891460102277 82.3041967349724501 S
atom 9.6741719651552440 5.0420868974647757 82.3026341640616721 S
atom 4.6571021379990780 10.0841748169765619 82.3026341641828196 S
atom 10.3711857583412854 10.0841769836420774 82.3041967350954877 S
