#=======================================================
# FHI-aims file: full_relax/full_relax_RP_1_00Mz_000.in
# Created using the Atomic Simulation Environment (ASE)
# Fri Mar 14 11:16:58 2025
#=======================================================
lattice_vector 10.0137778567155973 -0.0000000000000000 0.0000000000000012 
lattice_vector -0.0000000000000000 10.0137778567155973 -0.0000000000000004 
lattice_vector 0.0000000000000019 -0.0000000000000006 15.6661243489996274 
atom -0.0000000000000014 -0.0000000000000115 0.2276195719961838 Ba
atom 5.0068889283575988 -0.0000000000000336 0.2276195719962218 Ba
atom -0.0000000000000638 5.0068889283576050 0.2276195719961090 Ba
atom 5.0068889283576423 5.0068889283576805 0.2276195719961254 Ba
atom -0.0000000000000678 -0.0000000000000136 4.6680442870662660 Ba
atom 5.0068889283576530 0.0000000000000077 4.6680442870660341 Ba
atom 0.0000000000000298 5.0068889283576219 4.6680442870660350 Ba
atom 5.0068889283575500 5.0068889283576086 4.6680442870662100 Ba
atom 2.5034444641787790 2.5034444641787554 2.4478319295312274 Zr
atom 7.5103333925365554 2.5034444641787679 2.4478319295312212 Zr
atom 2.5034444641787794 7.5103333925365412 2.4478319295311790 Zr
atom 7.5103333925365723 7.5103333925365385 2.4478319295311946 Zr
atom 2.5034444641787692 2.5034444641787172 -0.1067281600698629 S
atom 7.5103333925365172 2.5034444641788474 -0.1067281600698732 S
atom 2.5034444641787452 7.5103333925365634 -0.1067281600699251 S
atom 7.5103333925365590 7.5103333925364364 -0.1067281600699244 S
atom 2.5034444641788003 2.5034444641788536 5.0023920191323903 S
atom 7.5103333925364861 2.5034444641787106 5.0023920191323468 S
atom 2.5034444641788198 7.5103333925364826 5.0023920191322873 S
atom 7.5103333925365048 7.5103333925366149 5.0023920191323006 S
atom 2.5034798410940042 -0.0000000000001115 2.4478319295314122 S
atom 7.5102980156212844 -0.0000000000001160 2.4478319295313038 S
atom 2.5034090872636332 5.0068889283576317 2.4478319295313358 S
atom 7.5103687694516754 5.0068889283576290 2.4478319295313926 S
atom -0.0000000000000997 2.5034090872636661 2.4478319295314113 S
atom 5.0068889283576388 2.5034798410940531 2.4478319295313185 S
atom -0.0000000000000942 7.5103687694517429 2.4478319295314019 S
atom 5.0068889283576468 7.5102980156212231 2.4478319295313846 S
atom 2.5034444641787252 2.5034444641787750 8.0606680490810980 Ba
atom 7.5103333925365519 2.5034444641788332 8.0606680490814551 Ba
atom 2.5034444641788149 7.5103333925364488 8.0606680490813876 Ba
atom 7.5103333925364852 7.5103333925364648 8.0606680490817109 Ba
atom 2.5034444641788260 2.5034444641787768 12.5011201589804859 Ba
atom 7.5103333925364613 2.5034444641787617 12.5011201589803651 Ba
atom 2.5034444641787759 7.5103333925364657 12.5011201589804930 Ba
atom 7.5103333925365288 7.5103333925365101 12.5011201589801964 Ba
atom 5.0068889283576929 5.0068889283576885 10.2808941040310504 Zr
atom 10.0137778567155618 5.0068889283576743 10.2808941040311446 Zr
atom 5.0068889283577054 10.0137778567154943 10.2808941040311677 Zr
atom 10.0137778567155635 10.0137778567154605 10.2808941040310238 Zr
atom 5.0068889283577329 5.0068889283577995 7.7263286174894175 S
atom 10.0137778567154445 5.0068889283576912 7.7263286174894352 S
atom 5.0068889283576503 10.0137778567153717 7.7263286174894876 S
atom 10.0137778567154268 10.0137778567154712 7.7263286174894361 S
atom 5.0068889283576858 5.0068889283576352 12.8354595905726594 S
atom 10.0137778567153983 5.0068889283577676 12.8354595905726878 S
atom 5.0068889283577231 10.0137778567154943 12.8354595905727056 S
atom 10.0137778567153646 10.0137778567153486 12.8354595905726079 S
atom 5.0068889283576716 2.5034506583755189 10.2808941040312121 S
atom 10.0137778567153664 2.5034382699820386 10.2808941040313435 S
atom 5.0068889283576308 7.5103271983398328 10.2808941040311819 S
atom 10.0137778567154392 7.5103395867332807 10.2808941040312281 S
atom 2.5034382699820465 5.0068889283577169 10.2808941040312991 S
atom 7.5103395867333003 5.0068889283577356 10.2808941040313329 S
atom 2.5034506583755167 10.0137778567154019 10.2808941040313027 S
atom 7.5103271983398523 10.0137778567153006 10.2808941040312227 S
