#=======================================================
# FHI-aims file: full_relax/full_relax_RP_1_Rx0Rz_0-Ry0.in
# Created using the Atomic Simulation Environment (ASE)
# Fri Mar 14 11:17:11 2025
#=======================================================
lattice_vector 10.1083930123313586 -0.0000000000000125 0.0001835265168291 
lattice_vector -0.0000000000000124 10.1084024447040850 -0.0000000000000030 
lattice_vector -0.0002908397635929 -0.0000000000000050 15.5284620784446794 
atom 0.1566122133047228 -0.0000000000106238 0.2394967888446448 Ba
atom 4.8975433000294855 0.0000000000040603 0.2395919506882519 Ba
atom -0.1566532061297519 5.0542012223653030 0.2395001874712603 Ba
atom 5.2108087194654296 5.0542012223486470 0.2395885521269278 Ba
atom -0.1567031007339539 -0.0000000000125432 4.6131476106327396 Ba
atom 5.2107588248788783 0.0000000000046419 4.6132359753035725 Ba
atom 0.1565623187111556 5.0542012223645294 4.6131442119957340 Ba
atom 4.8974934054334458 5.0542012223504162 4.6132393738640349 Ba
atom 2.5270528093384050 2.5271006113176320 2.4263680812768933 Zr
atom 7.5812493154510223 2.5271006112481111 2.4264598445518835 Zr
atom 2.5270528092987363 7.5813018333133400 2.4263680812789694 Zr
atom 7.5812493155900453 7.5813018334117652 2.4264598445472485 Zr
atom 2.5270952021559538 2.2091157241987815 -0.1069960074203374 S
atom 7.5812917083240210 2.8450854980982965 -0.1069042441633947 S
atom 2.5270952021780699 7.8992867204865771 -0.1069960074367668 S
atom 7.5812917083276243 7.2633169465899741 -0.1069042441606713 S
atom 2.5270104165502172 2.8450854980965543 4.9597321703020709 S
atom 7.5812069227210550 2.2091157242122885 4.9598239335398731 S
atom 2.5270104165725797 7.2633169465828455 4.9597321703003985 S
atom 7.5812069227247818 7.8992867204823485 4.9598239335542855 S
atom 2.5270486252499329 0.0000000001034657 2.7371683210753628 S
atom 7.5812534996195442 0.0000000000722840 2.1156596049979606 S
atom 2.5270569934612501 5.0542012224032353 2.1155678417598835 S
atom 7.5812451314085125 5.0542012223703852 2.7372600843158881 S
atom -0.0000454436113239 2.5270997071208092 2.4263221997766795 S
atom 5.0541510625815960 2.5271015151509166 2.4264139630343347 S
atom -0.0000454437098278 7.5813027375465127 2.4263221997750009 S
atom 5.0541510624786152 7.5813009295168676 2.4264139630325916 S
atom 2.5269515672033789 2.3704710895283823 8.0037665180731530 Ba
atom 7.5811480733396044 2.6837301328058629 8.0038582813584718 Ba
atom 2.5269515671732448 7.7379313551716571 8.0037665180918722 Ba
atom 7.5811480733626775 7.4246723118995979 8.0038582813730290 Ba
atom 2.5268632118032865 2.6837301328310956 12.3774317231775388 Ba
atom 7.5810597179461778 2.3704710895438530 12.3775234864167576 Ba
atom 2.5268632117804062 7.4246723118744438 12.3774317231635163 Ba
atom 7.5810597179764700 7.7379313551562809 12.3775234863979140 Ba
atom 5.0540056425794360 5.0542012224489552 10.1906450023809434 Zr
atom 10.1082021485481413 5.0542012224684933 10.1907367656449352 Zr
atom 5.0540056425485593 10.1084024448046428 10.1906450023084467 Zr
atom 10.1082021486119977 10.1084024445008716 10.1907367655902092 Zr
atom 5.3720253757363556 5.0542012223757622 7.6572831695729473 S
atom 9.7902596032573275 5.0542012223229005 7.6573588026341231 S
atom 4.7360630970798070 10.1084024447309897 7.6572670393802387 S
atom 10.4262218819244818 10.1084024447097356 7.6573749328748208 S
atom 4.7359859093375158 5.0542012223758572 12.7240068347483675 S
atom 10.4261446941790528 5.0542012223228401 12.7241147282360103 S
atom 5.3719481880002382 10.1084024447310359 12.7240229650457355 S
atom 9.7901824155261998 10.1084024447098528 12.7240985980116612 S
atom 5.0540056425072688 2.5271013873985595 10.1906450022180248 S
atom 10.1082021486981990 2.5270998348374683 10.1907367654785368 S
atom 5.0540056425069988 7.5813010569044019 10.1906450022178845 S
atom 10.1082021486986307 7.5813026100418979 10.1907367654785244 S
atom 2.5269123856638172 5.0542012223540622 9.8798002790269788 S
atom 7.5810988998620816 5.0542012223537087 10.5014897253931547 S
atom 2.5269023936283497 10.1084024447316150 10.5013979621470721 S
atom 7.5811088918154930 10.1084024447320537 9.8798920422958503 S
