#=======================================================
# FHI-aims file: full_relax/full_relax_RP_3_00Mz_000.in
# Created using the Atomic Simulation Environment (ASE)
# Fri Mar 14 11:18:55 2025
#=======================================================
lattice_vector 10.0216973353036760 0.0000000000000005 -0.0000000000000043 
lattice_vector 0.0000000000000005 10.0216973353036831 0.0000000000000038 
lattice_vector -0.0000000000000155 0.0000000000000138 35.8364232453218250 
atom 0.0000000000004182 -0.0000000000016422 0.2188796574702290 Ba
atom 5.0108486676515778 -0.0000000000010608 0.2188796574783655 Ba
atom 0.0000000000000574 5.0108486676533639 0.2188796574713966 Ba
atom 5.0108486676501274 5.0108486676518700 0.2188796574725307 Ba
atom -0.0000000000009543 -0.0000000000004775 4.9491139860567239 Ba
atom 5.0108486676521364 -0.0000000000012204 4.9491139860561253 Ba
atom -0.0000000000012823 5.0108486676508859 4.9491139860570392 Ba
atom 5.0108486676522661 5.0108486676523150 4.9491139860573528 Ba
atom 2.5054243338245299 2.5054243338255593 2.3514327595825506 Zr
atom 7.5162730014778614 2.5054243338253599 2.3514327595818663 Zr
atom 2.5054243338248217 7.5162730014773986 2.3514327595787545 Zr
atom 7.5162730014785319 7.5162730014768773 2.3514327595821385 Zr
atom 2.5054243338255588 2.5054243338259465 7.4659215094482789 Zr
atom 7.5162730014777877 2.5054243338255735 7.4659215094485427 Zr
atom 2.5054243338259443 7.5162730014779644 7.4659215094474023 Zr
atom 7.5162730014776082 7.5162730014777184 7.4659215094476634 Zr
atom 2.5054243338269244 2.5054243338246796 -0.1626111786193268 S
atom 7.5162730014767201 2.5054243338252480 -0.1626111786191075 S
atom 2.5054243338241977 7.5162730014779777 -0.1626111786242307 S
atom 7.5162730014785852 7.5162730014773702 -0.1626111786190004 S
atom 2.5054243338251627 2.5054243338252293 4.9388160656296920 S
atom 7.5162730014774173 2.5054243338257289 4.9388160656293465 S
atom 2.5054243338255713 7.5162730014780674 4.9388160656287887 S
atom 7.5162730014771997 7.5162730014779360 4.9388160656288269 S
atom 2.2593816966989575 -0.0000000000006120 2.4570568277061540 S
atom 7.7623156386020575 -0.0000000000008299 2.4570568277063876 S
atom 2.7514669709510495 5.0108486676519810 2.4570568277063054 S
atom 7.2702303643546724 5.0108486676512518 2.4570568277070528 S
atom 3.0171515644490667 -0.0000000000017566 7.4659215094431284 S
atom 7.0045457708560477 -0.0000000000018311 7.4659215094438629 S
atom 1.9936971032031379 5.0108486676507891 7.4659215094438922 S
atom 8.0280002320985133 5.0108486676509498 7.4659215094442875 S
atom -0.0000000000000099 2.7514669709520665 2.4570568277039730 S
atom 5.0108486676511568 2.2593816966988203 2.4570568277050961 S
atom 0.0000000000001301 7.2702303643523241 2.4570568277070826 S
atom 5.0108486676508246 7.7623156386034982 2.4570568277056704 S
atom -0.0000000000014946 1.9936971032028787 7.4659215094438656 S
atom 5.0108486676512030 3.0171515644484672 7.4659215094436933 S
atom -0.0000000000007476 8.0280002320990533 7.4659215094439491 S
atom 5.0108486676510466 7.0045457708549934 7.4659215094435654 S
atom -0.0000000000007963 -0.0000000000002967 9.9827290328295408 Ba
atom 5.0108486676519313 0.0000000000000602 9.9827290328294787 Ba
atom 0.0000000000002267 5.0108486676512207 9.9827290328299014 Ba
atom 5.0108486676525184 5.0108486676519126 9.9827290328282938 Ba
atom 0.0000000000005993 0.0000000000000854 14.7129633614041957 Ba
atom 5.0108486676528701 0.0000000000009643 14.7129633614065849 Ba
atom -0.0000000000012337 5.0108486676509703 14.7129633614060626 Ba
atom 5.0108486676505608 5.0108486676511719 14.7129633614093933 Ba
atom 2.5054243338257671 2.5054243338252804 12.5804102593044096 Zr
atom 7.5162730014771677 2.5054243338254332 12.5804102593041556 Zr
atom 2.5054243338255038 7.5162730014765513 12.5804102593035232 Zr
atom 7.5162730014768577 7.5162730014771171 12.5804102593042320 Zr
atom 2.5054243338253510 2.5054243338259123 9.9930269532634401 S
atom 7.5162730014778250 2.5054243338261295 9.9930269532642129 S
atom 2.5054243338250766 7.5162730014780657 9.9930269532653639 S
atom 7.5162730014778791 7.5162730014775319 9.9930269532647564 S
atom 2.5054243338257418 2.5054243338266136 15.0944541975001254 S
atom 7.5162730014771810 2.5054243338245654 15.0944541975000224 S
atom 2.5054243338252031 7.5162730014771562 15.0944541974997186 S
atom 7.5162730014775638 7.5162730014796519 15.0944541974999886 S
atom 2.2593816966976363 -0.0000000000004485 12.4747861911862010 S
atom 7.7623156386036918 0.0000000000001939 12.4747861911796214 S
atom 2.7514669709531914 5.0108486676510644 12.4747861911840943 S
atom 7.2702303643524626 5.0108486676504489 12.4747861911789588 S
atom 0.0000000000002053 2.7514669709539916 12.4747861911820603 S
atom 5.0108486676508104 2.2593816966978673 12.4747861911801667 S
atom -0.0000000000009930 7.2702303643506001 12.4747861911797600 S
atom 5.0108486676516737 7.7623156386030123 12.4747861911826199 S
atom 2.5054243338262538 2.5054243338226896 18.2113885563058489 Ba
atom 7.5162730014769794 2.5054243338292603 18.2113885563066269 Ba
atom 2.5054243338251561 7.5162730014793704 18.2113885563079663 Ba
atom 7.5162730014784040 7.5162730014725758 18.2113885563049038 Ba
atom 2.5054243338246662 2.5054243338265576 22.9643031405787070 Ba
atom 7.5162730014781998 2.5054243338243127 22.9643031405760887 Ba
atom 2.5054243338261024 7.5162730014768702 22.9643031405772646 Ba
atom 7.5162730014767822 7.5162730014789485 22.9643031405784619 Ba
atom 5.0108486676520876 5.0108486676499053 20.2910038265806243 Zr
atom 10.0216973353039354 5.0108486676510742 20.2910038265797930 Zr
atom 5.0108486676520023 10.0216973353022532 20.2910038265824788 Zr
atom 10.0216973353035996 10.0216973353031413 20.2910038265824113 Zr
atom 5.0108486676510440 5.0108486676502313 25.3841331320978192 Zr
atom 10.0216973353025889 5.0108486676512927 25.3841331320952399 Zr
atom 5.0108486676513371 10.0216973353026511 25.3841331321026651 Zr
atom 10.0216973353027434 10.0216973353030401 25.3841331320962098 Zr
atom 5.0108486676575632 5.0108486676484523 17.7856588985898973 S
atom 10.0216973352978425 5.0108486676512785 17.7856588985914001 S
atom 5.0108486676442938 10.0216973353055216 17.7856588985885651 S
atom 10.0216973353098489 10.0216973353015639 17.7856588985933257 S
atom 5.0108486676440407 5.0108486676544963 22.8676579106985827 S
atom 10.0216973353093088 5.0108486676486921 22.8676579107060007 S
atom 5.0108486676576547 10.0216973353025036 22.8676579107055602 S
atom 10.0216973352978389 10.0216973353066816 22.8676579107016344 S
atom 5.0108486676516169 2.5054278350535970 20.3960339933377135 S
atom 10.0216973353012744 2.5054208325978866 20.3960339933312227 S
atom 5.0108486676511035 7.5162695002486801 20.3960339933306081 S
atom 10.0216973353019796 7.5162765027052716 20.3960339933345907 S
atom 5.0108486676529544 2.5054227012692714 25.3841331320982810 S
atom 10.0216973353023633 2.5054259663807943 25.3841331321096995 S
atom 5.0108486676511879 7.5162746340330751 25.3841331321128685 S
atom 10.0216973353032941 7.5162713689218643 25.3841331321051129 S
atom 2.5054208325958589 5.0108486676536481 20.3960339933287749 S
atom 7.5162765027073828 5.0108486676502100 20.3960339933402111 S
atom 2.5054278350546606 10.0216973353046530 20.3960339933358590 S
atom 7.5162695002488329 10.0216973353034664 20.3960339933279187 S
atom 2.5054259663828145 5.0108486676510253 25.3841331321163111 S
atom 7.5162713689195630 5.0108486676493289 25.3841331320951191 S
atom 2.5054227012695609 10.0216973353053564 25.3841331320966752 S
atom 7.5162746340326976 10.0216973353031644 25.3841331321136607 S
atom 2.5054243338271993 2.5054243338236937 27.8039631236330713 Ba
atom 7.5162730014756738 2.5054243338256965 27.8039631236357252 Ba
atom 2.5054243338256259 7.5162730014795294 27.8039631236362226 Ba
atom 7.5162730014776900 7.5162730014772468 27.8039631236359313 Ba
atom 2.5054243338216224 2.5054243338287026 32.5568777079117950 Ba
atom 7.5162730014806396 2.5054243338220004 32.5568777079070628 Ba
atom 2.5054243338266575 7.5162730014745804 32.5568777079029346 Ba
atom 7.5162730014753958 7.5162730014804051 32.5568777079068923 Ba
atom 5.0108486676517279 5.0108486676508788 30.4772624376309480 Zr
atom 10.0216973353033261 5.0108486676507775 30.4772624376319037 Zr
atom 5.0108486676509258 10.0216973353038412 30.4772624376265782 Zr
atom 10.0216973353031094 10.0216973353034504 30.4772624376331827 Zr
atom 5.0108486676589488 5.0108486676454955 27.9006083534996883 S
atom 10.0216973352977217 5.0108486676581272 27.9006083534988711 S
atom 5.0108486676448507 10.0216973353083212 27.9006083535008287 S
atom 10.0216973353091419 10.0216973352981427 27.9006083534990523 S
atom 5.0108486676441668 5.0108486676570401 32.9826073656273877 S
atom 10.0216973353088363 5.0108486676442254 32.9826073656325178 S
atom 5.0108486676578838 10.0216973352990841 32.9826073656185201 S
atom 10.0216973352974765 10.0216973353090957 32.9826073656343510 S
atom 5.0108486676520760 2.5054278350549040 30.3722322708795289 S
atom 10.0216973353026599 2.5054208325965339 30.3722322708696773 S
atom 5.0108486676530273 7.5162695002476729 30.3722322708672223 S
atom 10.0216973353022052 7.5162765027062743 30.3722322708732015 S
atom 2.5054208325961400 5.0108486676506345 30.3722322708699863 S
atom 7.5162765027071323 5.0108486676509729 30.3722322708743775 S
atom 2.5054278350526378 10.0216973353037790 30.3722322708767649 S
atom 7.5162695002503241 10.0216973353034540 30.3722322708740933 S
