#=======================================================
# FHI-aims file: full_relax/full_relax_RP_9_RxRyRz_RxRy-Rz.in
# Created using the Atomic Simulation Environment (ASE)
# Mon Mar 24 17:59:27 2025
#=======================================================
lattice_vector 9.9354658066830979 -0.0079671953214607 0.0000000000268244 
lattice_vector -0.0079671953213579 9.9354658065606731 0.0000000000469844 
lattice_vector 0.0000000002520464 0.0000000004418569 97.3342809522932271 
atom 0.0487929073329567 -0.1220762774745521 0.1856218425202682 Ba
atom 5.0898094338411237 -0.0527767544331755 0.1856209944149501 Ba
atom 0.1180927597660950 4.9189398830917090 0.1856206693261558 Ba
atom 5.0125424139534882 4.8416729623272792 0.1856204162091313 Ba
atom -0.2524281298669703 0.1856721533156633 5.0316457299400899 Ba
atom 4.7820606854624099 0.2484447000719050 5.0316457285635803 Ba
atom -0.1896554348902606 5.2201610479708265 5.0316457400146550 Ba
atom 4.7113208520866943 5.1494213992325477 5.0316456241066785 Ba
atom 2.4550999634913500 2.5052977115641424 2.4088491152518654 Zr
atom 7.4261848405437405 2.5046655283692814 2.4088486243009917 Zr
atom 2.4544688472829743 7.4763816447167732 2.4088489064248408 Zr
atom 7.4188486414145212 7.4690467260994220 2.4088480695301353 Zr
atom 2.4107293158913397 2.5177904550513621 7.5115987781711793 Zr
atom 7.4136917411645804 2.5490364384977497 7.5115987887155704 Zr
atom 2.4419749971095901 7.5207530978427490 7.5115986572860134 Zr
atom 7.3744788080283641 7.4815398371561104 7.5115989542777974 Zr
atom 2.5692577116033077 2.6814504326454673 -0.1124861344252708 S
atom 7.2500316530715754 2.3905079542717580 -0.1124872137281623 S
atom 2.2783150936557179 7.3622245184705379 -0.1124862841400908 S
atom 7.5330070986925257 7.6451998127130967 -0.1124869510989140 S
atom 2.2560122336031165 2.3034475833104584 4.9951532633346574 S
atom 7.6280345220580505 2.7037536318144499 4.9951541305055436 S
atom 2.6563181555555451 7.6754700779021166 4.9951536961321796 S
atom 7.2197613135089531 7.2671969260311799 4.9951540625830884 S
atom 2.7942169818173461 0.0311734494514262 2.3019897503762978 S
atom 7.0588908918175930 0.0298906646927892 2.7146626625042920 S
atom 2.0871745152352927 5.0016072706134205 2.7146623822890219 S
atom 7.7579661926019101 4.9949228173052100 2.3019900481346895 S
atom 2.9466144012775004 0.0402371465139927 7.7132199779731927 S
atom 6.9509202997160981 0.0366905462668820 7.3594519943139041 S
atom 1.9792037485289109 5.0084075601629880 7.3594520794045382 S
atom 7.9103635225233067 5.0039871446784510 7.7132197671268869 S
atom -0.0351558502873500 2.1735157550188751 2.3019896108204176 S
atom 4.9298738798472046 2.8725911259559993 2.7146626296751943 S
atom -0.0418420930484705 7.8443078040680732 2.7146624420065000 S
atom 4.9285932546663691 7.1372655101780111 2.3019901638458258 S
atom -0.0442216643190001 2.0211185643065419 7.7132199355168494 S
atom 4.9230752733871439 2.9805619704227806 7.3594520084138288 S
atom -0.0486412927109797 7.9522783399819037 7.3594520942145945 S
atom 4.9195279460261983 6.9848679243318372 7.7132198259326143 S
atom 0.0041366805351894 -0.0796360616916350 10.0752254674666180 Ba
atom 5.0473688664170231 -0.0081200994196794 10.0752254303854230 Ba
atom 0.0756526214039179 4.9635962582228323 10.0752255803897555 Ba
atom 4.9678858709506173 4.8841130919826838 10.0752255538524143 Ba
atom 0.0465096882818681 0.0069269667208942 15.1658309965270117 Ba
atom 4.9608061705977855 -0.0504933333640270 15.1658309970688467 Ba
atom -0.0109107046807707 4.9212230244580892 15.1658310375207837 Ba
atom 5.0102593062915606 4.9706761544800226 15.1658310378410288 Ba
atom 2.4902656269225365 2.4839654075065489 12.6067832173339252 Zr
atom 7.4475165944187589 2.4695001718021956 12.6067838402107881 Zr
atom 2.4757998410340858 7.4412166485011833 12.6067830425444143 Zr
atom 7.4540151479279082 7.4477146867418504 12.6067839727780964 Zr
atom 2.4837710732852667 2.4800357661945225 17.7094923215658291 Zr
atom 7.4514466779772839 2.4759947139069003 17.7094923240701974 Zr
atom 2.4797300576911403 7.4477108522204629 17.7094931446879542 Zr
atom 7.4475204891582312 7.4437847795296630 17.7094927664340673 Zr
atom 2.5613625455082718 2.6408620143143073 10.0714532478381837 S
atom 7.2906202794729991 2.3984031263599088 10.0714527398660856 S
atom 2.3189037615793322 7.3701196659482440 10.0714526691410367 S
atom 7.5251118261682235 7.6046112672988393 10.0714528404885808 S
atom 2.4234677422202560 2.4511855068028101 15.1651776369304283 S
atom 7.4802966819164727 2.5362979711546636 15.1651778497197380 S
atom 2.5085802203410905 7.5080144725165736 15.1651775547023124 S
atom 7.3872169847954590 7.4149348481260029 15.1651776854172873 S
atom 1.9818222769853648 0.0019725720369531 12.5643888907699193 S
atom 7.9829700816053286 -0.0009000957503574 12.6802550845581834 S
atom 3.0112535834079348 4.9708165328385432 12.6802552725678570 S
atom 6.9455714679476106 4.9657220118411933 12.5643886912941589 S
atom 3.0076552675718640 -0.0000645285893438 17.7393907449813781 S
atom 6.9289301662541254 -0.0042844245402919 17.6925311203445368 S
atom 1.9572138107688593 4.9674320627553303 17.6925310973962056 S
atom 7.9714046071467219 4.9636846475275087 17.7393907822608057 S
atom -0.0059560791706156 2.9859106977822254 12.5643887368800584 S
atom 4.9606657191028951 1.9485120879600122 12.6802551886431640 S
atom -0.0110504082975151 6.9202286695364172 12.6802551687992686 S
atom 4.9577928573358925 7.9496599755817812 12.5643888352704245 S
atom -0.0039190399338408 1.9600776126918693 17.7393907849426142 S
atom 4.9640501861498638 3.0025519503466143 17.6925311285174800 S
atom -0.0076662457703670 7.9742685007393677 17.6925310930948108 S
atom 4.9598301671318579 6.9238269414855367 17.7393907368920871 S
atom -0.0090220638867659 -0.0147931013035088 20.2634107044563585 Ba
atom 4.9825260304817922 0.0050382315630775 20.2634107282118769 Ba
atom 0.0108092617695589 4.9767549977128311 20.2634106155950953 Ba
atom 4.9547274322451038 4.9489564368382162 20.2634106412200303 Ba
atom 0.0090221398303446 0.0147929322036444 25.3620343205958427 Ba
atom 4.9529396991298693 -0.0130057617094125 25.3620343817791429 Ba
atom -0.0187765293411377 4.9587109845857951 25.3620343900160172 Ba
atom 4.9727712630624570 4.9785424690782394 25.3620344472577308 Ba
atom 2.4818745034025733 2.4818744467345999 22.8127243389696623 Zr
atom 7.4496076553393706 2.4778910101413758 22.8127237348843970 Zr
atom 2.4778911599854521 7.4496077985796516 22.8127244054828253 Zr
atom 7.4456238420893603 7.4456240334579586 22.8127235982285441 Zr
atom 2.4799782709779685 2.4837133094109256 27.9159511291050109 Zr
atom 7.4477686864721715 2.4797878149905213 27.9159509835531132 Zr
atom 2.4760525011136867 7.4515043083546360 27.9159501995175425 Zr
atom 7.4437272233878877 7.4474625265541734 27.9159505408230864 Zr
atom 2.5022840471236236 2.5086027632211900 20.2633774660598718 S
atom 7.4228794219829295 2.4574816704708802 20.2633776236006753 S
atom 2.4511629377398045 7.4291981607408228 20.2633770439797729 S
atom 7.4660333560005014 7.4723520836315371 20.2633768043168452 S
atom 2.4614653134583837 2.4551465814915732 25.3620648330557330 S
atom 7.4763356650236501 2.4983003666468608 25.3620649744446887 S
atom 2.5046191422565771 7.4700168737073449 25.3620658517432744 S
atom 7.4252146449495484 7.4188958536412262 25.3620656120361936 S
atom 1.9601367577284625 -0.0020731356735724 22.7954094312354769 S
atom 7.9753290412913316 -0.0058929331007811 22.8300338010003045 S
atom 3.0036125586850786 4.9658224513195242 22.8300336036912839 S
atom 6.9238860345754336 4.9616750559322158 22.7954095926714260 S
atom 3.0065358004730705 -0.0036830196335019 27.9329132262744153 S
atom 6.9278104041648580 -0.0079023399926608 27.8860535876518192 S
atom 1.9560937722822129 4.9638143177067500 27.8860535340113778 S
atom 7.9702850912627436 4.9600665921354405 27.9329132756880441 S
atom -0.0019099940360811 3.0075960859597921 22.7954095329927107 S
atom 4.9656593496948380 1.9561532570590945 22.8300337059397052 S
atom -0.0060571536855890 6.9278695455702923 22.8300336916771265 S
atom 4.9618392478992703 7.9713455244979787 22.7954094966572001 S
atom -0.0003013382092685 1.9611970834579817 27.9329132652355341 S
atom 4.9676684309220178 3.0036718579332518 27.8860535630320499 S
atom -0.0040480512277943 7.9753883797494503 27.8860535538016556 S
atom 4.9634480664071612 6.9249464401932244 27.9329132505480047 S
atom -0.0465097595457040 -0.0069267962504784 30.4596123599569921 Ba
atom 4.9746596597195776 0.0425263387453707 30.4596123072789489 Ba
atom 0.0029433700934284 5.0142426457253224 30.4596122919222161 Ba
atom 4.9172393797246459 4.9568223495722066 30.4596122364029469 Ba
atom -0.0041367662176069 0.0796362339399741 35.5502181641673047 Ba
atom 4.8880969457002328 0.0001532831627463 35.5502183097556141 Ba
atom -0.0836198160102998 4.9718694361434403 35.5502181907279748 Ba
atom 4.9596126801292124 5.0433851808942638 35.5502183400932452 Ba
atom 2.4734835644160755 2.4797837238379454 33.0186585738219520 Zr
atom 7.4516984195718177 2.4862819574245356 33.0186595741032178 Zr
atom 2.4799819378881081 7.4579988295426629 33.0186587713613307 Zr
atom 7.4372327875382451 7.4435335009138859 33.0186588708442201 Zr
atom 2.5530210266504616 2.4459592006945901 38.1138442666737376 Zr
atom 7.4855223253494412 2.4067454560273425 38.1138443086297798 Zr
atom 2.5138063499539443 7.3784621230308138 38.1138453025896453 Zr
atom 7.5167696832361592 7.4097088227525836 38.1138454068308050 Zr
atom 2.5402815880249134 2.5125638872822322 30.4602687808249222 S
atom 7.4189183838635699 2.4194841399796418 30.4602676652050732 S
atom 2.4472018325513294 7.3912006088977469 30.4602684017331633 S
atom 7.5040308990112070 7.4763131494479982 30.4602687987786638 S
atom 2.4023866369679503 2.3228873979813645 35.5539921570297039 S
atom 7.6085949680281226 2.5573791308868228 35.5539912594018617 S
atom 2.6368783588487519 7.5290955660464327 35.5539904534020508 S
atom 7.3661359701356464 7.2866367078940533 35.5539921850441161 S
atom 1.9524957983528031 -0.0070674515750712 32.9451896866150662 S
atom 7.9536435087760697 -0.0099408079526277 33.0610558884448409 S
atom 2.9819270003175178 4.9617764564302922 33.0610560168118965 S
atom 6.9162450165660800 4.9566824384944237 32.9451895079862922 S
atom 2.9845453806459692 -0.0446571645912628 38.2659923421616881 S
atom 6.9888516013138666 -0.0482062657476188 37.9122244336497474 S
atom 2.0171350568477924 4.9235105394262941 37.9122246189202059 S
atom 7.9482948783398548 4.9190923658240795 38.2659922428148391 S
atom 0.0030840948194010 3.0152372761290382 32.9451895658638065 S
atom 4.9697053429977700 1.9778387044491543 33.0610559145513463 S
atom -0.0020106127165405 6.9495552322128571 33.0610559818963523 S
atom 4.9668329814554681 7.9789863585882097 32.9451896504297181 S
atom 0.0406754133313333 1.9831873670307418 38.2659922876944947 S
atom 5.0079696241420431 2.9426306275107761 37.9122245491685916 S
atom 0.0362532775739939 7.9143470734565957 37.9122245874127515 S
atom 5.0044247334175003 6.9469367143804801 38.2659922633882417 S
atom 0.2524278745606160 -0.1856720877047183 40.5937985650234694 Ba
atom 5.1534053306728085 -0.2564119506707070 40.5937986159894137 Ba
atom 0.1816885103457815 4.7153047876012222 40.5937988235062406 Ba
atom 5.2161774404656596 4.7780774256364582 40.5937984815142769 Ba
atom -0.0487932034350318 0.1220764914767973 45.4398246742976966 Ba
atom 4.8456566455827970 0.0448092045649259 45.4398251184094875 Ba
atom -0.1260596225832388 5.0165259958479727 45.4398242965821098 Ba
atom 4.9149559071936721 5.0858260293543287 45.4398239672967890 Ba
atom 2.5086480632638652 2.4584544854637076 43.2165963405184002 Zr
atom 7.4730301466364253 2.4511138804066874 43.2165957627159329 Zr
atom 2.5013132189426202 7.4228301366703713 43.2165962626975571 Zr
atom 7.4723978598834186 7.4222034020965824 43.2165958554868865 Zr
atom 2.7077372259531907 2.6603015723409444 40.6302896696228615 S
atom 7.2711804662693602 2.2520287372320400 40.6302925928603216 S
atom 2.2994639412808913 7.2237451935363497 40.6302910871826768 S
atom 7.6714865194777380 7.6240509352520442 40.6302888677366454 S
atom 2.3944914015309915 2.2822982577983733 45.7379335514375782 S
atom 7.6491833404556067 2.5652744052683385 45.7379303139538322 S
atom 2.6774670373497709 7.5369910724285800 45.7379314752143316 S
atom 7.3582406287414450 7.2460475722697755 45.7379335748332139 S
atom 2.8765748274201406 -0.0378602690804002 42.9107806258070639 S
atom 7.1412490852927677 -0.0391364105017327 43.3234534045803841 S
atom 2.1695325102854075 4.9325784528098398 43.3234533678757217 S
atom 7.8403241244794648 4.9258876970330032 42.9107808699842792 S
atom 0.0338727464974573 2.0911581317113641 42.9107808934529302 S
atom 4.9989091505287693 2.7902331426725961 43.3234535270439380 S
atom 0.0271926431493186 7.7619497050494655 43.3234534908428870 S
atom 4.9976220413842647 7.0549072958134902 42.9107809981106882 S
atom 2.3597980408240589 2.5306675872979740 48.8527609510186878 Ba
atom 7.4008146145759230 2.5999674752735924 48.8527618037317737 Ba
atom 2.4290980398097601 7.5716841186772292 48.8527611494046639 Ba
atom 7.3235474081947531 7.4944170815400222 48.8527610744256080 Ba
atom 2.6675466943209658 2.2294468190515571 53.6987857110773277 Ba
atom 7.7020356332912518 2.2922195892787283 53.6987856493448632 Ba
atom 2.7303195327789687 7.2639351372484953 53.6987858056424514 Ba
atom 7.6312956827676119 7.1931953208407640 53.6987858400919080 Ba
atom 4.9871719974230944 4.9369750133482606 51.0759912997995542 Zr
atom 9.9582566719435714 4.9363428867484247 51.0759903249461260 Zr
atom 4.9865404567020715 9.9080594374431428 51.0759898791653342 Zr
atom 9.9509210326291555 9.9007243424587692 51.0759894129279459 Zr
atom 4.9996651218729040 4.8926042134767220 56.1787366033010542 Zr
atom 10.0026273708698401 4.9238504324063035 56.1787379433868423 Zr
atom 5.0309108487665606 9.8955661187944823 56.1787380529389822 Zr
atom 9.9634144941820502 9.8563526235573118 56.1787387739000792 Zr
atom 5.1633253321462051 5.0511325964759930 48.5546505202971659 S
atom 9.8440989458993400 4.7601897392102135 48.5546509227522378 S
atom 4.8723823052048356 9.7319062215850334 48.5546493768154619 S
atom 10.1270746810042898 10.0148819387978492 48.5546502960812489 S
atom 4.7853220918057220 4.7378868131758125 53.6622938146795079 S
atom 10.1573447501111271 5.1381928755515327 53.6622930664339464 S
atom 5.1856282987803741 10.1099093073942008 53.6622943529608136 S
atom 9.7490715314693439 9.7016360493555709 53.6622932086428932 S
atom 4.6553905575743748 2.4467171580568756 50.9691310694514144 S
atom 10.3261824526992196 2.4400319713857659 51.3818039840863392 S
atom 5.3544659446694292 7.4117495629945944 51.3818038025076973 S
atom 9.6191399906828892 7.4104676767381923 50.9691313808962221 S
atom 4.5029930714996116 2.4376529414357608 56.3803606452503132 S
atom 10.4341530886948259 2.4332327636525153 56.0265928165043263 S
atom 5.4624366109951401 7.4049497387492806 56.0265926986492815 S
atom 9.4667425512983669 7.4014030739030119 56.3803606352404003 S
atom 2.5130471726650434 5.2760915515403877 50.9691310472193209 S
atom 7.4834830267680736 4.5690490737561094 51.3818036410149901 S
atom 2.5117660911068480 9.5407657023631014 51.3818041313705081 S
atom 7.4767971691135351 10.2398408453223677 50.9691313806362842 S
atom 2.5221124228909537 5.4284890704637689 56.3803608081549825 S
atom 7.4902820428455144 4.4610782731575478 56.0265928852985766 S
atom 2.5185649609609815 9.4327951257356997 56.0265926766807141 S
atom 7.4858624841768906 10.3922383295007261 56.3803604884707070 S
atom 2.4022386212470632 2.4860113128972676 58.7423658699767586 Ba
atom 7.4454708902166322 2.5575272468610843 58.7423657341299545 Ba
atom 2.4737542225439015 7.5292435130418047 58.7423658663237447 Ba
atom 7.3659880462465024 7.4497605988650193 58.7423657062718831 Ba
atom 2.4888014465996351 2.5283842147435180 63.8329725632714542 Ba
atom 7.4030976777122790 2.4709639064902205 63.8329727538530136 Ba
atom 2.4313810807150604 7.4426810266219112 63.8329724564126764 Ba
atom 7.4525509232333018 7.4921340841070752 63.8329726472824888 Ba
atom 4.9658397964700818 4.9721406246677589 61.2739246922740008 Zr
atom 9.9230915844322549 4.9576760375304003 61.2739246371190944 Zr
atom 4.9513740192940556 9.9293913702378340 61.2739257646560844 Zr
atom 9.9295902557454454 9.9358887303216719 61.2739256311439249 Zr
atom 4.9619106483623865 4.9656462631240688 66.3766349413441077 Zr
atom 9.9295856023372888 4.9616044185481947 66.3766343907784773 Zr
atom 4.9578690188105687 9.9333206097895363 66.3766342859840961 Zr
atom 9.9256600304049094 9.9293951838578849 66.3766345074183306 Zr
atom 5.1227366573130135 5.0432373357998852 58.7385966857953932 S
atom 9.8519941291599604 4.8007781853288041 58.7385957978722075 S
atom 4.8802777229380379 9.7724949407581949 58.7385964495996333 S
atom 10.0864858656696228 10.0069868079524191 58.7385950633948397 S
atom 4.9330601183580089 4.9053423818938864 63.8323165206961747 S
atom 9.9898891054827157 4.9904548367159913 63.8323182414218593 S
atom 5.0181727252693111 9.9621714759376836 63.8323166001093369 S
atom 9.8968093305018918 9.8690917503468576 63.8323184015219169 S
atom 5.4677852338672688 2.4759183871948829 61.2315283120485603 S
atom 9.4021031670865103 2.4708238613378510 61.3473944559409716 S
atom 4.4303872053812752 7.4425397946800773 61.3473945356155212 S
atom 10.4315344096804221 7.4396671511084058 61.2315282632979887 S
atom 4.4419521540780895 2.4779558468127765 66.4065309142552564 S
atom 10.4561432286481999 2.4742086491304214 66.3596710527440479 S
atom 5.4844267551924304 7.4459247898926169 66.3596712196567040 S
atom 9.4057015559651003 7.4417049120283689 66.4065307083547651 S
atom 2.4838485539521717 4.4636970726765561 61.2315283890584396 S
atom 7.4526902449597996 5.4931279961209531 61.3473946025206303 S
atom 2.4809753141930040 10.4648446579355134 61.3473943792375493 S
atom 7.4475960475938887 9.4274463204353207 61.2315281696175688 S
atom 2.4818094986267427 5.4895298769851522 66.4065307841950982 S
atom 7.4493070007167335 4.4390883044291085 66.3596710848853064 S
atom 2.4775896246743385 9.4108047272233133 66.3596711924604250 S
atom 7.4455596769304710 10.4532794300132288 66.4065308299759920 S
atom 2.4670815227095821 2.4728524144929303 68.9305509579014029 Ba
atom 7.4586296574941064 2.4926839019340714 68.9305510287971259 Ba
atom 2.4869131213261033 7.4644008797452148 68.9305508945074195 Ba
atom 7.4308308800845388 7.4366020565938840 68.9305509630375326 Ba
atom 2.4966678370802651 2.4908968559049791 74.0291738407425441 Ba
atom 7.4405854909838371 2.4630983495737762 74.0291736561434277 Ba
atom 2.4688692249484920 7.4348142539332489 74.0291739153653054 Ba
atom 7.4604167812379485 7.4546456746191989 74.0291737390074900 Ba
atom 4.9637497574793645 4.9637495921683810 71.4798634462709828 Zr
atom 9.9314816299203272 4.9597653866513589 71.4798628101101770 Zr
atom 4.9597656236344614 9.9314819963270935 71.4798617920063890 Zr
atom 9.9274985636928257 9.9274990753590657 71.4798614096319795 Zr
atom 4.9655878567603189 4.9618528855840829 76.5830908480614738 Zr
atom 9.9333792253455258 4.9579269519037430 76.5830910927523689 Zr
atom 4.9616619457261431 9.9296431097676940 76.5830908985989538 Zr
atom 9.9293379251029421 9.9256017808203953 76.5830905512855509 Zr
atom 4.9904773629501609 4.9841585860906106 68.9305170933152453 S
atom 9.9110729242366080 4.9330376463773948 68.9305170964488525 S
atom 4.9393563808093734 9.9047541591949724 68.9305170537606813 S
atom 9.9542266986441614 9.9479079207791994 68.9305169867424468 S
atom 4.9370211953618268 4.9433398758496683 74.0292059424001962 S
atom 9.9518916091192438 4.9864938204369817 74.0292059463447458 S
atom 4.9801751289384351 9.9582103357055178 74.0292068480771093 S
atom 9.9007704891145458 9.9070892159770434 74.0292066023646811 S
atom 5.4894709192372835 2.4799646334721284 71.4625509753833512 S
atom 9.4097443124767572 2.4758176822820444 71.4971753305391502 S
atom 4.4380276357502586 7.4475340004134098 71.4971751667244320 S
atom 10.4532202029025711 7.4437136451446060 71.4625511158728983 S
atom 4.4430718617128484 2.4815730506310238 76.6000541133177535 S
atom 10.4572627803087173 2.4778261491223410 76.5531947005011801 S
atom 5.4855465410025843 7.4495437553952017 76.5531944345840714 S
atom 9.4068213139362555 7.4453235767061425 76.6000543365600350 S
atom 2.4798004087568719 4.4420112907653246 71.4625509117432784 S
atom 7.4476982336304713 5.4854872693978338 71.4971751298296567 S
atom 2.4759808766673412 10.4572038181579483 71.4971753618988970 S
atom 7.4435505785893596 9.4057606269025236 71.4625511825956323 S
atom 2.4781911720481804 5.4884103535731112 76.6000542338847907 S
atom 7.4456891696952905 4.4379683976939548 76.5531945901202562 S
atom 2.4739715716819557 9.4096853255339727 76.5531945532231930 S
atom 7.4419415743843151 10.4521595235950251 76.6000542168738150 S
atom 2.4749479283487386 2.4353652482242607 79.1267531188402558 Ba
atom 7.4961172364620365 2.4848182376915133 79.1267532886764684 Ba
atom 2.5244011000699831 7.4565340057261471 79.1267531889711506 Ba
atom 7.4386968564671090 7.3991139280676679 79.1267533645401926 Ba
atom 2.5615104202772767 2.4777380319012288 84.2173592018714032 Ba
atom 7.4537443381164108 2.3982548433877198 84.2173588694066098 Ba
atom 2.4820277145774874 7.3699716667493895 84.2173591237418293 Ba
atom 7.5252600600966053 7.4414874523656511 84.2173588246708249 Ba
atom 4.9616579688053815 4.9553589103562672 81.6857999834356860 Zr
atom 9.9398734908560478 4.9618564844509310 81.6858006855162131 Zr
atom 4.9681575302413297 9.9335721248283058 81.6858011063256555 Zr
atom 9.9254065875733684 9.9191073082483747 81.6858021224691413 Zr
atom 4.9278338219259625 5.0348956360481090 86.7809832295630912 Zr
atom 9.8603367122847949 4.9956811449700478 86.7809845171877328 Zr
atom 4.8886194397428415 9.9673968778370448 86.7809843748053282 Zr
atom 9.8915838854342049 9.9986442194743788 86.7809856312313457 Zr
atom 4.9944385486058644 5.0221561880186245 79.1274079628454814 S
atom 9.8730752032734053 4.9290765162545771 79.1274068352453384 S
atom 4.9013586951197574 9.9007931179868880 79.1274082528655214 S
atom 9.9581878036604614 9.9859055334868074 79.1274064676337474 S
atom 4.8047620945055503 4.8842612348011620 84.2211334920215933 S
atom 10.0109700603254801 5.1187529367122959 84.2211340397779367 S
atom 5.0392534947092580 10.0904696482753451 84.2211332613708521 S
atom 9.7685112642101064 9.8480107539231749 84.2211331139256032 S
atom 5.4971118012177893 2.4849577396701243 81.6123294111006885 S
atom 9.4314297008048626 2.4798636254466473 81.7281957942344377 S
atom 4.4597133379238088 7.4515810867375532 81.7281957153278142 S
atom 10.4608611635684259 7.4487078616680780 81.6123292943043310 S
atom 4.4650621930753074 2.5225486639556727 86.9331326680535170 S
atom 10.3962219476164854 2.5181294612376766 86.5793643164827529 S
atom 5.4245051471872383 7.4898455135512423 86.5793650006415731 S
atom 9.4288112503018535 7.4862974868527452 86.9331324872153317 S
atom 2.4748079280534085 4.4343702243570400 81.6123294718905612 S
atom 7.4436509804010047 5.4638017206637164 81.7281958968101492 S
atom 2.4719357428293942 10.4355182531017014 81.7281956350346519 S
atom 7.4385563117986830 9.3981198425569890 81.6123292567147445 S
atom 2.4372165667093242 5.4664199851972590 86.9331326129244104 S
atom 7.4053862075574175 4.4990097583607591 86.5793647396245944 S
atom 2.4336708367693891 9.4707262112163519 86.5793645966789285 S
atom 7.4009651462012194 10.4301696262103736 86.9331325082581685 S
atom 2.2962018161541966 2.7343023499154211 89.2609391309222389 Ba
atom 7.1971800736479663 2.6635627182041239 89.2609391461092088 Ba
atom 2.2254625750128332 7.6352803098186470 89.2609389219714728 Ba
atom 7.2599520507310320 7.6980524880357972 89.2609391044227891 Ba
atom 2.6039506698273533 2.4330816104807926 94.1069634926895873 Ba
atom 7.4984008508760409 2.3558147745223801 94.1069639852233308 Ba
atom 2.5266844443598058 7.3275312188092787 94.1069635265886433 Ba
atom 7.5677000753730317 7.3968306834958577 94.1069643778795211 Ba
atom 4.9403281868369451 4.9905263531497104 91.8837393753823477 Zr
atom 9.9047068430654033 4.9831858348587970 91.8837381855282160 Zr
atom 4.9329907023744370 9.9549026026602920 91.8837381221495235 Zr
atom 9.9040771693438963 9.9542757349023159 91.8837367644738947 Zr
atom 5.1421761322810928 5.1896117610054313 89.2974324590062167 S
atom 9.7056197101407200 4.7813390074028952 89.2974310291003093 S
atom 4.7339032716185265 9.7530553133542135 89.2974304118722984 S
atom 10.1059256226304282 10.1533608008282208 89.2974321844097858 S
atom 4.7641734587012490 4.8763660612205415 94.4050696594914029 S
atom 10.0188653804739136 5.1593417620680695 94.4050707621598661 S
atom 5.0471487909737505 10.1310583521810820 94.4050706397768664 S
atom 9.7279227999662705 9.8401154755500109 94.4050686513246120 S
atom 4.5730327345109805 2.5157513211420715 91.5779215292529045 S
atom 10.2438245902631362 2.5090636289801020 91.9905948007339020 S
atom 5.2721077357779498 7.4807782159834932 91.9905940055437696 S
atom 9.5367818900628905 7.4794990163340511 91.5779216425670768 S
atom 2.4440183972471150 5.3584495641252872 91.5779214515819575 S
atom 7.4144480821626093 4.6514072767819536 91.9905941323833787 S
atom 2.4427339794625076 9.6231234046261260 91.9905948020487614 S
atom 7.4077656326074095 10.3221989015245637 91.5779219537653262 S
