#=======================================================
# FHI-aims file: full_relax/full_relax_RP_8_Rx0Mz_0Ry0.in
# Created using the Atomic Simulation Environment (ASE)
# Mon Mar 24 16:06:37 2025
#=======================================================
lattice_vector 9.9290229591504531 -1.4178978467936487 0.0002698462114845 
lattice_vector 1.3657928516748670 9.9193467848811849 0.0010270885928050 
lattice_vector 0.0014759030290696 0.0047084275928522 85.8890696475472168 
atom -0.0051693823571472 -0.1526601389090122 0.2109483583314123 Ba
atom 5.0521929901913873 -0.8000789693855914 0.2070649081111649 Ba
atom 0.7705780067413592 4.8685429551373582 0.2074433042098014 Ba
atom 5.6422382820092523 4.0980644044449308 0.2115968498696142 Ba
atom -0.2959561682200818 0.2497602923504855 4.9922448130547927 Ba
atom 4.7419906290738636 -0.3934938394913922 4.9896056994996050 Ba
atom 0.4603757289873457 5.2751287544151797 4.9899843350070814 Ba
atom 5.3514518715726043 4.5004848106893878 4.9928932933228465 Ba
atom 2.7621703122791521 2.1454671939979644 2.3774441076037784 Zr
atom 7.7263606146317771 1.4436365419166577 2.3879149511345203 Zr
atom 3.4447456957553477 7.1122592647976211 2.3882935357500403 Zr
atom 8.4095781364767053 6.3961923427989413 2.3780925404472559 Zr
atom 2.7256608910991522 2.1862364409124133 7.4351088765778455 Zr
atom 7.6997485865979183 1.4703018373877779 7.4383245624523902 Zr
atom 3.4181334496437059 7.1389243210369129 7.4387032697148578 Zr
atom 8.3730689313207129 6.4369610646797781 7.4357571932175075 Zr
atom 2.9799630582257812 2.3249050788885834 -0.1187889570691742 S
atom 7.4552154645887168 1.3402621899885439 -0.1132619719819598 S
atom 3.1736003296339508 7.0088842875473132 -0.1128832409912566 S
atom 8.6273708186916771 6.5756299505135001 -0.1181405184918778 S
atom 2.4546455506820459 1.9016488464685362 4.9450070555269168 S
atom 8.0526888665587073 1.6668842496817735 4.9474391608350556 S
atom 3.7710736364491360 7.3355062854468951 4.9478175738804833 S
atom 8.1020535021667168 6.1523733507728320 4.9456553453623089 S
atom 2.6836967329061077 -0.3587463174865905 2.2420303287176884 S
atom 7.0738660395351109 -0.9817101622976827 2.7482017308615458 S
atom 2.7922509368616573 4.6869120248333198 2.7485802755607267 S
atom 8.3311046971060829 3.8919783391704685 2.2426786215717285 S
atom 2.7647383188288330 -0.3609095005838523 7.7744063019393597 S
atom 6.9921465221980954 -0.9612334356708332 7.1394382583841551 S
atom 2.7105313876453763 4.7073886379235939 7.1398168750016637 S
atom 8.4121462012537762 3.8898148636796277 7.7750547460052575 S
atom 0.2347674044979126 2.2435227630040351 2.1999189542777269 S
atom 5.2744127521316972 2.1080665317621357 2.7529148037184838 S
atom 0.9927975630717317 7.7766888279482593 2.7532933620413740 S
atom 5.8821754561360651 6.4942471851417096 2.2005674603221097 S
atom 0.2029975665501481 2.1435046557033486 7.7584275752566718 S
atom 5.2695569506871136 2.1861314000657934 7.1658632536932618 S
atom 0.9879417457596716 7.8547537553337081 7.1662419587151058 S
atom 5.8504056379821554 6.3942290544775062 7.7590760336503957 S
atom 0.1753012329575029 -0.1674265934630474 9.9721837373248174 Ba
atom 5.0184035384340939 -0.9430417305050077 9.9539275205383433 Ba
atom 0.7367885003779889 4.7255804266030133 9.9543062215053695 Ba
atom 5.8227091035156926 4.0832979405222840 9.9728321341429300 Ba
atom -0.3392197060583053 0.2392839584365764 14.9754678616103174 Ba
atom 4.7204384673256907 -0.4174146406872257 14.9485512919054582 Ba
atom 0.4388234339205949 5.2512078423970410 14.9489299126515860 Ba
atom 5.3081881618433870 4.4900084074151039 14.9761163818655962 Ba
atom 2.7555374342984442 2.1528817503709452 12.4496247936918820 Zr
atom 7.7072442556973835 1.4285680793884876 12.4513176599735136 Zr
atom 3.4256287936822973 7.0971905317247757 12.4516962365404726 Zr
atom 8.4029457592809838 6.4036061817907521 12.4502732703860026 Zr
atom 2.7175039985068499 2.1678654300501616 17.4678864665285865 Zr
atom 7.6812757631240842 1.4547590884086916 17.4695564787600119 Zr
atom 3.3996605022253226 7.1233813647116575 17.4699352489444166 Zr
atom 8.3649121265342554 6.4185899219414431 17.4685348108934271 Zr
atom 3.0336509007935422 2.4753636793183160 9.9541766547719668 S
atom 7.3589143452895058 1.2132517879215634 9.9546595183683824 S
atom 3.0772992576267759 6.8818739403423406 9.9550382192759059 S
atom 8.6810586755246817 6.7260881899426206 9.9548252273844877 S
atom 2.4486875969153670 1.8440411287700433 14.9627350091477727 S
atom 7.9961608806057196 1.7060386335541724 14.9657836481041322 S
atom 3.7145457978011418 7.3746609331261874 14.9661622148563094 S
atom 8.0960953717285697 6.0947658048811544 14.9633834060692941 S
atom 2.7693768361596800 -0.3785989965984944 12.1279939100164924 S
atom 6.9844229053727185 -0.9795086158427568 12.7854273431981333 S
atom 2.7028078932730386 4.6891136863298701 12.7858060454959936 S
atom 8.4167846545587626 3.8721255337031546 12.1286424133294588 S
atom 2.7429654268438894 -0.3677864102863140 17.8043841198693791 S
atom 6.9482635597153868 -0.9678463416938172 17.1357399353478499 S
atom 2.6666485049369673 4.7007757995946928 17.1361184731998826 S
atom 8.3903732569781901 3.8829380360499184 17.8050325039966495 S
atom 0.2060311611555690 2.1421428381650687 12.1939445909425448 S
atom 5.2710661647214101 2.1833949144107732 12.7520296151169941 S
atom 0.9894507725203515 7.8520172572484759 12.7524081857473419 S
atom 5.8534392868200671 6.3928672211043462 12.1945930794180786 S
atom 0.1788352927384770 2.1301397206570769 17.7326435869894965 S
atom 5.2482429292564650 2.1942009493070240 17.2111510309326938 S
atom 0.9666275946583687 7.8628233229331679 17.2115296211705555 S
atom 5.8262434478956671 6.3808641419536043 17.7332920548199056 S
atom 0.1399926287457463 -0.1589382483373905 19.9755959024576590 Ba
atom 4.9878986438062922 -0.9212840414103945 19.9744975283265269 Ba
atom 0.7062835662261154 4.7473380440996120 19.9748761101645975 Ba
atom 5.7874004701264967 4.0917862531873839 19.9762443708323758 Ba
atom -0.3383225172382052 0.2477151230587830 24.9750927349648428 Ba
atom 4.7231117771586124 -0.4071609048428033 25.0019776126379938 Ba
atom 0.4414967354781292 5.2614614380328968 25.0023562364656833 Ba
atom 5.3090853797315187 4.4984396523948780 24.9757411149218171 Ba
atom 2.7179247417989010 2.1743177385633659 22.4828751528007231 Zr
atom 7.6825444963265097 1.4615128965947324 22.4820159553776584 Zr
atom 3.4009293134627225 7.1301353120405162 22.4823945494569912 Zr
atom 8.3653327713100598 6.4250422524099777 22.4835238017246972 Zr
atom 2.7573655678119229 2.1628917990330887 27.5017231642551359 Zr
atom 7.7092278048555434 1.4392464360798150 27.4999560481544165 Zr
atom 3.4276125567420128 7.1078689165318893 27.5003345217250939 Zr
atom 8.4047737245097576 6.4136162487987010 27.5023715607348542 Zr
atom 2.9755563015408160 2.4962017539304564 19.9751087865318055 S
atom 7.3583995450075816 1.2094854734758089 19.9759326531182424 S
atom 3.0767843261449390 6.8781076257519445 19.9763114154574524 S
atom 8.6229641683775320 6.7469262075163705 19.9757574607052995 S
atom 2.4478203918788215 1.8514203727636016 24.9883244508202402 S
atom 8.0001486187350288 1.7138555959822326 24.9855065805164429 S
atom 3.7185336391135229 7.3824779288637403 24.9858851081506828 S
atom 8.0952282681902972 6.1021449122951683 24.9889725873721851 S
atom 2.7445634928565252 -0.3628876006640947 22.1459780488372928 S
atom 6.9495891734496471 -0.9622652063709336 22.8161851053687599 S
atom 2.6679741054661008 4.7063572408145387 22.8165637938897703 S
atom 8.3919713699490170 3.8878370593957867 22.1466266384854578 S
atom 2.7703596144894416 -0.3690812249075940 27.8227538341420768 S
atom 6.9866898577602488 -0.9701724824149365 27.1638193890939696 S
atom 2.7050747948806864 4.6984495815879272 27.1641979071207516 S
atom 8.4177674363734987 3.8816430300937159 27.8234023020575023 S
atom 0.1795995472418671 2.1344729340798656 22.2168777995520088 S
atom 5.2489185045135542 2.1996625376481638 22.7433414559328853 S
atom 0.9673030943026133 7.8682848867270243 22.7437201169739112 S
atom 5.8270078152217453 6.3851973502303414 22.2175262234732713 S
atom 0.2077980670735574 2.1529168951918760 27.7588822424774335 S
atom 5.2726132989506551 2.1909510990200007 27.1971326623772853 S
atom 0.9909981602625459 7.8595733959942269 27.1975113696179207 S
atom 5.8552060692750638 6.4036412419866924 27.7595306696462423 S
atom 0.1779921576926463 -0.1593930183674048 29.9782196325992096 Ba
atom 5.0201440929242089 -0.9348490270452562 29.9960268722329815 Ba
atom 0.7385290854311344 4.7337734189039882 29.9964055816424029 Ba
atom 5.8254000046463377 4.0913315356129178 29.9788681879295886 Ba
atom -0.2891251977446181 0.2549265660373708 34.9567294378627338 Ba
atom 4.7477294552394449 -0.3879996772141373 34.9603063460264707 Ba
atom 0.4661145154099056 5.2806224222404152 34.9606853103938704 Ba
atom 5.3582830676075330 4.5056512187424742 34.9573779706518408 Ba
atom 2.7303464361895036 2.1924818113059397 32.5162713935357530 Zr
atom 7.7043850846020003 1.4768098612735703 32.5120841195666799 Zr
atom 3.4227698323127442 7.1454319743830608 32.5124626360326872 Zr
atom 8.3777546549113246 6.4432059243864712 32.5169200850798674 Zr
atom 2.7673738571782978 2.1494029245801527 37.5718692317138192 Zr
atom 7.7319296540175309 1.4489326650370156 37.5620641451231663 Zr
atom 3.4503143703537211 7.1175535702539179 37.5624424759257138 Zr
atom 8.4147820909157822 6.4001260033303611 37.5725175604014936 Zr
atom 3.0381593668825504 2.4836088364796018 29.9973825442838127 S
atom 7.3599546325132783 1.2216269210786324 29.9964301942597764 S
atom 3.0783398464545191 6.8902491689305227 29.9968088502762100 S
atom 8.6855672502173498 6.7343332821892847 29.9980311250886125 S
atom 2.4586047205920010 1.9092719731414907 35.0054413092937864 S
atom 8.0597016053224060 1.6705072217444736 35.0025412270193570 S
atom 3.7780866776124160 7.3391296993963673 35.0029196545126382 S
atom 8.1060130994012418 6.1599966155557340 35.0060894736795660 S
atom 2.7675979239362953 -0.3539653339642333 32.1755963589779270 S
atom 6.9975889893356955 -0.9549575633077987 32.8095159960427409 S
atom 2.7159740448692724 4.7136646896970191 32.8098945765526224 S
atom 8.4150056980879775 3.8967590735935986 32.1762448853947873 S
atom 2.6878308103964752 -0.3539794310656132 37.7047211873990449 S
atom 7.0828671451868885 -0.9775510106563474 37.2043421337348050 S
atom 2.8012525496850271 4.6910711406192460 37.2047209779931336 S
atom 8.3352383912141121 3.8967448013595551 37.7053698457774047 S
atom 0.2077999723004946 2.1518092270114830 32.1896176150492295 S
atom 5.2737003930588680 2.1909032479603643 32.7855962499889415 S
atom 0.9920854029583499 7.8595256256456194 32.7859747168982736 S
atom 5.8552080141352851 6.4025337181434976 32.1902661950918514 S
atom 0.2407430813891011 2.2510617655933030 37.7521375736627789 S
atom 5.2800116130008492 2.1102203377893560 37.1956198004433887 S
atom 0.9983968188576494 7.7788427492522718 37.1959988069621730 S
atom 5.8881510860534636 6.5017863592421277 37.7527859112627056 S
atom -0.0019900319330660 -0.1480866758764820 39.7358335568493928 Ba
atom 5.0557661638502349 -0.7923246584381345 39.7408951294111645 Ba
atom 0.7741514098156288 4.8762980482639167 39.7412733524166768 Ba
atom 5.6454174095467069 4.1026377742531182 39.7364817755666877 Ba
atom 2.9870402559124725 2.3253410811689452 40.0674124696544567 S
atom 7.4591084546086117 1.3479713884372764 40.0623563032124537 S
atom 3.1774941642405565 7.0165939196509646 40.0627352484620474 S
atom 8.6344483720138534 6.5760661401222222 40.0680614973008105 S
atom 2.7262882621704252 2.0677454407684532 43.1815659694861367 Ba
atom 7.7443253572087842 1.2329228374681824 43.1590385021659628 Ba
atom 3.4627108159553206 6.9015450735965658 43.1594172215095284 Ba
atom 8.3736961093833902 6.3184700849900821 43.1822140978728441 Ba
atom 3.1002306678550853 2.3097960888800992 47.9542902988670505 Ba
atom 8.1097969132914098 1.5331585816652551 47.9360467142267197 Ba
atom 3.8281815353471833 7.2017811463122943 47.9364254073430942 Ba
atom 8.7476384748940230 6.5605202836254790 47.9549390679099972 Ba
atom 5.7079130067239667 4.2274572308026483 45.3379989231142346 Zr
atom 10.6581518754791968 3.5106839300042130 45.3387759803324002 Zr
atom 6.3765360292872426 9.1793076318450435 45.3391548450446749 Zr
atom 11.3553215202063118 8.4781827462941450 45.3386475912720357 Zr
atom 5.7274196212029533 4.2374872747351811 50.3891363229435285 Zr
atom 10.6819302958111013 3.5326387068146818 50.3948107866789883 Zr
atom 6.4003150036648631 9.2012618481417885 50.3951891936792435 Zr
atom 11.3748277324149409 8.4882123483506362 50.3897849073761464 Zr
atom 5.5899354729458155 4.5254079576868413 42.8343570802225742 S
atom 10.8514909879723795 3.2822761342983702 42.8448624381946033 S
atom 6.5698753616625734 8.9508982074439949 42.8452409641628336 S
atom 11.2373429476576483 8.7761322564419579 42.8350055084473027 S
atom 5.9296669916632476 3.8695183548601615 47.8979769425799233 S
atom 10.4062532225347208 3.8345515591314001 47.8999353684162941 S
atom 6.1246381229975704 9.5031737337467774 47.9003141860726203 S
atom 11.5770743197844173 8.1202427106529829 47.8986250129356392 S
atom 5.1504702277925736 1.7746669679121747 45.1504142402273843 S
atom 10.6574968002759736 1.0005733783837922 45.7406795447170325 S
atom 6.3758820995330163 6.6691957035086809 45.7410583193123728 S
atom 10.7978779700880594 6.0253917406325028 45.1510627248718706 S
atom 4.9996441044024609 1.8059716100889180 50.7334247006941723 S
atom 10.6877111993616722 0.9898883070819300 50.0836505107366960 S
atom 6.4060961300672536 6.6585106336240241 50.0840291614972060 S
atom 10.6470519312592842 6.0566958604977774 50.7340732049475704 S
atom 3.2814575030298356 4.8521250841287191 45.6859629468973480 S
atom 8.1646967811624496 3.6045610491338707 45.1687529174699520 S
atom 3.8830813558319437 9.2731833238429733 45.1691318289886254 S
atom 8.9288652481532509 9.1028493576665355 45.6866112534409510 S
atom 3.2845031146488943 4.9382709130117597 50.0950062709395922 S
atom 8.1454623191213944 3.5073380373357694 50.7273073433762320 S
atom 3.8638475424708791 9.1759601979123779 50.7276859060178538 S
atom 8.9319105473675595 9.1889953713510568 50.0956548536079467 S
atom 2.6952495663736400 1.8621293355161810 52.9248227111071543 Ba
atom 7.5840347070474863 1.2585284355186916 52.9135682105104834 Ba
atom 3.3024195784913615 6.9271506712388584 52.9139468577108474 Ba
atom 8.3426575588515579 6.1128539453691824 52.9254711512258211 Ba
atom 3.1435185834306703 2.3122764699668177 57.9310499071195153 Ba
atom 8.1705909753038863 1.4988852834807369 57.9400455134851384 Ba
atom 3.8889756250873111 7.1675074214150083 57.9404241489349374 Ba
atom 8.7909266309230638 6.5630007707191966 57.9316984691691772 Ba
atom 5.7228631341654692 4.2124734329246687 55.4104897581739735 Zr
atom 10.6873230726905764 3.4913769285710425 55.4092540959857160 Zr
atom 6.4057077898512240 9.1599995653123187 55.4096326153559815 Zr
atom 11.3702713112333331 8.4631980391305390 55.4111383959318715 Zr
atom 5.7814318762096431 4.1956474684527700 60.4194348291089298 Zr
atom 10.7460498100487882 3.4907244151166519 60.4153443812000006 Zr
atom 6.4644345315006051 9.1593464284639250 60.4157228486087021 Zr
atom 11.4288399441538306 8.4463717220647734 60.4200834041703132 Zr
atom 5.5010836806418464 4.6019414567071264 52.9182577874168345 S
atom 10.9864295410337593 3.1802670632824706 52.9058224644863699 S
atom 6.7048143826333542 8.8488894609931226 52.9062014277226993 S
atom 11.1484914098843984 8.8526658422367959 52.9189064157694986 S
atom 6.0016833124412061 3.8320687204875203 57.9141354959259829 S
atom 10.4079795120198124 3.8267627212416393 57.9252174840279537 S
atom 6.1263644937419572 9.4953848504704546 57.9255963808826024 S
atom 11.6490911327418392 8.0827930093119367 57.9147836053892533 S
atom 5.0342845209755813 1.7782593831537428 55.0995047929126116 S
atom 10.7328659378391595 0.9714122713161960 55.7642188232410447 S
atom 6.4512509369949642 6.6400349196460091 55.7645973374278228 S
atom 10.6816923138195197 6.0289841240238129 55.1001530869786009 S
atom 5.0741775984913762 1.7666149883629807 60.7398102318103597 S
atom 10.7454578361588045 0.9688671236752500 60.0981231787832897 S
atom 6.4638427116868620 6.6374896309474414 60.0985019986076381 S
atom 10.7215854284685843 6.0173396686668452 60.7404588833339645 S
atom 3.3065499504737677 4.9230906557492595 55.7519029619933590 S
atom 8.1629743552033229 3.4986700244617439 55.0999928917454156 S
atom 3.8813597741430663 9.1672922458861592 55.1003714867075090 S
atom 8.9539573347461978 9.1738151620542823 55.7525515027359688 S
atom 3.3508970895280332 4.9025308083700914 60.0998574209010599 S
atom 8.2006076198771503 3.4933242747337241 60.7639317605501432 S
atom 3.9189935484808327 9.1619465194333269 60.7643104117855017 S
atom 8.9983038317558233 9.1532555285749648 60.1005058036615907 S
atom 2.7519482893444573 1.8592303572440343 62.9196068027417681 Ba
atom 7.6489836636989148 1.2185077431359421 62.9188085900184859 Ba
atom 3.3673683995667174 6.8871299400528914 62.9191872225099331 Ba
atom 8.3993564415515571 6.1099547463351636 62.9202552810045219 Ba
atom 3.1409920403726841 2.3053090352986065 67.9061944336624634 Ba
atom 8.1675004595202640 1.4918575911580052 67.8975206378797793 Ba
atom 3.8858852349278608 7.1604797773563327 67.8978992672168857 Ba
atom 8.7884000344001585 6.5560333391541388 67.9068428406105369 Ba
atom 5.7800799208590252 4.1912930827358057 65.4193950352861862 Zr
atom 10.7447108548294423 3.4863719313491695 65.4233404144247004 Zr
atom 6.4630956182332762 9.1549940410412383 65.4237193491918561 Zr
atom 11.4274879405956469 8.4420173231491074 65.4200433260695178 Zr
atom 5.7190472797618996 4.2041306016197355 70.4266987514831300 Zr
atom 10.6837304976176508 3.4828287825691380 70.4283914758288887 Zr
atom 6.4021153851548691 9.1514511657350361 70.4287702156877913 Zr
atom 11.3664553599875688 8.4548551543071273 70.4273469628394650 Zr
atom 5.5447911503229772 4.5798022030448848 62.9197176936438041 S
atom 11.0357755504420165 3.1726595932407085 62.9193271473479143 S
atom 6.7541603512132244 8.8412821010244720 62.9197056920972315 S
atom 11.1921989180223864 8.8305269516205964 62.9203665269027397 S
atom 5.9995387811281793 3.8255318858376373 67.9237789508044045 S
atom 10.4048920746772193 3.8208147540112334 67.9133659689372138 S
atom 6.1232770275105040 9.4894369494914717 67.9137442943296605 S
atom 11.6469466097334635 8.0762561457255515 67.9244273233486098 S
atom 5.0749398701773236 1.7624747927850555 65.0979660727963392 S
atom 10.7422969783430808 0.9648862417475502 65.7399684296686218 S
atom 6.4606819027304203 6.6335090102352483 65.7403468737853558 S
atom 10.7223477658010875 6.0131996878290108 65.0986143869802305 S
atom 5.0317696953582676 1.7699760621559195 70.7380387592176731 S
atom 10.7284055539506351 0.9637126011263253 70.0730968575514908 S
atom 6.4467905073960399 6.6323350062282191 70.0734756177092493 S
atom 10.6791775096719643 6.0207006021373299 70.7386873168026256 S
atom 3.3490775716575505 4.8958936293858777 65.7383414786546751 S
atom 8.1995665604560788 3.4912709728055331 65.0741348517862832 S
atom 3.9179521335649805 9.1598932889145086 65.0745134638040241 S
atom 8.9964847375043178 9.1466182329892689 65.7389899852972945 S
atom 3.3028616520780272 4.9142204928754696 70.0849055197053588 S
atom 8.1595016759181860 3.4911941256013890 70.7386356692778548 S
atom 3.8778870991488588 9.1598163570421658 70.7390143686359210 S
atom 8.9502690531582232 9.1649450026116401 70.0855538666501872 S
atom 2.6915306794965104 1.8540413073759976 72.9113977840109726 Ba
atom 7.5802570173290391 1.2507175164427791 72.9233364256286620 Ba
atom 3.2986419821687951 6.9193396729959717 72.9237150431391115 Ba
atom 8.3389385998495875 6.1047660107630319 72.9120463337433478 Ba
atom 3.0985974583780989 2.3042864964504597 77.8821144780195453 Ba
atom 8.1078976902861495 1.5267381569074310 77.9009079368359210 Ba
atom 3.8262826641552405 7.1953606087257960 77.9012866312580030 Ba
atom 8.7460051263177174 6.5550105719216027 77.8827628609329281 Ba
atom 5.7242457522833075 4.2307505021676155 75.4470781699013173 Zr
atom 10.6788557185454032 3.5253053069361759 75.4422971398123252 Zr
atom 6.3972404928756301 9.1939274561829709 75.4426761340636602 Zr
atom 11.3716535054560204 8.4814748743852402 75.4477263868223105 Zr
atom 5.7062472327640918 4.2222433985325649 80.4992669835925057 Zr
atom 10.6563204902041377 3.5048370147624928 80.4988957543155408 Zr
atom 6.3747048741628003 9.1734593330759573 80.4992739721572974 Zr
atom 11.3536553489642316 8.4729674622847408 80.4999156509182541 Zr
atom 5.4971334603343225 4.5947352235604804 72.9182490219173332 S
atom 10.9837634216629194 3.1722784832197144 72.9312565389993068 S
atom 6.7021483171998257 8.8409010386087843 72.9316346772314432 S
atom 11.1445411095603664 8.8454597167551370 72.9188979196547677 S
atom 5.9284879694298267 3.8638351750844633 77.9389629120201164 S
atom 10.4031142752480381 3.8276884601765873 77.9372482622895006 S
atom 6.1214990969194520 9.4963110442754601 77.9376267860924656 S
atom 11.5758954475353555 8.1145596292893654 77.9396111205619775 S
atom 4.9961845331867263 1.7990357074494154 75.1035264878356372 S
atom 10.6853751431637232 0.9829265128060743 75.7532700170492745 S
atom 6.4037600712309324 6.6515489632489038 75.7536486176781096 S
atom 10.6435925110937948 6.0497602352695168 75.1041749342180225 S
atom 5.1458518072703745 1.7695344779937754 80.6844457709854908 S
atom 10.6594177842802793 0.9943357379417527 80.0965659815253588 S
atom 6.3778027475593868 6.6629580724073039 80.0969446247878381 S
atom 10.7932596879531904 6.0202585586033770 80.6850942119939845 S
atom 3.2816003230780688 4.9319564884062315 75.7429264671759341 S
atom 8.1425718601297294 3.4998071330733715 75.1089777402986982 S
atom 3.8609564212941478 9.1684294867466498 75.1093563651999716 S
atom 8.9290084484249039 9.1826808883371260 75.7435749525483573 S
atom 3.2805221989128426 4.8491290758411001 80.1501454549641892 S
atom 8.1623564580742052 3.5952799309941503 80.6687309560181518 S
atom 3.8807411939021250 9.2639021897782836 80.6691095064653894 S
atom 8.9279301166827842 9.0998535717631484 80.1507940544970126 S
atom 2.7242292262766914 2.0616472153531196 82.6572446516446462 Ba
atom 7.7396161229616824 1.2259426459065368 82.6794758028277101 Ba
atom 3.4580010241580426 6.8945648742147574 82.6798542897986550 Ba
atom 8.3716372425987728 6.3123724832824593 82.6578929478193345 Ba
atom 5.5878023986048140 4.5194498588233358 83.0038578974874497 S
atom 10.8506647636746631 3.2783132898108271 82.9934385383757700 S
atom 6.5690494187120416 8.9469360970362786 82.9938174124703067 S
atom 11.2352099586577712 8.7701740997246702 83.0045062699509941 S
