#=======================================================
# FHI-aims file: full_relax/full_relax_RP_3_Rx0Rz_0RyRz.in
# Created using the Atomic Simulation Environment (ASE)
# Fri Mar 14 11:19:49 2025
#=======================================================
lattice_vector 10.1029712733692278 -0.0002015046385715 0.0003597841124652 
lattice_vector -0.0002015046385714 10.1029712733676647 -0.0003597841138094 
lattice_vector -0.0014817642581946 0.0014817642531959 35.2420461642140310 
atom -0.1572992653676734 0.0000763204486991 0.2857120298139717 Ba
atom 5.2087189255235371 -0.0001485428382009 0.2859160853914482 Ba
atom 0.1571325309490407 5.0514378433054192 0.2855563008042612 Ba
atom 4.8940856278412861 5.0514612019045702 0.2857120436015406 Ba
atom 0.0300230608796214 0.0002123275049950 4.9296805898516318 Ba
atom 5.0211154690677660 0.0000724131609139 4.9298882342093062 Ba
atom -0.0304709168976671 5.0516588050522300 4.9295284482371624 Ba
atom 5.0814079415854279 5.0515972148024435 4.9296805833082082 Ba
atom 2.5255817369959526 2.5117370629307820 2.3306090437898530 Zr
atom 7.5770560362461579 2.5397206117145887 2.3307841574826660 Zr
atom 2.5254697033511162 7.5913069555770702 2.3304244018676106 Zr
atom 7.5769665638543726 7.5631218978092525 2.3306090397239361 Zr
atom 2.5253837557228382 2.5260011480469258 7.3420929713904854 Zr
atom 7.5768693607256079 2.5259003882842666 7.3422728861130606 Zr
atom 2.5252830036353093 7.5774867748891017 7.3419130709529803 Zr
atom 7.5767686085595072 7.5773860229260288 7.3420929693398875 Zr
atom 2.5255189983919877 2.8839656895465731 -0.1508045499651191 S
atom 7.5773439003129646 2.1673521990243629 -0.1506064050019540 S
atom 2.5257575002074582 7.2189385952115517 -0.1509662141180499 S
atom 7.5769038934621369 7.9353505804686870 -0.1508045646416896 S
atom 2.5256811926407328 2.0519808672669231 4.8654362295156446 S
atom 7.5767696088585792 2.9997099268669811 4.8655773840099936 S
atom 2.5251832113775858 8.0512963200507457 4.8652176167863299 S
atom 7.5770660850982461 7.1033657553817271 4.8654362505342572 S
atom 2.5256384803171628 0.0000351742338650 2.0084360764780271 S
atom 7.5770945317274343 -0.0000385961584611 2.7996050007929769 S
atom 2.5255081313516468 5.0515477748518141 2.7992452107473325 S
atom 7.5770233764114279 5.0514200453446794 2.0084360801771988 S
atom 2.5252981583202039 0.0002774817461991 7.7938497058947673 S
atom 7.5770557117371009 0.0001384060371103 6.8906959735480475 S
atom 2.5254693155944152 5.0517248071784895 6.8903361935585394 S
atom 7.5766830496050472 5.0516623829891660 7.7938497033384762 S
atom -0.0001716119452295 2.5258316555622371 2.4580474752154227 S
atom 5.0513173859390976 2.5257474321883056 2.4578992604475722 S
atom -0.0002689843257390 7.5773338299864568 2.4575394736666949 S
atom 5.0512132566970314 7.5772165486981446 2.4580474718985337 S
atom -0.0003605805803952 2.5261837013595585 7.3418010192445493 S
atom 5.0511280694127185 2.5258185814146330 7.3423848767857818 S
atom -0.0004583180344258 7.5774049720299166 7.3420250939978118 S
atom 5.0510243013768514 7.5775685873186731 7.3418010206767175 S
atom -0.0306404675074044 0.0004050751855147 9.7545053198023268 Ba
atom 5.0812384076823340 0.0003434865171847 9.7546574585023613 Ba
atom 0.0296520128202303 5.0519298698415067 9.7542976729055422 Ba
atom 5.0207444234134710 5.0517899539603768 9.7545053205602361 Ba
atom 0.1566818597058569 0.0005410807358807 14.3984738609553578 Ba
atom 4.8936349492921947 0.0005644427260589 14.3986295923746663 Ba
atom -0.1579514319325404 5.0521508329430809 14.3982698108519394 Ba
atom 5.2080667345912550 5.0519259662599865 14.3984738540279462 Ba
atom 2.5251858016766917 2.5402652620954469 12.3535768526835081 Zr
atom 7.5766826587657956 2.5120801816035834 12.3537614733105823 Zr
atom 2.5250963157793982 7.5636665672326515 12.3534017283253270 Zr
atom 7.5765706418870007 7.5916501396815086 12.3535768396105041 Zr
atom 2.5250862797994098 3.0000214135612553 9.8187496446330531 S
atom 7.5769691537448027 2.0520908549082502 9.8189682640148739 S
atom 2.5253827576910619 7.1036772457927144 9.8186084798604636 S
atom 7.5764711720319449 8.0514062967956352 9.8187496386063291 S
atom 2.5252484744169594 2.1680365905812873 14.8349904725487640 S
atom 7.5763948637892113 2.8844485808490559 14.8351521367698229 S
atom 2.5248084698056763 7.9360349697905006 14.8347923261959469 S
atom 7.5766333642807639 7.2194214759570574 14.8349904836575472 S
atom 2.5252593396547200 0.0004544966118281 11.8849406876180268 S
atom 7.5767153884791796 0.0003807288053703 12.6761096138430833 S
atom 2.5251289913946895 5.0519671255014069 12.6757498276456584 S
atom 7.5766442322429990 5.0518393885510919 11.8849406903455765 S
atom -0.0005499119295883 2.5262548485621497 12.2262866454384600 S
atom 5.0509391136202932 2.5261706259183603 12.2261384327684191 S
atom -0.0006472814798430 7.5777570164737957 12.2257786466007072 S
atom 5.0508349745110932 7.5776397344496074 12.2262866462603199 S
atom 2.5248752436125010 2.6837325857977712 17.9067351190499870 Ba
atom 7.5764849844965099 2.3690992868859535 17.9069391685575212 Ba
atom 2.5248985981636047 7.4206856740985714 17.9065793794540191 Ba
atom 7.5762601254003892 7.7351174692652789 17.9067351152049667 Ba
atom 2.5247392339770598 2.4964102684183445 22.5507036701076657 Ba
atom 7.5762640264426819 2.5567027396651167 22.5509113173707973 Ba
atom 2.5246776380534088 7.6082891246496622 22.5505515306129816 Ba
atom 7.5761241175366356 7.5477951479067817 22.5507036686113977 Ba
atom 5.0645994063599984 5.0522364702846136 19.9516321309484894 Zr
atom 10.0880007439421107 5.0521470203678343 19.9518072410420295 Zr
atom 5.0364143498991671 10.1037334421550877 19.9514474580196293 Zr
atom 10.1159842948525522 10.1036213845227465 19.9516321228629003 Zr
atom 5.0503353043315879 5.0524344319539525 24.9631160243114891 Zr
atom 10.1018209495243294 5.0523337029542548 24.9632959869867221 Zr
atom 5.0502345500388479 10.1039201402478174 24.9629361597933510 Zr
atom 10.1017201765770714 10.1038193625038186 24.9631160900255580 Zr
atom 4.6923707524854388 5.0522992066586427 17.4702185175918885 S
atom 10.4603691242119901 5.0518591975859888 17.4704166805575163 S
atom 5.4087827393449439 10.1034455838923591 17.4700568821820212 S
atom 9.7437556355663073 10.1036840875330380 17.4702185281370106 S
atom 5.5243555742734074 5.0521370165901471 22.4864593366580401 S
atom 9.6280113968312140 5.0524334886434872 22.4866004504936825 S
atom 4.5764250123284489 10.1040198703131505 22.4862407228470786 S
atom 10.5757404615681381 10.1035218918169161 22.4864592935378802 S
atom 5.0505890089829268 2.5265008164680722 20.0789223394394689 S
atom 10.1020911735404795 2.5264034441083929 20.0794303417864057 S
atom 5.0505047859699692 7.5779898376874115 20.0790705560919065 S
atom 10.1019738919695676 7.5778857116678040 20.0789223438098041 S
atom 5.0505178609487764 2.5266901286781134 24.9634079605468244 S
atom 10.1017391303406825 2.5265924018736183 24.9631838815921547 S
atom 5.0501527410112068 7.5781788043699390 24.9628241037161835 S
atom 10.1019027456870809 7.5780750312122631 24.9634079555531407 S
atom 2.5247886474179020 5.0523100723399557 20.4202682963588451 S
atom 7.5763012866155082 5.0521797232217773 19.6294591609899207 S
atom 2.5247148735305305 10.1037661067851996 19.6290993778970311 S
atom 7.5761735561515078 10.1036949505338693 20.4202682963805735 S
atom 2.5246116743256373 5.0523488933527734 24.5113592729241851 S
atom 7.5760589204032662 5.0525200520123583 25.4148727868599487 S
atom 2.5244726075303183 10.1041064289643376 25.4145129990856766 S
atom 7.5759964960744446 10.1037337682432451 24.5113592711119921 S
atom 2.5245464765244647 2.5570737875004692 27.3755284076620917 Ba
atom 7.5759929713650056 2.4965798016908600 27.3756805451931093 Ba
atom 2.5244065545481797 7.5481661934129516 27.3753207513931081 Ba
atom 7.5759313887139443 7.6084586760262800 27.3755283980629436 Ba
atom 2.5244104857950265 2.3697514733253957 32.0194969268448233 Ba
atom 7.5757719923044231 2.6841832551067162 32.0196526642078183 Ba
atom 2.5241856141156198 7.7357696431378589 32.0192928988054106 Ba
atom 7.5757953593937923 7.4211363515825042 32.0194969481461058 Ba
atom 5.0360711935549691 5.0526323420674171 29.9745999654494142 Zr
atom 10.1156411545362808 5.0525203529776572 29.9747845248841607 Zr
atom 5.0640547566236389 10.1041068841345005 29.9744247997562177 Zr
atom 10.0874560664224884 10.1040173701257761 29.9745998789961874 Zr
atom 4.5763150355050506 5.0527319348546440 27.4397727223188710 S
atom 10.5756304758974480 5.0522339488318746 27.4399913487212501 S
atom 5.5240440780022375 10.1038203202747212 27.4396315515703506 S
atom 9.6276999129812513 10.1041168014966107 27.4397727213218587 S
atom 5.4082998523877075 5.0525697409567645 32.4560135281623658 S
atom 9.7432727474454079 5.0528082389235074 32.4561752459038857 S
atom 4.6916863578854926 10.1043946102831317 32.4558154159513848 S
atom 10.4596847403369555 10.1039546081387286 32.4560135968678694 S
atom 5.0501658182017124 2.5268791081909221 29.8471615152867820 S
atom 10.1016679845647328 2.5267817334298535 29.8476695178406217 S
atom 5.0500815952828519 7.5783681162342962 29.8473097249939130 S
atom 10.1015507028657847 7.5782639830171545 29.8471615170772608 S
atom 2.5243693466928900 5.0526892257364358 30.2967729124530969 S
atom 7.5758819149530607 5.0525588770423004 29.5059637721859431 S
atom 2.5242955761194419 10.1041452400137413 29.5056039898768425 S
atom 7.5757541861076705 10.1040740840162204 30.2967729140668141 S
