#=======================================================
# FHI-aims file: full_relax/full_relax_RP_5_00Mz1_00Mz2.in
# Created using the Atomic Simulation Environment (ASE)
# Fri Mar 14 11:28:53 2025
#=======================================================
lattice_vector 9.9098550814369109 -0.0000000071196801 -0.0000000000002407 
lattice_vector -0.0000000071196801 9.9098550814367670 0.0000000000000056 
lattice_vector -0.0000000000013152 0.0000000000000309 56.9122488159037587 
atom -0.0000000000036007 -0.0000000000021227 0.1654622545067928 Ba
atom 4.9549275407150297 -0.0000000035637068 0.1654622545040540 Ba
atom -0.0000000035630347 4.9549275407141984 0.1654622545083167 Ba
atom 4.9549275371544228 4.9549275371562542 0.1654622545064167 Ba
atom -0.0000000000007181 -0.0000000000091851 5.0674587063427721 Ba
atom 4.9549275407143005 -0.0000000035619422 5.0674587063425003 Ba
atom -0.0000000035636479 4.9549275407157900 5.0674587063416965 Ba
atom 4.9549275371578334 4.9549275371486052 5.0674587063420518 Ba
atom 2.4774637685778669 2.4774637685797192 2.4403443645614207 Zr
atom 7.4323913092970324 2.4774637650195284 2.4403443645618532 Zr
atom 2.4774637650173443 7.4323913092944984 2.4403443645604770 Zr
atom 7.4323913057374114 7.4323913057356670 2.4403443645617622 Zr
atom 2.4774637685768512 2.4774637685789562 7.5796169736436925 Zr
atom 7.4323913092983451 2.4774637650190616 7.5796169736430983 Zr
atom 2.4774637650197486 7.4323913092983229 7.5796169736445886 Zr
atom 7.4323913057361910 7.4323913057386015 7.5796169736451287 Zr
atom 2.4774637685775018 2.4774637685803480 -0.1036809126122371 S
atom 7.4323913092968823 2.4774637650172004 -0.1036809126143365 S
atom 2.4774637650182609 7.4323913092959124 -0.1036809126111977 S
atom 7.4323913057363225 7.4323913057396132 -0.1036809126142875 S
atom 2.4774637685858472 2.4774637685764658 5.0385526175801427 S
atom 7.4323913092890468 2.4774637650233098 5.0385526175773396 S
atom 2.4774637650111031 7.4323913093013152 5.0385526175769551 S
atom 7.4323913057443942 7.4323913057352575 5.0385526175784081 S
atom 2.0533151453013452 0.0000042880003890 2.5313016789168219 S
atom 7.8565399361330650 -0.0000042951249228 2.5313016789220186 S
atom 2.9016123918539667 4.9549232491555442 2.5313016789221332 S
atom 7.0082426824607422 4.9549318251596342 2.5313016789184188 S
atom 2.9973288830847911 0.0000015142289719 7.5898366181775723 S
atom 6.9125261983493429 -0.0000015213487023 7.5898366181695209 S
atom 1.9575986540704393 4.9549260229294863 7.5898366181697776 S
atom 7.9522564202429109 4.9549290513875599 7.5898366181779684 S
atom -0.0000042915670055 2.9016123954125073 2.5313016789219680 S
atom 4.9549318287197224 2.0533151417422966 2.5313016789180560 S
atom 0.0000042844400007 7.0082426860200533 2.5313016789172864 S
atom 4.9549232455936432 7.8565399325706080 2.5313016789234402 S
atom -0.0000015177912076 1.9575986576300335 7.5898366181615886 S
atom 4.9549290549486127 2.9973288795243658 7.5898366181861867 S
atom 0.0000015106669859 7.9522564238019955 7.5898366181855712 S
atom 4.9549260193700713 6.9125261947885708 7.5898366181617511 S
atom 0.0000000000058716 0.0000000000133280 10.1531472951098927 Ba
atom 4.9549275407218065 -0.0000000035401192 10.1531472951095694 Ba
atom -0.0000000035566472 4.9549275407382822 10.1531472951101573 Ba
atom 4.9549275371640986 4.9549275371718551 10.1531472951096760 Ba
atom -0.0000000000056104 -0.0000000000147930 15.2541066405706882 Ba
atom 4.9549275407125206 -0.0000000035810628 15.2541066405707753 Ba
atom -0.0000000035645645 4.9549275406974704 15.2541066405708907 Ba
atom 4.9549275371515442 4.9549275371435266 15.2541066405705124 Ba
atom 2.4774637685775041 2.4774637685779828 12.7036269678438760 Zr
atom 7.4323913092975298 2.4774637650189462 12.7036269678403411 Zr
atom 2.4774637650176365 7.4323913092970555 12.7036269678423182 Zr
atom 7.4323913057373536 7.4323913057352939 12.7036269678413074 Zr
atom 2.4774637685766985 2.4774637685755736 17.8276369620355410 Zr
atom 7.4323913092960678 2.4774637650173181 17.8276369620409838 Zr
atom 2.4774637650164189 7.4323913092969471 17.8276369620345072 Zr
atom 7.4323913057373616 7.4323913057348010 17.8276369620392501 Zr
atom 2.4774637685632133 2.4774637685803795 10.1466567386261648 S
atom 7.4323913093097733 2.4774637650110858 10.1466567386278843 S
atom 2.4774637650314562 7.4323913092896667 10.1466567386284048 S
atom 7.4323913057217164 7.4323913057388333 10.1466567386263868 S
atom 2.4774637685925258 2.4774637685767340 15.2605971970452270 S
atom 7.4323913092827869 2.4774637650242428 15.2605971970480478 S
atom 2.4774637650049756 7.4323913093031218 15.2605971970476890 S
atom 7.4323913057508424 7.4323913057353748 15.2605971970458327 S
atom 2.9770108857969606 0.0000001715851594 12.7036269678335287 S
atom 6.9328441956374167 -0.0000001787050870 12.7036269678428599 S
atom 1.9779166513588782 4.9549273655720922 12.7036269678427427 S
atom 7.9319384229554357 4.9549277087449743 12.7036269678333085 S
atom 2.9973288830850278 0.0000015142275627 17.8174173175082480 S
atom 6.9125261983492434 -0.0000015213496446 17.8174173175007553 S
atom 1.9575986540705022 4.9549260229268723 17.8174173175014730 S
atom 7.9522564202438906 4.9549290513864097 17.8174173175072852 S
atom -0.0000001751490829 1.9779166549190652 12.7036269678551239 S
atom 4.9549277123059348 2.9770108822370056 12.7036269678219309 S
atom 0.0000001680243950 7.9319384265153623 12.7036269678212896 S
atom 4.9549273620141401 6.9328441920775488 12.7036269678547757 S
atom -0.0000015177899485 1.9575986576324305 17.8174173174931099 S
atom 4.9549290549493108 2.9973288795268327 17.8174173175154138 S
atom 0.0000015106678631 7.9522564238054194 17.8174173175162842 S
atom 4.9549260193708875 6.9125261947903187 17.8174173174930388 S
atom -0.0000000000013856 0.0000000000076690 20.3397952293326085 Ba
atom 4.9549275407200142 -0.0000000035584943 20.3397952293326654 Ba
atom -0.0000000035594469 4.9549275407192130 20.3397952293331734 Ba
atom 4.9549275371588131 4.9549275371659052 20.3397952293334541 Ba
atom -0.0000000000002891 -0.0000000000007325 25.2417916811665926 Ba
atom 4.9549275407182805 -0.0000000035594019 25.2417916811667062 Ba
atom -0.0000000035595307 4.9549275407198472 25.2417916811664043 Ba
atom 4.9549275371578032 4.9549275371585697 25.2417916811657967 Ba
atom 2.4774637685778407 2.4774637685799465 22.9669095711113407 Zr
atom 7.4323913092987386 2.4774637650197091 22.9669095711078093 Zr
atom 2.4774637650201572 7.4323913092971612 22.9669095711142255 Zr
atom 7.4323913057366013 7.4323913057364628 22.9669095711103459 Zr
atom 2.4774637685712628 2.4774637685781937 20.3687013180971555 S
atom 7.4323913093027487 2.4774637650148708 20.3687013180967185 S
atom 2.4774637650241198 7.4323913092939105 20.3687013180985588 S
atom 7.4323913057303059 7.4323913057369948 20.3687013180948320 S
atom 2.4774637685782301 2.4774637685778655 25.5109348482815790 S
atom 7.4323913092975760 2.4774637650179261 25.5109348482848901 S
atom 2.4774637650199485 7.4323913092961496 25.5109348482819200 S
atom 7.4323913057360844 7.4323913057363269 25.5109348482818028 S
atom 2.0533151453027112 0.0000042879995713 22.8759522567643678 S
atom 7.8565399361340331 -0.0000042951215916 22.8759522567647942 S
atom 2.9016123918558892 4.9549232491551036 22.8759522567660660 S
atom 7.0082426824608728 4.9549318251587851 22.8759522567653448 S
atom -0.0000042915667124 2.9016123954152304 22.8759522567660802 S
atom 4.9549318287214303 2.0533151417433140 22.8759522567631954 S
atom 0.0000042844424959 7.0082426860222240 22.8759522567627229 S
atom 4.9549232455926342 7.8565399325745746 22.8759522567668192 S
atom 2.4774637685987959 2.4774637685795202 28.6215368511532482 Ba
atom 7.4323913093033989 2.4774637650205000 28.6215368511545876 Ba
atom 2.4774637650238605 7.4323913092978398 28.6215368511528254 Ba
atom 7.4323913057599684 7.4323913057369255 28.6215368511539658 Ba
atom 2.4774637685749084 2.4774637685797392 33.5235204677753202 Ba
atom 7.4323913093411491 2.4774637650173581 33.5235204677725918 Ba
atom 2.4774637650635913 7.4323913092959586 33.5235204677752563 Ba
atom 7.4323913057321365 7.4323913057396398 33.5235204677728831 Ba
atom 4.9549275371606738 4.9549275371595769 30.8963942355476213 Zr
atom 9.9098550778790226 4.9549275335993608 30.8963942355427257 Zr
atom 4.9549275336020848 9.9098550778736811 30.8963942355504955 Zr
atom 9.9098550743155034 9.9098550743152050 30.8963942355456638 Zr
atom 4.9549275371466264 4.9549275371541306 36.0356967153335290 Zr
atom 9.9098550778681638 4.9549275336034819 36.0356967153329322 Zr
atom 4.9549275335841703 9.9098550778786265 36.0356967153332803 Zr
atom 9.9098550743095863 9.9098550743103715 36.0356967153382683 Zr
atom 4.9549275371535755 4.9549275371345409 28.3523786082098823 S
atom 9.9098550778682561 4.9549275336194469 28.3523786082138898 S
atom 4.9549275335896965 9.9098550778973920 28.3523786082068021 S
atom 9.9098550743123894 9.9098550742930787 28.3523786082125007 S
atom 4.9549275371466184 4.9549275372030550 33.4946089161705842 S
atom 9.9098550778712866 4.9549275335498937 33.4946089161733198 S
atom 4.9549275335922447 9.9098550778293824 33.4946089161684455 S
atom 9.9098550743052431 9.9098550743633940 33.4946089161621359 S
atom 4.5307777717648454 2.4774700926834745 30.9873602383546825 S
atom 10.3340048468326398 2.4774574373509348 30.9873602382985318 S
atom 5.3790773025526732 7.4323849816311771 30.9873602382981623 S
atom 9.4857053089231531 7.4323976298428489 30.9873602383521209 S
atom 5.4748095031295421 2.4774671625042628 36.0459201861492247 S
atom 9.3899731154712853 2.4774603675314530 36.0459201862823875 S
atom 4.4350455711944843 7.4323879118095215 36.0459201862827996 S
atom 10.4297370402881491 7.4323946996600272 36.0459201861485496 S
atom 2.4774574409116146 5.3790773061111619 30.9873602383229994 S
atom 7.4323976333993143 4.5307777682034187 30.9873602383274260 S
atom 2.4774700891248482 9.4857053124815032 30.9873602383280762 S
atom 7.4323849780703704 10.3340048432698239 30.9873602383237277 S
atom 2.4774603710856256 4.4350455747495792 36.0459201862200302 S
atom 7.4323947032225091 5.4748094995647651 36.0459201862111698 S
atom 2.4774671589446049 10.4297370438451953 36.0459201862097842 S
atom 7.4323879082460591 9.3899731119085192 36.0459201862202789 S
atom 2.4774637684666514 2.4774637685729601 38.6092535708380069 Ba
atom 7.4323913092168912 2.4774637650109637 38.6092535708372750 Ba
atom 2.4774637649398210 7.4323913092902387 38.6092535708366356 Ba
atom 7.4323913056255675 7.4323913057313620 38.6092535708399609 Ba
atom 2.4774637686876453 2.4774637685836916 43.7102491807440359 Ba
atom 7.4323913093737257 2.4774637650254836 43.7102491807442703 Ba
atom 2.4774637650950009 7.4323913093023428 43.7102491807445546 Ba
atom 7.4323913058450497 7.4323913057405502 43.7102491807447109 Ba
atom 4.9549275371554975 4.9549275371571087 41.1597513757824558 Zr
atom 9.9098550778777028 4.9549275335958178 41.1597513757843458 Zr
atom 4.9549275335967558 9.9098550778759122 41.1597513757816458 Zr
atom 9.9098550743144234 9.9098550743179956 41.1597513757769846 Zr
atom 4.9549275371653652 4.9549275371611365 46.2838060362469790 Zr
atom 9.9098550778820869 4.9549275335924463 46.2838060362420194 Zr
atom 4.9549275336038132 9.9098550778720647 46.2838060362417849 Zr
atom 9.9098550743216105 9.9098550743237137 46.2838060362557826 Zr
atom 4.9549275371750765 4.9549275370807706 38.6027545461083363 S
atom 9.9098550778838881 4.9549275336763996 38.6027545461141628 S
atom 4.9549275336044811 9.9098550779539885 38.6027545461173389 S
atom 9.9098550743335458 9.9098550742389317 38.6027545461106882 S
atom 4.9549275371386079 4.9549275372335373 43.7167482054774155 S
atom 9.9098550778663181 4.9549275335196743 43.7167482054763639 S
atom 4.9549275335876137 9.9098550777974932 43.7167482054797958 S
atom 9.9098550742962264 9.9098550743924871 43.7167482054777636 S
atom 5.4544776479117614 2.4774640803955812 41.1597513758822160 S
atom 9.4103049706804658 2.4774634496370997 41.1597513757045732 S
atom 4.4553774264012107 7.4323909939191397 41.1597513757008571 S
atom 10.4094051850706126 7.4323916175558056 41.1597513758831823 S
atom 5.4748095031187933 2.4774671625067577 46.2735825652915835 S
atom 9.3899731154612365 2.4774603675267883 46.2735825654251869 S
atom 4.4350455711816306 7.4323879118106895 46.2735825654266293 S
atom 10.4297370402782086 7.4323946996646617 46.2735825652910862 S
atom 2.4774634531952353 4.4553774299636126 41.1597513757857882 S
atom 7.4323916211129033 5.4544776443534664 41.1597513757958851 S
atom 2.4774640768356027 10.4094051886300747 41.1597513757952669 S
atom 7.4323909903577521 9.4103049671200427 41.1597513757886375 S
atom 2.4774603710919143 4.4350455747482878 46.2735825653639807 S
atom 7.4323947032266107 5.4748094995666783 46.2735825653537844 S
atom 2.4774671589471402 10.4297370438428914 46.2735825653526547 S
atom 7.4323879082557163 9.3899731119066452 46.2735825653642010 S
atom 2.4774637685784588 2.4774637685756513 48.7959822838084278 Ba
atom 7.4323913092508267 2.4774637650182623 48.7959822838075894 Ba
atom 2.4774637649711209 7.4323913092971940 48.7959822838081649 Ba
atom 7.4323913057387685 7.4323913057346669 48.7959822838087689 Ba
atom 2.4774637685538314 2.4774637685778029 53.6979659004391010 Ba
atom 7.4323913092888363 2.4774637650173981 53.6979659004414103 Ba
atom 2.4774637650108784 7.4323913092947196 53.6979659004384970 Ba
atom 7.4323913057124331 7.4323913057358508 53.6979659004421990 Ba
atom 4.9549275371533037 4.9549275371606347 51.4231085160275327 Zr
atom 9.9098550778726775 4.9549275335956375 51.4231085160377646 Zr
atom 4.9549275335922403 9.9098550778730967 51.4231085160378143 Zr
atom 9.9098550743135654 9.9098550743167344 51.4231085160215358 Zr
atom 4.9549275371657924 4.9549275371115078 48.8248938354416993 S
atom 9.9098550778794685 4.9549275336451473 48.8248938354476181 S
atom 4.9549275336012224 9.9098550779219625 48.8248938354428503 S
atom 9.9098550743233584 9.9098550742693039 48.8248938354393616 S
atom 4.9549275371601960 4.9549275371793042 53.9671241433770135 S
atom 9.9098550778809660 4.9549275335763276 53.9671241433677338 S
atom 4.9549275336024943 9.9098550778550774 53.9671241433723168 S
atom 9.9098550743186173 9.9098550743377718 53.9671241433832449 S
atom 4.5307777717615352 2.4774700926842916 51.3321425132739293 S
atom 10.3340048468239445 2.4774574373516249 51.3321425132204752 S
atom 5.3790773025456158 7.4323849816285055 51.3321425132188693 S
atom 9.4857053089210908 7.4323976298446972 51.3321425132712719 S
atom 2.4774574409113059 5.3790773061095516 51.3321425132467297 S
atom 7.4323976333995816 4.5307777682044303 51.3321425132481863 S
atom 2.4774700891204615 9.4857053124835193 51.3321425132485416 S
atom 7.4323849780714095 10.3340048432676745 51.3321425132462892 S
