#=======================================================
# FHI-aims file: full_relax/full_relax_RP_1_00Mz_00Mz.in
# Created using the Atomic Simulation Environment (ASE)
# Fri Mar 14 11:16:57 2025
#=======================================================
lattice_vector 10.0137827556705261 0.0000000807142033 -0.0000000000000004 
lattice_vector 0.0000000807142033 10.0137827556705261 0.0000000000000004 
lattice_vector -0.0000000000000007 0.0000000000000006 15.6661189771972236 
atom -0.0000000000003613 -0.0000000000002788 0.2276090638397173 Ba
atom 5.0068913778350632 0.0000000403566777 0.2276090638397033 Ba
atom 0.0000000403568465 5.0068913778349513 0.2276090638396529 Ba
atom 5.0068914181919117 5.0068914181921897 0.2276090638396671 Ba
atom -0.0000000000003416 -0.0000000000002859 4.6680531165344918 Ba
atom 5.0068913778350757 0.0000000403566641 4.6680531165344883 Ba
atom 0.0000000403568950 5.0068913778349220 4.6680531165345593 Ba
atom 5.0068914181921578 5.0068914181919988 4.6680531165345522 Ba
atom 2.5034457090959981 2.5034457090957685 2.4478310901870439 Zr
atom 7.5103370869312434 2.5034457494529616 2.4478310901870257 Zr
atom 2.5034457494529407 7.5103370869310400 2.4478310901870617 Zr
atom 7.5103371272882660 7.5103371272881789 2.4478310901870910 Zr
atom 2.5034457090958138 2.5034457090958533 -0.1067287623159308 S
atom 7.5103370869311092 2.5034457494529598 -0.1067287623159134 S
atom 2.5034457494529652 7.5103370869309716 -0.1067287623159251 S
atom 7.5103371272883681 7.5103371272881638 -0.1067287623158843 S
atom 2.5034457090958799 2.5034457090958528 5.0023909426901145 S
atom 7.5103370869310737 2.5034457494530553 5.0023909426901119 S
atom 2.5034457494530038 7.5103370869310551 5.0023909426900888 S
atom 7.5103371272882837 7.5103371272882944 5.0023909426901305 S
atom 2.5034554097273141 0.0000003245150676 2.4478310901871851 S
atom 7.5103273459424802 -0.0000002438015879 2.4478310901872424 S
atom 2.5034360084642042 5.0068910936765230 2.4478310901873241 S
atom 7.5103468279198271 5.0068917427074782 2.4478310901872060 S
atom -0.0000002841586227 2.5034359681071758 2.4478310901872238 S
atom 5.0068917023504467 2.5034554500844299 2.4478310901872833 S
atom 0.0000003648722453 7.5103467875627317 2.4478310901872788 S
atom 5.0068911340337081 7.5103273862995561 2.4478310901871967 S
atom 2.5034457090957623 2.5034457090957942 8.0606685524381074 Ba
atom 7.5103370869309831 2.5034457494529225 8.0606685524380897 Ba
atom 2.5034457494528923 7.5103370869309787 8.0606685524380968 Ba
atom 7.5103371272882420 7.5103371272881665 8.0606685524381714 Ba
atom 2.5034457090956619 2.5034457090957893 12.5011126051330432 Ba
atom 7.5103370869310302 2.5034457494529025 12.5011126051330628 Ba
atom 2.5034457494528892 7.5103370869312558 12.5011126051330255 Ba
atom 7.5103371272884241 7.5103371272881949 12.5011126051330592 Ba
atom 5.0068914181919215 5.0068914181920405 10.2808905787858187 Zr
atom 10.0137827960271828 5.0068914585490214 10.2808905787857867 Zr
atom 5.0068914585490818 10.0137827960272308 10.2808905787857778 Zr
atom 10.0137828363842853 10.0137828363842321 10.2808905787857441 Zr
atom 5.0068914181921249 5.0068914181920663 7.7263307262827441 S
atom 10.0137827960274706 5.0068914585492346 7.7263307262827468 S
atom 5.0068914585493447 10.0137827960270247 7.7263307262827388 S
atom 10.0137828363844381 10.0137828363842605 7.7263307262827308 S
atom 5.0068914181921320 5.0068914181920086 12.8354504312887787 S
atom 10.0137827960274421 5.0068914585491946 12.8354504312887787 S
atom 5.0068914585493562 10.0137827960270123 12.8354504312887947 S
atom 10.0137828363844541 10.0137828363842409 12.8354504312888107 S
atom 5.0068816772035678 2.5034454249374165 10.2808905787858027 S
atom 10.0137924966589651 2.5034460739682816 10.2808905787858222 S
atom 5.0069011591804022 7.5103374114464971 10.2808905787858116 S
atom 10.0137730953952993 7.5103368431297541 10.2808905787858400 S
atom 2.5034460336112301 5.0069011188232651 10.2808905787857832 S
atom 7.5103368027727146 5.0068817175606970 10.2808905787857761 S
atom 2.5034454652945413 10.0137730550381061 10.2808905787858027 S
atom 7.5103374518036361 10.0137925370160232 10.2808905787857920 S
