#=======================================================
# FHI-aims file: full_relax/full_relax_RP_7_00Mz_00Mz.in
# Created using the Atomic Simulation Environment (ASE)
# Mon Mar 24 15:34:59 2025
#=======================================================
lattice_vector 9.9090697676224480 0.0000000081759370 -0.0000000000000124 
lattice_vector 0.0000000081759370 9.9090697676224480 -0.0000000000000147 
lattice_vector -0.0000000000000913 -0.0000000000001090 77.3782672968914937 
atom 0.0000000000000242 -0.0000000000007766 0.1630709632189144 Ba
atom 4.9545348838101528 0.0000000040883047 0.1630709632179337 Ba
atom 0.0000000040868584 4.9545348838114256 0.1630709632181661 Ba
atom 4.9545348878992481 4.9545348878984212 0.1630709632181078 Ba
atom -0.0000000000004120 0.0000000000025795 5.0660072495286617 Ba
atom 4.9545348838144587 0.0000000040868237 5.0660072495285284 Ba
atom 0.0000000040918000 4.9545348838100969 5.0660072495283881 Ba
atom 4.9545348878988111 4.9545348879016471 5.0660072495288153 Ba
atom 2.4772674439485467 2.4772674439486746 2.4366410911327767 Zr
atom 7.4318023277599865 2.4772674480366144 2.4366410911320591 Zr
atom 2.4772674480366863 7.4318023277594794 2.4366410911322016 Zr
atom 7.4318023318479867 7.4318023318478597 2.4366410911326315 Zr
atom 2.4772674439483295 2.4772674439470439 7.5750415867151242 Zr
atom 7.4318023277585015 2.4772674480364589 7.5750415867139704 Zr
atom 2.4772674480353500 7.4318023277597893 7.5750415867143568 Zr
atom 7.4318023318476980 7.4318023318464839 7.5750415867153409 Zr
atom 2.4772674439493385 2.4772674439471896 -0.1064661591385285 S
atom 7.4318023277581577 2.4772674480372099 -0.1064661591387073 S
atom 2.4772674480345236 7.4318023277601402 -0.1064661591386846 S
atom 7.4318023318490871 7.4318023318460416 -0.1064661591386322 S
atom 2.4772674439438656 2.4772674439518356 5.0367690645382686 S
atom 7.4318023277624388 2.4772674480316597 5.0367690645378618 S
atom 2.4772674480391714 7.4318023277550003 5.0367690645380829 S
atom 7.4318023318431514 7.4318023318510544 5.0367690645383689 S
atom 2.0528483709212120 0.0000032504223177 2.5296096187451611 S
atom 7.8562213966996870 -0.0000032422488166 2.5296096187416359 S
atom 2.9016865169764769 4.9545316374743864 2.5296096187417083 S
atom 7.0073832588206040 4.9545381383216469 2.5296096187446477 S
atom 2.9977459266953992 -0.0000005070952854 7.5898645913709721 S
atom 6.9113238409260660 0.0000005152683930 7.5898645913863430 S
atom 1.9567889612027640 4.9545353949916286 7.5898645913857088 S
atom 7.9522808145936850 4.9545343808038957 7.5898645913713567 S
atom -0.0000032463367847 2.9016865128887788 2.5296096187413841 S
atom 4.9545381342338004 2.0528483750091593 2.5296096187452224 S
atom 0.0000032545105250 7.0073832547322370 2.5296096187448747 S
atom 4.9545316415623866 7.8562214007866888 2.5296096187412345 S
atom 0.0000005111803281 1.9567889571145161 7.5898645913845160 S
atom 4.9545343767158530 2.9977459307829095 7.5898645913729181 S
atom -0.0000005030073371 7.9522808105060907 7.5898645913730531 S
atom 4.9545353990795755 6.9113238450143877 7.5898645913848712 S
atom -0.0000000000123653 -0.0000000000082455 10.1543301530610908 Ba
atom 4.9545348838005046 0.0000000040775870 10.1543301530611672 Ba
atom 0.0000000040775640 4.9545348838010668 10.1543301530610819 Ba
atom 4.9545348878868314 4.9545348878903503 10.1543301530610925 Ba
atom 0.0000000000165036 0.0000000000093661 15.2623115616084917 Ba
atom 4.9545348838247669 0.0000000040998602 15.2623115616075626 Ba
atom 0.0000000041013998 4.9545348838231558 15.2623115616080334 Ba
atom 4.9545348879160853 4.9545348879086646 15.2623115616080991 Ba
atom 2.4772674439489157 2.4772674439492168 12.6972983194818969 Zr
atom 7.4318023277606988 2.4772674480365411 12.6972983194808240 Zr
atom 2.4772674480373333 7.4318023277596978 12.6972983194809341 Zr
atom 7.4318023318482256 7.4318023318483624 12.6972983194814670 Zr
atom 2.4772674439483438 2.4772674439481888 17.8173641802149874 Zr
atom 7.4318023277594198 2.4772674480365451 17.8173641802150122 Zr
atom 2.4772674480359904 7.4318023277596081 17.8173641802140921 Zr
atom 7.4318023318474742 7.4318023318473578 17.8173641802142839 Zr
atom 2.4772674439576816 2.4772674439401223 10.1458092539638063 S
atom 7.4318023277539762 2.4772674480473937 10.1458092539635878 S
atom 2.4772674480306045 7.4318023277708836 10.1458092539636926 S
atom 7.4318023318568782 7.4318023318392337 10.1458092539641580 S
atom 2.4772674439351414 2.4772674439614550 15.2603005277774866 S
atom 7.4318023277679686 2.4772674480200236 15.2603005277772841 S
atom 2.4772674480443815 7.4318023277428811 15.2603005277769448 S
atom 7.4318023318346880 7.4318023318602995 15.2603005277772628 S
atom 2.9797936750028549 -0.0000000522827974 12.7078906625303372 S
atom 6.9292760926186467 0.0000000604570729 12.7078906625032957 S
atom 1.9747412128949158 4.9545349401803085 12.7078906625031802 S
atom 7.9343285629020368 4.9545348356163865 12.7078906625304207 S
atom 2.9814113104628679 0.0000000229902771 17.8173641801957707 S
atom 6.9276584571569568 -0.0000000148169356 17.8173641802315466 S
atom 1.9731235774338027 4.9545348649064431 17.8173641802317668 S
atom 7.9359461983622337 4.9545349108896746 17.8173641801963427 S
atom 0.0000000563694954 1.9747412088067837 12.7078906625062231 S
atom 4.9545348315285818 2.9797936790907045 12.7078906625263865 S
atom -0.0000000481946098 7.9343285588136752 12.7078906625268306 S
atom 4.9545349442686186 6.9292760967060696 12.7078906625070136 S
atom -0.0000000189049372 1.9731235733460362 17.8173641802276990 S
atom 4.9545349068015598 2.9814113145511865 17.8173641802021336 S
atom 0.0000000270782018 7.9359461942740559 17.8173641802013805 S
atom 4.9545348689943278 6.9276584612448140 17.8173641802266687 S
atom -0.0000000000216902 -0.0000000000127940 20.3724167988233020 Ba
atom 4.9545348837930945 0.0000000040722596 20.3724167988226093 Ba
atom 0.0000000040700417 4.9545348837954224 20.3724167988230747 Ba
atom 4.9545348878771955 4.9545348878860880 20.3724167988228828 Ba
atom 0.0000000000182175 0.0000000000085344 25.4803982073701185 Ba
atom 4.9545348838242553 0.0000000041004000 25.4803982073709570 Ba
atom 0.0000000041006461 4.9545348838235803 25.4803982073714437 Ba
atom 4.9545348879170756 4.9545348879076885 25.4803982073706941 Ba
atom 2.4772674439485183 2.4772674439485232 22.9374300409496250 Zr
atom 7.4318023277597192 2.4772674480364083 22.9374300409507548 Zr
atom 2.4772674480363004 7.4318023277596659 22.9374300409495966 Zr
atom 7.4318023318475168 7.4318023318477771 22.9374300409491774 Zr
atom 2.4772674439490592 2.4772674439504057 28.0596867737159847 Zr
atom 7.4318023277619574 2.4772674480362413 28.0596867737174556 Zr
atom 2.4772674480385946 7.4318023277595282 28.0596867737169156 Zr
atom 7.4318023318482505 7.4318023318496707 28.0596867737163898 Zr
atom 2.4772674439629592 2.4772674439340578 20.3744278326533319 S
atom 7.4318023277508001 2.4772674480552084 20.3744278326536161 S
atom 2.4772674480275190 7.4318023277783292 20.3744278326527919 S
atom 7.4318023318626585 7.4318023318329240 20.3744278326530122 S
atom 2.4772674439361237 2.4772674439605100 25.4889191064675167 S
atom 7.4318023277672278 2.4772674480206369 25.4889191064679217 S
atom 2.4772674480436478 7.4318023277440082 25.4889191064673462 S
atom 7.4318023318356738 7.4318023318596609 25.4889191064675593 S
atom 2.9797936750019920 -0.0000000522831815 22.9268376979312798 S
atom 6.9292760926176404 0.0000000604567725 22.9268376978964881 S
atom 1.9747412128944604 4.9545349401798440 22.9268376978961363 S
atom 7.9343285629005473 4.9545348356158359 22.9268376979320045 S
atom 2.9977459266957340 -0.0000005070947493 28.0448637690410649 S
atom 6.9113238409225302 0.0000005152690210 28.0448637690645128 S
atom 1.9567889611996758 4.9545353949924014 28.0448637690648006 S
atom 7.9522808145948050 4.9545343808045521 28.0448637690424967 S
atom 0.0000000563687640 1.9747412088066771 22.9268376979019379 S
atom 4.9545348315279298 2.9797936790895281 22.9268376979265689 S
atom -0.0000000481953109 7.9343285588129771 22.9268376979252473 S
atom 4.9545349442678353 6.9292760967056903 22.9268376979009787 S
atom 0.0000005111812428 1.9567889571115769 28.0448637690610738 S
atom 4.9545343767169054 2.9977459307836565 28.0448637690454241 S
atom -0.0000005030063931 7.9522808105074798 28.0448637690448095 S
atom 4.9545353990804371 6.9113238450107870 28.0448637690615463 S
atom -0.0000000000006569 -0.0000000000065220 30.5687211109017163 Ba
atom 4.9545348838027321 0.0000000040866113 30.5687211109005617 Ba
atom 0.0000000040790300 4.9545348838103651 30.5687211109024659 Ba
atom 4.9545348878979656 4.9545348878929367 30.5687211109018548 Ba
atom -0.0000000000051363 -0.0000000000019472 35.4716573972119988 Ba
atom 4.9545348838089964 0.0000000040839390 35.4716573972110325 Ba
atom 0.0000000040860585 4.9545348838074839 35.4716573972116151 Ba
atom 4.9545348878945195 4.9545348878973847 35.4716573972101941 Ba
atom 2.4772674439479307 2.4772674439477762 33.1980872692968418 Zr
atom 7.4318023277593106 2.4772674480357506 33.1980872692981208 Zr
atom 2.4772674480357071 7.4318023277592475 33.1980872692986040 Zr
atom 7.4318023318472317 7.4318023318474173 33.1980872692984974 Zr
atom 2.4772674439550721 2.4772674439411912 30.5979592958910942 S
atom 7.4318023277553946 2.4772674480449934 30.5979592958921103 S
atom 2.4772674480321868 7.4318023277688363 30.5979592958919184 S
atom 7.4318023318544029 7.4318023318407800 30.5979592958918332 S
atom 2.4772674439466509 2.4772674439519804 35.7411945195676353 S
atom 7.4318023277628491 2.4772674480333592 35.7411945195680971 S
atom 2.4772674480388495 7.4318023277567047 35.7411945195686087 S
atom 7.4318023318466242 7.4318023318513875 35.7411945195687650 S
atom 2.0528483709184502 0.0000032504223902 33.1051187416914061 S
atom 7.8562213967004721 -0.0000032422488591 33.1051187416824604 S
atom 2.9016865169767945 4.9545316374743011 33.1051187416818067 S
atom 7.0073832588187965 4.9545381383214862 33.1051187416911716 S
atom -0.0000032463367571 2.9016865128893845 33.1051187416834196 S
atom 4.9545381342337116 2.0528483750067399 33.1051187416893384 S
atom 0.0000032545103938 7.0073832547304171 33.1051187416907808 S
atom 4.9545316415622001 7.8562214007884323 33.1051187416841444 S
atom 2.4772674439484095 2.4772674439485338 38.8522046116652220 Ba
atom 7.4318023277609839 2.4772674480366002 38.8522046116650230 Ba
atom 2.4772674480370553 7.4318023277590068 38.8522046116658828 Ba
atom 7.4318023318474093 7.4318023318487807 38.8522046116679007 Ba
atom 2.4772674439505238 2.4772674439481142 43.7551408979751670 Ba
atom 7.4318023277590681 2.4772674480369932 43.7551408979753447 Ba
atom 2.4772674480359358 7.4318023277615852 43.7551408979748189 Ba
atom 7.4318023318502338 7.4318023318462716 43.7551408979755010 Ba
atom 4.9545348878977489 4.9545348878973332 41.1257747395777784 Zr
atom 9.9090697717089196 4.9545348919855412 41.1257747395791640 Zr
atom 4.9545348919855847 9.9090697717090030 41.1257747395780981 Zr
atom 9.9090697757969028 9.9090697757967696 41.1257747395792919 Zr
atom 4.9545348878968678 4.9545348878977036 46.2641752351602591 Zr
atom 9.9090697717085447 4.9545348919847099 46.2641752351601596 Zr
atom 4.9545348919852401 9.9090697717078537 46.2641752351613462 Zr
atom 9.9090697757960697 9.9090697757963806 46.2641752351621989 Zr
atom 4.9545348878963962 4.9545348878983049 38.5826674893080366 S
atom 9.9090697717095253 4.9545348919845482 38.5826674893088892 S
atom 4.9545348919858165 9.9090697717077241 38.5826674893082497 S
atom 9.9090697757957962 9.9090697757975388 38.5826674893086405 S
atom 4.9545348878994533 4.9545348878947006 43.7259027129843147 S
atom 9.9090697717063119 4.9545348919881569 43.7259027129849969 S
atom 4.9545348919834247 9.9090697717110210 43.7259027129850963 S
atom 9.9090697757987893 9.9090697757938422 43.7259027129849116 S
atom 5.3789539568395792 2.4772641976122571 41.2187432671879463 S
atom 9.4846506986800438 2.4772706984595776 41.2187432671908951 S
atom 4.5301158189567365 7.4318055781828800 41.2187432671922522 S
atom 10.3334888447379072 7.4317990855113996 41.2187432671884508 S
atom 4.4340564010621790 2.4772679551295851 46.2789982398280344 S
atom 10.4295482544562716 2.4772669409417492 46.2789982398188826 S
atom 5.4750133747338925 7.4318018206651750 46.2789982398203890 S
atom 9.3885912889622922 7.4318028430287972 46.2789982398275654 S
atom 2.4772706943716494 4.5301158148688430 41.2187432671916341 S
atom 7.4317990814237600 5.3789539609266290 41.2187432671900922 S
atom 2.4772642017005047 10.3334888406499878 41.2187432671892964 S
atom 7.4318055822709423 9.4846507027678246 41.2187432671924228 S
atom 2.4772669368540585 5.4750133706455886 46.2789982398204600 S
atom 7.4318028389407749 4.4340564051504607 46.2789982398266275 S
atom 2.4772679592177180 9.3885912848735575 46.2789982398282689 S
atom 7.4318018247531921 10.4295482585440897 46.2789982398218100 S
atom 2.4772674439433442 2.4772674439427247 48.8434638015052300 Ba
atom 7.4318023277526679 2.4772674480333023 48.8434638015068643 Ba
atom 2.4772674480295769 7.4318023277552312 48.8434638015071485 Ba
atom 7.4318023318417206 7.4318023318425093 48.8434638015084488 Ba
atom 2.4772674439530422 2.4772674439520692 53.9514452100542385 Ba
atom 7.4318023277656913 2.4772674480388521 53.9514452100537696 Ba
atom 2.4772674480425816 7.4318023277621510 53.9514452100554323 Ba
atom 7.4318023318519986 7.4318023318510340 53.9514452100560433 Ba
atom 4.9545348878973261 4.9545348878974096 51.3864319679284591 Zr
atom 9.9090697717087455 4.9545348919851016 51.3864319679278694 Zr
atom 4.9545348919853911 9.9090697717086424 51.3864319679296671 Zr
atom 9.9090697757966808 9.9090697757964570 51.3864319679299939 Zr
atom 4.9545348878978688 4.9545348878974362 56.5064978286619777 Zr
atom 9.9090697717087046 4.9545348919858574 56.5064978286623685 Zr
atom 4.9545348919855794 9.9090697717091487 56.5064978286632780 Zr
atom 9.9090697757973114 9.9090697757965991 56.5064978286629440 Zr
atom 4.9545348878955719 4.9545348879030424 48.8349429024103046 S
atom 9.9090697717125416 4.9545348919810843 48.8349429024097788 S
atom 4.9545348919897956 9.9090697717039742 48.8349429024116191 S
atom 9.9090697757944266 9.9090697758017079 48.8349429024110080 S
atom 4.9545348878997295 4.9545348878921329 53.9494341762241802 S
atom 9.9090697717049885 4.9545348919902628 53.9494341762237823 S
atom 4.9545348919816732 9.9090697717131899 53.9494341762252105 S
atom 9.9090697757991411 9.9090697757913322 53.9494341762247416 S
atom 4.4520086527560681 2.4772675003179292 51.3970243109585496 S
atom 10.4115960027625274 2.4772673957537412 51.3970243109686322 S
atom 5.4570611230400061 7.4318022754768975 51.3970243109721139 S
atom 9.4065435406551217 7.4318023882168429 51.3970243109581801 S
atom 4.4503910172957184 2.4772674250445261 56.5064978286684436 S
atom 10.4132136382232723 2.4772674710276732 56.5064978286586808 S
atom 5.4586787585004917 7.4318023507506847 56.5064978286586879 S
atom 9.4049259051941672 7.4318023129435318 56.5064978286687776 S
atom 2.4772673916660017 5.4570611189515335 51.3970243109664793 S
atom 7.4318023841291447 4.4520086568433985 51.3970243109594023 S
atom 2.4772675044060066 9.4065435365669057 51.3970243109619602 S
atom 7.4318022795652121 10.4115960068501110 51.3970243109673106 S
atom 2.4772674669396535 5.4586787544120003 56.5064978286600805 S
atom 7.4318023088558407 4.4503910213827451 56.5064978286651822 S
atom 2.4772674291324135 9.4049259011064379 56.5064978286663973 S
atom 7.4318023548391539 10.4132136423110655 56.5064978286594410 S
atom 2.4772674439443056 2.4772674439461229 59.0615504472695179 Ba
atom 7.4318023277546805 2.4772674480338002 59.0615504472688997 Ba
atom 2.4772674480318337 7.4318023277574934 59.0615504472708537 Ba
atom 7.4318023318431328 7.4318023318449917 59.0615504472696671 Ba
atom 2.4772674439497746 2.4772674439478317 64.1695318558148955 Ba
atom 7.4318023277606340 2.4772674480365247 64.1695318558141139 Ba
atom 2.4772674480380750 7.4318023277593426 64.1695318558152792 Ba
atom 7.4318023318485169 7.4318023318468232 64.1695318558141850 Ba
atom 4.9545348878972444 4.9545348878971724 61.6265636893942172 Zr
atom 9.9090697717089249 4.9545348919848218 61.6265636893960860 Zr
atom 4.9545348919852694 9.9090697717082783 61.6265636893965123 Zr
atom 9.9090697757966364 9.9090697757963486 61.6265636893960291 Zr
atom 4.9545348878976876 4.9545348878972577 66.7488204221595396 Zr
atom 9.9090697717091363 4.9545348919853707 66.7488204221601933 Zr
atom 4.9545348919853911 9.9090697717095431 66.7488204221612449 Zr
atom 9.9090697757970059 9.9090697757966133 66.7488204221608044 Zr
atom 4.9545348878962798 4.9545348879020166 59.0635614810998675 S
atom 9.9090697717114047 4.9545348919821786 59.0635614811002938 S
atom 4.9545348919877323 9.9090697717047984 59.0635614811002227 S
atom 9.9090697757955670 9.9090697758006510 59.0635614811001446 S
atom 4.9545348878978084 4.9545348878952220 64.1780527549119171 S
atom 9.9090697717081326 4.9545348919864214 64.1780527549123150 S
atom 4.9545348919842001 9.9090697717113798 64.1780527549125139 S
atom 9.9090697757974873 9.9090697757949862 64.1780527549126134 S
atom 4.4520086527556391 2.4772675003177325 61.6159713463570142 S
atom 10.4115960027631687 2.4772673957535010 61.6159713463640131 S
atom 5.4570611230379713 7.4318022754770059 61.6159713463638639 S
atom 9.4065435406559939 7.4318023882168829 61.6159713463576182 S
atom 4.4340564010646704 2.4772679551298364 66.7339974174978039 S
atom 10.4295482544540494 2.4772669409420387 66.7339974174954165 S
atom 5.4750133747303167 7.4318018206653749 66.7339974174948907 S
atom 9.3885912889641805 7.4318028430287706 66.7339974174961696 S
atom 2.4772673916660248 5.4570611189516134 61.6159713463632599 S
atom 7.4318023841289680 4.4520086568447264 61.6159713463600482 S
atom 2.4772675044059453 9.4065435365668151 61.6159713463597427 S
atom 7.4318022795649004 10.4115960068495355 61.6159713463618957 S
atom 2.4772669368542255 5.4750133706417969 66.7339974174952175 S
atom 7.4318028389413415 4.4340564051527886 66.7339974174944217 S
atom 2.4772679592178601 9.3885912848758508 66.7339974174949901 S
atom 7.4318018247536290 10.4295482585411143 66.7339974174956723 S
atom 2.4772674439470341 2.4772674439469147 69.2578547593468272 Ba
atom 7.4318023277584242 2.4772674480358767 69.2578547593452782 Ba
atom 2.4772674480361885 7.4318023277593914 69.2578547593453919 Ba
atom 7.4318023318463720 7.4318023318463959 69.2578547593449088 Ba
atom 2.4772674439485876 2.4772674439481497 74.1607910456562820 Ba
atom 7.4318023277597591 2.4772674480368244 74.1607910456586126 Ba
atom 2.4772674480363723 7.4318023277596534 74.1607910456600194 Ba
atom 7.4318023318473729 7.4318023318472495 74.1607910456581010 Ba
atom 4.9545348878977258 4.9545348878978741 71.8872209177430364 Zr
atom 9.9090697717090226 4.9545348919855554 71.8872209177443011 Zr
atom 4.9545348919858840 9.9090697717086531 71.8872209177450117 Zr
atom 9.9090697757965085 9.9090697757963824 71.8872209177452675 Zr
atom 4.9545348878976325 4.9545348878970934 69.2870929443367345 S
atom 9.9090697717089569 4.9545348919854728 69.2870929443372887 S
atom 4.9545348919850616 9.9090697717088769 69.2870929443371466 S
atom 9.9090697757980468 9.9090697757977040 69.2870929443375871 S
atom 4.9545348878969602 4.9545348878980402 74.4303281680140287 S
atom 9.9090697717093743 4.9545348919852845 74.4303281680150803 S
atom 4.9545348919867171 9.9090697717084488 74.4303281680145119 S
atom 9.9090697757958690 9.9090697757971657 74.4303281680152935 S
atom 5.3789539568364075 2.4772641976122682 71.7942523901327121 S
atom 9.4846506986827457 2.4772706984595465 71.7942523901353695 S
atom 4.5301158189584205 7.4318055781832193 71.7942523901317458 S
atom 10.3334888447347897 7.4317990855117015 71.7942523901364922 S
atom 2.4772706943716956 4.5301158148720004 71.7942523901322005 S
atom 7.4317990814237618 5.3789539609246546 71.7942523901326410 S
atom 2.4772642017005491 10.3334888406473429 71.7942523901328684 S
atom 7.4318055822708891 9.4846507027697378 71.7942523901302252 S
