#=======================================================
# FHI-aims file: full_relax/full_relax_RP_2_Rx0Mz_0-Ry0.in
# Created using the Atomic Simulation Environment (ASE)
# Fri Mar 14 11:18:05 2025
#=======================================================
lattice_vector 10.1108148770991342 0.0000000000000009 -0.0000000000000001 
lattice_vector 0.0000000000000009 10.1108833121311026 -0.0000000000000002 
lattice_vector -0.0000000000000001 -0.0000000000000004 25.3660196054692371 
atom -0.1548056154023515 -0.0000000000003103 0.2814273556084282 Ba
atom 5.2102908689286913 -0.0000000000003124 0.2814110869972309 Ba
atom 0.1548834303791153 5.0554416560652635 0.2814110869972334 Ba
atom 4.9006018231471975 5.0554416560652342 0.2814273556084481 Ba
atom 0.0484502543092041 -0.0000000000002858 4.8780806933576750 Ba
atom 5.0070719244207051 -0.0000000000002835 4.8780806933576848 Ba
atom -0.0483355141288548 5.0554416560652315 4.8780806933576804 Ba
atom 5.1038576928587478 5.0554416560652236 4.8780806933576741 Ba
atom 2.5277494154676994 2.5154753587676049 2.3473074203233306 Zr
atom 7.5831568540172531 2.5399662972973411 2.3473074203233293 Zr
atom 2.5277494154676980 7.5954079533629102 2.3473074203233346 Zr
atom 7.5831568540172576 7.5709170148331451 2.3473074203233204 Zr
atom 2.5277494154677038 2.5154753587676097 7.4088539663920097 Zr
atom 7.5831568540172487 2.5399662972973469 7.4088539663920194 Zr
atom 2.5277494154676980 7.5954079533629084 7.4088539663920159 Zr
atom 7.5831568540172549 7.5709170148331300 7.4088539663920123 Zr
atom 2.5277289422484031 2.8831458954131315 -0.1399996659821825 S
atom 7.5831363807979910 2.1722957606517928 -0.1399996659821813 S
atom 2.5277289422484102 7.2277374167173880 -0.1399996659821625 S
atom 7.5831363807980008 7.9385875514786823 -0.1399996659821748 S
atom 2.5277509009569519 2.0900640838424693 4.8780806933576377 S
atom 7.5831583395065119 2.9653775722224931 4.8780806933576883 S
atom 2.5277509009569590 8.0208192282880582 4.8780806933576732 S
atom 7.5831583395065056 7.1455057399079784 4.8780806933576883 S
atom 2.5277465906682983 -0.0000000000003197 2.0402574610444528 S
atom 7.5831747294566885 -0.0000000000003029 2.8000782338583936 S
atom 2.5277672909071183 5.0554416560652813 2.8000782338583838 S
atom 7.5831540292178561 5.0554416560652236 2.0402574610444293 S
atom 2.5277465906682899 -0.0000000000003041 7.7159039256709150 S
atom 7.5831747294567018 -0.0000000000003324 6.9560831528569551 S
atom 2.5277672909071254 5.0554416560652564 6.9560831528569746 S
atom 7.5831540292178579 5.0554416560652617 7.7159039256709194 S
atom 0.0000447498392345 2.5277268183019888 2.4609327752717571 S
atom 5.0554521883887915 2.5277148377629617 2.4609327752717487 S
atom 0.0000447498392539 7.5831564938285148 2.4609327752717700 S
atom 5.0554521883887675 7.5831684743675281 2.4609327752717491 S
atom 0.0000447498392327 2.5277268183019892 7.2952286114435845 S
atom 5.0554521883887871 2.5277148377629564 7.2952286114435836 S
atom 0.0000447498392093 7.5831564938285014 7.2952286114435889 S
atom 5.0554521883888182 7.5831684743675263 7.2952286114435854 S
atom -0.1548056154023681 -0.0000000000003112 9.4747340311068982 Ba
atom 5.2102908689286878 -0.0000000000003051 9.4747502997180852 Ba
atom 0.1548834303791311 5.0554416560652582 9.4747502997180995 Ba
atom 4.9006018231472011 5.0554416560652369 9.4747340311068804 Ba
atom 2.5277289422484186 2.8831458954131390 9.8961610526975310 S
atom 7.5831363807979848 2.1722957606517888 9.8961610526975132 S
atom 2.5277289422484279 7.2277374167173623 9.8961610526974884 S
atom 7.5831363807979910 7.9385875514786823 9.8961610526974919 S
atom 2.5276548409390158 2.3728748278444320 12.9644271091283514 Ba
atom 7.5830622794886038 2.6825668282204864 12.9644271091283461 Ba
atom 2.5276548409390402 7.7380084842860342 12.9644271091283496 Ba
atom 7.5830622794886127 7.4283164839099625 12.9644271091283496 Ba
atom 2.5276915220451950 2.5761089200647662 17.5610904960922447 Ba
atom 7.5830989605947874 2.4793327360001731 17.5610904960922660 Ba
atom 2.5276915220451572 7.5347743920657289 17.5610904960922731 Ba
atom 7.5830989605947359 7.6315505761302616 17.5610904960922092 Ba
atom 5.0431320086666407 5.0554416560652378 15.0303339575924948 Zr
atom 10.1230200969609250 5.0554416560652351 15.0303300171587644 Zr
atom 5.0676126584113765 10.1108833121307882 15.0303300171587413 Zr
atom 10.0985394472162042 10.1108833121307651 15.0303339575924646 Zr
atom 5.0431320086666513 5.0554416560652342 20.0918470345920355 Zr
atom 10.1230200969609339 5.0554416560652351 20.0918509750257535 Zr
atom 5.0676126584113899 10.1108833121307971 20.0918509750257357 Zr
atom 10.0985394472162113 10.1108833121307615 20.0918470345920106 Zr
atom 5.4108019974128592 5.0554416560652120 12.5430264544653216 S
atom 9.7553498245273556 5.0554416560652147 12.5430243574663223 S
atom 4.6999423859777831 10.1108833121308237 12.5430243574663169 S
atom 10.4662094359624724 10.1108833121307544 12.5430264544652719 S
atom 4.6176968799023221 5.0554416560652511 17.5610904960922731 S
atom 10.5484659813424297 5.0554416560652369 17.5610904960922340 S
atom 5.4930585427929035 10.1108833121308024 17.5610904960921737 S
atom 9.6731043184518608 10.1108833121307207 17.5610904960922660 S
atom 5.0553334716969651 2.5277214713459899 15.1439558640926073 S
atom 10.1107409102465322 2.5277201847188953 15.1439558640926197 S
atom 5.0553334716969820 7.5831618407844665 15.1439558640925522 S
atom 10.1107409102465162 7.5831631274115283 15.1439558640925824 S
atom 5.0553334716969811 2.5277214713460405 19.9782251280919034 S
atom 10.1107409102465251 2.5277201847188691 19.9782251280919176 S
atom 5.0553334716969651 7.5831618407844399 19.9782251280919745 S
atom 10.1107409102465482 7.5831631274115656 19.9782251280919283 S
atom 2.5276551396556721 5.0554416560652315 14.7232364438495207 S
atom 7.5830679081875747 5.0554416560652182 15.4831067765545463 S
atom 2.5276604696380769 10.1108833121307811 15.4831067765545729 S
atom 7.5830625782051628 10.1108833121307935 14.7232364438494585 S
atom 2.5276551396556974 5.0554416560652564 20.3989445483350167 S
atom 7.5830679081875694 5.0554416560652573 19.6390742156299680 S
atom 2.5276604696380343 10.1108833121308326 19.6390742156299360 S
atom 7.5830625782052277 10.1108833121308024 20.3989445483350096 S
atom 2.5276548409390309 2.3728748278444387 22.1577538830562162 Ba
atom 7.5830622794885967 2.6825668282204580 22.1577538830562233 Ba
atom 2.5276548409390598 7.7380084842860510 22.1577538830561913 Ba
atom 7.5830622794886064 7.4283164839099953 22.1577538830561878 Ba
atom 5.4108019974128805 5.0554416560652218 22.5791545377191731 S
atom 9.7553498245273467 5.0554416560652218 22.5791566347182489 S
atom 4.6999423859778160 10.1108833121308326 22.5791566347182098 S
atom 10.4662094359624547 10.1108833121307722 22.5791545377191945 S
