#=======================================================
# FHI-aims file: full_relax/full_relax_RP_9_Rx0Mz_0-Ry0.in
# Created using the Atomic Simulation Environment (ASE)
# Mon Mar 24 17:44:00 2025
#=======================================================
lattice_vector 9.9692938739774704 0.0332305216414761 0.0019497948174864 
lattice_vector 0.0326621642394838 10.1405461205505087 0.0021273479800616 
lattice_vector 0.0187537140296449 0.0210491512340820 95.1107386920865281 
atom -0.0212159653116751 0.1381527258932358 0.2015022752526061 Ba
atom 5.0005674809196980 -0.1219919361618083 0.1930755110624313 Ba
atom 0.0322516260435889 4.9316658633062502 0.1931642876719858 Ba
atom 4.9797620538020393 5.2250410469890891 0.2035408467071714 Ba
atom -0.1701118341180506 -0.1431554000687294 4.8685049731993342 Ba
atom 4.8431733467872053 -0.1747233677396794 4.8868273694511251 Ba
atom -0.1251425080798826 4.8789344317151935 4.8869161460175627 Ba
atom 4.8308661849870438 4.9437329210198842 4.8705435445952903 Ba
atom 2.4931183908377905 2.5053424948116287 2.2685582780736806 Zr
atom 7.4588053685635503 2.5492221829517603 2.2685066021449050 Zr
atom 2.4904895136715051 7.6028799822933175 2.2685953787206006 Zr
atom 7.4940964099652581 7.5922308157933163 2.2705968494553037 Zr
atom 2.5160719200568806 2.5555188475810109 7.3140354981291420 Zr
atom 7.4905239848986742 2.5585744433461270 7.3100443079754180 Zr
atom 2.5222081300712822 7.6122322427645202 7.3101330845571937 Zr
atom 7.5170499391225505 7.6424071686396697 7.3160740695378887 Zr
atom 2.1783343428016750 2.5276797193375860 -0.2164359108571623 S
atom 7.7862910734190285 2.5375743004255593 -0.2150408273079483 S
atom 2.8179752185464553 7.5912320999002842 -0.2149520507414132 S
atom 7.1793123619123156 7.6145680404480780 -0.2143973394695475 S
atom 2.8956886026975019 2.3870840890537641 4.8302420053954256 S
atom 7.1374196003740487 2.7431395008026138 4.8308137330297596 S
atom 2.1691037454999083 7.7967973002690183 4.8309025096085465 S
atom 7.8966666218104722 7.4739724101593561 4.8322805767835915 S
atom 2.5603861379957387 -0.0155044106873797 2.2937741358984352 S
atom 7.3700939572974491 -0.0023904026487275 2.4809176575419709 S
atom 2.4017781024299212 5.0512673968025510 2.4810064341169533 S
atom 7.5613641571043173 5.0713839104084721 2.2958127072973138 S
atom 2.8494571117115699 0.0194713414266025 7.5697286068757759 S
atom 7.1451820613143253 0.0288243186897147 7.0878193864824279 S
atom 2.1768662064407698 5.0824821181137985 7.0879081630665768 S
atom 7.8504351308253604 5.1063596624971908 7.5717671782716760 S
atom -0.0063558230887516 2.3957895646999536 2.7217794513458036 S
atom 4.9802528405754130 2.5988172890927714 1.9965941564080860 S
atom 0.0119369857062697 7.6524750885590738 1.9966829329989240 S
atom 4.9946221960237045 7.4826778858191449 2.7238180227512139 S
atom 0.0167470394903330 2.2110008835304367 6.9540412429714671 S
atom 5.0050607342750810 2.9238719273228351 7.7107039514951259 S
atom 0.0367448794119462 7.9775297267883110 7.7107927280788831 S
atom 5.0177250585920845 7.2978892046391115 6.9560798143719511 S
atom 0.2624269809981724 0.1800212311035404 9.8352483889185365 Ba
atom 5.1629050499668834 0.2944597021140830 9.8265648165226267 Ba
atom 0.1945891950963768 5.3481175015641860 9.8266535930996870 Ba
atom 5.2634050001046804 5.2669095521901959 9.8372869603162503 Ba
atom -0.2563985710023485 -0.1646058917999445 14.8139969776559806 Ba
atom 4.8154264021931077 -0.2488120939594574 14.8110837034113842 Ba
atom -0.1528894526751482 4.8048457055031051 14.8111724799947595 Ba
atom 4.7445794481090244 4.9222824293038094 14.8160355490486779 Ba
atom 2.5065978665629056 2.5557124788097290 12.3094210743965657 Zr
atom 7.4958308457346519 2.5718387748212357 12.3074935332477207 Zr
atom 2.5275149909238235 7.6254965742545018 12.3075823098408836 Zr
atom 7.5075758856138357 7.6426007998842698 12.3114596458003316 Zr
atom 2.5057457088648607 2.5476339092621227 17.3018130069367899 Zr
atom 7.4891720421492112 2.5648284634754623 17.3015673180888498 Zr
atom 2.5208561872956365 7.6184862629244217 17.3016560946683136 Zr
atom 7.5067237279558761 7.6345222303511262 17.3038515783422220 Zr
atom 2.1182979463638172 2.7830584316592550 9.8213043243652951 S
atom 7.8108644186861236 2.2655225185031718 9.8205543259048032 S
atom 2.8425485638064556 7.3191803179684563 9.8206431024895835 S
atom 7.1192759654783497 7.8699467527667526 9.8233428957729636 S
atom 2.8913965205703844 2.2997160928885672 14.8099112076097938 S
atom 7.1787906955556284 2.8875482104729016 14.8100814582561391 S
atom 2.2104748406791419 7.9412060099338362 14.8101702348434703 S
atom 7.8923745396871139 7.3866044139842773 14.8119497790090637 S
atom 2.8474946775997449 0.0192922721911041 12.0278107847274658 S
atom 7.1360663950499577 0.0303102586823178 12.6093218566038594 S
atom 2.1677505401718502 5.0839680581189874 12.6094106331854441 S
atom 7.8484726967166054 5.1061805932695767 12.0298493561284925 S
atom 2.8446005128964931 0.0165143025446017 17.6035832275194473 S
atom 7.1347466186016524 0.0278427807686636 17.0063191696109648 S
atom 2.1664307637297164 5.0815005802129658 17.0064079461937290 S
atom 7.8455785320079716 5.1034026236294423 17.6056217989178130 S
atom 0.0134330310405741 2.1869125757695294 12.6920336765854085 S
atom 5.0017008073431617 2.9104688710153339 11.9535121369137887 S
atom 0.0333849524757711 7.9641266704798372 11.9536009134866799 S
atom 5.0144110501467392 7.2738008968739933 12.6940722479778572 S
atom 0.0115157709503035 2.1884348830717326 16.9375167745099482 S
atom 4.9995643349221517 2.9112901091362042 17.6750097139017015 S
atom 0.0312484800604833 7.9649479085964767 17.6750984904838369 S
atom 5.0124937900506596 7.2753232041691343 16.9395553459076034 S
atom 0.2685309096975487 0.1754643648229368 19.7981570410915495 Ba
atom 5.1648953251691267 0.2948903763262124 19.7983732509699486 Ba
atom 0.1965794702982114 5.3485481757912270 19.7984620275552423 Ba
atom 5.2695089288088806 5.2623526859331138 19.8001956124815308 Ba
atom -0.2597332123899928 -0.1655902278112717 24.7850022896529438 Ba
atom 4.8131804207803945 -0.2517829319756790 24.7867577344977406 Ba
atom -0.1551354340884303 4.8018748674796319 24.7868465110778544 Ba
atom 4.7412448067189974 4.9212980932932382 24.7870408610528692 Ba
atom 2.5048796928637831 2.5484103835714484 22.2926007075809842 Zr
atom 7.4895318844661043 2.5650242435452042 22.2935761863629196 Zr
atom 2.5212160295651285 7.6186820430050988 22.2936649629379211 Zr
atom 7.5058577120022383 7.6352987046731835 22.2946392789691181 Zr
atom 2.5040273968862321 2.5491055098436002 27.2833858380203189 Zr
atom 7.4898870047508774 2.5651401394122235 27.2855859655112027 Zr
atom 2.5215711498619973 7.6187979388703813 27.2856747420790420 Zr
atom 7.5050054160148170 7.6359938309410653 27.2854244094083640 Zr
atom 2.1202897584840548 2.8020751932075911 19.7984260508050802 S
atom 7.8016117807071614 2.2405811803555480 19.7991904409930441 S
atom 2.8332959258392010 7.2942389798076821 19.7992792175784729 S
atom 7.1212677775912576 7.8889635142990748 19.8004646222099865 S
atom 2.8894749308788747 2.2946893135771935 24.7867712693404165 S
atom 7.1774547265069559 2.8894186545270051 24.7879662337429778 S
atom 2.2091388716437468 7.9430764539843652 24.7880550103226085 S
atom 7.8904529499844092 7.3815776346739188 24.7888098407367004 S
atom 2.8441731420077354 0.0160040041567317 21.9917740513044038 S
atom 7.1338999370564196 0.0271252439908034 22.5933426400451864 S
atom 2.1655840821940755 5.0807830434413113 22.5934314166238792 S
atom 7.8451511611118034 5.1028923252472467 21.9938126227018813 S
atom 2.8433367741585402 0.0152531476286884 27.5787949547704976 S
atom 7.1334883857540614 0.0265814359757463 26.9815356603659104 S
atom 2.1651725308901013 5.0802392354244814 26.9816244369489091 S
atom 7.8443147932636492 5.1021414687171207 27.5808335261699682 S
atom 0.0106975032277709 2.1866720694384743 22.6602742132417454 S
atom 4.9990655294360433 2.9101033043002897 21.9249288167850906 S
atom 0.0307496745729317 7.9637611037550045 21.9250175933662597 S
atom 5.0116755223315028 7.2735603905283686 22.6623127846465664 S
atom 0.0102059565091915 2.1854664323709945 26.9101877538836476 S
atom 4.9982523749125649 2.9083112720040698 27.6476856202498880 S
atom 0.0299365200499295 7.9619690714580784 27.6477743968329470 S
atom 5.0111839756133332 7.2723547534632855 26.9122263252813561 S
atom 0.2651757848421752 0.1744718994097156 29.7691554744743598 Ba
atom 5.1626518834879267 0.2919012932356962 29.7740284497589407 Ba
atom 0.1943360286152017 5.3455590926884806 29.7741172263388734 Ba
atom 5.2661538039518598 5.2613602205016639 29.7711940458787012 Ba
atom -0.2536300022118204 -0.1701445123481901 34.7478962267072262 Ba
atom 4.8151794346934444 -0.2513404009096130 34.7585318455706300 Ba
atom -0.1531364201768924 4.8023173985432503 34.7586206221548721 Ba
atom 4.7473480168982389 4.9167438087400468 34.7499347981091802 Ba
atom 2.5031602711263261 2.5410365798399051 32.2757703119405690 Zr
atom 7.4832176724442814 2.5581446027643358 32.2796454357189830 Zr
atom 2.5149018175793945 7.6118024022106470 32.2797342123039570 Zr
atom 7.5041382902292906 7.6279249009273240 32.2778088833389845 Zr
atom 2.4936940141957376 2.5412429795516775 37.2711545364758479 Zr
atom 7.4885316316829327 2.5714186611942460 37.2770915357919250 Zr
atom 2.5202157768250055 7.6250764606179740 37.2771803123706320 Zr
atom 7.4946720332921579 7.6281313006163964 37.2731931078721246 Zr
atom 2.1183579268657864 2.7970393922530778 29.7752867714413014 S
atom 7.8002754342660809 2.2424554705542050 29.7770663304745469 S
atom 2.8319595793990699 7.2961132700109905 29.7771551070607217 S
atom 7.1193359459718426 7.8839277133496317 29.7773253428413049 S
atom 2.8914691598742772 2.3137023863974391 34.7638858317147026 S
atom 7.1681891008471874 2.8644747555894305 34.7665875587480713 S
atom 2.1998732459769195 7.9181325550464949 34.7666763353229058 S
atom 7.8924471789830113 7.4005907074940307 34.7659244031120238 S
atom 2.8419958645933696 0.0127921466673559 31.9757803917325667 S
atom 7.1305985317533525 0.0238069879569827 32.5572827331568320 S
atom 2.1622826768855377 5.0774647874161305 32.5573715097373295 S
atom 7.8429738837021032 5.0996804677661132 31.9778189631324672 S
atom 2.8328914322679264 0.0142847430354970 37.4972802100482028 S
atom 7.1286378621883513 0.0236357807542650 37.0153763846915425 S
atom 2.1603220073199614 5.0772935802044046 37.0154651612723953 S
atom 7.8338694513748601 5.1011730641307036 37.4993187814420565 S
atom 0.0080576945177925 2.1863203009376986 32.6316994508673375 S
atom 4.9963252130532823 2.9098419257570041 31.8931507087188635 S
atom 0.0280093581923506 7.9634997252123352 31.8932394853027859 S
atom 5.0090357136175028 7.2732086220387373 32.6337380222629676 S
atom 0.0047060662224987 2.1729098967806717 36.8744762648443682 S
atom 4.9930169248132970 2.8857618222227623 37.6311604132590318 S
atom 0.0247010699475072 7.9394196216851247 37.6312491898413128 S
atom 5.0056840853274620 7.2597982178857974 36.8765148362456330 S
atom 0.1789147303413968 0.1530214138006705 39.7146512293017437 Ba
atom 5.1349170886366178 0.2178266269141776 39.6982591693597584 Ba
atom 0.1666012337664458 5.2714844263631537 39.6983479459551347 Ba
atom 5.1798927494527449 5.2399097348900661 39.7166898007037119 Ba
atom 0.0299978699342571 -0.1283026285588376 44.3816593680090037 Ba
atom 4.9775071041848760 0.1650657028914095 44.3920313246007012 Ba
atom 0.0091912493217663 5.2187235023476468 44.3921201011296134 Ba
atom 5.0309758890438347 4.9585856925495282 44.3836979393839215 Ba
atom 2.5166467151772203 2.5913940709712002 42.3166328893667654 Zr
atom 7.5202432638565577 2.5807468672826719 42.3186346890782232 Zr
atom 2.5519274089731758 7.6344046666302123 42.3187234656794402 Zr
atom 7.5176247343014060 7.6782823919544141 42.3186714607869590 Zr
atom 2.1140733055572505 2.7096723183833458 39.7549485983188902 S
atom 7.8416398966065364 2.3868388347215275 39.7563229169355310 S
atom 2.8733240417349197 7.4404966341924377 39.7564116935218905 S
atom 7.1150513246661271 7.7965606394954339 39.7569871697163819 S
atom 2.8314225004678306 2.5690559082589681 44.8016279543556948 S
atom 7.1927785087130767 2.5924094832846052 44.8021845370795901 S
atom 2.2244626538435974 7.6460672827551077 44.8022733136526981 S
atom 7.8324005195764999 7.6559442293642066 44.8036665257442834 S
atom 2.6079992519163735 0.0454712320671454 42.1041789481543560 S
atom 7.4176843778620984 0.0585856015092790 42.2913479828401151 S
atom 2.4493685229931086 5.1122434009506250 42.2914367594274907 S
atom 7.6089772710224528 5.1323595531578912 42.1062175195608717 S
atom 0.0295105691406758 2.4978953451366945 42.5886015691376585 S
atom 5.0161186783545615 2.7009640355517472 41.8634206094444252 S
atom 0.0478028234947314 7.7546218350298854 41.8635093860185847 S
atom 5.0304885882401313 7.5847836662452046 42.5906401405357187 S
atom 2.5199598111986261 2.4091328251921262 47.8979881172168476 Ba
atom 7.5017103188381427 2.7347929067459109 47.8988005272011392 Ba
atom 2.5333944639662516 7.7884507062260440 47.8988893037794057 Ba
atom 7.5209378303089380 7.4960211462801460 47.9000266886240951 Ba
atom 2.5067311496033939 2.5816113521416892 52.5739068307279283 Ba
atom 7.5143763739150851 2.5589579808762917 52.5745541091592088 Ba
atom 2.5460605190438512 7.6126157803709233 52.5746428857150860 Ba
atom 7.5077091687199022 7.6684996731747370 52.5759454020891255 Ba
atom 5.0035810991082066 5.1102369862593839 49.9625073560649611 Zr
atom 10.0187736195981874 5.1189866212918762 49.9664327193390108 Zr
atom 5.0504577647735251 10.1726444206423814 49.9665214958888342 Zr
atom 10.0045591181669451 10.1971253072502321 49.9645459274735444 Zr
atom 5.0166393862206933 5.1068227239043171 54.9748545941648814 Zr
atom 10.0036887774982954 5.1204118869997064 54.9771588937247273 Zr
atom 5.0353729226016348 10.1740696865503075 54.9772476703044504 Zr
atom 10.0176174053566491 10.1937110450973574 54.9768931655484252 Zr
atom 5.3381642127507707 5.1786830779794402 47.4784387647768327 S
atom 9.6852897945285523 5.0510588801104035 47.4822027351779354 S
atom 4.7169739396432293 10.1047166796236922 47.4822915116890414 S
atom 10.3391422318634465 10.2655713991357693 47.4804773361774082 S
atom 4.5385443817313655 5.0509979488728884 52.5030444091613688 S
atom 10.4831598307858691 5.1772095408159426 52.5049018086396302 S
atom 5.5148439759180432 10.2308673401693611 52.5049905852055616 S
atom 9.5395224008413617 10.1378862698747483 52.5050829805652128 S
atom 5.0103368406855600 2.5712425727476509 50.0358739207292871 S
atom 9.9959124169237672 2.5876032142442593 50.1560769365398187 S
atom 5.0275965620496654 7.6412610137098325 50.1561657130594085 S
atom 10.0113148597979542 7.6581308938575265 50.0379124920589504 S
atom 5.0085829652357479 2.5701646958503508 55.0565193961337656 S
atom 9.9955402554044994 2.5868673099940143 54.9242524241681238 S
atom 5.0272244005398328 7.6405251094430051 54.9243412008693568 S
atom 10.0095609843399576 7.6570530169420774 55.0585579676682215 S
atom 2.5266061927451045 5.0986005255771234 49.6213428329077644 S
atom 7.5110027120891072 5.1140880353921094 50.4398110402769575 S
atom 2.5426868572345773 10.1677458348714325 50.4398998168746147 S
atom 7.5275842118339016 10.1854888466963924 49.6233814043139176 S
atom 2.5254698700626612 5.0980004030810253 55.4784526657538493 S
atom 7.5104164084765070 5.1127493249931879 54.4881403003030584 S
atom 2.5421005535968471 10.1664071244325189 54.4882290768888566 S
atom 7.5264478891796021 10.1848887241378687 55.4804912371589865 S
atom 2.5423431159683627 2.5595372702285721 57.4755151081822149 Ba
atom 7.4755488840277851 2.5805526001608436 57.4768863160390140 Ba
atom 2.5072330291737073 7.6342103996668476 57.4769750926080434 Ba
atom 7.5433211350582221 7.6464255912256247 57.4775536795609199 Ba
atom 2.4842470351777424 2.5628155317033525 62.4198059030426009 Ba
atom 7.5321767876576322 2.5745045858982283 62.4207669597530312 Ba
atom 2.5638609328164841 7.6281623854389009 62.4208557363546959 Ba
atom 7.4852250542558707 7.6497038527099139 62.4218444744543604 Ba
atom 5.0184688163521178 5.1034628336437846 59.9343803781382434 Zr
atom 9.9997881925529377 5.1221259123013079 59.9359665783692606 Zr
atom 5.0314723376176538 10.1757837119981502 59.9360553549743287 Zr
atom 10.0194468355381563 10.1903511549840076 59.9364189495323458 Zr
atom 5.0154473123932526 5.1039809873749791 64.8922275619961795 Zr
atom 10.0006690718521156 5.1194605768577217 64.8934474066641087 Zr
atom 5.0323532169025977 10.1731183764302084 64.8935361832590729 Zr
atom 10.0164253315828340 10.1908693085900115 64.8942661334176734 Zr
atom 5.5328959081132778 5.1703584453694935 57.4608286015423246 S
atom 9.4862173099222797 5.0560374262940675 57.4619354862635134 S
atom 4.5179014550586842 10.1096952258601114 57.4620242628418509 S
atom 10.5338739272101289 10.2572467665762659 57.4628671729372655 S
atom 4.5013009105482586 5.0289921408745473 62.4153980609615360 S
atom 10.5159687074590167 5.1954540930851083 62.4167787547713360 S
atom 5.5476528526105104 10.2491118923252067 62.4168675313581787 S
atom 9.5022789296472521 10.1158804617536369 62.4174366323793208 S
atom 5.0084080847941044 2.5693015860396065 59.8595934603641950 S
atom 9.9934083447717512 2.5859107797592880 60.0225332435097485 S
atom 5.0250924899147256 7.6395685792049894 60.0226220199176481 S
atom 10.0093861038919449 7.6561899071269206 59.8616320315986243 S
atom 5.0072060384750978 2.5682505372627253 64.9833315828233538 S
atom 9.9926435654734878 2.5849189577343630 64.8041167061921328 S
atom 5.0243277106205113 7.6385767571918066 64.8042054829671486 S
atom 10.0081840575673446 7.6551388583621049 64.9853701544161169 S
atom 2.5245073832981220 5.0964033957942538 59.4372693056199637 S
atom 7.5089908060924113 5.1124149541215829 60.4481597305033844 S
atom 2.5406749512039823 10.1660727535389697 60.4482485070702964 S
atom 7.5254854024281830 10.1832917168388395 59.4393078770109256 S
atom 2.5233293235157856 5.0953488148947272 65.3995662762094838 S
atom 7.5082021879802570 5.1114954319180432 64.3895424434718251 S
atom 2.5398863330742487 10.1651532313490289 64.3896312200577370 S
atom 7.5243073426608147 10.1822371359593014 65.4016048476115230 S
atom 2.5491395455002692 2.5581211671499444 67.3706644778092567 Ba
atom 7.4647926195712682 2.5776693589114306 67.3717066494991599 Ba
atom 2.4964767647454087 7.6313271584769398 67.3717954261045406 Ba
atom 7.5501175645677803 7.6450094881631729 67.3727030492418208 Ba
atom 2.4793715854475602 2.5596749677802033 72.3252380960767027 Ba
atom 7.5330135242252387 2.5733595434449255 72.3261585592981788 Ba
atom 2.5646976693869150 7.6270173430211710 72.3262473358879276 Ba
atom 7.4803496045296267 7.6465632888046153 72.3272766674879790 Ba
atom 5.0147441730190216 5.1023418833290686 69.8489778992769317 Zr
atom 9.9993923919375440 5.1189570311877111 69.8499558053485288 Zr
atom 5.0310765370082420 10.1726148305284596 69.8500445819042852 Zr
atom 10.0157221921776038 10.1892302043129348 69.8510164707046357 Zr
atom 5.0140519437902800 5.1007036832504999 74.8057338566063095 Zr
atom 9.9981209789644367 5.1184551817399404 74.8064693338457829 Zr
atom 5.0298051240639214 10.1721129810010442 74.8065581104100090 Zr
atom 10.0150299629321164 10.1875920041553094 74.8077724280098124 Zr
atom 5.5304659879298530 5.1828008984260467 67.3713271503217186 S
atom 9.4846179099710604 5.0395776932181855 67.3721126585515293 S
atom 4.5163020551143580 10.0932354928711856 67.3722014351361054 S
atom 10.5314440070207578 10.2696892197207283 67.3733657217353112 S
atom 4.4990326806034071 5.0218823797271179 72.3266293218482446 S
atom 10.5141671805591663 5.1983366631133983 72.3277946200216206 S
atom 5.5458513257002382 10.2519944623993311 72.3278833966080299 S
atom 9.5000106997067366 10.1087707006534444 72.3286678932410183 S
atom 5.0063147808298343 2.5672230424641103 69.7552248296521213 S
atom 9.9914856214598018 2.5838021966454519 69.9426342111293735 S
atom 5.0231697665993087 7.6374599961008691 69.9427229875059595 S
atom 10.0072927999282548 7.6541113635607534 69.7572634008370613 S
atom 5.0051865811685081 2.5661076045310960 74.8937522354086553 S
atom 9.9906004863482387 2.5827765488505268 74.7145354093630232 S
atom 5.0222846314846867 7.6364343483096073 74.7146241861450591 S
atom 10.0061646002714237 7.6529959256307736 74.8957908070038769 S
atom 2.5225116720957859 5.0944026754615939 69.3424105005397990 S
atom 7.5069775749604659 5.1102786551700143 70.3555428861512127 S
atom 2.5386617200661914 10.1639364546604476 70.3556316627282854 S
atom 7.5234896912297859 10.1812909965671494 69.3444490719271442 S
atom 2.5212981818536013 5.0931764771957173 75.3084176769553011 S
atom 7.5061701906031750 5.1093474428054995 74.2983954820097239 S
atom 2.5378543357301466 10.1630052423120905 74.2984842586000127 S
atom 7.5222762009661466 10.1800647983213981 75.3104562483649289 S
atom 2.5442882617846347 2.5549831809225814 77.2761253710128528 Ba
atom 7.4656511403926960 2.5765120695641373 77.2771083806054691 Ba
atom 2.4973352855266393 7.6301698691109641 77.2771971571666256 Ba
atom 7.5452662808867714 7.6418715019351708 77.2781639423897388 Ba
atom 2.4861916616852731 2.5582674811638726 82.2204433380749293 Ba
atom 7.5222733670121942 2.5704848293980032 82.2210011113605646 Ba
atom 2.5539575121529619 7.6241426289047620 82.2210898879312282 Ba
atom 7.4871696807809736 7.6451558021618453 82.2224819094681010 Ba
atom 5.0110457112581388 5.1012257269923014 79.7635972341511348 Zr
atom 9.9990206768236174 5.1157920742521448 79.7639649894851885 Zr
atom 5.0307048219281585 10.1694498736982837 79.7640537660558522 Zr
atom 10.0120237303938531 10.1881140480801839 79.7656358055038055 Zr
atom 5.0128688462425677 5.0978758803780666 84.7231329476484660 Zr
atom 9.9951141033060864 5.1175185447085934 84.7227794533028629 Zr
atom 5.0267982484214180 10.1711763442392140 84.7228682299155054 Zr
atom 10.0138468653631207 10.1847642015506299 84.7251715190293453 Zr
atom 5.5281980689162076 5.1756956244632715 77.2825700620096541 S
atom 9.4828346912151993 5.0424613588523508 77.2831436005996295 S
atom 4.5145188363488398 10.0961191585054664 77.2832323771842056 S
atom 10.5291760880129779 10.2625839457590793 77.2846086333797331 S
atom 4.4966183612817421 5.0343368674795643 82.2371546567174931 S
atom 10.5125904818201175 5.1818788550133519 82.2379997103461022 S
atom 5.5442746269533689 10.2355366543170891 82.2380884869445623 S
atom 9.4975963803823298 10.1212251884247610 82.2391932280865063 S
atom 5.0044429064605298 2.5651203130713736 79.6753594953878661 S
atom 9.9893987766444621 2.5817301929662930 79.8382996622616190 S
atom 5.0210829217824502 7.6353879924143655 79.8383884386671099 S
atom 10.0054209255629321 7.6520086341613194 79.6773980666242068 S
atom 5.0022741387125533 2.5641699842890264 84.7736411788267077 S
atom 9.9892492321722752 2.5808729464152820 84.6413892309702334 S
atom 5.0209333773050684 7.6345307458669014 84.6414780076718500 S
atom 10.0032521578198637 7.6510583053808094 84.7756797503557635 S
atom 2.5205213292985866 5.0922548707724298 79.2498187897552384 S
atom 7.5050055355123346 5.1083113208343693 80.2607103119106995 S
atom 2.5366896806528789 10.1619691202903457 80.2607990884963982 S
atom 7.5214993483977954 10.1791431918625861 79.2518573611605603 S
atom 2.5190918031651170 5.0919502519379378 85.2098488006142105 S
atom 7.5040392822439035 5.1066853946739004 84.2195355279057480 S
atom 2.5357234274032692 10.1603431941296805 84.2196243044934647 S
atom 7.5200698222439479 10.1788385730212951 85.2118873720114465 S
atom 2.5217919073705986 2.5362004033565060 87.1220466107190390 Ba
atom 7.4834518737968230 2.5920805408795471 87.1233485304878741 Ba
atom 2.5151360189432870 7.6457383403676804 87.1234373070658989 Ba
atom 7.5227699264684160 7.6230887243799934 87.1240851821252562 Ba
atom 2.5085661000850998 2.7086800300322729 91.7979671328720457 Ba
atom 7.4961096700739107 2.4162380577142972 91.7990995006509394 Ba
atom 2.5277938151965227 7.4698958571884999 91.7991882772376897 Ba
atom 7.5095441191998651 7.7955683511161755 91.8000057042719533 Ba
atom 5.0259269758548912 5.0944583142440845 89.7354831190221205 Zr
atom 9.9800293948589989 5.1189430224133030 89.7335030676317587 Zr
atom 5.0117135400012893 10.1726008218667534 89.7335918442140610 Zr
atom 10.0269049949474898 10.1813466353391409 89.7375216904254813 Zr
atom 5.4909583000050448 5.1536905275629872 87.1949446923688924 S
atom 9.5156420083946731 5.0607191512088701 87.1950363587043995 S
atom 4.5473261535280285 10.1143769507553731 87.1951251352938641 S
atom 10.4919363191141244 10.2405788487437714 87.1969832637641673 S
atom 4.6913382122894989 5.0260071662091939 92.2195535774648931 S
atom 10.3135115312145480 5.1868578819040225 92.2177356549450025 S
atom 5.3451956763528612 10.2405156813152391 92.2178244315549591 S
atom 9.6923162313983031 10.1128954872630636 92.2215921489422215 S
atom 5.0018956483514412 2.5634360326550651 89.5418183744226184 S
atom 9.9874827208610188 2.5797959439198208 89.6620131715692423 S
atom 5.0191668659864517 7.6334537433960170 89.6621019480953976 S
atom 10.0028736674642857 7.6503243537701300 89.5438569457398614 S
atom 2.5185022237394126 5.0906222758788084 89.2581820439658031 S
atom 7.5028989475574681 5.1060913979487506 90.0766425910917121 S
atom 2.5345830926996746 10.1597491974070095 90.0767313676664116 S
atom 7.5194802428400527 10.1775105969632520 89.2602206153497235 S
