#=======================================================
# FHI-aims file: full_relax/full_relax_RP_2_RxRyRz_RxRy0.in
# Created using the Atomic Simulation Environment (ASE)
# Fri Mar 14 11:18:43 2025
#=======================================================
lattice_vector 10.0884002421132877 0.1462847320812644 0.0002730610773924 
lattice_vector 0.1462847320812787 10.0884002421147407 -0.0002730610712906 
lattice_vector -0.0002951108338632 0.0002951108504641 25.4318372716942953 
atom -0.0909295544416383 -0.0908725272394779 0.2763071862047771 Ba
atom 5.1350726483076814 0.1640719201005492 0.2764437167487403 Ba
atom 0.1640148928820173 5.1351296753050830 0.2761706552853674 Ba
atom 5.0264129330953233 5.0264699601048752 0.2763071860390787 Ba
atom 0.0273989913488962 0.0275124954157815 4.8907379368988435 Ba
atom 5.0166876254700847 0.0457433740381771 4.8908744674480893 Ba
atom 0.0456298699409462 5.0168011297687132 4.8906014063357155 Ba
atom 5.1447414790419606 5.1448549832680488 4.8907379369071498 Ba
atom 2.5545100025398235 2.5545663328082857 2.3530494342225339 Zr
atom 7.6069762753012133 2.6359748507641561 2.3531859658426124 Zr
atom 2.6359185206775586 7.6070326055213773 2.3529129053169444 Zr
atom 7.6718524896200027 7.6719088196881442 2.3530494350460112 Zr
atom 2.5544528288225536 2.5546235065978729 7.4284264388158965 Zr
atom 7.6069191011802406 2.6360320251182330 7.4285629684356147 Zr
atom 2.6358613466854877 7.6070897797079260 7.4282899076657385 Zr
atom 7.6717953153251326 7.6719659935180671 7.4284264372756628 Zr
atom 2.7924723335592856 2.7923844772910678 -0.1389200779316773 S
atom 7.3691581306855305 2.3980125194637134 -0.1387835492162627 S
atom 2.3981003757589088 7.3690702744493688 -0.1390566101281913 S
atom 7.9098148208624863 7.9097269645593853 -0.1389200793656303 S
atom 2.2827460438193414 2.2828595480539309 4.8907379363496242 S
atom 7.8786830603589193 2.9077388094070535 4.8908744677413685 S
atom 2.9076253052858334 7.8787965645571267 4.8906014055485816 S
atom 7.4000885307664133 7.4002020349696362 4.8907379380955289 S
atom 2.5220002830323067 0.0365909557314063 2.1966087801773089 S
atom 7.5663313451609540 0.1097447687702916 2.7016839748635784 S
atom 2.5952735900220993 5.0808025215251140 2.7014109138037723 S
atom 7.6393427701344025 5.1539334404301949 2.1966087798812324 S
atom 2.5220863338821715 0.0366649189287717 7.5850036242186007 S
atom 7.5661555139107266 0.1097958345920696 7.0802014902562753 S
atom 2.5950977587847803 5.0808535865575415 7.0799284293215772 S
atom 7.6394288209721690 5.1540074023525673 7.5850036241044929 S
atom 0.0365514142836784 2.5221998380261308 2.1964722496149691 S
atom 5.0807400832366474 2.5952112629518451 2.7015474443910827 S
atom 0.1096823309619445 7.5662690180902725 2.7012743832104502 S
atom 5.1538938980221731 7.6395423251516217 2.1964722493518094 S
atom 0.0364774515201956 2.5221137872449271 7.5848670935905984 S
atom 5.0806890172741177 2.5953870943023691 7.0800649598474594 S
atom 0.1096312638520255 7.5664448493096392 7.0797918986651851 S
atom 5.1538199368693611 7.6394562743511187 7.5848670936844655 S
atom -0.0909860311451842 -0.0908160501207749 9.5051686874389389 Ba
atom 5.1350161709981013 0.1641283971217460 9.5053052179470257 Ba
atom 0.1639584160223123 5.1351861524735467 9.5050321571323444 Ba
atom 5.0263564559619489 5.0265264372926941 9.5051686876732884 Ba
atom 2.7922709731944533 2.7925858378003467 9.9203959531365502 S
atom 7.3689567702357532 2.3982138799608070 9.9205324845226031 S
atom 2.3978990152899642 7.3692716347804623 9.9202594234823902 S
atom 7.9096134603162858 7.9099283250125820 9.9203959543283631 S
atom 2.4676345761501230 2.4679289265769850 12.9922457253589734 Ba
atom 7.6936136815255134 2.7228502766266538 12.9923822559124513 Ba
atom 2.7225559260248096 7.6939080318621116 12.9921091948052077 Ba
atom 7.5849770638253320 7.5852714140165487 12.9922457253755770 Ba
atom 2.5859199101333052 2.5863285250681329 17.6066565726833772 Ba
atom 7.5752140829696382 2.6045649427367938 17.6067931032164786 Ba
atom 2.6041563277793487 7.5756226980724195 17.6065200421399339 Ba
atom 7.7032623974978085 7.7036710125557732 17.6066565727256865 Ba
atom 5.1130481584229353 5.1133794252295850 15.0689817851401227 Zr
atom 10.1655056697356887 5.1947791822142637 15.0691183151554480 Zr
atom 5.1944479147220948 10.1658369374155093 15.0688452548548391 Zr
atom 10.2303906458200071 10.2307219126044124 15.0689817843578986 Zr
atom 5.1129708101894620 5.1134567733642822 20.1443313609391588 Zr
atom 10.1654283219668358 5.1948565295315579 20.1444678919139939 Zr
atom 5.1943705670830713 10.1659142846791184 20.1441948302372147 Zr
atom 10.2303132976851643 10.2307992606297482 20.1443313607128047 Zr
atom 5.3509971326899226 5.3512054960401096 12.5770140590880946 S
atom 9.9276795993681777 4.9568302077010866 12.5771505913352932 S
atom 4.9566218444249772 9.9278879626480645 12.5768775298218127 S
atom 10.4683396198953709 10.4685479832639405 12.5770140612687999 S
atom 4.8412838339550950 4.8416924489997193 17.6066565733304010 S
atom 10.4371926463938998 5.4665435064006562 17.6067931039711141 S
atom 5.4661348913900785 10.4376012613637315 17.6065200438544167 S
atom 9.9586263209302004 9.9590349359411441 17.6066565712474876 S
atom 5.0805488253560673 2.5954026522230249 14.9125646856801328 S
atom 10.1248531707427851 2.6685571521749045 15.4176099193964493 S
atom 5.1537954157316932 7.6396149055478828 15.4173368583000538 S
atom 10.1978913124014010 7.7127451375378584 14.9125646858031313 S
atom 5.0805851678584641 2.5954908159510355 20.3008849899811565 S
atom 10.1246810645892360 2.6686210486218891 19.7961128176364269 S
atom 5.1536233095488209 7.6396788045096695 19.7958397564923239 S
atom 10.1979276550078719 7.7128333036998589 20.3008849902475035 S
atom 2.5950821977858181 5.0809937828528060 14.9124281552056708 S
atom 7.6392701921641146 5.1540319245553334 15.4174733888929829 S
atom 2.6682124382718877 10.1250896795421053 15.4172003277053840 S
atom 7.7124246835603838 10.1983362699017519 14.9124281551785636 S
atom 2.5949940416334818 5.0809574404232549 20.3007484593896059 S
atom 7.6392062868668766 5.1542040307325774 19.7959762868309248 S
atom 2.6681485335061388 10.1252617858194132 19.7957032262012262 S
atom 7.7123365262380359 10.1982999274765760 20.3007484597668650 S
atom 2.4675203116010795 2.4680431914704903 22.2210674198856779 Ba
atom 7.6934994169371613 2.7229645414631261 22.2212039506591132 Ba
atom 2.7224416616651337 7.6940222963264135 22.2209308894733013 Ba
atom 7.5848627989824298 7.5853856784729974 22.2210674200788461 Ba
atom 5.3507968807676836 5.3514057474981191 22.6362990840783276 S
atom 9.9274793475415528 4.9570304592671155 22.6364356157040731 S
atom 4.9564215926003090 9.9280882143431484 22.6361625534200002 S
atom 10.4681393680524923 10.4687482346679435 22.6362990840611644 S
