#=======================================================
# FHI-aims file: full_relax/full_relax_RP_4_RxRyMz_RxRyMz.in
# Created using the Atomic Simulation Environment (ASE)
# Fri Mar 14 11:25:57 2025
#=======================================================
lattice_vector 10.0264918163596324 -0.0378873949637424 -0.0000000000000005 
lattice_vector -0.0378873949637412 10.0264918163596324 0.0000000000000002 
lattice_vector -0.0000000000000024 0.0000000000000009 45.7601674851523512 
atom 0.1048447278706950 -0.1656660065487867 0.2242172154694406 Ba
atom 5.1789119147278049 -0.1237884253533280 0.2242172154693919 Ba
atom 0.1467223090661578 4.9084011803083358 0.2242172154695261 Ba
atom 5.0991469385686186 4.8286362041491042 0.2242172154695219 Ba
atom -0.2479077635668347 0.1834983982661613 4.9894225607380243 Ba
atom 4.8297475099129130 0.2289640660843537 4.9894225607380234 Ba
atom -0.2024420957486616 5.2611536717458938 4.9894225607380136 Ba
atom 4.7463944471309887 5.1778006089639490 4.9894225607380021 Ba
atom 2.5077149362649997 2.4902341795649501 2.3899362134697393 Zr
atom 7.5173139393122517 2.4676435769503633 2.3899362134695514 Zr
atom 2.4851243336503486 7.4998331826117548 2.3899362134694826 Zr
atom 7.5020171469631229 7.4845363902626039 2.3899362134694311 Zr
atom 2.4948758530595487 2.4977075669909619 7.4405555845329294 Zr
atom 7.5098405518861284 2.4804826601558174 7.4405555845332785 Zr
atom 2.4776509462243776 7.5126722658173328 7.4405555845331408 Zr
atom 7.4891780637576248 7.4920097776888257 7.4405555845336675 Zr
atom 2.6745675633978845 2.7549552224713252 -0.1144486703298348 S
atom 7.2525928964056625 2.3007909498174199 -0.1144486703296122 S
atom 2.2204032907439890 7.3329805554791063 -0.1144486703296314 S
atom 7.6688697740957696 7.7492574331692099 -0.1144486703293797 S
atom 2.2411760308652373 2.1855062339651821 4.9447687613525515 S
atom 7.8220418849117701 2.7341824823500676 4.9447687613523845 S
atom 2.7898522792500877 7.7663720880117602 4.9447687613527069 S
atom 7.2354782415631691 7.1798084446631920 4.9447687613520195 S
atom 2.7669114466730700 -0.0075579665691070 2.2141570595296143 S
atom 7.2235348811993418 -0.0230009875046387 2.7654563409536124 S
atom 2.1913452755376430 5.0091886181576051 2.7654563409535733 S
atom 7.7612136573709334 4.9867442441294125 2.2141570595296747 S
atom 2.8899399825101546 -0.0133049741891031 7.7607222860889378 S
atom 7.1497213241172064 -0.0278629476729396 7.1361773407881559 S
atom 2.1175317184555569 5.0043266579891128 7.1361773407882785 S
atom 7.8842421932081086 4.9809972365091513 7.7607222860889005 S
atom -0.0113857309140394 2.2463344615060037 2.2141570595296285 S
atom 4.9983595007198574 2.7840132376776463 2.7654563409535937 S
atom -0.0338301049424307 7.8162028433393340 2.7654563409535911 S
atom 4.9829164797845751 7.2406366722039603 2.2141570595296405 S
atom -0.0056387232939639 2.1233059256688915 7.7607222860889440 S
atom 5.0032214608884216 2.8578267947597928 7.1361773407882172 S
atom -0.0289681447730286 7.8900164004214615 7.1361773407882305 S
atom 4.9886634874036959 7.1176081363668864 7.7607222860889271 S
atom 0.2719504301909422 -0.1837996559992600 9.9478624967736469 Ba
atom 5.1970455641784321 -0.2908941276736762 9.9478624967736078 Ba
atom 0.1648559585165734 4.7412954779880394 9.9478624967736398 Ba
atom 5.2662526408890713 4.8105025546986955 9.9478624967736184 Ba
atom -0.2479077635667573 0.1834983982661121 14.9063024328087721 Ba
atom 4.8297475099127558 0.2289640660843220 14.9063024328087526 Ba
atom -0.2024420957485518 5.2611536717460012 14.9063024328087579 Ba
atom 4.7463944471307933 5.1778006089640884 14.9063024328087632 Ba
atom 2.4948758530595394 2.4977075669911324 12.4551694090147524 Zr
atom 7.5098405518860503 2.4804826601558392 12.4551694090140490 Zr
atom 2.4776509462243110 7.5126722658172618 12.4551694090149496 Zr
atom 7.4891780637577154 7.4920097776888648 12.4551694090137790 Zr
atom 2.5077149362650344 2.4902341795650513 17.5057887800764469 Zr
atom 7.5173139393123423 2.4676435769502336 17.5057887800768057 Zr
atom 2.4851243336501012 7.4998331826115789 17.5057887800763474 Zr
atom 7.5020171469633938 7.4845363902626367 17.5057887800766245 Zr
atom 2.7672185265908635 2.8271922947201591 9.9478624967729612 S
atom 7.1803558241568375 2.2081399866244853 9.9478624967729168 S
atom 2.1481662184951977 7.2403295922861979 9.9478624967724585 S
atom 7.7615207372887696 7.8214945054181557 9.9478624967727480 S
atom 2.2411760308652902 2.1855062339652305 14.9509562321944536 S
atom 7.8220418849116999 2.7341824823500089 14.9509562321951339 S
atom 2.7898522792501410 7.7663720880117548 14.9509562321944696 S
atom 7.2354782415632126 7.1798084446632444 14.9509562321957397 S
atom 2.8899399825102470 -0.0133049741885916 12.1350027074578062 S
atom 7.1497213241171469 -0.0278629476727740 12.7595476527586911 S
atom 2.1175317184555076 5.0043266579886128 12.7595476527586360 S
atom 7.8842421932081317 4.9809972365090243 12.1350027074578435 S
atom 2.7669114466733471 -0.0075579665688388 17.6815679340176253 S
atom 7.2235348811991926 -0.0230009875047417 17.1302686525936068 S
atom 2.1913452755374561 5.0091886181573662 17.1302686525936245 S
atom 7.7612136573710284 4.9867442441295804 17.6815679340174263 S
atom -0.0056387232939242 2.1233059256688627 12.1350027074578239 S
atom 5.0032214608883621 2.8578267947598195 12.7595476527586467 S
atom -0.0289681447733803 7.8900164004215734 12.7595476527587124 S
atom 4.9886634874039704 7.1176081363668118 12.1350027074578293 S
atom -0.0113857309146173 2.2463344615057919 17.6815679340175471 S
atom 4.9983595007203636 2.7840132376778306 17.1302686525935570 S
atom -0.0338301049433293 7.8162028433395179 17.1302686525936494 S
atom 4.9829164797856134 7.2406366722037498 17.6815679340175542 S
atom 0.1048447278709061 -0.1656660065487809 19.6715077780775545 Ba
atom 5.1789119147277418 -0.1237884253534369 19.6715077780776646 Ba
atom 0.1467223090662789 4.9084011803081857 19.6715077780775260 Ba
atom 5.0991469385686967 4.8286362041490527 19.6715077780776646 Ba
atom 2.6745675633979782 2.7549552224712812 20.0101736638774810 S
atom 7.2525928964056900 2.3007909498173409 20.0101736638768131 S
atom 2.2204032907439712 7.3329805554790939 20.0101736638775556 S
atom 7.6688697740957723 7.7492574331692001 20.0101736638765821 S
atom 2.6019958332198776 2.3314850988002749 23.1043009580466894 Ba
atom 7.6760630200765840 2.3733626799953620 23.1043009580468173 Ba
atom 2.6438734144150038 7.4055522856569853 23.1043009580466716 Ba
atom 7.5962980439177255 7.3257873094981321 23.1043009580467888 Ba
atom 2.2492433417819444 2.6806495036150149 27.8695063033135781 Ba
atom 7.3268986152616460 2.7261151714331144 27.8695063033134822 Ba
atom 2.2947090095999183 7.7583047770950104 27.8695063033136066 Ba
atom 7.2435455524799268 7.6749517143132033 27.8695063033135284 Ba
atom 5.0048660416142550 4.9873852849133842 25.2700199560477259 Zr
atom 10.0144650446611045 4.9647946822987086 25.2700199560474559 Zr
atom 4.9822754389997899 9.9969842879609079 25.2700199560478325 Zr
atom 9.9991682523117333 9.9816874956117108 25.2700199560482446 Zr
atom 4.9920269584087702 4.9948586723399764 30.3206393271045229 Zr
atom 10.0069916572346589 4.9776337655041925 30.3206393271049244 Zr
atom 4.9748020515731444 10.0098233711660267 30.3206393271038337 Zr
atom 9.9863291691066802 9.9891608830379717 30.3206393271042849 Zr
atom 5.1717186687469265 5.2521063278203020 22.7656350722440557 S
atom 9.7497440017546086 4.7979420551662724 22.7656350722446881 S
atom 4.7175543960928925 9.8301316608278864 22.7656350722444358 S
atom 10.1660208794448526 10.2464085385181587 22.7656350722442440 S
atom 4.7383271362142878 4.6826573393142406 27.8248525039326289 S
atom 10.3191929902604667 5.2313335876986988 27.8248525039324868 S
atom 5.2870033845986857 10.2635231933603617 27.8248525039328527 S
atom 9.7326293469122689 9.6769595500120751 27.8248525039313748 S
atom 5.2640625520222608 2.4895931387793531 25.0942408021052543 S
atom 9.7206859865480482 2.4741501178450034 25.6455400835296565 S
atom 4.6884963808862246 7.5063397235068141 25.6455400835297738 S
atom 10.2583647627202410 7.4838953494775984 25.0942408021053147 S
atom 5.3870910878589857 2.4838461311595252 30.6408060286661410 S
atom 9.6468724294661747 2.4692881576775569 30.0162610833656878 S
atom 4.6146828238045572 7.5014777633382570 30.0162610833657375 S
atom 10.3813932985570947 7.4781483418565511 30.6408060286661659 S
atom 2.4857653744342629 4.7434855668546207 25.0942408021052970 S
atom 7.4955106060692405 5.2811643430268340 25.6455400835297169 S
atom 2.4633210004069914 10.3133539486884249 25.6455400835297169 S
atom 7.4800675851329039 9.7377877775524659 25.0942408021052898 S
atom 2.4915123820542928 4.6204570310177999 30.6408060286661232 S
atom 7.5003725662378136 5.3549779001084499 30.0162610833657162 S
atom 2.4681829605770660 10.3871675057702415 30.0162610833657055 S
atom 7.4858145927513018 9.6147592417156922 30.6408060286662156 S
atom 2.7691015355396633 2.3133514493499350 32.8279462393499344 Ba
atom 7.6941966695272113 2.2062569776753356 32.8279462393499060 Ba
atom 2.6620070638652344 7.2384465833368035 32.8279462393499344 Ba
atom 7.7634037462378735 7.3076536600476594 32.8279462393498989 Ba
atom 2.2492433417818614 2.6806495036152764 37.7863861753862906 Ba
atom 7.3268986152617659 2.7261151714332814 37.7863861753862551 Ba
atom 2.2947090095999654 7.7583047770947182 37.7863861753863546 Ba
atom 7.2435455524799597 7.6749517143129529 37.7863861753863546 Ba
atom 4.9920269584088626 4.9948586723400217 35.3352531515952251 Zr
atom 10.0069916572347459 4.9776337655042102 35.3352531515957793 Zr
atom 4.9748020515731941 10.0098233711659415 35.3352531515960706 Zr
atom 9.9863291691067229 9.9891608830380605 35.3352531515950830 Zr
atom 5.0048660416141990 4.9873852849135218 40.3858725226515318 Zr
atom 10.0144650446610264 4.9647946822990123 40.3858725226514466 Zr
atom 4.9822754389996486 9.9969842879606503 40.3858725226521855 Zr
atom 9.9991682523118612 9.9816874956116557 40.3858725226521997 Zr
atom 5.2643696319399726 5.3243434000692895 32.8279462393492167 S
atom 9.6775069295055438 4.7052910919731286 32.8279462393485915 S
atom 4.6453173238439431 9.7374806976347781 32.8279462393499486 S
atom 10.2586718426379697 10.3186456107671845 32.8279462393508723 S
atom 4.7383271362143287 4.6826573393141810 37.8310399747686859 S
atom 10.3191929902605963 5.2313335876988090 37.8310399747681814 S
atom 5.2870033845987754 10.2635231933603954 37.8310399747665684 S
atom 9.7326293469122778 9.6769595500122030 37.8310399747673500 S
atom 5.3870910878590443 2.4838461311588333 35.0150864500336780 S
atom 9.6468724294662547 2.4692881576750980 35.6396313953342343 S
atom 4.6146828238045456 7.5014777633389347 35.6396313953342059 S
atom 10.3813932985570396 7.4781483418588941 35.0150864500336780 S
atom 5.2640625520220246 2.4895931387809558 40.5616516765943800 S
atom 9.7206859865481690 2.4741501178446801 40.0103523951700666 S
atom 4.6884963808864955 7.5063397235055858 40.0103523951700382 S
atom 10.2583647627200847 7.4838953494779119 40.5616516765944084 S
atom 2.4915123820549590 4.6204570310176205 35.0150864500335430 S
atom 7.5003725662371235 5.3549779001086319 35.6396313953342982 S
atom 2.4681829605760117 10.3871675057700852 35.6396313953342485 S
atom 7.4858145927523196 9.6147592417157739 35.0150864500337420 S
atom 2.4857653744357848 4.7434855668547362 40.5616516765944155 S
atom 7.4955106060679046 5.2811643430265853 40.0103523951701163 S
atom 2.4633210004066672 10.3133539486883343 40.0103523951700950 S
atom 7.4800675851331970 9.7377877775526418 40.5616516765944795 S
atom 2.6019958332196969 2.3314850988001390 42.5515915206530266 Ba
atom 7.6760630200766409 2.3733626799953460 42.5515915206528987 Ba
atom 2.6438734144149167 7.4055522856572855 42.5515915206529485 Ba
atom 7.5962980439176402 7.3257873094983239 42.5515915206528703 Ba
atom 5.1717186687468510 5.2521063278202185 42.8902574064552056 S
atom 9.7497440017545305 4.7979420551662182 42.8902574064556461 S
atom 4.7175543960928463 9.8301316608278899 42.8902574064555040 S
atom 10.1660208794448419 10.2464085385182830 42.8902574064553406 S
