#=======================================================
# FHI-aims file: full_relax/full_relax_RP_3_Rx00_0Ry0.in
# Created using the Atomic Simulation Environment (ASE)
# Fri Mar 14 11:19:11 2025
#=======================================================
lattice_vector 10.0942945744689094 -0.0000000000000009 0.0000000000000001 
lattice_vector -0.0000000000000009 10.0942945744689094 0.0000000000000005 
lattice_vector 0.0000000000000003 0.0000000000000020 35.3517884332504053 
atom -0.1710982072259261 -0.0000000000002247 0.2938671386033875 Ba
atom 5.2182454944602226 -0.0000000000001972 0.2938671386031743 Ba
atom 0.1710982072257594 5.0471472872342975 0.2938671386030671 Ba
atom 4.8760490800085430 5.0471472872342602 0.2938671386031673 Ba
atom 0.0278442643276544 -0.0000000000001677 4.9475543660265027 Ba
atom 5.0193030229066586 -0.0000000000001445 4.9475543660265124 Ba
atom -0.0278442643277871 5.0471472872342575 4.9475543660265160 Ba
atom 5.0749915515620412 5.0471472872342682 4.9475543660266004 Ba
atom 2.5235736436169587 2.5004653608191068 2.3490392927889445 Zr
atom 7.5707209308517252 2.5466819264149874 2.3490392927889814 Zr
atom 2.5235736436168126 7.5938292136494061 2.3490392927885546 Zr
atom 7.5707209308519161 7.5476126480535290 2.3490392927889649 Zr
atom 2.5235736436173686 2.5235736436171790 7.3649559235942963 Zr
atom 7.5707209308516106 2.5235736436168028 7.3649559235943824 Zr
atom 2.5235736436171146 7.5707209308512180 7.3649559235940689 Zr
atom 7.5707209308516248 7.5707209308517065 7.3649559235943682 Zr
atom 2.5235736436171115 2.8126205088174587 -0.1306241254372751 S
atom 7.5707209308515102 2.2345267784166967 -0.1306241254374082 S
atom 2.5235736436171541 7.2816740656510790 -0.1306241254370636 S
atom 7.5707209308514987 7.8597677960518260 -0.1306241254373162 S
atom 2.5235736436172251 2.0578340318611970 4.8871844331323775 S
atom 7.5707209308515750 2.9893132553729318 4.8871844331317700 S
atom 2.5235736436171847 8.0364605426072728 4.8871844331330623 S
atom 7.5707209308515608 7.1049813190955904 4.8871844331315044 S
atom 2.5235736436171545 -0.0000000000002981 2.0438742112995230 S
atom 7.5707209308515324 -0.0000000000003131 2.7829659671453624 S
atom 2.5235736436171696 5.0471472872341714 2.7829659671451421 S
atom 7.5707209308515502 5.0471472872343934 2.0438742112997659 S
atom 2.5235736436171958 0.0000000000000009 7.8162372543083594 S
atom 7.5707209308515981 -0.0000000000001122 6.9136745928800414 S
atom 2.5235736436171483 5.0471472872344405 6.9136745928799739 S
atom 7.5707209308516505 5.0471472872343126 7.8162372543085805 S
atom 0.0000000000001453 2.5235736436171212 2.4797102342531061 S
atom 5.0471472872342389 2.5235736436170852 2.4797102342530524 S
atom 0.0000000000004126 7.5707209308514534 2.4797102342530359 S
atom 5.0471472872339005 7.5707209308514773 2.4797102342530519 S
atom -0.0000000000006111 2.5235736436169667 7.3649559235942350 S
atom 5.0471472872343908 2.5235736436170164 7.3649559235943265 S
atom -0.0000000000004101 7.5707209308515031 7.3649559235941906 S
atom 5.0471472872347034 7.5707209308514516 7.3649559235941737 S
atom -0.0278442643279088 -0.0000000000001989 9.7823574811632419 Ba
atom 5.0749915515622321 -0.0000000000001535 9.7823574811632206 Ba
atom 0.0278442643277710 5.0471472872342833 9.7823574811632685 Ba
atom 5.0193030229065085 5.0471472872342273 9.7823574811632739 Ba
atom 0.1710982072255226 -0.0000000000002386 14.4360447085840988 Ba
atom 4.8760490800087561 -0.0000000000002314 14.4360447085841610 Ba
atom -0.1710982072256514 5.0471472872343224 14.4360447085839141 Ba
atom 5.2182454944599561 5.0471472872343028 14.4360447085842498 Ba
atom 2.5235736436172211 2.5466819264150526 12.3808725543999945 Zr
atom 7.5707209308515386 2.5004653608188407 12.3808725543995486 Zr
atom 2.5235736436170941 7.5476126480535815 12.3808725543999092 Zr
atom 7.5707209308515742 7.5938292136496717 12.3808725544000495 Zr
atom 2.5235736436171288 2.9893132553729012 9.8427274140585386 S
atom 7.5707209308517180 2.0578340318611690 9.8427274140592029 S
atom 2.5235736436171159 7.1049813190955931 9.8427274140590804 S
atom 7.5707209308515901 8.0364605426073528 9.8427274140590839 S
atom 2.5235736436171758 2.2345267784170413 14.8605359726279556 S
atom 7.5707209308515493 2.8126205088170262 14.8605359726284689 S
atom 2.5235736436171226 7.8597677960515488 14.8605359726279147 S
atom 7.5707209308515582 7.2816740656514787 14.8605359726282025 S
atom 2.5235736436171590 -0.0000000000002763 11.9469458800435504 S
atom 7.5707209308516132 -0.0000000000002820 12.6860376358893348 S
atom 2.5235736436170964 5.0471472872339307 12.6860376358894431 S
atom 7.5707209308516044 5.0471472872341856 11.9469458800434047 S
atom -0.0000000000001059 2.5235736436170613 12.2502016129358235 S
atom 5.0471472872343588 2.5235736436170479 12.2502016129357187 S
atom 0.0000000000000242 7.5707209308515182 12.2502016129357703 S
atom 5.0471472872343810 7.5707209308515306 12.2502016129357560 S
atom 2.5235736436170599 2.3524754363911953 17.9697613552293625 Ba
atom 7.5707209308514249 2.6946718508429681 17.9697613552291848 Ba
atom 2.5235736436170768 7.7418191380771288 17.9697613552294122 Ba
atom 7.5707209308514143 7.3996227236253320 17.9697613552291422 Ba
atom 2.5235736436169911 2.5514179079452650 22.6234485826515730 Ba
atom 7.5707209308515893 2.4957293792888229 22.6234485826517115 Ba
atom 2.5235736436169685 7.5428766665230098 22.6234485826516192 Ba
atom 7.5707209308516035 7.5985651951794910 22.6234485826516227 Ba
atom 5.0240390044361147 5.0471472872343579 20.0249335094139447 Zr
atom 10.1174028572672992 5.0471472872342460 20.0249335094153302 Zr
atom 5.0702555700319909 10.0942945744687069 20.0249335094150780 Zr
atom 10.0711862916711148 10.0942945744687744 20.0249335094147476 Zr
atom 5.0471472872335141 5.0471472872341510 25.0408501402144701 Zr
atom 10.0942945744699930 5.0471472872343046 25.0408501402147401 Zr
atom 5.0471472872348908 10.0942945744689183 25.0408501402161221 Zr
atom 10.0942945744684529 10.0942945744687531 25.0408501402156816 Zr
atom 5.3361941524342047 5.0471472872342051 17.5452700911910178 S
atom 9.8052477092688211 5.0471472872341989 17.5452700911907904 S
atom 4.7581004220343885 10.0942945744686785 17.5452700911896464 S
atom 10.3833414396686194 10.0942945744687052 17.5452700911902006 S
atom 4.5814076754792685 5.0471472872342789 22.5630786497584381 S
atom 10.5600341862240992 5.0471472872342433 22.5630786497559761 S
atom 5.5128868989896676 10.0942945744687069 22.5630786497572942 S
atom 9.6285549627134479 10.0942945744686874 22.5630786497579550 S
atom 5.0471472872344245 2.5235736436162428 20.1556044508777603 S
atom 10.0942945744687087 2.5235736436164373 20.1556044508778349 S
atom 5.0471472872343970 7.5707209308514294 20.1556044508777639 S
atom 10.0942945744687229 7.5707209308513796 20.1556044508778349 S
atom 5.0471472872344298 2.5235736436167011 25.0408501402201544 S
atom 10.0942945744688721 2.5235736436171550 25.0408501402205204 S
atom 5.0471472872345009 7.5707209308509595 25.0408501402201402 S
atom 10.0942945744688242 7.5707209308505456 25.0408501402204955 S
atom 2.5235736436174268 5.0471472872342282 19.7197684279243610 S
atom 7.5707209308507322 5.0471472872342300 20.4588601837699677 S
atom 2.5235736436170382 10.0942945744686714 20.4588601837699571 S
atom 7.5707209308515226 10.0942945744687016 19.7197684279244108 S
atom 2.5235736436160137 5.0471472872343037 25.4921314709347833 S
atom 7.5707209308510350 5.0471472872342957 24.5895688095062681 S
atom 2.5235736436164631 10.0942945744686980 24.5895688095065736 S
atom 7.5707209308511114 10.0942945744687282 25.4921314709349076 S
atom 2.5235736436171488 2.4957293792895099 27.4582516977884374 Ba
atom 7.5707209308514782 2.5514179079441512 27.4582516977884978 Ba
atom 2.5235736436171341 7.5985651951787903 27.4582516977885334 Ba
atom 7.5707209308514463 7.5428766665241751 27.4582516977885014 Ba
atom 2.5235736436170764 2.6946718508423242 32.1119389252094791 Ba
atom 7.5707209308515937 2.3524754363914657 32.1119389252095999 Ba
atom 2.5235736436170892 7.3996227236260044 32.1119389252094365 Ba
atom 7.5707209308515724 7.7418191380768642 32.1119389252095715 Ba
atom 5.0702555700327148 5.0471472872343464 30.0567667710253232 Zr
atom 10.0711862916703758 5.0471472872344130 30.0567667710253552 Zr
atom 5.0240390044364505 10.0942945744683801 30.0567667710250319 Zr
atom 10.1174028572673702 10.0942945744686252 30.0567667710264423 Zr
atom 5.5128868989910833 5.0471472872341954 27.5186216306862867 S
atom 9.6285549627122755 5.0471472872342611 27.5186216306845459 S
atom 4.5814076754780473 10.0942945744686483 27.5186216306836187 S
atom 10.5600341862253959 10.0942945744687158 27.5186216306835014 S
atom 4.7581004220337677 5.0471472872340950 32.5364301892573806 S
atom 10.3833414396693087 5.0471472872341758 32.5364301892580556 S
atom 5.3361941524349765 10.0942945744686430 32.5364301892573948 S
atom 9.8052477092684800 10.0942945744686998 32.5364301892558814 S
atom 5.0471472872344787 2.5235736436158849 29.9260958295601185 S
atom 10.0942945744688384 2.5235736436164422 29.9260958295602961 S
atom 5.0471472872344645 7.5707209308525050 29.9260958295601327 S
atom 10.0942945744688632 7.5707209308513850 29.9260958295603992 S
atom 2.5235736436168668 5.0471472872341367 29.6228400966675203 S
atom 7.5707209308518575 5.0471472872341598 30.3619318525135853 S
atom 2.5235736436157117 10.0942945744686821 30.3619318525142212 S
atom 7.5707209308506203 10.0942945744686519 29.6228400966679963 S
