#=======================================================
# FHI-aims file: full_relax/full_relax_RP_4_RxRyMz_-Rx-Ry0.in
# Created using the Atomic Simulation Environment (ASE)
# Fri Mar 14 11:27:45 2025
#=======================================================
lattice_vector 10.0184654927480583 -0.0483139723305550 -0.0000000000000182 
lattice_vector -0.0483139723305582 10.0184654927480743 -0.0000000000000120 
lattice_vector -0.0000000000000841 -0.0000000000000549 45.8482135655480292 
atom 0.0817184948310885 -0.1802576630663626 0.2251045823524751 Ba
atom 5.1894904094395278 -0.1058754809906091 0.2251045823387714 Ba
atom 0.1561006769044309 4.9275142515422461 0.2251045823521464 Ba
atom 5.0667942550363287 4.8048180971353673 0.2251045823505588 Ba
atom -0.2520027470472732 0.1814111292397851 4.9985251737547518 Ba
atom 4.8278216171347239 0.2278457608827804 4.9985251737554854 Ba
atom -0.2055681153969823 5.2612354934169145 4.9985251737554153 Ba
atom 4.7330730131540051 5.1664868894437639 4.9985251737563487 Ba
atom 2.4922613031587151 2.4808138391625083 2.4011812026170527 Zr
atom 7.5134946674203560 2.4686574708789664 2.4011812026229022 Zr
atom 2.4801049348679625 7.5020472034159384 2.4011812026300938 Zr
atom 7.4773370633760834 7.4658895993611001 2.4011812026093802 Zr
atom 2.4919615424345265 2.4918100474820797 7.4575922971517477 Zr
atom 7.5024984591042525 2.4689572316114821 7.4575922971435284 Zr
atom 2.4691087265680531 7.5023469641447020 7.4575922971322628 Zr
atom 7.4770373026442911 7.4768858076896310 7.4575922971994686 Zr
atom 2.6214259746028170 2.7038151942422957 -0.1048007126922079 S
atom 7.2904933123362623 2.3394927994357921 -0.1048007127187654 S
atom 2.2571035797974690 7.3728825319770230 -0.1048007127161980 S
atom 7.6065017348082193 7.6888909544469053 -0.1048007126602920 S
atom 2.2442617358397152 2.1912616801170337 4.9595183783797285 S
atom 7.8030468264674653 2.7166570382043624 4.9595183783883217 S
atom 2.7696570939294491 7.7500467707444649 4.9595183783774939 S
atom 7.2293374960474290 7.1763374403269866 4.9595183783215306 S
atom 2.7885223740727478 -0.0093811339766204 2.2438873760013522 S
atom 7.2118565236229788 -0.0304675671462441 2.7516668464852216 S
atom 2.1784667910828395 5.0029221654408946 2.7516668464845000 S
atom 7.7735981342745273 4.9756946262928716 2.2438873760051021 S
atom 2.8971562535446065 -0.0166899490448022 7.7727836997225852 S
atom 7.1361472845107405 -0.0369857847641858 7.1576882766702115 S
atom 2.1027575519727368 4.9964039477547866 7.1576882766729382 S
atom 7.8822320137549848 4.9683858111424124 7.7727836997211401 S
atom -0.0147758521200408 2.2207103722969292 2.2438873760010720 S
atom 4.9913863410817791 2.7824519829593521 2.7516668464847434 S
atom -0.0420033914942427 7.8158417154953321 2.7516668464837442 S
atom 4.9702999081335530 7.2057861325089503 2.2438873760042712 S
atom -0.0074670370671155 2.1120764928271587 7.7727836997216588 S
atom 4.9979045587713395 2.8581612220702093 7.1576882766729915 S
atom -0.0354851737600547 7.8915509546123150 7.1576882766705303 S
atom 4.9776087231310147 7.0971522530355786 7.7727836997219955 S
atom 0.2767374578253260 -0.1860965504308940 9.9670029490132563 Ba
atom 5.1953292968078353 -0.3008944440010369 9.9670029490136294 Ba
atom 0.1619395642570948 4.7324952885438165 9.9670029490135121 Ba
atom 5.2618132180442814 4.7989792097828428 9.9670029490131498 Ba
atom -0.2520027470448910 0.1814111292294950 14.9354807243345249 Ba
atom 4.8278216171398709 0.2278457608838226 14.9354807243352958 Ba
atom -0.2055681153963048 5.2612354934216681 14.9354807243335532 Ba
atom 4.7330730131607330 5.1664868894370253 14.9354807243348588 Ba
atom 2.4919615424279535 2.4918100474725611 12.4764136008269730 Zr
atom 7.5024984591044079 2.4689572316145263 12.4764136007880779 Zr
atom 2.4691087265668918 7.5023469641510570 12.4764136008003259 Zr
atom 7.4770373026379007 7.4768858076825531 12.4764136007919859 Zr
atom 2.4922613031570324 2.4808138391609957 17.5328246956860703 Zr
atom 7.5134946674217211 2.4686574708857703 17.5328246957001035 Zr
atom 2.4801049348811244 7.5020472034297887 17.5328246957050062 Zr
atom 7.4773370633595553 7.4658895993760543 17.5328246956887988 Zr
atom 2.7592179426762011 2.8157912454148870 9.9670029490903644 S
atom 7.1785172611655046 2.2017008313664697 9.9670029491345318 S
atom 2.1451275286279667 7.2350905639052749 9.9670029491575427 S
atom 7.7442937028853249 7.8008670056259293 9.9670029490906824 S
atom 2.2442617358314165 2.1912616801103177 14.9744875196589327 S
atom 7.8030468264675701 2.7166570382093664 14.9744875196869121 S
atom 2.7696570939272562 7.7500467707477423 14.9744875196496050 S
atom 7.2293374960393004 7.1763374403185489 14.9744875196931222 S
atom 2.8971562535380206 -0.0166899491090286 12.1612221983789244 S
atom 7.1361472845111136 -0.0369857847221560 12.7763176214143321 S
atom 2.1027575519743467 4.9964039478197133 12.7763176214107599 S
atom 7.8822320137499258 4.9683858111007559 12.1612221983788658 S
atom 2.7885223740680147 -0.0093811340361470 17.6901185220280155 S
atom 7.2118565236269196 -0.0304675670505613 17.1823390515454690 S
atom 2.1784667910834323 5.0029221654865275 17.1823390515448082 S
atom 7.7735981342750069 4.9756946261685258 17.6901185220245409 S
atom -0.0074670371066837 2.1120764928335736 12.1612221983780682 S
atom 4.9979045588144215 2.8581612220670705 12.7763176214121010 S
atom -0.0354851736943084 7.8915509546061848 12.7763176214132201 S
atom 4.9776087230700954 7.0971522530435127 12.1612221983795177 S
atom -0.0147758522109299 2.2207103723087709 17.6901185220261361 S
atom 4.9913863411613795 2.7824519829573640 17.1823390515449006 S
atom -0.0420033914170883 7.8158417154964370 17.1823390515445595 S
atom 4.9702999080478110 7.2057861325150681 17.6901185220258341 S
atom 0.0817184948251342 -0.1802576630826711 19.7089013157878910 Ba
atom 5.1894904094522314 -0.1058754809904296 19.7089013157816630 Ba
atom 0.1561006769191184 4.9275142515494732 19.7089013157781956 Ba
atom 5.0667942550286282 4.8048180971269279 19.7089013157850168 Ba
atom 2.6214259745888269 2.7038151942300570 20.0388066106223235 S
atom 7.2904933123566371 2.3394927994566510 20.0388066105866010 S
atom 2.2571035798134607 7.3728825319941071 20.0388066106009077 S
atom 7.6065017347971313 7.6888909544367854 20.0388066106084004 S
atom 2.6723052766693050 2.4112262149443797 23.1492253788781106 Ba
atom 7.5830822916354323 2.2886134973687953 23.1492253788855535 Ba
atom 2.5496925590996735 7.3220032299165858 23.1492253788803346 Ba
atom 7.6573810368747424 7.3963019751596759 23.1492253788826048 Ba
atom 2.3103640832403172 2.7453361216159942 27.9226773633317116 Ba
atom 7.2489723849719452 2.6505546907843769 27.9226773633300773 Ba
atom 2.2155826524129592 7.6839444233348519 27.9226773633301697 Ba
atom 7.2954398434700085 7.7304118818351437 27.9226773633302798 Ba
atom 4.9961965852338643 4.9859338226372900 25.3252956817362822 Zr
atom 9.9934504441460987 4.9497979490031287 25.3252956817963302 Zr
atom 4.9600607116209181 9.9831876815471254 25.3252956817709780 Zr
atom 9.9812723454323997 9.9710095828392955 25.3252956817776997 Zr
atom 4.9849929200964462 4.9864757614003619 30.3817070604788277 Zr
atom 9.9929085053845039 4.9610016141569693 30.3817070604734418 Zr
atom 4.9595187728552768 9.9943913466900529 30.3817070604358506 Zr
atom 9.9700686802998408 9.9715515216105075 30.3817070604351720 Zr
atom 4.7733031954082099 4.8566119090066460 22.8193119716864175 S
atom 10.1227723577820399 5.1726913388375637 22.8193119717021737 S
atom 5.0893826252414716 10.2060810713801047 22.8193119716936614 S
atom 9.7583789556149103 9.8416876692114439 22.8193119716457957 S
atom 5.2856211213524835 5.2340982029438443 27.8836365122284704 S
atom 9.7452860638413465 4.6603734128883234 27.8836365120781338 S
atom 4.7118963313049536 9.6937631454307915 27.8836365121645819 S
atom 10.2706968815707693 10.2191739631535672 27.8836365122304102 S
atom 4.6943788947934069 2.4868539995487398 25.6758365870273941 S
atom 10.2897543972272683 2.4596047217987596 25.1679905522883800 S
atom 5.2563646646867692 7.4929944542576159 25.1679905522888632 S
atom 9.6794546550030454 7.4719297596935590 25.6758365870257954 S
atom 4.6186666183611624 2.4805133449266559 30.0818239984684190 S
atom 10.3980785196501131 2.4524984060045338 30.6969160045356446 S
atom 5.3646887870971467 7.4858881385684546 30.6969160045318290 S
atom 9.6037423785611420 7.4655891051560817 30.0818239984600204 S
atom 2.4740647744359086 5.2999296117829697 25.6758365870265699 S
atom 7.4863898126074391 4.6896298695603997 25.1679905522909237 S
atom 2.4530000800880813 9.7230196020943982 25.1679905522849019 S
atom 7.4591405346246500 10.2850053719974852 25.6758365870257350 S
atom 2.4804054292807822 5.3756418882204455 30.0818239984619034 S
atom 7.4934961280634065 4.5813057471496039 30.6969160045325218 S
atom 2.4601063956306546 9.6146954796887059 30.6969160045348133 S
atom 7.4654811893798732 10.3607176484299028 30.0818239984671969 S
atom 2.6778229685251915 2.2166304874407987 32.8911097318611567 Ba
atom 7.7776780191553900 2.2830958055144621 32.8911097318610146 Ba
atom 2.7442882866001050 7.3164855380402827 32.8911097318600554 Ba
atom 7.6628987287526833 7.2017062476349851 32.8911097318574974 Ba
atom 2.3103640832630306 2.7453361216159191 37.8595421002536909 Ba
atom 7.2489723849414203 2.6505546907907571 37.8595421002531651 Ba
atom 2.2155826524323476 7.6839444233416989 37.8595421002556947 Ba
atom 7.2954398434392980 7.7304118818381244 37.8595421002568884 Ba
atom 4.9849929200899945 4.9864757613744501 35.4005124033914953 Zr
atom 9.9929085054027507 4.9610016141690263 35.4005124033048091 Zr
atom 4.9595187728681820 9.9943913467154371 35.4005124034285217 Zr
atom 9.9700686802827914 9.9715515216034785 35.4005124033582064 Zr
atom 4.9961965852265742 4.9859338226089491 40.4569237814768883 Zr
atom 9.9934504441783396 4.9497979490307982 40.4569237815393734 Zr
atom 4.9600607116466611 9.9831876815812635 40.4569237814925771 Zr
atom 9.9812723454413224 9.9710095828206935 40.4569237815042513 Zr
atom 4.6610169913229580 4.7192105664933592 32.8911097315296104 S
atom 10.2601737002977202 5.2849775429313937 32.8911097317221817 S
atom 5.2267839677564369 10.3183672754657341 32.8911097316456917 S
atom 9.6460927515303254 9.7042863267023929 32.8911097316024055 S
atom 5.2856211213603217 5.2340982029400758 37.8985829516020871 S
atom 9.7452860638547634 4.6603734128990153 37.8985829515485690 S
atom 4.7118963313127624 9.6937631454319373 37.8985829514555093 S
atom 10.2706968815648967 10.2191739631473499 37.8985829515971986 S
atom 4.6186666183499820 2.4805133448132946 35.7003954651499242 S
atom 10.3980785196550709 2.4524984061205504 35.0853034590442689 S
atom 5.3646887871170303 7.4858881386811724 35.0853034590394586 S
atom 9.6037423785638936 7.4655891050388759 35.7003954651507200 S
atom 4.6943788947912353 2.4868539996555681 40.1063828766609376 S
atom 10.2897543972320573 2.4596047216902317 40.6142289113846360 S
atom 5.2563646647049120 7.4929944541348394 40.6142289113960828 S
atom 9.6794546550102396 7.4719297597870638 40.1063828766588699 S
atom 2.4804054290897142 5.3756418882359691 35.7003954651532709 S
atom 7.4934961282424828 4.5813057471333511 35.0853034590432742 S
atom 2.4601063956713038 9.6146954796699617 35.0853034590401904 S
atom 7.4654811893380959 10.3607176484370207 35.7003954651478921 S
atom 2.4740647744567590 5.2999296117846315 40.1063828766594668 S
atom 7.4863898125657471 4.6896298695586980 40.6142289113862205 S
atom 2.4530000798867020 9.7230196020941531 40.6142289113929564 S
atom 7.4591405347795039 10.2850053719973644 40.1063828766596444 S
atom 2.6723052766597633 2.4112262149368120 42.6329940846769233 Ba
atom 7.5830822916329010 2.2886134973841492 42.6329940846812505 Ba
atom 2.5496925591022568 7.3220032299331841 42.6329940846813003 Ba
atom 7.6573810368574886 7.3963019751530759 42.6329940846746069 Ba
atom 4.7733031953938871 4.8566119089922797 42.9629074921452982 S
atom 10.1227723577992190 5.1726913388550608 42.9629074921226319 S
atom 5.0893826252669401 10.2060810714013552 42.9629074922033922 S
atom 9.7583789556073608 9.8416876691984747 42.9629074921243301 S
