#=======================================================
# FHI-aims file: full_relax/full_relax_RP_4_Rx0Mz_0RyMz.in
# Created using the Atomic Simulation Environment (ASE)
# Fri Mar 14 11:23:53 2025
#=======================================================
lattice_vector 10.0184821940579720 -0.0483449760984766 -0.0000000000000050 
lattice_vector -0.0483449760984777 10.0184821940580004 -0.0000000000000032 
lattice_vector -0.0000000000000228 -0.0000000000000148 45.8479657895944115 
atom 0.0812813195997910 -0.1802366448605698 0.2251235955597876 Ba
atom 5.1889962052974621 -0.1058494612895940 0.2251180706223703 Ba
atom 0.1555826202281551 4.9275641237858006 0.2251180706207617 Ba
atom 5.0663499285717739 4.8048319641155945 0.2251235955502156 Ba
atom -0.2527868912340177 0.1813995126087975 4.9985240524701204 Ba
atom 4.8270484302141350 0.2278442264110541 4.9984709398270155 Ba
atom -0.2063651548605600 5.2612578114874271 4.9984709398286711 Ba
atom 4.7322817177415342 5.1664681215863277 4.9985240524727477 Ba
atom 2.4916520986544106 2.4808288169963628 2.4011603729140965 Zr
atom 7.5128984375045009 2.4686317576119907 2.4011651258888094 Zr
atom 2.4794848524033415 7.5020453426963893 2.4011651258889266 Zr
atom 7.4767207076478872 7.4658974259778992 2.4011603729148843 Zr
atom 2.4911253465126215 2.4917716168550812 7.4575550924056797 Zr
atom 7.5016726300034788 2.4689070792114953 7.4575596857811899 Zr
atom 2.4682590449257247 7.5023206642809583 7.4575596857573734 Zr
atom 7.4761939554983563 7.4768402258314461 7.4575550924615204 Zr
atom 2.6209463125532850 2.7038580087664710 -0.1048224086229647 S
atom 7.2900135945704472 2.3394696495014768 -0.1048010078136825 S
atom 2.2566000094902638 7.3728832345784179 -0.1048010078353225 S
atom 7.6060149215280797 7.6889266177415969 -0.1048224085822715 S
atom 2.2435191864247894 2.1912451471634045 4.9594794951085577 S
atom 7.8023151327697642 2.7166278938994819 4.9594992827737379 S
atom 2.7689015476924927 7.7500414789785488 4.9594992828046811 S
atom 7.2285877954023547 7.1763137561425703 4.9594794950336558 S
atom 2.7879268214845716 -0.0093801629963175 2.2438582334987518 S
atom 7.2111682528171448 -0.0304887365856276 2.7516943320146194 S
atom 2.1777546677369086 5.0029248485163782 2.7516943320167710 S
atom 7.7729954304552722 4.9756884460135460 2.2438582335029751 S
atom 2.8963163480098970 -0.0167322772287398 7.7727663812054395 S
atom 7.1353335853454816 -0.0370432504442123 7.1576480647302665 S
atom 2.1019200002725613 4.9963703346147703 7.1576480647338299 S
atom 7.8813849569935366 4.9683363317296578 7.7727663812067505 S
atom -0.0153987956108153 2.2207079591551127 2.2438845914932455 S
atom 4.9907587980171133 2.7824601595754994 2.7516401893748812 S
atom -0.0426547871197910 7.8158737446497781 2.7516401893737870 S
atom 4.9696698134408903 7.2057765681324231 2.2438845914945715 S
atom -0.0082976497608214 2.1120404152036114 7.7727558363036549 S
atom 4.9970890586024463 2.8581170637568434 7.1576505366102472 S
atom -0.0363245264416064 7.8915306488379047 7.1576505366079681 S
atom 4.9767709591804206 7.0971090241840882 7.7727558363036184 S
atom 0.2759136373327736 -0.1861725188257488 9.9669490847254405 Ba
atom 5.1945090918422192 -0.3009730706750500 9.9669490847259077 Ba
atom 0.1610955067435331 4.7324405144104951 9.9669490847251385 Ba
atom 5.2609822463311877 4.7988960901605831 9.9669490847258420 Ba
atom -0.2527868912326539 0.1813995126136254 14.9353741169051286 Ba
atom 4.8270484302058065 0.2278442264125176 14.9354272295486386 Ba
atom -0.2063651548608985 5.2612578114879618 14.9354272295476900 Ba
atom 4.7322817177355487 5.1664681215918131 14.9353741169037857 Ba
atom 2.4911253465213448 2.4917716168627573 12.4763430771125599 Zr
atom 7.5016726299963201 2.4689070792039032 12.4763384837373845 Zr
atom 2.4682590449198112 7.5023206642730047 12.4763384837685827 Zr
atom 7.4761939555062344 7.4768402258400553 12.4763430770472361 Zr
atom 2.4916520986718873 2.4808288170050923 17.5327377962616495 Zr
atom 7.5128984374934475 2.4686317576008108 17.5327330432872088 Zr
atom 2.4794848523987771 7.5020453426787235 17.5327330432818336 Zr
atom 7.4767207076593607 7.4658974259819670 17.5327377962681439 Zr
atom 2.7583841673471832 2.8157477244663425 9.9669490846037778 S
atom 7.1776946406121329 2.2015994273754678 9.9669490845874336 S
atom 2.1442810555381175 7.2350130124533969 9.9669490845972639 S
atom 7.7434527763275760 7.8008163334504816 9.9669490846045026 S
atom 2.2435191864313562 2.1912451471663283 14.9744186743458076 S
atom 7.8023151327676068 2.7166278938949651 14.9743988866759370 S
atom 2.7689015476908834 7.7500414789723973 14.9743988866458473 S
atom 7.2285877954076216 7.1763137561463584 14.9744186744087209 S
atom 2.8963163480182486 -0.0167322772231020 12.1611317881586576 S
atom 7.1353335853424422 -0.0370432504598984 12.7762501046595727 S
atom 2.1019200002685547 4.9963703346085646 12.7762501046519628 S
atom 7.8813849570011243 4.9683363317463991 12.1611317881624874 S
atom 2.7879268214886341 -0.0093801629833606 17.6900399359393781 S
atom 7.2111682528172274 -0.0304887365893302 17.1822038374219090 S
atom 2.1777546677358548 5.0029248485104603 17.1822038374238133 S
atom 7.7729954304605648 4.9756884460232440 17.6900399359311180 S
atom -0.0082976497481370 2.1120404151951409 12.1611423330628394 S
atom 4.9970890585876457 2.8581170637618638 12.7762476327780217 S
atom -0.0363245264500847 7.8915306488414458 12.7762476327793486 S
atom 4.9767709591880314 7.0971090241760564 12.1611423330632817 S
atom -0.0153987956049980 2.2207079591488639 17.6900135779429419 S
atom 4.9907587980073140 2.7824601595746521 17.1822579800635147 S
atom -0.0426547871324977 7.8158737446510251 17.1822579800646871 S
atom 4.9696698134512545 7.2057765681280053 17.6900135779410945 S
atom 0.0812813196030213 -0.1802366448507126 19.7087745737911639 Ba
atom 5.1889962052870358 -0.1058494612932625 19.7087800987258817 Ba
atom 0.1555826202175247 4.9275641237818419 19.7087800987194512 Ba
atom 5.0663499285752458 4.8048319641261950 19.7087745737988911 Ba
atom 2.6209463125633348 2.7038580087741906 20.0387205781370987 S
atom 7.2900135945598104 2.3394696494876341 20.0386991773540224 S
atom 2.2566000094798722 7.3728832345686666 20.0386991773586409 S
atom 7.6060149215396065 7.6889266177528679 20.0387205781177222 S
atom 2.6727709493435206 2.4112529848915467 23.1491064903975392 Ba
atom 7.5834523747597835 2.2886067081795560 23.1491009654735258 Ba
atom 2.5500387896878829 7.3220202932529919 23.1491009654733411 Ba
atom 7.6578395583168035 7.3963215938664337 23.1491064903977595 Ba
atom 2.3111347918719041 2.7453211957256620 27.9225069472869301 Ba
atom 7.2497586870601749 2.6505544832499548 27.9224538346421127 Ba
atom 2.2163451019820806 7.6839680683379594 27.9224538346432105 Ba
atom 7.2962034008522902 7.7303898047141786 27.9225069472872356 Ba
atom 4.9967740964640184 4.9859508147876817 25.3251432679060535 Zr
atom 9.9940397648457360 4.9497730849622545 25.3251480209226720 Zr
atom 4.9606261797718156 9.9831866700445726 25.3251480209367870 Zr
atom 9.9818427054494148 9.9710194237775234 25.3251432679311428 Zr
atom 4.9858312966032985 4.9864775669398851 30.3815379871105264 Zr
atom 9.9937644432489812 4.9609988924427517 30.3815425804065491 Zr
atom 4.9603508581700133 9.9944124775249428 30.3815425803764150 Zr
atom 9.9708999055775394 9.9715461759263047 30.3815379871448883 Zr
atom 4.7737449046954294 4.8566566009079439 22.8191604860742494 S
atom 10.1232018729580346 5.1726579278908584 22.8191818868280301 S
atom 5.0897882878848035 10.2060715129690589 22.8191818867998748 S
atom 9.7588135136764027 9.8417252098875831 22.8191604860893307 S
atom 5.2863577662954331 5.2340837270348626 27.8834623898712763 S
atom 9.7460436285524015 4.6603563896791016 27.8834821775347592 S
atom 4.7126300434739070 9.6937699747527919 27.8834821775491193 S
atom 10.2714263752798747 10.2191523360167817 27.8834623897806040 S
atom 4.6951427538925277 2.4868441155267789 25.6756230841279987 S
atom 10.2903085393986995 2.4595881239013258 25.1678674862510050 S
atom 5.2568949543232177 7.4930017089960046 25.1678674862473457 S
atom 9.6802113628758004 7.4719127245155779 25.6756230841269826 S
atom 4.6194858497056446 2.4805138549479864 30.0816334314202187 S
atom 10.3989760833533804 2.4524869781500120 30.6967387311338484 S
atom 5.3655624982708767 7.4859005631542956 30.6967387311320259 S
atom 9.6045544586822800 7.4655824638511250 30.0816334314154190 S
atom 2.4746780649852140 5.2998482457318161 25.6756772267697890 S
atom 7.4869830764201080 4.6896760919846470 25.1678411282548957 S
atom 2.4535694912834667 9.7230896770641166 25.1678411282571126 S
atom 7.4597466740108080 10.2849168547092003 25.6756772267686877 S
atom 2.4812325789296779 5.3756829131964272 30.0816309595440003 S
atom 7.4943351906234295 4.5812865654538664 30.6967492760348541 S
atom 2.4609216055979100 9.6147001505220633 30.6967492760362290 S
atom 7.4663011878582948 10.3607515221822322 30.0816309595373035 S
atom 2.6787068232993860 2.2166206671440691 32.8909319794661670 Ba
atom 7.7785759841503515 2.2830938216295418 32.8909319794662309 Ba
atom 2.7451623990538994 7.3165074067186184 32.8909319794693431 Ba
atom 7.6637754322977116 7.2016892761326998 32.8909319794666359 Ba
atom 2.3111347918869853 2.7453211957348320 37.8593570117247182 Ba
atom 7.2497586870503952 2.6505544832654087 37.8594101243700152 Ba
atom 2.2163451019850320 7.6839680683191718 37.8594101243696670 Ba
atom 7.2962034008544396 7.7303898046921775 37.8593570117292444 Ba
atom 4.9858312966122940 4.9864775669491213 35.4003259718211893 Zr
atom 9.9937644432492689 4.9609988924404336 35.4003213784550113 Zr
atom 4.9603508581573728 9.9944124775282397 35.4003213784526451 Zr
atom 9.9708999055937486 9.9715461759317030 35.4003259717174146 Zr
atom 4.9967740964793093 4.9859508148141618 40.4567206912349775 Zr
atom 9.9940397648359021 4.9497730849769681 40.4567159383045620 Zr
atom 4.9606261797561730 9.9831866700346339 40.4567159383240309 Zr
atom 9.9818427054667875 9.9710194237814331 40.4567206912756134 Zr
atom 4.6618551890003097 4.7192187461192301 32.8909319794853090 S
atom 10.2610720950736312 5.2849768818334084 32.8909319796454085 S
atom 5.2276585099933603 10.3183904669105946 32.8909319796966670 S
atom 9.6469237979748144 9.7042873550982591 32.8909319795585802 S
atom 5.2863577663094894 5.2340837270456086 37.8984015691534850 S
atom 9.7460436285491046 4.6603563896773981 37.8983817813142139 S
atom 4.7126300434737241 9.6937699747617181 37.8983817812937076 S
atom 10.2714263752842694 10.2191523360253687 37.8984015692172207 S
atom 4.6194858497162761 2.4805138547397076 35.7002305275775527 S
atom 10.3989760833403277 2.4524869782323564 35.0851252278896979 S
atom 5.3655624982620420 7.4859005633521578 35.0851252278855057 S
atom 9.6045544586895861 7.4655824637682544 35.7002305275834217 S
atom 4.6951427538925889 2.4868441155154923 40.1062408748201165 S
atom 10.2903085393961113 2.4595881238251041 40.6139964726982043 S
atom 5.2568949543213641 7.4930017089970855 40.6139964727062690 S
atom 9.6802113628769391 7.4719127245737331 40.1062408748195338 S
atom 2.4812325787711909 5.3756829132019961 35.7002329994581302 S
atom 7.4943351907748603 4.5812865654532331 35.0851146829834235 S
atom 2.4609216057271364 9.6147001505336913 35.0851146829867062 S
atom 7.4663011877249899 10.3607515221771092 35.7002329994574055 S
atom 2.4746780650067675 5.2998482457330178 40.1061867321783581 S
atom 7.4869830763937024 4.6896760919856639 40.6140228306981044 S
atom 2.4535694912395209 9.7230896770761781 40.6140228306912547 S
atom 7.4597466740482750 10.2849168547091612 40.1061867321771786 S
atom 2.6727709493552751 2.4112529848929323 42.6327574686434261 Ba
atom 7.5834523747544074 2.2886067081711636 42.6327629935608812 Ba
atom 2.5500387896818206 7.3220202932425025 42.6327629935619470 Ba
atom 7.6578395583266596 7.3963215938672642 42.6327574686316240 Ba
atom 4.7737449047039213 4.8566566009166152 42.9627034728121231 S
atom 10.1232018729499025 5.1726579278827796 42.9626820720677927 S
atom 5.0897882878725316 10.2060715129587543 42.9626820720449487 S
atom 9.7588135136895460 9.8417252099025490 42.9627034727534323 S
