#=======================================================
# FHI-aims file: full_relax/full_relax_RP_4_RxRyRz_-Rx-Ry-Rz.in
# Created using the Atomic Simulation Environment (ASE)
# Fri Mar 14 11:27:15 2025
#=======================================================
lattice_vector 10.0226608454843902 0.0129731627519377 0.0117077354029116 
lattice_vector 0.0129731627512891 10.0226608479257564 -0.0117077374633872 
lattice_vector 0.0529960912417103 -0.0529961007708236 45.8281474610865232 
atom 0.0117429126615242 -0.1392183582167765 0.2410078568214141 Ba
atom 5.1505476215184967 -0.0052559983821087 0.2468637556640979 Ba
atom 0.1457062546572382 4.9995879086077624 0.2351510735383755 Ba
atom 5.0295588430257467 4.8785979288412875 0.2410047337048603 Ba
atom -0.2372368697608892 0.1923786287566341 4.9925075970201620 Ba
atom 4.8189501338719625 0.2437236820973337 4.9983613722674756 Ba
atom -0.1858920148663451 5.2485687393091585 4.9866539515400499 Ba
atom 4.7805783892531215 5.2101973729087003 4.9925078010373332 Ba
atom 2.4821170320255712 2.5240403350400995 2.3866915418794616 Zr
atom 7.5051056817162838 2.5421863929425346 2.3925453745067080 Zr
atom 2.5002632547172889 7.5470320746217503 2.3808400459263028 Zr
atom 7.4999327712026860 7.5418586783069452 2.3866923717580049 Zr
atom 2.4499207339365605 2.5512376226944582 7.4471377562568781 Zr
atom 7.4779092228429631 2.5743828477087782 7.4529937282365157 Zr
atom 2.4730658620848156 7.5792269554017242 7.4412823721939674 Zr
atom 7.4677374828539440 7.5690549800787883 7.4471386165274502 Zr
atom 2.6262092328630993 2.7346349071402090 -0.1148329844913220 S
atom 7.2945126932419040 2.3980943768827858 -0.1089815187042733 S
atom 2.2896686392273029 7.4029383957149877 -0.1206839972334456 S
atom 7.6440260673545311 7.7524518821018429 -0.1148322555139595 S
atom 2.2506378202803989 2.2513600865739019 4.9466046765048199 S
atom 7.7777875443241706 2.7736663721506054 4.9524608291050196 S
atom 2.7729441744385861 7.7785090154270442 4.9407496802399820 S
atom 7.2684545616310778 7.2691762231784836 4.9466039155995079 S
atom 2.7179819109613144 0.0294902115711701 2.2489984007361392 S
atom 7.2345405281919222 0.0400214565182981 2.7373646376717633 S
atom 2.2296964095850251 5.0448656972614394 2.7256573760109211 S
atom 7.7357972687397920 5.0473080686927219 2.2490003896241104 S
atom 2.8432675336497120 0.0336046470921840 7.7078875085429157 S
atom 7.1078894835678152 0.0431507482305541 7.2077188382918562 S
atom 2.1030453616034843 5.0479957980092962 7.1960120086673713 S
atom 7.8610841867531862 5.0514229094106753 7.7078856730817158 S
atom -0.0230049015946679 2.2933496124806338 2.2431456987587746 S
atom 4.9842824222979285 2.7946070020737839 2.7315116687854095 S
atom -0.0205621635851465 7.7994502973474056 2.7198028317802989 S
atom 4.9948135424572913 7.3111669327913944 2.2431458350817395 S
atom -0.0271173591843638 2.1680631284795018 7.7020324211436497 S
atom 4.9811511242511033 2.9212581493620027 7.2018650791382663 S
atom -0.0236914585288113 7.9261018301012811 7.1901581119565119 S
atom 4.9906989332351461 7.1858798153270911 7.7020329707825574 S
atom -0.0076769603496930 -0.0307180594965805 9.9626400877506978 Ba
atom 5.0420481813118254 0.0141632209233570 9.9684937075985385 Ba
atom 0.0372046339499200 5.0190067968645664 9.9567867499491118 Ba
atom 5.0101410196610754 4.9870994088190947 9.9626403797270928 Ba
atom 0.2154184224072332 -0.2602788229337921 14.9327747585782493 Ba
atom 5.2716111907047241 -0.2089326784780582 14.9386286896042577 Ba
atom 0.2667652745441366 4.7959099191588797 14.9269207337532066 Ba
atom 5.2332379634606863 4.7575367907059540 14.9327748946005023 Ba
atom 2.5742794579607495 2.4268787135424805 12.4781390463080193 Zr
atom 7.6022688584179345 2.4500239206082659 12.4839935656044414 Zr
atom 2.5974249596319763 7.4548675171804915 12.4722816467441913 Zr
atom 7.5920964695969007 7.4446958149062912 12.4781392486889011 Zr
atom 2.5470833536324093 2.4590743653000096 17.5385951706006225 Zr
atom 7.5700726115953261 2.4772202234630165 17.5444475026892341 Zr
atom 2.5652291184960863 7.4820646929541690 17.5327430447780266 Zr
atom 7.5648999277153761 7.4768918635613568 17.5385936666016420 Zr
atom 2.7638812073771337 2.7408397608639929 9.9626363828705671 S
atom 7.2883076542190670 2.2604222137222973 9.9684934911818583 S
atom 2.2834635907332554 7.2652660527374628 9.9567830294939093 S
atom 7.7816985581899090 7.7586568768879633 9.9626385032720055 S
atom 2.2744007298206124 2.2275952247016644 14.9786773992583608 S
atom 7.8015520062688308 2.7499031372415055 14.9845300674746156 S
atom 2.7967088281728412 7.7547468531180357 14.9728215697064986 S
atom 7.2922173206978922 7.2454124007046179 14.9786777337740027 S
atom 2.1911051891515867 -0.0501610411885634 12.2232518879948167 S
atom 7.9491440221033605 -0.0467343289326016 12.7351257509974598 S
atom 2.9443000008174045 4.9581097083030565 12.7234188308026646 S
atom 7.2089216140110377 4.9676567167026340 12.2232505306686399 S
atom 2.3163915208576822 -0.0460481978812559 17.6821320168707885 S
atom 7.8224926624162592 -0.0436046496365855 17.2054747618787722 S
atom 2.8176484774149011 4.9612412171721960 17.1937657110867548 S
atom 7.3342080935682707 4.9717719026798459 17.6821335562295339 S
atom 0.0566467523041389 2.8202256944848849 12.2173968892351166 S
atom 5.0710383419782712 2.0800034432257117 12.7292720816899898 S
atom 0.0661932002978865 7.0848475864943898 12.7175646809330001 S
atom 5.0744649185681885 7.8380423470817222 12.2173979793807739 S
atom 0.0525331413196181 2.6949393276294606 17.6762789343135971 S
atom 5.0679071233343711 2.2066543671449455 17.1996204262348300 S
atom 0.0630646972018557 7.2114986963506276 17.1879122427275490 S
atom 5.0703483272884711 7.7127564678025520 17.6762784054527273 S
atom -0.1161771214393266 -0.0112991165126901 19.6842733928125675 Ba
atom 5.0226296133024908 0.1226640474852840 19.6901277339711172 Ba
atom 0.0177862770052749 5.1275074355910535 19.6784222336907391 Ba
atom 4.9016400834646427 5.0065174835950934 19.6842721567631074 Ba
atom 2.7576768627937751 2.6031674998683632 20.0401231090574861 S
atom 7.4259799031517328 2.2666265799903531 20.0459743451779602 S
atom 2.4211356008767577 7.2714702601587238 20.0342720016007725 S
atom 7.7754939758178905 7.6209843605300769 20.0401204974544953 S
atom 2.6746252948752205 2.4706685517492466 23.1550790761732479 Ba
atom 7.5584796486774888 2.3496788410246641 23.1609340235050283 Ba
atom 2.5536351377935809 7.3545211276788098 23.1492243783616196 Ba
atom 7.6924420108806926 7.4884845190916218 23.1550810378254965 Ba
atom 2.3430291817965738 2.7196481868169857 27.9065809278786183 Ba
atom 7.3094980823475293 2.6812765549329391 27.9124347669965118 Ba
atom 2.3046557237818348 7.6861197029195898 27.9007267037308111 Ba
atom 7.3608444400233175 7.7374647530172753 27.9065806068589559 Ba
atom 5.0291818215699156 5.0181111161579279 25.3007660414594575 Zr
atom 10.0288542062032615 5.0129382133832259 25.3066156443135064 Zr
atom 5.0240096471702484 10.0177820482641646 25.2949097941461858 Zr
atom 10.0469998636904645 10.0359287159401234 25.3007649628795264 Zr
atom 5.0019856751470311 5.0503059987877830 30.3612090549285547 Zr
atom 9.9966579220501579 5.0401347161027195 30.3670700649281429 Zr
atom 4.9918134561543317 10.0449797401787446 30.3553616457967976 Zr
atom 10.0198029109714071 10.0681243825901099 30.3612110204681578 Zr
atom 4.8185882829329891 4.8740183002719597 22.7992393638063078 S
atom 10.1729467403609224 5.2235330126729371 22.8050840757452136 S
atom 5.1681024165379776 10.2283757370224251 22.7933798623600232 S
atom 9.8364055366261063 9.8918349601951032 22.7992364979300319 S
atom 5.3018648632221677 5.2495895574839722 27.8606732677305935 S
atom 9.7973735443245502 4.7402560803176392 27.8665359932336401 S
atom 4.7925304557997830 9.7451001468731384 27.8548309059055050 S
atom 10.3196810619190131 10.2674068450456009 27.8606742347121248 S
atom 4.7586164858664253 2.5159430200970330 25.6455869731284416 S
atom 10.2647177627719124 2.5183868297840903 25.1689299271103835 S
atom 5.2598746139923076 7.5232347017904031 25.1572202959374671 S
atom 9.7764333743223499 7.5337634584967157 25.6455878136719768 S
atom 4.6319649524538518 2.5190766078443847 30.1159382571886276 S
atom 10.3900040155888611 2.5225022690243346 30.6278128245946775 S
atom 5.3851608804026938 7.5273458083326439 30.6161061042521858 S
atom 9.6497820352333648 7.5368934340143516 30.1159380139115065 S
atom 2.5083567913579916 5.2705307000119195 25.6397334019285488 S
atom 7.5237343114902577 4.7822464641420730 25.1630757807292014 S
atom 2.5188890071062695 9.7870909717900769 25.1513675045807972 S
atom 7.5261743975838549 10.2883474960548895 25.6397332688410806 S
atom 2.5052287696525433 5.3971815275109183 30.1100849504109931 S
atom 7.5196174608800650 4.6569602597954454 30.6219591735631163 S
atom 2.5147742466397016 9.6618036456900125 30.6102515056983080 S
atom 7.5230456619098547 10.4149985197342456 30.1100843732590313 S
atom 2.5661248377282884 2.4900862054632915 32.8767148075601909 Ba
atom 7.5390606978031620 2.4581788755421536 32.8825686880645165 Ba
atom 2.5342171731532201 7.4630229938920003 32.8708605958783551 Ba
atom 7.5839411759430391 7.5079036511917261 32.8767142724838166 Ba
atom 2.7956854765615655 2.2669896623778811 37.8468489194072717 Ba
atom 7.7621581129818429 2.2286176153721442 37.8527024312985105 Ba
atom 2.7573128571723826 7.2334614552088654 37.8409951380860505 Ba
atom 7.8135038090471092 7.2848065527527277 37.8468487846764887 Ba
atom 5.1263450246524735 4.9259474951082254 35.3922146305722904 Zr
atom 10.1210166064256502 4.9157754994111098 35.3980706671461292 Zr
atom 5.1161724648447198 9.9206199819692937 35.3863607474622839 Zr
atom 10.1441622722974341 9.9437651666024003 35.3922168981203527 Zr
atom 5.0941478478411435 4.9531442656679516 40.4526696457915023 Zr
atom 10.0938208938021443 4.9479716521621908 40.4585204097205704 Zr
atom 5.0889749257858519 9.9528147499322017 40.4468121896954926 Zr
atom 10.1119670643076862 9.9709618111765526 40.4526668065224086 Zr
atom 4.8123836358584091 4.7363460173595859 32.8767172409730080 S
atom 10.3106187274764221 5.2297367303217150 32.8825679106374764 S
atom 5.3057747590817028 10.2345803606113872 32.8708576662957270 S
atom 9.8302005665146410 9.7541626524647889 32.8767177034730764 S
atom 5.3256284839142785 5.2258265014589798 37.8927503743550531 S
atom 9.8211376755711779 4.7164928324779902 37.8986012654548787 S
atom 4.8162943109376197 9.7213365949614783 37.8868953086136102 S
atom 10.3434447965810179 10.2436431551523093 37.8927546894091307 S
atom 5.4732199227433567 2.4291886694013449 35.6433446754681356 S
atom 9.7378415170826038 2.4387321902927672 35.1431761885162075 S
atom 4.7329978549951521 7.4435813424798365 35.1314694064309947 S
atom 10.4910367979021011 7.4470119001938739 35.6433438046517779 S
atom 5.3465690958464824 2.4323195448504218 40.1136956918629721 S
atom 9.8631274270390215 2.4428502633482854 40.6020625053653674 S
atom 4.8582844929281928 7.4476963408207482 40.5903541497940594 S
atom 10.3643859573566424 7.4501371202457731 40.1136957759765167 S
atom 2.5951156613190158 4.5559277376258791 35.6374899914894314 S
atom 7.6033809496170255 5.3091226856378055 35.1373234805232997 S
atom 2.5985388583552811 10.3139662208731711 35.1256151326274590 S
atom 7.6129316431239271 9.5737445992535708 35.6374899629369892 S
atom 2.5919829840250510 4.6825786078059268 40.1078414113634310 S
atom 7.5992705419009567 5.1838368494476024 40.5962082569898399 S
atom 2.5944260226762461 10.1886795216202621 40.5845002264147041 S
atom 7.6098002891830054 9.7003958833229422 40.1078425093923059 S
atom 2.5467059063380328 2.5985888488771089 42.5983459580486468 Ba
atom 7.4305605539416755 2.4775987660267735 42.6041991134084483 Ba
atom 2.4257159018597632 7.4824409017773119 42.5924903523612883 Ba
atom 7.5645229795483013 7.6164031968481005 42.5983444395506936 Ba
atom 4.9500564158114262 4.7425504085574106 42.9541943484266113 S
atom 10.3044133067451629 5.0920642000335468 42.9600474787680540 S
atom 5.2995696412256965 10.0969080294633358 42.9483362111735332 S
atom 9.9678731733044277 9.7603684494701621 42.9541885672775834 S
