#=======================================================
# FHI-aims file: full_relax/full_relax_RP_7_00Rz_000.in
# Created using the Atomic Simulation Environment (ASE)
# Mon Mar 24 15:36:15 2025
#=======================================================
lattice_vector 10.0034226159761133 -0.0000000000000000 -0.0000000000001676 
lattice_vector -0.0000000000000000 10.0034226159761133 0.0000000000000298 
lattice_vector -0.0000000000012676 0.0000000000002254 76.3927907311945091 
atom 0.0000000000160972 0.0000000000081040 0.1649078511808401 Ba
atom 5.0017113079827515 -0.0000000000287927 0.1649078511808051 Ba
atom -0.0000000000072933 5.0017113079637587 0.1649078511812497 Ba
atom 5.0017113080046798 5.0017113080043840 0.1649078511810070 Ba
atom -0.0000000000270825 -0.0000000000077425 4.9274074486687587 Ba
atom 5.0017113079931086 0.0000000000185631 4.9274074486688084 Ba
atom 0.0000000000052199 5.0017113080054774 4.9274074486688013 Ba
atom 5.0017113079601723 5.0017113079807070 4.9274074486688280 Ba
atom 2.5008556539931073 2.5008556539786579 2.3033873270173810 Zr
atom 7.5025669619882578 2.5008556540044231 2.3033873270186191 Zr
atom 2.5008556540003655 7.5025669619929101 2.3033873270183958 Zr
atom 7.5025669619810404 7.5025669619671280 2.3033873270202996 Zr
atom 2.5008556539930060 2.5008556539955027 7.4192622929086101 Zr
atom 7.5025669619794799 2.5008556539937428 7.4192622929087220 Zr
atom 2.5008556539913984 7.5025669619817874 7.4192622929097398 Zr
atom 7.5025669619810618 7.5025669619835558 7.4192622929099041 Zr
atom 2.5008556539316431 2.5008556538645643 -0.2062117198726365 S
atom 7.5025669620395377 2.5008556541285509 -0.2062117198707869 S
atom 2.5008556540515485 7.5025669621166591 -0.2062117198705534 S
atom 7.5025669619196584 7.5025669618526427 -0.2062117198696817 S
atom 2.5008556540273008 2.5008556540253699 4.9078752800718455 S
atom 7.5025669619589026 2.5008556539563460 4.9078752800714973 S
atom 2.5008556539708491 7.5025669619446722 4.9078752800724645 S
atom 7.5025669620153685 7.5025669620136783 4.9078752800728491 S
atom 2.2199557134700370 -0.0000000000011442 2.4293376617369948 S
atom 7.7834669024833500 -0.0000000000012836 2.4293376616082751 S
atom 2.7817555944953614 5.0017113079865592 2.4293376616079230 S
atom 7.2216670214582566 5.0017113079866800 2.4293376617381264 S
atom 3.0098228798596574 -0.0000000000010301 7.4457289579226718 S
atom 6.9935997361125448 -0.0000000000011045 7.4457289579473684 S
atom 1.9918884281245628 5.0017113079870610 7.4457289579470531 S
atom 8.0115341878477775 5.0017113079871045 7.4457289579224621 S
atom 0.0000000000007788 2.7817555945094017 2.4293376617112741 S
atom 5.0017113079886393 2.2199557134834960 2.4293376616324815 S
atom 0.0000000000005855 7.2216670214722543 2.4293376616346345 S
atom 5.0017113079887627 7.7834669024967953 2.4293376617131770 S
atom 0.0000000000005292 1.9918884281276230 7.4457289579217525 S
atom 5.0017113079884776 3.0098228798627735 7.4457289579477681 S
atom 0.0000000000005862 8.0115341878508453 7.4457289579481820 S
atom 5.0017113079885043 6.9935997361156756 7.4457289579219825 S
atom -0.0000000000012156 0.0000000000082294 9.9845061338347705 Ba
atom 5.0017113079808286 -0.0000000000010688 9.9845061338347563 Ba
atom -0.0000000000070430 5.0017113079874331 9.9845061338347492 Ba
atom 5.0017113079866595 5.0017113079962972 9.9845061338347278 Ba
atom -0.0000000000014234 -0.0000000000015673 15.0551404996801814 Ba
atom 5.0017113079868460 0.0000000000013198 15.0551404996802205 Ba
atom -0.0000000000012758 5.0017113079898863 15.0551404996802312 Ba
atom 5.0017113079870619 5.0017113079865494 15.0551404996802134 Ba
atom 2.5008556539928759 2.5008556539940994 12.5051127235860768 Zr
atom 7.5025669619812065 2.5008556539942286 12.5051127235875228 Zr
atom 2.5008556539930740 7.5025669619823345 12.5051127235867039 Zr
atom 7.5025669619809241 7.5025669619822244 12.5051127235869934 Zr
atom 2.5008556539932858 2.5008556539935043 17.5904452341627291 Zr
atom 7.5025669619813087 2.5008556539934896 17.5904452341628144 Zr
atom 2.5008556539931583 7.5025669619815591 17.5904452341631448 Zr
atom 7.5025669619813939 7.5025669619816169 17.5904452341643278 Zr
atom 2.5008556539880158 2.5008556539861284 9.9777157465322723 S
atom 7.5025669619923931 2.5008556539967457 9.9777157465325494 S
atom 2.5008556540042974 7.5025669619845647 9.9777157465327946 S
atom 7.5025669619760693 7.5025669619739563 9.9777157465328798 S
atom 2.5008556539965565 2.5008556539930975 15.0527150474672684 S
atom 7.5025669619789772 2.5008556539930891 15.0527150474669931 S
atom 2.5008556539910014 7.5025669619812829 15.0527150474667799 S
atom 7.5025669619844892 7.5025669619813229 15.0527150474670179 S
atom 1.9989064534028411 -0.0000000000005607 12.5216131332780787 S
atom 8.0045161625715959 -0.0000000000005161 12.5216131332754941 S
atom 3.0028048545835762 5.0017113079874100 12.5216131332759062 S
atom 7.0006177613908829 5.0017113079873683 12.5216131332780254 S
atom 3.0029968720310865 -0.0000000000003191 17.5904452341626012 S
atom 7.0004257439434507 -0.0000000000003536 17.5904452341621074 S
atom 1.9987144359552598 5.0017113079872964 17.5904452341621145 S
atom 8.0047081800190973 5.0017113079871658 17.5904452341621393 S
atom -0.0000000000002476 3.0028048545843289 12.5216131332802156 S
atom 5.0017113079874829 1.9989064534035474 12.5216131332735081 S
atom -0.0000000000001890 7.0006177613916671 12.5216131332737213 S
atom 5.0017113079876481 8.0045161625723313 12.5216131332802103 S
atom -0.0000000000010096 1.9987144359555968 17.5904452341603132 S
atom 5.0017113079866666 3.0029968720314741 17.5904452341644806 S
atom -0.0000000000011740 8.0047081800193371 17.5904452341641502 S
atom 5.0017113079869224 7.0004257439437430 17.5904452341600823 S
atom 0.0000000000005709 -0.0000000000003883 20.1257499686447581 Ba
atom 5.0017113079881934 -0.0000000000035404 20.1257499686448682 Ba
atom -0.0000000000008858 5.0017113079843858 20.1257499686449464 Ba
atom 5.0017113079885451 5.0017113079890114 20.1257499686450139 Ba
atom -0.0000000000000870 -0.0000000000067034 25.1963843344902330 Ba
atom 5.0017113080070157 -0.0000000000008896 25.1963843344905065 Ba
atom 0.0000000000199460 5.0017113079908899 25.1963843344903253 Ba
atom 5.0017113079901563 5.0017113079803099 25.1963843344905492 Ba
atom 2.5008556539941278 2.5008556539931424 22.6757777447358322 Zr
atom 7.5025669619822137 2.5008556539926738 22.6757777447379247 Zr
atom 2.5008556539942055 7.5025669619807243 22.6757777447398645 Zr
atom 7.5025669619823070 7.5025669619811328 22.6757777447399356 Zr
atom 2.5008556539974189 2.5008556539908402 27.7616281754117296 Zr
atom 7.5025669619855186 2.5008556539969211 27.7616281754149448 Zr
atom 2.5008556539974895 7.5025669619850568 27.7616281754158116 Zr
atom 7.5025669619854085 7.5025669619789355 27.7616281754191512 Zr
atom 2.5008556539878692 2.5008556539935327 20.1281754208587103 S
atom 7.5025669619830326 2.5008556539950688 20.1281754208576125 S
atom 2.5008556539949822 7.5025669619827324 20.1281754208584438 S
atom 7.5025669619760009 7.5025669619811959 20.1281754208580885 S
atom 2.5008556539917310 2.5008556540104960 25.2031747217912638 S
atom 7.5025669619649324 2.5008556539769224 25.2031747217905888 S
atom 2.5008556539771427 7.5025669619655710 25.2031747217902726 S
atom 7.5025669619795954 7.5025669619991291 25.2031747217918038 S
atom 1.9989064534031218 -0.0000000000005257 22.6592773350525221 S
atom 8.0045161625718748 -0.0000000000008043 22.6592773350438428 S
atom 3.0028048545840251 5.0017113079871347 22.6592773350452745 S
atom 7.0006177613913962 5.0017113079874269 22.6592773350520567 S
atom 3.0098228798653666 -0.0000000000012124 27.7351615103535920 S
atom 6.9935997361182558 -0.0000000000007688 27.7351615104288314 S
atom 1.9918884281298495 5.0017113079869455 27.7351615104316949 S
atom 8.0115341878531332 5.0017113079865583 27.7351615103495597 S
atom -0.0000000000021982 3.0028048545835619 22.6592773350533037 S
atom 5.0017113079858060 1.9989064534025673 22.6592773350451502 S
atom -0.0000000000027282 7.0006177613910081 22.6592773350438961 S
atom 5.0017113079858841 8.0045161625714094 22.6592773350516516 S
atom -0.0000000000045317 1.9918884281249818 27.7351615103871509 S
atom 5.0017113079831432 3.0098228798607884 27.7351615103995428 S
atom -0.0000000000041066 8.0115341878482695 27.7351615103945939 S
atom 5.0017113079828803 6.9935997361136897 27.7351615103825715 S
atom 0.0000000000857111 0.0000000000003907 30.2534830196566666 Ba
atom 5.0017113079732001 0.0000000000046379 30.2534830196567981 Ba
atom -0.0000000000213264 5.0017113079963362 30.2534830196567768 Ba
atom 5.0017113080762927 5.0017113079982760 30.2534830196569118 Ba
atom -0.0000000000862243 -0.0000000000318943 35.0159826171451627 Ba
atom 5.0017113080423607 -0.0000000000116764 35.0159826171448927 Ba
atom 0.0000000000163131 5.0017113080193276 35.0159826171452266 Ba
atom 5.0017113079290958 5.0017113080167510 35.0159826171451556 Ba
atom 2.5008556539764424 2.5008556540284630 32.8775031412970193 Zr
atom 7.5025669619797135 2.5008556539582041 32.8775031413059011 Zr
atom 2.5008556539916653 7.5025669619462416 32.8775031413106831 Zr
atom 7.5025669619644777 7.5025669620165125 32.8775031413193872 Zr
atom 2.5008556539742659 2.5008556538796731 30.2730151882538721 S
atom 7.5025669619646704 2.5008556541019815 30.2730151882528702 S
atom 2.5008556539761804 7.5025669620894382 30.2730151882520886 S
atom 7.5025669619627475 7.5025669618671360 30.2730151882517582 S
atom 2.5008556539422973 2.5008556543802274 35.3871021882037553 S
atom 7.5025669620453712 2.5008556536022555 35.3871021881985754 S
atom 2.5008556540576672 7.5025669615906736 35.3871021881967067 S
atom 7.5025669619300315 7.5025669623686477 35.3871021881915340 S
atom 2.2199557135084946 0.0000000000015579 32.7515528068561821 S
atom 7.7834669025249310 0.0000000000015045 32.7515528064488564 S
atom 2.7817555945401340 5.0017113079856648 32.7515528064535886 S
atom 7.2216670214998757 5.0017113079857571 32.7515528068524091 S
atom -0.0000000000035913 2.7817555945185499 32.7515528066383865 S
atom 5.0017113079821645 2.2199557134849455 32.7515528066740771 S
atom -0.0000000000033949 7.2216670214782921 32.7515528066676538 S
atom 5.0017113079819939 7.7834669025013632 32.7515528066310893 S
atom 2.5008556543180362 2.5008556526222296 38.5203056151602325 Ba
atom 7.5025669616617101 2.5008556553657946 38.5203056152016075 Ba
atom 2.5008556536735189 7.5025669633539218 38.5203056152250838 Ba
atom 7.5025669623062372 7.5025669606103538 38.5203056152665084 Ba
atom 2.5008556538414037 2.5008556546445684 43.3294378707706471 Ba
atom 7.5025669621320539 2.5008556533426849 43.3294378706690537 Ba
atom 2.5008556541438947 7.5025669613308290 43.3294378706140151 Ba
atom 7.5025669618294861 7.5025669626326490 43.3294378705122654 Ba
atom 5.0017113078933724 5.0017113079966151 40.5897210658530625 Zr
atom 10.0034226160622080 5.0017113079577982 40.5897210658527925 Zr
atom 5.0017113080615054 10.0034226159660395 40.5897210658533751 Zr
atom 10.0034226158949018 10.0034226160034514 40.5897210658527214 Zr
atom 5.0017113080409592 5.0017113079940430 45.6794348425785444 Zr
atom 10.0034226159193693 5.0017113080059623 45.6794348425775354 Zr
atom 5.0017113079488205 10.0034226159690984 45.6794348425780257 Zr
atom 10.0034226160116049 10.0034226159571134 45.6794348425785088 Zr
atom 5.0017113107489912 5.0017113076584625 38.0839164333869817 S
atom 10.0034226131725372 5.0017113088690568 38.0839164333876852 S
atom 5.0017113055419786 10.0034226163006146 38.0839164333874507 S
atom 10.0034226183841710 10.0034226150825187 38.0839164333874294 S
atom 5.0017113035023835 5.0017113083069615 43.1752493683585499 S
atom 10.0034226204522145 5.0017113064376986 43.1752493683595873 S
atom 5.0017113116726239 10.0034226156557153 43.1752493683580170 S
atom 10.0034226122827867 10.0034226175235332 43.1752493683591112 S
atom 5.0017113077901536 2.5008552170167886 40.6998308192520781 S
atom 10.0034226161709121 2.5008560909692235 40.6998308178051076 S
atom 5.0017113081964775 7.5025673989578250 40.6998308186599331 S
atom 10.0034226157646007 7.5025665250037861 40.6998308201067260 S
atom 5.0017113111538887 2.5008558071243598 45.7063530854410871 S
atom 10.0034226128069719 2.5008555008635920 45.7063530875197230 S
atom 5.0017113047991613 7.5025668088509834 45.7063530860056559 S
atom 10.0034226191616877 7.5025671151112592 45.7063530839269347 S
atom 2.5008560909653417 5.0017113082006297 40.6998308155614552 S
atom 7.5025665250006224 5.0017113077943440 40.6998308223505703 S
atom 2.5008552170126221 10.0034226157623110 40.6998308218044400 S
atom 7.5025673989542909 10.0034226161686011 40.6998308161075428 S
atom 2.5008555008621647 5.0017113047971602 45.7063530909060560 S
atom 7.5025671151099269 5.0017113111518468 45.7063530805406373 S
atom 2.5008558071225511 10.0034226191660878 45.7063530815281993 S
atom 7.5025668088496307 10.0034226128113843 45.7063530899190837 S
atom 2.5008556540366120 2.5008556538030677 48.2831348804236598 Ba
atom 7.5025669619366058 2.5008556541842499 48.2831348804914526 Ba
atom 2.5008556539486064 7.5025669621722386 48.2831348805258358 Ba
atom 7.5025669620245914 7.5025669617910751 48.2831348805940337 Ba
atom 2.5008556539843103 2.5008556540230589 53.2831702857933536 Ba
atom 7.5025669619889568 2.5008556539644013 53.2831702857674472 Ba
atom 2.5008556540007705 7.5025669619522777 53.2831702857543235 Ba
atom 7.5025669619724322 7.5025669620109277 53.2831702857291916 Ba
atom 5.0017113079926379 5.0017113079752020 50.7352967288068797 Zr
atom 10.0034226159684820 5.0017113080000710 50.7352967288079526 Zr
atom 5.0017113079784377 10.0034226159880291 50.7352967288084997 Zr
atom 10.0034226159826876 10.0034226159632045 50.7352967288077252 Zr
atom 5.0017113079296607 5.0017113080017177 55.7868405997604810 Zr
atom 10.0034226160315214 5.0017113079499831 55.7868405997594934 Zr
atom 5.0017113080297273 10.0034226159615773 55.7868405997609997 Zr
atom 10.0034226159313793 10.0034226160134434 55.7868405997607084 Zr
atom 5.0017113138637468 5.0017113077326965 48.2199813535647905 S
atom 10.0034226100963597 5.0017113099828965 48.2199813535643855 S
atom 5.0017113032584044 10.0034226162305355 48.2199813535624671 S
atom 10.0034226207018051 10.0034226139800673 48.2199813535623392 S
atom 5.0017113018947699 5.0017113081225091 53.2644426245699236 S
atom 10.0034226220662994 5.0017113061631449 53.2644426245709610 S
atom 5.0017113129157362 10.0034226158408508 53.2644426245684386 S
atom 10.0034226110453055 10.0034226178001617 53.2644426245690781 S
atom 5.0017113108429632 2.5008556235793313 50.7465910951281032 S
atom 10.0034226131182287 2.5008556844080467 50.7465910929301884 S
atom 5.0017113051260278 7.5025669923963134 50.7465910947256091 S
atom 10.0034226188351738 7.5025669315674106 50.7465910969233533 S
atom 5.0017113086921947 2.5008556513055766 55.7868405997005965 S
atom 10.0034226152690060 2.5008556566813569 55.7868406012914733 S
atom 5.0017113073153103 7.5025669646700583 55.7868405998224688 S
atom 10.0034226166458939 7.5025669592940085 55.7868405982313860 S
atom 2.5008556844066665 5.0017113051223738 50.7465910887468183 S
atom 7.5025669315665322 5.0017113108392870 50.7465911011066240 S
atom 2.5008556235777890 10.0034226188409665 50.7465910998993550 S
atom 7.5025669923953551 10.0034226131240747 50.7465910899549328 S
atom 2.5008556566809341 5.0017113073288435 55.7868406055452226 S
atom 7.5025669592922730 5.0017113087057332 55.7868405939779635 S
atom 2.5008556513049047 10.0034226166345430 55.7868405950198394 S
atom 7.5025669646685369 10.0034226152576533 55.7868406045033538 S
atom 2.5008556539956781 2.5008556539742983 58.2905109137782844 Ba
atom 7.5025669619774540 2.5008556540129501 58.2905109137644004 Ba
atom 2.5008556539894813 7.5025669620011026 58.2905109137596895 Ba
atom 7.5025669619836703 7.5025669619624242 58.2905109137461537 Ba
atom 2.5008556539928208 2.5008556540985043 63.2905463189851716 Ba
atom 7.5025669619802535 2.5008556538887423 63.2905463190121012 Ba
atom 2.5008556539921480 7.5025669618769504 63.2905463190166202 Ba
atom 7.5025669619809277 7.5025669620866902 63.2905463190432513 Ba
atom 5.0017113080639106 5.0017113079762554 60.8383844707147361 Zr
atom 10.0034226158972253 5.0017113080288595 60.8383844707149137 Zr
atom 5.0017113079284572 10.0034226159870414 60.8383844707147574 Zr
atom 10.0034226160325623 10.0034226159345341 60.8383844707153187 Zr
atom 5.0017113079164979 5.0017113079923918 65.8942463569449188 Zr
atom 10.0034226160446202 5.0017113079631468 65.8942463569451604 Zr
atom 5.0017113080422515 10.0034226159708233 65.8942463569425598 Zr
atom 10.0034226159189306 10.0034226160001420 65.8942463569426025 Zr
atom 5.0017113130932245 5.0017113080080584 58.3092385749544988 S
atom 10.0034226108679682 5.0017113091113004 58.3092385749534472 S
atom 5.0017113037258554 10.0034226159552890 58.3092385749534117 S
atom 10.0034226202353000 10.0034226148520720 58.3092385749540014 S
atom 5.0017113044746822 5.0017113078284474 63.3536998459599587 S
atom 10.0034226194866722 5.0017113076536175 63.3536998459605982 S
atom 5.0017113110720199 10.0034226161348183 63.3536998459615219 S
atom 10.0034226128893575 10.0034226163096172 63.3536998459599303 S
atom 5.0017113058237683 2.5008556235787105 60.8270901045002361 S
atom 10.0034226181373729 2.5008556844077665 60.8270901038759675 S
atom 5.0017113101069119 7.5025669923970328 60.8270901046911447 S
atom 10.0034226138542124 7.5025669315676859 60.8270901053152144 S
atom 5.0017113089056169 2.5008558071233642 65.8673281139983544 S
atom 10.0034226150554630 2.5008555008623343 65.8673281138505189 S
atom 5.0017113070940535 7.5025668088521682 65.8673281135992710 S
atom 10.0034226168670166 7.5025671151128916 65.8673281137471491 S
atom 2.5008556844069392 5.0017113100959012 60.8270901002199693 S
atom 7.5025669315662560 5.0017113058127727 60.8270901089719160 S
atom 2.5008556235786692 10.0034226138675031 60.8270901083324063 S
atom 7.5025669923947351 10.0034226181506281 60.8270901008587046 S
atom 2.5008555008629751 5.0017113071009653 65.8673281164658277 S
atom 7.5025671151106046 5.0017113089125260 65.8673281111324513 S
atom 2.5008558071231679 10.0034226168623714 65.8673281113867262 S
atom 7.5025668088504940 10.0034226150508090 65.8673281162100750 S
atom 2.5008556539583782 2.5008556537005813 68.2442433289019021 Ba
atom 7.5025669620145452 2.5008556542870153 68.2442433288802022 Ba
atom 2.5008556540264637 7.5025669622748135 68.2442433288825612 Ba
atom 7.5025669619464441 7.5025669616883635 68.2442433288600938 Ba
atom 2.5008556541134888 2.5008556545076166 73.0533755843058685 Ba
atom 7.5025669618572604 2.5008556534811537 73.0533755843095634 Ba
atom 2.5008556538691118 7.5025669614688804 73.0533755843057122 Ba
atom 7.5025669621016400 7.5025669624953375 73.0533755843093786 Ba
atom 5.0017113080356888 5.0017113079917062 70.9839601336700809 Zr
atom 10.0034226159267394 5.0017113079897868 70.9839601336700525 Zr
atom 5.0017113079442890 10.0034226159712407 70.9839601336682477 Zr
atom 10.0034226160182698 10.0034226159728359 70.9839601336687025 Zr
atom 5.0017113099722668 5.0017113082143165 68.3984318311629380 S
atom 10.0034226139905531 5.0017113078423048 68.3984318311614601 S
atom 5.0017113061297040 10.0034226157484394 68.3984318311658228 S
atom 10.0034226178332553 10.0034226161201616 68.3984318311643307 S
atom 5.0017113069974659 5.0017113077734345 73.4897647661339732 S
atom 10.0034226169760441 5.0017113082279945 73.4897647661330922 S
atom 5.0017113089748957 10.0034226161861497 73.4897647661366307 S
atom 10.0034226149988932 10.0034226157305142 73.4897647661356359 S
atom 5.0017113079349764 2.5008552170175040 70.8738503803524367 S
atom 10.0034226160259099 2.5008560909705722 70.8738503807748685 S
atom 5.0017113080305959 7.5025673989574022 70.8738503807784923 S
atom 10.0034226159303063 7.5025665250039975 70.8738503803562736 S
atom 2.5008560909696955 5.0017113080309121 70.8738503792244927 S
atom 7.5025665250054319 5.0017113079352811 70.8738503819074310 S
atom 2.5008552170167979 10.0034226159326050 70.8738503818532450 S
atom 7.5025673989584876 10.0034226160282209 70.8738503792767887 S
