#=======================================================
# FHI-aims file: full_relax/full_relax_RP_5_00Rz1_00Rz2.in
# Created using the Atomic Simulation Environment (ASE)
# Fri Mar 14 11:29:19 2025
#=======================================================
lattice_vector 9.9029662444631228 -0.0000000320388330 0.0000000000000026 
lattice_vector -0.0000000320388330 9.9029662444631228 -0.0000000000000057 
lattice_vector 0.0000000000000141 -0.0000000000000314 56.9199695477507959 
atom -0.0000000000008727 -0.0000000000011204 0.1641241007888480 Ba
atom 4.9514831222306288 -0.0000000160204495 0.1641241007889440 Ba
atom -0.0000000160203053 4.9514831222305764 0.1641241007888021 Ba
atom 4.9514831062112794 4.9514831062111382 0.1641241007888834 Ba
atom -0.0000000000007595 -0.0000000000008931 5.0698106855002294 Ba
atom 4.9514831222307860 -0.0000000160203295 5.0698106855002019 Ba
atom -0.0000000160202317 4.9514831222307096 5.0698106855002116 Ba
atom 4.9514831062113922 4.9514831062112741 5.0698106855002552 Ba
atom 2.4757415531052738 2.4757415531051161 2.4423498089134186 Zr
atom 7.4272246753368503 2.4757415370857352 2.4423498089133457 Zr
atom 2.4757415370858560 7.4272246753366549 2.4423498089132991 Zr
atom 7.4272246593174112 7.4272246593172548 2.4423498089133546 Zr
atom 2.4757415531053777 2.4757415531052636 7.5848318242367334 Zr
atom 7.4272246753369568 2.4757415370858742 7.5848318242367316 Zr
atom 2.4757415370859683 7.4272246753367348 7.5848318242367538 Zr
atom 7.4272246593174645 7.4272246593174689 7.5848318242367387 Zr
atom 2.4757415531051805 2.4757415531051215 -0.1019264712304998 S
atom 7.4272246753368991 2.4757415370856184 -0.1019264712304686 S
atom 2.4757415370858746 7.4272246753365971 -0.1019264712305040 S
atom 7.4272246593173783 7.4272246593172859 -0.1019264712305038 S
atom 2.4757415531053448 2.4757415531051050 5.0440048105818329 S
atom 7.4272246753368263 2.4757415370857934 5.0440048105817512 S
atom 2.4757415370859115 7.4272246753367419 5.0440048105817121 S
atom 7.4272246593174254 7.4272246593172522 5.0440048105817432 S
atom 2.0478038087753370 0.0000005918343065 2.5340550912459796 S
atom 7.8551624356861733 -0.0000006238751205 2.5340550912461026 S
atom 2.9036792974352403 4.9514825143758374 2.5340550912461017 S
atom 6.9992869149874437 4.9514836980464478 2.5340550912459601 S
atom 3.0108893924117974 0.0000000180680417 7.6008292911906619 S
atom 6.8920768520498852 -0.0000000501090412 7.6008292911906521 S
atom 1.9405937137988900 4.9514830881420258 7.6008292911905651 S
atom 7.9623724986239495 4.9514831242800366 7.6008292911906237 S
atom -0.0000006078555480 2.9036793134545209 2.5340550912461075 S
atom 4.9514837140660068 2.0478037927557775 2.5340550912460085 S
atom 0.0000005758150588 6.9992869310067363 2.5340550912459854 S
atom 4.9514824983565759 7.8551624196666587 2.5340550912461031 S
atom -0.0000000340894682 1.9405937298182365 7.6008292911906397 S
atom 4.9514831402996773 3.0108893763922873 7.6008292911906468 S
atom 0.0000000020486931 7.9623725146432331 7.6008292911906228 S
atom 4.9514830721227119 6.8920768360303315 7.6008292911906548 S
atom -0.0000000000007938 -0.0000000000008949 10.1542537402395130 Ba
atom 4.9514831222308153 -0.0000000160202712 10.1542537402395894 Ba
atom -0.0000000160201782 4.9514831222306972 10.1542537402395237 Ba
atom 4.9514831062113673 4.9514831062112563 10.1542537402395681 Ba
atom -0.0000000000007542 -0.0000000000007772 15.2564469507239195 Ba
atom 4.9514831222307931 -0.0000000160203046 15.2564469507239355 Ba
atom -0.0000000160202106 4.9514831222306706 15.2564469507238893 Ba
atom 4.9514831062113780 4.9514831062113958 15.2564469507238876 Ba
atom 2.4757415531053497 2.4757415531052422 12.7053503454817935 Zr
atom 7.4272246753368938 2.4757415370858311 12.7053503454819054 Zr
atom 2.4757415370859119 7.4272246753368449 12.7053503454819481 Zr
atom 7.4272246593175089 7.4272246593173410 12.7053503454818717 Zr
atom 2.4757415531053413 2.4757415531052831 17.8258688667263243 Zr
atom 7.4272246753369586 2.4757415370857809 17.8258688667263208 Zr
atom 2.4757415370859981 7.4272246753367881 17.8258688667262781 Zr
atom 7.4272246593175000 7.4272246593174174 17.8258688667263883 Zr
atom 2.4757415531053724 2.4757415531052680 10.1513073485978023 S
atom 7.4272246753368814 2.4757415370857969 10.1513073485978147 S
atom 2.4757415370858964 7.4272246753366771 10.1513073485978751 S
atom 7.4272246593174875 7.4272246593173525 10.1513073485977312 S
atom 2.4757415531052058 2.4757415531051588 15.2593933423661117 S
atom 7.4272246753369862 2.4757415370857672 15.2593933423662076 S
atom 2.4757415370859999 7.4272246753368192 15.2593933423660761 S
atom 7.4272246593174067 7.4272246593173250 15.2593933423660637 S
atom 1.9418072402801527 -0.0000000081056740 12.7053503454816088 S
atom 7.9611590041814670 -0.0000000239352049 12.7053503454816727 S
atom 3.0096758659305034 4.9514831143156783 12.7053503454816585 S
atom 6.8932903464923152 4.9514830981065971 12.7053503454816958 S
atom 3.0108893924117890 0.0000000180680805 17.8098713997730727 S
atom 6.8920768520498710 -0.0000000501088433 17.8098713997729980 S
atom 1.9405937137989195 4.9514830881418890 17.8098713997729021 S
atom 7.9623724986239024 4.9514831242801334 17.8098713997729448 S
atom -0.0000000079156898 3.0096758819498235 12.7053503454815662 S
atom 4.9514831141260096 1.9418072242606625 12.7053503454816603 S
atom -0.0000000241249164 6.8932903625116078 12.7053503454816408 S
atom 4.9514830982964124 7.9611589881619578 12.7053503454816035 S
atom -0.0000000340894355 1.9405937298182461 17.8098713997730229 S
atom 4.9514831402996373 3.0108893763922615 17.8098713997726357 S
atom 0.0000000020487545 7.9623725146432349 17.8098713997727884 S
atom 4.9514830721225334 6.8920768360303644 17.8098713997730016 S
atom -0.0000000000008788 -0.0000000000009168 20.3408900054633577 Ba
atom 4.9514831222307869 -0.0000000160201104 20.3408900054634749 Ba
atom -0.0000000160202316 4.9514831222309450 20.3408900054632156 Ba
atom 4.9514831062113123 4.9514831062111426 20.3408900054631374 Ba
atom -0.0000000000007740 -0.0000000000012375 25.2465765901746124 Ba
atom 4.9514831222306617 -0.0000000160207134 25.2465765901747403 Ba
atom -0.0000000160202791 4.9514831222302469 25.2465765901745840 Ba
atom 4.9514831062113318 4.9514831062109979 25.2465765901744952 Ba
atom 2.4757415531052436 2.4757415531050890 22.9683508820501316 Zr
atom 7.4272246753368174 2.4757415370856832 22.9683508820500570 Zr
atom 2.4757415370858982 7.4272246753366469 22.9683508820502773 Zr
atom 7.4272246593173623 7.4272246593172087 22.9683508820503022 Zr
atom 2.4757415531056219 2.4757415531051610 20.3666958803815845 S
atom 7.4272246753365474 2.4757415370856228 20.3666958803816946 S
atom 2.4757415370855806 7.4272246753366771 20.3666958803815596 S
atom 7.4272246593177185 7.4272246593173623 20.3666958803815419 S
atom 2.4757415531048164 2.4757415531051281 25.5126271621942458 S
atom 7.4272246753372171 2.4757415370857960 25.5126271621942955 S
atom 2.4757415370861353 7.4272246753366939 25.5126271621942315 S
atom 7.4272246593170257 7.4272246593171785 25.5126271621941676 S
atom 2.0478038087753738 0.0000005918343029 22.8766455997173495 S
atom 7.8551624356861396 -0.0000006238751404 22.8766455997174738 S
atom 2.9036792974351786 4.9514825143758214 22.8766455997173779 S
atom 6.9992869149874686 4.9514836980464993 22.8766455997173708 S
atom -0.0000006078556047 2.9036793134545342 22.8766455997168450 S
atom 4.9514837140660122 2.0478037927557993 22.8766455997177935 S
atom 0.0000005758148868 6.9992869310067976 22.8766455997177012 S
atom 4.9514824983566577 7.8551624196666969 22.8766455997171008 S
atom 2.4757415531049860 2.4757415531050135 28.6240885034226622 Ba
atom 7.4272246753367392 2.4757415370854945 28.6240885034227226 Ba
atom 2.4757415370856841 7.4272246753364621 28.6240885034226551 Ba
atom 7.4272246593171705 7.4272246593170124 28.6240885034227475 Ba
atom 2.4757415531050970 2.4757415531045686 33.5297827206647199 Ba
atom 7.4272246753364861 2.4757415370852103 33.5297827206649828 Ba
atom 2.4757415370857285 7.4272246753362436 33.5297827206645991 Ba
atom 7.4272246593171829 7.4272246593169697 33.5297827206647696 Ba
atom 4.9514831062112519 4.9514831062109010 30.9023136623406955 Zr
atom 9.9029662284426720 4.9514830901915259 30.9023136623410508 Zr
atom 4.9514830901917488 9.9029662284425157 30.9023136623415198 Zr
atom 9.9029662124233155 9.9029662124231024 30.9023136623406920 Zr
atom 4.9514831062111329 4.9514831062108602 36.0448070686248982 Zr
atom 9.9029662284426916 4.9514830901914806 36.0448070686251327 Zr
atom 4.9514830901917319 9.9029662284424305 36.0448070686247206 Zr
atom 9.9029662124232942 9.9029662124230047 36.0448070686244577 Zr
atom 4.9514831062113176 4.9514831062108939 28.3580383036447650 S
atom 9.9029662284426028 4.9514830901914051 28.3580383036441610 S
atom 4.9514830901916840 9.9029662284424411 28.3580383036443955 S
atom 9.9029662124234576 9.9029662124231290 28.3580383036447721 S
atom 4.9514831062109890 4.9514831062107714 33.5039773405562045 S
atom 9.9029662284427982 4.9514830901914930 33.5039773405563324 S
atom 4.9514830901916849 9.9029662284425406 33.5039773405566592 S
atom 9.9029662124233901 9.9029662124230189 33.5039773405566024 S
atom 4.5235333371371382 2.4757421189914441 30.9940230170021600 S
atom 10.3309160135361822 2.4757409551789729 30.9940230170023376 S
atom 5.3794328752850600 7.4272240934300564 30.9940230170022275 S
atom 9.4750164433493183 7.4272252252038200 30.9940230170023305 S
atom 5.4866204184427012 2.4757415729677938 36.0608004807916984 S
atom 9.3678289322305517 2.4757415012025294 36.0608004807915492 S
atom 4.4163457939795219 7.4272246394536525 36.0608004807913076 S
atom 10.4381035246549061 7.4272246791800631 36.0608004807913858 S
atom 2.4757409711988725 5.3794328913042877 30.9940230170021600 S
atom 7.4272252412233257 4.5235333211174886 30.9940230170024229 S
atom 2.4757421029725917 9.4750164593684545 30.9940230170022950 S
atom 7.4272240774107541 10.3309159975164189 30.9940230170021174 S
atom 2.4757415172222372 4.4163458099986963 36.0608004807915634 S
atom 7.4272246951998859 5.4866204024229939 36.0608004807913858 S
atom 2.4757415569487993 10.4381035406739766 36.0608004807915137 S
atom 7.4272246234345110 9.3678289162107973 36.0608004807913787 S
atom 2.4757415531050690 2.4757415531048848 38.6142201649011199 Ba
atom 7.4272246753366158 2.4757415370854425 38.6142201649014467 Ba
atom 2.4757415370856592 7.4272246753362685 38.6142201649011767 Ba
atom 7.4272246593172362 7.4272246593168516 38.6142201649013899 Ba
atom 2.4757415531049940 2.4757415531046596 43.7164500738127515 Ba
atom 7.4272246753365581 2.4757415370852018 43.7164500738129078 Ba
atom 2.4757415370855473 7.4272246753362605 43.7164500738125241 Ba
atom 7.4272246593170985 7.4272246593168605 43.7164500738127089 Ba
atom 4.9514831062111080 4.9514831062108007 41.1653351193570813 Zr
atom 9.9029662284426632 4.9514830901914930 41.1653351193566621 Zr
atom 4.9514830901916920 9.9029662284423949 41.1653351193572377 Zr
atom 9.9029662124233351 9.9029662124230757 41.1653351193571524 Zr
atom 4.9514831062111027 4.9514831062107891 46.2858631700890797 Zr
atom 9.9029662284426223 4.9514830901915614 46.2858631700898329 Zr
atom 4.9514830901917311 9.9029662284423754 46.2858631700903089 Zr
atom 9.9029662124233120 9.9029662124230722 46.2858631700890157 Zr
atom 4.9514831062112794 4.9514831062107838 38.6112934042753935 S
atom 9.9029662284424713 4.9514830901914486 38.6112934042754716 S
atom 4.9514830901918039 9.9029662284423985 38.6112934042757416 S
atom 9.9029662124231255 9.9029662124229763 38.6112934042757487 S
atom 4.9514831062109916 4.9514831062108611 43.7193768344370923 S
atom 9.9029662284428088 4.9514830901914779 43.7193768344373268 S
atom 4.9514830901916342 9.9029662284423416 43.7193768344376537 S
atom 9.9029662124234026 9.9029662124230509 43.7193768344373836 S
atom 4.4175134269000003 2.4757415451540208 41.1653351193572732 S
atom 10.4369359237732233 2.4757415290166169 41.1653351193571666 S
atom 5.4854527855222832 7.4272246672674740 41.1653351193573158 S
atom 9.3689965331120959 7.4272246513656919 41.1653351193572519 S
atom 5.4866204184427554 2.4757415729681362 46.2698697579225851 S
atom 9.3678289322304753 2.4757415012024704 46.2698697579226703 S
atom 4.4163457939794766 7.4272246394536472 46.2698697579224429 S
atom 10.4381035246548901 7.4272246791799548 46.2698697579227058 S
atom 2.4757415450363189 5.4854528015414123 41.1653351193571737 S
atom 7.4272246673857873 4.4175134108803356 41.1653351193574579 S
atom 2.4757415291347242 9.3689965491312250 41.1653351193571808 S
atom 7.4272246512484772 10.4369359077535222 41.1653351193575787 S
atom 2.4757415172225965 4.4163458099986670 46.2698697579227769 S
atom 7.4272246951997873 5.4866204024231378 46.2698697579226916 S
atom 2.4757415569487895 10.4381035406740139 46.2698697579227627 S
atom 7.4272246234343609 9.3678289162107244 46.2698697579224572 S
atom 2.4757415531049416 2.4757415531047999 48.8008875180491870 Ba
atom 7.4272246753365714 2.4757415370854505 48.8008875180492723 Ba
atom 2.4757415370856406 7.4272246753364373 48.8008875180490165 Ba
atom 7.4272246593171163 7.4272246593170239 48.8008875180490094 Ba
atom 2.4757415531052298 2.4757415531049705 53.7065817352915715 Ba
atom 7.4272246753368396 2.4757415370854288 53.7065817352916781 Ba
atom 2.4757415370857760 7.4272246753362499 53.7065817352914436 Ba
atom 7.4272246593173934 7.4272246593169822 53.7065817352914578 Ba
atom 4.9514831062112181 4.9514831062109597 51.4283565763743340 Zr
atom 9.9029662284427200 4.9514830901915508 51.4283565763731048 Zr
atom 4.9514830901917612 9.9029662284425051 51.4283565763730479 Zr
atom 9.9029662124233475 9.9029662124230686 51.4283565763738508 Zr
atom 4.9514831062112741 4.9514831062109321 48.8266928981574964 S
atom 9.9029662284425690 4.9514830901913420 48.8266928981571411 S
atom 4.9514830901918483 9.9029662284423221 48.8266928981571908 S
atom 9.9029662124232782 9.9029662124231361 48.8266928981573187 S
atom 4.9514831062110378 4.9514831062108708 53.9726319350681294 S
atom 9.9029662284429207 4.9514830901917781 53.9726319350693160 S
atom 4.9514830901918021 9.9029662284425815 53.9726319350695150 S
atom 9.9029662124233262 9.9029662124228572 53.9726319350684633 S
atom 4.5235333371370414 2.4757421189914059 51.3366472217116794 S
atom 10.3309160135361591 2.4757409551791705 51.3366472217121981 S
atom 5.3794328752851976 7.4272240934301221 51.3366472217120062 S
atom 9.4750164433492667 7.4272252252036557 51.3366472217117291 S
atom 2.4757409711985559 5.3794328913043410 51.3366472217116510 S
atom 7.4272252412236845 4.5235333211175357 51.3366472217121697 S
atom 2.4757421029725237 9.4750164593685042 51.3366472217119423 S
atom 7.4272240774108171 10.3309159975165237 51.3366472217123615 S
