#=======================================================
# FHI-aims file: full_relax/full_relax_RP_8_Rx00_0Ry0.in
# Created using the Atomic Simulation Environment (ASE)
# Mon Mar 24 15:55:14 2025
#=======================================================
lattice_vector 10.0821177721563160 0.0000000000000018 -0.0000000000000003 
lattice_vector 0.0000000000000018 10.0821177721563160 0.0000000000000002 
lattice_vector -0.0000000000000027 0.0000000000000019 84.8166274289760480 
atom -0.1529547129746590 -0.0000000000005833 0.2780172098885815 Ba
atom 5.1940135990514351 -0.0000000000005923 0.2780172098886909 Ba
atom 0.1529547129732629 5.0410588860776189 0.2780172098886760 Ba
atom 4.8881041731035291 5.0410588860776366 0.2780172098886396 Ba
atom 0.0276102311220137 -0.0000000000004944 4.9447611011929906 Ba
atom 5.0134486549549315 -0.0000000000005722 4.9447611011930128 Ba
atom -0.0276102311232427 5.0410588860775842 4.9447611011930457 Ba
atom 5.0686691172001757 5.0410588860776278 4.9447611011930181 Ba
atom 2.5205294430384089 2.5080505182780235 2.3198083177308662 Zr
atom 7.5615883291165780 2.5330083677989914 2.3198083177308186 Zr
atom 2.5205294430383889 7.5740672538771898 2.3198083177308511 Zr
atom 7.5615883291165860 7.5491094043561917 2.3198083177308355 Zr
atom 2.5205294430384453 2.5192972397928237 7.3318603906177024 Zr
atom 7.5615883291166153 2.5217616462842458 7.3318603906176412 Zr
atom 2.5205294430384737 7.5628205323624229 7.3318603906176527 Zr
atom 7.5615883291166073 7.5603561258709533 7.3318603906176243 Zr
atom 2.5205294430383915 2.8739253764180628 -0.1615447102296991 S
atom 7.5615883291165815 2.1671335096589464 -0.1615447102297403 S
atom 2.5205294430383898 7.2081923957371590 -0.1615447102296883 S
atom 7.5615883291165567 7.9149842624962030 -0.1615447102297128 S
atom 2.5205294430385092 2.0477627710070845 4.8620958980514688 S
atom 7.5615883291165336 2.9932961150699788 4.8620958980514519 S
atom 2.5205294430383738 8.0343550011481799 4.8620958980515043 S
atom 7.5615883291166348 7.0888216570851883 4.8620958980514777 S
atom 2.5205294430384075 -0.0000000000005746 2.0049745158462060 S
atom 7.5615883291166153 -0.0000000000005442 2.7970959773427331 S
atom 2.5205294430384524 5.0410588860776029 2.7970959773427615 S
atom 7.5615883291165247 5.0410588860775976 2.0049745158461620 S
atom 2.5205294430383307 -0.0000000000005015 7.8112638375775401 S
atom 7.5615883291167023 -0.0000000000005168 6.8756870024489904 S
atom 2.5205294430385292 5.0410588860776073 6.8756870024490020 S
atom 7.5615883291164971 5.0410588860776429 7.8112638375775134 S
atom -0.0000000000006810 2.5205294430385456 2.4549193957528295 S
atom 5.0410588860775052 2.5205294430385110 2.4549193957527331 S
atom -0.0000000000006803 7.5615883291166774 2.4549193957527700 S
atom 5.0410588860774972 7.5615883291166881 2.4549193957528188 S
atom -0.0000000000006269 2.5205294430386531 7.3495572538104579 S
atom 5.0410588860775238 2.5205294430384013 7.3495572538107083 S
atom -0.0000000000006273 7.5615883291165682 7.3495572538107456 S
atom 5.0410588860775407 7.5615883291168107 7.3495572538104774 S
atom -0.0075319564049144 -0.0000000000006364 9.8383305156451915 Ba
atom 5.0485908424818557 -0.0000000000004451 9.8383305156450387 Ba
atom 0.0075319564037182 5.0410588860777343 9.8383305156450156 Ba
atom 5.0335269296732479 5.0410588860775443 9.8383305156452021 Ba
atom 0.0069642031331776 -0.0000000000003392 14.7779776583558213 Ba
atom 5.0340946829437110 -0.0000000000006650 14.7779776583560718 Ba
atom -0.0069642031343784 5.0410588860774803 14.7779776583560860 Ba
atom 5.0480230892113909 5.0410588860777912 14.7779776583558551 Ba
atom 2.5205294430384950 2.5220925707719206 12.2906966134348394 Zr
atom 7.5615883291166242 2.5189663153052027 12.2906966134348341 Zr
atom 2.5205294430384759 7.5600252013833398 12.2906966134349052 Zr
atom 7.5615883291166632 7.5631514568500746 12.2906966134348696 Zr
atom 2.5205294430384786 2.5202500265204968 17.2470693602150860 Zr
atom 7.5615883291166304 2.5208088595566465 17.2470693602151890 Zr
atom 2.5205294430384884 7.5618677456348093 17.2470693602152529 Zr
atom 7.5615883291166259 7.5613089125986663 17.2470693602152423 Zr
atom 2.5205294430383294 3.0283150272396173 9.8182880733457072 S
atom 7.5615883291167583 2.0127438588374669 9.8182880733456717 S
atom 2.5205294430386465 7.0538027449156413 9.8182880733456628 S
atom 7.5615883291164359 8.0693739133177189 9.8182880733456450 S
atom 2.5205294430386682 2.0109618954248707 14.7712146538939493 S
atom 7.5615883291164572 3.0300969906522268 14.7712146538939972 S
atom 2.5205294430381722 8.0711558767304243 14.7712146538940647 S
atom 7.5615883291169457 7.0520207815030176 14.7712146538939564 S
atom 2.5205294430386447 -0.0000000000004937 11.8197555810074633 S
atom 7.5615883291164554 -0.0000000000004709 12.7787282104434023 S
atom 2.5205294430383240 5.0410588860776970 12.7787282104434521 S
atom 7.5615883291168124 5.0410588860776118 11.8197555810074544 S
atom 2.5205294430383778 -0.0000000000004136 17.7299513004441209 S
atom 7.5615883291167920 -0.0000000000004580 16.7681872095701330 S
atom 2.5205294430386251 5.0410588860776038 16.7681872095702147 S
atom 7.5615883291165487 5.0410588860775540 17.7299513004440747 S
atom -0.0000000000005856 2.5205294430383400 12.2988549071371942 S
atom 5.0410588860775416 2.5205294430387486 12.2988549071367785 S
atom -0.0000000000006045 7.5615883291168888 12.2988549071367306 S
atom 5.0410588860775469 7.5615883291164740 12.2988549071373061 S
atom -0.0000000000006112 2.5205294430387144 17.2485710740606244 S
atom 5.0410588860775825 2.5205294430384213 17.2485710740611147 S
atom -0.0000000000006514 7.5615883291165593 17.2485710740612816 S
atom 5.0410588860776331 7.5615883291168808 17.2485710740604610 S
atom -0.0063085362782229 -0.0000000000007087 19.7247970765058298 Ba
atom 5.0473674223550073 -0.0000000000003257 19.7247970765059009 Ba
atom 0.0063085362769161 5.0410588860778365 19.7247970765058120 Ba
atom 5.0347503498000235 5.0410588860774919 19.7247970765058760 Ba
atom 0.0069642031332396 -0.0000000000003584 24.6716164946557797 Ba
atom 5.0340946829436808 -0.0000000000006514 24.6716164946557512 Ba
atom -0.0069642031344321 5.0410588860774928 24.6716164946557797 Ba
atom 5.0480230892114921 5.0410588860778223 24.6716164946558258 Ba
atom 2.5205294430384564 2.5202500265204826 22.2025247927966909 Zr
atom 7.5615883291166242 2.5208088595566496 22.2025247927967087 Zr
atom 2.5205294430384644 7.5618677456347925 22.2025247927967868 Zr
atom 7.5615883291166153 7.5613089125986201 22.2025247927968579 Zr
atom 2.5205294430384675 2.5220925707719131 27.1588975395769410 Zr
atom 7.5615883291166011 2.5189663153052155 27.1588975395769445 Zr
atom 2.5205294430384546 7.5600252013833753 27.1588975395769054 Zr
atom 7.5615883291166428 7.5631514568500595 27.1588975395768770 Zr
atom 2.5205294430382916 3.0307156355824514 19.7247970765060394 S
atom 7.5615883291168133 2.0103432504946879 19.7247970765060536 S
atom 2.5205294430388574 7.0514021365728556 19.7247970765058405 S
atom 7.5615883291162458 8.0717745216605703 19.7247970765059719 S
atom 2.5205294430386176 2.0109618954249964 24.6783794991179484 S
atom 7.5615883291164598 3.0300969906521558 24.6783794991176890 S
atom 2.5205294430381229 8.0711558767303284 24.6783794991178453 S
atom 7.5615883291169572 7.0520207815030922 24.6783794991179164 S
atom 2.5205294430383618 -0.0000000000005049 21.7196428525675280 S
atom 7.5615883291167050 -0.0000000000005869 22.6814069434413774 S
atom 2.5205294430385710 5.0410588860777743 22.6814069434414414 S
atom 7.5615883291165522 5.0410588860777716 21.7196428525675280 S
atom 2.5205294430384524 -0.0000000000004676 27.6298385720043314 S
atom 7.5615883291166490 -0.0000000000004325 26.6708659425684154 S
atom 2.5205294430384946 5.0410588860776526 26.6708659425684260 S
atom 7.5615883291165815 5.0410588860776295 27.6298385720043420 S
atom -0.0000000000005338 2.5205294430386771 22.2010230789510317 S
atom 5.0410588860774554 2.5205294430384568 22.2010230789504845 S
atom -0.0000000000006041 7.5615883291166304 22.2010230789503282 S
atom 5.0410588860775398 7.5615883291168524 22.2010230789512200 S
atom -0.0000000000006575 2.5205294430385723 27.1507392458746253 S
atom 5.0410588860775833 2.5205294430385217 27.1507392458749521 S
atom -0.0000000000006747 7.5615883291166970 27.1507392458751475 S
atom 5.0410588860775931 7.5615883291167156 27.1507392458744263 S
atom -0.0075319564050305 -0.0000000000006384 29.6112636373666867 Ba
atom 5.0485908424818229 -0.0000000000004305 29.6112636373666795 Ba
atom 0.0075319564037228 5.0410588860777334 29.6112636373667293 Ba
atom 5.0335269296732275 5.0410588860775700 29.6112636373666298 Ba
atom 0.0276102311219107 -0.0000000000004387 34.5048330518190198 Ba
atom 5.0134486549549511 -0.0000000000005197 34.5048330518189346 Ba
atom -0.0276102311231025 5.0410588860775611 34.5048330518189559 Ba
atom 5.0686691172000460 5.0410588860776038 34.5048330518189559 Ba
atom 2.5205294430384213 2.5192972397928397 32.1177337623939181 Zr
atom 7.5615883291166011 2.5217616462842698 32.1177337623940744 Zr
atom 2.5205294430384422 7.5628205323624336 32.1177337623941810 Zr
atom 7.5615883291165868 7.5603561258710226 32.1177337623939323 Zr
atom 2.5205294430384115 2.5080505182781168 37.1297858352812398 Zr
atom 7.5615883291165780 2.5330083677990061 37.1297858352812753 Zr
atom 2.5205294430384071 7.5740672538771632 37.1297858352812185 Zr
atom 7.5615883291165877 7.5491094043562219 37.1297858352813535 Zr
atom 2.5205294430383622 3.0283150272394805 29.6313060796659968 S
atom 7.5615883291167050 2.0127438588375610 29.6313060796660821 S
atom 2.5205294430386638 7.0538027449157692 29.6313060796658405 S
atom 7.5615883291163781 8.0693739133176319 29.6313060796658618 S
atom 2.5205294430384497 2.0477627710071262 34.5874982549602379 S
atom 7.5615883291165931 2.9932961150699584 34.5874982549600389 S
atom 2.5205294430383103 8.0343550011481533 34.5874982549603800 S
atom 7.5615883291166988 7.0888216570852185 34.5874982549601597 S
atom 2.5205294430383751 -0.0000000000005151 31.6383303154345050 S
atom 7.5615883291166277 -0.0000000000005657 32.5739071505630591 S
atom 2.5205294430384679 5.0410588860777112 32.5739071505630591 S
atom 7.5615883291165611 5.0410588860776526 31.6383303154346365 S
atom 2.5205294430383836 -0.0000000000005277 37.4446196371658431 S
atom 7.5615883291166428 -0.0000000000005722 36.6524981756693222 S
atom 2.5205294430384595 5.0410588860775976 36.6524981756692227 S
atom 7.5615883291165362 5.0410588860776055 37.4446196371658218 S
atom -0.0000000000005483 2.5205294430385945 32.1000368992014629 S
atom 5.0410588860774181 2.5205294430384875 32.1000368992014771 S
atom -0.0000000000005724 7.5615883291166250 32.1000368992014131 S
atom 5.0410588860774324 7.5615883291167307 32.1000368992016405 S
atom -0.0000000000007435 2.5205294430385741 36.9946747572592542 S
atom 5.0410588860775674 2.5205294430384897 36.9946747572593182 S
atom -0.0000000000007206 7.5615883291166570 36.9946747572593395 S
atom 5.0410588860775398 7.5615883291167565 36.9946747572591690 S
atom -0.1529547129745905 -0.0000000000005758 39.1715769431243146 Ba
atom 5.1940135990513223 -0.0000000000005758 39.1715769431240659 Ba
atom 0.1529547129732499 5.0410588860776171 39.1715769431242578 Ba
atom 4.8881041731035770 5.0410588860776357 39.1715769431243004 Ba
atom 2.5205294430384222 2.8739253764180903 39.6111388632421324 S
atom 7.5615883291165540 2.1671335096589468 39.6111388632421182 S
atom 2.5205294430384639 7.2081923957371661 39.6111388632420258 S
atom 7.5615883291164847 7.9149842624961959 39.6111388632423171 S
atom 2.5205294430383063 2.3675747300645020 42.6863309243770672 Ba
atom 7.5615883291164483 2.6734841560124325 42.6863309243771951 Ba
atom 2.5205294430383427 7.7145430420905878 42.6863309243770956 Ba
atom 7.5615883291164714 7.4086336161426223 42.6863309243769891 Ba
atom 2.5205294430383400 2.5481396741607294 47.3530748156811967 Ba
atom 7.5615883291164199 2.4929192119159760 47.3530748156809764 Ba
atom 2.5205294430382827 7.5339780979941606 47.3530748156812251 Ba
atom 7.5615883291163817 7.5891985602389793 47.3530748156811612 Ba
atom 5.0285799613169511 5.0410588860775256 44.7281220322178896 Zr
atom 10.0945966969159606 5.0410588860775141 44.7281220322177404 Zr
atom 5.0535378108378506 10.0821177721556374 44.7281220322180104 Zr
atom 10.0696388473950584 10.0821177721556552 44.7281220322180317 Zr
atom 5.0398266828316594 5.0410588860774741 49.7401741051064405 Zr
atom 10.0833499754011751 5.0410588860774803 49.7401741051063837 Zr
atom 5.0422910893230712 10.0821177721556321 49.7401741051063198 Zr
atom 10.0808855689098316 10.0821177721556570 49.7401741051065542 Zr
atom 5.3944548194566835 5.0410588860775389 42.2467690042571036 S
atom 9.7287218387762593 5.0410588860775540 42.2467690042568407 S
atom 4.6876629526980924 10.0821177721557866 42.2467690042573025 S
atom 10.4355137055348628 10.0821177721556197 42.2467690042570823 S
atom 4.5682922140457318 5.0410588860775025 47.2704096125395878 S
atom 10.5548844441871594 5.0410588860774155 47.2704096125394884 S
atom 5.5138255581090299 10.0821177721556694 47.2704096125393107 S
atom 9.6093511001238081 10.0821177721557014 47.2704096125392539 S
atom 5.0410588860773551 2.5205294430385452 44.8632331102415591 S
atom 10.0821177721555237 2.5205294430384906 44.8632331102415165 S
atom 5.0410588860773942 7.5615883291164963 44.8632331102415094 S
atom 10.0821177721555255 7.5615883291165238 44.8632331102415804 S
atom 5.0410588860772183 2.5205294430383112 49.7578709682990237 S
atom 10.0821177721556303 2.5205294430383716 49.7578709682990024 S
atom 5.0410588860774626 7.5615883291166641 49.7578709682987821 S
atom 10.0821177721553834 7.5615883291166099 49.7578709682989171 S
atom 2.5205294430382916 5.0410588860775114 44.4132882303349348 S
atom 7.5615883291164483 5.0410588860775079 45.2054096918318820 S
atom 2.5205294430383569 10.0821177721556481 45.2054096918319033 S
atom 7.5615883291164758 10.0821177721556818 44.4132882303350200 S
atom 2.5205294430382890 5.0410588860775789 50.2195775520656795 S
atom 7.5615883291164350 5.0410588860773800 49.2840007169372640 S
atom 2.5205294430382335 10.0821177721555824 49.2840007169373564 S
atom 7.5615883291164661 10.0821177721557671 50.2195775520659922 S
atom 2.5205294430382268 2.5129974866342426 52.2466442301336116 Ba
atom 7.5615883291163790 2.5280613994425520 52.2466442301337608 Ba
atom 2.5205294430382414 7.5691202855206781 52.2466442301336471 Ba
atom 7.5615883291164776 7.5540563727124717 52.2466442301336826 Ba
atom 2.5205294430381473 2.5274936461722559 57.1862913728446216 Ba
atom 7.5615883291164652 2.5135652399043820 57.1862913728445861 Ba
atom 2.5205294430382681 7.5546241259824685 57.1862913728446571 Ba
atom 7.5615883291163586 7.5685525322506244 57.1862913728445292 Ba
atom 5.0426220138105853 5.0410588860774501 54.6990103279240927 Zr
atom 10.0805546444222678 5.0410588860774403 54.6990103279243272 Zr
atom 5.0394957583440227 10.0821177721556019 54.6990103279243129 Zr
atom 10.0836808998888348 10.0821177721556143 54.6990103279243058 Zr
atom 5.0407794695591948 5.0410588860774794 59.6553830747036500 Zr
atom 10.0823971886734469 5.0410588860774075 59.6553830747036002 Zr
atom 5.0413383025953520 10.0821177721555557 59.6553830747036145 Zr
atom 10.0818383556373163 10.0821177721556232 59.6553830747036358 Zr
atom 5.5488444702784729 5.0410588860776135 52.2266017878345892 S
atom 9.5743321879543668 5.0410588860774830 52.2266017878348379 S
atom 4.5332733018761520 10.0821177721555557 52.2266017878349587 S
atom 10.5899033563566451 10.0821177721555451 52.2266017878350013 S
atom 4.5314913384638231 5.0410588860771934 57.1795283683828757 S
atom 10.5916853197688798 5.0410588860773897 57.1795283683829751 S
atom 5.5506264336907361 10.0821177721558328 57.1795283683833446 S
atom 9.5725502245420877 10.0821177721556481 57.1795283683828401 S
atom 5.0410588860772805 2.5205294430383449 54.7071686216248878 S
atom 10.0821177721555237 2.5205294430383205 54.7071686216249304 S
atom 5.0410588860773551 7.5615883291165327 54.7071686216252928 S
atom 10.0821177721554367 7.5615883291165380 54.7071686216251649 S
atom 5.0410588860773062 2.5205294430385390 59.6568847885497888 S
atom 10.0821177721554065 2.5205294430384066 59.6568847885496325 S
atom 5.0410588860772076 7.5615883291163541 59.6568847885490285 S
atom 10.0821177721554616 7.5615883291164812 59.6568847885494833 S
atom 2.5205294430382081 5.0410588860774546 54.2280692954954020 S
atom 7.5615883291163684 5.0410588860773480 55.1870419249312505 S
atom 2.5205294430383596 10.0821177721555557 55.1870419249313429 S
atom 7.5615883291162511 10.0821177721555717 54.2280692954954304 S
atom 2.5205294430383320 5.0410588860773569 60.1382650149324931 S
atom 7.5615883291165211 5.0410588860774777 59.1765009240587219 S
atom 2.5205294430381486 10.0821177721556534 59.1765009240590558 S
atom 7.5615883291164554 10.0821177721556179 60.1382650149326139 S
atom 2.5205294430383649 2.5142209067604728 62.1331107909944365 Ba
atom 7.5615883291161694 2.5268379793162303 62.1331107909946070 Ba
atom 2.5205294430380811 7.5678968653940615 62.1331107909943299 Ba
atom 7.5615883291165211 7.5552797928388733 62.1331107909943370 Ba
atom 2.5205294430379013 2.5274936461719726 67.0799302091441660 Ba
atom 7.5615883291166934 2.5135652399049659 67.0799302091442087 Ba
atom 2.5205294430384750 7.5546241259824862 67.0799302091441945 Ba
atom 7.5615883291161081 7.5685525322505267 67.0799302091442087 Ba
atom 5.0407794695592196 5.0410588860774199 64.6108385072844982 Zr
atom 10.0823971886734221 5.0410588860774626 64.6108385072844555 Zr
atom 5.0413383025953156 10.0821177721556126 64.6108385072845834 Zr
atom 10.0818383556373572 10.0821177721555824 64.6108385072847824 Zr
atom 5.0426220138106146 5.0410588860774261 69.5672112540649721 Zr
atom 10.0805546444221079 5.0410588860774261 69.5672112540650147 Zr
atom 5.0394957583439535 10.0821177721555930 69.5672112540654126 Zr
atom 10.0836808998887371 10.0821177721555912 69.5672112540649579 Zr
atom 5.5512450786209167 5.0410588860780585 62.1331107909942588 S
atom 9.5719315796117712 5.0410588860774590 62.1331107909939604 S
atom 4.5308726935336709 10.0821177721550566 62.1331107909939391 S
atom 10.5923039646990933 10.0821177721555770 62.1331107909937188 S
atom 4.5314913384635496 5.0410588860764687 67.0866932136054004 S
atom 10.5916853197691410 5.0410588860773995 67.0866932136059830 S
atom 5.5506264336910212 10.0821177721565203 67.0866932136055567 S
atom 9.5725502245417360 10.0821177721556126 67.0866932136059830 S
atom 5.0410588860774022 2.5205294430382681 64.6093367934389704 S
atom 10.0821177721553443 2.5205294430384133 64.6093367934397094 S
atom 5.0410588860771695 7.5615883291166188 64.6093367934405904 S
atom 10.0821177721555468 7.5615883291164856 64.6093367934396952 S
atom 5.0410588860775274 2.5205294430381193 69.5590529603644825 S
atom 10.0821177721552004 2.5205294430381455 69.5590529603634735 S
atom 5.0410588860771011 7.5615883291167281 69.5590529603624361 S
atom 10.0821177721556356 7.5615883291166837 69.5590529603633883 S
atom 2.5205294430381637 5.0410588860774306 64.1279565670565574 S
atom 7.5615883291166588 5.0410588860775656 65.0897206579306129 S
atom 2.5205294430380389 10.0821177721556854 65.0897206579306555 S
atom 7.5615883291165638 10.0821177721554491 64.1279565670565432 S
atom 2.5205294430384262 5.0410588860771686 70.0381522864932862 S
atom 7.5615883291162813 5.0410588860775816 69.0791796570571961 S
atom 2.5205294430384062 10.0821177721556765 69.0791796570569403 S
atom 7.5615883291161863 10.0821177721554101 70.0381522864932577 S
atom 2.5205294430384453 2.5129974866339468 72.0195773518551903 Ba
atom 7.5615883291161072 2.5280613994427097 72.0195773518550340 Ba
atom 2.5205294430379195 7.5691202855203921 72.0195773518547213 Ba
atom 7.5615883291167041 7.5540563727126111 72.0195773518552755 Ba
atom 2.5205294430381615 2.5481396741608990 76.9131467663071504 Ba
atom 7.5615883291165140 2.4929192119159098 76.9131467663072073 Ba
atom 2.5205294430384071 7.5339780979937077 76.9131467663073494 Ba
atom 7.5615883291162183 7.5891985602392866 76.9131467663072073 Ba
atom 5.0398266828315181 5.0410588860774812 74.5260474768831358 Zr
atom 10.0833499754012355 5.0410588860774315 74.5260474768832069 Zr
atom 5.0422910893230455 10.0821177721555770 74.5260474768831784 Zr
atom 10.0808855689097712 10.0821177721556428 74.5260474768830079 Zr
atom 5.0285799613168978 5.0410588860775256 79.5380995497699246 Zr
atom 10.0945966969160335 5.0410588860775478 79.5380995497699814 Zr
atom 5.0535378108378781 10.0821177721556872 79.5380995497697114 Zr
atom 10.0696388473950371 10.0821177721556712 79.5380995497700809 Zr
atom 5.5488444702785680 5.0410588860783720 72.0396197941543761 S
atom 9.5743321879542798 5.0410588860775007 72.0396197941541629 S
atom 4.5332733018759859 10.0821177721547013 72.0396197941549872 S
atom 10.5899033563566984 10.0821177721555308 72.0396197941548451 S
atom 4.5682922140458535 5.0410588860769261 76.9958119694492495 S
atom 10.5548844441869800 5.0410588860774226 76.9958119694494485 S
atom 5.5138255581088149 10.0821177721562627 76.9958119694491359 S
atom 9.6093511001239076 10.0821177721556978 76.9958119694490648 S
atom 5.0410588860771286 2.5205294430386740 74.5083506136885347 S
atom 10.0821177721556179 2.5205294430385488 74.5083506136896290 S
atom 5.0410588860774652 7.5615883291162707 74.5083506136902542 S
atom 10.0821177721552839 7.5615883291163479 74.5083506136895721 S
atom 5.0410588860773657 2.5205294430383351 79.4029884717476762 S
atom 10.0821177721554811 2.5205294430383405 79.4029884717474346 S
atom 5.0410588860773435 7.5615883291167245 79.4029884717467382 S
atom 10.0821177721555326 7.5615883291167032 79.4029884717473067 S
atom 2.5205294430381469 5.0410588860775771 74.0466440299224757 S
atom 7.5615883291164394 5.0410588860773284 74.9822208650511328 S
atom 2.5205294430382859 10.0821177721555539 74.9822208650511755 S
atom 7.5615883291163879 10.0821177721557973 74.0466440299226747 S
atom 2.5205294430382046 5.0410588860775398 79.8529333516538458 S
atom 7.5615883291165362 5.0410588860775434 79.0608118901572254 S
atom 2.5205294430382601 10.0821177721556818 79.0608118901571970 S
atom 7.5615883291164598 10.0821177721556499 79.8529333516541016 S
atom 2.5205294430382463 2.3675747300644781 81.5798906576111023 Ba
atom 7.5615883291164563 2.6734841560125546 81.5798906576112444 Ba
atom 2.5205294430383103 7.7145430420905479 81.5798906576110028 Ba
atom 7.5615883291164341 7.4086336161425717 81.5798906576112586 Ba
atom 5.3944548194567394 5.0410588860777699 82.0194525777297656 S
atom 9.7287218387761261 5.0410588860775336 82.0194525777299930 S
atom 4.6876629526979317 10.0821177721555220 82.0194525777300782 S
atom 10.4355137055349729 10.0821177721556712 82.0194525777301351 S
