#=======================================================
# FHI-aims file: full_relax/full_relax_RP_5_RxRyRz_-RxRy0.in
# Created using the Atomic Simulation Environment (ASE)
# Fri Mar 14 11:37:39 2025
#=======================================================
lattice_vector 10.0099330747960416 -0.0180004987453483 -0.0043732245347826 
lattice_vector -0.0180004987454482 10.0099330748260407 0.0043732246282771 
lattice_vector -0.0248760388188545 0.0248760393424037 55.9435819307075164 
atom 0.0320564451330944 -0.0977654491774572 0.1974948780785761 Ba
atom 5.1027319659216896 -0.0410567374423531 0.1953082719147168 Ba
atom 0.0887651466888572 4.9729101102581295 0.1996814696537836 Ba
atom 5.0280227606732506 4.8982009074875270 0.1974948867475856 Ba
atom -0.2879590397383551 0.2250475656574798 4.9768005557301018 Ba
atom 4.7799189833341664 0.2789587180590223 4.9746139327065251 Ba
atom -0.2340478710872838 5.2929255671017712 4.9789871717909806 Ba
atom 4.7080073131225983 5.2210139139234153 4.9768005505587958 Ba
atom 2.4534698724063699 2.5489420205340112 2.3598259138343578 Zr
atom 7.4519906438344972 2.5334961378033434 2.3576393870933221 Zr
atom 2.4380239751632020 7.5474630770589952 2.3620125578926525 Zr
atom 7.4494360711792789 7.5449084886638556 2.3598259758652045 Zr
atom 2.4002765994270128 2.5605023861875065 7.4278603531611127 Zr
atom 7.4404304403479067 2.5866893719824366 7.4256735421121656 Zr
atom 2.4264636441694036 7.6006562418841703 7.4300466924520512 Zr
atom 7.3962428923775052 7.5564687114611848 7.4278599846564584 Zr
atom 2.6159807398148054 2.7987029357969031 -0.1450306343096121 S
atom 7.2022298792711750 2.3709853002731549 -0.1472174240581305 S
atom 2.1882630853590763 7.3849520483902671 -0.1428442260065126 S
atom 7.6119470548278505 7.7946692356962872 -0.1450308736166195 S
atom 2.2158574167547767 2.2859548713725601 4.9251219106292847 S
atom 7.7149779890015910 2.7711086339567306 4.9229354576204134 S
atom 2.7010111861392030 7.7850754068661692 4.9273088291688403 S
atom 7.2118237055202945 7.2819211228976108 4.9251223192473592 S
atom 2.7032992143999630 0.0539652104293920 2.2074819851401761 S
atom 7.1545739601485057 0.0479443686987299 2.7178510364182347 S
atom 2.1406071731848550 5.0619106830889926 2.7222242724847225 S
atom 7.6992655583338445 5.0499309686960414 2.2074819529076573 S
atom 2.8855468898687415 0.0565411457631747 7.6636995919414099 S
atom 7.0346089642208778 0.0493255869925387 7.2211406981200028 S
atom 2.0206421794901854 5.0632924756677431 7.2255139119939722 S
atom 7.8815131853416514 5.0525075618368529 7.6636996000112694 S
atom -0.0629648134117760 2.3016673137581569 2.2096685980034265 S
atom 4.9390215661420713 2.8463588591142304 2.7200376470032901 S
atom -0.0749449076288234 7.8603256588249568 2.7244108832198086 S
atom 4.9330011203372539 7.2976335519301054 2.2096685637238962 S
atom -0.0655413075884147 2.1194196434294872 7.6658862030803423 S
atom 4.9376402557656380 2.9663238729519574 7.2233272964489093 S
atom -0.0763264824133989 7.9802906360750319 7.2277005400131369 S
atom 4.9304249424168232 7.1153859311645142 7.6658862083919574 S
atom -0.0290860024610559 -0.0535812914707083 9.9695146181943333 Ba
atom 5.0585478517245956 0.0200858018164392 9.9673280059181106 Ba
atom 0.0445810903190948 5.0340525218517342 9.9717012412689439 Ba
atom 4.9668802544755399 4.9423849287957271 9.9695146291213899 Ba
atom 0.0179806303426835 0.0646866665036069 15.0052985753661936 Ba
atom 4.9402798441069207 -0.0269808895043573 15.0031119712220473 Ba
atom -0.0736869243102254 4.9869859296488697 15.0074851851236453 Ba
atom 5.0139469016599669 5.0606529890088634 15.0052985811235811 Ba
atom 2.4924304415361043 2.5035358440584998 12.4874060350791378 Zr
atom 7.4973969820469533 2.4945355990765163 12.4852194395205895 Zr
atom 2.4834302080573387 7.5085023935037531 12.4895928229562401 Zr
atom 7.4883967196705150 7.4995021172538916 12.4874062184995953 Zr
atom 2.5845843359979175 2.4465692635784988 17.5469537037832310 Zr
atom 7.5543635135058782 2.4023817115862354 17.5447671495365718 Zr
atom 2.5403968111553410 7.4163485590097045 17.5491402352423904 Zr
atom 7.5805505622453184 7.4425355881463577 17.5469539069001605 Zr
atom 2.6283521557910010 2.7116061432649792 9.9606660611591256 S
atom 7.2893266830380030 2.3586138806405219 9.9584796130524786 S
atom 2.2753598974747811 7.3725806693865907 9.9628527561377354 S
atom 7.6243184418438892 7.7075724162412982 9.9606661655194220 S
atom 2.3565087438568848 2.2954655290688590 15.0141480079690020 S
atom 7.7054673062696910 2.6304572916768496 15.0119612549979138 S
atom 2.6915005154322627 7.6444240837816606 15.0163343731768819 S
atom 7.3524750348387800 7.2914318011582608 15.0141476402262271 S
atom 2.0471844821737353 0.0006652506482283 12.3582192698297959 S
atom 7.9516432120181451 -0.0075605355057860 12.6122210199672491 S
atom 2.9376764404225248 5.0064063815289837 12.6165942494794674 S
atom 7.0431507873013519 4.9966316832314774 12.3582192783896581 S
atom 2.9642186779128710 -0.0562206579466935 17.7492993118223481 S
atom 7.1132808488015895 -0.0634361116150975 17.3067404871345936 S
atom 2.0993140620972950 4.9505303342663654 17.3111137117588214 S
atom 7.9601849978681765 4.9397453263315043 17.7492993074988412 S
atom -0.0096656454806299 2.9577820560549042 12.3604058900762332 S
atom 4.9945265865727162 2.0492895989626758 12.6144076396707963 S
atom -0.0194403471496960 7.0632563989174706 12.6187808536184800 S
atom 4.9863007824058219 7.9537483250093359 12.3604058833901451 S
atom 0.0472206366148503 2.0407478587012036 17.7514859162985772 S
atom 5.0504022336651131 2.8876519589848741 17.3089271051569717 S
atom 0.0364355675190146 7.9016187846719212 17.3133003177452913 S
atom 5.0431868062761422 7.0367141181082511 17.7514859299900607 S
atom 0.2768535795798826 -0.2139422649064588 19.9980130322739491 Ba
atom 5.2189088226729572 -0.2858539045132162 19.9958264174053255 Ba
atom 0.2049419466938910 4.7281129389772403 20.0001996611253077 Ba
atom 5.2728199477710138 4.7820240802317304 19.9980130472548936 Ba
atom -0.0431618495256695 0.1088707766419056 24.7773184319289008 Ba
atom 4.8960957742888178 0.0341616072713062 24.7751318895851362 Ba
atom -0.1178710536277304 5.0481283837441362 24.7795050408173907 Ba
atom 4.9528044675637206 5.1048370597126098 24.7773184210056563 Ba
atom 2.5313911947082177 2.4581296361492995 22.6149877961899541 Zr
atom 7.5428031511515483 2.4555749441654231 22.6128010843775797 Zr
atom 2.5288363829586507 7.4695416365810487 22.6171743188821388 Zr
atom 7.5273574368321405 7.4540958558978465 22.6149876190596508 Zr
atom 2.7690034823835767 2.7211167875425661 20.0496902632335576 S
atom 7.2798160383643413 2.2179625527078812 20.0475037608621740 S
atom 2.2658492517933224 7.2319293377049734 20.0518772541363433 S
atom 7.7649697902643462 7.7170831051382640 20.0496902474324692 S
atom 2.3688801475873493 2.2083687097680023 25.1198441589097570 S
atom 7.7925641175607447 2.6180858698099887 25.1176575304367233 S
atom 2.7785972960494489 7.6320526586872655 25.1220306289608217 S
atom 7.3648464359193957 7.2043349915484587 25.1198443437600929 S
atom 2.8442537411896462 -0.0548395558862711 22.2525890392614691 S
atom 7.2955284255187607 -0.0608596696117259 22.7629582004292601 S
atom 2.2815616600948445 4.9531070635707275 22.7673313926699876 S
atom 7.8402200634092676 4.9411266672473833 22.2525890423580641 S
atom 0.0458390387279904 2.1607127711911462 22.2547756466140285 S
atom 5.0478260691740262 2.7054043662411922 22.7651447943090766 S
atom 0.0338597264807001 7.7193711671225138 22.7695180233169339 S
atom 5.0418049349338458 7.1566790743999285 22.2547756511026797 S
atom 2.6331322826600263 2.4311074409403348 28.2226915432539123 Ba
atom 7.5698252926589928 2.3538337901467794 28.2205049316950678 Ba
atom 2.5558585884755494 7.3678006374661704 28.2248781898671730 Ba
atom 7.6290984799127024 7.4270737717179784 28.2226915371061153 Ba
atom 2.2932275733095060 2.7635979833122524 32.9948962262788470 Ba
atom 7.2373347759861417 2.6937383940511554 32.9927096124454238 Ba
atom 2.2233679718184987 7.7077053243654845 32.9970828276211847 Ba
atom 7.2891938787049400 7.7595644064744365 32.9948962081676953 Ba
atom 4.9766458190601064 5.0117499802624064 30.3881552383048508 Zr
atom 9.9851491147748845 5.0062866332912170 30.3859686199441796 Zr
atom 4.9711823632915930 10.0202533681353039 30.3903418652443769 Zr
atom 9.9726121701134520 10.0077161784121156 30.3881555113131157 Zr
atom 4.9711942662814588 5.0240858509015371 35.4424850719033842 Zr
atom 9.9728132258904942 5.0117380970023557 35.4402985269821116 Zr
atom 4.9588464550211349 10.0257048317666797 35.4446711976958682 Zr
atom 9.9671605177601297 10.0200521612425142 35.4424850466896402 Zr
atom 4.7195258375371578 4.8424780342220588 27.8827237642069932 S
atom 10.1544211042785371 5.2634064841752917 27.8805370289194947 S
atom 5.1404543442657484 10.2773733223635784 27.8849099285650652 S
atom 9.7154921373305196 9.8384443060516436 27.8827236321519791 S
atom 5.2793215124992123 5.2772457589774486 32.9475713433437107 S
atom 9.7196533482829235 4.7036108107879535 32.9453848981607180 S
atom 4.7056865787260076 9.7175775869679786 32.9497588569051203 S
atom 10.2752878468159992 10.2732120789039207 32.9475710116221165 S
atom 4.6758770694012242 2.5251724764080223 30.7630564906772399 S
atom 10.2373188108838207 2.5124560558388485 30.2140049898604239 S
atom 5.2233520663651882 7.5264221868226002 30.2183781688798732 S
atom 9.6718433965955164 7.5211381957625614 30.7630564732968423 S
atom 4.6043115883093266 2.5182060387621168 35.1451251902224513 S
atom 10.3685268874592040 2.5042041576351366 35.7657316685287938 S
atom 5.3545600252413532 7.5181707680917969 35.7701048662245071 S
atom 9.6002778329456326 7.5141721181071617 35.1451251395875417 S
atom 2.4617943475836674 5.3250557118481492 30.7652431010095953 S
atom 7.4704760371212933 4.7595803200603131 30.2161916075893515 S
atom 2.4565087267843984 9.7735470914155549 30.2205647831179220 S
atom 7.4577610524406275 10.3210220612622088 30.7652431013951535 S
atom 2.4687597145862061 5.3966212577809580 35.1473117786808871 S
atom 7.4787286311173462 4.6283722668736669 35.7679182563628544 S
atom 2.4647625093055963 9.6423390201608683 35.7722914960575693 S
atom 7.4647253432286886 10.3925875763086015 35.1473117767066014 S
atom 2.6566213197592061 2.2539729388020810 37.9624558112259152 Ba
atom 7.7469600116784543 2.3303446224020670 37.9602691823780205 Ba
atom 2.7329930612245787 7.3443113799377837 37.9646424249838645 Ba
atom 7.6525877925011061 7.2499391894916512 37.9624558050537573 Ba
atom 2.3033634801893741 2.7779748275802434 42.9559395092188154 Ba
atom 7.2229580036164007 2.6836026484810609 42.9537529098631836 Ba
atom 2.2089912326487395 7.6975693236616856 42.9581261431023407 Ba
atom 7.2993297574926927 7.7739410162745859 42.9559395321024127 Ba
atom 4.9779755775470242 5.0139569848648726 40.4591979375570574 Zr
atom 9.9829421592037733 5.0049567748049837 40.4570109228594390 Zr
atom 4.9689753238001355 10.0189235547089961 40.4613843609114525 Zr
atom 9.9739418484645572 10.0099232694405451 40.4591975268652391 Zr
atom 4.9847569067255080 5.0038282022396334 45.4759104127615927 Zr
atom 9.9930709991150639 4.9981754470565116 45.4737238529870496 Zr
atom 4.9791042028813619 10.0121421378813462 45.4780972714365603 Zr
atom 9.9807231957996922 9.9997943662152178 45.4759105610063870 Zr
atom 4.6460343078490842 4.7446607206174249 37.9561918113723777 S
atom 10.2522383766958320 5.3368980121687919 37.9540052094589697 S
atom 5.2382715681182139 10.3508647722566600 37.9583784898681316 S
atom 9.6420005534405639 9.7406270181849042 37.9561923080797072 S
atom 5.3099168968224735 5.2832532755630703 42.9622028550974875 S
atom 9.7136458641693437 4.6730154726122244 42.9600169194561374 S
atom 4.6996790882296313 9.6869823059102202 42.9643898883527910 S
atom 10.3058831753376303 10.2792195657631513 42.9622030144410019 S
atom 4.6071683821398191 2.5134803614350747 40.7766326231343399 S
atom 10.3627496032881563 2.5004664962641323 40.1373894431708962 S
atom 5.3487827880596068 7.5144336203731310 40.1417626648959001 S
atom 9.6031346343642472 7.5094469961921391 40.7766326474327911 S
atom 4.6013910845655355 2.5097427699736583 45.1482903710136512 S
atom 10.3656063763334583 2.4957413989314894 45.7688968738558231 S
atom 5.3516395941047792 7.5097084189846841 45.7732701127477739 S
atom 9.5973573885681418 7.5057093039992537 45.1482903742059207 S
atom 2.4734853313643814 5.3937644841036017 40.7788192559723868 S
atom 7.4824658157836259 4.6341495102103565 40.1395760505067187 S
atom 2.4684992828618242 9.6481163220110702 40.1439492886385523 S
atom 7.4694513964259439 10.3897307388474101 40.7788192320416485 S
atom 2.4772218893225983 5.3995417530068996 45.1504769899922351 S
atom 7.4871921031855768 4.6312926836490984 45.7710835009431847 S
atom 2.4732251615901908 9.6452595206816749 45.7754567037075972 S
atom 7.4731883263588950 10.3955080376454418 45.1504769931478904 S
atom 2.6667573113893255 2.2683496534669301 47.9234990648858172 Ba
atom 7.7325831792731732 2.3202087183693347 47.9213124537503248 Ba
atom 2.7186164352416631 7.3341755114993665 47.9256856718008066 Ba
atom 7.6627235568133996 7.2643159532497350 47.9234990722353231 Ba
atom 2.3268526616231249 2.6008402152089585 52.6957035930640814 Ba
atom 7.4000926069622812 2.6601133503562133 52.6935169956893645 Ba
atom 2.3861258206555997 7.6740801760247255 52.6978902191615290 Ba
atom 7.3228189476293100 7.5968065420460178 52.6957036008008473 Ba
atom 4.9793054122736962 5.0161641740417640 50.5302394169782900 Zr
atom 9.9807350155516392 5.0036269632564485 50.5280530781957111 Zr
atom 4.9667682803617854 10.0175935693777323 50.5324262957119288 Zr
atom 9.9752716482734591 10.0121303032401396 50.5302395059693765 Zr
atom 4.6766295995961338 4.7506681972828506 47.9708242288256343 S
atom 10.2462308599060048 5.3063026482053077 47.9686369507123587 S
atom 5.2322640738300938 10.3202694587327155 47.9730100018359735 S
atom 9.6725959089243236 9.7466345202155136 47.9708239825848608 S
atom 5.2364253394436471 5.1854359713141127 53.0356720522943945 S
atom 9.8114631267910450 4.7465069793043115 53.0334853929757912 S
atom 4.7974963285934482 9.7604737774979213 53.0378586765762634 S
atom 10.2323916376033957 10.1814022937315727 53.0356720683233647 S
atom 4.7325991017275877 2.5014912324911291 50.7000171827629060 S
atom 10.2940408669254069 2.4887754195429634 50.1509656361558953 S
atom 5.2800740671617614 7.5027420025857783 50.1553388788468624 S
atom 9.7285654193236333 7.4974572851199532 50.7000171684502590 S
atom 2.4854749874389479 5.2683336816494117 50.7022037740199849 S
atom 7.4941569678266076 4.7028582428703114 50.1531522588095768 S
atom 2.4801901085546865 9.7168250407195984 50.1575254789809009 S
atom 7.4814413515634648 10.2643000092894123 50.7022037944065787 S
