#=======================================================
# FHI-aims file: full_relax/full_relax_RP_5_RxRyMz_-Rx-Ry0.in
# Created using the Atomic Simulation Environment (ASE)
# Fri Mar 14 11:36:48 2025
#=======================================================
lattice_vector 10.0194330263825915 -0.0534276905129129 0.0000379605274708 
lattice_vector -0.0534276905129046 10.0194330263825844 -0.0000379605262912 
lattice_vector 0.0003576408112345 -0.0003576408046284 55.8171925967452083 
atom 0.1185160547037704 -0.1671362046485772 0.2186883748953034 Ba
atom 5.1768527177417401 -0.1452299001481674 0.2187073527366518 Ba
atom 0.1404223592680086 4.8912004582581172 0.2186693921571198 Ba
atom 5.1015187226615097 4.8158664632824344 0.2186883744210481 Ba
atom -0.2589460780598901 0.1883063189567784 4.9978875764940502 Ba
atom 4.8214101938391734 0.2322322328848663 4.9979065567894398 Ba
atom -0.2150201643123846 5.2686625916639533 4.9978685962617870 Ba
atom 4.7240565895768718 5.1713089872608435 4.9978875765494832 Ba
atom 2.5032675211360411 2.4853609228001861 2.3929009321416048 Zr
atom 7.5073582593388979 2.4530213012396169 2.3929199124474843 Zr
atom 2.4709279005185545 7.4894516596539500 2.3928819528798861 Zr
atom 7.4862701895592849 7.4683635906628494 2.3929009322755492 Zr
atom 2.4831075576559765 2.4962953406245836 7.4443623621778965 Zr
atom 7.4964238403602570 2.4731812648471139 7.4443813454077175 Zr
atom 2.4599934817941458 7.5096116231778085 7.4443433840172952 Zr
atom 7.4661102258115006 7.4792980083408782 7.4443623619594659 Zr
atom 2.6661917864100779 2.7486359259313424 -0.1125233407827941 S
atom 7.2440832555284578 2.2900970366063480 -0.1125043579351721 S
atom 2.2076528971006608 7.3265273950936960 -0.1125423188107266 S
atom 7.6491944542971586 7.7316385939427112 -0.1125233408974661 S
atom 2.2350273336297719 2.1841730991070123 4.9502167065905702 S
atom 7.8085460819233123 2.7212614890620470 4.9502356818399811 S
atom 2.7721157236768943 7.7576918475960515 4.9501977203752920 S
atom 7.2180300015633421 7.1671757670107645 4.9502167067046097 S
atom 2.7780224540617593 -0.0101895463761184 2.2182243552347711 S
atom 7.2003815759185361 -0.0336031051246114 2.7708323785498998 S
atom 2.1639512175438247 5.0028272529330904 2.7707944179913850 S
atom 7.7610251218840718 4.9728131211695317 2.2182243552659147 S
atom 2.8899057882139858 -0.0132130355292084 7.7727552372315341 S
atom 7.1362392242781096 -0.0360833655997129 7.1470740466613325 S
atom 2.0998088658038219 5.0003469914752872 7.1470360860382502 S
atom 7.8729084559832927 4.9697896311209195 7.7727552371572859 S
atom -0.0165243069766761 2.2316940596309460 2.2182053749437993 S
atom 4.9898919352156881 2.7923376049992048 2.7708133984016659 S
atom -0.0465384235300083 7.8287679634622815 2.7707754378191956 S
atom 4.9664783612008216 7.2146967275394740 2.2182053749027539 S
atom -0.0135008057472969 2.1198107250216944 7.7727362568943095 S
atom 4.9923721857157837 2.8564799568785149 7.1470550663818937 S
atom -0.0440581741519255 7.8929103155141549 7.1470171057604865 S
atom 4.9695018635329653 7.1028133928308588 7.7727362569621175 S
atom 0.2758325854542156 -0.1816525963087031 9.9635012536676388 Ba
atom 5.1913691092303003 -0.3025464303454492 9.9635202340081683 Ba
atom 0.1549387508371241 4.7338839280753486 9.9634822734181157 Ba
atom 5.2588352533345120 4.8013500715925641 9.9635012537471681 Ba
atom -0.2756729243135110 0.1814929354469708 14.9548882986147440 Ba
atom 4.8282235780967984 0.2489590794538892 14.9549072789384496 Ba
atom -0.2082067808634040 5.2853894372685470 14.9548693184089174 Ba
atom 4.7073297441448547 5.1644956026525008 14.9548882986500953 Ba
atom 2.4915811646722403 2.4914215030931528 12.4591947792535773 Zr
atom 7.5012976773570301 2.4647076580530802 12.4592137568909198 Zr
atom 2.4648673188919061 7.5011380165125825 12.4591757943768240 Zr
atom 7.4745838323581477 7.4744241711687485 12.4591947791946023 Zr
atom 2.5000547713840890 2.4865476660268429 17.4740271850138704 Zr
atom 7.5061715147288854 2.4562340513257066 17.4740461672167022 Zr
atom 2.4697411563460965 7.4926644097064328 17.4740082095443938 Zr
atom 7.4830574389042326 7.4695503340685088 17.4740271852027362 Zr
atom 2.7585070130815552 2.8238364262346414 9.9571324329392947 S
atom 7.1688827547053213 2.1977818094965733 9.9571514131515944 S
atom 2.1324523962960460 7.2342121680031770 9.9571134557949197 S
atom 7.7415096810070620 7.8068390941440713 9.9571324331886846 S
atom 2.2246553160142399 2.1590065805007956 14.9612571154281877 S
atom 7.8337126005049909 2.7316335066492181 14.9612761002075185 S
atom 2.7972822418320931 7.7680638650379485 14.9612381389741280 S
atom 7.2076579839105221 7.1420092485512523 14.9612571152984373 S
atom 2.8831174839231082 -0.0151549397882296 12.1398960525256321 S
atom 7.1364752034777110 -0.0384324136014932 12.7785314597582893 S
atom 2.1000448450714120 4.9979979468431877 12.7784934992146262 S
atom 7.8661201519923267 4.9678477300418296 12.1398960523731088 S
atom 2.8833534633814590 -0.0175039911965631 17.7713534664869606 S
atom 7.1296868991722651 -0.0403743105685884 17.1456722757642943 S
atom 2.0932565407074373 4.9960560490450270 17.1456343151973911 S
atom 7.8663561314342871 4.9654986777824712 17.7713534666109112 S
atom -0.0115589043133386 2.1265990290468570 12.1398770720977165 S
atom 4.9947212333613171 2.8562439777790525 12.7785124795240677 S
atom -0.0417091236013020 7.8926743359738962 12.7784745189434688 S
atom 4.9714437622453511 7.1096016971831713 12.1398770722755351 S
atom -0.0092098610112413 2.1263630498955797 17.7713344863255642 S
atom 4.9966631390220204 2.8630322818597915 17.1456532954920604 S
atom -0.0397672185276177 7.8994626401634891 17.1456153349387073 S
atom 4.9737928061478618 7.1093657179485747 17.7713344861712308 S
atom 0.2591057395133398 -0.1884659803287020 19.9205019752229795 Ba
atom 5.1981824931887068 -0.2858195846749021 19.9205209553766558 Ba
atom 0.1617521350011770 4.7506107740541168 19.9204829949552433 Ba
atom 5.2421084071792601 4.7945366878926254 19.9205019751711667 Ba
atom -0.1183563937763462 0.1669765435403160 24.6997011791302619 Ba
atom 4.8427399695675151 0.0916425481528416 24.6997201590332764 Ba
atom -0.1936903886495920 5.1280729068512461 24.6996821981805290 Ba
atom 4.8646462739507372 5.1499792117664152 24.6997011792619467 Ba
atom 2.4798948073987686 2.4974820855339219 22.5254886199941780 Zr
atom 7.4952370975013194 2.4763940151041259 22.5255076015281581 Zr
atom 2.4588067390972155 7.5128243731524762 22.5254696407477120 Zr
atom 7.4628974753938326 7.4804847528501419 22.5254886200718794 Zr
atom 2.7481349955476566 2.7986699078030890 19.9681728548488415 S
atom 7.1940492732923973 2.2081538271847996 19.9681918268750920 S
atom 2.1576189148022258 7.2445841857138635 19.9681538634329314 S
atom 7.7311376634882949 7.7816725757792167 19.9681728546824004 S
atom 2.3169705430663932 2.2342070814107902 25.0309128886789622 S
atom 7.7585121001940429 2.6393182800210502 25.0309318725257128 S
atom 2.7220817418818299 7.6757486386240981 25.0308939133122443 S
atom 7.2999732110713209 7.2172097493191973 25.0309128885955161 S
atom 2.8192111114549609 -0.0199842354658395 22.1475951338683750 S
atom 7.2415702340643957 -0.0433978152276171 22.7002031570289553 S
atom 2.2051398755781024 4.9930325409878069 22.7001651966963252 S
atom 7.8022137792065136 4.9630184305259846 22.1475951339043000 S
atom -0.0067295971768449 2.1905054018505923 22.1475761537365443 S
atom 4.9996866255679215 2.7511489475680584 22.7001841767788761 S
atom -0.0367437349836321 7.7875793063150383 22.7001462164740246 S
atom 4.9762730726050233 7.1735080696775038 22.1475761537634916 S
atom 2.3732565356216373 2.6584034763693403 28.1273142847159647 Ba
atom 7.3343157043691125 2.5830322875182454 28.1273332646153769 Ba
atom 2.2978853463914941 7.6194626459772596 28.1272953036953233 Ba
atom 7.3562592032022698 7.6414061443144412 28.1273142848598674 Ba
atom 2.7508046382093667 2.3028741723312289 32.9065064090447237 Ba
atom 7.6898450085391810 2.2054841849551972 32.9065253892424607 Ba
atom 2.6534146513368677 7.2419145430474492 32.9064874287065834 Ba
atom 7.7338073049598366 7.2858768399318743 32.9065064089157175 Ba
atom 4.9715109090601910 4.9888790738489028 30.3015128131282836 Zr
atom 9.9868427732947307 4.9677805821935399 30.3015317921811302 Zr
atom 4.9504124159046627 10.0042109408824516 30.3014938324764600 Zr
atom 9.9545135761520971 9.9718817417602157 30.3015128113221088 Zr
atom 4.9917625173068947 4.9778524841380687 35.3529551408969809 Zr
atom 9.9978693656992643 4.9475289732783434 35.3529741298380529 Zr
atom 4.9614390068708278 9.9839593323718656 35.3529361663958284 Zr
atom 9.9747651849934833 9.9608551523883548 35.3529551447961268 Zr
atom 4.8085464051371369 4.7256389957408116 27.7960921215727446 S
atom 10.2500828526195082 5.1307450847718616 27.7961111081605665 S
atom 5.2136524943364986 10.1671754433007955 27.7960731459673731 S
atom 9.7915490733689232 9.7086416638375308 27.7960921236029321 S
atom 5.2398217116295021 5.2900422637044215 32.8588186629988499 S
atom 9.6856795857951692 4.6994697789632580 32.8588376330945522 S
atom 4.6492492270944279 9.7359001374570191 32.8587996751604479 S
atom 10.2228243795330602 10.2730449313481920 32.8588186617522027 S
atom 5.3107929180398692 2.4714162041551120 30.6794420705024784 S
atom 9.7331790203184010 2.4480070690162656 30.1268148982798323 S
atom 4.6967486613767520 7.4844374277233978 30.1267769372870795 S
atom 10.2937955857434389 7.4544188724472367 30.6794420705727653 S
atom 5.3750226858487942 2.4737996721610394 35.0556424554146417 S
atom 9.6214023475998758 2.4509302121133381 35.6813701146676436 S
atom 4.5849719890190261 7.4873605723018075 35.6813321543476718 S
atom 10.3580253536531455 7.4568023419458678 35.0556424553200330 S
atom 2.4848726035327533 4.6819262632350505 30.6794230904079974 S
atom 7.4912844383524702 5.2425428283151643 30.1267959178096447 S
atom 2.4548540747717698 10.2789731868969696 30.1267579572740871 S
atom 7.4678752760715579 9.6649289311709925 30.6794230903835157 S
atom 2.4824891528567505 4.6176964952525354 35.0556234749840314 S
atom 7.4883612739517424 5.3543195017913190 35.6813511345488052 S
atom 2.4519309147253288 10.3907498599271477 35.6813131739369211 S
atom 7.4654918219455713 9.6006991631653111 35.0556234751626050 S
atom 2.2160386145842392 2.6727961927688590 37.8720847378502867 Ba
atom 7.3199229893663702 2.7402502070421773 37.8721037180595914 Ba
atom 2.2834926299378475 7.7766805654786308 37.8720657576863715 Ba
atom 7.1990412834300033 7.6557988606386189 37.8720847379365821 Ba
atom 2.7674813536591336 2.3096891734491760 42.8634974107307727 Ba
atom 7.6830300082570693 2.1888074672719928 42.8635163910607560 Ba
atom 2.6465996489447261 7.2252378267706696 42.8634784306887724 Ba
atom 7.7504840223089095 7.2926918424480087 42.8634974107730500 Ba
atom 4.9832613191641615 4.9827440176407940 40.3677910763924217 Zr
atom 9.9929778326455079 4.9560301718444455 40.3678100486648930 Zr
atom 4.9565474743024120 9.9924605300751068 40.3677720902060813 Zr
atom 9.9662639867962586 9.9657466856879982 40.3677910778416233 Zr
atom 4.9747601211327774 4.9876355507799515 45.3826270028529208 Zr
atom 9.9880862991891544 4.9645313707454877 45.3826459903883617 Zr
atom 4.9516559412638168 10.0009617280740830 45.3826080299645582 Zr
atom 9.9577627888892906 9.9706382182694160 45.3826269972834737 Zr
atom 4.7163622272016861 4.6502964395426636 37.8657280053835876 S
atom 10.3254254099606904 5.2229292635366447 37.8657469827571376 S
atom 5.2889950512762081 10.2593596220268619 37.8657090230935154 S
atom 9.6993648950017359 9.6332991072847456 37.8657279999019849 S
atom 5.2501604107899107 5.3151915947411723 42.8698541396744233 S
atom 9.6605302544981910 4.6891310799342074 42.8698731339877668 S
atom 4.6240998961307955 9.7255614383526439 42.8698351703759855 S
atom 10.2331630788415779 10.2981942631040617 42.8698541434791949 S
atom 5.3747846877951071 2.4761750350268743 40.6871156580930773 S
atom 9.6281683078899807 2.4528826429265664 40.0485044513849928 S
atom 4.5917379499440152 7.4893129988128750 40.0484664911397203 S
atom 10.3577873563673926 7.4591777002093149 40.6871156584476239 S
atom 5.3815506489554226 2.4781274530170929 45.0542499942991626 S
atom 9.6279303102644320 2.4552580137996096 45.6799776537432649 S
atom 4.5914999516784620 7.4916883704665818 45.6799396931714128 S
atom 10.3645533168545452 7.4611301189204262 45.0542499945191253 S
atom 2.4801137947410816 4.6179344929700870 40.6870966780401133 S
atom 7.4864088427011533 5.3475535409704538 40.0484854713966243 S
atom 2.4499784894740273 10.3839838995696141 40.0484475105776170 S
atom 7.4631164575033564 9.6009371607982885 40.6870966780437087 S
atom 2.4781613529268780 4.6111685326532879 45.0542310141146487 S
atom 7.4840334955783829 5.3477915381432544 45.6799586731905336 S
atom 2.4476031354701759 10.3842218970453608 45.6799207129525158 S
atom 7.4611640222045414 9.5941712006105000 45.0542310141846940 S
atom 2.2327153323649442 2.6796111944918581 47.8290757404074398 Ba
atom 7.3131079866389692 2.7235734907138403 47.8290947204762347 Ba
atom 2.2766776293123590 7.7600038485342147 47.8290567599744563 Ba
atom 7.2157179992385361 7.6626138618666655 47.8290757402335913 Ba
atom 2.6102634351688985 2.3240818896116768 52.6082678642468551 Ba
atom 7.6686372909498468 2.3460253889396605 52.6082868445320884 Ba
atom 2.6322069327565907 7.3824557468441743 52.6082488836465529 Ba
atom 7.5932661029327191 7.3070845569206631 52.6082678642345485 Ba
atom 4.9950117295823455 4.9766089573929984 50.4340693336679990 Zr
atom 9.9991128874997397 4.9442797624867243 50.4340883180290334 Zr
atom 4.9626825282214355 9.9807101199002020 50.4340503563175346 Zr
atom 9.9780143982020260 9.9596116240807859 50.4340693352178562 Zr
atom 4.7267009261215884 4.6754457705939867 47.8767635014636070 S
atom 10.3002760785347665 5.2125905642403279 47.8767824540658324 S
atom 5.2638457203355431 10.2490209228477234 47.8767444956642905 S
atom 9.7097035940841252 9.6584484388515310 47.8767635056167009 S
atom 5.1579762315616575 5.2398490372346531 52.9394900193063762 S
atom 9.7358728102843948 4.7813152574148274 52.9395090121884380 S
atom 4.6994424518491931 9.8177456161000123 52.9394710516448939 S
atom 10.1409788992316283 10.2228517049325642 52.9394900164226385 S
atom 5.2697739751900023 2.4810506345534509 50.6088052117553602 S
atom 9.6921600783007644 2.4576414423777395 50.0561780386577837 S
atom 4.6557297197249783 7.4940718052328936 50.0561400783219099 S
atom 10.2527766425515097 7.4640533074788564 50.6088052113496616 S
atom 2.4752382307976557 4.7229452040848310 50.6087862316502992 S
atom 7.4816500069102636 5.2835617708663012 50.0561590588355969 S
atom 2.4452196451871688 10.3199921291515135 50.0561210983740068 S
atom 7.4582409023421627 9.7059478724099097 50.6087862312387813 S
