#=======================================================
# FHI-aims file: full_relax/full_relax_RP_9_RxRy0_RxRy0.in
# Created using the Atomic Simulation Environment (ASE)
# Mon Mar 24 16:24:51 2025
#=======================================================
lattice_vector 10.0650790115229327 0.0918401164192073 -0.0000000000000577 
lattice_vector 0.0918401164191760 10.0650790115192894 0.0000000000000526 
lattice_vector -0.0000000000005589 0.0000000000005090 95.0056834857226420 
atom -0.0983474231062568 -0.0983474230555715 0.2774505985958082 Ba
atom 5.1308869288622594 0.1442674812666002 0.2774505985951351 Ba
atom 0.1442674813103608 5.1308869288167758 0.2774505985968253 Ba
atom 4.9801121408643683 4.9801121409139473 0.2774505985953546 Ba
atom -0.0081875034919782 -0.0081875035628968 4.9543692597160414 Ba
atom 5.0407270092987959 0.0541075617228465 4.9543692597159996 Ba
atom 0.0541075617467746 5.0407270092730583 4.9543692597160707 Ba
atom 5.0702720604791454 5.0702720604068201 4.9543692597160192 Ba
atom 2.5264034761400689 2.5264034761365686 2.3441168384955042 Zr
atom 7.5845955935926233 2.5979761460378294 2.3441168384958186 Zr
atom 2.5979761460411979 7.5845955935880287 2.3441168384954993 Zr
atom 7.6048630401104793 7.6048630401062605 2.3441168384957840 Zr
atom 2.5412415778898145 2.5412415778911717 7.3710208427759607 Zr
atom 7.5697574918370165 2.5831380442899414 7.3710208427753807 Zr
atom 2.5831380442850533 7.5697574918398987 7.3710208427726149 Zr
atom 7.6197011418606015 7.6197011418601726 7.3710208427741319 Zr
atom 2.7262708867272547 2.7262708868251906 -0.1402498334147159 S
atom 7.3847281830052607 2.3981087353495636 -0.1402498334142237 S
atom 2.3981087354534405 7.3847281828996127 -0.1402498334124095 S
atom 7.8047304506982584 7.8047304507948576 -0.1402498334137491 S
atom 2.2317371122585232 2.2317371121854657 4.8938851075890213 S
atom 7.8792619574585094 2.8926425100045194 4.8938851075919736 S
atom 2.8926425099067252 7.8792619575546503 4.8938851075879031 S
atom 7.3101966762294319 7.3101966761551544 4.8938851075866054 S
atom 2.5162697528719891 0.0229600291043547 2.1929245449298551 S
atom 7.5488092586541997 0.0688800873116981 2.6996549626629465 S
atom 2.5621898111024981 5.0554995348613216 2.6996549626634176 S
atom 7.5947293168428587 5.1014195930724311 2.1929245449298875 S
atom 2.5162697528257665 0.0229600291072918 7.7244937243272567 S
atom 7.5488092586871449 0.0688800873125500 7.0364029064804976 S
atom 2.5621898111350792 5.0554995348629062 7.0364029064808289 S
atom 7.5947293167970180 5.1014195930762840 7.7244937243265905 S
atom 0.0229600291033244 2.5162697528865832 2.1929245450264241 S
atom 5.0554995348674163 2.5621898110752044 2.6996549625907305 S
atom 0.0688800873156210 7.5488092586252975 2.6996549625915174 S
atom 5.1014195930746746 7.5947293168558847 2.1929245450265760 S
atom 0.0229600291004453 2.5162697529327014 7.7244937242695970 S
atom 5.0554995348652314 2.5621898110426495 7.0364029065362015 S
atom 0.0688800873121427 7.5488092585925717 7.0364029065372602 S
atom 5.1014195930736230 7.5947293169017716 7.7244937242707259 S
atom 0.0348641930031936 0.0348641930975391 9.8683804982951742 Ba
atom 4.9976753126787212 0.0110558651889917 9.8683804982951884 Ba
atom 0.0110558651261914 4.9976753127378313 9.8683804982952150 Ba
atom 5.1133237569746930 5.1133237570655181 9.8683804982952719 Ba
atom -0.0360994139702537 -0.0360994140543796 14.8265829967446408 Ba
atom 5.0686389198045898 0.0820194721866156 14.8265829967446408 Ba
atom 0.0820194722531930 5.0686389197370740 14.8265829967447473 Ba
atom 5.0423601500006541 5.0423601499154351 14.8265829967444276 Ba
atom 2.5397384940475662 2.5397384940491294 12.3389952040366762 Zr
atom 7.5712605756809879 2.5846411281288679 12.3389952040341360 Zr
atom 2.5846411281299169 7.5712605756801947 12.3389952040393904 Zr
atom 7.6181980580188142 7.6181980580180566 12.3389952040367401 Zr
atom 2.5390502877483212 2.5390502877448973 17.3034231025140919 Zr
atom 7.5719487819846973 2.5853293344297263 17.3034231025142766 Zr
atom 2.5853293344327533 7.5719487819798053 17.3034231025171010 Zr
atom 7.6175098517193112 7.6175098517139013 17.3034231025154881 Zr
atom 2.8883695684567146 2.8883695684805266 9.8614698034470809 S
atom 7.2226295012995392 2.2360100536710061 9.8614698034460044 S
atom 2.2360100537473468 7.2226295012204957 9.8614698034430255 S
atom 7.9668291324279723 7.9668291324494183 9.8614698034484825 S
atom 2.1858190475079269 2.1858190475062980 14.8233546731567198 S
atom 7.9251800221972237 2.9385605746962282 14.8233546731604502 S
atom 2.9385605746449133 7.9251800222465807 14.8233546731620400 S
atom 7.2642786114793472 7.2642786114752518 14.8233546731592174 S
atom 2.5162697528234932 0.0229600291040198 11.9814585563591347 S
atom 7.5488092586964042 0.0688800873133860 12.7092601497635656 S
atom 2.5621898111444303 5.0554995348620242 12.7092601497639954 S
atom 7.5947293167946217 5.1014195930742368 11.9814585563592235 S
atom 2.5162697528328590 0.0229600291034177 17.6707944335763649 S
atom 7.5488092586918363 0.0688800873099233 16.9401321217216072 S
atom 2.5621898111400934 5.0554995348615765 16.9401321217213336 S
atom 7.5947293168036181 5.1014195930758728 17.6707944335762299 S
atom 0.0229600291020737 2.5162697529350817 11.9814585563879099 S
atom 5.0554995348672609 2.5621898110332744 12.7092601497322164 S
atom 0.0688800873153057 7.5488092585833160 12.7092601497315414 S
atom 5.1014195930725297 7.5947293169043562 11.9814585563875671 S
atom 0.0229600291042837 2.5162697529261728 17.6707944335590383 S
atom 5.0554995348668745 2.5621898110381416 16.9401321217373813 S
atom 0.0688800873172438 7.5488092585880864 16.9401321217369194 S
atom 5.1014195930730315 7.5947293168954326 17.6707944335580720 S
atom 0.0365677013895924 0.0365677014547041 19.7860917883791991 Ba
atom 4.9959718043085193 0.0093523568126147 19.7860917883793626 Ba
atom 0.0093523567574078 4.9959718043642427 19.7860917883795011 Ba
atom 5.1150272653601920 5.1150272654256641 19.7860917883793661 Ba
atom -0.0365677014028232 -0.0365677014462853 24.7478223455645896 Ba
atom 5.0691072072042056 0.0824877596132118 24.7478223455646109 Ba
atom 0.0824877596510435 5.0691072071621610 24.7478223455647210 Ba
atom 5.0418918625693294 5.0418918625219744 24.7478223455644972 Ba
atom 2.5392297819823493 2.5392297819853140 22.2669570669728856 Zr
atom 7.5717692877444378 2.5851498401952622 22.2669570669742676 Zr
atom 2.5851498401920878 7.5717692877446297 22.2669570669663734 Zr
atom 7.6176893459539334 7.6176893459546777 22.2669570669719228 Zr
atom 2.5394092762244433 2.5394092762196521 27.2304910314287518 Zr
atom 7.5715897935103387 2.5849703459536748 27.2304910314281656 Zr
atom 2.5849703459580158 7.5715897935037084 27.2304910314288264 Zr
atom 7.6178688401949382 7.6178688401884340 27.2304910314273556 Zr
atom 2.8932194727964351 2.8932194727903457 19.7858170184765996 S
atom 7.2177795969544816 2.2311601493660422 19.7858170184775553 S
atom 2.2311601494037880 7.2177795969167180 19.7858170184791824 S
atom 7.9716790367672949 7.9716790367592587 19.7858170184782978 S
atom 2.1852400911730889 2.1852400911769383 24.7480971154649367 S
atom 7.9257589785429232 2.9391395310142081 24.7480971154655798 S
atom 2.9391395309922106 7.9257589785650548 24.7480971154607445 S
atom 7.2636996551435269 7.2636996551463566 24.7480971154648834 S
atom 2.5162697528402198 0.0229600291063665 21.9011381774374918 S
atom 7.5488092586757274 0.0688800873131611 22.6327759565079347 S
atom 2.5621898111239076 5.0554995348616334 22.6327759565086986 S
atom 7.5947293168112209 5.1014195930750290 21.9011381774368630 S
atom 2.5162697528616187 0.0229600291038424 27.5937820122179183 S
atom 7.5488092586653899 0.0688800873117384 26.8631197003738009 S
atom 2.5621898111135675 5.0554995348595577 26.8631197003736801 S
atom 7.5947293168326677 5.1014195930720962 27.5937820122178508 S
atom 0.0229600291020355 2.5162697529183551 21.9011381774463842 S
atom 5.0554995348666276 2.5621898110538250 22.6327759564970918 S
atom 0.0688800873126547 7.5488092586041553 22.6327759564980902 S
atom 5.1014195930733353 7.5947293168877792 21.9011381774472689 S
atom 0.0229600291029912 2.5162697528971703 27.5937820122107134 S
atom 5.0554995348681935 2.5621898110643588 26.8631197003792188 S
atom 0.0688800873163845 7.5488092586144289 26.8631197003794853 S
atom 5.1014195930760540 7.5947293168663954 27.5937820122120172 S
atom 0.0360994140011174 0.0360994140202749 29.7073311371987714 Ba
atom 4.9964400917414107 0.0098206442059689 29.7073311371992759 Ba
atom 0.0098206441887503 4.9964400917544101 29.7073311371989561 Ba
atom 5.1145589779724681 5.1145589779879410 29.7073311371990272 Ba
atom -0.0348641930548420 -0.0348641930491027 34.6655336356484369 Ba
atom 5.0674036988073370 0.0807842512616949 34.6655336356482948 Ba
atom 0.0807842512578634 5.0674036988136431 34.6655336356487283 Ba
atom 5.0435953709142902 5.0435953709217829 34.6655336356481669 Ba
atom 2.5387210699177576 2.5387210699218037 32.1949189299054126 Zr
atom 7.5722779998077883 2.5856585522597877 32.1949189299043113 Zr
atom 2.5856585522566955 7.5722779998104865 32.1949189299135128 Zr
atom 7.6171806338888244 7.6171806338909702 32.1949189299063150 Zr
atom 2.5372179860785153 2.5372179860769308 37.1628932911673147 Zr
atom 7.5737810836524107 2.5871616360992951 37.1628932911728995 Zr
atom 2.5871616361001313 7.5737810836490871 37.1628932911690057 Zr
atom 7.6156775500496696 7.6156775500462404 37.1628932911695671 Zr
atom 2.8926405164617179 2.8926405164605504 29.7105594607842143 S
atom 7.2183585532739949 2.2317391057109925 29.7105594607844168 S
atom 2.2317391057210036 7.2183585532605150 29.7105594607866692 S
atom 7.9711000804334766 7.9711000804297383 29.7105594607841184 S
atom 2.1900899954999997 2.1900899954988398 34.6724443305047174 S
atom 7.9209090742322905 2.9342896266771699 34.6724443304903858 S
atom 2.9342896266793965 7.9209090742260333 34.6724443304966528 S
atom 7.2685495594715155 7.2685495594676723 34.6724443305036800 S
atom 2.5162697528731988 0.0229600291082245 31.8246539841928993 S
atom 7.5488092586410431 0.0688800873107745 32.5524555775705338 S
atom 2.5621898110888699 5.0554995348624638 32.5524555775691340 S
atom 7.5947293168445063 5.1014195930777015 31.8246539841944021 S
atom 2.5162697528883231 0.0229600291047267 37.4975112274325681 S
atom 7.5488092586330531 0.0688800873158732 36.8094204096426694 S
atom 2.5621898110811254 5.0554995348623200 36.8094204096457034 S
atom 7.5947293168596897 5.1014195930696031 37.4975112274307847 S
atom 0.0229600291040811 2.5162697528850728 31.8246539841957059 S
atom 5.0554995348629959 2.5621898110888912 32.5524555775676916 S
atom 0.0688800873139610 7.5488092586385793 32.5524555775671374 S
atom 5.1014195930726132 7.5947293168541430 31.8246539841947609 S
atom 0.0229600290982290 2.5162697528705227 37.4975112274336340 S
atom 5.0554995348696323 2.5621898110967281 36.8094204096397419 S
atom 0.0688800873121222 7.5488092586464086 36.8094204096425059 S
atom 5.1014195930769750 7.5947293168390893 37.4975112274348277 S
atom 0.0081875035308896 0.0081875035187620 39.5795448742269613 Ba
atom 5.0243520022388282 0.0377325546783043 39.5795448742270111 Ba
atom 0.0377325546863971 5.0243520022287882 39.5795448742272100 Ba
atom 5.0866470675029207 5.0866470674881752 39.5795448742271603 Ba
atom 0.0983474230752251 0.0983474230821263 44.2564635353434710 Ba
atom 4.9341920826826957 -0.0524273648728694 44.2564635353453326 Ba
atom -0.0524273648694190 4.9341920826767689 44.2564635353434781 Ba
atom 5.1768069870466737 5.1768069870506199 44.2564635353436415 Ba
atom 2.5520560878309699 2.5520560878294338 42.1897972954455227 Zr
atom 7.5589429818991931 2.5723235343466384 42.1897972954446843 Zr
atom 2.5723235343484046 7.5589429818974727 42.1897972954460627 Zr
atom 7.6305156518022432 7.6305156517987882 42.1897972954445351 Zr
atom 2.8467224517485370 2.8467224517431728 39.6400290263568067 S
atom 7.2642766179790277 2.2776571704361039 39.6400290263703710 S
atom 2.2776571704282955 7.2642766179872114 39.6400290263463049 S
atom 7.9251820157187618 7.9251820157132800 39.6400290263604944 S
atom 2.3521886771893215 2.3521886771958558 44.6741639673589930 S
atom 7.7588103925414780 2.7721909449811593 44.6741639673545237 S
atom 2.7721909449895019 7.7588103925307541 44.6741639673589646 S
atom 7.4306482411603731 7.4306482411645955 44.6741639673565984 S
atom 2.5162697528832676 0.0229600291013169 41.8342591713197010 S
atom 7.5488092586387774 0.0688800873114858 42.3409895889606815 S
atom 2.5621898110871442 5.0554995348652350 42.3409895889623513 S
atom 7.5947293168540275 5.1014195930753061 41.8342591713181235 S
atom 0.0229600291071463 2.5162697528752913 41.8342591713128229 S
atom 5.0554995348627507 2.5621898110904695 42.3409895889684478 S
atom 0.0688800873160359 7.5488092586408078 42.3409895889705652 S
atom 5.1014195930714274 7.5947293168449530 41.8342591713149758 S
atom 2.4408823589009745 2.4408823589069302 47.7802923414610206 Ba
atom 7.6701167108255852 2.6834972632733591 47.7802923414616245 Ba
atom 2.6834972632735767 7.6701167108236366 47.7802923414616529 Ba
atom 7.5193419228717522 7.5193419228760501 47.7802923414619514 Ba
atom 2.5310422784862627 2.5310422784289464 52.4572110025793137 Ba
atom 7.5799567912986268 2.5933373436942064 52.4572110025791787 Ba
atom 2.5933373437449112 7.5799567912430161 52.4572110025793137 Ba
atom 7.6095018424586174 7.6095018423972700 52.4572110025790934 Ba
atom 5.0656332581245849 5.0656332581204015 49.8469585813592175 Zr
atom 10.1238253755787220 5.1372059280233175 49.8469585813595017 Zr
atom 5.1372059280257778 10.1238253755722241 49.8469585813551888 Zr
atom 10.1440928220962601 10.1440928220903395 49.8469585813586775 Zr
atom 5.0804713598721118 5.0804713598777544 54.8738625856294462 Zr
atom 10.1089872738209063 5.1223678262750534 54.8738625856301567 Zr
atom 5.1223678262697048 10.1089872738248925 54.8738625856324305 Zr
atom 10.1589309238433518 10.1589309238470644 54.8738625856273430 Zr
atom 5.2655006687588948 5.2655006687609074 47.3625919094528882 S
atom 9.9239579649431846 4.9373385173837212 47.3625919094539398 S
atom 4.9373385173904181 9.9239579649335550 47.3625919094498897 S
atom 10.3439602327309270 10.3439602327305575 47.3625919094547996 S
atom 4.7709668942052668 4.7709668942089776 52.3967268504370693 S
atom 10.4184917394795100 5.4318722919535638 52.3967268504347032 S
atom 5.4318722919282463 10.4184917395025529 52.3967268504430024 S
atom 9.8494264581762252 9.8494264581783177 52.3967268504454395 S
atom 5.0554995348568754 2.5621898110869141 49.6957662878385662 S
atom 10.0880390406408580 2.6081098692941533 50.2024967054928055 S
atom 5.1014195930887736 7.5947293168492642 50.2024967054933953 S
atom 10.1339590988279777 7.6406493750592652 49.6957662878371451 S
atom 5.0554995347967076 2.5621898110937189 55.2273354671686647 S
atom 10.0880390406815330 2.6081098693041223 54.5392446493689249 S
atom 5.1014195931299477 7.5947293168486905 54.5392446493665446 S
atom 10.1339590987677131 7.6406493750567170 55.2273354671718693 S
atom 2.5621898110895711 5.0554995348716449 49.6957662878470927 S
atom 7.5947293168508718 5.1014195930587816 50.2024967054879312 S
atom 2.6081098692995197 10.0880390406089848 50.2024967054878957 S
atom 7.6406493750607449 10.1339590988408741 49.6957662878450961 S
atom 2.5621898110869585 5.0554995349317000 55.2273354671601666 S
atom 7.5947293168488086 5.1014195930176021 54.5392446493810681 S
atom 2.6081098693001694 10.0880390405681091 54.5392446493796683 S
atom 7.6406493750529734 10.1339590989013733 55.2273354671590084 S
atom 2.5740939749814800 2.5740939750910545 57.3712222411576747 Ba
atom 7.5369050946425480 2.5502856471910609 57.3712222411579518 Ba
atom 2.5502856470920570 7.5369050947417486 57.3712222411578807 Ba
atom 7.6525535389512118 7.6525535390601318 57.3712222411577670 Ba
atom 2.5031303680439412 2.5031303679036494 62.3294247396061891 Ba
atom 7.6078687018167690 2.6212492541409254 62.3294247396061749 Ba
atom 2.6212492542671586 7.6078687016924924 62.3294247396059191 Ba
atom 7.5815899320130997 7.5815899318739230 62.3294247396054573 Ba
atom 5.0789682760351784 5.0789682760297907 59.8418369469099503 Zr
atom 10.1104903576695921 5.1238709101119566 59.8418369469090123 Zr
atom 5.1238709101174624 10.1104903576625311 59.8418369469119327 Zr
atom 10.1574278400064575 10.1574278399992188 59.8418369469084297 Zr
atom 5.0782800697319033 5.0782800697321360 64.8062648453808521 Zr
atom 10.1111785639678100 5.1245591164159370 64.8062648453770862 Zr
atom 5.1245591164176121 10.1111785639668472 64.8062648453706203 Zr
atom 10.1567396337033813 10.1567396337007789 64.8062648453821737 Zr
atom 5.4275993504657887 5.4275993504450977 57.3643115463119884 S
atom 9.7618592832705708 4.7752398356650341 57.3643115463104110 S
atom 4.7752398357185006 9.7618592832160580 57.3643115463199678 S
atom 10.5060589144369185 10.5060589144151706 57.3643115462981612 S
atom 4.7250488294830024 4.7250488295037201 62.3261964160255530 S
atom 10.4644098041737319 5.4777903566865707 62.3261964160299442 S
atom 5.4777903566211963 10.4644098042362987 62.3261964160249988 S
atom 9.8035083934544200 9.8035083934721694 62.3261964160435653 S
atom 5.0554995347824976 2.5621898110877099 59.4843002992238823 S
atom 10.0880390407152785 2.6081098692924796 60.2121018926151521 S
atom 5.1014195931630928 7.5947293168472036 60.2121018926139655 S
atom 10.1339590987535324 7.6406493750622539 59.4843002992235199 S
atom 5.0554995347663985 2.5621898110923427 65.1736361764410788 S
atom 10.0880390407223235 2.6081098692980906 64.4429738645810772 S
atom 5.1014195931705046 7.5947293168432539 64.4429738645828820 S
atom 10.1339590987377139 7.6406493750588202 65.1736361764376255 S
atom 2.5621898110851267 5.0554995349454055 59.4843002992408429 S
atom 7.5947293168553500 5.1014195929839232 60.2121018925995912 S
atom 2.6081098692950668 10.0880390405340581 60.2121018925992857 S
atom 7.6406493750657170 10.1339590989144828 59.4843002992398482 S
atom 2.5621898110916388 5.0554995349618332 65.1736361764189240 S
atom 7.5947293168476273 5.1014195929772361 64.4429738646034451 S
atom 2.6081098693011686 10.0880390405266205 64.4429738646040136 S
atom 7.6406493750540898 10.1339590989307435 65.1736361764187251 S
atom 2.5757974833304473 2.5757974834811019 67.2889335312411703 Ba
atom 7.5352015862586921 2.5485821388359695 67.2889335312414403 Ba
atom 2.5485821387044547 7.5352015863854227 67.2889335312416392 Ba
atom 7.6542570473038278 7.6542570474511065 67.2889335312408861 Ba
atom 2.5026620806380855 2.5026620804793311 72.2506640884260776 Ba
atom 7.6083369892376131 2.6217175415531169 72.2506640884265607 Ba
atom 2.6217175416842711 7.6083369891015984 72.2506640884269871 Ba
atom 7.5811216446105298 7.5811216444469975 72.2506640884265465 Ba
atom 5.0784595639702745 5.0784595639682504 69.7697988098160948 Zr
atom 10.1109990697315464 5.1243796221779423 69.7697988098281883 Zr
atom 5.1243796221801121 10.1109990697274359 69.7697988098227739 Zr
atom 10.1569191279428033 10.1569191279377193 69.7697988098128690 Zr
atom 5.0786390582055363 5.0786390582083651 74.7333327742921796 Zr
atom 10.1108195754910763 5.1242001279410658 74.7333327743056088 Zr
atom 5.1242001279368132 10.1108195754895362 74.7333327743156133 Zr
atom 10.1570986221753436 10.1570986221771360 74.7333327742884279 Zr
atom 5.4324492547851175 5.4324492547666514 67.2886587613327549 S
atom 9.7570093789602872 4.7703899313312039 67.2886587613261327 S
atom 4.7703899314098432 9.7570093788805021 67.2886587613216136 S
atom 10.5109088187566719 10.5109088187347641 67.2886587613276248 S
atom 4.7244698731531853 4.7244698731601131 72.2509388583294054 S
atom 10.4649887604985086 5.4783693130345226 72.2509388583059717 S
atom 5.4783693129474731 10.4649887605868113 72.2509388583191168 S
atom 9.8029294371241047 9.8029294371304267 72.2509388583297039 S
atom 5.0554995347642286 2.5621898110912209 69.4039799202926133 S
atom 10.0880390407278995 2.6081098692940716 70.1356176993837437 S
atom 5.1014195931760833 7.5947293168474523 70.1356176993831752 S
atom 10.1339590987351293 7.6406493750650224 69.4039799202949581 S
atom 5.0554995347523475 2.5621898110961618 75.0966237550925229 S
atom 10.0880390407333955 2.6081098692979263 74.3659614432114608 S
atom 5.1014195931818218 7.5947293168395706 74.3659614432113329 S
atom 10.1339590987235635 7.6406493750556805 75.0966237550920681 S
atom 2.5621898110908194 5.0554995349635865 69.4039799203229677 S
atom 7.5947293168505139 5.1014195929711565 70.1356176993564873 S
atom 2.6081098692944713 10.0880390405209059 70.1356176993559330 S
atom 7.6406493750600033 10.1339590989326123 69.4039799203227972 S
atom 2.5621898110806356 5.0554995349759215 75.0966237550542530 S
atom 7.5947293168511569 5.1014195929658541 74.3659614432547613 S
atom 2.6081098692923370 10.0880390405162501 74.3659614432539797 S
atom 7.6406493750625426 10.1339590989451427 75.0966237550522351 S
atom 2.5753291959020377 2.5753291960884543 77.2101728800601279 Ba
atom 7.5356698736613090 2.5490504262539511 77.2101728800599147 Ba
atom 2.5490504261112932 7.5356698738047552 77.2101728800600284 Ba
atom 7.6537887598718202 7.6537887600582168 77.2101728800596590 Ba
atom 2.5043655890427150 2.5043655888246192 82.1683753785099640 Ba
atom 7.6066334808685498 2.6200140331680553 82.1683753785104756 Ba
atom 2.6200140333171271 7.6066334807194114 82.1683753785098787 Ba
atom 7.5828251530132116 7.5828251527961177 82.1683753785106745 Ba
atom 5.0779508519087111 5.0779508518997600 79.6977606727767949 Zr
atom 10.1115077817972843 5.1248883342401435 79.6977606727734553 Zr
atom 5.1248883342462577 10.1115077817910635 79.6977606727812571 Zr
atom 10.1564104158780726 10.1564104158693453 79.6977606727797223 Zr
atom 5.0764477680654547 5.0764477680580598 84.6657350340132666 Zr
atom 10.1130108656439859 5.1263914180791241 84.6657350340167767 Zr
atom 5.1263914180913170 10.1130108656293825 84.6657350340088470 Zr
atom 10.1549073320369576 10.1549073320283139 84.6657350340165067 Zr
atom 5.4318702984442924 5.4318702984493594 77.2134012036772646 S
atom 9.7575883353151376 4.7709688876425709 77.2134012036528219 S
atom 4.7709688877625540 9.7575883351916168 77.2134012036376163 S
atom 10.5103298624148920 10.5103298624189492 77.2134012036825226 S
atom 4.7293197775114555 4.7293197774632114 82.1752860733600130 S
atom 10.4601388561301132 5.4735194087421917 82.1752860733520549 S
atom 5.4735194085760046 10.4601388562917581 82.1752860733450774 S
atom 9.8077793414816998 9.8077793414333723 82.1752860733562613 S
atom 5.0554995347416458 2.5621898110843779 79.3274957270197234 S
atom 10.0880390407552643 2.6081098692994056 80.0552973204572709 S
atom 5.1014195932036133 7.5947293168526064 80.0552973204606673 S
atom 10.1339590987123316 7.6406493750542968 79.3274957270181460 S
atom 5.0554995347536300 2.5621898110842860 85.0003529703570706 S
atom 10.0880390407554899 2.6081098692975995 84.3122621524567393 S
atom 5.1014195932028841 7.5947293168482819 84.3122621524565261 S
atom 10.1339590987253878 7.6406493750519218 85.0003529703549106 S
atom 2.5621898110889809 5.0554995349875540 79.3274957270886460 S
atom 7.5947293168536794 5.1014195929445396 80.0552973203943026 S
atom 2.6081098693125049 10.0880390404945715 80.0552973203948142 S
atom 7.6406493750535311 10.1339590989571917 79.3274957270893140 S
atom 2.5621898110851689 5.0554995349751541 85.0003529702439238 S
atom 7.5947293168573191 5.1014195929444455 84.3122621525645428 S
atom 2.6081098693088007 10.0880390404944400 84.3122621525668308 S
atom 7.6406493750567916 10.1339590989442385 85.0003529702464533 S
atom 2.5474172854298818 2.5474172855915245 87.0823866170910179 Ba
atom 7.5635817841835689 2.5769623367029588 87.0823866170906342 Ba
atom 2.5769623366292391 7.5635817842514195 87.0823866170908190 Ba
atom 7.6258768494031592 7.6258768495602469 87.0823866170904495 Ba
atom 2.6375772051087156 2.6375772050174606 91.7593052782016940 Ba
atom 7.4734218646303265 2.4868024171517198 91.7593052782012109 Ba
atom 2.4868024170774090 7.4734218647008328 91.7593052782017793 Ba
atom 7.7160367690804312 7.7160367689867080 91.7593052782017651 Ba
atom 5.0912858698114833 5.0912858698184280 89.6926390383137715 Zr
atom 10.0981727638835483 5.1115533163332287 89.6926390383102188 Zr
atom 5.1115533163317055 10.0981727638836087 89.6926390383115404 Zr
atom 10.1697454337818272 10.1697454337873268 89.6926390383142547 Zr
atom 5.3859522336717518 5.3859522337939083 87.1428707691993480 S
atom 9.8035064000613854 4.8168869523209299 87.1428707692258655 S
atom 4.8168869525096651 9.8035063998694749 87.1428707692165005 S
atom 10.4644117976422830 10.4644117977610041 87.1428707691888320 S
atom 4.8914184592511845 4.8914184591017289 92.1770057102357612 S
atom 10.2980401744450738 5.3114207270485307 92.1770057102314695 S
atom 5.3114207268935827 10.2980401746000290 92.1770057102394560 S
atom 9.9698780232224564 9.9698780230724218 92.1770057102333737 S
atom 5.0554995348317551 2.5621898110922818 89.3371009141154815 S
atom 10.0880390406453273 2.6081098692937363 89.8438313319076371 S
atom 5.1014195930935919 7.5947293168478325 89.8438313319076656 S
atom 10.1339590988025190 7.6406493750657001 89.3371009141176131 S
atom 2.5621898110876966 5.0554995348963772 89.3371009142320815 S
atom 7.5947293168460348 5.1014195930538611 89.8438313317429476 S
atom 2.6081098692947036 10.0880390406036842 89.8438313317440276 S
atom 7.6406493750610140 10.1339590988655122 89.3371009142321668 S
