#=======================================================
# FHI-aims file: full_relax/full_relax_RP_4_Rx0Mz_0Ry0.in
# Created using the Atomic Simulation Environment (ASE)
# Fri Mar 14 11:24:58 2025
#=======================================================
lattice_vector 10.0876408651621823 0.0000000000000429 -0.0000000000000046 
lattice_vector 0.0000000000000427 10.0889527800709722 0.0000000000000272 
lattice_vector -0.0000000000000215 0.0000000000001281 45.2633176222131297 
atom -0.1714831795703486 0.0000000000004051 0.2940684105572762 Ba
atom 5.2124527317537215 0.0000000000000339 0.2918147110400034 Ba
atom 0.1686322991727684 5.0444763900328162 0.2918147110615940 Ba
atom 4.8723372530050133 5.0444763900332834 0.2940684105451838 Ba
atom 0.0130241290416447 -0.0000000000000793 4.9682240697798026 Ba
atom 5.0001891201991020 -0.0000000000003961 4.9439783623561944 Ba
atom -0.0436313123913528 5.0444763900332790 4.9439783623548648 Ba
atom 5.0568445616327020 5.0444763900336582 4.9682240697780973 Ba
atom 2.5192259445372698 2.5000563986514224 2.3424593693823592 Zr
atom 7.5630463771329666 2.5444199913944527 2.3424593693984779 Zr
atom 2.5192259445398077 7.5888963814174586 2.3424593693817322 Zr
atom 7.5630463771304539 7.5445327886740925 2.3424593693983113 Zr
atom 2.5270880232875577 2.5230518588760611 7.3583114458991359 Zr
atom 7.5709084558905104 2.5214245311627961 7.3583114458916050 Zr
atom 2.5270880232891990 7.5659009211933768 7.3583114458963426 Zr
atom 7.5709084558889286 7.5675282489052735 7.3583114458897692 Zr
atom 2.5208485829645144 2.8095587767702885 -0.1363697723384185 S
atom 7.5646690155412948 2.2349176132598454 -0.1363697723353292 S
atom 2.5208485829640459 7.2793940032987967 -0.1363697723381851 S
atom 7.5646690155417442 7.8540351668085302 -0.1363697723360577 S
atom 2.5222511711765483 2.0579076933970519 4.8852237456160452 S
atom 7.5660716037565523 2.9865686966345359 4.8852237456107490 S
atom 2.5222511711766158 8.0310450866705239 4.8852237456228611 S
atom 7.5660716037565052 7.1023840834351759 4.8852237456189602 S
atom 2.5214732846748036 -0.0000000000025289 2.0432158389256050 S
atom 7.5644249445410034 -0.0000000000017055 2.7807598064871235 S
atom 2.5206045119641747 5.0444763900348661 2.7807598064916386 S
atom 7.5652937172578021 5.0444763900356868 2.0432158389225132 S
atom 2.5857535893393888 -0.0000000000078958 7.8210342510990429 S
atom 7.5118434953685593 -0.0000000000050899 6.8962888389985100 S
atom 2.4680230627925135 5.0444763900401073 6.8962888389971519 S
atom 7.6295740219172457 5.0444763900391152 7.8210342511033701 S
atom -0.0016429264023405 2.5236245352211730 2.4790301673656145 S
atom 5.0421775061708072 2.5208518548093513 2.4790301673679580 S
atom -0.0016429264019791 7.5653282448475423 2.4790301673648401 S
atom 5.0421775061704954 7.5681009252593912 2.4790301673664019 S
atom 0.0046122526953059 2.4568152006723163 7.3700114803734751 S
atom 5.0484326852676302 2.5876611893592649 7.3700114803721100 S
atom 0.0046122526963748 7.6321375793961108 7.3700114803719261 S
atom 5.0484326852665324 7.5012915907095614 7.3700114803714962 S
atom 0.0238544924033979 0.0000000000004012 9.8398516570098735 Ba
atom 5.0847106872791183 -0.0000000000001749 9.8398516570106374 Ba
atom 0.0408902546928863 5.0444763900326191 9.8398516570086532 Ba
atom 5.0676749249897854 5.0444763900332976 9.8398516570098522 Ba
atom 0.0130241290475083 -0.0000000000007722 14.7114792442406177 Ba
atom 5.0001891201920730 -0.0000000000010452 14.7357249516641229 Ba
atom -0.0436313123878653 5.0444763900339877 14.7357249516638262 Ba
atom 5.0568445616295667 5.0444763900342311 14.7114792442414668 Ba
atom 2.5270880232916406 2.5230518588731905 12.3213918681300161 Zr
atom 7.5709084558862472 2.5214245311610393 12.3213918681280106 Zr
atom 2.5270880232932802 7.5659009211961958 12.3213918681345547 Zr
atom 7.5709084558846618 7.5675282489070907 12.3213918681311156 Zr
atom 2.5192259445410450 2.5000563986452704 17.3372439446243902 Zr
atom 7.5630463771296910 2.5444199913888830 17.3372439446210294 Zr
atom 2.5192259445432317 7.5888963814242922 17.3372439446221627 Zr
atom 7.5630463771275407 7.5445327886788291 17.3372439446188693 Zr
atom 2.5269479380976581 3.0259765029755874 9.8398516570198158 S
atom 7.5707683706728703 2.0184998870555306 9.8398516570101044 S
atom 2.5269479380969879 7.0629762770946343 9.8398516570230736 S
atom 7.5707683706735480 8.0704528930116552 9.8398516570145738 S
atom 2.5222511711764768 2.0579076934002138 14.7944795684025809 S
atom 7.5660716037567459 2.9865686966335430 14.7944795684021368 S
atom 2.5222511711766553 8.0310450866669090 14.7944795683976142 S
atom 7.5660716037566003 7.1023840834366503 14.7944795683947952 S
atom 2.5857535893393715 -0.0000000000094536 11.8586690629168601 S
atom 7.5118434953693169 -0.0000000000082749 12.7834144750215959 S
atom 2.4680230627907913 5.0444763900424059 12.7834144750173078 S
atom 7.6295740219183470 5.0444763900416802 11.8586690629185103 S
atom 2.5214732846742876 -0.0000000000036589 17.6364874751005836 S
atom 7.5644249445419538 -0.0000000000028717 16.8989435075354173 S
atom 2.5206045119621785 5.0444763900359435 16.8989435075383234 S
atom 7.5652937172567976 5.0444763900369001 17.6364874751004130 S
atom 0.0046122527012080 2.4568152006729584 12.3096918336455925 S
atom 5.0484326852617674 2.5876611893607655 12.3096918336473244 S
atom 0.0046122527011445 7.6321375793954189 12.3096918336456742 S
atom 5.0484326852618766 7.5012915907080657 12.3096918336463528 S
atom -0.0016429264017450 2.5236245352226923 17.2006731466589677 S
atom 5.0421775061697174 2.5208518548105521 17.2006731466561185 S
atom -0.0016429264017636 7.5653282448459116 17.2006731466612699 S
atom 5.0421775061698124 7.5681009252580935 17.2006731466592555 S
atom -0.1714831795712952 0.0000000000007871 19.3856349034647693 Ba
atom 5.2124527317537845 0.0000000000005088 19.3878886029781121 Ba
atom 0.1686322991733366 5.0444763900323437 19.3878886029779238 Ba
atom 4.8723372530086637 5.0444763900326839 19.3856349034691533 Ba
atom 2.5208485829613907 2.8095587767725605 19.8160730863463996 S
atom 7.5646690155427789 2.2349176132600470 19.8160730863605288 S
atom 2.5208485829609559 7.2793940032969369 19.8160730863416639 S
atom 7.5646690155432266 7.8540351668076296 19.8160730863562868 S
atom 2.5209817974733975 2.6925237990309663 22.9266495745933270 Ba
atom 7.5648022300479205 2.3519525910003742 22.9266495745893266 Ba
atom 2.5209817974729485 7.3964289810369666 22.9266495745916608 Ba
atom 7.5648022300484588 7.7370001890685316 22.9266495745880334 Ba
atom 2.5208796622014957 2.4939818308837163 27.5904181723448936 Ba
atom 7.5647000947819487 2.5504945591470256 27.5904181723453341 Ba
atom 2.5208796622010445 7.5949709491825272 27.5904181723453696 Ba
atom 7.5647000947823875 7.5384582209219086 27.5904181723449042 Ba
atom 5.0651478505638936 5.0444763900126892 24.9757035712461324 Zr
atom 10.0644028314761282 5.0444763900152507 24.9762125467955798 Zr
atom 5.0205823988916150 10.0889527800912315 24.9762125467877034 Zr
atom 10.1089682831530130 10.0889527800887571 24.9757035712535362 Zr
atom 5.0420527077703827 5.0444763900170697 29.9906275930479005 Zr
atom 10.0874673862085782 5.0444763900181488 29.9907545286847750 Zr
atom 5.0436469536217841 10.0889527800868617 29.9907545286682122 Zr
atom 10.0858731403571884 10.0889527800858243 29.9906275930465505 Zr
atom 4.7548233115685461 5.0444763900357730 22.4969411276981752 S
atom 10.3746568994054069 5.0444763900355722 22.4974508168514795 S
atom 5.3308364668267894 10.0889527800682774 22.4974508168678433 S
atom 9.7986437441495831 10.0889527800685297 22.4969411276938054 S
atom 5.5095210645515298 5.0444763900394918 27.5181871931158675 S
atom 9.6198858568260999 5.0444763900390548 27.5182753854998978 S
atom 4.5760654242502552 10.0889527800644796 27.5182753855191855 S
atom 10.5533414971330792 10.0889527800649788 27.5181871931133166 S
atom 5.0428580548600692 2.5222576384418414 25.1129075083046480 S
atom 10.0866784874395776 2.5222187515926255 25.1129075083053799 S
atom 5.0428580548602069 7.5666951416266492 25.1129075083031807 S
atom 10.0866784874394853 7.5667340284759144 25.1129075083039659 S
atom 5.0427756825308094 2.5222279060357882 30.0019191579783637 S
atom 10.0865961151070866 2.5222484839755253 30.0019191579730489 S
atom 5.0427756825273624 7.5667248740327757 30.0019191579824600 S
atom 10.0865961151105576 7.5667042960930884 30.0019191579766442 S
atom 2.5209592700225745 5.0444763900375049 25.4153725796561325 S
atom 7.5647589451308184 5.0444763900386924 24.6749093892078513 S
atom 2.5209385125384292 10.0889527800655934 24.6749093892063698 S
atom 7.5647797026075736 10.0889527800662755 25.4153725796541607 S
atom 2.5208908702232753 5.0444763900365981 29.5262620522988257 S
atom 7.5647388589554776 5.0444763900390264 30.4566909374010670 S
atom 2.5209184264051148 10.0889527800676593 30.4566909374011843 S
atom 7.5647113027684014 10.0889527800652008 29.5262620523016714 S
atom 2.5209691551558455 2.5309669200148162 32.4715104681151914 Ba
atom 7.5647895877418501 2.5135094700239908 32.4715104681137916 Ba
atom 2.5209691551558491 7.5579858600520131 32.4715104681148645 Ba
atom 7.5647895877418554 7.5754433100472189 32.4715104681164703 Ba
atom 2.5208796622041501 2.4939818308904345 37.3526027638893154 Ba
atom 7.5647000947801839 2.5504945591546293 37.3526027638892728 Ba
atom 2.5208796622040976 7.5949709491773527 37.3526027638910847 Ba
atom 7.5647000947803917 7.5384582209168700 37.3526027638897418 Ba
atom 5.0420527077706980 5.0444763900223828 34.9523933431878362 Zr
atom 10.0874673862116335 5.0444763900224681 34.9522664075455367 Zr
atom 5.0436469536174382 10.0889527800821508 34.9522664075608489 Zr
atom 10.0858731403563340 10.0889527800821401 34.9523933431637417 Zr
atom 5.0651478505533705 5.0444763900247258 39.9673173649966529 Zr
atom 10.0644028314832781 5.0444763900253164 39.9668083894536608 Zr
atom 5.0205823988816904 10.0889527800798113 39.9668083894472943 Zr
atom 10.1089682831597152 10.0889527800792660 39.9673173650080003 Zr
atom 4.5356482745202289 5.0444763900352978 32.4715104681068070 S
atom 10.5939017224680789 5.0444763900356095 32.4715104681600053 S
atom 5.5500812898873857 10.0889527800688974 32.4715104681087894 S
atom 9.5794687071013378 10.0889527800686807 32.4715104681419078 S
atom 5.5095210645569308 5.0444763900379863 37.4248337431059781 S
atom 9.6198858568300416 5.0444763900376772 37.4247455507239906 S
atom 4.5760654242494043 10.0889527800665739 37.4247455507204378 S
atom 10.5533414971292565 10.0889527800668226 37.4248337431123090 S
atom 5.0427756825282088 2.5222279060364352 34.9411017782606592 S
atom 10.0865961151109822 2.5222484839874064 34.9411017782584281 S
atom 5.0427756825309453 7.5667248740324977 34.9411017782563675 S
atom 10.0865961151082590 7.5667042960815953 34.9411017782545414 S
atom 5.0428580548608286 2.5222576384170274 39.8301134279255038 S
atom 10.0866784874392490 2.5222187515797390 39.8301134279307547 S
atom 5.0428580548612700 7.5666951416520556 39.8301134279282110 S
atom 10.0866784874387978 7.5667340284893507 39.8301134279333127 S
atom 2.5208908701838046 5.0444763900381533 35.4167588839313225 S
atom 7.5647388589891067 5.0444763900357561 34.4863299988339520 S
atom 2.5209184263777824 10.0889527800659629 34.4863299988379026 S
atom 7.5647113028021105 10.0889527800688032 35.4167588839350103 S
atom 2.5209592700074421 5.0444763900357739 39.5276483565815440 S
atom 7.5647589451466715 5.0444763900372722 40.2681115470289512 S
atom 2.5209385125332804 10.0889527800679559 40.2681115470231532 S
atom 7.5647797026148069 10.0889527800681122 39.5276483565765275 S
atom 2.5209817974745516 2.6925237990359432 42.0163713616526806 Ba
atom 7.5648022300482110 2.3519525910025836 42.0163713616504140 Ba
atom 2.5209817974743736 7.3964289810322512 42.0163713616538530 Ba
atom 7.5648022300483575 7.7370001890667606 42.0163713616507337 Ba
atom 4.7548233115670033 5.0444763900348661 42.4460798085514526 S
atom 10.3746568994007848 5.0444763900349612 42.4455701193235129 S
atom 5.3308364668286083 10.0889527800696168 42.4455701193740467 S
atom 9.7986437441503664 10.0889527800695014 42.4460798085167426 S
