#=======================================================
# FHI-aims file: full_relax/full_relax_RP_3_Rx0Rz_0-Ry0.in
# Created using the Atomic Simulation Environment (ASE)
# Fri Mar 14 11:20:49 2025
#=======================================================
lattice_vector 10.0930131019722857 -0.0000000000000024 0.0019736117206132 
lattice_vector -0.0000000000000024 10.0943244368826122 0.0000000000000042 
lattice_vector 0.0055397899424257 0.0000000000000158 35.3555293989754773 
atom -0.1747969447598711 -0.0000000000202858 0.2937894314495115 Ba
atom 5.2131506435390254 -0.0000000000163632 0.2927775243701108 Ba
atom 0.1666440925385377 5.0471622184594791 0.2917907185204826 Ba
atom 4.8717096062396852 5.0471622184556226 0.2947762372923243 Ba
atom 0.0067461229484615 -0.0000000000075217 4.9572730006380032 Ba
atom 4.9977944164679791 -0.0000000000032760 4.9356167756583442 Ba
atom -0.0487121345127225 5.0471622184475082 4.9346299698031535 Ba
atom 5.0532526739303734 5.0471622184424900 4.9582598064991830 Ba
atom 2.5172908180010860 2.5006257209707994 2.3489686237759866 Zr
atom 7.5637973689766440 2.5465364973841620 2.3499554295920597 Zr
atom 2.5172908179820976 7.5936987158765676 2.3489686237500620 Zr
atom 7.5637973689979958 7.5477879395282734 2.3499554295665805 Zr
atom 2.5244073983912476 2.5235811091989104 7.3662286945559039 Zr
atom 7.5709139493889195 2.5235811091920546 7.3672155004520894 Zr
atom 2.5244073983719666 7.5707433276812575 7.3662286945619808 Zr
atom 7.5709139494097437 7.5707433276878948 7.3672155004445310 Zr
atom 2.5195465772371595 2.8118247031987695 -0.1309373796786882 S
atom 7.5660531282222747 2.2353375152574655 -0.1299505737761155 S
atom 2.5195465772396268 7.2824997336652393 -0.1309373797061805 S
atom 7.5660531282204309 7.8589869216402182 -0.1299505738108389 S
atom 2.5208107593382190 2.0607595817773920 4.8876688271375768 S
atom 7.5673173103241771 2.9864026366759684 4.8886556329801119 S
atom 2.5208107593417006 8.0335648550999750 4.8876688272410833 S
atom 7.5673173103220579 7.1079218002056068 4.8886556330912629 S
atom 2.5202369764411516 0.0000000001144378 2.0455597140202033 S
atom 7.5638105158977105 0.0000000000813150 2.7826314639461609 S
atom 2.5173039649147815 5.0471622183751705 2.7816446580893488 S
atom 7.5667435274251487 5.0471622183142673 2.0465465198770767 S
atom 2.5921688692462492 -0.0000000000367680 7.8144141576796127 S
atom 7.5031524785328036 -0.0000000000334799 6.9190300369072428 S
atom 2.4566459275519401 5.0471622184769132 6.9180432310480056 S
atom 7.6386754202264280 5.0471622184730602 7.8154009635409256 S
atom -0.0048799330143181 2.5240628808628411 2.4784301278246752 S
atom 5.0416266179849938 2.5230993375895387 2.4794169336845369 S
atom -0.0048799329991195 7.5702615560169608 2.4784301278257432 S
atom 5.0416266179646589 7.5712250992902543 2.4794169336871170 S
atom 0.0011541229113410 2.4475617653853563 7.3657352914384466 S
atom 5.0476606738851304 2.5996004530635113 7.3667220972984051 S
atom 0.0011541229139050 7.6467626714941446 7.3657352914405587 S
atom 5.0476606738791769 7.4947239838181883 7.3667220973002685 S
atom -0.0044378771543394 -0.0000000000067993 9.7741975823177807 Ba
atom 5.0975269313278284 -0.0000000000029114 9.7978274190129895 Ba
atom 0.0510203803372202 5.0471622184465996 9.7968406131569203 Ba
atom 5.0420686738363969 5.0471622184421969 9.7751843881765605 Ba
atom 0.1771051905546855 -0.0000000000188133 14.4376811514024386 Ba
atom 4.8821707042540554 -0.0000000000163256 14.4406666702111224 Ba
atom -0.1643358467166411 5.0471622184581824 14.4396798643292907 Ba
atom 5.2236117415276162 5.0471622184556466 14.4386679572779730 Ba
atom 2.5315239787753603 2.5465364974212923 12.3834887648736984 Zr
atom 7.5780305298065089 2.5006257209752905 12.3844755706969334 Zr
atom 2.5315239787607942 7.5477879394936087 12.3834887648940892 Zr
atom 7.5780305298215627 7.5936987158728089 12.3844755707176954 Zr
atom 2.5280040374589356 2.9864026366522736 9.8447885614603887 S
atom 7.5745105884386659 2.0607595817979290 9.8457753673314450 S
atom 2.5280040374618773 7.1079218002297209 9.8447885613296293 S
atom 7.5745105884364277 8.0335648550817140 9.8457753672189252 S
atom 2.5292682195600089 2.2353375152461701 14.8633947685944410 S
atom 7.5757747705430925 2.8118247032026811 14.8643815744698191 S
atom 2.5292682195613110 7.8589869216532584 14.8633947686528618 S
atom 7.5757747705417815 7.2824997336602868 14.8643815745217065 S
atom 2.5315108318878665 0.0000000000827358 11.9508127307061649 S
atom 7.5750843713350990 0.0000000001215542 12.6878844806613529 S
atom 2.5285778203591835 5.0471622183080260 12.6868976748055200 S
atom 7.5780173828628845 5.0471622183651341 11.9517995365671421 S
atom 0.0071881788020220 2.5240628808606558 12.2530404551210381 S
atom 5.0536947298173347 2.5230993375856201 12.2540272609808429 S
atom 0.0071881787916589 7.5702615560204594 12.2530404551188870 S
atom 5.0536947298268062 7.5712250992954280 12.2540272609776331 S
atom 2.5284825774813786 2.3526236059883838 17.9725680183504402 Ba
atom 7.5749891284478066 2.6945386124304527 17.9735548242112237 Ba
atom 2.5284825774855078 7.7417008308906521 17.9725680183578191 Ba
atom 7.5749891284435344 7.3997858244521622 17.9735548242197716 Ba
atom 2.5276292354378418 2.5513155701621586 22.6264631403127581 Ba
atom 7.5741357864030272 2.4958466482440800 22.6274499461751972 Ba
atom 2.5276292354397989 7.5430088667198225 22.6264631403172167 Ba
atom 7.5741357864010315 7.5984777886351162 22.6274499461797838 Ba
atom 5.0282855451565487 5.0471622185347007 20.0282923660070864 Zr
atom 10.1209186751086122 5.0471622185105982 20.0297013754297737 Zr
atom 5.0744121240628868 10.0943244367856870 20.0287145695984563 Zr
atom 10.0747920961325388 10.0943244368083107 20.0292791718622496 Zr
atom 5.0504305688713291 5.0471622185365117 25.0444867970127305 Zr
atom 10.0969371198321323 5.0471622185391514 25.0454736029489169 Zr
atom 5.0504305688780819 10.0943244367858309 25.0444867969698706 Zr
atom 10.0969371198400175 10.0943244367804255 25.0454736028861760 Zr
atom 5.3409086180000562 5.0471622184277827 17.5485681399518789 S
atom 9.8092915441218533 5.0471622184299534 17.5498909064873061 S
atom 4.7627849931184230 10.0943244368936913 17.5489041005282580 S
atom 10.3874151689631002 10.0943244368912950 17.5495549458516855 S
atom 4.5851250416850986 5.0471622184219589 22.5665376721362918 S
atom 10.5632155410054267 5.0471622184225220 22.5677557269637248 S
atom 5.5167089900153732 10.0943244368996314 22.5667689213300235 S
atom 9.6316315926599589 10.0943244368975531 22.5675244779032624 S
atom 5.0513882747605834 2.5235960419378087 20.1590429824344568 S
atom 10.0978948257459642 2.5235661766312609 20.1600297883052093 S
atom 5.0513882747606011 7.5707283949462205 20.1590429824290673 S
atom 10.0978948257458967 7.5707582602559365 20.1600297883009993 S
atom 5.0504305688626268 2.5235683018276269 25.0444867967785427 S
atom 10.0969371198482474 2.5235939167097645 25.0454736026487979 S
atom 5.0504305688629136 7.5707561350517043 25.0444867967782336 S
atom 10.0969371198479720 7.5707305201757364 25.0454736026477178 S
atom 2.5281824399237269 5.0471622184244005 19.7225514877522166 S
atom 7.5745350520762562 5.0471622184242468 20.4631065407773107 S
atom 2.5280285009649752 10.0943244368965264 20.4621197349139550 S
atom 7.5746889911629323 10.0943244368961214 19.7235382935910977 S
atom 2.5270781278989536 5.0471622184196754 25.4954827661472301 S
atom 7.5737830098022423 5.0471622184203859 24.5934908274176891 S
atom 2.5272764588867798 10.0943244369009797 24.5925040215420196 S
atom 7.5735846788378920 10.0943244369015321 25.4964695719983396 S
atom 2.5267253513127148 2.4958466482354287 27.4615236474787672 Ba
atom 7.5732319022928341 2.5513155701866888 27.4625104533411353 Ba
atom 2.5267253513094290 7.5984777886433283 27.4615236474792397 Ba
atom 7.5732319022959231 7.5430088666960584 27.4625104533417925 Ba
atom 2.5258720092743876 2.6945386124136648 32.1154187693309581 Ba
atom 7.5723785602394651 2.3526236060064414 32.1164055751893756 Ba
atom 2.5258720092695857 7.3997858244698280 32.1154187693124342 Ba
atom 7.5723785602443554 7.7417008308716415 32.1164055751718607 Ba
atom 5.0725755925943190 5.0471622185351563 30.0606812273632258 Zr
atom 10.0729555645744977 5.0471622185583858 30.0612458296757659 Zr
atom 5.0264490136385156 10.0943244367869003 30.0602590238143925 Zr
atom 10.1190821435712142 10.0943244367595693 30.0616680332375132 Zr
atom 5.5157360960161714 5.0471622184222831 27.5224359212777578 S
atom 9.6306586987310610 5.0471622184188725 27.5231914780402498 S
atom 4.5841521477249607 10.0943244368998837 27.5222046721662181 S
atom 10.5622426470120114 10.0943244369008926 27.5234227272335374 S
atom 4.7599525197071504 5.0471622184267941 32.5404054539230643 S
atom 10.3845826955887297 5.0471622184238054 32.5410562990431345 S
atom 5.3380761446123222 10.0943244368952811 32.5400694932815213 S
atom 9.8064590707149186 10.0943244368971961 32.5413922597113370 S
atom 5.0494728629605996 2.5235960419171097 29.9299306112053003 S
atom 10.0959794139536108 2.5235661766604980 29.9309174170761203 S
atom 5.0494728629607248 7.5707283949634050 29.9299306112108354 S
atom 10.0959794139536054 7.5707582602287014 29.9309174170829486 S
atom 2.5263260856019025 5.0471622184198353 29.6258670528681129 S
atom 7.5726786978104546 5.0471622184204143 30.3664221059300665 S
atom 2.5261721466036624 10.0943244369006919 30.3654353000665935 S
atom 7.5728326367495207 10.0943244369008376 29.6268538587200680 S
