#=======================================================
# FHI-aims file: full_relax/full_relax_RP_4_00Mz_00Mz.in
# Created using the Atomic Simulation Environment (ASE)
# Fri Mar 14 11:22:26 2025
#=======================================================
lattice_vector 9.9373495387741428 0.0000005536685971 -0.0000000000000243 
lattice_vector 0.0000005536685971 9.9373495387737538 0.0000000000000071 
lattice_vector -0.0000000000001111 0.0000000000000325 46.5021271803012510 
atom -0.0000000000017321 -0.0000000000043331 0.1903758450569245 Ba
atom 4.9686747693874977 0.0000002768312168 0.1903758450593623 Ba
atom 0.0000002768269300 4.9686747693849291 0.1903758450689207 Ba
atom 4.9686750462166067 4.9686750462232023 0.1903758450579892 Ba
atom 0.0000000000012058 -0.0000000000063690 5.0339503560641106 Ba
atom 4.9686747693872748 0.0000002768324779 5.0339503560637668 Ba
atom 0.0000002768337412 4.9686747693857400 5.0339503560641994 Ba
atom 4.9686750462209313 4.9686750462243010 5.0339503560634107 Ba
atom 2.4843375231095988 2.4843375231080338 2.4131236518079877 Zr
atom 7.4530122924962203 2.4843377999433596 2.4131236518101864 Zr
atom 2.4843377999442127 7.4530122924964761 2.4131236518015720 Zr
atom 7.4530125693312623 7.4530125693319089 2.4131236518024139 Zr
atom 2.4843375231094886 2.4843375231085938 7.5514728626943528 Zr
atom 7.4530122924957070 2.4843377999429825 7.5514728626915666 Zr
atom 2.4843377999420246 7.4530122924951518 7.5514728626875209 Zr
atom 7.4530125693284175 7.4530125693289326 7.5514728626890308 Zr
atom 2.4843375231100824 2.4843375231092959 -0.1209288437837480 S
atom 7.4530122924967959 2.4843377999475758 -0.1209288437813267 S
atom 2.4843377999458247 7.4530122924959255 -0.1209288437881294 S
atom 7.4530125693306353 7.4530125693288856 -0.1209288437880412 S
atom 2.4843375231130360 2.4843375231122495 5.0114234410183878 S
atom 7.4530122924930557 2.4843377999448593 5.0114234410195744 S
atom 2.4843377999452181 7.4530122924911995 5.0114234410170466 S
atom 7.4530125693287097 7.4530125693313378 5.0114234410164862 S
atom 2.8268281103954402 -0.0000067343082484 2.5053135149564918 S
atom 7.1105214283725475 0.0000072879723106 2.5053135149587238 S
atom 2.1418469358247836 4.9686817805265928 2.5053135149537953 S
atom 7.7955031566190938 4.9686683119165487 2.5053135149592478 S
atom 2.9832299807893614 0.0000002215693230 7.5564051873463569 S
atom 6.9541195579831143 0.0000003320953142 7.5564051873501645 S
atom 1.9854450654229954 4.9686748246479278 7.5564051873488394 S
atom 7.9519050270146545 4.9686752677901440 7.5564051873475835 S
atom 0.0000070111379761 2.1418466589848322 2.5053135149550356 S
atom 4.9686680350808787 2.8268283872282907 2.5053135149544614 S
atom -0.0000064574726197 7.7955028797869446 2.5053135149508097 S
atom 4.9686820573606916 7.1105217052122969 2.5053135149541794 S
atom 0.0000000552610750 1.9854447885915816 7.5564051873472398 S
atom 4.9686749909552308 2.9832302576274885 7.5564051873496227 S
atom 0.0000004984039052 7.9519047501790157 7.5564051873511602 S
atom 4.9686751014820718 6.9541198348119257 7.5564051873519205 S
atom -0.0000000000019845 -0.0000000000009561 10.1091580826746021 Ba
atom 4.9686747693854052 0.0000002768373678 10.1091580826769523 Ba
atom 0.0000002768277393 4.9686747693850712 10.1091580826701151 Ba
atom 4.9686750462160436 4.9686750462212164 10.1091580826735541 Ba
atom 0.0000000000020328 -0.0000000000037753 15.1843658092924869 Ba
atom 4.9686747693842266 0.0000002768348587 15.1843658092964766 Ba
atom 0.0000002768379996 4.9686747693812130 15.1843658092929985 Ba
atom 4.9686750462198965 4.9686750462242317 15.1843658092981570 Ba
atom 2.4843375231108018 2.4843375231085192 12.6668433026624516 Zr
atom 7.4530122924968554 2.4843377999445817 12.6668433026638780 Zr
atom 2.4843377999428955 7.4530122924927324 12.6668433026570391 Zr
atom 7.4530125693300482 7.4530125693288625 12.6668433026592773 Zr
atom 2.4843375231109710 2.4843375231097156 17.8051925135443447 Zr
atom 7.4530122924965863 2.4843377999453518 17.8051925135454248 Zr
atom 2.4843377999435998 7.4530122924950390 17.8051925135408560 Zr
atom 7.4530125693309452 7.4530125693303564 17.8051925135344398 Zr
atom 2.4843375231115115 2.4843375231043083 10.1091580826794676 S
atom 7.4530122924928053 2.4843377999459100 10.1091580826787517 S
atom 2.4843377999469505 7.4530122924968945 10.1091580826779044 S
atom 7.4530125693247413 7.4530125693285640 10.1091580826769096 S
atom 2.4843375231119436 2.4843375231123055 15.2068927243408947 S
atom 7.4530122924934581 2.4843377999441669 15.2068927243354821 S
atom 2.4843377999432659 7.4530122924909534 15.2068927243357823 S
atom 7.4530125693300002 7.4530125693312117 15.2068927243372816 S
atom 2.9832299807914642 0.0000002215687212 12.6619109780125427 S
atom 6.9541195579814401 0.0000003320946227 12.6619109780049381 S
atom 1.9854450654190228 4.9686748246462589 12.6619109780129833 S
atom 7.9519050270190963 4.9686752677913963 12.6619109780120294 S
atom 2.8268281103993718 -0.0000067343066857 17.7130026504022062 S
atom 7.1105214283642990 0.0000072879749975 17.7130026503973426 S
atom 2.1418469358115608 4.9686817805247321 17.7130026504103917 S
atom 7.7955031566366522 4.9686683119136283 17.7130026503961773 S
atom 0.0000000552623176 1.9854447885914532 12.6619109780139159 S
atom 4.9686749909548249 2.9832302576322243 12.6619109780164294 S
atom 0.0000004984042892 7.9519047501814732 12.6619109780122443 S
atom 4.9686751014830222 6.9541198348087239 12.6619109780116617 S
atom 0.0000070111374919 2.1418466589830705 17.7130026503982414 S
atom 4.9686680350825876 2.8268283872403952 17.7130026504037978 S
atom -0.0000064574730462 7.7955028797898525 17.7130026503900346 S
atom 4.9686820573603754 7.1105217051996501 17.7130026504044444 S
atom -0.0000000000021818 -0.0000000000031067 20.0279403202952011 Ba
atom 4.9686747693911810 0.0000002768349492 20.0279403202960147 Ba
atom 0.0000002768218532 4.9686747693839903 20.0279403202838822 Ba
atom 4.9686750462201159 4.9686750462249174 20.0279403202980362 Ba
atom 2.4843375231163765 2.4843375231120350 20.3392450091368922 S
atom 7.4530122924919908 2.4843377999535190 20.3392450091362029 S
atom 2.4843377999479039 7.4530122924926436 20.3392450091307886 S
atom 7.4530125693253826 7.4530125693195206 20.3392450091278967 S
atom 2.4843375231121341 2.4843375231120381 23.4414394352229323 Ba
atom 7.4530122924949094 2.4843377999445990 23.4414394352035700 Ba
atom 2.4843377999500373 7.4530122924937059 23.4414394352155249 Ba
atom 7.4530125693286733 7.4530125693266758 23.4414394352127253 Ba
atom 2.4843375231110505 2.4843375231135463 28.2850139462096521 Ba
atom 7.4530122924943516 2.4843377999422440 28.2850139462140859 Ba
atom 2.4843377999462972 7.4530122925031161 28.2850139462092365 Ba
atom 7.4530125693350664 7.4530125693292248 28.2850139462082382 Ba
atom 4.9686750462204694 4.9686750462194818 25.6641872419620860 Zr
atom 9.9373498156065576 4.9686753230500678 25.6641872419746413 Zr
atom 4.9686753230534428 9.9373498156050317 25.6641872419684631 Zr
atom 9.9373500924365548 9.9373500924362244 25.6641872419591728 Zr
atom 4.9686750462160862 4.9686750462224607 30.8025364528465566 Zr
atom 9.9373498156021753 4.9686753230502969 30.8025364528531291 Zr
atom 4.9686753230546312 9.9373498156060425 30.8025364528452954 Zr
atom 9.9373500924402141 9.9373500924353699 30.8025364528401120 Zr
atom 4.9686750462129741 4.9686750462198255 23.1301347463690057 S
atom 9.9373498156045841 4.9686753230470977 23.1301347463825344 S
atom 4.9686753230483429 9.9373498155954074 23.1301347463771663 S
atom 9.9373500924284066 9.9373500924337606 23.1301347463675526 S
atom 4.9686750462149236 4.9686750462212421 28.2624870311696483 S
atom 9.9373498155984983 4.9686753230507188 28.2624870311704441 S
atom 4.9686753230511949 9.9373498155989246 28.2624870311680922 S
atom 9.9373500924331601 9.9373500924297389 28.2624870311665504 S
atom 4.6261841820911442 2.4843445342479580 25.7563771050888839 S
atom 10.2798404029062702 2.4843310656333015 25.7563771050909267 S
atom 5.3111659103528979 7.4530055581889432 25.7563771050916870 S
atom 9.5948592283079908 7.4530195804679993 25.7563771050914987 S
atom 4.4697823117080002 2.4843375783706403 30.8074687774933871 S
atom 10.4362422732909685 2.4843380215125563 30.8074687775026845 S
atom 5.4675677807375713 7.4530125140660060 30.8074687774943961 S
atom 9.4384573579265094 7.4530126245889887 30.8074687774963252 S
atom 2.4843307888045598 5.3111656335220303 25.7563771050960817 S
atom 7.4530193036324883 4.6261844589202354 25.7563771050941668 S
atom 2.4843448110801494 9.5948589514738423 25.7563771050823611 S
atom 7.4530058350230330 10.2798406797414970 25.7563771050937795 S
atom 2.4843377446755763 5.4675675039040685 30.8074687774869496 S
atom 7.4530123477555961 4.4697825885328388 30.8074687774955471 S
atom 2.4843378552025972 9.4384570810866251 30.8074687774966698 S
atom 7.4530127909006154 10.4362425501312828 30.8074687774883884 S
atom 2.4843375231119791 2.4843375231122207 33.3602216728117469 Ba
atom 7.4530122924966724 2.4843377999410290 33.3602216728160670 Ba
atom 2.4843377999472382 7.4530122924978617 33.3602216728232790 Ba
atom 7.4530125693325209 7.4530125693259057 33.3602216728236982 Ba
atom 2.4843375231124534 2.4843375231162983 38.4354293994470666 Ba
atom 7.4530122924913007 2.4843377999462639 38.4354293994364298 Ba
atom 2.4843377999491376 7.4530122924994107 38.4354293994391796 Ba
atom 7.4530125693272531 7.4530125693230076 38.4354293994420075 Ba
atom 4.9686750462164966 4.9686750462186646 35.9179068927982144 Zr
atom 9.9373498156042501 4.9686753230472753 35.9179068928110965 Zr
atom 4.9686753230521106 9.9373498156051809 35.9179068927980936 Zr
atom 9.9373500924381020 9.9373500924372316 35.9179068927869380 Zr
atom 4.9686750462194293 4.9686750462195954 41.0562561036758567 Zr
atom 9.9373498156022606 4.9686753230512375 41.0562561036854277 Zr
atom 4.9686753230533434 9.9373498156077353 41.0562561036818039 Zr
atom 9.9373500924373417 9.9373500924395000 41.0562561036739098 Zr
atom 4.9686750462158864 4.9686750462210822 33.3602216728190939 S
atom 9.9373498155982798 4.9686753230503706 33.3602216728251619 S
atom 4.9686753230479184 9.9373498155954287 33.3602216728131467 S
atom 9.9373500924316716 9.9373500924391056 33.3602216728127416 S
atom 4.9686750462251101 4.9686750462166653 38.4579563144728525 S
atom 9.9373498155975266 4.9686753230403964 38.4579563144790342 S
atom 4.9686753230569636 9.9373498156002356 38.4579563144708700 S
atom 9.9373500924362901 9.9373500924403615 38.4579563144697829 S
atom 4.4697823117141677 2.4843375783691912 35.9129745681532739 S
atom 10.4362422732905813 2.4843380215101729 35.9129745681638894 S
atom 5.4675677807322813 7.4530125140652146 35.9129745681510144 S
atom 9.4384573579334976 7.4530126245901736 35.9129745681541195 S
atom 4.6261841820941072 2.4843445342467794 40.9640662405331852 S
atom 10.2798404028957577 2.4843310656345916 40.9640662405486466 S
atom 5.3111659103401045 7.4530055581909442 40.9640662405392106 S
atom 9.5948592283245588 7.4530195804687782 40.9640662405395659 S
atom 2.4843377446785060 5.4675675039028278 35.9129745681449393 S
atom 7.4530123477561769 4.4697825885403804 35.9129745681489467 S
atom 2.4843378552050952 9.4384570810855983 35.9129745681461756 S
atom 7.4530127909000567 10.4362425501251703 35.9129745681555193 S
atom 2.4843307888013602 5.3111656335017408 40.9640662405486466 S
atom 7.4530193036327477 4.6261844589234240 40.9640662405397009 S
atom 2.4843448110814994 9.5948589514926557 40.9640662405411859 S
atom 7.4530058350232284 10.2798406797356243 40.9640662405402551 S
atom 2.4843375231135458 2.4843375231077944 43.2790039104374884 Ba
atom 7.4530122925019171 2.4843377999429319 43.2790039104445867 Ba
atom 2.4843377999441518 7.4530122924967621 43.2790039104392434 Ba
atom 7.4530125693250255 7.4530125693391085 43.2790039104545770 Ba
atom 4.9686750462135487 4.9686750462175304 43.5903085992724328 S
atom 9.9373498155932296 4.9686753230486325 43.5903085992768666 S
atom 4.9686753230511540 9.9373498155986155 43.5903085992801280 S
atom 9.9373500924315632 9.9373500924324834 43.5903085992883987 S
