#=======================================================
# FHI-aims file: full_relax/full_relax_RP_8_RxRyRz_-Rx-RyRz.in
# Created using the Atomic Simulation Environment (ASE)
# Mon Mar 24 16:14:18 2025
#=======================================================
lattice_vector 9.9423417289883993 -0.0074768932370490 0.0000000000392630 
lattice_vector -0.0074768932370631 9.9423417290121918 0.0000000000303944 
lattice_vector 0.0000000003318219 0.0000000002569811 87.0755256834767408 
atom 0.0452392835050040 -0.1220522909124302 0.1895565997902873 Ba
atom 5.0932231902884357 -0.0489778227679936 0.1895563121437342 Ba
atom 0.1183138245977125 4.9259316303263647 0.1895560696207271 Ba
atom 5.0126717520101041 4.8453803098250026 0.1895563601590397 Ba
atom -0.2541483693975625 0.1878236023481793 5.0282453128798741 Ba
atom 4.7833470436789689 0.2504100315274710 5.0282452935041171 Ba
atom -0.1915621488704481 5.2253194089552881 5.0282453610996090 Ba
atom 4.7132839286707275 5.1552561196744389 5.0282453248300421 Ba
atom 2.4553054096541786 2.5082727846676454 2.4068867779828453 Zr
atom 7.4303303449648315 2.5083885094395688 2.4068862902373285 Zr
atom 2.4554212309161132 7.4832980498474306 2.4068863595224581 Zr
atom 7.4227376470637205 7.4757055011517233 2.4068865338041068 Zr
atom 2.4115188697305463 2.5205966527959407 7.5066343242773108 Zr
atom 7.4180065813224543 2.5521749759803023 7.5066353831003187 Zr
atom 2.4430972757871565 7.5270843161132417 7.5066350317099797 Zr
atom 7.3789513064904133 7.4880290962440483 7.5066342932220014 Zr
atom 2.5710839653061686 2.6879864343395163 -0.1127874551285408 S
atom 7.2506168695674376 2.3926100096913991 -0.1127882628996340 S
atom 2.2757075701503204 7.3675192498454800 -0.1127879593315450 S
atom 7.5385163895998115 7.6554188251971480 -0.1127879302098810 S
atom 2.2539837817059709 2.3020382701713284 4.9913896040154224 S
atom 7.6365649879426654 2.7097102927693575 4.9913899728183120 S
atom 2.6616556619475507 7.6846195577802430 4.9913899366157350 S
atom 7.2214162143523701 7.2694706558820483 4.9913897795825433 S
atom 2.7873103284263014 0.0326095480831939 2.2974819703545206 S
atom 7.0703208670825157 0.0316313130693410 2.7158639947737075 S
atom 2.0954114880785601 5.0065403555920884 2.7158638544489255 S
atom 7.7547428062980259 5.0000416267353236 2.2974820337888260 S
atom 2.9438734131140158 0.0410011290498196 7.7106493180786941 S
atom 6.9588518009590441 0.0377909129567682 7.3501956001962521 S
atom 1.9839424725382742 5.0127001769983739 7.3501956476001178 S
atom 7.9113058076693212 5.0084335389403423 7.7106491980893521 S
atom -0.0363490357860695 2.1838604515019528 2.2974818765536731 S
atom 4.9320638115796722 2.8682825854126901 2.7158638610631463 S
atom -0.0428455132031788 7.8431918961602216 2.7158639647662577 S
atom 4.9310833785728612 7.1512927199935303 2.2974818308532110 S
atom -0.0447391871218101 2.0272974773190864 7.7106492657773158 S
atom 4.9259027428044160 2.9797515414302533 7.3501955770306475 S
atom -0.0490063828352855 7.9546608425987211 7.3501956109843016 S
atom 4.9226930806048994 6.9947298864632614 7.7106492942716045 S
atom 0.0031961220555916 -0.0797963924370217 10.0681792858157717 Ba
atom 5.0509672737911799 -0.0069344957501469 10.0681792699316528 Ba
atom 0.0760580052852337 4.9679747426365042 10.0681793219055944 Ba
atom 4.9706285563183021 4.8876359687453306 10.0681793060330609 Ba
atom 0.0486906263947358 0.0097844098579953 15.1553692952468726 Ba
atom 4.9613865268044934 -0.0524291192273722 15.1553692946781347 Ba
atom -0.0135229263030848 4.9224801369091349 15.1553693057228820 Ba
atom 5.0161231726336188 4.9772167988588389 15.1553693033880243 Ba
atom 2.4924337438436708 2.4855639493379678 12.5990604422712451 Zr
atom 7.4530393141654079 2.4712602386159648 12.5990605745014310 Zr
atom 2.4781300540144180 7.4461695482059183 12.5990603984498435 Zr
atom 7.4598661073270547 7.4529963723140851 12.5990606711560567 Zr
atom 2.4858920290465005 2.4818565302867750 17.6994933010291575 Zr
atom 7.4567467273926447 2.4778019972215692 17.6994926080204102 Zr
atom 2.4818374802767234 7.4527112960717501 17.6994927783933420 Zr
atom 7.4533243811312140 7.4492889478254192 17.6994934518163518 Zr
atom 2.5666142848452504 2.6467971021142760 10.0641472752406180 S
atom 7.2918061760662871 2.3970796833534327 10.0641475766175823 S
atom 2.3168968571632034 7.3719890012747094 10.0641474827470638 S
atom 7.5340467178542907 7.6142295168908385 10.0641474207403956 S
atom 2.4209647111680761 2.4470808040879954 15.1548703981953956 S
atom 7.4915224859617542 2.5427292680865223 15.1548697349418688 S
atom 2.5166131636752271 7.5176385730795472 15.1548697677681474 S
atom 7.3883971225601810 7.4145132229405011 15.1548702857052451 S
atom 1.9873530284715410 0.0017946542455496 12.5516045856030818 S
atom 7.9853021194417675 -0.0008696104688094 12.6746956576512950 S
atom 3.0103927881068158 4.9740397203005351 12.6746957155605653 S
atom 6.9547854298088634 4.9692270823459124 12.5516045286223665 S
atom 3.0067227093173803 -0.0006876754562314 17.7322752466676441 S
atom 6.9368375198567653 -0.0046206683393530 17.6746607148469259 S
atom 1.9619282467707191 4.9702885358065334 17.6746606845160308 S
atom 7.9741551884965496 4.9667446125016346 17.7322752751220278 S
atom -0.0055331646564644 2.9838178616767679 12.5516045550592015 S
atom 4.9645636042736143 1.9533011715520874 12.6746956955771939 S
atom -0.0103456598840648 6.9282104917485974 12.6746956650052915 S
atom 4.9618992099492329 7.9512502448980991 12.5516045760244577 S
atom -0.0030503244020283 1.9644481263342533 17.7322752858466046 S
atom 4.9683143079969403 3.0017657303634691 17.6746607205559023 S
atom -0.0065948534624463 7.9766750673347975 17.6746606780665978 S
atom 4.9643819426973446 6.9318805415279696 17.7322752351212607 S
atom -0.0168231018850309 -0.0168230924662099 20.2501223273766691 Ba
atom 4.9879939942080549 0.0130845585035313 20.2501223300506190 Ba
atom 0.0130845435302405 4.9879939417247465 20.2501223241077923 Ba
atom 4.9506094218510430 4.9506093787435077 20.2501223277518818 Ba
atom 0.0097844615848795 0.0486906531324281 25.3448756099731476 Ba
atom 4.9224801331231536 -0.0135228851587837 25.3448756001954472 Ba
atom -0.0524290650202560 4.9613864746018601 25.3448756158373065 Ba
atom 4.9772167959105342 5.0161231094697118 25.3448756089103426 Ba
atom 2.4818565280890827 2.4858919982508469 22.8007510708579488 Zr
atom 7.4527112835034339 2.4818374706451891 22.8007510319719735 Zr
atom 2.4778020089907109 7.4567467548378668 22.8007513421725498 Zr
atom 7.4492889260060933 7.4533243886078626 22.8007506865401304 Zr
atom 2.4855639776997842 2.4924336797623168 27.9011847825858688 Zr
atom 7.4461695425009315 2.4781300287998191 27.9011851897084178 Zr
atom 2.4712602876138443 7.4530393245924795 27.9011851859213458 Zr
atom 7.4529963520627005 7.4598661037408007 27.9011847189776461 Zr
atom 2.5170133476878336 2.5170133525891676 20.2501228800071118 S
atom 7.4215899295751280 2.4466806139381876 20.2501229464527235 S
atom 2.4466806146869988 7.4215899252319018 20.2501231387624934 S
atom 7.4844457811678211 7.4844457780648748 20.2501228552742312 S
atom 2.4470808137589177 2.4209647297029191 25.3453740042863878 S
atom 7.5176385536854884 2.5166131524069977 25.3453745941103392 S
atom 2.5427292414340830 7.4915224599502199 25.3453743865723204 S
atom 7.4145132443826034 7.3883971435757099 25.3453742795539831 S
atom 1.9644481520130532 -0.0030506276566901 22.7679688937368745 S
atom 7.9766750248720557 -0.0065947131969914 22.8255835170658905 S
atom 3.0017656730626485 4.9683146068200053 22.8255834509287965 S
atom 6.9318805538444161 4.9643818046878563 22.7679689609711069 S
atom 2.9838179456199034 -0.0055332062788627 27.9486399489956092 S
atom 6.9282104451309054 -0.0103457465813905 27.8255487263828449 S
atom 1.9533010677602107 4.9645636562083952 27.8255486921267661 S
atom 7.9512503121273470 4.9618992775122548 27.9486399016405080 S
atom -0.0006878172744484 3.0067227108264474 22.7679689241083594 S
atom 4.9702886777985285 1.9619282836262462 22.8255834947687859 S
atom -0.0046203828069700 6.9368375823782156 22.8255834805153768 S
atom 4.9667443307988730 7.9741551492440266 22.7679689243446077 S
atom 0.0017945726169839 1.9873529444496956 27.9486399110008357 S
atom 4.9740398299737301 3.0103928743583537 27.8255486894666149 S
atom -0.0008696987114479 7.9853021820432408 27.8255487246826796 S
atom 4.9692271739928033 6.9547853616475575 27.9486399511094916 S
atom -0.0797965915805291 0.0031961280587762 30.4320647977418126 Ba
atom 4.9679746960213542 0.0760582186233783 30.4320647463698286 Ba
atom -0.0069344759673840 5.0509675023834841 30.4320648080256433 Ba
atom 4.8876357079149031 4.9706285704122992 30.4320647447797121 Ba
atom 0.1878236751676115 -0.2541484670796290 35.4719986389930497 Ba
atom 5.2253194942177350 -0.1915622033560820 35.4719986212507123 Ba
atom 0.2504100291216246 4.7833470120878703 35.4719986568049990 Ba
atom 5.1552562803598478 4.7132838652918778 35.4719986183510088 Ba
atom 2.5205968183000347 2.4115190041951848 32.9936100339736669 Zr
atom 7.5270841816210377 2.4430971441690086 32.9936098487073721 Zr
atom 2.5521749073724642 7.4180064784983966 32.9936092956731670 Zr
atom 7.4880291735488624 7.3789514876260549 32.9936103282720552 Zr
atom 2.5082728509261978 2.4553055002417983 38.0933565251178905 Zr
atom 7.4832977749650507 2.4554210803510501 38.0933565398850291 Zr
atom 2.5083884572747084 7.4303304386173128 38.0933566443215312 Zr
atom 7.4757053707381411 7.4227379562100397 38.0933565645311347 Zr
atom 2.6467971244670139 2.5666143115865050 30.4360962103511952 S
atom 7.3719889796183455 2.3168968280875681 30.4360961403812667 S
atom 2.3970796480601266 7.2918061521168696 30.4360960289987723 S
atom 7.6142295544572169 7.5340467629060930 30.4360958929926433 S
atom 2.3020381613785248 2.2539837540821765 35.5088546008613903 S
atom 7.6846195014853178 2.6616558975346907 35.5088540959264876 S
atom 2.7097103074615712 7.6365651419796761 35.5088543341225957 S
atom 7.2694704606488090 7.2214161124646328 35.5088545317785460 S
atom 2.0272975504806583 -0.0447392476994267 32.7895960588430313 S
atom 7.9546608857919630 -0.0490062961118221 33.1500493056648153 S
atom 2.9797515884009909 4.9259027015336434 33.1500494333254636 S
atom 6.9947299815679829 4.9226928765166775 32.7895960617530307 S
atom 2.1838611037569837 -0.0363489352472586 38.2027616254957181 S
atom 7.8431915420910236 -0.0428458376918402 37.7843804515501489 S
atom 2.8682822534090455 4.9320636433723193 37.7843803968839538 S
atom 7.1512932912357980 4.9310836898083741 38.2027617201274126 S
atom 0.0410010782976223 2.9438733394444099 32.7895959861496280 S
atom 5.0127003218016704 1.9839424130602310 33.1500493505611189 S
atom 0.0377910224981075 6.9588517015423372 33.1500493818579258 S
atom 5.0084335143092185 7.9113057287927946 32.7895961106753759 S
atom 0.0326099733102077 2.7873101179681581 38.2027619500992728 S
atom 5.0065401120467783 2.0954116763928941 37.7843803748538960 S
atom 0.0316313621528605 7.0703209953985127 37.7843805511048885 S
atom 5.0000416772762843 7.7547422977593365 38.2027615745886067 S
atom -0.1220526938885124 0.0452391392970518 40.3106912529268797 Ba
atom 4.9259317697298712 0.1183141693304184 40.3106912111349303 Ba
atom -0.0489777089384808 5.0932232763091605 40.3106900812767535 Ba
atom 4.8453799738133423 5.0126715728678626 40.3106906148768402 Ba
atom 2.6879865641700578 2.5710841038773076 40.6130333095247380 S
atom 7.3675191779921372 2.2757073081495851 40.6130334650105880 S
atom 2.3926098157741071 7.2506167250400964 40.6130335073126787 S
atom 7.6554191183679912 7.5385166074593153 40.6130333550054345 S
atom 2.4384771028742001 2.6057687563150029 43.7273173654150185 Ba
atom 7.3328343920589960 2.5252168463772495 43.7273174610554562 Ba
atom 2.3579253039444859 7.5001263676114904 43.7273175050636524 Ba
atom 7.4059093972146899 7.5732012821972949 43.7273175296689232 Ba
atom 2.7378647591823499 2.2958926935822337 48.5660081080710242 Ba
atom 7.6427107174876054 2.2258295865023063 48.5660080944249302 Ba
atom 2.6678016266493061 7.2007383135089160 48.5660081132606365 Ba
atom 7.7052970988034142 7.2633244937349657 48.5660080880409950 Ba
atom 4.9958433782753247 4.9428758595357012 45.9446494472958591 Zr
atom 9.9631597409321504 4.9352831400286066 45.9446497694090112 Zr
atom 4.9882507730789296 9.9101924060206663 45.9446489892622694 Zr
atom 9.9632755414632737 9.9103081557886572 45.9446487580866929 Zr
atom 5.0396298419599033 4.9305520410581956 51.0443968641413122 Zr
atom 9.9754835709638954 4.8914966129011503 51.0443969274624578 Zr
atom 5.0005744301862816 9.8664059622666738 51.0443973852003765 Zr
atom 10.0070620773776167 9.8979844421536267 51.0443978397811051 Zr
atom 4.8800646378705066 4.7631621879603685 43.4249752497929151 S
atom 10.1428735087761961 5.0510617440683783 43.4249755305179761 S
atom 5.1679642826286765 10.0259711291746925 43.4249737957128232 S
atom 9.8474969988269407 9.7305945514227847 43.4249737304854833 S
atom 5.1971647515520356 5.1491103996178405 48.5291522897044345 S
atom 9.7569253819466262 4.7339616349536318 48.5291521999492872 S
atom 4.7820159602001695 9.7088708117101490 48.5291529912925768 S
atom 10.1645973881910656 10.1165427085988178 48.5291527958144826 S
atom 5.3557371100947186 2.4446086392678339 46.2536272277349383 S
atom 9.6387478954442791 2.4436290529350315 45.8352455229683784 S
atom 4.6638384132752746 7.4185385321409489 45.8352455184422141 S
atom 10.3231695338846414 7.4120412131686138 46.2536272053047384 S
atom 5.4672061352009109 2.4384487473727501 50.8879587683917691 S
atom 9.4821844808424665 2.4352385190761292 51.2484125082723168 S
atom 4.5072751432042510 7.4101473807802005 51.2484125027892148 S
atom 10.4346386394803226 7.4058805292133467 50.8879586545801104 S
atom 2.5190853886488380 4.5828662273680401 46.2536270300898664 S
atom 7.4874970638724569 5.2672878355948329 45.8352453405503368 S
atom 2.5125874145401244 10.2421971278800275 45.8352457957065198 S
atom 7.4865181605505349 9.5502986984144318 46.2536273819886787 S
atom 2.5252457619552700 4.4713971064729323 50.8879588696192116 S
atom 7.4958877670471669 5.4238512821825404 51.2484127593045571 S
atom 2.5209787805677055 10.3987604693507301 51.2484122140115943 S
atom 7.4926780555992183 9.4388295937458615 50.8879586064974845 S
atom 2.4805200654788484 2.5635126167132469 53.6059419218867816 Ba
atom 7.3750908035938991 2.4831738081264381 53.6059417851987661 Ba
atom 2.4001814138913113 7.4580831913702017 53.6059418347003671 Ba
atom 7.4479525972539022 7.5309448443397642 53.6059417050106362 Ba
atom 2.4350254854793065 2.4739315233602266 58.6931320621440875 Ba
atom 7.4646714847501219 2.5286681451874919 58.6931320525521230 Ba
atom 2.4897620927123576 7.5035780076840597 58.6931320514836017 Ba
atom 7.4024580259047852 7.4413645412578164 58.6931320415589752 Ba
atom 4.9587149090274769 4.9655846874379455 56.1368226169963194 Zr
atom 9.9404510258582768 4.9724115482725324 56.1368223112231064 Zr
atom 4.9655417302350049 9.9473207805169519 56.1368231931665207 Zr
atom 9.9261473080472786 9.9330170677763885 56.1368235443593164 Zr
atom 4.9652566047410929 4.9692921157277965 61.2372565500910326 Zr
atom 9.9367436084154370 4.9658697999591972 61.2372565444460477 Zr
atom 4.9618342800300868 9.9407790512362517 61.2372556673316666 Zr
atom 9.9326890605224918 9.9367245056584661 61.2372555781693180 Zr
atom 4.8845343969297828 4.8043515088204165 53.6019094214959608 S
atom 10.1016841816576264 5.0465919945238822 53.6019095608607827 S
atom 5.1267748669710063 10.0215013433460509 53.6019098923622863 S
atom 9.8519667609704573 9.7717839629626564 53.6019100456491131 S
atom 5.0301839316188852 5.0040678292519409 58.6926334376827228 S
atom 9.9019678753672000 4.9009424725201320 58.6926330955460642 S
atom 4.9270585497782182 9.8758517340691778 58.6926332948198208 S
atom 9.9976163752776390 9.9715002528123584 58.6926332483883257 S
atom 4.4407558371054687 2.4771089509801838 56.2124588174259472 S
atom 10.4387049108071093 2.4744447222807406 56.0893677043105257 S
atom 5.4637955417895103 7.4493539932442658 56.0893677692876267 S
atom 9.4081882583657030 7.4445412900797585 56.2124588742932119 S
atom 5.4892203229966370 2.4808598403523270 61.2124231588224887 S
atom 9.4193352744866701 2.4769271138655578 61.2700377426880110 S
atom 4.4444260076808249 7.4518365300166485 61.2700376689821411 S
atom 10.4566527650925689 7.4482923782252035 61.2124232062792970 S
atom 2.4865848904710828 5.4978474271822826 56.2124590026485436 S
atom 7.4566818215023938 4.4673308615699581 56.0893678641054549 S
atom 2.4817724485508763 9.4422400893509124 56.0893676107977726 S
atom 7.4540174145297655 10.4652798863223211 56.2124586916347297 S
atom 2.4828342340551268 4.4493829904475417 61.2124230823739168 S
atom 7.4541990699792979 5.4867003556161444 61.2700375995288269 S
atom 2.4792899548253966 10.4616097640281076 61.2700378018334106 S
atom 7.4502664400258842 9.4168153250358202 61.2124232933225443 S
atom 2.5005392058866587 2.5005392450969177 63.7878859027544607 Ba
atom 7.4380640360511974 2.4631547921493113 63.7878859086229255 Ba
atom 2.4631546555484189 7.4380640137514558 63.7878858929687524 Ba
atom 7.4679716645436365 7.4679717513663135 63.7878858994480140 Ba
atom 2.4739318549238449 2.4350257460589102 68.8826389350352741 Ba
atom 7.5035776662125881 2.4897623896757155 68.8826389265100545 Ba
atom 2.5286685118284900 7.4646713622282919 68.8826388889513908 Ba
atom 7.4413641043225605 7.4024577482821394 68.8826388746634422 Ba
atom 4.9692920939601164 4.9652566854015099 66.3385149796668685 Zr
atom 9.9407790382809704 4.9618342773053712 66.3385151858958295 Zr
atom 4.9658697329162438 9.9367435807927098 66.3385150351895732 Zr
atom 9.9367244947979874 9.9326890888581882 66.3385141066211759 Zr
atom 4.9655847214258637 4.9587148449307739 71.4389474452309514 Zr
atom 9.9473207218671309 4.9655416851747392 71.4389476547816287 Zr
atom 4.9724113984653879 9.9404511566169003 71.4389481435414808 Zr
atom 9.9330170877928339 9.9261474224811312 71.4389484902670517 Zr
atom 4.9341352620325454 4.9341352726667740 63.7878857025383468 S
atom 9.9719004186361921 4.9969911221430143 63.7878859977553390 S
atom 4.9969911092523231 9.9719004455899860 63.7878862282301213 S
atom 9.9015676725786115 9.9015677049761397 63.7878857058534621 S
atom 5.0040677862973144 5.0301839104899706 68.8831381812339458 S
atom 9.8758518257919139 4.9270586164440102 68.8831382125490279 S
atom 4.9009424827564176 9.9019679012937818 68.8831363089059181 S
atom 9.9715001897239048 9.9976162802777342 68.8831372607582750 S
atom 4.4493829220632319 2.4828335404587434 66.3633455574690601 S
atom 10.4616098546064080 2.4792897041878503 66.3057309861491575 S
atom 5.4867005303005554 7.4541996880609158 66.3057309785242097 S
atom 9.4168153215930790 7.4502666019048469 66.3633456040875558 S
atom 5.4978476485268937 2.4865859898583422 71.3633113775797341 S
atom 9.4422399879939913 2.4817728562717201 71.4864026117876676 S
atom 4.4673306134254451 7.4566808375889968 71.4864026886877042 S
atom 10.4652800203310701 7.4540170858224055 71.3633113187804042 S
atom 2.4808598673863158 5.4892204247223013 66.3633454357479167 S
atom 7.4518365795218360 4.4444257878480382 66.3057308115101591 S
atom 2.4769276007833629 9.4193352228858789 66.3057311610150322 S
atom 7.4482919837945900 10.4566527238831615 66.3633457151520503 S
atom 2.4771089953441501 4.4407557044382422 71.3633113861373261 S
atom 7.4493537957644538 5.4637957161981188 71.4864026884099815 S
atom 2.4744442256567925 10.4387050633301612 71.4864026145348106 S
atom 7.4445418116122717 9.4081880193747427 71.3633113132542007 S
atom 2.5635130025888273 2.4805200877502949 73.9698272888337698 Ba
atom 7.4580831573100781 2.4001808678262591 73.9698272116506672 Ba
atom 2.4831738415792275 7.3750903286541005 73.9698273686849035 Ba
atom 7.5309454673216809 7.4479525239330631 73.9698272776804373 Ba
atom 2.2958923287955622 2.7378646317964663 79.0097610223144500 Ba
atom 7.2007386604049355 2.6678015589156852 79.0097611323708264 Ba
atom 2.2258290708877135 7.6427109870870211 79.0097610374028250 Ba
atom 7.2633249943554059 7.7052971278289792 79.0097611395869421 Ba
atom 4.9305516692053901 5.0396297292487597 76.5313724558687767 Zr
atom 9.8664064126497486 5.0005747453984659 76.5313717813186827 Zr
atom 4.8914968735070108 9.9754838641167574 76.5313712137908482 Zr
atom 9.8979842624417920 10.0070618423123499 76.5313725874885762 Zr
atom 4.9428758151833838 4.9958435740606850 81.6311189789023359 Zr
atom 9.9101923429376040 4.9882509586671375 81.6311188582958209 Zr
atom 4.9352833370826810 9.9631592648485672 81.6311190121586918 Zr
atom 9.9103079228599871 9.9632752608668547 81.6311183899698705 Zr
atom 4.8043515671832369 4.8845343204537475 73.9738588818415508 S
atom 10.0215014098137054 5.1267748667450777 73.9738583425806695 S
atom 5.0465920655051750 10.1016841845601579 73.9738596167965170 S
atom 9.7717839259569761 9.8519667353271121 73.9738591891849779 S
atom 5.1491104916839037 5.1971649052087034 79.0466150775685605 S
atom 9.7088707639010554 4.7820159131284301 79.0466165453008784 S
atom 4.7339614736975468 9.7569252744619384 79.0466180766509012 S
atom 10.1165429718503788 10.1645972574005032 79.0466171920731853 S
atom 4.4713970879450349 2.5252460197021249 76.6878127406179431 S
atom 10.3987603504632542 2.5209786730195773 76.3273594335495886 S
atom 5.4238509710668792 7.4958877804483226 76.3273595595953225 S
atom 9.4388293880943390 7.4926784463725671 76.6878126851383541 S
atom 4.5828661918695364 2.5190830345010440 81.3221441371780998 S
atom 10.2421974297837881 2.5125882251327245 81.7405258385085460 S
atom 5.2672878225441986 7.4874996865587127 81.7405255661357870 S
atom 9.5502987307518428 7.4865172168321310 81.3221441741231672 S
atom 2.4384485685495250 5.4672061911596854 76.6878128339351264 S
atom 7.4101469986188571 4.5072753780937020 76.3273596919617034 S
atom 2.4352383399960895 9.4821846771505811 76.3273593168076872 S
atom 7.4058805544178243 10.4346386800871205 76.6878125359689591 S
atom 2.4446074527143224 5.3557369409544551 81.3221441049641811 S
atom 7.4185401451090227 4.6638382829211302 81.7405256600383439 S
atom 2.4436311186316635 9.6387478082610141 81.7405255578335215 S
atom 7.4120396675395668 10.3231693384356049 81.3221442351475758 S
atom 2.6057682466606771 2.4384769655055734 83.8484522056292860 Ba
atom 7.5001263636252844 2.3579256511551452 83.8484527192380114 Ba
atom 2.5252170848222142 7.3328348739388716 83.8484525894637898 Ba
atom 7.5732007494156122 7.4059092927522814 83.8484524946996288 Ba
atom 4.7631619416217896 4.8800643764288125 84.1507961830377980 S
atom 10.0259711958113265 5.1679643088058498 84.1507957117919858 S
atom 5.0510618276140802 10.1428737006410739 84.1507945085141245 S
atom 9.7305944248140328 9.8474970447013099 84.1507947368046132 S
