#=======================================================
# FHI-aims file: full_relax/full_relax_RP_6_RxRyRz_-RxRy0.in
# Created using the Atomic Simulation Environment (ASE)
# Fri Mar 14 11:51:20 2025
#=======================================================
lattice_vector 9.9907335433929703 -0.0155466571625806 -0.0080058888484051 
lattice_vector -0.0155466571625822 9.9907335433928370 0.0080058888473658 
lattice_vector -0.0523210287519453 0.0523210287451297 66.2200975757515096 
atom -0.0044832207918368 -0.0959258904462628 0.1782010076171030 Ba
atom 5.0912926619509138 -0.0032901076767920 0.1741980613993452 Ba
atom 0.0881525618737388 4.9998499928049434 0.1822039501902352 Ba
atom 4.9831102221675048 4.8916675529153784 0.1782010075346312 Ba
atom -0.2869639597346230 0.2206023599149169 4.9711078302419782 Ba
atom 4.7747644114855330 0.2791906310698578 4.9671048858173981 Ba
atom -0.2283756884532574 5.2823307316879617 4.9751107747032304 Ba
atom 4.7006294830395516 5.2081958033973557 4.9711078302076670 Ba
atom 2.4321459837778834 2.5475187525033007 2.3550694891083426 Zr
atom 7.4354414616818447 2.5476741306362611 2.3510665443079333 Zr
atom 2.4323013612441673 7.5508142310663917 2.3590724337731008 Zr
atom 7.4197394268915842 7.5351121960477689 2.3550694890494523 Zr
atom 2.3959752442809066 2.5553974282940390 7.4358654463031044 Zr
atom 7.4275627866577292 2.5838448702251964 7.4318625018013442 Zr
atom 2.4244226863475609 7.5869849706011134 7.4398683879495913 Zr
atom 7.3835686876578492 7.5429908713658653 7.4358654463477079 Zr
atom 2.5525188808936776 2.7459562572551475 -0.1525306211947169 S
atom 7.2370039574035214 2.4273012335245112 -0.1565335666405219 S
atom 2.2338638569845171 7.4304413336795374 -0.1485276792397585 S
atom 7.5401123239548982 7.7335497004093989 -0.1525306212796533 S
atom 2.2230068404314189 2.3135124954146988 4.9298749172350496 S
atom 7.6694477194408597 2.7568132741324578 4.9258719745213604 S
atom 2.6663076192554547 7.7599533743921656 4.9338778656256146 S
atom 7.2106002835464977 7.3011059384843762 4.9298749175022536 S
atom 2.7195046952690478 0.0616861035078068 2.2335580461096818 S
atom 7.1263409199886443 0.0562511668520316 2.6756818928110806 S
atom 2.1232008195637095 5.0593912650829065 2.6836877816468308 S
atom 7.7070981382939072 5.0492795441520739 2.2335580462564519 S
atom 2.9079853124870914 0.0610598896307560 7.6539540450308001 S
atom 6.9961378579242552 0.0544415603649185 7.2502506871370072 S
atom 1.9929977576998610 5.0575816609850008 7.2582565760572031 S
atom 7.8955787555894297 5.0486533332229531 7.6539540449912131 S
atom -0.0694594265174008 2.2758620765404856 2.2375609906253286 S
atom 4.9235689450596638 2.8566192946426336 2.6796848372360680 S
atom -0.0795711569721118 7.8597593950413636 2.6876907260598131 S
atom 4.9181340186658167 7.2634555194138590 2.2375609904394120 S
atom -0.0688332192964973 2.0873814592041398 7.6579569894267747 S
atom 4.9253785547357465 2.9868223568764116 7.2542536315599957 S
atom -0.0777615454167679 7.9899624571132746 7.2622595204939726 S
atom 4.9187602236197625 7.0749749023719657 7.6579569894633748 S
atom -0.0159619345154303 -0.0641738572584353 9.9857466041616849 Ba
atom 5.0595406293886569 0.0081886058640303 9.9817436597987363 Ba
atom 0.0564005286463001 5.0113287056923497 9.9897495486065839 Ba
atom 4.9716315090630419 4.9234195854345284 9.9857466042470637 Ba
atom 0.0365177958739062 0.0603000817009938 15.0500221765512130 Ba
atom 4.9350666900251454 -0.0442911244848747 15.0460192321359187 Ba
atom -0.0680734102868238 4.9588489757642424 15.0540251209717795 Ba
atom 5.0241112390429370 5.0478935248045484 15.0500221765525630 Ba
atom 2.4879537470612916 2.5109114193087572 12.5090262962026877 Zr
atom 7.4720487955574848 2.4918663675371358 12.5050233517354830 Zr
atom 2.4689086954091661 7.4950064677032717 12.5130292419525393 Zr
atom 7.4755471900680250 7.4985048623455617 12.5090262962008101 Zr
atom 2.4871291334534891 2.5117360328677418 17.5910180566179264 Zr
atom 7.4712241819530147 2.4926909811467191 17.5870151115193067 Zr
atom 2.4680840818007810 7.4958310812755506 17.5950210023747893 Zr
atom 7.4747225764484817 7.4993294759060030 17.5910180563357024 Zr
atom 2.5805953524741971 2.6964550276562829 9.9795056080616664 S
atom 7.2865051871594364 2.3992247620557916 9.9755026628845815 S
atom 2.2833650869610538 7.4023648623669773 9.9835085534036665 S
atom 7.5681887956185392 7.6840484707590404 9.9795056076661002 S
atom 2.3948762574149374 2.4186585432016794 15.0500221759087900 S
atom 7.5643016715914184 2.5849438571110337 15.0460192323155155 S
atom 2.5611615713322347 7.5880839573626826 15.0540251171244357 S
atom 7.3824697005436430 7.4062519863392291 15.0500221764396933 S
atom 2.0100229384849522 0.0124791314889155 12.4334969504030930 S
atom 7.9838944108033090 0.0056075035298504 12.5931506532447326 S
atom 2.9807543102263754 5.0087476055220508 12.6011565420561382 S
atom 6.9976163813582444 5.0000725762496741 12.4334969503868908 S
atom 2.9615615477372184 0.0035298256510845 17.6625444577167059 S
atom 6.9784236186650848 -0.0051452034609716 17.4948848660098086 S
atom 1.9752835181187234 4.9979948951832274 17.5028907547333041 S
atom 7.9491549905977266 4.9911232671038492 17.6625444577087123 S
atom -0.0202524612259264 2.9853438334254054 12.4374998948150211 S
atom 4.9742126104707962 1.9990658040412372 12.5971535976742945 S
atom -0.0289274876242048 7.0022059045186564 12.6051594864373087 S
atom 4.9673409797238319 7.9729372763382447 12.4374998948614532 S
atom -0.0113031531959924 2.0338052241779563 17.6665474021341353 S
atom 4.9849653186173883 3.0045365961666279 17.4988878104119472 S
atom -0.0181747838488200 8.0076766966852695 17.5068936992140252 S
atom 4.9762902920389926 7.0213986671075110 17.6665474021034541 S
atom -0.0879561429829722 0.0078203513209051 20.1142977481425405 Ba
atom 4.9875464198448327 0.0801828144618863 20.1102948036670277 Ba
atom -0.0155936797809181 5.0833229152402462 20.1183006924869900 Ba
atom 4.8996372995079920 4.9954137949199309 20.1142977480138612 Ba
atom 0.1968200739321569 -0.2631816738684228 25.1289365222614727 Ba
atom 5.2585484460398737 -0.2045934026650142 25.1249335778292640 Ba
atom 0.2554083452459436 4.7985466972893835 25.1329394667439878 Ba
atom 5.1844135175885357 4.7244117689091683 25.1289365223226717 Ba
atom 2.5316151423084849 2.4197575297902665 22.6641789056765788 Zr
atom 7.5632026848264200 2.4482049720671624 22.6601759622427288 Zr
atom 2.5600625842936409 7.4513450724709767 22.6681818476708195 Zr
atom 7.5192085854525841 7.4073509733648857 22.6641789062169003 Zr
atom 2.5237364669056066 2.4559282695672109 27.7449748651581274 Zr
atom 7.5270319454920633 2.4560836473953183 27.7409719203401330 Zr
atom 2.5238918448493841 7.4592237479121630 27.7489778097713256 Zr
atom 7.5113299108132461 7.4435217126532089 27.7449748649697412 Zr
atom 2.6726727418233578 2.6043776382186099 20.1205387455742724 S
atom 7.3785825765751607 2.3071473727586169 20.1165358008783137 S
atom 2.3754424762486299 7.3102874729143581 20.1245416908730910 S
atom 7.6602661848991858 7.5919710813653856 20.1205387453334446 S
atom 2.2897302095637544 2.2467891261682240 25.1701694336570014 S
atom 7.7361710886079686 2.6900899050179192 25.1661664888210126 S
atom 2.7330309883697197 7.6932300051886537 25.1741723813053113 S
atom 7.2773236525772083 7.2343825692693917 25.1701694331937667 S
atom 2.0635991734373573 -0.0450509324504669 22.4420873634717424 S
atom 7.9661801712803726 -0.0539792599669442 22.8377848323199260 S
atom 2.9630400711097482 4.9491608396329614 22.8457907213093527 S
atom 7.0511926166193852 4.9425425098464597 22.4420873634099181 S
atom 2.2520797909737245 -0.0456771454435831 27.8624833615871594 S
atom 7.8359771093395141 -0.0557888678249759 27.4123536262620568 S
atom 2.8328370088936472 4.9473512348398723 27.4203595150762567 S
atom 7.2396732336889356 4.9419163005306341 27.8624833618719165 S
atom 0.0372776043421671 2.9317675981954112 22.4460903078550515 S
atom 5.0337993747379510 2.0167800435345118 22.8417877767629278 S
atom 0.0306592738020531 7.0199201436847121 22.8497936657104184 S
atom 5.0248710483301364 7.9193610413384512 22.4460903078678982 S
atom 0.0379038140827814 2.7432869811222198 27.8664863062255925 S
atom 5.0356089823120467 2.1469831054275796 27.4163565706707999 S
atom 0.0324688852836904 7.1501232059179571 27.4243624595341906 S
atom 5.0254972532737652 7.7308804241399169 27.8664863060536874 S
atom -0.1197081763814428 0.0192990649421812 29.9218433457806121 Ba
atom 4.9760677070109214 0.1119348478177126 29.9178404023365552 Ba
atom -0.0270723935944567 5.1150749477842412 29.9258462910580825 Ba
atom 4.8678852671285178 5.0068925078055075 29.9218433459366722 Ba
atom 2.7221739715207773 2.5763011667444644 30.2525749738691445 S
atom 7.4066590480536210 2.2576461429812418 30.2485720296628422 S
atom 2.4035189479857011 7.2607862434741897 30.2565779164332724 S
atom 7.7097674146871169 7.5638946097967645 30.2525749742144257 S
atom 2.6519211393785538 2.4354034261584934 33.3711822462100614 Ba
atom 7.5475567882735337 2.3278989753492776 33.3671793016584317 Ba
atom 2.5444166880726993 7.3310390756435506 33.3751851908758681 Ba
atom 7.6395145824059938 7.4229968692734172 33.3711822461389573 Ba
atom 2.3095179779372996 2.7427523141832446 38.1596679142793533 Ba
atom 7.2402079006236697 2.6703021364590342 38.1556649699497399 Ba
atom 2.2370678005060745 7.6734422369215425 38.1636708587541307 Ba
atom 7.2971114208746215 7.7303457574758108 38.1596679142910560 Ba
atom 4.9871326651163201 4.9972894115144149 35.5501835390191090 Zr
atom 9.9732642468890962 4.9802808943362171 35.5461805934837756 Zr
atom 4.9701241464870067 9.9834209945491281 35.5541864827648126 Zr
atom 9.9747261084910974 9.9848828545756785 35.5501835391358583 Zr
atom 4.9816220504361182 5.0003469611920242 40.6141084303845119 Zr
atom 9.9702066964258353 4.9857915069860272 40.6101054828552037 Zr
atom 4.9670665962067302 9.9889316072146190 40.6181113707782231 Zr
atom 9.9692154934492336 9.9879404043670892 40.6141084303021813 Zr
atom 4.7728179769416190 4.8628181725522914 33.0418992469812167 S
atom 10.1077354858870390 5.1945955813289064 33.0378962976732211 S
atom 5.1045953856571682 10.1977356816406637 33.0459021859719542 S
atom 9.7604114201048340 9.8504116156482500 33.0418992471445705 S
atom 5.2708739052342315 5.2433173608202495 38.1158014460254506 S
atom 9.7272362971816442 4.6965396524393030 38.1117985116526441 S
atom 4.7240961969067392 9.6996797526624103 38.1198044008847177 S
atom 10.2584673483396802 10.2309108039601000 38.1158014455701704 S
atom 4.6717176764186510 2.5067557938465286 35.8989866471196351 S
atom 10.2583814557031747 2.4957252643867660 35.3940463746713334 S
atom 5.2552413555289359 7.4988653642679530 35.4020522634437569 S
atom 9.6593111195770600 7.4943492366029432 35.8989866471198908 S
atom 4.5968370919526516 2.4969255628960618 40.3335751170735719 S
atom 10.3879809231161708 2.4844310154476399 40.9247600776600322 S
atom 5.3848408228193696 7.4875711152359825 40.9327659665066506 S
atom 9.5844305351069821 7.4845190054736808 40.3335751170569097 S
atom 2.4730643348914172 5.3112425385893225 35.9029895915972475 S
atom 7.4716882760802079 4.7121722028412343 35.3980493191649330 S
atom 2.4685481747581166 9.7153123031256374 35.4060552079695867 S
atom 7.4606577788429611 10.2988359817603072 35.9029895915816795 S
atom 2.4828945454155948 5.3861231229447624 40.3375780614957691 S
atom 7.4829825489540598 4.5825727347331924 40.9287630220285408 S
atom 2.4798424486766391 9.5857128349533838 40.9367689109179196 S
atom 7.4704879885639714 10.3737165660952737 40.3375780614655142 S
atom 2.6706538900402954 2.2386534427939706 43.1511839794167713 Ba
atom 7.7443067723777395 2.3091662243304256 43.1471810349277476 Ba
atom 2.7411666720301704 7.3123063244714661 43.1551869238256032 Ba
atom 7.6582473332468215 7.2262468857829338 43.1511839794814165 Ba
atom 2.4470733209517297 2.5231766356576792 48.1600709640278239 Ba
atom 7.4597835794786249 2.5327467938256922 48.1560680195593847 Ba
atom 2.4566434790885370 7.5358868937840962 48.1640739083824698 Ba
atom 7.4346667641486013 7.5107700784744589 48.1600709639257971 Ba
atom 5.0081969621371254 4.9517123438820008 45.6425445862388273 Zr
atom 10.0188413135080623 4.9592165953987104 45.6385416457850042 Zr
atom 5.0157012133305381 9.9623566954300902 45.6465475343309635 Zr
atom 9.9957904051631115 9.9393057866118575 45.6425445859836429 Zr
atom 4.8756090288567053 5.0843002765566210 50.6775973417429739 Zr
atom 9.8862533811118745 5.0918045276025801 50.6735943924099814 Zr
atom 4.8831132807049533 10.0949446280429722 50.6816002822053520 Zr
atom 9.8632024721508333 10.0718937196839455 50.6775973424018673 Zr
atom 4.6836115887077092 4.7383255712067607 43.1341772349258008 S
atom 10.2322280866572903 5.2838019687713391 43.1301742856732062 S
atom 5.2290879863660997 10.2869420690246827 43.1381801757230718 S
atom 9.6712050318419909 9.7259190143639529 43.1341772357069786 S
atom 5.1955037731377658 5.2716070877154051 48.1600709657422925 S
atom 9.6989465699852140 4.7719097842387530 48.1560680202133398 S
atom 4.6958064697695949 9.7750498846166778 48.1640739083362277 S
atom 10.1830972162584654 10.2592005307828380 48.1600709652125261 S
atom 4.6400492002950786 2.4793035323058814 45.9114455044069203 S
atom 10.3864264533998334 2.4684916898668336 45.3752481227138915 S
atom 5.3832863530374793 7.4716317915706831 45.3832540115777974 S
atom 9.6276426433806890 7.4668969769872033 45.9114455044093077 S
atom 5.2668076998562130 2.5766198997602934 50.4046934796760908 S
atom 9.5111639903551719 2.5718850780225919 50.9328849723495480 S
atom 4.5080238901265197 7.5750251784607094 50.9408908611907876 S
atom 10.2544011429574269 7.5642133431414527 50.4046934796721260 S
atom 2.5005165843068160 5.3429110145285490 45.9154484488807313 S
atom 7.4989218647355793 4.5841272044994046 45.3792510671237821 S
atom 2.4957817648324809 9.5872673049453514 45.3872569560616839 S
atom 7.4881100269854022 10.3305044575397709 45.9154484488150487 S
atom 2.4032002199022697 4.7161525148644428 50.4086964241581157 S
atom 7.3955284750866594 5.4593896676165716 50.9368879168224922 S
atom 2.3923883750148609 10.4625297678525708 50.9448938056269753 S
atom 7.3907936628096875 9.7037459579945846 50.4086964241373110 S
atom 2.1625501282723762 2.7467572044614998 53.1689579491056605 Ba
atom 7.2362030099874897 2.8172699865703885 53.1649550048418504 Ba
atom 2.2330629097041492 7.8204100870297619 53.1729608936780593 Ba
atom 7.1501435713805428 7.7343506477706203 53.1689579491455646 Ba
atom 2.6666489998764642 2.3856212921917126 58.1604740141318644 Ba
atom 7.5973389222311809 2.3131711150323921 58.1564710695899265 Ba
atom 2.5941988219804561 7.3163112154032017 58.1644769584311092 Ba
atom 7.6542424429601521 7.3732147354184470 58.1604740141508998 Ba
atom 4.9242436464959241 5.0577253646800280 55.7060334978691856 Zr
atom 9.9128282926042548 5.0431699106630195 55.7020305602403951 Zr
atom 4.9096881923526610 10.0463100110321388 55.7100364489558899 Zr
atom 9.9118370896001569 10.0453188078611202 55.7060334976863771 Zr
atom 4.9211860971273325 5.0632359807363034 60.7699583876115810 Zr
atom 9.9073176810312766 5.0462274613117382 60.7659554448033958 Zr
atom 4.9041775808636059 10.0493675616658251 60.7739613333981126 Zr
atom 9.9087795401064458 10.0508294239877749 60.7699583874519149 Zr
atom 4.6622222566271727 4.7597149032261505 53.1859646906583521 S
atom 10.2108387544696253 5.3051913009425791 53.1819617543721250 S
atom 5.2076986542158448 10.3083314012224712 53.1899676424391998 S
atom 9.6498156997388271 9.7473083462870633 53.1859646902274932 S
atom 5.1672140462357010 5.3469772196531489 58.2043404870511694 S
atom 9.6235764381301134 4.8001995115340321 58.2003375220313757 S
atom 4.6204363378064643 9.8033396117644536 58.2083434114994986 S
atom 10.1548074893658509 10.3345706627993579 58.2043404874893042 S
atom 5.3100198084439834 2.5589978583553532 55.9825638666753420 S
atom 9.5096095203559958 2.5559457657661864 55.3833730171992329 S
atom 4.5064694200652022 7.5590858651136834 55.3913789060313988 S
atom 10.2976132515713221 7.5465913005427101 55.9825638666653376 S
atom 5.2351392242230315 2.5491676576872293 60.4171523370036212 S
atom 9.6392089888980852 2.5446514798699891 60.9140867205985757 S
atom 4.6360688885873911 7.5477915803828948 60.9220926094464517 S
atom 10.2227326673768282 7.5367611009718276 60.4171523369894388 S
atom 2.4208222459339823 4.6729404066161617 55.9865668110208290 S
atom 7.4114678031265724 5.4609441373267629 55.3873759615726513 S
atom 2.4083277026932146 10.4640842376850909 55.3953818504073183 S
atom 7.4084156892055066 9.6605338496240130 55.9865668111062789 S
atom 2.4306524870943660 4.7478209911272602 60.4211552815096837 S
atom 7.4227620400863836 5.3313446704278160 60.9180896652270860 S
atom 2.4196219398514316 10.3344847706752709 60.9260955540542781 S
atom 7.4182459301889931 9.7354144342411786 60.4211552815225232 S
atom 2.3593001113986491 2.7280244539057814 62.9489596816032133 Ba
atom 7.2549357612574763 2.6205200024434347 62.9449567374389289 Ba
atom 2.2517956609651080 7.6236601026650304 62.9529626265355304 Ba
atom 7.3468935545236986 7.7156178969645950 62.9489596816184331 Ba
atom 4.7867148582245767 4.8489212917858797 63.2782426794003214 S
atom 10.1216323675436630 5.1806987005663236 63.2742397460892505 S
atom 5.1184922672554567 10.1838388008394549 63.2822456349077243 S
atom 9.7743083013388254 9.8365147349168662 63.2782426793825863 S
