#=======================================================
# FHI-aims file: full_relax/full_relax_RP_6_Rx0Mz_0Ry0.in
# Created using the Atomic Simulation Environment (ASE)
# Fri Mar 14 11:43:28 2025
#=======================================================
lattice_vector 10.0440745436871879 -0.0000000003735812 0.0000000000000043 
lattice_vector -0.0000000003720943 10.0840976681471304 -0.0000000000000456 
lattice_vector 0.0000000000000286 -0.0000000000003067 65.3033198399924402 
atom -0.1697202699047497 0.0000000028483796 0.2445820704986218 Ba
atom 5.1713203825102152 -0.0000000111624841 0.2384125680710187 Ba
atom 0.1492831104806247 5.0420488230977387 0.2384125680710148 Ba
atom 4.8523170017528301 5.0420488367350345 0.2445820704983371 Ba
atom -0.0512038437339543 -0.0000000426682788 4.9472457196460233 Ba
atom 4.9214822720904747 -0.0000000764351348 4.8766282245669341 Ba
atom -0.1005549999389925 5.0420487578254400 4.8766282245667734 Ba
atom 4.9708334279236688 5.0420487912185648 4.9472457196458954 Ba
atom 2.4962196791977558 2.5023479118975600 2.3000697905601992 Zr
atom 7.5182569434280548 2.5397009087343103 2.3000697856107428 Zr
atom 2.4962196713986295 7.5817497429942975 2.3000697856105297 Zr
atom 7.5182569508550880 7.5443967457840282 2.3000697905603817 Zr
atom 2.5353993386616200 2.5189604464443045 7.3409482121207947 Zr
atom 7.5574366249652787 2.5230884166297778 7.3409482108208524 Zr
atom 2.5353993529353689 7.5651372508901424 7.3409482108207067 Zr
atom 7.5574366103194262 7.5610092803310520 7.3409482121206189 Zr
atom 2.5016746335010720 2.7893995522290522 -0.1821461138350391 S
atom 7.5237119741144225 2.2526492760949011 -0.1821461161299690 S
atom 2.5016747020849546 7.2946981103551494 -0.1821461161299652 S
atom 7.5237119051584385 7.8314483861160049 -0.1821461138347904 S
atom 2.5124447620144532 2.1137400806547557 4.8578100550327710 S
atom 7.5344818385743162 2.9283087676119766 4.8578100550595069 S
atom 2.5124445665444255 7.9703576018721334 4.8578100550594217 S
atom 7.5344820336722078 7.1557889145415832 4.8578100550325995 S
atom 2.5059974264264322 -0.0000000043356051 2.0423264824819372 S
atom 7.5136807036705058 -0.0000000045482867 2.7186132509644869 S
atom 2.4916434316408962 5.0420488297120380 2.7186132509643737 S
atom 7.5280346980839337 5.0420488295512094 2.0423264824819571 S
atom 2.8285388930773756 0.0000000094429117 7.7441669882941913 S
atom 7.2770659996866689 0.0000000074788584 6.9523696132629302 S
atom 2.2550287276570713 5.0420488417392582 6.9523696132629951 S
atom 7.8505761647348482 5.0420488433297637 7.7441669882942259 S
atom -0.0116108654215804 2.5198294561231425 2.4310834528801850 S
atom 5.0104264084652845 2.5222193655582399 2.4310833177278752 S
atom -0.0116108635644879 7.5642681998186792 2.4310833177276230 S
atom 5.0104264062360988 7.5618782900100330 2.4310834528802423 S
atom 0.0228050326034920 2.2178757807647109 7.3654595276594996 S
atom 5.0448423112528840 2.8241730724772953 7.3654598569335930 S
atom 0.0228050392232698 7.8662219067377004 7.3654598569337768 S
atom 5.0448423042610200 7.2599246146515402 7.3654595276593371 S
atom 0.1713685960716601 0.0000001219091286 9.8662672519270576 Ba
atom 5.1913198592848353 0.0000001925824339 9.8561885065975066 Ba
atom 0.1692825872552194 5.0420490268426317 9.8561885065973573 Ba
atom 5.1934058677293331 5.0420489557958028 9.8662672519269812 Ba
atom -0.1305166529392522 -0.0000001442376989 14.8416635999878128 Ba
atom 4.8906988880542981 -0.0000002365378640 14.8416635999877915 Ba
atom -0.1313383839752778 5.0420485977224638 14.8416635999879016 Ba
atom 4.8915206187183449 5.0420486896489916 14.8416635999878626 Ba
atom 2.5328416423417721 2.5226182633325189 12.3410631873349104 Zr
atom 7.5548789071898526 2.5194305622630675 12.3410631867476255 Zr
atom 2.5328416351601191 7.5614793965234268 12.3410631867474887 Zr
atom 7.5548789139994508 7.5646670972192895 12.3410631873348002 Zr
atom 2.5328416423418250 2.5226182633322152 17.3422640126409711 Zr
atom 7.5548789071896580 2.5194305622627322 17.3422640132281245 Zr
atom 2.5328416351599476 7.5614793965231790 17.3422640132281991 Zr
atom 7.5548789139994224 7.5646670972190888 17.3422640126409853 Zr
atom 2.5323256178261624 2.9319345649382376 9.8479001336309597 S
atom 7.5543633030782740 2.1101142155726262 9.8479001343023445 S
atom 2.5323260310488522 7.1521630498328941 9.8479001343023000 S
atom 7.5543628894834880 7.9739833988250544 9.8479001336309047 S
atom 2.5294614875269068 2.1123801697432527 14.8416635999879674 S
atom 7.5514982563360880 2.9296687289435770 14.8416635999878999 S
atom 2.5294609843063443 7.9717175632038657 14.8416635999878785 S
atom 7.5514987591844553 7.1544290036300220 14.8416635999878341 S
atom 2.8276389832232520 -0.0000000006726618 11.9498412228003836 S
atom 7.2566956955005342 -0.0000000028925133 12.7453420939522957 S
atom 2.2346584234709117 5.0420488313679233 12.7453420939523383 S
atom 7.8496762548808485 5.0420488332142455 11.9498412228003090 S
atom 2.8276389832229918 -0.0000000006727390 17.7334859771752242 S
atom 7.2566956955007047 -0.0000000028925984 16.9379851060230209 S
atom 2.2346584234711000 5.0420488313677598 16.9379851060231452 S
atom 7.8496762548805536 5.0420488332140980 17.7334859771751603 S
atom 0.0208037302123110 2.2092241981844198 12.3497737210762040 S
atom 5.0428410115549500 2.8328246374995856 12.3497732125759150 S
atom 0.0208037395253064 7.8748734717598561 12.3497732125757924 S
atom 5.0428410018698919 7.2512730320711354 12.3497737210762981 S
atom 0.0208037302123127 2.2092241981846032 17.3335534788998942 S
atom 5.0428410115548470 2.8328246374993822 17.3335539873990996 S
atom 0.0208037395252576 7.8748734717597060 17.3335539873991493 S
atom 5.0428410018697729 7.2512730320713521 17.3335534788997840 S
atom 0.1713685960714126 0.0000001219084719 19.8170599480486160 Ba
atom 5.1913198592847039 0.0000001925813304 19.8271386933781137 Ba
atom 0.1692825872552197 5.0420490268416680 19.8271386933782061 Ba
atom 5.1934058677289849 5.0420489557952264 19.8170599480485485 Ba
atom -0.0512038437338149 -0.0000000426680016 24.7360814803292399 Ba
atom 4.9214822720907172 -0.0000000764343793 24.8066989754082527 Ba
atom -0.1005549999389620 5.0420487578261319 24.8066989754082670 Ba
atom 4.9708334279238553 5.0420487912188898 24.7360814803293891 Ba
atom 2.5353993386616955 2.5189604464443103 22.3423789878542749 Zr
atom 7.5574366249651179 2.5230884166296810 22.3423789891544224 Zr
atom 2.5353993529354857 7.5651372508900749 22.3423789891543620 Zr
atom 7.5574366103192787 7.5610092803310529 22.3423789878544170 Zr
atom 2.4962196791976963 2.5023479118975898 27.3832574094151049 Zr
atom 7.5182569434282511 2.5397009087341380 27.3832574143646639 Zr
atom 2.4962196713986060 7.5817497429945320 27.3832574143646710 Zr
atom 7.5182569508552284 7.5443967457844403 27.3832574094149201 Zr
atom 2.5323256178270048 2.9319345649384339 19.8354270663442058 S
atom 7.5543633030774231 2.1101142155724606 19.8354270656730378 S
atom 2.5323260310479321 7.1521630498327795 19.8354270656730876 S
atom 7.5543628894843957 7.9739833988252258 19.8354270663444048 S
atom 2.5124447620137049 2.1137400806545217 24.8255171449428964 S
atom 7.5344818385749877 2.9283087676119832 24.8255171449160414 S
atom 2.5124445665452506 7.9703576018724203 24.8255171449159491 S
atom 7.5344820336713925 7.1557889145415254 24.8255171449430172 S
atom 2.8285388930768964 0.0000000094427131 21.9391602116811697 S
atom 7.2770659996870668 0.0000000074788116 22.7309575867126767 S
atom 2.2550287276574577 5.0420488417393452 22.7309575867127904 S
atom 7.8505761647344077 5.0420488433296438 21.9391602116811271 S
atom 2.5059974264264118 -0.0000000043352888 27.6410007174935153 S
atom 7.5136807036705848 -0.0000000045483054 26.9647139490110668 S
atom 2.4916434316409166 5.0420488297119999 26.9647139490108856 S
atom 7.5280346980840696 5.0420488295515220 27.6410007174934940 S
atom 0.0228050326033633 2.2178757807650533 22.3178676723150637 S
atom 5.0448423112529612 2.8241730724768366 22.3178673430428773 S
atom 0.0228050392232722 7.8662219067370529 22.3178673430427530 S
atom 5.0448423042609791 7.2599246146517009 22.3178676723151668 S
atom -0.0116108654214333 2.5198294561233934 27.2522437470958252 S
atom 5.0104264084652268 2.5222193655584553 27.2522438822468160 S
atom -0.0116108635647492 7.5642681998187360 27.2522438822470718 S
atom 5.0104264062364390 7.5618782900100889 27.2522437470957541 S
atom -0.1697202699046207 0.0000000028484870 29.4387451294767644 Ba
atom 5.1713203825101681 -0.0000000111622431 29.4449146319043145 Ba
atom 0.1492831104807063 5.0420488230979359 29.4449146319042043 Ba
atom 4.8523170017527759 5.0420488367351091 29.4387451294766613 Ba
atom 2.5016746335014437 2.7893995522291788 29.8654733138096802 S
atom 7.5237119741141516 2.2526492760949717 29.8654733161050814 S
atom 2.5016747020845647 7.2946981103552657 29.8654733161046551 S
atom 7.5237119051588763 7.8314483861161976 29.8654733138096802 S
atom 2.5021829053190796 2.6861839935613987 32.9763747233457281 Ba
atom 7.5242201806036553 2.3558648385755894 32.9763747248912082 Ba
atom 2.5021829085739342 7.3979136728356982 32.9763747248912793 Ba
atom 7.5242201769766712 7.7282328274484122 32.9763747233457565 Ba
atom 2.5019870496550509 2.4968247132305366 37.6525913691556724 Ba
atom 7.5240243198147638 2.5452241199955767 37.6525913694440248 Ba
atom 2.5019870477849651 7.5872729542553916 37.6525913694436980 Ba
atom 7.5240243213126856 7.5388735471176451 37.6525913691562764 Ba
atom 5.0337598091722260 5.0420488326678381 35.0318693219835922 Zr
atom 10.0145843306506457 5.0420488338794867 35.0334091577954254 Zr
atom 4.9925470586203540 10.0840976681402026 35.0334091577953828 Zr
atom 10.0557970808303256 10.0840976665550741 35.0318693219842316 Zr
atom 5.0139151363130638 5.0420488338232454 40.0494114807102051 Zr
atom 10.0343811079391525 5.0420488334594191 40.0500454686355809 Zr
atom 5.0123438359091903 10.0840976677194636 40.0500454686357443 Zr
atom 10.0359524079710383 10.0840976677096812 40.0494114807103685 Zr
atom 4.7258768898169290 5.0420488268881130 32.5499735801953776 S
atom 10.3223958179734581 5.0420488391212483 32.5514821288473186 S
atom 5.3003585459439924 10.0840976733821623 32.5514821288467076 S
atom 9.7479141614743465 10.0840976607754396 32.5499735801959673 S
atom 5.4797881474873495 5.0420488354346897 37.5769142243861509 S
atom 9.5682335187565624 5.0420488315571639 37.5772599262710045 S
atom 4.5461962467270798 10.0840976658166142 37.5772599262708908 S
atom 10.5018254191445983 10.0840976693205668 37.5769142243863143 S
atom 5.0130247304547968 2.5210903506571505 35.1684911988357243 S
atom 10.0350620027188224 2.5209584819412671 35.1684911920194665 S
atom 5.0130247306892146 7.5630073162021292 35.1684911920185144 S
atom 10.0350620021122925 7.5631391845444771 35.1684911988352766 S
atom 5.0131186371626404 2.5210071870712691 40.0668859684230370 S
atom 10.0351559087988669 2.5210416460909064 40.0668859718180883 S
atom 5.0131186367691862 7.5630904803515335 40.0668859718188131 S
atom 10.0351559088201974 7.5630560209583306 40.0668859684245007 S
atom 2.5021484438099417 5.0420488338332028 35.4791133521518489 S
atom 7.5241205450677047 5.0420488333775380 34.7248796599754925 S
atom 2.5020832730380205 10.0840976676377654 34.7248796599759757 S
atom 7.5241857154674179 10.0840976677198881 35.4791133521520479 S
atom 2.5020226288988940 5.0420488336702167 39.5831823285378377 S
atom 7.5241194801163731 5.0420488337208909 40.5318146899877476 S
atom 2.5020822080864789 10.0840976679811245 40.5318146899880389 S
atom 7.5240599005568125 10.0840976675570744 39.5831823285380651 S
atom 2.5020977775288737 2.5267502143232159 42.5535555623594988 Ba
atom 7.5241350508321725 2.5152986192105953 42.5535555624094002 Ba
atom 2.5020977788026886 7.5573474534702143 42.5535555624096986 Ba
atom 7.5241350491863033 7.5687990482103844 42.5535555623599038 Ba
atom 2.5019252344886600 2.5144367718504568 47.4933235199882517 Ba
atom 7.5239625050897834 2.5276120617211677 47.4933235199788513 Ba
atom 2.5019252330603980 7.5696608959807419 47.4933235199786310 Ba
atom 7.5239625061459519 7.5564856057380396 47.4933235199892820 Ba
atom 5.0117354112458177 5.0420488337948886 45.0123300928106644 Zr
atom 10.0362915059599054 5.0420488336642295 45.0125047346182257 Zr
atom 5.0142542339301484 10.0840976679244783 45.0125047346189149 Zr
atom 10.0337726829034803 10.0840976676815508 45.0123300928106715 Zr
atom 5.0117354112458656 5.0420488337938023 49.9743169471560194 Zr
atom 10.0362915059599977 5.0420488336630003 49.9741423053486713 Zr
atom 5.0142542339301182 10.0840976679230270 49.9741423053482308 Zr
atom 10.0337726829035301 10.0840976676802541 49.9743169471563462 Zr
atom 4.5057444144266112 5.0420488327149364 42.5366395135484083 S
atom 10.5425295882028660 5.0420488346334986 42.5368118686368319 S
atom 5.5204923161734136 10.0840976688951205 42.5368118686364340 S
atom 9.5277816860839106 10.0840976666030073 42.5366395135483515 S
atom 5.5205537756960821 5.0420488346671082 47.4933235199831785 S
atom 9.5273836879826064 5.0420488327836850 47.4933235199833490 S
atom 4.5053464159529630 10.0840976670424247 47.4933235199836972 S
atom 10.5425910473534863 10.0840976685522801 47.4933235199838819 S
atom 5.0129877390675821 2.5210157712924084 45.0180734354245757 S
atom 10.0350250108674448 2.5210330620791632 45.0180734330716916 S
atom 5.0129877388378583 7.5630818963391206 45.0180734330696737 S
atom 10.0350250107250716 7.5630646051787931 45.0180734354233891 S
atom 5.0129877390488060 2.5210157712912951 49.9685736045428328 S
atom 10.0350250108862031 2.5210330620781902 49.9685736068960935 S
atom 5.0129877388565278 7.5630818963390336 49.9685736068978841 S
atom 10.0350250107064021 7.5630646051785462 49.9685736045447442 S
atom 2.5019703959017061 5.0420488339054543 45.5030359356814742 S
atom 7.5240475397493292 5.0420488337439888 44.5327645811912518 S
atom 2.5020102677191005 10.0840976680046168 44.5327645811913797 S
atom 7.5240076675597809 10.0840976677922090 45.5030359356820711 S
atom 2.5019703959016177 5.0420488339211857 49.4836111042854014 S
atom 7.5240475397493976 5.0420488337292149 50.4538824587760075 S
atom 2.5020102677191081 10.0840976679892886 50.4538824587762207 S
atom 7.5240076675598164 10.0840976678082281 49.4836111042858136 S
atom 2.5020977775288382 2.5267502143184437 52.4330914776036039 Ba
atom 7.5241350508322151 2.5152986192061579 52.4330914775612271 Ba
atom 2.5020977788027396 7.5573474534655958 52.4330914775615966 Ba
atom 7.5241350491862660 7.5687990482062339 52.4330914776038028 Ba
atom 2.5019870496551104 2.4968247132298105 57.3340556708104074 Ba
atom 7.5240243198147034 2.5452241199951913 57.3340556705246485 Ba
atom 2.5019870477850716 7.5872729542549644 57.3340556705247337 Ba
atom 7.5240243213126066 7.5388735471173316 57.3340556708109546 Ba
atom 5.0139151363131731 5.0420488338217186 54.9372355592570116 Zr
atom 10.0343811079389607 5.0420488334575841 54.9366015713321119 Zr
atom 5.0123438359093235 10.0840976677181828 54.9366015713322398 Zr
atom 10.0359524079708660 10.0840976677086882 54.9372355592578003 Zr
atom 5.0337598091725573 5.0420488326675930 59.9547777179834398 Zr
atom 10.0145843306501607 5.0420488338789688 59.9532378821722176 Zr
atom 4.9925470586203309 10.0840976681394565 59.9532378821717202 Zr
atom 10.0557970808304695 10.0840976665544559 59.9547777179832835 Zr
atom 4.5057444144264149 5.0420488327139976 52.4500075264201300 S
atom 10.5425295882029726 5.0420488346325545 52.4498351713317845 S
atom 5.5204923161733985 10.0840976688947244 52.4498351713318272 S
atom 9.5277816860841185 10.0840976666025934 52.4500075264201371 S
atom 5.4797881474870760 5.0420488354342661 57.4097328155796163 S
atom 9.5682335187567507 5.0420488315567038 57.4093871136951819 S
atom 4.5461962467270540 10.0840976658158805 57.4093871136952316 S
atom 10.5018254191446374 10.0840976693197977 57.4097328155798508 S
atom 5.0131186371620462 2.5210071870706505 54.9197610715444924 S
atom 10.0351559087995312 2.5210416460898388 54.9197610681499953 S
atom 5.0131186367699803 7.5630904803501879 54.9197610681482331 S
atom 10.0351559088195135 7.5630560209573874 54.9197610715428368 S
atom 5.0130247304550846 2.5210903506568578 59.8181558411314214 S
atom 10.0350620027185276 2.5209584819408235 59.8181558479484252 S
atom 5.0130247306889837 7.5630073162012819 59.8181558479490221 S
atom 10.0350620021125270 7.5631391845437106 59.8181558411325511 S
atom 2.5020226288989784 5.0420488336710454 55.4034647114290664 S
atom 7.5241194801163234 5.0420488337191216 54.4548323499793696 S
atom 2.5020822080862359 10.0840976679794494 54.4548323499796751 S
atom 7.5240599005570523 10.0840976675576321 55.4034647114294501 S
atom 2.5021484438098716 5.0420488338322036 59.5075336878153465 S
atom 7.5241205450676798 5.0420488333769615 60.2617673799917171 S
atom 2.5020832730379410 10.0840976676372840 60.2617673799919089 S
atom 7.5241857154675795 10.0840976677191208 59.5075336878154246 S
atom 2.5021829053191404 2.6861839935609173 62.0102723166216805 Ba
atom 7.5242201806036526 2.3558648385751453 62.0102723150763495 Ba
atom 2.5021829085740284 7.3979136728351840 62.0102723150764561 Ba
atom 7.5242201769765966 7.7282328274477692 62.0102723166217160 Ba
atom 4.7258768898166439 5.0420488268873669 62.4366734597723436 S
atom 10.3223958179737227 5.0420488391209295 62.4351649111207294 S
atom 5.3003585459440847 10.0840976733817733 62.4351649111210563 S
atom 9.7479141614742222 10.0840976607746455 62.4366734597719244 S
