#=======================================================
# FHI-aims file: full_relax/full_relax_RP_7_RxRyMz_RxRy-Mz.in
# Created using the Atomic Simulation Environment (ASE)
# Mon Mar 24 15:46:25 2025
#=======================================================
lattice_vector 10.0088482671849519 -0.0711202229616033 -0.0000000000000004 
lattice_vector -0.0711202229615994 10.0088482671849519 -0.0000000000000054 
lattice_vector -0.0000000000000024 -0.0000000000000407 75.9688272123166826 
atom 0.0977552035045754 -0.1814462560367854 0.2169031134248315 Ba
atom 5.1858703896256548 -0.1333153149874247 0.2169031134196311 Ba
atom 0.1458861445537873 4.9066689300866830 0.2169031134197125 Ba
atom 5.0666192256152547 4.7874177660759480 0.2169031134233778 Ba
atom -0.2678277917687978 0.1877509063730851 5.0082282026048333 Ba
atom 4.8166732272106589 0.2322676802847991 5.0082282026031724 Ba
atom -0.2233110178582015 5.2722519253650209 5.0082282026042444 Ba
atom 4.7010362303376496 5.1566149284931120 5.0082282026026270 Ba
atom 2.4845543107686567 2.4744385170723313 2.4034382374591639 Zr
atom 7.4988496386340042 2.4487495998731146 2.4034382374553100 Zr
atom 2.4588653935663118 7.4887338449286451 2.4034382374741492 Zr
atom 7.4534183328744641 7.4433025391700021 2.4034382374646284 Zr
atom 2.4751700712873790 2.4897322973442244 7.4606667366112198 Zr
atom 7.4835558583632658 2.4581338393445091 7.4606667366394968 Zr
atom 2.4435716132882379 7.4981180844055766 7.4606667366140869 Zr
atom 7.4440340934051266 7.4585963194442471 7.4606667366264148 Zr
atom 2.6082710022558793 2.6948055896536616 -0.1037841171459267 S
atom 7.2784825660476740 2.3250329083711447 -0.1037841171363223 S
atom 2.2384983209712983 7.3650171534458817 -0.1037841171584943 S
atom 7.5771350243688671 7.6636696117695937 -0.1037841171521085 S
atom 2.2350898076688175 2.1894977980407768 4.9661836480486699 S
atom 7.7837903576610588 2.6982141029586737 4.9661836480218335 S
atom 2.7438061125895046 7.7381983480353389 4.9661836480341366 S
atom 7.2039538297804890 7.1583618201529777 4.9661836480374220 S
atom 2.8026204214814134 -0.0126373865838068 2.2490797726131224 S
atom 7.1811330609342860 -0.0454398215871637 2.7575828580978725 S
atom 2.1411488158601846 4.9945444234635827 2.7575828580959838 S
atom 7.7714844435924242 4.9562266354983082 2.2490797726160237 S
atom 2.8967101729798181 -0.0165636126345658 7.7890925392171111 S
atom 7.1173136552281200 -0.0490679603868754 7.1718111644015794 S
atom 2.0773294101578150 4.9909162846600346 7.1718111644039446 S
atom 7.8655741950906766 4.9523004094512917 7.7890925392149555 S
atom -0.0229227249023598 2.2018037121095051 2.2490797726149263 S
atom 4.9787437322417212 2.7921550947648295 2.7575828580969466 S
atom -0.0612405128486665 7.8321393398436800 2.7575828580969972 S
atom 4.9459412972289911 7.1706677342219765 2.2490797726139204 S
atom -0.0189964988108725 2.1077139606104969 7.7890925392149812 S
atom 4.9823718710047169 2.8559745004703898 7.1718111644034392 S
atom -0.0576123740662936 7.8959587455489642 7.1718111644020919 S
atom 4.9498675232960672 7.0765779827216315 7.7890925392169645 S
atom 0.2829345069222788 -0.1825977721317411 9.9872734828416210 Ba
atom 5.1870219057222311 -0.3184946184101035 9.9872734828414718 Ba
atom 0.1470376606404632 4.7214896266682098 9.9872734828406884 Ba
atom 5.2517985290419924 4.7862662499849673 9.9872734828405800 Ba
atom -0.2840579153296053 0.1821403177487849 14.9906502095009735 Ba
atom 4.8222838158387056 0.2484978038491962 14.9906502095021086 Ba
atom -0.2177004292308887 5.2884820489227353 14.9906502095009397 Ba
atom 4.6848061067781774 5.1510043398609717 14.9906502095016982 Ba
atom 2.4880217659812440 2.4830472268097177 12.4780499806951095 Zr
atom 7.4902409288935861 2.4452821446461304 12.4780499806647818 Zr
atom 2.4502566838148452 7.4852663897141731 12.4780499806748928 Zr
atom 7.4568857881018049 7.4519112489187700 12.4780499806698444 Zr
atom 2.4844320110521743 2.4844320110538924 17.4928220554523364 Zr
atom 7.4888561446502431 2.4488718995751642 17.4928220554609553 Zr
atom 2.4488718995716408 7.4888561446458484 17.4928220554632858 Zr
atom 7.4532960331700329 7.4532960331648335 17.4928220554662026 Zr
atom 2.7474514528299827 2.8123812152358902 9.9790420680845298 S
atom 7.1609069404615546 2.1858524577978709 9.9790420680763727 S
atom 2.1209226953901954 7.2258367028711445 9.9790420680931717 S
atom 7.7163154749415144 7.7812452373517038 9.9790420680789129 S
atom 2.2178631260364163 2.1531938484361919 14.9882902724421712 S
atom 7.8200943072645499 2.7154407845924839 14.9882902724946341 S
atom 2.7801100621936494 7.7554250296668172 14.9882902724693814 S
atom 7.1867271481463817 7.1220578705478026 14.9882902724798246 S
atom 2.8879943492044649 -0.0199992307512973 12.1694261653140501 S
atom 7.1211716061162615 -0.0528442015284650 12.8075899411288532 S
atom 2.0811873610474043 4.9871400435315021 12.8075899411254284 S
atom 7.8568583713172089 4.9488647913460708 12.1694261653142064 S
atom 2.8868005922743918 -0.0191462297117299 17.8135770417548542 S
atom 7.1220476749119834 -0.0519739932500629 17.1720670692236084 S
atom 2.0820634298369343 4.9880102518225389 17.1720670692222726 S
atom 7.8556646143818671 4.9497177923986397 17.8135770417513051 S
atom -0.0155608806935469 2.1164297843845827 12.1694261653143254 S
atom 4.9861481121347317 2.8521165495833234 12.8075899411267660 S
atom -0.0538361329145219 7.8921007946577086 12.8075899411274179 S
atom 4.9533031413914017 7.0852938064962574 12.1694261653138938 S
atom -0.0164138818098050 2.1176235413195701 17.8135770417528256 S
atom 4.9852779039189548 2.8512404807896394 17.1720670692225674 S
atom -0.0547063411894438 7.8912247258640162 17.1720670692234023 S
atom 4.9524501403359382 7.0864875634297269 17.8135770417531916 S
atom 0.2840579153286629 -0.1821403177509941 19.9949939014663158 Ba
atom 5.1865644513387812 -0.3196180268141573 19.9949939014662270 Ba
atom 0.1465802062646821 4.7203662182635702 19.9949939014662483 Ba
atom 5.2529219374411689 4.7867237043660813 19.9949939014665574 Ba
atom -0.2829345069292288 0.1825977721232168 24.9983706281284022 Ba
atom 4.8218263614612660 0.2473743954406935 24.9983706281296918 Ba
atom -0.2181578836148834 5.2873586405256239 24.9983706281271836 Ba
atom 4.6859295151841902 5.1514617942473571 24.9983706281279616 Ba
atom 2.4808422561210306 2.4858167953019841 22.5075941303526825 Zr
atom 7.4874713604067882 2.4524616545035558 22.5075941303486644 Zr
atom 2.4474871153228359 7.4924458995738226 22.5075941303555993 Zr
atom 7.4497062782434433 7.4546808174085539 22.5075941303656322 Zr
atom 2.4936939508193925 2.4791317247692022 27.5249773742581247 Zr
atom 7.4941564309341038 2.4396099597991707 27.5249773742529200 Zr
atom 2.4541721858473884 7.4795942048813080 27.5249773742823791 Zr
atom 7.4625579729393774 7.4479957468891103 27.5249773742389330 Zr
atom 2.7510008960783776 2.8156701736755418 19.9973538385259531 S
atom 7.1576179820253918 2.1823030145517421 19.9973538384727547 S
atom 2.1176337369526705 7.2222872596242125 19.9973538384859921 S
atom 7.7198649181886809 7.7845341957897709 19.9973538384690919 S
atom 2.2214125692845035 2.1564828068765673 25.0066020428398765 S
atom 7.8168053488252163 2.7118913413437387 25.0066020429008340 S
atom 2.7768211037560349 7.7518755864200681 25.0066020428623297 S
atom 7.1902765913936664 7.1253468289831661 25.0066020428758833 S
atom 2.8876766610645617 -0.0182760214091823 22.1780541698282718 S
atom 7.1208539179750598 -0.0511209921802918 22.8162179456398562 S
atom 2.0808696729087837 4.9888632528501784 22.8162179456380834 S
atom 7.8565406831775961 4.9505880006610905 22.1780541698251952 S
atom 2.8915346119590386 -0.0220522625684329 27.8138329465812717 S
atom 7.1121380942025443 -0.0545566102652680 27.1965515717638020 S
atom 2.0721538491283127 4.9854276347633082 27.1965515717598443 S
atom 7.8603986340667564 4.9468117594976126 27.8138329465806002 S
atom -0.0172840900240758 2.1167474725264070 22.1780541698279485 S
atom 4.9844249028014618 2.8524342377224028 22.8162179456381367 S
atom -0.0555593422381862 7.8924184827986306 22.8162179456399841 S
atom 4.9515799320542655 7.0856114946345823 22.1780541698253941 S
atom -0.0135078489452519 2.1128895216388721 27.8138329465792609 S
atom 4.9878605209675291 2.8611500614972138 27.1965515717625621 S
atom -0.0521237241426446 7.9011343065736037 27.1965515717610984 S
atom 4.9553561732065949 7.0817535437413328 27.8138329465820320 S
atom 0.2678277917746737 -0.1877509063836988 29.9774159083465186 Ba
atom 5.1921750399595652 -0.3033879032573517 29.9774159083457583 Ba
atom 0.1521907948981620 4.7365963418286396 29.9774159083472505 Ba
atom 5.2366918138747094 4.7811131157432962 29.9774159083468490 Ba
atom -0.0977552035089486 0.1814462560364621 34.7687409975624391 Ba
atom 4.8229778775537788 0.0621950920196648 34.7687409975681447 Ba
atom -0.2170063675217296 5.1021793370966364 34.7687409975706245 Ba
atom 4.8711088186055278 5.1503102781527161 34.7687409975642439 Ba
atom 2.4843097113401869 2.4944255050524271 32.5822058735509898 Zr
atom 7.4788626506722018 2.4489941992790283 32.5822058735796389 Zr
atom 2.4388784055833677 7.4889784443564551 32.5822058735395714 Zr
atom 7.4531737334653432 7.4632895271590733 32.5822058735588840 Zr
atom 2.7337742144463695 2.7793662240708854 30.0194604630318267 S
atom 7.1939219316312935 2.1995296961857616 30.0194604629647515 S
atom 2.1539376865549693 7.2395139412566349 30.0194604629669435 S
atom 7.7026382365546349 7.7482302461842787 30.0194604630206570 S
atom 2.3605930198585456 2.2740584324593232 35.0894282280379386 S
atom 7.6992297232445832 2.5727108907720644 35.0894282280520926 S
atom 2.6592454781759769 7.6126951358503234 35.0894282280927499 S
atom 7.3294570419683280 7.2429224545694382 35.0894282280435306 S
atom 2.8277152062494024 -0.0256804012927591 32.2280612528624246 S
atom 7.2062278457055688 -0.0584828363870152 32.7365643383365565 S
atom 2.1662436006350636 4.9815014086205105 32.7365643383384395 S
atom 7.7965792283579205 4.9431836207677664 32.2280612528605843 S
atom -0.0098797100888756 2.1767089273463158 32.2280612528633910 S
atom 4.9917867469536574 2.7670603099978428 32.7365643383369402 S
atom -0.0481974981387883 7.8070445550749952 32.7365643383394200 S
atom 4.9589843120407586 7.1455729494517950 32.2280612528609112 S
atom 2.3029857550108304 2.5821872145625422 38.2013167195543062 Ba
atom 7.3911009411463802 2.6303181556154636 38.2013167195533754 Ba
atom 2.3511166960683250 7.6703024006845117 38.2013167195468668 Ba
atom 7.2718497771279971 7.5510512366707125 38.2013167195566936 Ba
atom 2.6721829174248577 2.2166042192810540 42.9926418087897630 Ba
atom 7.7566839364192015 2.2611209931954468 42.9926418087863098 Ba
atom 2.7166996913402963 7.3011052382788577 42.9926418087872406 Ba
atom 7.6410469395423490 7.1854682414006881 42.9926418087830839 Ba
atom 4.9588705281307615 4.9689863218229586 40.3878518435520633 Zr
atom 9.9731658559779035 4.9432974046133982 40.3878518435456897 Zr
atom 4.9331816109391928 9.9832816496802295 40.3878518435593037 Zr
atom 9.9277345502123548 9.9378503439238521 40.3878518435767688 Zr
atom 4.9741643083981923 4.9596020823360041 45.4450803429438253 Zr
atom 9.9825500954711472 4.9280036243445551 45.4450803428828252 Zr
atom 4.9425658504056731 9.9679878694281374 45.4450803429015551 Zr
atom 9.9430283304941529 9.9284661044560245 45.4450803428809991 Zr
atom 5.1792376007026260 5.0927030133061244 37.8806294891095234 S
atom 9.8494491645046356 4.7229303320289509 37.8806294890645887 S
atom 4.8094649194276027 9.7629145771044303 37.8806294890737263 S
atom 10.1481016228208425 10.0615670354189231 37.8806294890941828 S
atom 4.6739298090901480 4.7195218187188992 42.9505972540609164 S
atom 10.2226303590946728 5.2282381236456441 42.9505972541736369 S
atom 5.1826461140178077 10.2682223687219594 42.9505972541136813 S
atom 9.6427938312043349 9.6883858408298984 42.9505972540625933 S
atom 4.6862357231649323 2.4615092862200343 40.2334933787937743 S
atom 10.3165713508989647 2.4231914981645351 40.7419964642652133 S
atom 5.2765871058167519 7.4631757432456345 40.7419964642652204 S
atom 9.6550997452788678 7.4303733083444214 40.2334933787897242 S
atom 4.5921459716639790 2.4654355122240905 45.7735061453584606 S
atom 10.3803907566033917 2.4268196370631694 45.1562247705397510 S
atom 5.3404065115321027 7.4668038820813667 45.1562247705371931 S
atom 9.5610099937806527 7.4342995342842402 45.7735061453602370 S
atom 2.4717946245362787 5.2870524325300474 40.2334933787917848 S
atom 7.4789764344634291 4.6255808269180188 40.7419964642655685 S
atom 2.4389921894221991 9.6655650719906614 40.7419964642658456 S
atom 7.4406586466066180 10.2559164546416284 40.2334933787931917 S
atom 2.4678683983505834 5.3811421840365377 45.7735061453573948 S
atom 7.4753482957836290 4.5617614212101358 45.1562247705399500 S
atom 2.4353640506919465 9.6017456662755212 45.1562247705363760 S
atom 7.4367324204831329 10.3500062061486364 45.7735061453610257 S
atom 2.3018342389322881 2.7673665179834916 47.9716870889985714 Ba
atom 7.2059216377091762 2.6314696717099149 47.9716870889979887 Ba
atom 2.1659373926526322 7.6714539167766942 47.9716870889973848 Ba
atom 7.2706982610257178 7.7362305400913698 47.9716870889978253 Ba
atom 2.6665723288044196 2.2003740957235665 52.9750638156452709 Ba
atom 7.7729140599736430 2.2667315818275924 52.9750638156463936 Ba
atom 2.7329298149032288 7.3067158269009589 52.9750638156437503 Ba
atom 7.6354363509129826 7.1692381178343814 52.9750638156448375 Ba
atom 4.9674792378729125 4.9724537770358772 50.4624635866988243 Zr
atom 9.9696984007729021 4.9346886948765487 50.4624635867573303 Zr
atom 4.9297141557086253 9.9746729399530132 50.4624635867395455 Zr
atom 9.9363432599706751 9.9413177991513351 50.4624635867312676 Zr
atom 4.9688640221156808 4.9688640221082521 55.4772356616436113 Zr
atom 9.9732881556968422 4.9333039106338639 55.4772356616352909 Zr
atom 4.9333039106408112 9.9732881557034307 55.4772356616638476 Zr
atom 9.9377280442141522 9.9377280442228635 55.4772356616860165 Zr
atom 5.2968132262916781 5.2318834638808571 47.9634556742419704 S
atom 9.7102687139351112 4.6053547064514113 47.9634556742094631 S
atom 4.6702844688570595 9.6453389515229819 47.9634556742502483 S
atom 10.2656772484002587 10.2007474859915401 47.9634556743282872 S
atom 4.6376258594886250 4.7022951370887203 52.9727038787579616 S
atom 10.2398570407264877 5.2645420732519961 52.9727038786999955 S
atom 5.1998727956528068 10.3045263183270634 52.9727038786612141 S
atom 9.6064898816036131 9.6711591591994512 52.9727038786167910 S
atom 4.6008617954375479 2.4688711303218875 50.1538397714902473 S
atom 10.3765328057141772 2.4305958780862058 50.7920035473048657 S
atom 5.3365485606436049 7.4705801232301523 50.7920035473107774 S
atom 9.5697258175552342 7.4377351525049269 50.1538397714924358 S
atom 4.6020555523744857 2.4680181293485215 55.7979906478993826 S
atom 10.3756567369196393 2.4297256698979792 55.1564806753803651 S
atom 5.3356724918427636 7.4697099148736310 55.1564806753819781 S
atom 9.5709195744899560 7.4368821513584500 55.7979906479031555 S
atom 2.4644327802703851 5.3724263602651572 50.1538397714876751 S
atom 7.4715720546153142 4.5656193720959628 50.7920035473093350 S
atom 2.4315878094778864 9.6056036171749692 50.7920035473063507 S
atom 7.4332968024485941 10.3412903823663331 50.1538397714952850 S
atom 2.4652857813935229 5.3712326033189459 55.7979906478991836 S
atom 7.4724422628266982 4.5664954409022247 55.1564806753853745 S
atom 2.4324580177857884 9.6064796859643060 55.1564806753765353 S
atom 7.4341498034714677 10.3400966254399265 55.7979906479031840 S
atom 2.3022916933057149 2.7684899263742890 57.9794075076474442 Ba
atom 7.2047982293184125 2.6310122173090154 57.9794075076458739 Ba
atom 2.1648139842426013 7.6709964624060341 57.9794075076450284 Ba
atom 7.2711557154184190 7.7373539485078391 57.9794075076431525 Ba
atom 2.6670297831839331 2.2014975041234095 62.9827842342832653 Ba
atom 7.7717906515779847 2.2662741274373319 62.9827842342821853 Ba
atom 2.7318064065012972 7.3062583725187746 62.9827842342832653 Ba
atom 7.6358938052985437 7.1703615262411962 62.9827842342822564 Ba
atom 4.9702488063580832 4.9652742671791454 60.4920077365658670 Zr
atom 9.9768779106267900 4.9319191263764255 60.4920077365625275 Zr
atom 4.9368936655587614 9.9719033714584189 60.4920077365369622 Zr
atom 9.9391128284661239 9.9341382893048813 60.4920077365445010 Zr
atom 4.9635637358281004 4.9781259618836868 65.5093909803448753 Zr
atom 9.9640262159314439 4.9386041968976535 65.5093909803793082 Zr
atom 4.9240419708536756 9.9785884419781716 65.5093909803658931 Zr
atom 9.9324277579463871 9.9469899840034603 65.5093909803483001 Zr
atom 5.3001021847281136 5.2354329071309333 57.9817674445321245 S
atom 9.7067192706802459 4.6020657480113867 57.9817674445876747 S
atom 4.6667350256057079 9.6420499930770482 57.9817674446023261 S
atom 10.2689662068451657 10.2042969292450945 57.9817674445975015 S
atom 4.6409148179326394 4.7058445803430322 62.9910156490817883 S
atom 10.2363075974726101 5.2612531148093824 62.9910156490276520 S
atom 5.1963233523995251 10.3012373598839488 62.9910156490457709 S
atom 9.6097788400413169 9.6747086024498170 62.9910156490349635 S
atom 4.6011794835766846 2.4671479210147624 60.1624677759751378 S
atom 10.3768504938525012 2.4288726688227000 60.8006315517949787 S
atom 5.3368662487808916 7.4688569138752072 60.8006315517965561 S
atom 9.5700435056909274 7.4360119431024696 60.1624677759773334 S
atom 4.5973215326893255 2.4709241621897724 65.7982465527476279 S
atom 10.3855663176281929 2.4323082869247155 65.1809651779272912 S
atom 5.3455820725540955 7.4722925319475495 65.1809651779297354 S
atom 9.5661855547964318 7.4397881842481732 65.7982465527504417 S
atom 2.4661559896050989 5.3721086721237770 60.1624677759751805 S
atom 7.4732952639478478 4.5653016839620708 60.8006315517946874 S
atom 2.4333110188565024 9.6052859290299963 60.8006315517972027 S
atom 7.4350200117345091 10.3409726942354663 60.1624677759771274 S
atom 2.4623797485194490 5.3759666230108625 65.7982465527487363 S
atom 7.4698596457882838 4.5565858601896050 65.1809651779305881 S
atom 2.4298754007581382 9.5965701052554060 65.1809651779257422 S
atom 7.4312437705858718 10.3448306451273950 65.7982465527493900 S
atom 2.2966811046743660 2.7522598028231502 67.9618295144933882 Ba
atom 7.2210283528841552 2.6366228059429266 67.9618295144960740 Ba
atom 2.1810441078032325 7.6766070510218603 67.9618295144915265 Ba
atom 7.2655451267942928 7.7211238249399088 67.9618295144943971 Ba
atom 2.6658782670942052 2.3866768075540201 72.7531546037360215 Ba
atom 7.5866113481503756 2.2674256435395921 72.7531546037322983 Ba
atom 2.5466271030792353 7.3074098886037175 72.7531546037384516 Ba
atom 7.6347422892033654 7.3555408296570777 72.7531546037356236 Ba
atom 4.9788575161099606 4.9687417224011767 70.5666194797424851 Zr
atom 9.9734104554016465 4.9233104166366832 70.5666194797159960 Zr
atom 4.9334262103464308 9.9632946617185549 70.5666194797112070 Zr
atom 9.9477215382076452 9.9376057445304209 70.5666194797069863 Zr
atom 5.2637982351244466 5.2182062255006860 68.0038740691843060 S
atom 9.7239459523103182 4.6383696976119504 68.0038740691754242 S
atom 4.6839617072375379 9.6783539426817828 68.0038740691964421 S
atom 10.2326622572410368 10.1870702476120822 68.0038740692445174 S
atom 4.7584904435117847 4.8450250309133009 73.0738418341769460 S
atom 10.0971271469044286 5.1436774892339594 73.0738418342185412 S
atom 5.0571429018295593 10.1836617343029356 73.0738418342110805 S
atom 9.7273544656254192 9.8138890530236029 73.0738418341820335 S
atom 4.6611409383989661 2.4745523009610388 70.2124748590207730 S
atom 10.2914765661279919 2.4362345129074034 70.7209779444926454 S
atom 5.2514923210508799 7.4762187580196748 70.7209779444926880 S
atom 9.6300049605120357 7.4434163231001920 70.2124748590208583 S
atom 2.4587516097387043 5.3121472173051716 70.2124748590194230 S
atom 7.4659334197092768 4.6506756116922681 70.7209779444933275 S
atom 2.4259491746380886 9.6906598567651532 70.7209779444913096 S
atom 7.4276156318461481 10.2810112394110948 70.2124748590216541 S
