#=======================================================
# FHI-aims file: full_relax/full_relax_RP_3_Rx0Rz_0-RyRz.in
# Created using the Atomic Simulation Environment (ASE)
# Fri Mar 14 11:20:09 2025
#=======================================================
lattice_vector 10.0930032277633366 0.0000881662238882 0.0020785420179999 
lattice_vector 0.0000881662238882 10.0930032277624235 0.0020785420186218 
lattice_vector 0.0052175103127495 0.0052175103150476 35.3596631261371357 
atom -0.1746177025276165 0.0024504641532707 0.2942485024964521 Ba
atom 5.2129925234219208 0.0025345248652989 0.2932357903111695 Ba
atom 0.1665349922939481 5.0489920553120200 0.2932357911616698 Ba
atom 4.8719279945185887 5.0489961608276808 0.2963270438603098 Ba
atom 0.0062878943972096 0.0016877733961306 4.9580980383436035 Ba
atom 4.9975295391776688 0.0016215103773812 4.9360953962960732 Ba
atom -0.0489279916819311 5.0480790408082461 4.9360953964674721 Ba
atom 5.0528335914870448 5.0482334700402083 4.9601765804833224 Ba
atom 2.5172501065790107 2.5024485962401726 2.3500173550489101 Zr
atom 7.5637312222801576 2.5482812707147726 2.3515067614741825 Zr
atom 2.5172736912131444 7.5947388043446740 2.3515067612721237 Zr
atom 7.5637958040705273 7.5489942951998259 2.3520958964385290 Zr
atom 2.5243598296239917 2.5243598291288811 7.3676357562028683 Zr
atom 7.5708614438339659 2.5244039128054911 7.3686750263272653 Zr
atom 2.5244039121935025 7.5708614447040352 7.3686750265255743 Zr
atom 7.5709055275315418 7.5709055275211963 7.3697142982371115 Zr
atom 2.5196234136231186 2.8141234688349157 -0.1299517777415729 S
atom 7.5660244055760622 2.2376467396947795 -0.1285602438374069 S
atom 2.5195668750971474 7.2841042707094825 -0.1285602437187022 S
atom 7.5661691103764772 7.8606691654501546 -0.1278732337004607 S
atom 2.5207758819228072 2.0621542808334961 4.8888522375505854 S
atom 7.5672330896931923 2.9876962322565905 4.8901380302723174 S
atom 2.5207755590713181 8.0341537624909467 4.8901380316780632 S
atom 7.5673215788517352 7.1086999775341564 4.8909307771786494 S
atom 2.5202780493250607 0.0021801170974715 2.0460985782727694 S
atom 7.5636697551470400 0.0020638620913696 2.7835841674887245 S
atom 2.5172122245544837 5.0485213940011935 2.7835841677545434 S
atom 7.5668237463537302 5.0487258170810989 2.0481771204599362 S
atom 2.5931397620247210 0.0009980956396932 7.8154443780426774 S
atom 7.5020374283526277 0.0012640309205097 6.9198271330458692 S
atom 2.4555798977096859 5.0477215634798416 6.9198271324183986 S
atom 7.6396854588337364 5.0475437938122569 7.8175229206267636 S
atom -0.0048975443432041 2.5257889881840070 2.4795438591493344 S
atom 5.0415701942466100 2.5249424344263782 2.4805634312695113 S
atom -0.0048873364934736 7.5713999647894639 2.4805634311278109 S
atom 5.0416481521971210 7.5723346847762958 2.4816224010268262 S
atom 0.0010946193247157 2.4471622742544121 7.3670913948330661 S
atom 5.0476250404295628 2.6015573857527698 7.3681801161940719 S
atom 0.0011675090466823 7.6480149163704541 7.3681801162284453 S
atom 5.0476403168163015 7.4937079711577521 7.3691699369048109 S
atom -0.0041139314458177 0.0004861894459106 9.7750949308702975 Ba
atom 5.0976476509170956 0.0006406188875044 9.7991761149222860 Ba
atom 0.0511901205977634 5.0470981493173417 9.7991761151580885 Ba
atom 5.0424317650708383 5.0470318860953567 9.7771734729776547 Ba
atom 0.1767916651812619 -0.0002765011488719 14.4389444675041947 Ba
atom 4.8821846672827984 -0.0002723955135526 14.4420357192162125 Ba
atom -0.1642728635318998 5.0461851347340385 14.4420357194141662 Ba
atom 5.2233373622677002 5.0462691953266914 14.4410230097070116 Ba
atom 2.5314695523568354 2.5462710621933029 12.3852541554332873 Zr
atom 7.5779916658512718 2.5005265546441802 12.3858432915025585 Zr
atom 2.5315341333271677 7.5469840847827676 12.3858432905755720 Zr
atom 7.5780152509164420 7.5928167592538935 12.3873326981019662 Zr
atom 2.5279437777952691 2.9865653792645781 9.8464192744964514 S
atom 7.5744897975869527 2.0611115939487137 9.8472120225212016 S
atom 2.5280322670288515 7.1075691247058312 9.8472120228986810 S
atom 7.5744894745282014 8.0331110760566578 9.8484978161864341 S
atom 2.5290962460537947 2.2345961910102425 14.8652232890455043 S
atom 7.5756984814699297 2.8111610863410745 14.8659102987366989 S
atom 2.5292409508669551 7.8576186167662287 14.8659102986908760 S
atom 7.5756419428303863 7.2811418881052239 14.8673018305231466 S
atom 2.5315074351709841 0.0001982644764508 11.9516873435734166 S
atom 7.5748991409268589 0.0000820084284676 12.6891729328697966 S
atom 2.5284416103854688 5.0465395420509536 12.6891729329235972 S
atom 7.5780531318719389 5.0467439633211413 11.9537658855700055 S
atom 0.0071494651260511 2.5237772254839692 12.2547080799412136 S
atom 5.0536172042332739 2.5229306719013156 12.2557276520133200 S
atom 0.0071596727922585 7.5693882026392867 12.2557276522066605 S
atom 5.0536951631897047 7.5703229224519371 12.2567866220044301 S
atom 2.5283320674439316 2.3512639009714627 17.9751193350288005 Ba
atom 7.5748736591598567 2.6924165959139930 17.9741066243428342 Ba
atom 2.5284161280373936 7.7388741269913499 17.9741066240491563 Ba
atom 7.5748777647870780 7.3978095982116887 17.9771978766674501 Ba
atom 2.5275693774260986 2.5321694980700706 22.6389688723113238 Ba
atom 7.5739606438989284 2.4769536114748401 22.6169662301947874 Ba
atom 2.5275031142314837 7.5234111427578689 22.6169662306049055 Ba
atom 7.5741150733318374 7.5787151956156302 22.6410474146201608 Ba
atom 5.0283302008819648 5.0431317083095522 20.0308881906449088 Zr
atom 10.1206204054562683 5.0431552933982227 20.0323775976444267 Zr
atom 5.0741628755125134 10.0896128284768434 20.0323776001959075 Zr
atom 10.0748758993081839 10.0896774094918165 20.0329667302624479 Zr
atom 5.0502414324227178 5.0502414331449215 25.0485065903987980 Zr
atom 10.0967430486658376 5.0502855166057596 25.0495458613189079 Zr
atom 5.0502855169574081 10.0967430479521205 25.0495458575742163 Zr
atom 10.0967871306674830 10.0967871310441879 25.0505851336102232 Zr
atom 5.3400050723346224 5.0455050176021983 17.5509190564479702 S
atom 9.8099858737561032 5.0454484789706449 17.5523105900664440 S
atom 4.7635283433807398 10.0919060092097990 17.5523105919480109 S
atom 10.3865507693895527 10.0920507140337321 17.5529976000044776 S
atom 4.5880358844623332 5.0466574859284767 22.5697230756730249 S
atom 10.5600353656696324 5.0466571629980459 22.5710088681277092 S
atom 5.5135778351847904 10.0931146932768439 22.5710088637501016 S
atom 9.6345815816168532 10.0932031824887449 22.5718016192687330 S
atom 5.0516705914529476 2.5209840592225010 20.1604146919742853 S
atom 10.0972815684582358 2.5209942659664808 20.1614342642983182 S
atom 5.0508240377694440 7.5674517966557842 20.1614342641891682 S
atom 10.0982162883649877 7.5675297563657544 20.1624932342681618 S
atom 4.9730438775755008 2.5269762226924475 25.0479622295011879 S
atom 10.1738965197184648 2.5270491122369538 25.0490509496442328 S
atom 5.1274389890322336 7.5735066436712648 25.0490509508682280 S
atom 10.0195895745761199 7.5735219196258061 25.0500407703189651 S
atom 2.5280617244353820 5.0461596535347075 19.7269694113144922 S
atom 7.5744029978593845 5.0430938286739426 20.4644550005638699 S
atom 2.5279454662333669 10.0895513587206036 20.4644550002844134 S
atom 7.5746074190471600 10.0927053497189689 19.7290479533345930 S
atom 2.5268796976771108 5.1190213658440769 25.4963152117081648 S
atom 7.5736031684196252 4.9814615015573773 24.6006979665502925 S
atom 2.5271456351404633 10.0279190321369285 24.6006979674732946 S
atom 7.5734253984364877 10.1655670625725456 25.4983937545472621 S
atom 2.5263677926116892 2.5217676721820910 27.4559657651799398 Ba
atom 7.5729797533652539 2.5770717245486221 27.4800469494182025 Ba
atom 2.5265222218284618 7.6235292545778890 27.4800469486860237 Ba
atom 7.5729134903549085 7.5683133684026798 27.4580443068055331 Ba
atom 2.5256051021868489 2.7026732690295625 32.1198153022413777 Ba
atom 7.5720667386711815 2.3616087404383053 32.1229065544746319 Ba
atom 2.5256092076642456 7.4080662706367377 32.1229065553158222 Ba
atom 7.5721507994131256 7.7492189655249337 32.1218938445235835 Ba
atom 5.0721526657995932 5.0573511532302051 30.0661249879759147 Zr
atom 10.0728656888603272 5.0574157352230635 30.0667141237441520 Zr
atom 5.0264081588620462 10.1038732721358588 30.0667141242428357 Zr
atom 10.1186983625596714 10.1038968565625904 30.0682035286837639 Zr
atom 5.5124469825004425 5.0538253817274299 27.5272901071217007 S
atom 9.6334507286773867 5.0539138709815337 27.5280828537867563 S
atom 4.5869931978261009 10.1003714010385064 27.5280828510618036 S
atom 10.5589926792600171 10.1003710781664733 27.5293686486254892 S
atom 4.7604777945638324 5.0549778500166704 32.5460941208517767 S
atom 10.3835002207475764 5.0551225547977037 32.5467811310676112 S
atom 5.3370426900859540 10.1015800848676545 32.5467811352074747 S
atom 9.8070234915593169 10.1015235463665967 32.5481726636793525 S
atom 5.0496588290714275 2.5330310679729675 29.9355789149825995 S
atom 10.0952698063201556 2.5330412765720234 29.9365984873129705 S
atom 5.0488122754261084 7.5794988089318371 29.9365984869565089 S
atom 10.0962045261786155 7.5795767661103097 29.9376574570467824 S
atom 2.5260798703698408 5.0573890392824419 29.6325581790503740 S
atom 7.5724211433791870 5.0543232145398651 30.3700437679909037 S
atom 2.5259636153496721 10.1007807441683681 30.3700437679164281 S
atom 7.5726255639008535 10.1039347352325670 29.6346367207159673 S
