#=======================================================
# FHI-aims file: full_relax/full_relax_RP_9_Rx1Ry20_-Rx2-Ry10.in
# Created using the Atomic Simulation Environment (ASE)
# Mon Mar 24 16:27:16 2025
#=======================================================
lattice_vector 10.0772883439340006 0.0398090598008158 0.0000000000000278 
lattice_vector 0.0398090598008196 10.0772883439337875 0.0000000000000082 
lattice_vector 0.0000000000002729 0.0000000000000812 94.7894450876556647 
atom -0.1483464701240731 -0.0118268550529049 0.2733516452775460 Ba
atom 5.1869906420867036 0.0317313849505828 0.2733516452852859 Ba
atom 0.1682510000233264 5.0504710270166573 0.2733516452643396 Ba
atom 4.9102022317434857 5.0467218468141901 0.2733516452989329 Ba
atom 0.0253385998430934 -0.0310498156157146 4.9381245558717355 Ba
atom 5.0133055721227322 0.0509543455145466 4.9381245558731850 Ba
atom -0.0054340699531663 5.0696939875804441 4.9381245558718865 Ba
atom 5.0838873017209618 5.0274988862520669 4.9381245558715019 Ba
atom 2.5254466004422649 2.5174224137632755 2.3226169694809200 Zr
atom 7.5717462733923080 2.5610308180007855 2.3226169694951504 Zr
atom 2.5530066313122459 7.5797704600637408 2.3226169694855239 Zr
atom 7.5839953023230624 7.5759711156342719 2.3226169694916807 Zr
atom 2.5340042849113216 2.5283637607414251 7.3374700253348939 Zr
atom 7.5631885889215278 2.5500894710217921 7.3374700253495391 Zr
atom 2.5444489468547680 7.5688291130906062 7.3374700253593685 Zr
atom 7.5925529867779549 7.5869124626006910 7.3374700253334657 Zr
atom 2.5883852353818249 2.8752091564126427 -0.1603499252310913 S
atom 7.5088076384501772 2.2032440753537084 -0.1603499252418655 S
atom 2.4900679963715167 7.2219837174185262 -0.1603499252604033 S
atom 7.6469339372614273 7.9337578582812824 -0.1603499252236216 S
atom 2.4238015988827430 2.0710028643683134 4.8651736964148986 S
atom 7.6733912749513742 3.0074503673943789 4.8651736964766563 S
atom 2.6546516328869765 8.0261900094642620 4.8651736964791548 S
atom 7.4823503007477008 7.1295515662347784 4.8651736964525325 S
atom 2.5193220859854226 0.0099522649372813 2.0171613996991451 S
atom 7.5579662579498077 0.0298567948585602 2.7915677418048630 S
atom 2.5392266158800547 5.0485964369433809 2.7915677418138252 S
atom 7.5778707878510430 5.0685009668070462 2.0171613996908788 S
atom 2.5193220859834780 0.0099522649437654 7.8022141029398400 S
atom 7.5579662579494231 0.0298567948686945 6.8921293086206505 S
atom 2.5392266158837318 5.0485964369114864 6.8921293086202775 S
atom 7.5778707878505589 5.0685009668203183 7.8022141029390104 S
atom 0.0099522649537780 2.5193220859816958 2.3674413869814588 S
atom 5.0485964369097074 2.5392266158784889 2.5373884111245966 S
atom 0.0298567948375101 7.5579662579463802 2.5373884111184597 S
atom 5.0685009668263961 7.5778707878503804 2.3674413869818625 S
atom 0.0099522649630454 2.5193220859825352 7.5010947450597936 S
atom 5.0485964369019785 2.5392266158828281 7.1982660885884862 S
atom 0.0298567948374043 7.5579662579498406 7.1982660885864158 S
atom 5.0685009668310395 7.5778707878501104 7.5010947450569319 S
atom -0.0046534515882960 0.0638535542410661 9.8352164596454497 Ba
atom 5.0432976235519815 -0.0439490243444845 9.8352164596450358 Ba
atom 0.0245579814795813 4.9747906177255654 9.8352164596439149 Ba
atom 5.0538952502857040 5.1224022561127853 9.8352164596435436 Ba
atom 0.0027091553320068 -0.0717028672529999 14.7832877269457121 Ba
atom 5.0359350166344887 0.0916073971568373 14.7832877269456393 Ba
atom 0.0171953745852946 5.1103470392194401 14.7832877269476182 Ba
atom 5.0612578571792977 4.9868458346071725 14.7832877269480552 Ba
atom 2.5273784767030638 2.5306177161220438 12.2990716696199609 Zr
atom 7.5698143971298411 2.5478355156374470 12.2990716695664588 Zr
atom 2.5510747550624622 7.5665751576933582 12.2990716695910631 Zr
atom 7.5859271785706923 7.5891664180024980 12.2990716695917897 Zr
atom 2.5299816927139376 2.5290175065003302 17.2581765959519942 Zr
atom 7.5672111811210625 2.5494357252693032 17.2581765959630218 Zr
atom 2.5484715390517785 7.5681753673229037 17.2581765959511522 Zr
atom 7.5885303945811646 7.5875662083740751 17.2581765959628122 Zr
atom 2.6844123156772497 3.0137086075634874 9.8243167557464623 S
atom 7.4127805581580555 2.0647446242075795 9.8243167557217710 S
atom 2.3940409160904017 7.0834842662694895 9.8243167557278763 S
atom 7.7429610175446699 8.0722573094326364 9.8243167557326796 S
atom 2.3473958399154915 2.0514575805476865 14.7804773170928936 S
atom 7.7497970339203848 3.0269956512213212 14.7804773170040757 S
atom 2.7310573918526626 8.0457352932743511 14.7804773170168744 S
atom 7.4059445417828726 7.1100062824228925 14.7804773170131227 S
atom 2.5193220859837879 0.0099522649637578 11.8447279384287132 S
atom 7.5579662579501461 0.0298567948564596 12.7681158206152414 S
atom 2.5392266158843273 5.0485964369402510 12.7681158206019933 S
atom 7.5778707878517251 5.0685009667804550 11.8447279384455033 S
atom 2.5193220859836538 0.0099522649286245 17.7186784561320465 S
atom 7.5579662579501354 0.0298567948514021 16.8019133980111164 S
atom 2.5392266158823493 5.0485964369644432 16.8019133980267412 S
atom 7.5778707878511105 5.0685009667901655 17.7186784561242945 S
atom 0.0099522649661607 2.5193220859853294 12.1064155902093020 S
atom 5.0485964368992491 2.5392266158860979 12.5007786836102373 S
atom 0.0298567948514194 7.5579662579486122 12.5007786836203980 S
atom 5.0685009668167851 7.5778707878493652 12.1064155902197346 S
atom 0.0099522649265205 2.5193220859848773 17.4752019981479663 S
atom 5.0485964369393930 2.5392266158844974 17.0421851751424036 S
atom 0.0298567948242022 7.5579662579490678 17.0421851751427376 S
atom 5.0685009668459227 7.5778707878494025 17.4752019981493056 S
atom -0.0010540218077441 0.0736309272066226 19.7376556385826554 Ba
atom 5.0396981937728151 -0.0537263973027552 19.7376556385834157 Ba
atom 0.0209585517101709 4.9650132447602537 19.7376556385865776 Ba
atom 5.0574946800563634 5.1321796290693014 19.7376556385861299 Ba
atom 0.0010540217986986 -0.0736309272113042 24.6948967462762781 Ba
atom 5.0375901501695353 0.0935354570994003 24.6948967462759050 Ba
atom 0.0188505080788611 5.1122750991738268 24.6948967462761075 Ba
atom 5.0596027236895544 4.9849177746684488 24.6948967462757167 Ba
atom 2.5292743509301356 2.5292743509285120 22.2162761924047771 Zr
atom 7.5679185228998165 2.5491788808397757 22.2162761924384959 Zr
atom 2.5491788808347366 7.5679185229019481 22.2162761924332983 Zr
atom 7.5878230528020314 7.5878230528119026 22.2162761924349148 Zr
atom 2.5285670091539969 2.5295311953619084 27.1743757889557145 Zr
atom 7.5686258646801017 2.5489220364058855 27.1743757888980042 Zr
atom 2.5498862226164820 7.5676616784732813 27.1743757889015782 Zr
atom 7.5871157110192549 7.5880798972298376 27.1743757888948245 Zr
atom 2.7216202085269980 3.0035738693216540 19.7376942285371584 S
atom 7.3755726653042819 2.0748793624472182 19.7376942287152914 S
atom 2.3568330232367303 7.0936190045059080 19.7376942286399633 S
atom 7.7801689103958918 8.0621225711977971 19.7376942286541457 S
atom 2.3369284933349634 2.0549748325347674 24.6948581562026597 S
atom 7.7602643804953289 3.0234783992259819 24.6948581562070721 S
atom 2.7415247384261945 8.0422180412862296 24.6948581562588991 S
atom 7.3954771952065972 7.1135235344146981 24.6948581562883795 S
atom 2.5193220859814254 0.0099522649213799 21.7587881621393819 S
atom 7.5579662579507785 0.0298567948206392 22.6737642227146452 S
atom 2.5392266158801129 5.0485964369575456 22.6737642227411769 S
atom 7.5778707878504248 5.0685009667984051 21.7587881621168400 S
atom 2.5193220859808938 0.0099522650042376 27.6306389868290339 S
atom 7.5579662579485474 0.0298567948633836 26.7138739287409734 S
atom 2.5392266158830177 5.0485964368800493 26.7138739287189928 S
atom 7.5778707878512384 5.0685009667943133 27.6306389868452413 S
atom 0.0099522649907090 2.5193220859811598 21.9944351166915304 S
atom 5.0485964368803131 2.5392266158818586 22.4381172681811272 S
atom 0.0298567948439832 7.5579662579534164 22.4381172681654348 S
atom 5.0685009668198351 7.5778707878539748 21.9944351166748469 S
atom 0.0099522649657730 2.5193220859776533 27.3903672097145758 S
atom 5.0485964369011622 2.5392266158791563 26.9573503867085726 S
atom 0.0298567948699253 7.5579662579494329 26.9573503867093116 S
atom 5.0685009667943675 7.5778707878494798 27.3903672097144657 S
atom -0.0027091553215312 0.0717028672540450 29.6492646579175450 Ba
atom 5.0413533272895750 -0.0517983373556430 29.6492646579174703 Ba
atom 0.0226136852289210 4.9669413047104758 29.6492646579137222 Ba
atom 5.0558395465395405 5.1302515691205883 29.6492646579139212 Ba
atom 0.0046534515869688 -0.0638535542369393 34.5973359252184594 Ba
atom 5.0339907203774112 0.0837580841506066 34.5973359252188288 Ba
atom 0.0152510783259519 5.1024977262036071 34.5973359252166617 Ba
atom 5.0632021534402964 4.9946951476153076 34.5973359252159369 Ba
atom 2.5311702251636841 2.5279309857447987 32.1334807152766828 Zr
atom 7.5660226486689721 2.5505222460252939 32.1334807152600987 Zr
atom 2.5472830066018393 7.5692618881023463 32.1334807152486732 Zr
atom 7.5897189270299696 7.5864796875994678 32.1334807152538815 Zr
atom 2.5245444169548734 2.5301849411211492 37.0950823594594894 Zr
atom 7.5726484568808070 2.5482682906417415 37.0950823594829941 Zr
atom 2.5539088148127309 7.5670079327067699 37.0950823594955423 Zr
atom 7.5830931188231485 7.5887336429940904 37.0950823595295347 Zr
atom 2.7111528619494600 3.0070911213104750 29.6520750679163569 S
atom 7.3860400118823444 2.0713621104528226 29.6520750677878944 S
atom 2.3673003698166695 7.0901017525236165 29.6520750678163338 S
atom 7.7697015638176623 8.0656398231773192 29.6520750677712108 S
atom 2.3741363861916400 2.0448400943097647 34.6082356290437190 S
atom 7.7230564876434808 3.0336131374611544 34.6082356292175461 S
atom 2.7043168455794131 8.0523527795355694 34.6082356291558497 S
atom 7.4326850880549724 7.1033887961630562 34.6082356290932083 S
atom 2.5193220859843217 0.0099522649197840 31.6644365642552366 S
atom 7.5579662579476228 0.0298567948584511 32.5878244464338636 S
atom 2.5392266158835430 5.0485964368922716 32.5878244464230775 S
atom 7.5778707878490073 5.0685009668320378 31.6644365642582670 S
atom 2.5193220859845629 0.0099522649341638 37.5404230762452684 S
atom 7.5579662579503886 0.0298567948465821 36.6303382819117900 S
atom 2.5392266158846382 5.0485964369335736 36.6303382819220715 S
atom 7.5778707878494247 5.0685009668388643 37.5404230762294375 S
atom 0.0099522648968874 2.5193220859849879 31.9317737012424274 S
atom 5.0485964369699117 2.5392266158851533 32.3261367946437801 S
atom 0.0298567948463805 7.5579662579503228 32.3261367946555112 S
atom 5.0685009668217278 7.5778707878500526 31.9317737012544143 S
atom 0.0099522649817992 2.5193220859836885 37.2342862962775598 S
atom 5.0485964368824918 2.5392266158849077 36.9314576398059415 S
atom 0.0298567948493815 7.5579662579482081 36.9314576397913186 S
atom 5.0685009668182586 7.5778707878482408 37.2342862962615584 S
atom -0.0253385998520394 0.0310498156081855 39.4944278290004434 Ba
atom 5.0639827718167121 -0.0111452857207809 39.4944278290016939 Ba
atom 0.0452431297422797 5.0075943563572869 39.4944278290012107 Ba
atom 5.0332101020253042 5.0895985174881000 39.4944278290005357 Ba
atom 0.1483464701156877 0.0118268550448444 44.1592007395196688 Ba
atom 4.8902977018480032 0.0080776748467689 44.1592007394931798 Ba
atom -0.1284419402253198 5.0268173169202708 44.1592007395157538 Ba
atom 5.2068951719920955 5.0703755569205171 44.1592007395295667 Ba
atom 2.5331021014190287 2.5411262881047336 42.1099354154138723 Zr
atom 7.5640907724166047 2.5373269436721868 42.1099354154069374 Zr
atom 2.5453511303505190 7.5560665857254099 42.1099354153993772 Zr
atom 7.5916508032844767 7.5996749899660259 42.1099354154077687 Zr
atom 2.6347471029876344 2.9875458375019996 39.5673786884350633 S
atom 7.4624457708465783 2.0909073942648928 39.5673786883899155 S
atom 2.4437061287792754 7.1096470363317970 39.5673786884626750 S
atom 7.6932958048551532 8.0460945393679442 39.5673786884804883 S
atom 2.4701634664801504 2.1833395454659685 44.5929023101472879 S
atom 7.6270294073518743 2.8951136863058737 44.5929023101326010 S
atom 2.6082897652854311 7.9138533283703625 44.5929023101117821 S
atom 7.5287121683459306 7.2418882473247743 44.5929023100924766 S
atom 2.5193220859794088 0.0099522649540581 41.6409846430277213 S
atom 7.5579662579512989 0.0298567948647544 42.4153909851671074 S
atom 2.5392266158853616 5.0485964369088157 42.4153909851611530 S
atom 7.5778707878481795 5.0685009667916940 41.6409846430366173 S
atom 0.0099522649525551 2.5193220859830201 41.8951639737287422 S
atom 5.0485964369117484 2.5392266158873373 42.0651109978757276 S
atom 0.0298567948417765 7.5579662579533347 42.0651109978718196 S
atom 5.0685009668257619 7.5778707878487204 41.8951639737284083 S
atom 2.5411012059753033 2.6776208210476646 47.6680741891348845 Ba
atom 7.5560916678492598 2.4008324107071375 47.6680741891328523 Ba
atom 2.5373520257756255 7.4195720527833782 47.6680741891438657 Ba
atom 7.5996499078516662 7.7361695229237544 47.6680741891378261 Ba
atom 2.5603241665519927 2.5039357510626550 52.3328470997027040 Ba
atom 7.5368687072835412 2.5745174806666919 52.3328470997029100 Ba
atom 2.5181290652252897 7.5932571227687298 52.3328470997022350 Ba
atom 7.6188728684145843 7.5624844529659461 52.3328470997032369 Ba
atom 5.0704006390331280 5.0623764523494499 49.7173395133144993 Zr
atom 10.0853409366639521 5.0746254812795391 49.7173395133032017 Zr
atom 5.0666012946012939 10.0933651233514166 49.7173395133359719 Zr
atom 10.1289493409076652 10.1209251542212630 49.7173395133282696 Zr
atom 5.0594592920565056 5.0538187678885222 54.7321925692702038 Zr
atom 10.0962822836443546 5.0831831657452771 54.7321925691434075 Zr
atom 5.0775426415510916 10.1019228078059591 54.7321925690622351 Zr
atom 10.1180079939086252 10.1123674697520975 54.7321925692184763 Zr
atom 4.7126138963899864 4.9994378174112697 47.2343726185453789 S
atom 10.4431276793172003 5.1375641162202728 47.2343726186485142 S
atom 5.4243880372500124 10.1563037582910809 47.2343726187126052 S
atom 9.7711625982566073 10.0579865192804547 47.2343726185995791 S
atom 5.5168201884308692 5.1640214539157441 52.2598962403756246 S
atom 9.6389213872771915 4.9729804797158339 52.2598962401870182 S
atom 4.6201817452127969 9.9917201217860079 52.2598962402969320 S
atom 10.5753688902951595 10.2225701557873201 52.2598962402460785 S
atom 5.0485964369191372 2.5392266159141785 49.9321109549285254 S
atom 10.0872406088850095 2.5591311457698382 49.7621639308103099 S
atom 5.0685009668200474 7.5778707878130129 49.7621639307851353 S
atom 10.1071451387845350 7.5977753177632863 49.9321109549517956 S
atom 5.0485964369257736 2.5392266158718710 54.5929886324048397 S
atom 10.0872406088869138 2.5591311458190575 54.8958172889074234 S
atom 5.0685009668259884 7.5778707878622180 54.8958172888784830 S
atom 10.1071451387867022 7.5977753177149312 54.5929886324349027 S
atom 2.5392266159407044 5.0485964369152549 50.1862902856342359 S
atom 7.5778707878011087 5.0685009668175178 49.4118839435190011 S
atom 2.5591311457801864 10.0872406088844073 49.4118839435062327 S
atom 7.5977753177297789 10.1071451387853859 50.1862902856146036 S
atom 2.5392266158538277 5.0485964369199916 54.2868518524409325 S
atom 7.5778707878308857 5.0685009668196521 55.1969366467611238 S
atom 2.5591311458252988 10.0872406088837163 55.1969366467871225 S
atom 7.5977753177502558 10.1071451387846292 54.2868518524676205 S
atom 2.4654207967058901 2.5339278025245044 57.2299390034725164 Ba
atom 7.6317720771354356 2.5445254292522206 57.2299390034765665 Ba
atom 2.6130324350911005 7.5632650713011431 57.2299390034722322 Ba
atom 7.5239694985493673 7.5924765043729501 57.2299390034772628 Ba
atom 2.6009772181742297 2.5265651956257265 62.1780102707698816 Ba
atom 7.4962156556619250 2.5518880361708676 62.1780102707732496 Ba
atom 2.4774760135613669 7.5706276782062973 62.1780102707710327 Ba
atom 7.6595259200711370 7.5851138974604329 62.1780102707729867 Ba
atom 5.0572053366543646 5.0604445760905667 59.6937942133249919 Zr
atom 10.0985362390191149 5.0765573575318435 59.6937942135406843 Zr
atom 5.0797965969611107 10.0952969996032529 59.6937942134380819 Zr
atom 10.1157540385225140 10.1189932779614011 59.6937942133909019 Zr
atom 5.0588055462912083 5.0578413600844643 64.6528991397258181 Zr
atom 10.0969360293974155 5.0791605735465373 64.6528991397408248 Zr
atom 5.0781963873499976 10.0979002156199389 64.6528991398683672 Zr
atom 10.1173542481803480 10.1163900619606419 64.6528991397165242 Zr
atom 4.5741144452559297 4.9034107371310283 57.2190392996372381 S
atom 10.5816271304753631 5.2335911965170556 57.2190392995191104 S
atom 5.5628874884033577 10.2523308385802512 57.2190392995124029 S
atom 9.6326631471095840 9.9619594389932633 57.2190392995253134 S
atom 5.5363654722476703 5.2404272128887612 62.1751998606939154 S
atom 9.6193761034621090 4.8965747207541899 62.1751998609843639 S
atom 4.6006364613780963 9.9153143628082265 62.1751998608395979 S
atom 10.5949141741101762 10.2989759147467783 62.1751998609575907 S
atom 5.0485964369180021 2.5392266158398726 59.8955012274695591 S
atom 10.0872406088878588 2.5591311457728749 59.5011381340304339 S
atom 5.0685009668203884 7.5778707878982745 59.5011381340695991 S
atom 10.1071451387864037 7.5977753177644773 59.8955012274356449 S
atom 5.0485964369080767 2.5392266159731998 64.4369077189816579 S
atom 10.0872406088843878 2.5591311457064929 64.8699245419904429 S
atom 5.0685009668107792 7.5778707877607694 64.8699245419863928 S
atom 10.1071451387833040 7.5977753178222862 64.4369077189881523 S
atom 2.5392266157929977 5.0485964369231020 60.1628383644448874 S
atom 7.5778707879198093 5.0685009668174565 59.2394504822725096 S
atom 2.5591311456906496 10.0872406088836133 59.2394504822743997 S
atom 7.5977753178664145 10.1071451387802220 60.1628383644494136 S
atom 2.5392266159647376 5.0485964369156795 64.1966359418804444 S
atom 7.5778707878073392 5.0685009668173322 65.1134009999858705 S
atom 2.5591311458589225 10.0872406088775630 65.1134009999504855 S
atom 7.5977753176677973 10.1071451387864411 64.1966359418475321 S
atom 2.4556434237233655 2.5303283727278116 67.1323781824208510 Ba
atom 7.6415494501043595 2.5481248590204810 67.1323781824171562 Ba
atom 2.6228098080376219 7.5668645011122484 67.1323781824204247 Ba
atom 7.5141921255951631 7.5888770746169012 67.1323781824176535 Ba
atom 2.6029052781571758 2.5282203291218810 72.0896192901135606 Ba
atom 7.4942875956711337 2.5502329026383932 72.0896192901082742 Ba
atom 2.4755479536476517 7.5689725447170542 72.0896192901137738 Ba
atom 7.6614539799832935 7.5867690310046711 72.0896192901100079 Ba
atom 5.0585487018811754 5.0585487018709152 69.6109987363969367 Zr
atom 10.0971928738476340 5.0784532317747129 69.6109987361469535 Zr
atom 5.0784532317734206 10.0971928738333574 69.6109987362518012 Zr
atom 10.1170974037535686 10.1170974037355101 69.6109987362910516 Zr
atom 5.0582918574385003 5.0592560436495493 74.5690983327005057 Zr
atom 10.0974497182655583 5.0777458899932180 74.5690983328696291 Zr
atom 5.0787100761996928 10.0964855320533964 74.5690983327056927 Zr
atom 10.1168405593057535 10.1178047455071827 74.5690983328095456 Zr
atom 4.5842491834505541 4.8662028442603606 67.1324167725465770 S
atom 10.5714923922168929 5.2707990893604402 67.1324167722773808 S
atom 5.5527527501593070 10.2895387314269353 67.1324167725273639 S
atom 9.6427978853339305 9.9247515461302527 67.1324167724259553 S
atom 5.5328482202421281 5.2508945594523935 72.0895807001479767 S
atom 9.6228933554142237 4.8861073741555821 72.0895807001645323 S
atom 4.6041537133872108 9.9048470162413036 72.0895806998935882 S
atom 10.5913969221423478 10.3094432613373019 72.0895807001452766 S
atom 5.0485964369091594 2.5392266158584991 69.8328398119907376 S
atom 10.0872406088825759 2.5591311458734087 69.3891576605159770 S
atom 5.0685009668138408 7.5778707878729561 69.3891576605020077 S
atom 10.1071451387798135 7.5977753176520713 69.8328398120094391 S
atom 5.0485964369153171 2.5392266158345449 74.3520729305373322 S
atom 10.0872406088790196 2.5591311457417136 74.7850897535174539 S
atom 5.0685009668153915 7.5778707878931133 74.7850897535447814 S
atom 10.1071451387770850 7.5977753177931744 74.3520729305095074 S
atom 2.5392266158397763 5.0485964369151581 70.0684867665502082 S
atom 7.5778707879230520 5.0685009668080943 69.1535107059414997 S
atom 2.5591311457092023 10.0872406088816078 69.1535107059616649 S
atom 7.5977753177649534 10.1071451387828795 70.0684867665595732 S
atom 2.5392266159524715 5.0485964369108016 74.1085964725342308 S
atom 7.5778707878433336 5.0685009668117553 75.0253615306382926 S
atom 2.5591311458841202 10.0872406088814071 75.0253615306640711 S
atom 7.5977753175873071 10.1071451387892139 74.1085964725461821 S
atom 2.4575714836687044 2.5319835062701226 77.0439872017419276 Ba
atom 7.6396213901697783 2.5464697255063005 77.0439872017416150 Ba
atom 2.6208817480730509 7.5652093675573004 77.0439872017446419 Ba
atom 7.5161201855640076 7.5905322081257864 77.0439872017425671 Ba
atom 2.5931279051618037 2.5246208993497761 81.9920584690490131 Ba
atom 7.5040649686723118 2.5538323324149954 81.9920584690486720 Ba
atom 2.4853253265764401 7.5725719744843962 81.9920584690471799 Ba
atom 7.6516766070587563 7.5831696012081977 81.9920584690484731 Ba
atom 5.0598920670681267 5.0566528276294500 79.5282032589954468 Zr
atom 10.0958495086395228 5.0803491059894359 79.5282032591833428 Zr
atom 5.0771098665629184 10.0990887480669773 79.5282032590941981 Zr
atom 10.1184407689122544 10.1152015295036790 79.5282032590856005 Zr
atom 5.0576381116637856 5.0632786358454602 84.4898049033655525 Zr
atom 10.0981034640127589 5.0737232977832010 84.4898049031739475 Zr
atom 5.0793638219511772 10.0924629398535775 84.4898049033123755 Zr
atom 10.1161868135371869 10.1218273377178640 84.4898049032388769 Zr
atom 4.5807319315090975 4.8766701908566530 77.0467976115705540 S
atom 10.5750096442117520 5.2603317427808225 77.0467976117620879 S
atom 5.5562700021382714 10.2790713848485122 77.0467976118708293 S
atom 9.6392806333648977 9.9352188927225988 77.0467976115833011 S
atom 5.5429829585155019 5.2136866666169510 82.0029581730339601 S
atom 9.6127586172384749 4.9233152670390554 82.0029581727530541 S
atom 4.5940189751278870 9.9420549090903911 82.0029581729037034 S
atom 10.6015316603415926 10.2722353684704277 82.0029581729296950 S
atom 5.0485964369219420 2.5392266159120309 79.7208593384644786 S
atom 10.0872406088901290 2.5591311457968118 79.3264962450993494 S
atom 5.0685009668271102 7.5778707878260851 79.3264962450704445 S
atom 10.1071451387865601 7.5977753177466658 79.7208593385035442 S
atom 5.0485964369164860 2.5392266158927486 84.3261801836292477 S
atom 10.0872406088862157 2.5591311457716506 84.6290088401429870 S
atom 5.0685009668182328 7.5778707878425742 84.6290088400957785 S
atom 10.1071451387853610 7.5977753177635003 84.3261801836672191 S
atom 2.5392266158853674 5.0485964369182348 79.9825469902682755 S
atom 7.5778707877323148 5.0685009668163969 79.0591591081055327 S
atom 2.5591311457220001 10.0872406088834730 79.0591591080909524 S
atom 7.5977753178970344 10.1071451387830873 79.9825469902514072 S
atom 2.5392266158008985 5.0485964369223630 84.0250608257733518 S
atom 7.5778707879280383 5.0685009668196308 84.9351456200967192 S
atom 2.5591311458033972 10.0872406088815918 84.9351456200892585 S
atom 7.5977753178008305 10.1071451387840252 84.0250608257696570 S
atom 2.4982245353387165 2.5546129507687656 86.8891503728350614 Ba
atom 7.5989683384947613 2.5238402809926059 86.8891503728350756 Ba
atom 2.5802286964731249 7.5425799230664685 86.8891503728339103 Ba
atom 7.5567732371616554 7.6131616526371575 86.8891503728342798 Ba
atom 2.5174474958940092 2.3809278808127283 91.5539232833507697 Ba
atom 7.5797453779353114 2.6975253509498072 91.5539232833457532 Ba
atom 2.5610057358936680 7.7162649930206149 91.5539232833558714 Ba
atom 7.5759961977371626 7.4394765826796165 91.5539232833468049 Ba
atom 5.0466967647013785 5.0547209513841089 89.5046579592494140 Zr
atom 10.1090448110019988 5.0822809822519686 89.5046579592591627 Zr
atom 5.0903051689263288 10.1010206243165364 89.5046579592494709 Zr
atom 10.1052454665600120 10.1132696532493185 89.5046579592513893 Zr
atom 4.6002772152849074 4.9530759498100148 86.9621012323136569 S
atom 10.5554643604146285 5.1839259838276179 86.9621012321817233 S
atom 5.5367247183403148 10.2026656258899173 86.9621012322148630 S
atom 9.6588259171452773 10.0116246516731984 86.9621012322894842 S
atom 5.4044835073443478 5.1176595863195287 91.9876248539339372 S
atom 9.7512580683700758 5.0193423473135459 91.9876248541398382 S
atom 4.7325184262911835 10.0380819893809026 91.9876248540029309 S
atom 10.4630322092022592 10.1762082881883895 91.9876248540604706 S
atom 5.0485964369143197 2.5392266158943086 89.4598335416930439 S
atom 10.0872406088795934 2.5591311457717505 89.2898865175252041 S
atom 5.0685009668127146 7.5778707878338283 89.2898865175501157 S
atom 10.1071451387814371 7.5977753177570477 89.4598335416721255 S
atom 2.5392266158409051 5.0485964369182206 89.8101135289771264 S
atom 7.5778707878788785 5.0685009668175303 89.0357071868316865 S
atom 2.5591311458425583 10.0872406088832332 89.0357071868338892 S
atom 7.5977753177350982 10.1071451387855227 89.8101135289783059 S
