#=======================================================
# FHI-aims file: full_relax/full_relax_RP_4_Rx1Ry20_Rx2Ry10.in
# Created using the Atomic Simulation Environment (ASE)
# Fri Mar 14 11:23:16 2025
#=======================================================
lattice_vector 10.0954310142744887 -0.0000023287126840 0.0000000000000048 
lattice_vector -0.0000023287126876 10.0954310142750163 -0.0000000000010485 
lattice_vector 0.0000000000000226 -0.0000000000049611 45.1499595387845929 
atom 0.0000023514514355 -0.1558750031268231 0.2852032553325765 Ba
atom 5.0477131556429935 0.1558738387257012 0.2852032554574305 Ba
atom -0.0000035158818227 5.2035905102786719 0.2852032554900604 Ba
atom 5.0477166942633129 4.8918393397138873 0.2852032553756844 Ba
atom 0.0000105494650526 0.0299373508665909 4.9406886917911494 Ba
atom 5.0477049576787092 -0.0299385152704947 4.9406886917797275 Ba
atom -0.0000117137887100 5.0177781562626134 4.9406886917841355 Ba
atom 5.0477248922256548 5.0776516936889076 4.9406886917890223 Ba
atom 2.5107507103664153 2.5238605065678850 2.3243964742303729 Zr
atom 7.5846791394321711 2.5238526717876648 2.3243964744337178 Zr
atom 2.5369624679613514 7.5715693433186892 2.3243964744421257 Zr
atom 7.5584650531210062 7.5715748493646204 2.3243964741232244 Zr
atom 2.5241985402078706 2.5238637663870929 7.3351142857211604 Zr
atom 7.5712313097205151 2.5238494120471247 7.3351142862395102 Zr
atom 2.5235146381463416 7.5715660835965375 7.3351142861029812 Zr
atom 7.5719128829951519 7.5715781091134824 7.3351142856373333 Zr
atom 2.8807775323076972 2.5238683735842740 -0.1561898829502582 S
atom 7.2146523175390156 2.5238448048220503 -0.1561898834238852 S
atom 2.1669356460501445 7.5715614763353107 -0.1561898832377976 S
atom 7.9284918750896889 7.5715827163805711 -0.1561898828365288 S
atom 2.0493614810756000 2.5238717121900733 4.8635292123122165 S
atom 8.0460683688686672 2.5238414662268065 4.8635292116951616 S
atom 2.9983516973525357 7.5715581377404622 4.8635292116775064 S
atom 7.0970758238164091 7.5715860549427649 4.8635292119261830 S
atom 2.5238577535016860 -0.0000005820864438 2.4580264954742552 S
atom 7.5715732606750485 -0.0000017464671034 2.4580243334857639 S
atom 2.5238565891811331 5.0477149249154198 2.4580243334395560 S
atom 7.5715720962821278 5.0477137606288123 2.4580264955322848 S
atom 2.5238577535799429 -0.0000005822319200 7.3446404785541644 S
atom 7.5715732607460531 -0.0000017462332349 7.3446782023051069 S
atom 2.5238565892261553 5.0477149248543363 7.3446782022771782 S
atom 7.5715720963870803 5.0477137603890210 7.3446404785793620 S
atom -0.0000005818950113 2.5238577535442204 2.0069566525989959 S
atom 5.0477149250423015 2.5238565892217548 2.7991171820573331 S
atom -0.0000017463414617 7.5715732607187443 2.7991171820595326 S
atom 5.0477137608330755 7.5715720963214128 2.0069566526224913 S
atom -0.0000005823566098 2.5238577535706748 7.8024055398547523 S
atom 5.0477149248380888 2.5238565892185676 6.8735205177047698 S
atom -0.0000017465729706 7.5715732607114807 6.8735205178426764 S
atom 5.0477137605739903 7.5715720963515656 7.8024055399834671 S
atom 0.0000350527447158 -0.0100955220016095 9.8152085954051973 Ba
atom 5.0476804544143370 0.0100943577493844 9.8152085953970616 Ba
atom -0.0000362170525543 5.0578110291351850 9.8152085954032557 Ba
atom 5.0477493954965746 5.0376188206717991 9.8152085953976300 Ba
atom 0.0000105494207272 0.0299373509118073 14.6897284989543309 Ba
atom 5.0477049577127140 -0.0299385153566822 14.6897284989444028 Ba
atom -0.0000117138347762 5.0177781562195563 14.6897284989578463 Ba
atom 5.0477248922569062 5.0776516937749054 14.6897284989350876 Ba
atom 2.5241985398815769 2.5238637663348911 12.2953029052555465 Zr
atom 7.5712313099351478 2.5238494120594379 12.2953029050584099 Zr
atom 2.5235146385074989 7.5715660835462542 12.2953029052025720 Zr
atom 7.5719128825814339 7.5715781091244443 12.2953029058207139 Zr
atom 2.5107507103550861 2.5238605065779778 17.3060207173823279 Zr
atom 7.5846791394395030 2.5238526717717287 17.3060207168389901 Zr
atom 2.5369624679558256 7.5715693433230484 17.3060207169118918 Zr
atom 7.5584650532559783 7.5715748493522597 17.3060207174214007 Zr
atom 3.0312332551948509 2.5238534105494494 9.8152085951108514 S
atom 7.0641965947870586 2.5238597678698889 9.8152085951154415 S
atom 2.0164799232555111 7.5715764393796823 9.8152085945891265 S
atom 8.0789475980287353 7.5715677533145440 9.8152085947268102 S
atom 2.0493614810627818 2.5238717121730061 14.7668879775734627 S
atom 8.0460683687445336 2.5238414662230535 14.7668879781096027 S
atom 2.9983516972943294 7.5715581377232484 14.7668879785376816 S
atom 7.0970758238961302 7.5715860549444312 14.7668879777295103 S
atom 2.5238577535416256 -0.0000005824473706 12.2857767125428197 S
atom 7.5715732606852315 -0.0000017463875952 12.2857389888115716 S
atom 2.5238565891872926 5.0477149252948337 12.2857389888180464 S
atom 7.5715720963267428 5.0477137604863138 12.2857767125350108 S
atom 2.5238577535094340 -0.0000005820327346 17.1723906955149417 S
atom 7.5715732606727810 -0.0000017464987833 17.1723928576085818 S
atom 2.5238565891845810 5.0477149248243016 17.1723928575495037 S
atom 7.5715720962837443 5.0477137607145801 17.1723906955653796 S
atom -0.0000005820683653 2.5238577535582385 11.8280116511780324 S
atom 5.0477149250243336 2.5238565892038785 12.7568966733251177 S
atom -0.0000017464311801 7.5715732606967059 12.7568966733267111 S
atom 5.0477137605026323 7.5715720963393833 11.8280116511172704 S
atom -0.0000005819588694 2.5238577535410145 17.6234605384147542 S
atom 5.0477149252945326 2.5238565892170777 16.8313000089575198 S
atom -0.0000017464669435 7.5715732607101618 16.8313000089911142 S
atom 5.0477137607396756 7.5715720963235489 17.6234605383890042 S
atom 0.0000023514428465 -0.1558750032457372 19.3452139357802793 Ba
atom 5.0477131556248231 0.1558738387968355 19.3452139356564210 Ba
atom -0.0000035158890808 5.2035905103845561 19.3452139356941224 Ba
atom 5.0477166942425269 4.8918393396262738 19.3452139357213007 Ba
atom 2.8807775322628855 2.5238683735919887 19.7866070728956451 S
atom 7.2146523175562258 2.5238448048251354 19.7866070732838928 S
atom 2.1669356460673557 7.5715614763360755 19.7866070731581019 S
atom 7.9284918750994713 7.5715827163726930 19.7866070724048306 S
atom 2.3679821684280298 2.5238595229324776 22.8601830252658438 Ba
atom 7.7274476814787745 2.5238536555957722 22.8601830253038649 Ba
atom 2.6797310100539948 7.5715703270643981 22.8601830252715743 Ba
atom 7.4156965111441320 7.5715738656883937 22.8601830253121534 Ba
atom 2.5537945222510627 2.5238677208129996 27.5156684610431945 Ba
atom 7.5416353276630197 2.5238454575577145 27.5156684610437097 Ba
atom 2.4939186562640674 7.5715621291083801 27.5156684610257827 Ba
atom 7.6015088649447540 7.5715820636483020 27.5156684610234272 Ba
atom 5.0477176779548065 5.0346078817678279 24.8993762438987787 Zr
atom 10.0954265147034459 5.0608196392501510 24.8993762435240633 Zr
atom 5.0477098431985707 10.1085363110054942 24.8993762436112185 Zr
atom 10.0954320207649264 10.0823222243673545 24.8993762439743378 Zr
atom 5.0477209377303600 5.0480557119138387 29.9100940561460149 Zr
atom 10.0954232549270362 5.0473718093642121 29.9100940559760282 Zr
atom 5.0477065834533157 10.0950884813784239 29.9100940563086901 Zr
atom 10.0954352805588226 10.0957700543722879 29.9100940572537901 Zr
atom 5.0477255449669549 5.4046347036909967 22.4187898846716855 S
atom 10.0954186477135277 4.6907928173995028 22.4187898852750926 S
atom 5.0477019762084128 9.7385094889770869 22.4187898853579313 S
atom 10.0954398877632610 10.4523490464440947 22.4187898841692252 S
atom 5.0477288835605325 4.5732186525567897 27.4385089825052475 S
atom 10.0954153091113987 5.5222088687043192 27.4385089809258425 S
atom 5.0476986376417070 10.5699255406057215 27.4385089802847730 S
atom 10.0954432263476530 9.6209329948777587 27.4385089825206272 S
atom 5.0477149249664777 2.5238565895913299 24.5819364220832419 S
atom 10.0954304320758013 2.5238554249967939 25.3740969518183164 S
atom 5.0477137605785529 7.5715720956808248 25.3740969518126214 S
atom 10.0954292677398669 7.5715709325786795 24.5819364220557937 S
atom 5.0477149249576367 2.5238565885998909 30.3773853090813155 S
atom 10.0954304320909571 2.5238554257327448 29.4485002870033341 S
atom 5.0477137606010603 7.5715720951371290 29.4485002869806110 S
atom 10.0954292677365061 7.5715709325674290 30.3773853090262165 S
atom 2.5238565893193137 5.0477149249588633 25.0330062650782743 S
atom 7.5715720963239130 5.0477137605790405 25.0330041030440107 S
atom 2.5238554246758134 10.0954304320828978 25.0330041030662542 S
atom 7.5715709322177283 10.0954292677505677 25.0330062651116982 S
atom 2.5238565888603155 5.0477149249695055 29.9196202476261455 S
atom 7.5715720967830489 5.0477137606114448 29.9196579713468829 S
atom 2.5238554256457149 10.0954304321004020 29.9196579717336419 S
atom 7.5715709311347936 10.0954292677461321 29.9196202480089752 S
atom 2.5137616491971531 2.5238922240793977 32.3901883648129072 Ba
atom 7.5816682007228335 2.5238209542853594 32.3901883648124667 Ba
atom 2.5339515291185548 7.5715376257642468 32.3901883648096174 Ba
atom 7.5614759920873436 7.5716065668472607 32.3901883648108750 Ba
atom 2.5537945223348832 2.5238677208638234 37.2647082685064959 Ba
atom 7.5416353275806340 2.5238454576075067 37.2647082685037034 Ba
atom 2.4939186560815951 7.5715621290130857 37.2647082685114768 Ba
atom 7.6015088651275287 7.5715820635553337 37.2647082685168911 Ba
atom 5.0477209377265408 5.0480557112581348 34.8702826733255051 Zr
atom 10.0954232549438139 5.0473718100302882 34.8702826747998387 Zr
atom 5.0477065834441230 10.0950884813461776 34.8702826745605066 Zr
atom 10.0954352805211993 10.0957700538917194 34.8702826734663347 Zr
atom 5.0477176779889765 5.0346078818477560 39.8810004864900947 Zr
atom 10.0954265146919226 5.0608196392126592 39.8810004866667498 Zr
atom 5.0477098432238794 10.1085363109997708 39.8810004865116241 Zr
atom 10.0954320207689303 10.0823222245041926 39.8810004865581007 Zr
atom 5.0477105819184693 5.5550904264078662 32.3901883643254678 S
atom 10.0954336107518738 4.5403370945652872 32.3901883653418210 S
atom 5.0477169392759507 9.5880537663610319 32.3901883645763604 S
atom 10.0954249247097430 10.6028047688490918 32.3901883622928537 S
atom 5.0477288835661138 4.5732186523238578 37.3418677476175702 S
atom 10.0954153091134433 5.5222088686308215 37.3418677453523173 S
atom 5.0476986376309467 10.5699255401838705 37.3418677466176163 S
atom 10.0954432263483938 9.6209329951386735 37.3418677472951401 S
atom 5.0477149249504425 2.5238565893231377 34.4029914206659484 S
atom 10.0954304320871024 2.5238554243308147 35.3318764430014696 S
atom 5.0477137605931945 7.5715720971062650 35.3318764427555081 S
atom 10.0954292677282584 7.5715709331716488 34.4029914209168055 S
atom 5.0477149249496671 2.5238565891971683 40.1984403077879477 S
atom 10.0954304320833099 2.5238554252107450 39.4062797781979697 S
atom 5.0477137605940259 7.5715720958444406 39.4062797780967173 S
atom 10.0954292677481323 7.5715709321383464 40.1984403079594586 S
atom 2.5238565897088376 5.0477149248280915 34.8607564820173224 S
atom 7.5715720959144548 5.0477137604719706 34.8607187582972102 S
atom 2.5238554243587763 10.0954304319175776 34.8607187584569900 S
atom 7.5715709325325653 10.0954292675609842 34.8607564821801290 S
atom 2.5238565886876367 5.0477149249078739 39.7473704649387898 S
atom 7.5715720969086684 5.0477137605397111 39.7473726269673193 S
atom 2.5238554250558529 10.0954304320674737 39.7473726268590113 S
atom 7.5715709317765860 10.0954292677233823 39.7473704648155746 S
atom 2.3679821682695659 2.5238595229199356 41.9201937044952686 Ba
atom 7.7274476816472308 2.5238536555862656 41.9201937045761426 Ba
atom 2.6797310101419045 7.5715703270434576 41.9201937045303481 Ba
atom 7.4156965110594193 7.5715738656647655 41.9201937045304334 Ba
atom 5.0477255449720051 5.4046347037332696 42.3615868435971095 S
atom 10.0954186477147267 4.6907928174709612 42.3615868427680979 S
atom 5.0477019762183648 9.7385094890358186 42.3615868431075882 S
atom 10.0954398877612928 10.4523490464352058 42.3615868437724359 S
