#=======================================================
# FHI-aims file: full_relax/full_relax_RP_1_RxRyMz_RxRy0.in
# Created using the Atomic Simulation Environment (ASE)
# Fri Mar 14 11:17:18 2025
#=======================================================
lattice_vector 10.0578028636128387 0.1251372971404154 -0.0001780207078094 
lattice_vector 0.1251372971404063 10.0578028636130608 0.0001780205765051 
lattice_vector 0.0004760096956102 -0.0004760099146185 15.6289979898903830 
atom -0.0908098339734261 -0.0908407356285885 0.2364349691079429 Ba
atom 5.1197421798892355 0.1533784795975266 0.2363459758538777 Ba
atom 0.1534093913447531 5.1197112537301530 0.2365240319938329 Ba
atom 5.0006602493140404 5.0006293378618745 0.2364349854115666 Ba
atom 0.0909585632740254 0.0906919776267668 4.6476269062328255 Ba
atom 4.9382094607386042 -0.0283899292767581 4.6475378659879434 Ba
atom -0.0281233294719428 4.9379428619103436 4.6477158742333078 Ba
atom 5.1824286529129235 5.1821620647326769 4.6476268838286412 Ba
atom 2.5458094509082523 2.5456607476527533 2.4420309722045128 Zr
atom 7.5747108116098829 2.6082292614853526 2.4419419673462341 Zr
atom 2.6083780670054626 7.5745619571506815 2.4421199919941889 Zr
atom 7.6372794950963057 7.6371307344501735 2.4420309847742629 Zr
atom 2.6910197335882695 2.6909169172552252 -0.0990234207734070 S
atom 7.4294545824752110 2.4630189884895732 -0.0991123644029286 S
atom 2.4631217983162990 7.4293517857637390 -0.0989343788572797 S
atom 7.7824898165545244 7.7823870093532790 -0.0990233952900816 S
atom 2.4005991004750280 2.4004043786357996 4.9830852115509758 S
atom 7.7199671114019397 2.7534396164837682 4.9829961445147797 S
atom 2.7536343340564788 7.7197724159763084 4.9831742428087908 S
atom 7.4920691770917589 7.4918744689193497 4.9830852431086283 S
atom 2.5144938816859552 0.0312144039952464 2.2904369206097503 S
atom 7.5434577376384730 0.0937742619775547 2.5934469191145402 S
atom 2.5771249501433529 5.0601070317402090 2.5936249405406340 S
atom 7.6059639661678089 5.1226844748659790 2.2904369208883151 S
atom 0.0313543334755452 2.5144075196626492 2.2905259375720131 S
atom 5.0602645059551987 2.5769137624316500 2.5935359375789178 S
atom 0.0939317444129222 7.5432465624900500 2.5937139453806131 S
atom 5.1228243781267579 7.6058776160701038 2.2905259272048304 S
atom 2.4552149750628125 2.4546647119924900 8.0509175526260606 Ba
atom 7.6657067895588948 2.6988237712949745 8.0508285652215239 Ba
atom 2.6993739871073039 7.6651565510792468 8.0510065628929848 Ba
atom 7.5466850748078036 7.5461347897888835 8.0509175555726546 Ba
atom 2.6368798904226498 2.6361805938358014 12.4621423232057698 Ba
atom 7.4841908965184736 2.5171588636469959 12.4620532780777893 Ba
atom 2.5178581144057337 7.4834916433561709 12.4622312993967004 Ba
atom 7.7283499682139922 7.7276506670838714 12.4621422743788930 Ba
atom 5.0917825060929252 5.0911576683498563 10.2565299037128490 Zr
atom 10.1206837495620636 5.1537264905189719 10.2564408655252013 Zr
atom 5.1543510883527537 10.1200591853983202 10.2566189072166090 Zr
atom 10.1832525368044049 10.1826275925468845 10.2565298632198818 Zr
atom 5.2368704061667977 5.2364113897641982 7.7154624446970175 S
atom 9.9754302126065699 5.0086383626075897 7.7153735546561331 S
atom 5.0090974265535646 9.9749711627769653 7.7155514984752891 S
atom 10.3283405091214231 10.3278814742255918 7.7154624404355534 S
atom 4.9466944687878662 4.9459040185612411 12.7975974687258010 S
atom 10.2659375756561815 5.2988142938726162 12.7975083521900679 S
atom 5.2996047934899604 10.2651470984663415 12.7976864548127036 S
atom 10.0381645671832747 10.0373741030278278 12.7975975090122098 S
atom 5.0605713087018804 2.5767123148657456 10.1050181887829460 S
atom 10.0893263671855440 2.6392703447718211 10.4078636559592628 S
atom 5.1229935682664189 7.6056030332246545 10.4080416681344179 S
atom 10.1520414034814728 7.6681824293162402 10.1050182021035813 S
atom 2.5773265512525581 5.0598001634439971 10.1051072024053656 S
atom 7.6062385674594601 5.1225152174967929 10.4079526576029942 S
atom 2.6399057624979392 10.0888480148692903 10.4081306773575477 S
atom 7.6687965068678459 10.1512702606780518 10.1051071992966559 S
