#=======================================================
# FHI-aims file: full_relax/full_relax_RP_5_RxRyMz_RxRy0.in
# Created using the Atomic Simulation Environment (ASE)
# Fri Mar 14 11:36:25 2025
#=======================================================
lattice_vector 10.0134781019983983 -0.0600446921457562 0.0000183648803228 
lattice_vector -0.0600446921457565 10.0134781019986630 -0.0000183648803243 
lattice_vector 0.0002144971030551 -0.0002144971030641 55.8954934453939885 
atom 0.0889638974762713 -0.1797280876319654 0.2209340621248368 Ba
atom 5.1864671386314969 -0.1189862435518013 0.2209432445660572 Ba
atom 0.1497057415579498 4.9177751535197096 0.2209248796713212 Ba
atom 5.0656806024035976 4.7969886172926799 0.2209340621208402 Ba
atom -0.2620485234144362 0.1862471422847742 5.0046623181153889 Ba
atom 4.8204919087110776 0.2320261773393404 5.0046715005555882 Ba
atom -0.2162694883619851 5.2687875744138601 5.0046531356755457 Ba
atom 4.7146681815126437 5.1629638472137627 5.0046623181156713 Ba
atom 2.4869729762220141 2.4788770228003019 2.4025116107784434 Zr
atom 7.5045787331298133 2.4597213826288473 2.4025207932177124 Zr
atom 2.4678173360576050 7.4964827797023350 2.4025024283432748 Zr
atom 7.4636896811499609 7.4555937277257076 2.4025116107836673 Zr
atom 2.4810811479640482 2.4927089547118531 7.4589717010417615 Zr
atom 7.4907468012110394 2.4656132108867794 7.4589808834907503 Zr
atom 2.4539854041382396 7.5023746079596103 7.4589625186112407 Zr
atom 7.4577978528907360 7.4694256596382349 7.4589717010380507 Zr
atom 2.6133986941084175 2.7007277570190431 -0.1040619996953180 S
atom 7.2827279989045755 2.3332956647445262 -0.1040528172382778 S
atom 2.2459666018345255 7.3700570618191543 -0.1040711821164539 S
atom 7.5901153990332695 7.6774444619473359 -0.1040619996949066 S
atom 2.2376238843576246 2.1914818438024692 4.9630372404042093 S
atom 7.7919739121207074 2.7090704744936649 4.9630464228225417 S
atom 2.7552125150492883 7.7458318715665468 4.9630280579262696 S
atom 7.2143405892835872 7.1681985487278075 4.9630372403950345 S
atom 2.7948745332445122 -0.0096545746282003 2.2465551031079007 S
atom 7.1939876318150215 -0.0367372448495403 2.7552883025766497 S
atom 2.1572262347436544 5.0000241522290869 2.7552699376965357 S
atom 7.7715912381701395 4.9670621303073776 2.2465551031085091 S
atom 2.8947204328593532 -0.0148338824233835 7.7828475530449328 S
atom 7.1252253519538327 -0.0414077392499870 7.1651048957311287 S
atom 2.0884639548824113 4.9953536578024202 7.1650865308508251 S
atom 7.8714371377858932 4.9618828224840543 7.7828475530447481 S
atom -0.0203677715041563 2.2118645177560445 2.2465459206676353 S
atom 4.9834316037413746 2.7894681241087089 2.7552791201374500 S
atom -0.0533297933248536 7.8262295211801192 2.7552607552565069 S
atom 4.9563489334145672 7.1885812226833163 2.2465459206682885 S
atom -0.0151884636393881 2.1120186181387841 7.7828383706044075 S
atom 4.9881020981093815 2.8582304039688551 7.1650957132916151 S
atom -0.0486592989634732 7.8949918010426829 7.1650773484096266 S
atom 4.9615282412878861 7.0887353230632710 7.7828383706051918 S
atom 0.2783177253225862 -0.1824812129043409 9.9788470033793963 Ba
atom 5.1892202639007250 -0.3083400713971387 9.9788561858198452 Ba
atom 0.1524588668291814 4.7284213256761207 9.9788378209399689 Ba
atom 5.2550344302483376 4.7942354920231214 9.9788470033802632 Ba
atom -0.2782219676881761 0.1823854552716084 14.9744982847628378 Ba
atom 4.8243535957290042 0.2481996216172415 14.9745074672028728 Ba
atom -0.2124078013406043 5.2849610186822567 14.9744891023229041 Ba
atom 4.6984947372364312 5.1591021601904536 14.9744982847630990 Ba
atom 2.4884062312823576 2.4883104736450017 12.4766726440951743 Zr
atom 7.4951452822781919 2.4582881275716071 12.4766818265362573 Zr
atom 2.4583838852076094 7.4950495246417317 12.4766634616444012 Zr
atom 7.4651229362065550 7.4650271785721767 12.4766726440794251 Zr
atom 2.4957313145987117 2.4839119925778488 17.4943735870606432 Zr
atom 7.4995437633462823 2.4509630442566190 17.4943827694958536 Zr
atom 2.4627823662754236 7.4877244413247581 17.4943644046299731 Zr
atom 7.4724480195229157 7.4606286975034282 17.4943735870801831 Zr
atom 2.7526355039280404 2.8168786208148098 9.9731654680226622 S
atom 7.1665771351090051 2.1940588549237487 9.9731746504645820 S
atom 2.1298157380367080 7.2308202519962457 9.9731562856039240 S
atom 7.7293522088540447 7.7935953257410144 9.9731654680454120 S
atom 2.2241769586341453 2.1597423264746953 14.9801798200981207 S
atom 7.8237134294490165 2.7225174002179546 14.9801890025312812 S
atom 2.7869520323765018 7.7592787972897588 14.9801706376440542 S
atom 7.2008936635607945 7.1364590314035121 14.9801798200949960 S
atom 2.8861500533187430 -0.0166199358594337 12.1593009949651236 S
atom 7.1274238063152797 -0.0435205139448172 12.7940626580478742 S
atom 2.0906624092416926 4.9932408831494666 12.7940442931676301 S
atom 7.8628667582446390 4.9600967690876088 12.1593009949652728 S
atom 2.8883485076796691 -0.0187327105202979 17.7882587572954201 S
atom 7.1188534267732857 -0.0453065673639882 17.1705160999785527 S
atom 2.0820920296998060 4.9914548297202472 17.1704977350979142 S
atom 7.8650652126052920 4.9579839944167015 17.7882587572946740 S
atom -0.0134024102253361 2.1205889976778796 12.1592918125238310 S
atom 4.9902148727852529 2.8560319496101889 12.7940534756079245 S
atom -0.0465465242904211 7.8927933466808025 12.7940351107273464 S
atom 4.9633142947044924 7.0973057026066027 12.1592918125261260 S
atom -0.0112896355443580 2.1183905433168131 17.7882495748558824 S
atom 4.9920009261946401 2.8646023291519471 17.1705069175383720 S
atom -0.0447604708846208 7.9013637262238028 17.1704885526575666 S
atom 4.9654270693891975 7.0951072482448696 17.7882495748541700 S
atom 0.2621442810484889 -0.1863428999242877 19.9486829700172947 Ba
atom 5.1930819509202459 -0.2921666271248894 19.9486921524568075 Ba
atom 0.1563205538483048 4.7445947699504813 19.9486737875773770 Ba
atom 5.2388609859747550 4.7903738050051867 19.9486829700168116 Ba
atom -0.0888681398437207 0.1796323299950555 24.7324112260233626 Ba
atom 4.8271067210015302 0.0588457937670051 24.7324204084787809 Ba
atom -0.2096546760722114 5.0956071908424843 24.7324020435779950 Ba
atom 4.8878485650838313 5.1563490349241832 24.7324112260209681 Ba
atom 2.4898394863358631 2.4977439244934256 22.5508336773683844 Zr
atom 7.4857118314328828 2.4568548725165456 22.5508428598078687 Zr
atom 2.4489504343565947 7.4936162695829598 22.5508244949234218 Zr
atom 7.4665561912652167 7.4744606294113209 22.5508336773687716 Zr
atom 2.7391885782038798 2.7851391034870558 19.9903080477773045 S
atom 7.1983166524362145 2.2075057806472396 19.9903172302358882 S
atom 2.1615552553639055 7.2442671777205261 19.9902988653451246 S
atom 7.7159052831296497 7.7618558084140679 19.9903080477560273 S
atom 2.3634137684532099 2.2758931902713022 25.0574072878138558 S
atom 7.7075625656532285 2.5832805903973761 25.0574164702434388 S
atom 2.6708011685806325 7.6200419874695404 25.0573981053711954 S
atom 7.3401304733804098 7.2526098951953246 25.0574072878199772 S
atom 2.8195862278174264 -0.0234032049177593 22.1980753504421955 S
atom 7.2186993263880668 -0.0504858751583870 22.7068085499081711 S
atom 2.1819379293177281 4.9862755218899073 22.7067901850281793 S
atom 7.7963029327429769 4.9533134999891439 22.1980753504426360 S
atom -0.0066191411730364 2.1871528231812509 22.1980661680016169 S
atom 4.9971802340540084 2.7647564295309830 22.7067993674674824 S
atom -0.0395811630126492 7.8015178266057852 22.7067810025889649 S
atom 4.9700975637490838 7.1638695281071154 22.1980661680017555 S
atom 2.3087808868775466 2.5772352401184886 28.1686787301198436 Ba
atom 7.4062205157882870 2.6379134719708643 28.1686879125662735 Ba
atom 2.3694591187318257 7.6746748690661857 28.1686695476816844 Ba
atom 7.2854975917850933 7.5539519450646679 28.1686787301256025 Ba
atom 2.6747480366904735 2.2262001109832292 32.9524252628476404 Ba
atom 7.7572556449118890 2.2719463221714453 32.9524344452852205 Ba
atom 2.7204942478589169 7.3087077192584520 32.9524160804109130 Ba
atom 7.6514647415972492 7.2029168159259873 32.9524252628504257 Ba
atom 4.9673720464597118 4.9752111586871717 30.3502674343120873 Zr
atom 9.9849613021522590 4.9560390173393234 30.3502766167895182 Zr
atom 4.9481999050984324 9.9928004143887623 30.3502582519193318 Zr
atom 9.9440887513469516 9.9519278636157527 30.3502674343027294 Zr
atom 4.9811866845260484 4.9693377080753525 35.4067291896368417 Zr
atom 9.9908347527893344 4.9422243792668352 35.4067383720701017 Zr
atom 4.9540733557156571 9.9789857763348362 35.4067200070117210 Zr
atom 9.9579033894614177 9.9460544129760748 35.4067291896280310 Zr
atom 5.1892111123529823 5.1016368278886031 27.8436973206967231 S
atom 9.8585356329574303 4.7341999514244604 27.8437065031220037 S
atom 4.8217742358739146 9.7709613484846400 27.8436881381373595 S
atom 10.1659278172787140 10.0783535328219891 27.8436973206906728 S
atom 4.6799895889656566 4.7258593523397616 32.9107906303152475 S
atom 10.2343131085165577 5.2434214748212264 32.9107998126506089 S
atom 5.1975517114392993 10.2801828718943185 32.9107814480031138 S
atom 9.6567062938948833 9.7025760572699511 32.9107906303450406 S
atom 4.7003262125586502 2.4678492663168878 30.1943321942399727 S
atom 10.3147801831328589 2.4348898576436282 30.7030510494686446 S
atom 5.2780187860681318 7.4716512545615679 30.7030326845874804 S
atom 9.6770429175079098 7.4445659710498306 30.1943321942539704 S
atom 4.6005224564934890 2.4730406665331945 35.7305659388731414 S
atom 10.3834828363614164 2.4395721438317022 35.1128899712910467 S
atom 5.3467214392819677 7.4763335410026741 35.1128716064208390 S
atom 9.5772391614099579 7.4497573715649690 35.7305659388712797 S
atom 2.4788450927162673 5.2831295433427110 30.1943230118136619 S
atom 7.4885212061366397 4.6453922777189289 30.7030418670277463 S
atom 2.4517598089313362 9.6821536747787835 30.7030235021504119 S
atom 7.4555617978089597 10.2598462482766184 30.1943230118003925 S
atom 2.4736536924532229 5.3829332994343684 35.7305567564316604 S
atom 7.4838389197026336 4.5766896244923725 35.1128807888490542 S
atom 2.4470775226910289 9.6134510215767008 35.1128624239821150 S
atom 7.4503703973134057 10.3596500043572082 35.7305567564329039 S
atom 2.3060291485088849 2.7665098443838465 37.9265614068189123 Ba
atom 7.2169459115696100 2.6406652103473349 37.9265705892604359 Ba
atom 2.1801845144672334 7.6774266073816246 37.9265522243806004 Ba
atom 7.2827458534709084 7.7432265492718839 37.9265614068183083 Ba
atom 2.6709978111438737 2.2098966058089933 42.9222773267196587 Ba
atom 7.7735591501024031 2.2756965476954636 42.9222865091581198 Ba
atom 2.7367977530443124 7.3124579447953320 42.9222681442756695 Ba
atom 7.6477145160532354 7.1866133107630334 42.9222773267172855 Ba
atom 4.9768718322860979 4.9765615775669847 40.4244193667748704 Zr
atom 9.9836108832965333 4.9465392314776064 40.4244285491129247 Zr
atom 4.9468494862170251 9.9833006285560035 40.4244101844180079 Zr
atom 9.9535885372265032 9.9532782824721817 40.4244193668079390 Zr
atom 4.9725569800620670 4.9837854470549265 45.4421095439062768 Zr
atom 9.9763870137974191 4.9508540837023984 45.4421187264587303 Zr
atom 4.9396256167263335 9.9876154807750623 45.4421003614970971 Zr
atom 9.9492736849861210 9.9605021519712515 45.4421095438743095 Zr
atom 5.3053904452799188 5.2408204572948538 37.9209156535827034 S
atom 9.7193520035587255 4.6180206184954340 37.9209248362457316 S
atom 4.6825906064872314 9.6547820155795883 37.9209064713252459 S
atom 10.2821071502088426 10.2175371622191520 37.9209156535538483 S
atom 4.6483532193069532 4.7123026978187283 42.9279230799320075 S
atom 10.2478697630281221 5.2750578444592886 42.9279322622899002 S
atom 5.2111083659536828 10.3118192415372896 42.9279138972523242 S
atom 9.6250699242328288 9.6890194027439858 42.9279230799227705 S
atom 4.6090867515808256 2.4747599811131389 40.1070651716483795 S
atom 10.3814183100862305 2.4416017768899625 40.7417919267666306 S
atom 5.3446569130113186 7.4783631739932686 40.7417735618767622 S
atom 9.5858034564974233 7.4514766860829358 40.1070651716512714 S
atom 4.6070222252991622 2.4767896141615191 45.7359671271274451 S
atom 10.3899826051665727 2.4433210915719039 45.1182911595454215 S
atom 5.3532212081056105 7.4800824885208650 45.1182727946630635 S
atom 9.5837389302370664 7.4535063189665323 45.7359671271180233 S
atom 2.4719343774896765 5.3743690043539081 40.1070559892129168 S
atom 7.4818092871041388 4.5787541507545919 40.7417827443278782 S
atom 2.4450478900827899 9.6155155478324712 40.7417643794358284 S
atom 7.4486510823581273 10.3510857092818842 40.1070559892055201 S
atom 2.4699047447548712 5.3764335306115258 45.7359579446760449 S
atom 7.4800899722693730 4.5701898556824290 45.1182819771055676 S
atom 2.4433285751101641 9.6069512527459953 45.1182636122229397 S
atom 7.4466214497690180 10.3531502355474903 45.7359579446890976 S
atom 2.3022789229856504 2.7502063391938520 47.8964134706824609 Ba
atom 7.2332494167376780 2.6444154358635790 47.8964226531241337 Ba
atom 2.1964880196664218 7.6811768329328753 47.8964042882401415 Ba
atom 7.2789956279099286 7.7269230441166661 47.8964134706808835 Ba
atom 2.6682460727882233 2.3991712100672609 52.6801600034183082 Ba
atom 7.5842845458708963 2.2784482860679551 52.6801691858518666 Ba
atom 2.5475231487873509 7.3152096831189466 52.6801508209741911 Ba
atom 7.6449627777276188 7.3758879149750136 52.6801600034127517 Ba
atom 4.9863716181630346 4.9779119964211906 50.4985712992156195 Zr
atom 9.9822604644180082 4.9370394456465974 50.4985804816481263 Zr
atom 4.9454990673640422 9.9738008427002516 50.4985621167341705 Zr
atom 9.9630883230574518 9.9546287013543182 50.4985712992150582 Zr
atom 5.2737540756259564 5.2272638027710334 47.9380481032140011 S
atom 9.7329086580784541 4.6496569881501078 47.9380572855481475 S
atom 4.6961472610000010 9.6864183852174381 47.9380389208671147 S
atom 10.2504707805528739 10.2039805077012851 47.9380481032595540 S
atom 4.7645325522344333 4.8514863272161390 53.0051414128568439 S
atom 10.1086861336382885 5.1588785115513698 53.0051505953564330 S
atom 5.0719247365593221 10.1956399086145382 53.0051322304188588 S
atom 9.7412492571625506 9.8282030321483091 53.0051414128376024 S
atom 4.6757248785266130 2.4814719003890957 50.1458060489476694 S
atom 10.2901788490971899 2.4485124917706673 50.6545249041700529 S
atom 5.2534174520095460 7.4852738889982158 50.6545065392830907 S
atom 9.6524415834510826 7.4581886054360966 50.1458060489462625 S
atom 2.4652224585293609 5.3077308774039835 50.1457968665039431 S
atom 7.4748985717748155 4.6699936117625152 50.6545157217314213 S
atom 2.4381371747907985 9.7067550088409096 50.6544973568413397 S
atom 7.4419391633877625 10.2844475823195385 50.1457968665083200 S
