#=======================================================
# FHI-aims file: full_relax/full_relax_RP_3_Rx1Ry20_Rx2Ry10.in
# Created using the Atomic Simulation Environment (ASE)
# Fri Mar 14 11:19:19 2025
#=======================================================
lattice_vector 10.0942763659880725 -0.0000023706235731 -0.0000000000000126 
lattice_vector -0.0000023706235720 10.0942763659874011 0.0000000000000163 
lattice_vector -0.0000000000000464 0.0000000000000601 35.3517138093237762 
atom -0.0000002725461283 -0.1711033079951724 0.2938548140951514 Ba
atom 5.0471384555397707 0.1711021226862284 0.2938548140843723 Ba
atom -0.0000009127663894 5.2182414909899064 0.2938548140850250 Ba
atom 5.0471367251365491 4.8760336896829397 0.2938548140827681 Ba
atom -0.0000034748411388 0.0278207793913648 4.9475401126251990 Ba
atom 5.0471416578345449 -0.0278219647034357 4.9475401126242700 Ba
atom 0.0000022895272531 5.0193174036021881 4.9475401126252754 Ba
atom 5.0471335228423140 5.0749577770731218 4.9475401126238934 Ba
atom 2.5004535543491313 2.5235650658929143 2.3490317495135931 Zr
atom 7.5938216263267106 2.5235707464825072 2.3490317495161701 Zr
atom 2.5466822580288344 7.5707101147839220 2.3490317495170494 Zr
atom 7.5475905520230544 7.5707020635716153 2.3490317495217798 Zr
atom 2.5235684988346661 2.5235684988424305 7.3649403769420818 Zr
atom 7.5707066818354205 2.5235673135304633 7.3649403769351256 Zr
atom 2.5235673135244547 7.5707066818365361 7.3649403769376613 Zr
atom 7.5707054965220850 7.5707054965242726 7.3649403769499697 Zr
atom 2.8125978366037510 2.5235516851953106 -0.1306325619808824 S
atom 7.2816773440716203 2.5235841271758530 -0.1306325619743282 S
atom 2.2345379757698840 7.5707234954780755 -0.1306325619824790 S
atom 7.8597348342832660 7.5706886828741107 -0.1306325619884491 S
atom 2.0578092494980003 2.5235350302441377 4.8871708658010009 S
atom 8.0364659311757976 2.5236007821269184 4.8871708657749497 S
atom 2.9893265628685102 7.5707401504330649 4.8871708657941353 S
atom 7.1049462471795888 7.5706720279265607 4.8871708657850714 S
atom 2.5235690914983153 -0.0000005926614361 2.4796266221914922 S
atom 7.5707072744906263 -0.0000017779663597 2.4796879061422263 S
atom 2.5235679061848666 5.0471375903405127 2.4796879061388211 S
atom 7.5707060891805549 5.0471364050198959 2.4796266221927543 S
atom 2.5235690914939699 -0.0000005926602619 7.3649631400841455 S
atom 7.5707072744873365 -0.0000017779668173 7.3649176137980144 S
atom 2.5235679061821701 5.0471375903340450 7.3649176137944776 S
atom 7.5707060891755971 5.0471364050183727 7.3649631400886770 S
atom -0.0000005926432413 2.5235690914976829 2.0438766240302662 S
atom 5.0471375903230653 2.5235679061847005 2.7829848631607366 S
atom -0.0000017779704098 7.5707072744898545 2.7829848631638745 S
atom 5.0471364050258600 7.5707060891797999 2.0438766240309394 S
atom -0.0000005926516311 2.5235690914979014 7.8162018729606535 S
atom 5.0471375903502143 2.5235679061857432 6.9136788809205756 S
atom -0.0000017779565749 7.5707072744912054 6.9136788809206884 S
atom 5.0471364050350882 7.5707060891796294 7.8162018729612122 S
atom 0.0000034748399115 -0.0278207793937643 9.7823406412689611 Ba
atom 5.0471347081529210 0.0278195940791045 9.7823406412691067 Ba
atom -0.0000046601523413 5.0749589623874645 9.7823406412687071 Ba
atom 5.0471404725217335 5.0193162182902400 9.7823406412686023 Ba
atom 0.0000002725450168 0.1711033079966059 14.4360259397772364 Ba
atom 5.0471379104485123 -0.1711044933088394 14.4360259397707384 Ba
atom -0.0000014578584586 4.8760348749980631 14.4360259397677897 Ba
atom 5.0471372702282959 5.2182403056775826 14.4360259397688893 Ba
atom 2.5466834433385159 2.5235719317874827 12.3808490043803179 Zr
atom 7.5475917373407784 2.5235638805767500 12.3808490043854746 Zr
atom 2.5004523690293943 7.5707032488867556 12.3808490043793196 Zr
atom 7.5938204410235901 7.5707089294760097 12.3808490043824442 Zr
atom 2.9893277481822746 2.5236019674389238 9.8427098881089847 S
atom 7.1049474324906825 2.5235338449325222 9.8427098881204422 S
atom 2.0578080641861365 7.5706732132372814 9.8427098881171826 S
atom 8.0364647458619221 7.5707389651205110 9.8427098880996837 S
atom 2.2345391610841925 2.5235853124845486 14.8605133158695466 S
atom 7.8597360195928756 2.5235504998808813 14.8605133158710192 S
atom 2.8125966512829264 7.5706898681891479 14.8605133158707048 S
atom 7.2816761587702343 7.5707223101697272 14.8605133158648286 S
atom 2.5235690914961060 -0.0000005926603052 12.2501928477463551 S
atom 7.5707072744911326 -0.0000017779678888 12.2502541316952858 S
atom 2.5235679061853098 5.0471375903440299 12.2502541316936089 S
atom 7.5707060891782882 5.0471364050235312 12.2501928477452502 S
atom -0.0000005926517361 2.5235690914961366 11.9468958907221481 S
atom 5.0471375903283402 2.5235679061852423 12.6860041298573272 S
atom -0.0000017779759675 7.5707072744903305 12.6860041298597341 S
atom 5.0471364050316900 7.5707060891781035 11.9468958907217093 S
atom 2.3524651908472336 2.5235682262985240 17.9697117187685507 Ba
atom 7.7418099898287336 2.5235675860783049 17.9697117187665327 Ba
atom 2.6946706215306815 7.5707069543779495 17.9697117187654243 Ba
atom 7.3996021885216319 7.5707052239744446 17.9697117187663835 Ba
atom 2.5513892782417673 2.5235650240048355 22.6233970172857966 Ba
atom 7.5428859024336337 2.5235707883733567 22.6233970172860914 Ba
atom 2.4957465341406571 7.5707101566696489 22.6233970172845140 Ba
atom 7.5985262759116710 7.5707020216775174 22.6233970172848586 Ba
atom 5.0471335647298856 5.0240220531873643 20.0248886541994970 Zr
atom 10.0942786136251641 5.0702507568678366 20.0248886541945090 Zr
atom 5.0471392453182871 10.1173901251728964 20.0248886541931341 Zr
atom 10.0942705624138416 10.0711590508657363 20.0248886541995184 Zr
atom 5.0471369976818519 5.0471369976868701 25.0407972815235986 Zr
atom 10.0942751806760764 5.0471358123674674 25.0407972815638082 Zr
atom 5.0471358123700298 10.0942751806855924 25.0407972815565856 Zr
atom 10.0942739953637979 10.0942739953832081 25.0407972816282971 Zr
atom 5.0471201840349957 5.3361663354363289 17.5452243427264918 S
atom 10.0942919943218126 4.7581064746135677 17.5452243427110766 S
atom 5.0471526260158912 9.8052458429225489 17.5452243427099823 S
atom 10.0942571817176976 10.3833033331222779 17.5452243426504886 S
atom 5.0471035290842501 4.5813777483524261 22.5630277703862454 S
atom 10.0943086492727154 5.5128950617076979 22.5630277704094873 S
atom 5.0471692809670232 10.5600344300158540 22.5630277704245295 S
atom 10.0942405267663151 9.6285147460235088 22.5630277704114945 S
atom 5.0471375903369733 2.5235679061702130 19.7197335286895843 S
atom 10.0942757733310557 2.5235667208786992 20.4588417678239409 S
atom 5.0471364050255030 7.5707060891833660 20.4588417678174537 S
atom 10.0942745880189371 7.5707049038640024 19.7197335286949453 S
atom 5.0471375903376856 2.5235679061742813 25.4920587776449210 S
atom 10.0942757733318391 2.5235667208724344 24.5895357856027417 S
atom 5.0471364050259657 7.5707060891343252 24.5895357856035623 S
atom 10.0942745880198999 7.5707049038544518 25.4920587776418692 S
atom 2.5235679061960070 5.0471375903370195 20.1554835268514232 S
atom 7.5707060891735027 5.0471364050254444 20.1555448107998458 S
atom 2.5235667208744488 10.0942757733306330 20.1555448108029935 S
atom 7.5707049038703440 10.0942745880185978 20.1554835268550434 S
atom 2.5235679061890761 5.0471375903436755 25.0408200447666580 S
atom 7.5707060891742417 5.0471364050316341 25.0407745184759918 S
atom 2.5235667208818762 10.0942757733361752 25.0407745184734587 S
atom 7.5707049038590375 10.0942745880246054 25.0408200447630591 S
atom 2.4957477194458955 2.5235719736750020 27.4581975459354197 Ba
atom 7.5985274612291134 2.5235638386827492 27.4581975459355796 Ba
atom 2.5513880929083972 7.5707032069998466 27.4581975459353380 Ba
atom 7.5428847171435347 7.5707089713688829 27.4581975459354020 Ba
atom 2.6946718068315412 2.5235687713863793 32.1118828444268303 Ba
atom 7.3996033738440943 2.5235670409827979 32.1118828444252529 Ba
atom 2.3524640055308450 7.5707064092924945 32.1118828444284503 Ba
atom 7.7418088045212246 7.5707057690723714 32.1118828444285711 Ba
atom 5.0471404306314129 5.0702519421808319 30.0567059090718693 Zr
atom 10.0942717477267916 5.0240208678757670 30.0567059090512281 Zr
atom 5.0471323794201810 10.0711602361712060 30.0567059090459345 Zr
atom 10.0942774283146353 10.1173889398573422 30.0567059090782180 Zr
atom 5.0471704662798169 5.5128962470396115 27.5185667927749229 S
atom 10.0942417120783343 4.5813765630217560 27.5185667927382802 S
atom 5.0471023437726616 9.6285159313274065 27.5185667927425079 S
atom 10.0943074639614299 10.5600332447120238 27.5185667927061886 S
atom 5.0471538113274752 4.7581076599186174 32.5363702206120067 S
atom 10.0942583670300170 5.3361651501310829 32.5363702206082550 S
atom 5.0471189987237297 10.3833045184381643 32.5363702206195526 S
atom 10.0942908090100918 9.8052446576083820 32.5363702205276795 S
atom 5.0471375903376927 2.5235679061696987 29.6227527953575986 S
atom 10.0942757733318107 2.5235667208680272 30.3618610345212474 S
atom 5.0471364050264036 7.5707060891955384 30.3618610345049866 S
atom 10.0942745880199656 7.5707049038656926 29.6227527953720653 S
atom 2.5235679061725520 5.0471375903390152 29.9260497523892965 S
atom 7.5707060891901303 5.0471364050267198 29.9261110363384013 S
atom 2.5235667208640797 10.0942757733301107 29.9261110363513616 S
atom 7.5707049038743994 10.0942745880187825 29.9260497524030704 S
