#=======================================================
# FHI-aims file: full_relax/full_relax_RP_6_Rx0Mz_0RyMz.in
# Created using the Atomic Simulation Environment (ASE)
# Fri Mar 14 11:41:25 2025
#=======================================================
lattice_vector 10.0106845834542817 -0.0667220899781297 0.0000000000000372 
lattice_vector -0.0667220899781294 10.0106845834547116 -0.0000000000000027 
lattice_vector 0.0000000000002460 -0.0000000000000198 65.9336705592896664 
atom 0.0960020022235274 -0.1825198314539616 0.2185479611561811 Ba
atom 5.1878145291683788 -0.1293568051669330 0.2185628985613489 Ba
atom 0.1491111923023031 4.9093465315501783 0.2185628986086437 Ba
atom 5.0679832490982601 4.7894614152839337 0.2185479610644797 Ba
atom -0.2638473035555307 0.1853565750879601 5.0068753678767344 Ba
atom 4.8199184832663713 0.2304112999757803 5.0068798908485785 Ba
atom -0.2187848536043047 5.2691146367814818 5.0068798907937921 Ba
atom 4.7081339432939089 5.1573378219145631 5.0068753678986679 Ba
atom 2.4872349994757457 2.4744374368667788 2.4030526400603995 Zr
atom 7.5028409693740103 2.4513300150492094 2.4030434228533428 Zr
atom 2.4641376322061865 7.4900333513041897 2.4030434229373454 Zr
atom 7.4592162468681540 7.4464186831378072 2.4030526402463539 Zr
atom 2.4791407605144671 2.4891799265356176 7.4598923859974766 Zr
atom 7.4880654403434939 2.4594184263281957 7.4598762125299380 Zr
atom 2.4493621033348139 7.4981217627772594 7.4598762126507063 Zr
atom 7.4511220075529545 7.4611611730255190 7.4598923861409858 Zr
atom 2.6120434850082721 2.6954215951471503 -0.1038799141296006 S
atom 7.2818604669367790 2.3265430715776030 -0.1038891191846373 S
atom 2.2431571303970741 7.3652464083865761 -0.1038891189183470 S
atom 7.5840247316791674 7.6674028419979443 -0.1038799143903109 S
atom 2.2377831755184956 2.1884582203286183 4.9649522709058553 S
atom 7.7888377025646758 2.7007817052320080 4.9649456288959897 S
atom 2.7501343659084041 7.7394850420354286 4.9649456283540259 S
atom 7.2097644221498207 7.1604394670625577 4.9649522708666209 S
atom 2.8012550777340710 -0.0132149923800669 2.2481228190994669 S
atom 7.1879399955804333 -0.0437419664116028 2.7567499325771245 S
atom 2.1492366590867018 4.9949613702627582 2.7567499325131379 S
atom 7.7732363244020233 4.9587662542974913 2.2481228190979321 S
atom 2.8977729153933733 -0.0176511213197570 7.7868058999839835 S
atom 7.1221717378789506 -0.0478004670717603 7.1691247035551458 S
atom 2.0834684013164164 4.9909028689876562 7.1691247035925132 S
atom 7.8697541621201923 4.9543301247654075 7.7868058999863541 S
atom -0.0201908328115221 2.2040493282713087 2.2480628106027050 S
atom 4.9823212361148199 2.7893300952864650 2.7567253498588413 S
atom -0.0563820997593591 7.8280334320390645 2.7567253498422399 S
atom 4.9517904127642440 7.1760305750889577 2.2480628106010170 S
atom -0.0157785344110244 2.1075208477186624 7.7868107753262255 S
atom 4.9863550552986711 2.8551061659900814 7.1690866519750047 S
atom -0.0523482810165065 7.8938095027869455 7.1690866519652996 S
atom 4.9562027119088885 7.0795020944218594 7.7868107753821381 S
atom 0.2829413243109419 -0.1842190760111387 9.9845957937926606 Ba
atom 5.1895380804523992 -0.3163740851733722 9.9845958819960607 Ba
atom 0.1508347435292694 4.7223292517043145 9.9845958819507157 Ba
atom 5.2549225712344496 4.7877621709055553 9.9845957937911045 Ba
atom -0.2801467983712815 0.1804552581404903 14.9849251270083617 Ba
atom 4.8248771974413973 0.2467180194407161 14.9849251270167869 Ba
atom -0.2138261394997119 5.2854213563246457 14.9849251270252495 Ba
atom 4.6918344485396277 5.1524365050427781 14.9849251270109995 Ba
atom 2.4903087886478201 2.4831265689742570 12.4770732442164043 Zr
atom 7.4940923528688224 2.4482455872701716 12.4770683431242517 Zr
atom 2.4553890159636804 7.4869489239413651 12.4770683430574021 Zr
atom 7.4622900355780404 7.4551078156625543 12.4770732442580154 Zr
atom 2.4903087887826154 2.4831265692849920 17.4927770098842004 Zr
atom 7.4940923527643744 2.4482455871213356 17.4927819101634547 Zr
atom 2.4553890158407450 7.4869489237797797 17.4927819098195343 Zr
atom 7.4622900357677455 7.4551078159067954 17.4927770096007791 Zr
atom 2.7514566854125309 2.8126522669632052 9.9766029616000544 S
atom 7.1645633398485753 2.1871631936399369 9.9765991761622850 S
atom 2.1258600032291510 7.2258665303627341 9.9765991764870261 S
atom 7.7234379321574265 7.7846335138326062 9.9766029612632732 S
atom 2.2211922327006102 2.1532686461521195 14.9849251267265391 S
atom 7.8239695419731889 2.7173824624129979 14.9849251283834874 S
atom 2.7852662052409167 7.7560857991659997 14.9849251282903158 S
atom 7.1931734793416657 7.1252498928072878 14.9849251270775792 S
atom 2.8886449524753646 -0.0205131379020379 12.1654136408522699 S
atom 7.1257992703737134 -0.0509935649642012 12.8032465177783195 S
atom 2.0870959338234023 4.9877097710941705 12.8032465177107220 S
atom 7.8606261992846234 4.9514681081765177 12.1654136408132896 S
atom 2.8886449525502735 -0.0205131394372233 17.8044366133557190 S
atom 7.1257992703831246 -0.0509935637305508 17.1666037364610986 S
atom 2.0870959338087265 4.9877097725699304 17.1666037364985051 S
atom 7.8606261993018505 4.9514681069151685 17.8044366133569056 S
atom -0.0129074270214793 2.1166708570453259 12.1654086024806478 S
atom 4.9895511983642296 2.8514922999754684 12.8033091703542752 S
atom -0.0491521373618166 7.8901956367244175 12.8033091703654058 S
atom 4.9590738187085961 7.0886521037356900 12.1654086024273482 S
atom -0.0129074286157137 2.1166708570795838 17.8044416517062132 S
atom 4.9895511999389175 2.8514922999135837 17.1665410838566466 S
atom -0.0491521362175549 7.8901956366507573 17.1665410838771493 S
atom 4.9590738175390339 7.0886521037971795 17.8044416517600403 S
atom 0.2829413241767606 -0.1842190758718325 19.9852544602796769 Ba
atom 5.1895380805680809 -0.3163740851282238 19.9852543720754774 Ba
atom 0.1508347436061039 4.7223292515576230 19.9852543721213820 Ba
atom 5.2549225711529726 4.7877621708294313 19.9852544603032705 Ba
atom -0.2638473035996394 0.1853565750354930 24.9629748864625931 Ba
atom 4.8199184833518940 0.2304112998766090 24.9629703635482727 Ba
atom -0.2187848535647180 5.2691146367781343 24.9629703635641498 Ba
atom 4.7081339432865414 5.1573378219592065 24.9629748865204988 Ba
atom 2.4791407605860156 2.4891799267685841 22.5099578670370022 Zr
atom 7.4880654403411233 2.4594184262892256 22.5099740418643890 Zr
atom 2.4493621033213384 7.4981217627319730 22.5099740423187278 Zr
atom 7.4511220076618123 7.4611611731812495 22.5099578673712664 Zr
atom 2.4872349994059735 2.4744374364862156 27.5667976162521029 Zr
atom 7.5028409692892071 2.4513300152966404 27.5668068332491778 Zr
atom 2.4641376323949720 7.4900333514863844 27.5668068332628735 Zr
atom 7.4592162464004277 7.4464186828604246 27.5667976158758989 Zr
atom 2.7514566854283489 2.8126522670322851 19.9932472937668102 S
atom 7.1645633399214379 2.1871631936783227 19.9932510776252386 S
atom 2.1258600033340040 7.2258665304271670 19.9932510781031780 S
atom 7.7234379321844626 7.7846335138666038 19.9932472937239680 S
atom 2.2377831754667019 2.1884582203244567 25.0048979835666358 S
atom 7.7888377026102509 2.7007817052712380 25.0049046244732480 S
atom 2.7501343658946946 7.7394850420550867 25.0049046235463734 S
atom 7.2097644221142758 7.1604394670569045 25.0048979833652965 S
atom 2.8977729153559317 -0.0176511220706576 22.1830443543624618 S
atom 7.1221717378744929 -0.0478004669926890 22.8007255507093376 S
atom 2.0834684013681390 4.9909028696861748 22.8007255506224809 S
atom 7.8697541621143978 4.9543301246524329 22.1830443543237337 S
atom 2.8012550775758611 -0.0132149902379395 27.7217274348599929 S
atom 7.1879399956128527 -0.0437419672082441 27.2131003213244291 S
atom 2.1492366590150378 4.9949613684764973 27.2131003213789384 S
atom 7.7732363243113403 4.9587662551749236 27.7217274348207177 S
atom -0.0157785344716616 2.1075208477266210 22.1830394789934111 S
atom 4.9863550553424520 2.8551061659808767 22.8007636022918447 S
atom -0.0523482802545376 7.8938095027128341 22.8007636022410018 S
atom 4.9562027111542148 7.0795020945151963 22.1830394789449308 S
atom -0.0201908316267691 2.2040493283048752 27.7217874432896032 S
atom 4.9823212351643500 2.7893300952349267 27.2131249040648555 S
atom -0.0563821012043730 7.8280334320969720 27.2131249040568299 S
atom 4.9517904146188050 7.1760305750063127 27.7217874434046259 S
atom 0.0960020022623393 -0.1825198316132365 29.7513022936979326 Ba
atom 5.1878145291960003 -0.1293568051893438 29.7512873559049815 Ba
atom 0.1491111924254223 4.9093465316376701 29.7512873560722255 Ba
atom 5.0679832490804380 4.7894614152454595 29.7513022933449065 Ba
atom 2.6120434848495817 2.6954215949991474 30.0737301663076764 S
atom 7.2818604670004756 2.3265430716925097 30.0737393721395918 S
atom 2.2431571303918227 7.3652464083967946 30.0737393724974105 S
atom 7.5840247315174150 7.6674028418603024 30.0737301668450101 S
atom 2.6685104545052658 2.3899886210775345 33.1853832405860416 Ba
atom 7.5873286755689442 2.2701573409211728 33.1853981782230818 Ba
atom 2.5486253382235100 7.3088606777134162 33.1853981777885778 Ba
atom 7.6404917019678980 7.3619698678463630 33.1853832406964955 Ba
atom 2.3006340482136136 2.7498379268633895 37.9737106472807611 Ba
atom 7.2275605701311001 2.6380533869513658 37.9737151701965843 Ba
atom 2.1888572332515324 7.6767567236155578 37.9737151702924365 Ba
atom 7.2726152950294916 7.7218191735942119 37.9737106473393311 Ba
atom 4.9835344346299237 4.9707368702494854 35.3698879193527560 Zr
atom 9.9786231011687825 4.9271121474046913 35.3698787013619338 Zr
atom 4.9399197659172982 9.9658154844273206 35.3698787019228433 Zr
atom 9.9555156791822697 9.9427181172576677 35.3698879185938821 Zr
atom 4.9687919438042405 4.9788311094755970 40.4267276651648402 Zr
atom 9.9705346903714851 4.9418876770711364 40.4267114899235480 Zr
atom 4.9318313546761656 9.9805910135452436 40.4267114925851985 Zr
atom 9.9407731899420337 9.9508123557362733 40.4267276626047618 Zr
atom 4.7625502749815594 4.8459283852257489 32.8629553664911924 S
atom 10.1034100453134048 5.1480926497786150 32.8629461608704929 S
atom 5.0647067082220811 10.1867959863918962 32.8629461618877059 S
atom 9.7345315216678330 9.8179096319066730 32.8629553651875383 S
atom 5.2695136497450186 5.2201886946561302 37.9317875493175265 S
atom 9.7291714117683021 4.6411154142769453 37.9317809108247985 S
atom 4.6904680746613865 9.6798187509523768 37.9317809070264715 S
atom 10.2414948965235606 10.1921699413295404 37.9317875543986247 S
atom 4.6686417748221638 2.4756506333272141 35.7235606295727095 S
atom 10.2926258787650937 2.4394593675757994 35.2148980900940174 S
atom 5.2539225414511010 7.4781627037709848 35.2148980904896689 S
atom 9.6406230214999606 7.4476318796454093 35.7235606296240036 S
atom 4.6028657037813900 2.4716168143259813 40.1359219314521454 S
atom 10.3891543590190079 2.4350470673926741 40.7536460551381197 S
atom 5.3504510225714270 7.4737504049629235 40.7536460551615960 S
atom 9.5748469511605734 7.4435980619750293 40.1359219320256102 S
atom 2.4630105014352464 5.3087352111960113 35.7235852123563404 S
atom 7.4711868604933853 4.6567167925808279 35.2149580988487756 S
atom 2.4324835288236617 9.6954201289085464 35.2149580987293831 S
atom 7.4349917441244413 10.2807164578248358 35.7235852122188362 S
atom 2.4670689985684113 5.3745034689334785 40.1359599832762086 S
atom 7.4756229940203882 4.5601989545781878 40.7536411798010789 S
atom 2.4369196523616785 9.5989022915353228 40.7536411797719893 S
atom 7.4390502501074787 10.3464847154733075 40.1359599834042555 S
atom 2.6702097001021019 2.2030492989562496 42.9514310731536781 Ba
atom 7.7743459543754181 2.2684337898416826 42.9514311612963056 Ba
atom 2.7356426191036878 7.3071371264415816 42.9514311613781103 Ba
atom 7.6421909453241215 7.1750305456973260 42.9514310731822349 Ba
atom 2.3055353644598493 2.7661374217285246 47.9517604072570194 Ba
atom 7.2112538512469309 2.6330946727588724 47.9517604072048584 Ba
atom 2.1725505133041874 7.6717980094597458 47.9517604072045742 Ba
atom 7.2775166124952655 7.7381186683577079 47.9517604071054251 Ba
atom 4.9748453009347982 4.9676630817091683 45.4439085226173205 Zr
atom 9.9817075293884141 4.9358607645763461 45.4439036256440474 Zr
atom 4.9430041933479840 9.9745641006469850 45.4439036212187446 Zr
atom 9.9468265478354638 9.9396443274518500 45.4439085268226961 Zr
atom 4.9748453012013192 4.9676630816578831 50.4596122921723804 Zr
atom 9.9817075292426960 4.9358607639782344 50.4596171901316950 Zr
atom 4.9430041929865318 9.9745641003754812 50.4596171915793121 Zr
atom 9.9468265477618214 9.9396443279618900 50.4596122907666995 Zr
atom 4.6453196029340864 4.7065151846905646 42.9434382442940858 S
atom 10.2427899232602559 5.2653897769072930 42.9434344557803129 S
atom 5.2040865865307415 10.3040931138284506 42.9434344571625246 S
atom 9.6173008500817456 9.6784964314599495 42.9434382412552509 S
atom 5.3047032237820835 5.2367796374135258 47.9517604044870822 S
atom 9.7125706543536214 4.6059835747039690 47.9517604041059613 S
atom 4.6738673176873906 9.6446869116668736 47.9517604085439615 S
atom 10.2766844708445308 10.2087608841841906 47.9517604022017778 S
atom 4.6064795700724979 2.4684206729138256 45.7701444499869723 S
atom 10.3800043497851782 2.4321759599456101 45.1322438820556684 S
atom 5.3413010130460110 7.4708792959186496 45.1322438823092043 S
atom 9.5784608170206660 7.4404019189700721 45.7701444496286101 S
atom 4.6064795703413761 2.4684206690778820 50.1333763633961951 S
atom 10.3800043500972858 2.4321759617542664 50.7712769315880266 S
atom 5.3413010126964533 7.4708792998355680 50.7712769310622747 S
atom 9.5784608165923615 7.4404019171883462 50.1333763632004548 S
atom 2.4702620997230778 5.3708759360956035 45.7700817971606071 S
atom 7.4784850075217699 4.5693269176088593 45.1322489205912163 S
atom 2.4397816697760093 9.6080302545132223 45.1322489205297899 S
atom 7.4422433470151388 10.3428571830931872 45.7700817972300271 S
atom 2.4702621000934579 5.3708759363875309 50.1334390158533836 S
atom 7.4784850070578104 4.5693269175084055 50.7712718929745037 S
atom 2.4397816759651416 9.6080302542490212 50.7712718929221296 S
atom 7.4422433410693500 10.3428571832361005 50.1334390159621037 S
atom 2.6702096990110618 2.2030492991054991 52.9520897400895905 Ba
atom 7.7743459554763996 2.2684337896886122 52.9520896518428188 Ba
atom 2.7356426184409139 7.3071371263424929 52.9520896518219928 Ba
atom 7.6421909461573376 7.1750305457451979 52.9520897399642436 Ba
atom 2.3006340487065278 2.7498379267740125 57.9298101657920981 Ba
atom 7.2275605696837353 2.6380533868540965 57.9298056429312354 Ba
atom 2.1888572337419374 7.6767567236757674 57.9298056429404724 Ba
atom 7.2726152945479958 7.7218191736854731 57.9298101659638220 Ba
atom 4.9687919440709027 4.9788311093473832 55.4767931475338969 Zr
atom 9.9705346903399139 4.9418876766428772 55.4768093201607684 Zr
atom 4.9318313541528580 9.9805910132847568 55.4768093224141694 Zr
atom 9.9407731899318144 9.9508123562120385 55.4767931459320565 Zr
atom 4.9835344341905907 4.9707368705392154 60.5336328930623679 Zr
atom 9.9786231013599824 4.9271121482016325 60.5336421120939931 Zr
atom 4.9399197660613750 9.9658154840344633 60.5336421099947302 Zr
atom 9.9555156794806852 9.9427181167684306 60.5336328940009807 Zr
atom 4.6453196030139683 4.7065151846460829 52.9600825709156666 S
atom 10.2427899232245672 5.2653897768636817 52.9600863602810179 S
atom 5.2040865863043626 10.3040931135036118 52.9600863544629661 S
atom 9.6173008497012784 9.6784964314164554 52.9600825742524961 S
atom 5.2695136498545159 5.2201886946345573 57.9717332639057545 S
atom 9.7291714117391930 4.6411154143477944 57.9717399039685048 S
atom 4.6904680747235750 9.6798187509451257 57.9717399056487963 S
atom 10.2414948965764214 10.1921699414853641 57.9717332638739720 S
atom 4.6028657038506005 2.4716168139886845 55.7675988821061637 S
atom 10.3891543590141122 2.4350470696369522 55.1498747586916096 S
atom 5.3504510224560429 7.4737504053742621 55.1498747584813103 S
atom 9.5748469510817280 7.4435980596605864 55.7675988818671584 S
atom 4.6686417746221087 2.4756506333691592 60.1799601840195990 S
atom 10.2926258786434097 2.4394593660240478 60.6886227231666240 S
atom 5.2539225416868156 7.4781627038351779 60.6886227232765165 S
atom 9.6406230217350117 7.4476318808701283 60.1799601839597074 S
atom 2.4670689980194096 5.3745034689724758 55.7675608303885255 S
atom 7.4756229944074155 4.5601989547532726 55.1498796340438915 S
atom 2.4369196546722489 9.5989022913408881 55.1498796338922475 S
atom 7.4390502480262164 10.3464847155909592 55.7675608303732204 S
atom 2.4630104995514941 5.3087352111659225 60.1799356012044058 S
atom 7.4711868627932096 4.6567167923723449 60.6885627147112530 S
atom 2.4324835250910142 9.6954201291815494 60.6885627147278797 S
atom 7.4349917471704083 10.2807164578268360 60.1799356013889764 S
atom 2.6685104547710208 2.3899886211843797 62.7181375728688835 Ba
atom 7.5873286753140485 2.2701573411216160 62.7181226352059511 Ba
atom 2.5486253384879416 7.3088606776162059 62.7181226353249741 Ba
atom 7.6404917016150371 7.3619698676912888 62.7181375726519690 Ba
atom 4.7625502747894881 4.8459283850469168 63.0405654485230471 S
atom 10.1034100452724598 5.1480926497877073 63.0405746525294504 S
atom 5.0647067084569493 10.1867959865668318 63.0405746533198297 S
atom 9.7345315217667441 9.8179096319547323 63.0405654476468271 S
