#=======================================================
# FHI-aims file: full_relax/full_relax_RP_2_Rx1Ry20_-Rx2-Ry10.in
# Created using the Atomic Simulation Environment (ASE)
# Fri Mar 14 11:17:41 2025
#=======================================================
lattice_vector 10.0975478482314625 0.0000096660051776 0.0000000000002849 
lattice_vector 0.0000096660051777 10.0975478482309189 0.0000000000000239 
lattice_vector 0.0000000000007635 0.0000000000000631 25.4732612916393144 
atom -0.1651859326345701 0.0000023288288359 0.2875230017543982 Ba
atom 5.2139598567469658 0.0000025041426318 0.2875230017300232 Ba
atom 0.1651907656403840 5.0487715952921075 0.2875230016931714 Ba
atom 4.8835928244858877 5.0487810859827924 0.2875230017157207 Ba
atom 0.0440173910551097 -0.0000021157305138 4.8987040945354110 Ba
atom 5.0047565330598340 0.0000069487416551 4.8987040945508245 Ba
atom -0.0440125580497292 5.0487760398532915 4.8987040945377620 Ba
atom 5.0927961481709501 5.0487766413866009 4.8987040945474840 Ba
atom 2.5243888672671844 2.5043393704831489 2.3639506225792175 Zr
atom 7.5731638139638395 2.5444442196680956 2.3639506225012812 Zr
atom 2.5243947227609942 7.5932133108003219 2.3639506224448534 Zr
atom 7.5731676244520223 7.5531181275286077 2.3639506225006386 Zr
atom 2.5243888673186792 2.5043393705239159 7.4334575668986798 Zr
atom 7.5731638139023225 2.5444442196099697 7.4334575668460836 Zr
atom 2.5243947228409107 7.5932133107982409 7.4334575668835097 Zr
atom 7.5731676243990220 7.5531181275295962 7.4334575668848890 Zr
atom 2.5243928269248079 2.8073112184598497 -0.1225295021263140 S
atom 7.5731598542913581 2.2414723716807843 -0.1225295020031202 S
atom 2.5243907631321081 7.2902414627955601 -0.1225295020000299 S
atom 7.5731715840831253 7.8560899755539229 -0.1225295020604909 S
atom 2.5243836418324856 2.1093915801072423 4.8987040945565443 S
atom 7.5731690393962783 2.9393920100215301 4.8987040944936844 S
atom 2.5243999482857955 7.9881611012016336 4.8987040943913582 S
atom 7.5731623989452039 7.1581703371762062 4.8987040943609150 S
atom 2.5243869620569783 0.0000024165465775 2.0833972502091918 S
atom 7.5731608861622197 0.0000072495014655 2.7784056549300766 S
atom 2.5243917950527961 5.0487763403794936 2.7784056549176341 S
atom 7.5731657191768385 5.0487811736986830 2.0833972502209099 S
atom 2.5243869620524659 0.0000024165206226 7.7140109389129750 S
atom 7.5731608861802586 0.0000072494363670 7.0190025341843123 S
atom 2.5243917950645520 5.0487763403426351 7.0190025341897631 S
atom 7.5731657191631365 5.0487811738889103 7.7140109389161191 S
atom 0.0000024164405248 2.5243869620743435 2.4788313783034375 S
atom 5.0487763406850616 2.5243917950667636 2.4788272316033755 S
atom 0.0000072495921484 7.5731608861804878 2.4788272316144875 S
atom 5.0487811735878623 7.5731657191926729 2.4788313783443847 S
atom 0.0000024163472765 2.5243869620629065 7.3185768107941449 S
atom 5.0487763407961097 2.5243917950788091 7.3185809575191554 S
atom 0.0000072496173211 7.5731608861909745 7.3185809575300524 S
atom 5.0487811735025501 7.5731657191804729 7.3185768108247569 S
atom -0.1651859326717297 0.0000023288445647 9.5098851873987922 Ba
atom 5.2139598567883523 0.0000025041569790 9.5098851873728218 Ba
atom 0.1651907656974295 5.0487715952630516 9.5098851874486883 Ba
atom 4.8835928244270557 5.0487810859559117 9.5098851874342749 Ba
atom 2.5243928269759186 2.8073112184374360 9.9199376907459698 S
atom 7.5731598542698482 2.2414723716875984 9.9199376908268846 S
atom 2.5243907631869265 7.2902414628200525 9.9199376908984043 S
atom 7.5731715840674436 7.8560899755181914 9.9199376908960843 S
atom 2.5243870496462564 2.6895753111950276 13.0241536477819082 Ba
atom 7.5731656315568898 2.3592082789255167 13.0241536477715965 Ba
atom 2.5243965403378752 7.4079773700323139 13.0241536477535931 Ba
atom 7.5731658068677739 7.7383540683141891 13.0241536477471502 Ba
atom 2.5243914943014123 2.4803719875278754 17.6353347403740912 Ba
atom 7.5731611869256934 2.5684116025356163 17.6353347403605625 Ba
atom 2.5243920958376735 7.6171806937040882 17.6353347403714729 Ba
atom 7.5731702513983112 7.5291507447035366 17.6353347403565444 Ba
atom 5.0688287653245938 5.0487792683532282 15.1005812682875362 Zr
atom 10.0775026732240338 5.0487830789104367 15.1005812677911635 Zr
atom 5.0287335819758265 10.0975521699525395 15.1005812681121405 Zr
atom 10.1176075223081092 10.0975580255328534 15.1005812681313767 Zr
atom 5.0688287651825759 5.0487792683630781 20.1700882132512156 Zr
atom 10.0775026731225879 5.0487830788507289 20.1700882127064567 Zr
atom 5.0287335820537455 10.0975521700045938 20.1700882129948234 Zr
atom 10.1176075223355770 10.0975580255051884 20.1700882129430425 Zr
atom 4.7658569172493692 5.0487753087194855 12.6141011430027294 S
atom 10.3804745211197318 5.0487870385320575 12.6141011436404664 S
atom 5.3317054299690989 10.0975561296196119 12.6141011434862786 S
atom 9.8146356743464320 10.0975540658467757 12.6141011434634507 S
atom 5.4637765556801208 5.0487844938387543 17.6353347404623868 S
atom 9.6825548827253662 5.0487778534089678 17.6353347403815341 S
atom 4.6337857915681093 10.0975469445028274 17.6353347401250922 S
atom 10.5125553127522586 10.0975632509755258 17.6353347400114764 S
atom 5.0487763406140616 2.5243917951239880 15.2154578775306035 S
atom 10.0975502647434094 2.5243966281373367 15.2154620242641947 S
atom 5.0487811736200987 7.5731657192064796 15.2154620242445038 S
atom 10.0975550977390558 7.5731705519194481 15.2154578775464451 S
atom 5.0487763406260724 2.5243917949318693 20.0552116032775380 S
atom 10.0975502647264950 2.5243966280461683 20.0552074565411118 S
atom 5.0487811736339889 7.5731657192677631 20.0552074565610816 S
atom 10.0975550977238928 7.5731705521937913 20.0552116032557031 S
atom 2.5243917950088841 5.0487763406211021 15.5150363009106140 S
atom 7.5731657189531010 5.0487811736269590 14.8200278961002105 S
atom 2.5243966280502215 10.0975502647410291 14.8200278961373897 S
atom 7.5731705524082900 10.0975550977355741 15.5150363009067078 S
atom 2.5243917950035843 5.0487763406188000 19.7556331798304150 S
atom 7.5731657191799888 5.0487811736233992 20.4506415846287055 S
atom 2.5243966279714174 10.0975502647362489 20.4506415847455720 S
atom 7.5731705522272774 10.0975550977304227 19.7556331799155025 S
atom 2.5243870498007457 2.6895753112305480 22.2465158329549340 Ba
atom 7.5731656314666589 2.3592082788951561 22.2465158329542447 Ba
atom 2.5243965404929671 7.4079773699987630 22.2465158329723884 Ba
atom 7.5731658067799072 7.7383540683458127 22.2465158329853701 Ba
atom 4.7658569172880005 5.0487753087200362 22.6565683366003370 S
atom 10.3804745211036629 5.0487870385115272 22.6565683373974132 S
atom 5.3317054299641917 10.0975561296302700 22.6565683368583386 S
atom 9.8146356744142107 10.0975540658381338 22.6565683369307358 S
