#=======================================================
# FHI-aims file: full_relax/full_relax_RP_4_RxRyRz_RxRy-Rz.in
# Created using the Atomic Simulation Environment (ASE)
# Fri Mar 14 11:26:31 2025
#=======================================================
lattice_vector 10.0385381737709842 0.0322007907863812 -0.0000000001653471 
lattice_vector 0.0322007907865595 10.0385381738206458 -0.0000000000590581 
lattice_vector -0.0000000007720821 -0.0000000002779571 45.6474513292630277 
atom -0.0056033687052567 -0.0984396841899861 0.2414219238361841 Ba
atom 5.1177087792784732 0.0217038147189250 0.2414216140474546 Ba
atom 0.1145401457966814 5.0248724925898358 0.2414217202739304 Ba
atom 5.0297660228903309 4.9369297146563156 0.2414213459072648 Ba
atom -0.2471684364814370 0.2092557438186192 4.9747343895358007 Ba
atom 4.8100133681111492 0.2632690966730304 4.9747344419563104 Ba
atom -0.1931550433018943 5.2664374921088477 4.9747344628402699 Ba
atom 4.7882007960679953 5.2446249366830830 4.9747345073418678 Ba
atom 2.4748608991038696 2.5605992958029051 2.3682332338822762 Zr
atom 7.4940391026433764 2.5766085398696528 2.3682330646530478 Zr
atom 2.4908702036720620 7.5797779313182501 2.3682329032281966 Zr
atom 7.5102305129137141 7.5959694151500488 2.3682327812690729 Zr
atom 2.4441105350319656 2.5780870468125658 7.4159266315973094 Zr
atom 7.4765513576973515 2.6073593676684332 7.4159268425437164 Zr
atom 2.4733828030536409 7.6105281357350130 7.4159268800385334 Zr
atom 7.4794798592407901 7.6134566579331731 7.4159272127537745 Zr
atom 2.6596775002280304 2.8206928086357599 -0.1300327412842415 S
atom 7.2339458005804866 2.3917924340499637 -0.1300331157153717 S
atom 2.2307771381016064 7.3949611188684266 -0.1300329737294723 S
atom 7.6950468851168141 7.8560621684239136 -0.1300336951271626 S
atom 2.2224291898805988 2.2549127692689126 4.9213220522188443 S
atom 7.7997257925988448 2.8290407508513242 4.9213219581300400 S
atom 2.7965571139932552 7.8322093850356191 4.9213219133305666 S
atom 7.2577985772843929 7.2902822487940186 4.9213224276675822 S
atom 2.6608217560574401 0.0568960009226203 2.2034406759377911 S
atom 7.2491033767838662 0.0768135856514279 2.7405264050360194 S
atom 2.2459347094362734 5.0799826760815581 2.7405263044835455 S
atom 7.6961912187129755 5.0922661712338018 2.2034407172318371 S
atom 2.7879447100502528 0.0537610838201650 7.6966804884791360 S
atom 7.1392634499041820 0.0744394962888401 7.1442491104019172 S
atom 2.1360947353730566 5.0776082911592422 7.1442492277811267 S
atom 7.8233141811030631 5.0891307372704437 7.6966803362018759 S
atom -0.0407960424663416 2.3584473984799676 2.2034406252916492 S
atom 4.9746560368308668 2.8055352403516447 2.7405262902289458 S
atom -0.0285128272761705 7.8087037979563529 2.7405264162520138 S
atom 4.9945738254631467 7.3938168437673513 2.2034407980626933 S
atom -0.0376606779161305 2.2313243321669445 7.6966805146786657 S
atom 4.9770303346684210 2.9153751324388169 7.1442492285881931 S
atom -0.0261381782189983 7.9185437419782527 7.1442491168016833 S
atom 4.9977086809874685 7.2666938676937560 7.6966803111546964 S
atom -0.0090745490396561 -0.0090744795191234 9.9233589559380455 Ba
atom 5.0283435941017336 0.0251749291756003 9.9233589733356915 Ba
atom 0.0251749585702818 5.0283436000811941 9.9233590298103671 Ba
atom 5.0262949664651941 5.0262949011973879 9.9233590419056306 Ba
atom 0.2092553997976513 -0.2471686777427899 14.8719836133754004 Ba
atom 5.2664377555927091 -0.1931552241835442 14.8719836569597721 Ba
atom 0.2632688613354077 4.8100137049530112 14.8719836007091075 Ba
atom 5.2446250895530033 4.7882010173596816 14.8719836587994259 Ba
atom 2.5780871385850315 2.4441105177923483 12.4307904315032545 Zr
atom 7.6105282258643383 2.4733827647194904 12.4307908358134238 Zr
atom 2.6073594365977448 7.4765512920947419 12.4307908180781332 Zr
atom 7.6134566629132481 7.4794798519880175 12.4307910401346220 Zr
atom 2.5605998898221287 2.4748609882054922 17.4784858907637357 Zr
atom 7.5797774534683358 2.4908702123807243 17.4784856370058321 Zr
atom 2.5766089388504474 7.4940388543631613 17.4784857021002438 Zr
atom 7.5959690124562291 7.5102304401916751 17.4784854880830736 Zr
atom 2.7866080278772549 2.7866080210019177 9.9233584907149197 S
atom 7.2680305404962740 2.2648618230653641 9.9233588355786662 S
atom 2.2648618426697023 7.2680305347695491 9.9233586996328054 S
atom 7.8219775102505702 7.8219774776656710 9.9233590459478087 S
atom 2.2549127206056450 2.2224289947718967 14.9253958594870291 S
atom 7.8322094943584286 2.7965571116586823 14.9253960064797848 S
atom 2.8290408096070658 7.7997258893944768 14.9253960834299306 S
atom 7.2902821927148818 7.2577986143938231 14.9253960443763400 S
atom 2.2313243827974438 -0.0376608147102026 12.1500376953093632 S
atom 7.9185438417576597 -0.0261383564854137 12.7024688366133187 S
atom 2.9153751240608363 4.9770305867620808 12.7024689412111726 S
atom 7.2666938492824462 4.9977089044743099 12.1500375392265134 S
atom 2.3584473658159819 -0.0407957476097902 17.6432769928109252 S
atom 7.8087039207780071 -0.0285126240114872 17.1061914272355224 S
atom 2.8055351494159044 4.9746559764101450 17.1061912552541244 S
atom 7.3938167836886866 4.9945736121742268 17.6432772564605287 S
atom 0.0537608519415952 2.7879446807153241 12.1500376918237603 S
atom 5.0776084187163271 2.1360947027241921 12.7024689537412669 S
atom 0.0744391358494942 7.1392634473776395 12.7024688253517262 S
atom 5.0891308190162547 7.8233142124010904 12.1500375469953248 S
atom 0.0568961561138306 2.6608216856298483 17.6432770622532402 S
atom 5.0799825598132786 2.2459346503556628 17.1061912914774190 S
atom 0.0768138704929261 7.2491033800731248 17.1061913926570490 S
atom 5.0922658623511534 7.6961912711138902 17.6432771699876128 S
atom -0.0984397881073159 -0.0056034590905000 19.6052960330495551 Ba
atom 5.0248724613390259 0.1145401288710000 19.6052956371940184 Ba
atom 0.0217038708164445 5.1177089312011841 19.6052959523984569 Ba
atom 4.9369297288195551 5.0297660846239589 19.6052953921647948 Ba
atom 2.8206926355168322 2.6596773726197553 19.9767518685593188 S
atom 7.3949612296731022 2.2307772177667680 19.9767511558677526 S
atom 2.3917924337800818 7.2339458626088593 19.9767514788958955 S
atom 7.8560621809421880 7.6950468780649031 19.9767508488517969 S
atom 2.4192450512928536 2.5120813199388383 23.0651467758749185 Ba
atom 7.5425572425322178 2.6322248038613978 23.0651469387341628 Ba
atom 2.5393884807681353 7.6353935187702531 23.0651468940755464 Ba
atom 7.4546145957697014 7.5474508126750877 23.0651470341009457 Ba
atom 2.7269406253467143 2.2705162687193616 27.7984603292448256 Ba
atom 7.7841221492973727 2.3245295582550569 27.7984603966818362 Ba
atom 2.7809538485720120 7.3276980696847582 27.7984602928974809 Ba
atom 7.7623096954684572 7.3058856401971646 27.7984603550739457 Ba
atom 5.0782837243457246 4.9925454402635303 25.1919592792060172 Zr
atom 10.0974628623261182 5.0085552744016271 25.1919587709092738 Zr
atom 5.0942934135768860 10.0117239648800815 25.1919592131431997 Zr
atom 10.1136541782139737 10.0279148723564600 25.1919586239888034 Zr
atom 5.0957716906617687 4.9617950618309532 30.2396522678707811 Zr
atom 10.1282128736083603 4.9910674844499603 30.2396528380686256 Zr
atom 5.1250439922183118 9.9942363308095405 30.2396524287961164 Zr
atom 10.1311414331096330 9.9971647179727920 30.2396528108603917 Zr
atom 5.3383776580446858 5.1773622526437606 22.6936938807636039 S
atom 9.9126457596641959 4.7484617215530065 22.6936929353103807 S
atom 4.9094771413462190 9.7516304322491063 22.6936932835209966 S
atom 10.3737470674540226 10.2127317699555320 22.6936929627991226 S
atom 4.7725975618591772 4.7401139960357046 27.7450476651447495 S
atom 10.3498941019832067 5.3142418045293276 27.7450480005407414 S
atom 5.3467254697312736 10.3174104427108393 27.7450481012188099 S
atom 9.8079670283327527 9.7754833741295304 27.7450479236143757 S
atom 4.8761322636509510 2.4768889677936516 25.0271661212889143 S
atom 10.3263885429150104 2.4891721538022940 25.5642517699470773 S
atom 5.3232199937874318 7.4923408840368664 25.5642515382808035 S
atom 9.9115015721404482 7.5122585142078186 25.0271663079503526 S
atom 4.7490091099298324 2.4800240456750338 30.5204061004354337 S
atom 10.4362285104390242 2.4915462997631499 29.9679746221037036 S
atom 5.4330599073357373 7.4947151636571636 29.9679747608828038 S
atom 9.7843785861998338 7.5153935159144680 30.5204058763301056 S
atom 2.5745806099476494 5.1785063741337103 25.0271662327345936 S
atom 7.5976675748291767 4.7636194160943077 25.5642516260615622 S
atom 2.5944982108565808 9.7667881506179803 25.5642516524594008 S
atom 7.6099505455535175 10.2138759048562981 25.0271662034349340 S
atom 2.5714462309447987 5.3056294786645513 30.5204060221502047 S
atom 7.5952926974081381 4.6537794967523229 29.9679746943657079 S
atom 2.5921246116062853 9.6569481798702945 29.9679747013790951 S
atom 7.6068152096759318 10.3409989058127767 30.5204059631711822 S
atom 2.5086102315298850 2.5086101286386775 32.7470845074306922 Ba
atom 7.5460284667653967 2.5428597722586468 32.7470845523048553 Ba
atom 2.5428597719552215 7.5460283779495789 32.7470845714488519 Ba
atom 7.5439795695557645 7.5439795541238093 32.7470846182549877 Ba
atom 2.2705160148975749 2.7269402402474534 37.6957093146073632 Ba
atom 7.3276985018917040 2.7809536696387736 37.6957092968051768 Ba
atom 2.3245294213943217 7.7841224029131633 37.6957092379527836 Ba
atom 7.3058858493066472 7.7623097437163384 37.6957092175734445 Ba
atom 4.9617951647109244 5.0957719810943489 35.2545161188324911 Zr
atom 9.9942361931297086 5.1250442046276232 35.2545167592156048 Zr
atom 4.9910674321806070 10.1282127376254145 35.2545164077753626 Zr
atom 9.9971646724796948 10.1311412589439023 35.2545168793880279 Zr
atom 4.9925456396593697 5.0782841378924077 40.3022111275441546 Zr
atom 10.0117240520434745 5.0942936536301131 40.3022106836621177 Zr
atom 5.0085550458338099 10.0974627653321853 40.3022106987124076 Zr
atom 10.0279152637889108 10.1136536568223434 40.3022102810160661 Zr
atom 5.3042927244271416 5.3042926956206173 32.7470841261967394 S
atom 9.7857153013470235 4.7825466333783426 32.7470847161476115 S
atom 4.7825466352663399 9.7857153138436619 32.7470842839893876 S
atom 10.3396621585140327 10.3396621954743306 32.7470845845973741 S
atom 4.7401138219937993 4.7725974767976123 37.7491206853789620 S
atom 10.3174106164479085 5.3467254976619287 37.7491201031217116 S
atom 5.3142418717888154 10.3498942152594857 37.7491202514555226 S
atom 9.7754833721763159 9.8079669544180081 37.7491209853916132 S
atom 5.3056294095968513 2.5714461105070145 34.9737637031353756 S
atom 9.6569481664866128 2.5921240877495797 35.5261946954586776 S
atom 4.6537794723465646 7.5952929294361633 35.5261949067129805 S
atom 10.3409988592842623 7.6068155868192875 34.9737635140265866 S
atom 5.1785065506512904 2.5745801658201759 40.4670029171859298 S
atom 9.7667881022171308 2.5944983023952108 39.9299173444991666 S
atom 4.7636195038927136 7.5976677796214425 39.9299171199850989 S
atom 10.2138759939704897 7.6099508905103788 40.4670030580846571 S
atom 2.4800237670221801 4.7490091461715105 34.9737636502278448 S
atom 7.4947154466012673 5.4330598490567779 35.5261948245967361 S
atom 2.4915458598331250 10.4362285846009968 35.5261947647913843 S
atom 7.5153940453667740 9.7843786569152016 34.9737635859962523 S
atom 2.4768887062748060 4.8761320586661157 40.4670029795328503 S
atom 7.4923404370029898 5.3232199839447478 39.9299171801555488 S
atom 2.4891724337024761 10.3263885910667028 39.9299172867748169 S
atom 7.5122578015902333 9.9115016096608972 40.4670029983650821 S
atom 2.5120814172239521 2.4192452187830189 42.4290215428591111 Ba
atom 7.6353934490540771 2.5393886054818862 42.4290217182494160 Ba
atom 2.6322247464962136 7.5425570762276815 42.4290217259953621 Ba
atom 7.5474508442614097 7.4546144486737180 42.4290220060173340 Ba
atom 5.1773623141963014 5.3383776320313761 42.8004778836559225 S
atom 9.7516304928761048 4.9094771115149678 42.8004772482918199 S
atom 4.7484618907520888 9.9126458190077269 42.8004777421316405 S
atom 10.2127317067528107 10.3737470012084394 42.8004771267964585 S
