#=======================================================
# FHI-aims file: full_relax/full_relax_RP_7_Rx0Rz_0Ry0.in
# Created using the Atomic Simulation Environment (ASE)
# Mon Mar 24 15:43:30 2025
#=======================================================
lattice_vector 9.9947505255388780 0.0000000000000296 0.0141299356331369 
lattice_vector 0.0000000000000294 10.0901706306898618 0.0000000000000283 
lattice_vector 0.1072226369508424 0.0000000000002184 75.4974138391865068 
atom -0.1900459617726828 -0.0000000000010075 0.1513933934274364 Ba
atom 5.0691258422110081 -0.0000000000009513 0.1564772607318337 Ba
atom 0.0717505793480312 5.0450853153439539 0.1494122929442611 Ba
atom 4.8073293008743692 5.0450853153439228 0.1584583612405669 Ba
atom -0.1106291870877215 -0.0000000000008928 4.8400655506324215 Ba
atom 4.8325863438266952 -0.0000000000008926 4.8134499726952988 Ba
atom -0.1647889192089801 5.0450853153438651 4.8063850049336487 Ba
atom 4.8867460752244236 5.0450853153439557 4.8471305188954483 Ba
atom 2.4339681837183420 2.5186382469786177 2.2132614857760320 Zr
atom 7.4313434464721615 2.5264470683875140 2.2203264535828642 Zr
atom 2.4339681837183456 7.5715323837092336 2.2132614857760928 Zr
atom 7.4313434464721873 7.5637235623005576 2.2203264535825498 Zr
atom 2.4551593389580688 2.5056214685352476 7.2805981016131005 Zr
atom 7.4525346017673924 2.5394638468459392 7.2876630693852897 Zr
atom 2.4551593389581252 7.5845491621527650 7.2805981016128065 Zr
atom 7.4525346017674270 7.5507067838421307 7.2876630693859159 Zr
atom 2.4424778861617398 2.8400457221290027 -0.2736994164969802 S
atom 7.4398531492209372 2.2050395931839160 -0.2666344486849649 S
atom 2.4424778861617167 7.2501249085589148 -0.2736994164969002 S
atom 7.4398531492209798 7.8851310375039372 -0.2666344486856370 S
atom 2.4527348552512769 2.1902547931677003 4.7860663151874174 S
atom 7.4501101174104161 2.8548305222761998 4.7931312829956623 S
atom 2.4527348552514043 7.8999158375201795 4.7860663151873206 S
atom 7.4501101174103317 7.2353401084116733 4.7931312829961223 S
atom 2.4384767804769507 -0.0000000000009769 1.9959314736054392 S
atom 7.4212708924696846 -0.0000000000010659 2.6458282685839483 S
atom 2.4238956296876757 5.0450853153439166 2.6387633007441385 S
atom 7.4358520432705886 5.0450853153441111 2.0029964413287593 S
atom 2.9007032075971879 -0.0000000000008949 7.5642263590177246 S
atom 7.0712171582714491 -0.0000000000008420 7.0414059475437876 S
atom 2.0738418955099220 5.0450853153438793 7.0343409796255507 S
atom 7.8980784704714990 5.0450853153439512 7.5712913267234416 S
atom -0.0623877966946101 2.5215454312697787 2.3321660005749925 S
atom 4.9349874660767359 2.5235398840606766 2.3392309679383931 S
atom -0.0623877966946736 7.5686251994180518 2.3321660005752185 S
atom 4.9349874660768425 7.5666307466271938 2.3392309679384500 S
atom -0.0353818273554556 2.0892489894306592 7.3003832278954910 S
atom 4.9619934354111370 2.9558363258648770 7.3074481964151738 S
atom -0.0353818273554013 8.0009216412572908 7.3003832278954262 S
atom 4.9619934354110988 7.1343343048230565 7.3074481964152023 S
atom -0.0692296166991647 -0.0000000000009188 9.8059778829133446 Ba
atom 5.0843687399024589 -0.0000000000008565 9.8436015163048403 Ba
atom 0.0869934765433744 5.0450853153440240 9.8365365490403498 Ba
atom 4.9281456456741779 5.0450853153439938 9.8130428511250667 Ba
atom 0.1009580532778251 -0.0000000000009398 14.8659595130989874 Ba
atom 4.9436068089512801 -0.0000000000009419 14.8620171380175705 Ba
atom -0.0537684542281456 5.0450853153440285 14.8549521706314636 Ba
atom 5.0983333156043180 5.0450853153440498 14.8730244813927595 Ba
atom 2.5086777928668234 2.5264824138170558 12.3298799468399398 Zr
atom 7.5060530556201819 2.5186029015251394 12.3369449146622525 Zr
atom 2.5086777928668593 7.5636882168710056 12.3298799468399771 Zr
atom 7.5060530556201952 7.5715677291628847 12.3369449146625225 Zr
atom 2.5233770543650214 2.5225426576718553 17.3878054074198509 Zr
atom 7.5207523171355319 2.5225426576718726 17.3948703752361880 Zr
atom 2.5233770543650431 7.5676279730162612 17.3878054074200783 Zr
atom 7.5207523171355435 7.5676279730162896 17.3948703752359997 Zr
atom 2.4803028750669278 2.7720398377477040 9.8151406924904983 S
atom 7.4776781386742792 2.2730454776727314 9.8222056602852614 S
atom 2.4803028750668772 7.3181307929402868 9.8151406924902727 S
atom 7.4776781386743405 7.8171251530153283 9.8222056602856540 S
atom 2.5105515122481297 2.3246135523221860 14.8621211326769860 S
atom 7.5079267741222528 2.7204717630212514 14.8691861005091006 S
atom 2.5105515122482061 7.7655570783658687 14.8621211326771601 S
atom 7.5079267741222253 7.3696988676668784 14.8691861005089461 S
atom 2.0644823549344942 -0.0000000000009001 12.1593704912286746 S
atom 7.9589297888986392 -0.0000000000008645 12.5301014937487967 S
atom 2.9615545261931779 5.0450853153440933 12.5230365258896068 S
atom 7.0618576177414800 5.0450853153440676 12.1664354590152026 S
atom 2.9815477535834649 -0.0000000000008864 17.5470340685949147 S
atom 7.0625816178824810 -0.0000000000009211 17.2356417141108125 S
atom 2.0652063551467581 5.0450853153440338 17.2285767462448440 S
atom 7.9789230163884630 5.0450853153441262 17.5540990363610270 S
atom 0.0055155436122422 2.9907476879155883 12.3411308488662890 S
atom 5.0028908063875530 2.0543376273911642 12.3481958158371334 S
atom 0.0055155436122845 7.0994229427723985 12.3411308488663227 S
atom 5.0028908063875468 8.0358330032969132 12.3481958158370464 S
atom 0.0246894229841415 2.0451216672213746 17.3842729230816495 S
atom 5.0220646857469466 2.9999636481204162 17.3913378917574626 S
atom 0.0246894229842327 8.0450489634666909 17.3842729230817135 S
atom 5.0220646857468774 7.0902069825676346 17.3913378917575727 S
atom -0.0515792068717719 -0.0000000000009918 19.9025863334462976 Ba
atom 5.1005225629619533 -0.0000000000009249 19.9206586442044191 Ba
atom 0.1031472997772694 5.0450853153440498 19.9135936768256201 Ba
atom 4.9457960554519849 5.0450853153440640 19.9096513017407020 Ba
atom 0.1186084630620032 -0.0000000000008509 24.9625679637087607 Ba
atom 4.9597606321938512 -0.0000000000008561 24.9390742657941651 Ba
atom -0.0376146311782214 5.0450853153440383 24.9320092985397963 Ba
atom 5.1159837254248437 5.0450853153440063 24.9696329319317130 Ba
atom 2.5380763158649113 2.5186029015265294 22.4457308679995613 Zr
atom 7.5354515786490310 2.5264824138184205 22.4527958358106297 Zr
atom 2.5380763158649118 7.5715677291615346 22.4457308679995471 Zr
atom 7.5354515786489999 7.5636882168696538 22.4527958358104804 Zr
atom 2.5915947697728794 2.5394638468074389 27.4950127132260285 Zr
atom 7.5889700325020693 2.5056214684968365 27.5020776810879752 Zr
atom 2.5915947697728901 7.5507067838806217 27.4950127132257904 Zr
atom 7.5889700325020684 7.5845491621913137 27.5020776810881955 Zr
atom 2.5362025964789541 2.7204717630218478 19.9134896821625773 S
atom 7.5335778601516257 2.3246135523230613 19.9205546499634174 S
atom 2.5362025964789967 7.3696988676662389 19.9134896821626306 S
atom 7.5335778601515946 7.7655570783650028 19.9205546499633677 S
atom 2.5664512336736585 2.2730454775951427 24.9604701223486991 S
atom 7.5638264955858379 2.7720398376696789 24.9675350901875426 S
atom 2.5664512336736420 7.8171251530928902 24.9604701223487417 S
atom 7.5638264955858157 7.3181307930183586 24.9675350901877238 S
atom 2.0851995825378493 -0.0000000000009234 22.2525742889497238 S
atom 7.9796470165276592 -0.0000000000008466 22.6233052914576973 S
atom 2.9822717537975785 5.0450853153440391 22.6162403236098264 S
atom 7.0825748453710959 5.0450853153440711 22.2596392567239647 S
atom 2.9729122132210448 -0.0000000000009051 27.7412698352156362 S
atom 7.1434261637969012 -0.0000000000009432 27.2184494237510286 S
atom 2.1460509011346209 5.0450853153440027 27.2113844558207170 S
atom 7.9702874759982043 5.0450853153441360 27.7483348029271468 S
atom 0.0438633023435204 2.9907476879513095 22.4274149990092866 S
atom 5.0412385651186593 2.0543376274267096 22.4344799659660694 S
atom 0.0438633023434068 7.0994229427367443 22.4274149990093825 S
atom 5.0412385651188050 8.0358330032613594 22.4344799659661795 S
atom 0.0847606733197386 2.0892489894781430 27.4681626184148193 S
atom 5.0821359360862370 2.9558363259126224 27.4752275869539275 S
atom 0.0847606733197200 8.0009216412098301 27.4681626184148087 S
atom 5.0821359360861997 7.1343343047753889 27.4752275869538387 S
atom 0.1600080335133833 -0.0000000000009481 29.9284802959377565 Ba
atom 5.2115430279443604 -0.0000000000008597 29.9692258099049305 Ba
atom 0.2141677648993816 5.0450853153439725 29.9621608421452201 Ba
atom 5.1573832958112824 5.0450853153439965 29.9355452642135198 Ba
atom 0.2394248078585001 -0.0000000000010450 34.6171524536005819 Ba
atom 4.9750035293848285 -0.0000000000010564 34.6261985218952262 Ba
atom -0.0223717334822013 5.0450853153439947 34.6191335541090837 Ba
atom 5.2368000705006619 5.0450853153440249 34.6242174214129008 Ba
atom 2.6127859250121590 2.5264470683640332 32.5623493290634585 Zr
atom 7.6101611877975790 2.5186382469553688 32.5694142968903719 Zr
atom 2.6127859250121555 7.5637235623238555 32.5623493290634300 Zr
atom 7.6101611877975905 7.5715323837326727 32.5694142968902156 Zr
atom 2.5940192534696869 2.8548305221735428 29.9895444996519807 S
atom 7.5913945168689647 2.1902547930656433 29.9966094674768904 S
atom 2.5940192534697468 7.2353401085142988 29.9895444996518741 S
atom 7.5913945168688857 7.8999158376223546 29.9966094674774233 S
atom 2.6042762225743012 2.2050395932144964 35.0493102313368396 S
atom 7.6016514850431021 2.8400457221595086 35.0563751991585022 S
atom 2.6042762225741987 7.8851310374730845 35.0493102313370954 S
atom 7.6016514850431873 7.2501249085286243 35.0563751991581256 S
atom 2.6228584790432081 -0.0000000000009979 32.1368475140965941 S
atom 7.6056525909987860 -0.0000000000007711 32.7867443091459236 S
atom 2.6082773282537937 5.0450853153439201 32.7796793412329777 S
atom 7.6202337417995949 5.0450853153438819 32.1439124818891884 S
atom 0.1117666426538085 2.5215454312824663 32.4363798469094462 S
atom 5.1091419054254201 2.5235398840733620 32.4434448142572407 S
atom 0.1117666426539609 7.5686251994054645 32.4363798469092544 S
atom 5.1091419054252745 7.5666307466146137 32.4434448142570204 S
atom 2.6010065318374993 2.6693264125503320 38.1287298397206484 Ba
atom 7.5983817945909307 2.3757589027883359 38.1357948075351558 Ba
atom 2.6010065318374695 7.4208442181373444 38.1287298397207621 Ba
atom 7.5983817945911314 7.7144117278991216 38.1357948075350635 Ba
atom 2.5942928987318639 2.5005635174732674 42.8071592757008332 Ba
atom 7.5916681614987569 2.5445217978668615 42.8142242435164206 Ba
atom 2.5942928987314602 7.5896071132132938 42.8071592757009896 Ba
atom 7.5916681614990056 7.5456488328186619 42.8142242435153548 Ba
atom 5.1081445170034643 5.0450853153436226 40.1911861930580656 Zr
atom 10.0827333147716978 5.0450853153435826 40.1990671862366042 Zr
atom 5.0853580520058577 10.0901706306886094 40.1920022184162349 Zr
atom 10.1055197797754843 10.0901706306886698 40.1982511608766160 Zr
atom 5.0908905790387315 5.0450853153435480 45.2092192598293039 Zr
atom 10.0857819554675032 5.0450853153436199 45.2166606459470799 Zr
atom 5.0884066926995590 10.0901706306884389 45.2095956781288137 Zr
atom 10.0882658418089459 10.0901706306883998 45.2162842276475700 Zr
atom 4.7554343668287533 5.0450853153438144 37.7021903646019041 S
atom 10.4423847619496595 5.0450853153441226 37.7111454113992650 S
atom 5.4450094991707552 10.0901706306886378 37.7040804435895467 S
atom 9.7528096296022131 10.0901706306884460 37.7092553324045880 S
atom 5.5669527063177622 5.0450853153435791 42.7347401788469909 S
atom 9.6166074755631517 5.0450853153430648 42.7406606855369162 S
atom 4.6192322127939880 10.0901706306888652 42.7335957177230412 S
atom 10.5643279690840792 10.0901706306894763 42.7418051466608162 S
atom 5.0965385748914978 2.5225740155371867 40.3207452609689980 S
atom 10.0939138376598692 2.5225112998047403 40.3278102287794837 S
atom 5.0965385748912704 7.5675966151502019 40.3207452609692325 S
atom 10.0939138376602049 7.5676593308826687 40.3278102287807059 S
atom 5.0896172065287040 2.5225312974656395 45.2239679325380450 S
atom 10.0869924692915927 2.5225540178773604 45.2310329003514724 S
atom 5.0896172065221341 7.5676393332219813 45.2239679325377892 S
atom 10.0869924692982238 7.5676166128103022 45.2310329003493194 S
atom 2.5974160571071780 5.0450853153434592 40.6730507825537160 S
atom 7.5958923411563397 5.0450853153439503 39.8614551716306948 S
atom 2.5985170783852394 10.0901706306887888 39.8543902038214242 S
atom 7.5947913198815256 10.0901706306885046 40.6801157503660349 S
atom 2.5915894403252149 5.0450853153416659 44.7306433556493985 S
atom 7.5876162993958260 5.0450853153467881 45.7072533706950210 S
atom 2.5902410366261703 10.0901706306919472 45.7001884028770533 S
atom 7.5889647030953276 10.0901706306863606 44.7377083234654549 S
atom 2.5874008418902306 2.5261378458735972 47.7126001779194979 Ba
atom 7.5847761046592188 2.5189474694676988 47.7196651457311560 Ba
atom 2.5874008418908980 7.5640327848135058 47.7126001779138136 Ba
atom 7.5847761046585678 7.5712231612178629 47.7196651457365491 Ba
atom 2.5804013963511672 2.5186936337225525 52.6609753203035851 Ba
atom 7.5777766591196718 2.5263916816240828 52.6680402881247076 Ba
atom 2.5804013963504362 7.5714769969699622 52.6609753203083599 Ba
atom 7.5777766591203921 7.5637789490664522 52.6680402881198120 Ba
atom 5.0810410754450466 5.0450853153444237 50.1753765598986874 Zr
atom 10.0814636107781297 5.0450853153443340 50.1825931240267451 Zr
atom 5.0840883480087697 10.0901706306892880 50.1755281562093458 Zr
atom 10.0784163382148364 10.0901706306892986 50.1824415277162714 Zr
atom 5.0756760042254117 5.0450853153449486 55.1400448109213670 Zr
atom 10.0730512669946553 5.0450853153449025 55.1471097787398818 Zr
atom 5.0756760042253477 10.0901706306898529 55.1400448109223618 Zr
atom 10.0730512669945487 10.0901706306898049 55.1471097787391571 Zr
atom 4.5783474312002959 5.0450853153442861 47.6974003473771901 S
atom 10.5912801396499354 5.0450853153452506 47.7060110674659299 S
atom 5.5939048768800070 10.0901706306887480 47.6989460996496319 S
atom 9.5757226939693325 10.0901706306877745 47.7044653151930973 S
atom 5.5875984573561155 5.0450853153439734 52.6598375174765820 S
atom 9.5679791268098189 5.0450853153428801 52.6655162683883376 S
atom 4.5706038640404278 10.0901706306896504 52.6584513005713717 S
atom 10.5849737201255572 10.0901706306908050 52.6669024852934911 S
atom 5.0825331942773726 2.5225417582694356 50.1818505417584930 S
atom 10.0799084570622384 2.5225435570741652 50.1889155095725599 S
atom 5.0825331942926848 7.5676288724191965 50.1818505417590188 S
atom 10.0799084570469741 7.5676270736144158 50.1889155095759847 S
atom 5.0756760042256319 2.5225360365812297 55.1400448109229231 S
atom 10.0730512669941401 2.5225492787629404 55.1471097787405213 S
atom 5.0756760042247144 7.5676345941079122 55.1400448109222481 S
atom 10.0730512669951366 7.5676213519261095 55.1471097787372670 S
atom 2.5831728798996592 5.0450853153508657 50.6747244036458966 S
atom 7.5819681323773818 5.0450853153378326 49.6913824604786214 S
atom 2.5845928696078477 10.0901706306827048 49.6843174926616413 S
atom 7.5805481426692669 10.0901706306957397 50.6817893714621235 S
atom 2.5776762082861562 5.0450853153437913 54.6409200701305409 S
atom 7.5736758001642377 5.0450853153442816 55.6391695517145095 S
atom 2.5763005373948054 10.0901706306893448 55.6321045838972026 S
atom 7.5750514710556578 10.0901706306885632 54.6479850379466114 S
atom 2.5735753493297477 2.5263916816246246 57.6120493337205417 Ba
atom 7.5709506121001668 2.5186936337210213 57.6191143015404919 Ba
atom 2.5735753493303961 7.5637789490670837 57.6120493337232276 Ba
atom 7.5709506120995416 7.5714769969684603 57.6191143015378060 Ba
atom 2.5665759037908882 2.5189474694684701 62.5604244761116632 Ba
atom 7.5639511665606873 2.5261378458731101 62.5674894439261067 Ba
atom 2.5665759037904627 7.5712231612185619 62.5604244761101924 Ba
atom 7.5639511665610621 7.5640327848127535 62.5674894439279754 Ba
atom 5.0703109330050689 5.0450853153442257 60.1047130619450911 Zr
atom 10.0646389232111986 5.0450853153442470 60.1116264334515762 Zr
atom 5.0672636604417143 10.0901706306891263 60.1045614656347453 Zr
atom 10.0676861957748525 10.0901706306891086 60.1117780297621565 Zr
atom 5.0604614294109433 5.0450853153439947 65.0708703620143041 Zr
atom 10.0603205785203240 5.0450853153439157 65.0775589115311988 Zr
atom 5.0629453157521684 10.0901706306889203 65.0704939437130037 Zr
atom 10.0578366921811106 10.0901706306889363 65.0779353298319734 Zr
atom 4.5637535510942646 5.0450853153448714 57.6202521043672178 S
atom 10.5781234071794259 5.0450853153458555 57.6287032890903106 S
atom 5.5807481444099079 10.0901706306887498 57.6216383212735863 S
atom 9.5611288138637409 10.0901706306877728 57.6273170721839705 S
atom 5.5730045772507131 5.0450853153436404 62.5826892744683505 S
atom 9.5548223943397108 5.0450853153429831 62.5882084900109845 S
atom 4.5574471315699698 10.0901706306895456 62.5811435221950774 S
atom 10.5703798400200721 10.0901706306902490 62.5897542422838526 S
atom 5.0688188141695951 2.5225417582693508 60.0982390800863016 S
atom 10.0661940769306195 2.5225435570741883 60.1053040479008587 S
atom 5.0688188141609301 7.5676288724192124 60.0982390800873176 S
atom 10.0661940769393041 7.5676270736143998 60.1053040479042266 S
atom 5.0617348019253878 2.5225312974659375 65.0561216893108849 S
atom 10.0591100646942380 2.5225540178772747 65.0631866571244473 S
atom 5.0617348019248434 7.5676393332221750 65.0561216893098475 S
atom 10.0591100646949219 7.5676166128108271 65.0631866571220741 S
atom 2.5693838760732755 5.0450853153406596 60.5887071613662087 S
atom 7.5681791285506446 5.0450853153481710 59.6053652181990188 S
atom 2.5708038657813677 10.0901706306932333 59.5983002503818469 S
atom 7.5667591388425777 10.0901706306856678 60.5957721291823788 S
atom 2.5637357090551545 5.0450853153438224 64.5728362511505196 S
atom 7.5597625681244169 5.0450853153445312 65.5494462661958863 S
atom 2.5623873053558128 10.0901706306895171 65.5423812983787428 S
atom 7.5611109718242417 10.0901706306887533 64.5799012189659720 S
atom 2.5596838469495689 2.5445217978694052 67.4658653783269955 Ba
atom 7.5570591097210551 2.5005635174749008 67.4729303461449774 Ba
atom 2.5596838469496173 7.5456488328193663 67.4658653783263844 Ba
atom 7.5570591097210098 7.5896071132130221 67.4729303461451337 Ba
atom 2.5529702138439290 2.3757589027927115 72.1442948143068747 Ba
atom 7.5503454766288209 2.6693264125542733 72.1513597821253967 Ba
atom 2.5529702138438641 7.7144117278959428 72.1442948143068463 Ba
atom 7.5503454766287996 7.4208442181335004 72.1513597821257378 Ba
atom 5.0432074914445666 5.0450853153441821 70.0889034287833397 Zr
atom 10.0633692192142981 5.0450853153441999 70.0951523712453337 Zr
atom 5.0659939564482492 10.0901706306891370 70.0880874034242680 Zr
atom 10.0405827542165973 10.0901706306890890 70.0959683966024585 Zr
atom 4.5843993021356546 5.0450853153445925 67.5453494430003758 S
atom 10.5294950584260647 5.0450853153448501 67.5535588719372271 S
atom 5.5321197956571639 10.0901706306886272 67.5464939041232526 S
atom 9.5817745649023678 10.0901706306883074 67.5524144108145350 S
atom 5.3959176416181807 5.0450853153437425 72.5778992572546713 S
atom 9.7037177720491332 5.0450853153439628 72.5830741460725193 S
atom 4.7063425092704501 10.0901706306895029 72.5760091782615433 S
atom 10.3932929043915578 10.0901706306893733 72.5849642250584282 S
atom 5.0548134335599375 2.5225740155379119 69.9593443608801948 S
atom 10.0521886963287415 2.5225112998059620 69.9664093286916966 S
atom 5.0548134335600263 7.5675966151503626 69.9593443608809622 S
atom 10.0521886963286917 7.5676593308823490 69.9664093286922366 S
atom 2.5554596672957266 5.0450853153443678 70.4186344502063548 S
atom 7.5539359513388717 5.0450853153437869 69.6070388392951145 S
atom 2.5565606885741610 10.0901706306888403 69.5999738714738783 S
atom 7.5528349300635780 10.0901706306891299 70.4256994180297937 S
