#=======================================================
# FHI-aims file: full_relax/full_relax_RP_2_RxRyMz_-Rx-RyMz.in
# Created using the Atomic Simulation Environment (ASE)
# Fri Mar 14 11:18:22 2025
#=======================================================
lattice_vector 10.0810525806220888 0.1194835776789693 0.0000000000064642 
lattice_vector 0.1194835776790696 10.0810525806380209 0.0000000000269100 
lattice_vector 0.0000000000180610 0.0000000000718725 25.5129462393439432 
atom -0.0998476442263356 -0.0997883282495526 0.2830127789318005 Ba
atom 5.1403146150977523 0.1595894314685580 0.2830127888695702 Ba
atom 0.1595301124849114 5.1403739360946430 0.2830127882664418 Ba
atom 5.0004204359983166 5.0004797566962207 0.2830127903159155 Ba
atom 0.0263480036631786 0.0262937503345529 4.9063358115577254 Ba
atom 5.0142325418523681 0.0333937841085788 4.9063358117871294 Ba
atom 0.0334480368482453 5.0141782837176976 4.9063358129032837 Ba
atom 5.1266160872167852 5.1265618288578940 4.9063358143690490 Ba
atom 2.5407965771955805 2.5408128311696134 2.3647051758599225 Zr
atom 7.5999815343410004 2.6192132897358116 2.3647051749980634 Zr
atom 2.6191970274891641 7.5999977920820738 2.3647051662820031 Zr
atom 7.6410646546555370 7.6410809208578252 2.3647051768752090 Zr
atom 2.5407965752571768 2.5408128419890201 7.4479665107962267 Zr
atom 7.5999815267553403 2.6192132987680994 7.4479665046682335 Zr
atom 2.6191970303827068 7.5999977893894428 7.4479664940895214 Zr
atom 7.6410646537783240 7.6410809229005592 7.4479664944790294 Zr
atom 2.7330758888612414 2.7330514111429651 -0.1263022857855793 S
atom 7.4077429566515098 2.4269339796876106 -0.1263022726875493 S
atom 2.4269584537362792 7.4077184823495275 -0.1263022653395164 S
atom 7.8333439695884630 7.8333194955622565 -0.1263022794953615 S
atom 2.2948676228261777 2.2948876341942706 4.9063358167354547 S
atom 7.8459067343876390 2.8651422481204825 4.9063358172381228 S
atom 2.8651222317575367 7.8459267457043191 4.9063357854845444 S
atom 7.3951357005746594 7.3951557168991977 4.9063357967489694 S
atom 2.5202011453352324 0.0298775813535409 2.2328101217410339 S
atom 7.5608346395693902 0.0896184221322322 2.6833893239208213 S
atom 2.5800501385020409 5.0704029321554476 2.6833893280931727 S
atom 7.6204692256185123 5.1301456433889872 2.2328101197808379 S
atom 2.5202011416576440 0.0298775701582094 7.5798615122517052 S
atom 7.5608346401555035 0.0896183982312140 7.1292823095402653 S
atom 2.5800501373852422 5.0704029333615006 7.1292823098221101 S
atom 7.6204692234219529 5.1301456553968512 7.5798615161766651 S
atom 0.0298642186762578 2.5203251448192461 2.2328101185656033 S
atom 5.0703914409803623 2.5799597292066085 2.6833893246220581 S
atom 0.0896069394943563 7.5607442304734942 2.6833893272211378 S
atom 5.1301323024152792 7.6205932226906983 2.2328101243736369 S
atom 0.0298642145194304 2.5203251489279745 7.5798615131495879 S
atom 5.0703914524354392 2.5799597325890744 7.1292823100417939 S
atom 0.0896069454855311 7.5607442318880507 7.1292823081909678 S
atom 5.1301322873110520 7.6205932277059230 7.5798615146151205 S
atom -0.0998476468984743 -0.0997883319029887 9.5296588689449617 Ba
atom 5.1403146260610795 0.1595894373092400 9.5296588644929638 Ba
atom 0.1595301220849042 5.1403739323744171 9.5296588583504391 Ba
atom 5.0004204343218364 5.0004797412200972 9.5296588596876379 Ba
atom 2.7330758838498537 2.7330514122044316 9.9389738426075613 S
atom 7.4077429586071686 2.4269339858941761 9.9389738409103980 S
atom 2.4269584570351688 7.4077184810747134 9.9389738785788140 S
atom 7.8333439651904921 7.8333194907703145 9.9389738670603052 S
atom 2.6499816815804205 2.6499223575565711 13.0394858927080310 Ba
atom 7.4908720100647965 2.5100281803024509 13.0394858939236418 Ba
atom 2.5100874932081041 7.4908126905306771 13.0394858871958910 Ba
atom 7.7502497688506198 7.7501904539786377 13.0394858864996976 Ba
atom 2.5237860358614124 2.5238402885102262 17.6628089336532703 Ba
atom 7.6169540790197630 2.6362238362374169 17.6628089348137856 Ba
atom 2.6361695810608503 7.6170083344792543 17.6628089353450264 Ba
atom 7.6240541118843375 7.6241083663284765 17.6628089342617969 Ba
atom 5.1096055338811510 5.1095892912007654 15.1211783082499327 Zr
atom 10.1314731519230037 5.1506724159570973 15.1211783058737979 Zr
atom 5.1506886583268638 10.1314569110531352 15.1211783058001821 Zr
atom 10.2098736186354007 10.2098573600025340 15.1211782517007016 Zr
atom 5.1096055320906819 5.1095892752717642 20.2044396094418417 Zr
atom 10.1314731640442783 5.1506724142047249 20.2044396264530768 Zr
atom 5.1506886678340740 10.1314569114382973 20.2044396169551064 Zr
atom 10.2098736144337536 10.2098573615870887 20.2044395942214514 Zr
atom 4.9173262255566792 4.9173507092884527 12.6301708399641868 S
atom 10.3237117431724794 5.3429517228727930 12.6301708406696296 S
atom 5.3429272404678718 10.3237362197038696 12.6301708466943090 S
atom 10.0175943097512992 10.0176187839987723 12.6301708696328010 S
atom 5.3555344834281131 5.3555144792454090 17.6628089224702940 S
atom 9.8855479612448196 4.9047434551361189 17.6628088841278448 S
atom 4.9047634643377140 9.8855279593303660 17.6628088460068575 S
atom 10.4558025706595821 10.4557825647722691 17.6628089766537677 S
atom 5.0703519703885318 2.5799991966432994 15.4398624560690845 S
atom 10.1109854695536896 2.6397400106293953 14.9892832423474633 S
atom 5.1302009745027215 7.6205245163442425 14.9892832502932318 S
atom 10.1706200532513105 7.6802672801732275 15.4398624452838025 S
atom 5.0703519771004411 2.5799991927429362 19.8857554420165421 S
atom 10.1109854706232749 2.6397400377427740 20.3363346357107204 S
atom 5.1302009664658863 7.6205245424617782 20.3363346519840213 S
atom 10.1706200585976667 7.6802672590005630 19.8857554321934451 S
atom 2.5800106909762568 5.0704423974590798 15.4398624514155358 S
atom 7.6205379327548712 5.1300769690098029 14.9892832484798681 S
atom 2.6397534036182351 10.1108614747488872 14.9892832459342902 S
atom 7.6802787692162022 10.1707104730074036 15.4398624510010301 S
atom 2.5800106961932716 5.0704423892294761 19.8857554387453987 S
atom 7.6205379292948274 5.1300769769933714 20.3363346482629517 S
atom 2.6397534375179044 10.1108614794234803 20.3363346423210771 S
atom 7.6802787387018858 10.1707104727930417 19.8857554322702086 S
atom 2.6499816810578349 2.6499223742257856 22.2861319794652424 Ba
atom 7.4908719987564050 2.5100281863962373 22.2861319759314220 Ba
atom 2.5100874999005791 7.4908126826364860 22.2861319736674091 Ba
atom 7.7502497613678001 7.7501904456115485 22.2861319781103049 Ba
atom 4.9173262310480323 4.9173507068746343 22.6954469552460587 S
atom 10.3237117378286243 5.3429517149342338 22.6954469495239408 S
atom 5.3429272369094338 10.3237362150415581 22.6954469655410271 S
atom 10.0175943083852808 10.0176187846555056 22.6954470043364012 S
