#=======================================================
# FHI-aims file: full_relax/full_relax_RP_8_00Rz_000.in
# Created using the Atomic Simulation Environment (ASE)
# Mon Mar 24 15:54:26 2025
#=======================================================
lattice_vector 10.0017051080292081 0.0000000000000000 0.0000000000001648 
lattice_vector 0.0000000000000000 10.0017051080292081 0.0000000000001527 
lattice_vector 0.0000000000014093 0.0000000000013059 86.5288174929406182 
atom 0.0000000000364715 0.0000000000309316 0.1543652913411073 Ba
atom 5.0008525539915070 -0.0000000000202235 0.1543652913413358 Ba
atom -0.0000000000249346 5.0008525539675892 0.1543652913411658 Ba
atom 5.0008525540531990 5.0008525540074524 0.1543652913412607 Ba
atom -0.0000000000205018 -0.0000000000077733 4.9193926409451345 Ba
atom 5.0008525540211801 0.0000000000455361 4.9193926409452153 Ba
atom 0.0000000000057682 5.0008525540581035 4.9193926409452393 Ba
atom 5.0008525539953599 5.0008525540007698 4.9193926409453725 Ba
atom 2.5004262769884988 2.5004262770023837 2.2942741309393226 Zr
atom 7.5012788310422165 2.5004262770008672 2.2942741309368300 Zr
atom 2.5004262770275858 7.5012788310154415 2.2942741309476458 Zr
atom 7.5012788310031278 7.5012788310169540 2.2942741309451944 Zr
atom 2.5004262770072279 2.5004262770098440 7.4104106135943448 Zr
atom 7.5012788310186647 2.5004262770081285 7.4104106135936521 Zr
atom 2.5004262770040535 7.5012788310227583 7.4104106135972181 Zr
atom 7.5012788310218097 7.5012788310244538 7.4104106135965688 Zr
atom 2.5004262767953769 2.5004262769763974 -0.2152498983314489 S
atom 7.5012788312253438 2.5004262770446073 -0.2152498983318872 S
atom 2.5004262772105670 7.5012788310590635 -0.2152498983365151 S
atom 7.5012788308101594 7.5012788309908425 -0.2152498983369110 S
atom 2.5004262770676924 2.5004262770267420 4.8997768839998495 S
atom 7.5012788309652336 2.5004262769688528 4.8997768839997313 S
atom 2.5004262769507908 7.5012788309835772 4.8997768839988112 S
atom 7.5012788310821419 7.5012788310414420 4.8997768839987019 S
atom 2.2164914430949247 -0.0000000000038753 2.4211048822834775 S
atom 7.7852136649329626 -0.0000000000038685 2.4211048822142907 S
atom 2.7843611109185815 5.0008525540130488 2.4211048822149293 S
atom 7.2173439971096336 5.0008525540130382 2.4211048822832382 S
atom 3.0099020546202326 -0.0000000000027058 7.4386518956581007 S
atom 6.9918030534044711 -0.0000000000027202 7.4386518956851271 S
atom 1.9909504993897680 5.0008525540124893 7.4386518956848908 S
atom 8.0107546086347181 5.0008525540124911 7.4386518956583698 S
atom 0.0000000000000078 2.7843611109334612 2.4211048823566834 S
atom 5.0008525540143669 2.2164914431132750 2.4211048821455168 S
atom 0.0000000000000118 7.2173439971245514 2.4211048821413068 S
atom 5.0008525540143722 7.7852136649513470 2.4211048823522381 S
atom 0.0000000000000334 1.9909504993942033 7.4386518956512653 S
atom 5.0008525540145321 3.0099020546242223 7.4386518956949637 S
atom 0.0000000000000261 8.0107546086391483 7.4386518956918151 S
atom 5.0008525540145294 6.9918030534084625 7.4386518956484835 S
atom -0.0000000000006294 0.0000000000110393 9.9774081162740753 Ba
atom 5.0008525540051521 0.0000000000013968 9.9774081162741854 Ba
atom -0.0000000000096525 5.0008525540137896 9.9774081162741677 Ba
atom 5.0008525540142328 5.0008525540265731 9.9774081162742778 Ba
atom -0.0000000000020891 0.0000000000004258 15.0491137633878544 Ba
atom 5.0008525540144042 0.0000000000010171 15.0491137633879628 Ba
atom -0.0000000000002621 5.0008525540158768 15.0491137633879415 Ba
atom 5.0008525540127859 5.0008525540140836 15.0491137633880090 Ba
atom 2.5004262770061856 2.5004262770075418 12.4962442402988305 Zr
atom 7.5012788310210725 2.5004262770076853 12.4962442402987168 Zr
atom 2.5004262770064440 7.5012788310223097 12.4962442403002942 Zr
atom 7.5012788310208043 7.5012788310221552 12.4962442403002338 Zr
atom 2.5004262770070054 2.5004262770070667 17.5811354364263828 Zr
atom 7.5012788310216019 2.5004262770070564 17.5811354364266492 Zr
atom 2.5004262770069823 7.5012788310216409 17.5811354364273527 Zr
atom 7.5012788310216036 7.5012788310216516 17.5811354364275694 Zr
atom 2.5004262769992147 2.5004262769942991 9.9705155825017524 S
atom 7.5012788310344742 2.5004262770101682 9.9705155825017115 S
atom 2.5004262770197871 7.5012788310247407 9.9705155825018164 S
atom 7.5012788310139218 7.5012788310088396 9.9705155825018394 S
atom 2.5004262770090615 2.5004262770072945 15.0465371124127358 S
atom 7.5012788310214997 2.5004262770043519 15.0465371124128229 S
atom 2.5004262770069663 7.5012788310189968 15.0465371124129490 S
atom 7.5012788310235967 7.5012788310219332 15.0465371124130378 S
atom 1.9980637742949658 -0.0000000000011469 12.5157829519355168 S
atom 8.0036413337328778 -0.0000000000011512 12.5157829519302997 S
atom 3.0027887797183164 5.0008525540136546 12.5157829519303263 S
atom 6.9989163283096314 5.0008525540136466 12.5157829519356447 S
atom 3.0036314883053392 -0.0000000000004624 17.5864621933009282 S
atom 6.9980736197234927 -0.0000000000004711 17.5864621933016601 S
atom 1.9972210657087961 5.0008525540141902 17.5864621933016920 S
atom 8.0044840423199481 5.0008525540141902 17.5864621933008642 S
atom -0.0000000000000051 3.0027887797188511 12.5157829519362576 S
atom 5.0008525540145738 1.9980637742956988 12.5157829519305057 S
atom 0.0000000000000042 6.9989163283101545 12.5157829519296282 S
atom 5.0008525540145818 8.0036413337336025 12.5157829519353783 S
atom 0.0000000000000704 1.9972210657087945 17.5864621933012231 S
atom 5.0008525540146387 3.0036314883052460 17.5864621933016458 S
atom 0.0000000000000772 8.0044840423198558 17.5864621933011236 S
atom 5.0008525540146342 6.9980736197233098 17.5864621933010064 S
atom -0.0000000000007255 -0.0000000000005684 20.1229808123114431 Ba
atom 5.0008525540143021 -0.0000000000001315 20.1229808123116172 Ba
atom -0.0000000000007854 5.0008525540140836 20.1229808123116634 Ba
atom 5.0008525540138766 5.0008525540144468 20.1229808123117344 Ba
atom -0.0000000000009774 -0.0000000000029911 25.1968478612351277 Ba
atom 5.0008525540086488 -0.0000000000010280 25.1968478612353550 Ba
atom -0.0000000000059600 5.0008525540145587 25.1968478612352840 Ba
atom 5.0008525540146778 5.0008525540114048 25.1968478612355185 Ba
atom 2.5004262770069623 2.5004262770069312 22.6648261881956650 Zr
atom 7.5012788310215130 2.5004262770069823 22.6648261881963329 Zr
atom 2.5004262770069281 7.5012788310216179 22.6648261881965922 Zr
atom 7.5012788310215397 7.5012788310215468 22.6648261881972779 Zr
atom 2.5004262770044541 2.5004262770062011 27.7497173843223273 Zr
atom 7.5012788310195431 2.5004262770053076 27.7497173843239295 Zr
atom 2.5004262770049377 7.5012788310199028 27.7497173843238443 Zr
atom 7.5012788310190688 7.5012788310207945 27.7497173843254217 Zr
atom 2.5004262770081174 2.5004262770075063 20.1229808123115710 S
atom 7.5012788310227396 2.5004262770071417 20.1229808123116811 S
atom 2.5004262770080952 7.5012788310215521 20.1229808123118090 S
atom 7.5012788310227609 7.5012788310219198 20.1229808123119298 S
atom 2.5004262770136365 2.5004262770042578 25.1994245122103848 S
atom 7.5012788310235026 2.5004262770140127 25.1994245122105553 S
atom 2.5004262770091312 7.5012788310288689 25.1994245122105802 S
atom 7.5012788310280190 7.5012788310191070 25.1994245122107650 S
atom 1.9972210657088751 0.0000000000001334 22.6594994313208389 S
atom 8.0044840423199588 0.0000000000001314 22.6594994313230345 S
atom 3.0036314883054556 5.0008525540146982 22.6594994313236313 S
atom 6.9980736197235789 5.0008525540146920 22.6594994313208744 S
atom 3.0027887797177688 0.0000000000011608 27.7301786727019355 S
atom 6.9989163283090843 0.0000000000011567 27.7301786726791448 S
atom 1.9980637742942478 5.0008525540155864 27.7301786726797488 S
atom 8.0036413337321601 5.0008525540155810 27.7301786727008981 S
atom 0.0000000000006287 3.0036314883053299 22.6594994313227573 S
atom 5.0008525540151405 1.9972210657087834 22.6594994313218301 S
atom 0.0000000000006205 6.9980736197234927 22.6594994313214961 S
atom 5.0008525540151521 8.0044840423199375 22.6594994313223346 S
atom 0.0000000000023157 1.9980637742947358 27.7301786726850672 S
atom 5.0008525540167188 3.0027887797182089 27.7301786726966313 S
atom 0.0000000000023182 8.0036413337326398 27.7301786726954766 S
atom 5.0008525540167197 6.9989163283095062 27.7301786726845023 S
atom -0.0000000000425924 -0.0000000000025451 30.2685535083488908 Ba
atom 5.0008525540139628 -0.0000000000229378 30.2685535083491786 Ba
atom -0.0000000000030739 5.0008525539907671 30.2685535083490720 Ba
atom 5.0008525539713782 5.0008525540142923 30.2685535083493740 Ba
atom 0.0000000000329437 -0.0000000000839041 35.3265689836779444 Ba
atom 5.0008525538616020 0.0000000000163182 35.3265689836780865 Ba
atom -0.0000000001559658 5.0008525540369835 35.3265689836779941 Ba
atom 5.0008525540539441 5.0008525539328508 35.3265689836782073 Ba
atom 2.5004262770025871 2.5004262769975498 32.8355510110247195 Zr
atom 7.5012788310113079 2.5004262770085459 32.8355510110281159 Zr
atom 2.5004262769966625 7.5012788310231615 32.8355510110276683 Zr
atom 7.5012788310172374 7.5012788310121783 32.8355510110311855 Zr
atom 2.5004262769918033 2.5004262770767940 37.9516874936718267 Zr
atom 7.5012788310708638 2.5004262769555368 37.9516874936819164 Zr
atom 2.5004262770562589 7.5012788309701062 37.9516874936803958 Zr
atom 7.5012788310064140 7.5012788310913692 37.9516874936905211 Zr
atom 2.5004262770033336 2.5004262770533532 30.2754460421215121 S
atom 7.5012788310579426 2.5004262769788146 30.2754460421216365 S
atom 2.5004262770431502 7.5012788309930407 30.2754460421215938 S
atom 7.5012788310181273 7.5012788310675687 30.2754460421217892 S
atom 2.5004262771452463 2.5004262768207415 35.3461847406250342 S
atom 7.5012788309430078 2.5004262772248040 35.3461847406242740 S
atom 2.5004262769283816 7.5012788312398477 35.3461847406239897 S
atom 7.5012788311598735 7.5012788308357941 35.3461847406233218 S
atom 1.9909504993832012 0.0000000000035190 32.8073097288763762 S
atom 8.0107546086282220 0.0000000000035238 32.8073097290265849 S
atom 3.0099020546139998 5.0008525540175199 32.8073097290298605 S
atom 6.9918030533982671 5.0008525540175173 32.8073097288738893 S
atom 2.7843611108681863 0.0000000000047287 37.8248567427299847 S
atom 7.2173439970590438 0.0000000000047277 37.8248567420187953 S
atom 2.2164914430412721 5.0008525540170110 37.8248567420218222 S
atom 7.7852136648797092 5.0008525540170217 37.8248567427263325 S
atom 0.0000000000065337 3.0099020546178474 32.8073097289942623 S
atom 5.0008525540205451 1.9909504993871392 32.8073097289119815 S
atom 0.0000000000065487 6.9918030534020321 32.8073097289090327 S
atom 5.0008525540205415 8.0107546086320554 32.8073097289913704 S
atom 0.0000000000079620 2.2164914430658551 37.8248567421871584 S
atom 5.0008525540202324 2.7843611108929887 37.8248567425655651 S
atom 0.0000000000079807 7.7852136649042079 37.8248567425613587 S
atom 5.0008525540202200 7.2173439970836624 37.8248567421830302 S
atom -0.0000000000745998 0.0000000000564337 40.0915963332817569 Ba
atom 5.0008525541574578 -0.0000000000496795 40.0915963332818492 Ba
atom 0.0000000001166268 5.0008525540029627 40.0915963332818919 Ba
atom 5.0008525539759860 5.0008525540978486 40.0915963332819913 Ba
atom 2.5004262766341179 2.5004262776728892 40.4612115229621736 S
atom 7.5012788313668004 2.5004262763266052 40.4612115229580738 S
atom 2.5004262773523380 7.5012788303408886 40.4612115229572566 S
atom 7.5012788306486007 7.5012788316871877 40.4612115229531142 S
atom 2.5004262782512754 2.5004262746541719 43.5953488051830860 Ba
atom 7.5012788297675765 2.5004262793549805 43.5953488052259956 Ba
atom 2.5004262757530094 7.5012788333694331 43.5953488052225850 Ba
atom 7.5012788322658350 7.5012788286686138 43.5953488052655729 Ba
atom 2.5004262763825627 2.5004262781719508 48.4063181160211542 Ba
atom 7.5012788316468626 2.5004262758426248 48.4063181159084763 Ba
atom 2.5004262776323047 7.5012788298572355 48.4063181159301195 Ba
atom 7.5012788303971005 7.5012788321865358 48.4063181158174984 Ba
atom 5.0008525538573982 5.0008525540962196 45.6654195867505379 Zr
atom 10.0017051081963135 5.0008525539272526 45.6654195867503745 Zr
atom 5.0008525541652817 10.0017051079520716 45.6654195867505592 Zr
atom 10.0017051078876698 10.0017051081219090 45.6654195867504811 Zr
atom 5.0008525541323516 5.0008525539519768 50.7554355409569311 Zr
atom 10.0017051079133061 5.0008525540884898 50.7554355409568743 Zr
atom 5.0008525539240338 10.0017051080926169 50.7554355409569879 Zr
atom 10.0017051081215609 10.0017051079562354 50.7554355409570235 Zr
atom 5.0008525587084751 5.0008525518174247 43.1591338459009322 S
atom 10.0017051034022497 5.0008525565897104 43.1591338459008185 S
atom 5.0008525497389460 10.0017051102582801 43.1591338459009393 S
atom 10.0017051123673966 10.0017051054906787 43.1591338459008540 S
atom 5.0008525462624904 5.0008525576222063 48.2508812798007725 S
atom 10.0017051157926993 5.0008525496867655 48.2508812798007938 S
atom 5.0008525609338212 10.0017051044269305 48.2508812798007369 S
atom 10.0017051011206757 10.0017051123632505 48.2508812798007440 S
atom 5.0008525549517433 2.5004281551379139 45.7749845666301880 S
atom 10.0017051070929543 2.5004243988831156 45.7749845607462049 S
atom 5.0008525530956431 7.5012769528971717 45.7749845612619239 S
atom 10.0017051089490465 7.5012807091529625 45.7749845671460136 S
atom 5.0008525366945369 2.5004262173929059 50.7821338650076441 S
atom 10.0017051253503801 2.5004263366229522 50.7821338745241633 S
atom 5.0008525713018486 7.5012788906375114 50.7821338736646410 S
atom 10.0017050907430605 7.5012787714076419 50.7821338641484985 S
atom 2.5004243988859556 5.0008525530919465 45.7749845581731378 S
atom 7.5012807091559317 5.0008525549480209 45.7749845697189954 S
atom 2.5004281551408503 10.0017051089522404 45.7749845691558122 S
atom 7.5012769529001622 10.0017051070961571 45.7749845587361506 S
atom 2.5004263366236721 5.0008525713150753 50.7821338785280787 S
atom 7.5012787714082458 5.0008525367077548 50.7821338601439791 S
atom 2.5004262173936063 10.0017050907291818 50.7821338612513316 S
atom 7.5012788906381891 10.0017051253365032 50.7821338774212805 S
atom 2.5004262772010573 2.5004262766474659 53.3630716302258605 Ba
atom 7.5012788308285430 2.5004262773674064 53.3630716303124331 Ba
atom 2.5004262768139780 7.5012788313819785 53.3630716302829455 Ba
atom 7.5012788312156129 7.5012788306620832 53.3630716303696246 Ba
atom 2.5004262769946362 2.5004262770457801 58.3686254598746217 Ba
atom 7.5012788310348606 2.5004262769690007 58.3686254598269940 Ba
atom 2.5004262770202099 7.5012788309836083 58.3686254598513941 Ba
atom 7.5012788310093157 7.5012788310603566 58.3686254598040648 Ba
atom 5.0008525540038864 5.0008525540520470 55.8114777907302368 Zr
atom 10.0017051080404222 5.0008525539872313 55.8114777907302297 Zr
atom 5.0008525540125319 10.0017051079919916 55.8114777907302226 Zr
atom 10.0017051080317216 10.0017051080568411 55.8114777907302866 Zr
atom 5.0008525539110043 5.0008525540092075 60.8625627324086693 Zr
atom 10.0017051081331196 5.0008525539927824 60.8625627324086480 Zr
atom 5.0008525541135684 10.0017051080347432 60.8625627324086196 Zr
atom 10.0017051079305350 10.0017051080511692 60.8625627324086125 Zr
atom 5.0008525646807156 5.0008525488537767 53.2962334589312547 S
atom 10.0017050973653472 5.0008525601096494 53.2962334589313329 S
atom 5.0008525447112682 10.0017051131910382 53.2962334589313045 S
atom 10.0017051173346854 10.0017051019353183 53.2962334589313045 S
atom 5.0008525424277304 5.0008525602723006 58.3415048592060828 S
atom 10.0017051196166715 5.0008525470753851 58.3415048592061112 S
atom 5.0008525640011907 10.0017051017717709 58.3415048592061893 S
atom 10.0017050980431552 10.0017051149687237 58.3415048592062249 S
atom 5.0008525965433206 2.5004262748901405 55.8232724288272806 S
atom 10.0017050655008646 2.5004262791247700 55.8232724162728857 S
atom 5.0008525115046067 7.5012788331393638 55.8232724171405437 S
atom 10.0017051505395873 7.5012788289047796 55.8232724296949314 S
atom 5.0008525422849681 2.5004262774234784 60.8651850738647440 S
atom 10.0017051197591211 2.5004262765912477 60.8651850875050968 S
atom 5.0008525657621350 7.5012788306058686 60.8651850871104401 S
atom 10.0017050962819436 7.5012788314380989 60.8651850734698172 S
atom 2.5004262791249183 5.0008525114802591 55.8232724114759762 S
atom 7.5012788289049528 5.0008525965189587 55.8232724344913365 S
atom 2.5004262748903106 10.0017051505637351 55.8232724329552781 S
atom 7.5012788331395157 10.0017050655250035 55.8232724130125959 S
atom 2.5004262765913650 5.0008525657871594 60.8651850917391783 S
atom 7.5012788314381824 5.0008525423099872 60.8651850692356575 S
atom 2.5004262774236259 10.0017050962566998 60.8651850708268114 S
atom 7.5012788306058988 10.0017051197338684 60.8651850901482305 S
atom 2.5004262769601433 2.5004262770642831 63.3873895587774427 Ba
atom 7.5012788310694640 2.5004262769504249 63.3873895587802636 Ba
atom 2.5004262770548187 7.5012788309651262 63.3873895587837666 Ba
atom 7.5012788309747611 7.5012788310790111 63.3873895587869427 Ba
atom 2.5004262770008232 2.5004262770111194 68.4061536577208216 Ba
atom 7.5012788310289205 2.5004262770037409 68.4061536577495417 Ba
atom 2.5004262770141867 7.5012788310184169 68.4061536577007843 Ba
atom 7.5012788310155214 7.5012788310257958 68.4061536577283960 Ba
atom 5.0008525541947373 5.0008525539819102 65.9122163851554319 Zr
atom 10.0017051078494497 5.0008525540756654 65.9122163851552330 Zr
atom 5.0008525538545827 10.0017051080621489 65.9122163851554461 Zr
atom 10.0017051081896220 10.0017051079684141 65.9122163851554461 Zr
atom 5.0008525538408204 5.0008525540744220 70.9633013268338715 Zr
atom 10.0017051082036019 5.0008525539435960 70.9633013268339283 Zr
atom 5.0008525541661220 10.0017051079696646 70.9633013268341131 Zr
atom 10.0017051078782728 10.0017051081005164 70.9633013268340420 Zr
atom 5.0008525640644379 5.0008525474496537 63.3873895587819476 S
atom 10.0017050979797251 5.0008525606272398 63.3873895587818552 S
atom 5.0008525454200070 10.0017051145943494 63.3873895587820115 S
atom 10.0017051166241018 10.0017051014167802 63.3873895587818694 S
atom 5.0008525471073444 5.0008525600231506 68.4332742583578977 S
atom 10.0017051149369696 5.0008525486079067 68.4332742583577414 S
atom 5.0008525598921212 10.0017051020208196 68.4332742583577982 S
atom 10.0017051021521368 10.0017051134361470 68.4332742583579261 S
atom 5.0008525103988930 2.5004262765913450 65.9095940435695695 S
atom 10.0017051516451776 2.5004262774235415 65.9095940308860833 S
atom 5.0008525975871692 7.5012788314380971 65.9095940305832642 S
atom 10.0017050644569050 7.5012788306059255 65.9095940432666367 S
atom 5.0008525738241625 2.5004262791246989 70.9515066890994461 S
atom 10.0017050882201683 2.5004262748901374 70.9515066992573651 S
atom 5.0008525342525569 7.5012788289047148 70.9515067000601789 S
atom 10.0017051277917641 7.5012788331393221 70.9515066899019899 S
atom 2.5004262774236081 5.0008525975741387 65.9095940283453388 S
atom 7.5012788306059628 5.0008525103859292 65.9095940458073670 S
atom 2.5004262765912886 10.0017050644699417 65.9095940445262016 S
atom 7.5012788314382695 10.0017051516581468 65.9095940296265042 S
atom 2.5004262748902946 5.0008525342458006 70.9515066998352637 S
atom 7.5012788331395130 5.0008525738173724 70.9515066893243755 S
atom 2.5004262791248855 10.0017051277982887 70.9515066901171281 S
atom 7.5012788289048995 10.0017050882267444 70.9515066990426249 S
atom 2.5004262771469516 2.5004262769170924 73.4117074872580417 Ba
atom 7.5012788308828942 2.5004262770979726 73.4117074872207240 Ba
atom 2.5004262768683319 7.5012788311125522 73.4117074873120430 Ba
atom 7.5012788311615379 7.5012788309316898 73.4117074872743132 Ba
atom 2.5004262765929433 2.5004262771614085 78.3684610016726850 Ba
atom 7.5012788314371406 2.5004262768538226 78.3684610017049863 Ba
atom 2.5004262774225507 7.5012788308684124 78.3684610015840519 Ba
atom 7.5012788306075064 7.5012788311759540 78.3684610016167937 Ba
atom 5.0008525541301863 5.0008525539403781 76.0193435766070991 Zr
atom 10.0017051079146402 5.0008525540799669 76.0193435766072128 Zr
atom 5.0008525539168751 10.0017051081034687 76.0193435766074543 Zr
atom 10.0017051081279380 10.0017051079639909 76.0193435766072412 Zr
atom 5.0008525539741298 5.0008525540791169 81.1093595308134638 Zr
atom 10.0017051080713362 5.0008525539580608 81.1093595308136344 Zr
atom 5.0008525540498061 10.0017051079621719 81.1093595308136059 Zr
atom 10.0017051079956119 10.0017051080841739 81.1093595308137481 Zr
atom 5.0008525576061720 5.0008525493099354 73.4785456586326973 S
atom 10.0017051044385301 5.0008525578328484 73.4785456586328394 S
atom 5.0008525509735913 10.0017051127336174 73.4785456586328536 S
atom 10.0017051110710629 10.0017051042109291 73.4785456586328536 S
atom 5.0008525527796923 5.0008525570451390 78.5238978377633288 S
atom 10.0017051092658225 5.0008525516906062 78.5238978377632435 S
atom 5.0008525550491880 10.0017051049955690 78.5238978377632719 S
atom 10.0017051069962779 10.0017051103510539 78.5238978377634709 S
atom 5.0008525578692318 2.5004263366221795 75.9926452520439142 S
atom 10.0017051041755138 2.5004262173922389 75.9926452452400838 S
atom 5.0008525501314498 7.5012787714067732 75.9926452444113636 S
atom 10.0017051119132852 7.5012788906369021 75.9926452512144124 S
atom 5.0008525537244788 2.5004243988779202 80.9997945514658824 S
atom 10.0017051083204151 2.5004281551337910 80.9997945552620848 S
atom 5.0008525543144211 7.5012807091478519 80.9997945557697392 S
atom 10.0017051077304835 7.5012769528930399 80.9997945519737215 S
atom 2.5004262173928482 5.0008525501479433 75.9926452459820609 S
atom 7.5012788906374128 5.0008525578856959 75.9926452504727905 S
atom 2.5004263366227852 10.0017051118962073 75.9926452501196081 S
atom 7.5012787714074589 10.0017051041584448 75.9926452463358828 S
atom 2.5004281551357859 5.0008525543050615 80.9997945541825999 S
atom 7.5012769528951173 5.0008525537151334 80.9997945530529080 S
atom 2.5004243988804986 10.0017051077393191 80.9997945531572725 S
atom 7.5012807091503753 10.0017051083292490 80.9997945540787327 S
atom 2.5004262777757575 2.5004262769336978 83.1794303123238734 Ba
atom 7.5012788302537263 2.5004262770850256 83.1794303123162848 Ba
atom 2.5004262762390952 7.5012788310995013 83.1794303123628964 Ba
atom 7.5012788317904109 7.5012788309481548 83.1794303123554073 Ba
atom 5.0008525542127487 5.0008525523585874 83.6156452716630696 S
atom 10.0017051078338248 5.0008525553107370 83.6156452716630838 S
atom 5.0008525538651609 10.0017051096635097 83.6156452716630270 S
atom 10.0017051081815804 10.0017051067161820 83.6156452716632543 S
