#=======================================================
# FHI-aims file: full_relax/full_relax_RP_8_Rx0Rz_0RyRz.in
# Created using the Atomic Simulation Environment (ASE)
# Mon Mar 24 16:01:50 2025
#=======================================================
lattice_vector 9.9081489535289933 0.0059161756228893 0.0719140352585663 
lattice_vector 0.0058984533572498 9.9081825013491507 -0.0716847933481179 
lattice_vector -0.6376304430990481 0.6395881767719485 87.4998282941836720 
atom 0.1006111773116893 -0.0890114554530832 0.1680404961429891 Ba
atom 5.0427316462854153 -0.0983087594485901 0.2038867852069169 Ba
atom 0.0915309486267004 4.8528243790244465 0.1321245640689070 Ba
atom 5.0576056272385843 4.8679739591996984 0.1681536802951938 Ba
atom -0.0854036999270754 0.0155840271029385 5.0588084443232484 Ba
atom 4.9372260592958845 0.0861771577569465 5.0945631933765698 Ba
atom -0.0138725484670491 5.0373491558444474 5.0227193482927914 Ba
atom 4.8716346278703968 4.9725698690597904 5.0589463935712411 Ba
atom 2.4838193387003966 2.4513765359869235 2.4303103743837688 Zr
atom 7.4584215845807336 2.4751856339400362 2.4661897361734333 Zr
atom 2.5073139491487626 7.4262951680673801 2.3944110019825140 Zr
atom 7.4408624098556677 7.4084588032617704 2.4304191897650411 Zr
atom 2.4284238386976158 2.5326120820765095 7.5643727386252406 Zr
atom 7.3770122197158612 2.5301535844822927 7.6003355175172622 Zr
atom 2.4259259544250562 7.4812571585777912 7.5285596422367096 Zr
atom 7.3854660697526926 7.4896822623141555 7.5644992684079613 Zr
atom 2.3903226244941669 2.3611749000311590 -0.1071634636894716 S
atom 7.5479473392463801 2.5694093024042552 -0.0713090580811297 S
atom 2.5968487204648931 7.5204906897165609 -0.1430872813642412 S
atom 7.3473646334793532 7.3182019084260741 -0.1070284670681639 S
atom 2.5422314559210104 2.5737824912685650 5.0309308194593685 S
atom 7.3363322889396345 2.4158988214447552 5.0669303701736155 S
atom 2.3852666472189683 7.3670387448276413 4.9951615162879168 S
atom 7.4992969203891171 7.5309638961731276 5.0310484145315941 S
atom 2.0487759137030541 -0.0036762069250311 2.6443289342451122 S
atom 7.8311853628195989 -0.0025893287923136 2.4808689987636923 S
atom 2.8800448239846865 4.9485041981382194 2.4090771767374299 S
atom 7.0058427755011303 4.9533981191055378 2.6445164684089915 S
atom 2.9469477903813677 0.0495332306370310 7.5642824695236115 S
atom 6.8424226512617690 0.0530842471796855 7.6823786993644978 S
atom 1.8913273526065033 5.0041989736478669 7.6104681017468421 S
atom 7.9040037507088083 5.0066195115836400 7.5643235759466876 S
atom 0.0052990891410930 2.9036333178607681 2.6074376171624460 S
atom 4.9613317854577668 2.0782863858817771 2.4456620461186933 S
atom 0.0102097769577242 7.0294375151709678 2.3739089813385572 S
atom 4.9623468298104934 7.8607007447768105 2.6075817577868854 S
atom -0.0479907816680081 2.0057449674286176 7.5286085053830716 S
atom 4.9054504997874151 3.0673983989271720 7.6464525344223464 S
atom -0.0456343399681005 8.0185031339848596 7.5746168132220193 S
atom 4.9090494808848808 6.9627647665302215 7.5287572193760495 S
atom -0.0679726788046272 0.1036129449519802 10.1387193549110819 Ba
atom 4.8490084214575502 0.0690068059966937 10.1746325317619704 Ba
atom -0.1021462011889007 5.0201802663947790 10.1027729178238079 Ba
atom 4.8890598586130016 5.0606551580883083 10.1388667740803236 Ba
atom -0.1237592573749592 0.1055567442626427 15.2429834479461466 Ba
atom 4.8465861118031466 0.1250278747098518 15.2789834352976133 Ba
atom -0.1045071731655637 5.0761324222632229 15.2071198154419758 Ba
atom 4.8333142381063077 5.0626120384558941 15.2431016975073117 Ba
atom 2.3843580111461686 2.5701201136278709 12.6781767148067797 Zr
atom 7.3392727748137334 2.5740349667715008 12.7141933356429551 Zr
atom 2.3881712074030772 7.5251215266768900 12.6423933365721357 Zr
atom 7.3414020312754404 7.5272076856317964 12.6783106646336226 Zr
atom 2.3479806704178672 2.6076632661069858 17.7921612667035056 Zr
atom 7.3017409893592955 2.6103182285043389 17.8282115382655313 Zr
atom 2.3506290385759012 7.5614273757767974 17.7563984560031116 Zr
atom 7.3050182404653734 7.5647259207062634 17.7922450977295021 Zr
atom 2.3787076389063677 2.5065728636179045 10.1345152878589833 S
atom 7.4031413308472240 2.5797362166686164 10.1704938847575619 S
atom 2.4521042786285303 7.5307272858178154 10.0986849544511781 S
atom 7.3357153119444813 7.4635915563372190 10.1346426385410098 S
atom 2.3861418545296522 2.6011207661876390 15.2413117202713106 S
atom 7.3078220671053149 2.5725887692101890 15.2772600655736159 S
atom 2.3567149263425997 7.5237496446136998 15.2054716915399997 S
atom 7.3432203987740827 7.5582883599264115 15.2414168339949132 S
atom 1.8508722208643367 0.0914035526443815 12.7247654689247121 S
atom 7.8691945100818330 0.0940620726431599 12.7321450069292794 S
atom 2.9180851634594216 5.0451773418931554 12.6604428488296676 S
atom 6.8078713228727379 5.0485036367733542 12.7249546338713380 S
atom 2.8788393880337000 0.1298520638859625 17.8084798363941879 S
atom 6.7675681317295480 0.1330737008663221 17.8561892728753158 S
atom 1.8164477213775116 5.0841969785579488 17.7843387751150352 S
atom 7.8358650355034394 5.0869089858081589 17.8084700867055155 S
atom -0.0901174218459957 3.1015181963229956 12.6890782490385554 S
atom 4.8643127260389472 2.0401207655313747 12.6959813181824295 S
atom -0.0868095976681961 6.9912335718265330 12.6241800872678382 S
atom 4.8669370045786433 8.0585463697831656 12.6892110962057227 S
atom -0.1285629658930890 2.0736439565762597 17.7719771225998606 S
atom 4.8252590341411175 3.1418925766618004 17.8206110848827528 S
atom -0.1258624468423108 8.0930489398197700 17.7488814074242782 S
atom 4.8284943963264766 7.0307002298136361 17.7720313841250395 S
atom -0.1435097132214414 0.1536498921808888 20.3486189119826442 Ba
atom 4.7989437410149103 0.1443785771706090 20.3848132112204823 Ba
atom -0.1521961876951145 5.0954700070429677 20.3129521545444192 Ba
atom 4.8135011381705199 5.1107117512832545 20.3487771386195071 Ba
atom -0.1910726687461834 0.1731252595009793 25.4543962628133293 Ba
atom 4.7791988521520272 0.1927360549442969 25.4905217259448307 Ba
atom -0.1719692966024270 5.1439104476191888 25.4186440633415174 Ba
atom 4.7658829096848914 5.1301453564737001 25.4546169926133636 Ba
atom 2.3108049336207341 2.6450780817602348 22.9054452705944449 Zr
atom 7.2645065681231138 2.6477294485453720 22.9414803128128000 Zr
atom 2.3133756888574459 7.5988768102672051 22.8697012899787566 Zr
atom 7.2678305658495610 7.6021302492340572 22.9055206624502219 Zr
atom 2.2732152025449728 2.6817402363234870 28.0194516375906524 Zr
atom 7.2281485728622039 2.6855803376878882 28.0554683630269928 Zr
atom 2.2770135224659569 7.6367209723928413 27.9836683363419354 Zr
atom 7.2302431418234274 7.6387729786090812 28.0195459332073824 Zr
atom 2.3174706648305787 2.6152677171112160 20.3487893090473690 S
atom 7.2950800921334800 2.6404173625204352 20.3847920124874307 S
atom 2.3439908645800958 7.5914556718046642 20.3129966864228493 S
atom 7.2744715754062188 7.5722506729657821 20.3488975633707305 S
atom 2.3052854472400184 2.6829682534335406 25.4563203804301850 S
atom 7.2258424526045966 2.6544276914366183 25.4922903839955879 S
atom 2.2746663250214598 7.6056804046739117 25.4204510289540551 S
atom 7.2623560486676775 7.6400988767010753 25.4564264388469361 S
atom 1.7766011575304279 0.1685483267924234 22.9249055206789336 S
atom 7.7960390828169839 0.1712564504272377 22.9491378749616217 S
atom 2.8448717080343910 5.1223808041322840 22.8774198783610920 S
atom 6.7336562896357703 5.1255931290972523 22.9251512887014641 S
atom 2.8046248961698237 0.2072708230357640 28.0088356562163874 S
atom 6.6943525166091318 0.2105742278702829 28.0731750467113734 S
atom 1.7432235348380465 5.1617117036272226 28.0012576178606842 S
atom 7.7616426909760303 5.1643064858228618 28.0089134150833416 S
atom -0.1670878974212260 3.1757638931400924 22.8899452099511471 S
atom 4.7872642035895847 2.1134325185388430 22.9126626527931094 S
atom -0.1638509703620350 7.0645676331139384 22.8408375841549827 S
atom 4.7899467634921260 8.1328122829883078 22.8900772215406114 S
atom -0.2054548720638352 2.1483565720889959 27.9719309586839131 S
atom 4.7482565967953958 3.2157118079303171 28.0382086031346418 S
atom -0.2028590607945855 8.1668368332827068 27.9664019810986382 S
atom 4.7515512176203192 7.1053568436113030 27.9719870230566698 S
atom -0.1938853272420012 0.2301266746969214 30.5588887760533403 Ba
atom 4.7233577811169267 0.1949157163244030 30.5948471473305332 Ba
atom -0.2277392827609661 5.1460495097576819 30.5230051077187774 Ba
atom 4.7631549170974301 5.1871520593234512 30.5590061409947253 Ba
atom -0.2805842389762573 0.2118967749747659 35.6389503607257083 Ba
atom 4.7411818159361090 0.2837461477143360 35.6748427102611032 Ba
atom -0.2098764080724024 5.2349035735086655 35.6030475153033734 Ba
atom 4.6765035495336633 5.1689129668215283 35.6390685016184179 Ba
atom 2.2359751685981459 2.7258004934686118 33.1333515553925153 Zr
atom 7.1845022484619800 2.7233544201760900 33.1693487280192869 Zr
atom 2.2333764640884692 7.6745240868557314 33.0975409181193072 Zr
atom 7.1929827592410813 7.6828015843571587 33.1334246429465935 Zr
atom 2.1551149984907290 2.7817298720067511 38.2674491550226605 Zr
atom 7.1301291332153189 2.8053192312764286 38.3034232352956394 Zr
atom 2.1790023059972392 7.7564731844887618 38.2316582759077406 Zr
atom 7.1121306386824807 7.7387431592532385 38.2675049447438269 Zr
atom 2.2089004461854453 2.6767678569116682 30.5631796858376319 S
atom 7.2349677440018123 2.7489093581158039 30.5991436710646063 S
atom 2.2838429078938671 7.6999773994296943 30.5273425817593420 S
atom 7.1659026779600090 7.6336715971135671 30.5632511561701392 S
atom 2.2783471158150790 2.8392455843758380 35.6667731459896515 S
atom 7.0695485462100338 2.6834705061704374 35.7027562167785959 S
atom 2.1184207123174348 7.6347788864042911 35.6309581086356104 S
atom 7.2353282944834172 7.7963188383473572 35.6668433833038279 S
atom 1.7088748269995322 0.2494561921946283 33.1684746441406801 S
atom 7.7215392628643951 0.2517970566879814 33.1238695412171964 S
atom 2.7704457795305863 5.2029623260097484 33.0522152619030010 S
atom 6.6658791846463750 5.2064550633872484 33.1685922305580405 S
atom 2.6075758585641453 0.3031629142669248 38.0904845621340513 S
atom 6.7334560238037247 0.3080194877538609 38.3235804890214737 S
atom 1.7823572000253158 5.2591842479820556 38.2517772407843708 S
atom 7.5646124299427759 5.2601829984010662 38.0904775220386043 S
atom -0.2471868272828477 3.2442756409185400 33.1339630501315980 S
atom 4.7074950579720927 2.1885875773786099 33.0864821010240249 S
atom -0.2436126615761580 7.1396980235166261 33.0145803060456799 S
atom 4.7098229076513096 8.2013840252221542 33.1341290990292450 S
atom -0.2998407211959426 2.3464999082843816 38.0524484798217557 S
atom 4.6523041841090453 3.1777139389564732 38.2897357178493323 S
atom -0.2988303587893668 8.1288526855258052 38.2178710931288066 S
atom 4.6571757225062251 7.3035888864823892 38.0525206638143629 S
atom -0.3853744774300567 0.3990046727562561 40.5295294057955076 Ba
atom 4.5569098143991482 0.3900375724965535 40.5656276432393526 Ba
atom -0.3941741408845486 5.3411443164520964 40.4938154217841131 Ba
atom 4.5716626131514744 5.3560451162367411 40.5296277272771519 Ba
atom 2.0641943104962590 2.6883046640597512 40.8049466000634595 S
atom 7.2249998329830039 2.8945699552009367 40.8408704650192789 S
atom 2.2739013535020560 7.8457030621662165 40.7691022339465405 S
atom 7.0212111685253840 7.6452976424212444 40.8049973818931022 S
atom 2.0687732057166572 2.9022162319783482 43.9152561731664406 Ba
atom 7.0109241261599644 2.8930687569452980 43.9512435238235639 Ba
atom 2.0598375880301991 7.8440798323959804 43.8793983007305073 Ba
atom 7.0257598490284794 7.8593301826492397 43.9152163456368783 Ba
atom 2.1035304514576132 2.7884033516329869 48.8092892108481493 Ba
atom 7.1260852693693666 2.8592976767842808 48.8450934207700556 Ba
atom 2.1750966891453429 7.8104277961711981 48.7730297120182854 Ba
atom 7.0606329262878660 7.7456345922241736 48.8091390843111341 Ba
atom 4.5772554453052274 5.3186858621050348 46.1792411020170519 Zr
atom 9.5519747917964910 5.3425012378422352 46.2152676067843871 Zr
atom 4.6008892488089090 10.2936735978892262 46.1434397620545909 Zr
atom 9.5343214365733324 10.2756970192909023 46.1792750140061088 Zr
atom 4.5843051894907250 5.3382822666333949 51.3142392782118293 Zr
atom 9.5329384052283785 5.3357366664073220 51.3502719533426983 Zr
atom 4.5818260620739721 10.2868485418404223 51.2785186470145504 Zr
atom 9.5413886581005123 10.2953346169845226 51.3142959569646848 Zr
atom 4.5240907983232201 5.1873031335439679 43.6423713875976844 S
atom 9.6826156461710422 5.3961897990584333 43.6783678249671397 S
atom 4.7312673254359501 10.3474289846163039 43.6065302894336426 S
atom 9.4814035015197788 10.1443094797635336 43.6424352184258169 S
atom 4.6619278301750970 5.4160168022786559 48.7803201194061842 S
atom 9.4553564161921830 5.2574647745138456 48.8163153362595210 S
atom 4.5047303277284501 10.2086632104701618 48.7445226069455515 S
atom 9.6185261442475962 10.3731405449589058 48.7804007223149796 S
atom 5.0271431806211444 2.8433204545968387 46.4001788162569184 S
atom 9.1560706902897770 2.8452102826794010 46.2240878119769576 S
atom 4.2049982235164194 7.7963465193576749 46.1522473649170166 S
atom 9.9841488117925312 7.8003298018489051 46.4003223570240522 S
atom 4.0577430795888114 2.8615686258985154 51.3065767743261176 S
atom 10.0691429253738640 2.8652410310591847 51.4401877000286660 S
atom 5.1179997306492355 7.8163722718166486 51.3683839266008277 S
atom 9.0147601782332245 7.8186513456937767 51.3066074132800978 S
atom 2.1194326527237042 4.8869659523157480 46.3635311036198345 S
atom 7.0745420575707447 5.7150879004758615 46.1888689455504817 S
atom 2.1234506870783143 10.6662194337311167 46.1174606335227182 S
atom 7.0764673359590109 9.8440145680209046 46.3631960084599299 S
atom 2.1014045192426702 5.8564161285174148 51.2706085074739875 S
atom 7.0547937747111664 4.8020569891621498 51.4041199178260584 S
atom 2.1036791313580179 9.7531925800843098 51.3317611073398510 S
atom 7.0584641511590975 10.8134305442171392 51.2712107190512540 S
atom 2.1178302854562809 2.8807350213010583 53.8891834372059648 Ba
atom 7.0340639590989209 2.8453034761086120 53.9251198693361857 Ba
atom 2.0830196016604283 7.7965826874146744 53.8530491051149625 Ba
atom 7.0749714337020890 7.8376876707667940 53.8890229935291174 Ba
atom 2.0452508219902756 2.8982970831285462 58.9932628896686282 Ba
atom 7.0159130025908834 2.9183557254601764 59.0292712502573949 Ba
atom 2.0648481502054858 7.8694578238607349 58.9573238949921858 Ba
atom 7.0023571469881105 7.8553988249695568 58.9931284539532115 Ba
atom 4.5470617300420786 5.3693911440392572 56.4281907656447999 Zr
atom 9.5019626558603374 5.3732845435430585 56.4642245686631128 Zr
atom 4.5508556986957096 10.3243704778053154 56.3924421779946741 Zr
atom 9.5041175796850368 10.3264576972934723 56.4282958763578009 Zr
atom 4.5100029692578145 5.4078022208294971 61.5421369462608254 Zr
atom 9.4636489037941995 5.4104643877859395 61.5782183027035614 Zr
atom 4.5125663055930385 10.3615548686103676 61.5064543649203159 Zr
atom 9.4669786514990975 10.3648464000379903 61.5422595364668439 Zr
atom 4.5199609797164717 5.3262002274588500 53.8842312100360417 S
atom 9.5453483897189333 5.3998343009777283 53.9202188607174691 S
atom 4.5937115312992276 10.3508925325225221 53.8484089260000118 S
atom 9.4775497859182440 10.2832023270581487 53.8843348763717387 S
atom 4.5416139182964255 5.4085094961427105 58.9912537493989291 S
atom 9.4620961554564378 5.3794576899801463 59.0272187779016235 S
atom 4.5114506639033900 10.3305052062832807 58.9554243931336615 S
atom 9.4982035242306857 10.3655520831914547 58.9913773579438399 S
atom 5.0779746550366820 2.8953719779264842 56.4827355673919698 S
atom 8.9682476166971750 2.8981427271856788 56.4742543039745968 S
atom 4.0170917795586965 7.8492688975485265 56.4024856712292362 S
atom 10.0350493015078808 7.8524267406366484 56.4828734296021722 S
atom 3.9760111315748663 2.9311671716348693 61.5506111743467272 S
atom 9.9950182797402540 2.9341845288334478 61.6138711767846132 S
atom 5.0439647046099703 7.8852847950356129 61.5420336591415236 S
atom 8.9329630455111335 7.8882474449164715 61.5507725103339354 S
atom 2.0678388438477278 4.8365347051474110 56.4473605177245901 S
atom 7.0220933733008524 5.9033051298569008 56.4378686909165737 S
atom 2.0709843422733734 10.8544666500585247 56.3664757963595733 S
atom 7.0248952505262920 9.7935884259324535 56.4470155464568037 S
atom 2.0321420950326887 5.9383462155830866 61.5142936676503140 S
atom 6.9861949116878836 4.8762943235893523 61.5787699221160949 S
atom 2.0350524936643959 9.8274595411988876 61.5066439704058538 S
atom 6.9891605161282060 10.8954597706272232 61.5147241924544304 S
atom 2.0185122648773133 2.9545797924970389 64.0987226858782861 Ba
atom 6.9608689094182044 2.9445007471991627 64.1350360931932215 Ba
atom 2.0097127073016967 7.8955908686645468 64.0630316409152556 Ba
atom 6.9754955692320841 7.9116325591714647 64.0987933687902682 Ba
atom 1.9634088432028953 2.9807299207227658 69.2044858410486086 Ba
atom 6.9337562895350677 3.0007277461830451 69.2404139166963404 Ba
atom 1.9826269992596108 7.9518258185190192 69.1686967419186232 Ba
atom 6.9204120527066282 7.9377307073447021 69.2044975098911408 Ba
atom 4.4723449463938207 5.4456251647153042 66.6554033086256510 Zr
atom 9.4261049858996202 5.4483337897345194 66.6914994660438651 Zr
atom 4.4749341266148326 10.3994267436364662 66.6197346726055883 Zr
atom 9.4294324286514666 10.4026410602702803 66.6555701163928376 Zr
atom 4.4337895429225034 5.4828090756730159 71.7693854985545840 Zr
atom 9.3886753820252302 5.4867088238407602 71.8054302353061473 Zr
atom 4.4376064883666606 10.4377952304166701 71.7336255459703125 Zr
atom 9.3908091378115977 10.4398900088796331 71.7694979370655659 Zr
atom 4.4790683161275888 5.4155982439158370 64.0988139726704844 S
atom 9.4567900149815394 5.4405236737347069 64.1348604579316373 S
atom 4.5054592046902355 10.3915794545429936 64.0630485943090946 S
atom 9.4363127519217809 10.3726398143600260 64.0989556699349379 S
atom 4.4734240671719192 5.4759724809914481 69.2064553123697266 S
atom 9.3943962951535784 5.4481757324832500 69.2424103560475288 S
atom 4.4433199129331662 10.3992337581074992 69.1706188886402487 S
atom 9.4304666953569125 10.4330388318535245 69.2065664093189525 S
atom 5.0031220024655063 2.9678343362313209 66.6827324075420904 S
atom 8.8922236713025331 2.9708048693950171 66.6919639946482761 S
atom 3.9410461200107370 7.9219126272342724 66.6200854736526225 S
atom 9.9601850489255384 7.9249218274339821 66.6828055728795874 S
atom 3.9007406971780858 3.0035525473341229 71.7515548498497822 S
atom 9.9185584354991470 3.0067675033117340 71.8305232385162924 S
atom 4.9674728357601126 7.9578558649504050 71.7587054303768355 S
atom 8.8577414144391433 7.9606580855206444 71.7516641187905861 S
atom 1.9957043470146172 4.9118000681340535 66.6474170998023112 S
atom 6.9498179068337382 5.9798138158715526 66.6550502989851168 S
atom 1.9986849028873555 10.9310118544361945 66.5833900440654389 S
atom 6.9527249635142745 9.8689235541872637 66.6474134499466402 S
atom 1.9597359837709236 6.0135955764948816 71.7145763869514212 S
atom 6.9136245528606484 4.9527633893150398 71.7956184109379620 S
atom 1.9625083679080126 9.9039962073601995 71.7238617750182499 S
atom 6.9167528821700435 10.9706910484076214 71.7146449600489859 S
atom 1.9441089717963784 3.0539177061323772 74.3084518076853016 Ba
atom 6.8611011194192431 3.0184007956400025 74.3444484526908553 Ba
atom 1.9099952878511466 7.9695526376386567 74.2726343767113946 Ba
atom 6.9011473654064694 8.0109771121218003 74.3086431119620414 Ba
atom 1.8531006535174295 3.0385907471743883 79.3885427790121270 Ba
atom 6.8744992767337099 3.1102734921498199 79.4241846999769763 Ba
atom 1.9234219102522727 8.0613916817427445 79.3524425699944231 Ba
atom 6.8101601725754923 7.9955859536237135 79.3887805102834534 Ba
atom 4.4026073562805648 5.5198209934384250 76.8833283483200631 Zr
atom 9.3511179420780302 5.5174271319769987 76.9193305479719243 Zr
atom 4.4000256832025961 10.4685131553034285 76.8475603784932275 Zr
atom 9.3596579531379014 10.4769096076256734 76.8834268825212206 Zr
atom 4.3825831230437950 5.5125886137323006 82.0183510103571081 Zr
atom 9.3574519953114290 5.5360964116954730 82.0543468594048448 Zr
atom 4.4063396463462183 10.4871872908405894 81.9825272712445354 Zr
atom 9.3396165836050287 10.4696599081318933 82.0184859601190226 Zr
atom 4.3901675316921152 5.4568302779532152 74.3134043170257286 S
atom 9.4156010364103437 5.5286904412363613 74.3494037099545437 S
atom 4.4646194592280946 10.4797174038838250 74.2776120669077642 S
atom 9.3471015289283503 10.4138818208385011 74.3135178427343277 S
atom 4.4804974444999299 5.5962481575032257 79.4173009108416181 S
atom 9.2724285912706481 5.4409595573886449 79.4532630867538074 S
atom 4.3212060379545543 10.3919967223155911 79.3814379996123876 S
atom 9.4377043004277024 10.5533046623985189 79.4174495760358639 S
atom 4.9208116030666638 3.0369559326796240 76.9260029570196195 S
atom 8.8175835019768698 3.0392478290064977 76.8661002468219436 S
atom 3.8664130627398667 7.9903645968351169 76.7943747751493220 S
atom 9.8778902602394911 7.9940244499027271 76.9261197068119316 S
atom 3.9509462087498575 3.0546870742424121 81.8352214642155360 S
atom 9.7304414173202591 3.0586757935011728 82.0795464980601537 S
atom 4.7793148886252617 8.0097668339748083 82.0076897750169564 S
atom 8.9079712997743759 8.0117448538483256 81.8354470361914821 S
atom 1.9258397162009255 4.9933770866221288 76.8914761880567283 S
atom 6.8806543859132088 6.0536417367319046 76.8291217993352831 S
atom 1.9295416446579519 11.0047797663319571 76.7571825445345581 S
atom 6.8829058402785455 9.9504628591744702 76.8917530924992150 S
atom 1.9072872943923842 5.9622535003600410 81.7973390919642753 S
atom 6.8602839962082038 5.1399832562177110 82.0454617580178933 S
atom 1.9091655164283003 10.0911246611132768 81.9738236061225933 S
atom 6.8643304193440624 10.9194081797613531 81.7972670262380745 S
atom 1.9655940887495755 3.0043547483881050 84.2824143989373482 Ba
atom 6.9077664892307702 2.9947765191731492 84.3182833764455069 Ba
atom 1.9566142912220554 7.9459618111310268 84.2465266935736707 Ba
atom 6.9225628912125234 7.9613294692844265 84.2825353338129020 Ba
atom 4.2513472071822020 5.4603761181162191 84.5552588143186910 S
atom 9.4114097153465881 5.6658468172263028 84.5912660598043686 S
atom 4.4604390479188343 10.6169914815304995 84.5194485781649405 S
atom 9.2081969557160726 10.4174734189443310 84.5553886482276198 S
