#=======================================================
# FHI-aims file: full_relax/full_relax_RP_5_00Rz_000.in
# Created using the Atomic Simulation Environment (ASE)
# Fri Mar 14 11:29:09 2025
#=======================================================
lattice_vector 10.0090359408042353 -0.0000000000000000 0.0000000000000055 
lattice_vector -0.0000000000000000 10.0090359408042353 0.0000000000000182 
lattice_vector 0.0000000000000306 0.0000000000001019 56.1163349222452013 
atom -0.0000000000005382 0.0000000000032717 0.1886473334329807 Ba
atom 5.0045179704005136 -0.0000000000078570 0.1886473334331586 Ba
atom 0.0000000000030245 5.0045179703947129 0.1886473334331464 Ba
atom 5.0045179703981946 5.0045179704060470 0.1886473334334960 Ba
atom 0.0000000000016577 -0.0000000000022822 4.9425357079076884 Ba
atom 5.0045179704008609 0.0000000000060467 4.9425357079077274 Ba
atom -0.0000000000004061 5.0045179704082203 4.9425357079077514 Ba
atom 5.0045179704034153 5.0045179703999771 4.9425357079077488 Ba
atom 2.5022589851986030 2.5022589852006827 2.3233493103805531 Zr
atom 7.5067769556047033 2.5022589851994952 2.3233493103815914 Zr
atom 2.5022589852024724 7.5067769556016763 2.3233493103805172 Zr
atom 7.5067769556007891 7.5067769556028958 2.3233493103816367 Zr
atom 2.5022589852011312 2.5022589852010069 7.4387573961325630 Zr
atom 7.5067769556027306 2.5022589852011445 7.4387573961333544 Zr
atom 2.5022589852006267 7.5067769556032511 7.4387573961323730 Zr
atom 7.5067769556032582 7.5067769556031205 7.4387573961330364 Zr
atom 2.5022589851755015 2.5022589852090897 -0.1870613028638025 S
atom 7.5067769556285153 2.5022589851940098 -0.1870613028646897 S
atom 2.5022589852263319 7.5067769555960480 -0.1870613028635456 S
atom 7.5067769555776476 7.5067769556111159 -0.1870613028642621 S
atom 2.5022589852096302 2.5022589851970358 4.9234810679852883 S
atom 7.5067769555933914 2.5022589852021504 4.9234810679850858 S
atom 2.5022589851913644 7.5067769556043427 4.9234810679850805 S
atom 7.5067769556116213 7.5067769555991983 4.9234810679851728 S
atom 2.2314420746244696 -0.0000000000005168 2.4451492277102385 S
atom 7.7775938661805162 -0.0000000000006464 2.4451492277181619 S
atom 2.7730758957780917 5.0045179704014684 2.4451492277185789 S
atom 7.2359600450262045 5.0045179704015146 2.4451492277097886 S
atom 3.0091968807075520 -0.0000000000003728 7.4570790148002795 S
atom 6.9998390600963614 -0.0000000000003872 7.4570790147976993 S
atom 1.9953210896942439 5.0045179704014187 7.4570790147981283 S
atom 8.0137148511098069 5.0045179704015075 7.4570790147997155 S
atom -0.0000000000005568 2.7730758957792978 2.4451492277287579 S
atom 5.0045179704018690 2.2314420746254062 2.4451492276996367 S
atom -0.0000000000005142 7.2359600450276478 2.4451492276998148 S
atom 5.0045179704018441 7.7775938661814603 2.4451492277287170 S
atom -0.0000000000004192 1.9953210896945288 7.4570790147951378 S
atom 5.0045179704018379 3.0091968807078504 7.4570790148026420 S
atom -0.0000000000004093 8.0137148511100307 7.4570790148027708 S
atom 5.0045179704016096 6.9998390600966731 7.4570790147954122 S
atom -0.0000000000001240 0.0000000000020274 9.9945140100416019 Ba
atom 5.0045179704026266 -0.0000000000001378 9.9945140100416445 Ba
atom 0.0000000000002335 5.0045179704019160 9.9945140100416925 Ba
atom 5.0045179704018485 5.0045179704040450 9.9945140100416641 Ba
atom -0.0000000000003644 -0.0000000000000396 15.0574212231066511 Ba
atom 5.0045179704019453 0.0000000000001184 15.0574212231066600 Ba
atom -0.0000000000000896 5.0045179704021763 15.0574212231066102 Ba
atom 5.0045179704020812 5.0045179704019276 15.0574212231065978 Ba
atom 2.5022589852008372 2.5022589852009576 12.5259676165736611 Zr
atom 7.5067769556029145 2.5022589852008892 12.5259676165741496 Zr
atom 2.5022589852008541 7.5067769556030726 12.5259676165738263 Zr
atom 7.5067769556029553 7.5067769556030868 12.5259676165742064 Zr
atom 2.5022589852007684 2.5022589852007635 17.6131778370154741 Zr
atom 7.5067769556028727 2.5022589852007702 17.6131778370157903 Zr
atom 2.5022589852006965 7.5067769556028869 17.6131778370156873 Zr
atom 7.5067769556028558 7.5067769556028896 17.6131778370159751 Zr
atom 2.5022589851985515 2.5022589852005148 9.9901720687074214 S
atom 7.5067769556046242 2.5022589851994623 9.9901720687075475 S
atom 2.5022589852024111 7.5067769556016124 9.9901720687070181 S
atom 7.5067769556007784 7.5067769556025876 9.9901720687071922 S
atom 2.5022589852009154 2.5022589852005592 15.0617631644406842 S
atom 7.5067769556025894 2.5022589852004398 15.0617631644405616 S
atom 2.5022589852005463 7.5067769556026409 15.0617631644406860 S
atom 7.5067769556029216 7.5067769556027661 15.0617631644401353 S
atom 2.0031709367514385 -0.0000000000004183 12.5259676165744409 S
atom 8.0058650040523407 -0.0000000000003910 12.5259676165744889 S
atom 3.0013470336501626 5.0045179704016354 12.5259676165746665 S
atom 7.0076889071534927 5.0045179704016478 12.5259676165743752 S
atom 3.0091968807073544 -0.0000000000001289 17.5948562183494239 S
atom 6.9998390600962992 -0.0000000000003399 17.5948562183493280 S
atom 1.9953210896941900 5.0045179704018823 17.5948562183495021 S
atom 8.0137148511095209 5.0045179704019862 17.5948562183492001 S
atom -0.0000000000002725 3.0013470336502381 12.5259676165750555 S
atom 5.0045179704018050 2.0031709367514874 12.5259676165737517 S
atom -0.0000000000002598 7.0076889071536321 12.5259676165739737 S
atom 5.0045179704016869 8.0058650040524526 12.5259676165750040 S
atom -0.0000000000001440 1.9953210896941946 17.5948562183492641 S
atom 5.0045179704016167 3.0091968807073788 17.5948562183494701 S
atom -0.0000000000003921 8.0137148511095475 17.5948562183492889 S
atom 5.0045179704020324 6.9998390600962788 17.5948562183495589 S
atom -0.0000000000007877 -0.0000000000004070 20.1093995252408888 Ba
atom 5.0045179704020653 -0.0000000000005851 20.1093995252410345 Ba
atom -0.0000000000007342 5.0045179704015403 20.1093995252409279 Ba
atom 5.0045179704015883 5.0045179704019009 20.1093995252409705 Ba
atom -0.0000000000022309 0.0000000000000439 24.8632878997150009 Ba
atom 5.0045179704040503 -0.0000000000013451 24.8632878997150328 Ba
atom -0.0000000000022726 5.0045179704013441 24.8632878997150044 Ba
atom 5.0045179704030778 5.0045179704028122 24.8632878997150328 Ba
atom 2.5022589852013564 2.5022589852005401 22.7285859227673086 Zr
atom 7.5067769556023505 2.5022589852012613 22.7285859227686231 Zr
atom 2.5022589852002399 7.5067769556033088 22.7285859227676141 Zr
atom 7.5067769556034785 7.5067769556026098 22.7285859227684952 Zr
atom 2.5022589852006214 2.5022589852011046 20.1284541651645412 S
atom 7.5067769556032848 2.5022589852007431 20.1284541651633191 S
atom 2.5022589852010144 7.5067769556027537 20.1284541651636424 S
atom 7.5067769556027670 7.5067769556031250 20.1284541651638094 S
atom 2.5022589852049091 2.5022589851980954 25.2389965360132784 S
atom 7.5067769555988217 2.5022589852036750 25.2389965360131754 S
atom 2.5022589851968480 7.5067769556057549 25.2389965360130084 S
atom 7.5067769556068553 7.5067769556001833 25.2389965360127064 S
atom 2.2314420746229775 -0.0000000000003456 22.6067860054333600 S
atom 7.7775938661796555 -0.0000000000002090 22.6067860054348735 S
atom 2.7730758957778585 5.0045179704019453 22.6067860054353922 S
atom 7.2359600450254327 5.0045179704017517 22.6067860054329586 S
atom -0.0000000000003652 2.7730758957776165 22.6067860054356800 S
atom 5.0045179704018627 2.2314420746230179 22.6067860054328840 S
atom -0.0000000000001967 7.2359600450250960 22.6067860054329550 S
atom 5.0045179704016531 7.7775938661797515 22.6067860054352856 S
atom 2.5022589851768946 2.5022589852156321 28.3683436535904470 Ba
atom 7.5067769556266395 2.5022589851858132 28.3683436535950442 Ba
atom 2.5022589852245329 7.5067769555880011 28.3683436535906601 Ba
atom 7.5067769555789807 7.5067769556177995 28.3683436535953817 Ba
atom 2.5022589852160366 2.5022589851927872 33.1673310330933688 Ba
atom 7.5067769555875188 2.5022589852088073 33.1673310330817941 Ba
atom 2.5022589851853061 7.5067769556108148 33.1673310330930136 Ba
atom 7.5067769556181725 7.5067769555948489 33.1673310330817159 Ba
atom 5.0045179704021026 5.0045179703993172 30.4374426085504837 Zr
atom 10.0090359408034484 5.0045179704043257 30.4374426085506826 Zr
atom 5.0045179703998448 10.0090359408064824 30.4374426085503984 Zr
atom 10.0090359408058891 10.0090359408013860 30.4374426085504126 Zr
atom 5.0045179704016789 5.0045179704050424 35.5269190230725656 Zr
atom 10.0090359408038641 5.0045179703983225 35.5269190230731198 Zr
atom 5.0045179704038301 10.0090359408006098 35.5269190230726082 Zr
atom 10.0090359408017520 10.0090359408073439 35.5269190230722387 Zr
atom 5.0045179703942493 5.0045179704497880 27.9327533875680025 S
atom 10.0090359408114118 5.0045179703575569 27.9327533875680807 S
atom 5.0045179704510971 10.0090359407565188 27.9327533875681375 S
atom 10.0090359407551457 10.0090359408485874 27.9327533875683471 S
atom 5.0045179704052325 5.0045179703001095 33.0221755320133070 S
atom 10.0090359408004019 5.0045179704992124 33.0221755320127670 S
atom 5.0045179703039766 10.0090359409056564 33.0221755320126178 S
atom 10.0090359409017218 10.0090359407065250 33.0221755320118078 S
atom 5.0045179704005687 2.5022553076966680 30.5483874976620449 S
atom 10.0090359408050436 2.5022626627054199 30.5483874977921772 S
atom 5.0045179704047014 7.5067806331071534 30.5483874977959324 S
atom 10.0090359408008993 7.5067732780984047 30.5483874976661625 S
atom 5.0045179704383269 2.5022593255370067 35.5510573705939237 S
atom 10.0090359407672373 2.5022586448640523 35.5510573703293957 S
atom 5.0045179703621736 7.5067766152666433 35.5510573703261556 S
atom 10.0090359408434129 7.5067772959396386 35.5510573705911170 S
atom 2.5022626627052342 5.0045179704038274 30.5483874977330565 S
atom 7.5067732780984304 5.0045179703997196 30.5483874977249776 S
atom 2.5022553076965854 10.0090359408019474 30.5483874976607872 S
atom 7.5067806331071214 10.0090359408060294 30.5483874977974210 S
atom 2.5022586448639887 5.0045179703638505 35.5510573704575847 S
atom 7.5067772959395729 5.0045179704400367 35.5510573704624733 S
atom 2.5022593255371701 10.0090359408418159 35.5510573705809279 S
atom 7.5067766152664497 10.0090359407656422 35.5510573703389099 S
atom 2.5022589851934867 2.5022589852040573 38.1009877774325432 Ba
atom 7.5067769556099888 2.5022589851976416 38.1009877774369272 Ba
atom 2.5022589852078916 7.5067769555995936 38.1009877774327350 Ba
atom 7.5067769555956421 7.5067769556060346 38.1009877774375880 Ba
atom 2.5022589852100561 2.5022589851971540 43.0672823779574756 Ba
atom 7.5067769555934243 2.5022589852044086 43.0672823779619662 Ba
atom 2.5022589851912684 7.5067769556065240 43.0672823779574543 Ba
atom 7.5067769556123398 7.5067769555991930 43.0672823779622078 Ba
atom 5.0045179704020741 5.0045179703995260 40.5841350776970913 Zr
atom 10.0090359408034981 5.0045179704043079 40.5841350776971126 Zr
atom 5.0045179704012970 10.0090359408061840 40.5841350776965726 Zr
atom 10.0090359408043366 10.0090359408014056 40.5841350776973471 Zr
atom 5.0045179704012472 5.0045179704012801 45.6413511323216170 Zr
atom 10.0090359408043081 5.0045179704021336 45.6413511323213541 Zr
atom 5.0045179704001654 10.0090359408044005 45.6413511323216738 Zr
atom 10.0090359408053988 10.0090359408034786 45.6413511323214038 Zr
atom 5.0045179703980063 5.0045179705726079 38.0638322071334869 S
atom 10.0090359408076228 5.0045179702319036 38.0638322071344675 S
atom 5.0045179705454146 10.0090359406331082 38.0638322071342543 S
atom 10.0090359406601834 10.0090359409738099 38.0638322071341193 S
atom 5.0045179704115794 5.0045179701922518 43.1044379482601769 S
atom 10.0090359407939840 5.0045179706163951 43.1044379482601983 S
atom 5.0045179702500633 10.0090359410133782 43.1044379482598217 S
atom 10.0090359409556058 10.0090359405892535 43.1044379482600348 S
atom 5.0045179705103306 2.5022589602748417 40.5841350775022605 S
atom 10.0090359406952558 2.5022590101270330 40.5841350778943877 S
atom 5.0045179702933487 7.5067769805288407 40.5841350778921424 S
atom 10.0090359409122343 7.5067769306765832 40.5841350775001217 S
atom 5.0045179703492808 2.5022593255370453 45.6172127851355569 S
atom 10.0090359408563661 2.5022586448641140 45.6172127847259503 S
atom 5.0045179704568801 7.5067766152664479 45.6172127847326152 S
atom 10.0090359407487632 7.5067772959394725 45.6172127851427405 S
atom 2.5022590101269704 5.0045179702929463 40.5841350777036922 S
atom 7.5067769306766028 5.0045179705099505 40.5841350776912932 S
atom 2.5022589602744096 10.0090359409127938 40.5841350775446301 S
atom 7.5067769805291604 10.0090359406957727 40.5841350778493393 S
atom 2.5022586448643587 5.0045179704558018 45.6172127849210156 S
atom 7.5067772959392318 5.0045179703481795 45.6172127849476112 S
atom 2.5022593255374095 10.0090359407498681 45.6172127850686309 S
atom 7.5067766152662303 10.0090359408575225 45.6172127847994560 S
atom 2.5022589851691235 2.5022589852114567 48.0009391223125732 Ba
atom 7.5067769556343711 2.5022589851899029 48.0009391223006787 Ba
atom 2.5022589852323414 7.5067769555921391 48.0009391223134045 Ba
atom 7.5067769555711399 7.5067769556137796 48.0009391223016664 Ba
atom 2.5022589852748851 2.5022589851774972 52.7999265017987227 Ba
atom 7.5067769555287969 2.5022589852243069 52.7999265018036894 Ba
atom 2.5022589851266934 7.5067769556266777 52.7999265017984030 Ba
atom 7.5067769556770072 7.5067769555798769 52.7999265018033697 Ba
atom 5.0045179704011531 5.0045179704053711 50.7308275468438836 Zr
atom 10.0090359408044147 5.0045179703979379 50.7308275468442886 Zr
atom 5.0045179704038274 10.0090359408000911 50.7308275468439334 Zr
atom 10.0090359408016418 10.0090359408075162 50.7308275468436918 Zr
atom 5.0045179703837670 5.0045179705926524 48.1460946233821687 S
atom 10.0090359408217999 5.0045179702032847 48.1460946233817069 S
atom 5.0045179705174210 10.0090359406127050 48.1460946233822611 S
atom 10.0090359406881309 10.0090359410020557 48.1460946233815648 S
atom 5.0045179704239917 5.0045179702635796 53.2355167678261978 S
atom 10.0090359407812457 5.0045179705423921 53.2355167678268515 S
atom 5.0045179703352831 10.0090359409400129 53.2355167678261765 S
atom 10.0090359408694098 10.0090359406612102 53.2355167678266952 S
atom 5.0045179704042164 2.5022553076963310 50.6198826575102956 S
atom 10.0090359408014109 2.5022626627049527 50.6198826578255563 S
atom 5.0045179703974805 7.5067806331070335 50.6198826578196091 S
atom 10.0090359408081504 7.5067732780984011 50.6198826575041920 S
atom 2.5022626627049154 5.0045179703984708 50.6198826576831280 S
atom 7.5067732780986445 5.0045179704052014 50.6198826576465137 S
atom 2.5022553076961822 10.0090359408073066 50.6198826575792182 S
atom 7.5067806331072839 10.0090359408005813 50.6198826577501677 S
