#=======================================================
# FHI-aims file: full_relax/full_relax_RP_7_Rx0Mz_0-RyMz.in
# Created using the Atomic Simulation Environment (ASE)
# Mon Mar 24 15:40:46 2025
#=======================================================
lattice_vector 10.0088340111780028 -0.0711222422303706 -0.0000221762175855 
lattice_vector -0.0711222422303531 10.0088340111782781 -0.0000221762175860 
lattice_vector -0.0001749874161034 -0.0001749874161068 75.9685254183361138 
atom 0.0980694943710872 -0.1818096331464739 0.2168857871097744 Ba
atom 5.1861427337787216 -0.1336667139619543 0.2168991293293823 Ba
atom 0.1461646070732280 4.9063114127423511 0.2168991293321098 Ba
atom 5.0669253788458590 4.7870462513281886 0.2168636108885416 Ba
atom -0.2675534565571432 0.1874525249101193 5.0081920786452896 Ba
atom 4.8169001599077594 0.2319464412689349 5.0082305653443182 Ba
atom -0.2230779667973328 5.2719245679735822 5.0082305653421457 Ba
atom 4.7013024279172431 5.1563084093834135 5.0081699024289827 Ba
atom 2.4848096745525092 2.4740954148786840 2.4034380035866074 Zr
atom 7.4991053636584333 2.4483989082539814 2.4034128191473068 Zr
atom 2.4591272369265003 7.4883770349651604 2.4034128191445241 Zr
atom 7.4536655590557377 7.4429512993580378 2.4034158273690478 Zr
atom 2.4753751432041509 2.4894920209128926 7.4606353246701120 Zr
atom 7.4837505969430156 2.4578822253197625 7.4606211435662768 Zr
atom 2.4437724702241583 7.4978603520333591 7.4606211435669199 Zr
atom 7.4442310276927444 7.4583479053950628 7.4606131484485338 Zr
atom 2.6085694390970149 2.6944428604917232 -0.1037885798645625 S
atom 7.2787854729951134 2.3246707784276532 -0.1038090645745899 S
atom 2.2388073462951423 7.3646489051318627 -0.1038090645709236 S
atom 7.5774253235674696 7.6632987449648953 -0.1038107560810188 S
atom 2.2353358073955425 2.1891605649999257 4.9661657056868078 S
atom 7.7840557498296823 2.6978866811605315 4.9661469648660850 S
atom 2.7440776231288826 7.7378648078635290 4.9661469648659171 S
atom 7.2041916918652937 7.1580164494724086 4.9661435294729843 S
atom 2.8028966551807133 -0.0129884889969990 2.2490685714074128 S
atom 7.1813756533456896 -0.0457947764195728 2.7575821750776348 S
atom 2.1413975266462115 4.9941833502865274 2.7575821750776974 S
atom 7.7717525396510085 4.9558673954804684 2.2490463951892106 S
atom 2.8968900368152353 -0.0168167035193613 7.7890495499622361 S
atom 7.1175684266657235 -0.0493323960223827 7.1717690170654596 S
atom 2.0775902999642337 4.9906457306879037 7.1717690170654622 S
atom 7.8657459212870746 4.9520391809613793 7.7890273737454763 S
atom -0.0226572144043403 2.2014222799188552 2.2490641439018946 S
atom 4.9790036598437988 2.7917746646152475 2.7575662605691691 S
atom -0.0609744668573304 7.8317527913163492 2.7575662605669953 S
atom 4.9461986700634890 7.1702781643899263 2.2490419676835085 S
atom -0.0187868395955324 2.1074985776063184 7.7890663634905879 S
atom 4.9825822077718165 2.8557003212825891 7.1717675453833785 S
atom -0.0573959189291423 7.8956784479828110 7.1717675453850536 S
atom 4.9500690448746409 7.0763544620777052 7.7890441872737535 S
atom 0.2830768154518782 -0.1828257894651086 9.9872054008071043 Ba
atom 5.1871742130874416 -0.3187374871100355 9.9872364127618862 Ba
atom 0.1471960863830232 4.7212406395910316 9.9872364127609039 Ba
atom 5.2519326999260043 4.7860300950062280 9.9871832245905416 Ba
atom -0.2840498351093310 0.1819858591290940 14.9905768471727523 Ba
atom 4.8223285808428988 0.2483685034482892 14.9905749009590323 Ba
atom -0.2176495458623017 5.2883466301516888 14.9905749009584905 Ba
atom 4.6848060493658039 5.1508417436010676 14.9905546709550848 Ba
atom 2.4881127955585263 2.4828137100005936 12.4779998407061292 Zr
atom 7.4903121350842286 2.4450646000560963 12.4779897300544036 Zr
atom 2.4503340083724829 7.4850427267704829 12.4779897300527178 Zr
atom 7.4569686800397186 7.4516695944840352 12.4779776644895595 Zr
atom 2.4843876490778727 2.4843876490746162 17.4927414753458201 Zr
atom 7.4888046546717888 2.4488265279580848 17.4927303872346549 Zr
atom 2.4488265279611494 7.4888046546747455 17.4927303872380797 Zr
atom 7.4532435335576235 7.4532435335603244 17.4927192991265308 Zr
atom 2.7476039078290642 2.8121507758884765 9.9790011303560124 S
atom 7.1610303275092768 2.1856163511690423 9.9789859930133193 S
atom 2.1210522008079016 7.2255944778722547 9.9789859930151721 S
atom 7.7164597923005509 7.7810066603597434 9.9789789541402758 S
atom 2.2178626911972539 2.1530479771100892 14.9882234075193175 S
atom 7.8201241882857682 2.7153380589785305 14.9882069366996973 S
atom 2.7801460615821338 7.7553161856800958 14.9882069366987309 S
atom 7.1867185756695342 7.1219038615825490 14.9882012313031652 S
atom 2.8880804651426621 -0.0201968757437069 12.1693536389544423 S
atom 7.1212508417289140 -0.0530325058981595 12.8075347779494138 S
atom 2.0812727150252970 4.9869456208142440 12.8075347779504796 S
atom 7.8569363496158307 4.9486590087391864 12.1693314627359825 S
atom 2.8867301707640505 -0.0191801640603077 17.8135048342819182 S
atom 7.1220232541006983 -0.0520226644929330 17.1719781164081553 S
atom 2.0820451273966030 4.9879554622197597 17.1719781164071499 S
atom 7.8555860552375636 4.9496757204229063 17.8134826580653503 S
atom -0.0154720966897113 2.1162311659693436 12.1693650441364802 S
atom 4.9862191162846869 2.8519268954632069 12.8075397283716441 S
atom -0.0537590104166040 7.8919050221636864 12.8075397283702213 S
atom 4.9533837877812390 7.0850870504414099 12.1693428679181963 S
atom -0.0164577405665540 2.1176261148080817 17.8135076252124911 S
atom 4.9852330387268013 2.8511491833548352 17.1719753254768577 S
atom -0.0547450879762785 7.8911273100551131 17.1719753254779555 S
atom 4.9523981439064002 7.0864819992798145 17.8134854489951202 S
atom 0.2839692487956060 -0.1820664454414080 19.9949282797357419 Ba
atom 5.1864248440223264 -0.3195713319908549 19.9949080497320182 Ba
atom 0.1464467173184288 4.7204067947107582 19.9949080497326506 Ba
atom 5.2528251332688418 4.7867894390303629 19.9949061035184634 Ba
atom -0.2831574017655319 0.1827452031535922 24.9982997261006616 Ba
atom 4.8215792117772249 0.2475346585677372 24.9982465379290986 Ba
atom -0.2183989149277254 5.2875127852705903 24.9982465379303420 Ba
atom 4.6856984827091619 5.1516010876251697 24.9982775498837597 Ba
atom 2.4806625025946811 2.4859615881492623 22.5074831099831414 Zr
atom 7.4872971742619043 2.4525884558644457 22.5074710444203347 Zr
atom 2.4473190475508115 7.4925665825778687 22.5074710444168531 Zr
atom 7.4495183870748658 7.4548174726318877 22.5074609337670353 Zr
atom 2.4934001549452716 2.4792832772404028 27.5248476260228436 Zr
atom 7.4938587124073903 2.4397708306043651 27.5248396309058947 Zr
atom 2.4538805856953547 7.4797489573107656 27.5248396309088932 Zr
atom 7.4622560394267019 7.4481391617158765 27.5248254498038669 Zr
atom 2.7509126069646763 2.8157273210517375 19.9972595431745894 S
atom 7.1574851210518560 2.1823149969531355 19.9972538377783273 S
atom 2.1175069943493385 7.2222931236561188 19.9972538377772331 S
atom 7.7197684914368025 7.7845832055227779 19.9972373669564618 S
atom 2.2211713903338324 2.1566245222731601 25.0064818203367736 S
atom 7.8165789818270239 2.7120367047608456 25.0064747814606640 S
atom 2.7766008551236467 7.7520148314639057 25.0064747814627246 S
atom 7.1900272748060807 7.1254804067467905 25.0064596441188485 S
atom 2.8875025831358148 -0.0181703226546405 22.1779481727415124 S
atom 7.1206729597219907 -0.0510059528086916 22.8161293117364501 S
atom 2.0806948330183106 4.9889721739027264 22.8161293117369937 S
atom 7.8563584676090494 4.9506855618271182 22.1779259965229976 S
atom 2.8911849981987223 -0.0218704325304634 27.8137139336265804 S
atom 7.1118633880497217 -0.0543861250333038 27.1964334007303421 S
atom 2.0718852613468872 4.9855920016799535 27.1964334007301183 S
atom 7.8600408826709520 4.9469854519528456 27.8136917574090923 S
atom -0.0174438181253360 2.1168484026992922 22.1779432223201916 S
atom 4.9842473948512973 2.8525441321930405 22.8161179065549042 S
atom -0.0557307318518939 7.8925222588941004 22.8161179065542541 S
atom 4.9514120663475945 7.0857042871714695 22.1779210461024121 S
atom -0.0138069096116638 2.1130749768786683 27.8137154053078781 S
atom 4.9875621377570090 2.8612767205557805 27.1964165872010604 S
atom -0.0524159889449124 7.9012548472576540 27.1964165872025347 S
atom 4.9550489748595901 7.0819308613525092 27.8136932290904255 S
atom 0.2674728702436169 -0.1875331112236142 29.9773130482643353 Ba
atom 5.1918532649572464 -0.3031492698129113 29.9772523853486099 Ba
atom 0.1518751382532519 4.7368288568893782 29.9772523853504964 Ba
atom 5.2363287547178974 4.7813227732481174 29.9772908720471563 Ba
atom -0.0981500806863035 0.1817290468316117 34.7686193398004662 Ba
atom 4.8226106910864699 0.0624638854192750 34.7685838213641745 Ba
atom -0.2173674356174367 5.1024420121225162 34.7685838213607781 Ba
atom 4.8707058037869295 5.1505849313042047 34.7685971635829887 Ba
atom 2.4839656235891159 2.4946798832828563 32.5820449471125784 Zr
atom 7.4785039456977209 2.4492541476748393 32.5820479553358027 Zr
atom 2.4385258189806689 7.4892322743718305 32.5820479553368685 Zr
atom 7.4528215080767986 7.4635357677496277 32.5820227708971615 Zr
atom 2.7334394907676249 2.7796147331599119 30.0193172450004475 S
atom 7.1935535595065492 2.1997663747685352 30.0193138096059400 S
atom 2.1535754328048000 7.2397445014742026 30.0193138096001526 S
atom 7.7022953752396148 7.7484706176334193 30.0192950687830660 S
atom 2.3602058590660535 2.2743324376683796 35.0892715305490412 S
atom 7.6988238363401047 2.5729822775005506 35.0892698390407389 S
atom 2.6588457096374793 7.6129604042061541 35.0892698390434035 S
atom 7.3290617435386567 7.2431883221434132 35.0892493543316419 S
atom 2.8273777715200028 -0.0254080521256578 32.2279007756153320 S
atom 7.2058567696825389 -0.0582143395550123 32.7364143792869839 S
atom 2.1658786429803625 4.9817637871549358 32.7364143792871261 S
atom 7.7962336559909273 4.9434478323520734 32.2278785993980321 S
atom -0.0102283616842234 2.1770006335434582 32.2279166901255749 S
atom 4.9914325125666412 2.7673530182445276 32.7364188067932815 S
atom -0.0485456141399600 7.8073311449484848 32.7364188067929973 S
atom 4.9586275227905814 7.1458565180181841 32.2278945139068682 S
atom 2.3025308153844439 2.5824099429009451 38.2011374081742829 Ba
atom 7.3906518612694008 2.6305050556016516 38.2011507503953425 Ba
atom 2.3506737345673825 7.6704831823062829 38.2011507503892815 Ba
atom 7.2713866998578318 7.5512658273746878 38.2011152319493732 Ba
atom 2.6717929734355006 2.2167869919708019 42.9924436997076143 Ba
atom 7.7562650165071325 2.2612624817309226 42.9924821864042457 Ba
atom 2.7162868897952310 7.3012406084355632 42.9924821864090774 Ba
atom 7.6406488579165437 7.1856428764440423 42.9924215234931708 Ba
atom 4.9584358634150902 4.9691501230734803 40.3876896246531274 Zr
atom 9.9727174834855479 4.9434676854460111 40.3876644402234675 Zr
atom 4.9327393567846798 9.9834458121933984 40.3876644402139746 Zr
atom 9.9272917478849383 9.9380060075931418 40.3876674484511327 Zr
atom 4.9738324694481548 4.9597155917350859 45.4448869457142877 Zr
atom 9.9822008005566598 4.9281129187501147 45.4448727646166404 Zr
atom 4.9422226738485664 9.9680910454676166 45.4448727646097410 Zr
atom 9.9426883539252966 9.9285714762217037 45.4448647694971157 Zr
atom 5.1787833090193196 5.0929098876255017 37.8804630412028587 S
atom 9.8489893536606505 4.7231477948239364 37.8804425564821443 S
atom 4.8090112269566889 9.7631259215236010 37.8804425564847520 S
atom 10.1476391934946744 10.0617657720952529 37.8804408649725417 S
atom 4.6735010135298296 4.7196762559254530 42.9504173267459493 S
atom 10.2222052563938490 5.2284180716575648 42.9503985859208584 S
atom 5.1822271296882665 10.2683961983556582 42.9503985859346997 S
atom 9.6423568980010117 9.6885321403935993 42.9503951505220414 S
atom 4.6857627284458703 2.4616832341243087 40.2333157649586610 S
atom 10.3160932398477829 2.4233659816679389 40.7418178816228433 S
atom 5.2761151131448685 7.4633441083724845 40.7418178816261332 S
atom 9.6546186129167939 7.4305391185947371 40.2332935887396630 S
atom 4.5918390261359896 2.4655536089286736 45.7733179845527545 S
atom 10.3800188965154394 2.4269445296002443 45.1560191664456596 S
atom 5.3400407698102104 7.4669226563034785 45.1560191664450414 S
atom 9.5606949106038908 7.4344094934012022 45.7732958083382471 S
atom 2.4713519595428641 5.2872371037127683 40.2333201924633954 S
atom 7.4785237988074336 4.6257379751748431 40.7418337961337045 S
atom 2.4385456721151955 9.6657161018708795 40.7418337961344008 S
atom 7.4402078440033108 10.2560929881795975 40.2332980162460956 S
atom 2.4675237450268579 5.3812304853444370 45.7733011710261621 S
atom 7.4749861792005765 4.5619307484920713 45.1560206381269040 S
atom 2.4350080525290365 9.6019088751924802 45.1560206381260372 S
atom 7.4363796294697924 10.3500863698172267 45.7732789948089263 S
atom 2.3015146590576960 2.7674172639801591 47.9714570218633085 Ba
atom 7.2055810881253350 2.6315365349118767 47.9714880338159517 Ba
atom 2.1656029614141223 7.6715146616159320 47.9714880338177352 Ba
atom 7.2703705435405270 7.7362731484534644 47.9714348456453692 Ba
atom 2.6663263076539554 2.2002906134189097 52.9748284682381154 Ba
atom 7.7726870786844922 2.2666909026653990 52.9748265220234771 Ba
atom 2.7327089519724450 7.3066690293713137 52.9748265220245074 Ba
atom 7.6351821921359768 7.1691464978940509 52.9748062920203893 Ba
atom 4.9671541585272472 4.9724532440850577 50.4622514617593723 Zr
atom 9.9693831753016440 4.9346744569024157 50.4622413511072452 Zr
atom 4.9294050485852230 9.9746525836150717 50.4622413511122829 Zr
atom 9.9360100430130451 9.9413091285665072 50.4622292855423211 Zr
atom 4.9687280976004251 4.9687280976051102 55.4769930964153701 Zr
atom 9.9731451032071199 4.9331669764915436 55.4769820083044607 Zr
atom 4.9331669764868513 9.9731451032017979 55.4769820082987550 Zr
atom 9.9375839820894392 9.9375839820840461 55.4769709201937999 Zr
atom 5.2964912244152291 5.2319443563568164 47.9632527514458360 S
atom 9.7099349264008321 4.6053926493357187 47.9632376141037184 S
atom 4.6699567996999960 9.6453707760394902 47.9632376141055659 S
atom 10.2653471088907597 10.2008002408287926 47.9632305752294172 S
atom 4.6373884256414843 4.7022031397258219 52.9724750285696189 S
atom 10.2396566342100517 5.2644865101108334 52.9724585577444174 S
atom 5.1996785075059782 10.3044646368122343 52.9724585577441900 S
atom 9.6062443101094441 9.6710590241979535 52.9724528523556657 S
atom 4.6005716145021101 2.4688683518334771 50.1536166652022075 S
atom 10.3762454706938421 2.4305814381114317 50.7917913494320246 S
atom 5.3362673439895936 7.4705595648174743 50.7917913494309659 S
atom 9.5694274989692918 7.4377242363092080 50.1535944889823426 S
atom 4.6019665633391549 2.4678827079612602 55.7977592462758025 S
atom 10.3754677585859376 2.4295953605474461 55.1562269465401585 S
atom 5.3354896318823988 7.4695734872553539 55.1562269465410537 S
atom 9.5708224478058526 7.4367385924393634 55.7977370700599096 S
atom 2.4641435728034882 5.3724209136696919 50.1536052600187858 S
atom 7.4712860693257923 4.5656131635540156 50.7917863990119116 S
atom 2.4313079426537789 9.6055912902571041 50.7917863990103200 S
atom 7.4329994572454874 10.3412767981438520 50.1535830837999441 S
atom 2.4651602844888290 5.3710706192918733 55.7977564553461391 S
atom 7.4722959107281204 4.5663855759243468 55.1562297374696442 S
atom 2.4323177840521057 9.6063637026284425 55.1562297374708734 S
atom 7.4340161689352655 10.3399265037667139 55.7977342791300543 S
atom 2.3022740030830597 2.7683096973246770 57.9791799007957209 Ba
atom 7.2047472432442268 2.6307871658474604 57.9791596707930168 Ba
atom 2.1647691165335421 7.6707652925496834 57.9791596707934644 Ba
atom 7.2711298875648289 7.7371655817957201 57.9791577245800056 Ba
atom 2.6670856516772510 2.2011830467642239 62.9825513471682541 Ba
atom 7.7718532338033022 2.2659415336032733 62.9824981589979700 Ba
atom 2.7318751070931282 7.3059196603037329 62.9824981589970179 Ba
atom 7.6359415361582279 7.1700389312353137 62.9825291709522688 Ba
atom 4.9703020366798123 4.9650029511289349 60.4917347310566527 Zr
atom 9.9769070311050445 4.9316594960807221 60.4917226654900304 Zr
atom 4.9369289043896600 9.9716376227836356 60.4917226654911389 Zr
atom 9.9391579211651369 9.9338588356012796 60.4917125548348267 Zr
atom 4.9636237257688265 4.9777406034779599 65.5090992470905746 Zr
atom 9.9640894058402107 4.9382210342307440 65.5090912519769120 Zr
atom 4.9241112791332533 9.9781991609294103 65.5090912519835911 Zr
atom 9.9324796102456414 9.9465964879470388 65.5090770708748380 Zr
atom 5.3000677695793890 5.2352530554922003 57.9815111642353855 S
atom 9.7066335721828523 4.6018474428756742 57.9815054588389742 S
atom 4.6666554454831637 9.6418255695819983 57.9815054588452767 S
atom 10.2689236540533901 10.2041089399652662 57.9814889880216526 S
atom 4.6409649708033465 4.7055118388605814 62.9907334413746725 S
atom 10.2363552799945872 5.2609413036524773 62.9907264025030571 S
atom 5.1963771532906033 10.3009194303554121 62.9907264024914255 S
atom 9.6098208552731474 9.6743677233351892 62.9907112651596535 S
atom 4.6011888512307655 2.4668966303946958 60.1621948433855636 S
atom 10.3768627074244879 2.4286097166698832 60.8003695276172209 S
atom 5.3368845807189187 7.4685878433875921 60.8003695276155725 S
atom 9.5700447356987262 7.4357525148823056 60.1621726671656987 S
atom 4.5974154254083031 2.4705335389157934 65.7979670263701877 S
atom 10.3855952957902709 2.4319244595755896 65.1806682082601441 S
atom 5.3456171690835346 7.4719025862857675 65.1806682082611673 S
atom 9.5662713098805661 7.4393894233958058 65.7979448501515094 S
atom 2.4661701258929103 5.3718430316626975 60.1621997938050157 S
atom 7.4733126224130091 4.5650352815460380 60.8003809327992712 S
atom 2.4333344957402638 9.6050134082523151 60.8003809327987241 S
atom 7.4350260103362649 10.3406989161376934 60.1621776175875809 S
atom 2.4624700160171278 5.3755254467261251 65.7979655546891848 S
atom 7.4699324501919753 4.5562257098724324 65.1806850217882072 S
atom 2.4299543235061849 9.5962038365786846 65.1806850217890315 S
atom 7.4313259004720145 10.3443813312010633 65.7979433784711603 S
atom 2.2968073373022881 2.7518133187729932 67.9615646693199551 Ba
atom 7.2211693054222730 2.6362155867810877 67.9615040064086458 Ba
atom 2.1811911787125964 7.6761937134843334 67.9615040064070968 Ba
atom 7.2656632217814208 7.7206692032458371 67.9615424931079417 Ba
atom 2.6660694953600816 2.3861903678435086 72.7528709608660193 Ba
atom 7.5867824606502614 2.2669730129103041 72.7528354424231196 Ba
atom 2.5468043339455364 7.3069511396147488 72.7528354424242565 Ba
atom 7.6349253798356802 7.3550462523172246 72.7528487846415999 Ba
atom 4.9790203318163346 4.9683060721302210 70.5662965681596006 Zr
atom 9.9735727228958488 4.9228662675344346 70.5662995763741776 Zr
atom 4.9335945962153902 9.9628443942132474 70.5662995763771050 Zr
atom 9.9478762162663550 9.9371619565788194 70.5662743919346696 Zr
atom 5.2639551816875638 5.2177799392934796 68.0035688660756534 S
atom 9.7240849500032311 4.6379158813286168 68.0035654306869475 S
atom 4.6841068232978875 9.6778940080369402 68.0035654306807658 S
atom 10.2328110661651905 10.1866358237706152 68.0035466898574157 S
atom 4.7586728861965293 4.8445463075918651 73.0735231516197388 S
atom 10.0973008527368169 5.1431861581639504 73.0735214601153444 S
atom 5.0573227260294367 10.1831642848705091 73.0735214601121612 S
atom 9.7275287706721745 9.8134021920688888 73.0735009754088196 S
atom 4.6613410820734300 2.4741120868455337 70.2121683111876678 S
atom 10.2916715934793288 2.4357948343860301 70.7206704278540457 S
atom 5.2516934667681738 7.4757729610934325 70.7206704278523119 S
atom 9.6301969665513063 7.4429679713228989 70.2121461349714195 S
atom 2.4589323964150562 5.3117182200428825 70.2121523966774390 S
atom 7.4661042356697349 4.6502190915087827 70.7206660003479044 S
atom 2.4261261089854540 9.6901972182155109 70.7206660003477339 S
atom 7.4277882808712219 10.2805741045198058 70.2121302204611766 S
