#=======================================================
# FHI-aims file: full_relax/full_relax_RP_6_00Mz_000.in
# Created using the Atomic Simulation Environment (ASE)
# Fri Mar 14 11:38:17 2025
#=======================================================
lattice_vector 10.0096459042706734 0.0000000000000001 -0.0000000000001889 
lattice_vector 0.0000000000000001 10.0096459042706787 0.0000000000000626 
lattice_vector -0.0000000000012437 0.0000000000004123 66.2466603839308021 
atom -0.0000000000078907 0.0000000001034061 0.1765211275043857 Ba
atom 5.0048229521017120 -0.0000000001324490 0.1765211275025066 Ba
atom 0.0000000000788618 5.0048229519412573 0.1765211275059955 Ba
atom 5.0048229520448260 5.0048229521546306 0.1765211275033018 Ba
atom 0.0000000000959922 -0.0000000001147753 4.9333308598802805 Ba
atom 5.0048229521172507 0.0000000001214640 4.9333308598801846 Ba
atom 0.0000000000015212 5.0048229522493823 4.9333308598804102 Ba
atom 5.0048229522212226 5.0048229520058971 4.9333308598804351 Ba
atom 2.5024114760105016 2.5024114760972855 2.3099988873914143 Zr
atom 7.5072344282386707 2.5024114760020320 2.3099988874235517 Zr
atom 2.5024114761035579 7.5072344281372150 2.3099988874155200 Zr
atom 7.5072344281455967 7.5072344282324064 2.3099988874476498 Zr
atom 2.5024114760633962 2.5024114760796672 7.4231292460295624 Zr
atom 7.5072344282110546 2.5024114760869107 7.4231292460393696 Zr
atom 2.5024114760756841 7.5072344282217678 7.4231292460372957 Zr
atom 7.5072344281988315 7.5072344282147618 7.4231292460468286 Zr
atom 2.5024114754771460 2.5024114765700225 -0.2001848647230406 S
atom 7.5072344287998591 2.5024114756093723 -0.2001848647358494 S
atom 2.5024114766642680 7.5072344277447796 -0.2001848647322869 S
atom 7.5072344276128282 7.5072344287053463 -0.2001848647448234 S
atom 2.5024114763087706 2.5024114759515634 4.9095666410968688 S
atom 7.5072344279165968 2.5024114761644061 4.9095666410928258 S
atom 2.5024114757816229 7.5072344282995074 4.9095666410955356 S
atom 7.5072344284437609 7.5072344280866945 4.9095666410925132 S
atom 2.2307287513415965 -0.0000000000088604 2.4329662869012800 S
atom 7.7789171530212800 -0.0000000000090344 2.4329662873405566 S
atom 2.7740942008759393 5.0048229521319403 2.4329662873522149 S
atom 7.2355517034674008 5.0048229521321170 2.4329662868913435 S
atom 2.9943213931230037 -0.0000000000043062 7.4412148160172364 S
atom 7.0153245111528264 -0.0000000000044490 7.4412148159541429 S
atom 2.0105015590192599 5.0048229521319501 7.4412148159631188 S
atom 7.9991443452601976 5.0048229521314376 7.4412148160077569 S
atom -0.0000000000081577 2.7740942008698686 2.4329662874734090 S
atom 5.0048229521343215 2.2307287513328182 2.4329662867776189 S
atom -0.0000000000079558 7.2355517034601391 2.4329662867684894 S
atom 5.0048229521343925 7.7789171530121308 2.4329662874657156 S
atom -0.0000000000065696 2.0105015590109478 7.4412148157973519 S
atom 5.0048229521311720 2.9943213931152224 7.4412148161810734 S
atom -0.0000000000066674 7.9991443452520681 7.4412148161741642 S
atom 5.0048229521308487 7.0153245111448248 7.4412148157901523 S
atom -0.0000000000062141 0.0000000001749367 9.9909555186888355 Ba
atom 5.0048229521362391 0.0000000002006898 9.9909555186886738 Ba
atom 0.0000000000004789 5.0048229523257310 9.9909555186888195 Ba
atom 5.0048229521147505 5.0048229523108185 9.9909555186888248 Ba
atom 0.0000000000136535 -0.0000000001789000 15.0560591781642437 Ba
atom 5.0048229521354797 -0.0000000001827846 15.0560591781641229 Ba
atom 0.0000000000021030 5.0048229519453447 15.0560591781642898 Ba
atom 5.0048229521405343 5.0048229519543153 15.0560591781644515 Ba
atom 2.5024114760648426 2.5024114760684846 12.5121980467591669 Zr
atom 7.5072344282036099 2.5024114760686507 12.5121980467617782 Zr
atom 2.5024114760684188 7.5072344282037307 12.5121980467596057 Zr
atom 7.5072344281998262 7.5072344282034678 12.5121980467614655 Zr
atom 2.5024114760692582 2.5024114760682279 17.5999203095690646 Zr
atom 7.5072344282054040 2.5024114760639757 17.5999203095666310 Zr
atom 2.5024114760700038 7.5072344281992969 17.5999203095677501 Zr
atom 7.5072344282050922 7.5072344282035290 17.5999203095659240 Zr
atom 2.5024114758778113 2.5024114760198568 9.9786638030715515 S
atom 7.5072344283805075 2.5024114760133567 9.9786638030720702 S
atom 2.5024114762450078 7.5072344281487542 9.9786638030710293 S
atom 7.5072344280131897 7.5072344281553027 9.9786638030710808 S
atom 2.5024114762509719 2.5024114761041796 15.0560591781641691 S
atom 7.5072344280138559 2.5024114761077021 15.0560591781628759 S
atom 2.5024114758788309 7.5072344282430574 15.0560591781614210 S
atom 7.5072344283860470 7.5072344282395402 15.0560591781625597 S
atom 2.9642476220196929 -0.0000000000016085 12.5235172614742538 S
atom 7.0453982822498835 -0.0000000000019459 12.5235172614703387 S
atom 2.0405753301149865 5.0048229521326242 12.5235172614709462 S
atom 7.9690705741555021 5.0048229521327618 12.5235172614739838 S
atom 2.9642476220211469 -0.0000000000032915 17.5886010948684337 S
atom 7.0453982822508721 -0.0000000000032632 17.5886010948339795 S
atom 2.0405753301161633 5.0048229521322467 17.5886010948337059 S
atom 7.9690705741569117 5.0048229521325824 17.5886010948692544 S
atom -0.0000000000013187 2.0405753301115581 12.5235172616689852 S
atom 5.0048229521331047 2.9642476220164844 12.5235172612754884 S
atom -0.0000000000016642 7.9690705741522567 12.5235172612758259 S
atom 5.0048229521337584 7.0453982822467376 12.5235172616698662 S
atom -0.0000000000004545 2.0405753301110727 17.5886010946645577 S
atom 5.0048229521352798 2.9642476220163334 17.5886010950385803 S
atom 0.0000000000004899 7.9690705741519254 17.5886010950390386 S
atom 5.0048229521333889 7.0453982822461301 17.5886010946640035 S
atom 0.0000000000244325 0.0000000001573659 20.1211628376376979 Ba
atom 5.0048229521722556 0.0000000001813642 20.1211628376377583 Ba
atom 0.0000000000356858 5.0048229523041394 20.1211628376380354 Ba
atom 5.0048229521439085 5.0048229522935248 20.1211628376379608 Ba
atom 0.0000000001909575 -0.0000000000968627 25.1787874964428688 Ba
atom 5.0048229520802412 0.0000000000910300 25.1787874964427161 Ba
atom -0.0000000000325423 5.0048229522196035 25.1787874964427623 Ba
atom 5.0048229523163767 5.0048229520224909 25.1787874964425775 Ba
atom 2.5024114760683887 2.5024114760757836 22.6889891102981771 Zr
atom 7.5072344282160337 2.5024114760867739 22.6889891102867693 Zr
atom 2.5024114760808320 7.5072344282213388 22.6889891102912458 Zr
atom 7.5072344282036498 7.5072344282105918 22.6889891102800618 Zr
atom 2.5024114760072216 2.5024114761267682 27.8021194689321973 Zr
atom 7.5072344282215004 2.5024114759792240 27.8021194688954552 Zr
atom 2.5024114760861771 7.5072344281148133 27.8021194689036406 Zr
atom 7.5072344281424011 7.5072344282623655 27.8021194688679643 Zr
atom 2.5024114758810505 2.5024114760630161 20.1334545532563816 S
atom 7.5072344283489523 2.5024114759821470 20.1334545532549605 S
atom 2.5024114762134957 7.5072344281174361 20.1334545532589040 S
atom 7.5072344280167629 7.5072344281984567 20.1334545532555929 S
atom 2.5024114762402241 2.5024114758126785 25.2025517152259617 S
atom 7.5072344279516416 2.5024114763115777 25.2025517152329463 S
atom 2.5024114758161655 7.5072344284469645 25.2025517152316993 S
atom 7.5072344283757841 7.5072344279481973 25.2025517152354261 S
atom 2.9943213931254116 -0.0000000000033960 22.6709035402431596 S
atom 7.0153245111548275 -0.0000000000036320 22.6709035404370702 S
atom 2.0105015590216526 5.0048229521339618 22.6709035404262131 S
atom 7.9991443452627662 5.0048229521336642 22.6709035402542298 S
atom 2.2307287513649277 -0.0000000000071186 27.6791520696450384 S
atom 7.7789171530430741 -0.0000000000073742 27.6791520687732735 S
atom 2.7740942008959713 5.0048229521333205 27.6791520687589099 S
atom 7.2355517034891230 5.0048229521336758 27.6791520696581017 S
atom -0.0000000000124504 2.0105015590112094 22.6709035405014312 S
atom 5.0048229521276095 2.9943213931153090 22.6709035401721941 S
atom -0.0000000000121550 7.9991443452524056 22.6709035401793102 S
atom 5.0048229521269141 7.0153245111449030 22.6709035405090837 S
atom -0.0000000000125731 2.7740942008626623 27.6791520689256210 S
atom 5.0048229521295733 2.2307287513290888 27.6791520694805655 S
atom -0.0000000000130215 7.2355517034556591 27.6791520694922042 S
atom 5.0048229521303842 7.7789171530068542 27.6791520689365029 S
atom -0.0000000001215456 0.0000000000907254 29.9355972288178016 Ba
atom 5.0048229521566370 -0.0000000000821966 29.9355972288166186 Ba
atom 0.0000000001549881 5.0048229519793344 29.9355972288191694 Ba
atom 5.0048229519164957 5.0048229521241652 29.9355972288181924 Ba
atom 2.5024114755997546 2.5024114769317940 30.3123032210399082 S
atom 7.5072344287003112 2.5024114752381776 30.3123032210549859 S
atom 2.5024114765651175 7.5072344273732687 30.3123032210489676 S
atom 7.5072344277349385 7.5072344290668980 30.3123032210643792 S
atom 2.5024114776456363 2.5024114731630438 33.4422814084539652 Ba
atom 7.5072344266358240 2.5024114789800387 33.4422814083043818 Ba
atom 2.5024114745003256 7.5072344311149255 33.4422814083408610 Ba
atom 7.5072344297811426 7.5072344252978587 33.4422814081906026 Ba
atom 2.5024114752321318 2.5024114774880957 38.2465427837729024 Ba
atom 7.5072344290355755 2.5024114746456325 38.2465427841618677 Ba
atom 2.5024114769006749 7.5072344267814586 38.2465427840685948 Ba
atom 7.5072344273669387 7.5072344296240390 38.2465427844586188 Ba
atom 5.0048229519717244 5.0048229522678822 35.5095711195543444 Zr
atom 10.0096459044213688 5.0048229520378822 35.5095711195532999 Zr
atom 5.0048229523397278 10.0096459041307053 35.5095711195553818 Zr
atom 10.0096459040509789 10.0096459043632091 35.5095711195558437 Zr
atom 5.0048229522091230 5.0048229519973679 40.5981750643910004 Zr
atom 10.0096459041919754 5.0048229522098016 40.5981750643923860 Zr
atom 5.0048229519743002 10.0096459044064048 40.5981750643890109 Zr
atom 10.0096459044265220 10.0096459041944534 40.5981750643898920 Zr
atom 5.0048229569527063 5.0048229486189433 33.0052187794933118 S
atom 10.0096458993807609 5.0048229546233314 33.0052187794922034 S
atom 5.0048229459401021 10.0096459077397846 33.0052187794956566 S
atom 10.0096459103772997 10.0096459017478718 33.0052187794927221 S
atom 5.0048229448456727 5.0048229585117276 38.0949262972133198 S
atom 10.0096459115457019 5.0048229480636799 38.0949262972128722 S
atom 5.0048229624526126 10.0096458978857168 38.0949262972086586 S
atom 10.0096458939357245 10.0096459083361680 38.0949262972104137 S
atom 5.0048229520891692 2.5024097288003504 35.6211293891053487 S
atom 10.0096459043131745 2.5024132233289231 35.6211293815767149 S
atom 5.0048229521165783 7.5072361754622881 35.6211293800263604 S
atom 10.0096459042857600 7.5072326809357071 35.6211293875565076 S
atom 5.0048229527211330 2.5024117456538941 40.6250154959903256 S
atom 10.0096459036808039 2.5024112064783837 40.6250155087427203 S
atom 5.0048229516597251 7.5072341586150477 40.6250155117223457 S
atom 10.0096459047422215 7.5072346977907305 40.6250154989697165 S
atom 2.5024132233237721 5.0048229521256751 35.6211293789579528 S
atom 7.5072326809321419 5.0048229520979843 35.6211293901741968 S
atom 2.5024097287933804 10.0096459042796599 35.6211293922133834 S
atom 7.5072361754582104 10.0096459043073445 35.6211293769183968 S
atom 2.5024112064774604 5.0048229516468865 40.6250155121012639 S
atom 7.5072346977883706 5.0048229527082464 40.6250154956083520 S
atom 2.5024117456528177 10.0096459047577770 40.6250154916807347 S
atom 7.5072341586116975 10.0096459036964411 40.6250155160300750 S
atom 2.5024114763712104 2.5024114755968965 43.1929472456342296 Ba
atom 7.5072344278960710 2.5024114765382004 43.1929472453886305 Ba
atom 2.5024114757609555 7.5072344286730086 43.1929472454481953 Ba
atom 7.5072344285062700 7.5072344277315777 43.1929472452025109 Ba
atom 2.5024114758980716 2.5024114762944061 48.1793893701252571 Ba
atom 7.5072344283690873 2.5024114758398066 48.1793893701270406 Ba
atom 2.5024114762337151 7.5072344279755354 48.1793893701272253 Ba
atom 7.5072344280339154 7.5072344284301806 48.1793893701277867 Ba
atom 5.0048229521442069 5.0048229521947620 45.6533053569052356 Zr
atom 10.0096459042582762 5.0048229520960756 45.6533053569072678 Zr
atom 5.0048229521518390 10.0096459042100268 45.6533053569073175 Zr
atom 10.0096459042502861 10.0096459043088046 45.6533053569090370 Zr
atom 5.0048229520582952 5.0048229521756902 50.7054733833526541 Zr
atom 10.0096459043442128 5.0048229521243268 50.7054733833514106 Zr
atom 5.0048229522483751 10.0096459042291759 50.7054733833532509 Zr
atom 10.0096459041537820 10.0096459042804504 50.7054733833515527 Zr
atom 5.0048229614694728 5.0048229426375395 43.1374679441746949 S
atom 10.0096458949313067 5.0048229580081181 43.1374679441747801 S
atom 5.0048229380143798 10.0096459137660645 43.1374679441755262 S
atom 10.0096459183856421 10.0096458983960641 43.1374679441760733 S
atom 5.0048229425200388 5.0048229630576131 48.1793893701291012 S
atom 10.0096459138821388 5.0048229452846558 48.1793893701306501 S
atom 5.0048229671350164 10.0096458933468906 48.1793893701320286 S
atom 10.0096458892667766 10.0096459111200957 48.1793893701302878 S
atom 5.0048229459443521 2.5024114371786101 45.6621506793756993 S
atom 10.0096459104581168 2.5024115149565858 45.6621506623638851 S
atom 5.0048229582738148 7.5072344670914539 45.6621506583839221 S
atom 10.0096458981286300 7.5072343893134503 45.6621506753966528 S
atom 5.0048229750328854 2.5024114371787110 50.6966280607219844 S
atom 10.0096458813696483 2.5024115149559423 50.6966280781620213 S
atom 5.0048229291566804 7.5072344670913029 50.6966280820251356 S
atom 10.0096459272458436 7.5072343893147560 50.6966280645877347 S
atom 2.5024115149546935 5.0048229582814363 45.6621506591526227 S
atom 7.5072343893125302 5.0048229459520224 45.6621506786069986 S
atom 2.5024114371774475 10.0096458981233916 45.6621506838645743 S
atom 7.5072344670899556 10.0096459104528019 45.6621506538930149 S
atom 2.5024115149548400 5.0048229291669593 50.6966280803436788 S
atom 7.5072343893119236 5.0048229750430790 50.6966280624041730 S
atom 2.5024114371766863 10.0096459272379885 50.6966280572852952 S
atom 7.5072344670906963 10.0096458813618572 50.6966280854624998 S
atom 2.5024114763901895 2.5024114756694673 53.1658314946313695 Ba
atom 7.5072344278773278 2.5024114764646592 53.1658314948643778 Ba
atom 2.5024114757421247 7.5072344286002721 53.1658314948067741 Ba
atom 7.5072344285250265 7.5072344278052547 53.1658314950396331 Ba
atom 2.5024114751377122 2.5024114771248676 58.1122359564513005 Ba
atom 7.5072344291296336 2.5024114750108111 58.1122359560950983 Ba
atom 2.5024114769939718 7.5072344271451090 58.1122359561832198 Ba
atom 7.5072344272731897 7.5072344292592463 58.1122359558265771 Ba
atom 5.0048229522468031 5.0048229520058678 55.7606036758592296 Zr
atom 10.0096459041547963 5.0048229521992393 55.7606036758597625 Zr
atom 5.0048229519353553 10.0096459043981714 55.7606036758562382 Zr
atom 10.0096459044658346 10.0096459042051951 55.7606036758572969 Zr
atom 5.0048229520055001 5.0048229522754131 60.8492076207013497 Zr
atom 10.0096459043916450 5.0048229520282606 60.8492076206992607 Zr
atom 5.0048229523078920 10.0096459041227384 60.8492076207034529 Zr
atom 10.0096459040867334 10.0096459043717427 60.8492076207016979 Zr
atom 5.0048229600616185 5.0048229423455597 53.2213107960786473 S
atom 10.0096458963396913 5.0048229585070514 53.2213107960771978 S
atom 5.0048229396737911 10.0096459140579856 53.2213107960755494 S
atom 10.0096459167270861 10.0096458978968190 53.2213107960773115 S
atom 5.0048229468447820 5.0048229589431781 58.2638524430400935 S
atom 10.0096459095513577 5.0048229473852972 58.2638524430411522 S
atom 5.0048229601628229 10.0096458974532165 58.2638524430395890 S
atom 10.0096458962308841 10.0096459090129652 58.2638524430387079 S
atom 5.0048229441280148 2.5024117456541939 55.7337632446408264 S
atom 10.0096459122738040 2.5024112064793269 55.7337632308997044 S
atom 5.0048229602630929 7.5072341586139766 55.7337632281627791 S
atom 10.0096458961387764 7.5072346977888582 55.7337632419053293 S
atom 5.0048229525200494 2.5024097287987770 60.7376493507480504 S
atom 10.0096459038817507 2.5024132233272178 60.7376493592695113 S
atom 5.0048229516860339 7.5072361754618857 60.7376493606267047 S
atom 10.0096459047157129 7.5072326809354681 60.7376493521060468 S
atom 2.5024112064766779 5.0048229602495180 55.7337632299229639 S
atom 7.5072346977890021 5.0048229441145633 55.7337632428790357 S
atom 2.5024117456533426 10.0096458961552468 55.7337632465138952 S
atom 7.5072341586123139 10.0096459122902139 55.7337632262903639 S
atom 2.5024132233265828 5.0048229516953473 60.7376493594995353 S
atom 7.5072326809333081 5.0048229525293255 60.7376493518759020 S
atom 2.5024097287970153 10.0096459047102933 60.7376493500679686 S
atom 7.5072361754605774 10.0096459038763435 60.7376493613062749 S
atom 2.5024114778948685 2.5024114741366752 62.9164973318211196 Ba
atom 7.5072344263796067 2.5024114780076303 62.9164973319545098 Ba
atom 2.5024114742451316 7.5072344301432583 62.9164973319214695 Ba
atom 7.5072344300292366 7.5072344262723574 62.9164973320546892 Ba
atom 5.0048229552363921 5.0048229482135280 63.3535599607691324 S
atom 10.0096459011256584 5.0048229551616785 63.3535599607685285 S
atom 5.0048229478554678 10.0096459081382498 63.3535599607712570 S
atom 10.0096459084930149 10.0096459012004075 63.3535599607704896 S
