#=======================================================
# FHI-aims file: full_relax/full_relax_RP_5_00Mz_000.in
# Created using the Atomic Simulation Environment (ASE)
# Fri Mar 14 11:28:41 2025
#=======================================================
lattice_vector 10.0122673122867560 0.0000000000000007 -0.0000000000000140 
lattice_vector 0.0000000000000007 10.0122673122867631 -0.0000000000001226 
lattice_vector -0.0000000000000782 -0.0000000000006860 56.1093040952036048 
atom 0.0000000000025440 -0.0000000000141828 0.1893788757336244 Ba
atom 5.0061336561474006 0.0000000000483481 0.1893788757235506 Ba
atom 0.0000000000011752 5.0061336561831711 0.1893788757245823 Ba
atom 5.0061336561477905 5.0061336561174947 0.1893788757217391 Ba
atom 0.0000000000094401 0.0000000000322687 4.9422026150402552 Ba
atom 5.0061336561591547 -0.0000000000239834 4.9422026150400953 Ba
atom 0.0000000000165947 5.0061336561178438 4.9422026150411495 Ba
atom 5.0061336561511167 5.0061336561727066 4.9422026150403742 Ba
atom 2.5030668280792874 2.5030668280792043 2.3213303051342211 Zr
atom 7.5092004842077387 2.5030668280720336 2.3213303051324190 Zr
atom 2.5030668280653336 7.5092004842149231 2.3213303051347571 Zr
atom 7.5092004842210738 7.5092004842220188 2.3213303051313727 Zr
atom 2.5030668280704607 2.5030668280640254 7.4343357815817184 Zr
atom 7.5092004842101421 2.5030668280688446 7.4343357815816518 Zr
atom 2.5030668280668631 7.5092004842132445 7.4343357815777065 Zr
atom 7.5092004842154623 7.5092004842081943 7.4343357815843198 Zr
atom 2.5030668281797821 2.5030668280940196 -0.1893841669408245 S
atom 7.5092004841033182 2.5030668280359731 -0.1893841669437745 S
atom 2.5030668279607564 7.5092004841803721 -0.1893841669412941 S
atom 7.5092004843217790 7.5092004842382485 -0.1893841669489583 S
atom 2.5030668280042003 2.5030668280823694 4.9186141060683148 S
atom 7.5092004842717861 2.5030668280627335 4.9186141060678166 S
atom 2.5030668281277832 7.5092004842049755 4.9186141060648447 S
atom 7.5092004841488960 7.5092004842242277 4.9186141060703727 S
atom 2.2361816471075322 -0.0000000000004576 2.4419918471422188 S
atom 7.7760856651868906 -0.0000000000014952 2.4419918471598336 S
atom 2.7699520090416279 5.0061336561435770 2.4419918471613871 S
atom 7.2423153032539753 5.0061336561451304 2.4419918471471167 S
atom 2.9936948994827786 0.0000000000028527 7.4482365709875422 S
atom 7.0185724128063400 0.0000000000030955 7.4482365710278815 S
atom 2.0124387566622435 5.0061336561435121 7.4482365710289402 S
atom 7.9998285556259132 5.0061336561457894 7.4482365709848191 S
atom -0.0000000000019238 2.7699520090339620 2.4419918470815083 S
atom 5.0061336561426160 2.2361816471003571 2.4419918472258968 S
atom -0.0000000000014502 7.2423153032440615 2.4419918472273618 S
atom 5.0061336561437821 7.7760856651786581 2.4419918470792941 S
atom -0.0000000000000745 2.0124387566613304 7.4482365710556637 S
atom 5.0061336561472984 2.9936948994818890 7.4482365709601055 S
atom 0.0000000000001054 7.9998285556250615 7.4482365709597156 S
atom 5.0061336561418495 7.0185724128050717 7.4482365710542693 S
atom -0.0000000000346789 -0.0000000000435901 9.9960242001187876 Ba
atom 5.0061336561153205 -0.0000000000473010 9.9960242001180610 Ba
atom -0.0000000000277721 5.0061336560934038 9.9960242001171657 Ba
atom 5.0061336561095509 5.0061336560977923 9.9960242001190238 Ba
atom 0.0000000000391783 0.0000000000386952 15.0527722709629135 Ba
atom 5.0061336561740166 0.0000000000460792 15.0527722709628229 Ba
atom 0.0000000000307532 5.0061336561905723 15.0527722709614196 Ba
atom 5.0061336561814942 5.0061336561837342 15.0527722709617180 Ba
atom 2.5030668280718551 2.5030668280707498 12.5243982355401648 Zr
atom 7.5092004842144071 2.5030668280707946 12.5243982355384951 Zr
atom 2.5030668280712134 7.5092004842142188 12.5243982355444956 Zr
atom 7.5092004842160538 7.5092004842150448 12.5243982355444956 Zr
atom 2.5030668280717014 2.5030668280751494 17.6144606894917075 Zr
atom 7.5092004842189368 2.5030668280735062 17.6144606894912705 Zr
atom 2.5030668280751764 7.5092004842159676 17.6144606895003406 Zr
atom 7.5092004842149409 7.5092004842182520 17.6144606894941766 Zr
atom 2.5030668281220985 2.5030668280544148 9.9861684072429266 S
atom 7.5092004841751505 2.5030668281108062 9.9861684072467707 S
atom 2.5030668280317250 7.5092004842554543 9.9861684072436763 S
atom 7.5092004842667963 7.5092004841986268 9.9861684072463461 S
atom 2.5030668280219479 2.5030668280927628 15.0626280638388863 S
atom 7.5092004842479589 2.5030668280302732 15.0626280638357439 S
atom 2.5030668281045587 7.5092004841725641 15.0626280638429755 S
atom 7.5092004841656168 7.5092004842354392 15.0626280638302728 S
atom 2.9596071947429059 0.0000000000010717 12.5243982355634937 S
atom 7.0526601175431383 0.0000000000005189 12.5243982354972676 S
atom 2.0465264613999556 5.0061336561425769 12.5243982354969532 S
atom 7.9657408508861538 5.0061336561426328 12.5243982355653678 S
atom 2.9936948994810337 -0.0000000000012433 17.6005599000337760 S
atom 7.0185724128013112 -0.0000000000013078 17.6005599000934438 S
atom 2.0124387566577724 5.0061336561478491 17.6005599000910742 S
atom 7.9998285556232807 5.0061336561449048 17.6005599000319712 S
atom 0.0000000000019606 2.0465264613989977 12.5243982354832450 S
atom 5.0061336561438843 2.9596071947429334 12.5243982355758856 S
atom 0.0000000000018287 7.9657408508859824 12.5243982355753918 S
atom 5.0061336561410350 7.0526601175420147 12.5243982354838419 S
atom -0.0000000000012449 2.0124387566585038 17.6005599001007766 S
atom 5.0061336561466394 2.9936948994803365 17.6005599000281379 S
atom -0.0000000000016589 7.9998285556240551 17.6005599000246242 S
atom 5.0061336561481502 7.0185724128011424 17.6005599000958881 S
atom 0.0000000000016687 -0.0000000000285166 20.1065938560298036 Ba
atom 5.0061336561210217 0.0000000000025941 20.1065938560291784 Ba
atom -0.0000000000203200 5.0061336561491494 20.1065938560313420 Ba
atom 5.0061336561423069 5.0061336561196903 20.1065938560287520 Ba
atom -0.0000000000168152 -0.0000000000035010 24.8594175953255245 Ba
atom 5.0061336561464467 -0.0000000000263257 24.8594175953254926 Ba
atom 0.0000000000056133 5.0061336561288288 24.8594175953177547 Ba
atom 5.0061336561230512 5.0061336561540895 24.8594175953277663 Ba
atom 2.5030668280700290 2.5030668280666433 22.7274661659387966 Zr
atom 7.5092004842148317 2.5030668280714048 22.7274661659342136 Zr
atom 2.5030668280724315 7.5092004842158735 22.7274661659352084 Zr
atom 7.5092004842122018 7.5092004842109654 22.7274661659390631 Zr
atom 2.5030668281097186 2.5030668280495205 20.1301823649985003 S
atom 7.5092004841831397 2.5030668280984250 20.1301823650066289 S
atom 2.5030668280403825 7.5092004842417177 20.1301823650076379 S
atom 7.5092004842524043 7.5092004841933671 20.1301823650046217 S
atom 2.5030668280408510 2.5030668280741883 25.2381806380028451 S
atom 7.5092004842522098 2.5030668280760486 25.2381806380044651 S
atom 2.5030668281099322 7.5092004842189839 25.2381806379877958 S
atom 7.5092004841827862 7.5092004842171187 25.2381806379983260 S
atom 2.2361816470990190 0.0000000000010805 22.6068046239465517 S
atom 7.7760856651803776 -0.0000000000002474 22.6068046239216187 S
atom 2.7699520090377132 5.0061336561394043 22.6068046239245426 S
atom 7.2423153032433554 5.0061336561415049 22.6068046239431730 S
atom 0.0000000000001979 2.7699520090417975 22.6068046239068110 S
atom 5.0061336561413059 2.2361816471002651 22.6068046239611462 S
atom -0.0000000000014317 7.2423153032439282 22.6068046239630860 S
atom 5.0061336561432341 7.7760856651843193 22.6068046239068536 S
atom 2.5030668281267063 2.5030668281733104 28.3660471203716398 Ba
atom 7.5092004841601527 2.5030668279695369 28.3660471203692310 Ba
atom 2.5030668280178143 7.5092004841130544 28.3660471203910696 Ba
atom 7.5092004842687929 7.5092004843167164 28.3660471203853142 Ba
atom 2.5030668280306605 2.5030668280201591 33.1637825906385473 Ba
atom 7.5092004842552633 2.5030668281277371 33.1637825906432440 Ba
atom 2.5030668281103736 7.5092004842651825 33.1637825905978545 Ba
atom 7.5092004841755671 7.5092004841574589 33.1637825906054502 Ba
atom 5.0061336561517784 5.0061336561464378 30.4338152112612548 Zr
atom 10.0122673122785635 5.0061336561330814 30.4338152112686160 Zr
atom 5.0061336561363667 10.0122673122826171 30.4338152112606366 Zr
atom 10.0122673122934973 10.0122673122960730 30.4338152112563698 Zr
atom 5.0061336561362069 5.0061336561347636 35.5226054413583654 Zr
atom 10.0122673122935559 5.0061336561568845 35.5226054413514589 Zr
atom 5.0061336561488803 10.0122673122948207 35.5226054413670695 Zr
atom 10.0122673122808212 10.0122673122718133 35.5226054413594596 Zr
atom 5.0061336559399727 5.0061336561012775 27.9298703921500042 S
atom 10.0122673124920620 5.0061336563199763 27.9298703921573122 S
atom 5.0061336563189354 10.0122673123268680 27.9298703921410691 S
atom 10.0122673121119163 10.0122673121073209 27.9298703921457161 S
atom 5.0061336565089718 5.0061336562520067 33.0184938440886029 S
atom 10.0122673119212315 5.0061336557284202 33.0184938440895834 S
atom 5.0061336558455407 10.0122673121763643 33.0184938441010445 S
atom 10.0122673125837682 10.0122673126995867 33.0184938440819522 S
atom 5.0061336560403831 2.5030660097096518 30.5455157561886210 S
atom 10.0122673123899624 2.5030676464301647 30.5455157558646171 S
atom 5.0061336562454244 7.5092013025754483 30.5455157560698005 S
atom 10.0122673121845818 7.5091996658547382 30.5455157563935700 S
atom 5.0061336578698006 2.5030658124491794 35.5470015298721052 S
atom 10.0122673105596931 2.5030678436944807 35.5470015306044615 S
atom 5.0061336544182495 7.5092014998362338 35.5470015302267157 S
atom 10.0122673140113783 7.5091994685905785 35.5470015295035893 S
atom 2.5030676464316581 5.0061336562485401 30.5455157563909587 S
atom 7.5091996658549629 5.0061336560433167 30.5455157558653276 S
atom 2.5030660097141948 10.0122673121805708 30.5455157559133141 S
atom 7.5092013025725963 10.0122673123860206 30.5455157563487987 S
atom 2.5030678436944362 5.0061336544131061 35.5470015296122810 S
atom 7.5091994685919152 5.0061336578645861 35.5470015304933824 S
atom 2.5030658124449001 10.0122673140165652 35.5470015304098439 S
atom 7.5092014998415157 10.0122673105647291 35.5470015296896520 S
atom 2.5030668280938149 2.5030668280934112 38.0964377966862102 Ba
atom 7.5092004841920472 2.5030668280495467 38.0964377966821246 Ba
atom 2.5030668280513484 7.5092004841916697 38.0964377966992913 Ba
atom 7.5092004842346691 7.5092004842356994 38.0964377966973728 Ba
atom 2.5030668280412733 2.5030668280449468 43.0616627695848138 Ba
atom 7.5092004842450155 2.5030668280925945 43.0616627695812113 Ba
atom 2.5030668281022099 7.5092004842408775 43.0616627695931911 Ba
atom 7.5092004841841709 7.5092004841929647 43.0616627695919121 Ba
atom 5.0061336561454146 5.0061336561523522 40.5790502831343431 Zr
atom 10.0122673122844521 5.0061336561335095 40.5790502831237134 Zr
atom 5.0061336561406584 10.0122673122771140 40.5790502831280193 Zr
atom 10.0122673122886336 10.0122673122952186 40.5790502831427560 Zr
atom 5.0061336561474619 5.0061336561394905 45.6354951249099159 Zr
atom 10.0122673122821961 5.0061336561402907 45.6354951249272176 Zr
atom 5.0061336561397924 10.0122673122898647 45.6354951249117988 Zr
atom 10.0122673122896835 10.0122673122887544 45.6354951249116567 Zr
atom 5.0061336556227465 5.0061336558695917 38.0592152864971496 S
atom 10.0122673128065411 5.0061336568501673 38.0592152864910673 S
atom 5.0061336565650567 10.0122673125590520 38.0592152864950677 S
atom 10.0122673118645196 10.0122673115791088 38.0592152865035160 S
atom 5.0061336566987249 5.0061336565816532 43.0988852797704070 S
atom 10.0122673117304153 5.0061336552783962 43.0988852797654047 S
atom 5.0061336556814000 10.0122673118470935 43.0988852797606867 S
atom 10.0122673127475608 10.0122673131507423 43.0988852797716220 S
atom 5.0061336548733744 2.5030678023834780 40.5790502835066604 S
atom 10.0122673135554692 2.5030658537578518 40.5790502823374339 S
atom 5.0061336574121489 7.5091995099015607 40.5790502827842658 S
atom 10.0122673110168297 7.5092014585275448 40.5790502839522134 S
atom 5.0061336572590713 2.5030658124458225 45.6110990357653563 S
atom 10.0122673111702003 2.5030678436968428 45.6110990370513605 S
atom 5.0061336550252609 7.5092014998393886 45.6110990366951796 S
atom 10.0122673134046796 7.5091994685886521 45.6110990353996044 S
atom 2.5030658537604262 5.0061336574116710 40.5790502836968585 S
atom 7.5092014585253484 5.0061336548724489 40.5790502825930872 S
atom 2.5030678023850563 10.0122673110171796 40.5790502826892663 S
atom 7.5091995099008404 10.0122673135563414 40.5790502835943343 S
atom 2.5030678436909999 5.0061336550301565 45.6110990357257364 S
atom 7.5091994685947334 5.0061336572641366 45.6110990367297475 S
atom 2.5030658124476761 10.0122673133984943 45.6110990366491293 S
atom 7.5092014998381069 10.0122673111645231 45.6110990358052604 S
atom 2.5030668281730013 2.5030668281381088 47.9943179756752514 Ba
atom 7.5092004841130091 2.5030668280019843 47.9943179756802394 Ba
atom 2.5030668279651813 7.5092004841470086 47.9943179756387650 Ba
atom 7.5092004843208091 7.5092004842834603 47.9943179756456857 Ba
atom 2.5030668278213080 2.5030668279237656 52.7920534458941759 Ba
atom 7.5092004844647189 2.5030668282170230 52.7920534458890103 Ba
atom 2.5030668283227739 7.5092004843592166 52.7920534459042727 Ba
atom 7.5092004839639630 7.5092004840661888 52.7920534459089197 Ba
atom 5.0061336561338967 5.0061336561340388 50.7242853550423547 Zr
atom 10.0122673122952222 5.0061336561574059 50.7242853550351569 Zr
atom 5.0061336561512828 10.0122673122955170 50.7242853550386030 Zr
atom 10.0122673122771317 10.0122673122726891 50.7242853550301405 Zr
atom 5.0061336556948799 5.0061336556558711 48.1396067221842188 S
atom 10.0122673127337425 5.0061336569163952 48.1396067222077377 S
atom 5.0061336565281342 10.0122673127741084 48.1396067221903508 S
atom 10.0122673119010059 10.0122673115141438 48.1396067221802753 S
atom 5.0061336564292027 5.0061336565552326 53.2282301741603874 S
atom 10.0122673119965153 5.0061336556137439 53.2282301741435049 S
atom 5.0061336558814720 10.0122673118795742 53.2282301741559607 S
atom 10.0122673125445569 10.0122673128235942 53.2282301741439028 S
atom 5.0061336560789131 2.5030660097123243 50.6125848105615646 S
atom 10.0122673123511348 2.5030676464294008 50.6125848095199942 S
atom 5.0061336562075081 7.5092013025736124 50.6125848097093680 S
atom 10.0122673122218870 7.5091996658569231 50.6125848107573830 S
atom 2.5030676464346082 5.0061336562046836 50.6125848104793903 S
atom 7.5091996658497635 5.0061336560742440 50.6125848097941144 S
atom 2.5030660097121613 10.0122673122235444 50.6125848098383386 S
atom 7.5092013025735094 10.0122673123543890 50.6125848104355498 S
