#=======================================================
# FHI-aims file: full_relax/full_relax_RP_2_RxRyMz_-Rx-Ry-Mz.in
# Created using the Atomic Simulation Environment (ASE)
# Fri Mar 14 11:18:28 2025
#=======================================================
lattice_vector 10.0810643484798828 0.1195206499640669 0.0000000000000357 
lattice_vector 0.1195206499640656 10.0810643484801545 0.0000000000001664 
lattice_vector 0.0000000000001038 0.0000000000004481 25.5129142773978117 
atom -0.0998557194941242 -0.0998223519142775 0.2830232357154634 Ba
atom 5.1403545261722696 0.1596160444575852 0.2830232357219252 Ba
atom 0.1595826768853794 5.1403878937268299 0.2830232356812679 Ba
atom 5.0004367797535707 5.0004701472994402 0.2830232357067359 Ba
atom 0.0263311549012103 0.0262925491454606 4.9063296687275297 Ba
atom 5.0142396250961623 0.0334291700843183 4.9063296687313978 Ba
atom 0.0334677758355864 5.0142010193322299 4.9063296687410318 Ba
atom 5.1266236541254173 5.1265850483600790 4.9063296687397235 Ba
atom 2.5408118358564464 2.5408052630226412 2.3646958114452374 Zr
atom 7.6000194103547010 2.6192409882872454 2.3646958113509990 Zr
atom 2.6192475611129225 7.6000128376193841 2.3646958114017189 Zr
atom 7.6411043350478360 7.6410977623246250 2.3646958113678318 Zr
atom 2.5408118358979981 2.5408052630687541 7.4479635262646280 Zr
atom 7.6000194103485610 2.6192409883549042 7.4479635262054078 Zr
atom 2.6192475611065063 7.6000128375560054 7.4479635262379418 Zr
atom 7.6411043350941386 7.6410977623033203 7.4479635261654265 Zr
atom 2.7331076426110306 2.7330619315207629 -0.1263080354197507 S
atom 7.4077627419184093 2.4269451815777905 -0.1263080353248066 S
atom 2.4269908926616055 7.4077170308523739 -0.1263080353792537 S
atom 7.8334001418175330 7.8333544307552518 -0.1263080353178207 S
atom 2.2948702957628071 2.2948721918307315 4.9063296685517859 S
atom 7.8459524816196637 2.8651825284344095 4.9063296685908444 S
atom 2.8651806323497304 7.8459543776704610 4.9063296685902777 S
atom 7.3951627949907559 7.3951646910645801 4.9063296686207183 S
atom 2.5202728187634236 0.0298803284345435 2.2327997591448256 S
atom 7.5607536040661252 0.0896396670496352 2.6833817549233303 S
atom 2.5799817548063864 5.0704115163645298 2.6833817549464669 S
atom 7.6205653179894037 5.1301728277016538 2.2327997591358120 S
atom 2.5202728187596199 0.0298803284737444 7.5798595783693878 S
atom 7.5607536040839616 0.0896396669974824 7.1292775825396424 S
atom 2.5799817548306629 5.0704115163875736 7.1292775825636374 S
atom 7.6205653179940072 5.1301728276555174 7.5798595783548564 S
atom 0.0298799965689259 2.5202593554575312 2.2327997591472024 S
atom 5.0704131571799289 2.5800710693763800 2.6833817549372680 S
atom 0.0896413079679763 7.5608429186172605 2.6833817549341790 S
atom 5.1301724958115997 7.6205518546907216 2.2327997591391764 S
atom 0.0298799965596175 2.5202593554561532 7.5798595783671052 S
atom 5.0704131571422222 2.5800710693890152 7.1292775825550878 S
atom 0.0896413079104949 7.5608429186288033 7.1292775825444430 S
atom 5.1301724957443966 7.6205518546835131 7.5798595783588736 S
atom -0.0998557194834890 -0.0998223519208921 9.5296361017692313 Ba
atom 5.1403545261565275 0.1596160444787459 9.5296361017325477 Ba
atom 0.1595826769170689 5.1403878937328500 9.5296361017544626 Ba
atom 5.0004367797202454 5.0004701472792750 9.5296361017574416 Ba
atom 2.7331076426066994 2.7330619315341695 9.9389673726217040 S
atom 7.4077627419372041 2.4269451816123131 9.9389673727342736 S
atom 2.4269908926818440 7.4077170308459479 9.9389673726549805 S
atom 7.8334001418330788 7.8333544307483578 9.9389673727337300 S
atom 2.6499686015041437 2.6500019690327510 13.0394803744000782 Ba
atom 7.4908227043668099 2.5100842226338189 13.0394803743745999 Ba
atom 2.5100508550896858 7.4908560719593016 13.0394803743909033 Ba
atom 7.7502611007404605 7.7502944683316883 13.0394803743867556 Ba
atom 2.5238537004706125 2.5238150946912485 17.6627868074171595 Ba
atom 7.6170095787424827 2.6361991237420410 17.6627868074127505 Ba
atom 2.6362377295000838 7.6169709730128412 17.6627868074084660 Ba
atom 7.6241461996735893 7.6241075939390166 17.6627868074081853 Ba
atom 5.1096334858175601 5.1096269128818541 15.1211529503635749 Zr
atom 10.1314902597410619 5.1507118377411425 15.1211529500459072 Zr
atom 5.1507184104725852 10.1314836868842431 15.1211529499130712 Zr
atom 10.2099259849690291 10.2099194121914412 15.1211529501190398 Zr
atom 5.1096334857391588 5.1096269128951537 20.2044206649865963 Zr
atom 10.1314902597397261 5.1507118376996184 20.2044206649619085 Zr
atom 5.1507184104304713 10.1314836868563560 20.2044206646844167 Zr
atom 10.2099259849640074 10.2099194122207653 20.2044206648665146 Zr
atom 4.9173768172942980 4.9173311061905620 12.6301491030467634 S
atom 10.3237860664721008 5.3429685061310010 12.6301491033717479 S
atom 5.3430142171931001 10.3237403553405755 12.6301491036160041 S
atom 10.0176693165218502 10.0176236054560039 12.6301491032920481 S
atom 5.3555665569991016 5.3555684530043601 17.6627868073956940 S
atom 9.8855487196331300 4.9047787664661353 17.6627868074524130 S
atom 4.9047768703710517 9.8855506156545125 17.6627868074760315 S
atom 10.4558590562074976 10.4558609522908128 17.6627868074942285 S
atom 5.0703676794542485 2.5800255917921731 15.4398388936041719 S
atom 10.1109512426379364 2.6397869029614425 14.9892568978008107 S
atom 5.1301793933865030 7.6205587525246674 14.9892568977973557 S
atom 10.1706601786778101 7.6803180908363151 15.4398388936105491 S
atom 5.0703676794461048 2.5800255917834591 19.8857347212808016 S
atom 10.1109512426328703 2.6397869030041301 20.3363167170448236 S
atom 5.1301793933648803 7.6205587524200169 20.3363167170477759 S
atom 10.1706601786674433 7.6803180908243034 19.8857347212491682 S
atom 2.5800272325346594 5.0704569939945907 15.4398388936335493 S
atom 7.6205584202576073 5.1301659300426357 14.9892568978216083 S
atom 2.6397865711034165 10.1109377793212776 14.9892568977828144 S
atom 7.6803197318073995 10.1707494932124174 15.4398388935934605 S
atom 2.5800272325550151 5.0704569939855864 19.8857347212729429 S
atom 7.6205584203123546 5.1301659300575135 20.3363167170559827 S
atom 2.6397865711827069 10.1109377793188209 20.3363167170413099 S
atom 7.6803197317631939 10.1707494932132239 19.8857347212472426 S
atom 2.6499686015291952 2.6500019691544248 22.2860932404773564 Ba
atom 7.4908227043765834 2.5100842227037026 22.2860932404903309 Ba
atom 2.5100508550866403 7.4908560718784472 22.2860932404933294 Ba
atom 7.7502611007821178 7.7502944682843182 22.2860932404767915 Ba
atom 4.9173768173049943 4.9173311062116900 22.6954245111034432 S
atom 10.3237860664531027 5.3429685061239951 22.6954245112543909 S
atom 5.3430142172057842 10.3237403553789733 22.6954245115290050 S
atom 10.0176693165318884 10.0176236054606775 22.6954245112951334 S
