#=======================================================
# FHI-aims file: full_relax/full_relax_RP_4_Rx0Rz_0-RyRz.in
# Created using the Atomic Simulation Environment (ASE)
# Fri Mar 14 11:24:41 2025
#=======================================================
lattice_vector 10.0939693549841074 -0.0001203363394863 0.0025694786948973 
lattice_vector -0.0001203363394862 10.0939693549840150 0.0025694786948966 
lattice_vector 0.0087901804402133 0.0087901804402059 45.1627048390640624 
atom -0.1611731422652215 0.0043096754400280 0.2849157098954896 Ba
atom 5.1966872141007849 0.0041970531113942 0.2853123558062186 Ba
atom 0.1496423684270984 5.0512418987436645 0.2853123556958719 Ba
atom 4.8857513670432660 5.0512341847328361 0.2874851886689657 Ba
atom 0.0091333979059060 0.0030975526135911 4.9451297576614062 Ba
atom 4.9971488136436637 0.0028830866639597 4.9355334501609258 Ba
atom -0.0498960320625428 5.0499279323361366 4.9355334501603805 Ba
atom 5.0560579072701604 5.0500220619468914 4.9476992363623946 Ba
atom 2.5160502863189955 2.5141961289886563 2.3261125615893499 Zr
atom 7.5630211177294298 2.5401721885320909 2.3270990846571706 Zr
atom 2.5159762721017449 7.5872170342253078 2.3270990846424633 Zr
atom 7.5629747956072579 7.5611206382932261 2.3286820403941366 Zr
atom 2.5184751611930958 2.5260331828063043 7.3380600406821728 Zr
atom 7.5654755929805759 2.5258081690454359 7.3391711902215180 Zr
atom 2.5184307473851626 7.5728530146980866 7.3391711901907524 Zr
atom 7.5653996704480519 7.5729576921143549 7.3406295193997790 Zr
atom 2.5178543647749287 2.8840326991103709 -0.1547273072351187 S
atom 7.5651723682689926 2.1715959774289444 -0.1539206258517895 S
atom 2.5181275226400621 7.2186408231018060 -0.1539206257542463 S
atom 7.5647788740643218 7.9309572084180884 -0.1521578285627064 S
atom 2.5196553749648811 2.0542129993868183 4.8654674680033541 S
atom 7.5661092557642737 2.9988580814669681 4.8669116732280218 S
atom 2.5190644100932373 8.0459029271256508 4.8669116731298283 S
atom 7.5665798842969068 7.1011375086897202 4.8680369464943825 S
atom 2.5184948240996907 0.0037975571447594 2.0088520898600399 S
atom 7.5607962961720085 0.0035536431706734 2.8005475744500976 S
atom 2.5137514505004357 5.0505984889585491 2.8005475744461328 S
atom 7.5654193334185997 5.0507220666503736 2.0114215685508428 S
atom 2.5865023510730851 0.0023434649418419 7.8026102722061124 S
atom 7.5165373288713111 0.0025067387041169 6.8796974987941564 S
atom 2.4694924832003959 5.0495515842082588 6.8796974988089428 S
atom 7.6334268604129996 5.0492679741110003 7.8051797509132363 S
atom -0.0067899500664760 2.5265143830591654 2.4584843173152104 S
atom 5.0402258488344289 2.5278218460265323 2.4593023791045430 S
atom -0.0068189967179856 7.5748666916843419 2.4593023791107491 S
atom 5.0401345591465043 7.5734388923776574 2.4610537960026111 S
atom -0.0015319525757189 2.4571722595302310 7.3451810255111702 S
atom 5.0454511969898519 2.5947188903396365 7.3471873665261409 S
atom -0.0015936484057207 7.6417637360078432 7.3471873665263168 S
atom 5.0453925564807758 7.5040967688532509 7.3477505042088698 S
atom -0.0086226973572509 0.0017676624110850 9.7822665357970351 Ba
atom 5.0594291924335328 0.0019939869929687 9.8549768293945093 Ba
atom 0.0123843467047287 5.0490388326584084 9.8549768293972626 Ba
atom 5.0383018120317979 5.0486921717393285 9.7848360144876754 Ba
atom 0.0536576814289438 0.0008785627507588 14.7017099148263402 Ba
atom 5.0416730971695323 0.0006640967996808 14.6921136073161964 Ba
atom -0.0053717485739776 5.0477089424459685 14.6921136073225398 Ba
atom 5.1005821908347189 5.0478030720580946 14.7042793935183820 Ba
atom 2.5322554113950893 2.5248779896990672 12.3006416538904748 Zr
atom 7.5792558432276600 2.5246529759467973 12.3017528034873518 Zr
atom 2.5322109975964211 7.5716978215908552 12.3017528034251686 Zr
atom 7.5791799206862853 7.5718024990190305 12.3032111325850515 Zr
atom 2.5347098866399613 2.5105139701625623 17.3127137584594344 Zr
atom 7.5816807181006514 2.5364900297819335 17.3137002814201182 Zr
atom 2.5346358724199516 7.5835348754124379 17.3137002815626211 Zr
atom 7.5816343959810455 7.5574384794969482 17.3152832371119700 Zr
atom 2.5250500203029085 3.0291751145743002 9.8194199181217954 S
atom 7.5726809840949558 2.0215110441526898 9.8203929247665460 S
atom 2.5256361384233688 7.0685558898341831 9.8203929249426594 S
atom 7.5719745296345655 8.0760996239186120 9.8219893969573935 S
atom 2.5316217486359975 2.0518280772867619 14.7729011708171054 S
atom 7.5780756294252178 2.9964731593302179 14.7743453760017918 S
atom 2.5310307837649866 8.0435180049693145 14.7743453758648577 S
atom 7.5785462579573091 7.0987525866021501 14.7754706494071311 S
atom 2.4643041439870399 0.0014181843422198 11.8346330927329504 S
atom 7.6282385211964128 0.0011345745119191 12.7601153449381002 S
atom 2.5811936755241502 5.0481794203145052 12.7601153449256604 S
atom 7.5112286533106047 5.0483426937958633 11.8372025714074880 S
atom 2.5323116709750422 -0.0000359077940181 17.6283912752739553 S
atom 7.5839795538904493 0.0000876699187095 16.8392652693989575 S
atom 2.5369347082280553 5.0471325154881344 16.8392652693966554 S
atom 7.5792361802985075 5.0468886013881509 17.6309607539851427 S
atom 0.0052936020934904 2.5936342355478903 12.2920623394870301 S
atom 5.0522798072954469 2.4559672683838749 12.2926254771681407 S
atom 0.0052349619477751 7.5030121140496568 12.2926254771703505 S
atom 5.0522181111017286 7.6405587448693044 12.2946318181862395 S
atom 0.0105515996200886 2.5242921120145705 17.1787590478253627 S
atom 5.0575051554226738 2.5228643127070907 17.1805104647198874 S
atom 0.0104603100211027 7.5699091583708817 17.1805104647218734 S
atom 5.0574761086827049 7.5712166213389498 17.1813285265137097 S
atom -0.1458807189934108 -0.0004354036972814 19.3519310091584629 Ba
atom 5.2119796373141680 -0.0005480260253243 19.3523276549853485 Ba
atom 0.1649347916346310 5.0464968196601632 19.3523276550030765 Ba
atom 4.9010437903490640 5.0464891056487078 19.3545004878683180 Ba
atom 2.5325586361059758 2.8790901813164815 19.7937334698638985 S
atom 7.5798766396433965 2.1666534595989706 19.7945401513586212 S
atom 2.5328317939713600 7.2136983052688404 19.7945401512942993 S
atom 7.5794831454383953 7.9260146906665376 19.7963029486780364 S
atom 2.5321670203167277 2.3666842026148087 22.8675528687327407 Ba
atom 7.5790992436348761 2.6774997133575678 22.8679495145452982 Ba
atom 2.5320543979871588 7.7245445589686215 22.8679495145380898 Ba
atom 7.5790915296249945 7.4136087118869556 22.8701223474055197 Ba
atom 2.5309548974045515 2.5369907428054264 27.5277669167636105 Ba
atom 7.5777852773058569 2.4779613129107410 27.5181706092609666 Ba
atom 2.5307404314541473 7.5250061585107471 27.5181706092558436 Ba
atom 7.5778794069176802 7.5839152520635862 27.5303363954587361 Ba
atom 5.0420534739353942 5.0439076311689854 24.9087497205448436 Zr
atom 10.1150743790401076 5.0438336169586613 24.9097362439027528 Zr
atom 5.0680295333120382 10.0908784626401431 24.9097362435106149 Zr
atom 10.0889779832246429 10.0908321405137453 24.9113191995995216 Zr
atom 5.0538905278166437 5.0463325060239015 29.9206972007819552 Zr
atom 10.1007103596307548 5.0462880922156330 29.9218083493733822 Zr
atom 5.0536655138006594 10.0933329379166867 29.9218083501926486 Zr
atom 10.1008150369775596 10.0932570153809316 29.9232666786506343 Zr
atom 5.4118900439722593 5.0457117096382893 22.4279098519229620 S
atom 9.7464981679564691 5.0459848675030718 22.4287165330298457 S
atom 4.6994533223245814 10.0930297131669651 22.4287165333584078 S
atom 10.4588145532969659 10.0926362189629693 22.4304793304552881 S
atom 4.5820703442245510 5.0475127198559822 27.4481046258066392 S
atom 10.5737602720857744 5.0469217549846093 27.4495488313443410 S
atom 5.5267154263686589 10.0939666006356035 27.4495488311968820 S
atom 9.6289948535139125 10.0944372291701079 27.4506741044546168 S
atom 5.0543717279379230 2.5210673947509008 25.0411214762037169 S
atom 10.1027240365595485 2.5210383477306308 25.0419395379527181 S
atom 5.0556791909044989 7.5680831937772810 25.0419395379992622 S
atom 10.1012962372533384 7.5679919044554316 25.0436909548506605 S
atom 4.9850296044092115 2.5263253920159792 29.9278181842717750 S
atom 10.1696210808952525 2.5262636963849565 29.9298245253247153 S
atom 5.1225762352321818 7.5733085421503015 29.9298245252883248 S
atom 10.0319541137222643 7.5732499014550188 29.9303876630093981 S
atom 2.5316549024351835 5.0463521689815920 24.5914892487698076 S
atom 7.5784558334810947 5.0416087953881554 25.3831847332462281 S
atom 2.5314109881382860 10.0886536410449885 25.3831847332372824 S
atom 7.5785794114662206 10.0932766783010379 24.5940587274905482 S
atom 2.5302008098038100 5.1143596959707649 30.3852474310567260 S
atom 7.5774089290159452 4.9973498280816848 29.4623346574864797 S
atom 2.5303640838062438 10.0443946737378109 29.4623346574782055 S
atom 7.5771253188557015 10.1612842052818007 30.3878169097446538 S
atom 2.5296250074210764 2.5192346475427381 32.3649036945632247 Ba
atom 7.5768961774023920 2.5402416916981139 32.4376139881654311 Ba
atom 2.5298513320083278 7.5872865372913267 32.4376139881606917 Ba
atom 7.5765495164896359 7.5661591567964006 32.3674731732585670 Ba
atom 2.5287359076397165 2.5815150263234159 37.2843470735642910 Ba
atom 7.5755662873158718 2.5224855964537265 37.2747507660586308 Ba
atom 2.5285214416910478 7.5695304420323861 37.2747507660640522 Ba
atom 7.5756604169314814 7.6284395355612657 37.2869165522620278 Ba
atom 5.0527353346702926 5.0601127562318302 34.8832788111937901 Zr
atom 10.0995551664748895 5.0600683424292567 34.8843899612910349 Zr
atom 5.0525103207366744 10.1071131881483804 34.8843899607963834 Zr
atom 10.0996598439249077 10.1070372656019938 34.8858482903209151 Zr
atom 5.0383713150451230 5.0625672315205739 39.8953509179445405 Zr
atom 10.1113922201287298 5.0624932173063977 39.8963374412850058 Zr
atom 5.0643473746439334 10.1095380629844058 39.8963374411189591 Zr
atom 10.0852958245578783 10.1094917408597507 39.8979203970520118 Zr
atom 5.5570324594199851 5.0529073651900820 32.4020570769518557 S
atom 9.5964132348293489 5.0534934833088165 32.4030300846179884 S
atom 4.5493683891205654 10.1005383289685575 32.4030300837404752 S
atom 10.6039569686510724 10.0998318745068154 32.4046265568974619 S
atom 4.5796854220183008 5.0594790935205092 37.3555383310987779 S
atom 10.5713753499250309 5.0588881286497429 37.3569825348188047 S
atom 5.5243305043251327 10.1059329743003570 37.3569825361033807 S
atom 9.6266099314452855 10.1064036028343054 37.3581078082398861 S
atom 5.1214915804433057 2.5331509465297222 34.8746994985544703 S
atom 10.0308694589438048 2.5330923064251429 34.8752626361921969 S
atom 4.9838246132513779 7.5801371526279482 34.8752626362298273 S
atom 10.1684160897389777 7.5800754563936072 34.8772689772020712 S
atom 5.0521494568965037 2.5384089443302766 39.7613962065283886 S
atom 10.0977665032504049 2.5383176546743527 39.7631476234619186 S
atom 5.0507216575873493 7.5853625004731509 39.7631476234279120 S
atom 10.0990739662212849 7.5853334537879809 39.7639656852598478 S
atom 2.5292755284831889 4.9921614888728403 34.4172702517814102 S
atom 7.5760367659082215 5.1090510204253636 35.3427525040387565 S
atom 2.5289919187139018 10.1560958660701512 35.3427525040035633 S
atom 7.5762000393777953 10.0390859981928013 34.4198397305080448 S
atom 2.5278214378394996 5.0601690158602448 40.2110284339394610 S
atom 7.5749898598302767 5.0647920531094552 39.4219024281685080 S
atom 2.5279450152962899 10.1118368987683098 39.4219024281701209 S
atom 7.5747459455703376 10.1070935251787102 40.2135979126296519 S
atom 2.5274219410743801 2.3819766258173689 41.9345681683479512 Ba
atom 7.5743541646530090 2.6927921366035532 41.9349648141607432 Ba
atom 2.5273093187450231 7.7398369822695674 41.9349648141516340 Ba
atom 7.5743464506426141 7.4289011351385552 41.9371376470312356 Ba
atom 5.4069475261057560 5.0604159809935441 42.3763706279161454 S
atom 9.7415556501362079 5.0606891388583826 42.3771773096446722 S
atom 4.6945108045966890 10.1077339845162442 42.3771773092323301 S
atom 10.4538720355329051 10.1073404903116799 42.3789401068212612 S
