#=======================================================
# FHI-aims file: full_relax/full_relax_RP_6_RxRy0_RxRy0.in
# Created using the Atomic Simulation Environment (ASE)
# Fri Mar 14 11:39:44 2025
#=======================================================
lattice_vector 10.0705832575393899 0.1042003404185587 -0.0000000000000119 
lattice_vector 0.1042003404185571 10.0705832575406014 0.0000000000000117 
lattice_vector -0.0000000000000791 0.0000000000000777 65.1350975497490055 
atom -0.0845675155683131 -0.0845675155685657 0.2703847052361921 Ba
atom 5.1198591443362220 0.1366676857781666 0.2703847052388336 Ba
atom 0.1366676857758884 5.1198591443394044 0.2703847052378329 Ba
atom 5.0028242834107770 5.0028242834109911 0.2703847052382132 Ba
atom -0.0069230744539927 -0.0069230744655673 4.9431241404396395 Ba
atom 5.0422147032353006 0.0590232446619282 4.9431241404396555 Ba
atom 0.0590232446753482 5.0422147032231690 4.9431241404394415 Ba
atom 5.0804687245244917 5.0804687245140876 4.9431241404395383 Ba
atom 2.5373330340628084 2.5373330340637690 2.3321947576214499 Zr
atom 7.5853503936855109 2.6021589351246672 2.3321947576208317 Zr
atom 2.6021589351244985 7.5853503936859035 2.3321947576217621 Zr
atom 7.6247248330423272 7.6247248330422552 2.3321947576210982 Zr
atom 2.5454057131554175 2.5454057131571717 7.3547258209176274 Zr
atom 7.5772777145900587 2.5940862560322473 7.3547258209179489 Zr
atom 2.5940862560303537 7.5772777145918218 7.3547258209173423 Zr
atom 7.6327975121356166 7.6327975121387892 7.3547258209177482 Zr
atom 2.7774337900533821 2.7774337900523718 -0.1538002412821282 S
atom 7.3452496376954244 2.3620581791362394 -0.1538002412834603 S
atom 2.3620581791342175 7.3452496376966359 -0.1538002412827848 S
atom 7.8648255890326855 7.8648255890313532 -0.1538002412836086 S
atom 2.2290890896098596 2.2290890896173052 4.8784092102952226 S
atom 7.8935943381338074 2.9104028795746575 4.8784092102970682 S
atom 2.9104028795738528 7.8935943381353342 4.8784092102946213 S
atom 7.3164808885889974 7.3164808885973134 4.8784092102956915 S
atom 2.5176458143825871 0.0260500851040486 2.1651372718629411 S
atom 7.5529374431579068 0.0781502553134356 2.7100750044895210 S
atom 2.5697459845973922 5.0613417138723138 2.7100750044891195 S
atom 7.6050376133614082 5.1134418840844047 2.1651372718626059 S
atom 2.5176458143710065 0.0260500851053941 7.7093065395866107 S
atom 7.5529374431656002 0.0781502553131133 7.0180471652885172 S
atom 2.5697459846049733 5.0613417138773169 7.0180471652886283 S
atom 7.6050376133501620 5.1134418840800571 7.7093065395864011 S
atom 0.0260500851034255 2.5176458143871208 2.1651372718599071 S
atom 5.0613417138759917 2.5697459845906598 2.7100750044911415 S
atom 0.0781502553146526 7.5529374431516771 2.7100750044910162 S
atom 5.1134418840837297 7.6050376133664139 2.1651372718598823 S
atom 0.0260500851071350 2.5176458143984566 7.7093065395893436 S
atom 5.0613417138753736 2.5697459845829784 7.0180471652852212 S
atom 0.0781502553151148 7.5529374431438816 7.0180471652855800 S
atom 5.1134418840814186 7.6050376133780002 7.7093065395896705 S
atom 0.0334892454653824 0.0334892454823109 9.8512573128102865 Ba
atom 5.0018023832859972 0.0186109247445605 9.8512573128102492 Ba
atom 0.0186109247255838 5.0018023833052769 9.8512573128103771 Ba
atom 5.1208810444444035 5.1208810444617807 9.8512573128102972 Ba
atom -0.0342205701691846 -0.0342205701781942 14.8034312613048620 Ba
atom 5.0695121989487451 0.0863207403771151 14.8034312613048087 Ba
atom 0.0863207403874217 5.0695121989377148 14.8034312613049188 Ba
atom 5.0531712288106165 5.0531712288012418 14.8034312613048762 Ba
atom 2.5440670528717884 2.5440670528741891 12.3213289510496384 Zr
atom 7.5786163748744508 2.5954249163169747 12.3213289510487485 Zr
atom 2.5954249163133545 7.5786163748775248 12.3213289510455191 Zr
atom 7.6314588518497315 7.6314588518531661 12.3213289510525552 Zr
atom 2.5440670528729030 2.5440670528711560 17.2855335715636969 Zr
atom 7.5786163748770621 2.5954249163157499 17.2855335715632421 Zr
atom 2.5954249163166767 7.5786163748760611 17.2855335715621408 Zr
atom 7.6314588518520026 7.6314588518519173 17.2855335715656473 Zr
atom 2.8948413191911384 2.8948413191826834 9.8435444207151370 S
atom 7.2278421085620774 2.2446506500006969 9.8435444207201019 S
atom 2.2446506500018324 7.2278421085612541 9.8435444207202245 S
atom 7.9822331181707051 7.9822331181629949 9.8435444207115932 S
atom 2.1891973657085351 2.1891973657150974 14.8034312613135164 S
atom 7.9334860620364163 2.9502946034773596 14.8034312613099424 S
atom 2.9502946034759590 7.9334860620383285 14.8034312613165966 S
atom 7.2765891646872394 7.2765891646951735 14.8034312613113883 S
atom 2.5176458143726239 0.0260500851015942 11.9622648742837505 S
atom 7.5529374431636018 0.0781502553119483 12.6890680401474576 S
atom 2.5697459846031001 5.0613417138751524 12.6890680401466085 S
atom 7.6050376133516151 5.1134418840840672 11.9622648742846032 S
atom 2.5176458143823868 0.0260500851060885 17.6445976483216533 S
atom 7.5529374431590188 0.0781502553116308 16.9177944824614137 S
atom 2.5697459845985637 5.0613417138727961 16.9177944824588486 S
atom 7.6050376133614099 5.1134418840813503 17.6445976483241544 S
atom 0.0260500851058881 2.5176458143970066 11.9622648742815993 S
atom 5.0613417138724524 2.5697459845851283 12.6890680401498788 S
atom 0.0781502553139626 7.5529374431460772 12.6890680401497704 S
atom 5.1134418840848355 7.6050376133764148 11.9622648742812512 S
atom 0.0260500851069459 2.5176458143870253 17.6445976483250426 S
atom 5.0613417138731558 2.5697459845893373 16.9177944824587883 S
atom 0.0781502553142330 7.5529374431507570 16.9177944824585822 S
atom 5.1134418840860612 7.6050376133669566 17.6445976483246127 S
atom 0.0334892454731427 0.0334892454728197 19.7556052098004216 Ba
atom 5.0018023832956651 0.0186109247353119 19.7556052098004038 Ba
atom 0.0186109247359116 5.0018023832971314 19.7556052098004926 Ba
atom 5.1208810444519637 5.1208810444526351 19.7556052098003931 Ba
atom -0.0069230744614452 -0.0069230744591309 24.6637383821724860 Ba
atom 5.0422147032273070 0.0590232446711908 24.6637383821727525 Ba
atom 0.0590232446674433 5.0422147032321920 24.6637383821718004 Ba
atom 5.0804687245169005 5.0804687245204621 24.6637383821722160 Ba
atom 2.5454057131574248 2.5454057131590178 22.2521367016777631 Zr
atom 7.5772777145892833 2.5940862560318410 22.2521367016837139 Zr
atom 2.5940862560297111 7.5772777145919994 22.2521367016876930 Zr
atom 7.6327975121367215 7.6327975121400735 22.2521367016772693 Zr
atom 2.5373330340631175 2.5373330340627849 27.2746677649916904 Zr
atom 7.5853503936855748 2.6021589351238958 27.2746677649920670 Zr
atom 2.6021589351239212 7.5853503936872420 27.2746677649965186 Zr
atom 7.6247248330406139 7.6247248330430404 27.2746677649899141 Zr
atom 2.8948413191852382 2.8948413191848630 19.7633181018998805 S
atom 7.2278421085621654 2.2446506500039054 19.7633181018925761 S
atom 2.2446506500010934 7.2278421085635287 19.7633181018979514 S
atom 7.9822331181639736 7.9822331181652011 19.7633181018892614 S
atom 2.2290890896136166 2.2290890896117435 24.7284533123175905 S
atom 7.8935943381348430 2.9104028795764996 24.7284533123154624 S
atom 2.9104028795734669 7.8935943381364266 24.7284533122971588 S
atom 7.3164808885928414 7.3164808885906689 24.7284533123256658 S
atom 2.5176458143859262 0.0260500851053168 21.8975559830242616 S
atom 7.5529374431513707 0.0781502553114369 22.5888153573246768 S
atom 2.5697459845912101 5.0613417138749854 22.5888153573249717 S
atom 7.6050376133646882 5.1134418840799389 21.8975559830232847 S
atom 2.5176458143852871 0.0260500850999494 27.4417252507518938 S
atom 7.5529374431526408 0.0781502553157544 26.8967875181156622 S
atom 2.5697459845921520 5.0613417138773427 26.8967875181171259 S
atom 7.6050376133641002 5.1134418840840219 27.4417252507485294 S
atom 0.0260500851048164 2.5176458143836720 21.8975559830235262 S
atom 5.0613417138774963 2.5697459845971635 22.5888153573241155 S
atom 0.0781502553048646 7.5529374431584984 22.5888153573252453 S
atom 5.1134418840941311 7.6050376133633204 21.8975559830250326 S
atom 0.0260500851051764 2.5176458143843012 27.4417252507464013 S
atom 5.0613417138707186 2.5697459845953228 26.8967875181188170 S
atom 0.0781502553179218 7.5529374431558960 26.8967875181193854 S
atom 5.1134418840803750 7.6050376133632547 27.4417252507475879 S
atom -0.0845675155678717 -0.0845675155669280 29.3364778173665179 Ba
atom 5.1198591443378989 0.1366676857753458 29.3364778173670970 Ba
atom 0.1366676857782722 5.1198591443366599 29.3364778173654450 Ba
atom 5.0028242834102210 5.0028242834130587 29.3364778173646741 Ba
atom 2.7774337900501482 2.7774337900546282 29.7606627639036923 S
atom 7.3452496376974707 2.3620581791326001 29.7606627639014789 S
atom 2.3620581791381965 7.3452496376961749 29.7606627638958940 S
atom 7.8648255890282455 7.8648255890353340 29.7606627639064847 S
atom 2.4591283839240088 2.4591283839181646 32.8379334801050433 Ba
atom 7.6635550438234601 2.6803635852736707 32.8379334801047662 Ba
atom 2.6803635852603072 7.6635550438310709 32.8379334801058604 Ba
atom 7.5465201829049580 7.5465201828949935 32.8379334801043754 Ba
atom 2.5367728250321813 2.5367728250319348 37.5106729153159577 Ba
atom 7.5859106027245717 2.6027191441530340 37.5106729153163627 Ba
atom 2.6027191441633497 7.5859106027091858 37.5106729153163911 Ba
atom 7.6241646240115761 7.6241646240065091 37.5106729153165617 Ba
atom 5.0810289335527985 5.0810289335543066 34.8997435325014393 Zr
atom 10.1290462931734968 5.1458548346134769 34.8997435325014322 Zr
atom 5.1458548346159620 10.1290462931767777 34.8997435325055605 Zr
atom 10.1684207325298033 10.1684207325311995 34.8997435325022494 Zr
atom 5.0891016126443178 5.0891016126472568 39.9222745957748089 Zr
atom 10.1209736140816489 5.1377821555223102 39.9222745957727909 Zr
atom 5.1377821555168337 10.1209736140806719 39.9222745958034864 Zr
atom 10.1764934116255628 10.1764934116270123 39.9222745957880818 Zr
atom 5.3211296895502294 5.3211296895365336 32.4137485336158591 S
atom 9.8889455371760722 4.9057540786312348 32.4137485336160651 S
atom 4.9057540786163392 9.8889455371929920 32.4137485335924325 S
atom 10.4085214885300648 10.4085214885154187 32.4137485336051299 S
atom 4.7727849890954079 4.7727849891171577 37.4459579851889757 S
atom 10.4372902376282966 5.4540987790532558 37.4459579851712974 S
atom 5.4540987790701054 10.4372902376164340 37.4459579851753688 S
atom 9.8601767880732520 9.8601767880949449 37.4459579851591116 S
atom 5.0613417138727232 2.5697459845969988 34.7326860467390190 S
atom 10.0966333426456796 2.6218461548103327 35.2776237793527230 S
atom 5.1134418840858986 7.6050376133568980 35.2776237793511740 S
atom 10.1487335128512903 7.6571377835716747 34.7326860467424652 S
atom 5.0613417138636123 2.5697459845901696 40.2768553144572792 S
atom 10.0966333426522041 2.6218461548021641 39.5855959401717001 S
atom 5.1134418840917499 7.6050376133659432 39.5855959401712099 S
atom 10.1487335128425009 7.6571377835792305 40.2768553144590626 S
atom 2.5697459845977169 5.0613417138762120 34.7326860467202536 S
atom 7.6050376133628070 5.1134418840820013 35.2776237793616545 S
atom 2.6218461548073781 10.0966333426424804 35.2776237793667846 S
atom 7.6571377835692189 10.1487335128552196 34.7326860467256751 S
atom 2.5697459845847743 5.0613417138854384 40.2768553144714474 S
atom 7.6050376133726756 5.1134418840754554 39.5855959401570203 S
atom 2.6218461547976055 10.0966333426368404 39.5855959401579867 S
atom 7.6571377835774888 10.1487335128648368 40.2768553144723498 S
atom 2.5771851449593468 2.5771851449678986 42.4188060876842457 Ba
atom 7.5454982827727051 2.5623068242337190 42.4188060876842599 Ba
atom 2.5623068242159786 7.5454982827980039 42.4188060876847501 Ba
atom 7.6645769439340548 7.6645769439502187 42.4188060876845299 Ba
atom 2.5094753293212126 2.5094753293055843 47.3709800361794606 Ba
atom 7.6132080984466413 2.6300166398607505 47.3709800361795814 Ba
atom 2.6300166398835314 7.6132080984236792 47.3709800361793683 Ba
atom 7.5968671283022324 7.5968671282878191 47.3709800361794464 Ba
atom 5.0877629523594052 5.0877629523626871 44.8888777259203309 Zr
atom 10.1223122743643099 5.1391208158074981 44.8888777259219225 Zr
atom 5.1391208158040120 10.1223122743671521 44.8888777259143552 Zr
atom 10.1751547513384963 10.1751547513441380 44.8888777259259868 Zr
atom 5.0877629523645851 5.0877629523674930 49.8530823464596438 Zr
atom 10.1223122743608780 5.1391208158036754 49.8530823464549471 Zr
atom 5.1391208158039854 10.1223122743688485 49.8530823464333324 Zr
atom 10.1751547513404645 10.1751547513446496 49.8530823464409849 Zr
atom 5.4385372186869150 5.4385372186686043 42.4110931955716381 S
atom 9.7715380080442031 4.7883465494951851 42.4110931955919739 S
atom 4.7883465494866222 9.7715380080589114 42.4110931955672967 S
atom 10.5259290176649305 10.5259290176475631 42.4110931955853800 S
atom 4.7328932651876672 4.7328932652086664 47.3709800361765261 S
atom 10.4771819615306576 5.4939905029683738 47.3709800361830986 S
atom 5.4939905029682894 10.4771819615274335 47.3709800361802920 S
atom 9.8202850641684751 9.8202850641907649 47.3709800361816491 S
atom 5.0613417138602408 2.5697459845812380 44.5298136491692986 S
atom 10.0966333426562080 2.6218461547882077 45.2566168150193420 S
atom 5.1134418840955389 7.6050376133715076 45.2566168150249624 S
atom 10.1487335128386889 7.6571377835752452 44.5298136491648151 S
atom 5.0613417138594947 2.5697459845881356 50.2121464231925572 S
atom 10.0966333426569825 2.6218461547957670 49.4853432573377248 S
atom 5.1134418840964075 7.6050376133604249 49.4853432573370000 S
atom 10.1487335128383354 7.6571377835741750 50.2121464231928201 S
atom 2.5697459846041872 5.0613417138882717 44.5298136491566936 S
atom 7.6050376133626765 5.1134418840713947 45.2566168150323023 S
atom 2.6218461548124150 10.0966333426331367 45.2566168150336736 S
atom 7.6571377835704988 10.1487335128691729 44.5298136491567575 S
atom 2.5697459845945909 5.0613417138898393 50.2121464232025616 S
atom 7.6050376133686557 5.1134418840713343 49.4853432573290490 S
atom 2.6218461548069039 10.0966333426323924 49.4853432573275569 S
atom 7.6571377835748251 10.1487335128692528 50.2121464232016663 S
atom 2.5771851449539080 2.5771851449722125 52.3231539846753222 Ba
atom 7.5454982827762365 2.5623068242388043 52.3231539846756064 Ba
atom 2.5623068242130103 7.5454982827946502 52.3231539846755425 Ba
atom 7.6645769439352138 7.6645769439473517 52.3231539846753151 Ba
atom 2.5367728250347632 2.5367728250270307 57.2312871570447683 Ba
atom 7.5859106027224987 2.6027191441507913 57.2312871570451946 Ba
atom 2.6027191441654662 7.5859106027127359 57.2312871570454931 Ba
atom 7.6241646240112146 7.6241646240069203 57.2312871570448962 Ba
atom 5.0891016126423931 5.0891016126466564 54.8196854765681607 Zr
atom 10.1209736140808317 5.1377821555225323 54.8196854765668249 Zr
atom 5.1377821555213652 10.1209736140843081 54.8196854765728858 Zr
atom 10.1764934116253745 10.1764934116264527 54.8196854765638335 Zr
atom 5.0810289335526431 5.0810289335538288 59.8422165398622781 Zr
atom 10.1290462931741096 5.1458548346145028 59.8422165398624202 Zr
atom 5.1458548346142736 10.1290462931755432 59.8422165398612407 Zr
atom 10.1684207325317182 10.1684207325333293 59.8422165398679766 Zr
atom 5.4385372186814758 5.4385372186673928 52.3308668767611493 S
atom 9.7715380080492231 4.7883465494958770 52.3308668767584564 S
atom 4.7883465494878212 9.7715380080553604 52.3308668767819256 S
atom 10.5259290176622375 10.5259290176469040 52.3308668767710259 S
atom 4.7727849890966905 4.7727849891120622 57.2960020871685529 S
atom 10.4372902376257279 5.4540987790588069 57.2960020871681337 S
atom 5.4540987790667543 10.4372902376212995 57.2960020871957525 S
atom 9.8601767880759912 9.8601767880911115 57.2960020871772997 S
atom 5.0613417138610108 2.5697459845994475 54.4651047579005976 S
atom 10.0966333426533126 2.6218461548062884 55.1563641321961455 S
atom 5.1134418840921043 7.6050376133573456 55.1563641321923726 S
atom 10.1487335128409875 7.6571377835726135 54.4651047579049177 S
atom 5.0613417138724976 2.5697459846002797 60.0092740256215862 S
atom 10.0966333426459354 2.6218461548031469 59.4643362930010611 S
atom 5.1134418840861047 7.6050376133577284 59.4643362930015869 S
atom 10.1487335128511553 7.6571377835739840 60.0092740256218704 S
atom 2.5697459845942308 5.0613417138867263 54.4651047578972793 S
atom 7.6050376133675170 5.1134418840742555 55.1563641322071803 S
atom 2.6218461548027210 10.0966333426343908 55.1563641322000606 S
atom 7.6571377835669185 10.1487335128656753 54.4651047578908347 S
atom 2.5697459845914410 5.0613417138762395 60.0092740256338857 S
atom 7.6050376133683288 5.1134418840815199 59.4643362929952417 S
atom 2.6218461548046403 10.0966333426426758 59.4643362929937709 S
atom 7.6571377835740844 10.1487335128559799 60.0092740256295798 S
atom 2.4591283839232703 2.4591283839183262 61.9040265922492949 Ba
atom 7.6635550438239379 2.6803635852688203 61.9040265922499202 Ba
atom 2.6803635852644137 7.6635550438322291 61.9040265922496644 Ba
atom 7.5465201829021709 7.5465201828997630 61.9040265922499415 Ba
atom 5.3211296895467450 5.3211296895390516 62.3282115387629148 S
atom 9.8889455371806019 4.9057540786292124 62.3282115387662046 S
atom 4.9057540786199718 9.8889455371891799 62.3282115387563067 S
atom 10.4085214885247108 10.4085214885189306 62.3282115387641298 S
