#=======================================================
# FHI-aims file: full_relax/full_relax_RP_2_Rx00_0-Ry0.in
# Created using the Atomic Simulation Environment (ASE)
# Fri Mar 14 11:17:37 2025
#=======================================================
lattice_vector 10.0975469659083057 -0.0000000000000000 0.0000000000000002 
lattice_vector -0.0000000000000000 10.0975469659083021 -0.0000000000000002 
lattice_vector 0.0000000000000005 -0.0000000000000007 25.4732519718874144 
atom -0.1651781453269603 -0.0000000000002755 0.2875120005280644 Ba
atom 5.2139516282807348 -0.0000000000002624 0.2875120005281180 Ba
atom 0.1651781453265057 5.0487734829539450 0.2875120005281422 Ba
atom 4.8835953376272636 5.0487734829539423 0.2875120005281459 Ba
atom 0.0439915808123292 -0.0000000000002144 4.8987023022854626 Ba
atom 5.0047819021414535 -0.0000000000002293 4.8987023022854359 Ba
atom -0.0439915808126646 5.0487734829539539 4.8987023022854634 Ba
atom 5.0927650637665138 5.0487734829539335 4.8987023022854377 Ba
atom 2.5243867414769747 2.5043279693734974 2.3639522809167759 Zr
atom 7.5731602244309952 2.5444455135805994 2.3639522809165947 Zr
atom 2.5243867414769707 7.5932189965342056 2.3639522809167230 Zr
atom 7.5731602244310245 7.5531014523272173 2.3639522809166302 Zr
atom 2.5243867414769361 2.5043279693735103 7.4334523236539596 Zr
atom 7.5731602244310174 2.5444455135806288 7.4334523236541221 Zr
atom 2.5243867414768997 7.5932189965341284 7.4334523236541363 Zr
atom 7.5731602244310565 7.5531014523271471 7.4334523236539534 Zr
atom 2.5243867414769325 2.8072733653416471 -0.1225308064592828 S
atom 7.5731602244310201 2.2415001176119467 -0.1225308064592287 S
atom 2.5243867414769405 7.2902736005661177 -0.1225308064593423 S
atom 7.5731602244309952 7.8560468482958532 -0.1225308064592678 S
atom 2.5243867414768739 2.1093151285423697 4.8987023022850789 S
atom 7.5731602244310885 2.9394583544111552 4.8987023022850273 S
atom 2.5243867414768850 7.9882318373654302 4.8987023022850531 S
atom 7.5731602244310814 7.1580886114965958 4.8987023022850327 S
atom 2.5243867414769015 0.0000000000001010 2.0833920714223768 S
atom 7.5731602244310769 -0.0000000000000794 2.7784549823087414 S
atom 2.5243867414769245 5.0487734829538473 2.7784549823086953 S
atom 7.5731602244310210 5.0487734829537585 2.0833920714224363 S
atom 2.5243867414768837 0.0000000000001457 7.7140125331484510 S
atom 7.5731602244310618 -0.0000000000000525 7.0189496222620305 S
atom 2.5243867414768988 5.0487734829539130 7.0189496222620598 S
atom 7.5731602244310521 5.0487734829538331 7.7140125331483969 S
atom -0.0000000000001168 2.5243867414767918 2.4787811565465163 S
atom 5.0487734829539015 2.5243867414767869 2.4787811565465026 S
atom -0.0000000000001487 7.5731602244310015 2.4787811565465341 S
atom 5.0487734829538349 7.5731602244310237 2.4787811565465470 S
atom -0.0000000000000949 2.5243867414767633 7.3186234480242742 S
atom 5.0487734829538908 2.5243867414767664 7.3186234480242280 S
atom -0.0000000000000704 7.5731602244310228 7.3186234480242742 S
atom 5.0487734829538473 7.5731602244310068 7.3186234480242405 S
atom -0.1651781453268842 -0.0000000000002556 9.5098926040425766 Ba
atom 5.2139516282806460 -0.0000000000002434 9.5098926040424878 Ba
atom 0.1651781453265138 5.0487734829539574 9.5098926040425145 Ba
atom 4.8835953376272947 5.0487734829539557 9.5098926040424718 Ba
atom 2.5243867414768770 2.8072733653416111 9.9199354110303730 S
atom 7.5731602244310725 2.2415001176119276 9.9199354110302931 S
atom 2.5243867414768806 7.2902736005661648 9.9199354110302078 S
atom 7.5731602244310583 7.8560468482958736 9.9199354110304725 S
atom 2.5243867414769117 2.6895648868037934 13.0241379864716897 Ba
atom 7.5731602244309677 2.3592085961500588 13.0241379864717608 Ba
atom 2.5243867414768726 7.4079820791039106 13.0241379864717448 Ba
atom 7.5731602244309952 7.7383383697576180 13.0241379864717839 Ba
atom 2.5243867414768641 2.4803951606642225 17.6353282882291111 Ba
atom 7.5731602244309544 2.5683783222891652 17.6353282882291360 Ba
atom 2.5243867414768597 7.6171518052434131 17.6353282882290294 Ba
atom 7.5731602244310050 7.5291686436185197 17.6353282882291182 Ba
atom 5.0688322550570053 5.0487734829538784 15.1005782668594168 Zr
atom 10.0774881938051948 5.0487734829538855 15.1005782668597170 Zr
atom 5.0287147108507577 10.0975469659076786 15.1005782668602055 Zr
atom 10.1176057380110933 10.0975469659074140 15.1005782668604365 Zr
atom 5.0688322550576235 5.0487734829538091 20.1700783095975460 Zr
atom 10.0774881938047400 5.0487734829537816 20.1700783095980754 Zr
atom 5.0287147108504078 10.0975469659077266 20.1700783095970273 Zr
atom 10.1176057380113829 10.0975469659076378 20.1700783095978800 Zr
atom 4.7658868590892620 5.0487734829537914 12.6140951794855134 S
atom 10.3804335897728350 5.0487734829537452 12.6140951794851883 S
atom 5.3316601068187195 10.0975469659079664 12.6140951794850622 S
atom 9.8146603420432275 10.0975469659079220 12.6140951794844636 S
atom 5.4638450958884413 5.0487734829537354 17.6353282882289406 S
atom 9.6824753529737055 5.0487734829536457 17.6353282882288092 S
atom 4.6337018700194452 10.0975469659079042 17.6353282882288624 S
atom 10.5126185788424849 10.0975469659078456 17.6353282882291467 S
atom 5.0487734829539610 2.5243867414769179 15.2154071424901627 S
atom 10.0975469659080179 2.5243867414770982 15.2154071424902426 S
atom 5.0487734829538926 7.5731602244312830 15.2154071424900952 S
atom 10.0975469659080872 7.5731602244316116 15.2154071424902568 S
atom 5.0487734829539432 2.5243867414768881 20.0552494339678482 S
atom 10.0975469659081440 2.5243867414771093 20.0552494339679477 S
atom 5.0487734829539281 7.5731602244313425 20.0552494339679903 S
atom 10.0975469659081067 7.5731602244312803 20.0552494339678873 S
atom 2.5243867414767345 5.0487734829536484 15.5150809682523789 S
atom 7.5731602244306613 5.0487734829536883 14.8200180573660933 S
atom 2.5243867414771204 10.0975469659079273 14.8200180573659956 S
atom 7.5731602244311862 10.0975469659078652 15.5150809682523381 S
atom 2.5243867414767522 5.0487734829537034 19.7555756082057137 S
atom 7.5731602244304650 5.0487734829537114 20.4506385190920241 S
atom 2.5243867414771075 10.0975469659078954 20.4506385190920241 S
atom 7.5731602244309100 10.0975469659078811 19.7555756082057172 S
atom 2.5243867414767323 2.6895648868034816 22.2465185899863478 Ba
atom 7.5731602244311471 2.3592085961501130 22.2465185899863300 Ba
atom 2.5243867414767176 7.4079820791041593 22.2465185899863123 Ba
atom 7.5731602244311276 7.7383383697575958 22.2465185899863549 Ba
atom 4.7658868590890657 5.0487734829537585 22.6565613969743147 S
atom 10.3804335897730269 5.0487734829537612 22.6565613969737321 S
atom 5.3316601068188181 10.0975469659079913 22.6565613969744888 S
atom 9.8146603420431529 10.0975469659079344 22.6565613969736930 S
