#=======================================================
# FHI-aims file: full_relax/full_relax_RP_3_RxRy0_-Rx-Ry0.in
# Created using the Atomic Simulation Environment (ASE)
# Fri Mar 14 11:19:25 2025
#=======================================================
lattice_vector 10.0822030546959933 0.1259540987959843 -0.0000000000000182 
lattice_vector 0.1259540987959787 10.0822030546959915 -0.0000000000000070 
lattice_vector -0.0000000000000681 -0.0000000000000269 35.3459274044176013 
atom -0.0885749021601058 -0.0885749021604453 0.2761833085615240 Ba
atom 5.1296764295079234 0.1515519515569075 0.2761833085598299 Ba
atom 0.1515519515574421 5.1296764295080317 0.2761833085674578 Ba
atom 5.0155036745862089 5.0155036745870376 0.2761833085628040 Ba
atom -0.0019332430866177 -0.0019332430876351 4.9381984099917426 Ba
atom 5.0430347704340708 0.0649102924838542 4.9381984099918430 Ba
atom 0.0649102924840500 5.0430347704350638 4.9381984099915144 Ba
atom 5.1021453336600171 5.1021453336596307 4.9381984099918741 Ba
atom 2.5453470679851598 2.5453470679855181 2.3396352027114395 Zr
atom 7.5998330361091346 2.6217085581567092 2.3396352027118659 Zr
atom 2.6217085581599249 7.5998330361089668 2.3396352027094558 Zr
atom 7.6494256447318234 7.6494256447297539 2.3396352027125769 Zr
atom 2.5520392883754219 2.5520392883699294 7.3637348759269248 Zr
atom 7.5931408157197282 2.6150163377720714 7.3637348759286878 Zr
atom 2.6150163377696116 7.5931408157200941 7.3637348759286185 Zr
atom 7.6561178651205699 7.6561178651163813 7.3637348759234564 Zr
atom 2.7894550379164285 2.7894550379164045 -0.1466239953346318 S
atom 7.3557250661766256 2.3776005882261133 -0.1466239953339575 S
atom 2.3776005882274318 7.3557250661773166 -0.1466239953336123 S
atom 7.8935336146627826 7.8935336146631077 -0.1466239953352793 S
atom 2.2401167556962887 2.2401167556952686 4.8804803682556219 S
atom 7.9050633483984578 2.9269388704471684 4.8804803682482625 S
atom 2.9269388704481960 7.9050633483978450 4.8804803682493656 S
atom 7.3441953324427613 7.3441953324414566 4.8804803682465527 S
atom 2.5205507636741209 0.0314885246990692 2.1678379222313664 S
atom 7.5616522910223578 0.0944655741006253 2.7111792941406678 S
atom 2.5835278130727870 5.0725900520442719 2.7111792941399147 S
atom 7.6246293404205066 5.1355671014479753 2.1678379222320565 S
atom 2.5205507636737270 0.0314885247012140 7.6875956975969792 S
atom 7.5616522910226189 0.0944655740997354 7.0398740542448932 S
atom 2.5835278130721608 5.0725900520511598 7.0398740542437919 S
atom 7.6246293404205501 5.1355671014438382 7.6875956975980886 S
atom 0.0314885246991813 2.5205507636740432 2.1678379222314565 S
atom 5.0725900520448457 2.5835278130712909 2.7111792941394679 S
atom 0.0944655740936999 7.5616522910217601 2.7111792941404516 S
atom 5.1355671014420130 7.6246293404189549 2.1678379222324442 S
atom 0.0314885246983417 2.5205507636728424 7.6875956975958815 S
atom 5.0725900520424112 2.5835278130708113 7.0398740542435085 S
atom 0.0944655740908218 7.5616522910210415 7.0398740542464351 S
atom 5.1355671014468252 7.6246293404194665 7.6875956975984430 S
atom 0.0019332430863085 0.0019332430866414 9.7892713418528796 Ba
atom 5.0391682842611996 0.0610438063132444 9.7892713418522277 Ba
atom 0.0610438063122425 5.0391682842612067 9.7892713418523840 Ba
atom 5.1060118198308748 5.1060118198303757 9.7892713418523414 Ba
atom 0.0885749021590804 0.0885749021593169 14.4512864432972368 Ba
atom 4.9525266251891766 -0.0255978527602570 14.4512864432962793 Ba
atom -0.0255978527622332 4.9525266251883364 14.4512864432984980 Ba
atom 5.1926534789049601 5.1926534789041314 14.4512864432933892 Ba
atom 2.5587315087604892 2.5587315087607747 12.3878345491152899 Zr
atom 7.5864485953333727 2.6083241173818084 12.3878345491199422 Zr
atom 2.6083241173830629 7.5864485953299985 12.3878345491186881 Zr
atom 7.6628100855083314 7.6628100855044776 12.3878345491198019 Zr
atom 2.8639618210487301 2.8639618210480866 9.8469893836178830 S
atom 7.2812182830453001 2.3030938050933916 9.8469893836113336 S
atom 2.3030938050963363 7.2812182830438879 9.8469893836035638 S
atom 7.9680403977942245 7.9680403977947165 9.8469893836107261 S
atom 2.3146235388270022 2.3146235388271443 14.8740937471792289 S
atom 7.8305565652665940 2.8524320873172209 14.8740937471781436 S
atom 2.8524320873149072 7.8305565652647928 14.8740937471816626 S
atom 7.4187021155749866 7.4187021155724677 14.8740937471841601 S
atom 2.5205507636747351 0.0314885246994775 12.0162904577093013 S
atom 7.5616522910215247 0.0944655740998099 12.5596318296138314 S
atom 2.5835278130717869 5.0725900520533722 12.5596318296149114 S
atom 7.6246293404210439 5.1355671014491380 12.0162904577088074 S
atom 0.0314885246988788 2.5205507636734845 12.0162904577102481 S
atom 5.0725900520462393 2.5835278130703081 12.5596318296133020 S
atom 0.0944655740948888 7.5616522910200308 12.5596318296138207 S
atom 5.1355671014415059 7.6246293404195979 12.0162904577089620 S
atom 2.6406141905344476 2.6406141905306422 17.9491470107686126 Ba
atom 7.5045659135604224 2.5264414356103284 17.9491470107674758 Ba
atom 2.5264414356138376 7.5045659135655649 17.9491470107679625 Ba
atom 7.7446927672775505 7.7446927672803803 17.9491470107663886 Ba
atom 2.5539725314619126 2.5539725314584030 22.6111621122008941 Ba
atom 7.5912075726329045 2.6130830946816230 22.6111621122008373 Ba
atom 2.6130830946862216 7.5912075726350636 22.6111621122013844 Ba
atom 7.6580511082046527 7.6580511082063287 22.6111621122008835 Ba
atom 5.1107707971343377 5.1107707971332532 20.0125989049110800 Zr
atom 10.1384878837038599 5.1603634057576979 20.0125989049273443 Zr
atom 5.1603634057546168 10.1384878837075139 20.0125989049181783 Zr
atom 10.2148493738774100 10.2148493738771098 20.0125989049053139 Zr
atom 5.1040785767420944 5.1040785767497123 25.0366985781448577 Zr
atom 10.1451801040938285 5.1670556261498177 25.0366985781563542 Zr
atom 5.1670556261408453 10.1451801040915495 25.0366985781408324 Zr
atom 10.2081571534914648 10.2081571534979361 25.0366985781342350 Zr
atom 4.8666628272009618 4.8666628272017061 17.5263397068845848 S
atom 10.3825958536375733 5.4044713756875362 17.5263397068451354 S
atom 5.4044713756877663 10.3825958536384757 17.5263397068715676 S
atom 9.9707414039477289 9.9707414039479616 17.5263397068821085 S
atom 5.4160011094229406 5.4160011094254603 22.5534440704490677 S
atom 9.8332575714155421 4.8551330934677415 22.5534440704794683 S
atom 4.8551330934644534 9.8332575714161852 22.5534440704756989 S
atom 10.5200796861678452 10.5200796861717265 22.5534440704850745 S
atom 5.0725900520467695 2.5835278130618700 20.3841429963487535 S
atom 10.1136915793941728 2.6465048624686052 19.8408016244384875 S
atom 5.1355671014444777 7.6246293404261216 19.8408016244408572 S
atom 10.1766686287921004 7.6876063898157403 20.3841429963496310 S
atom 5.0725900520461069 2.5835278130805843 24.7128377564528883 S
atom 10.1136915793915971 2.6465048624654384 25.3605593997989480 S
atom 5.1355671014426756 7.6246293404059244 25.3605593998054850 S
atom 10.1766686287918802 7.6876063897996829 24.7128377564453174 S
atom 2.5835278130655173 5.0725900520475635 20.3841429963513221 S
atom 7.6246293404268757 5.1355671014456288 19.8408016244425234 S
atom 2.6465048624671055 10.1136915793951925 19.8408016244379439 S
atom 7.6876063898241984 10.1766686287931716 20.3841429963473004 S
atom 2.5835278130753476 5.0725900520459932 24.7128377564487742 S
atom 7.6246293404269583 5.1355671014479745 25.3605593998016658 S
atom 2.6465048624724883 10.1136915793999957 25.3605593998026002 S
atom 7.6876063898254348 10.1766686287940722 24.7128377564510693 S
atom 2.5501060452854194 2.5501060452908311 27.4622350440610994 Ba
atom 7.5950740588065768 2.6169495808588570 27.4622350440613765 Ba
atom 2.6169495808524652 7.5950740588033581 27.4622350440604883 Ba
atom 7.6541846220339522 7.6541846220322309 27.4622350440616749 Ba
atom 2.4634643862147358 2.4634643862134871 32.1242501455065508 Ba
atom 7.6817157178795110 2.7035912399294029 32.1242501455062808 Ba
atom 2.7035912399309323 7.6817157178801718 32.1242501455082063 Ba
atom 7.5675429629573348 7.5675429629592372 32.1242501455087961 Ba
atom 5.0973863563572337 5.0973863563607491 30.0607982513284213 Zr
atom 10.1518723244824898 5.1737478465361066 30.0607982513074887 Zr
atom 5.1737478465324429 10.1518723244853604 30.0607982513267444 Zr
atom 10.2014649331012563 10.2014649331019829 30.0607982513257674 Zr
atom 4.7921560440709232 4.7921560440718158 27.5199530858333361 S
atom 10.4571026367658124 5.4789781588193245 27.5199530858370522 S
atom 5.4789781588160364 10.4571026367691431 27.5199530858074652 S
atom 9.8962346208167720 9.8962346208188183 27.5199530858367183 S
atom 5.3414943262908281 5.3414943262925094 32.5470574493734617 S
atom 9.9077643545479823 4.9296398765968750 32.5470574493721188 S
atom 4.9296398765984328 9.9077643545496521 32.5470574493852638 S
atom 10.4455729030363482 10.4455729030385136 32.5470574493803682 S
atom 5.0725900520457738 2.5835278130638590 30.2325955318274389 S
atom 10.1136915793935067 2.6465048624679803 29.6892541599229958 S
atom 5.1355671014432760 7.6246293404130183 29.6892541599223883 S
atom 10.1766686287918944 7.6876063898198153 30.2325955318241171 S
atom 2.5835278130721044 5.0725900520464666 30.2325955318249093 S
atom 7.6246293404235086 5.1355671014463411 29.6892541599249391 S
atom 2.6465048624790959 10.1136915793960505 29.6892541599221857 S
atom 7.6876063898112283 10.1766686287941486 30.2325955318253321 S
