#=======================================================
# FHI-aims file: full_relax/full_relax_RP_8_00Mz_000.in
# Created using the Atomic Simulation Environment (ASE)
# Mon Mar 24 15:53:14 2025
#=======================================================
lattice_vector 10.0063454136195809 -0.0000000000000015 -0.0000000000034497 
lattice_vector -0.0000000000000015 10.0063454136195809 0.0000000000024054 
lattice_vector -0.0000000000295087 0.0000000000205758 86.5187316318415185 
atom -0.0000000031671041 0.0000000038772523 0.1532496296662570 Ba
atom 5.0031727084337057 -0.0000000029078774 0.1532496296619310 Ba
atom -0.0000000002230647 5.0031727007782267 0.1532496296685829 Ba
atom 5.0031727050158183 5.0031727064283080 0.1532496296641657 Ba
atom 0.0000000033303399 -0.0000000011609972 4.9151878522066719 Ba
atom 5.0031727053687094 0.0000000068914793 4.9151878522050927 Ba
atom -0.0000000017821135 5.0031727133176327 4.9151878522078531 Ba
atom 5.0031727103320458 5.0031727048931058 4.9151878522063299 Ba
atom 2.5015863497139486 2.5015863543951391 2.2893878284582434 Zr
atom 7.5047590629946361 2.5015863508510821 2.2893878278698443 Zr
atom 2.5015863561848777 7.5047590576607748 2.2893878296992836 Zr
atom 7.5047590565237385 7.5047590612048740 2.2893878291114458 Zr
atom 2.5015863538233254 2.5015863537007244 7.4029356786538072 Zr
atom 7.5047590602902261 2.5015863537037415 7.4029356784485847 Zr
atom 2.5015863534802336 7.5047590605136989 7.4029356790934511 Zr
atom 7.5047590606332326 7.5047590605105992 7.4029356788858109 Zr
atom 2.5015863202474962 2.5015863722586542 -0.2204822275643313 S
atom 7.5047590940382829 2.5015863355085677 -0.2204822273698509 S
atom 2.5015863872282460 7.5047590423177555 -0.2204822280542963 S
atom 7.5047590270575180 7.5047590790678740 -0.2204822278579825 S
atom 2.5015863615677807 2.5015863465855235 4.8912279315267062 S
atom 7.5047590508429947 2.5015863573967740 4.8912279315516516 S
atom 2.5015863440333379 7.5047590642066924 4.8912279314482401 S
atom 7.5047590683773828 7.5047590533954223 4.8912279314757034 S
atom 2.2236839559821751 -0.0000000004586600 2.4144556144679536 S
atom 7.7826614603811075 -0.0000000004588728 2.4144556330094895 S
atom 2.7794887537320925 5.0031727066365752 2.4144556328638473 S
atom 7.2268566629523647 5.0031727066367360 2.4144556146172258 S
atom 2.9944858287634566 -0.0000000003721369 7.4251022912118971 S
atom 7.0118595849358556 -0.0000000003712194 7.4251022856429696 S
atom 2.0086868780957050 5.0031727065106839 7.4251022854874495 S
atom 7.9976585355427865 5.0031727065099325 7.4251022913693525 S
atom -0.0000000001076960 2.7794887547944169 2.4144556404265152 S
atom 5.0031727065742739 2.2236839575741509 2.4144556074390739 S
atom -0.0000000001077914 7.2268566640143241 2.4144556070565333 S
atom 5.0031727065742837 7.7826614619725145 2.4144556400421000 S
atom -0.0000000001384399 2.0086868783065017 7.4251022853828523 S
atom 5.0031727066396323 2.9944858288779344 7.4251022918349801 S
atom -0.0000000001376229 7.9976585357536143 7.4251022914778320 S
atom 5.0031727066391092 7.0118595850503551 7.4251022850219055 S
atom 0.0000000020127296 0.0000000013725434 9.9745272996155538 Ba
atom 5.0031727089357902 0.0000000011326356 9.9745272996138716 Ba
atom 0.0000000021357215 5.0031727074720695 9.9745272996166960 Ba
atom 5.0031727090318752 5.0031727082131470 9.9745272996150653 Ba
atom -0.0000000021014872 0.0000000000012336 15.0444546304926305 Ba
atom 5.0031727048086569 0.0000000001913868 15.0444546304908844 Ba
atom -0.0000000020151347 5.0031727068494600 15.0444546304938811 Ba
atom 5.0031727047820480 5.0031727067830376 15.0444546304921456 Ba
atom 2.5015863533330149 2.5015863535348881 12.4918398658916558 Zr
atom 7.5047590603127796 2.5015863534861178 12.4918398658124499 Zr
atom 2.5015863535030012 7.5047590602959628 12.4918398660650034 Zr
atom 7.5047590601430239 7.5047590603448606 12.4918398659844527 Zr
atom 2.5015863534342446 2.5015863533410667 17.5780458519252001 Zr
atom 7.5047590601576131 2.5015863533408860 17.5780458519037488 Zr
atom 2.5015863533476255 7.5047590601508736 17.5780458519737692 Zr
atom 7.5047590602442789 7.5047590601509162 17.5780458519573308 Zr
atom 2.5015863511998684 2.5015863549851338 9.9622607860894892 S
atom 7.5047590609935035 2.5015863504464515 9.9622607860736885 S
atom 2.5015863541837531 7.5047590572561065 9.9622607861223198 S
atom 7.5047590580096442 7.5047590617948243 9.9622607861036165 S
atom 2.5015863539045387 2.5015863512501988 15.0416943068778615 S
atom 7.5047590605722156 2.5015863554783846 15.0416943068655531 S
atom 2.5015863537624790 7.5047590622881781 15.0416943069039775 S
atom 7.5047590607143420 7.5047590580599932 15.0416943068925093 S
atom 2.9653027621417860 0.0000000000034264 12.5101872089741697 S
atom 7.0410426514346831 0.0000000000031777 12.5101872135461019 S
atom 2.0378699446197137 5.0031727068292353 12.5101872135390444 S
atom 7.9684754689463970 5.0031727068293268 12.5101872089836785 S
atom 2.9694204437624463 -0.0000000000476795 17.5824976683358969 S
atom 7.0369249698382870 -0.0000000000473840 17.5824976638799271 S
atom 2.0337522630229024 5.0031727067664873 17.5824976638801900 S
atom 7.9725931505666097 5.0031727067665965 17.5824976683380854 S
atom -0.0000000000291427 2.0378699447034414 12.5101872119925694 S
atom 5.0031727067728573 2.9653027622102335 12.5101872105519014 S
atom -0.0000000000296605 7.9684754690300670 12.5101872105335854 S
atom 5.0031727067727783 7.0410426515030879 12.5101872119709228 S
atom -0.0000000000169140 2.0337522630220768 17.5824976664450361 S
atom 5.0031727067909948 2.9694204437454599 17.5824976657801955 S
atom -0.0000000000169292 7.9725931505657659 17.5824976657767849 S
atom 5.0031727067909886 7.0369249698213157 17.5824976664380905 S
atom 0.0000000020716216 -0.0000000005691633 20.1206352632201906 Ba
atom 5.0031727088249403 -0.0000000006673945 20.1206352632183716 Ba
atom 0.0000000020065175 5.0031727060574518 20.1206352632212777 Ba
atom 5.0031727089325218 5.0031727062261409 20.1206352632196399 Ba
atom -0.0000000022595686 0.0000000006339178 25.1968158959478536 Ba
atom 5.0031727045786667 0.0000000008496083 25.1968158959458925 Ba
atom -0.0000000022463251 5.0031727075516095 25.1968158959489301 Ba
atom 5.0031727046316723 5.0031727074221903 25.1968158959471893 Ba
atom 2.5015863533687841 2.5015863534067075 22.6632246744973891 Zr
atom 7.5047590601901071 2.5015863534340630 22.6632246745186947 Zr
atom 2.5015863533803300 7.5047590602439129 22.6632246744803680 Zr
atom 7.5047590601788459 7.5047590602165615 22.6632246745009489 Zr
atom 2.5015863534205458 2.5015863535024958 27.7494306605093612 Zr
atom 7.5047590602977223 2.5015863533853016 27.7494306605986232 Zr
atom 2.5015863534877325 7.5047590601952381 27.7494306604045704 Zr
atom 7.5047590602307066 7.5047590603124705 27.7494306604900522 Zr
atom 2.5015863534793255 2.5015863556647147 20.1206352632165526 S
atom 7.5047590591411621 2.5015863513815844 20.1206352632158634 S
atom 2.5015863523313890 7.5047590581913646 20.1206352632233312 S
atom 7.5047590602892162 7.5047590624744238 20.1206352632225496 S
atom 2.5015863532784128 2.5015863508545024 25.1995762195533288 S
atom 7.5047590612579054 2.5015863556288016 25.1995762195662465 S
atom 2.5015863544483010 7.5047590624384597 25.1995762195442339 S
atom 7.5047590600882232 7.5047590576641694 25.1995762195522559 S
atom 2.9694204437505558 0.0000000000010038 22.6587728579792120 S
atom 7.0369249698264005 0.0000000000012564 22.6587728626782372 S
atom 2.0337522630106597 5.0031727068140119 22.6587728626843692 S
atom 7.9725931505543919 5.0031727068139533 22.6587728579755030 S
atom 2.9653027621606807 -0.0000000000062612 27.7310833180089880 S
atom 7.0410426514535072 -0.0000000000066332 27.7310833123437135 S
atom 2.0378699446382451 5.0031727068122622 27.7310833123576224 S
atom 7.9684754689648383 5.0031727068126175 27.7310833179977045 S
atom -0.0000000000320801 2.0337522630452418 22.6587728596471010 S
atom 5.0031727067767466 2.9694204437705074 22.6587728610098047 S
atom -0.0000000000315786 7.9725931505889678 22.6587728610163843 S
atom 5.0031727067755387 7.0369249698463783 22.6587728596500853 S
atom -0.0000000000318736 2.0378699447022863 27.7310833154621221 S
atom 5.0031727067688356 2.9653027622112411 27.7310833148793741 S
atom -0.0000000000324897 7.9684754690288164 27.7310833148967752 S
atom 5.0031727067689769 7.0410426515039299 27.7310833154759315 S
atom 0.0000000025180210 0.0000000001953027 30.2667432268246941 Ba
atom 5.0031727097308449 -0.0000000002345206 30.2667432268229888 Ba
atom 0.0000000029346563 5.0031727062940572 30.2667432268258274 Ba
atom 5.0031727095690171 5.0031727070118421 30.2667432268244667 Ba
atom 0.0000000062053721 -0.0000000003144176 35.3260826742334473 Ba
atom 5.0031727046172501 0.0000000049892786 35.3260826742318841 Ba
atom -0.0000000025823451 5.0031727115118487 35.3260826742348826 Ba
atom 5.0031727132227868 5.0031727060315649 35.3260826742331275 Ba
atom 2.5015863539559779 2.5015863534941998 32.8383348476990164 Zr
atom 7.5047590604213434 2.5015863536358531 32.8383348479244646 Zr
atom 2.5015863536116498 7.5047590604462826 32.8383348474109980 Zr
atom 7.5047590607658927 7.5047590603044272 32.8383348476404251 Zr
atom 2.5015863500074706 2.5015863556791733 37.9518826977467825 Zr
atom 7.5047590620657427 2.5015863500267570 37.9518826983994657 Zr
atom 2.5015863552553492 7.5047590568358356 37.9518826969105163 Zr
atom 7.5047590568178713 7.5047590624882297 37.9518826975635477 Zr
atom 2.5015863520781378 2.5015863562489069 30.2790097403473162 S
atom 7.5047590594002918 2.5015863499788278 30.2790097403606779 S
atom 2.5015863525908806 7.5047590567887692 30.2790097403243621 S
atom 7.5047590588877311 7.5047590630587742 30.2790097403379299 S
atom 2.5015863579220903 2.5015863429302039 35.3500425949438366 S
atom 7.5047590533533484 2.5015863616207894 35.3500425949057657 S
atom 2.5015863465432377 7.5047590684305154 35.3500425949720594 S
atom 7.5047590647322968 7.5047590497398300 35.3500425949364896 S
atom 2.9944858288509622 -0.0000000002715200 32.8161682336456124 S
atom 7.0118595850234007 -0.0000000002717129 32.8161682423729175 S
atom 2.0086868781791787 5.0031727065834124 32.8161682425591650 S
atom 7.9976585356263374 5.0031727065842331 32.8161682334614042 S
atom 2.2236839568906044 -0.0000000003097814 37.8268149187052600 S
atom 7.7826614612905951 -0.0000000003091283 37.8268148866922331 S
atom 2.7794887546678746 5.0031727066725828 37.8268148868808325 S
atom 7.2268566638878484 5.0031727066719567 37.8268149185191618 S
atom -0.0000000002796293 2.0086868782937826 32.8161682394606373 S
atom 5.0031727064940297 2.9944858288887759 32.8161682363520413 S
atom -0.0000000002800731 7.9976585357408458 32.8161682365633283 S
atom 5.0031727064940572 7.0118595850610816 32.8161682396690537 S
atom -0.0000000002313213 2.7794887543818212 37.8268148906740862 S
atom 5.0031727064316227 2.2236839570022267 37.8268149145571897 S
atom -0.0000000002306069 7.2268566636017146 37.8268149147294324 S
atom 5.0031727064309042 7.7826614614024106 37.8268148908427193 S
atom -0.0000000060986103 0.0000000019471081 40.0880208967711553 Ba
atom 5.0031727100246046 -0.0000000013146638 40.0880208967686826 Ba
atom 0.0000000010573359 5.0031727036762312 40.0880208967746015 Ba
atom 5.0031727023033632 5.0031727063471099 40.0880208967721217 Ba
atom 2.5015863283430808 2.5015863844191428 40.4617527541519095 S
atom 7.5047590864676028 2.5015863228425572 40.4617527539112345 S
atom 2.5015863796580282 7.5047590296521429 40.4617527543886197 S
atom 7.5047590351526221 7.5047590912287223 40.4617527541447046 S
atom 2.5015864595640092 2.5015862417243713 43.5938800227637202 Ba
atom 7.5047589544962392 2.5015864654852722 43.5938800254581906 Ba
atom 2.5015862476867010 7.5047591722951887 43.5938800194603360 Ba
atom 7.5047591663735593 7.5047589485342927 43.5938800221551048 Ba
atom 2.5015862926765271 2.5015864127853615 48.4031106362274670 Ba
atom 7.5047591208998723 2.5015862940408011 48.4031106286217394 Ba
atom 2.5015864140910207 7.5047590008527765 48.4031106461727418 Ba
atom 7.5047589994853219 7.5047591195973151 48.4031106385671634 Ba
atom 5.0031726977631479 5.0031727164468229 45.6619230457818333 Zr
atom 10.0063454221975991 5.0031726984417233 45.6619230457790053 Zr
atom 5.0031727142655882 10.0063454036207951 45.6619230457856702 Zr
atom 10.0063454057405803 10.0063454216731138 45.6619230457828635 Zr
atom 5.0031727156737436 5.0031726941646273 50.7509252658585623 Zr
atom 10.0063454046421221 5.0031727162768380 50.7509252658597347 Zr
atom 5.0031726998797845 10.0063454262260798 50.7509252658543062 Zr
atom 10.0063454204408284 10.0063454041185533 50.7509252658541783 Zr
atom 5.0031729295916749 5.0031724894566088 43.1567092068284737 S
atom 10.0063451877635075 5.0031728954877721 43.1567092068232654 S
atom 5.0031725031135927 10.0063456282623484 43.1567092068351812 S
atom 10.0063456145051344 10.0063452225236293 43.1567092068313585 S
atom 5.0031723061616162 5.0031731279041569 48.2473197608815951 S
atom 10.0063458137278420 5.0031723560166794 48.2473197608835136 S
atom 5.0031730513484183 10.0063449921166132 48.2473197608775450 S
atom 10.0063450685868229 10.0063457640516749 48.2473197608779856 S
atom 5.0031727080366410 2.5015846584879995 45.7725558934809627 S
atom 10.0063454123213145 2.5015880478828896 45.7725553597625563 S
atom 5.0031727067962599 7.5047607546627102 45.7725553154853557 S
atom 10.0063454135616947 7.5047573653221757 45.7725558492006215 S
atom 5.0031726864628263 2.5015858613371309 50.7780938291345265 S
atom 10.0063454338848121 2.5015868454029069 50.7780948278105981 S
atom 5.0031727241038748 7.5047595522103192 50.7780949287282652 S
atom 10.0063453962437521 7.5047585681524804 50.7780939300462606 S
atom 2.5015880477926458 5.0031727052546717 45.7725553177991671 S
atom 7.5047573652357631 5.0031727064948877 45.7725558911682668 S
atom 2.5015846584507782 10.0063454151525182 45.7725558551682710 S
atom 7.5047607546291708 10.0063454139123138 45.7725553538002714 S
atom 2.5015868453601882 5.0031727280437215 50.7780948759659836 S
atom 7.5047585681063351 5.0031726904026188 50.7780938818930707 S
atom 2.5015858613013888 10.0063453923733103 50.7780939577893662 S
atom 7.5047595521734438 10.0063454300144006 50.7780948000770564 S
atom 2.5015863763182864 2.5015863326867267 53.3585613496999898 Ba
atom 7.5047590372502597 2.5015863741402664 53.3585613560432179 Ba
atom 2.5015863304396180 7.5047590809482836 53.3585613407943455 Ba
atom 7.5047590831288025 7.5047590394946262 53.3585613471379503 Ba
atom 2.5015863491850827 2.5015863569086130 58.3626455020638630 Ba
atom 7.5047590643885416 2.5015863499254074 58.3626454982779634 Ba
atom 2.5015863575775557 7.5047590567343940 58.3626455077327222 Ba
atom 7.5047590559958417 7.5047590637173913 58.3626455039470855 Ba
atom 5.0031727010453295 5.0031727182114860 55.8058190627236428 Zr
atom 10.0063454193293264 5.0031726984969627 55.8058190627224562 Zr
atom 5.0031727108935211 10.0063454022319540 55.8058190627268687 Zr
atom 10.0063454094817761 10.0063454219470955 55.8058190627257460 Zr
atom 5.0031727072674164 5.0031727007969815 60.8557525604906218 Zr
atom 10.0063454131154241 5.0031727110397926 60.8557525604863017 Zr
atom 5.0031727068657084 10.0063454196570607 60.8557525604966401 Zr
atom 10.0063454135172627 10.0063454094144557 60.8557525604922205 Zr
atom 5.0031733145228703 5.0031720033586016 53.2913810850178109 S
atom 10.0063448057736828 5.0031732748596021 53.2913810850151108 S
atom 5.0031721965558962 10.0063461170187438 53.2913810850155230 S
atom 10.0063459237487358 10.0063448455255823 53.2913810850162832 S
atom 5.0031719559233920 5.0031736605619219 58.3353731762065024 S
atom 10.0063461644459970 5.0031719509369825 58.3353731762031416 S
atom 5.0031733279598507 10.0063444598793634 58.3353731762109646 S
atom 10.0063447924109745 10.0063461695056990 58.3353731762074403 S
atom 5.0031729132952698 2.5015864402884023 55.8178695569668264 S
atom 10.0063452070834451 2.5015862665298392 55.8178680369907170 S
atom 5.0031725030930323 7.5047589733384390 55.8178678673570161 S
atom 10.0063456172857368 7.5047591470981745 55.8178693873288339 S
atom 5.0031719375486556 2.5015863494522894 60.8584603142917189 S
atom 10.0063461828350668 2.5015863573810382 60.8584621863062409 S
atom 5.0031734751582544 7.5047590641902895 60.8584624094528905 S
atom 10.0063446452255409 7.5047590562616602 60.8584605374358034 S
atom 2.5015862664933688 5.0031724988384783 55.8178680163438372 S
atom 7.5047591470632051 5.0031729090408232 55.8178694079801332 S
atom 2.5015864402541936 10.0063456216080056 55.8178692914797097 S
atom 7.5047589733037894 10.0063452114056890 55.8178681328463711 S
atom 2.5015863573450128 5.0031734774266994 60.8584621498194664 S
atom 7.5047590562260815 5.0031719398171930 60.8584605739267346 S
atom 2.5015863494166570 10.0063446430280578 60.8584607131637725 S
atom 7.5047590641547242 10.0063461806376530 60.8584620105833807 S
atom 2.5015863501412237 2.5015863560390459 63.3800010790497410 Ba
atom 7.5047590634322869 2.5015863507963108 63.3800010790738497 Ba
atom 2.5015863566227221 7.5047590576078784 63.3800010792072896 Ba
atom 7.5047590569505767 7.5047590628502938 63.3800010792316328 Ba
atom 2.5015863487364416 2.5015863560830502 68.3973566568401594 Ba
atom 7.5047590648334923 2.5015863507536134 68.3973566604431369 Ba
atom 2.5015863580240421 7.5047590575638301 68.3973566501095576 Ba
atom 7.5047590555456667 7.5047590628929903 68.3973566537106876 Ba
atom 5.0031727121912786 5.0031727041657641 65.9042495977921448 Zr
atom 10.0063454081893433 5.0031727090157077 65.9042495977916332 Zr
atom 5.0031727021648820 10.0063454162898999 65.9042495977911926 Zr
atom 10.0063454182159042 10.0063454114403250 65.9042495977888905 Zr
atom 5.0031726981998803 5.0031727163696047 70.9541830955562318 Zr
atom 10.0063454221718384 5.0031726998250088 70.9541830955540291 Zr
atom 5.0031727136493718 10.0063454040762778 70.9541830955539723 Zr
atom 10.0063454067228594 10.0063454206222264 70.9541830955547539 Zr
atom 5.0031734794638076 5.0031716330135465 63.3800010791436179 S
atom 10.0063446409151151 5.0031735459403830 63.3800010791398591 S
atom 5.0031720737455050 10.0063464874379893 63.3800010791451669 S
atom 10.0063460466339045 10.0063445745119726 63.3800010791426942 S
atom 5.0031720366397145 5.0031737198587463 68.4246289820735427 S
atom 10.0063460837309819 5.0031719227457154 68.4246289820749070 S
atom 5.0031732524657624 10.0063444005813444 68.4246289820731448 S
atom 10.0063448679061242 10.0063461976973400 68.4246289820712974 S
atom 5.0031730663395235 2.5015863494517863 65.9015418759117466 S
atom 10.0063450540416117 2.5015863573812549 65.9015399569241822 S
atom 5.0031723458084469 7.5047590641919948 65.9015397169044803 S
atom 10.0063457745727664 7.5047590562628521 65.9015416358881936 S
atom 5.0031729110709238 2.5015864402882300 70.9421325226495583 S
atom 10.0063452093028680 2.5015862665298449 70.9421341595467680 S
atom 5.0031725055713849 7.5047589733387028 70.9421343695923099 S
atom 10.0063456148024574 7.5047591470999313 70.9421327326908937 S
atom 2.5015863573445016 5.0031723466994311 65.9015400518435968 S
atom 7.5047590562249260 5.0031730672306622 65.9015415409713370 S
atom 2.5015863494166912 10.0063457737571682 65.9015414045737913 S
atom 7.5047590641529460 10.0063450532259939 65.9015401882464715 S
atom 2.5015862664940642 5.0031725019637188 70.9421340343545666 S
atom 7.5047591470630506 5.0031729074632967 70.9421328578860511 S
atom 2.5015864402539774 10.0063456184867423 70.9421329676106325 S
atom 7.5047589733042113 10.0063452129872381 70.9421339246339926 S
atom 2.5015863791757611 2.5015863378090146 73.4014408070046898 Ba
atom 7.5047590343866046 2.5015863690217484 73.4014408011116046 Ba
atom 2.5015863275765109 7.5047590758307665 73.4014408186144323 Ba
atom 7.5047590859857447 7.5047590446179013 73.4014408127198692 Ba
atom 2.5015862823531463 2.5015863945396131 78.3568915245939195 Ba
atom 7.5047591312099087 2.5015863122979036 78.3568915314658199 Ba
atom 2.5015864243992922 7.5047590191077527 78.3568915103022903 Ba
atom 7.5047589891637800 7.5047591013494008 78.3568915171741054 Ba
atom 5.0031727156865067 5.0031726939711678 76.0090768924217173 Zr
atom 10.0063454046477442 5.0031727159973087 76.0090768924212199 Zr
atom 5.0031726998073927 10.0063454264082576 76.0090768924240194 Zr
atom 10.0063454205306961 10.0063454043918423 76.0090768924225557 Zr
atom 5.0031726999553250 5.0031727177977805 81.0980791125019636 Zr
atom 10.0063454201631252 5.0031726974985160 81.0980791124974161 Zr
atom 5.0031727123094898 10.0063454021640563 81.0980791125048057 Zr
atom 10.0063454078470002 10.0063454225545350 81.0980791125003009 Zr
atom 5.0031731924568286 5.0031719147280329 73.4686210732602234 S
atom 10.0063449278687511 5.0031733193507284 73.4686210732587170 S
atom 5.0031723112431514 10.0063462056296917 73.4686210732636766 S
atom 10.0063458090890087 10.0063448010234133 73.4686210732626250 S
atom 5.0031724191719000 5.0031732074841875 78.5126823973998569 S
atom 10.0063457009091437 5.0031723111631505 78.5126823974010932 S
atom 5.0031729443744881 10.0063449124065329 78.5126823974046033 S
atom 10.0063451757448014 10.0063458088195674 78.5126823974033101 S
atom 5.0031726135652681 2.5015858613271669 75.9819084151679078 S
atom 10.0063455067869391 2.5015868453977057 75.9819072853379396 S
atom 5.0031727970499764 7.5047595521978314 75.9819071435355511 S
atom 10.0063453233022379 7.5047585681441555 75.9819082733600908 S
atom 5.0031727122917671 2.5015846584187607 80.9874462023332029 S
atom 10.0063454080622929 2.5015880478376715 80.9874468361740298 S
atom 5.0031727024557089 7.5047607545949315 80.9874469052584232 S
atom 10.0063454178983289 7.5047573652791897 80.9874462714152372 S
atom 2.5015868453759644 5.0031728010967180 75.9819074020349063 S
atom 7.5047585681255002 5.0031726176119626 75.9819081566681973 S
atom 2.5015858613166881 10.0063453193195464 75.9819080876448680 S
atom 7.5047595521916461 10.0063455028043364 75.9819074710597420 S
atom 2.5015880478968233 5.0031727007194586 80.9874467502455815 S
atom 7.5047573653370527 5.0031727105552442 80.9874463573468972 S
atom 2.5015846585503931 10.0063454196987163 80.9874463891873546 S
atom 7.5047607547266937 10.0063454098629148 80.9874467184068720 S
atom 2.5015864826171557 2.5015862824719455 83.1661221344235599 Ba
atom 7.5047589312236651 2.5015864248797883 83.1661221320406838 Ba
atom 2.5015862244149365 7.5047591316904096 83.1661221396040986 Ba
atom 7.5047591894258838 7.5047589892826005 83.1661221372212083 Ba
atom 5.0031728521090315 5.0031724370226476 83.6032929514565950 S
atom 10.0063452664019934 5.0031729306168717 83.6032929514527154 S
atom 5.0031725789380879 10.0063456799203703 83.6032929514568366 S
atom 10.0063455397980334 10.0063451868471720 83.6032929514526870 S
