#=======================================================
# FHI-aims file: full_relax/full_relax_RP_4_00Mz_000.in
# Created using the Atomic Simulation Environment (ASE)
# Fri Mar 14 11:22:32 2025
#=======================================================
lattice_vector 10.0160103642453340 0.0000000000000003 -0.0000000000000025 
lattice_vector 0.0000000000000003 10.0160103642453269 0.0000000000000037 
lattice_vector -0.0000000000000115 0.0000000000000171 45.9709205302504245 
atom 0.0000000000000434 0.0000000000015979 0.2038812253371273 Ba
atom 5.0080051821226927 -0.0000000000021813 0.2038812253309630 Ba
atom -0.0000000000010119 5.0080051821193354 0.2038812253343015 Ba
atom 5.0080051821224316 5.0080051821225169 0.2038812253388066 Ba
atom -0.0000000000004887 -0.0000000000020485 4.9480329097286324 Ba
atom 5.0080051821220959 0.0000000000009314 4.9480329097294220 Ba
atom -0.0000000000002014 5.0080051821230738 4.9480329097290809 Ba
atom 5.0080051821218641 5.0080051821206295 4.9480329097290312 Ba
atom 2.5040025910617327 2.5040025910607318 2.3340902595359632 Zr
atom 7.5120077731836812 2.5040025910609529 2.3340902595360378 Zr
atom 2.5040025910613055 7.5120077731843482 2.3340902595364028 Zr
atom 7.5120077731838188 7.5120077731841572 2.3340902595360236 Zr
atom 2.5040025910611878 2.5040025910613295 7.4475223845225651 Zr
atom 7.5120077731840178 2.5040025910615014 7.4475223845220793 Zr
atom 2.5040025910613677 7.5120077731837851 7.4475223845235696 Zr
atom 7.5120077731841857 7.5120077731840675 7.4475223845219825 Zr
atom 2.5040025910595847 2.5040025910604160 -0.1777060810601007 S
atom 7.5120077731853803 2.5040025910627062 -0.1777060810588274 S
atom 2.5040025910633821 7.5120077731859807 -0.1777060810600399 S
atom 7.5120077731820887 7.5120077731832682 -0.1777060810593457 S
atom 2.5040025910644497 2.5040025910613797 4.9276389828323675 S
atom 7.5120077731817512 2.5040025910611368 4.9276389828333871 S
atom 2.5040025910587711 7.5120077731841146 4.9276389828341882 S
atom 7.5120077731866246 7.5120077731843056 4.9276389828335407 S
atom 2.2451357910803753 -0.0000000000006252 2.4508728690777111 S
atom 7.7708745731640230 -0.0000000000003130 2.4508728690768566 S
atom 2.7628693910413191 5.0080051821224414 2.4508728690773691 S
atom 7.2531409732040055 5.0080051821224734 2.4508728690790851 S
atom 2.9897857921150526 0.0000000000001951 7.4501643492914393 S
atom 7.0262245721297738 -0.0000000000007672 7.4501643492905858 S
atom 2.0182193900070091 5.0080051821219929 7.4501643492916312 S
atom 7.9977909742370885 5.0080051821230978 7.4501643492928302 S
atom -0.0000000000002892 2.7628693910424493 2.4508728690807127 S
atom 5.0080051821221723 2.2451357910797056 2.4508728690762900 S
atom -0.0000000000000699 7.2531409732020959 2.4508728690759618 S
atom 5.0080051821222717 7.7708745731647850 2.4508728690806127 S
atom 0.0000000000000249 2.0182193900078884 7.4501643492903469 S
atom 5.0080051821224743 2.9897857921145290 7.4501643492943579 S
atom -0.0000000000001469 7.9977909742368771 7.4501643492939067 S
atom 5.0080051821225604 7.0262245721301104 7.4501643492889391 S
atom 0.0000000000009253 0.0000000000013907 9.9936783761406787 Ba
atom 5.0080051821225382 0.0000000000028739 9.9936783761410908 Ba
atom 0.0000000000008443 5.0080051821259657 9.9936783761408901 Ba
atom 5.0080051821232159 5.0080051821255331 9.9936783761421282 Ba
atom 0.0000000000008954 -0.0000000000014150 15.0393238425561862 Ba
atom 5.0080051821218809 -0.0000000000001728 15.0393238425562572 Ba
atom -0.0000000000001732 5.0080051821213809 15.0393238425560174 Ba
atom 5.0080051821227629 5.0080051821209324 15.0393238425559819 Ba
atom 2.5040025910609125 2.5040025910610231 12.5398343677625679 Zr
atom 7.5120077731841848 2.5040025910611479 12.5398343677627828 Zr
atom 2.5040025910611581 7.5120077731842043 12.5398343677625039 Zr
atom 7.5120077731840302 7.5120077731842327 12.5398343677617650 Zr
atom 2.5040025910617469 2.5040025910616928 17.6532664927471679 Zr
atom 7.5120077731836101 2.5040025910611781 17.6532664927496903 Zr
atom 2.5040025910610715 7.5120077731840187 17.6532664927473206 Zr
atom 7.5120077731842354 7.5120077731841430 17.6532664927498999 Zr
atom 2.5040025910583315 2.5040025910615276 9.9936783761442687 S
atom 7.5120077731862356 2.5040025910602326 9.9936783761420429 S
atom 2.5040025910632178 7.5120077731821979 9.9936783761427073 S
atom 7.5120077731814199 7.5120077731835426 9.9936783761437962 S
atom 2.5040025910624584 2.5040025910600354 15.0597177694542879 S
atom 7.5120077731824706 2.5040025910623989 15.0597177694528774 S
atom 2.5040025910604737 7.5120077731857178 15.0597177694525950 S
atom 7.5120077731843109 7.5120077731831314 15.0597177694523943 S
atom 2.9897857921147808 0.0000000000001041 12.5371924029909820 S
atom 7.0262245721305030 0.0000000000000001 12.5371924029932291 S
atom 2.0182193900079262 5.0080051821223206 12.5371924029920070 S
atom 7.9977909742365698 5.0080051821224831 12.5371924029902964 S
atom 2.2451357910790506 -0.0000000000003992 17.5364838832106358 S
atom 7.7708745731656528 0.0000000000000304 17.5364838832059213 S
atom 2.7628693910436724 5.0080051821220639 17.5364838832064009 S
atom 7.2531409732015426 5.0080051821218357 17.5364838832100389 S
atom 0.0000000000000112 2.0182193900083267 12.5371924029928010 S
atom 5.0080051821222833 2.9897857921140392 12.5371924029894100 S
atom 0.0000000000006702 7.9977909742361160 12.5371924029901205 S
atom 5.0080051821216518 7.0262245721302286 12.5371924029939414 S
atom -0.0000000000011115 2.7628693910436453 17.5364838832086605 S
atom 5.0080051821228420 2.2451357910795728 17.5364838832067811 S
atom -0.0000000000006556 7.2531409732011261 17.5364838832086072 S
atom 5.0080051821226776 7.7708745731645630 17.5364838832079108 S
atom -0.0000000000015262 0.0000000000004493 19.7834755269488021 Ba
atom 5.0080051821239255 0.0000000000003598 19.7834755269505855 Ba
atom -0.0000000000003911 5.0080051821209164 19.7834755269475870 Ba
atom 5.0080051821220533 5.0080051821213658 19.7834755269486244 Ba
atom 2.5040025910631658 2.5040025910646251 20.1650628333446775 S
atom 7.5120077731821473 2.5040025910591557 20.1650628333474522 S
atom 2.5040025910593262 7.5120077731809625 20.1650628333441162 S
atom 7.5120077731860668 7.5120077731863564 20.1650628333458535 S
atom 2.5040025910511718 2.5040025910542525 23.2889691319883241 Ba
atom 7.5120077731943677 2.5040025910667199 23.2889691319865051 Ba
atom 2.5040025910732715 7.5120077731907964 23.2889691319878693 Ba
atom 7.5120077731721713 7.5120077731787767 23.2889691319877485 Ba
atom 2.5040025910662487 2.5040025910625925 28.0715264584640813 Ba
atom 7.5120077731783894 2.5040025910583497 28.0715264584604505 Ba
atom 2.5040025910571067 7.5120077731820114 28.0715264584645858 Ba
atom 7.5120077731878707 7.5120077731866841 28.0715264584620563 Ba
atom 5.0080051821229343 5.0080051821220515 25.3592199372480493 Zr
atom 10.0160103642452043 5.0080051821230880 25.3592199372512823 Zr
atom 5.0080051821226572 10.0160103642459273 25.3592199372523375 Zr
atom 10.0160103642450320 10.0160103642452771 25.3592199372488132 Zr
atom 5.0080051821220462 5.0080051821222655 30.4490925397484382 Zr
atom 10.0160103642454246 5.0080051821227194 30.4490925397466370 Zr
atom 5.0080051821226776 10.0160103642457337 30.4490925397431660 Zr
atom 10.0160103642449076 10.0160103642451102 30.4490925397483210 Zr
atom 5.0080051821413996 5.0080051821397653 22.8552191885230052 S
atom 10.0160103642254068 5.0080051820988158 22.8552191885246536 S
atom 5.0080051821181994 10.0160103642283307 22.8552191885268705 S
atom 10.0160103642492722 10.0160103642687464 22.8552191885230975 S
atom 5.0080051820992448 5.0080051821022460 27.9417423669689597 S
atom 10.0160103642693716 5.0080051821558191 27.9417423669666043 S
atom 5.0080051821202209 10.0160103642660747 27.9417423669646112 S
atom 10.0160103642479719 10.0160103642125193 27.9417423669684908 S
atom 5.0080051821207459 2.5040049998502067 25.4699146504258991 S
atom 10.0160103642462701 2.5040001822727693 25.4699146504702050 S
atom 5.0080051821237612 7.5120053643954039 25.4699146504605451 S
atom 10.0160103642435399 7.5120101819720553 25.4699146504161114 S
atom 5.0080051821512779 2.5040029152731371 30.4649683181993645 S
atom 10.0160103642166884 2.5040022668495077 30.4649683181458677 S
atom 5.0080051820930862 7.5120074489711204 30.4649683181585758 S
atom 10.0160103642742886 7.5120080973954249 30.4649683182125273 S
atom 2.5040001822733244 5.0080051821237888 25.4699146504212308 S
atom 7.5120101819713492 5.0080051821213010 25.4699146504631457 S
atom 2.5040049998488847 10.0160103642434297 25.4699146504435134 S
atom 7.5120053643959164 10.0160103642461227 25.4699146504428136 S
atom 2.5040022668483664 5.0080051820940579 30.4649683182027857 S
atom 7.5120080973964329 5.0080051821511944 30.4649683181543800 S
atom 2.5040029152740311 10.0160103642737042 30.4649683181877755 S
atom 7.5120074489704489 10.0160103642163207 30.4649683181717670 S
atom 2.5040025910590913 2.5040025910615973 32.9791386412687686 Ba
atom 7.5120077731857231 2.5040025910619366 32.9791386412675891 Ba
atom 2.5040025910629953 7.5120077731835639 32.9791386412675109 Ba
atom 7.5120077731816330 7.5120077731828925 32.9791386412683423 Ba
atom 2.5040025910635721 2.5040025910613291 37.8867508240718251 Ba
atom 7.5120077731813275 2.5040025910629109 37.8867508240766853 Ba
atom 2.5040025910578425 7.5120077731835950 37.8867508240736939 Ba
atom 7.5120077731875385 7.5120077731820167 37.8867508240757047 Ba
atom 5.0080051821226288 5.0080051821227372 35.5091847427952203 Zr
atom 10.0160103642447815 5.0080051821219866 35.5091847427921010 Zr
atom 5.0080051821221110 10.0160103642445737 35.5091847427935647 Zr
atom 10.0160103642451315 10.0160103642452984 35.5091847427947300 Zr
atom 5.0080051821227061 5.0080051821220888 40.5990573452845211 Zr
atom 10.0160103642454832 5.0080051821229796 40.5990573452875623 Zr
atom 5.0080051821220648 10.0160103642456360 40.5990573452912358 Zr
atom 10.0160103642456573 10.0160103642447833 40.5990573452835619 Zr
atom 5.0080051821433020 5.0080051821400327 32.9791386412685625 S
atom 10.0160103642241562 5.0080051820892413 32.9791386412678662 S
atom 5.0080051821354186 10.0160103642276166 32.9791386412654148 S
atom 10.0160103642330736 10.0160103642787348 32.9791386412668004 S
atom 5.0080051821128873 5.0080051821119662 38.0165349155674832 S
atom 10.0160103642544200 5.0080051821471798 38.0165349155668366 S
atom 5.0080051821051388 10.0160103642550062 38.0165349155657708 S
atom 10.0160103642630371 10.0160103642211737 38.0165349155651953 S
atom 5.0080051820812752 2.5040029152735794 35.4933089643424395 S
atom 10.0160103642866964 2.5040022668483983 35.4933089643866211 S
atom 5.0080051821632212 7.5120074489708060 35.4933089643716997 S
atom 10.0160103642045346 7.5120080973960901 35.4933089643270421 S
atom 5.0080051821250597 2.5040049998479081 40.4883626321008450 S
atom 10.0160103642418896 2.5040001822719753 40.4883626320779584 S
atom 5.0080051821199456 7.5120053643971758 40.4883626320853196 S
atom 10.0160103642472418 7.5120101819725038 40.4883626321104018 S
atom 2.5040022668482353 5.0080051821637754 35.4933089643411535 S
atom 7.5120080973959515 5.0080051820815195 35.4933089643719910 S
atom 2.5040029152732752 10.0160103642044760 35.4933089643441804 S
atom 7.5120074489717910 10.0160103642862612 35.4933089643745490 S
atom 2.5040001822730451 5.0080051821191889 40.4883626320991610 S
atom 7.5120101819719531 5.0080051821251441 40.4883626320912384 S
atom 2.5040049998499270 10.0160103642483822 40.4883626321051864 S
atom 7.5120053643946365 10.0160103642422627 40.4883626320813974 S
atom 2.5040025910564885 2.5040025910637733 42.6693081505512879 Ba
atom 7.5120077731890254 2.5040025910570032 42.6693081505491563 Ba
atom 2.5040025910655976 7.5120077731816952 42.6693081505516716 Ba
atom 7.5120077731795272 7.5120077731883512 42.6693081505493197 Ba
atom 5.0080051821228251 5.0080051821283993 43.1030580940074657 S
atom 10.0160103642451652 5.0080051821107983 43.1030580940093628 S
atom 5.0080051821363822 10.0160103642392304 43.1030580940170225 S
atom 10.0160103642315086 10.0160103642560365 43.1030580940081975 S
