#=======================================================
# FHI-aims file: full_relax/full_relax_RP_1_00Mz1_00Mz2.in
# Created using the Atomic Simulation Environment (ASE)
# Fri Mar 14 11:16:58 2025
#=======================================================
lattice_vector 10.0137840008611043 -0.0000005818919101 -0.0000000000000001 
lattice_vector -0.0000005818919102 10.0137840008611043 0.0000000000000003 
lattice_vector -0.0000000000000002 0.0000000000000005 15.6661260673145097 
atom 0.0000000000000869 0.0000000000000428 0.2276078784230038 Ba
atom 5.0068920004304642 -0.0000002909458179 0.2276078784230447 Ba
atom -0.0000002909459517 5.0068920004304918 0.2276078784231475 Ba
atom 5.0068917094846039 5.0068917094846261 0.2276078784231396 Ba
atom 0.0000000000001871 0.0000000000000882 4.6680565176127811 Ba
atom 5.0068920004304394 -0.0000002909457539 4.6680565176129596 Ba
atom -0.0000002909459785 5.0068920004304429 4.6680565176125954 Ba
atom 5.0068917094844414 5.0068917094845578 4.6680565176126008 Ba
atom 2.5034458547423113 2.5034458547422664 2.4478321980176099 Zr
atom 7.5103378551727618 2.5034455637963333 2.4478321980177133 Zr
atom 2.5034455637963378 7.5103378551727324 2.4478321980176747 Zr
atom 7.5103375642267753 7.5103375642268428 2.4478321980175917 Zr
atom 2.5034458547424809 2.5034458547425138 -0.1067255992369098 S
atom 7.5103378551726090 2.5034455637964479 -0.1067255992368076 S
atom 2.5034455637965385 7.5103378551727449 -0.1067255992368532 S
atom 7.5103375642266847 7.5103375642267070 -0.1067255992368716 S
atom 2.5034458547424587 2.5034458547425418 5.0023899952723836 S
atom 7.5103378551726854 2.5034455637966069 5.0023899952723143 S
atom 2.5034455637965296 7.5103378551727582 5.0023899952723641 S
atom 7.5103375642266661 7.5103375642267602 5.0023899952721536 S
atom 2.5034330578420625 0.0000026751539517 2.4478321980175344 S
atom 7.5103509430183975 -0.0000032570459087 2.4478321980175983 S
atom 2.5034586516422652 5.0068890343305394 2.4478321980176503 S
atom 7.5103247673266988 5.0068943846385157 2.4478321980175171 S
atom -0.0000029660999948 2.5034589425884284 2.4478321980176054 S
atom 5.0068946755844372 2.5034327668963168 2.4478321980176467 S
atom 0.0000023842079585 7.5103250582726622 2.4478321980176019 S
atom 5.0068887433845468 7.5103506520724741 2.4478321980176747 S
atom 2.5034458547424623 2.5034458547425129 8.0606741205874677 Ba
atom 7.5103378551727182 2.5034455637966739 8.0606741205871817 Ba
atom 2.5034455637962867 7.5103378551726960 8.0606741205874179 Ba
atom 7.5103375642267967 7.5103375642268224 8.0606741205871497 Ba
atom 2.5034458547423197 2.5034458547424925 12.5011163427627707 Ba
atom 7.5103378551728444 2.5034455637966344 12.5011163427630230 Ba
atom 2.5034455637964999 7.5103378551727236 12.5011163427628400 Ba
atom 7.5103375642266474 7.5103375642268189 12.5011163427630478 Ba
atom 5.0068917094844974 5.0068917094846217 10.2808952316752329 Zr
atom 10.0137837099149607 5.0068914185384870 10.2808952316752062 Zr
atom 5.0068914185387250 10.0137837099150904 10.2808952316752311 Zr
atom 10.0137834189691723 10.0137834189689308 10.2808952316752400 Zr
atom 5.0068917094846164 5.0068917094845320 7.7263348123606308 S
atom 10.0137837099149642 5.0068914185389666 7.7263348123605855 S
atom 5.0068914185386575 10.0137837099153213 7.7263348123606663 S
atom 10.0137834189689823 10.0137834189692718 7.7263348123607045 S
atom 5.0068917094846137 5.0068917094848242 12.8354556509896760 S
atom 10.0137837099151330 5.0068914185386975 12.8354556509897115 S
atom 5.0068914185385500 10.0137837099150495 12.8354556509896174 S
atom 10.0137834189690977 10.0137834189694281 12.8354556509895765 S
atom 5.0068962301344655 2.5034471279575823 10.2808952316752560 S
atom 10.0137794802108200 2.5034439996351261 10.2808952316750997 S
atom 5.0068871888346145 7.5103362910116296 10.2808952316753253 S
atom 10.0137879396191689 7.5103388374420232 10.2808952316752222 S
atom 2.5034442905809993 5.0068874797810059 10.2808952316754088 S
atom 7.5103391283879697 5.0068959391888637 10.2808952316751885 S
atom 2.5034468370115741 10.0137882305650372 10.2808952316751725 S
atom 7.5103360000656485 10.0137791892647492 10.2808952316752293 S
