#=======================================================
# FHI-aims file: full_relax/full_relax_RP_5_Rx0Mz_0RyMz.in
# Created using the Atomic Simulation Environment (ASE)
# Fri Mar 14 11:30:48 2025
#=======================================================
lattice_vector 10.0194235742000153 0.0534263349709560 -0.0000164350090040 
lattice_vector 0.0534263349709748 10.0194235742031950 0.0000164348712007 
lattice_vector -0.0001405682297728 0.0001405674499086 55.8173949921774550 
atom 0.1184282947375283 0.1670807618172442 0.2186893142556176 Ba
atom 5.1767674123339216 0.1451726649515750 0.2186971785065029 Ba
atom 0.1937688461227755 5.1281713033505385 0.2187134495742511 Ba
atom 5.1548531637729216 5.2035057338602533 0.2186889065945629 Ba
atom -0.2591014107181662 -0.1883627058675312 4.9979453982189748 Ba
atom 4.8212936430360918 -0.2323334332520853 4.9979317651030124 Ba
atom -0.1617047692717338 4.7506651306240180 4.9979482118376115 Ba
atom 4.7773233854096615 4.8480622364112147 4.9979455941298072 Ba
atom 2.5242617332698867 2.5299308906558666 2.3929139019998198 Zr
atom 7.5396107255882878 2.5510151405067720 2.3929061290009925 Zr
atom 2.5566110843172973 7.5340153751768559 2.3929227943568203 Zr
atom 7.5606877760529922 7.5663575068346924 2.3929138486253230 Zr
atom 2.5132673732639881 2.5097054997281414 7.4443934772076998 Zr
atom 7.5193678459349522 2.5400363690012076 7.4443872828392941 Zr
atom 2.5363690229175337 7.5230357935888774 7.4444037496460966 Zr
atom 7.5496925964894155 7.5461312675069099 7.4443929076019462 Zr
atom 2.2610163155257825 2.6928952025523754 -0.1125103034556696 S
atom 7.7025844983701175 2.2877731302558413 -0.1125194273570080 S
atom 2.7195860761646600 7.2707715073967227 -0.1125035546602536 S
atom 7.2974411742439527 7.7293199402685699 -0.1125101860654963 S
atom 2.8254338277835727 2.2616616933049505 4.9502463179333889 S
atom 7.2713259949411855 2.8522134415172875 4.9502368520363476 S
atom 2.2883274679178998 7.8352118664039416 4.9502533476539030 S
atom 7.8618585835167583 7.2980864488695580 4.9502468295678055 S
atom 2.7779317994294521 0.0101525293436028 2.2181988632096923 S
atom 7.2002919145559536 0.0335583950738685 2.7708326640970635 S
atom 2.2172933043073817 5.0165569505615624 2.7708492625524181 S
atom 7.8143565995323412 5.0465773155775207 2.2181988375503199 S
atom 2.8897645726343395 0.0131231697319095 7.7727855149158582 S
atom 7.1360930284427617 0.0359910650951936 7.1470898262879485 S
atom 2.1530942770115189 5.0189899096549651 7.1471061471161628 S
atom 7.9261894351743321 5.0495483127241485 7.7727855094526435 S
atom 0.0068019271493094 2.1906173904487152 2.7708435261629978 S
atom 5.0198230955210619 2.8046775548259744 2.2181918946009485 S
atom 0.0368235805965327 7.7876758380619258 2.2182083223136284 S
atom 5.0432276679917942 7.2270419904229195 2.7708436007405473 S
atom 0.0092193440797093 2.1264400241380002 7.1470840117712209 S
atom 5.0227829053848980 2.9165223391951058 7.7727906049660289 S
atom 0.0397831789321511 7.8995207099574500 7.7728070130244262 S
atom 5.0456453958417322 7.1628648048721528 7.1470839719947898 S
atom 0.2756883304870736 0.1815694224880121 9.9635382863553126 Ba
atom 5.1912289546616659 0.3024502720206187 9.9635328724980265 Ba
atom 0.2082307442592357 5.2854488469803007 9.9635493898967393 Ba
atom 5.3121128978160890 5.2179942646251201 9.9635383184252824 Ba
atom -0.2757507248130308 -0.1815066008097993 14.9549416164215838 Ba
atom 4.8281314561544662 -0.2489611211202795 14.9549305214952231 Ba
atom -0.1548667688539062 4.7340374291338003 14.9549470004192688 Ba
atom 4.7606738880538462 4.8549182925371621 14.9549415644194870 Ba
atom 2.5181809485213447 2.5182436621017334 12.4592399278537442 Zr
atom 7.5278930368059775 2.5449568341832123 12.4592317297553166 Zr
atom 2.5448940973158578 7.5279558404101614 12.4592482575822050 Zr
atom 7.5546062439601114 7.5546689968772203 12.4592401256236123 Zr
atom 2.5230943729835063 2.5267816392581182 17.4740863896119585 Zr
atom 7.5364183617357563 2.5498770874640933 17.4740759338536797 Zr
atom 2.5534190768512128 7.5328760534073194 17.4740923377695587 Zr
atom 7.5595199933456536 7.5632069564314541 17.4740864111545449 Zr
atom 2.1857318887831241 2.7851285440007119 9.9571710434880583 S
atom 7.7948047141121712 2.2125157293099931 9.9571620462226917 S
atom 2.8118062556318595 7.1955141800459579 9.9571781920902005 S
atom 7.2221569441609761 7.8215533520449236 9.9571713229313161 S
atom 2.8506303784178186 2.2513592651606094 14.9613089053215305 S
atom 7.2609809888649535 2.8773983998443975 14.9613016190115449 S
atom 2.2779823847576259 7.8603969921102275 14.9613181413767773 S
atom 7.8870550760596023 7.2877841892542916 14.9613086394095784 S
atom 2.8829883420763958 0.0151069803493449 12.1399424231718669 S
atom 7.1363726349218126 0.0383818931616678 12.7785209426943140 S
atom 2.1533738924586570 5.0213807319091863 12.7785374923704236 S
atom 7.9194131093526687 5.0515321407412896 12.1399424502676716 S
atom 2.8832679818825433 0.0174978428266359 17.7713737540847667 S
atom 7.1295963231730477 0.0403658188491797 17.1456780736309540 S
atom 2.1465976574547900 5.0233645229658315 17.1456943803663506 S
atom 7.9196926941717196 5.0539228448738927 17.7713737534060030 S
atom 0.0116093552146268 2.1267344762956863 12.7785643424190027 S
atom 5.0247528450407000 2.9097533499816075 12.1399155094171274 S
atom 0.0417526261910460 7.8927517847926927 12.1399319767952072 S
atom 5.0480359048691463 7.1631593813101935 12.7785643508179998 S
atom 0.0135791482250308 2.1199655439156824 17.1456893873887424 S
atom 5.0271430106877162 2.9100478700206343 17.7713960064549497 S
atom 0.0441430672266838 7.8930463014276411 17.7714123600167717 S
atom 5.0500054151721541 7.1563904047341094 17.1456893413262002 S
atom 0.2590388777475772 0.1884254457108795 19.9205344638115456 Ba
atom 5.1980669034421227 0.2858225179422095 19.9205316909826422 Ba
atom 0.2150686070922729 5.2688212058639685 19.9205481028856646 Ba
atom 5.2954635344122254 5.2248504002607259 19.9205343110077884 Ba
atom -0.1184910815233224 -0.1670180096446164 24.6997907219664690 Ba
atom 4.8425934265607484 -0.0916835368499056 24.6997664757027522 Ba
atom -0.1404053212103753 4.8913150011653084 24.6997830085067349 Ba
atom 4.9179340371545974 4.8694068814437150 24.6997911571548485 Ba
atom 2.5120992660595336 2.5065554674346160 22.5255660733290952 Zr
atom 7.5161761959998943 2.5388975826826368 22.5255580581062276 Zr
atom 2.5331763212072071 7.5218971835442803 22.5255736301290383 Zr
atom 7.5485255276499386 7.5429815672612159 22.5255667824775081 Zr
atom 2.2109284926016315 2.7748261916657420 19.9682336031018295 S
atom 7.7844596265043418 2.2377007834829579 19.9682264246212569 S
atom 2.8014612565819723 7.2206992167711750 19.9682432482402206 S
atom 7.2473533823529026 7.8112510190023556 19.9682333759539219 S
atom 2.7753459963400506 2.3435926736437800 25.0309900893212252 S
atom 7.3532011262075621 2.8021410906376381 25.0309825402576536 S
atom 2.3702026400992420 7.7851395827176573 25.0309996055061355 S
atom 7.8117707896115807 7.3800175442467948 25.0309894396829442 S
atom 2.8190689928721850 0.0199307720552887 22.1476307075743435 S
atom 7.2414290414657208 0.0433364445081374 22.7002644960584199 S
atom 2.2584305581289636 5.0263352640724728 22.7002810136408399 S
atom 7.8554937565416276 5.0563557739770637 22.1476306241358429 S
atom 0.0165393788029101 2.2318104559638803 22.7002879165013667 S
atom 5.0295600287310229 2.8458706463764694 22.1476362212740696 S
atom 0.0465609366578287 7.8288689574245112 22.1476527845676365 S
atom 5.0529648715829625 7.2682351774597027 22.7002879459707927 S
atom 2.3510614416857685 2.3998545515411664 28.1273866990771779 Ba
atom 7.4093944468613460 2.3779404102413437 28.1273950322795763 Ba
atom 2.4263958184614141 7.3609388784331351 28.1274110465949896 Ba
atom 7.3874864368752764 7.4362793382384202 28.1273869540966146 Ba
atom 2.7065049917049882 2.7773843808753034 32.9066427223256568 Ba
atom 7.7869005529165758 2.7334142285021961 32.9066288137966154 Ba
atom 2.8039020518174436 7.7164124390435900 32.9066454064645484 Ba
atom 7.7429298227422949 7.8138090280297883 32.9066425296254508 Ba
atom 5.0246367962808884 5.0304451463730295 30.3016112781924853 Zr
atom 10.0399747790620797 5.0515222991723965 30.3016035216368387 Zr
atom 5.0569784781549334 10.0345213389454457 30.3016196265160964 Zr
atom 10.0610594336416810 10.0668703722827040 30.3016107898213782 Zr
atom 5.0448616452734418 5.0414400138111706 35.3530905207226382 Zr
atom 10.0509549018867492 5.0717645261680575 35.3530840366740620 Zr
atom 5.0679571708779312 10.0547637756144130 35.3531006579941049 Zr
atom 10.0812857214863705 10.0778655474464944 35.3530901499980601 Zr
atom 4.8616718619199544 5.2936915183721576 27.7961865655847831 S
atom 10.3032192907370117 4.8885480359454014 27.7961770514609476 S
atom 5.3202203288941501 9.8715466944882984 27.7961940960731226 S
atom 9.8980971733369838 10.3301163158674676 27.7961874421987716 S
atom 5.2929053967900934 4.7292739731586542 32.8589451247988791 S
atom 9.7387789352307337 5.3198066770704964 32.8589363046571421 S
atom 4.7557800609709906 10.3028051445648643 32.8589524831261386 S
atom 10.3293306112617582 9.7656989923982458 32.8589454513873207 S
atom 4.7498895230656251 2.5348844744352252 30.1268893063700602 S
atom 10.3469487576030783 2.5649057596396703 30.6795246956716028 S
atom 5.3639498083943744 7.5479059027603057 30.6795411729942487 S
atom 9.7863149023036158 7.5713112705328909 30.1268893018071680 S
atom 4.6380448585756717 2.5319241932928089 35.6814880365993119 S
atom 10.4111257968071982 2.5624886613139872 35.0557652431618152 S
atom 5.4281271191781189 7.5454889844066306 35.0557816410471332 S
atom 9.6744700539387303 7.5683508764119072 35.6814880504457577 S
atom 2.5380102225481274 5.3374146232371471 30.6795468924469183 S
atom 7.5444145821713571 4.7767759759868769 30.1268962558039561 S
atom 2.5614156584737509 9.7597745287053304 30.1269126997749090 S
atom 7.5744355309890539 10.3738392327109228 30.6795466608868530 S
atom 2.5355767316269735 5.4016134858916187 35.0558037888301683 S
atom 7.5414444832872993 4.6649432664568202 35.6814829834161387 S
atom 2.5584452837982781 9.6479418532030703 35.6814993794298729 S
atom 7.5720022927162942 10.4380380530080910 35.0558039523625879 S
atom 2.3365729381344513 2.2425948860011897 37.8722360671604292 Ba
atom 7.2521168415714508 2.3634788738621859 37.8722306130909416 Ba
atom 2.2691184217914757 7.3464769284013016 37.8722471632118101 Ba
atom 7.3729976378095357 7.2790192867263848 37.8722360471733737 Ba
atom 2.6996488911656318 2.7940338882654991 42.8636389882008899 Ba
atom 7.8035282736358358 2.7265763687008771 42.8636279307172288 Ba
atom 2.8205297466832620 7.7095744031369362 42.8636443803343354 Ba
atom 7.7360736876452405 7.8304583527790568 42.8636389737285270 Ba
atom 5.0363234199090030 5.0365265225976819 40.3679377792126175 Zr
atom 10.0460348939034727 5.0632395431713695 40.3679301372146000 Zr
atom 5.0630366512689964 10.0462385287535980 40.3679463049064680 Zr
atom 10.0727480365833326 10.0729518282765724 40.3679378752852216 Zr
atom 5.0277854863962919 5.0316127510916262 45.3827840108792131 Zr
atom 10.0411146719589244 5.0547144822359664 45.3827735515016357 Zr
atom 5.0581163257198813 10.0377134921279705 45.3827904166405887 Zr
atom 10.0642102183752975 10.0680381094032256 45.3827842720606398 Zr
atom 4.7694385391437173 5.3689759802905348 37.8658674506492829 S
atom 10.3784765338368192 4.7963278447607340 37.8658580612096358 S
atom 5.3954777572218626 9.7793265105228624 37.8658748554176583 S
atom 9.8058637054797035 10.4054005861404111 37.8658678550766723 S
atom 5.3032078888714400 4.7040773946077969 42.8700072856927505 S
atom 9.7135937177675835 5.3301517719487981 42.8699993653006146 S
atom 4.7305950804745498 10.3131501991939416 42.8700155297794225 S
atom 10.3396328424863881 9.7405025103097085 42.8700068419494755 S
atom 4.6448137496939212 2.5299542863046125 40.0486128886549793 S
atom 10.4108312983387385 2.5600979666342449 40.6872453678585089 S
atom 5.4278327686723324 7.5430989326535061 40.6872618903901184 S
atom 9.6812388842239692 7.5663816078496513 40.0486128822548082 S
atom 4.6445193739247390 2.5275649937266360 45.6800933622421681 S
atom 10.4176001891506900 2.5581279558585055 45.0543705028538426 S
atom 5.4346016654325391 7.5411282775562380 45.0543868549721509 S
atom 9.6809444294042262 7.5639917027681891 45.6800934129451193 S
atom 2.5331860269727224 5.4013339529436450 40.6872350023914180 S
atom 7.5394605846036997 4.6717193784105620 40.0486397562039755 S
atom 2.5564613241923584 9.6547181047242443 40.0486562742827417 S
atom 7.5696116065086674 10.4377585678868243 40.6872348665929024 S
atom 2.5312029101351148 5.4081101661546089 45.0543919087491389 S
atom 7.5370690371105198 4.6714398567988820 45.6800711703232452 S
atom 2.5540699180707405 9.6544385111869175 45.6800876137491869 S
atom 7.5676283386015841 10.4445348275548806 45.0543920475178723 S
atom 2.3297168150959622 2.2592442553369061 47.8292320878771804 Ba
atom 7.2687444969775417 2.3566408033935673 47.8292294648564607 Ba
atom 2.2857460435393309 7.3396390327628263 47.8292456805912778 Ba
atom 7.3661415939278960 7.2956687992075526 47.8292320491926475 Ba
atom 2.6851601219187140 2.6367737447306170 52.6084880622732740 Ba
atom 7.6462508222233350 2.7121142593720058 52.6084634535791693 Ba
atom 2.6632520748236690 7.6951129531944051 52.6084803063291062 Ba
atom 7.7215851654280812 7.6731987921887317 52.6084881555190123 Ba
atom 5.0480116354894760 5.0426072055250248 50.4342630871913755 Zr
atom 10.0520935708741828 5.0749562989678827 50.4342545610328372 Zr
atom 5.0690959891679563 10.0579564237119730 50.4342711680838605 Zr
atom 10.0844355391694176 10.0790335356616083 50.4342641940408072 Zr
atom 4.7797409737412160 5.3437793676050047 47.8769302990290981 S
atom 10.3532914877616502 4.8066729694321548 47.8769236255362785 S
atom 5.3702927322907277 9.7896715078380652 47.8769396535280762 S
atom 9.8161661017991655 10.3802039865211952 47.8769297037281305 S
atom 5.2109744951655843 4.7793618513637872 52.9396883470203576 S
atom 9.7888510897611560 5.2379316169659127 52.9396813080886020 S
atom 4.8058523813034979 10.2209300430725261 52.9396974631886081 S
atom 10.2473995413970975 9.8157866718585733 52.9396874553432681 S
atom 4.7086965669468146 2.5251476283740653 50.0563338762626984 S
atom 10.3057555075123304 2.5551687464410304 50.6089691227110734 S
atom 5.3227568064874333 7.5381683032640829 50.6089856302877479 S
atom 9.7451216505622096 7.5615735447313197 50.0563337514286602 S
atom 2.5282320873314985 5.2962774495203755 50.6089786678279978 S
atom 7.5346362135933997 4.7356389228241014 50.0563282373538811 S
atom 2.5516374586512236 9.7186372855831671 50.0563445979106447 S
atom 7.5646572184998879 10.3327020557199756 50.6089786038345011 S
