#=======================================================
# FHI-aims file: full_relax/full_relax_RP_4_RxRyMz_RxRy0.in
# Created using the Atomic Simulation Environment (ASE)
# Fri Mar 14 11:27:30 2025
#=======================================================
lattice_vector 10.0264224904754542 -0.0381013502009213 0.0000000000003181 
lattice_vector -0.0381013502009150 10.0264224904756638 0.0000000000003539 
lattice_vector 0.0000000000014684 0.0000000000016350 45.7608407702652258 
atom 0.1050378046342358 -0.1657398848325734 0.2241680623726320 Ba
atom 5.1789511298668236 -0.1240884798207765 0.2241680625000403 Ba
atom 0.1466892096507255 4.9081734407621038 0.2241680619900591 Ba
atom 5.0991983746651721 4.8284206855725031 0.2241680625359649 Ba
atom -0.2480184817707158 0.1835401030005069 4.9895420320970114 Ba
atom 4.8296711421716223 0.2289678069410523 4.9895420320149899 Ba
atom -0.2025907779552313 5.2612297270933119 4.9895420320847670 Ba
atom 4.7461420881592575 5.1777006729529775 4.9895420319856312 Ba
atom 2.5076870713358992 2.4901349968144433 2.3900157327992031 Zr
atom 7.5172368183779614 2.4674228242311189 2.3900157323049198 Zr
atom 2.4849748986747158 7.4996847441818204 2.3900157319568618 Zr
atom 7.5018476407455887 7.4842955668144207 2.3900157320523898 Zr
atom 2.4947821062810229 2.4976479675212593 7.4406807536817805 Zr
atom 7.5097238477223165 2.4803277888480766 7.4406807557027994 Zr
atom 2.4774619276426906 7.5125897089220270 7.4406807538520416 Zr
atom 7.4889426764424165 7.4918085374023473 7.4406807543444611 Zr
atom 2.6744994804808822 2.7548345202626070 -0.1143926076608982 S
atom 7.2525372951552098 2.3006104145803015 -0.1143926068178557 S
atom 2.2202753746997734 7.3328723349659839 -0.1143926072540140 S
atom 7.6686600506232532 7.7489950905444260 -0.1143926073554579 S
atom 2.2411261774017266 2.1854714529686672 4.9448715347183150 S
atom 7.8219003622983365 2.7339837175727872 4.9448715336890983 S
atom 2.7896384418526026 7.7662456378693481 4.9448715360210729 S
atom 7.2352867476266116 7.1796320232693409 4.9448715352835935 S
atom 2.7670885438954516 -0.0076327208772832 2.2142332225641863 S
atom 7.2233075325094980 -0.0231844391426752 2.7655398157454076 S
atom 2.1910456119647357 5.0090774804031666 2.7655398157100519 S
atom 7.7612491140823092 4.9865278482223880 2.2142332227340269 S
atom 2.8899791132061581 -0.0133320586994726 7.7608581915489427 S
atom 7.1495912073023797 -0.0280046624031449 7.1363110789905324 S
atom 2.1173292869759583 5.0042572600564901 7.1363110791005431 S
atom 7.8841396833623874 4.9808285135536119 7.7608581914902768 S
atom -0.0114179556071708 2.2461227013765357 2.2142332226766248 S
atom 4.9982943362603907 2.7840642828678788 2.7655398157045590 S
atom -0.0339675851167079 7.8163262033695498 2.7655398157810529 S
atom 4.9827426157258099 7.2402832715011849 2.2142332226065338 S
atom -0.0057186180299696 2.1232321318741292 7.7608581915618160 S
atom 5.0031145570722453 2.8577806080889241 7.1363110789734803 S
atom -0.0291473627238271 7.8900425283105182 7.1363110791167603 S
atom 4.9884419514444982 7.1173927023229604 7.7608581914757835 S
atom 0.2720091157050011 -0.1837988192933885 9.9480088638527899 Ba
atom 5.1970100650531377 -0.2910597908043859 9.9480088638222259 Ba
atom 0.1647481441626682 4.7412021290665400 9.9480088638088464 Ba
atom 5.2661696863909349 4.8103617502836027 9.9480088638054660 Ba
atom -0.2480184820267370 0.1835401029040842 14.9064756935909042 Ba
atom 4.8296711422973848 0.2289678067027312 14.9064756936585816 Ba
atom -0.2025907781113721 5.2612297272946407 14.9064756936013527 Ba
atom 4.7461420881367911 5.1777006733009889 14.9064756936380292 Ba
atom 2.4947821064161744 2.4976479678624459 12.4553369745143687 Zr
atom 7.5097238477409824 2.4803277885388173 12.4553369739160313 Zr
atom 2.4774619273721057 7.5125897087698643 12.4553369760333279 Zr
atom 7.4889426768114422 7.4918085377278842 12.4553369749044087 Zr
atom 2.5076870714785824 2.4901349970138202 17.5060019894293220 Zr
atom 7.5172368184224840 2.4674228235940872 17.5060019885866858 Zr
atom 2.4849748979363784 7.4996847439473946 17.5060019885824403 Zr
atom 7.5018476415987072 7.4842955671985072 17.5060019886732725 Zr
atom 2.7670622937750866 2.8271121754673030 9.9480088619972307 S
atom 7.1802596397734462 2.2080476011534520 9.9480088596300025 S
atom 2.1479977196305753 7.2403095215772320 9.9480088594309759 S
atom 7.7612228639915974 7.8212727455759543 9.9480088603272474 S
atom 2.2411261776463585 2.1854714532232187 14.9511461919821187 S
atom 7.8219003623291181 2.7339837174874164 14.9511461943855029 S
atom 2.7896384419376479 7.7662456378183933 14.9511461920299364 S
atom 7.2352867477404708 7.1796320233128323 14.9511461928948393 S
atom 2.8899791133471533 -0.0133320562644878 12.1351595340108531 S
atom 7.1495912071214196 -0.0280046630535570 12.7597066471631599 S
atom 2.1173292870341651 5.0042572575443414 12.7597066469620319 S
atom 7.8841396836081818 4.9808285142423907 12.1351595339744662 S
atom 2.7670885440025677 -0.0076327198441602 17.6817845044975570 S
atom 7.2233075324857783 -0.0231844398104423 17.1304779114354311 S
atom 2.1910456120695918 5.0090774795110988 17.1304779114118055 S
atom 7.7612491140694413 4.9865278491629734 17.6817845043942405 S
atom -0.0057186158412355 2.1232321317287615 12.1351595340221579 S
atom 5.0031145547471301 2.8577806082085786 12.7597066470994989 S
atom -0.0291473635951941 7.8900425285117466 12.7597066470233411 S
atom 4.9884419522472419 7.1173927019921077 12.1351595339721356 S
atom -0.0114179548504203 2.2461227013119425 17.6817845043576796 S
atom 4.9982943354223002 2.7840642829216451 17.1304779114182146 S
atom -0.0339675862466591 7.8163262033255414 17.1304779114552126 S
atom 4.9827426168869700 7.2402832713161711 17.6817845045061546 S
atom 0.1050378047423662 -0.1657398845457569 19.6718496629782216 Ba
atom 5.1789511296093611 -0.1240884797507731 19.6718496629918782 Ba
atom 0.1466892095905146 4.9081734406483299 19.6718496626260304 Ba
atom 5.0991983746283411 4.8284206856624907 19.6718496631755428 Ba
atom 2.6744994805940161 2.7548345204332123 20.0104103361639822 S
atom 7.2525372950021501 2.3006104144523838 20.0104103361965642 S
atom 2.2202753744934030 7.3328723346987408 20.0104103370064195 S
atom 7.6686600507353848 7.7489950905431035 20.0104103364139689 S
atom 2.6021254776655014 2.3313411774564736 23.1045818204603783 Ba
atom 7.6760306375880374 2.3729844174063022 23.1045818204236113 Ba
atom 2.6437687178527618 7.4052463379674203 23.1045818202585558 Ba
atom 7.5962860472703104 7.3255017478226216 23.1045818201981135 Ba
atom 2.2490356867838535 2.6806341860703604 27.8699498150165574 Ba
atom 7.3267376289344455 2.7260742087656746 27.8699498150611511 Ba
atom 2.2944757093872004 7.7583361289678727 27.8699498151052651 Ba
atom 7.2431962561864047 7.6747947560555705 27.8699498151717542 Ba
atom 5.0047580429032585 4.9872246875830930 25.2704315411239122 Zr
atom 10.0143076986529262 4.9645124213213965 25.2704315409912610 Zr
atom 4.9820457769319964 9.9967743424147049 25.2704315407300690 Zr
atom 9.9989186139813970 9.9813852588348002 25.2704315402047186 Zr
atom 4.9918391624617060 4.9947499005814286 30.3211012659055790 Zr
atom 10.0067824847929536 4.9774313025731711 30.3211012683995413 Zr
atom 4.9745205643467880 10.0096932227731248 30.3211012679606355 Zr
atom 9.9859997328740810 9.9889104708514527 30.3211012680857444 Zr
atom 5.1715844057095506 5.2519222562806824 22.7660232029271405 S
atom 9.7496101295825071 4.7976860599639357 22.7660232061704235 S
atom 4.7173482091116572 9.8299479800830358 22.7660232045220638 S
atom 10.1657449754705773 10.2460828262636667 22.7660232042679063 S
atom 4.7381854814878110 4.6825820106993223 27.8252864485767297 S
atom 10.3189503745728270 5.2310849837541804 27.8252864433676770 S
atom 5.2866884544891901 10.2633469039992153 27.8252864465526706 S
atom 9.7323460515635638 9.6767425808975318 27.8252864475789217 S
atom 5.2641629605683882 2.4894579110516011 25.0946426150350241 S
atom 9.7203746888975804 2.4739061678405014 25.6459517350262729 S
atom 4.6881127683380504 7.5061680870786542 25.6459517351604376 S
atom 10.2583235302705553 7.4836184797573342 25.0946426153747204 S
atom 5.3870498951218453 2.4837750427640946 30.6412543594887126 S
atom 9.6466155548467292 2.4691026402245351 30.0167583365621944 S
atom 4.6143536344475242 7.5013645619988258 30.0167583365427788 S
atom 10.3812104651707759 7.4779356142179516 30.6412543595257034 S
atom 2.4856519762722065 4.7432088554535072 25.0946426152709776 S
atom 7.4953643051833643 5.2811576967927545 25.6459517351322503 S
atom 2.4631023803262213 10.3134196170289503 25.6459517351397928 S
atom 7.4798125516416443 9.7373694251703196 25.0946426151731679 S
atom 2.4913348528344637 4.6203219201975765 30.6412543595839892 S
atom 7.5001678230918110 5.3549168307748447 30.0167583364958439 S
atom 2.4679059024957759 10.3871787510045674 30.0167583365862249 S
atom 7.4854954231173130 9.6144824904456581 30.6412543594316666 S
atom 2.7690640692584685 2.3132960239794422 32.8284292478226618 Ba
atom 7.6940757912065072 2.2060458256561297 32.8284292478739275 Ba
atom 2.6618138707925456 7.2383077463170835 32.8284292477450279 Ba
atom 7.7632246394401578 7.3074565944772081 32.8284292477714246 Ba
atom 2.2490356860078640 2.6806341859572176 37.7869086817049578 Ba
atom 7.3267376298452627 2.7260742085686296 37.7869086816656363 Ba
atom 2.2944757087386365 7.7583361289451505 37.7869086817395754 Ba
atom 7.2431962568598163 7.6747947561304937 37.7869086817038848 Ba
atom 4.9918391625410061 4.9947499005452878 35.3357572263487469 Zr
atom 10.0067824850295093 4.9774313025698982 35.3357572279550567 Zr
atom 4.9745205644819217 10.0096932231125955 35.3357572262481696 Zr
atom 9.9859997326489900 9.9889104708670153 35.3357572269606948 Zr
atom 5.0047580431303205 4.9872246879053437 40.3864269602760757 Zr
atom 10.0143076974817298 4.9645124222254831 40.3864269597140790 Zr
atom 4.9820457773628002 9.9967743422803270 40.3864269595074603 Zr
atom 9.9989186134031751 9.9813852571590580 40.3864269590296416 Zr
atom 5.2641161314464018 5.3242128112615683 32.8284292509284370 S
atom 9.6773195741425084 4.7051543337405226 32.8284292509332687 S
atom 4.6450576538135886 9.7374162540241027 32.8284292490725989 S
atom 10.2582767015444549 10.3183733814680778 32.8284292483192814 S
atom 4.7381854814448481 4.6825820108707923 37.8315720495689263 S
atom 10.3189503749224514 5.2310849837995868 37.8315720459958627 S
atom 5.2866884544694264 10.2633469042235497 37.8315720505976927 S
atom 9.7323460514711648 9.6767425808537268 37.8315720505497950 S
atom 5.3870498949155285 2.4837750444655828 35.0156041374332787 S
atom 9.6466155547962398 2.4691026428271798 35.6401001600899221 S
atom 4.6143536346043090 7.5013645601728740 35.6401001600632412 S
atom 10.3812104651827983 7.4779356116416817 35.0156041374407110 S
atom 5.2641629599971935 2.4894579138335358 40.5622158803671482 S
atom 9.7203746886117912 2.4739061612401634 40.0109067605640334 S
atom 4.6881127686224753 7.5061680844120504 40.0109067606558355 S
atom 10.2583235302966660 7.4836184874839633 40.5622158806681128 S
atom 2.4913348527233032 4.6203219205698041 35.0156041375370322 S
atom 7.5001678231095674 5.3549168305696311 35.6401001599520839 S
atom 2.4679059032853981 10.3871787510873848 35.6401001601758551 S
atom 7.4854954224452097 9.6144824903706620 35.0156041373529519 S
atom 2.4856519865258795 4.7432088549158857 40.5622158806525235 S
atom 7.4953642963859233 5.2811576968064671 40.0109067605918867 S
atom 2.4631023801257568 10.3134196169743557 40.0109067607044935 S
atom 7.4798125519315644 9.7373694254762384 40.5622158804002595 S
atom 2.6021254772543378 2.3313411776166806 42.5522766770569305 Ba
atom 7.6760306382268286 2.3729844179298203 42.5522766769802203 Ba
atom 2.6437687173695048 7.4052463377504560 42.5522766770122729 Ba
atom 7.5962860477967888 7.3255017472057080 42.5522766769906866 Ba
atom 5.1715844051264979 5.2519222558816727 42.8908352883554045 S
atom 9.7496101292836386 4.7976860596518049 42.8908352913421496 S
atom 4.7173482092740384 9.8299479802882637 42.8908352891380957 S
atom 10.1657449754226690 10.2460828260438301 42.8908352891851550 S
