#=======================================================
# FHI-aims file: full_relax/full_relax_RP_2_RxRy0_-Rx-Ry0.in
# Created using the Atomic Simulation Environment (ASE)
# Fri Mar 14 11:17:38 2025
#=======================================================
lattice_vector 10.0810402714502025 0.1195262028592268 -0.0000000000000017 
lattice_vector 0.1195262028592264 10.0810402714501492 0.0000000000000010 
lattice_vector -0.0000000000000046 0.0000000000000027 25.5129812088756829 
atom -0.0998263022624915 -0.0998263022627248 0.2830169117391489 Ba
atom 5.1403464379869588 0.1595894036912979 0.2830169117439070 Ba
atom 0.1595894036922635 5.1403464379878585 0.2830169117379729 Ba
atom 5.0004569348920676 5.0004569348925250 0.2830169117409729 Ba
atom 0.0263308849084841 0.0263308849083599 4.9063425401679117 Ba
atom 5.0141892508161510 0.0334322165205071 4.9063425401679055 Ba
atom 0.0334322165206151 5.0141892508163988 4.9063425401677430 Ba
atom 5.1266141220634402 5.1266141220636685 4.9063425401676772 Ba
atom 2.5408118036818004 2.5408118036828418 2.3647071095872221 Zr
atom 7.5999915691968178 2.6192345349002428 2.3647071095863130 Zr
atom 2.6192345348987764 7.5999915691949669 2.3647071095841548 Zr
atom 7.6410950408380751 7.6410950408376435 2.3647071095873344 Zr
atom 2.5408118036822631 2.5408118036809229 7.4479779707509941 Zr
atom 7.5999915691964137 2.6192345348996025 7.4479779707502001 Zr
atom 2.6192345349004609 7.5999915691958950 7.4479779707485205 Zr
atom 7.6410950408369587 7.6410950408366318 7.4479779707480676 Zr
atom 2.7330716578391909 2.7330716578396159 -0.1263036605664350 S
atom 7.4077317150400628 2.4269746807445327 -0.1263036605704142 S
atom 2.4269746807439585 7.4077317150395450 -0.1263036605615279 S
atom 7.8333548949942351 7.8333548949942662 -0.1263036605667114 S
atom 2.2948892020043337 2.2948892020040526 4.9063425401624006 S
atom 7.8459141708745266 2.8651571365791160 4.9063425401714520 S
atom 2.8651571365790831 7.8459141708743241 4.9063425401648075 S
atom 7.3951724391586504 7.3951724391586131 4.9063425401620240 S
atom 2.5202600678619596 0.0298815507159051 2.2328238322127731 S
atom 7.5607802035874103 0.0896446521462044 2.6833845862981578 S
atom 2.5800231692919744 5.0704016864407704 2.6833845862977554 S
atom 7.6205433050160325 5.1301647878686349 2.2328238322130058 S
atom 2.5202600678619915 0.0298815507180813 7.5798612481260905 S
atom 7.5607802035874636 0.0896446521447597 7.1293004940403177 S
atom 2.5800231692919335 5.0704016864425601 7.1293004940403080 S
atom 7.6205433050167848 5.1301647878734666 7.5798612481259235 S
atom 0.0298815507132282 2.5202600678617522 2.2328238322131542 S
atom 5.0704016864422288 2.5800231692920215 2.6833845862981263 S
atom 0.0896446521453434 7.5607802035872913 2.6833845862975392 S
atom 5.1301647878709042 7.6205433050164038 2.2328238322131400 S
atom 0.0298815507157273 2.5202600678619604 7.5798612481253178 S
atom 5.0704016864399266 2.5800231692916622 7.1293004940398301 S
atom 0.0896446521463585 7.5607802035867513 7.1293004940412139 S
atom 5.1301647878695373 7.6205433050161524 7.5798612481260683 S
atom -0.0998263022609456 -0.0998263022605072 9.5296681685908649 Ba
atom 5.1403464379857180 0.1595894036913803 9.5296681685895663 Ba
atom 0.1595894036910640 5.1403464379855430 9.5296681685909039 Ba
atom 5.0004569348927665 5.0004569348925854 9.5296681685901490 Ba
atom 2.7330716578391536 2.7330716578393854 9.9389887408964448 S
atom 7.4077317150400015 2.4269746807441184 9.9389887408964270 S
atom 2.4269746807444958 7.4077317150395725 9.9389887408982069 S
atom 7.8333548949933931 7.8333548949935539 9.9389887408958479 S
atom 2.6499679208382743 2.6499679208383307 13.0395075161782437 Ba
atom 7.4908354520413312 2.5100784177461057 13.0395075161787890 Ba
atom 2.5100784177453672 7.4908354520417415 13.0395075161789755 Ba
atom 7.7502511579937501 7.7502511579930013 13.0395075161801088 Ba
atom 2.5238107336688489 2.5238107336676112 17.6628331446050346 Ba
atom 7.6169926392102960 2.6362356049153237 17.6628331446048890 Ba
atom 2.6362356049178857 7.6169926392121816 17.6628331446054077 Ba
atom 7.6240939708211917 7.6240939708231386 17.6628331446050595 Ba
atom 5.1096130520482053 5.1096130520462300 15.1211977140307212 Zr
atom 10.1314735579866806 5.1507165236886427 15.1211977140283373 Zr
atom 5.1507165236886436 10.1314735579838171 15.1211977140371339 Zr
atom 10.2098962892033018 10.2098962892041403 15.1211977140272307 Zr
atom 5.1096130520481902 5.1096130520477274 20.2044685751885567 Zr
atom 10.1314735579845241 5.1507165236885069 20.2044685751841016 Zr
atom 5.1507165236891979 10.1314735579853039 20.2044685751866346 Zr
atom 10.2098962892017777 10.2098962892027743 20.2044685751882156 Zr
atom 4.9173531978928029 4.9173531978917575 12.6301869438784848 S
atom 10.3237334121414612 5.3429763778473580 12.6301869438744898 S
atom 5.3429763778463819 10.3237334121421984 12.6301869438762591 S
atom 10.0176364350466773 10.0176364350458709 12.6301869438778400 S
atom 5.3555356537259211 5.3555356537266734 17.6628331445973217 S
atom 9.8855509563086859 4.9047939220113612 17.6628331446148472 S
atom 4.9047939220110788 9.8855509563055737 17.6628331445987854 S
atom 10.4558188908808329 10.4558188908817780 17.6628331446037024 S
atom 5.0704016864406434 2.5800231692983986 15.4398751907321525 S
atom 10.1109218221642951 2.6397862707223272 14.9893144366459303 S
atom 5.1301647878691821 7.6205433050195310 14.9893144366468931 S
atom 10.1706849235951040 7.6803064064482420 15.4398751907317191 S
atom 5.0704016864404826 2.5800231692945550 19.8857910984794692 S
atom 10.1109218221630712 2.6397862707206583 20.3363518525598472 S
atom 5.1301647878678569 7.6205433050172884 20.3363518525648601 S
atom 10.1706849235947185 7.6803064064515674 19.8857910984749502 S
atom 2.5800231692857585 5.0704016864398040 15.4398751907310690 S
atom 7.6205433050215730 5.1301647878688286 14.9893144366469429 S
atom 2.6397862707218338 10.1109218221634123 14.9893144366482307 S
atom 7.6803064064469302 10.1706849235938979 15.4398751907304970 S
atom 2.5800231692936904 5.0704016864399586 19.8857910984767763 S
atom 7.6205433050166684 5.1301647878677699 20.3363518525599325 S
atom 2.6397862707258861 10.1109218221635508 20.3363518525621281 S
atom 7.6803064064465056 10.1706849235951040 19.8857910984796042 S
atom 2.6499679208401030 2.6499679208394453 22.2861587730362807 Ba
atom 7.4908354520395477 2.5100784177448543 22.2861587730372115 Ba
atom 2.5100784177441495 7.4908354520405904 22.2861587730339075 Ba
atom 7.7502511579952715 7.7502511579950815 22.2861587730367638 Ba
atom 4.9173531978928082 4.9173531978918357 22.6954793453275201 S
atom 10.3237334121417046 5.3429763778471813 22.6954793453380717 S
atom 5.3429763778453685 10.3237334121417206 22.6954793453199102 S
atom 10.0176364350464002 10.0176364350461906 22.6954793453320320 S
