#=======================================================
# FHI-aims file: full_relax/full_relax_RP_9_RxRy0_-Rx-Ry0.in
# Created using the Atomic Simulation Environment (ASE)
# Mon Mar 24 16:26:33 2025
#=======================================================
lattice_vector 10.0665437997996960 0.0970255112159431 -0.0000000000000849 
lattice_vector 0.0970255112159435 10.0665437997999003 0.0000000000000893 
lattice_vector -0.0000000000008227 0.0000000000008660 94.9264259207062082 
atom -0.0831914000441526 -0.0831914000309886 0.2671643425815077 Ba
atom 5.1164632999385509 0.1317041556405041 0.2671643425813188 Ba
atom 0.1317041556467344 5.1164632999321862 0.2671643425817431 Ba
atom 4.9985932554636534 4.9985932554768127 0.2671643425814998 Ba
atom -0.0078580162217151 -0.0078580162446144 4.9420253435428805 Ba
atom 5.0411299161379484 0.0563707718323080 4.9420253435430279 Ba
atom 0.0563707718460726 5.0411299161242225 4.9420253435432251 Ba
atom 5.0739266392861779 5.0739266392634192 4.9420253435432198 Ba
atom 2.5346343025078544 2.5346343025071016 2.3305955489067820 Zr
atom 7.5804222528985434 2.5956631086060757 2.3305955489065595 Zr
atom 2.5956631086068014 7.5804222528980141 2.3305955489067505 Zr
atom 7.6164189580155304 7.6164189580149317 2.3305955489066776 Zr
atom 2.5424884176401159 2.5424884176384146 7.3541257792998076 Zr
atom 7.5725681377672363 2.5878089934742130 7.3541257792993999 Zr
atom 2.5878089934752175 7.5725681377663294 7.3541257792996442 Zr
atom 7.6242730731478785 7.6242730731464148 7.3541257792999151 Zr
atom 2.7729636215160429 2.7729636215337168 -0.1558593284437224 S
atom 7.3420929338919958 2.3573337895779236 -0.1558593284438046 S
atom 2.3573337896002191 7.3420929338696350 -0.1558593284437437 S
atom 7.8547482770239077 7.8547482770414323 -0.1558593284440500 S
atom 2.2275654175766202 2.2275654175660069 4.8777783932169241 S
atom 7.8874911378238917 2.9027319935531244 4.8777783932164036 S
atom 2.9027319935318658 7.8874911378452346 4.8777783932167740 S
atom 7.3093500730844543 7.3093500730740617 4.8777783932163556 S
atom 2.5166359499444337 0.0242563778027997 2.1645800759490550 S
atom 7.5499078498557326 0.0727691334104609 2.7081695971172581 S
atom 2.5651487055639510 5.0575282777023585 2.7081695971177147 S
atom 7.5984206054522607 5.1060410333106354 2.1645800759491598 S
atom 2.5166359499360027 0.0242563778026413 7.7097995335357918 S
atom 7.5499078498635308 0.0727691334106521 7.0186924687930778 S
atom 2.5651487055716462 5.0575282777028843 7.0186924687933550 S
atom 7.5984206054438523 5.1060410333109232 7.7097995335356604 S
atom 0.0242563778032854 2.5166359499534425 2.1645800759672662 S
atom 5.0575282777033195 2.5651487055499551 2.7081695971035473 S
atom 0.0727691334115563 7.5499078498418859 2.7081695971035611 S
atom 5.1060410333109747 7.5984206054614036 2.1645800759671623 S
atom 0.0242563778032635 2.5166359499621107 7.7097995335254170 S
atom 5.0575282777033079 2.5651487055423448 7.0186924688035939 S
atom 0.0727691334114761 7.5499078498343390 7.0186924688035015 S
atom 5.1060410333110395 7.5984206054700048 7.7097995335250999 S
atom 0.0343685249514796 0.0343685249635711 9.8523387435461878 Ba
atom 4.9989033749377008 0.0141442306514816 9.8523387435459053 Ba
atom 0.0141442306459736 4.9989033749436009 9.8523387435459835 Ba
atom 5.1161531804592704 5.1161531804714997 9.8523387435458716 Ba
atom -0.0356156212487932 -0.0356156212158587 14.8091727363031165 Ba
atom 5.0688875211113507 0.0841283768578645 14.8091727363028216 Ba
atom 0.0841283768193068 5.0688875211495956 14.8091727363028660 Ba
atom 5.0461690342589423 5.0461690342917684 14.8091727363031520 Ba
atom 2.5414827599778125 2.5414827599869234 12.3214488202992509 Zr
atom 7.5735737954191702 2.5888146511363046 12.3214488202994250 Zr
atom 2.5888146511273247 7.5735737954281834 12.3214488202991070 Zr
atom 7.6232674154856044 7.6232674154948405 12.3214488202991319 Zr
atom 2.5407020282488557 2.5407020282435457 17.2853971397085644 Zr
atom 7.5743545271622503 2.5895953828649318 17.2853971397088948 Zr
atom 2.5895953828704723 7.5743545271570660 17.2853971397087633 Zr
atom 7.6224866837566525 7.6224866837514220 17.2853971397082695 Zr
atom 2.8910280534660520 2.8910280534738955 9.8444340865292617 S
atom 7.2240285019417199 2.2392693576382201 9.8444340865295050 S
atom 2.2392693576497833 7.2240285019304959 9.8444340865302511 S
atom 7.9728127089737306 7.9728127089819427 9.8444340865292244 S
atom 2.1867526959437358 2.1867526959251569 14.8057166606845598 S
atom 7.9283038594729192 2.9435447151781715 14.8057166606844959 S
atom 2.9435447151814560 7.9283038594701747 14.8057166606837320 S
atom 7.2685373514510134 7.2685373514331086 14.8057166606840784 S
atom 2.5166359499516018 0.0242563778061768 11.9643527799105627 S
atom 7.5499078498341525 0.0727691334141694 12.6922934510132119 S
atom 2.5651487055422364 5.0575282777055177 12.6922934510133061 S
atom 7.5984206054594301 5.1060410333139092 11.9643527799102589 S
atom 2.5166359499915303 0.0242563778009224 17.6530801720250707 S
atom 7.5499078498142191 0.0727691334095378 16.9220823009169159 S
atom 2.5651487055223017 5.0575282777018522 16.9220823009166885 S
atom 7.5984206054992995 5.1060410333097277 17.6530801720250139 S
atom 0.0242563778004374 2.5166359499467195 11.9643527799170766 S
atom 5.0575282777001842 2.5651487055719548 12.6922934510064334 S
atom 0.0727691334079232 7.5499078498639145 12.6922934510067158 S
atom 5.1060410333082480 7.5984206054545185 11.9643527799168439 S
atom 0.0242563778052059 2.5166359499061941 17.6530801720184840 S
atom 5.0575282777034687 2.5651487055913496 16.9220823009238970 S
atom 0.0727691334120937 7.5499078498834091 16.9220823009236128 S
atom 5.1060410333124544 7.5984206054141916 17.6530801720188393 S
atom 0.0361468445665209 0.0361468445025157 19.7678550079253483 Ba
atom 4.9971250553989801 0.0123659110363252 19.7678550079250890 Ba
atom 0.0123659111069165 4.9971250553279702 19.7678550079250535 Ba
atom 5.1179315000745129 5.1179315000104983 19.7678550079255118 Ba
atom -0.0361468445679079 -0.0361468445047510 24.7289071424353502 Ba
atom 5.0694187443973231 0.0846596001794670 24.7289071424350446 Ba
atom 0.0846596001056790 5.0694187444718652 24.7289071424351583 Ba
atom 5.0456378109399047 5.0456378110034068 24.7289071424350020 Ba
atom 2.5408923277528057 2.5408923277533186 22.2483810751797968 Zr
atom 7.5741642276526768 2.5894050833613917 22.2483810751799354 Zr
atom 2.5894050833606621 7.5741642276534051 22.2483810751802977 Zr
atom 7.6226769832605834 7.6226769832612016 22.2483810751801272 Zr
atom 2.5410826272567659 2.5410826272631950 27.2113650106522655 Zr
atom 7.5739739281431175 2.5892147838572237 27.2113650106523686 Zr
atom 2.5892147838512583 7.5739739281492211 27.2113650106520097 Zr
atom 7.6228672827645454 7.6228672827710628 27.2113650106525995 Zr
atom 2.8956747259518747 2.8956747259852191 19.7675609110634589 S
atom 7.2193818294307688 2.2346226851525830 19.7675609110608974 S
atom 2.2346226851384472 7.2193818294443979 19.7675609110629829 S
atom 7.9774593814596875 7.9774593814927970 19.7675609110632671 S
atom 2.1861099295559021 2.1861099295192630 24.7292012392971898 S
atom 7.9289466258719807 2.9441874815731550 24.7292012392981171 S
atom 2.9441874815793909 7.9289466258653682 24.7292012392975167 S
atom 7.2678945850639458 7.2678945850272578 24.7292012392965646 S
atom 2.5166359499998245 0.0242563778031105 21.8823684427562846 S
atom 7.5499078497977852 0.0727691334128495 22.6143937076031669 S
atom 2.5651487055059059 5.0575282777044102 22.6143937076029751 S
atom 7.5984206055076440 5.1060410333098565 21.8823684427568743 S
atom 2.5166359499845319 0.0242563778044059 27.5746798494470973 S
atom 7.5499078498050958 0.0727691334134481 26.8436819783297871 S
atom 2.5651487055132831 5.0575282777059964 26.8436819783294993 S
atom 7.5984206054923611 5.1060410333129376 27.5746798494471577 S
atom 0.0242563778029035 2.5166359498985118 21.8823684427666727 S
atom 5.0575282777024180 2.5651487056083138 22.6143937075938766 S
atom 0.0727691334101053 7.5499078499004266 22.6143937075938801 S
atom 5.1060410333113184 7.5984206054064654 21.8823684427669001 S
atom 0.0242563778019561 2.5166359499137374 27.5746798494323002 S
atom 5.0575282777001114 2.5651487056009965 26.8436819783461758 S
atom 0.0727691334082904 7.5499078498929135 26.8436819783469538 S
atom 5.1060410333097783 7.5984206054215502 27.5746798494320906 S
atom 0.0356156212456633 0.0356156212150590 29.6875894140568306 Ba
atom 4.9976562786919070 0.0128971343514358 29.6875894140568839 Ba
atom 0.0128971343999341 4.9976562786435101 29.6875894140572889 Ba
atom 5.1174002767536590 5.1174002767232443 29.6875894140570651 Ba
atom -0.0343685249580481 -0.0343685249604714 34.6444234068141483 Ba
atom 5.0676404248442202 0.0828812805787588 34.6444234068142762 Ba
atom 0.0828812805520966 5.0676404248703761 34.6444234068138002 Ba
atom 5.0474161305499283 5.0474161305472673 34.6444234068140418 Ba
atom 2.5403018955261820 2.5403018955212673 32.1753133300611793 Zr
atom 7.5747546598841664 2.5899955155883996 32.1753133300616767 Zr
atom 2.5899955155921197 7.5747546598803641 32.1753133300608738 Zr
atom 7.6220865510338474 7.6220865510292732 32.1753133300609591 Zr
atom 2.5392962378645798 2.5392962378690180 37.1426363710595453 Zr
atom 7.5757603175378740 2.5910011732483165 37.1426363710599645 Zr
atom 2.5910011732461320 7.5757603175402730 37.1426363710600569 Zr
atom 7.6210808933724463 7.6210808933768286 37.1426363710597940 Zr
atom 2.8950319595515901 2.8950319595918024 29.6910454896767320 S
atom 7.2200245958396643 2.2352654515371704 29.6910454896764229 S
atom 2.2352654515481030 7.2200245958289804 29.6910454896761706 S
atom 7.9768166150587954 7.9768166150996267 29.6910454896768954 S
atom 2.1907566020594227 2.1907566020131970 34.6523280638301330 S
atom 7.9242999533488856 2.9395408090981627 34.6523280638296072 S
atom 2.9395408090570405 7.9242999533904062 34.6523280638298132 S
atom 7.2725412575671866 7.2725412575212429 34.6523280638299624 S
atom 2.5166359499700577 0.0242563778018880 31.8044686993359598 S
atom 7.5499078498345007 0.0727691334104529 32.5324093704596748 S
atom 2.5651487055427036 5.0575282777022394 32.5324093704595114 S
atom 7.5984206054778829 5.1060410333098973 31.8044686993364891 S
atom 2.5166359499482964 0.0242563778040235 37.4780696815845218 S
atom 7.5499078498453640 0.0727691334115276 36.7869626168084949 S
atom 2.5651487055534763 5.0575282777044546 36.7869626168077204 S
atom 7.5984206054559653 5.1060410333127821 37.4780696815851115 S
atom 0.0242563778043628 2.5166359499279043 31.8044686993647971 S
atom 5.0575282777034660 2.5651487055711804 32.5324093704335269 S
atom 0.0727691334119129 7.5499078498632679 32.5324093704333492 S
atom 5.1060410333121684 7.5984206054358774 31.8044686993649464 S
atom 0.0242563778019848 2.5166359499498583 37.4780696815404966 S
atom 5.0575282777015822 2.5651487055606057 36.7869626168532022 S
atom 0.0727691334097875 7.5499078498524925 36.7869626168523993 S
atom 5.1060410333096016 7.5984206054577177 37.4780696815400916 S
atom 0.0078580162207093 0.0078580162422188 39.5547368068178216 Ba
atom 5.0254138836738358 0.0406547393671578 39.5547368068179708 Ba
atom 0.0406547393820308 5.0254138836591915 39.5547368068182053 Ba
atom 5.0896426717284990 5.0896426717502568 39.5547368068181981 Ba
atom 0.0831914000529086 0.0831914000181583 44.2295978077804719 Ba
atom 4.9500804998447068 -0.0346786444118052 44.2295978077806566 Ba
atom -0.0346786444469756 4.9500804998799817 44.2295978077807703 Ba
atom 5.1649760555603255 5.1649760555259814 44.2295978077810048 Ba
atom 2.5471503529966379 2.5471503530001347 42.1661666014557639 Zr
atom 7.5679062024072348 2.5831470581156384 42.1661666014563536 Zr
atom 2.5831470581152915 7.5679062024075563 42.1661666014557852 Zr
atom 7.6289350085044827 7.6289350085080221 42.1661666014559913 Zr
atom 2.8542192379026177 2.8542192379669249 39.6189837571437735 S
atom 7.2608373175018670 2.2760781731485324 39.6189837571417698 S
atom 2.2760781732097395 7.2608373174404779 39.6189837571446120 S
atom 7.9360038934107688 7.9360038934745463 39.6189837571452799 S
atom 2.3088210340091297 2.3088210339535742 44.6526214788076743 S
atom 7.8062355213928969 2.8214763771640814 44.6526214788076885 S
atom 2.8214763771013147 7.8062355214561050 44.6526214788071059 S
atom 7.3906056895166552 7.3906056894610668 44.6526214788078732 S
atom 2.5166359499465609 0.0242563778045927 41.7885925532272751 S
atom 7.5499078498492560 0.0727691334124225 42.3321820744353516 S
atom 2.5651487055573319 5.0575282777036232 42.3321820744350532 S
atom 7.5984206054544297 5.1060410333113628 41.7885925532276232 S
atom 0.0242563778015003 2.5166359499512918 41.7885925532733111 S
atom 5.0575282777022137 2.5651487055565370 42.3321820743706851 S
atom 0.0727691334101040 7.5499078498484096 42.3321820743706070 S
atom 5.1060410333097561 7.5984206054592818 41.7885925532728422 S
atom 2.6240837277690190 2.6240837278099369 47.7303773029335545 Ba
atom 7.4909728276191743 2.5062136833216573 47.7303773029334266 Ba
atom 2.5062136833277209 7.4909728276132892 47.7303773029335900 Ba
atom 7.7058683832768278 7.7058683833175845 47.7303773029334550 Ba
atom 2.5487503440878996 2.5487503438818990 52.4052383038970575 Ba
atom 7.5663062115114359 2.5815470670376093 52.4052383038966383 Ba
atom 2.5815470672194198 7.5663062113296142 52.4052383038970504 Ba
atom 7.6305349995962048 7.6305349993902514 52.4052383038963328 Ba
atom 5.0880426807562040 5.0880426807485657 49.7938085092603728 Zr
atom 10.1087985301644618 5.1240393858661548 49.7938085092595415 Zr
atom 5.1240393858725577 10.1087985301582961 49.7938085092597049 Zr
atom 10.1698273362641061 10.1698273362564500 49.7938085092599607 Zr
atom 5.0801885656082026 5.0801885656327812 54.8173387396544243 Zr
atom 10.1166526452797374 5.1318935010140843 54.8173387396539411 Zr
atom 5.1318935009880118 10.1166526453059333 54.8173387396541045 Zr
atom 10.1619732211158169 10.1619732211406468 54.8173387396535858 Zr
atom 4.8497133617161170 4.8497133617539783 47.3073536319080574 S
atom 10.3471278492029910 5.3623687048623401 47.3073536319079295 S
atom 5.3623687049107085 10.3471278491548464 47.3073536319080077 S
atom 9.9314980172239373 9.9314980172617222 47.3073536319077377 S
atom 5.3951115656799127 5.3951115656973938 52.3409913535708213 S
atom 9.8017296451744649 4.8169705009837012 52.3409913535696063 S
atom 4.8169705008828130 9.8017296452751719 52.3409913535709279 S
atom 10.4768962211876104 10.4768962212046723 52.3409913535696134 S
atom 5.0575282777584976 2.5651487055538720 50.1713825574483465 S
atom 10.0908001775723193 2.6136614611639821 49.6277930363338058 S
atom 5.1060410332805928 7.5984206054561509 49.6277930363336139 S
atom 10.1393129332664120 7.6469333610617891 50.1713825574476999 S
atom 5.0575282778950443 2.5651487055625184 54.4819054291667371 S
atom 10.0908001773628229 2.6136614611768993 55.1730124938687396 S
atom 5.1060410330712207 7.5984206054683510 55.1730124938697344 S
atom 10.1393129334025911 7.6469333610698786 54.4819054291671705 S
atom 2.5651487055602500 5.0575282776472337 50.1713825574807544 S
atom 7.5984206054575036 5.1060410333413282 49.6277930362900221 S
atom 2.6136614611659734 10.0908001776333105 49.6277930362895319 S
atom 7.6469333610675347 10.1393129331552370 50.1713825574798236 S
atom 2.5651487055509783 5.0575282775105492 54.4819054291375906 S
atom 7.5984206054448089 5.1060410335502961 55.1730124938994635 S
atom 2.6136614611526157 10.0908001778420235 55.1730124938985469 S
atom 7.6469333610591734 10.1393129330183633 54.4819054291372353 S
atom 2.5065238026058450 2.5065238029826542 57.3155517038994660 Ba
atom 7.6085327524322324 2.6237736084976966 57.3155517038999420 Ba
atom 2.6237736081403287 7.6085327527895092 57.3155517038998568 Ba
atom 7.5883084581138771 7.5883084584909950 57.3155517039004323 Ba
atom 2.5765079492076199 2.5765079487610989 62.2723856966576577 Ba
atom 7.5385486066373151 2.5537894619131229 62.2723856966568761 Ba
atom 2.5537894623455570 7.5385486062051239 62.2723856966562508 Ba
atom 7.6582926047153803 7.6582926042685777 62.2723856966562295 Ba
atom 5.0811942232813800 5.0811942232733900 59.7846617806534724 Zr
atom 10.1156469876399040 5.1308878433392922 59.7846617806537068 Zr
atom 5.1308878433479821 10.1156469876317754 59.7846617806529466 Zr
atom 10.1629788787892643 10.1629788787814253 59.7846617806526126 Zr
atom 5.0819749550111366 5.0819749550163236 64.7486101000633596 Zr
atom 10.1148662558972848 5.1301071116105632 64.7486101000623364 Zr
atom 5.1301071116056915 10.1148662559023705 64.7486101000622938 Zr
atom 10.1637596105188095 10.1637596105233374 64.7486101000631891 Zr
atom 4.7316489298346776 4.7316489297446394 57.3076470468838721 S
atom 10.4651922811978420 5.4804331367566750 57.3076470468842700 S
atom 5.4804331369055808 10.4651922810493403 57.3076470468831189 S
atom 9.8134335853426293 9.8134335852533354 57.3076470468817618 S
atom 5.4359242872602396 5.4359242873904021 62.2689296210384668 S
atom 9.7609169235020108 4.7761577793818510 62.2689296210358947 S
atom 4.7761577792110321 9.7609169236734949 62.2689296210380832 S
atom 10.5177089427687296 10.5177089428977375 62.2689296210382182 S
atom 5.0575282780041153 2.5651487055500604 60.1555064113542528 S
atom 10.0908001773185436 2.6136614611654254 59.4275657402770747 S
atom 5.1060410330264787 7.5984206054585561 59.4275657402775153 S
atom 10.1393129335120662 7.6469333610592090 60.1555064113525901 S
atom 5.0575282780241828 2.5651487055543178 64.3852952612822662 S
atom 10.0908001772736444 2.6136614611727285 65.1162931323669483 S
atom 5.1060410329820467 7.5984206054618060 65.1162931323690657 S
atom 10.1393129335318797 7.6469333610611034 64.3852952612813709 S
atom 2.5651487055634057 5.0575282774008823 60.1555064113740556 S
atom 7.5984206054545025 5.1060410335946367 59.4275657402581388 S
atom 2.6136614611628701 10.0908001778865390 59.4275657402576840 S
atom 7.6469333610705732 10.1393129329091067 60.1555064113732882 S
atom 2.5651487055595892 5.0575282773819854 64.3852952612668190 S
atom 7.5984206054507331 5.1060410336401514 65.1162931323840581 S
atom 2.6136614611594791 10.0908001779314489 65.1162931323833902 S
atom 7.6469333610671431 10.1393129328892329 64.3852952612664353 S
atom 2.5047454829816647 2.5047454834527096 67.2310679682783672 Ba
atom 7.6103110719595106 2.6255519281253443 67.2310679682789072 Ba
atom 2.6255519276673112 7.6103110724169714 67.2310679682793904 Ba
atom 7.5865301384899411 7.5865301389608275 67.2310679682801720 Ba
atom 2.5770391725102071 2.5770391720655312 72.1921201027904402 Ba
atom 7.5380173833322468 2.5532582386098492 72.1921201027903408 Ba
atom 2.5532582390400469 7.5380173829022192 72.1921201027896444 Ba
atom 7.6588238280189094 7.6588238275742411 72.1921201027895449 Ba
atom 5.0817846555036157 5.0817846555097805 69.7115940355343184 Zr
atom 10.1150565554034841 5.1302974111176081 69.7115940355344605 Zr
atom 5.1302974111112727 10.1150565554099643 69.7115940355351000 Zr
atom 10.1635693110114165 10.1635693110178842 69.7115940355344179 Zr
atom 5.0815943560026762 5.0815943559968293 74.6745779710071389 Zr
atom 10.1152468549164247 5.1304877106184694 74.6745779710079347 Zr
atom 5.1304877106246485 10.1152468549101275 74.6745779710076505 Zr
atom 10.1633790115109601 10.1633790115047784 74.6745779710054762 Zr
atom 4.7270022573585067 4.7270022572241324 67.2307738714188758 S
atom 10.4698389537080505 5.4850798092434427 67.2307738714171990 S
atom 5.4850798094163471 10.4698389535365681 67.2307738714170995 S
atom 9.8087869128669265 9.8087869127322396 67.2307738714145273 S
atom 5.4365670536577362 5.4365670537873418 72.1924141996510542 S
atom 9.7602741571051332 4.7755150129850366 72.1924141996519637 S
atom 4.7755150128143793 9.7602741572761627 72.1924141996506989 S
atom 10.5183517091649126 10.5183517092937588 72.1924141996537685 S
atom 5.0575282780222288 2.5651487055539826 70.0776066679464691 S
atom 10.0908001772751170 2.6136614611702789 69.3455814031237168 S
atom 5.1060410329829189 7.5984206054638648 69.3455814031247257 S
atom 10.1393129335301087 7.6469333610639447 70.0776066679441527 S
atom 5.0575282780043160 2.5651487055507007 74.3068949387028823 S
atom 10.0908001773120830 2.6136614611669522 75.0378928097850633 S
atom 5.1060410330203192 7.5984206054600127 75.0378928097871096 S
atom 10.1393129335120769 7.6469333610587720 74.3068949387029818 S
atom 2.5651487055578706 5.0575282773829908 70.0776066679614758 S
atom 7.5984206054503050 5.1060410336380722 69.3455814031081701 S
atom 2.6136614611564553 10.0908001779306176 69.3455814031083690 S
atom 7.6469333610685171 10.1393129328911584 70.0776066679605378 S
atom 2.5651487055635309 5.0575282774011079 74.3068949386840245 S
atom 7.5984206054535219 5.1060410336009907 75.0378928098051432 S
atom 2.6136614611633346 10.0908001778927403 75.0378928098036937 S
atom 7.6469333610693022 10.1393129329087035 74.3068949386840814 S
atom 2.5052767063214292 2.5052767067202151 77.1508023744124642 Ba
atom 7.6097798486940125 2.6250207047824312 77.1508023744127769 Ba
atom 2.6250207044018024 7.6097798490745916 77.1508023744129048 Ba
atom 7.5870613618297300 7.5870613622291483 77.1508023744132174 Ba
atom 2.5752608528710290 2.5752608525513154 82.1076363671709117 Ba
atom 7.5397957028416913 2.5550365582545242 82.1076363671696754 Ba
atom 2.5550365585507326 7.5397957025469120 82.1076363671705280 Ba
atom 7.6570455083788653 7.6570455080594817 82.1076363671703149 Ba
atom 5.0823750877299467 5.0823750877422889 79.6385262904181559 Zr
atom 10.1144661231707520 5.1297069788918952 79.6385262904176869 Zr
atom 5.1297069788790530 10.1144661231843340 79.6385262904153137 Zr
atom 10.1641597432376685 10.1641597432502344 79.6385262904170048 Zr
atom 5.0833807454016009 5.0833807453845017 84.6058493314153708 Zr
atom 10.1134604655294904 5.1287013212196744 84.6058493314166071 Zr
atom 5.1287013212374655 10.1134604655110678 84.6058493314150866 Zr
atom 10.1651654009091086 10.1651654008926435 84.6058493314170050 Zr
atom 4.7276450237381384 4.7276450236368825 77.1542584500326143 S
atom 10.4691961873030621 5.4844370428551628 77.1542584500306674 S
atom 5.4844370430098381 10.4691961871484001 77.1542584500326285 S
atom 9.8094296792476836 9.8094296791448290 77.1542584500316337 S
atom 5.4319203811903511 5.4319203812569921 82.1155410241879906 S
atom 9.7649208296181502 4.7801616854689595 82.1155410241841111 S
atom 4.7801616853275970 9.7649208297611629 82.1155410241861716 S
atom 10.5137050366964822 10.5137050367659253 82.1155410241879622 S
atom 5.0575282779432271 2.5651487055577640 79.9956223307898711 S
atom 10.0908001773399700 2.6136614611724007 79.2676816597193152 S
atom 5.1060410330478510 7.5984206054642716 79.2676816597190310 S
atom 10.1393129334514231 7.6469333610654910 79.9956223307900842 S
atom 5.0575282779032369 2.5651487055482081 84.2501755772041889 S
atom 10.0908001774386964 2.6136614611631050 84.9412826419003153 S
atom 5.1060410331467052 7.5984206054547370 84.9412826418993632 S
atom 10.1393129334110519 7.6469333610557912 84.2501755772031800 S
atom 2.5651487055563855 5.0575282774618859 79.9956223308159622 S
atom 7.5984206054482994 5.1060410335731943 79.2676816596929683 S
atom 2.6136614611566995 10.0908001778652245 79.2676816596934657 S
atom 7.6469333610635868 10.1393129329696112 79.9956223308132195 S
atom 2.5651487055634319 5.0575282775025627 84.2501755771686902 S
atom 7.5984206054609249 5.1060410334747779 84.9412826419372351 S
atom 2.6136614611682734 10.0908001777670329 84.9412826419354303 S
atom 7.6469333610720618 10.1393129330106966 84.2501755771681502 S
atom 2.5330343114298191 2.5330343116117375 87.0179497671735476 Ba
atom 7.5820222438082387 2.5972630996690134 87.0179497671735618 Ba
atom 2.5972630995167578 7.5820222439618270 87.0179497671731212 Ba
atom 7.6148189669374995 7.6148189671193638 87.0179497671737465 Ba
atom 2.4577009277352571 2.4577009276976689 91.6928107681346063 Ba
atom 7.6573556276817802 2.6725964834051914 91.6928107681343505 Ba
atom 2.6725964833895004 7.6573556276968411 91.6928107681345494 Ba
atom 7.5394855832427501 7.5394855832053063 91.6928107681345637 Ba
atom 5.0755266302557560 5.0755266302668405 89.6293795618103104 Zr
atom 10.1213145806479776 5.1365554363646613 89.6293795618093725 Zr
atom 5.1365554363559927 10.1213145806564526 89.6293795618099693 Zr
atom 10.1573112857635639 10.1573112857749646 89.6293795618105946 Zr
atom 4.7684577453236425 4.7684577453270620 87.0821967174957194 S
atom 10.4283834656356351 5.4436243212500610 87.0821967175021570 S
atom 5.4436243213434361 10.4283834655404899 87.0821967175027538 S
atom 9.8502424008314176 9.8502424008343450 87.0821967174977374 S
atom 5.3138559492960109 5.3138559492604927 92.1158344391618158 S
atom 9.8829852616089706 4.8982261173689494 92.1158344391608779 S
atom 4.8982261173163035 9.8829852616610641 92.1158344391619863 S
atom 10.3956406048040257 10.3956406047695786 92.1158344391605510 S
atom 5.0575282777267399 2.5651487055603952 89.7953950347329055 S
atom 10.0908001775536764 2.6136614611690026 89.2518055136225144 S
atom 5.1060410332618051 7.5984206054601291 89.2518055136231396 S
atom 10.1393129332342671 7.6469333610680428 89.7953950347340992 S
atom 2.5651487055548960 5.0575282776789363 89.7953950347831551 S
atom 7.5984206054521115 5.1060410333597446 89.2518055135886499 S
atom 2.6136614611599938 10.0908001776517313 89.2518055135882946 S
atom 7.6469333610622146 10.1393129331869183 89.7953950347827003 S
