#=======================================================
# FHI-aims file: full_relax/full_relax_RP_2_Rx0Mz_0Ry0.in
# Created using the Atomic Simulation Environment (ASE)
# Fri Mar 14 11:17:58 2025
#=======================================================
lattice_vector 10.0975490469445646 0.0000000000000011 -0.0000000000000008 
lattice_vector 0.0000000000000011 10.0975455358613591 0.0000000000000003 
lattice_vector -0.0000000000000021 0.0000000000000009 25.4732416987696269 
atom -0.1651914735854059 -0.0000000000000730 0.2875206985340880 Ba
atom 5.2139717447949936 -0.0000000000000772 0.2875143583068005 Ba
atom 0.1651972213227458 5.0487727679305969 0.2875143583068130 Ba
atom 4.8835830498869450 5.0487727679305738 0.2875206985341073 Ba
atom 0.0439922529652322 -0.0000000000000881 4.8987003266850051 Ba
atom 5.0047673161605895 -0.0000000000000757 4.8987003266850211 Ba
atom -0.0440072073116763 5.0487727679306049 4.8987003266850238 Ba
atom 5.0927667764375046 5.0487727679305863 4.8987003266850051 Ba
atom 2.5243860722791061 2.5043314871070019 2.3639536537231787 Zr
atom 7.5731605957513777 2.5444412808234960 2.3639536537231440 Zr
atom 2.5243860722791114 7.5932140487541977 2.3639536537231662 Zr
atom 7.5731605957513626 7.5531042550377130 2.3639536537231161 Zr
atom 2.5243860722790989 2.5043314871070570 7.4334469996468737 Zr
atom 7.5731605957513723 2.5444412808235373 7.4334469996468053 Zr
atom 2.5243860722790834 7.5932140487541799 7.4334469996468577 Zr
atom 7.5731605957513901 7.5531042550376926 7.4334469996468329 Zr
atom 2.5243933641884593 2.8072835933238065 -0.1225258534100182 S
atom 7.5731678876606399 2.2414891746067065 -0.1225258534099775 S
atom 2.5243933641884562 7.2902619425373683 -0.1225258534100096 S
atom 7.5731678876606576 7.8560563612545158 -0.1225258534099982 S
atom 2.5243922618526149 2.1093353122678375 4.8987003266849838 S
atom 7.5731667853249371 2.9394374556626865 4.8987003266850158 S
atom 2.5243922618526411 7.9882102235933692 4.8987003266849891 S
atom 7.5731667853249176 7.1581080801985166 4.8987003266850513 S
atom 2.5243845154182711 -0.0000000000000984 2.0833836287922263 S
atom 7.5731595201793933 -0.0000000000000837 2.7784181910472028 S
atom 2.5243849967071030 5.0487727679305667 2.7784181910471983 S
atom 7.5731590388905854 5.0487727679305996 2.0833836287922005 S
atom 2.5243845154182778 -0.0000000000000906 7.7140170245777684 S
atom 7.5731595201793880 -0.0000000000000906 7.0189824623228025 S
atom 2.5243849967071132 5.0487727679305712 7.0189824623228256 S
atom 7.5731590388905481 5.0487727679305756 7.7140170245777933 S
atom 0.0000030803108026 2.5243904034174665 2.4788152580699747 S
atom 5.0487776037831091 2.5243823645130541 2.4788152580700369 S
atom 0.0000030803108174 7.5731551324437376 2.4788152580699827 S
atom 5.0487776037831198 7.5731631713481349 2.4788152580699991 S
atom 0.0000030803108143 2.5243904034174838 7.3185853953000226 S
atom 5.0487776037831029 2.5243823645130554 7.3185853952999862 S
atom 0.0000030803108268 7.5731551324437305 7.3185853953000022 S
atom 5.0487776037831136 7.5731631713481438 7.3185853953000004 S
atom -0.1651914735853643 -0.0000000000000854 9.5098799548358564 Ba
atom 5.2139717447950051 -0.0000000000000861 9.5098862950631471 Ba
atom 0.1651972213227572 5.0487727679305987 9.5098862950631471 Ba
atom 4.8835830498868775 5.0487727679305792 9.5098799548358475 Ba
atom 2.5243933641884206 2.8072835933237905 9.9199265067798876 S
atom 7.5731678876606816 2.2414891746066870 9.9199265067799889 S
atom 2.5243933641884211 7.2902619425374091 9.9199265067799445 S
atom 7.5731678876606976 7.8560563612545131 9.9199265067799356 S
atom 2.5243761563069960 2.6895731991071350 13.0241314178142424 Ba
atom 7.5731506797792525 2.3591995688233145 13.0241314178142265 Ba
atom 2.5243761563070084 7.4079723367540318 13.0241314178142353 Ba
atom 7.5731506797792525 7.7383459670378283 13.0241314178141945 Ba
atom 2.5244291516274608 2.4803502183150399 17.6353211760697555 Ba
atom 7.5732036750998102 2.5684225496154252 17.6353211760696951 Ba
atom 2.5244291516274409 7.6171953175460407 17.6353211760697448 Ba
atom 7.5732036750997551 7.5291229862457607 17.6353211760696880 Ba
atom 5.0688230651930475 5.0487727679305650 15.1005724607483298 Zr
atom 10.0774883266702950 5.0487727679305747 15.1005719194124470 Zr
atom 5.0287138031980243 10.0975455358612454 15.1005719194124239 Zr
atom 10.1175975886652516 10.0975455358612027 15.1005724607482197 Zr
atom 5.0688230651929649 5.0487727679305587 20.1700698913911651 Zr
atom 10.0774883266703270 5.0487727679305925 20.1700704327270088 Zr
atom 5.0287138031979595 10.0975455358613111 20.1700704327270159 Zr
atom 10.1175975886652534 10.0975455358612489 20.1700698913913179 Zr
atom 4.7658630199158818 5.0487727679305561 12.6140898339811791 S
atom 10.3804613787843252 5.0487727679305774 12.6140913822484819 S
atom 5.3316868553119834 10.0975455358612543 12.6140913822485299 S
atom 9.8146375433881374 10.0975455358612560 12.6140898339811720 S
atom 5.4638386923851732 5.0487727679305898 17.6353211760696453 S
atom 9.6825251769032139 5.0487727679306449 17.6353211760699402 S
atom 4.6337506534308917 10.0975455358612152 17.6353211760696134 S
atom 10.5126132158574066 10.0975455358612027 17.6353211760697910 S
atom 5.0487581166240014 2.5243875503415940 15.2154297348248715 S
atom 10.0975326400962420 2.5243852175889332 15.2154297348248697 S
atom 5.0487581166239721 7.5731579855195381 15.2154297348248715 S
atom 10.0975326400962597 7.5731603182722811 15.2154297348247916 S
atom 5.0487581166239668 2.5243875503415634 20.0552126173145524 S
atom 10.0975326400961993 2.5243852175888870 20.0552126173144956 S
atom 5.0487581166239242 7.5731579855195550 20.0552126173146767 S
atom 10.0975326400962526 7.5731603182722651 20.0552126173146270 S
atom 2.5243827025982828 5.0487727679305427 15.5150658514376740 S
atom 7.5731564338921906 5.0487727679305809 14.8200226926031142 S
atom 2.5243819104198302 10.0975455358612685 14.8200226926031533 S
atom 7.5731572260706175 10.0975455358612525 15.5150658514376634 S
atom 2.5243827025984444 5.0487727679305721 19.7555765007018316 S
atom 7.5731564338920965 5.0487727679306165 20.4506196595363363 S
atom 2.5243819104199137 10.0975455358613146 20.4506196595363683 S
atom 7.5731572260705242 10.0975455358612578 19.7555765007017641 S
atom 2.5243761563069711 2.6895731991071394 22.2465109343253218 Ba
atom 7.5731506797792321 2.3591995688233598 22.2465109343253218 Ba
atom 2.5243761563069831 7.4079723367540247 22.2465109343253360 Ba
atom 7.5731506797792507 7.7383459670378469 22.2465109343253076 Ba
atom 4.7658630199159067 5.0487727679305259 22.6565525181583283 S
atom 10.3804613787843074 5.0487727679305650 22.6565509698909402 S
atom 5.3316868553119745 10.0975455358613200 22.6565509698909757 S
atom 9.8146375433880682 10.0975455358613111 22.6565525181582110 S
