#=======================================================
# FHI-aims file: full_relax/full_relax_RP_3_RxRyRz_RxRy-Rz.in
# Created using the Atomic Simulation Environment (ASE)
# Fri Mar 14 11:21:14 2025
#=======================================================
lattice_vector 10.0277134601695650 -0.0250413065963454 0.0000000000481154 
lattice_vector -0.0250413065964345 10.0277134602071705 0.0000000000517891 
lattice_vector 0.0000000001747510 0.0000000001881206 35.7906316923706314 
atom 0.0572341338488270 -0.1697983508113140 0.2312141538065494 Ba
atom 5.1836550838038038 -0.0697547768804640 0.2312141726246065 Ba
atom 0.1572777063774444 4.9566225914257176 0.2312141513063478 Ba
atom 5.0585702022999905 4.8315377122043017 0.2312141856218518 Ba
atom -0.2433809389424122 0.1831473112729607 4.9862797332533475 Ba
atom 4.8307094186318613 0.2308602726657125 4.9862797401698034 Ba
atom -0.1956679762584489 5.2572376748070146 4.9862797359292523 Ba
atom 4.7579551419657600 5.1844834049287662 4.9862797444504148 Ba
atom 2.4915119905644887 2.4957639760285653 2.3997201618772643 Zr
atom 7.5194288228083197 2.4973034041867708 2.3997201918534468 Zr
atom 2.4930514315762413 7.5236808365989392 2.3997202157928541 Zr
atom 7.4928480855436552 7.4971000706879831 2.3997202106226987 Zr
atom 2.5006680186649839 2.5006680515572701 7.4563815934794802 Zr
atom 7.5145247497699517 2.4881474198730209 7.4563815876853088 Zr
atom 2.4881474389807474 7.5145247864402638 7.4563816082804086 Zr
atom 7.5020040699131263 7.5020041100829760 7.4563815426163078 Zr
atom 2.6265864154017362 2.7192825092769586 -0.1054289134084138 S
atom 7.2959102921881840 2.3622290009997631 -0.1054289116872031 S
atom 2.2695329140437539 7.3886063897812093 -0.1054288753300785 S
atom 7.6279224826517416 7.7206185770567188 -0.1054288571107552 S
atom 2.2487516467211988 2.2046703765816553 4.9536436566520416 S
atom 7.8105224353966989 2.7400637670904766 4.9536436693209431 S
atom 2.7841450605994509 7.7664411497545345 4.9536435836980726 S
atom 7.2500877541951114 7.2060064501550789 4.9536437207847515 S
atom 2.7660115643400096 0.0022205490293721 2.2394218842418891 S
atom 7.2338478990358750 -0.0070268334806071 2.7422894249600676 S
atom 2.2074705126304979 5.0193505323855128 2.7422894491242662 S
atom 7.7673476364791902 5.0035566578021173 2.2394218700475235 S
atom 2.8924119097011047 -0.0086737145735407 7.7534313163908495 S
atom 7.1353015381243052 -0.0163677261393945 7.1593318809919495 S
atom 2.1089241454180798 5.0100096790105022 7.1593318973562630 S
atom 7.8937479915217059 4.9926624058459090 7.7534312962213630 S
atom -0.0147412169935399 2.2478451790256608 2.2394218895487392 S
atom 4.9958422777444680 2.7813449059408262 2.7422894440421586 S
atom -0.0305351478642512 7.8077222820095615 2.7422894315877251 S
atom 4.9865948954006791 7.2491812472867609 2.2394218643630501 S
atom -0.0038469676849257 2.1214448246241462 7.7534312994891312 S
atom 5.0051831462067238 2.8798912775199859 7.1593318880673502 S
atom -0.0211943338242890 7.9062686692191635 7.1593318902798178 S
atom 4.9974890733931954 7.1227809043769801 7.7534313113091757 S
atom 0.2433809386071777 -0.1831473146404502 9.9264834907911208 Ba
atom 5.1970040430697271 -0.2559015939156855 9.9264834773923543 Ba
atom 0.1706266577946089 4.7704757914300231 9.9264834849579042 Ba
atom 5.2447170161627152 4.8181887689717495 9.9264834787046343 Ba
atom -0.0572341246208929 0.1697983618189085 14.6815489759083544 Ba
atom 4.8440583662248482 0.0447134868169748 14.6815489632402301 Ba
atom -0.1823190085814050 5.0710908553668936 14.6815489936813286 Ba
atom 4.9441019300873874 5.1711344240884918 14.6815489568679780 Ba
atom 2.5098240725715217 2.5055721053073561 12.5130430494042137 Zr
atom 7.5096207039308807 2.4789913505366696 12.5130430518981317 Zr
atom 2.4832433160376852 7.5053687268575358 12.5130430870798008 Zr
atom 7.5111601811547928 7.5069081507914577 12.5130430034340048 Zr
atom 2.7525844035971567 2.7966657242893675 9.9591195923304774 S
atom 7.2185270814248295 2.2362310104160348 9.9591195364930822 S
atom 2.1921497136765709 7.2626084036618241 9.9591195045730956 S
atom 7.7539204943308082 7.7980017991096737 9.9591195941008213 S
atom 2.3747496631606877 2.2820535805421525 15.0181921474800628 S
atom 7.7331392292552712 2.6140657642921732 15.0181921515059162 S
atom 2.7067618482865674 7.6404431327228588 15.0181920677760381 S
atom 7.3760857400887199 7.2833896463050793 15.0181921494578248 S
atom 2.7938655588862900 -0.0180144771921754 12.1704737480248415 S
atom 7.2617018892903680 -0.0272618479432330 12.6733413169919462 S
atom 2.2353245228486451 4.9991155007658872 12.6733413159828086 S
atom 7.7952016310183243 4.9833216303362908 12.1704737477527374 S
atom 0.0054938265921815 2.2199911676792561 12.1704737396197284 S
atom 5.0160773250936614 2.7534909131902463 12.6733413151393837 S
atom -0.0103000767106305 7.7798682898213265 12.6733413237951762 S
atom 5.0068298796921944 7.2213272449851047 12.1704737548080892 S
atom 2.3308696585669182 2.5579021457271756 18.1265299818727144 Ba
atom 7.4572906532853862 2.6579457212413389 18.1265299840207668 Ba
atom 2.4309132454349873 7.6843231405866410 18.1265300065410777 Ba
atom 7.3322057666263785 7.5592382678437531 18.1265300173326374 Ba
atom 2.6838153768257529 2.2572870991473248 22.8815955821054864 Ba
atom 7.7579056997747022 2.3050000432004367 22.8815955893193426 Ba
atom 2.7315283343047598 7.3313774324187619 22.8815955855708637 Ba
atom 7.6851514341609573 7.2586231834720509 22.8815955946143923 Ba
atom 4.9964320125478139 4.9921800620756454 20.2950361149061997 Zr
atom 10.0243488848181102 4.9937194589796450 20.2950361074382926 Zr
atom 4.9979715122737973 10.0200968670021613 20.2950360812310038 Zr
atom 9.9977680988238280 9.9935161632268983 20.2950359726174590 Zr
atom 5.0013360602381995 5.0013361192340966 25.3516973554337426 Zr
atom 10.0151927565223051 4.9888154537196234 25.3516973805781802 Zr
atom 4.9888154192194740 10.0151928167379705 25.3516973437342799 Zr
atom 10.0026720972561680 10.0026721666130918 25.3516973531712324 Zr
atom 5.2199505507908146 5.1272544483412013 17.7898870437062939 S
atom 9.8892744292826524 4.7702009646573842 17.7898869539727258 S
atom 4.8628970620860992 9.7965783462693654 17.7898870768762620 S
atom 10.2212866251803476 10.1285905170785728 17.7898871642447887 S
atom 4.7053384070649784 4.7494197287274407 22.8489594478146536 S
atom 10.2671091585971777 5.2848130916206175 22.8489595456757151 S
atom 5.2407317722736746 10.3111904841382103 22.8489595104872798 S
atom 9.7066744861566754 9.7507558008193467 22.8489594315618163 S
atom 4.7485132273607640 2.4859268089095106 20.1347377037044346 S
atom 10.3083903360193361 2.4701329484826235 20.6376052626560522 S
atom 5.2820129539879606 7.4965102625761553 20.6376052454871441 S
atom 9.7498492916817572 7.4872628312165155 20.1347377016986258 S
atom 4.6221128196022603 2.4968209832450476 25.6487471952583945 S
atom 10.4069366704904507 2.4794737296828715 25.0546477725030314 S
atom 5.3805592782864231 7.5058510756012744 25.0546477767563402 S
atom 9.6234489090026223 7.4981570341904193 25.6487471890916545 S
atom 2.5028885642809646 5.2666796003166603 20.1347377056322046 S
atom 7.5200185505776282 4.7081385726325999 20.6376052594622017 S
atom 2.4936411609422420 9.7345159479991779 20.6376052535746659 S
atom 7.5042246302881406 10.2680156694338116 20.1347377054587113 S
atom 2.4919944722748228 5.3930799709077402 25.6487471825912898 S
atom 7.5106778308062072 4.6095922175301096 25.0546477693673388 S
atom 2.4843004680355261 9.6359696000858612 25.0546477826028244 S
atom 7.4933305063038080 10.3944160524761191 25.6487471974538792 S
atom 2.3175207388183487 2.7440489878512300 27.8217993327400848 Ba
atom 7.2711438314116013 2.6712946962332924 27.8217993262148013 Ba
atom 2.2447664520076720 7.6976720624140889 27.8217993322526631 Ba
atom 7.3188568105582199 7.7453850480232509 27.8217993181188170 Ba
atom 2.6704663944280354 2.4434339173006552 32.5768648690267568 Ba
atom 7.5717589158599905 2.3183490375265210 32.5768648548076101 Ba
atom 2.5453815207639598 7.3447264183472392 32.5768648321539231 Ba
atom 7.6718024811887373 7.4447699883539347 32.5768648323550281 Ba
atom 5.0062401134058980 5.0104920831328759 30.4083590057016799 Zr
atom 10.0060367496316616 4.9839113537129522 30.4083588024271165 Zr
atom 4.9796593610653073 10.0102887866995029 30.4083587960603445 Zr
atom 10.0075762345062671 10.0118281738381949 30.4083590461795801 Zr
atom 5.2973337439341099 5.2532524746695808 27.8544353010388619 S
atom 9.7632764114612858 4.6928177445039250 27.8544353424015405 S
atom 4.7368990361117271 9.7191951386048281 27.8544353228798691 S
atom 10.2986698283225167 10.2545885498275844 27.8544352806418836 S
atom 4.7827216102807375 4.8754177120752118 32.9135078768728278 S
atom 10.1411111915567691 5.2074298964839674 32.9135081322554512 S
atom 5.1147338183040567 10.2338072784494400 32.9135081294958951 S
atom 9.7840576883284864 9.8767537774111105 32.9135079251656038 S
atom 4.7206592172078317 2.5061617789769763 30.0657895975590108 S
atom 10.2805363229048119 2.4903679704174562 30.5686571589491365 S
atom 5.2541589524804921 7.5167453658447911 30.5686571768388902 S
atom 9.7219952837276828 7.5074979359274856 30.0657895911446325 S
atom 2.4826535779820111 5.2945336052402299 30.0657895985866688 S
atom 7.4997835826652697 4.7359925487512591 30.5686571702973779 S
atom 2.4734061310345661 9.7623699289407355 30.5686571697407317 S
atom 7.4839896151176895 10.2958696781991712 30.0657895894334786 S
