#=======================================================
# FHI-aims file: full_relax/full_relax_RP_2_RxRyRz_-Rx-Ry-Rz.in
# Created using the Atomic Simulation Environment (ASE)
# Fri Mar 14 11:18:30 2025
#=======================================================
lattice_vector 10.0810172399009765 0.1195297167250894 0.0004630522280467 
lattice_vector 0.1195297167252211 10.0810172399098157 -0.0004630526497261 
lattice_vector -0.0010032744303036 0.0010032732905653 25.5130511926753911 
atom -0.0997999405374184 -0.0998624321016582 0.2830084431187488 Ba
atom 5.1403710581932973 0.1595647766511748 0.2832400302495621 Ba
atom 0.1596272665993291 5.1403085432826616 0.2827769124397466 Ba
atom 5.0004735821105504 5.0004110655483940 0.2830084919925775 Ba
atom 0.0261316572000964 0.0265175327891341 4.9063559897911144 Ba
atom 5.0139910895904896 0.0336332208912592 4.9065875158734853 Ba
atom 0.0332473418131178 5.0143769617617941 4.9061244612581518 Ba
atom 5.1264051230895076 5.1267909959238080 4.9063559907472545 Ba
atom 2.5407262704159006 2.5408863766111325 2.3647012244707004 Zr
atom 7.5998957247240710 2.6193120606121965 2.3649326755884181 Zr
atom 2.6191519460249473 7.6000558100510309 2.3644696564936987 Zr
atom 7.6409997721881151 7.6411598511223646 2.3647011517258250 Zr
atom 2.5405004974726024 2.5411121617438290 7.4480108180267424 Zr
atom 7.5996699470537870 2.6195378377123339 7.4482423724652413 Zr
atom 2.6189261684717566 7.6002815785885023 7.4477793410404134 Zr
atom 7.6407739941974766 7.6413856267205942 7.4480108621653445 Zr
atom 2.7330914115457983 2.7330600733283776 -0.1263077122127949 S
atom 7.4077220209163288 2.4269469146873468 -0.1260762619821497 S
atom 2.4269782564351154 7.4076906736190526 -0.1265393068415026 S
atom 7.8333649107084993 7.8333335602903480 -0.1263077596325974 S
atom 2.2946902002518001 2.2950760741748466 4.9063560333456113 S
atom 7.8457060285196594 2.8653481455974736 4.9065875109346759 S
atom 2.8649622712578311 7.8460918997824889 4.9061244247328748 S
atom 7.3949636646102048 7.3953495425864499 4.9063558120474440 S
atom 2.5202002900474842 0.0299528168056662 2.2329071007664658 S
atom 7.5606870892942943 0.0897363977251155 2.6837256872740047 S
atom 2.5799433292487937 5.0704801153211436 2.6832626014718812 S
atom 7.6204737600761030 5.1302262465512518 2.2329071404445844 S
atom 2.5199224707594245 0.0301979296915519 7.5800364379491212 S
atom 7.5604528870870871 0.0899440301201473 7.1296809431396451 S
atom 2.5797091223422788 5.0706878557741915 7.1292178881967363 S
atom 7.6201959438688842 5.1304714755423069 7.5800364313272262 S
atom 0.0298120601495318 2.5203083469635619 2.2326755769445468 S
atom 5.0703019668157596 2.5800950015680040 2.6834941310466993 S
atom 0.0895582291566302 7.5608387602029072 2.6830311031178482 S
atom 5.1300855175687685 7.6205818151132343 2.2326756142364363 S
atom 0.0295668868233547 2.5205861566920054 7.5798049043493103 S
atom 5.0700942941027005 2.5803292035563650 7.1294494145829574 S
atom 0.0893504922502826 7.5610729632793001 7.1289863666660214 S
atom 5.1298404047199986 7.6208596410798082 7.5798049097084164 S
atom -0.1002482960940989 -0.0994140504981910 9.5297035472082801 Ba
atom 5.1399226583213071 0.1600131502281883 9.5299350580616569 Ba
atom 0.1591789171143195 5.1407569296242581 9.5294721169393206 Ba
atom 5.0000251770360009 5.0008594353318934 9.5297035739994023 Ba
atom 2.7326741963615575 2.7334772913002201 9.9390195953353686 S
atom 7.4073048016610130 2.4273641295321275 9.9392512092620766 S
atom 2.4265610281913301 7.4081078861611287 9.9387881613717255 S
atom 7.8329476882775211 7.8337507774985298 9.9390197423122064 S
atom 2.6494975189764274 2.6504383042516184 13.0395340375379529 Ba
atom 7.4903438094591079 2.5105408181531361 13.0397655361400098 Ba
atom 2.5096000288857865 7.4912845584802845 13.0393024744171111 Ba
atom 7.7497710106461151 7.7507117703732726 13.0395339921829692 Ba
atom 2.5231176047748463 2.5245067076169136 17.6628815922112459 Ba
atom 7.6162753427007388 2.6369207341315910 17.6631131147174401 Ba
atom 2.6355316480151969 7.6176645506029184 17.6626500555365666 Ba
atom 7.6233910234058353 7.6247802201591730 17.6628815775687009 Ba
atom 5.1090221942078724 5.1101855738740163 15.1212268241582155 Zr
atom 10.1308700180924518 5.1512896287067145 15.1214582879344963 Zr
atom 5.1501262564126797 10.1320333643965235 15.1209953288508405 Zr
atom 10.2092956800736605 10.2104590517524052 15.1212268600734348 Zr
atom 5.1087964306651505 5.1104113469786316 20.2045363656662076 Zr
atom 10.1306442319749372 5.1515153874193489 20.2047679645191387 Zr
atom 5.1499004559410952 10.1322591474142225 20.2043047682331860 Zr
atom 10.2090698899957957 10.2106848262496221 20.2045364410039419 Zr
atom 4.9168485047482520 4.9178204291127141 12.6302179266879229 S
atom 10.3232351492614143 5.3434633179044351 12.6304492717971986 S
atom 5.3424913763231912 10.3242070654676699 12.6299864442584333 S
atom 10.0171219784846475 10.0180939117836250 12.6302179869892335 S
atom 5.3548325024751238 5.3562216450865652 17.6628815630333840 S
atom 9.8848339398788845 4.9054793357166702 17.6631132070789789 S
atom 4.9040901672970882 9.8862230722035829 17.6626504501136203 S
atom 10.4551059661396657 10.4564951113367304 17.6628809633364625 S
atom 5.0698135842193883 2.5806098800813855 15.4400196657292259 S
atom 10.1103440067456507 2.6403561399465785 14.9896642813715584 S
atom 5.1296002502520057 7.6210998234964817 14.9892011100815559 S
atom 10.1700870606151970 7.6808832508430323 15.4400197807628583 S
atom 5.0695793598357248 2.5808176198346287 19.8859750290598853 S
atom 10.1100662001684753 2.6406010839306728 20.3367936160623586 S
atom 5.1293224336861121 7.6213449014799224 20.3363304974550410 S
atom 10.1698528265384471 7.6810911589385142 19.8859750286439514 S
atom 2.5794284653791633 5.0709685183764455 15.4397882078778945 S
atom 7.6199557720928368 5.1307115665308674 14.9894327032261216 S
atom 2.6392121721507071 10.1114553462692864 14.9889696405489037 S
atom 7.6797017608529528 10.1712420119243863 15.4397881815578177 S
atom 2.5792206930383985 5.0712027110925648 19.8857434856556452 S
atom 7.6197106690196001 5.1309894060323131 20.3365620215531067 S
atom 2.6389667127726626 10.1117331601394849 20.3360990340855530 S
atom 7.6794943862656702 10.1714761782872483 19.8857435247845800 S
atom 2.6490491388552151 2.6508866645296401 22.2862291677194051 Ba
atom 7.4898954166431890 2.5109891753029538 22.2864607846668328 Ba
atom 2.5091516619517220 7.4917329546213738 22.2859976945621163 Ba
atom 7.7493226255797589 7.7511601521203852 22.2862292336171279 Ba
atom 4.9164312835379418 4.9182376542685979 22.6955451635740602 S
atom 10.3228179324756226 5.3438805320631344 22.6957768122896013 S
atom 5.3420741667654772 10.3246242986786463 22.6953135596677136 S
atom 10.0167047691103601 10.0185111340461024 22.6955452753454274 S
