#=======================================================
# FHI-aims file: full_relax/full_relax_RP_2_00Rz_000.in
# Created using the Atomic Simulation Environment (ASE)
# Fri Mar 14 11:17:28 2025
#=======================================================
lattice_vector 10.0292837690427010 -0.0000000000000000 0.0000000000000011 
lattice_vector 0.0000000000000000 10.0292837690427010 0.0000000000000002 
lattice_vector 0.0000000000000028 0.0000000000000005 25.7317368738243069 
atom -0.0000000000002906 -0.0000000000001758 0.2341642365922640 Ba
atom 5.0146418845212262 -0.0000000000003003 0.2341642365922047 Ba
atom -0.0000000000001722 5.0146418845211702 0.2341642365922134 Ba
atom 5.0146418845212013 5.0146418845211613 0.2341642365921630 Ba
atom -0.0000000000002341 -0.0000000000002631 4.9484109372734792 Ba
atom 5.0146418845212066 -0.0000000000002233 4.9484109372734926 Ba
atom -0.0000000000002420 5.0146418845212155 4.9484109372734526 Ba
atom 5.0146418845212111 5.0146418845211889 4.9484109372734366 Ba
atom 2.5073209422604590 2.5073209422604847 2.3801526529095911 Zr
atom 7.5219628267817891 2.5073209422604772 2.3801526529096750 Zr
atom 2.5073209422604905 7.5219628267818139 2.3801526529097030 Zr
atom 7.5219628267818370 7.5219628267818059 2.3801526529096515 Zr
atom 2.5073209422604794 2.5073209422604679 7.5166692216370983 Zr
atom 7.5219628267818388 2.5073209422604665 7.5166692216371880 Zr
atom 2.5073209422604563 7.5219628267818202 7.5166692216373345 Zr
atom 7.5219628267817953 7.5219628267817900 7.5166692216371747 Zr
atom 2.5073209422604359 2.5073209422605665 -0.1409949490396091 S
atom 7.5219628267818699 2.5073209422605078 -0.1409949490395661 S
atom 2.5073209422605056 7.5219628267817225 -0.1409949490396414 S
atom 7.5219628267818237 7.5219628267817624 -0.1409949490395757 S
atom 2.5073209422605154 2.5073209422604212 4.9484109372733505 S
atom 7.5219628267818104 2.5073209422604514 4.9484109372733522 S
atom 2.5073209422604297 7.5219628267818415 4.9484109372733887 S
atom 7.5219628267819285 7.5219628267818104 4.9484109372734046 S
atom 2.2549324187597328 -0.0000000000001498 2.4801606133929348 S
atom 7.7743513502826040 -0.0000000000001810 2.4801606133930147 S
atom 2.7597094657611954 5.0146418845211915 2.4801606133930525 S
atom 7.2695743032809403 5.0146418845212049 2.4801606133929144 S
atom 2.7597094657610182 -0.0000000000001859 7.4166612611537417 S
atom 7.2695743032811562 -0.0000000000001487 7.4166612611538030 S
atom 2.2549324187598345 5.0146418845211951 7.4166612611537746 S
atom 7.7743513502825543 5.0146418845212235 7.4166612611537390 S
atom -0.0000000000001890 2.7597094657611358 2.4801606133930143 S
atom 5.0146418845211880 2.2549324187596742 2.4801606133929650 S
atom -0.0000000000001378 7.2695743032809661 2.4801606133929037 S
atom 5.0146418845212288 7.7743513502827017 2.4801606133930103 S
atom -0.0000000000001799 2.2549324187598545 7.4166612611536689 S
atom 5.0146418845212333 2.7597094657610581 7.4166612611537897 S
atom -0.0000000000001387 7.7743513502825312 7.4166612611537985 S
atom 5.0146418845212182 7.2695743032811029 7.4166612611537293 S
atom -0.0000000000002164 -0.0000000000002895 9.6626576379547320 Ba
atom 5.0146418845212244 -0.0000000000002241 9.6626576379546485 Ba
atom -0.0000000000002659 5.0146418845212795 9.6626576379546592 Ba
atom 5.0146418845211871 5.0146418845212777 9.6626576379546325 Ba
atom 2.5073209422605038 2.5073209422604403 10.0378168235862155 S
atom 7.5219628267818175 2.5073209422605256 10.0378168235862546 S
atom 2.5073209422605180 7.5219628267817935 10.0378168235862244 S
atom 7.5219628267817802 7.5219628267817367 10.0378168235862244 S
atom 2.5073209422603044 2.5073209422603844 13.1417358400145119 Ba
atom 7.5219628267819756 2.5073209422604141 13.1417358400142845 Ba
atom 2.5073209422604270 7.5219628267818859 13.1417358400143698 Ba
atom 7.5219628267818432 7.5219628267818752 13.1417358400142952 Ba
atom 2.5073209422604128 2.5073209422604261 17.8142793741856451 Ba
atom 7.5219628267818033 2.5073209422604776 17.8142793741857197 Ba
atom 2.5073209422603240 7.5219628267818690 17.8142793741858405 Ba
atom 7.5219628267818806 7.5219628267818681 17.8142793741857943 Ba
atom 5.0146418845210849 5.0146418845211258 15.2507716597261354 Zr
atom 10.0292837690424292 5.0146418845211338 15.2507716597260821 Zr
atom 5.0146418845211427 10.0292837690424648 15.2507716597261425 Zr
atom 10.0292837690424648 10.0292837690424825 15.2507716597261673 Zr
atom 5.0146418845211054 5.0146418845211045 20.3777870886448760 Zr
atom 10.0292837690424648 5.0146418845210974 20.3777870886449541 Zr
atom 5.0146418845211027 10.0292837690424754 20.3777870886450536 Zr
atom 10.0292837690424737 10.0292837690424523 20.3777870886449399 Zr
atom 5.0146418845211018 5.0146418845212501 12.7385538695515574 S
atom 10.0292837690424559 5.0146418845210565 12.7385538695515432 S
atom 5.0146418845210938 10.0292837690423315 12.7385538695515397 S
atom 10.0292837690424808 10.0292837690425110 12.7385538695516161 S
atom 5.0146418845211285 5.0146418845209917 17.8142793741853929 S
atom 10.0292837690424506 5.0146418845211969 17.8142793741854568 S
atom 5.0146418845210743 10.0292837690426584 17.8142793741856167 S
atom 10.0292837690424648 10.0292837690424150 17.8142793741856202 S
atom 5.0146418845210050 2.5073226150288783 15.3432099931699319 S
atom 10.0292837690425962 2.5073192694919291 15.3432099931701469 S
atom 5.0146418845211667 7.5219611540133586 15.3432099931702073 S
atom 10.0292837690424541 7.5219644995502835 15.3432099931699319 S
atom 5.0146418845209269 2.5073192694919704 20.2853487552012979 S
atom 10.0292837690425607 2.5073226150289725 20.2853487552010030 S
atom 5.0146418845212155 7.5219644995502621 20.2853487552008396 S
atom 10.0292837690422942 7.5219611540132769 20.2853487552010634 S
atom 2.5073192694919268 5.0146418845211613 15.3432099931701114 S
atom 7.5219644995502755 5.0146418845209340 15.3432099931700829 S
atom 2.5073226150289027 10.0292837690423777 15.3432099931701753 S
atom 7.5219611540133497 10.0292837690426015 15.3432099931701718 S
atom 2.5073226150289449 5.0146418845211196 20.2853487552010385 S
atom 7.5219611540133009 5.0146418845210636 20.2853487552010208 S
atom 2.5073192694919735 10.0292837690424133 20.2853487552010918 S
atom 7.5219644995502808 10.0292837690425056 20.2853487552010847 S
atom 2.5073209422604212 2.5073209422604998 22.4868229083567392 Ba
atom 7.5219628267818814 2.5073209422604519 22.4868229083569133 Ba
atom 2.5073209422605536 7.5219628267817917 22.4868229083568600 Ba
atom 7.5219628267816452 7.5219628267818432 22.4868229083567215 Ba
atom 5.0146418845210246 5.0146418845212093 22.8900048788193580 S
atom 10.0292837690425714 5.0146418845210219 22.8900048788194717 S
atom 5.0146418845211294 10.0292837690423315 22.8900048788194965 S
atom 10.0292837690424328 10.0292837690425891 22.8900048788194042 S
