#=======================================================
# FHI-aims file: full_relax/full_relax_RP_7_RxRyRz_-Rx-Ry-Rz.in
# Created using the Atomic Simulation Environment (ASE)
# Mon Mar 24 15:49:16 2025
#=======================================================
lattice_vector 9.9609493594961140 0.0004537603768146 -0.0012920972979281 
lattice_vector 0.0004537603769579 9.9609493601401553 0.0012920978523727 
lattice_vector -0.0054288475737629 0.0054288517314514 76.6821844577440714 
atom 0.0527255936320946 -0.1068139633512854 0.2020682388414048 Ba
atom 5.0872883453259687 -0.0524987238897769 0.2014240185194284 Ba
atom 0.1070406201411634 4.9277490433298228 0.2027149026299230 Ba
atom 5.0334272264827513 4.8738878247176132 0.2020699108688859 Ba
atom -0.2647558486674466 0.2048769141964649 5.0145339332587096 Ba
atom 4.7755974432457000 0.2649828645053668 5.0138877542762401 Ba
atom -0.2046503441505635 5.2452307299902170 5.0151799324332638 Ba
atom 4.7159456879037878 5.1855786931312364 5.0145338317216090 Ba
atom 2.4628251354223183 2.5270592541989680 2.3929173602162721 Zr
atom 7.4341166827029141 2.5181033323789799 2.3922709691380355 Zr
atom 2.4538692827248858 7.4983515553262121 2.3935628753087257 Zr
atom 7.4435257639594790 7.5077612947095282 2.3929172811023047 Zr
atom 2.4083509296477503 2.5359741878503717 7.4805497203938822 Zr
atom 7.4252017061981705 2.5725769210079146 7.4799047708711441 Zr
atom 2.4449541977137610 7.5528253800356904 7.4811978703438058 Zr
atom 7.3890521317777278 7.5166762633332116 7.4805497802866521 Zr
atom 2.6211373720995108 2.7542079809002566 -0.1205475496475409 S
atom 7.2069682925252909 2.3597912065793989 -0.1211968181889644 S
atom 2.2267204326893331 7.3400389213982820 -0.1199031489327600 S
atom 7.6018389392600483 7.7349095082926524 -0.1205477593295975 S
atom 2.2331058296255515 2.2913118545153832 4.9708502376581531 S
atom 7.6698645864329942 2.7478229528803793 4.9702054563087232 S
atom 2.6896165781921524 7.7280704525478034 4.9714977026967828 S
atom 7.2138074003383279 7.2720131054983606 4.9708500106506923 S
atom 2.7360826390525772 0.0431355810563077 2.2543261161929853 S
atom 7.0981417778015903 0.0466233803627656 2.7393616385241488 S
atom 2.1178937770087538 5.0268712630873411 2.7406537794485648 S
atom 7.7167840892204804 5.0238370378962163 2.2543266167358245 S
atom 2.9239672135894619 0.0504771992626336 7.7011329012042271 S
atom 6.9802896831098478 0.0519458039240212 7.3041488681897695 S
atom 2.0000417527868719 5.0321939845386758 7.3054407956614531 S
atom 7.9046688546152986 5.0311795446626579 7.7011327375452758 S
atom -0.0429096350139207 2.2443924182254831 2.2549727439881493 S
atom 4.9343053549152645 2.8630347897847410 2.7400077626101593 S
atom -0.0459421819974967 7.8432824418458784 2.7412998803584268 S
atom 4.9377927800666503 7.2250934963744102 2.2549722623813646 S
atom -0.0502499703275456 2.0565075455589801 7.7017788657946813 S
atom 4.9289818696015972 2.9808867334507645 7.3047947568653493 S
atom -0.0512648839769045 7.9611345031886804 7.3060867841157613 S
atom 4.9304508191073735 7.0372089792486809 7.7017789025009602 S
atom -0.0037622498219580 -0.0758019193224999 10.0369571243280546 Ba
atom 5.0562762740785026 0.0039891388267975 10.0363109018704471 Ba
atom 0.0760288241426319 4.9842371845221010 10.0376032929663719 Ba
atom 4.9769391074172544 4.9049000384489378 10.0369570866779245 Ba
atom 0.0546858835874579 0.0203903773127282 15.1139989330581646 Ba
atom 4.9600845589859031 -0.0544590875512765 15.1133527538267067 Ba
atom -0.0201635519632423 4.9257885797974650 15.1146448191949627 Ba
atom 5.0353876224219958 5.0010917027038140 15.1139986655894827 Ba
atom 2.4974135366391677 2.4949644946596674 12.5637182460184391 Zr
atom 7.4662119740218511 2.4835149948905664 12.5630729692194496 Zr
atom 2.4859644293527561 7.4637624420365105 12.5643635264200562 Zr
atom 7.4781150012508917 7.4756657730477478 12.5637182952135884 Zr
atom 2.4891003970116192 2.4916007756370524 17.6570832821877808 Zr
atom 7.4695757300065262 2.4918276277174041 17.6564363255976815 Zr
atom 2.4893274076500043 7.4720756634860912 17.6577281256750425 Zr
atom 7.4698024814004125 7.4723024324892968 17.6570827376230461 Zr
atom 2.5845437255174670 2.6753722100613495 10.0317401947100304 S
atom 7.2858039640643417 2.3963846273853666 10.0310950531896115 S
atom 2.3055561490681962 7.3766325590414263 10.0323865485417691 S
atom 7.5652453814669958 7.6560738253926370 10.0317404297057191 S
atom 2.4100849346447228 2.4362661096927729 15.1136789544799637 S
atom 7.5249100699961158 2.5708435468725193 15.1130325756373036 S
atom 2.5446623448818713 7.5510913456489064 15.1143233728309010 S
atom 7.3907865036803182 7.4169676552857791 15.1136788106597564 S
atom 2.0020059774515313 0.0059261081127943 12.4997289262083928 S
atom 7.9880979638707394 0.0070323478783013 12.6505324965654680 S
atom 3.0078501369189530 4.9872807966859325 12.6518250267447989 S
atom 6.9827075547055104 4.9866281636705763 12.4997287484397841 S
atom 3.0009662241282471 0.0013666524693686 17.7024386488292365 S
atom 6.9574828314751844 0.0015877847403388 17.6104313061698790 S
atom 1.9772351168864104 4.9818348866373618 17.6117234952461565 S
atom 7.9816677628740873 4.9820677868786571 17.7024386740648687 S
atom -0.0056991620354523 2.9784687499157765 12.5003746923140575 S
atom 4.9738955691625213 1.9730782459757157 12.6511786493535929 S
atom -0.0063521390948049 6.9533260840145417 12.6524710400774403 S
atom 4.9750017571008991 7.9591702647607869 12.5003750293415479 S
atom -0.0011393655436743 1.9795084637929048 17.7030846480305257 S
atom 4.9793408196886375 3.0036934382710778 17.6110773590053462 S
atom -0.0009074806152979 7.9839411680531738 17.6123694829364190 S
atom 4.9795627470006911 6.9602099489246054 17.7030848216367502 S
atom -0.0571861513291078 -0.0178899814293428 20.2001664685412479 Ba
atom 4.9983650601653267 0.0574130693428382 20.1995206136071737 Ba
atom 0.0181169978173568 5.0376605027671966 20.2008124263560411 Ba
atom 4.9235155772415000 4.9628111091272764 20.2001665429297930 Ba
atom 0.0012625438595865 0.0783021644693366 25.2772060050698038 Ba
atom 4.9021721221421561 -0.0010354594152921 25.2765599678148831 Ba
atom -0.0780754155496137 4.9792125359995261 25.2778522161076431 Ba
atom 4.9819640056025811 5.0590041014193821 25.2772061530756993 Ba
atom 2.4807876266595708 2.4882371396341800 22.7504475278766307 Zr
atom 7.4729390493082990 2.5001403213116316 22.7497995459486084 Zr
atom 2.4926914330740226 7.4803886422026915 22.7510933094968948 Zr
atom 7.4614889946371550 7.4689392565083130 22.7504481299066974 Zr
atom 2.5698510300921344 2.4472265288868984 27.8336095349466390 Zr
atom 7.5139485026285069 2.4110786991808393 27.8329670604789783 Zr
atom 2.5337011671697311 7.3913261693847794 27.8342587770086922 Zr
atom 7.5505521499497572 7.4279279336579771 27.8336089795513004 Zr
atom 2.5681165090041724 2.5469355909666214 20.2004864736284979 S
atom 7.4142406487225809 2.4128120054707334 20.1998396293894018 S
atom 2.4339929313067508 7.3930597345260418 20.2011324220166522 S
atom 7.5488179923367538 7.5276370410492195 20.2004868653508858 S
atom 2.3936577119438658 2.3078295131700384 25.2824233479075673 S
atom 7.6533467637438690 2.5872706950355489 25.2817773634957881 S
atom 2.6730988722679299 7.5675183831563917 25.2830703453160481 S
atom 7.3743594146592288 7.2885311507495087 25.2824233284749376 S
atom 1.9703509998353617 -0.0040789327860272 22.6623380114097230 S
atom 7.9564433382643998 -0.0029728602135261 22.8131423538472653 S
atom 2.9761955439903325 4.9772753842907065 22.8144341934509107 S
atom 6.9510525452375731 4.9766228297429747 22.6623381661732886 S
atom 2.9781598718385291 -0.0489922098577662 28.0087243860366293 S
atom 7.0344823148506306 -0.0475237698189277 27.6117408729894258 S
atom 2.0542343173913316 4.9327248052863411 27.6130326100502579 S
atom 7.9588613928503733 4.9317095596397706 28.0087245226249379 S
atom 0.0043057419539598 3.0101237336117777 22.6629843532711028 S
atom 4.9839009352336898 2.0047328761826106 22.8137884513481346 S
atom 0.0036529129986420 6.9849806413699040 22.8150802997631850 S
atom 4.9850076814395790 7.9908252143392406 22.6629838312472209 S
atom 0.0492192867418193 2.0023148957150982 28.0093704986752670 S
atom 5.0284517708357672 2.9266938853374374 27.6123869621975331 S
atom 0.0482039039202593 7.9069418613515374 27.6136787600432818 S
atom 5.0299206291360479 6.9830165163903670 28.0093703514062859 S
atom 0.2622561617684439 -0.2023774476632861 30.2996288233137037 Ba
atom 5.1828514606657672 -0.2620288856878156 30.2989828898960418 Ba
atom 0.2026039979329787 4.7182191414194374 30.3002749230968824 Ba
atom 5.2429572814942667 4.7783244693273099 30.2996287814474989 Ba
atom -0.0552259006485051 0.1093135678420465 35.1120953145463588 Ba
atom 4.8711614561788359 0.0554526754515288 35.1114486766863010 Ba
atom -0.1090864044440916 5.0357006036776326 35.1127414794669832 Ba
atom 4.9254757333136476 5.0900151266016662 35.1120941329444634 Ba
atom 2.5153755129965996 2.4561427688814392 32.9212464825481348 Zr
atom 7.5050338552322087 2.4655500097837311 32.9205979992173141 Zr
atom 2.5247863333734948 7.4457985038970094 32.9218898158247626 Zr
atom 7.4960768371711177 7.4368439684684757 32.9212471215495626 Zr
atom 2.7450958056019759 2.6918899172947768 30.3433111952072885 S
atom 7.2692861884515887 2.2358326237977675 30.3426659102577290 S
atom 2.2890381636490713 7.2160806031818190 30.3439592508631399 S
atom 7.7257975019701179 7.6725914381486060 30.3433114239730735 S
atom 2.3570638598188673 2.2289933453738797 35.4347117555458340 S
atom 7.7321825531115058 2.6238644945322558 35.4340657756484276 S
atom 2.7519347506854746 7.6041124878589370 35.4353558335638041 S
atom 7.3377655090724909 7.2096948339430798 35.4347108882514874 S
atom 2.8603074228392886 -0.0436690733290454 32.5735116517439351 S
atom 7.2223662998340359 -0.0401792323077053 33.0585464623389385 S
atom 2.2421185689271672 4.9400664794878422 33.0598385918661180 S
atom 7.8410090895251070 4.9370323666946536 32.5735113759316093 S
atom 0.0438956719360802 2.1201672287533877 32.5741576285007497 S
atom 5.0211121511189427 2.7388094811993193 33.0591925929305575 S
atom 0.0408636027740414 7.7190571241500736 33.0604845504181171 S
atom 5.0245979826082428 7.1008686388958422 32.5741578797402482 S
atom 2.5944500414265983 2.4403394941145717 38.5431613446671832 Ba
atom 7.5208367194411325 2.3864788396580505 38.5425157888771750 Ba
atom 2.5405885548109080 7.3667267347999639 38.5438088693362317 Ba
atom 7.5751516898984166 7.4210409721341213 38.5431617348919673 Ba
atom 2.2827595660816349 2.7578210416344109 43.3556267598123313 Ba
atom 7.2033546135065247 2.6981694629097799 43.3549805396595360 Ba
atom 2.2231076455542991 7.6784171950212157 43.3562727291238801 Ba
atom 7.2634602100492600 7.7385227165595438 43.3556268928119195 Ba
atom 4.9412786104593165 5.0109400905133796 40.7340112483137560 Zr
atom 9.9309346862842531 5.0203523865939337 40.7333638062750936 Zr
atom 4.9506869771006947 10.0006006272779846 40.7346578222887103 Zr
atom 9.9219801697024437 9.9916422209324782 40.7340104287763509 Zr
atom 4.9323632222585427 5.0654165958094577 45.8216431763756233 Zr
atom 9.8764629616307396 5.0292662904865226 45.8209974629946828 Zr
atom 4.8962153345067865 10.0095135662044168 45.8222883107261296 Zr
atom 9.9130645027948177 10.0461179694908136 45.8216430496150693 Zr
atom 4.7141297647802212 4.8526294341355154 38.2205463821163605 S
atom 10.0892483600369030 5.2474998876310064 38.2198985148160943 S
atom 5.1090006511611614 10.2277477121396529 38.2211910139795918 S
atom 9.6948312916437853 9.8333310369268485 38.2205446096996937 S
atom 5.1770262254018116 5.2406608783473780 43.3119429322379048 S
atom 9.7012167352103837 4.7846037867057003 43.3112982109456155 S
atom 4.7209691288448719 9.7648516065117086 43.3125897426583961 S
atom 10.1577275765065362 10.2213626255210492 43.3119430975212225 S
atom 4.6053032949717414 2.5394608098080811 41.0810982900362447 S
atom 10.2041933308731050 2.5364288824228098 40.5947717272312403 S
atom 5.2239458332309923 7.5166768538737587 40.5960631626315518 S
atom 9.5860048163667031 7.5201627511227773 41.0810988000431365 S
atom 4.4874512164417268 2.5447842178901934 45.6458867094835838 S
atom 10.3920781924993832 2.5437692901733451 46.0415781900313164 S
atom 5.4118305993296811 7.5240175121066688 46.0428708422255468 S
atom 9.4681529541372367 7.5254858972350620 45.6458864928322399 S
atom 2.4414666276641435 5.3558728998137752 41.0817445668222021 S
atom 7.4252042832886769 4.7376839581437169 40.5954173717773656 S
atom 2.4449554752295630 9.7179315142825473 40.5967093052971038 S
atom 7.4221686668617393 10.3365744362858472 41.0817447641151432 S
atom 2.4361435717114945 5.4737250192055589 45.6465325433111460 S
atom 7.4178599494816391 4.5497994260569978 46.0422245177421701 S
atom 2.4376124648291810 9.5300472948064225 46.0435168758982201 S
atom 7.4168450590921493 10.4544265637880454 45.6465327131158389 S
atom 2.5634384351619621 2.4968279336459140 48.3780493308663679 Ba
atom 7.4643485344812959 2.4174902782218872 48.3774031557159461 Ba
atom 2.4841009191714809 7.3977377121106977 48.3786950505960434 Ba
atom 7.5441394661734957 7.4775291118021965 48.3780489839886556 Ba
atom 2.4672457866265631 2.4383793381530392 53.4550902190560890 Ba
atom 7.5227972713738973 2.5136824530592525 53.4544440150455102 Ba
atom 2.5425489160039416 7.4939301919897421 53.4557366677738770 Ba
atom 7.4479480589212681 7.4190808154741523 53.4550904008106755 Ba
atom 4.9733734655023145 4.9763526745589282 50.9048068769678395 Zr
atom 9.9655243891111880 4.9882560913520990 50.9041638410598196 Zr
atom 4.9852769559624273 9.9685048260050841 50.9054550588317980 Zr
atom 9.9540747952700208 9.9570553081423121 50.9048088129164640 Zr
atom 4.9767367847906634 4.9846663195281531 55.9981770638171383 Zr
atom 9.9572117390723669 4.9848933376304450 55.9975272271710978 Zr
atom 4.9769635113282629 9.9651402406231497 55.9988195013729921 Zr
atom 9.9574390242636834 9.9653670525577365 55.9981765093418034 Zr
atom 4.7929657450152767 4.8892230325579549 48.3728330093814449 S
atom 10.0526547229550420 5.1686645960937128 48.3721872940737256 S
atom 5.0724068582162349 10.1489121604489920 48.3734789830240572 S
atom 9.7736673918171260 9.8699245068996468 48.3728337063803906 S
atom 5.0320716372672107 5.0636818627307125 53.4547699555858458 S
atom 9.8781958822214673 4.9295581939587336 53.4541239122165877 S
atom 4.8979481801056108 9.9098060616124855 53.4554165278220879 S
atom 10.0127732811083128 10.0443835355265172 53.4547697436355946 S
atom 5.4952595513377211 2.4998708814729023 50.9922720316952365 S
atom 9.4701170192895869 2.4992174052276868 50.8401757476879865 S
atom 4.4898691580902046 7.4794659239793537 50.8414681227916319 S
atom 10.4759612051031095 7.4805729883486771 50.9922715064681498 S
atom 4.4646447543859233 2.4944254873237428 55.9521700324600033 S
atom 10.4690772758960566 2.4946581229298839 56.0428853471106407 S
atom 5.4888293132701795 7.4749069216981656 56.0441774725407598 S
atom 9.4453460596579024 7.4751277965023482 55.9521701935592688 S
atom 2.4810580936055859 4.4659165347597627 50.9929180507330599 S
atom 7.4624115053957309 5.4717610332935411 50.8408218551612734 S
atom 2.4821636030002936 10.4520086157592544 50.8421138486109072 S
atom 7.4617596127004422 9.4466181101011095 50.9929178616977339 S
atom 2.4865028003955945 5.4965315958399854 55.9528161109388833 S
atom 7.4669717286736823 4.4728004021397894 56.0435314611899429 S
atom 2.4867244483790327 9.4530484324007293 56.0448235453727577 S
atom 7.4672033321720477 10.4772332368651622 55.9528161620507873 S
atom 2.5055263913922365 2.5502513579843855 58.5412588052550902 Ba
atom 7.4109251637657323 2.4754020468722100 58.5406128309623313 Ba
atom 2.4306769472166541 7.4556497024664923 58.5419045291876330 Ba
atom 7.4862284638185432 7.5309528130739309 58.5412585821329543 Ba
atom 2.4093340873564943 2.4918029368953327 63.6182987935438433 Ba
atom 7.4693735883602850 2.5715942851648945 63.6176525040093566 Ba
atom 2.4891256404368294 7.5518420867628135 63.6189446233251132 Ba
atom 7.3900354674388637 7.4725046468763088 63.6182984734860071 Ba
atom 4.9801010149540934 4.9929782836790304 61.0915378642931586 Zr
atom 9.9488988120847637 4.9815290918732549 61.0908947181745887 Zr
atom 4.9686512988267406 9.9617775576561804 61.0921879442799423 Zr
atom 9.9608018942232501 9.9736802698997948 61.0915379744956439 Zr
atom 5.0211103471045311 4.9039171720255919 66.1747080750787688 Zr
atom 10.0379618292929234 4.9405180220946789 66.1740573402366721 Zr
atom 5.0577147786028798 9.9207662154740888 66.1753497762458522 Zr
atom 10.0018114330329269 9.8846192478074588 66.1747051891809122 Zr
atom 4.9214024255190241 4.9056502968999052 58.5415778745509670 S
atom 10.0362275806933248 5.0402274931232718 58.5409318271776229 S
atom 5.0559796813587417 10.0204753188866089 58.5422237813795832 S
atom 9.9021039617301891 9.8863517932090943 58.5415781266199460 S
atom 5.1605086417291020 5.0801090018491406 63.6235158167840424 S
atom 9.8617687480982212 4.8011215762280024 63.6228698160597190 S
atom 4.8815208905037899 9.7813693557361105 63.6241614294771978 S
atom 10.1412100604739184 10.0608104212105758 63.6235149907768616 S
atom 5.4636049731663254 2.4898652614504146 61.1548803548226445 S
atom 9.4384621086739759 2.4892134318915047 61.0027842986722391 S
atom 4.4582142561304625 7.4694622023841033 61.0040762539539045 S
atom 10.4443067535547200 7.4705682629238694 61.1548806201164012 S
atom 4.5416436058382121 2.4453146309193330 65.9534784061773536 S
atom 10.4462707357544247 2.4442998862378111 66.3491703508842647 S
atom 5.4660230291847887 7.4245481073002066 66.3504623924394252 S
atom 9.5223453914389022 7.4260163037437978 65.9534788478974292 S
atom 2.4910619139433443 4.4975711507204590 61.1555263865579946 S
atom 7.4724163596866617 5.5034156846884201 61.0034304243235752 S
atom 2.4921693561555003 10.4836633915945345 61.0047223031358570 S
atom 7.4717637321412962 9.4782727205813817 61.1555266052833844 S
atom 2.5356135489883402 5.4195324523489568 65.9541245887419905 S
atom 7.5173301300388928 4.4956070240475805 66.3498160558390566 S
atom 2.5370830052466227 9.4758546905228993 66.3511087355743427 S
atom 7.5163146570952044 10.4002336878478197 65.9541250598971089 S
atom 2.6900140631231766 2.2308097309603645 68.6407212385237671 Ba
atom 7.7303665262178454 2.2909152509185322 68.6400749028271520 Ba
atom 2.7501195278576502 7.2711622078811251 68.6413668128778340 Ba
atom 7.6707147640895768 7.2115105057445019 68.6407210692715068 Ba
atom 2.3783229282074125 2.5482905893509624 73.4531883644731209 Ba
atom 7.4128854029447000 2.6026061426287814 73.4525438088652720 Ba
atom 2.4326371456421820 7.5828543658184424 73.4538354950760777 Ba
atom 7.3590249156247616 7.5289928026893413 73.4531887830952428 Ba
atom 5.0121965361314835 4.9583867644137118 71.2623328297119798 Zr
atom 9.9834838056587341 4.9494344315049688 71.2616914757391555 Zr
atom 5.0032381878887620 9.9296831879055336 71.2629844697259216 Zr
atom 9.9928978493067735 9.9390904725540423 71.2623360833769652 Zr
atom 4.7764473611602174 4.7286712292311712 68.6844033822195854 S
atom 10.2132067512840781 5.1851821917507461 68.6837585300836793 S
atom 5.2329589702628097 10.1654294498919953 68.6850495262689975 S
atom 9.7571494214116115 9.7093724546997819 68.6844030223627016 S
atom 5.2393439820773606 5.1167029512676558 73.7758047902920708 S
atom 9.8251747575550041 4.7222851906869590 73.7751575171565577 S
atom 4.8449271400418104 9.7025328210677451 73.7764473081986409 S
atom 10.2200460024126460 10.0974045626797313 73.7758061532861120 S
atom 4.7295278959612688 2.4526605342104122 71.4002849362169059 S
atom 10.3284183825080103 2.4496219083031288 70.9139574771362362 S
atom 5.3481705224494434 7.4298704675409937 70.9152501995893800 S
atom 9.7102295799112390 7.4333602248136392 71.4002841277029887 S
atom 2.5282760751416595 5.2316473051105365 71.4009304352277070 S
atom 7.5120071586518531 4.6134595549294239 70.9146042118012332 S
atom 2.5317583008750493 9.5937068591204504 70.9158959158777265 S
atom 7.5089756803338519 10.2123483665986843 71.4009300230589474 S
