#=======================================================
# FHI-aims file: full_relax/full_relax_RP_6_RxRyMz_-Rx-Ry0.in
# Created using the Atomic Simulation Environment (ASE)
# Fri Mar 14 11:50:04 2025
#=======================================================
lattice_vector 10.0107053659205256 -0.0667231796236384 0.0000000000000006 
lattice_vector -0.0667231796236387 10.0107053659205256 -0.0000000000000003 
lattice_vector 0.0000000000000043 -0.0000000000000019 65.9338680427687507 
atom 0.0960510704176368 -0.1825200824638651 0.2185646783849684 Ba
atom 5.1878727654190193 -0.1294126602237613 0.2185646783653657 Ba
atom 0.1491584926472753 4.9093016125487905 0.2185646783674301 Ba
atom 5.0680421635658632 4.7894710106850598 0.2185646783862085 Ba
atom -0.2638390567624513 0.1853956722517384 5.0069115096440164 Ba
atom 4.8199570107116916 0.2304774669458267 5.0069115096447687 Ba
atom -0.2187572620610026 5.2691917397154908 5.0069115096441781 Ba
atom 4.7081520363866050 5.1573867653978089 5.0069115096436327 Ba
atom 2.4873004139749835 2.4744438560669675 2.4030764947955783 Zr
atom 7.5028999200100257 2.4513290893629534 2.4030764947893988 Zr
atom 2.4641856472404182 7.4900433621289073 2.4030764947838241 Zr
atom 7.4592915071206525 7.4464349492098920 2.4030764947925367 Zr
atom 2.4791468562106851 2.4892387064512786 7.4599146961520866 Zr
atom 7.4881050696625255 2.4594826471298714 7.4599146960822740 Zr
atom 2.4493907968924193 7.4981969198996623 7.4599146960905935 Zr
atom 7.4511379493565828 7.4612297995993293 7.4599146961622358 Zr
atom 2.6121175356603095 2.6954720624380286 -0.1038542616233511 S
atom 7.2818717136577966 2.3265119676635120 -0.1038542617138454 S
atom 2.2431574408854256 7.3652262404368063 -0.1038542617094182 S
atom 7.5841086288092576 7.6674631555873409 -0.1038542616215458 S
atom 2.2377777136823691 2.1884648789933774 4.9649825027308987 S
atom 7.7888788971148823 2.7008517896510087 4.9649825028928918 S
atom 2.7501646243419557 7.7395660624235614 4.9649825028935188 S
atom 7.2097688068310122 7.1604559721426915 4.9649825027283958 S
atom 2.8012786951693727 -0.0132110359547586 2.2480688396929676 S
atom 7.1879853406984084 -0.0437357441074867 2.7567987298038990 S
atom 2.1492710679262719 4.9949785286684349 2.7567987298036618 S
atom 7.7732697883179620 4.9587800571971030 2.2480688396931341 S
atom 2.8977976980577265 -0.0176036010028023 7.7868380267466000 S
atom 7.1222083740970694 -0.0477533726474284 7.1691183084396988 S
atom 2.0834941013248462 4.9909609001279520 7.1691183084401686 S
atom 7.8697887912071014 4.9543874921477222 7.7868380267467820 S
atom -0.0201505535704618 2.2040739877758089 2.2480688396905726 S
atom 4.9823652472039353 2.7893584354049645 2.7567987298021501 S
atom -0.0563490255670083 7.8280727081779391 2.7567987298028642 S
atom 4.9518405395767431 7.1760650809257855 2.2480688396914559 S
atom -0.0157579888924941 2.1075549849028108 7.7868380267471311 S
atom 4.9863828760613194 2.8551354020073982 7.1691183084408285 S
atom -0.0523313967064261 7.8938496747797569 7.1691183084403800 S
atom 4.9562331042517638 7.0795460780519921 7.7868380267462980 S
atom 0.2829821206212677 -0.1842081860210640 9.9846537115191811 Ba
atom 5.1895608689835360 -0.3163437104430997 9.9846537115188028 Ba
atom 0.1508465962099601 4.7223705623326655 9.9846537115183462 Ba
atom 5.2549732137707776 4.7877829071312306 9.9846537115187051 Ba
atom -0.2801044120775366 0.1804813546691519 14.9849700097427885 Ba
atom 4.8248713282917244 0.2467428222599752 14.9849700097423888 Ba
atom -0.2138429444803121 5.2854570950335615 14.9849700097420140 Ba
atom 4.6918866810707422 5.1524724478192292 14.9849700097421650 Ba
atom 2.4903530226215822 2.4831887155104773 12.4771205765351478 Zr
atom 7.4941550606043306 2.4482764807145663 12.4771205765801554 Zr
atom 2.4554407878337678 7.4869907534863351 12.4771205765792619 Zr
atom 7.4623441157687154 7.4551798086593664 12.4771205765297317 Zr
atom 2.4903530226137098 2.4831887155058525 17.4928194429953763 Zr
atom 7.4941550606107592 2.4482764807206170 17.4928194429440822 Zr
atom 2.4554407878381119 7.4869907534941609 17.4928194429347847 Zr
atom 7.4623441157633561 7.4551798086538188 17.4928194429856099 Zr
atom 2.7514636314697181 2.8127506707132093 9.9766434926109504 S
atom 7.1645931053967633 2.1871658718666431 9.9766434925779546 S
atom 2.1258788326242875 7.2258801446383831 9.9766434925647278 S
atom 7.7234547246186649 7.7847417638631482 9.9766434925994325 S
atom 2.2211914383426432 2.1533175890865728 14.9849700096063483 S
atom 7.8240261870202783 2.7174380649917054 14.9849700095880252 S
atom 2.7853119142483003 7.7561523377639308 14.9849700096033320 S
atom 7.1931825314911713 7.1253086822345537 14.9849700096273946 S
atom 2.8886486765022386 -0.0204795313881781 12.1654714384014930 S
atom 7.1258376533051146 -0.0509572334884400 12.8033642168009543 S
atom 2.0871233805335447 4.9877570392625508 12.8033642168007358 S
atom 7.8606397696519288 4.9515115617386805 12.1654714384013225 S
atom 2.8886486765084602 -0.0204795313866667 17.8044685810228849 S
atom 7.1258376532971095 -0.0509572335265865 17.1665758025951511 S
atom 2.0871233805246932 4.9877570392587263 17.1665758025949842 S
atom 7.8606397696559744 4.9515115617761136 17.8044685810225829 S
atom -0.0128820584326384 2.1167040064572156 12.1654714384018536 S
atom 4.9895867368489650 2.8515061228002274 12.8033642168001958 S
atom -0.0491275359206336 7.8902203955744383 12.8033642168016470 S
atom 4.9591090347131548 7.0886950996039166 12.1654714384006546 S
atom -0.0128820584147883 2.1167040064492544 17.8044685810232224 S
atom 4.9895867368325293 2.8515061228116685 17.1665758025940995 S
atom -0.0491275359423453 7.8902203955823795 17.1665758025956308 S
atom 4.9591090347364055 7.0886950995987306 17.8044685810228813 S
atom 0.2829821206242117 -0.1842081860208201 19.9852863078712346 Ba
atom 5.1895608689868267 -0.3163437104420758 19.9852863078722791 Ba
atom 0.1508465962154352 4.7223705623257404 19.9852863078721050 Ba
atom 5.2549732137724270 4.7877829071231357 19.9852863078711671 Ba
atom -0.2638390567610620 0.1853956722417597 24.9630285097716573 Ba
atom 4.8199570107190670 0.2304774669406500 24.9630285097714797 Ba
atom -0.2187572620532733 5.2691917397164518 24.9630285097708686 Ba
atom 4.7081520363874736 5.1573867653940448 24.9630285097723181 Ba
atom 2.4791468561962642 2.4892387064422028 22.5100253230426652 Zr
atom 7.4881050696736438 2.4594826471413032 22.5100253231310248 Zr
atom 2.4493907969007016 7.4981969199152783 22.5100253231437719 Zr
atom 7.4511379493463785 7.4612297995901029 22.5100253230565954 Zr
atom 2.4873004139658201 2.4744438560549757 27.5668635248148739 Zr
atom 7.5028999200014912 2.4513290893666935 27.5668635248297633 Zr
atom 2.4641856472319326 7.4900433621412530 27.5668635248273723 Zr
atom 7.4592915071115069 7.4464349492083066 27.5668635248113105 Zr
atom 2.7514636314634489 2.8127506707102450 19.9932965269267022 S
atom 7.1645931054005434 2.1871658718726152 19.9932965270035901 S
atom 2.1258788326288216 7.2258801446448571 19.9932965269993268 S
atom 7.7234547246118925 7.7847417638575322 19.9932965269191136 S
atom 2.2377777136736818 2.1884648789890422 25.0049575167961891 S
atom 7.7888788971197771 2.7008517896592283 25.0049575165559155 S
atom 2.7501646243478319 7.7395660624309572 25.0049575165442945 S
atom 7.2097688068223471 7.1604559721366616 25.0049575167864084 S
atom 2.8977976980537639 -0.0176036010278261 22.1831019927182957 S
atom 7.1222083740944280 -0.0477533726244362 22.8008217110176190 S
atom 2.0834941013226640 4.9909609001488286 22.8008217110177434 S
atom 7.8697887912017723 4.9543874921230850 22.1831019927182531 S
atom 2.8012786951590072 -0.0132110358774095 27.7218711796929469 S
atom 7.1879853407010597 -0.0437357441530511 27.2131412895877567 S
atom 2.1492710679283702 4.9949785286005959 27.2131412895873162 S
atom 7.7732697883087205 4.9587800572483607 27.7218711796929256 S
atom -0.0157579889145800 2.1075549849091555 22.1831019927187256 S
atom 4.9863828760874576 2.8551354020085435 22.8008217110171856 S
atom -0.0523313966841205 7.8938496747802018 22.8008217110161731 S
atom 4.9562331042334202 7.0795460780576036 22.1831019927179014 S
atom -0.0201505535038092 2.2040739877803976 27.7218711796943111 S
atom 4.9823652471545845 2.7893584354020335 27.2131412895897213 S
atom -0.0563490256186575 7.8280727081754309 27.2131412895896574 S
atom 4.9518405396462848 7.1760650809267563 27.7218711796962047 S
atom 0.0960510704154619 -0.1825200824754101 29.7513753410857156 Ba
atom 5.1878727654281533 -0.1294126602201195 29.7513753410967361 Ba
atom 0.1491584926563379 4.9093016125540183 29.7513753410992621 Ba
atom 5.0680421635637281 4.7894710106753839 29.7513753410833104 Ba
atom 2.6121175356472017 2.6954720624256265 30.0737942808910965 S
atom 7.2818717136658799 2.3265119676739032 30.0737942810192180 S
atom 2.2431574408931625 7.3652262404445761 30.0737942810263235 S
atom 7.5841086287957706 7.6674631555747519 30.0737942808975660 S
atom 2.6684930226933776 2.3899791436171354 33.1854678051081962 Ba
atom 7.5873646324845154 2.2701364806414297 33.1854678050881517 Ba
atom 2.5486503597088852 7.3088507534149860 33.1854678050872565 Ba
atom 7.6404841158463750 7.3619702367667799 33.1854678051086864 Ba
atom 2.3005872093947639 2.7498273034264811 37.9738441857755404 Ba
atom 7.2275164726883769 2.6380422939317496 37.9738441857762368 Ba
atom 2.1888021999121610 7.6767565667063495 37.9738441857752562 Ba
atom 7.2725783025469122 7.7218183965770004 37.9738441857760378 Ba
atom 4.9835142238071697 4.9707262901908589 35.3700027994342960 Zr
atom 9.9786085790677621 4.9271063727087716 35.3700027994494945 Zr
atom 4.9398943062949110 9.9658206454758957 35.3700027994501625 Zr
atom 9.9555053169517471 9.9427173833322584 35.3700027994384030 Zr
atom 4.9687668949830108 4.9788158842519898 40.4268525689383011 Zr
atom 9.9705189850021210 4.9418537014939865 40.4268525688546347 Zr
atom 4.9318047122343502 9.9805679742611364 40.4268525688671190 Zr
atom 9.9407579881307022 9.9508069773951551 40.4268525689120537 Zr
atom 4.7625685311623611 4.8459588571447618 32.8630574861283833 S
atom 10.1033760121215881 5.1480520653321351 32.8630574860272091 S
atom 5.0646617393479874 10.1867663381050342 32.8630574860344638 S
atom 9.7345596243087407 9.8179499502932188 32.8630574861124600 S
atom 5.2694993092750160 5.2201802609210670 37.9319160592580999 S
atom 9.7291546083322533 4.6411212872012504 37.9319160593856424 S
atom 4.6904403355594209 9.6798355599739221 37.9319160593661167 S
atom 10.2414904024238531 10.1921713540703447 37.9319160592902165 S
atom 4.6685829198177604 2.4756450918839064 35.7236722330766909 S
atom 10.2926461091786869 2.4394541252709412 35.2150722005553192 S
atom 5.2539318364036731 7.4781683980293883 35.2150722005584313 S
atom 9.6405740129642847 7.4476361850219286 35.7236722330761651 S
atom 4.6028721570773801 2.4715855828842836 40.1360618040767534 S
atom 10.3891511410997222 2.4350081798567578 40.7537920647746574 S
atom 5.3504368683283854 7.4737224526289445 40.7537920647740393 S
atom 9.5748632502285922 7.4435766760324746 40.1360618040795600 S
atom 2.4629844116969593 5.3087608562919426 35.7236722330779841 S
atom 7.4711664709256356 4.6566887600906588 35.2150722005592485 S
atom 2.4324521981924141 9.6954030328613001 35.2150722005582182 S
atom 7.4349755048141368 10.2807519494425375 35.7236722330778207 S
atom 2.4670439204733494 5.3744716190263544 40.1360618040776060 S
atom 7.4756124166077944 4.5601837281542217 40.7537920647743022 S
atom 2.4368981438161628 9.5988980009280453 40.7537920647745793 S
atom 7.4390350136399501 10.3464627121755743 40.1360618040776984 S
atom 2.6702205511002606 2.2029900688346431 42.9515726609607214 Ba
atom 7.7743537072709445 2.2684089522382656 42.9515726609606219 Ba
atom 2.7356394345067931 7.3071232250080778 42.9515726609606148 Ba
atom 7.6422116442405024 7.1749811619816288 42.9515726609604300 Ba
atom 2.3055207924277701 2.7660743768243696 47.9519040310740294 Ba
atom 7.2112693992799324 2.6331087109103537 47.9519040310734255 Ba
atom 2.1725551265062730 7.6718229836807099 47.9519040310739015 Ba
atom 7.2775118855777974 7.7380654699710512 47.9519040310729352 Ba
atom 4.9748112484937330 4.9676186512088547 45.4440452783203526 Zr
atom 9.9817162180485184 4.9358093479934730 45.4440452783158406 Zr
atom 4.9430019452794332 9.9745236207621026 45.4440452783010613 Zr
atom 9.9468023416422735 9.9396097443527811 45.4440452783358140 Zr
atom 4.9748112484873808 4.9676186512011036 50.4597627837822600 Zr
atom 9.9817162180569881 4.9358093479954999 50.4597627837924705 Zr
atom 4.9430019452833740 9.9745236207668277 50.4597627837925629 Zr
atom 9.9468023416359088 9.9396097443480897 50.4597627837949219 Zr
atom 4.6452589078141369 4.7065123538645333 42.9435775630959000 S
atom 10.2428225153897934 5.2653616886665020 42.9435775631376515 S
atom 5.2041082426180623 10.3040759614395654 42.9435775631441317 S
atom 9.6172500009649280 9.6785034470136502 42.9435775630967598 S
atom 5.3046533753320286 5.2367790538318424 47.9519040311765252 S
atom 9.7125558154272458 4.6059672211571874 47.9519040311865652 S
atom 4.6738415426551434 9.6446814939304417 47.9519040311999163 S
atom 10.2766444684805904 10.2087701469805570 47.9519040311557490 S
atom 4.6065042719715503 2.4683882255893863 45.7702725859117052 S
atom 10.3799972986518974 2.4321408845157655 45.1323804213698381 S
atom 5.3412830258804513 7.4708551572952784 45.1323804213701862 S
atom 9.5784953651218743 7.4403793187453742 45.7702725859098862 S
atom 4.6065042719811764 2.4683882255676086 50.1335354763076211 S
atom 10.3799972986481617 2.4321408845462589 50.7714276408274330 S
atom 5.3412830258744357 7.4708551573187068 50.7714276408259906 S
atom 9.5784953651275977 7.4403793187171257 50.1335354763067542 S
atom 2.4702412776825917 5.3708395041365202 45.7702725859108597 S
atom 7.4784797120236721 4.5693375706010917 45.1323804213697599 S
atom 2.4397654392363779 9.6080518433753408 45.1323804213703141 S
atom 7.4422323708444251 10.3428305972847525 45.7702725859104405 S
atom 2.4702412776717333 5.3708395041298553 50.1335354763071592 S
atom 7.4784797120327404 4.5693375706055788 50.7714276408266656 S
atom 2.4397654392795842 9.6080518433773143 50.7714276408267793 S
atom 7.4422323708018681 10.3428305972789687 50.1335354763073866 S
atom 2.6702205510883439 2.2029900688365331 52.9522354012588892 Ba
atom 7.7743537072766937 2.2684089522381683 52.9522354012585268 Ba
atom 2.7356394344994404 7.3071232250134051 52.9522354012587115 Ba
atom 7.6422116442423995 7.1749811619874366 52.9522354012590810 Ba
atom 2.3005872093885169 2.7498273034276721 57.9299638764302287 Ba
atom 7.2275164726868262 2.6380422939355617 57.9299638764302429 Ba
atom 2.1888021999150724 7.6767565667141042 57.9299638764313656 Ba
atom 7.2725783025362274 7.7218183965816873 57.9299638764309321 Ba
atom 4.9687668949716048 4.9788158842394816 55.4769554934341471 Zr
atom 9.9705189850155502 4.9418537014989710 55.4769554935315128 Zr
atom 4.9318047122418163 9.9805679742655862 55.4769554935478126 Zr
atom 9.9407579881205308 9.9508069773843459 55.4769554934308218 Zr
atom 4.9835142238122048 4.9707262901879661 60.5338052625987402 Zr
atom 9.9786085790755461 4.9271063727141220 60.5338052625763865 Zr
atom 4.9398943062997080 9.9658206454763807 60.5338052625693308 Zr
atom 9.9555053169672831 9.9427173833246005 60.5338052625875847 Zr
atom 4.6452589078115452 4.7065123538587263 52.9602304990287180 S
atom 10.2428225153955150 5.2653616886696115 52.9602304989585662 S
atom 5.2041082426228664 10.3040759614423827 52.9602304989449166 S
atom 9.6172500009578563 9.6785034470070705 52.9602304990209518 S
atom 5.2694993092682347 5.2201802609121915 57.9718920028751228 S
atom 9.7291546083388951 4.6411212872054728 57.9718920027276283 S
atom 4.6904403355677742 9.6798355599775796 57.9718920027159683 S
atom 10.2414904024174440 10.1921713540631504 57.9718920028871807 S
atom 4.6028721570810358 2.4715855828972155 55.7677462580851753 S
atom 10.3891511411041346 2.4350081798678036 55.1500159973859141 S
atom 5.3504368683308945 7.4737224526203097 55.1500159973864967 S
atom 9.5748632502291482 7.4435766760252191 55.7677462580857011 S
atom 4.6685829198134421 2.4756450919460216 60.1801358291478365 S
atom 10.2926461091862187 2.4394541252080510 60.6887358616742603 S
atom 5.2539318364158234 7.4781683979592026 60.6887358616752692 S
atom 9.6405740129631123 7.4476361850779993 60.1801358291486324 S
atom 2.4670439204893846 5.3744716190225228 55.7677462580856300 S
atom 7.4756124165889526 4.5601837281520572 55.1500159973864541 S
atom 2.4368981438293815 9.5988980009224605 55.1500159973853812 S
atom 7.4390350136257490 10.3464627121744073 55.7677462580868450 S
atom 2.4629844117292645 5.3087608562943212 60.1801358291459962 S
atom 7.4711664708816627 4.6566887600863387 60.6887358616721926 S
atom 2.4324521980952523 9.6954030328597653 60.6887358616731518 S
atom 7.4349755048888060 10.2807519494464810 60.1801358291458044 S
atom 2.6684930226875530 2.3899791436128979 62.7183402570473234 Ba
atom 7.5873646324846158 2.2701364806522006 62.7183402570622590 Ba
atom 2.5486503597146335 7.3088507534250544 62.7183402570601203 Ba
atom 7.6404841158338774 7.3619702367619029 62.7183402570459450 Ba
atom 4.7625685311539145 4.8459588571357566 63.0407505761769045 S
atom 10.1033760121333867 5.1480520653439266 63.0407505763081488 S
atom 5.0646617393630393 10.1867663381187690 63.0407505763209599 S
atom 9.7345596243017685 9.8179499502846017 63.0407505761836759 S
