#=======================================================
# FHI-aims file: full_relax/full_relax_RP_7_RxRyMz_RxRyMz.in
# Created using the Atomic Simulation Environment (ASE)
# Mon Mar 24 15:45:19 2025
#=======================================================
lattice_vector 10.0095890904181921 -0.0701961777692269 -0.0088055731206872 
lattice_vector -0.0701961777692163 10.0095890904181530 0.0088055731213064 
lattice_vector -0.0670738748748326 0.0670738748795021 75.9775308462887864 
atom 0.0627110385601782 -0.1492265151026071 0.2238691873521980 Ba
atom 5.1540210601918401 -0.0978091274348400 0.2194664022081704 Ba
atom 0.1141284262423657 4.9420835067114721 0.2282719746817803 Ba
atom 5.0324074946756427 4.8204699412349061 0.2238691865571114 Ba
atom -0.2925589492118222 0.2135927678283167 5.0122424448926752 Ba
atom 4.7912017774157931 0.2574608604727064 5.0078396580518687 Ba
atom -0.2486908564418726 5.2973534943364209 5.0166452317723458 Ba
atom 4.6771375070367469 5.1832892238604984 5.0122424449511209 Ba
atom 2.4566483175683635 2.5033457705708098 2.4055904006077768 Zr
atom 7.4711452277745565 2.4779500486700394 2.4011876136201775 Zr
atom 2.4312525956989690 7.5178426873209769 2.4099931864252988 Zr
atom 7.4263447713123503 7.4730422314635501 2.4055903995550207 Zr
atom 2.4517902874787061 2.5139907936137482 7.4632081160768173 Zr
atom 7.4605002068041939 2.4828080794126923 7.4588053308160456 Zr
atom 2.4206075733039962 7.5227007150260388 7.4676109028647373 Zr
atom 7.4214867433239275 7.4836872514807062 7.4632081169106890 Zr
atom 2.5800385550797507 2.7222947826362240 -0.1006437106404030 S
atom 7.2521962195630074 2.3545598126349083 -0.1050464957908870 S
atom 2.2123035848602606 7.3944524460555714 -0.0962409239268909 S
atom 7.5497350116995294 7.6919912382202362 -0.1006437090849908 S
atom 2.2097633692701222 2.2160820423532059 4.9690112168871101 S
atom 7.7584089595456023 2.7248349983957580 4.9646084288392096 S
atom 2.7185163251103974 7.7647276318276370 4.9734140042341410 S
atom 7.1794598258186912 7.1857784982679132 4.9690112160547768 S
atom 2.7673464220198021 0.0163743055365017 2.2507295192156933 S
atom 7.1567136135827054 -0.0163704487295574 2.7539362785281076 S
atom 2.1168209786192187 5.0235221852955334 2.7627418519486047 S
atom 7.7370428788788086 4.9860707619720488 2.2507295192291834 S
atom 2.8730797576439291 0.0071232847222710 7.7891904526175670 S
atom 7.0943027844730500 -0.0243355235540896 7.1683468788249263 S
atom 2.0544101500591823 5.0155571124183851 7.1771524518498850 S
atom 7.8427762142289446 4.9768197429591901 7.7891904526772278 S
atom -0.0514723956400218 2.2374481231382934 2.2551323058056449 S
atom 4.9509688170530453 2.8177773888278730 2.7583390651588213 S
atom -0.0889238188485345 7.8576700222807450 2.7671446384150333 S
atom 4.9182240633122145 7.2071445787600563 2.2551323058669221 S
atom -0.0422213742683809 2.1317147874463798 7.7935932392393754 S
atom 4.9589338897698987 2.8801882174579143 7.1727496652685190 S
atom -0.0809587436017179 7.9200808510574330 7.1815552385256209 S
atom 4.9274750813545456 7.1014112437443204 7.7935932391668068 S
atom 0.2609903635296680 -0.1608952509213092 9.9895163012231425 Ba
atom 5.1656897964239112 -0.2960884522331925 9.9851135144826113 Ba
atom 0.1257971621152468 4.7438041814238572 9.9939190879051889 Ba
atom 5.2306868200386072 4.8088012049287485 9.9895163011931967 Ba
atom -0.3012010447736183 0.1994915128907460 14.9932818470467879 Ba
atom 4.8053030320922172 0.2661029557377652 14.9888790605193254 Ba
atom -0.2345896019474015 5.3059955901970222 14.9976846336482623 Ba
atom 4.6684954114776032 5.1691879695989220 14.9932818470962115 Ba
atom 2.4689623971559529 2.5029699572607416 12.4803451285455225 Zr
atom 7.4715210442586351 2.4656359699285400 12.4759423412392945 Zr
atom 2.4316284098713106 7.5055286043750762 12.4847479161564614 Zr
atom 7.4386588539636778 7.4726664137320968 12.4803451292294412 Zr
atom 2.4694035864401256 2.5002928708839209 17.4948261762356339 Zr
atom 7.4741981307417298 2.4651947808700898 17.4904233886004441 Zr
atom 2.4343054963214876 7.5050874151700597 17.4992289624919763 Zr
atom 7.4391000429727576 7.4699893273449005 17.4948261754608723 Zr
atom 2.7264171783632993 2.8346912530372967 9.9816187831118892 S
atom 7.1397997485555127 2.2081811891055407 9.9772159962055458 S
atom 2.0999071145073418 7.2480738230335637 9.9860215679605133 S
atom 7.6961136347131376 7.8043877090761473 9.9816187826915179 S
atom 2.2005587761568961 2.1707552691519485 14.9904092784628133 S
atom 7.8037357324046974 2.7340395912995854 14.9860064935547328 S
atom 2.7638430984554767 7.7739322254070249 14.9948120650215291 S
atom 7.1702552324493771 7.1404517253483002 14.9904092776498725 S
atom 2.8679310413544234 0.0000056786010056 12.1691507711227640 S
atom 7.1029243583997950 -0.0328696030752492 12.8038563565330712 S
atom 2.0630317243910548 5.0070230312371526 12.8126619296411395 S
atom 7.8376274976250695 4.9697021352805022 12.1691507710650093 S
atom 2.8712474097341252 -0.0037561202336163 17.8131747092277166 S
atom 7.1074523964509728 -0.0355507709623941 17.1676720828267015 S
atom 2.0675597623607000 5.0043418610872230 17.1764776559030743 S
atom 7.8409438659695478 4.9659403340697859 17.8131747091618884 S
atom -0.0351037661384182 2.1368635038568113 12.1735535576526459 S
atom 4.9674679689164227 2.8715666431783897 12.8082591431163166 S
atom -0.0724246651959149 7.9114592771775136 12.8170647161849125 S
atom 4.9345926901483326 7.1065599601224525 12.1735535576406964 S
atom -0.0313419688948925 2.1335471357010873 17.8175774956510686 S
atom 4.9701491406197897 2.8670386049896863 17.1720748693825911 S
atom -0.0697434942437153 7.9069312392188245 17.1808804424733594 S
atom 4.9383544882529442 7.1032435917195125 17.8175774958654429 S
atom 0.2703117603988012 -0.1686022286852307 19.9963705144725346 Ba
atom 5.1733967734128568 -0.3054098492078575 19.9919677278075518 Ba
atom 0.1335041398817043 4.7344827851887743 20.0007733011174800 Ba
atom 5.2400082162306889 4.8010942280523912 19.9963705144659336 Ba
atom -0.2918796476816772 0.1917845354376026 25.0001360650490660 Ba
atom 4.8130100093163248 0.2567815589546853 24.9957332783941055 Ba
atom -0.2268826242269140 5.2966741933224348 25.0045388517350524 Ba
atom 4.6778168080593021 5.1614809920964504 25.0001360650740345 Ba
atom 2.4698447743270058 2.4976157837719812 22.5093072375163814 Zr
atom 7.4768752183183018 2.4647535930588522 22.5049044512655598 Zr
atom 2.4369825835513321 7.5046462266949732 22.5137100242391348 Zr
atom 7.4395412313579774 7.4673122396287352 22.5093072375857126 Zr
atom 2.4870168831140083 2.4865949462123305 27.5264442566800938 Zr
atom 7.4878960564857939 2.4475814844863035 27.5220414706509153 Zr
atom 2.4480034214380537 7.4874741172121837 27.5308470421414384 Zr
atom 7.4567133406612314 7.4562914011592198 27.5264442568207635 Zr
atom 2.7382483960434891 2.8298304718801681 19.9992430918138666 S
atom 7.1446605297254031 2.1963499715300627 19.9948403059098681 S
atom 2.1047678954719400 7.2362426055559013 20.0036458786045372 S
atom 7.7079448521776603 7.7995269282934601 19.9992430936330656 S
atom 2.2123899934026934 2.1658944877708382 25.0080335710559929 S
atom 7.8085965134693032 2.7222083739207341 25.0036307834016469 S
atom 2.7687038797896557 7.7621010082725892 25.0124363576348543 S
atom 7.1820864496657251 7.1355909442586656 25.0080335695371865 S
atom 2.8757754473579307 -0.0064372907065583 22.1769904339551722 S
atom 7.1107687650758784 -0.0393125710086435 22.8116960180171944 S
atom 2.0708761309142560 5.0005800624400489 22.8205015912146649 S
atom 7.8454719032403561 4.9632591649683953 22.1769904341446527 S
atom 2.8843970218615396 -0.0149713703102833 27.8124999107401791 S
atom 7.1056200476134643 -0.0464301784551090 27.1916563359958054 S
atom 2.0657274138523731 4.9934624546457567 27.2004619091981681 S
atom 7.8540934777707916 4.9547250849826856 27.8124999105876682 S
atom -0.0286607991847152 2.1290190981389334 22.1813932206595830 S
atom 4.9739109401078192 2.8637222363902333 22.8160988046330644 S
atom -0.0659816968819878 7.9036148706915936 22.8249043777211895 S
atom 4.9410356599561744 7.0987155543158931 22.1813932205508451 S
atom -0.0201267185931179 2.1203975235209551 27.8169026971507840 S
atom 4.9810285469629942 2.8688709536009114 27.1960591225847885 S
atom -0.0588640876627579 7.9087635879888349 27.2048646957291922 S
atom 4.9495697380922916 7.0900939799359275 27.8169026973121660 S
atom 0.2616696647425278 -0.1827034833888808 29.9774099188239340 Ba
atom 5.1874980287240264 -0.2967677536951024 29.9730071321076323 Ba
atom 0.1476053945088987 4.7431248802620525 29.9818127054060284 Ba
atom 5.2313661212993523 4.7869929728101672 29.9774099187035183 Ba
atom -0.0936003230694801 0.1801157991076185 34.7657831730059783 Ba
atom 4.8246787461281517 0.0585022341795097 34.7613803869859481 Ba
atom -0.2152138880730683 5.0983948683035489 34.7701859595100089 Ba
atom 4.8760961333193302 5.1498122553917876 34.7657831732972298 Ba
atom 2.4821588538589534 2.4972399686947586 32.5840619547083605 Zr
atom 7.4772510345787024 2.4524395133513512 32.5796591683431487 Zr
atom 2.4373583981042000 7.4923321456871994 32.5884647417512596 Zr
atom 7.4518553127058844 7.4669364233718341 32.5840619552127251 Zr
atom 2.7290438022911045 2.7845036983589821 30.0206411442124761 S
atom 7.1899873029316126 2.2055545651660573 30.0162383578042657 S
atom 2.1500946691511609 7.2454471995303749 30.0250439324075842 S
atom 7.6987402583112026 7.7542001549746029 30.0206411450404644 S
atom 2.3587686164107011 2.2782909580554414 35.0902960807394706 S
atom 7.6962000431533646 2.5758297510057009 35.0858932934621848 S
atom 2.6563074093194907 7.6157223852978735 35.0946988660366870 S
atom 7.3284650724575577 7.2479874146707770 35.0902960797613801 S
atom 2.8219861931767589 -0.0229364458196901 32.2269105130990994 S
atom 7.2113533830005050 -0.0556811988019885 32.7301172729312029 S
atom 2.1714607494049982 4.9842114365236414 32.7389228459516133 S
atom 7.7916826489902675 4.9467600114741472 32.2269105132886295 S
atom -0.0121616446193322 2.1828083521717385 32.2313132998359677 S
atom 4.9902795670438298 2.7631376181828156 32.7345200595595287 S
atom -0.0496130667781470 7.8030302523119248 32.7433256324285935 S
atom 4.9575348112513735 7.1525048087228003 32.2313132996411298 S
atom 2.5140223292435508 2.3691586507555447 38.2126346111023381 Ba
atom 7.6053323508778883 2.4205760381327526 38.2082318248681716 Ba
atom 2.5654397166652076 7.4604686722143541 38.2170373985025833 Ba
atom 7.4837187857684011 7.3388551069867249 38.2126346121335771 Ba
atom 2.1587523415300578 2.7319779335335741 43.0010078688667576 Ba
atom 7.2425130681889369 2.7758460261430660 42.9966050820483545 Ba
atom 2.2026204341558753 7.8157386597409557 43.0054106550057753 Ba
atom 7.1284487977835198 7.7016743894984128 43.0010078681734100 Ba
atom 4.9079596079568022 5.0217309398305536 40.3943558257786748 Zr
atom 9.9224565186266869 4.9963352191042540 40.3899530386300256 Zr
atom 4.8825638870041033 10.0362278488680232 40.3987586117156994 Zr
atom 9.8776560617058387 9.9914273921485570 40.3943558247434211 Zr
atom 4.9031015781499816 5.0323759603628337 45.4519735382541867 Zr
atom 9.9118114979444236 5.0011932463234929 45.4475707493023933 Zr
atom 4.8719188636063624 10.0410858793039317 45.4563763279809478 Zr
atom 9.8727980341881878 10.0020724162185726 45.4519735406067795 Zr
atom 5.0313498458957664 5.2406799478146580 37.8881217119079210 S
atom 9.7035075099013142 4.8729449774451883 37.8837189252857129 S
atom 4.6636148754782916 9.9128376119884294 37.8925244980397764 S
atom 10.0010463025051966 10.2103764045552552 37.8881217128046544 S
atom 4.6610746600285262 4.7344672075574294 42.9577766385084843 S
atom 10.2097202501324258 5.2432201633584929 42.9533738534665304 S
atom 5.1698276159106440 10.2831127979854653 42.9621794250627644 S
atom 9.6307711165509993 9.7041636642898634 42.9577766369355061 S
atom 5.2186577129848351 2.5347594718877189 40.2394949418337191 S
atom 9.6080249038566645 2.5020147152711911 40.7427017014241457 S
atom 4.5681322695875775 7.5419073506569685 40.7515072743047782 S
atom 10.1883541694117330 7.5044559291269612 40.2394949419416008 S
atom 5.3243910486322310 2.5255084519847784 45.7779558760795240 S
atom 9.5456140749485066 2.4940496443824984 45.1571123017213623 S
atom 4.5057214408029242 7.5339422765946855 45.1659178749552055 S
atom 10.2940875049707756 7.4952049059939370 45.7779558761516228 S
atom 2.3998388971814588 4.7558332879143883 40.2438977282554831 S
atom 7.4022801061092904 5.3361625536952797 40.7471044876955517 S
atom 2.3623874717227946 10.3760551885602936 40.7559100611556673 S
atom 7.3695353540354214 9.7255297451433051 40.2438977286075072 S
atom 2.4090899154366365 4.6500999530487803 45.7823586627561383 S
atom 7.4102451814798611 5.3985733826907358 45.1615150885729832 S
atom 2.3703525470636868 10.4384660172438668 45.1703206612138288 S
atom 7.3787863722079363 9.6197964091591057 45.7823586626154793 S
atom 2.7123016548617995 2.3574899130948452 47.9782817231273242 Ba
atom 7.6170010867170967 2.2222967120645629 47.9738789366891254 Ba
atom 2.5771084537444309 7.2621893482548900 47.9826845091974548 Ba
atom 7.6819981100086840 7.3271863718399697 47.9782817227622900 Ba
atom 2.1501102467434512 2.7178766781237864 52.9820472715478061 Ba
atom 7.2566143223939958 2.7844881217078981 52.9776444849139736 Ba
atom 2.2167216894623794 7.8243807557779315 52.9864500581804521 Ba
atom 7.1198067021079030 7.6875731344865716 52.9820472714242570 Ba
atom 4.9202736885417293 5.0213551219250778 50.4691105510112195 Zr
atom 9.9228323340839566 4.9840211345684144 50.4647077620387847 Zr
atom 4.8829397005113533 10.0239137705032579 50.4735133313820441 Zr
atom 9.8899701440192800 9.9910515807589384 50.4691105474778254 Zr
atom 4.9207148762777626 5.0186780354199989 55.4835916078648097 Zr
atom 9.9255094212226460 4.9835799469870148 55.4791888293052793 Zr
atom 4.8856167878131718 10.0234725818064963 55.4879943954429251 Zr
atom 9.8904113328168588 9.9883744922349269 55.4835916094541446 Zr
atom 5.1777284691174223 5.3530764183091151 47.9703842094194002 S
atom 9.5911110399824508 4.7265663551462334 47.9659814277116823 S
atom 4.5512184051130733 9.7664589887606716 47.9747869938281823 S
atom 10.1474249252085311 10.3227728749559997 47.9703842092417787 S
atom 4.6518700662078398 4.6891404341373670 52.9791746926335207 S
atom 10.2550470231725903 5.2524247573271410 52.9747719042555048 S
atom 5.2151543892228842 10.2923173911229071 52.9835774921052902 S
atom 9.6215665227094966 9.6588368903228154 52.9791746972721640 S
atom 5.3192423318861621 2.5183908465286615 50.1579161953732964 S
atom 9.5542356496819405 2.4855155696944395 50.7926217800918067 S
atom 4.5143430147097607 7.5254081946930169 50.8014273536403849 S
atom 10.2889387881509098 7.4880872934194027 50.1579161958976485 S
atom 5.3225587003516202 2.5146290351362932 55.8019401302473455 S
atom 9.5587636868652268 2.4828343935619679 55.1564375040563988 S
atom 4.5188710526199412 7.5227270366669634 55.1652430771491709 S
atom 10.2922551566815130 7.4843255007698168 55.8019401305613698 S
atom 2.4162075184571390 4.6552486704919174 50.1623189824652442 S
atom 7.4187792658667657 5.3899518081615572 50.7970245665295863 S
atom 2.3788866245326075 10.4298444429460151 50.8058301403570951 S
atom 7.3859039821536436 9.6249451253593978 50.1623189819200803 S
atom 2.4199693189535849 4.6519323009645408 55.8063429173350940 S
atom 7.4214604347213680 5.3854237711523627 55.1608402903114978 S
atom 2.3815678024785698 10.4253164043595774 55.1696458639700325 S
atom 7.3896657730978088 9.6216287582363869 55.8063429166221923 S
atom 2.7216230504596215 2.3497829377806636 57.9851359389450565 Ba
atom 7.6247080654221717 2.2129753172414506 57.9807331525300214 Ba
atom 2.5848154297994896 7.2528679496557329 57.9895387251656445 Ba
atom 7.6913195081678856 7.3194793921289003 57.9851359389576615 Ba
atom 2.1594316408975041 2.7101697015693786 62.9889014846604454 Ba
atom 7.2643213024610684 2.7751667244780052 62.9844986983126205 Ba
atom 2.2244286650018710 7.8150593582719248 62.9933042713702136 Ba
atom 7.1291281003479146 7.6798661572813414 62.9889014849007154 Ba
atom 4.9211560652507993 5.0160009481163588 60.4980726473393275 Zr
atom 9.9281865092086150 4.9831387582747197 60.4936698662249626 Zr
atom 4.8882938760054175 10.0230313942749927 60.5024754390731090 Zr
atom 9.8908525202909097 9.9856974056877181 60.4980726521962566 Zr
atom 4.9383281764446609 5.0049801123551241 65.5152096856654680 Zr
atom 9.9392073457083878 4.9659666486132208 65.5108068842085345 Zr
atom 4.8993147137779234 10.0058592837008202 65.5196124596418770 Zr
atom 9.9080246300619521 9.9746765687917165 65.5152096784973850 Zr
atom 5.1895596859256550 5.3482156373891661 57.9880085209499327 S
atom 9.5959718203224682 4.7147351374667243 57.9836057187857037 S
atom 4.5560791868713553 9.7546277716452359 57.9924112911685157 S
atom 10.1592561427419508 10.3179120932100279 57.9880085129068021 S
atom 4.6637012839717951 4.6842796536433644 62.9967990024136597 S
atom 10.2599078055793012 5.2405935402851673 62.9923962227230803 S
atom 5.2200151699738084 10.2804861738706812 63.0012017991186966 S
atom 9.6333977402686681 9.6539761096544154 62.9967990043747008 S
atom 5.3270867372809514 2.5119478805305904 60.1657558581866567 S
atom 9.5620800551154943 2.4790725875722521 60.8004614434542106 S
atom 4.5221874216069722 7.5189652219682950 60.8092670162592910 S
atom 10.2967831948671904 7.4816443374754256 60.1657558575879321 S
atom 5.3357083113441606 2.5034137910259782 65.8012653326900789 S
atom 9.5569313388940014 2.4719549844306306 65.1804217599402307 S
atom 4.5170387051367804 7.5118476240402208 65.1892273334127168 S
atom 10.3054047690285309 7.4731102532866824 65.8012653335544968 S
atom 2.4226505036512691 4.6474042631929731 60.1701586445307584 S
atom 7.4252222184540333 5.3821074031979643 60.8048642300066362 S
atom 2.3853295933501268 10.4220000366482619 60.8136698029512672 S
atom 7.3923469513800661 9.6171007196281764 60.1701586442499519 S
atom 2.4311845764860132 4.6387826892019923 65.8056681198525268 S
atom 7.4323398328767594 5.3872561192982591 65.1848245464668850 S
atom 2.3924472087784521 10.4271487525158744 65.1936301199890522 S
atom 7.4008810230282522 9.6084791463819599 65.8056681196506048 S
atom 2.7129809550813175 2.3356816832721319 67.9661753437462295 Ba
atom 7.6388093198125144 2.2216174123818511 67.9617725573323952 Ba
atom 2.5989166856851371 7.2615100448539485 67.9705781300934575 Ba
atom 7.6826774112936187 7.3053781377629301 67.9661753437397635 Ba
atom 2.3577109684426834 2.6985009646674367 72.7545485974435593 Ba
atom 7.2759900358332619 2.5768874001050683 72.7501458099317091 Ba
atom 2.2360974030413940 7.6167800342089178 72.7589513841794542 Ba
atom 7.3274074237008664 7.6681974210250869 72.7545485968480534 Ba
atom 4.9334701489288104 5.0156251315025164 70.5728273840828706 Zr
atom 9.9285623188240226 4.9708246760201735 70.5684245975385380 Zr
atom 4.8886696903639244 10.0107173122887669 70.5772301751540283 Zr
atom 9.9031666008820611 9.9853215903473380 70.5728273852025296 Zr
atom 5.1803550924670265 5.3028888645552081 68.0094065516476292 S
atom 9.6412985942392186 4.7239397309511775 68.0050037863762356 S
atom 4.6014059601472868 9.7638323650632639 68.0138093510499715 S
atom 10.1500515497771442 10.2725853203619621 68.0094065590557761 S
atom 4.8100799062201087 4.7966761232551409 73.0790615074380128 S
atom 10.1475113334399794 5.0942149162575170 73.0746587089029589 S
atom 5.1076186989069878 10.1341075498061475 73.0834642803773562 S
atom 9.7797763635049346 9.7663725797538934 73.0790615033865834 S
atom 5.2732974835163082 2.4954487053439900 70.2156759350460646 S
atom 9.6626646740457485 2.4627039805579813 70.7188826948709988 S
atom 4.6227720383417834 7.5025966198673126 70.7276882688090183 S
atom 10.2429939401989856 7.4651451660600321 70.2156759348892336 S
atom 2.4391496297116486 4.7011935175090018 70.2200787212699851 S
atom 7.4415908774759840 5.2815227830335401 70.7232854816786300 S
atom 2.4016982356773280 10.3214154170583416 70.7320910546736457 S
atom 7.4088460923075425 9.6708899741445311 70.2200787215470115 S
