#=======================================================
# FHI-aims file: full_relax/full_relax_RP_9_00Rz1_00Rz2.in
# Created using the Atomic Simulation Environment (ASE)
# Mon Mar 24 16:23:49 2025
#=======================================================
lattice_vector 9.8975612843486047 -0.0000000339110014 0.0000000000000324 
lattice_vector -0.0000000339110014 9.8975612843486047 -0.0000000000000022 
lattice_vector 0.0000000000003022 -0.0000000000000205 97.8548261980240284 
atom -0.0000000000001169 -0.0000000000043223 0.1595951728198805 Ba
atom 4.9487806421739648 -0.0000000169611320 0.1595951728198540 Ba
atom -0.0000000169558616 4.9487806421685931 0.1595951728199609 Ba
atom 4.9487806252186406 4.9487806252146989 0.1595951728201977 Ba
atom -0.0000000000018628 -0.0000000000021686 5.0704793564407202 Ba
atom 4.9487806421732552 -0.0000000169537940 5.0704793564408250 Ba
atom -0.0000000169564709 4.9487806421760805 5.0704793564407966 Ba
atom 4.9487806252169300 4.9487806252165516 5.0704793564408499 Ba
atom 2.4743903126079534 2.4743903126069902 2.4385583135721673 Zr
atom 7.4231709547832461 2.4743902956517023 2.4385583135722340 Zr
atom 2.4743902956534516 7.4231709547814910 2.4385583135721260 Zr
atom 7.4231709378267574 7.4231709378258000 2.4385583135720532 Zr
atom 2.4743903126082363 2.4743903126080635 7.5807392991073730 Zr
atom 7.4231709547823339 2.4743902956525168 7.5807392991072851 Zr
atom 2.4743902956525647 7.4231709547823268 7.5807392991072398 Zr
atom 7.4231709378270212 7.4231709378269013 7.5807392991073579 Zr
atom 2.4743903126030573 2.4743903126070661 -0.1048949091626792 S
atom 7.4231709547878095 2.4743902956537496 -0.1048949091626913 S
atom 2.4743902956579329 7.4231709547833473 -0.1048949091627006 S
atom 7.4231709378219541 7.4231709378257253 -0.1048949091628917 S
atom 2.4743903126121305 2.4743903126081190 5.0442335664413216 S
atom 7.4231709547788327 2.4743902956508497 5.0442335664413127 S
atom 2.4743902956491439 7.4231709547808604 5.0442335664412505 S
atom 7.4231709378308324 7.4231709378271553 5.0442335664412985 S
atom 2.0428521582440267 0.0000001073362999 2.5334241815179914 S
atom 7.8547091261021835 -0.0000001412510978 2.5334241815158576 S
atom 2.9059284669724774 4.9487805178787196 2.5334241815159362 S
atom 6.9916327834626539 4.9487807325551314 2.5334241815181517 S
atom 3.0114592042857447 -0.0000000053045597 7.6051763459382418 S
atom 6.8861020800602057 -0.0000000286095241 7.6051763459391690 S
atom 1.9373214209305065 4.9487806305202460 7.6051763459389541 S
atom 7.9602398295044914 4.9487806199142232 7.6051763459380464 S
atom -0.0000001242947501 2.9059284839282169 2.5334241815219176 S
atom 4.9487807495114833 2.0428521412886798 2.5334241815121517 S
atom 0.0000000903816403 6.9916328004184267 2.5334241815122009 S
atom 4.9487805009240970 7.8547091091470334 2.5334241815217062 S
atom -0.0000000116537161 1.9373214378860522 7.6051763459367656 S
atom 4.9487806368700742 3.0114591873303254 7.6051763459404107 S
atom -0.0000000222597028 7.9602398464600874 7.6051763459403849 S
atom 4.9487806135650825 6.8861020631048175 7.6051763459367514 S
atom -0.0000000000012479 -0.0000000000001042 10.1597324883539031 Ba
atom 4.9487806421726779 -0.0000000169569588 10.1597324883540132 Ba
atom -0.0000000169570613 4.9487806421727720 10.1597324883539084 Ba
atom 4.9487806252175286 4.9487806252186610 10.1597324883539049 Ba
atom -0.0000000000013153 -0.0000000000015516 15.2685301695858779 Ba
atom 4.9487806421730314 -0.0000000169566453 15.2685301695859259 Ba
atom -0.0000000169567821 4.9487806421731664 15.2685301695859295 Ba
atom 4.9487806252173741 4.9487806252172160 15.2685301695858637 Ba
atom 2.4743903126080755 2.4743903126079765 12.6997242254948599 Zr
atom 7.4231709547824378 2.4743902956525017 12.6997242254947711 Zr
atom 2.4743902956526318 7.4231709547822611 12.6997242254948191 Zr
atom 7.4231709378268826 7.4231709378267476 12.6997242254949079 Zr
atom 2.4743903126081177 2.4743903126078544 17.8177534957057411 Zr
atom 7.4231709547824325 2.4743902956523649 17.8177534957057979 Zr
atom 2.4743902956526198 7.4231709547821527 17.8177534957058299 Zr
atom 7.4231709378269226 7.4231709378266499 17.8177534957058086 Zr
atom 2.4743903126069635 2.4743903126073103 10.1547417174278216 S
atom 7.4231709547837621 2.4743902956524479 10.1547417174278127 S
atom 2.4743902956539490 7.4231709547821305 10.1547417174278003 S
atom 7.4231709378257973 7.4231709378260096 10.1547417174278323 S
atom 2.4743903126084525 2.4743903126078366 15.2665063272251658 S
atom 7.4231709547821758 2.4743902956522046 15.2665063272251498 S
atom 2.4743902956523076 7.4231709547819467 15.2665063272251498 S
atom 7.4231709378272965 7.4231709378265993 15.2665063272252066 S
atom 1.9382426614965833 -0.0000000093650908 12.7160028881698040 S
atom 7.9593186228494099 -0.0000000245489489 12.7160028881696032 S
atom 3.0105379637196386 4.9487806345808352 12.7160028881696281 S
atom 6.8870232867153200 4.9487806158536891 12.7160028881698679 S
atom 3.0108025949998845 -0.0000000080516399 17.8246271944050143 S
atom 6.8867586893461459 -0.0000000258624867 17.8246271944052666 S
atom 1.9379780302163723 4.9487806332672912 17.8246271944052417 S
atom 7.9595832202187022 4.9487806171671513 17.8246271944052630 S
atom -0.0000000075931830 3.0105379806750774 12.7160028881702036 S
atom 4.9487806328094495 1.9382426445409520 12.7160028881692799 S
atom -0.0000000263203539 6.8870233036707207 12.7160028881691360 S
atom 4.9487806176256228 7.9593186058937926 12.7160028881703031 S
atom -0.0000000089066997 1.9379780471715964 17.8246271944050925 S
atom 4.9487806341229490 3.0108025780441334 17.8246271944053056 S
atom -0.0000000250068364 7.9595832371738631 17.8246271944052985 S
atom 4.9487806163120878 6.8867586723903393 17.8246271944050676 S
atom -0.0000000000012384 -0.0000000000014950 20.3789000460878604 Ba
atom 4.9487806421729728 -0.0000000169570548 20.3789000460878498 Ba
atom -0.0000000169566972 4.9487806421727623 20.3789000460878214 Ba
atom 4.9487806252175961 4.9487806252173101 20.3789000460876686 Ba
atom -0.0000000000012827 -0.0000000000013983 25.4905497342640786 Ba
atom 4.9487806421731708 -0.0000000169569226 25.4905497342641709 Ba
atom -0.0000000169566477 4.9487806421728529 25.4905497342640821 Ba
atom 4.9487806252174629 4.9487806252173936 25.4905497342640999 Ba
atom 2.4743903126081319 2.4743903126078735 22.9347248901761063 Zr
atom 7.4231709547824138 2.4743902956523836 22.9347248901761880 Zr
atom 2.4743902956526407 7.4231709547821403 22.9347248901761738 Zr
atom 7.4231709378269057 7.4231709378266482 22.9347248901760956 Zr
atom 2.4743903126081483 2.4743903126078566 28.0516962846466136 Zr
atom 7.4231709547824165 2.4743902956523729 28.0516962846466988 Zr
atom 2.4743902956526358 7.4231709547821483 28.0516962846465923 Zr
atom 7.4231709378269217 7.4231709378266482 28.0516962846465177 Zr
atom 2.4743903126079618 2.4743903126077753 20.3786780882543326 S
atom 7.4231709547825169 2.4743902956523836 20.3786780882544178 S
atom 2.4743902956526909 7.4231709547821279 20.3786780882543432 S
atom 7.4231709378268302 7.4231709378265354 20.3786780882543610 S
atom 2.4743903126081812 2.4743903126079636 25.4907716920978125 S
atom 7.4231709547823277 2.4743902956521961 25.4907716920978800 S
atom 2.4743902956527402 7.4231709547819413 25.4907716920977840 S
atom 7.4231709378267823 7.4231709378267183 25.4907716920977769 S
atom 1.9375884960264871 -0.0000000089252534 22.9347248901760317 S
atom 7.9599727883195444 -0.0000000249888684 22.9347248901760743 S
atom 3.0111921291897765 4.9487806341409488 22.9347248901759535 S
atom 6.8863691212452602 4.9487806162935666 22.9347248901760672 S
atom 3.0108025949999568 -0.0000000080516293 28.0448225859467328 S
atom 6.8867586893461539 -0.0000000258624842 28.0448225859471307 S
atom 1.9379780302163296 4.9487806332673321 28.0448225859470881 S
atom 7.9595832202187040 4.9487806171671975 28.0448225859467222 S
atom -0.0000000080330940 3.0111921461450422 22.9347248901760317 S
atom 4.9487806332493314 1.9375884790707225 22.9347248901759677 S
atom -0.0000000258804757 6.8863691382005339 22.9347248901759677 S
atom 4.9487806171857045 7.9599727713637956 22.9347248901760707 S
atom -0.0000000089066898 1.9379780471715642 28.0448225859468145 S
atom 4.9487806341229392 3.0108025780442311 28.0448225859468465 S
atom -0.0000000250068388 7.9595832371739306 28.0448225859467577 S
atom 4.9487806163120753 6.8867586723903704 28.0448225859470739 S
atom -0.0000000000010895 -0.0000000000015744 30.6009196107662689 Ba
atom 4.9487806421729834 -0.0000000169570675 30.6009196107662973 Ba
atom -0.0000000169568647 4.9487806421726663 30.6009196107661623 Ba
atom 4.9487806252176556 4.9487806252171369 30.6009196107663506 Ba
atom -0.0000000000013055 -0.0000000000018482 35.7097172919988495 Ba
atom 4.9487806421736193 -0.0000000169571398 35.7097172919988708 Ba
atom -0.0000000169559616 4.9487806421725313 35.7097172919987358 Ba
atom 4.9487806252175766 4.9487806252169753 35.7097172919986505 Ba
atom 2.4743903126081586 2.4743903126077540 33.1697255548578340 Zr
atom 7.4231709547824840 2.4743902956522401 33.1697255548579690 Zr
atom 2.4743902956526540 7.4231709547820488 33.1697255548579122 Zr
atom 7.4231709378269857 7.4231709378265665 33.1697255548577701 Zr
atom 2.4743903126082079 2.4743903126076514 38.2887104812459214 Zr
atom 7.4231709547824654 2.4743902956522539 38.2887104812460279 Zr
atom 2.4743902956527313 7.4231709547820310 38.2887104812459000 Zr
atom 7.4231709378269368 7.4231709378264563 38.2887104812459782 Zr
atom 2.4743903126081386 2.4743903126076412 30.6029434531272067 S
atom 7.4231709547823428 2.4743902956525732 30.6029434531272990 S
atom 2.4743902956524879 7.4231709547822948 30.6029434531272422 S
atom 7.4231709378269670 7.4231709378263853 30.6029434531272351 S
atom 2.4743903126080888 2.4743903126083087 35.7147080629249629 S
atom 7.4231709547821874 2.4743902956516286 35.7147080629249487 S
atom 2.4743902956523773 7.4231709547815683 35.7147080629251050 S
atom 7.4231709378268986 7.4231709378272868 35.7147080629249771 S
atom 1.9382426614965034 -0.0000000093652063 33.1534468921829557 S
atom 7.9593186228495911 -0.0000000245490501 33.1534468921822949 S
atom 3.0105379637198033 4.9487806345807650 33.1534468921827639 S
atom 6.8870232867153947 4.9487806158536003 33.1534468921831049 S
atom 3.0114592042860049 -0.0000000053046783 38.2642734344136244 S
atom 6.8861020800603026 -0.0000000286096316 38.2642734344155144 S
atom 1.9373214209304928 4.9487806305201287 38.2642734344153723 S
atom 7.9602398295047818 4.9487806199140980 38.2642734344132975 S
atom -0.0000000075931553 3.0105379806749535 33.1534468921824796 S
atom 4.9487806328094157 1.9382426445406353 33.1534468921829486 S
atom -0.0000000263203239 6.8870233036703707 33.1534468921828918 S
atom 4.9487806176255740 7.9593186058936363 33.1534468921825365 S
atom -0.0000000116538234 1.9373214378854680 38.2642734344142923 S
atom 4.9487806368700120 3.0114591873299759 38.2642734344146120 S
atom -0.0000000222598209 7.9602398464596744 38.2642734344147897 S
atom 4.9487806135650141 6.8861020631041612 38.2642734344142639 S
atom 0.0000000000002224 -0.0000000000015198 40.7989704239126567 Ba
atom 4.9487806421726850 -0.0000000169576869 40.7989704239129054 Ba
atom -0.0000000169572215 4.9487806421723217 40.7989704239124578 Ba
atom 4.9487806252188120 4.9487806252171209 40.7989704239125004 Ba
atom -0.0000000000032479 -0.0000000000014102 45.7098546075351990 Ba
atom 4.9487806421716503 -0.0000000169566539 45.7098546075354619 Ba
atom -0.0000000169580874 4.9487806421729541 45.7098546075351422 Ba
atom 4.9487806252155497 4.9487806252174575 45.7098546075352345 Ba
atom 2.4743903126077686 2.4743903126079925 43.4308914667820147 Zr
atom 7.4231709547819573 2.4743902956520896 43.4308914667819863 Zr
atom 2.4743902956521455 7.4231709547818383 43.4308914667819721 Zr
atom 7.4231709378266029 7.4231709378267903 43.4308914667820574 Zr
atom 2.4743903126075666 2.4743903126061726 40.8252162139122561 S
atom 7.4231709547824458 2.4743902956541524 40.8252162139123769 S
atom 2.4743902956530137 7.4231709547836635 40.8252162139123627 S
atom 7.4231709378260282 7.4231709378247306 40.8252162139123911 S
atom 2.4743903126086764 2.4743903126099287 45.9743446895172738 S
atom 7.4231709547818676 2.4743902956498576 45.9743446895172951 S
atom 2.4743902956517601 7.4231709547796640 45.9743446895173449 S
atom 7.4231709378278135 7.4231709378288242 45.9743446895172809 S
atom 2.0428521582429537 0.0000001073365345 43.3360255988392851 S
atom 7.8547091261035717 -0.0000001412508444 43.3360255988350573 S
atom 2.9059284669736076 4.9487805178789017 43.3360255988353060 S
atom 6.9916327834617418 4.9487807325553357 43.3360255988393703 S
atom -0.0000001242951895 2.9059284839285047 43.3360255988375656 S
atom 4.9487807495110081 2.0428521412867644 43.3360255988368479 S
atom 0.0000000903812125 6.9916328004165091 43.3360255988365992 S
atom 4.9487805009236121 7.8547091091472376 43.3360255988378782 S
atom 2.4743903126061459 2.4743903126085969 49.0870043965171732 Ba
atom 7.4231709547810372 2.4743902956541528 49.0870043965170666 Ba
atom 2.4743902956514603 7.4231709547838740 49.0870043965170879 Ba
atom 7.4231709378249873 7.4231709378274013 49.0870043965168392 Ba
atom 2.4743903126088900 2.4743903126073516 53.9979062511864640 Ba
atom 7.4231709547817513 2.4743902956495600 53.9979062511860448 Ba
atom 2.4743902956518737 7.4231709547793319 53.9979062511865351 Ba
atom 7.4231709378277406 7.4231709378262343 53.9979062511863148 Ba
atom 4.9487806252170721 4.9487806252169904 51.3659660128966848 Zr
atom 9.8975612673908877 4.9487806082611625 51.3659660128966635 Zr
atom 4.9487806082610586 9.8975612673909108 51.3659660128966138 Zr
atom 9.8975612504359081 9.8975612504357517 51.3659660128966777 Zr
atom 4.9487806252170730 4.9487806252161164 56.5081462060509168 Zr
atom 9.8975612673914455 4.9487806082606705 56.5081462060510589 Zr
atom 4.9487806082616812 9.8975612673905289 56.5081462060508173 Zr
atom 9.8975612504357855 9.8975612504349861 56.5081462060509168 Zr
atom 4.9487806252200768 4.9487806252177640 48.8225186018100032 S
atom 9.8975612673886690 4.9487806082587360 48.8225186018100104 S
atom 4.9487806082586152 9.8975612673889835 48.8225186018099606 S
atom 9.8975612504391197 9.8975612504369490 48.8225186018099038 S
atom 4.9487806252146322 4.9487806252155861 53.9716529200344368 S
atom 9.8975612673934084 4.9487806082627896 53.9716529200346713 S
atom 4.9487806082638972 9.8975612673919198 53.9716529200344226 S
atom 9.8975612504331512 9.8975612504336983 53.9716529200344226 S
atom 4.5172341886802627 2.4743904293303403 51.4608485113531771 S
atom 10.3291077208841653 2.4743901619729676 51.4608485113567511 S
atom 5.3803270617543228 7.4231708211027803 51.4608485113560050 S
atom 9.4660148138990365 7.4231710545491314 51.4608485113526157 S
atom 5.4858470785474509 2.4743903081150256 56.5326074990417311 S
atom 9.3604948310166325 2.4743902831877378 56.5326074990403455 S
atom 4.4117141718869570 7.4231709423175491 56.5326074990408571 S
atom 10.4346277037659974 7.4231709333338367 56.5326074990424345 S
atom 2.4743901789288913 5.3803270787086968 51.4608485113520331 S
atom 7.4231710715050578 4.5172341717235502 51.4608485113572058 S
atom 2.4743904123752443 9.4660148308532381 51.4608485113576180 S
atom 7.4231708041477029 10.3291077039274075 51.4608485113517773 S
atom 2.4743903001440017 4.4117141888413771 56.5326074990425198 S
atom 7.4231709502900260 5.4858470615908868 56.5326074990401040 S
atom 2.4743902911602182 10.4346277207205098 56.5326074990397913 S
atom 7.4231709253627978 9.3604948140601056 56.5326074990426974 S
atom 2.4743903126076283 2.4743903126060514 59.0871591513001349 Ba
atom 7.4231709547824307 2.4743902956514918 59.0871591512999998 Ba
atom 2.4743902956525363 7.4231709547813418 59.0871591513000283 Ba
atom 7.4231709378265220 7.4231709378246276 59.0871591512996943 Ba
atom 2.4743903126077811 2.4743903126069964 64.1959478505519172 Ba
atom 7.4231709547822176 2.4743902956511747 64.1959478505508088 Ba
atom 2.4743902956524297 7.4231709547807858 64.1959478505513346 Ba
atom 7.4231709378267636 7.4231709378259794 64.1959478505509935 Ba
atom 4.9487806252169975 4.9487806252162310 61.6271335163315968 Zr
atom 9.8975612673914419 4.9487806082607024 61.6271335163316891 Zr
atom 4.9487806082615053 9.8975612673904489 61.6271335163317389 Zr
atom 9.8975612504359329 9.8975612504350075 61.6271335163316820 Zr
atom 4.9487806252170339 4.9487806252161750 66.7451619297580976 Zr
atom 9.8975612673912536 4.9487806082607051 66.7451619297583392 Zr
atom 4.9487806082615444 9.8975612673905147 66.7451619297583107 Zr
atom 9.8975612504357446 9.8975612504350057 66.7451619297582397 Zr
atom 4.9487806252178581 4.9487806252163011 59.0821620917646300 S
atom 9.8975612673902322 4.9487806082599528 59.0821620917646584 S
atom 4.9487806082604511 9.8975612673908469 59.0821620917645589 S
atom 9.8975612504366506 9.8975612504361781 59.0821620917647365 S
atom 4.9487806252160409 4.9487806252168696 64.1939214158019098 S
atom 9.8975612673921098 4.9487806082611279 64.1939214158018956 S
atom 4.9487806082617318 9.8975612673898894 64.1939214158018245 S
atom 9.8975612504354125 9.8975612504346575 64.1939214158018672 S
atom 4.4126355062751168 2.4743903033228314 61.6434301316197946 S
atom 10.4337064032888218 2.4743902879798809 61.6434301316200433 S
atom 5.4849257441590762 7.4231709471096385 61.6434301316191480 S
atom 9.3614161314940247 7.4231709285416088 61.6434301316189277 S
atom 5.4851991055596043 2.4743903045565707 66.7520386116765820 S
atom 9.3611428040042739 2.4743902867460266 66.7520386116768947 S
atom 4.4123621448745425 7.4231709458758495 66.7520386116779036 S
atom 10.4339797307782227 7.4231709297753969 66.7520386116779605 S
atom 2.4743903049361520 5.4849257611138622 61.6434301316189561 S
atom 7.4231709454979020 4.4126354893189461 61.6434301316200504 S
atom 2.4743902863680933 9.3614161484484590 61.6434301316198301 S
atom 7.4231709301549520 10.4337063863321919 61.6434301316193114 S
atom 2.4743903037023283 4.4123621618291722 66.7520386116779747 S
atom 7.4231709467316476 5.4851990886032693 66.7520386116764968 S
atom 2.4743902876018971 10.4339797477329306 66.7520386116777047 S
atom 7.4231709289210652 9.3611427870479567 66.7520386116774205 S
atom 2.4743903126074995 2.4743903126065541 69.3062908854369795 Ba
atom 7.4231709547816918 2.4743902956513857 69.3062908854364110 Ba
atom 2.4743902956518018 7.4231709547813409 69.3062908854365958 Ba
atom 7.4231709378262023 7.4231709378252120 69.3062908854362263 Ba
atom 2.4743903126074467 2.4743903126067921 74.4179850929464379 Ba
atom 7.4231709547817841 2.4743902956511019 74.4179850929455995 Ba
atom 2.4743902956521127 7.4231709547807991 74.4179850929459263 Ba
atom 7.4231709378263204 7.4231709378257751 74.4179850929454290 Ba
atom 4.9487806252169104 4.9487806252161679 71.8621379891909839 Zr
atom 9.8975612673911986 4.9487806082607211 71.8621379891910124 Zr
atom 4.9487806082613890 9.8975612673904987 71.8621379891909413 Zr
atom 9.8975612504357109 9.8975612504349701 71.8621379891911118 Zr
atom 4.9487806252168260 4.9487806252162425 76.9791140486235292 Zr
atom 9.8975612673911115 4.9487806082607424 76.9791140486236287 Zr
atom 4.9487806082613517 9.8975612673905484 76.9791140486232166 Zr
atom 9.8975612504355901 9.8975612504350767 76.9791140486236571 Zr
atom 4.9487806252179398 4.9487806252153987 69.3060854872128118 S
atom 9.8975612673903228 4.9487806082603862 69.3060854872126271 S
atom 4.9487806082614325 9.8975612673914171 69.3060854872127408 S
atom 9.8975612504358050 9.8975612504353858 69.3060854872128402 S
atom 4.9487806252161803 4.9487806252169388 74.4181904911694545 S
atom 9.8975612673919606 4.9487806082613135 74.4181904911694971 S
atom 4.9487806082612460 9.8975612673898681 74.4181904911695256 S
atom 9.8975612504358583 9.8975612504345190 74.4181904911695966 S
atom 4.4119793091367683 2.4743903036837431 71.8621379891916803 S
atom 10.4343626004267644 2.4743902876188368 71.8621379891917940 S
atom 5.4855819412971192 7.4231709467486757 71.8621379891907281 S
atom 9.3607599343554746 7.4231709289025778 71.8621379891902876 S
atom 5.4851991055594596 2.4743903045566689 76.9722373667044479 S
atom 9.3611428040040288 2.4743902867460572 76.9722373667043485 S
atom 4.4123621448743746 7.4231709458758406 76.9722373667055990 S
atom 10.4339797307780877 7.4231709297754636 76.9722373667057411 S
atom 2.4743903045750160 5.4855819582519167 71.8621379891904581 S
atom 7.4231709458588320 4.4119792921804954 71.8621379891915808 S
atom 2.4743902867290197 9.3607599513102322 71.8621379891915666 S
atom 7.4231709297938204 10.4343625834706106 71.8621379891911971 S
atom 2.4743903037022079 4.4123621618292654 76.9722373667053432 S
atom 7.4231709467315286 5.4851990886032684 76.9722373667043911 S
atom 2.4743902876017096 10.4339797477330425 76.9722373667054427 S
atom 7.4231709289210412 9.3611427870479957 76.9722373667047322 S
atom 2.4743903126067908 2.4743903126068814 79.5283281278314291 Ba
atom 7.4231709547815754 2.4743902956513475 79.5283281278307470 Ba
atom 2.4743902956517552 7.4231709547811535 79.5283281278310739 Ba
atom 7.4231709378255726 7.4231709378254527 79.5283281278304059 Ba
atom 2.4743903126076008 2.4743903126072260 84.6371168270824796 Ba
atom 7.4231709547800637 2.4743902956514883 84.6371168270821528 Ba
atom 2.4743902956504060 7.4231709547811882 84.6371168270822807 Ba
atom 7.4231709378261561 7.4231709378259403 84.6371168270814707 Ba
atom 4.9487806252166688 4.9487806252162700 82.0971424620498738 Zr
atom 9.8975612673909676 4.9487806082608259 82.0971424620499022 Zr
atom 4.9487806082611305 9.8975612673906141 82.0971424620498595 Zr
atom 9.8975612504354764 9.8975612504350678 82.0971424620498453 Zr
atom 4.9487806252166040 4.9487806252164495 87.2161297723301487 Zr
atom 9.8975612673907545 4.9487806082607388 87.2161297723305040 Zr
atom 4.9487806082610524 9.8975612673903921 87.2161297723302766 Zr
atom 9.8975612504353165 9.8975612504350927 87.2161297723303335 Zr
atom 4.9487806252175384 4.9487806252160063 79.5303545625802286 S
atom 9.8975612673907047 4.9487806082598196 79.5303545625800297 S
atom 4.9487806082618819 9.8975612673908770 79.5303545625800723 S
atom 9.8975612504353521 9.8975612504361035 79.5303545625804134 S
atom 4.9487806252165534 4.9487806252153517 84.6421138866174232 S
atom 9.8975612673919677 4.9487806082628492 84.6421138866170963 S
atom 4.9487806082613321 9.8975612673913442 84.6421138866170679 S
atom 9.8975612504361941 9.8975612504328421 84.6421138866171958 S
atom 4.4126355062746923 2.4743903033229282 82.0808458467624433 S
atom 10.4337064032883458 2.4743902879799253 82.0808458467639070 S
atom 5.4849257441583887 7.4231709471096323 82.0808458467628270 S
atom 9.3614161314936446 7.4231709285416265 82.0808458467614486 S
atom 5.4858470785465876 2.4743903081149190 87.1916684793421979 S
atom 9.3604948310159930 2.4743902831877249 87.1916684793379488 S
atom 4.4117141718861586 7.4231709423175669 87.1916684793385173 S
atom 10.4346277037654556 7.4231709333337683 87.1916684793431642 S
atom 2.4743903049359628 5.4849257611136411 82.0808458467622160 S
atom 7.4231709454976045 4.4126354893189808 82.0808458467629265 S
atom 2.4743902863678704 9.3614161484486722 82.0808458467626565 S
atom 7.4231709301546811 10.4337063863324016 82.0808458467630260 S
atom 2.4743903001436975 4.4117141888417697 87.1916684793414021 S
atom 7.4231709502899008 5.4858470615911434 87.1916684793395405 S
atom 2.4743902911600237 10.4346277207207141 87.1916684793408905 S
atom 7.4231709253625695 9.3604948140603064 87.1916684793402368 S
atom 2.4743903126032047 2.4743903126067077 89.7263697271954612 Ba
atom 7.4231709547823002 2.4743902956518911 89.7263697271945091 Ba
atom 2.4743902956526034 7.4231709547812859 89.7263697271950491 Ba
atom 7.4231709378219612 7.4231709378255690 89.7263697271949638 Ba
atom 2.4743903126128779 2.4743903126061202 94.6372715818624783 Ba
atom 7.4231709547851175 2.4743902956506059 94.6372715818627768 Ba
atom 2.4743902956550072 7.4231709547804838 94.6372715818624926 Ba
atom 7.4231709378313431 7.4231709378252626 94.6372715818624783 Ba
atom 4.9487806252176982 4.9487806252154458 92.3583099654841817 Zr
atom 9.8975612673920601 4.9487806082611021 92.3583099654840680 Zr
atom 4.9487806082622878 9.8975612673908877 92.3583099654839401 Zr
atom 9.8975612504363983 9.8975612504341548 92.3583099654841106 Zr
atom 4.9487806252185225 4.9487806252204143 89.7526230583466997 S
atom 9.8975612673906710 4.9487806082556958 89.7526230583468418 S
atom 4.9487806082618713 9.8975612673861448 89.7526230583465150 S
atom 9.8975612504362385 9.8975612504398285 89.7526230583468703 S
atom 4.9487806252154032 4.9487806252100590 94.9017573765705862 S
atom 9.8975612673917794 4.9487806082671186 94.9017573765706430 S
atom 4.9487806082613615 9.8975612673964726 94.9017573765703872 S
atom 9.8975612504348298 9.8975612504283035 94.9017573765707141 S
atom 4.5172341886800771 2.4743904293298753 92.2634274670205059 S
atom 10.3291077208818898 2.4743901619724724 92.2634274670325993 S
atom 5.3803270617521628 7.4231708211022616 92.2634274670315619 S
atom 9.4660148138987790 7.4231710545486083 92.2634274670194543 S
atom 2.4743901789291427 5.3803270787077331 92.2634274670253234 S
atom 7.4231710715052754 4.5172341717246445 92.2634274670271282 S
atom 2.4743904123754481 9.4660148308542524 92.2634274670266024 S
atom 7.4231708041479170 10.3291077039265407 92.2634274670259913 S
