#=======================================================
# FHI-aims file: full_relax/full_relax_RP_5_Rx0Mz_0-RyMz.in
# Created using the Atomic Simulation Environment (ASE)
# Fri Mar 14 11:31:35 2025
#=======================================================
lattice_vector 10.0135181014609138 -0.0600773287922684 -0.0000229970022663 
lattice_vector -0.0600773287922634 10.0135181014604875 -0.0000229970022277 
lattice_vector -0.0001846150257109 -0.0001846150254930 55.8950588721764703 
atom 0.0887408675906067 -0.1794817219299106 0.2209470570713911 Ba
atom 5.1862820140883921 -0.1187732963571313 0.2209482706745151 Ba
atom 0.1494842990091020 4.9180244187666258 0.2209482706670448 Ba
atom 5.0654612538741750 4.7972386644046123 0.2209240599285957 Ba
atom -0.2621679050750072 0.1864287650506682 5.0046356897575199 Ba
atom 4.8203848659608388 0.2321361542583723 5.0045891133051867 Ba
atom -0.2164128491295620 5.2689338694019066 5.0045891133271310 Ba
atom 4.7145524812262529 5.1631491514008028 5.0046126927743702 Ba
atom 2.4868129672777166 2.4790851219835921 2.4024831085662188 Zr
atom 7.5044204553531459 2.4599200077892438 2.4024538080231030 Zr
atom 2.4676227401603770 7.4967177231224333 2.4024538080366544 Zr
atom 7.4635333536298507 7.4558055085125314 2.4024601115852522 Zr
atom 2.4810080570327506 2.4928343090225127 7.4588975029527322 Zr
atom 7.4906800788517289 2.4657157295134802 7.4588862187707212 Zr
atom 2.4538823637373639 7.5025134446796296 7.4588862185455174 Zr
atom 7.4577284433873734 7.4695546953966820 7.4588745060824495 Zr
atom 2.6132260567971093 2.7009577351969423 -0.1040799779843057 S
atom 7.2825330712132033 2.3335362690722516 -0.1041038228832644 S
atom 2.2457353560573421 7.3703339841807782 -0.1041038229642268 S
atom 7.5899464431288184 7.6776781215049716 -0.1041029749041033 S
atom 2.2374771136269134 2.1916352286266880 4.9629787608132041 S
atom 7.7918293129874838 2.7092125802506657 4.9629678311928558 S
atom 2.7550315978653597 7.7460102953550063 4.9629678313688617 S
atom 7.2141974999564606 7.1683556149388270 4.9629557636179422 S
atom 2.7946649965025538 -0.0094312328941691 2.2465297470297507 S
atom 7.1938696804188078 -0.0365328239126343 2.7552105704735639 S
atom 2.1570719652622694 5.0002648911947913 2.7552105704887810 S
atom 7.7713853828196484 4.9672891534364485 2.2465067500412879 S
atom 2.8945958772593920 -0.0147274856369683 7.7827638963706498 S
atom 7.1251378975151436 -0.0413241821939073 7.1650295467948322 S
atom 2.0883401823940719 4.9954735329079254 7.1650295468006417 S
atom 7.8713162636061478 4.9619929006817127 7.7827408993684974 S
atom -0.0205552514728518 2.2121902909987536 2.2465383046814602 S
atom 4.9832677796951481 2.7897032950568410 2.7552425285672029 S
atom -0.0535299356979246 7.8265010101479433 2.7552425285590667 S
atom 4.9561651352027072 7.1889106772863718 2.2465153076781026 S
atom -0.0153015455199019 2.1121618534714957 7.7827551943814379 S
atom 4.9880122199246264 2.8583527336024779 7.1650151331275351 S
atom -0.0487854951230756 7.8951504487205746 7.1650151331302228 S
atom 4.9614188407229047 7.0888822398017801 7.7827321973817378 S
atom 0.2782057231619388 -0.1824219276477074 9.9787700035668241 Ba
atom 5.1891461138425106 -0.3082824353101919 9.9787794149636184 Ba
atom 0.1523483986430431 4.7285152797980263 9.9787794149681801 Ba
atom 5.2549261095620139 4.7942984586608999 9.9787470065750163 Ba
atom -0.2782881406534247 0.1823395102863954 14.9743812787311352 Ba
atom 4.8242895702359077 0.2481226890951398 14.9743488703327312 Ba
atom -0.2125081448917427 5.2849204042008981 14.9743488703417338 Ba
atom 4.6984322456814809 5.1590598965987962 14.9743582817403542 Ba
atom 2.4883189844868592 2.4883189844968991 12.4765641428353344 Zr
atom 7.4950780351784863 2.4582803200409327 12.4765526445299493 Zr
atom 2.4582803200787353 7.4950780351642070 12.4765526446400585 Zr
atom 7.4650393708145737 7.4650393708348872 12.4765411457236635 Zr
atom 2.4956299119041736 2.4838036599120366 17.4942307820957481 Zr
atom 7.4994759915251201 2.4508449106167753 17.4942190689930470 Zr
atom 2.4626782763960779 7.4876426256820965 17.4942190690851120 Zr
atom 7.4723502982245158 7.4605240461877713 17.4942077850453757 Zr
atom 2.7525453520252614 2.8169238884035055 9.9730834125092880 S
atom 7.1664823631344552 2.1941193799314291 9.9730615545407133 S
atom 2.1296846480272800 7.2309170950539920 9.9730615546945636 S
atom 7.7292657383677383 7.7936442747339640 9.9730604155125402 S
atom 2.2240926169119146 2.1597140805380901 14.9800448726351778 S
atom 7.8236737072318734 2.7224412601717374 14.9800437332082037 S
atom 2.7868759920969599 7.7592389752985076 14.9800437329242300 S
atom 7.2008130032468634 7.1364344668846798 14.9800218757834820 S
atom 2.8860542544342898 -0.0166202656927459 12.1592051300390729 S
atom 7.1273814295957152 -0.0435394806585532 12.7939231551208561 S
atom 2.0905837144856325 4.9932582345984668 12.7939231550972217 S
atom 7.8627746407921357 4.9601001207723154 12.1591821330267305 S
atom 2.8882977865376307 -0.0188355634950313 17.7880987385418621 S
atom 7.1188398067807013 -0.0454322610790003 17.1703643889116115 S
atom 2.0820420916393023 4.9913654540557957 17.1703643889003530 S
atom 7.8650181728461739 4.9578848228410903 17.7880757415166499 S
atom -0.0135001443105257 2.1206357587088256 12.1591929612562204 S
atom 4.9901381132126410 2.8560022101895619 12.7939353238855649 S
atom -0.0466596016838311 7.8927999253019889 12.7939353238792162 S
atom 4.9632202417833060 7.0973561450645937 12.1591699642607178 S
atom -0.0113742506449352 2.1182852352702892 17.7881131522028255 S
atom 4.9919395140593883 2.8644761154578200 17.1703730908958434 S
atom -0.0448582012544470 7.9012738305971624 17.1703730908962129 S
atom 4.9653461358891455 7.0950056216137023 17.7880901551998711 S
atom 0.2620854876864382 -0.1865111824643671 19.9485155923583868 Ba
atom 5.1930508180193709 -0.2922959004866016 19.9485391718007641 Ba
atom 0.1562531029371034 4.7445018146409490 19.9485391718333567 Ba
atom 5.2388058739863546 4.7902092038706634 19.9484925953645913 Ba
atom -0.0888232849666112 0.1793993045071757 24.7322042253389718 Ba
atom 4.8271536699153845 0.0586135501593578 24.7321800145660120 Ba
atom -0.2096440452289600 5.0954112652815819 24.7321800145959756 Ba
atom 4.8878971013760397 5.1561196908414093 24.7321812282807159 Ba
atom 2.4898250015521266 2.4975528468098767 22.5506451766809697 Zr
atom 7.4857356150447600 2.4566406323634866 22.5506514801593951 Zr
atom 2.4489378998306610 7.4934383472609269 22.5506514800832321 Zr
atom 7.4665453879682460 7.4742732329170334 22.5506221797825361 Zr
atom 2.7391608552944593 2.7850027402890243 19.9901495243909686 S
atom 7.1983267573580809 2.2073480598365869 19.9901374578751287 S
atom 2.1615290422271860 7.2441457749909963 19.9901374579625504 S
atom 7.7158812416162981 7.7617231266418587 19.9901265273296431 S
atom 2.3634119121099069 2.2756802336949966 25.0572082633273681 S
atom 7.7076229991252134 2.5830243710105925 25.0572091108265482 S
atom 2.6708252840274174 7.6198220861631878 25.0572091108750463 S
atom 7.3401322984180810 7.2524006200566067 25.0571852662556900 S
atom 2.8195660036307548 -0.0236269229027724 22.1979177147612035 S
atom 7.2187706875027597 -0.0507285125905945 22.7065985381762196 S
atom 2.1819729724062511 4.9860692025678235 22.7065985381724822 S
atom 7.7962863899358545 4.9530934634469777 22.1978947177681647 S
atom -0.0066298112568335 2.1869346738572371 22.1978857566767758 S
atom 4.9971932209558529 2.7644476778786911 22.7065899805236953 S
atom -0.0396044941833349 7.8012453930307180 22.7065899805175100 S
atom 4.9700905750898690 7.1636550602232134 22.1978627596745604 S
atom 2.3087861636577767 2.5770087532069641 28.1684649946012939 Ba
atom 7.4062923044688409 2.6377521846489267 28.1684662084049755 Ba
atom 2.3694945892052828 7.6745498997584560 28.1684662083470094 Ba
atom 7.2855065501479066 7.5537291395399917 28.1684419976410467 Ba
atom 2.6746966507849868 2.2260999806228243 32.9521536273601967 Ba
atom 7.7572017549750205 2.2718550366024926 32.9521070508515947 Ba
atom 2.7204040399539982 7.3086527515655035 32.9521070508944831 Ba
atom 7.6514170370039212 7.2028203667994779 32.9521306303064634 Ba
atom 4.9673530079176524 4.9750808529404935 30.3500010462553860 Zr
atom 9.9849856084535933 4.9558906259089897 30.3499717457186620 Zr
atom 4.9481878937850095 9.9926883410581624 30.3499717457895386 Zr
atom 9.9440733939886599 9.9518012392815294 30.3499780487285626 Zr
atom 4.9811021948050804 4.9692759426284310 35.4064154408011476 Zr
atom 9.9907813302454223 4.9421502494015410 35.4064041559586755 Zr
atom 4.9539836152262131 9.9789479645391008 35.4064041566748102 Zr
atom 9.9578225810029171 9.9459963290757667 35.4063924437211170 Zr
atom 5.1892256208093066 5.1014939424735513 27.8434379594467103 S
atom 9.8586018698583828 4.7340032417242250 27.8434141144626146 S
atom 4.8218041547217663 9.7708009568826100 27.8434141147903240 S
atom 10.1659460072202918 10.0782143287886718 27.8434149624631786 S
atom 4.6799031142275354 4.7257449992818659 32.9104966983721425 S
atom 10.2342781810389365 5.2432994835500599 32.9104857690814114 S
atom 5.1974804659198890 10.2800971986672867 32.9104857679675789 S
atom 9.6566235007023593 9.7024653856474945 32.9104737024944995 S
atom 4.7004581766371070 2.4677126337938371 30.1940562422921275 S
atom 10.3147688958941082 2.4347379501880773 30.7027604661702576 S
atom 5.2779711806446832 7.4715356656668748 30.7027604661491189 S
atom 9.6771785629663789 7.4444330205212426 30.1940332452179696 S
atom 4.6004297390311288 2.4729663405977500 35.7302731319432780 S
atom 10.3834183343481108 2.4394823895664146 35.1125330707667516 S
atom 5.3466206193260888 7.4762801051196783 35.1125330706180847 S
atom 9.5771501255360558 7.4496867273029039 35.7302501349055106 S
atom 2.4788366528441066 5.2829328821807273 30.1940476845854135 S
atom 7.4885327768210201 4.6453398509299664 30.7027285080572412 S
atom 2.4517350623287952 9.6821375660659417 30.7027285080944061 S
atom 7.4555570383088847 10.2596532685011201 30.1940246876216420 S
atom 2.4735403999185994 5.3828637629463927 35.7302818339302490 S
atom 7.4837414186437217 4.5766080680500263 35.1125474843631267 S
atom 2.4469437019415805 9.6134057832272735 35.1125474843683278 S
atom 7.4502607878156617 10.3595841491800176 35.7302588368959633 S
atom 2.3058459581464166 2.7664736088242461 37.9262879411954046 Ba
atom 7.2167831653099279 2.6406162843190755 37.9262973525596223 Ba
atom 2.1799854504892973 7.6774139994903292 37.9262973526057650 Ba
atom 7.2825663441504487 7.7431939952258633 37.9262649441535658 Ba
atom 2.6706073956754426 2.2099797449435328 42.9218992162124664 Ba
atom 7.7731882901006308 2.2757597406245966 42.9218668077944017 Ba
atom 2.7363905745529991 7.3125574560008557 42.9218668078349950 Ba
atom 7.6473277824419812 7.1867001314757664 42.9218762192270162 Ba
atom 4.9765868701541081 4.9765868699973712 40.4240820794545996 Zr
atom 9.9833459209058795 4.9465482056413439 40.4240705820003612 Zr
atom 4.9465482056349197 9.9833459209092279 40.4240705810394303 Zr
atom 9.9533072563797216 9.9533072565156022 40.4240590839136900 Zr
atom 4.9720715453994728 4.9838977974955716 45.4417487203435968 Zr
atom 9.9759105115222937 4.9509461620100712 45.4417370073288822 Zr
atom 4.9391127961069925 9.9877438771861016 45.4417370074324225 Zr
atom 9.9487919318593399 9.9606181838247423 45.4417257219719772 Zr
atom 5.3051917740645571 5.2408132376650931 37.9206013501439898 S
atom 9.7191849807431314 4.6179525337144183 37.9205794925922035 S
atom 4.6823872655867484 9.6547502487747181 37.9205794930156017 S
atom 10.2819121603611876 10.2175336240161272 37.9205783514851262 S
atom 4.6479819662248287 4.7123605025448123 42.9275628111224492 S
atom 10.2475068609693984 5.2751438777403123 42.9275616704053533 S
atom 5.2107091458246533 10.3119415928686955 42.9275616712096948 S
atom 9.6247023524233946 9.6890808888621027 42.9275398139498989 S
atom 4.6089036444036431 2.4747677409981002 40.1067108989426089 S
atom 10.3810678109627759 2.4416082848828453 40.7414532615327047 S
atom 5.3442700958383451 7.4784059992236580 40.7414532615887950 S
atom 9.5856240307014300 7.4514881265613253 40.1066879018359472 S
atom 4.6065531210500099 2.4768936351274129 45.7356310896090932 S
atom 10.3895417162598136 2.4434096846555504 45.1178910284666230 S
atom 5.3527440010573137 7.4802073996006646 45.1178910284677173 S
atom 9.5832735072058419 7.4536140213338733 45.7356080927595769 S
atom 2.4716476195824102 5.3743221401058561 40.1067230676885202 S
atom 7.4815261205776507 4.5788516001649775 40.7414410927700885 S
atom 2.4447284059313197 9.6156493151499376 40.7414410928027024 S
atom 7.4483680055669472 10.3510425264706338 40.1067000706332450 S
atom 2.4694323227648058 5.3765656721185637 45.7356166759899452 S
atom 7.4796333390967291 4.5703099773404778 45.1178823264646738 S
atom 2.4428356253181791 9.6071076924207937 45.1178823264961082 S
atom 7.4461527077951422 10.3532860585039970 45.7355936790385584 S
atom 2.3017567031468560 2.7503533734388772 47.8960335301003468 Ba
atom 7.2327697003086771 2.6445209886644911 47.8960571095834879 Ba
atom 2.1959719852030655 7.6813187036078361 47.8960571095545049 Ba
atom 7.2784770894920729 7.7270737595910299 47.8960105331276935 Ba
atom 2.6676671902260569 2.3994446007024930 52.6797221627658629 Ba
atom 7.5836791508678951 2.2786238405108166 52.6796979520992394 Ba
atom 2.5468814358661556 7.3154215555378830 52.6796979520548305 Ba
atom 7.6443875764135178 7.3761649869607817 52.6796991657489215 Ba
atom 4.9858207323565162 4.9780928873013597 50.4981631143130585 Zr
atom 9.9817062330803896 4.9372057856536626 50.4981694174883486 Zr
atom 4.9449085178180763 9.9740035006172363 50.4981694177886098 Zr
atom 9.9625411189601394 9.9548132735803367 50.4981401173681164 Zr
atom 5.2732706259166582 5.2274287409081843 47.9376674608991777 S
atom 9.7324136606129130 4.6497969278587057 47.9376553946906299 S
atom 4.6956159455587638 9.6865946430401308 47.9376553941218191 S
atom 10.2499910122568139 10.2041491272721920 47.9376444655318465 S
atom 4.7639481193645423 4.8516797977407427 53.0047262011443010 S
atom 10.1080899718235262 5.1590931697204576 53.0047270490293272 S
atom 5.0712922567485501 10.1958908848293515 53.0047270489653997 S
atom 9.7406685057462976 9.8284001841335176 53.0047032035184813 S
atom 4.6752025594999012 2.4816380747604994 50.1454036942591443 S
atom 10.2895132787055896 2.4486633900240848 50.6541079181283180 S
atom 5.2527155636463476 7.4854611061937488 50.6541079182236871 S
atom 9.6519229458707230 7.4583584619404792 50.1453806972670080 S
atom 2.4646409631019108 5.3078338893148320 50.1454356523580103 S
atom 7.4743370877829580 4.6702408579948731 50.6541164758717244 S
atom 2.4375393715928246 9.7070385732649083 50.6541164757679354 S
atom 7.4413613502980676 10.2845542756050943 50.1454126553257851 S
