#=======================================================
# FHI-aims file: full_relax/full_relax_RP_6_Rx0Rz_0-RyRz.in
# Created using the Atomic Simulation Environment (ASE)
# Fri Mar 14 11:42:54 2025
#=======================================================
lattice_vector 10.0077730241563714 0.0000628426399074 0.0163226301501352 
lattice_vector 0.0000628426399074 10.0077730241563714 0.0163226301501333 
lattice_vector 0.1076774568677010 0.1076774568676878 65.9644371196435486 
atom -0.1854099356022417 0.0484256301619812 0.2521776927763507 Ba
atom 5.0699937324926037 0.0485084506410433 0.2596891852626316 Ba
atom 0.0661386416935571 5.0523635414089396 0.2596891852761568 Ba
atom 4.8185079977471359 5.0523435635699236 0.2685003229249812 Ba
atom -0.1172647000049263 0.0407535804845957 4.9474412999459165 Ba
atom 4.8411442770981434 0.0407696257681737 4.9282096958314305 Ba
atom -0.1627108137762768 5.0446247165303832 4.9282096958520567 Ba
atom 4.8866532331920798 5.0446715138863318 4.9637639302912433 Ba
atom 2.4354666526352795 2.5437344265032951 2.3332111388682115 Zr
atom 7.4393500672934296 2.5502442945598434 2.3408657018803583 Zr
atom 2.4354949765442226 7.5540993853071505 2.3408657018824441 Zr
atom 7.4393845860245369 7.5476523598947471 2.3495337690118561 Zr
atom 2.4568949418245776 2.5217148685724413 7.4072126180533049 Zr
atom 7.4607854907675852 2.5557340767844039 7.4151749867914925 Zr
atom 2.4569303999898984 7.5595891675258926 7.4151749868115724 Zr
atom 7.4608128752415430 7.5256328019551635 7.4235352481816790 Zr
atom 2.4439180982831532 2.8604890987549698 -0.1596912452775285 S
atom 7.4477123569165080 2.2414797026296687 -0.1530821743387036 S
atom 2.4438572660396947 7.2453347933965206 -0.1530821743265194 S
atom 7.4478360317997607 7.8644070321620978 -0.1433686151262006 S
atom 2.4539659194999626 2.2085773528363184 4.9056989670288953 S
atom 7.4579578166888529 2.8769450953786202 4.9148274399838954 S
atom 2.4541027261882045 7.8808001860977823 4.9148274399871674 S
atom 7.4578838526399744 7.2124952861968579 4.9220215971740409 S
atom 2.4431771568921281 0.0453961193590400 2.0958115250206575 S
atom 7.4220794500205773 0.0443849951521971 2.7687991820394582 S
atom 2.4182243592550110 5.0482400859075724 2.7687991820324802 S
atom 7.4470950903021960 5.0493140527577465 2.1121341551362587 S
atom 2.9231251200641339 0.0362921803439448 7.6879844414123699 S
atom 7.0702589878560973 0.0371890329001277 7.1550120775111443 S
atom 2.0664038971039318 5.0410441236548591 7.1550120774588652 S
atom 7.9270430535130512 5.0402101137388264 7.7043070715061956 S
atom -0.0647298233142595 2.5400782039271399 2.4451913569542514 S
atom 4.9392000019577669 2.5534777089184986 2.4534826818160620 S
atom -0.0646550888020888 7.5573327996805792 2.4534826820057196 S
atom 4.9391881100854338 7.5439961373299242 2.4615139869215934 S
atom -0.0344123947368024 2.1016831541285383 7.4215322783850697 S
atom 4.9694722224251207 2.9756261620632030 7.4310529086248049 S
atom -0.0343828683310169 7.9794812528436356 7.4310529083264392 S
atom 4.9695055386592530 7.1056010875474902 7.4378549088385597 S
atom -0.0659766312534301 0.0325895631681127 9.9320763432563588 Ba
atom 5.0915613609120518 0.0326334833028428 9.9672752501177957 Ba
atom 0.0877062698880196 5.0364885740624716 9.9672752503623308 Ba
atom 4.9379413019655019 5.0365074965659096 9.9483989735808276 Ba
atom 0.1029929722304655 0.0245259952603082 14.9944994032013579 Ba
atom 4.9498378386284152 0.0244497246337963 14.9974969660385593 Ba
atom -0.0540172523364192 5.0283048153918708 14.9974969662468229 Ba
atom 5.1069109054221045 5.0284439286581790 15.0108220335598155 Ba
atom 2.5157347833495334 2.5336124476504396 12.4665158486851890 Zr
atom 7.5196098383122765 2.5274379682438615 12.4744888549535222 Zr
atom 2.5157547475606403 7.5312930590009985 12.4744888549476620 Zr
atom 7.5196527167410068 7.5375303810479517 12.4828384788368698 Zr
atom 2.5371389057381193 2.5254556850480583 17.5338301446443232 Zr
atom 7.5410139607009716 2.5192812056413483 17.5418031509152783 Zr
atom 2.5371588699492644 7.5231362964005060 17.5418031509106989 Zr
atom 7.5410568391296682 7.5293736184473055 17.5501527747994785 Zr
atom 2.4876532769784614 2.7845295992599453 9.9447720384599272 S
atom 7.4914833849702180 2.2846612451835044 9.9520478011567484 S
atom 2.4876282938475014 7.2885163359046379 9.9520478011663922 S
atom 7.4915712107417551 7.7884475326218183 9.9610946686038044 S
atom 2.5264097558050405 2.3148696796491621 14.9997700859818526 S
atom 7.5303389882453251 2.7380239736427932 15.0085489136131720 S
atom 2.5264838978774451 7.7418790644008206 15.0085489136065426 S
atom 7.5303276888128652 7.3187876130475962 15.0160927161406708 S
atom 2.0591737371127943 0.0288607234756835 12.2795052922123755 S
atom 7.9850327258012426 0.0282714602399598 12.6669454849065897 S
atom 2.9811776350751020 5.0321265509977504 12.6669454848821434 S
atom 7.0630916705299125 5.0327786568734449 12.2958279223477245 S
atom 2.9936570735205583 0.0201149964176890 17.7124910772505189 S
atom 7.0755711089751534 0.0207671022933748 17.3413735147158690 S
atom 2.0717160182492353 5.0246221930528732 17.3413735146919592 S
atom 7.9975750069378941 5.0240329298173885 17.7288137073860668 S
atom 0.0111424573953463 2.9984801957906044 12.4744084301789329 S
atom 5.0150354630055105 2.0624627146313279 12.4810658461213766 S
atom 0.0111803722431898 7.0663178054019591 12.4810658464925872 S
atom 5.0150603907977969 8.0023981292020512 12.4907310599587689 S
atom 0.0378332624991782 2.0543506148612516 17.5175879392693652 S
atom 5.0417132810445482 2.9904309386610222 17.5272531534769662 S
atom 0.0378581902911873 7.9942860294064113 17.5272531531056650 S
atom 5.0417511958924415 7.0582685482463106 17.5339105697896116 S
atom -0.0387305499942782 0.0163422365902103 20.0247211190851999 Ba
atom 5.1188074420852896 0.0163861567268370 20.0599200260168224 Ba
atom 0.1149523511470820 5.0202412474834199 20.0599200261908628 Ba
atom 4.9651873831386002 5.0202601699886804 20.0410437494798686 Ba
atom 0.2116865336706838 0.0082060941220194 25.0637866735961836 Ba
atom 5.1700955108577604 0.0082221394060270 25.0445550693070196 Ba
atom 0.1662404198997351 5.0120772301671730 25.0445550695023051 Ba
atom 5.2156044669513788 5.0121240275233800 25.0801093037666334 Ba
atom 2.5959632532830095 2.4971595765076060 22.5931440128062455 Zr
atom 7.5998538022256978 2.5311787847194078 22.6011063815408164 Zr
atom 2.5959987114484977 7.5350338754930979 22.6011063815662858 Zr
atom 7.5998811867005482 7.5010775099221076 22.6094666429338744 Zr
atom 2.6173986767559421 2.5026493587322713 27.6674532977210319 Zr
atom 7.6212820914158614 2.5091592267890004 27.6751078607318775 Zr
atom 2.6174270006646614 7.5130143175535302 27.6751078607399634 Zr
atom 7.6213166101469616 7.5065672921414519 27.6837759278704461 Zr
atom 2.5652653590802532 2.7682324081084335 20.0562711984428326 S
atom 7.5690954670718966 2.2683640540318719 20.0635469611379449 S
atom 2.5652403759486524 7.2722191448267441 20.0635469611456898 S
atom 7.5691832928426770 7.7721503415434068 20.0725938285849388 S
atom 2.5987909273613838 2.1759485579130970 25.0934915596120014 S
atom 7.6027828245504638 2.8443163004558074 25.1026200325751532 S
atom 2.5989277340501631 7.8481713912514817 25.1026200325729079 S
atom 7.6027088605022337 7.1798664913507482 25.1098141897605274 S
atom 2.1297056905373104 0.0126835395526784 22.3040119280924252 S
atom 7.9903448469465657 0.0118495296331647 22.8533069221396019 S
atom 2.9864897561945245 5.0157046203922127 22.8533069220869862 S
atom 7.1336236239860931 5.0166014729524981 22.3203345581861505 S
atom 2.6096536537484254 0.0035796005326497 27.8961848444609046 S
atom 7.6385243847949997 0.0046535673858787 27.2395198175649291 S
atom 2.6346692940297829 5.0085086581410740 27.2395198175574187 S
atom 7.6135715871582272 5.0074975339310521 27.9125074745757971 S
atom 0.0833881146331363 2.9511476565238692 22.5704640910632044 S
atom 5.0872765216228606 2.0772674912283682 22.5772660909736125 S
atom 0.0834214308631018 7.0811225819651114 22.5772660912719410 S
atom 5.0873060480328700 7.9550655899006673 22.5867867209097639 S
atom 0.1137055432010212 2.5127526067251278 27.5468050124927473 S
atom 5.1175487420997623 2.4994159443733071 27.5548363177811240 S
atom 0.1136936513322964 7.5032710351275931 27.5548363175913700 S
atom 5.1176234766083839 7.5166705401185592 27.5631276428255489 S
atom -0.0171629217995052 0.0004672692427596 29.7323071841722637 Ba
atom 5.2382407463026457 0.0005500897216950 29.7398186766748438 Ba
atom 0.2343856554971530 5.0044051804902185 29.7398186766729928 Ba
atom 4.9867550115564327 5.0043852026510764 29.7486298143374981 Ba
atom 2.6090363871338922 2.8114139506620779 30.1614011739379961 S
atom 7.6128306457671213 2.1924045545371276 30.1680102448725762 S
atom 2.6089755548905944 7.1962596452865002 30.1680102448738978 S
atom 7.6129543206504655 7.8153318840515853 30.1777238040726274 S
atom 2.6042233252973723 2.3703877594594762 33.2425575676670420 Ba
atom 7.6081612365394289 2.6219363368782522 33.2500690601551483 Ba
atom 2.6043061457764214 7.6257914275740966 33.2500690601741837 Ba
atom 7.6081412587006296 7.3743056929499513 33.2588801978252704 Ba
atom 2.5965512756178630 2.4385329948530563 37.9378211751068619 Ba
atom 7.6004224116621648 2.3930868815137813 37.9185895707214584 Ba
atom 2.5965673209012401 7.3969419720736944 37.9185895707548752 Ba
atom 7.6004692090188390 7.4424509285988538 37.9541438049232127 Ba
atom 5.0995321216238150 4.9912643477558225 35.3235910137536564 Zr
atom 10.1098970804516277 4.9912926716659181 35.3312455767706908 Zr
atom 5.1060419896792055 9.9951477624383092 35.3312455767779170 Zr
atom 10.1034500550376656 9.9951822811679900 35.3399136439109185 Zr
atom 5.0775125636835030 5.0126926369837701 40.3975924929303218 Zr
atom 10.1153868626813566 5.0127280951493320 40.4055548616791569 Zr
atom 5.1115317718956144 10.0165831858737846 40.4055548617129290 Zr
atom 10.0814304971103574 10.0166105703474582 40.4139151231124316 Zr
atom 5.4162867939054093 4.9997157935773293 32.8306886296252571 S
atom 9.8011324885106141 4.9996549613334915 32.8372977005628357 S
atom 4.7972773977801308 10.0035100518879236 32.8372977005571656 S
atom 10.4202047272750846 10.0036337267711417 32.8470112597796131 S
atom 4.7643750479153892 5.0097636142816704 37.8960788419126757 S
atom 10.4365978812858486 5.0099004209701468 37.9052073148828015 S
atom 5.4327427904576524 10.0137555121724144 37.9052073148974173 S
atom 9.7682929813843682 10.0136815481233015 37.9124014720676072 S
atom 5.0958758990651347 2.4910678718455372 35.4355712315993898 S
atom 10.1131304948084075 2.4911426063126751 35.4438625566493783 S
atom 5.1092754040556194 7.4949976970635852 35.4438625569677725 S
atom 10.0997938324570118 7.4949858052360891 35.4518938620722395 S
atom 4.6574808492901552 2.5213853003942588 40.4119121536910342 S
atom 10.5352789479468640 2.5214148267979191 40.4214327836312393 S
atom 5.5314238572256391 7.5252699175591662 40.4214327831133033 S
atom 9.6613987826514300 7.5253032337954897 40.4282347833257916 S
atom 2.6011938145097702 4.9989748520411181 35.0861913998642478 S
atom 7.6040377810254656 4.9740220543973610 35.7591790569440633 S
atom 2.6001826902636784 9.9778771451438164 35.7591790569235997 S
atom 7.6051117479147852 10.0028927854186911 35.1025140300890044 S
atom 2.5920898754793620 5.4789228152660252 40.6783643162333775 S
atom 7.5968418187849043 4.6222015922286186 40.1453919524255980 S
atom 2.5929867280335257 9.6260566829967598 40.1453919523380094 S
atom 7.5960078088705973 10.4828407485759083 40.6946869464775247 S
atom 2.5883872583006946 2.4898210636370810 42.9224562183911047 Ba
atom 7.5922862691950117 2.6435039653827670 42.9576551249281664 Ba
atom 2.5884311784356120 7.6473590556828279 42.9576551253480332 Ba
atom 7.5923051916987605 7.4937389973404587 42.9387788482418671 Ba
atom 2.5803236903936413 2.6587906670826280 47.9848792783805607 Ba
atom 7.5841025105241293 2.5017804430769393 47.9878768408604941 Ba
atom 2.5802474197672334 7.5056355334801328 47.9878768412179824 Ba
atom 7.5842416237906658 7.6627086008349403 48.0012019081729733 Ba
atom 5.0894101427820200 5.0715324784733218 45.4568957235881541 Zr
atom 10.0870907541346142 5.0715524426845606 45.4648687298480851 Zr
atom 5.0832356633756186 10.0754075334537632 45.4648687298486820 Zr
atom 10.0933280761819955 10.0754504118824926 45.4732183537313688 Zr
atom 5.0812533801818542 5.0929366008612895 50.5242100195387707 Zr
atom 10.0789339915317608 5.0929565650724724 50.5321830258112143 Zr
atom 5.0750789007755275 10.0968116558427763 50.5321830258059776 Zr
atom 10.0851713135791385 10.0968545342716869 50.5405326496942351 Zr
atom 5.3403272943431741 5.0434509726065881 42.9351519133355168 S
atom 9.8443140310870731 5.0434259894754101 42.9424276760516364 S
atom 4.8404589402666591 10.0472810796074210 42.9424276760616337 S
atom 10.3442452278040609 10.0473689053789279 42.9514745435128305 S
atom 4.8706673747819895 5.0822074504072807 47.9901499608966446 S
atom 10.2976767595331182 5.0822815924797879 47.9989287885163449 S
atom 5.2938216687757054 10.0861366839082258 47.9989287885009972 S
atom 9.8745853081802810 10.0861253844758849 48.0064725910224936 S
atom 5.5542778909422363 2.5669401525278781 45.4647883045719823 S
atom 9.6221155005181114 2.5669780673792375 45.4714457208856047 S
atom 4.6182604097804392 7.5708331581379529 45.4714457215213130 S
atom 10.5581958243159413 7.5708580859266030 45.4811109353587639 S
atom 4.6101483099759299 2.5936309576260230 50.5079678146695912 S
atom 10.5500837245562007 2.5936558854228204 50.5176330285061042 S
atom 5.5462286337767495 7.5975109761829369 50.5176330278703816 S
atom 9.6140662433974455 7.5975488910258804 50.5242904441834071 S
atom 2.5846584186023875 4.6149714322704947 45.2698851670885105 S
atom 7.5879242461368044 5.5369753301650828 45.6573253598127806 S
atom 2.5840691553699440 10.5408304209772883 45.6573253597695157 S
atom 7.5885763520089817 9.6188893656367735 45.2862077972639057 S
atom 2.5759126915488646 5.5494547686787614 50.7028709521276326 S
atom 7.5804198881876781 4.6275137133386908 50.3317533896228042 S
atom 2.5765647974288681 9.6313688041509575 50.3317533895791840 S
atom 7.5798306249472551 10.5533727020447525 50.7191935823025375 S
atom 2.5721399317221119 2.5170671447764965 53.0151009943140750 Ba
atom 7.5760389426176422 2.6707500465215226 53.0502999008513925 Ba
atom 2.5721838518582620 7.6746051369760044 53.0502999011501544 Ba
atom 7.5760578651224293 7.5209850786330286 53.0314236240442938 Ba
atom 2.5640037892548748 2.7674842286468868 58.0541665485203211 Ba
atom 7.5678749253002771 2.7220381153067317 58.0349349441349247 Ba
atom 2.5640198345385787 7.7258932057158738 58.0349349444680627 Ba
atom 7.5679217226561750 7.7714021622407339 58.0704891786363717 Ba
atom 5.0529572716624518 5.1517609484416145 55.5835238876783464 Zr
atom 10.0908315706042142 5.1517964066073256 55.5914862564385999 Zr
atom 5.0869764798746191 10.1556514973321796 55.5914862564660126 Zr
atom 10.0568752050329984 10.1556788818069244 55.5998465178570456 Zr
atom 5.0584470538771882 5.1731963718762612 60.6578331726117312 Zr
atom 10.0688120126754956 5.1732246957848531 60.6654877356269893 Zr
atom 5.0649569219333905 10.1770797865610803 60.6654877356336186 Zr
atom 10.0623649872620984 10.1771143052922373 60.6741558027695191 Zr
atom 5.3240301032907071 5.1210630547078475 53.0466510733318941 S
atom 9.8280168399101893 5.1210380715765309 53.0539268360300937 S
atom 4.8241617492142819 10.1248931617092346 53.0539268360479070 S
atom 10.3279480366272836 10.1249809874803951 53.0629737034927444 S
atom 4.7317462531009546 5.1545886221440007 58.0838714344976594 S
atom 10.4039690863301519 5.1547254288326441 58.0929999074615679 S
atom 5.4001139956427355 10.1585805200333468 58.0929999074778465 S
atom 9.7356641864285631 10.1585065559850669 58.1001940646650752 S
atom 5.5069453516272935 2.6391858097696108 55.5608439655502906 S
atom 9.6369202771276452 2.6392191260013695 55.5676459657607396 S
atom 4.6330651863321171 7.6430742167518764 55.5676459662780218 S
atom 10.5108632850624115 7.6431037431598821 55.5771665962155623 S
atom 5.0685503018524072 2.6695032383250719 60.5371848876427663 S
atom 10.0590687302654587 2.6694913464597079 60.5452161927428349 S
atom 5.0552136395019343 7.6733464372409443 60.5452161924247534 S
atom 10.0724682352566930 7.6734211717464973 60.5535075174709334 S
atom 2.5684812346883099 4.6855033857395467 55.2943918029130401 S
atom 7.5715023155227401 5.5422874513190505 55.8436867970533726 S
atom 2.5676472247701443 10.5461425420870167 55.8436867969661463 S
atom 7.5723991680808478 9.6894213190495719 55.3107144331581324 S
atom 2.5593772956662293 5.1654513488973137 60.8865647193048787 S
atom 7.5643063532741985 5.1904669891723323 60.2298996924686563 S
atom 2.5604512625211493 10.1943220799182477 60.2298996924486829 S
atom 7.5632952290603672 10.1693692822743191 60.9028873495279939 S
atom 2.5562649643777355 2.5386347732827641 62.7226870590853594 Ba
atom 7.5602028756212016 2.7901833507004605 62.7301985515723715 Ba
atom 2.5563477848566358 7.7940384413645623 62.7301985515650813 Ba
atom 7.5601828977819769 7.5425527067407439 62.7390096892161040 Ba
atom 5.3672116457770107 5.1648340824277907 63.1517810488313245 S
atom 9.7520573404374282 5.1647732501846502 63.1583901197705728 S
atom 4.7482022496517864 10.1686283407384490 63.1583901197697770 S
atom 10.3711295792031528 10.1687520156219282 63.1681036789760171 S
