#=======================================================
# FHI-aims file: full_relax/full_relax_RP_3_RxRyMz_-Rx-RyMz.in
# Created using the Atomic Simulation Environment (ASE)
# Fri Mar 14 11:21:19 2025
#=======================================================
lattice_vector 10.0405365905644643 -0.0038210581985604 0.0000000000004591 
lattice_vector -0.0038210581985598 10.0405365905638995 -0.0000000000002131 
lattice_vector 0.0000000000016746 -0.0000000000007780 35.6783545226485899 
atom 0.0652463288584202 -0.1514241673477960 0.2341229994674078 Ba
atom 5.1716924625186245 -0.0671568581841452 0.2341229997913226 Ba
atom 0.1495136382243466 4.9550219665276485 0.2341230000453154 Ba
atom 5.0836040950412427 4.8669335992529676 0.2341229999915103 Ba
atom -0.2329071154483424 0.1821121853048644 4.9712713972166584 Ba
atom 4.8381561098668167 0.2309965856849515 4.9712713967873068 Ba
atom -0.1840227153855495 5.2531754107174562 4.9712713969977225 Ba
atom 4.7854506515774595 5.2004699521674311 4.9712713965543056 Ba
atom 2.5074050605773621 2.5104059914173216 2.3841649708872326 Zr
atom 7.5282200689932557 2.5090421768748929 2.3841649718518014 Zr
atom 2.5060412475068334 7.5312210012440950 2.3841649708561525 Zr
atom 7.5257628241425767 7.5287637576896014 2.3841649723362068 Zr
atom 2.5091788836456117 2.5091788827386567 7.4329905253423627 Zr
atom 7.5294471785726236 2.5072683541580192 7.4329905253536559 Zr
atom 2.5072683532727318 7.5294471799331211 7.4329905254970967 Zr
atom 7.5275366505085817 7.5275366497299530 7.4329905238372138 Zr
atom 2.6838217601869108 2.7756542081033779 -0.1180656780298480 S
atom 7.2629718536139487 2.3326254766323822 -0.1180656783912005 S
atom 2.2407930285268640 7.3548043006929413 -0.1180656775748065 S
atom 7.7021795273285187 7.7940119742825980 -0.1180656784735242 S
atom 2.2469525613699726 2.1995371434923601 4.9340130271020968 S
atom 7.8390889186282182 2.7694946757917820 4.9340130265032105 S
atom 2.8169100939504901 7.7916735002399893 4.9340130269763200 S
atom 7.2653103277700186 7.2178949093317915 4.9340130279770174 S
atom 2.7322113742582124 0.0078707899220265 2.2060097915973729 S
atom 7.2626608446621495 0.0097252873438696 2.7517030169876979 S
atom 2.2404820197738058 5.0319041107060931 2.7517030168746412 S
atom 7.7505691413477313 5.0262285546819543 2.2060097912388708 S
atom 2.8808949686143581 -0.0038333193106062 7.7379533875909647 S
atom 7.1596416222680350 0.0000122611586666 7.1280276626623857 S
atom 2.1374627981407524 5.0221910830723520 7.1280276623183427 S
atom 7.8992527348680621 5.0145244450950512 7.7379533879652191 S
atom -0.0097813168889294 2.2880569204509835 2.2060097914957701 S
atom 5.0067219500420874 2.7759652169347229 2.7517030170159256 S
atom -0.0154568725311653 7.7981440415625114 2.7517030168933405 S
atom 5.0085764465979743 7.3064146865596715 2.2060097913974115 S
atom 0.0019227904757653 2.1393733273612363 7.7379533878320865 S
atom 5.0164349738985550 2.8789844396524931 7.1280276626557750 S
atom -0.0057438491180975 7.9011632640841434 7.1280276622601679 S
atom 5.0202805558869237 7.1577310931296205 7.7379533877520812 S
atom 0.2329071151902061 -0.1821121862731252 9.8947096537045045 Ba
atom 5.2023804809291754 -0.2348176444081834 9.8947096538257089 Ba
atom 0.1802016562404827 4.7873611806224536 9.8947096539569959 Ba
atom 5.2512648816028964 4.8362455805699334 9.8947096541904589 Ba
atom -0.0652463289139690 0.1514241669626517 14.6318580509322587 Ba
atom 4.8688441281976571 0.0633357996496269 14.6318580509158345 Ba
atom -0.1533346966494502 5.0855146243828511 14.6318580508425455 Ba
atom 4.9531114376763279 5.1697819333910742 14.6318580507771436 Ba
atom 2.5109527066874908 2.5079517742715072 12.4818160759012038 Zr
atom 7.5306742871777317 2.5054945329248288 12.4818160759075969 Zr
atom 2.5084954623509348 7.5276733557971394 12.4818160749199425 Zr
atom 7.5293104722057773 7.5263095389063013 12.4818160756925884 Zr
atom 2.7714052048243318 2.8188206231559825 9.9319680274225952 S
atom 7.2198054387008490 2.2450420324168134 9.9319680268723527 S
atom 2.1976266141795082 7.2672208566845278 9.9319680282873790 S
atom 7.7897629709684519 7.8371783896654081 9.9319680267157597 S
atom 2.3345360053702171 2.2427035578394121 14.9840467309429588 S
atom 7.7959225037925002 2.6819112312388431 14.9840467309867869 S
atom 2.7737436790744008 7.7040900563056898 14.9840467326308371 S
atom 7.3528937716001437 7.2610613243441993 14.9840467325951305 S
atom 2.7778757460697672 -0.0135463424431879 12.1142780345287555 S
atom 7.3083252157064829 -0.0116918445404262 12.6599712598834575 S
atom 2.2861463914989226 5.0104869747157537 12.6599712595544833 S
atom 7.7962335124534379 5.0048114184700214 12.1142780344797814 S
atom 0.0116358166851591 2.2423925491936467 12.1142780346865475 S
atom 5.0281390819674305 2.7303008454285878 12.6599712597006366 S
atom 0.0059602609152205 7.7524796703190972 12.6599712597134406 S
atom 5.0299935812973269 7.2607503153923991 12.1142780341510861 S
atom 2.4439325545356905 2.6606030508272465 18.0733002616583143 Ba
atom 7.3780230110058946 2.5725146837790902 18.0733002625931647 Ba
atom 2.3558441871768574 7.5946935068048287 18.0733002618385470 Ba
atom 7.4622903198257333 7.6789608154739692 18.0733002627385737 Ba
atom 2.7420859976090473 2.3270666968441502 22.8104486578029508 Ba
atom 7.7115593648738061 2.2743612381629044 22.8104486572284308 Ba
atom 2.6893805394479622 7.2965400636745752 22.8104486577710013 Ba
atom 7.7604437646280298 7.3454244640122335 22.8104486566554598 Ba
atom 5.0201315927038763 5.0171306592735752 20.2233422306249473 Zr
atom 10.0398531654608156 5.0146734145840757 20.2233422334076458 Zr
atom 5.0176743470210079 10.0368522375472882 20.2233422353270704 Zr
atom 10.0384893534633193 10.0354884242218230 20.2233422385539505 Zr
atom 5.0183577641132295 5.0183577664186831 25.2721677855915097 Zr
atom 10.0386260638728082 5.0164472367120334 25.2721677869076373 Zr
atom 5.0164472388228161 10.0386260616516267 25.2721677835240151 Zr
atom 10.0367155309805085 10.0367155338340108 25.2721677819295536 Zr
atom 4.8437148880886793 4.7518824410188145 17.7211115843968763 S
atom 10.3051013868928134 5.1910901147402209 17.7211115809597395 S
atom 5.2829225620363260 10.2132689393146450 17.7211115802410468 S
atom 9.8620726547936162 9.7702402072699659 17.7211115775588368 S
atom 5.2805840875467212 5.3279995062585677 22.7731902891541935 S
atom 9.7289843215891576 4.7542209156839821 22.7731902903619776 S
atom 4.7068054970747983 9.7763997402802261 22.7731902880923833 S
atom 10.2989418542395352 10.3463572724385777 22.7731902919134619 S
atom 5.2870546285699902 2.4956325381017108 20.5908802784431764 S
atom 9.8175040989746236 2.4974870356413179 20.0451870521235769 S
atom 4.7953252738603567 7.5196658582238527 20.0451870528095668 S
atom 10.3054123958214614 7.5139903045098588 20.5908802780870559 S
atom 5.3900738514053037 2.5053455628702599 24.9672049256329593 S
atom 9.6688205055385605 2.5091911421339725 25.5771306499090727 S
atom 4.6466416812662201 7.5313699670650864 25.5771306502623723 S
atom 10.4084316178561647 7.5237033294304609 24.9672049250586028 S
atom 2.5208147004669437 4.7515714320090829 20.5908802785032776 S
atom 7.5373179675927728 5.2394797287965078 20.0451870525586848 S
atom 2.5151391441889968 10.2616585534813254 20.0451870524144518 S
atom 7.5391724647217560 9.7699291986526990 20.5908802780024729 S
atom 2.5111016740400074 4.6485522106870354 24.9672049252077421 S
atom 7.5256138575685263 5.3881633227656938 25.5771306497909237 S
atom 2.5034350338210358 10.4103421472285049 25.5771306505268612 S
atom 7.5294594390304939 9.6669099769340985 24.9672049257772741 S
atom 2.2762717675241788 2.6912910694177503 27.7338869150181999 Ba
atom 7.3473349932461645 2.7401754695363376 27.7338869161223442 Ba
atom 2.3251561679145389 7.7623542926096292 27.7338869164240229 Ba
atom 7.2946295346563437 7.7096488344080720 27.7338869168604525 Ba
atom 2.5744252127208682 2.3577547147925086 32.4710353140639185 Ba
atom 7.6808713449294981 2.4420220248303131 32.4710353131111518 Ba
atom 2.6586925223692268 7.4642008504652084 32.4710353131528606 Ba
atom 7.5927829776323623 7.3761124820917345 32.4710353117895991 Ba
atom 5.0165839470265405 5.0195848777428376 30.3209933456959213 Zr
atom 10.0373989487154969 5.0182210656793726 30.3209933417452966 Zr
atom 5.0152201304996646 10.0403998821013118 30.3209933500639153 Zr
atom 10.0349417060232433 10.0379426362307118 30.3209933445723188 Zr
atom 4.7561314440066624 4.7087160261305003 27.7711452833253567 S
atom 10.3482678018268999 5.2786735588661227 27.7711452822357785 S
atom 5.3260889768173225 10.3008523840208159 27.7711452829297016 S
atom 9.7744892107475074 9.7270737929672375 27.7711452845091813 S
atom 5.1930006429198325 5.2848330906138088 32.8232239873870313 S
atom 9.7721507368938738 4.8418043590905642 32.8232239907322949 S
atom 4.7499719118036703 9.8639831847028887 32.8232239840476652 S
atom 10.2113584099146042 10.3031908580212441 32.8232239903880512 S
atom 5.2413902571583053 2.5170496714768991 30.4991485206826418 S
atom 9.7718397275383815 2.5189041687359222 29.9534552946605004 S
atom 4.7496609024195200 7.5410829935997841 29.9534552950334003 S
atom 10.2597480239431178 7.5354074379324034 30.4991485203066368 S
atom 2.4993975667238302 4.7972358029429296 30.4991485208883368 S
atom 7.5159008336078204 5.2851440995952457 29.9534552954133169 S
atom 2.4937220105087143 10.3073229254686503 29.9534552944677372 S
atom 7.5177553314474892 9.8155935705513215 30.4991485202764139 S
