#=======================================================
# FHI-aims file: full_relax/full_relax_RP_3_RxRyMz_RxRy0.in
# Created using the Atomic Simulation Environment (ASE)
# Fri Mar 14 11:21:47 2025
#=======================================================
lattice_vector 10.0277225051980352 -0.0250528326884591 -0.0000003698532137 
lattice_vector -0.0250528326884805 10.0277225052044230 0.0000003697342044 
lattice_vector 0.0002191423177196 -0.0002191427487873 35.7906022173931078 
atom 0.0572000568878677 -0.1698353078108817 0.2312380247283586 Ba
atom 5.1836965392145045 -0.0697264941895716 0.2312378912660085 Ba
atom 0.1573088717284221 4.9566612145540399 0.2312383060308642 Ba
atom 5.0585348935193304 4.8314995686535287 0.2312380714875816 Ba
atom -0.2433405435938468 0.1831027652179299 4.9862618607701616 Ba
atom 4.8307585487420486 0.2308141800253683 4.9862616926669245 Ba
atom -0.1956291533417941 5.2572017408965719 4.9862620310389323 Ba
atom 4.7579943256542707 5.1844374881157691 4.9862618596867758 Ba
atom 2.4915176180601692 2.4957324968257444 2.3997103403203983 Zr
atom 7.5194637100720225 2.4972908812048833 2.3997101313092828 Zr
atom 2.4930759607326256 7.5236783328612482 2.3997102097873060 Zr
atom 7.4928524977280500 7.4970671632335719 2.3997101888610426 Zr
atom 2.5007130726212408 2.5006217545910538 7.4563756988577117 Zr
atom 7.5145743494317330 2.4880954291992139 7.4563753623933078 Zr
atom 2.4881866782138804 7.5144829996280977 7.4563763114147728 Zr
atom 7.5020478498736196 7.5019565457769790 7.4563758420173798 Zr
atom 2.6265761869064277 2.7192334672541940 -0.1054365664315239 S
atom 7.2959625943713400 2.3622322287954693 -0.1054367561421466 S
atom 2.2695749490711412 7.3886199425434596 -0.1054362648902214 S
atom 7.6279109985933777 7.7205683464910280 -0.1054365048154597 S
atom 2.2487819510818796 2.2046017500818271 4.9536376708520322 S
atom 7.8105943019657351 2.7400264524535296 4.9536376953628558 S
atom 2.7842066167679675 7.7664141381356142 4.9536382021832406 S
atom 7.2501167786916314 7.2059366330025671 4.9536378126808174 S
atom 2.7659782918174227 0.0021889624627313 2.2393976687248660 S
atom 7.2339829531650492 -0.0070667271529667 2.7422737516293694 S
atom 2.2075953088656322 5.0193209894127957 2.7422741295130963 S
atom 7.7673131108533102 5.0035237950512208 2.2393976682926096 S
atom 2.8924812583046093 -0.0087223274151340 7.7534387781979524 S
atom 7.1353325460579997 -0.0164221628276508 7.1593116647157586 S
atom 2.1089448718585637 5.0099658598800358 7.1593120389918754 S
atom 7.8938160952198757 4.9926128211049745 7.7534387919490912 S
atom -0.0147154112856810 2.2478829438669918 2.2393978477862873 S
atom 4.9958751428889974 2.7812131147617101 2.7422739277001251 S
atom -0.0305124838838870 7.8076008147021163 2.7422743215661067 S
atom 4.9866194119015761 7.2492178172987547 2.2393978617423285 S
atom -0.0038046999907035 2.1213799852521626 7.7534389915165987 S
atom 5.0052308382160184 2.8798635461368129 7.1593118486182936 S
atom -0.0211567666752977 7.9062511995258093 7.1593122212270757 S
atom 4.9975300957539002 7.1227148601628336 7.7534389510578716 S
atom 0.2434318948987684 -0.1831941059505605 9.9264891634951429 Ba
atom 5.1970552483974330 -0.2559583252918934 9.9264889572973249 Ba
atom 0.1706676679016375 4.7704294606711830 9.9264893217855086 Ba
atom 5.2447666440366980 4.8181408522049685 9.9264891284990551 Ba
atom -0.0571087213936290 0.1697438755772289 14.6815127380840078 Ba
atom 4.8441172476031635 0.0445822695704476 14.6815124680134250 Ba
atom -0.1822703441344316 5.0709700682515875 14.6815130356804939 Ba
atom 4.9442260536161378 5.1710788707357720 14.6815126843760737 Ba
atom 2.5099084828948337 2.5055111860419945 12.5130403117248541 Zr
atom 7.5096849674439934 2.4788999682720765 12.5130402676618324 Zr
atom 2.4832972970471725 7.5052876655627303 12.5130405845818107 Zr
atom 7.5112434009474400 7.5068458634488486 12.5130403857046790 Zr
atom 2.7526441781191915 2.7966417346592860 9.9591131023151149 S
atom 7.2185543810358075 2.2361642470124417 9.9591128781282290 S
atom 2.1921666915781155 7.2625519316189244 9.9591122947516197 S
atom 7.7539790050642212 7.7979765855492005 9.9591127586096935 S
atom 2.3748499708170936 2.2820100515923802 15.0181876765431355 S
atom 7.7331860146551810 2.6139584125541147 15.0181873477709544 S
atom 2.7067984364169657 7.6403461686042418 15.0181882489624439 S
atom 7.3761847908315428 7.2833448723822434 15.0181877817585026 S
atom 2.7938308860997250 -0.0180768141670264 12.1704768418717233 S
atom 7.2618355169498798 -0.0273326360752172 12.6733529466875137 S
atom 2.2354478519853260 4.9990537434222961 12.6733533425167426 S
atom 7.7951656699310128 4.9832570117838797 12.1704768486844479 S
atom 0.0055508273746206 2.2200304343775787 12.1704770393736936 S
atom 5.0161417567475626 2.7533605356514252 12.6733531118544693 S
atom -0.0102466110754783 7.7797483028470191 12.6733535515322426 S
atom 5.0068862383548565 7.2213651984440004 12.1704770161301283 S
atom 2.3310285974255307 2.5577791067759028 18.1265174519364116 Ba
atom 7.4574172152826055 2.6577797898738917 18.1265172587993568 Ba
atom 2.4310292835921974 7.6841672519498747 18.1265175973264441 Ba
atom 7.3323637267224049 7.5591137703763058 18.1265174310803374 Ba
atom 2.6839784069639472 2.2571102290687910 22.8815656792124429 Ba
atom 7.7580859344469539 2.3048299224428277 22.8815654851478030 Ba
atom 2.7316980805817761 7.3312176125516837 22.8815658154305090 Ba
atom 7.6853134373212564 7.2584450706698611 22.8815656054314225 Ba
atom 4.9965774546909199 4.9920472107655547 20.2949883573075986 Zr
atom 10.0244837703292475 4.9935656900133907 20.2949879545197298 Zr
atom 4.9980961398665267 10.0199531779907112 20.2949885818957547 Zr
atom 9.9979126124303281 9.9933816204249624 20.2949885142504129 Zr
atom 5.0014900861577400 5.0011795543857112 25.3516771866568860 Zr
atom 10.0153513603801088 4.9886533041074914 25.3516759410165378 Zr
atom 4.9889636633208001 10.0150408613127411 25.3516776077769102 Zr
atom 10.0028248718734467 10.0025144328666116 25.3516771762912718 Zr
atom 5.2201303298191553 5.1271250655459326 17.7898480327251143 S
atom 9.8894057700786533 4.7700127616635770 17.7898470537227595 S
atom 4.8630182256849839 9.7964006002441089 17.7898483578209863 S
atom 10.2214652400875838 10.1284599229883998 17.7898477302964473 S
atom 4.7055171182105813 4.7492603815253025 22.8489269889598781 S
atom 10.2672705197508964 5.2846260979346216 22.8489287627582414 S
atom 5.2408828845019082 10.3110138335988069 22.8489267158479521 S
atom 9.7068519165311145 9.7505952151205886 22.8489270557890833 S
atom 4.7487209830703199 2.4857739454839338 20.1346894719385787 S
atom 10.3085147983280372 2.4699720201892394 20.6375706627829523 S
atom 5.2821269935854849 7.4963607439006781 20.6375709706541066 S
atom 9.7500556347144798 7.4871101696873943 20.1346893430370635 S
atom 4.6222579087984093 2.4966630389199547 25.6487145591383445 S
atom 10.4071098135006075 2.4793099175871296 25.0546381278978494 S
atom 5.3807222032879851 7.5056962411026653 25.0546384404646325 S
atom 9.6235928534897308 7.4979964498465668 25.6487145285530289 S
atom 2.5030359960203241 5.2664751365999214 20.1346895559767844 S
atom 7.5201690075270893 4.7080161069456352 20.6375708315175785 S
atom 2.4937831843811002 9.7344039154777953 20.6375711668867226 S
atom 7.5043684078800119 10.2678100082386283 20.1346896344573416 S
atom 2.4921450778516170 5.3929380719589206 25.6487147056354239 S
atom 7.5108350116540645 4.6094211294837555 25.0546383418829812 S
atom 2.4844466813073449 9.6358086741742426 25.0546386000437771 S
atom 7.4934806473241302 10.3942730315970415 25.6487147439029108 S
atom 2.3176669047040765 2.7439139304388376 27.8217875597130622 Ba
atom 7.2712818123767518 2.6711414744074280 27.8217873900310124 Ba
atom 2.2448943331987508 7.6975295467093172 27.8217877798390987 Ba
atom 7.3190015151790222 7.7452491515417234 27.8217876072262698 Ba
atom 2.6706165119268883 2.4432453721352099 32.5768355847463269 Ba
atom 7.5719507359722842 2.3181918967720976 32.5768353595429971 Ba
atom 2.5455630392721886 7.3445795656384245 32.5768357623719140 Ba
atom 7.6719513788393874 7.4445801930316087 32.5768355348844807 Ba
atom 5.0064025585531731 5.0103122154599076 30.4083643762782749 Zr
atom 10.0062186671264435 4.9837408824524774 30.4083647902601797 Zr
atom 4.9798311563858331 10.0101282751267089 30.4083641379527201 Zr
atom 10.0077372257039627 10.0116467837222327 30.4083640770987245 Zr
atom 5.2974630064904655 5.2530987752035054 27.8544253028123130 S
atom 9.7634321534485888 4.6926803374681523 27.8544250600344299 S
atom 4.7370444380351664 9.7190678964222261 27.8544259352554917 S
atom 10.2987978634911386 10.2544337008159303 27.8544253357817375 S
atom 4.7828496968146430 4.8752340932357754 32.9135058313548328 S
atom 10.1412967743673956 5.2072934554305554 32.9135050133911520 S
atom 5.1149091302012835 10.2336812193659838 32.9135060371896557 S
atom 9.7841845254907600 9.8765689347808845 32.9135061551408370 S
atom 4.7208530032995313 2.5059985233274138 30.0657822116642137 S
atom 10.2806468860816711 2.4901985162900773 30.5686634507251398 S
atom 5.2542591967197740 7.5165852529325434 30.5686638386607150 S
atom 9.7221879088950445 7.5073325606098749 30.0657821974799013 S
atom 2.4828092095071543 5.2943429838088010 30.0657823715327375 S
atom 7.4999465424794387 4.7358840121631074 30.5686636157240059 S
atom 2.4735587090110975 9.7622716605036945 30.5686640475009561 S
atom 7.4841442266704750 10.2956779162454648 30.0657824099525541 S
