#=======================================================
# FHI-aims file: full_relax/full_relax_RP_7_Rx0Rz_0-Ry0.in
# Created using the Atomic Simulation Environment (ASE)
# Mon Mar 24 15:44:47 2025
#=======================================================
lattice_vector 9.9844897343312802 0.0000000000000514 0.0122811546443493 
lattice_vector 0.0000000000000509 10.0869519294524004 -0.0000000000000017 
lattice_vector 0.0932916810672061 -0.0000000000000138 75.6282262796249256 
atom -0.1970651452543991 -0.0000000000014836 0.1496342371653468 Ba
atom 5.0746691336245906 -0.0000000000014806 0.1536680102780513 Ba
atom 0.0824242666257537 5.0434759647248022 0.1475274329096202 Ba
atom 4.7951797221084229 5.0434759647248733 0.1557748144801918 Ba
atom -0.1017485619160196 -0.0000000000015448 4.8447383184170967 Ba
atom 4.8368265983561241 -0.0000000000016178 4.8170829451513759 Ba
atom -0.1554182684471000 5.0434759647246006 4.8109423677345307 Ba
atom 4.8904963058778170 5.0434759647246663 4.8508788951429596 Ba
atom 2.4383845173266137 2.5089483546068521 2.2202943045106194 Zr
atom 7.4306293845015281 2.5345276100847998 2.2264348818406297 Zr
atom 2.4383845173266407 7.5780035748426826 2.2202943045103116 Zr
atom 7.4306293845015245 7.5524243193648175 2.2264348818407194 Zr
atom 2.4598359552275140 2.5060469766304361 7.2981030341336881 Zr
atom 7.4520808223563417 2.5374289880510501 7.3042436115146741 Zr
atom 2.4598359552274620 7.5809049528190622 7.2981030341339057 Zr
atom 7.4520808223564003 7.5495229413985578 7.3042436115140941 Zr
atom 2.4485558943111529 2.7476950647416691 -0.2665305881915164 S
atom 7.4408007609691769 2.2957809000358576 -0.2603900108665155 S
atom 2.4485558943116290 7.3392568647078766 -0.2665305881919179 S
atom 7.4408007609687266 7.7911710294138325 -0.2603900108663266 S
atom 2.4602182047884815 2.2291171456974825 4.8002254588068727 S
atom 7.4524630728162524 2.8143588188616930 4.8063660361395346 S
atom 2.4602182047879571 7.8578347837522147 4.8002254588068389 S
atom 7.4524630728167800 7.2725931105880601 4.8063660361392113 S
atom 2.4214553910862713 -0.0000000000014660 2.0510540406475974 S
atom 7.4458578124223127 -0.0000000000013798 2.5902233488859294 S
atom 2.4536129452622766 5.0434759647248271 2.5840827716233594 S
atom 7.4137002582207829 5.0434759647248004 2.0571946181256568 S
atom 2.9276149927417459 -0.0000000000013374 7.5491055314723461 S
atom 7.0438462814191976 -0.0000000000013900 7.0854448555789187 S
atom 2.0516014142742347 5.0434759647248750 7.0793042783533657 S
atom 7.9198598597887884 5.0434759647248137 7.5552461088960392 S
atom -0.0543850682639743 2.5450988728497514 2.3423717205248868 S
atom 4.9378597988997441 2.4983770918805428 2.3485122985543976 S
atom -0.0543850682638977 7.5418530565998090 2.3423717205243606 S
atom 4.9378597988996944 7.5885748375690509 2.3485122985549438 S
atom -0.0287120882024930 2.0640694932711181 7.3202097999408959 S
atom 4.9635327789688004 2.9794064715018611 7.3263503763661380 S
atom -0.0287120882024772 8.0228824361785769 7.3202097999413747 S
atom 4.9635327789688448 7.1075454579478921 7.3263503763657569 S
atom -0.0650998329579859 -0.0000000000012287 9.8329526760445400 Ba
atom 5.0850361446866525 -0.0000000000012212 9.8591139225989757 Ba
atom 0.0927912781450236 5.0434759647248137 9.8529733446809864 Ba
atom 4.9271450346360268 5.0434759647249079 9.8390932528753190 Ba
atom 0.0951770191244485 -0.0000000000012983 14.8932498828841222 Ba
atom 4.9400656094667283 -0.0000000000012365 14.8891777437672719 Ba
atom -0.0521792572593057 5.0434759647248200 14.8830371659706415 Ba
atom 5.0874218867483654 5.0434759647248919 14.8993904596667797 Ba
atom 2.5062188793300635 2.5247148021629862 12.3545771087191696 Zr
atom 7.4984637465077775 2.5187611625642536 12.3607176860452768 Zr
atom 2.5062188793300910 7.5622371272868314 12.3545771087194431 Zr
atom 7.4984637465077997 7.5681907668856194 12.3607176860450956 Zr
atom 2.5176040706736171 2.5217379823596389 17.4174644977982815 Zr
atom 7.5098489378309869 2.5217379823598125 17.4236050751211202 Zr
atom 2.5176040706736744 7.5652139470901956 17.4174644977980542 Zr
atom 7.5098489378309958 7.5652139470900694 17.4236050751217455 Zr
atom 2.4809704170395221 2.7449836464052919 9.8367223544405054 S
atom 7.4732152832171419 2.2984923182411365 9.8428629317918865 S
atom 2.4809704170397850 7.3419682830443982 9.8367223544407327 S
atom 7.4732152832169358 7.7884596112086015 9.8428629317915810 S
atom 2.5067063577852071 2.3433728998916576 14.8894337162917783 S
atom 7.4989512259762963 2.7001030648492481 14.8955742935994397 S
atom 2.5067063577852222 7.7435790295580809 14.8894337162920127 S
atom 7.4989512259763478 7.3868488646005295 14.8955742935994682 S
atom 2.0512957344418203 -0.0000000000013980 12.2057246621392999 S
atom 7.9594606121632250 -0.0000000000012136 12.5345174453064008 S
atom 2.9672157449448191 5.0434759647249381 12.5283768680003984 S
atom 7.0435406015731354 5.0434759647247871 12.2118652394652134 S
atom 2.9830625187443531 -0.0000000000012456 17.5601113766274608 S
atom 7.0443904897880900 -0.0000000000013496 17.2809581962345717 S
atom 2.0521456226025667 5.0434759647247569 17.2748176189681928 S
atom 7.9753073858747836 5.0434759647250349 17.5662519540146356 S
atom 0.0057829293236823 2.9997825009809334 12.3655083446676723 S
atom 4.9980277964827984 2.0436934637757989 12.3716489229605937 S
atom 0.0057829293236609 7.0871694284688811 12.3655083446675462 S
atom 4.9980277964828677 8.0432584656740040 12.3716489229607145 S
atom 0.0214816370827067 2.0367497899644520 17.4143942096378268 S
atom 5.0137265042564545 3.0067261747697080 17.4205347859623920 S
atom 0.0214816370826104 8.0502021394852985 17.4143942096376776 S
atom 5.0137265042566117 7.0802257546801064 17.4205347859622819 S
atom -0.0522137454169990 -0.0000000000013894 19.9355385359330270 Ba
atom 5.0873873985788540 -0.0000000000013760 19.9518918296551035 Ba
atom 0.0951425318913246 5.0434759647248875 19.9457512518027471 Ba
atom 4.9400311222223259 5.0434759647248883 19.9416791127119915 Ba
atom 0.1080631066642733 -0.0000000000014106 24.9958357427724671 Ba
atom 4.9424168631479235 -0.0000000000014016 24.9819556509545144 Ba
atom -0.0498280033011050 5.0434759647249034 24.9758150729643091 Ba
atom 5.1003079743349709 5.0434759647248555 25.0019763195059888 Ba
atom 2.5289892620023746 2.5187611625570057 22.4803518868821328 Zr
atom 7.5212341291687830 2.5247148021557586 22.4864924641941677 Zr
atom 2.5289892620024230 7.5681907668926307 22.4803518868819943 Zr
atom 7.5212341291687803 7.5622371272940194 22.4864924641941535 Zr
atom 2.5753721861111920 2.5374289880959697 27.5368259614722497 Zr
atom 7.5676170533137510 2.5060469766750684 27.5429665387243077 Zr
atom 2.5753721861112266 7.5495229413538603 27.5368259614726192 Zr
atom 7.5676170533137350 7.5809049527747030 27.5429665387235012 Zr
atom 2.5285017835831374 2.7001030648224389 19.9454952793059910 S
atom 7.5207466496642255 2.3433728998650749 19.9516358566429197 S
atom 2.5285017835831969 7.3868488646273063 19.9454952793054510 S
atom 7.5207466496642672 7.7435790295847502 19.9516358566435521 S
atom 2.5542377242216161 2.2984923183201227 24.9982066411615875 S
atom 7.5464825925305687 2.7449836464836017 25.0043472184486468 S
atom 2.5542377242215659 7.7884596111297197 24.9982066411617332 S
atom 7.5464825925307153 7.3419682829661603 25.0043472184483591 S
atom 2.0679923963911953 -0.0000000000014068 22.3065521276027674 S
atom 7.9761572741049775 -0.0000000000012933 22.6353449107746840 S
atom 2.9839124068894205 5.0434759647251317 22.6292043334632282 S
atom 7.0602372635101833 5.0434759647247551 22.3126927049346584 S
atom 2.9836067270622615 -0.0000000000013613 27.7556247172330686 S
atom 7.0998380158890999 -0.0000000000011706 27.2919640413389430 S
atom 2.1075931485878359 5.0434759647249248 27.2858234641341824 S
atom 7.9758515942535162 5.0434759647248528 27.7617652946745395 S
atom 0.0371803448566403 2.9997825009548440 22.4632800725846344 S
atom 5.0294252120148357 2.0436934637497557 22.4694206509859598 S
atom 0.0371803448566676 7.0871694284948301 22.4632800725846309 S
atom 5.0294252120148668 8.0432584657000259 22.4694206509860237 S
atom 0.0716753623690849 2.0640694932215133 27.5085786193178627 S
atom 5.0639202295416608 2.9794064714527706 27.5147191955713488 S
atom 0.0716753623691774 8.0228824362281781 27.5085786193182322 S
atom 5.0639202295416190 7.1075454579969408 27.5147191955712564 S
atom 0.1447118353927838 -0.0000000000012484 29.9840501005159084 Ba
atom 5.1906264097427810 -0.0000000000011393 30.0239866278769796 Ba
atom 0.1983815430253625 5.0434759647250198 30.0178460504372069 Ba
atom 5.1369567033225199 5.0434759647249576 29.9901906771246054 Ba
atom 0.2400284192042606 -0.0000000000012812 34.6791541811172763 Ba
atom 4.9527838746902377 -0.0000000000012637 34.6874015626981560 Ba
atom -0.0394609922639965 5.0434759647248395 34.6812609853171452 Ba
atom 5.2322732866195603 5.0434759647248670 34.6852947584348428 Ba
atom 2.5968236240124005 2.5345276101198331 32.6146346910918794 Zr
atom 7.5890684911678443 2.5089483546421238 32.6207752684048984 Zr
atom 2.5968236240124223 7.5524243193299769 32.6146346910917018 Zr
atom 7.5890684911678772 7.5780035748076351 32.6207752684050831 Zr
atom 2.5749899366449482 2.8143588190419346 30.0347035367952913 S
atom 7.5672348027588949 2.2291171458784800 30.0408441141044058 S
atom 2.5749899366452396 7.2725931104079029 30.0347035367957815 S
atom 7.5672348027586542 7.8578347835712181 30.0408441141036562 S
atom 2.5866522469643023 2.2957808999761209 35.1014595837928027 S
atom 7.5788971147640005 2.7476950646815639 35.1076001611124795 S
atom 2.5866522469640443 7.7911710294736825 35.1014595837925896 S
atom 7.5788971147643043 7.3392568647681742 35.1076001611128916 S
atom 2.5815951960747499 -0.0000000000012386 32.2508462239686011 S
atom 7.6059976174510320 -0.0000000000014167 32.7900155321003766 S
atom 2.6137527502513258 5.0434759647248404 32.7838749549671604 S
atom 7.5738400632478822 5.0434759647249470 32.2569868013634249 S
atom 0.0973483424388524 2.5450988728432402 32.4864166969609443 S
atom 5.0895932096025369 2.4983770918725452 32.4925572751567557 S
atom 0.0973483424387636 7.5418530566065032 32.4864166969606671 S
atom 5.0895932096026701 7.5885748375772790 32.4925572751570897 S
atom 2.5850415625654932 2.3629629693343435 38.2101319665019190 Ba
atom 7.5772864298258842 2.6805129953847309 38.2162725438238127 Ba
atom 2.5850415625656438 7.7239889601155278 38.2101319665022743 Ba
atom 7.5772864298257856 7.4064389340649246 38.2162725438237203 Ba
atom 2.5793521107501562 2.5420376863814558 42.8938646359515943 Ba
atom 7.5715969778973040 2.5014382783452822 42.9000052132750014 Ba
atom 2.5793521107509187 7.5449142430702683 42.8938646359522764 Ba
atom 7.5715969778966112 7.5855136511060932 42.9000052132742198 Ba
atom 5.0601553248782993 5.0434759647249185 40.2798118290375768 Zr
atom 10.0893436067584208 5.0434759647250518 40.2865526079270566 Zr
atom 5.0970987395708907 10.0869519294512280 40.2804120305994573 Zr
atom 10.0524001920201780 10.0869519294511711 40.2859524063835295 Zr
atom 5.0715854963528049 5.0434759647249905 45.3009025151333375 Zr
atom 10.0656222249966092 5.0434759647248981 45.3072966544368967 Zr
atom 5.0733773578285239 10.0869519294510397 45.3011560771210640 Zr
atom 10.0638303635171145 10.0869519294512298 45.3070430924561691 Zr
atom 5.3713830385535797 5.0434759647250909 37.7929281817299838 S
atom 9.7840114367492799 5.0434759647244514 37.7989325644780294 S
atom 4.7917665694868647 10.0869519294509420 37.7927919871408022 S
atom 10.3636279055964398 10.0869519294516010 37.7990687590892875 S
atom 4.6074180638810969 5.0434759647241982 42.8241522977406532 S
atom 10.5359134003502835 5.0434759647258902 42.8315678484367908 S
atom 5.5436685331504147 10.0869519294515850 42.8254272711082322 S
atom 9.5996629310081474 10.0869519294499721 42.8302928750753367 S
atom 5.0785212458717606 2.5217512007098559 40.4116453692608957 S
atom 10.0707661130373758 2.5217247640156253 40.4177859466184444 S
atom 5.0785212458717330 7.5652007287400016 40.4116453692618407 S
atom 10.0707661130374397 7.5652271654343242 40.4177859466169735 S
atom 5.0724841374987619 2.5217313071351004 45.3166379222202167 S
atom 10.0647290046563391 2.5217446575877869 45.3227784995446044 S
atom 5.0724841374905836 7.5652206223142633 45.3166379222176943 S
atom 10.0647290046646329 7.5652072718616568 45.3227784995475886 S
atom 2.5829039492420143 5.0434759647248804 39.9545551220728825 S
atom 7.5741826951981288 5.0434759647250580 40.7391268468446768 S
atom 2.5819378280146137 10.0869519294513417 40.7329862695208789 S
atom 7.5751488163756635 10.0869519294510095 39.9606956994010361 S
atom 2.5757658702965633 5.0434759647208125 45.7915179768125711 S
atom 7.5692214639292645 5.0434759647277119 44.8251936130086293 S
atom 2.5769765967569320 10.0869519294539849 44.8190530356841919 S
atom 7.5680107374550198 10.0869519294471424 45.7976585541376409 S
atom 2.5732688948036118 2.5190127612836983 47.8040172046561835 Ba
atom 7.5655137619755495 2.5244632034408103 47.8101577819740413 Ba
atom 2.5732688948020277 7.5679391681658146 47.8040172046514513 Ba
atom 7.5655137619772121 7.5624887260086275 47.8101577819785959 Ba
atom 2.5672566234974021 2.5251201452561540 52.7549830038670677 Ba
atom 7.5595014906623126 2.5183558194656621 52.7611235811928267 Ba
atom 2.5672566234996270 7.5618317841910470 52.7549830038709544 Ba
atom 7.5595014906601508 7.5685961099815859 52.7611235811887980 Ba
atom 5.0679585789278159 5.0434759647241636 50.2684224308447654 Zr
atom 10.0570730804250665 5.0434759647242782 50.2746610158627121 Zr
atom 5.0648282132589664 10.0869519294504499 50.2685204385413087 Zr
atom 10.0602034460928298 10.0869519294504144 50.2745630081679735 Zr
atom 5.0603723447858151 5.0434759647237311 55.2346479262755636 Zr
atom 10.0526172119515991 5.0434759647237550 55.2407885035940254 Zr
atom 5.0603723447858489 10.0869519294499543 55.2346479262726717 Zr
atom 10.0526172119513504 10.0869519294499757 55.2407885035982957 Zr
atom 5.5769221221942553 5.0434759647257223 47.7909495536600275 S
atom 9.5541413156122452 5.0434759647229148 47.7959117711543229 S
atom 4.5618964484356779 10.0869519294494090 47.7897711938322516 S
atom 10.5691669893531017 10.0869519294522973 47.7970901309836478 S
atom 4.5555951646610175 5.0434759647223535 52.7522847693261028 S
atom 10.5634310467463823 5.0434759647260794 52.7596772926556667 S
atom 5.5711861795782900 10.0869519294522050 52.7535367153333965 S
atom 9.5478400318225685 10.0869519294485546 52.7584253466487638 S
atom 5.0663668612650872 2.5217387488477740 50.2747594833420592 S
atom 10.0586117284415337 2.5217372158744542 50.2809000606713070 S
atom 5.0663668612760242 7.5652131806007183 50.2747594833460312 S
atom 10.0586117284305558 7.5652147135740897 50.2809000606671148 S
atom 5.0603723447879432 2.5217386727145858 55.2346479262766579 S
atom 10.0526172119484620 2.5217372920072720 55.2407885035946222 S
atom 5.0603723447827882 7.5652132567333137 55.2346479262717267 S
atom 10.0526172119536525 7.5652146374406692 55.2407885035991910 S
atom 2.5708553934763305 5.0434759647288736 49.7756217570015025 S
atom 7.5618948031248827 5.0434759647197547 50.7759170173681511 S
atom 2.5696499359581355 10.0869519294459256 50.7697764400475364 S
atom 7.5631002606401596 10.0869519294549885 49.7817623343229627 S
atom 2.5636402897753703 5.0434759647219600 55.7287294398517048 S
atom 7.5571043997962786 5.0434759647263068 54.7405664126972624 S
atom 2.5648595326301837 10.0869519294525301 54.7344258353753119 S
atom 7.5558851569397936 10.0869519294483929 55.7348700171743801 S
atom 2.5612431989086657 2.5183558194647375 57.7081722713577250 Ba
atom 7.5534880660733599 2.5251201452553933 57.7143128486802155 Ba
atom 2.5612431989064284 7.5685961099811081 57.7081722713575545 Ba
atom 7.5534880660756141 7.5618317841909626 57.7143128486800308 Ba
atom 2.5552309276004745 2.5244632034381724 62.6591380705753522 Ba
atom 7.5474757947625655 2.5190127612816293 62.6652786478921016 Ba
atom 2.5552309276022758 7.5624887260085902 62.6591380705700871 Ba
atom 7.5474757947607714 7.5679391681656814 62.6652786478973169 Ba
atom 5.0527861106440701 5.0434759647237888 60.2008734217006989 Zr
atom 10.0481613434777071 5.0434759647237311 60.2069159913306962 Zr
atom 5.0559164763115989 10.0869519294498637 60.2007754140073956 Zr
atom 10.0450309778087146 10.0869519294499934 60.2070139990272040 Zr
atom 5.0491591932187960 5.0434759647246121 65.1683933374108193 Zr
atom 10.0396121989071663 5.0434759647247560 65.1742803527543799 Zr
atom 5.0473673317398164 10.0869519294509438 65.1681397754362877 Zr
atom 10.0414040603836536 10.0869519294508141 65.1745339147347238 Zr
atom 5.5651495249132292 5.0434759647261709 57.7170110832228005 S
atom 9.5418033771577750 5.0434759647224823 57.7218997145356951 S
atom 4.5495585099899101 10.0869519294482632 57.7157591372129346 S
atom 10.5573943920759614 10.0869519294519883 57.7231516605468045 S
atom 4.5438225673827031 5.0434759647224894 62.6783462988846267 S
atom 10.5510931083004138 5.0434759647254905 62.6856652360409043 S
atom 5.5588482411264275 10.0869519294521925 62.6795246587177601 S
atom 9.5360674345431775 10.0869519294492243 62.6844868762102081 S
atom 5.0543778283034531 2.5217387488476199 60.1945363692001436 S
atom 10.0466226954632720 2.5217372158743188 60.2006769465280982 S
atom 5.0543778282976968 7.5652131806004119 60.1945363692049185 S
atom 10.0466226954690274 7.5652147135737327 60.2006769465243892 S
atom 5.0482605520701256 2.5217313071345910 65.1526579303268107 S
atom 10.0405054192486194 2.5217446575879294 65.1587985076488536 S
atom 5.0482605520828807 7.5652206223142322 65.1526579303235422 S
atom 10.0405054192359202 7.5652072718609285 65.1587985076516105 S
atom 2.5588498864471432 5.0434759647219822 59.6933788351794163 S
atom 7.5498892960964561 5.0434759647267882 60.6936740955482534 S
atom 2.5576444289292857 10.0869519294528160 60.6875335182251732 S
atom 7.5510947536117268 10.0869519294481336 59.6995194125024611 S
atom 2.5515232256469473 5.0434759647293106 65.6441022395414535 S
atom 7.5449788192818801 5.0434759647185032 64.6777778757329003 S
atom 2.5527339521099814 10.0869519294444938 64.6716372984128895 S
atom 7.5437680928084960 10.0869519294558128 65.6502428168617200 S
atom 2.5491477116570938 2.5014382783437648 67.5692906392736887 Ba
atom 7.5413925788379528 2.5420376863803735 67.5754312165972095 Ba
atom 2.5491477116563259 7.5855136511083625 67.5692906392747261 Ba
atom 7.5413925788387397 7.5449142430722214 67.5754312165958311 Ba
atom 2.5434582598304503 2.6805129953885269 72.2530233087207563 Ba
atom 7.5357031269205494 2.3629629693386498 72.2591638860434387 Ba
atom 2.5434582598303361 7.4064389340608896 72.2530233087213105 Ba
atom 7.5357031269207146 7.7239889601110763 72.2591638860430550 Ba
atom 5.0605893647133051 5.0434759647249976 70.1894840234933923 Zr
atom 10.0158908171631413 5.0434759647248910 70.1950243992678935 Zr
atom 5.0236459499806081 10.0869519294510646 70.1888838219435769 Zr
atom 10.0528342318612172 10.0869519294511747 70.1956246008307261 Zr
atom 5.5133266257248899 5.0434759647258609 67.6451435547939326 S
atom 9.5693210235823862 5.0434759647240410 67.6500091587650161 S
atom 4.5770761563905307 10.0869519294497003 67.6438685814378147 S
atom 10.5055714928603869 10.0869519294516117 67.6512841321264915 S
atom 4.7493616511272263 5.0434759647241991 72.6763676707898867 S
atom 10.3212229872390555 5.0434759647250038 72.6826444427218519 S
atom 5.3289781199977302 10.0869519294516579 72.6765038653907709 S
atom 9.7416065181968179 10.0869519294508869 72.6825082481359459 S
atom 5.0422234436995055 2.5217512007092697 70.0576504832547329 S
atom 10.0344683108650798 2.5217247640133320 70.0637910606064338 S
atom 5.0422234436997178 7.5652007287404714 70.0576504832566371 S
atom 10.0344683108649466 7.5652271654364407 70.0637910606051548 S
atom 2.5465619943898683 5.0434759647251743 69.7301690057046955 S
atom 7.5378407403558754 5.0434759647246024 70.5147407304703364 S
atom 2.5455958731667852 10.0869519294509473 70.5086001531531537 S
atom 7.5388068615408184 10.0869519294511960 69.7363095830263831 S
