#=======================================================
# FHI-aims file: full_relax/full_relax_RP_6_RxRyRz_-Rx-Ry-Rz.in
# Created using the Atomic Simulation Environment (ASE)
# Fri Mar 14 11:49:02 2025
#=======================================================
lattice_vector 9.9650184093192138 -0.0021827073036669 0.0017366256879360 
lattice_vector -0.0021827073035680 9.9650184081663831 -0.0017366265933997 
lattice_vector 0.0145462877317036 -0.0145462936388101 66.5333799134145920 
atom 0.0334293640662245 -0.1262144375798687 0.2078515887919209 Ba
atom 5.1087229865452599 -0.0345204707192502 0.2087190085083401 Ba
atom 0.1251245219481282 4.9490805089531538 0.2069787822166496 Ba
atom 5.0148462487172241 4.8552034998971765 0.2078492241710044 Ba
atom -0.2485359383328247 0.1863134324216012 5.0181367621782851 Ba
atom 4.7961958587437223 0.2474440975458900 5.0190051985989097 Ba
atom -0.1874048552144151 5.2310450720413071 5.0172683882832212 Ba
atom 4.7328818401423076 5.1677319435488194 5.0181366582996052 Ba
atom 2.4636787898049195 2.5121041275861433 2.4006969533260341 Zr
atom 7.4518227073384082 2.5166487711733523 2.4015674682343016 Zr
atom 2.4682231269340567 7.5002478875779186 2.3998306271569763 Zr
atom 7.4450963323779780 7.4935213310604469 2.4006978867918978 Zr
atom 2.4218629645066954 2.5242673100102997 7.4916283999015008 Zr
atom 7.4396595564076167 2.5584627406310352 7.4924959829180837 Zr
atom 2.4560595170535877 7.5420636432894952 7.4907582734866605 Zr
atom 7.4032821818832923 7.5056851505894127 7.4916287219420266 Zr
atom 2.5867677956392203 2.6991820590222306 -0.1130309406546031 S
atom 7.2647451408329902 2.3935585636704113 -0.1121586353045912 S
atom 2.2811441300971635 7.3771592329755507 -0.1138970076454880 S
atom 7.5681857676437394 7.6806002719473838 -0.1130288383282241 S
atom 2.2566786921777870 2.2925622637627585 4.9800085462272907 S
atom 7.6713645731473381 2.7236476817392985 4.9808768577885099 S
atom 2.6877646652018967 7.7072477732106428 4.9791385939798518 S
atom 7.2380968402443564 7.2739797606132468 4.9800090067512404 S
atom 2.7632827524752019 0.0313406349098360 2.2862703529888466 S
atom 7.1208513668711788 0.0332195286457207 2.7199224698352373 S
atom 2.1372510762199837 5.0168207573204064 2.7181873328979638 S
atom 7.7446989938511210 5.0127573253507158 2.2862711821878197 S
atom 2.9417824400292276 0.0375176898285104 7.7019827683351672 S
atom 6.9917244191807333 0.0372856437079822 7.3232216726398658 S
atom 2.0081240517142378 5.0208864174076311 7.3214857307736976 S
atom 7.9232003676426181 5.0189375268063134 7.7019819646354213 S
atom -0.0324295615467578 2.2192258933014384 2.2854015049718934 S
atom 4.9471058035109543 2.8430758365772650 2.7190548983331051 S
atom -0.0364942533586979 7.8266766992297780 2.7173177821083625 S
atom 4.9489863536640355 7.2006444233863522 2.2854023421402205 S
atom -0.0386089272990974 2.0407267008199623 7.7011137107369452 S
atom 4.9430416399547639 2.9722024232273951 7.3223535624876810 S
atom -0.0405608761830339 7.9558029210495453 7.3206174209337682 S
atom 4.9428071347679419 7.0221443154261252 7.7011144443540829 S
atom 0.0024419722630667 -0.0846128636568203 10.0464261221963866 Ba
atom 5.0671224051310935 -0.0035336199112926 10.0472945631713078 Ba
atom 0.0835209478305738 4.9800666488769387 10.0455578229607969 Ba
atom 4.9838608502900845 4.8968050903224469 10.0464261872660128 Ba
atom 0.0493702797462356 0.0427586098113609 15.1212226234731979 Ba
atom 4.9397509759250511 -0.0504615426872141 15.1220911337871335 Ba
atom -0.0438495980497780 4.9331389542151740 15.1203541074862251 Ba
atom 5.0307882341200250 5.0241761171054549 15.1212226395923501 Ba
atom 2.5018857096794940 2.4900922995359984 12.5753850872414592 Zr
atom 7.4738337898968465 2.4784413799285994 12.5762503183602945 Zr
atom 2.4902333457455161 7.4620421859937753 12.5745160182858324 Zr
atom 7.4833032765761782 7.4715096906269567 12.5753834664405648 Zr
atom 2.4967039173580416 2.4952733997381094 17.6670606247687623 Zr
atom 7.4686551056465564 2.4836209228311614 17.6679288829828494 Zr
atom 2.4850540132402497 7.4672217785225108 17.6661939444253662 Zr
atom 7.4781216629376814 7.4766908462300021 17.6670600224156829 Zr
atom 2.5920534128761314 2.6598510423390147 10.0409946548840541 S
atom 7.3040758943631090 2.3882728266150686 10.0418623480622333 S
atom 2.3204759820545959 7.3718736169237307 10.0401228051657547 S
atom 7.5734713432852212 7.6412687062019291 10.0409942969977770 S
atom 2.4147573426854718 2.4081451972235421 15.1212232653356047 S
atom 7.5557819915464890 2.5655689166876212 15.1220920436619100 S
atom 2.5721810975836985 7.5491699387280047 15.1203524091094188 S
atom 7.3961751524958625 7.3895629695463043 15.1212233714288065 S
atom 2.0090447088946175 -0.0021902548196317 12.5087674733367482 S
atom 7.9930417877724711 -0.0024838297219866 12.6599882800708112 S
atom 3.0094410341378000 4.9811154839842375 12.6582516205588220 S
atom 6.9904623405753910 4.9792281677278751 12.5087670654902592 S
atom 2.9800768716621180 -0.0055133194617756 17.7345466046291627 S
atom 6.9610979677238127 -0.0073992021317325 17.5850619671882882 S
atom 1.9774974323615322 4.9762000614125528 17.5833258184800023 S
atom 7.9614947513494672 4.9759046501110893 17.7345469404710521 S
atom 0.0010989800432711 2.9734646964280014 12.5078987367300929 S
atom 4.9828109110826997 1.9708853459177391 12.6591195837326147 S
atom -0.0007894142308229 6.9544857920209662 12.6573838517528685 S
atom 4.9825169401491705 7.9548825375222876 12.5078989939070393 S
atom 0.0044198357079975 2.0024324886448195 17.7336779507150020 S
atom 4.9877278269462373 3.0028290733333312 17.5841937452678216 S
atom 0.0041282844893667 7.9864295334512869 17.5824575431195989 S
atom 4.9858383612108339 6.9838503005281156 17.7336787877336768 S
atom -0.0780004652492834 -0.0041691593498390 20.1960190558637223 Ba
atom 4.9866783765616702 0.0769093403642928 20.1968876350034670 Ba
atom 0.0030783361631970 5.0605098320697373 20.1951506408785590 Ba
atom 4.9034167540992435 4.9772482710032646 20.1960191140134633 Ba
atom 0.1929264597336057 -0.2551480676504878 25.2243091322745023 Ba
atom 5.2376564171046658 -0.1940169913460692 25.2251774259319603 Ba
atom 0.2540563507858565 4.7895840763419706 25.2234409478180446 Ba
atom 5.1743434878767900 4.7262700406494575 25.2243092219379790 Ba
atom 2.5308796318132276 2.4152508854534909 22.7508179476524290 Zr
atom 7.5486761297781282 2.4494489947370881 22.7516877668768487 Zr
atom 2.5650751953891033 7.4330475827106453 22.7499524838198468 Zr
atom 7.5122980064701714 7.3966691256222310 22.7508183601485925 Zr
atom 2.5187153936775375 2.4570665837510766 27.8417479508609169 Zr
atom 7.5068610578483632 2.4616120055077246 27.8426156443356234 Zr
atom 2.5232600861241643 7.4452117685718386 27.8408767161029402 Zr
atom 7.5001332601070807 7.4384839154435989 27.8417482227688566 Zr
atom 2.6664635400368830 2.5854414566554196 20.2014518145407109 S
atom 7.3784856984424039 2.3138638728324086 20.2023228275180919 S
atom 2.3948852202013957 7.2974639058039799 20.2005839817371822 S
atom 7.6478809712711167 7.5668593614696515 20.2014506234530380 S
atom 2.2991743196542669 2.2500663305691004 25.2624331398453279 S
atom 7.7138601957224679 2.6811523810889013 25.2633045162339833 S
atom 2.7302593308932934 7.6647531422006985 25.2615685961669918 S
atom 7.2805924227079064 7.2314854104311284 25.2624353367793582 S
atom 2.0473389915766833 -0.0452207392286561 22.5413315069864950 S
atom 7.9624152020093364 -0.0471756771588735 22.9218279053192120 S
atom 2.9788146457311773 4.9364303546312707 22.9200911827683136 S
atom 7.0287570699555566 4.9361968068097983 22.5413309195945040 S
atom 2.2258394254416256 -0.0390424280386542 27.9570433285195357 S
atom 7.8332880162185754 -0.0431064558347486 27.5251267779308790 S
atom 2.8496878647479402 4.9404937218415004 27.5233920327849440 S
atom 7.2072556080586585 4.9423739361002248 27.9570443267799362 S
atom 0.0441286913115830 2.9351703766407167 22.5404630700837068 S
atom 5.0274967351737345 2.0015119186994514 22.9209596541975493 S
atom 0.0438958083104968 6.9851128301952317 22.9192231354464724 S
atom 5.0255477071939136 7.9165885719921611 22.5404624757524772 S
atom 0.0379517450291538 2.7566705573686696 27.9561758792577564 S
atom 5.0234320380980586 2.1306384755097598 27.5242596734884124 S
atom 0.0398311754650327 7.1142391722686220 27.5225221811270870 S
atom 5.0193709283591383 7.7380890152963202 27.9561753735365670 S
atom -0.1196032507447480 0.0268166720759348 30.0345965830951194 Ba
atom 4.9556923647550137 0.1185106824040618 30.0354631642659022 Ba
atom -0.0279088764486828 5.1021120264480890 30.0337255724950332 Ba
atom 4.8618162749495886 5.0082351132467595 30.0345916100509385 Ba
atom 2.7057940873319941 2.5801559935171765 30.3554740274268759 S
atom 7.3837711214624759 2.2745327392019234 30.3563397982984284 S
atom 2.4001706877379152 7.2581327717200059 30.3546047845900127 S
atom 7.6872121100559765 7.5615738927233496 30.3554785804683718 S
atom 2.6241954564442147 2.4500059326085899 33.4745417772985476 Ba
atom 7.5139209012732824 2.3561299243066953 33.4754108904105649 Ba
atom 2.5303193404615927 7.3397318658709372 33.4736741167236644 Ba
atom 7.6056155217613099 7.4314252457512637 33.4745374322936371 Ba
atom 2.3116681793759910 2.7319717692583780 38.2848269277695508 Ba
atom 7.2319555780555147 2.6686586452358156 38.2856947527794986 Ba
atom 2.2483551165678231 7.6522585727890231 38.2839585950405166 Ba
atom 7.2930860509624633 7.7133889299158209 38.2848270847009005 Ba
atom 4.9672958825551685 5.0011751140356457 35.6673908058455709 Zr
atom 9.9441687456400363 4.9944467096202061 35.6682559632946834 Zr
atom 4.9605672403196586 9.9780481844936553 35.6665205558254002 Zr
atom 9.9487158612518698 9.9825949742127520 35.6673870819979371 Zr
atom 4.9551307082084222 5.0429904425472243 40.7583159965523976 Zr
atom 9.9023549144693170 5.0066085662586870 40.7591852872275453 Zr
atom 4.9187541040883875 9.9902123576398605 40.7574485124969428 Zr
atom 9.9365504554511404 10.0244093650828656 40.7583156865328462 Zr
atom 4.7802179443046722 4.8780857012978389 33.1536634947605791 S
atom 10.0672585362801659 5.1815262077266366 33.1545325580844477 S
atom 5.0836587027083233 10.1651273379037370 33.1527914188818329 S
atom 9.7616352454041415 9.8595036146394524 33.1536609194954366 S
atom 5.1868366866876219 5.2081747861808454 38.2466983407141754 S
atom 9.7371698238681468 4.7749068173714431 38.2475686540008439 S
atom 4.7535697205688408 9.7585070140448167 38.2458252841663935 S
atom 10.1682552332073524 10.1895916445387957 38.2466962702562441 S
atom 4.6363239830064442 2.5177484902400078 35.9857440972132565 S
atom 10.2437738143489181 2.5136850598463072 35.5538273544851862 S
atom 5.2601720886555983 7.4972843915059242 35.5520926071152843 S
atom 9.6177419623821656 7.4991629005151692 35.9857447865282154 S
atom 4.5071971385903780 2.5218124490672187 40.5890443596521777 S
atom 10.4222734478368313 2.5198618574778080 40.9695416380673407 S
atom 5.4386730733428763 7.5034636316736503 40.9678048547873814 S
atom 9.4886140626212345 7.5032357168517407 40.5890438120252952 S
atom 2.4625787692281658 5.3276033453304095 35.9848749286453966 S
atom 7.4480640737472577 4.7015706927912584 35.5529580487853138 S
atom 2.4644589934824599 9.6851707419033968 35.5512236778059716 S
atom 7.4439980666435979 10.3090211032222019 35.9848767312215472 S
atom 2.4585204608314637 5.4567295899020536 40.5881752470472463 S
atom 7.4418806924802618 4.5230705232297455 40.9686730650099236 S
atom 2.4582825509861030 9.5066712253601953 40.9669370382322882 S
atom 7.4399307818596974 10.4381466439026536 40.5881766611953907 S
atom 2.5825947494632437 2.4809943000179819 43.3131146626150425 Ba
atom 7.4829335050415855 2.3977326484740442 43.3139832801835709 Ba
atom 2.4993328292599291 7.3813316755516496 43.3122467618860227 Ba
atom 7.5640124825835544 7.4624104549688894 43.3131156756914351 Ba
atom 2.4552239317629327 2.4340653883575261 48.3879120349357379 Ba
atom 7.5298610580546628 2.5251021475527713 48.3887808479684409 Ba
atom 2.5462609401604008 7.5087038443989051 48.3870437758899001 Ba
atom 7.4366415857334438 7.4154838566574952 48.3879126633060537 Ba
atom 4.9893082441899663 4.9629667351927855 45.8420717760073586 Zr
atom 9.9823771596878554 4.9724393371321822 45.8429408354632386 Zr
atom 4.9987761524728471 9.9560388169766654 45.8412083921279887 Zr
atom 9.9707244552155725 9.9443845908594160 45.8420755421382964 Zr
atom 4.9841268533487160 4.9681505214811965 50.9337509322774125 Zr
atom 9.9771965419561788 4.9776176079307124 50.9346184985082360 Zr
atom 4.9935945089973064 9.9612171276087143 50.9328800749090149 Zr
atom 9.9655443490324913 9.9495680461402749 50.9337523454837964 Zr
atom 4.8195487869310965 4.8728001394188407 43.3076853564937068 S
atom 10.0725443217200503 5.1421949228367065 43.3085512277580165 S
atom 5.0889439721051977 10.1257957637701104 43.3068161230083888 S
atom 9.8009663871245927 9.8542180422819357 43.3076840738386721 S
atom 5.0712551952783027 5.0500967658297888 48.3879109845405182 S
atom 9.8952487614968483 4.8904901155129332 48.3887822137186774 S
atom 4.9116473205160460 9.8740898594042577 48.3870442652163817 S
atom 10.0526721914814221 10.0315145633526033 48.3879109556152756 S
atom 5.5085144767445611 2.4820411817627508 45.9258097627880133 S
atom 9.4895359064346945 2.4801548952199894 45.7763257943811510 S
atom 4.5059352123451148 7.4637572668647918 45.7745894250073206 S
atom 10.4899324411171371 7.4634577176359551 45.9258108123122568 S
atom 4.4765707569238984 2.4771258067479707 50.8508841896223061 S
atom 10.4605675761214236 2.4768318255175452 51.0021040921044602 S
atom 5.4769669622801374 7.4604304501988130 51.0003673784225668 S
atom 9.4579883689146769 7.4585409950470014 50.8508824275377123 S
atom 2.4982805559764647 4.4554122798771312 45.9249425817998116 S
atom 7.4815911916223383 5.4558090203932252 45.7754578906700189 S
atom 2.4979916151914154 10.4394095695094524 45.7737206955727913 S
atom 7.4797019797001747 9.4368306192072815 45.9249413357436254 S
atom 2.5031988972548320 5.4873561822221051 50.8500149759204731 S
atom 7.4849131384838010 4.4847776525468879 51.0012354542044051 S
atom 2.5013131844517624 9.4683778638638980 50.9994994788728064 S
atom 7.4846205823179774 10.4687746357824274 50.8500150310935766 S
atom 2.5021510286112094 2.5614357450260856 53.4627099842612310 Ba
atom 7.4024915808059877 2.4781743849216973 53.4635792283439244 Ba
atom 2.4188900169259728 7.4617758264157601 53.4618414088253147 Ba
atom 7.4835699093101775 7.5428543034142876 53.4627105387982127 Ba
atom 2.7531296831802869 2.2905101327057076 58.4909991596548835 Ba
atom 7.6734169949183828 2.2271963935041255 58.4918677262613329 Ba
atom 2.6898162426038112 7.2107975615115247 58.4901309313374895 Ba
atom 7.7345476644267617 7.2719284281985423 58.4909992921520328 Ba
atom 5.0641475567589955 4.9339749852960608 56.0175079715588851 Zr
atom 10.0113676646639522 4.8975961673454096 56.0183741525422079 Zr
atom 5.0277701395353880 9.8811973727994840 56.0166389675821108 Zr
atom 10.0455655970910218 9.9153921990240832 56.0175068032392147 Zr
atom 5.0223348527434846 4.9461391453799921 61.1084381412721669 Zr
atom 9.9992063993299194 4.9394125293224187 61.1093090794888809 Zr
atom 5.0156074988945267 9.9230107343826450 61.1075700480067923 Zr
atom 10.0037509140945797 9.9275542358526643 61.1084375056199107 Zr
atom 4.8939578383778990 4.7983906901537363 53.4681446070381341 S
atom 10.1469535303775888 5.0677858060787777 53.4690158357998868 S
atom 5.1633531203282805 10.0513872464603775 53.4672766966358068 S
atom 9.8753761689905915 9.7798089220393098 53.4681442194275576 S
atom 5.2293319583837832 5.1656797438508155 58.5291286375963793 S
atom 9.7796651238535528 4.7324116376354404 58.5299943695935809 S
atom 4.7960650177766349 9.7160119416609358 58.5282609395148725 S
atom 10.2107507448349359 10.1470968074818018 58.5291274759750024 S
atom 5.4778866254306768 2.4373545346226262 56.1876483282165253 S
atom 9.5278288426818332 2.4371212502604505 55.8088875815315077 S
atom 4.5442286051140179 7.4207206768280818 55.8071515982538031 S
atom 10.4593052170536289 7.4187759086822549 56.1876494369136594 S
atom 5.3487611808704330 2.4414230160996904 60.7909486472362346 S
atom 9.7063294458186444 2.4433025962763590 61.2246027255620078 S
atom 4.7227301287810111 7.4268991909585562 61.2228636497393737 S
atom 10.3301789691227182 7.4228378311027070 60.7909482817599027 S
atom 2.5429773027146823 4.4860392561439228 56.1867805218793279 S
atom 7.5246236315203205 5.4175153622707581 55.8080195755715849 S
atom 2.5410231853477425 10.4011161819093108 55.8062829243063234 S
atom 7.5243879028701945 9.4674571581159501 56.1867809226866655 S
atom 2.5389044277473576 4.6151655078678520 60.7900794449239896 S
atom 7.5184432338967113 5.2390156736574589 61.2237331815578898 S
atom 2.5348403218274349 10.2226157416520707 61.2219965927102407 S
atom 7.5203242337719205 9.5965834027412651 60.7900804716811578 S
atom 2.4711650157428591 2.6030392717836497 63.3012863084229309 Ba
atom 7.3608892386625850 2.5091618845494978 63.3021505290827307 Ba
atom 2.3772874045480612 7.4927613124182155 63.3004170986567232 Ba
atom 7.4525829129599037 7.5844552388471760 63.3012834640109432 Ba
atom 4.8992439426690346 4.7590591169641359 63.6221658910227177 S
atom 10.1862854304314414 5.0624997603385724 63.6230335402042186 S
atom 5.2026846424434448 10.0461010703794376 63.6212956598080055 S
atom 9.8806621604332037 9.7404781231069943 63.6221624252040172 S
