#=======================================================
# FHI-aims file: full_relax/full_relax_RP_4_RxRyMz_-Rx-Ry-Mz.in
# Created using the Atomic Simulation Environment (ASE)
# Fri Mar 14 11:27:03 2025
#=======================================================
lattice_vector 10.0184568619758103 -0.0483306480382932 -0.0000000000000041 
lattice_vector -0.0483306480382867 10.0184568619758618 0.0000000000000083 
lattice_vector -0.0000000000000190 0.0000000000000383 45.8482305655643430 
atom 0.0815043977417482 -0.1800268208405928 0.2251047513625402 Ba
atom 5.1892552518302848 -0.1056697217620005 0.2251047513561387 Ba
atom 0.1558614968210732 4.9277240332428942 0.2251047513558926 Ba
atom 5.0665675047120109 4.8050362861273168 0.2251047513503388 Ba
atom -0.2524034311596027 0.1817873734723907 4.9985357332354399 Ba
atom 4.8274410575155882 0.2282381071461484 4.9985357332395264 Ba
atom -0.2059526974839506 5.2616318621471159 4.9985357332364533 Ba
atom 4.7326596758023731 5.1668504804334399 4.9985357332401339 Ba
atom 2.4919360250478633 2.4811302973674461 2.4011873135454742 Zr
atom 7.5131612406050472 2.4689617578669392 2.4011873135318820 Zr
atom 2.4797674855597163 7.5023555128969432 2.4011873135366351 Zr
atom 7.4769991320555134 7.4661934043557006 2.4011873135239652 Zr
atom 2.4915558603288956 2.4921910451246156 7.4576041269577011 Zr
atom 7.5021004928254520 2.4693419226061057 7.4576041269773183 Zr
atom 2.4687067378123224 7.5027356776302900 7.4576041269710593 Zr
atom 7.4766189673070880 7.4772541521123133 7.4576041269762658 Zr
atom 2.6212073211807274 2.7040633925736453 -0.1047973146303323 S
atom 7.2902281453816808 2.3396904617715522 -0.1047973146147326 S
atom 2.2568343903787516 7.3730842167793336 -0.1047973146157554 S
atom 7.6062704281442439 7.6891264995404613 -0.1047973146122646 S
atom 2.2439129677405250 2.1915955461051495 4.9595236613767524 S
atom 7.8026959918496201 2.7169848152139400 4.9595236613763500 S
atom 2.7693022368469449 7.7503785702157657 4.9595236613698468 S
atom 7.2289760747058907 7.1766586530731145 4.9595236613857105 S
atom 2.7882513913710585 -0.0090682147266751 2.2438621196320061 S
atom 7.2114442415204882 -0.0301585927903136 2.7517039722086958 S
atom 2.1780504865175443 5.0032351622436630 2.7517039722105068 S
atom 7.7733144983331330 4.9759948922763027 2.2438621196331998 S
atom 2.8967574456060428 -0.0162964620704830 7.7727978625229106 S
atom 7.1357232179382857 -0.0366061722646834 7.1577183381633125 S
atom 2.1023294629284184 4.9967875827728268 7.1577183381629075 S
atom 7.8818205525719058 4.9687666449289480 7.7727978625212284 S
atom -0.0150971093354785 2.2209770396247346 2.2438621196330333 S
atom 4.9910563757427120 2.7828472964375361 2.7517039722113039 S
atom -0.0423373792741076 7.8162410514368341 2.7517039722091323 S
atom 4.9699659976438024 7.2060401465893600 2.2438621196330271 S
atom -0.0078688619705433 2.1124709853840313 7.7727978625222462 S
atom 4.9975039552044302 2.8585683200235703 7.1577183381614402 S
atom -0.0358897998289431 7.8919620750232262 7.1577183381646714 S
atom 4.9771942450212618 7.0975340923508412 7.7727978625216743 S
atom 0.2762929425869241 -0.1857035740842665 9.9670066446941465 Ba
atom 5.1949320050743539 -0.3004582666026158 9.9670066446938712 Ba
atom 0.1615382500674869 4.7329354883977999 9.9670066446936634 Ba
atom 5.2613560495557650 4.7993595328779408 9.9670066446933880 Ba
atom -0.2524034311586080 0.1817873734701465 14.9354775561542734 Ba
atom 4.8274410575140747 0.2282381071432119 14.9354775561531508 Ba
atom -0.2059526974827491 5.2616318621496037 14.9354775561520210 Ba
atom 4.7326596758006385 5.1668504804371054 14.9354775561512572 Ba
atom 2.4915558603249788 2.4921910451219254 12.4764091624305440 Zr
atom 7.5021004928299648 2.4693419226057496 12.4764091624064619 Zr
atom 2.4687067378121847 7.5027356776328054 12.4764091624280429 Zr
atom 7.4766189673072700 7.4772541521119891 12.4764091624160507 Zr
atom 2.4919360250586906 2.4811302973649787 17.5328259758871319 Zr
atom 7.5131612405979658 2.4689617578550074 17.5328259758856042 Zr
atom 2.4797674855575416 7.5023555129001780 17.5328259758759692 Zr
atom 7.4769991320501950 7.4661934043714488 17.5328259758977261 Zr
atom 2.7587823686821729 2.8161849359072151 9.9670066447067516 S
atom 7.1781066020506774 2.2021154142710020 9.9670066446883379 S
atom 2.1447128470454975 7.2355091692740592 9.9670066446904961 S
atom 7.7438454756469897 7.8012480428692914 9.9670066446815699 S
atom 2.2439129677405547 2.1915955461060816 14.9744896279758457 S
atom 7.8026959918497276 2.7169848152147060 14.9744896280234610 S
atom 2.7693022368462441 7.7503785702147514 14.9744896279986168 S
atom 7.2289760747057104 7.1766586530721082 14.9744896280069408 S
atom 2.8967574456047513 -0.0162964620560161 12.1612154268676100 S
atom 7.1357232179368619 -0.0366061722605324 12.7762949512266832 S
atom 2.1023294629299896 4.9967875827585342 12.7762949512255979 S
atom 7.8818205525724192 4.9687666449222325 12.1612154268677823 S
atom 2.7882513913702942 -0.0090682147246127 17.6901511697520881 S
atom 7.2114442415247559 -0.0301585927796443 17.1823093171764185 S
atom 2.1780504865151329 5.0032351622463596 17.1823093171725745 S
atom 7.7733144983316897 4.9759948922617809 17.6901511697493810 S
atom -0.0078688619506702 2.1124709853850967 12.1612154268680470 S
atom 4.9975039551847100 2.8585683200234224 12.7762949512270740 S
atom -0.0358897998198883 7.8919620750233745 12.7762949512254469 S
atom 4.9771942450154061 7.0975340923498642 12.1612154268676171 S
atom -0.0150971093742209 2.2209770396270336 17.6901511697502585 S
atom 4.9910563757754671 2.7828472964375277 17.1823093171724395 S
atom -0.0423373792900971 7.8162410514352905 17.1823093171757328 S
atom 4.9699659976716397 7.2060401465871200 17.6901511697509335 S
atom 0.0815043977430089 -0.1800268208422973 19.7089085380297391 Ba
atom 5.1892552518294117 -0.1056697217604054 19.7089085380392568 Ba
atom 0.1558614968281899 4.9277240332438703 19.7089085380394735 Ba
atom 5.0665675047055085 4.8050362861240377 19.7089085380478899 Ba
atom 2.6212073211758140 2.7040633925710691 20.0388106039877272 S
atom 7.2902281453898254 2.3396904617792718 20.0388106039626663 S
atom 2.2568343903803236 7.3730842167814767 20.0388106039853007 S
atom 7.6062704281395650 7.6891264995331898 20.0388106039562857 S
atom 2.6725583743333967 2.4110271557445788 23.1492200341507797 Ba
atom 7.5832643822096193 2.2883394086242124 23.1492200341551211 Ba
atom 2.5498706272143998 7.3217331636251606 23.1492200341477172 Ba
atom 7.6576214812873618 7.3960902627074541 23.1492200341511207 Ba
atom 2.3107441800099573 2.7449349846476396 27.9226510159856751 Ba
atom 7.2493565533112196 2.6501536029398247 27.9226510159839556 Ba
atom 2.2159627983019572 7.6835473579422686 27.9226510159895582 Ba
atom 7.2958072869821429 7.7299980916132141 27.9226510159869399 Ba
atom 4.9964643630817358 4.9856586353748478 25.3253025962541045 Zr
atom 9.9936960095323979 4.9494965268155653 25.3253025962721168 Zr
atom 4.9603022545458115 9.9828902818553154 25.3253025962497276 Zr
atom 9.9815274700498478 9.9707217423784051 25.3253025962755949 Zr
atom 4.9854036153234844 4.9860388001118965 30.3817194096520886 Zr
atom 9.9933158448053110 4.9605572745932491 30.3817194096654291 Zr
atom 4.9599220898059313 9.9939510296140899 30.3817194096790892 Zr
atom 9.9704667222851633 9.9711019070897073 30.3817194096806453 Zr
atom 4.7735312678815358 4.8563873392802579 22.8193179681565397 S
atom 10.1229673056451919 5.1724296220363133 22.8193179681724203 S
atom 5.0895735506393853 10.2058233770389073 22.8193179681735927 S
atom 9.7585943748578234 9.8414504462463945 22.8193179681906955 S
atom 5.2859991143438201 5.2336816927139402 27.8836389443279664 S
atom 9.7456729522126810 4.6599617755739882 27.8836389442492667 S
atom 4.7122791972070592 9.6933555305807069 27.8836389443071297 S
atom 10.2710622213165657 10.2187447996770508 27.8836389442265009 S
atom 4.6947473640147548 2.4865382846948325 25.6758192550017732 S
atom 10.2900113758389029 2.4592980147417745 25.1679774024171579 S
atom 5.2566176208366988 7.4926917697965676 25.1679774024086456 S
atom 9.6798104709893238 7.4716013917092470 25.6758192550019402 S
atom 4.6190263404429004 2.4800907052512775 30.0818336209718673 S
atom 10.3985174300766392 2.4520697674073397 30.6969131453137791 S
atom 5.3651236750632982 7.4854635224129789 30.6969131453111430 S
atom 9.6040894474044016 7.4651538122248624 30.0818336209645594 S
atom 2.4743594981927264 5.2995441739436657 25.6758192550021533 S
atom 7.4866628751987800 4.6893432690844206 25.1679774024118501 S
atom 2.4532691200935584 9.7227370240924316 25.1679774024149516 S
atom 7.4594226052303130 10.2846072809027635 25.6758192550001176 S
atom 2.4808070777288536 5.3752651975179715 30.0818336209676929 S
atom 7.4938911224739417 4.5808372148546352 30.6969131453119530 S
atom 2.4604973675408806 9.6142309698569246 30.6969131453124895 S
atom 7.4658701846195807 10.3603283044849039 30.0818336209693769 S
atom 2.6782351275651766 2.2162386108956307 32.8911219274972524 Ba
atom 7.7780529270589005 2.2826626553773273 32.8911219274950284 Ba
atom 2.7446591720451043 7.3160564103933794 32.8911219274959734 Ba
atom 7.6632982345402132 7.2013017178717611 32.8911219274941971 Ba
atom 2.3107441800238466 2.7449349846475788 37.8595928389502916 Ba
atom 7.2493565532974547 2.6501536029341652 37.8595928389542706 Ba
atom 2.2159627983108581 7.6835473579436844 37.8595928389511585 Ba
atom 7.2958072869699748 7.7299980916209901 37.8595928389558054 Ba
atom 4.9854036153083197 4.9860388000908857 35.4005244453996966 Zr
atom 9.9933158448221757 4.9605572746121860 35.4005244453560408 Zr
atom 4.9599220898171223 9.9939510296321732 35.4005244453900616 Zr
atom 9.9704667222649608 9.9711019070765143 35.4005244453428460 Zr
atom 4.9964643630904249 4.9856586353731878 40.4569412585617911 Zr
atom 9.9936960095316643 4.9494965268458531 40.4569412585636741 Zr
atom 4.9603022545629871 9.9828902818478635 40.4569412585117192 Zr
atom 9.9815274700293308 9.9707217423453312 40.4569412585612582 Zr
atom 4.6614097245460480 4.7188122917703712 32.8911219273666333 S
atom 10.2605423531591242 5.2845511653741903 32.8911219274517990 S
atom 5.2271485981504986 10.3179449203801781 32.8911219273444715 S
atom 9.6464728315133552 9.7038753987336381 32.8911219274178279 S
atom 5.2859991143447251 5.2336816927099052 37.8986049106804614 S
atom 9.7456729522194188 4.6599617755755940 37.8986049106798149 S
atom 4.7122791972048406 9.6933555305763743 37.8986049107379941 S
atom 10.2710622213131497 10.2187447996785039 37.8986049107320326 S
atom 4.6190263404326268 2.4800907052971546 35.7004102339836464 S
atom 10.3985174300769465 2.4520697674300287 35.0853307096254525 S
atom 5.3651236750770854 7.4854635223765378 35.0853307096186597 S
atom 9.6040894474093133 7.4651538121991585 35.7004102339805058 S
atom 4.6947473640118762 2.4865382847028386 40.1064245999716960 S
atom 10.2900113758461593 2.4592980147268313 40.6142664525554409 S
atom 5.2566176208349642 7.4926917697907305 40.6142664525593133 S
atom 9.6798104709924981 7.4716013917262316 40.1064245999710565 S
atom 2.4808070776726803 5.3752651975209611 35.7004102339822182 S
atom 7.4938911225239702 4.5808372148507983 35.0853307096247278 S
atom 2.4604973674657336 9.6142309698484532 35.0853307096193419 S
atom 7.4658701847003082 10.3603283044887480 35.7004102339827369 S
atom 2.4743594982039339 5.2995441739424889 40.1064245999693867 S
atom 7.4866628751761697 4.6893432690801164 40.6142664525599670 S
atom 2.4532691200888701 9.7227370240923499 40.6142664525541193 S
atom 7.4594226052358916 10.2846072809039697 40.1064245999731028 S
atom 2.6725583743236281 2.4110271557476244 42.6330238207806431 Ba
atom 7.5832643822147636 2.2883394086343429 42.6330238207746532 Ba
atom 2.5498706272113481 7.3217331636273517 42.6330238207825403 Ba
atom 7.6576214812880234 7.3960902627041181 42.6330238207775665 Ba
atom 4.7735312678756499 4.8563873392721302 42.9629258868759294 S
atom 10.1229673056545586 5.1724296220402683 42.9629258868813650 S
atom 5.0895735506472324 10.2058233770474036 42.9629258869044079 S
atom 9.7585943748526613 9.8414504462422130 42.9629258868521049 S
