#=======================================================
# FHI-aims file: full_relax/full_relax_RP_8_Rx0Mz_0RyMz.in
# Created using the Atomic Simulation Environment (ASE)
# Mon Mar 24 15:58:33 2025
#=======================================================
lattice_vector 10.0075861561526338 -0.0742233500344373 0.0000000000000001 
lattice_vector -0.0742233500344476 10.0075861561524508 -0.0000000000000008 
lattice_vector 0.0000000000000007 -0.0000000000000070 86.0016722376640246 
atom 0.1016203684478563 -0.1835927847653825 0.2157180149984550 Ba
atom 5.1871112356352471 -0.1389200439193622 0.2157199228541418 Ba
atom 0.1462064825419875 4.9019847091743394 0.2157199228552973 Ba
atom 5.0683017715066532 4.7830886182939256 0.2157180149974649 Ba
atom -0.2682185140174972 0.1864556135898142 5.0090970475659820 Ba
atom 4.8167309639723888 0.2305010582377256 5.0090488600790168 Ba
atom -0.2241737891215441 5.2714058113319773 5.0090488600784253 Ba
atom 4.6984628890417763 5.1531370166496826 5.0090970475659793 Ba
atom 2.4851869497779773 2.4715255089775625 2.4037268174850830 Zr
atom 7.4985964343110973 2.4440027012076371 2.4037209418256693 Zr
atom 2.4576916812146123 7.4849074542970992 2.4037209418258483 Zr
atom 7.4518683528400587 7.4382069120331629 2.4037268174871982 Zr
atom 2.4746445523388689 2.4871008358377420 7.4612526968743866 Zr
atom 7.4826103866841178 2.4541690148279702 7.4612536924251929 Zr
atom 2.4417056335898151 7.4950737679197843 7.4612536924252790 Zr
atom 7.4413259553985602 7.4537822388949886 7.4612526968728332 Zr
atom 2.6082393081742632 2.6914858898644960 -0.1037415675881411 S
atom 7.2787472005984402 2.3210588434884150 -0.1037411506714090 S
atom 2.2378424475050660 7.3619635965821386 -0.1037411506729800 S
atom 7.5749207112331165 7.6581672929242037 -0.1037415675900432 S
atom 2.2356147426123654 2.1872630626406195 4.9669745294658716 S
atom 7.7826288313976741 2.6933625191361021 4.9669990719490800 S
atom 2.7417240783044594 7.7342672722302410 4.9669990719516068 S
atom 7.2022961456711529 7.1539444656999835 4.9669745294661505 S
atom 2.8060849453801655 -0.0151771874920718 2.2496846691381611 S
atom 7.1789036613116082 -0.0495867823405125 2.7581417482454689 S
atom 2.1379989082188282 4.9913179707492237 2.7581417482452628 S
atom 7.7727663484386671 4.9515042155620970 2.2496846691382220 S
atom 2.8981831337633976 -0.0188157735745670 7.7904422595396525 S
atom 7.1161502396470286 -0.0529917546172464 7.1736344173328463 S
atom 2.0752454865540892 4.9879129984747177 7.1736344173331830 S
atom 7.8648645368224548 4.9478656294830383 7.7904422595398026 S
atom -0.0223227997110749 2.1973346860305512 2.2497032390204539 S
atom 4.9787534226315140 2.7911253398736284 2.7580722659138597 S
atom -0.0621513304631297 7.8320300929679547 2.7580722659135128 S
atom 4.9443586033492091 7.1640160890898610 2.2497032390203251 S
atom -0.0190418758639692 2.1048468127811075 7.7904634442229632 S
atom 4.9818216265693795 2.8535955258570120 7.1736149212510103 S
atom -0.0590831265220939 7.8945002789508685 7.1736149212510361 S
atom 4.9476395271931537 7.0715282158401997 7.7904634442230947 S
atom 0.2849313772234969 -0.1844841551544842 9.9889067569551653 Ba
atom 5.1874191659173556 -0.3229099785665525 9.9889287991166071 Ba
atom 0.1465144128239068 4.7179947745274644 9.9889287991162572 Ba
atom 5.2516127802825130 4.7821972479051729 9.9889067569551049 Ba
atom -0.2847432093637647 0.1806956764443594 14.9933283302412281 Ba
atom 4.8221939956141737 0.2467491838136359 14.9933274162940773 Ba
atom -0.2187107574794995 5.2876539369078710 14.9933274162940524 Ba
atom 4.6819381936953963 5.1473770795043174 14.9933283302412654 Ba
atom 2.4881658824131230 2.4801610613006497 12.4789147439523465 Zr
atom 7.4894017731789591 2.4404970822110803 12.4789224280742364 Zr
atom 2.4484970200859348 7.4814018353040401 12.4789224280744655 Zr
atom 7.4548472854716188 7.4468424643591460 12.4789147439534744 Zr
atom 2.4828414884932375 2.4822760865157361 17.4936044199364140 Zr
atom 7.4873225569476967 2.4458338889570705 17.4936040224321019 Zr
atom 2.4464178038555620 7.4867386420498478 17.4936040224309295 Zr
atom 7.4495228915510321 7.4489574895738961 17.4936044199360055 Zr
atom 2.7466285808435096 2.8090824573262165 9.9806588899183986 S
atom 7.1605484868732612 2.1821044235537421 9.9806531227554753 S
atom 2.1196437337795855 7.2230091766472091 9.9806531227513311 S
atom 7.7133099839025769 7.7757638603856947 9.9806588899196900 S
atom 2.2177735695204612 2.1508975281574716 14.9907253185258664 S
atom 7.8187009307692863 2.7109067159970612 14.9907282600460903 S
atom 2.7777961776757154 7.7518114690907804 14.9907282600506910 S
atom 7.1844549725797480 7.1175789312163120 14.9907253185232161 S
atom 2.8895817403818174 -0.0224955584346154 12.1721888521632717 S
atom 7.1200205248191057 -0.0569933573485160 12.8100548161097141 S
atom 2.0791157717253363 4.9839113957409120 12.8100548161098526 S
atom 7.8562631434408114 4.9441858446204217 12.1721888521636465 S
atom 2.8880281179143106 -0.0210280576002930 17.8178550422904962 S
atom 7.1205715851654681 -0.0555231088405866 17.1758019669547082 S
atom 2.0796668320721006 4.9853816442508103 17.1758019669547259 S
atom 7.8547095209739295 4.9456533454566038 17.8178550422908053 S
atom -0.0155015055259852 2.1133235270583217 12.1721848660603378 S
atom 4.9856744018645509 2.8495716623054959 12.8100602011616544 S
atom -0.0552303512322199 7.8904764153996192 12.8100602011618925 S
atom 4.9511798975364618 7.0800049301169734 12.1721848660600376 S
atom -0.0169784557215898 2.1148732681338038 17.8178543569468708 S
atom 4.9842052160261368 2.8489874485112141 17.1757884440944366 S
atom -0.0566995370640023 7.8898922016051287 17.1757884440942910 S
atom 4.9497029473341128 7.0815546711929853 17.8178543569468673 S
atom 0.2863354766390511 -0.1832762054473193 20.0003888924770088 Ba
atom 5.1862002330174422 -0.3242845574609012 20.0003888924771722 Ba
atom 0.1452954799237030 4.7166201956331042 20.0003888924769981 Ba
atom 5.2530168796982943 4.7834051976122689 20.0003888924770088 Ba
atom -0.2847432093643172 0.1806956764448503 25.0074494547146386 Ba
atom 4.8221939956146329 0.2467491838137137 25.0074503686617184 Ba
atom -0.2187107574794024 5.2876539369076472 25.0074503686618073 Ba
atom 4.6819381936952240 5.1473770795044711 25.0074494547146067 Ba
atom 2.4828414884940875 2.4822760865162641 22.5071733650201509 Zr
atom 7.4873225569471096 2.4458338889566917 22.5071737625277812 Zr
atom 2.4464178038554132 7.4867386420495006 22.5071737625277493 Zr
atom 7.4495228915512817 7.4489574895746200 22.5071733650210248 Zr
atom 2.4881658824140347 2.4801610613017409 27.5218630410008629 Zr
atom 7.4894017731780584 2.4404970822112229 27.5218553568770865 Zr
atom 2.4484970200861320 7.4814018353033509 27.5218553568760491 Zr
atom 7.4548472854716392 7.4468424643593734 27.5218630410002767 Zr
atom 2.7507329041326218 2.8137980740695023 20.0003888924765754 S
atom 7.1557979728943311 2.1779539596603317 20.0003888924779503 S
atom 2.1148932198004640 7.2188587127537680 20.0003888924756765 S
atom 7.7174143071922847 7.7804794771289849 20.0003888924783375 S
atom 2.2177735695204532 2.1508975281576759 25.0100524664253498 S
atom 7.8187009307695936 2.7109067159969529 25.0100495248973118 S
atom 2.7777961776756421 7.7518114690905939 25.0100495249005590 S
atom 7.1844549725796689 7.1175789312164373 25.0100524664225254 S
atom 2.8880281179143625 -0.0210280575991578 22.1829227426633047 S
atom 7.1205715851658526 -0.0555231088413464 22.8249758179988333 S
atom 2.0796668320719878 4.9853816442495020 22.8249758179988333 S
atom 7.8547095209738469 4.9456533454572442 22.1829227426635462 S
atom 2.8895817403818294 -0.0224955584333732 27.8285889327914226 S
atom 7.1200205248183819 -0.0569933573516427 27.1907229688433958 S
atom 2.0791157717252329 4.9839113957396188 27.1907229688438044 S
atom 7.8562631434416295 4.9441858446234175 27.8285889327915896 S
atom -0.0169784557227562 2.1148732681339113 22.1829234280071965 S
atom 4.9842052160271324 2.8489874485109836 22.8249893408589308 S
atom -0.0566995370669567 7.8898922016049946 22.8249893408590800 S
atom 4.9497029473370260 7.0815546711929525 22.1829234280072001 S
atom -0.0155015055195671 2.1133235270575010 27.8285929188947101 S
atom 4.9856744018581196 2.8495716623059759 27.1907175837919439 S
atom -0.0552303512302005 7.8904764153998856 27.1907175837916277 S
atom 4.9511798975343222 7.0800049301168393 27.8285929188947705 S
atom 0.2849313772231767 -0.1844841551543700 30.0118710279961647 Ba
atom 5.1874191659178663 -0.3229099785665364 30.0118489858346678 Ba
atom 0.1465144128234735 4.7179947745272859 30.0118489858351190 Ba
atom 5.2516127802829500 4.7821972479048220 30.0118710279961114 Ba
atom -0.2682185140171442 0.1864556135894710 34.9916807373890180 Ba
atom 4.8167309639726019 0.2305010582380143 34.9917289248762629 Ba
atom -0.2241737891216195 5.2714058113316531 34.9917289248766608 Ba
atom 4.6984628890423821 5.1531370166488317 34.9916807373891245 Ba
atom 2.4746445523386007 2.4871008358372597 32.5395250880721321 Zr
atom 7.4826103866838007 2.4541690148290742 32.5395240925178015 Zr
atom 2.4417056335909875 7.4950737679199051 32.5395240925181284 Zr
atom 7.4413259553970947 7.4537822388937274 32.5395250880724589 Zr
atom 2.4851869497778143 2.4715255089779693 37.5970509674792623 Zr
atom 7.4985964343101843 2.4440027012092429 37.5970568431423402 Zr
atom 2.4576916812171672 7.4849074542970930 37.5970568431416083 Zr
atom 7.4518683528376286 7.4382069120319638 37.5970509674792979 Zr
atom 2.7466285808430584 2.8090824573259936 30.0201188950426001 S
atom 7.1605484868734157 2.1821044235537590 30.0201246622163893 S
atom 2.1196437337797711 7.2230091766475200 30.0201246622139521 S
atom 7.7133099839026835 7.7757638603857231 30.0201188950467142 S
atom 2.2356147426117339 2.1872630626401954 35.0338032554888201 S
atom 7.7826288313977603 2.6933625191363992 35.0337787130004727 S
atom 2.7417240783041179 7.7342672722305901 35.0337787130022704 S
atom 7.2022961456710179 7.1539444656997864 35.0338032554853243 S
atom 2.8981831337629789 -0.0188157735779616 32.2103355254162906 S
atom 7.1161502396474097 -0.0529917546146475 32.8271433676218507 S
atom 2.0752454865540830 4.9879129984782500 32.8271433676218578 S
atom 7.8648645368219885 4.9478656294803054 32.2103355254164256 S
atom 2.8060849453801655 -0.0151771874960716 37.7510931158147116 S
atom 7.1789036613115096 -0.0495867823395261 37.2426360367068128 S
atom 2.1379989082188544 4.9913179707522310 37.2426360367072107 S
atom 7.7727663484393092 4.9515042155603588 37.7510931158149745 S
atom -0.0190418758680738 2.1048468127814268 32.2103143407330634 S
atom 4.9818216265739741 2.8535955258564849 32.8271628637039754 S
atom -0.0590831265204403 7.8945002789507006 32.8271628637039470 S
atom 4.9476395271917637 7.0715282158409520 32.2103143407329995 S
atom -0.0223227997097065 2.1973346860303407 37.7510745459323047 S
atom 4.9787534226312395 2.7911253398736515 37.2427055190385516 S
atom -0.0621513304572623 7.8320300929681661 37.2427055190382958 S
atom 4.9443586033425238 7.1640160890904498 37.7510745459322408 S
atom 0.1016203684473334 -0.1835927847656342 39.7850597699576838 Ba
atom 5.1871112356359674 -0.1389200439197747 39.7850578620984194 Ba
atom 0.1462064825415664 4.9019847091740489 39.7850578620971476 Ba
atom 5.0683017715072038 4.7830886182937062 39.7850597699572930 Ba
atom 2.6082393081735793 2.6914858898638894 40.1045193525349362 S
atom 7.2787472005990335 2.3210588434891175 40.1045189356180742 S
atom 2.2378424475059115 7.3619635965830490 40.1045189356178753 S
atom 7.5749207112328287 7.6581672929236699 40.1045193525361512 S
atom 2.6669334862911800 2.3817203330788792 43.2165541338321972 Ba
atom 7.5889421485052040 2.2629108689504598 43.2165560416910850 Ba
atom 2.5480373954117423 7.3038156220437864 43.2165560416904952 Ba
atom 7.6336148893501825 7.3484017361376770 43.2165541338331778 Ba
atom 2.2968850879364431 2.7515592155434763 48.0099331663945605 Ba
atom 7.2195210463471327 2.6332911406131680 48.0098849789070741 Ba
atom 2.1786162932541884 7.6741958937070578 48.0098849789069320 Ba
atom 7.2635664909944229 7.7182406186029411 48.0099331663939637 Ba
atom 4.9784965956113956 4.9648351548083376 45.4045629363144769 Zr
atom 9.9727008064362863 4.9181070733349763 45.4045570606538860 Zr
atom 4.9317960533474068 9.9590118264249856 45.4045570606569413 Zr
atom 9.9451779986662405 9.9315165578634819 45.4045629363138161 Zr
atom 4.9629212687490654 4.9753775522465133 50.4620888156951182 Zr
atom 9.9625344928173298 4.9340931209622898 50.4620898112492213 Zr
atom 4.9216297397259954 9.9749978740537539 50.4620898112485179 Zr
atom 9.9296026718057142 9.9420589553033967 50.4620888156970082 Zr
atom 4.7585362147204657 4.8417827964108398 42.8970945512392134 S
atom 10.0956446641555004 5.1379563070451129 42.8970949681624489 S
atom 5.0547399110617102 10.1788610601393223 42.8970949681582780 S
atom 9.7252176177801211 9.8084641994702828 42.8970945512392206 S
atom 5.2627590419439221 5.2144073619725395 47.9678106483158686 S
atom 9.7233409885089532 4.6340746762467759 47.9678351907917744 S
atom 4.6824362354144480 9.6749794293403113 47.9678351907922789 S
atom 10.2294404450034904 10.1810887650321948 47.9678106483190305 S
atom 4.6588967647104012 2.4712686819499448 45.7589083847464977 S
atom 10.2935921716487719 2.4314401512117252 45.2505393578510109 S
atom 5.2526874185546131 7.4723449043012664 45.2505393578509398 S
atom 9.6255781677707670 7.4379500850059523 45.7589083847459790 S
atom 4.5964265787282841 2.4682004780192917 50.1744510400846337 S
atom 10.3860800448977049 2.4281592273533921 50.7912995630554107 S
atom 5.3451752918040167 7.4690639804463563 50.7912995630553326 S
atom 9.5631079817885514 7.4348818810778656 50.1744510400851595 S
atom 2.4587041338278057 5.3120231963666988 45.7589778670777392 S
atom 7.4651992920882346 4.6439371592045768 45.2505207879690019 S
atom 2.4242945389922306 9.6848419122982516 45.2505207879686537 S
atom 7.4253855368885970 10.2787045994263746 45.7589778670773697 S
atom 2.4621091061109386 5.3747766180308600 50.1744705361669077 S
atom 7.4688378781597633 4.5518389708224047 50.7912783783718425 S
atom 2.4279331250604774 9.5927437239159765 50.7912783783719775 S
atom 7.4287905091758111 10.3414580210898883 50.1744705361670995 S
atom 2.6678248566808342 2.1984093243025509 52.9897428757890410 Ba
atom 7.7729320831512787 2.2626029386676083 52.9897649179506303 Ba
atom 2.7320273300583975 7.3035076917623378 52.9897649179505947 Ba
atom 7.6345062597393225 7.1650907273625588 52.9897428757891547 Ba
atom 2.3026450250810493 2.7680839108891919 57.9941644490736934 Ba
atom 7.2032729207713482 2.6278281089713409 57.9941635351264111 Ba
atom 2.1623681676773838 7.6687328620663999 57.9941635351261908 Ba
atom 7.2693264281401850 7.7347653139498247 57.9941644490734305 Ba
atom 4.9698610432855581 4.9618562221727185 55.4797508627982410 Zr
atom 9.9762064254335279 4.9273017344673331 55.4797585469182977 Zr
atom 4.9353016723425434 9.9682064875584313 55.4797585469184611 Zr
atom 9.9365424463426066 9.9285376252294899 55.4797508628002305 Zr
atom 4.9677460180725310 4.9671806160936214 60.4944405387593633 Zr
atom 9.9708696186866455 4.9293809506971087 60.4944401412635600 Zr
atom 4.9299648655953741 9.9702857037887131 60.4944401412592256 Zr
atom 9.9344274211291630 9.9338620191512774 60.4944405387592212 Zr
atom 4.6409396472585689 4.7033935237411635 52.9814950087426411 S
atom 10.2345990840913093 5.2561550207711072 52.9814892415818619 S
atom 5.1936943309975430 10.2970597738654650 52.9814892415818122 S
atom 9.6076210503180857 9.6700749268004120 52.9814950087345338 S
atom 5.2991245764271682 5.2322485350637775 57.9915614373562036 S
atom 9.7057967916482895 4.5980025768757677 57.9915643788722122 S
atom 4.6648920385543997 9.6389073299690669 57.9915643788755375 S
atom 10.2658059794871228 10.1989299381234968 57.9915614373595076 S
atom 4.6004504422795813 2.4643477027218452 55.8108963199919117 S
atom 10.3776033306213158 2.4246188570248206 55.1730209848899236 S
atom 5.3366985775272093 7.4655236101103837 55.1730209848898809 S
atom 9.5671318453394516 7.4310291057730717 55.8108963199920538 S
atom 4.6010346560737476 2.4658168885608731 60.1766245629276426 S
atom 10.3760535895458617 2.4260958072131551 60.8186904757807483 S
atom 5.3351488364515545 7.4670005603052605 60.8186904757804001 S
atom 9.5677160591334172 7.4324982916183746 60.1766245629281400 S
atom 2.4661107088385927 5.3709063328592785 55.8108909349396001 S
atom 7.4725176630259131 4.5604403642032834 55.1730249709936018 S
atom 2.4316129099339734 9.6013451172962476 55.1730249709929410 S
atom 7.4327921118958367 10.3375877359194863 55.8108909349400051 S
atom 2.4646404603367666 5.3703552725131063 60.1766380857883547 S
atom 7.4710501621835244 4.5619939866707435 60.8186911611240149 S
atom 2.4301454090912387 9.6028987397640684 60.8186911611244270 S
atom 7.4313218633946017 10.3370366755723708 60.1766380857888379 S
atom 2.6666169069725987 2.1970052248866838 63.0012250113092591 Ba
atom 7.7743066620462633 2.2638218715686302 63.0012250113093444 Ba
atom 2.7334019089516630 7.3047266246624263 63.0012250113091667 Ba
atom 7.6332983100330996 7.1636866279458875 63.0012250113094652 Ba
atom 2.3026450250799377 2.7680839108899096 68.0082855735441427 Ba
atom 7.2032729207724184 2.6278281089710220 68.0082864874916737 Ba
atom 2.1623681676764459 7.6687328620655562 68.0082864874914605 Ba
atom 7.2693264281413956 7.7347653139496009 68.0082855735441711 Ba
atom 4.9677460180718853 4.9671806160937786 65.5080094838595812 Zr
atom 9.9708696186868018 4.9293809506977997 65.5080098813601239 Zr
atom 4.9299648655959629 9.9702857037887860 65.5080098813598966 Zr
atom 9.9344274211287562 9.9338620191502454 65.5080094838617271 Zr
atom 4.9698610432845545 4.9618562221725560 70.5226991598182309 Zr
atom 9.9762064254339311 4.9273017344671208 70.5226914756883048 Zr
atom 4.9353016723429803 9.9682064875578380 70.5226914756916017 Zr
atom 9.9365424463416225 9.9285376252286959 70.5226991598157724 Zr
atom 4.6362240305157698 4.6992892004520108 63.0012250113124210 S
atom 10.2387495479853232 5.2609055347510454 63.0012250113032266 S
atom 5.1978447948909139 10.3018102878447912 63.0012250113065875 S
atom 9.6029054335747546 9.6659706035110045 63.0012250113058059 S
atom 5.2991245764269310 5.2322485350640715 68.0108885852512941 S
atom 9.7057967916483623 4.5980025768753547 68.0108856437506120 S
atom 4.6648920385547985 9.6389073299693688 68.0108856437476987 S
atom 10.2658059794874514 10.1989299381240652 68.0108885852561968 S
atom 4.6010346560738773 2.4658168885669860 65.8258254596903640 S
atom 10.3760535895464123 2.4260958072104537 65.1837595468373507 S
atom 5.3351488364511841 7.4670005602996419 65.1837595468383455 S
atom 9.5677160591329713 7.4324982916215721 65.8258254596905203 S
atom 4.6004504422800956 2.4643477027132232 70.1915537026270329 S
atom 10.3776033306216142 2.4246188570285621 70.8294290377298239 S
atom 5.3366985775270042 7.4655236101194964 70.8294290377294686 S
atom 9.5671318453394623 7.4310291057698663 70.1915537026269902 S
atom 2.4646404603459322 5.3703552725127270 65.8258119368300640 S
atom 7.4710501621743148 4.5619939866711086 65.1837588614942547 S
atom 2.4301454090913244 9.6028987397639636 65.1837588614937005 S
atom 7.4313218633941389 10.3370366755727474 65.8258119368301209 S
atom 2.4661107088335434 5.3709063328598612 70.1915590876789111 S
atom 7.4725176630314509 4.5604403642025808 70.8294250516260604 S
atom 2.4316129099409847 9.6013451172961162 70.8294250516263446 S
atom 7.4327921118889364 10.3375877359196515 70.1915590876788116 S
atom 2.6678248566793883 2.1984093243032272 73.0127071468285180 Ba
atom 7.7729320831521642 2.2626029386677393 73.0126851046663887 Ba
atom 2.7320273300584716 7.3035076917627313 73.0126851046664456 Ba
atom 7.6345062597388011 7.1650907273632800 73.0127071468279638 Ba
atom 2.2968850879356704 2.7515592155431805 77.9925168562254640 Ba
atom 7.2195210463473849 2.6332911406130979 77.9925650437128439 Ba
atom 2.1786162932544020 7.6741958937082222 77.9925650437129718 Ba
atom 7.2635664909941031 7.7182406186035424 77.9925168562254498 Ba
atom 4.9629212687480013 4.9753775522462247 75.5403612069226824 Zr
atom 9.9625344928178503 4.9340931209612942 75.5403602113787969 Zr
atom 4.9216297397248443 9.9749978740529226 75.5403602113811417 Zr
atom 9.9296026718064141 9.9420589553035388 75.5403612069209913 Zr
atom 4.9784965956116629 4.9648351548071599 80.5978870863009149 Zr
atom 9.9727008064384943 4.9181070733359809 80.5978929619618896 Zr
atom 4.9317960533450966 9.9590118264278171 80.5978929619587063 Zr
atom 9.9451779986715998 9.9315165578648728 80.5978870862980017 Zr
atom 4.6409396472579569 4.7033935237404787 73.0209550138855548 S
atom 10.2345990840915881 5.2561550207712076 73.0209607810434704 S
atom 5.1936943309977037 10.2970597738654028 73.0209607810398325 S
atom 9.6076210503168920 9.6700749267995754 73.0209550138856827 S
atom 5.2627590419439381 5.2144073619724374 78.0346393743054279 S
atom 9.7233409885087525 4.6340746762472369 78.0346148318095771 S
atom 4.6824362354152136 9.6749794293403593 78.0346148318098471 S
atom 10.2294404450032008 10.1810887650318449 78.0346393743107285 S
atom 4.5964265787292664 2.4682004780158926 75.8279989825312555 S
atom 10.3860800448974064 2.4281592273626105 75.2111504595613525 S
atom 5.3451752918036632 7.4690639804497101 75.2111504595617220 S
atom 9.5631079817886668 7.4348818810684083 75.8279989825312555 S
atom 4.6588967647106028 2.4712686819649643 80.2435416378716866 S
atom 10.2935921716491627 2.4314401511910972 80.7519106647672942 S
atom 5.2526874185559125 7.4723449042834558 80.7519106647674931 S
atom 9.6255781677703443 7.4379500850230071 80.2435416378718713 S
atom 2.4621091061077012 5.3747766180301078 75.8279794864489105 S
atom 7.4688378781631775 4.5518389708226659 75.2111716442452263 S
atom 2.4279331250699174 9.5927437239155413 75.2111716442443736 S
atom 7.4287905091665722 10.3414580210901228 75.8279794864487684 S
atom 2.4587041338419628 5.3120231963671944 80.2434721555399335 S
atom 7.4651992920704719 4.6439371592051861 80.7519292346493245 S
atom 2.4242945389712300 9.6848419122988734 80.7519292346493103 S
atom 7.4253855369055630 10.2787045994264599 80.2434721555402604 S
atom 2.6669334862917555 2.3817203330785865 82.7858958887846796 Ba
atom 7.5889421485047315 2.2629108689507698 82.7858939809255645 Ba
atom 2.5480373954116300 7.3038156220439268 82.7858939809258771 Ba
atom 7.6336148893502065 7.3484017361370793 82.7858958887844665 Ba
atom 4.7585362147207588 4.8417827964112927 83.1053554713786014 S
atom 10.0956446641565112 5.1379563070465615 83.1053550544688164 S
atom 5.0547399110633293 10.1788610601402176 83.1053550544718860 S
atom 9.7252176177802205 9.8084641994704658 83.1053554713771661 S
