#=======================================================
# FHI-aims file: full_relax/full_relax_RP_2_RxRyMz_RxRyMz.in
# Created using the Atomic Simulation Environment (ASE)
# Fri Mar 14 11:18:11 2025
#=======================================================
lattice_vector 10.0884013465382694 0.1462617483320305 0.0000000000000456 
lattice_vector 0.1462617483320285 10.0884013465383191 0.0000000000001856 
lattice_vector 0.0000000000001264 0.0000000000004978 25.4318247551182139 
atom -0.0908883502211748 -0.0908948530917990 0.2763175430031369 Ba
atom 5.1350955263458866 0.1640192243845927 0.2763175430199404 Ba
atom 0.1640257272587242 5.1350890235098161 0.2763175429975046 Ba
atom 5.0264431971945100 5.0264366943566454 0.2763175430033625 Ba
atom 0.0275088852828527 0.0273925969294770 4.8907355298380137 Ba
atom 5.0168080763412872 0.0456219888814344 4.8907355298362303 Ba
atom 0.0457382772345976 5.0166917879830342 4.8907355298363120 Ba
atom 5.1448404327192856 5.1447241443685297 4.8907355298345818 Ba
atom 2.5545326016339627 2.5545360173514813 2.3530488629246697 Zr
atom 7.6069962033741376 2.6359298199738257 2.3530488629475639 Zr
atom 2.6359264042437052 7.6069996190982874 2.3530488628757444 Zr
atom 7.6718641490283463 7.6718675647646997 2.3530488629096289 Zr
atom 2.5545326016238965 2.5545360173684042 7.4284221969388264 Zr
atom 7.6069962033644876 2.6359298199434700 7.4284221970081932 Zr
atom 2.6359264042351280 7.6069996191053519 7.4284221969574720 Zr
atom 7.6718641490403616 7.6718675648116577 7.4284221969558759 Zr
atom 2.7924035590135237 2.7924405974372339 -0.1389164192414491 S
atom 7.3690916232778356 2.3980588626010242 -0.1389164192777525 S
atom 2.3980218241728659 7.3691286616981424 -0.1389164192052164 S
atom 7.9097351064264947 7.9097721448514129 -0.1389164192278833 S
atom 2.2827670008328571 2.2828313981143897 4.8907355297318320 S
atom 7.8787008226118029 2.9076954207756143 4.8907355296740684 S
atom 2.9076310234884395 7.8787652198882361 4.8907355297299757 S
atom 7.4000985482474979 7.4001629455249809 4.8907355296842931 S
atom 2.5220999865948674 0.0365706058980339 2.1965471266032215 S
atom 7.5663185546138809 0.1097003313642643 2.7014829755448972 S
atom 2.5952487555178503 5.0807701303993618 2.7014829755338434 S
atom 7.6394315340330454 5.1539021533835658 2.1965471266103251 S
atom 2.5220999866014968 0.0365706058528643 7.5849239331063405 S
atom 7.5663185546075589 0.1097003313484615 7.0799880841678107 S
atom 2.5952487555074923 5.0807701303865613 7.0799880841512124 S
atom 7.6394315340308827 5.1539021533293230 7.5849239331182154 S
atom 0.0365602682280159 2.5221006866711604 2.1965471266096031 S
atom 5.0807620902233088 2.5952136660891485 2.7014829755395935 S
atom 0.1096922912134535 7.5662834651893522 2.7014829755393284 S
atom 5.1538918157031315 7.6394322341021255 2.1965471266037917 S
atom 0.0365602682415305 2.5221006866819442 7.5849239331124636 S
atom 5.0807620902466830 2.5952136660916652 7.0799880841611067 S
atom 0.1096922911809381 7.5662834651947986 7.0799880841590985 S
atom 5.1538918157572109 7.6394322341110952 7.5849239331106544 S
atom -0.0908883502587133 -0.0908948530966269 9.5051535166754206 Ba
atom 5.1350955263729077 0.1640192244178937 9.5051535166631957 Ba
atom 0.1640257272653259 5.1350890235163744 9.5051535166911219 Ba
atom 5.0264431971882466 5.0264366943352101 9.5051535166713368 Ba
atom 2.7924035589831395 2.7924405974145881 9.9203874786935486 S
atom 7.3690916232958914 2.3980588626181594 9.9203874786304045 S
atom 2.3980218241765532 7.3691286617265916 9.9203874786914490 S
atom 7.9097351064175259 7.9097721448497946 9.9203874786875250 S
atom 2.4677774234894634 2.4677709206553864 12.9922299207211687 Ba
atom 7.6937613000608636 2.7226849981190671 12.9922299207123864 Ba
atom 2.7226915009626240 7.6937547971945168 12.9922299207157579 Ba
atom 7.5851089709079140 7.5851024680495147 12.9922299207099083 Ba
atom 2.5861746589844534 2.5860583706274216 17.6066479073772761 Ba
atom 7.5754738500679561 2.6042877626100158 17.6066479073800579 Ba
atom 2.6044040509832254 7.5753575617235613 17.6066479073770061 Ba
atom 7.7035062064109630 7.7033899180736620 17.6066479073782212 Ba
atom 5.1131983753052248 5.1132017911088239 15.0689612402514754 Zr
atom 10.1656619770811485 5.1945955936261594 15.0689612403298376 Zr
atom 5.1945921780074809 10.1656653928064404 15.0689612403849580 Zr
atom 10.2305299228291986 10.2305333384738741 15.0689612403150619 Zr
atom 5.1131983752968555 5.1132017910734584 20.1443345746059315 Zr
atom 10.1656619770903927 5.1945955936527364 20.1443345746913707 Zr
atom 5.1945921779964319 10.1656653927905545 20.1443345746753657 Zr
atom 10.2305299227885413 10.2305333384797006 20.1443345747213733 Zr
atom 5.3510693326919947 5.3511063711307498 12.5769959582265241 S
atom 9.9277573970105735 4.9567246363303594 12.5769959580522794 S
atom 4.9566875979245619 9.9277944354550201 12.5769959580621880 S
atom 10.4684008801371977 10.4684379185410492 12.5769959580906185 S
atom 4.8414327745200589 4.8414971718085837 17.6066479072208466 S
atom 10.4373665963157354 5.4663611944904043 17.6066479074013387 S
atom 5.4662967972532197 10.4374309936292491 17.6066479073269448 S
atom 9.9587643219660436 9.9588287192084568 17.6066479073525244 S
atom 5.0807657603266945 2.5952363795644127 14.9124595041973045 S
atom 10.1249843283338627 2.6683661051799019 15.4173953531829202 S
atom 5.1539145292360855 7.6394359041307407 15.4173953531806056 S
atom 10.1980973077541552 7.7125679271435041 14.9124595041879058 S
atom 5.0807657603194736 2.5952363796548590 20.3008363106433940 S
atom 10.1249843283273435 2.6683661050869323 19.7959004616345347 S
atom 5.1539145292301898 7.6394359040945172 19.7959004616543766 S
atom 10.1980973077540469 7.7125679271536010 20.3008363106161660 S
atom 2.5952260419861313 5.0807664603745151 14.9124595042023547 S
atom 7.6394278640554036 5.1538794397930161 15.4173953531884163 S
atom 2.6683580647792011 10.1249492388991840 15.4173953531766497 S
atom 7.7125575893349732 10.1980980078258394 14.9124595041906449 S
atom 2.5952260420069990 5.0807664603663243 20.3008363106270266 S
atom 7.6394278640133884 5.1538794398041290 19.7959004616345453 S
atom 2.6683580649017054 10.1249492389033833 19.7959004616492216 S
atom 7.7125575893347458 10.1980980078226136 20.3008363106300251 S
atom 2.4677774234512113 2.4677709206170571 22.2210658940937407 Ba
atom 7.6937613001025396 2.7226849981193926 22.2210658941016064 Ba
atom 2.7226915009683776 7.6937547972489471 22.2210658941034218 Ba
atom 7.5851089709156749 7.5851024680702386 22.2210658941019901 Ba
atom 5.3510693326758929 5.3511063711080462 22.6362998564950111 S
atom 9.9277573970182384 4.9567246363473227 22.6362998563784465 S
atom 4.9566875979311966 9.9277944354635590 22.6362998563392850 S
atom 10.4684008801158601 10.4684379185384522 22.6362998563516769 S
