#=======================================================
# FHI-aims file: full_relax/full_relax_RP_9_Rx1Ry20_Rx2Ry10.in
# Created using the Atomic Simulation Environment (ASE)
# Mon Mar 24 16:25:33 2025
#=======================================================
lattice_vector 10.0745470280836038 0.0393273405095754 0.0000000000000108 
lattice_vector 0.0393273405095750 10.0745470280835541 0.0000000000000155 
lattice_vector 0.0000000000001065 0.0000000000001519 94.8909600560504742 
atom -0.0199352502552684 -0.1628214149588331 0.2843968429209199 Ba
atom 5.0572087642967078 0.1824850852168137 0.2843968428865783 Ba
atom 0.0395989205140664 5.2000949290000218 0.2843968429161416 Ba
atom 5.0370019340336043 4.8941157693286526 0.2843968428639487 Ba
atom -0.0312519710818984 0.0239184136138511 4.9546964108481486 Ba
atom 5.0685254851216701 -0.0042547433537668 4.9546964108475837 Ba
atom 0.0509156413352327 5.0133551004268826 4.9546964108479026 Ba
atom 5.0256852132126779 5.0808555979030983 4.9546964108474798 Ba
atom 2.5076670761682234 2.5227724515900500 2.3409257450156105 Zr
atom 7.5865436221658840 2.5538284029651757 2.3409257450151082 Zr
atom 2.5689337783988830 7.5714382467455863 2.3409257450120786 Zr
atom 7.5646042604470169 7.5797096358800422 2.3409257450162984 Zr
atom 2.5279624235302376 2.5331994069241088 7.3590140138327902 Zr
atom 7.5662482748056386 2.5434014476237015 7.3590140138485509 Zr
atom 2.5486384310183481 7.5610112914108143 7.3590140138426028 Zr
atom 7.5848996078329636 7.5901365912216905 7.3590140138589355 Zr
atom 2.8075191573455034 2.5795011101013507 -0.1396549549191445 S
atom 7.2866915409918054 2.4970997444551162 -0.1396549549272119 S
atom 2.2690816972184931 7.5147095882369204 -0.1396549549419668 S
atom 7.8644563416261963 7.6364382943912412 -0.1396549549516195 S
atom 2.0783425715575556 2.4211394365021977 4.8863603245363576 S
atom 8.0158681267788179 2.6554614180447240 4.8863603245654597 S
atom 2.9982582829890738 7.6730712618332637 4.8863603245380798 S
atom 7.1352797558580825 7.4780766208016933 4.8863603245905107 S
atom 2.5186367570198480 0.0098318351235492 2.3888045480319251 S
atom 7.5559102710606725 0.0294955053736459 2.5579648757680009 S
atom 2.5383004272762388 5.0471053491715416 2.5579648757717166 S
atom 7.5755739413150494 5.0667690194297963 2.3888045480229350 S
atom 2.5186367570225281 0.0098318351411269 7.5265262990566910 S
atom 7.5559102710606441 0.0294955053798293 7.2190753570397588 S
atom 2.5383004272746961 5.0471053491551121 7.2190753570475970 S
atom 7.5755739413183223 5.0667690194252231 7.5265262990496407 S
atom 0.0098318351209575 2.5186367570189785 2.0536265732426142 S
atom 5.0471053491783611 2.5383004272756997 2.7749577071662554 S
atom 0.0294955053739920 7.5559102710622650 2.7749577071809592 S
atom 5.0667690194304402 7.5755739413166614 2.0536265732459693 S
atom 0.0098318351236218 2.5186367570181103 7.8209790438673963 S
atom 5.0471053491666353 2.5383004272757916 6.9125770352196021 S
atom 0.0294955054000783 7.5559102710618227 6.9125770352162723 S
atom 5.0667690193991977 7.5755739413144401 7.8209790438643276 S
atom 0.0641806255840923 -0.0040389618023301 9.8560598282632892 Ba
atom 4.9730928884578196 0.0237026320519486 9.8560598282639340 Ba
atom -0.0445169553393240 5.0413124758402619 9.8560598282633620 Ba
atom 5.1211178098907197 5.0528982224959851 9.8560598282637866 Ba
atom -0.0718189957189513 0.0024662246429823 14.8057587276132505 Ba
atom 5.1090925097558699 0.0171974456055732 14.8057587276131173 Ba
atom 0.0914826659740824 5.0348072894004243 14.8057587276134743 Ba
atom 4.9851181885733853 5.0594034089462125 14.8057587276128686 Ba
atom 2.5298569938382438 2.5266031770986097 12.3213042320348443 Zr
atom 7.5643537045025910 2.5499976774497499 12.3213042320267441 Zr
atom 2.5467438607153134 7.5676075212378047 12.3213042320525261 Zr
atom 7.5867941781328572 7.5835403613963281 12.3213042320219230 Zr
atom 2.5281868334123074 2.5291456646709305 17.2811483237339374 Zr
atom 7.5660238649182050 2.5474551898789159 17.2811483237082157 Zr
atom 2.5484140211429409 7.5650650336661691 17.2811483237151968 Zr
atom 7.5851240177152510 7.5860828489662104 17.2811483237107488 Zr
atom 3.0122410381427445 2.6848730159866139 9.8463124234602546 S
atom 7.0819696601988023 2.3917278385638512 9.8463124234457773 S
atom 2.0643598164094406 7.4093376823492365 9.8463124234493655 S
atom 8.0691782224344859 7.7418102002810052 9.8463124234357426 S
atom 2.0514665372562848 2.3459682782134275 14.8031261297415622 S
atom 8.0427441610757562 2.7306325763349952 14.8031261297414272 S
atom 3.0251343172907599 7.7482424201213957 14.8031261297851433 S
atom 7.1084037215586626 7.4029054625101747 14.8031261297319592 S
atom 2.5186367570216515 0.0098318351150181 12.1275597387950373 S
atom 7.5559102710603172 0.0294955053760625 12.5244960977367530 S
atom 2.5383004272723557 5.0471053491796960 12.5244960977275372 S
atom 7.5755739413184928 5.0667690194275599 12.1275597388046652 S
atom 2.5186367570220169 0.0098318351452157 17.4989638472653510 S
atom 7.5559102710597061 0.0294955053654826 17.0645822238124900 S
atom 2.5383004272724285 5.0471053491478983 17.0645822238104721 S
atom 7.5755739413187344 5.0667690194390120 17.4989638472666513 S
atom 0.0098318351120609 2.5186367570189430 11.8665684395410373 S
atom 5.0471053491677127 2.5383004272766305 12.7903260406363799 S
atom 0.0294955053878921 7.5559102710618689 12.7903260406357511 S
atom 5.0667690194234583 7.5755739413136949 11.8665684395371098 S
atom 0.0098318351380755 2.5186367570162784 17.7415927868266330 S
atom 5.0471053491855917 2.5383004272757717 16.8251145965285716 S
atom 0.0294955053620692 7.5559102710642092 16.8251145965287492 S
atom 5.0667690194073449 7.5755739413143672 17.7415927868259367 S
atom 0.0736396467495632 -0.0009032978973701 19.7610704595092272 Ba
atom 4.9636338672929341 0.0205669681451423 19.7610704595080051 Ba
atom -0.0539759764825570 5.0381768119349832 19.7610704595092521 Ba
atom 5.1305768310352704 5.0560338864017362 19.7610704595086411 Ba
atom -0.0736396467539134 0.0009032978849810 24.7190670667999441 Ba
atom 5.1109131607923617 0.0187603723805149 24.7190670668005517 Ba
atom 0.0933033169963925 5.0363702161557695 24.7190670667998127 Ba
atom 4.9832975375502917 5.0578404821712493 24.7190670668000649 Ba
atom 2.5284685921536312 2.5284685921508934 22.2400687631081162 Zr
atom 7.5657421061890435 2.5481322623996947 22.2400687631310774 Zr
atom 2.5481322623938367 7.5657421061857306 22.2400687630915677 Zr
atom 7.5854057764438831 7.5854057764464091 22.2400687631145360 Zr
atom 2.5287503508769196 2.5277915196228751 27.1989892025752553 Zr
atom 7.5654603474583917 2.5488093349258198 27.1989892025943050 Zr
atom 2.5478505036685331 7.5664191787115991 27.1989892026064233 Zr
atom 7.5856875351768407 7.5847287039197626 27.1989892025881268 Zr
atom 3.0018444975655005 2.7211815168301157 19.7611051202131698 S
atom 7.0923662007652446 2.3554193377160120 19.7611051201707504 S
atom 2.0747563569832366 7.3730291815058298 19.7611051201483967 S
atom 8.0587816818666926 7.7781187011290802 19.7611051202169534 S
atom 2.0550926867117707 2.3357556674534625 24.7190324060270470 S
atom 8.0391180116280552 2.7408451870952950 24.7190324061192399 S
atom 3.0215081678430216 7.7584550308845239 24.7190324060535467 S
atom 7.1120298710036964 7.3926928517501223 24.7190324060560300 S
atom 2.5186367570229033 0.0098318351164729 22.0176986543532962 S
atom 7.5559102710577939 0.0294955054004679 22.4624388720042525 S
atom 2.5383004272728029 5.0471053491767517 22.4624388720198134 S
atom 7.5755739413180514 5.0667690194039379 22.0176986543379094 S
atom 2.5186367570237223 0.0098318351392901 27.4155553025084551 S
atom 7.5559102710612169 0.0294955053692676 26.9811736790478065 S
atom 2.5383004272747063 5.0471053491566149 26.9811736790533701 S
atom 7.5755739413200622 5.0667690194357746 27.4155553025027388 S
atom 0.0098318351089355 2.5186367570172266 21.7827410118217024 S
atom 5.0471053491770563 2.5383004272759062 22.6973965145371501 S
atom 0.0294955053890039 7.5559102710649926 22.6973965145438541 S
atom 5.0667690194326367 7.5755739413149401 21.7827410118300158 S
atom 0.0098318351347065 2.5186367570179580 27.6550229297941783 S
atom 5.0471053491560625 2.5383004272777154 26.7385447394869047 S
atom 0.0294955053837838 7.5559102710639134 26.7385447394855085 S
atom 5.0667690194136483 7.5755739413143282 27.6550229297944590 S
atom 0.0718189957183871 -0.0024662246301448 29.6743787987028647 Ba
atom 4.9654545183252399 0.0221298948838950 29.6743787987034793 Ba
atom -0.0521553254743171 5.0397397386659852 29.6743787987023424 Ba
atom 5.1287561800264490 5.0544709596630231 29.6743787987035432 Ba
atom -0.0641806255816605 0.0040389618015793 34.6240776980571709 Ba
atom 5.1014541396186495 0.0156247084349412 34.6240776980553662 Ba
atom 0.0838442958457598 5.0332345522397581 34.6240776980574410 Ba
atom 4.9927565587027560 5.0609761461153209 34.6240776980560980 Ba
atom 2.5270801904521241 2.5303340071899689 32.1588332943692876 Zr
atom 7.5671305078820907 2.5462668473583463 32.1588332943292627 Zr
atom 2.5495206640930306 7.5638766911454569 32.1588332943799884 Zr
atom 7.5840173747484103 7.5872711914877868 32.1588332943636956 Zr
atom 2.5289747607644593 2.5237377773718737 37.1211235124974976 Zr
atom 7.5652359375705664 2.5528630771784200 37.1211235125047594 Zr
atom 2.5476260937827973 7.5704729209660684 37.1211235124621908 Zr
atom 7.5859119450611745 7.5806749616680893 37.1211235124874648 Zr
atom 3.0054706470575714 2.7109689060930457 29.6770113966365869 S
atom 7.0887400512834411 2.3656319484594959 29.6770113965888491 S
atom 2.0711302074947415 7.3832417922444087 29.6770113966236622 S
atom 8.0624078313526777 7.7679060903876493 29.6770113966289237 S
atom 2.0446961461665190 2.3720641683129551 34.6338251029424029 S
atom 8.0495145521729317 2.7045366862381743 34.6338251028692525 S
atom 3.0319047083761443 7.7221465300224210 34.6338251029850994 S
atom 7.1016333304619588 7.4290013526095970 34.6338251029210937 S
atom 2.5186367570204697 0.0098318351138191 31.9556414285312869 S
atom 7.5559102710618502 0.0294955053648970 32.3525777874805769 S
atom 2.5383004272711491 5.0471053491820035 32.3525777874611151 S
atom 7.5755739413198038 5.0667690194381061 31.9556414285508410 S
atom 2.5186367570185695 0.0098318351558048 37.2610621692681434 S
atom 7.5559102710609789 0.0294955054105713 36.9536112272503345 S
atom 2.5383004272715182 5.0471053491379267 36.9536112272571629 S
atom 7.5755739413190541 5.0667690193919066 37.2610621692614430 S
atom 0.0098318351273612 2.5186367570197254 31.6898114856348663 S
atom 5.0471053491602502 2.5383004272782737 32.6135690867308199 S
atom 0.0294955054183462 7.5559102710615447 32.6135690867166943 S
atom 5.0667690194046662 7.5755739413142171 31.6898114856186766 S
atom 0.0098318350779491 2.5186367570205008 37.5675604910789360 S
atom 5.0471053492142959 2.5383004272757641 36.6591584824307759 S
atom 0.0294955053645649 7.5559102710637402 36.6591584824530017 S
atom 5.0667690194591524 7.5755739413149499 37.5675604910900987 S
atom 0.0312519710800356 -0.0239184136219973 39.5254411154576744 Ba
atom 5.0060215429609878 0.0435820838825030 39.5254411154543988 Ba
atom -0.0115883008241803 5.0611919276605262 39.5254411154579444 Ba
atom 5.0881891553745024 5.0330187706666862 39.5254411154546190 Ba
atom 0.0199352502523371 0.1628214149524984 44.1957406834138951 Ba
atom 5.0173382637883099 -0.1431577446964818 44.1957406834249653 Ba
atom -0.0002715800048878 4.8744520990868327 44.1957406834143853 Ba
atom 5.0768724345551135 5.2197585992475819 44.1957406834329376 Ba
atom 2.5492701081422382 2.5341647327084078 42.1392117812264928 Zr
atom 7.5449405901900839 2.5424361218399847 42.1392117812205242 Zr
atom 2.5273307464221606 7.5600459656287446 42.1392117812341951 Zr
atom 7.6062072924307742 7.5911019170037166 42.1392117812392186 Zr
atom 2.9785946127160714 2.6357977477809418 39.5937772017003056 S
atom 7.1156160856201929 2.4408031067645761 39.5937772018385417 S
atom 2.0980062418332128 7.4584129505550694 39.5937772016362572 S
atom 8.0355317970109894 7.6927349320796816 39.5937772016839347 S
atom 2.2494180269654143 2.4774360741984909 44.6197924811482451 S
atom 7.8447926713741767 2.5991647803510722 44.6197924811477904 S
atom 2.8271828275947803 7.6167746241372569 44.6197924811726310 S
atom 7.3063552112519350 7.5343732584945222 44.6197924811646160 S
atom 2.5186367570233665 0.0098318351164935 41.9221726505992862 S
atom 7.5559102710600490 0.0294955053508853 42.0913329783266974 S
atom 2.5383004272781529 5.0471053491784463 42.0913329783460810 S
atom 7.5755739413149179 5.0667690194540018 41.9221726505846419 S
atom 0.0098318351457212 2.5186367570184758 41.7051798191927290 S
atom 5.0471053491524813 2.5383004272733438 42.4265109531082558 S
atom 0.0294955053936095 7.5559102710619692 42.4265109531274121 S
atom 5.0667690193909536 7.5755739413161294 41.7051798192054051 S
atom 2.3656471771820051 2.5085333418904314 47.7298768708727579 Ba
atom 7.7285635211549675 2.5680675126617531 47.7298768708699157 Ba
atom 2.7109536773537326 7.5856773564446121 47.7298768708754722 Ba
atom 7.4225843614911735 7.5654705261845869 47.7298768708718200 Ba
atom 2.5523870057618363 2.4972166210667184 52.4001764388903979 Ba
atom 7.5418236925744333 2.5793842334772195 52.4001764388903268 Ba
atom 2.5242138487463781 7.5969940772687803 52.4001764388943059 Ba
atom 7.6093241900992723 7.5541538053709552 52.4001764388941780 Ba
atom 5.0512410437343904 5.0361356683060867 49.7864057731214942 Zr
atom 10.0999068388993720 5.0974023705434766 49.7864057731508112 Zr
atom 5.0822969951099690 10.1150122143174830 49.7864057731232990 Zr
atom 10.1081782280314076 10.0930728526055518 49.7864057731542289 Zr
atom 5.0616679990690230 5.0564310156784362 54.8044940418077005 Zr
atom 10.0894798835662147 5.0771070231733573 54.8044940417074713 Zr
atom 5.0718700397789842 10.0947168669533056 54.8044940417959339 Zr
atom 10.1186051833632416 10.1133681999621601 54.8044940417043023 Zr
atom 5.1079697022441062 5.3359877494864305 47.3058250732249093 S
atom 10.0431781803891553 4.7975502893686084 47.3058250733242929 S
atom 5.0255683366016246 9.8151601331474101 47.3058250732423105 S
atom 10.1649068865413827 10.3929249337750349 47.3058250733249963 S
atom 4.9496080286629924 4.6068111637389251 52.3318403525860987 S
atom 10.2015398539686135 5.5267268751022991 52.3318403525317777 S
atom 5.1839300101795960 10.5443367188903050 52.3318403527197944 S
atom 10.0065452129619761 9.6637483480408068 52.3318403525520282 S
atom 5.0471053491670999 2.5383004272579903 49.4991066012099878 S
atom 10.0843788632100502 2.5579640975086870 50.2204377351057332 S
atom 5.0667690194220913 7.5755739413526886 50.2204377351168603 S
atom 10.1040425334659805 7.5952376115727676 49.4991066012150895 S
atom 5.0471053491688656 2.5383004273472562 55.2664590719092530 S
atom 10.0843788632104339 2.5579640975139086 54.3580570633114490 S
atom 5.0667690194247195 7.5755739412454366 54.3580570632700457 S
atom 10.1040425334658472 7.5952376116006874 55.2664590719546638 S
atom 2.5383004272906393 5.0471053491680582 49.8342845759948787 S
atom 7.5755739413020455 5.0667690194222894 50.0034449037352147 S
atom 2.5579640975500690 10.0843788632070677 50.0034449037198812 S
atom 7.5952376115471685 10.1040425334622341 49.8342845759776125 S
atom 2.5383004272381471 5.0471053491611162 54.9720063271159205 S
atom 7.5755739413487122 5.0667690194161095 54.6645553851058992 S
atom 2.5579640975235129 10.0843788632140932 54.6645553851001367 S
atom 7.5952376115720934 10.1040425334671866 54.9720063271094048 S
atom 2.5244296303687248 2.5926492177316787 57.3015398562877323 Ba
atom 7.5697810679665469 2.4839516368064123 57.3015398562869933 Ba
atom 2.5521712242197858 7.5015614806046216 57.3015398562843075 Ba
atom 7.5813668146276720 7.6495864020359194 57.3015398562845633 Ba
atom 2.5309348167876786 2.4566495964298007 62.2512387556397400 Ba
atom 7.5632758815474244 2.6199512581353610 62.2512387556394486 Ba
atom 2.5456660378022185 7.6375611019085152 62.2512387556365425 Ba
atom 7.5878720010409761 7.5135867807080050 62.2512387556369973 Ba
atom 5.0550717692502625 5.0583255859810237 59.7667842600091035 Zr
atom 10.0960761133836066 5.0752124528591631 59.7667842599953758 Zr
atom 5.0784662695939975 10.0928222966330257 59.7667842599727024 Zr
atom 10.1120089535470026 10.1152627702856002 59.7667842599827068 Zr
atom 5.0576142568220126 5.0566554255576728 64.7266283517756307 Zr
atom 10.0935336258075541 5.0768826132834199 64.7266283519007004 Zr
atom 5.0759237820185064 10.0944924570684957 64.7266283518062977 Zr
atom 10.1145514411231243 10.1135926098802411 64.7266283519190750 Zr
atom 5.2133416081380393 5.5407096302851917 57.2917924514162067 S
atom 9.9378062744929103 4.5928284085440572 57.2917924513261028 S
atom 4.9201964307074206 9.6104382523392040 57.2917924513212213 S
atom 10.2702787924393171 10.5976468145968319 57.2917924513382815 S
atom 4.8744368703496912 4.5799351293786161 62.2486061578154946 S
atom 10.2767110122898426 5.5536029094835628 62.2486061578493306 S
atom 5.2591011685012701 10.5712127532529294 62.2486061578034153 S
atom 9.9313740546372902 9.6368723136670109 62.2486061577848844 S
atom 5.0471053491698532 2.5383004272859293 59.3120484675925965 S
atom 10.0843788632089133 2.5579640975437874 60.2358060687108861 S
atom 5.0667690194238295 7.5755739413423431 60.2358060687066157 S
atom 10.1040425334649786 7.5952376115522400 59.3120484675981743 S
atom 5.0471053491677571 2.5383004272808232 65.1870728148173697 S
atom 10.0843788632097802 2.5579640974890649 64.2705946244679893 S
atom 5.0667690194223471 7.5755739413102150 64.2705946245186794 S
atom 10.1040425334639856 7.5952376115606093 65.1870728147789578 S
atom 2.5383004272918561 5.0471053491654763 59.5730397668455680 S
atom 7.5755739412942686 5.0667690194215851 59.9699761257803061 S
atom 2.5579640975623974 10.0843788632064673 59.9699761257998603 S
atom 7.5952376115406857 10.1040425334625592 59.5730397668667493 S
atom 2.5383004272519543 5.0471053491776532 64.9444438752445450 S
atom 7.5755739413389209 5.0667690194323169 64.5100622517887103 S
atom 2.5579640974984188 10.0843788632096203 64.5100622517880140 S
atom 7.5952376116082236 10.1040425334622217 64.9444438752433655 S
atom 2.5275652942228879 2.6021082388879671 67.2065504875352957 Ba
atom 7.5666454041129416 2.4744926156630274 67.2065504875345567 Ba
atom 2.5490355602784058 7.4921024594430197 67.2065504875405679 Ba
atom 7.5845024785689343 7.6590454231838363 67.2065504875411506 Ba
atom 2.5293718900197453 2.4548289453937393 72.1645470948265881 Ba
atom 7.5648388083190117 2.6217719091352021 72.1645470948254086 Ba
atom 2.5472289644713788 7.6393817529385393 72.1645470948311356 Ba
atom 7.5863090743737960 7.5117661297156628 72.1645470948306809 Ba
atom 5.0569371842940365 5.0569371842791631 69.6855487911569895 Zr
atom 10.0942106983381965 5.0766008545521926 69.6855487911823985 Zr
atom 5.0766008545529502 10.0942106983306648 69.6855487912181957 Zr
atom 10.1138743685961483 10.1138743686048684 69.6855487911892340 Zr
atom 5.0562601117653125 5.0572189430240035 74.6444692306195208 Zr
atom 10.0948877708631528 5.0763190958441156 74.6444692304851003 Zr
atom 5.0772779270797193 10.0939289395985430 74.6444692305660027 Zr
atom 10.1131972960580896 10.1141561273308618 74.6444692303855248 Zr
atom 5.2496501089748797 5.5303130897059720 67.2065851482605865 S
atom 9.9014977736609140 4.6032249491507642 67.2065851483800287 S
atom 4.8838879298677584 9.6208347929116442 67.2065851482603449 S
atom 10.3065872932694056 10.5872502740008905 67.2065851484250771 S
atom 4.8642242596093848 4.5835612788638391 72.1645124339993771 S
atom 10.2869236230159871 5.5499767599697432 72.1645124339703017 S
atom 5.2693137792256346 10.5675866037394517 72.1645124341136892 S
atom 9.9211614439205835 9.6404984632070452 72.1645124340781052 S
atom 5.0471053491676390 2.5383004272811940 69.2282210398414009 S
atom 10.0843788632131641 2.5579640974623294 70.1428765425175271 S
atom 5.0667690194189712 7.5755739413937295 70.1428765425407619 S
atom 10.1040425334666431 7.5952376115994307 69.2282210398232252 S
atom 5.0471053491629991 2.5383004273709355 75.1005029578388275 S
atom 10.0843788632089897 2.5579640974970395 74.1840247676083919 S
atom 5.0667690194210815 7.5755739412656693 74.1840247675267364 S
atom 10.1040425334672097 7.5952376114619122 75.1005029579041263 S
atom 2.5383004272559146 5.0471053491625515 69.4631786823627237 S
atom 7.5755739413364545 5.0667690194159940 69.9079189000238301 S
atom 2.5579640975279263 10.0843788632081157 69.9079189000005243 S
atom 7.5952376115647242 10.1040425334614028 69.4631786823377837 S
atom 2.5383004273392089 5.0471053491640454 74.8610353305761436 S
atom 7.5755739412609966 5.0667690194213550 74.4266537071184757 S
atom 2.5579640975642208 10.0843788632242415 74.4266537071240037 S
atom 7.5952376115340279 10.1040425334801522 74.8610353305774794 S
atom 2.5260023675609333 2.6002875878783378 77.1198588267337044 Ba
atom 7.5682083307719283 2.4763132666758692 77.1198588267329797 Ba
atom 2.5505984870600060 7.4939231104624344 77.1198588267225063 Ba
atom 7.5829395517875930 7.6572247721650912 77.1198588267236858 Ba
atom 2.5325075539710404 2.4642879665695165 82.0695577260841276 Ba
atom 7.5617031443626974 2.6123128879993867 82.0695577260834739 Ba
atom 2.5440933006305899 7.6299227317677270 82.0695577260706841 Ba
atom 7.5894447382149535 7.5212251508413086 82.0695577260710394 Ba
atom 5.0588025993420267 5.0555487825964782 79.6043133223671902 Zr
atom 10.0923452832944403 5.0779892562379869 79.6043133223937076 Zr
atom 5.0747354395060267 10.0955991000205181 79.6043133223583936 Zr
atom 10.1157397836401444 10.1124859668903575 79.6043133223689523 Zr
atom 5.0522063695229873 5.0574433529116254 84.5666035404849623 Zr
atom 10.0989415131102636 5.0760946859237954 84.5666035406745067 Zr
atom 5.0813316693184696 10.0937045297243166 84.5666035405909895 Zr
atom 10.1091435538197381 10.1143805372165296 84.5666035407082859 Zr
atom 5.2394374982406537 5.5339392391978182 77.1224914247880804 S
atom 9.9117103843866321 4.5995987996298711 77.1224914244325248 S
atom 4.8941005406009870 9.6172086434146316 77.1224914245438242 S
atom 10.2963746825474356 10.5908764235331176 77.1224914244278494 S
atom 4.9005327604587530 4.5731647383077174 82.0793051308856434 S
atom 10.2506151221817614 5.5603733005495037 82.0793051310808721 S
atom 5.2330052783956358 10.5779831443326877 82.0793051309023554 S
atom 9.9574699447438846 9.6301019225768716 82.0793051311995328 S
atom 5.0471053491717903 2.5383004272484038 79.1352915136663171 S
atom 10.0843788632112545 2.5579640975454185 80.0590491147767835 S
atom 5.0667690194244184 7.5755739413873613 80.0590491147700192 S
atom 10.1040425334642698 7.5952376116090647 79.1352915136505146 S
atom 5.0471053491714919 2.5383004272134082 85.0130405191259371 S
atom 10.0843788632085971 2.5579640975927442 84.1046385103972653 S
atom 5.0667690194253892 7.5755739413224479 84.1046385104810810 S
atom 10.1040425334644812 7.5952376115218305 85.0130405190366929 S
atom 2.5383004272242613 5.0471053491623517 79.4011214565701664 S
atom 7.5755739413682175 5.0667690194166015 79.7980578155058851 S
atom 2.5579640974710993 10.0843788632052345 79.7980578155181348 S
atom 7.5952376116239453 10.1040425334602464 79.4011214565844057 S
atom 2.5383004273015524 5.0471053491843696 84.7065421972817063 S
atom 7.5755739412832304 5.0667690194369666 84.3990912552705623 S
atom 2.5579640975531008 10.0843788632036002 84.3990912552451107 S
atom 7.5952376115525437 10.1040425334588164 84.7065421972521619 S
atom 2.5045501784700237 2.5597205632123452 86.9709211434641389 Ba
atom 7.5896605198638625 2.5168802913168831 86.9709211434638974 Ba
atom 2.5720506759932502 7.5344901351226294 86.9709211434648921 Ba
atom 7.5614873628530859 7.6166577475360997 86.9709211434649347 Ba
atom 2.6912900071048234 2.5484038424035207 91.6412207115504884 Ba
atom 7.4029206912313308 2.5281970121381252 91.6412207115495931 Ba
atom 2.3853108474277280 7.5458068559315832 91.6412207115682378 Ba
atom 7.7482271914181462 7.6053410267086932 91.6412207115654667 Ba
atom 5.0626333248572868 5.0777387002833834 89.5846918092568387 Zr
atom 10.0885145577746105 5.0557993385612559 89.5846918091823881 Zr
atom 5.0709047139886376 10.0734091823496446 89.5846918092240827 Zr
atom 10.1195705091525667 10.1346758845755787 89.5846918091859550 Zr
atom 5.1642663399268693 5.5070632048599260 87.0392572296536144 S
atom 9.9868815427061310 4.6264748339994446 87.0392572298228089 S
atom 4.9692716989203038 9.6440846777876530 87.0392572297830611 S
atom 10.2212035242210462 10.5640003891420591 87.0392572297758704 S
atom 5.0059046663436071 4.7778866190932741 92.0652725092343474 S
atom 10.1452432162889217 5.3556514197405924 92.0652725090246520 S
atom 5.1276333725018794 10.3732612635399146 92.0652725091398594 S
atom 10.0628418506418829 9.8348238034022391 92.0652725089828010 S
atom 5.0471053491678530 2.5383004272760208 89.1506598472312959 S
atom 10.0843788632092171 2.5579640975332629 89.8719909811533029 S
atom 5.0667690194239530 7.5755739412930501 89.8719909811273823 S
atom 10.1040425334647779 7.5952376115763292 89.1506598472784901 S
atom 2.5383004272988745 5.0471053491697546 89.3676526786303782 S
atom 7.5755739412856551 5.0667690194247852 89.5368130063679928 S
atom 2.5579640975337630 10.0843788632086380 89.5368130063738477 S
atom 7.5952376115726921 10.1040425334634136 89.3676526786402121 S
