#=======================================================
# FHI-aims file: full_relax/full_relax_RP_1_Rx0Mz_0-RyMz.in
# Created using the Atomic Simulation Environment (ASE)
# Fri Mar 14 11:17:05 2025
#=======================================================
lattice_vector 10.0712828800562448 -0.0000047196523448 -0.0002191685282410 
lattice_vector -0.0000047196523454 10.0712828800361933 -0.0002191685295263 
lattice_vector 0.0003381890221852 0.0003381890200611 15.6175396692468418 
atom -0.1383389751675494 0.0000072301960710 0.2385708697088675 Ba
atom 5.1739903246938317 -0.0000058582316987 0.2384545834332002 Ba
atom 0.1383465263743921 5.0356379407269047 0.2384545811900750 Ba
atom 4.8973001033407817 5.0356463092997963 0.2383516997517550 Ba
atom 0.1384446622791369 0.0000984524798974 4.6419102798883332 Ba
atom 4.8973982368033582 0.0001068247155852 4.6418073983980213 Ba
atom -0.1382455658196008 5.0357506247537787 4.6418074003372594 Ba
atom 5.1740837450652180 5.0357375331528003 4.6416911141226951 Ba
atom 2.5178723847679656 2.5178723855411587 2.4401310003845982 Zr
atom 7.5535138203367982 2.5178700258274014 2.4400214187842946 Zr
atom 2.5178700061981445 7.5535138510607904 2.4400214125560482 Zr
atom 7.5535114628134554 7.5535114754825470 2.4399118404099411 Zr
atom 2.5178056955451940 2.7383828574626103 -0.0979733202348982 S
atom 7.5534732708096763 2.2972448820176106 -0.0980727655099303 S
atom 2.5178294703046800 7.3328886822443815 -0.0980727688410894 S
atom 7.5534447726469969 7.7740219342522465 -0.0981924918537709 S
atom 2.5179390683796234 2.2973619182977916 4.9782352882993157 S
atom 7.5535543745839906 2.7384951662031392 4.9781155616847528 S
atom 2.5179105723425801 7.7741389662832576 4.9781155693411838 S
atom 7.5535781471593131 7.3330009947662633 4.9780161144904831 S
atom 2.5178706811306921 0.0000464617108839 2.2109612859577870 S
atom 7.5535178794388420 0.0000544534599433 2.6693006891217661 S
atom 2.5178740801726076 5.0356982372138201 2.6693006907337042 S
atom 7.5535097605185229 5.0356855569662802 2.2107421162475753 S
atom 0.0000518186208283 2.5178716414953333 2.4402033035362356 S
atom 5.0356929438531219 2.5178731386989259 2.4400586723434432 S
atom 0.0000491598366356 7.5535169359763792 2.4400586723048585 S
atom 5.0356909150502389 7.5535107191698572 2.4399841340312007 S
atom 2.5179958677276040 2.3796496548419834 8.0472311411784965 Ba
atom 7.5536265720945579 2.6563351631917254 8.0471148549161242 Ba
atom 2.5179827745199099 7.6919789638864060 8.0471148519294324 Ba
atom 7.5536349452532114 7.4152887355851567 8.0470119706572536 Ba
atom 2.5180870883849082 2.6564332932511889 12.4505705036668122 Ba
atom 7.5537392574871278 2.3797430760145732 12.4504676202282401 Ba
atom 2.5180954560947462 7.4153868747231444 12.4504676245967580 Ba
atom 7.5537261704694387 7.6920723725992879 12.4503513354926678 Ba
atom 5.0358610335423188 5.0358610061847369 10.2487912328016737 Zr
atom 10.0715024384695422 5.0358586517140473 10.2486816613493250 Zr
atom 5.0358586589762240 10.0715024812466183 10.2486816487151984 Zr
atom 10.0715001266284432 10.0715000892122308 10.2485720710274002 Zr
atom 5.2563714837989455 5.0357943332052182 7.7106868987354700 S
atom 9.8508773163709797 5.0358181038409429 7.7105874423708647 S
atom 4.8152335196745177 10.0714619050263234 7.7105874503944909 S
atom 10.2920105696469459 10.0714334085705257 7.7104677225430285 S
atom 4.8153505444185480 5.0359277071161470 12.7868955865140439 S
atom 10.2921276005439957 5.0358992069471409 12.7867758590260596 S
atom 5.2564838050066136 10.0715430078374251 12.7867758644277263 S
atom 9.8509896288663334 10.0715667822171273 12.7866764200784839 S
atom 5.0358602718839425 2.5180404424329277 10.2488635556972021 S
atom 10.0715055694271722 2.5180377905507529 10.2487189266794374 S
atom 5.0358617686939571 7.5536815638748696 10.2487189252183839 S
atom 10.0714993529416521 7.5536795485070076 10.2486443887563130 S
atom 2.5180351305733462 5.0358593187324594 10.0196215347542008 S
atom 7.5536869095920052 5.0358627175501267 10.4779609461703132 S
atom 2.5180430735522932 10.0715065148384593 10.4779609457684568 S
atom 7.5536741752033887 10.0714983963824487 10.0194023664143490 S
