#=======================================================
# FHI-aims file: full_relax/full_relax_RP_3_Rx0Mz_0-Ry0.in
# Created using the Atomic Simulation Environment (ASE)
# Fri Mar 14 11:20:40 2025
#=======================================================
lattice_vector 10.0930154096757576 -0.0000000000000643 0.0017442392131000 
lattice_vector -0.0000000000000644 10.0943224516460184 -0.0000000000003040 
lattice_vector 0.0062489154471105 -0.0000000000011246 35.3555687825764764 
atom -0.1747770704264157 0.0000000007540883 0.2937972655819540 Ba
atom 5.2131748215922160 0.0000000007014049 0.2926453151557663 Ba
atom 0.1666671179870887 5.0471612250574678 0.2917731960824982 Ba
atom 4.8717306330964103 5.0471612251049631 0.2946693841141314 Ba
atom 0.0068736538314945 -0.0000000001294691 4.9573037579512036 Ba
atom 4.9979129055085210 -0.0000000001871503 4.9354498743324129 Ba
atom -0.0485947979463721 5.0471612259729977 4.9345777539762130 Ba
atom 5.0533813574330306 5.0471612260490142 4.9581758777514020 Ba
atom 2.5173225573619256 2.5006290846534562 2.3489224437416998 Zr
atom 7.5638302741134655 2.5465321428366856 2.3497945629319141 Zr
atom 2.5173225575283431 7.5936933679880640 2.3489224457351514 Zr
atom 7.5638302738010239 7.5477903074887784 2.3497945653122621 Zr
atom 2.5245557064444966 2.5235806134727978 7.3661795639486112 Zr
atom 7.5710634182487757 2.5235806121143565 7.3670516842014786 Zr
atom 2.5245557071925111 7.5707418383722818 7.3661795616815304 Zr
atom 7.5710634181322627 7.5707418393601618 7.3670516796778491 Zr
atom 2.5195654985970375 2.8118244320298618 -0.1309840484187737 S
atom 7.5660732023937163 2.2353367936562427 -0.1301119265190631 S
atom 2.5195654985450702 7.2824980201304337 -0.1309840469503954 S
atom 7.5660732023945707 7.8589856572835961 -0.1301119232815063 S
atom 2.5209270858732116 2.0607571286498167 4.8876201389850573 S
atom 7.5674347889915445 2.9864040965566141 4.8884922575595526 S
atom 2.5209270859044786 8.0335653227609534 4.8876201345090493 S
atom 7.5674347891220641 7.1079183555444310 4.8884922530074801 S
atom 2.5203348900156399 -0.0000000048892484 2.0455468450234591 S
atom 7.5638845540443382 -0.0000000034527996 2.7824944492326327 S
atom 2.5173768512021124 5.0471612300522946 2.7816223300636405 S
atom 7.5668425928580216 5.0471612305519775 2.0464189650242726 S
atom 2.5923232240847507 0.0000000015699201 7.8143564006162354 S
atom 7.5032959005509792 0.0000000008508330 6.9188748296501235 S
atom 2.4567881970657739 5.0471612247924460 6.9180027102320656 S
atom 7.6388309277552473 5.0471612233644843 7.8152285198828171 S
atom -0.0048210265351865 2.5240510148302970 2.4784197555805445 S
atom 5.0416866877894906 2.5231102106978569 2.4792918756118234 S
atom -0.0048210264788896 7.5702714367359683 2.4784197550976041 S
atom 5.0416866880757158 7.5712122408663900 2.4792918751073292 S
atom 0.0013018537250801 2.4475603301757056 7.3657434957219090 S
atom 5.0478095653398691 2.5996008961333290 7.3666156151954425 S
atom 0.0013018524208065 7.6467621217879120 7.3657434957835290 S
atom 5.0478095652447639 7.4947215557291287 7.3666156152410691 S
atom -0.0042699385115265 0.0000000005650170 9.7741832353915861 Ba
atom 5.0977062183576596 0.0000000004702407 9.7977813600432349 Ba
atom 0.0511985146905062 5.0471612253060254 9.7969092388482526 Ba
atom 5.0422377651450194 5.0471612254464508 9.7750553560394842 Ba
atom 0.1773807861392949 0.0000000008443916 14.4376897252665284 Ba
atom 4.8824443019387349 0.0000000007084238 14.4405859137984205 Ba
atom -0.1640634014292287 5.0471612250013598 14.4397137946515031 Ba
atom 5.2238884897252502 5.0471612251364872 14.4385618474764801 Ba
atom 2.5317888590498914 2.5465321398700622 12.3834366630819463 Zr
atom 7.5782965585529061 2.5006290816177006 12.3843087802470588 Zr
atom 2.5317888597936622 7.5477903100962767 12.3834366617227225 Zr
atom 7.5782965578814183 7.5936933714564638 12.3843087802934217 Zr
atom 2.5281843347915456 2.9864040959042599 9.8447389658168962 S
atom 7.5746920394777293 2.0607571306102597 9.8456110879961614 S
atom 2.5281843348200703 7.1079183553566878 9.8447389734029169 S
atom 7.5746920396829616 8.0335653216669947 9.8456110933929075 S
atom 2.5295459212765654 2.2353367937141857 14.8633431629948163 S
atom 7.5760536263081768 2.8118244326711150 14.8642152841819843 S
atom 2.5295459212112679 7.8589856572230774 14.8633431625084853 S
atom 7.5760536263856615 7.2824980196615234 14.8642152846648834 S
atom 2.5317345689103905 -0.0000000021454560 11.9507367836552714 S
atom 7.5752842360708552 -0.0000000054494166 12.6876843879078418 S
atom 2.5287765302046115 5.0471612306170783 12.6868122692243706 S
atom 7.5782422744835696 5.0471612286360648 11.9516089027138257 S
atom 0.0074247353290718 2.5240510150971174 12.2530672385063717 S
atom 5.0539324422663334 2.5231102112450361 12.2539393583317668 S
atom 0.0074247348974992 7.5702714365377970 12.2530672379095478 S
atom 5.0539324425604892 7.5712122403882871 12.2539393577816345 S
atom 2.5288293047426902 2.3526350357286216 17.9725374687167125 Ba
atom 7.5753370080824736 2.6945261920487962 17.9734095883157572 Ba
atom 2.5288293048528989 7.7416874160463767 17.9725374680033667 Ba
atom 7.5753370079699716 7.3997962593936935 17.9734095871018802 Ba
atom 2.5281409634488652 2.5513096588184050 22.6264440851764910 Ba
atom 7.5746486670003703 2.4958515691072574 22.6273162051355179 Ba
atom 2.5281409637316452 7.5430127927324762 22.6264440846675292 Ba
atom 7.5746486667290789 7.5984708826224594 22.6273162046432716 Ba
atom 5.0287008147015921 5.0471612222766931 20.0282033486864499 Zr
atom 10.1213281834500872 5.0471612216448714 20.0294992316635216 Zr
atom 5.0748204714264373 10.0943224553263580 20.0286271157162439 Zr
atom 10.0752085201495341 10.0943224558581495 20.0290754658626078 Zr
atom 5.0509340164032484 5.0471612207343952 25.0444000116719003 Zr
atom 10.0974417257199747 5.0471612189170187 25.0452721313722932 Zr
atom 5.0509340174093849 10.0943224567676193 25.0444000129243491 Zr
atom 10.0974417277368538 10.0943224583749487 25.0452721398116083 Zr
atom 5.3412884639282989 5.0471612264570052 17.5484759640196160 S
atom 9.8096336039527809 5.0471612265022046 17.5496988119177324 S
atom 4.7631258981566029 10.0943224510888356 17.5488266853103880 S
atom 10.3877961652489841 10.0943224510185310 17.5493480998006852 S
atom 4.5856241104675162 5.0471612267122152 22.5664598567928216 S
atom 10.5636691843377619 5.0471612268262271 22.5675440535997112 S
atom 5.5171614807556120 10.0943224508114273 22.5666719312080133 S
atom 9.6321318149969226 10.0943224505870344 22.5673319518239772 S
atom 5.0517665392514921 2.5235949877405908 20.1589619648349334 S
atom 10.0982742427310104 2.5235662273688044 20.1598340840369481 S
atom 5.0517665392727391 7.5707274635873132 20.1589619650273875 S
atom 10.0982742427066086 7.5707562241721531 20.1598340842899795 S
atom 5.0509340191193184 2.5235675985323596 25.0444000058822276 S
atom 10.0974417242173704 2.5235936216966062 25.0452721265895484 S
atom 5.0509340191193637 7.5707548530293529 25.0444000059205294 S
atom 10.0974417242161767 7.5707288303238292 25.0452721266305041 S
atom 2.5285774641406009 5.0471612265529844 19.7225292398127046 S
atom 7.5749473922535824 5.0471612266524231 20.4629631011576407 S
atom 2.5284396749775748 10.0943224509077929 20.4620909816412713 S
atom 7.5750851939273920 10.0943224509733405 19.7234013620126376 S
atom 2.5275853672612034 5.0471612270480888 25.4954552238585173 S
atom 7.5742826801007599 5.0471612269765975 24.5933447846276358 S
atom 2.5277749733737500 10.0943224504503437 24.5924726692028806 S
atom 7.5740930682668601 10.0943224503778293 25.4963273472676057 S
atom 2.5272193719480587 2.4958515691291403 27.4614838112600701 Ba
atom 7.5737270771291580 2.5513096599920311 27.4623559306756349 Ba
atom 2.5272193722445717 7.5984708826231113 27.4614838111051114 Ba
atom 7.5737270768344649 7.5430127915338252 27.4623559305380134 Ba
atom 2.5265310311568934 2.6945261916887069 32.1153904241470087 Ba
atom 7.5730387361021450 2.3526350361970136 32.1162625437991238 Ba
atom 2.5265310312936609 7.3997962597734475 32.1153904255335689 Ba
atom 7.5730387359601865 7.7416874155608033 32.1162625446866059 Ba
atom 5.0731672237775935 5.0471612191110644 30.0605966590008364 Zr
atom 10.0735552710149907 5.0471612184773189 30.0610450100706394 Zr
atom 5.0270475633836673 10.0943224583532576 30.0601728942371587 Zr
atom 10.1196749311255232 10.0943224592303871 30.0614687810263241 Zr
atom 5.5162439282722966 5.0471612269576376 27.5223401688171627 S
atom 9.6312142629591033 5.0471612271453878 27.5230001979584138 S
atom 4.5847065608571507 10.0943224505156621 27.5221280763985412 S
atom 10.5627516316208805 10.0943224503396323 27.5232122766110514 S
atom 4.7605795776278148 5.0471612266776598 32.5403240455652210 S
atom 10.3852498472538244 5.0471612267830386 32.5408454614032934 S
atom 5.3387421417715641 10.0943224508446932 32.5399733317486621 S
atom 9.8070872826195927 10.0943224508060627 32.5411961634428124 S
atom 5.0501015014954289 2.5235949845528185 29.9298380511549418 S
atom 10.0966092055489440 2.5235662152901197 29.9307101708832981 S
atom 5.0501015014546251 7.5707274670681759 29.9298380507624664 S
atom 10.0966092055828405 7.5707562358131533 29.9307101704211469 S
atom 2.5269206584409543 5.0471612271712072 29.6258369137409900 S
atom 7.5732905586072805 5.0471612271113759 30.3662707746996716 S
atom 2.5267828554095928 10.0943224504155111 30.3653986559981881 S
atom 7.5734283616421401 10.0943224504230926 29.6267090345198980 S
