#=======================================================
# FHI-aims file: full_relax/full_relax_RP_4_RxRy0_-Rx-Ry0.in
# Created using the Atomic Simulation Environment (ASE)
# Fri Mar 14 11:23:28 2025
#=======================================================
lattice_vector 10.0732780223877523 0.1037525525400688 0.0000000000000124 
lattice_vector 0.1037525525400618 10.0732780223875764 0.0000000000000045 
lattice_vector 0.0000000000000585 0.0000000000000217 45.3555976865422181 
atom -0.1008591113866936 -0.1008591113839022 0.2835072916543225 Ba
atom 5.1374981225801388 0.1527353876531832 0.2835072916519412 Ba
atom 0.1527353876555907 5.1374981225769742 0.2835072916518085 Ba
atom 4.9876561760780040 4.9876561760798372 0.2835072916540513 Ba
atom -0.0059436652169740 -0.0059436652186871 4.9540331752612561 Ba
atom 5.0425826764106043 0.0578199414875971 4.9540331752614959 Ba
atom 0.0578199414866668 5.0425826764117962 4.9540331752613502 Ba
atom 5.0825716222469879 5.0825716222452888 4.9540331752610403 Ba
atom 2.5311997759276430 2.5311997759258058 2.3484167518569254 Zr
atom 7.5939545227287057 2.6091917878045647 2.3484167518553352 Zr
atom 2.6091917878074167 7.5939545227289962 2.3484167518577586 Zr
atom 7.6197150633915811 7.6197150633891972 2.3484167518552490 Zr
atom 2.5467454735796031 2.5467454735801582 7.3744659377171375 Zr
atom 7.5784088250764858 2.5936460901486469 7.3744659377089015 Zr
atom 2.5936460901527525 7.5784088250743666 7.3744659377089343 Zr
atom 7.6352607610438090 7.6352607610422503 7.3744659377130324 Zr
atom 2.7341515738898385 2.7341515738943096 -0.1354059084493223 S
atom 7.3910027247666727 2.4062399898375650 -0.1354059084446601 S
atom 2.4062399898440248 7.3910027247611350 -0.1354059084457213 S
atom 7.8226668613530252 7.8226668613577637 -0.1354059084477257 S
atom 2.2353142285670944 2.2353142285611876 4.8957144792663403 S
atom 7.8898400700888445 2.9050773351689783 4.8957144792743881 S
atom 2.9050773351653421 7.8898400700936779 4.8957144792674985 S
atom 7.3238295160317639 7.3238295160245919 4.8957144792697465 S
atom 2.5183195055970686 0.0259381381366694 2.1947459056755658 S
atom 7.5549585167901530 0.0778144144065906 2.7030936683355344 S
atom 2.5701957818663610 5.0625771493304876 2.7030936683359701 S
atom 7.6068347930608740 5.1144534256023642 2.1947459056743033 S
atom 2.5183195055958953 0.0259381381400359 7.7194778678864813 S
atom 7.5549585167900970 0.0778144144096102 7.0357231536793368 S
atom 2.5701957818662633 5.0625771493300569 7.0357231536797258 S
atom 7.6068347930597406 5.1144534256079712 7.7194778678858276 S
atom 0.0259381381325470 2.5183195055959877 2.1947459056802847 S
atom 5.0625771493324612 2.5701957818651073 2.7030936683316167 S
atom 0.0778144144028055 7.5549585167890054 2.7030936683320403 S
atom 5.1144534255974961 7.6068347930598410 2.1947459056805396 S
atom 0.0259381381414933 2.5183195055947882 7.7194778678817535 S
atom 5.0625771493256622 2.5701957818647094 7.0357231536834153 S
atom 0.0778144144074687 7.5549585167882416 7.0357231536840281 S
atom 5.1144534255978149 7.6068347930586837 7.7194778678824303 S
atom 0.0315822537714713 0.0315822537734893 9.8599125405540757 Ba
atom 5.0050567574219773 0.0202940224973528 9.8599125405541770 Ba
atom 0.0202940224983938 5.0050567574199816 9.8599125405539372 Ba
atom 5.1200975412348777 5.1200975412362597 9.8599125405542196 Ba
atom -0.0059436652161012 -0.0059436652182544 14.7657919058464131 Ba
atom 5.0425826764097552 0.0578199414862973 14.7657919058460543 Ba
atom 0.0578199414857039 5.0425826764109765 14.7657919058464273 Ba
atom 5.0825716222482544 5.0825716222464106 14.7657919058463385 Ba
atom 2.5467454735833135 2.5467454735811610 12.3453591433842806 Zr
atom 7.5784088250741286 2.5936460901487468 12.3453591433965943 Zr
atom 2.5936460901502922 7.5784088250722697 12.3453591433965197 Zr
atom 7.6352607610453118 7.6352607610420868 12.3453591433932690 Zr
atom 2.5311997759255438 2.5311997759238918 17.3714083292246180 Zr
atom 7.5939545227323872 2.6091917878040105 17.3714083292300359 Zr
atom 2.6091917878053628 7.5939545227301970 17.3714083292297019 Zr
atom 7.6197150633899406 7.6197150633883517 17.3714083292346473 Zr
atom 2.8901394860231209 2.8901394860269343 9.8599125405770192 S
atom 7.2350148126314613 2.2502520777010200 9.8599125405664232 S
atom 2.2502520777079247 7.2350148126259199 9.8599125405691392 S
atom 7.9786547734879294 7.9786547734903834 9.8599125405741397 S
atom 2.2353142285682392 2.2353142285622458 14.8241106018626194 S
atom 7.8898400700881446 2.9050773351671304 14.8241106018542776 S
atom 2.9050773351636976 7.8898400700918740 14.8241106018603119 S
atom 7.3238295160319780 7.3238295160255937 14.8241106018477478 S
atom 2.5183195055958700 0.0259381381420371 12.0003472132134767 S
atom 7.5549585167902613 0.0778144144154050 12.6841019274206186 S
atom 2.5701957818664827 5.0625771493323590 12.6841019274189222 S
atom 7.6068347930598517 5.1144534256022265 12.0003472132153295 S
atom 2.5183195055962546 0.0259381381354276 17.5250791754310704 S
atom 7.5549585167905491 0.0778144144094782 17.0167314127755311 S
atom 2.5701957818666012 5.0625771493319096 17.0167314127740781 S
atom 7.6068347930604556 5.1144534256037666 17.5250791754335715 S
atom 0.0259381381385879 2.5183195055948810 12.0003472132180633 S
atom 5.0625771493278071 2.5701957818644283 12.6841019274155045 S
atom 0.0778144144092766 7.5549585167877931 12.6841019274159255 S
atom 5.1144534255985246 7.6068347930585309 12.0003472132184914 S
atom 0.0259381381313019 2.5183195055951755 17.5250791754264768 S
atom 5.0625771493284564 2.5701957818651349 17.0167314127772400 S
atom 0.0778144144054510 7.5549585167892692 17.0167314127792686 S
atom 5.1144534256032861 7.6068347930591438 17.5250791754282496 S
atom -0.1008591113859510 -0.1008591113836242 19.4363177894595829 Ba
atom 5.1374981225792959 0.1527353876511681 19.4363177894602259 Ba
atom 0.1527353876536639 5.1374981225767478 19.4363177894598138 Ba
atom 4.9876561760799509 4.9876561760819209 19.4363177894588688 Ba
atom 2.7341515738913227 2.7341515738951583 19.8552309895704902 S
atom 7.3910027247665635 2.4062399898369193 19.8552309895612815 S
atom 2.4062399898421063 7.3910027247613588 19.8552309895590611 S
atom 7.8226668613544277 7.8226668613584760 19.8552309895589758 S
atom 2.6451167551171868 2.6451167551129080 22.9613061349343823 Ba
atom 7.4800375435399191 2.4952748086204304 22.9613061349346950 Ba
atom 2.4952748086180585 7.4800375435430428 22.9613061349356684 Ba
atom 7.7336320425793197 7.7336320425761045 22.9613061349345635 Ba
atom 2.5502013089472619 2.5502013089527455 27.6318320185305559 Ba
atom 7.5749529897065573 2.5901902547844644 27.6318320185305168 Ba
atom 2.5901902547833653 7.5749529897068815 27.6318320185306590 Ba
atom 7.6387165964104398 7.6387165964160477 27.6318320185306234 Ba
atom 5.1015731552671602 5.1015731552636154 25.0262155951297949 Zr
atom 10.1120964308509151 5.1273336959262767 25.0262155951290346 Zr
atom 5.1273336959288462 10.1120964308509471 25.0262155951256453 Zr
atom 10.1900884427365401 10.1900884427327085 25.0262155951399698 Zr
atom 5.0860274576163462 5.0860274576131346 30.0522647809912051 Zr
atom 10.1276421285127860 5.1428793935814863 30.0522647810145678 Zr
atom 5.1428793935867301 10.1276421284975502 30.0522647810064676 Zr
atom 10.1745427450765042 10.1745427450744828 30.0522647810131538 Zr
atom 4.8986213573049930 4.8986213572988548 22.5423929348070580 S
atom 10.3150482288155398 5.3302854938964099 22.5423929347992775 S
atom 5.3302854938918189 10.3150482288203627 22.5423929348024004 S
atom 9.9871366447687731 9.9871366447627992 22.5423929347931278 S
atom 5.3974587026275422 5.3974587026291569 27.5735133225786626 S
atom 9.8162108834939890 4.8314481485603800 27.5735133225507845 S
atom 4.8314481485710381 9.8162108834838833 27.5735133225644304 S
atom 10.4859739900950526 10.4859739900974507 27.5735133225300117 S
atom 5.0625771493275487 2.5701957818804120 25.3808925116075450 S
atom 10.0992161605234827 2.6220720581415629 24.8725447489488687 S
atom 5.1144534255990646 7.6068347930603242 24.8725447489413973 S
atom 10.1510924367917923 7.6587110693318010 25.3808925116121920 S
atom 5.0625771493266152 2.5701957818720618 29.7135219969408055 S
atom 10.0992161605272983 2.6220720581376109 30.3972767111570832 S
atom 5.1144534256033998 7.6068347930799609 30.3972767111477502 S
atom 10.1510924367900266 7.6587110693374738 29.7135219969500319 S
atom 2.5701957818758410 5.0625771493271401 25.3808925116038751 S
atom 7.6068347930565769 5.1144534255959107 24.8725447489493163 S
atom 2.6220720581422428 10.0992161605203670 24.8725447489537395 S
atom 7.6587110693180058 10.1510924367917230 25.3808925116073212 S
atom 2.5701957818528212 5.0625771493290550 29.7135219969498969 S
atom 7.6068347930621680 5.1144534255915994 30.3972767111457784 S
atom 2.6220720581396599 10.0992161605143291 30.3972767111492814 S
atom 7.6587110693171008 10.1510924367916964 29.7135219969524407 S
atom 2.5126753899657435 2.5126753899583480 32.5377113838265046 Ba
atom 7.6124789086969749 2.6277161737697985 32.5377113838261707 Ba
atom 2.6277161737738668 7.6124789086933919 32.5377113838265117 Ba
atom 7.6011906774280567 7.6011906774214264 32.5377113838256875 Ba
atom 2.5502013089461992 2.5502013089507432 37.4435907491206166 Ba
atom 7.5749529897076071 2.5901902547833666 37.4435907491205313 Ba
atom 2.5901902547831770 7.5749529897088559 37.4435907491205029 Ba
atom 7.6387165964115740 7.6387165964155308 37.4435907491204532 Ba
atom 5.0860274576110074 5.0860274576021895 35.0231579866420617 Zr
atom 10.1276421285102547 5.1428793935847104 35.0231579866307783 Zr
atom 5.1428793935915751 10.1276421285097236 35.0231579866188696 Zr
atom 10.1745427450815775 10.1745427450737314 35.0231579866581413 Zr
atom 5.1015731552702439 5.1015731552671371 40.0492071724985337 Zr
atom 10.1120964308505386 5.1273336959268709 40.0492071724928422 Zr
atom 5.1273336959264615 10.1120964308459875 40.0492071724872645 Zr
atom 10.1900884427337406 10.1900884427329625 40.0492071725056107 Zr
atom 4.7426334451747216 4.7426334451656809 32.5377113838413194 S
atom 10.4710361409431467 5.4862734060252194 32.5377113838461440 S
atom 5.4862734060201532 10.4710361409465094 32.5377113838738055 S
atom 9.8311487326406688 9.8311487326322169 32.5377113838180136 S
atom 5.3974587026278691 5.3974587026308365 37.5019094451284118 S
atom 9.8162108834936639 4.8314481485612992 37.5019094451166382 S
atom 4.8314481485700798 9.8162108834815065 37.5019094451322701 S
atom 10.4859739900917521 10.4859739900953421 37.5019094451020223 S
atom 5.0625771493268799 2.5701957818828758 35.3619007706945752 S
atom 10.0992161605270159 2.6220720581417245 34.6781460564954358 S
atom 5.1144534256034317 7.6068347930704032 34.6781460564893251 S
atom 10.1510924367908792 7.6587110693375910 35.3619007707013822 S
atom 5.0625771493281411 2.5701957818737626 39.6945302560403377 S
atom 10.0992161605226496 2.6220720581338504 40.2028780187057890 S
atom 5.1144534255986489 7.6068347930663327 40.2028780187005168 S
atom 10.1510924367918012 7.6587110693316740 39.6945302560433717 S
atom 2.5701957818647592 5.0625771493278577 35.3619007706925288 S
atom 7.6068347930649951 5.1144534255917025 34.6781460564971979 S
atom 2.6220720581246728 10.0992161605162423 34.6781460564977380 S
atom 7.6587110693281648 10.1510924367926076 35.3619007706925217 S
atom 2.5701957818620036 5.0625771493281633 39.6945302560457520 S
atom 7.6068347930644267 5.1144534255967864 40.2028780186954435 S
atom 2.6220720581307289 10.0992161605200454 40.2028780186976036 S
atom 7.6587110693334122 10.1510924367912487 39.6945302560472513 S
atom 2.6451167551147061 2.6451167551121735 42.1141166327220944 Ba
atom 7.4800375435439195 2.4952748086213479 42.1141166327218102 Ba
atom 2.4952748086176211 7.4800375435456710 42.1141166327216325 Ba
atom 7.7336320425810365 7.7336320425765104 42.1141166327230394 Ba
atom 4.8986213573039112 4.8986213572963742 42.5330298328597607 S
atom 10.3150482288178420 5.3302854938994066 42.5330298328750587 S
atom 5.3302854938942419 10.3150482288231515 42.5330298328823417 S
atom 9.9871366447687997 9.9871366447625274 42.5330298328478520 S
