#=======================================================
# FHI-aims file: full_relax/full_relax_RP_1_RxRy0_-Rx-Ry0.in
# Created using the Atomic Simulation Environment (ASE)
# Fri Mar 14 11:17:02 2025
#=======================================================
lattice_vector 10.0858357384187851 0.2044694477215582 -0.0000000000000041 
lattice_vector 0.2044694477215610 10.0858357384187673 0.0000000000000556 
lattice_vector -0.0000000000000064 0.0000000000000928 15.5513211932600637 
atom 0.1072130170168311 0.1072130170169755 0.2366428571592859 Ba
atom 4.9357048521919165 -0.0049782931577811 0.2366428571627191 Ba
atom -0.0049782931590029 4.9357048521902458 0.2366428571576677 Ba
atom 5.2523656100882450 5.2523656100874652 0.2366428571616857 Ba
atom -0.1072130170180049 -0.1072130170195864 4.6231450157376477 Ba
atom 5.1501308862257318 0.2094477408762773 4.6231450157345035 Ba
atom 0.2094477408759060 5.1501308862270170 4.6231450157376770 Ba
atom 5.0379395760537076 5.0379395760525707 4.6231450157326934 Ba
atom 2.5725762965527079 2.5725762965425831 2.4298939364453735 Zr
atom 7.6154941657360542 2.6748110204060525 2.4298939364448850 Zr
atom 2.6748110204024638 7.6154941657623567 2.4298939364490790 Zr
atom 7.7177288895923208 7.7177288896143965 2.4298939364483889 Zr
atom 2.3586053317203368 2.3586053317224969 -0.1074757717817310 S
atom 7.8294651305609042 2.8887819852102981 -0.1074757717715493 S
atom 2.8887819852064576 7.8294651305600231 -0.1074757717790132 S
atom 7.5037579247918949 7.5037579247930184 -0.1074757717719818 S
atom 2.7865472613478364 2.7865472613507793 4.9672636446804104 S
atom 7.4015232009320195 2.4608400555833021 4.9672636446686216 S
atom 2.4608400555810239 7.4015232009322522 4.9672636446737624 S
atom 7.9316998544190849 7.9316998544204349 4.9672636446680096 S
atom 2.5214589346024865 0.0511173619106581 2.6388430996339758 S
atom 7.5643768038164811 0.1533520857753811 2.2209447732579242 S
atom 2.6236936584636426 5.0940352311108308 2.2209447732573908 S
atom 7.6666115276771567 5.1962699549817541 2.6388430996349963 S
atom 0.0511173619208500 2.5214589346083525 2.6388430996347374 S
atom 5.0940352311299728 2.6236936584691275 2.2209447732583687 S
atom 0.1533520857951821 7.5643768038193837 2.2209447732571657 S
atom 5.1962699550068701 7.6666115276802262 2.6388430996345185 S
atom 2.4653632795131903 2.4653632795150293 8.0123034537994027 Ba
atom 7.7227071827631395 2.7820240374120018 8.0123034538011879 Ba
atom 2.7820240374125564 7.7227071827627380 8.0123034538003441 Ba
atom 7.6105158725860607 7.6105158725875945 8.0123034538021969 Ba
atom 2.6797893135500424 2.6797893135527673 12.3988056123527421 Ba
atom 7.5082811487255565 2.5675980033803958 12.3988056123502961 Ba
atom 2.5675980033805921 7.5082811487263781 12.3988056123491344 Ba
atom 7.8249419066166759 7.8249419066192276 12.3988056123491024 Ba
atom 5.1451525930910949 5.1451525930736235 10.2055545330692468 Zr
atom 10.1880704622989349 5.2473873169313006 10.2055545330735704 Zr
atom 5.2473873169483713 10.1880704622478451 10.2055545330761266 Zr
atom 10.2903051861763633 10.2903051861571022 10.2055545330542881 Zr
atom 5.3591235578855683 5.3591235578788590 7.6681848248422462 S
atom 9.9740994974698154 5.0334163521183521 7.6681848248293347 S
atom 5.0334163521220940 9.9740994974641648 7.6681848248322240 S
atom 10.5042761509578302 10.5042761509547145 7.6681848248425828 S
atom 4.9311816282596448 4.9311816282518874 12.7429242413227541 S
atom 10.4020414270961226 5.4613582817466977 12.7429242413252588 S
atom 5.4613582817493302 10.4020414270931543 12.7429242413196704 S
atom 10.0763342213307840 10.0763342213279792 12.7429242413405905 S
atom 5.0940352311484469 2.6236936584736270 9.9966053698861010 S
atom 10.1369531003602784 2.7259283823150007 10.4145036962668662 S
atom 5.1962699550107372 7.6666115277155917 10.4145036962656565 S
atom 10.2391878242198704 7.7688462515169556 9.9966053698864457 S
atom 2.6236936584368258 5.0940352311362735 9.9966053698880746 S
atom 7.6666115276294322 5.1962699549976836 10.4145036962655873 S
atom 2.7259283822766780 10.1369531003471636 10.4145036962658875 S
atom 7.7688462514923504 10.2391878242087557 9.9966053698873552 S
