#=======================================================
# FHI-aims file: full_relax/full_relax_RP_7_Rx00_0-Ry0.in
# Created using the Atomic Simulation Environment (ASE)
# Mon Mar 24 15:37:53 2025
#=======================================================
lattice_vector 10.0840548369188010 -0.0000000000000048 0.0000000000000006 
lattice_vector -0.0000000000000048 10.0840548369188010 0.0000000000000027 
lattice_vector 0.0000000000000044 0.0000000000000211 74.9000042567820827 
atom -0.1534000222627098 -0.0000000000004266 0.2792669079972236 Ba
atom 5.1954274407212324 -0.0000000000004421 0.2792669079972281 Ba
atom 0.1534000222618780 5.0420274184589324 0.2792669079971951 Ba
atom 4.8886273961967497 5.0420274184589422 0.2792669079972310 Ba
atom 0.0277857654669354 -0.0000000000003180 4.9451525143622543 Ba
atom 5.0142416529914851 -0.0000000000005243 4.9451525143622614 Ba
atom -0.0277857654677705 5.0420274184588951 4.9451525143622286 Ba
atom 5.0698131839264748 5.0420274184590781 4.9451525143622623 Ba
atom 2.5210137092293019 2.5084479235898431 2.3202743286332237 Zr
atom 7.5630411276886891 2.5335794948686980 2.3202743286332494 Zr
atom 2.5210137092292717 7.5756069133280661 2.3202743286332357 Zr
atom 7.5630411276887033 7.5504753420492214 2.3202743286332526 Zr
atom 2.5210137092293037 2.5198134818995106 7.3318792541009952 Zr
atom 7.5630411276887441 2.5222139365590834 7.3318792541009961 Zr
atom 2.5210137092293365 7.5642413550184679 7.3318792541010005 Zr
atom 7.5630411276887068 7.5618409003589164 7.3318792541009845 Zr
atom 2.5210137092292864 2.8750096130066027 -0.1608420265327310 S
atom 7.5630411276887033 2.1670178054519025 -0.1608420265327420 S
atom 2.5210137092294360 7.2090452239112564 -0.1608420265327293 S
atom 7.5630411276885336 7.9170370314660401 -0.1608420265327414 S
atom 2.5210137092293952 2.0477481111142417 4.8622352091208780 S
atom 7.5630411276886482 2.9942793073443328 4.8622352091208905 S
atom 2.5210137092289679 8.0363067258037137 4.8622352091209011 S
atom 7.5630411276890515 7.0897755295736635 4.8622352091208940 S
atom 2.5210137092292926 -0.0000000000004465 2.0051261841412420 S
atom 7.5630411276886926 -0.0000000000004253 2.7975737253686521 S
atom 2.5210137092293152 5.0420274184589529 2.7975737253686548 S
atom 7.5630411276886891 5.0420274184589573 2.0051261841412362 S
atom 2.5210137092294755 -0.0000000000004200 7.8109324856332893 S
atom 7.5630411276886074 -0.0000000000004036 6.8755714821140401 S
atom 2.5210137092292113 5.0420274184589937 6.8755714821140641 S
atom 7.5630411276888942 5.0420274184590061 7.8109324856332911 S
atom -0.0000000000003922 2.5210137092292730 2.4554136702338605 S
atom 5.0420274184589973 2.5210137092292575 2.4554136702337601 S
atom -0.0000000000003798 7.5630411276886429 2.4554136702335509 S
atom 5.0420274184589680 7.5630411276886669 2.4554136702340528 S
atom -0.0000000000003547 2.5210137092291411 7.3492381145162531 S
atom 5.0420274184590284 2.5210137092294582 7.3492381145166235 S
atom -0.0000000000003637 7.5630411276888561 7.3492381145170027 S
atom 5.0420274184590177 7.5630411276885292 7.3492381145159014 S
atom -0.0077172265709696 -0.0000000000006212 9.8377515255777972 Ba
atom 5.0497446450294605 -0.0000000000001133 9.8377515255779393 Ba
atom 0.0077172265702907 5.0420274184592131 9.8377515255779162 Ba
atom 5.0343101918886157 5.0420274184587601 9.8377515255777546 Ba
atom 0.0073849006155726 -0.0000000000000524 14.7759387518150529 Ba
atom 5.0346425178428840 -0.0000000000007056 14.7759387518149463 Ba
atom -0.0073849006162898 5.0420274184586855 14.7759387518148895 Ba
atom 5.0494123190752047 5.0420274184593517 14.7759387518150280 Ba
atom 2.5210137092293516 2.5225136049973473 12.2903472237811844 Zr
atom 7.5630411276887450 2.5195138134612898 12.2903472237811933 Zr
atom 2.5210137092293117 7.5615412319206738 12.2903472237811400 Zr
atom 7.5630411276887664 7.5645410234567265 12.2903472237812057 Zr
atom 2.5210137092293499 2.5210137092293414 17.2467115064997110 Zr
atom 7.5630411276887646 2.5210137092293250 17.2467115064996790 Zr
atom 2.5210137092293485 7.5630411276886997 17.2467115064996577 Zr
atom 7.5630411276887690 7.5630411276887033 17.2467115064995973 Zr
atom 2.5210137092291678 3.0291595308786783 9.8178334492164510 S
atom 7.5630411276889333 2.0128678875799020 9.8178334492164439 S
atom 2.5210137092299338 7.0548953060392821 9.8178334492164190 S
atom 7.5630411276881206 8.0711869493381556 9.8178334492164350 S
atom 2.5210137092296350 2.0114806972362649 14.7701499238403269 S
atom 7.5630411276884617 3.0305467212224024 14.7701499238403215 S
atom 2.5210137092285962 8.0725741396817821 14.7701499238403198 S
atom 7.5630411276895044 7.0535081156956236 14.7701499238402878 S
atom 2.5210137092292406 -0.0000000000003823 11.8190777335100119 S
atom 7.5630411276888223 -0.0000000000003757 12.7774337264569180 S
atom 2.5210137092294551 5.0420274184589804 12.7774337264568789 S
atom 7.5630411276886393 5.0420274184590044 11.8190777335099781 S
atom 2.5210137092294991 -0.0000000000004148 17.7264344502335973 S
atom 7.5630411276886162 -0.0000000000003396 16.7669885627655830 S
atom 2.5210137092292308 5.0420274184590186 16.7669885627655795 S
atom 7.5630411276888836 5.0420274184589928 17.7264344502337181 S
atom -0.0000000000003434 2.5210137092294418 12.2977657475159443 S
atom 5.0420274184590399 2.5210137092291767 12.2977657475152320 S
atom -0.0000000000003507 7.5630411276885816 12.2977657475147844 S
atom 5.0420274184590363 7.5630411276888241 12.2977657475164168 S
atom -0.0000000000003534 2.5210137092291616 17.2467115064991425 S
atom 5.0420274184590781 2.5210137092294800 17.2467115064999419 S
atom -0.0000000000002841 7.5630411276888729 17.2467115065003860 S
atom 5.0420274184590061 7.5630411276885523 17.2467115064985492 S
atom -0.0073849006164434 -0.0000000000006787 19.7174842611841221 Ba
atom 5.0494123190750271 -0.0000000000000403 19.7174842611842180 Ba
atom 0.0073849006158679 5.0420274184593339 19.7174842611842926 Ba
atom 5.0346425178431664 5.0420274184586873 19.7174842611842500 Ba
atom 0.0077172265700482 -0.0000000000001456 24.6556714874214791 Ba
atom 5.0343101918884736 -0.0000000000006277 24.6556714874215501 Ba
atom -0.0077172265707385 5.0420274184587921 24.6556714874216425 Ba
atom 5.0497446450296435 5.0420274184592762 24.6556714874216603 Ba
atom 2.5210137092293516 2.5195138134612849 22.2030757892181541 Zr
atom 7.5630411276887974 2.5225136049973611 22.2030757892182002 Zr
atom 2.5210137092293814 7.5645410234567656 22.2030757892181541 Zr
atom 7.5630411276887601 7.5615412319206730 22.2030757892181292 Zr
atom 2.5210137092293530 2.5222139365591092 27.1615437588987874 Zr
atom 7.5630411276887219 2.5198134818995048 27.1615437588988051 Zr
atom 2.5210137092293188 7.5618409003589138 27.1615437588986772 Zr
atom 7.5630411276887592 7.5642413550185443 27.1615437588987341 Zr
atom 2.5210137092290981 3.0305467212223274 19.7232730891589014 S
atom 7.5630411276890248 2.0114806972363253 19.7232730891589583 S
atom 2.5210137092301097 7.0535081156956911 19.7232730891587700 S
atom 7.5630411276880212 8.0725741396817803 19.7232730891589085 S
atom 2.5210137092295448 2.0128678875800503 24.6755895637831379 S
atom 7.5630411276885479 3.0291595308785935 24.6755895637830527 S
atom 2.5210137092287641 8.0711869493379851 24.6755895637830278 S
atom 7.5630411276893295 7.0548953060394748 24.6755895637829497 S
atom 2.5210137092293787 -0.0000000000003883 21.7159892865424240 S
atom 7.5630411276887175 -0.0000000000003930 22.6743452794892733 S
atom 2.5210137092293396 5.0420274184590301 22.6743452794892981 S
atom 7.5630411276888045 5.0420274184590292 21.7159892865424311 S
atom 2.5210137092293223 -0.0000000000003984 27.6178515308855275 S
atom 7.5630411276887726 -0.0000000000004046 26.6824905273663298 S
atom 2.5210137092294018 5.0420274184590026 26.6824905273663830 S
atom 7.5630411276886846 5.0420274184590559 27.6178515308854458 S
atom -0.0000000000003486 2.5210137092292881 22.1956572654839697 S
atom 5.0420274184590825 2.5210137092293436 22.1956572654833089 S
atom -0.0000000000003590 7.5630411276887433 22.1956572654826800 S
atom 5.0420274184590816 7.5630411276886846 22.1956572654843143 S
atom -0.0000000000002988 2.5210137092293667 27.1441848984829406 S
atom 5.0420274184589902 2.5210137092292770 27.1441848984834060 S
atom -0.0000000000003402 7.5630411276886571 27.1441848984835374 S
atom 5.0420274184590212 7.5630411276887468 27.1441848984825036 S
atom -0.0277857654678216 -0.0000000000004869 29.5482704986375992 Ba
atom 5.0698131839263709 -0.0000000000002847 29.5482704986376312 Ba
atom 0.0277857654670371 5.0420274184591145 29.5482704986376525 Ba
atom 5.0142416529917018 5.0420274184589156 29.5482704986376490 Ba
atom 0.1534000222617277 -0.0000000000004234 34.2141561050037240 Ba
atom 4.8886273961968918 -0.0000000000004047 34.2141561050036742 Ba
atom -0.1534000222625050 5.0420274184589964 34.2141561050036387 Ba
atom 5.1954274407211152 5.0420274184589537 34.2141561050036955 Ba
atom 2.5210137092293112 2.5335794948686519 32.1731486843670282 Zr
atom 7.5630411276887202 2.5084479235899049 32.1731486843670780 Zr
atom 2.5210137092293268 7.5504753420492969 32.1731486843671206 Zr
atom 7.5630411276886864 7.5756069133280963 32.1731486843669998 Zr
atom 2.5210137092292064 2.9942793073441130 29.6311878038789409 S
atom 7.5630411276888543 2.0477481111145202 29.6311878038790404 S
atom 2.5210137092296390 7.0897755295739184 29.6311878038790049 S
atom 7.5630411276884049 8.0363067258034544 29.6311878038789942 S
atom 2.5210137092293681 2.1670178054520508 34.6542650395332146 S
atom 7.5630411276886571 2.8750096130064593 34.6542650395332075 S
atom 2.5210137092292260 7.9170370314658998 34.6542650395332075 S
atom 7.5630411276887743 7.2090452239114873 34.6542650395333069 S
atom 2.5210137092293099 -0.0000000000004473 31.6958492876315319 S
atom 7.5630411276887264 -0.0000000000004097 32.4882968288588287 S
atom 2.5210137092293037 5.0420274184590133 32.4882968288588714 S
atom 7.5630411276887219 5.0420274184590088 31.6958492876315674 S
atom -0.0000000000003950 2.5210137092292917 32.0380093427666566 S
atom 5.0420274184590266 2.5210137092292992 32.0380093427663297 S
atom -0.0000000000003847 7.5630411276886917 32.0380093427663439 S
atom 5.0420274184590177 7.5630411276886820 32.0380093427667632 S
atom 2.5210137092292513 2.6744137314912964 37.7292690363885228 Ba
atom 7.5630411276886402 2.3676136869670743 37.7292690363885015 Ba
atom 2.5210137092292388 7.4096411054265259 37.7292690363885583 Ba
atom 7.5630411276886527 7.7164411499506818 37.7292690363885370 Ba
atom 2.5210137092292362 2.4932279437617417 42.3951546427544059 Ba
atom 7.5630411276886225 2.5487994746965401 42.3951546427545409 Ba
atom 2.5210137092292033 7.5908268931559499 42.3951546427546049 Ba
atom 7.5630411276886482 7.5352553622212275 42.3951546427546120 Ba
atom 5.0545932040983530 5.0420274184588925 39.7702764570251404 Zr
atom 10.0714890512789506 5.0420274184588711 39.7702764570251119 Zr
atom 5.0294616328195509 10.0840548369182592 39.7702764570252256 Zr
atom 10.0966206225577206 10.0840548369182788 39.7702764570252896 Zr
atom 5.0432276457887051 5.0420274184588054 44.7818813824933741 Zr
atom 10.0828546095884963 5.0420274184587877 44.7818813824932320 Zr
atom 5.0408271911291047 10.0840548369182486 44.7818813824933599 Zr
atom 10.0852550642480896 10.0840548369182876 44.7818813824933812 Zr
atom 4.6880315146817173 5.0420274184589120 37.2891601018588759 S
atom 10.4380507406955765 5.0420274184589120 37.2891601018589114 S
atom 5.3960233222361245 10.0840548369182450 37.2891601018589114 S
atom 9.7300589331411356 10.0840548369182699 37.2891601018588901 S
atom 5.5152930165737413 5.0420274184589600 42.3122373375131602 S
atom 9.6107892388035232 5.0420274184588738 42.3122373375132099 S
atom 4.5687618203442044 10.0840548369181651 42.3122373375132952 S
atom 10.5573204350330645 10.0840548369182681 42.3122373375131744 S
atom 5.0420274184589493 2.5210137092291842 39.9054157986256115 S
atom 10.0840548369183445 2.5210137092291713 39.9054157986256115 S
atom 5.0420274184589529 7.5630411276885798 39.9054157986256044 S
atom 10.0840548369183356 7.5630411276885816 39.9054157986256612 S
atom 5.0420274184589484 2.5210137092290634 44.7992402429088159 S
atom 10.0840548369182947 2.5210137092291420 44.7992402429089651 S
atom 5.0420274184589005 7.5630411276886038 44.7992402429092280 S
atom 10.0840548369183232 7.5630411276885328 44.7992402429089793 S
atom 2.5210137092292850 5.0420274184588898 40.2475758537605870 S
atom 7.5630411276885976 5.0420274184588756 39.4551283125332617 S
atom 2.5210137092292504 10.0840548369183249 39.4551283125334749 S
atom 7.5630411276886109 10.0840548369182805 40.2475758537606225 S
atom 2.5210137092291749 5.0420274184588276 44.3255736105066518 S
atom 7.5630411276886891 5.0420274184588738 45.2609346140257003 S
atom 2.5210137092292242 10.0840548369182077 45.2609346140258140 S
atom 7.5630411276885807 10.0840548369182414 44.3255736105068010 S
atom 2.5210137092291860 2.5287309357995293 47.2877536539707108 Ba
atom 7.5630411276886500 2.5132964826586108 47.2877536539703627 Ba
atom 2.5210137092292744 7.5553239011178945 47.2877536539706043 Ba
atom 7.5630411276885683 7.5707583542589836 47.2877536539707251 Ba
atom 2.5210137092292819 2.5136288086130705 52.2259408802075811 Ba
atom 7.5630411276885772 2.5283986098452091 52.2259408802081424 Ba
atom 2.5210137092291554 7.5704260283045492 52.2259408802081140 Ba
atom 7.5630411276886713 7.5556562270725589 52.2259408802079079 Ba
atom 5.0405275226908728 5.0420274184588143 49.7403493521738440 Zr
atom 10.0855547326863277 5.0420274184588036 49.7403493521740003 Zr
atom 5.0435273142269699 10.0840548369182148 49.7403493521740927 Zr
atom 10.0825549411502813 10.0840548369182557 49.7403493521741424 Zr
atom 5.0420274184589067 5.0420274184588703 54.6967136348926459 Zr
atom 10.0840548369183249 5.0420274184588312 54.6967136348924967 Zr
atom 5.0420274184589156 10.0840548369182574 54.6967136348926175 Zr
atom 10.0840548369183569 10.0840548369182645 54.6967136348925038 Zr
atom 4.5338815968096426 5.0420274184586864 47.2678355776091763 S
atom 10.5922006585675881 5.0420274184588232 47.2678355776090910 S
atom 5.5501732401081920 10.0840548369183534 47.2678355776092403 S
atom 9.5759090152690636 10.0840548369182557 47.2678355776091834 S
atom 5.5515604304519277 5.0420274184590115 52.2201520522330966 S
atom 9.5745218249252897 5.0420274184588321 52.2201520522331109 S
atom 4.5324944064659185 10.0840548369180834 52.2201520522331890 S
atom 10.5935878489113389 10.0840548369183232 52.2201520522332032 S
atom 5.0420274184584999 2.5210137092290843 49.7477678759086785 S
atom 10.0840548369187406 2.5210137092291776 49.7477678759084441 S
atom 5.0420274184593410 7.5630411276885869 49.7477678759084085 S
atom 10.0840548369179146 7.5630411276885114 49.7477678759085293 S
atom 5.0420274184594076 2.5210137092291753 54.6967136348924257 S
atom 10.0840548369178471 2.5210137092291309 54.6967136348926886 S
atom 5.0420274184584377 7.5630411276885372 54.6967136348928165 S
atom 10.0840548369188081 7.5630411276885949 54.6967136348924328 S
atom 2.5210137092292211 5.0420274184592193 50.2274358548496167 S
atom 7.5630411276886473 5.0420274184584937 49.2690798619028101 S
atom 2.5210137092292597 10.0840548369179217 49.2690798619029309 S
atom 7.5630411276885710 10.0840548369185523 50.2274358548497588 S
atom 2.5210137092292420 5.0420274184584430 54.2169906911584718 S
atom 7.5630411276886109 5.0420274184592682 55.1764365786264861 S
atom 2.5210137092292086 10.0840548369186340 55.1764365786267774 S
atom 7.5630411276886278 10.0840548369179182 54.2169906911585784 S
atom 2.5210137092291776 2.5283986098452842 57.1674863895773058 Ba
atom 7.5630411276886491 2.5136288086131353 57.1674863895768439 Ba
atom 2.5210137092292704 7.5556562270725003 57.1674863895771068 Ba
atom 7.5630411276885923 7.5704260283046452 57.1674863895772916 Ba
atom 2.5210137092292384 2.5132964826586823 62.1056736158138918 Ba
atom 7.5630411276886242 2.5287309357996870 62.1056736158143465 Ba
atom 2.5210137092292038 7.5707583542590395 62.1056736158143963 Ba
atom 7.5630411276885718 7.5553239011180473 62.1056736158141618 Ba
atom 5.0435273142269939 5.0420274184588383 59.6530779176108865 Zr
atom 10.0825549411502813 5.0420274184588818 59.6530779176106662 Zr
atom 5.0405275226909296 10.0840548369182557 59.6530779176108084 Zr
atom 10.0855547326863402 10.0840548369182716 59.6530779176109220 Zr
atom 5.0408271911291420 5.0420274184588516 64.6115458872911859 Zr
atom 10.0852550642481180 5.0420274184588116 64.6115458872913280 Zr
atom 5.0432276457887495 10.0840548369182770 64.6115458872913706 Zr
atom 10.0828546095885212 10.0840548369183161 64.6115458872912001 Zr
atom 4.5324944064658688 5.0420274184587681 57.1732752175516978 S
atom 10.5935878489113460 5.0420274184589413 57.1732752175517476 S
atom 5.5515604304519837 10.0840548369183054 57.1732752175518328 S
atom 9.5745218249252648 10.0840548369182095 57.1732752175518613 S
atom 5.5501732401083679 5.0420274184588756 62.1255916921756821 S
atom 9.5759090152688930 5.0420274184588765 62.1255916921756679 S
atom 4.5338815968094570 10.0840548369182059 62.1255916921758242 S
atom 10.5922006585677533 10.0840548369182841 62.1255916921756821 S
atom 5.0420274184585621 2.5210137092290901 59.6456593938766346 S
atom 10.0840548369186553 2.5210137092291935 59.6456593938764570 S
atom 5.0420274184592904 7.5630411276886278 59.6456593938765280 S
atom 10.0840548369179501 7.5630411276885567 59.6456593938765849 S
atom 5.0420274184592628 2.5210137092291092 64.5941870268756304 S
atom 10.0840548369180141 2.5210137092292282 64.5941870268756873 S
atom 5.0420274184586020 7.5630411276885887 64.5941870268756304 S
atom 10.0840548369186696 7.5630411276884999 64.5941870268757015 S
atom 2.5210137092291696 5.0420274184591634 60.1243474078820270 S
atom 7.5630411276886766 5.0420274184585763 59.1659914149352133 S
atom 2.5210137092292286 10.0840548369180230 59.1659914149354194 S
atom 7.5630411276886447 10.0840548369185008 60.1243474078822828 S
atom 2.5210137092291798 5.0420274184585478 64.1324926557586679 S
atom 7.5630411276887006 5.0420274184591269 65.0678536592780006 S
atom 2.5210137092292637 10.0840548369184866 65.0678536592779722 S
atom 7.5630411276885923 10.0840548369179679 64.1324926557588384 S
atom 2.5210137092292539 2.5487994746967217 66.9982726270296638 Ba
atom 7.5630411276885789 2.4932279437617981 66.9982726270297775 Ba
atom 2.5210137092292118 7.5352553622212133 66.9982726270297917 Ba
atom 7.5630411276886500 7.5908268931560654 66.9982726270298201 Ba
atom 2.5210137092292482 2.3676136869669557 71.6641582333947440 Ba
atom 7.5630411276886571 2.6744137314914882 71.6641582333947724 Ba
atom 2.5210137092292388 7.7164411499508585 71.6641582333948008 Ba
atom 7.5630411276886385 7.4096411054263189 71.6641582333948293 Ba
atom 5.0294616328194834 5.0420274184588774 69.6231508127589365 Zr
atom 10.0966206225577722 5.0420274184588694 69.6231508127588512 Zr
atom 5.0545932040983379 10.0840548369182805 69.6231508127589365 Zr
atom 10.0714890512788990 10.0840548369183178 69.6231508127589507 Zr
atom 4.5687618203439273 5.0420274184589209 67.0811899322712577 S
atom 10.5573204350333256 5.0420274184588711 67.0811899322710161 S
atom 5.5152930165739553 10.0840548369181864 67.0811899322709735 S
atom 9.6107892388032639 10.0840548369182823 67.0811899322713430 S
atom 5.3960233222362790 5.0420274184588276 72.1042671679248173 S
atom 9.7300589331409757 5.0420274184589262 72.1042671679248031 S
atom 4.6880315146815512 10.0840548369183658 72.1042671679248031 S
atom 10.4380507406957186 10.0840548369183036 72.1042671679247746 S
atom 5.0420274184589191 2.5210137092292739 69.4880114711582166 S
atom 10.0840548369183214 2.5210137092290781 69.4880114711582593 S
atom 5.0420274184589520 7.5630411276884937 69.4880114711583161 S
atom 10.0840548369182965 7.5630411276886820 69.4880114711583445 S
atom 2.5210137092293192 5.0420274184589040 69.9382989572506943 S
atom 7.5630411276885576 5.0420274184589076 69.1458514160234188 S
atom 2.5210137092291673 10.0840548369183018 69.1458514160234188 S
atom 7.5630411276887228 10.0840548369183054 69.9382989572508791 S
