#=======================================================
# FHI-aims file: full_relax/full_relax_RP_7_Rx1Ry20_Rx2Ry10.in
# Created using the Atomic Simulation Environment (ASE)
# Mon Mar 24 15:37:35 2025
#=======================================================
lattice_vector 10.0777134200628371 0.0345080470845834 0.0000000000000117 
lattice_vector 0.0345080470845833 10.0777134200628566 0.0000000000000236 
lattice_vector 0.0000000000000915 0.0000000000001835 75.0424889163854516 
atom -0.0180446246219721 -0.1641365644603281 0.2865535220219873 Ba
atom 5.0569013346521521 0.1813905879951185 0.2865535220301529 Ba
atom 0.0352986481765395 5.2029932744945278 0.2865535220001070 Ba
atom 5.0380661089372412 4.8919741691086136 0.2865535219647132 Ba
atom -0.0308553672925121 0.0244801022730797 4.9558287489939685 Ba
atom 5.0697120773207205 -0.0072260787077767 4.9558287489931114 Ba
atom 0.0481093908369220 5.0143766077567387 4.9558287489922765 Ba
atom 5.0252553662732433 5.0805908358211145 4.9558287489943886 Ba
atom 2.5069987561718627 2.5225642930518530 2.3415112649357877 Zr
atom 7.5879686874378214 2.5508004640786073 2.3415112649600753 Zr
atom 2.5663660009416440 7.5724031505490972 2.3415112649112082 Zr
atom 7.5631094897487161 7.5786750266066205 2.3415112649169707 Zr
atom 2.5275640457915300 2.5326952399792479 7.3587030664679691 Zr
atom 7.5674033978285298 2.5406695171370379 7.3587030664060142 Zr
atom 2.5458007113296781 7.5622722036267858 7.3587030663903024 Zr
atom 7.5836747793622648 7.5888059735607598 7.3587030665293405 Zr
atom 2.8086443522228652 2.5750751182145866 -0.1385844022943097 S
atom 7.2863230913877457 2.4982896389202569 -0.1385844022317383 S
atom 2.2647204048921346 7.5198923253929983 -0.1385844022504946 S
atom 7.8647550857998532 7.6311858517715256 -0.1385844023397916 S
atom 2.0754671130052262 2.4272031686739943 4.8864636416037408 S
atom 8.0195003305964914 2.6461615884350329 4.8864636415573619 S
atom 2.9978976441048015 7.6677642749236821 4.8864636416204812 S
atom 7.1315778465731441 7.4833139022502309 4.8864636415894980 S
atom 2.5194283550152372 0.0086270117494635 2.3954909240057676 S
atom 7.5582850650482927 0.0258810353180013 2.5539045023687064 S
atom 2.5366823785600658 5.0474837218262589 2.5539045023569775 S
atom 7.5755390885888136 5.0647377453469895 2.3954909240101525 S
atom 2.5194283550117840 0.0086270117437110 7.5184863675472435 S
atom 7.5582850650403524 0.0258810353467871 7.2269173930306509 S
atom 2.5366823785554624 5.0474837218313029 7.2269173930419557 S
atom 7.5755390885823832 5.0647377452957727 7.5184863675405653 S
atom 0.0086270118004170 2.5194283550125438 2.0523514030912002 S
atom 5.0474837217598099 2.5366823785587460 2.7764466069998499 S
atom 0.0258810352943825 7.5582850650440747 2.7764466070116165 S
atom 5.0647377453497775 7.5755390885892826 2.0523514030999119 S
atom 0.0086270117593164 2.5194283550171930 7.8218900285351411 S
atom 5.0474837217995399 2.5366823785583610 6.9104001938893047 S
atom 0.0258810352674926 7.5582850650469826 6.9104001938762325 S
atom 5.0647377454371449 7.5755390885871243 7.8218900285203610 S
atom 0.0633716411359503 -0.0046976075793874 9.8556710965067413 Ba
atom 4.9754850688886245 0.0219516311270611 9.8556710965092833 Ba
atom -0.0461176176144285 5.0435543176136157 9.8556710965070380 Ba
atom 5.1194823747226312 5.0514131259901465 9.8556710965094219 Ba
atom -0.0710846026751440 0.0038396278514594 14.8038693336816998 Ba
atom 5.1099413127050841 0.0134143956548592 14.8038693336794207 Ba
atom 0.0883386262135765 5.0350170821758971 14.8038693336824831 Ba
atom 4.9850261309056370 5.0599503614560426 14.8038693336795895 Ba
atom 2.5293871167334858 2.5263613942210212 12.3201667713004106 Zr
atom 7.5655803268824888 2.5470033628887405 12.3201667712832137 Zr
atom 2.5439776403907466 7.5686060493831340 12.3201667713391920 Zr
atom 7.5854978503010058 7.5824721277963425 12.3201667713195864 Zr
atom 2.5280553667730166 2.5280553667716501 17.2795204741013428 Zr
atom 7.5669120768228693 2.5453093903399173 17.2795204741049879 Zr
atom 2.5453093903243076 7.5669120768182028 17.2795204741321626 Zr
atom 7.5841661003616023 7.5841661003528777 17.2795204740134061 Zr
atom 3.0151684742609279 2.6759158636444176 9.8453433354978621 S
atom 7.0797989693434520 2.3974488934732112 9.8453433356297655 S
atom 2.0581962828432245 7.4190515799571468 9.8453433355798587 S
atom 8.0712792078211155 7.7320265972116884 9.8453433356002353 S
atom 2.0459854928200794 2.3578680232224531 14.8010675122501638 S
atom 8.0489819507919069 2.7154967338933371 14.8010675121847015 S
atom 3.0273792643017106 7.7370994203806607 14.8010675123230246 S
atom 7.1020962264055525 7.4139787568009359 14.8010675122165871 S
atom 2.5194283550139729 0.0086270117386495 12.1366080707014650 S
atom 7.5582850650521207 0.0258810352971884 12.5126708670910087 S
atom 2.5366823785575572 5.0474837218302762 12.5126708670881452 S
atom 7.5755390885922829 5.0647377453624580 12.1366080707047832 S
atom 2.5194283550110397 0.0086270118494778 17.4795029891916229 S
atom 7.5582850650539388 0.0258810353708450 17.0795379592456342 S
atom 2.5366823785558448 5.0474837217406163 17.0795379592231775 S
atom 7.5755390885969955 5.0647377452738116 17.4795029892124347 S
atom 0.0086270118163926 2.5194283550134431 11.8622538008530523 S
atom 5.0474837217113340 2.5366823785593184 12.7908285491153855 S
atom 0.0258810353002524 7.5582850650445170 12.7908285490939697 S
atom 5.0647377453513762 7.5755390885866234 11.8622538008311622 S
atom 0.0086270117665564 2.5194283550129106 17.7417629507781101 S
atom 5.0474837218216706 2.5366823785550414 16.8172779976293256 S
atom 0.0258810352639189 7.5582850650483646 16.8172779976878850 S
atom 5.0647377453423932 7.5755390885903733 17.7417629508152466 S
atom 0.0710846026991706 -0.0038396278293953 19.7551716146891998 Ba
atom 4.9677721073333423 0.0210936513870425 19.7551716146795080 Ba
atom -0.0538305791227651 5.0426963378597085 19.7551716146897611 Ba
atom 5.1271953362369427 5.0522711057231469 19.7551716146803997 Ba
atom -0.0633716411567301 0.0046976075738163 24.7033698518617868 Ba
atom 5.1022283511885211 0.0125564160011716 24.7033698518533313 Ba
atom 0.0806256646854734 5.0341591024526959 24.7033698518611331 Ba
atom 4.9927390924270059 5.0608083411169291 24.7033698518523508 Ba
atom 2.5267236168514744 2.5297493393527617 22.2388741770334697 Zr
atom 7.5682438267631182 2.5436154177598271 22.2388741770332032 Zr
atom 2.5466411402683193 7.5652181042559450 22.2388741770003513 Zr
atom 7.5828343504068929 7.5858600729235128 22.2388741770438756 Zr
atom 2.5285466878035345 2.5234154935997890 27.2003378820721124 Zr
atom 7.5664207558153729 2.5499492635130903 27.2003378820806141 Zr
atom 2.5448180693247742 7.5715519500106963 27.2003378820840886 Zr
atom 7.5846574213607019 7.5795262271716384 27.2003378821663802 Zr
atom 3.0101252407974348 2.6982427103675679 19.7579734361580286 S
atom 7.0848422028157358 2.3751220467472223 19.7579734361070187 S
atom 2.0632395163259618 7.3967247332398438 19.7579734358300421 S
atom 8.0662359743739422 7.7543534439462922 19.7579734358786254 S
atom 2.0409422592825734 2.3801948699138440 24.7136976128037951 S
atom 8.0540251843368829 2.6931698872053986 24.7136976130570964 S
atom 3.0324224978356074 7.7147725736915813 24.7136976130588373 S
atom 7.0970529928347057 7.4363056034784840 24.7136976131963806 S
atom 2.5194283550191856 0.0086270116504337 22.0463700812680230 S
atom 7.5582850650467508 0.0258810352327880 22.4224328776165684 S
atom 2.5366823785594286 5.0474837219104849 22.4224328776618478 S
atom 7.5755390885873766 5.0647377454287543 22.0463700812245840 S
atom 2.5194283550202581 0.0086270117914061 27.3321235552148352 S
atom 7.5582850650397013 0.0258810353282033 27.0405545807046934 S
atom 2.5366823785638064 5.0474837217736939 27.0405545807099408 S
atom 7.5755390885800420 5.0647377453349760 27.3321235552077617 S
atom 0.0086270117020300 2.5194283550156755 21.7682123992117198 S
atom 5.0474837218283835 2.5366823785539694 22.6967871475001459 S
atom 0.0258810353021327 7.5582850650486906 22.6967871475316905 S
atom 5.0647377453771458 7.5755390885911602 21.7682123992155994 S
atom 0.0086270118767948 2.5194283550147123 27.6486407543776025 S
atom 5.0474837216588107 2.5366823785590120 26.7371509197291779 S
atom 0.0258810353856209 7.5582850650430045 26.7371509196744945 S
atom 5.0647377453061546 7.5755390885887968 27.6486407543152346 S
atom 0.0308553672694073 -0.0244801023165360 29.6032121993791257 Ba
atom 5.0080013427534391 0.0417341258238869 29.6032121993767134 Ba
atom -0.0136013437606945 5.0633368123474520 29.6032121993755872 Ba
atom 5.0869661008726004 5.0316306312898966 29.6032121993782589 Ba
atom 0.0180446246261160 0.1641365644492609 34.2724874261673804 Ba
atom 5.0208120853996698 -0.1468825409204078 34.2724874262374826 Ba
atom -0.0007906010791651 4.8747201455819917 34.2724874261772072 Ba
atom 5.0741553581910974 5.2202472980222003 34.2724874261510166 Ba
atom 2.5491119774352149 2.5335464405208477 32.2175296833651217 Zr
atom 7.5458554662008614 2.5398183165788080 32.2175296833685678 Zr
atom 2.5242527796840331 7.5614210030796860 32.2175296833591958 Zr
atom 7.6052227109772694 7.5896571741098979 32.2175296833188511 Zr
atom 2.9806436205276987 2.6289075648860778 29.6725773070281669 S
atom 7.1143238230869157 2.4444571922366709 29.6725773068114158 S
atom 2.0927211365801988 7.4660598787147592 29.6725773070343877 S
atom 8.0367543540855113 7.6850182984505757 29.6725773069236247 S
atom 2.2474663814100779 2.4810356153777944 34.6976253504567325 S
atom 7.8475010621957431 2.5923291417303145 34.6976253504155991 S
atom 2.8258983757062737 7.6139318282349668 34.6976253504099077 S
atom 7.3035771149827218 7.5371463489676707 34.6976253503146452 S
atom 2.5194283550176286 0.0086270117735674 32.0051364460227035 S
atom 7.5582850650417575 0.0258810353440498 32.1635500244269679 S
atom 2.5366823785537602 5.0474837218001731 32.1635500243747643 S
atom 7.5755390885899034 5.0647377453118256 32.0051364460606962 S
atom 0.0086270116885353 2.5194283550192416 31.7825943414048702 S
atom 5.0474837218088986 2.5366823785590076 32.5066895453092499 S
atom 0.0258810353115689 7.5582850650427611 32.5066895453144014 S
atom 5.0647377454283360 7.5755390885929312 31.7825943414254155 S
atom 2.3639188023197857 2.5100107421666911 37.8077979805089512 Ba
atom 7.7310486412802391 2.5633540149568081 37.8077979805218263 Ba
atom 2.7094459547905294 7.5849567014359813 37.8077979805212934 Ba
atom 7.4200295359023265 7.5661214757319071 37.8077979805583482 Ba
atom 2.5525354690576432 2.4971999995281307 42.4770732071274182 Ba
atom 7.5424319745429464 2.5761647576478142 42.4770732071281643 Ba
atom 2.5208292880276648 7.5977674440846048 42.4770732071264945 Ba
atom 7.6086462026547617 7.5533107330514095 42.4770732071257768 Ba
atom 5.0506196598267943 5.0350541229337171 39.8627557230844687 Zr
atom 10.1004585173423997 5.0944213677320072 39.8627557230053498 Zr
atom 5.0788558308498226 10.1160240542297846 39.8627557229532670 Zr
atom 10.1067303934105439 10.0911648565267829 39.8627557230385037 Zr
atom 5.0607506067579946 5.0556194125452256 44.8799475242970516 Zr
atom 10.0903275704237068 5.0738560781305670 44.8799475243914827 Zr
atom 5.0687248839157251 10.0954587645737153 44.8799475246301185 Zr
atom 10.1168613403358592 10.1117301461137501 44.8799475244139998 Zr
atom 5.1031304849697303 5.3366997189310430 37.3826600561300424 S
atom 10.0479476922059856 4.7927757717611525 37.3826600560510300 S
atom 5.0263450057104482 9.8143784582447697 37.3826600558099855 S
atom 10.1592412185493206 10.3928104525067830 37.3826600560353484 S
atom 4.9552585354607501 4.6035224798094729 42.4077080992128188 S
atom 10.1958196417120526 5.5259530108720840 42.4077080997038607 S
atom 5.1742169552270747 10.5475556973855724 42.4077080997579969 S
atom 10.0113692690339366 9.6596332133764804 42.4077080994306783 S
atom 5.0474837218043813 2.5366823784654704 39.5735958613283714 S
atom 10.0863404318331131 2.5539364021332043 40.2976910652489337 S
atom 5.0647377453415059 7.5755390886304790 40.2976910652806097 S
atom 10.1035944553726473 7.5927931120824717 39.5735958612954306 S
atom 5.0474837218081738 2.5366823787018111 45.3431344868884878 S
atom 10.0863404318339391 2.5539364021351036 44.4316446522362298 S
atom 5.0647377453540319 7.5755390884487168 44.4316446522453461 S
atom 10.1035944553802892 7.5927931121603027 45.3431344868752575 S
atom 2.5366823784753465 5.0474837218013242 39.9167353822315860 S
atom 7.5755390886719693 5.0647377453423825 40.0751489605967777 S
atom 2.5539364021301463 10.0863404318373160 40.0751489606126725 S
atom 7.5927931120885539 10.1035944553803549 39.9167353822444042 S
atom 2.5366823785433126 5.0474837218064366 45.0397308258831401 S
atom 7.5755390885894105 5.0647377453543152 44.7481618513886730 S
atom 2.5539364020818707 10.0863404318429737 44.7481618513582902 S
atom 7.5927931121561558 10.1035944553795325 45.0397308258520468 S
atom 2.5233577592606702 2.5914270079288149 47.3769155547096972 Ba
atom 7.5716096843338043 2.4819377491530799 47.3769155547090577 Ba
atom 2.5500069978361317 7.5035404356727424 47.3769155547075655 Ba
atom 7.5794684928387293 7.6475377415347001 47.3769155547067555 Ba
atom 2.5318949946462448 2.4569707640937728 52.3251137919060625 Ba
atom 7.5630724489555154 2.6163939929977449 52.3251137919005629 Ba
atom 2.5414697624898608 7.6379966795193832 52.3251137919031351 Ba
atom 7.5880057281899065 7.5130814976982903 52.3251137919056220 Ba
atom 5.0544167610100263 5.0574424834934515 49.8414112296754226 Zr
atom 10.0966614161692334 5.0720330071538440 49.8414112295334775 Zr
atom 5.0750587296832830 10.0936356936880873 49.8414112296164262 Zr
atom 10.1105274945804187 10.1135532170350100 49.8414112296632581 Zr
atom 5.0561107335805060 5.0561107335825106 54.8007649326333777 Zr
atom 10.0949674435699155 5.0733647571082443 54.8007649328183675 Zr
atom 5.0733647571015519 10.0949674436273078 54.8007649325584367 Zr
atom 10.1122214671447530 10.1122214671756829 54.8007649324876240 Zr
atom 5.2039712304765935 5.5432238411406614 47.3665877936084101 S
atom 9.9471069467136903 4.5862516495438284 47.3665877936713429 S
atom 4.9255042602366261 9.6078543360713464 47.3665877935848911 S
atom 10.2600819640374077 10.5993345746842405 47.3665877935422941 S
atom 4.8859233899918317 4.5740408595790809 52.3223119710745976 S
atom 10.2651547871994619 5.5554346311594092 52.3223119704013939 S
atom 5.2435521006881531 10.5770373176071519 52.3223119703937343 S
atom 9.9420341235754091 9.6301515931613118 52.3223119709420459 S
atom 5.0474837218108677 2.5366823785680168 49.3834982589300324 S
atom 10.0863404318365770 2.5539364019917015 50.3120730072518683 S
atom 5.0647377453488511 7.5755390885592027 50.3120730072406985 S
atom 10.1035944553758696 7.5927931123991792 49.3834982589469789 S
atom 5.0474837217947019 2.5366823784294623 55.2630074087958576 S
atom 10.0863404318290968 2.5539364019003465 54.3385224556489632 S
atom 5.0647377453313345 7.5755390886365470 54.3385224556428881 S
atom 10.1035944553682455 7.5927931120695975 55.2630074088024017 S
atom 2.5366823787119297 5.0474837218015303 49.6578525288267372 S
atom 7.5755390884336880 5.0647377453498610 50.0339153252186222 S
atom 2.5539364020630586 10.0863404318337260 50.0339153252378210 S
atom 7.5927931121744647 10.1035944553728783 49.6578525288426107 S
atom 2.5366823785338086 5.0474837218112985 55.0007474472442723 S
atom 7.5755390886149145 5.0647377453583928 54.6007824172622591 S
atom 2.5539364021610607 10.0863404318459722 54.6007824172484106 S
atom 7.5927931120651868 10.1035944553851813 55.0007474472324915 S
atom 2.5242157388641178 2.5991399694534310 57.2764160728442775 Ba
atom 7.5707517047486670 2.4742247876770960 57.2764160728459046 Ba
atom 2.5491490182711254 7.4958274741417430 57.2764160728474039 Ba
atom 7.5803264724331347 7.6552507030019825 57.2764160728516529 Ba
atom 2.5327529743496657 2.4646837256536638 62.2246143100349371 Ba
atom 7.5622144692497377 2.6086810314891267 62.2246143100370759 Ba
atom 2.5406117827457515 7.6302837179455505 62.2246143100368769 Ba
atom 7.5888637079482173 7.5207944591949181 62.2246143100375875 Ba
atom 5.0578047061552560 5.0547789837242583 59.7601186348460089 Zr
atom 10.0932734710534167 5.0746965070582251 59.7601186352876041 Zr
atom 5.0716707845567761 10.0962991935130013 59.7601186351686025 Zr
atom 10.1139154397212732 10.1108897172633636 59.7601186349015876 Zr
atom 5.0514708603398955 5.0566020545729140 64.7215823396201984 Zr
atom 10.0996073168194620 5.0728734361280212 64.7215823397092009 Zr
atom 5.0780046303233988 10.0944761226569515 64.7215823399887427 Zr
atom 10.1075815939345830 10.1127127881270606 64.7215823398850603 Zr
atom 5.2262980770886873 5.5381806074489521 57.2792178945544990 S
atom 9.9247801000772196 4.5912948832369160 57.2792178942542591 S
atom 4.9031774135734860 9.6128975696933541 57.2792178944335220 S
atom 10.2824088106758484 10.5942913410569624 57.2792178947512767 S
atom 4.9082502367247551 4.5689976261372696 62.2349420710067776 S
atom 10.2428279404310505 5.5604778645308421 62.2349420706917940 S
atom 5.2212252539629667 10.5820805510981426 62.2349420706875662 S
atom 9.9643609702900964 9.6251083596578368 62.2349420706313978 S
atom 5.0474837217986357 2.5366823787748132 59.2894568575447636 S
atom 10.0863404318281393 2.5539364022849513 60.2180316057849865 S
atom 5.0647377453486078 7.5755390883734579 60.2180316057722820 S
atom 10.1035944553810655 7.5927931119833172 59.2894568575727305 S
atom 5.0474837218026742 2.5366823783302754 65.1698852127286301 S
atom 10.0863404318265601 2.5539364020561175 64.2583953781063997 S
atom 5.0647377453396940 7.5755390884851366 64.2583953780952015 S
atom 10.1035944553656343 7.5927931122743031 65.1698852127587855 S
atom 2.5366823784829098 5.0474837217989208 59.5676145395309646 S
atom 7.5755390886521647 5.0647377453471663 59.9436773359156945 S
atom 2.5539364021477211 10.0863404318331984 59.9436773359135557 S
atom 7.5927931120806420 10.1035944553704375 59.5676145395375016 S
atom 2.5366823785611787 5.0474837218045758 64.8533680135604556 S
atom 7.5755390886020111 5.0647377453511391 64.5617990390610998 S
atom 2.5539364019989459 10.0863404318460077 64.5617990390649652 S
atom 7.5927931122236920 10.1035944553816037 64.8533680135684705 S
atom 2.5035752645803457 2.5589107340669655 67.1244566576578308 Ba
atom 7.5913921790217147 2.5144540229996624 67.1244566576573050 Ba
atom 2.5697894925254743 7.5360567095418922 67.1244566576598487 Ba
atom 7.5596859981592894 7.6150214676945387 67.1244566576585555 Ba
atom 2.6921919312361120 2.5460999913974622 71.7937318842100893 Ba
atom 7.4027755123707264 2.5272647656980798 71.7937318841820229 Ba
atom 2.3811728258933167 7.5488674522042976 71.7937318842051582 Ba
atom 7.7483026647942479 7.6022107249886881 71.7937318842158589 Ba
atom 5.0616018073117086 5.0771673442154936 69.7387741418994977 Zr
atom 10.0894763698634602 5.0523081464899509 69.7387741418880864 Zr
atom 5.0678736833778695 10.0739108330014666 69.7387741418905875 Zr
atom 10.1177125408838258 10.1332780777708695 69.7387741418300351 Zr
atom 5.1569629317245473 5.5086989874987689 67.1938217651804308 S
atom 9.9941152454596303 4.6207765032337393 67.1938217647385869 S
atom 4.9725125589816050 9.6423791897837976 67.1938217647746399 S
atom 10.2130736652908087 10.5648097210122298 67.1938217653066374 S
atom 5.0090909821502478 4.7755217481451240 72.2188698095592514 S
atom 10.1419871950171405 5.3539537425358841 72.2188698095103092 S
atom 5.1203845085251443 10.3755564290218043 72.2188698092914763 S
atom 10.0652017157257703 9.8316324817149336 72.2188698093635679 S
atom 5.0474837217982937 2.5366823784083996 69.3038387992894087 S
atom 10.0863404318300631 2.5539364022185564 70.0279340033290509 S
atom 5.0647377453468696 7.5755390886311229 70.0279340033329731 S
atom 10.1035944553731198 7.5927931120470706 69.3038387992910572 S
atom 2.5366823785559705 5.0474837218167918 69.5263809039869614 S
atom 7.5755390886031577 5.0647377453617990 69.6847944823635714 S
atom 2.5539364021380373 10.0863404318523724 69.6847944823861951 S
atom 7.5927931121048715 10.1035944553911943 69.5263809040153689 S
