#=======================================================
# FHI-aims file: full_relax/full_relax_RP_3_00Rz1_00Rz2.in
# Created using the Atomic Simulation Environment (ASE)
# Fri Mar 14 11:19:08 2025
#=======================================================
lattice_vector 9.9102542019520978 -0.0000000000000002 -0.0000000000000001 
lattice_vector -0.0000000000000002 9.9102542019520978 -0.0000000000000036 
lattice_vector -0.0000000000000003 -0.0000000000000127 36.4536063044612177 
atom -0.0000000000004381 -0.0000000000004934 0.1681523265090762 Ba
atom 4.9551271009755951 -0.0000000000005187 0.1681523265089922 Ba
atom -0.0000000000003924 4.9551271009758091 0.1681523265088404 Ba
atom 4.9551271009756581 4.9551271009756981 0.1681523265090281 Ba
atom -0.0000000000003306 -0.0000000000003402 5.0644003069356502 Ba
atom 4.9551271009756306 -0.0000000000003644 5.0644003069357506 Ba
atom -0.0000000000003875 4.9551271009756306 5.0644003069357018 Ba
atom 4.9551271009756395 4.9551271009757185 5.0644003069355827 Ba
atom 2.4775635504876070 2.4775635504876767 2.4502730311082765 Zr
atom 7.4326906514635747 2.4775635504876448 2.4502730311086904 Zr
atom 2.4775635504876536 7.4326906514635258 2.4502730311084240 Zr
atom 7.4326906514636466 7.4326906514635489 2.4502730311080922 Zr
atom 2.4775635504876088 2.4775635504877087 7.5945013134310244 Zr
atom 7.4326906514637026 2.4775635504875408 7.5945013134306665 Zr
atom 2.4775635504876035 7.4326906514637052 7.5945013134307571 Zr
atom 7.4326906514635382 7.4326906514635738 7.5945013134306558 Zr
atom 2.4775635504876687 2.4775635504876838 -0.0969219215056086 S
atom 7.4326906514635924 2.4775635504876430 -0.0969219215056693 S
atom 2.4775635504875546 7.4326906514635214 -0.0969219215057018 S
atom 7.4326906514637212 7.4326906514634707 -0.0969219215056921 S
atom 2.4775635504875946 2.4775635504876479 5.0437092245467641 S
atom 7.4326906514636368 2.4775635504875750 5.0437092245466886 S
atom 2.4775635504877398 7.4326906514635898 5.0437092245465536 S
atom 7.4326906514635240 7.4326906514636431 5.0437092245467365 S
atom 2.0542860094688682 -0.0000000000002781 2.5328499778702231 S
atom 7.8559681924823446 -0.0000000000004910 2.5328499778701001 S
atom 2.9008410915063578 4.9551271009756279 2.5328499778700819 S
atom 7.0094131104448847 4.9551271009760098 2.5328499778700380 S
atom 3.0118302494594951 -0.0000000000005025 7.5945013134302908 S
atom 6.8984239524918429 -0.0000000000002209 7.5945013134303245 S
atom 1.9432968515157805 4.9551271009755409 7.5945013134302553 S
atom 7.9669573504354929 4.9551271009756768 7.5945013134302561 S
atom -0.0000000000004455 2.9008410915063574 2.5328499778701321 S
atom 4.9551271009760027 2.0542860094687811 2.5328499778702294 S
atom -0.0000000000003417 7.0094131104448660 2.5328499778701872 S
atom 4.9551271009756679 7.8559681924823366 2.5328499778701015 S
atom -0.0000000000004422 1.9432968515157902 7.5945013134303609 S
atom 4.9551271009756830 3.0118302494595723 7.5945013134302153 S
atom -0.0000000000002548 7.9669573504355187 7.5945013134301753 S
atom 4.9551271009759770 6.8984239524917479 7.5945013134304089 S
atom -0.0000000000002703 -0.0000000000003906 10.1246023199255255 Ba
atom 4.9551271009756377 -0.0000000000001575 10.1246023199255379 Ba
atom -0.0000000000003389 4.9551271009757274 10.1246023199254864 Ba
atom 4.9551271009756608 4.9551271009755729 10.1246023199256623 Ba
atom -0.0000000000003805 -0.0000000000004489 15.0208503003518015 Ba
atom 4.9551271009756235 -0.0000000000005166 15.0208503003519471 Ba
atom -0.0000000000003830 4.9551271009755284 15.0208503003518530 Ba
atom 4.9551271009755382 4.9551271009755196 15.0208503003516967 Ba
atom 2.4775635504874605 2.4775635504875022 12.7387295957528206 Zr
atom 7.4326906514636066 2.4775635504875906 12.7387295957527087 Zr
atom 2.4775635504875773 7.4326906514635258 12.7387295957528384 Zr
atom 7.4326906514635462 7.4326906514636688 12.7387295957529041 Zr
atom 2.4775635504877425 2.4775635504875191 10.1452934023148327 S
atom 7.4326906514635036 2.4775635504875995 10.1452934023149464 S
atom 2.4775635504874587 7.4326906514636759 10.1452934023146994 S
atom 7.4326906514637594 7.4326906514636510 10.1452934023152643 S
atom 2.4775635504875049 2.4775635504876550 15.2859245483665305 S
atom 7.4326906514637949 2.4775635504876270 15.2859245483666619 S
atom 2.4775635504878579 7.4326906514635409 15.2859245483665340 S
atom 7.4326906514634405 7.4326906514636812 15.2859245483667987 S
atom 2.0542860094688313 -0.0000000000002413 12.6561526489909415 S
atom 7.8559681924823783 -0.0000000000003332 12.6561526489907461 S
atom 2.9008410915064369 4.9551271009760613 12.6561526489908953 S
atom 7.0094131104448412 4.9551271009755711 12.6561526489909184 S
atom -0.0000000000000638 2.9008410915063689 12.6561526489907319 S
atom 4.9551271009756732 2.0542860094687589 12.6561526489909557 S
atom -0.0000000000002795 7.0094131104448385 12.6561526489910623 S
atom 4.9551271009757967 7.8559681924823543 12.6561526489906910 S
atom 2.4775635504876652 2.4775635504875453 18.3949644240380792 Ba
atom 7.4326906514636892 2.4775635504875182 18.3949644240380401 Ba
atom 2.4775635504876838 7.4326906514636901 18.3949644240380366 Ba
atom 7.4326906514637638 7.4326906514637212 18.3949644240380081 Ba
atom 2.4775635504874556 2.4775635504875635 23.2912120124163948 Ba
atom 7.4326906514636475 2.4775635504875018 23.2912120124164019 Ba
atom 2.4775635504877234 7.4326906514634850 23.2912120124163309 Ba
atom 7.4326906514634743 7.4326906514635720 23.2912120124160786 Ba
atom 4.9551271009753979 4.9551271009753615 20.6770738065130359 Zr
atom 9.9102542019515951 4.9551271009753366 20.6770738065130786 Zr
atom 4.9551271009754778 9.9102542019514299 20.6770738065130644 Zr
atom 9.9102542019512807 9.9102542019514495 20.6770738065128867 Zr
atom 4.9551271009755675 4.9551271009750613 25.8213044656603934 Zr
atom 9.9102542019508864 4.9551271009752531 25.8213044656603863 Zr
atom 4.9551271009749644 9.9102542019513429 25.8213044656608126 Zr
atom 9.9102542019516413 9.9102542019510285 25.8213044656607451 Zr
atom 4.9551271009756697 4.9551271009753535 18.1298831296143703 S
atom 9.9102542019515525 4.9551271009757079 18.1298831296142922 S
atom 4.9551271009754156 9.9102542019517070 18.1298831296144769 S
atom 9.9102542019516555 9.9102542019513944 18.1298831296146155 S
atom 4.9551271009754210 4.9551271009754760 23.2705162172629727 S
atom 9.9102542019515063 4.9551271009752620 23.2705162172624895 S
atom 4.9551271009754254 9.9102542019513944 23.2705162172619886 S
atom 9.9102542019513784 9.9102542019514743 23.2705162172620490 S
atom 4.5318695206104254 2.4775635504879849 20.7596552422486020 S
atom 10.3335117823167693 2.4775635504879649 20.7596552422485594 S
atom 5.3783846813406786 7.4326906514634627 20.7596552422483178 S
atom 9.4869966215863553 7.4326906514636653 20.7596552422485559 S
atom 5.4894124800395891 2.4775635504884734 25.8213044656612176 S
atom 9.3759688228871099 2.4775635504887270 25.8213044656614485 S
atom 4.4208417219108762 7.4326906514642923 25.8213044656612070 S
atom 10.4445395810157677 7.4326906514642674 25.8213044656612958 S
atom 2.4775635504878664 5.3783846813406093 20.7596552422485310 S
atom 7.4326906514637781 4.5318695206102850 20.7596552422485949 S
atom 2.4775635504880871 9.4869966215863215 20.7596552422489786 S
atom 7.4326906514640179 10.3335117823167355 20.7596552422487157 S
atom 2.4775635504884597 4.4208417219108478 25.8213044656612176 S
atom 7.4326906514643598 5.4894124800396975 25.8213044656609938 S
atom 2.4775635504884401 10.4445395810157091 25.8213044656615054 S
atom 7.4326906514643065 9.3759688228867564 25.8213044656615658 S
atom 2.4775635504875617 2.4775635504875853 28.3513969189062323 Ba
atom 7.4326906514635791 2.4775635504876665 28.3513969189059623 Ba
atom 2.4775635504876035 7.4326906514635054 28.3513969189060369 Ba
atom 7.4326906514635960 7.4326906514635054 28.3513969189062145 Ba
atom 2.4775635504874107 2.4775635504873081 33.2476445072837805 Ba
atom 7.4326906514638100 2.4775635504872144 33.2476445072837876 Ba
atom 2.4775635504875653 7.4326906514639104 33.2476445072838445 Ba
atom 7.4326906514636955 7.4326906514637789 33.2476445072840363 Ba
atom 4.9551271009752549 4.9551271009753721 30.9655351248083122 Zr
atom 9.9102542019514015 4.9551271009753872 30.9655351248087030 Zr
atom 4.9551271009753899 9.9102542019514370 30.9655351248096622 Zr
atom 9.9102542019513624 9.9102542019515614 30.9655351248102129 Zr
atom 4.9551271009754441 4.9551271009753961 28.3720927140606598 S
atom 9.9102542019514512 4.9551271009755133 28.3720927140603756 S
atom 4.9551271009754245 9.9102542019513074 28.3720927140601020 S
atom 9.9102542019516111 9.9102542019512452 28.3720927140597823 S
atom 4.9551271009754938 4.9551271009754769 33.5127258017103742 S
atom 9.9102542019517195 4.9551271009755151 33.5127258017097418 S
atom 4.9551271009756164 9.9102542019516981 33.5127258017086334 S
atom 9.9102542019515880 9.9102542019515010 33.5127258017084060 S
atom 4.5318695206104058 2.4775635504879787 30.8829536890732896 S
atom 10.3335117823167160 2.4775635504877731 30.8829536890733358 S
atom 5.3783846813405090 7.4326906514637994 30.8829536890729983 S
atom 9.4869966215865169 7.4326906514637878 30.8829536890731760 S
atom 2.4775635504880382 5.3783846813407106 30.8829536890730196 S
atom 7.4326906514638935 4.5318695206101252 30.8829536890729806 S
atom 2.4775635504878388 9.4869966215862043 30.8829536890734069 S
atom 7.4326906514638882 10.3335117823168048 30.8829536890736165 S
