#=======================================================
# FHI-aims file: full_relax/full_relax_RP_8_Rx0Mz_0-RyMz.in
# Created using the Atomic Simulation Environment (ASE)
# Mon Mar 24 16:02:52 2025
#=======================================================
lattice_vector 10.0109589500744534 0.0712144224145652 -0.0000000000000002 
lattice_vector 0.0712144224145650 10.0109589500753344 0.0000000000000231 
lattice_vector -0.0000000000000003 0.0000000000001992 85.9341741038013538 
atom 0.1365769192698296 0.1714861444607258 0.2120023373281385 Ba
atom 5.1769905626850408 0.1721752790798288 0.2119841065644120 Ba
atom 0.2071182988597183 5.1420475429020653 0.2119841065791239 Ba
atom 5.1776636055118326 5.2125728306958878 0.2120023373188076 Ba
atom -0.2673887027339241 -0.1903125501564298 5.0047706382854971 Ba
atom 4.8150321525214901 -0.2316400177335855 5.0047096609970012 Ba
atom -0.1548401112880076 4.7382322460935038 5.0047096609983095 Ba
atom 4.7736979834916164 4.8507741360828733 5.0047706382833761 Ba
atom 2.5290069054751325 2.5367891603460726 2.3957996719359205 Zr
atom 7.5422787647696019 2.5646048981309582 2.3958047285370432 Zr
atom 2.5724065009563777 7.5344771619600639 2.3958047285685793 Zr
atom 7.5700935917027490 7.5778758465822147 2.3957996719146188 Zr
atom 2.5149302056759382 2.5101734652229930 7.4492956432735307 Zr
atom 7.5154131170361680 2.5507814780214844 7.4492997123815599 Zr
atom 2.5455408532064721 7.5206537418467079 7.4492997123720226 Zr
atom 7.5560168919106019 7.5512601514649393 7.4492956433425173 Zr
atom 2.2684347416582713 2.6952608718739093 -0.1109996318752326 S
atom 7.7007661607943154 2.3040365851944937 -0.1109931908529146 S
atom 2.7308938969600054 7.2739088490298718 -0.1109931908655458 S
atom 7.3095214279123590 7.7363475581202987 -0.1109996318555185 S
atom 2.8252385484403666 2.2677715359600308 4.9563279924671972 S
atom 7.2731330497110322 2.8609908194280926 4.9563133756441191 S
atom 2.3032607858761569 7.8308630832617689 4.9563133756127868 S
atom 7.8663252346816162 7.3088582222049840 4.9563279924444466 S
atom 2.7928064263154706 0.0165545077411900 2.2228107130666142 S
atom 7.1784660111830494 0.0491783745422119 2.7754132268403535 S
atom 2.2085937473477255 5.0190506384046927 2.7754132268404672 S
atom 7.8338931125609150 5.0576411940255159 2.2228107130710182 S
atom 2.8939896211572740 0.0169209155650810 7.7828548806346305 S
atom 7.1227981114512353 0.0493370401215101 7.1590786446054144 S
atom 2.1529258476151094 5.0192093039338781 7.1590786446020873 S
atom 7.9350763073955219 5.0580076017907771 7.7828548806304472 S
atom 0.0135679732042696 2.1729659405593140 2.7754227812400667 S
atom 5.0220314200507916 2.8283681374833733 2.2228241537609090 S
atom 0.0521591561751380 7.7982404013136524 2.2228241537627866 S
atom 5.0546546594897501 7.2140526268112275 2.7754227812402115 S
atom 0.0134877744848240 2.1175435875514492 7.1590746201528779 S
atom 5.0221496617122359 2.9298550753473260 7.7828589708419598 S
atom 0.0522773978256670 7.8997273391809699 7.7828589708456182 S
atom 5.0545744607909509 7.1586302737990133 7.1590746201551045 S
atom 0.2831512678690868 0.1830254606295888 9.9772176027911588 Ba
atom 5.1881332912088176 0.3191311459442561 9.9772506798830296 Ba
atom 0.2182610273753111 5.2890034097871865 9.9772506798790701 Ba
atom 5.3242379541175078 5.2241121468903335 9.9772176027960295 Ba
atom -0.2842838493076531 -0.1813604698392045 14.9793573717577733 Ba
atom 4.8236054099887538 -0.2481424772011914 14.9793536867956565 Ba
atom -0.1462668538524645 4.7217297866621699 14.9793536867973707 Ba
atom 4.7568028369496638 4.8597262164424064 14.9793573717595478 Ba
atom 2.5221900849233796 2.5254873410776697 12.4653025647035705 Zr
atom 7.5304846509373480 2.5582962037503409 12.4653015135283081 Zr
atom 2.5606123871347832 7.5281684675853633 12.4653015135473684 Zr
atom 7.5632767711451923 7.5665740273220239 12.4653025647464162 Zr
atom 2.5200161870896118 2.5198396814873725 17.4785816121656836 Zr
atom 7.5247846677324182 2.5561656706677365 17.4785841262185357 Zr
atom 2.5549124039241167 7.5260379344955028 17.4785841261746135 Zr
atom 7.5611028733137520 7.5609263677218213 17.4785816121417419 Zr
atom 2.1908549800957449 2.7853266214555754 9.9679852835403491 S
atom 7.7904223488843822 2.2268315149702445 9.9680103498779431 S
atom 2.8205500850520213 7.1967037787952206 9.9680103499048425 S
atom 7.2319416663386349 7.8264133077045450 9.9679852834231113 S
atom 2.8530349161561648 2.2537632932017297 14.9764709882986669 S
atom 7.2587557320868932 2.8891667569097330 14.9764725415044548 S
atom 2.2888834682552108 7.8590390207497167 14.9764725414750561 S
atom 7.8941216024148142 7.2948499794398458 14.9764709883253904 S
atom 2.8872250730372584 0.0207826408439862 12.1578040521364805 S
atom 7.1241443949464172 0.0536145772384590 12.7977998390259273 S
atom 2.1542721311148738 5.0234868409669531 12.7977998390189605 S
atom 7.9283117592914376 5.0618693269898545 12.1578040521341908 S
atom 2.8859996905025849 0.0192844292697181 17.8037073098461107 S
atom 7.1246287167188482 0.0521358733392106 17.1601057808686406 S
atom 2.1547564528841501 5.0220081370645593 17.1601057808667790 S
atom 7.9270863767515252 5.0603711154143722 17.8037073098478871 S
atom 0.0175335926275605 2.1191595854654577 12.7978052513300202 S
atom 5.0257906841964131 2.9232917643944538 12.1578398205456910 S
atom 0.0559184204428664 7.8931640282384885 12.1578398205386122 S
atom 5.0586202787944732 7.1602462716986555 12.7978052513330791 S
atom 0.0160025810482679 2.1196759295227032 17.1600997801282169 S
atom 5.0242391969195381 2.9221418109212123 17.8036751147942169 S
atom 0.0543669331085598 7.8920140747665393 17.8036751148040189 S
atom 5.0570892672732555 7.1607626157599746 17.1600997801266431 S
atom 0.2844837608348822 0.1817892883171441 19.9846916520720264 Ba
atom 5.1867658395548917 0.3206300057076069 19.9846916520727724 Ba
atom 0.2168935757065155 5.2905022695481696 19.9846916520705058 Ba
atom 5.3255704470955179 5.2228759745768842 19.9846916520706230 Ba
atom -0.2842838493170776 -0.1813604698276163 24.9900259323115357 Ba
atom 4.8236054099988790 -0.2481424771966667 24.9900296172768961 Ba
atom -0.1462668538568773 4.7217297866514176 24.9900296172716985 Ba
atom 4.7568028369525539 4.8597262164382560 24.9900259323139977 Ba
atom 2.5200161870664202 2.5198396814962480 22.4908016920103115 Zr
atom 7.5247846677518453 2.5561656706441949 22.4907991779675100 Zr
atom 2.5549124039374549 7.5260379344792421 22.4907991779663945 Zr
atom 7.5611028732988572 7.5609263677442629 22.4908016920293647 Zr
atom 2.5221900849080199 2.5254873410790046 27.5040807394150839 Zr
atom 7.5304846509418670 2.5582962037402770 27.5040817905204023 Zr
atom 2.5606123871467328 7.5281684675852780 27.5040817905114032 Zr
atom 7.5632767711226290 7.5665740273359168 27.5040807393816955 Zr
atom 2.1869902248677699 2.7887453340881918 19.9846916519338791 S
atom 7.7937184945509665 2.2230888959406183 19.9846916518622564 S
atom 2.8238462307145857 7.1929611597678171 19.9846916519575437 S
atom 7.2280769111047425 7.8298320203392349 19.9846916519177960 S
atom 2.8530349161592774 2.2537632931985008 24.9929123158072883 S
atom 7.2587557320862039 2.8891667569137844 24.9929107627647049 S
atom 2.2888834682570045 7.8590390207444552 24.9929107627004043 S
atom 7.8941216024208396 7.2948499794367390 24.9929123158191473 S
atom 2.8859996905081839 0.0192844292511722 22.1656759942288772 S
atom 7.1246287167061499 0.0521358732843283 22.8092775232352523 S
atom 2.1547564528840213 5.0220081370850620 22.8092775232295430 S
atom 7.9270863767670301 5.0603711154682722 22.1656759942213597 S
atom 2.8872250730319271 0.0207826407600291 27.8115792519414526 S
atom 7.1241443949516281 0.0536145773036149 27.1715834650645895 S
atom 2.1542721311172945 5.0234868410502065 27.1715834650667851 S
atom 7.9283117592888539 5.0618693269221531 27.8115792519450409 S
atom 0.0160025811184405 2.1196759295163448 22.8092835239744858 S
atom 5.0242391968512683 2.9221418109336446 22.1657081892757972 S
atom 0.0543669331427168 7.8920140747721117 22.1657081892702799 S
atom 5.0570892672390251 7.1607626157541304 22.8092835239707732 S
atom 0.0175335925437563 2.1191595854641738 27.1715780527591342 S
atom 5.0257906842850408 2.9232917643981149 27.8115434835338640 S
atom 0.0559184205064191 7.8931640282370559 27.8115434835388733 S
atom 5.0586202787342023 7.1602462716990294 27.1715780527540218 S
atom 0.2831512678739005 0.1830254606436625 29.9921657012992746 Ba
atom 5.1881332912136049 0.3191311459433996 29.9921326242107256 Ba
atom 0.2182610273678209 5.2890034097785472 29.9921326242080752 Ba
atom 5.3242379541304272 5.2241121468955036 29.9921657012946774 Ba
atom -0.2673887027429540 -0.1903125501358845 34.9646126657575209 Ba
atom 4.8150321525420683 -0.2316400177233255 34.9646736430509293 Ba
atom -0.1548401112952482 4.7382322460814805 34.9646736430328886 Ba
atom 4.7736979835103801 4.8507741360823653 34.9646126657524476 Ba
atom 2.5149302056967291 2.5101734651840082 32.5200876605371221 Zr
atom 7.5154131170002865 2.5507814780347529 32.5200835915817379 Zr
atom 2.5455408531885824 7.5206537418922847 32.5200835915574444 Zr
atom 7.5560168919192110 7.5512601514646018 32.5200876604661389 Zr
atom 2.5290069055065425 2.5367891602764971 37.5735836322767440 Zr
atom 7.5422787647373442 2.5646048980282501 37.5735785756522063 Zr
atom 2.5724065009676145 7.5344771619947579 37.5735785756932330 Zr
atom 7.5700935916989778 7.5778758466587686 37.5735836322884111 Zr
atom 2.1908549800939601 2.7853266214567500 30.0013980205741753 S
atom 7.7904223488789075 2.2268315149794065 30.0013729541611376 S
atom 2.8205500850402125 7.1967037788061816 30.0013729542415675 S
atom 7.2319416663370673 7.8264133076981874 30.0013980206417372 S
atom 2.8252385484395997 2.2677715359576625 35.0130553119610255 S
atom 7.2731330497027447 2.8609908194498321 35.0130699285647040 S
atom 2.3032607858677041 7.8308630832570980 35.0130699285232012 S
atom 7.8663252346927086 7.3088582221885519 35.0130553120267081 S
atom 2.8939896211451734 0.0169209154532626 32.1865284234783999 S
atom 7.1227981114409795 0.0493370401599404 32.8103046595195806 S
atom 2.1529258476109017 5.0192093040491699 32.8103046595228633 S
atom 7.9350763074043131 5.0580076017498135 32.1865284234718345 S
atom 2.7928064263084917 0.0165545079413880 37.7465725909759158 S
atom 7.1784660111925396 0.0491783743247848 37.1939700772429163 S
atom 2.2085937473433059 5.0190506382442877 37.1939700772307447 S
atom 7.8338931125680586 5.0576411942774477 37.7465725909757310 S
atom 0.0134877744700665 2.1175435875422508 32.8103086839738793 S
atom 5.0221496617331010 2.9298550753561865 32.1865243332632289 S
atom 0.0522773979660304 7.8997273391792326 32.1865243332649555 S
atom 5.0545744606484240 7.1586302737857030 32.8103086839700211 S
atom 0.0135679734088018 2.1729659405758306 37.1939605228302312 S
atom 5.0220314198311984 2.8283681374768110 37.7465591502867852 S
atom 0.0521591559621996 7.7982404012781243 37.7465591502776761 S
atom 5.0546546596793442 7.2140526268073906 37.1939605228355177 S
atom 0.1365769192635291 0.1714861444695232 39.7573809668305458 Ba
atom 5.1769905626984780 0.1721752790789945 39.7573991976114698 Ba
atom 0.2071182988769911 5.1420475429038870 39.7573991976319334 Ba
atom 5.1776636054989149 5.2125728307111450 39.7573809668346598 Ba
atom 2.2684347416723405 2.6952608718706137 40.0803829357287213 S
atom 7.7007661607940037 2.3040365852019229 40.0803764948461705 S
atom 2.7308938969612058 7.2739088490148873 40.0803764948267798 S
atom 7.3095214279253424 7.7363475580914711 40.0803829356759493 S
atom 2.6920294875885795 2.6571202623725414 43.1790893891881424 Ba
atom 7.6625908860270542 2.7276616419694184 43.1790711584026425 Ba
atom 2.6927186222002129 7.6975339058281858 43.1790711583923965 Ba
atom 7.7331161738270557 7.6982069486456401 43.1790893892191505 Ba
atom 2.3302307930170061 2.2531546403946328 47.9718576902319285 Ba
atom 7.2587755891783425 2.3657032318432942 47.9717967129431955 Ba
atom 2.2889033254282052 7.3355754956470216 47.9717967129381222 Ba
atom 7.3713174791683427 7.2942413266076196 47.9718576902227838 Ba
atom 5.0573325035161361 5.0495502486390738 45.3628867238837969 Zr
atom 10.0550205050187689 5.0929498440975038 45.3628917803616289 Zr
atom 5.0851482412876425 10.0628221078697795 45.3628917804021654 Zr
atom 10.0984191896579567 10.0906369347886375 45.3628867236642321 Zr
atom 5.0307168083694407 5.0354735488121163 50.4163826953095651 Zr
atom 10.0411970849298857 5.0660841963184655 50.4163867644912997 Zr
atom 5.0713248211974777 10.0359564601429287 50.4163867643906656 Zr
atom 10.0718034945437243 10.0765602350262995 50.4163826955254493 Zr
atom 5.2158042149902730 4.7889780847880719 42.8560874200967064 S
atom 9.7944521921592003 5.2514372400751883 42.8560938611483451 S
atom 4.8245799283072373 10.2213095039222353 42.8560938610783353 S
atom 10.2568909012361402 9.8300647710408011 42.8560874202099313 S
atom 4.7883148790596142 5.3457818915743669 47.9234150440716178 S
atom 10.3514064263861556 4.8238041289869242 47.9234004274129575 S
atom 5.3815341625585953 9.7936763928334969 47.9234004274803169 S
atom 9.8294015653325104 10.3868685778049379 47.9234150442116800 S
atom 4.6935092836696226 2.5341113164443718 45.7425098331488442 S
atom 10.3187837444327286 2.5727024992836900 45.1899112056953953 S
atom 5.3489114805919034 7.5425747630313387 45.1899112056787899 S
atom 9.7345959699547731 7.5751980026318604 45.7425098331478495 S
atom 4.6380869306375052 2.5340311174820123 50.1261616720046845 S
atom 10.4202706822981881 2.5728207409580648 50.7499460227114128 S
atom 5.4503984184815213 7.5426930049564955 50.7499460227285653 S
atom 9.6791736169369855 7.5751178039093743 50.1261616720247005 S
atom 2.5370978508697526 5.3133497694289877 45.1898977649951519 S
atom 7.5395939815291957 4.7291370904748948 45.7425002787386248 S
atom 2.5697217175306606 9.6990093543013760 45.7425002787559123 S
atom 7.5781845373033008 10.3544364556906299 45.1898977649955427 S
atom 2.5374642584740337 5.4145329642836222 50.7499419325221339 S
atom 7.5397526472821301 4.6734691907350108 50.1261656964658329 S
atom 2.5698803831507147 9.6433414545646734 50.1261656964634028 S
atom 7.5785509450019513 10.4556196505125740 50.7499419324965686 S
atom 2.7035688037695049 2.8036946109946030 52.9443046546693949 Ba
atom 7.8095467529028575 2.7388043705011498 52.9443377317647190 Ba
atom 2.8396744890726233 7.7086766343385635 52.9443377317647332 Ba
atom 7.7446554900184106 7.8447812972495337 52.9443046546834140 Ba
atom 2.3391828733020126 2.2362594938450555 57.9464444236498935 Ba
atom 7.2422731297802576 2.3742764892977153 57.9464407386855243 Ba
atom 2.2724008659199062 7.3441487530923224 57.9464407386844655 Ba
atom 7.3802695595767878 7.2773461800595802 57.9464444236418714 Ba
atom 5.0460306842279170 5.0427334280601732 55.4323896163288552 Zr
atom 10.0487118106849813 5.0811557302499617 55.4323885652905233 Zr
atom 5.0788395469274477 10.0510279940330811 55.4323885651996378 Zr
atom 10.0871173703907324 10.0838201142485904 55.4323896163051089 Zr
atom 5.0403830246014092 5.0405595301967523 60.4456686643041508 Zr
atom 10.0465812776032006 5.0754557470240789 60.4456711784251013 Zr
atom 5.0767090138106736 10.0453280108547478 60.4456711782442397 Zr
atom 10.0814697108304419 10.0816462164519933 60.4456686643030991 Zr
atom 5.3058699645624596 4.7113983232219274 52.9350723357161499 S
atom 9.7172471219377368 5.3410934281578193 52.9350974017460487 S
atom 4.7473748580928801 10.3109656919964152 52.9350974018846046 S
atom 10.3469566508187594 9.7524850094734514 52.9350723352745618 S
atom 4.7743066363092161 5.3735782592898822 57.9435580401617543 S
atom 10.3795823639012248 4.8094268113504963 57.9435595933067376 S
atom 5.4097101000396393 9.7792990751996207 57.9435595934527186 S
atom 9.8153933225570391 10.4146649455301485 57.9435580405547626 S
atom 4.6397029285811104 2.5380769357922213 55.7648923032668051 S
atom 10.4137073713741479 2.5764617635786857 55.1249268724847568 S
atom 5.4438351074960867 7.5463340272787791 55.1249268724942141 S
atom 9.6807896148197070 7.5791636219143559 55.7648923032923989 S
atom 4.6402192726423923 2.5365459241378732 60.1271868319889222 S
atom 10.4125574178659850 2.5749102758629587 60.7707621666434150 S
atom 5.4426851540383430 7.5447825400832977 60.7707621666465130 S
atom 9.6813059588977755 7.5776326107649865 60.1271868319979248 S
atom 2.5413259840626692 5.4077684161561139 55.1248911040858900 S
atom 7.5440301839953667 4.6748154742291002 55.7648868909636306 S
atom 2.5741579204249807 9.6446877380634035 55.7648868909779551 S
atom 7.5824126700505854 10.4488551024090128 55.1248911040787348 S
atom 2.5398277725159528 5.4065430336447724 60.7707943617036932 S
atom 7.5425514800743008 4.6752997959876250 60.1271928327194303 S
atom 2.5726792162484262 9.6451720598497612 60.1271928327463030 S
atom 7.5809144587497661 10.4476297198451036 60.7707943616833930 S
atom 2.7023326314114255 2.8050271040028543 62.9517787040103940 Ba
atom 7.8110456127131034 2.7374369189017611 62.9517787040108701 Ba
atom 2.8411733488041242 7.7073091826337423 62.9517787040121917 Ba
atom 7.7434193177400257 7.8461137901654698 62.9517787040151688 Ba
atom 2.3391828732606115 2.2362594938123492 67.9571129841505126 Ba
atom 7.2422731298189378 2.3742764893006028 67.9571166691239767 Ba
atom 2.2724008659038417 7.3441487531195095 67.9571166691083164 Ba
atom 7.3802695596005785 7.2773461800541224 67.9571129841602186 Ba
atom 5.0403830246007892 5.0405595301931845 65.4578887437024690 Zr
atom 10.0465812775926455 5.0754557470524846 65.4578862295083894 Zr
atom 5.0767090137526507 10.0453280108632708 65.4578862296352781 Zr
atom 10.0814697108620361 10.0816462164449234 65.4578887438453165 Zr
atom 5.0460306842175413 5.0427334280445297 70.4711677913968799 Zr
atom 10.0487118106779256 5.0811557302510355 70.4711688426010312 Zr
atom 5.0788395468606105 10.0510279940669491 70.4711688428115508 Zr
atom 10.0871173704188291 10.0838201142734043 70.4711677913244330 Zr
atom 5.3092886771865135 4.7075335679959647 62.9517787037991212 S
atom 9.7135045028761731 5.3443895738362670 62.9517787036864576 S
atom 4.7436322390874999 10.3142618376502320 62.9517787038359700 S
atom 10.3503753634515689 9.7486202542543623 62.9517787033464415 S
atom 4.7743066363113700 5.3735782592960382 67.9599993678095302 S
atom 10.3795823638917231 4.8094268113628571 67.9599978150781823 S
atom 5.4097101000259604 9.7792990752018749 67.9599978147037547 S
atom 9.8153933225414853 10.4146649455516336 67.9599993680476047 S
atom 4.6402192726508336 2.5365459241004564 65.7763705759182216 S
atom 10.4125574179191531 2.5749102761780094 65.1327952411835582 S
atom 5.4426851540408254 7.5447825401184474 65.1327952412209186 S
atom 9.6813059588374806 7.5776326104422580 65.7763705759508497 S
atom 4.6397029285854634 2.5380769355784207 70.1386651046498599 S
atom 10.4137073713477246 2.5764617636747058 70.7786305353834706 S
atom 5.4438351075070459 7.5463340274871102 70.7786305353902634 S
atom 9.6807896148341843 7.5791636218103235 70.1386651046546206 S
atom 2.5398277726236094 5.4065430336558187 65.1327630461520499 S
atom 7.5425514799669777 4.6752997959748477 65.7763645751986417 S
atom 2.5726792167146910 9.6451720598368418 65.7763645751919626 S
atom 7.5809144582930976 10.4476297198721237 65.1327630461550626 S
atom 2.5413259837751303 5.4077684161394268 70.7786663037886115 S
atom 7.5440301842834900 4.6748154742511705 70.1386705169569638 S
atom 2.5741579204567859 9.6446877380839577 70.1386705169653908 S
atom 7.5824126700306334 10.4488551023916756 70.7786663037975217 S
atom 2.7035688037660317 2.8036946109715428 72.9592527532872168 Ba
atom 7.8095467529125404 2.7388043704927552 72.9592196761915233 Ba
atom 2.8396744890819807 7.7086766343664603 72.9592196761915801 Ba
atom 7.7446554900130122 7.8447812972540518 72.9592527532639394 Ba
atom 2.3302307929898598 2.2531546403464744 77.9316997175958051 Ba
atom 7.2587755892032897 2.3657032318006843 77.9317606948787613 Ba
atom 2.2889033254013431 7.3355754957038952 77.9317606948820583 Ba
atom 7.3713174792135723 7.2942413266575974 77.9316997175965440 Ba
atom 5.0307168082838887 5.0354735487646867 75.4871747124746264 Zr
atom 10.0411970850163978 5.0660841962702925 75.4871706432682856 Zr
atom 5.0713248211359163 10.0359564601817208 75.4871706433581693 Zr
atom 10.0718034945876536 10.0765602351010379 75.4871747124906847 Zr
atom 5.0573325034041279 5.0495502484822214 80.5406706842339162 Zr
atom 10.0550205051582573 5.0929498440596079 80.5406656275057600 Zr
atom 5.0851482412090743 10.0628221079557836 80.5406656274055877 Zr
atom 10.0984191897576459 10.0906369347962617 80.5406706841034605 Zr
atom 5.3058699645652627 4.7113983232414416 72.9684850724830625 S
atom 9.7172471219290131 5.3410934281614439 72.9684600056536965 S
atom 4.7473748580997501 10.3109656919900328 72.9684600055520036 S
atom 10.3469566508133344 9.7524850094629407 72.9684850723085674 S
atom 4.7883148790807892 5.3457818915663964 77.9801423636353093 S
atom 10.3514064263833010 4.8238041289960716 77.9801569811161954 S
atom 5.3815341625817084 9.7936763928000410 77.9801569810268091 S
atom 9.8294015653113469 10.3868685778194010 77.9801423638439672 S
atom 4.6380869306783188 2.5340311179997017 75.7773957359003703 S
atom 10.4202706823055458 2.5728207408917392 75.1536113851495031 S
atom 5.4503984184807139 7.5426930044548284 75.1536113851578449 S
atom 9.6791736168886722 7.5751178039674167 75.7773957359072909 S
atom 4.6935092837024390 2.5341113161217073 80.1610475747616675 S
atom 10.3187837444142598 2.5727024997244232 80.7136462021678369 S
atom 5.3489114806224176 7.5425747634219711 80.7136462021889258 S
atom 9.7345959699375904 7.5751980022463625 80.1610475747571485 S
atom 2.5374642589439942 5.4145329642880196 75.1536154753732859 S
atom 7.5397526467986760 4.6734691907282304 75.7773917114511306 S
atom 2.5698803830522943 9.6433414545199447 75.7773917114635793 S
atom 7.5785509451022932 10.4556196505463284 75.1536154753552097 S
atom 2.5370978504315129 5.3133497693990881 80.7136596428610318 S
atom 7.5395939819150932 4.7291370904913279 80.1610571291467551 S
atom 2.5697217178570728 9.6990093543026443 80.1610571291599143 S
atom 7.5781845369309480 10.3544364556574706 80.7136596428755126 S
atom 2.6920294876231838 2.6571202623938843 82.7244680187528729 Ba
atom 7.6625908859962761 2.7276616419903021 82.7244862495589643 Ba
atom 2.6927186221945392 7.6975339058187027 82.7244862495437587 Ba
atom 7.7331161738332872 7.6982069486314346 82.7244680187751129 Ba
atom 5.2158042150078892 4.7889780847851222 83.0474699877145497 S
atom 9.7944521921672081 5.2514372400644769 83.0474635464610316 S
atom 4.8245799283329136 10.2213095038926323 83.0474635465983511 S
atom 10.2568909012349572 9.8300647710199662 83.0474699877298690 S
