#=======================================================
# FHI-aims file: full_relax/full_relax_RP_7_RxRyMz_-Rx-Ry0.in
# Created using the Atomic Simulation Environment (ASE)
# Mon Mar 24 15:50:42 2025
#=======================================================
lattice_vector 10.0127910214231282 -0.0673858370372383 0.0000082859083009 
lattice_vector -0.0673858370372413 10.0127910214232791 -0.0000082859110657 
lattice_vector 0.0001541393295439 -0.0001541393504698 75.8986714111108682 
atom 0.1326427939576220 -0.1705177368356615 0.2134939512649475 Ba
atom 5.1769132475348680 -0.1663357126229985 0.2134980938494781 Ba
atom 0.1368248183083936 4.8737527166972896 0.2134898075519834 Ba
atom 5.1053453861341413 4.8021848554669608 0.2134939511131532 Ba
atom -0.2656473231520110 0.1899980175783904 5.0033877828610747 Ba
atom 4.8163974928742457 0.2319544049995378 5.0033919258213926 Ba
atom -0.2236909362852963 5.2720428342142904 5.0033836399589875 Ba
atom 4.7070552689791034 5.1627006097491268 5.0033877828616813 Ba
atom 2.5015531263649988 2.4784828546390596 2.3951643596731325 Zr
atom 7.5006152485583444 2.4374565470054903 2.3951685015864146 Zr
atom 2.4605268195181456 7.4775449765187201 2.3951602156158462 Zr
atom 7.4742557183898795 7.4511854471843399 2.3951643594350247 Zr
atom 2.4761166219757658 2.4918267455433050 7.4481178747676209 Zr
atom 7.4872713565416618 2.4628930515103833 7.4481220229694660 Zr
atom 2.4471829273968719 7.5029814808063708 7.4481137362181169 Zr
atom 7.4488192142177168 7.4645293377902453 7.4481178750219312 Zr
atom 2.6609974922642738 2.7396837716734477 -0.1112944219481100 S
atom 7.2394143315089359 2.2780121816799599 -0.1112902765186974 S
atom 2.1993259022569114 7.3181006108865345 -0.1112985624658244 S
atom 7.6337000844659455 7.7123863638998573 -0.1112944220662104 S
atom 2.2326068806394570 2.1810110433186982 4.9550442883367571 S
atom 7.7980870593461811 2.7064027929725274 4.9550484284795546 S
atom 2.7579986300941250 7.7464912221403823 4.9550401431183539 S
atom 7.2053094728550562 7.1537136355160431 4.9550442889073407 S
atom 2.7895745209848140 -0.0150959520455949 2.2218679692542116 S
atom 7.1830481048600836 -0.0457296629716806 2.7745477497364130 S
atom 2.1429596755667508 4.9943587658112811 2.7745394638253082 S
atom 7.7622771132318302 4.9576066396238945 2.2218679692680370 S
atom 2.8931739286908291 -0.0159279539716964 7.7809395719328913 S
atom 7.1257465857094724 -0.0462909832412975 7.1565041719312426 S
atom 2.0856581564478494 4.9937974466989088 7.1564958860422880 S
atom 7.8658765208730905 4.9567746389418792 7.7809395718723762 S
atom -0.0185969735092469 2.2168209900870885 2.2218638263207149 S
atom 4.9847393433783704 2.7960499980050963 2.7745436068482943 S
atom -0.0553490858526107 7.8361384272212842 2.7745353209650965 S
atom 4.9541056186635037 7.1895235822013355 2.2218638262911599 S
atom -0.0177649661124193 2.1132215819735256 7.7809354289444705 S
atom 4.9853006580874100 2.8533515171403976 7.1565000289465033 S
atom -0.0547877712687603 7.8934399463037943 7.1564917431162760 S
atom 4.9549376261390137 7.0859241742362622 7.7809354289294834 S
atom 0.2817756261762838 -0.1824040525543679 9.9748237559600579 Ba
atom 5.1887995631273629 -0.3154685442834149 9.9748278988337269 Ba
atom 0.1487111336219915 4.7246198847691883 9.9748196129501121 Ba
atom 5.2544782186377708 4.7902985394288615 9.9748237559737305 Ba
atom -0.2825263738011354 0.1815247374696825 14.9755822480783358 Ba
atom 4.8248707731591356 0.2488334549876256 14.9755863911468925 Ba
atom -0.2152176558890866 5.2889218845068324 14.9755781052003503 Ba
atom 4.6901762182080198 5.1542273299840344 14.9755822480990570 Ba
atom 2.4904186619994046 2.4847306102377344 12.4635698043260383 Zr
atom 7.4943674924109827 2.4485910117085217 12.4635739454751420 Zr
atom 2.4542790631909086 7.4886794408804471 12.4635656610554335 Zr
atom 7.4631212543759045 7.4574332022652481 12.4635698044017840 Zr
atom 2.4863867893590865 2.4863158042362463 17.4766677525407133 Zr
atom 7.4927822992868833 2.4526228843097084 17.4766718914149166 Zr
atom 2.4526938698905516 7.4927113136884911 17.4766636053059514 Zr
atom 7.4590893816675656 7.4590183964024313 17.4766677513064010 Zr
atom 2.7515585861562082 2.8167881487661308 9.9656218445242306 S
atom 7.1623099536075792 2.1874510872179411 9.9656259795501576 S
atom 2.1222215244595266 7.2275395164444713 9.9656176938529555 S
atom 7.7242611783880895 7.7894907409601188 9.9656218434162671 S
atom 2.2186505041595823 2.1531011972397720 14.9729981455345520 S
atom 7.8259969058958090 2.7203591696195941 14.9730022999992833 S
atom 2.7859084767829896 7.7604475988853494 14.9729940117128901 S
atom 7.1913530963936196 7.1258037894065502 14.9729981470457236 S
atom 2.8862367503783721 -0.0193774067563502 12.1540185241888157 S
atom 7.1269488411225348 -0.0501539766267374 12.7945335584960560 S
atom 2.0868604120413687 4.9899344524436726 12.7945252724731553 S
atom 7.8589393426439766 4.9533251853565599 12.1540185241155552 S
atom 2.8851995636501191 -0.0183298071050888 17.7983087831161413 S
atom 7.1276624435635307 -0.0491270141279710 17.1550350241734364 S
atom 2.0875740141616297 4.9909614140947660 17.1550267380577388 S
atom 7.8579021555934556 4.9543727841613361 17.7983087830049982 S
atom -0.0143154983930867 2.1201587598479419 12.1540143812141999 S
atom 4.9891636372489785 2.8521492620484721 12.7945294155152016 S
atom -0.0509247907970089 7.8922376912928023 12.7945211295477392 S
atom 4.9583870925245801 7.0928613520944177 12.1540143811460943 S
atom -0.0153631177103727 2.1211959475087023 17.7983046400422680 S
atom 4.9881366948648234 2.8514356592405172 17.1550308811511876 S
atom -0.0519517368436647 7.8915240885987021 17.1550225952130013 S
atom 4.9573394770114652 7.0938985395105973 17.7983046401551839 S
atom 0.2825973588401029 -0.1815957221142807 19.9777532682005443 Ba
atom 5.1879912328562963 -0.3162902773553433 19.9777574111638927 Ba
atom 0.1479028041641906 4.7237981517112333 19.9777491252121173 Ba
atom 5.2552999505474158 4.7911068699440875 19.9777532682507299 Ba
atom -0.2817046408251127 0.1823330675944481 24.9785117657482836 Ba
atom 4.8240624431499795 0.2480117227836440 24.9785159087430486 Ba
atom -0.2160259865086666 5.2881001516264385 24.9785076228954068 Ba
atom 4.6909979518011236 5.1550356593261890 24.9785117658228053 Ba
atom 2.4823549160040512 2.4879009965848482 22.4897657246600140 Zr
atom 7.4911971060035381 2.4566547576346194 22.4897698680830871 Zr
atom 2.4511086766237171 7.4967431871815995 22.4897615802638597 Zr
atom 7.4550575080300003 7.4606035890675351 22.4897657257618775 Zr
atom 2.4966569548333357 2.4808048599316481 27.5052176389782232 Zr
atom 7.4982932421477919 2.4423527186566845 27.5052217882877876 Zr
atom 2.4582048130835830 7.4824411477762673 27.5052135040776129 Zr
atom 7.4693595467131386 7.4535074522178943 27.5052176399347452 Zr
atom 2.7541230741462654 2.8195304106661276 19.9803373751512190 S
atom 7.1595676927703087 2.1848865997888525 19.9803415163906166 S
atom 2.1194792634430839 7.2249750290316106 19.9803332334140400 S
atom 7.7268256662678709 7.7922330027263218 19.9803373752015823 S
atom 2.2212149913599442 2.1558434580281132 24.9877136650511602 S
atom 7.8232546444687117 2.7177946821189334 24.9877178084861349 S
atom 2.7831662150793273 7.7578831113000781 24.9877095222803831 S
atom 7.1939175835206886 7.1285460502671398 24.9877136632742349 S
atom 2.8859131653916195 -0.0173028550402271 22.1588102448628277 S
atom 7.1266252566108719 -0.0480794075608670 22.7993252773936241 S
atom 2.0865368273150184 4.9920090235951564 22.7993169915424652 S
atom 7.8586157575778621 4.9553997390341014 22.1588102447608541 S
atom 2.8871154212357468 -0.0211658420738494 27.7968396330674672 S
atom 7.1196880773299123 -0.0515288656285101 27.1724042316885139 S
atom 2.0795996481979238 4.9885595635461746 27.1723959457868993 S
atom 7.8598180136569713 4.9515367499351077 27.7968396332184078 S
atom -0.0163900690758404 2.1204823453867370 22.1588061017581417 S
atom 4.9870890849305791 2.8524728463303344 22.7993211345365552 S
atom -0.0529993439598626 7.8925612752799044 22.7993128485381291 S
atom 4.9563125229392906 7.0931849376788767 22.1588061019030889 S
atom -0.0125270826796306 2.1192800895222326 27.7968354901557539 S
atom 4.9905385457183495 2.8594100252670134 27.1724000887728145 S
atom -0.0495498819121507 7.8994984544778308 27.1723918027989519 S
atom 4.9601755079228820 7.0919826817664022 27.7968354901059271 S
atom 0.2657183087348872 -0.1900690030687863 29.9499477341103670 Ba
atom 5.1964645134772693 -0.2994112272000970 29.9499518770085054 Ba
atom 0.1563760839759997 4.7406772024381256 29.9499435912146836 Ba
atom 5.2384209011478449 4.7826335895328178 29.9499477340378242 Ba
atom -0.1325718090041508 0.1704467513788778 34.7398415697316878 Ba
atom 4.8359487590893826 0.0988788897531798 34.7398457081329397 Ba
atom -0.2041396702117423 5.1389673192573246 34.7398374206594056 Ba
atom 4.8401307831478579 5.1431493438785392 34.7398415700490304 Ba
atom 2.4712204501053741 2.4941487536540015 32.5581711567619152 Zr
atom 7.4849493524106716 2.4677892228566276 32.5581753001533798 Zr
atom 2.4448609228931844 7.5078776517014170 32.5581670144182027 Zr
atom 7.4439230425795033 7.4668513453554421 32.5581711561917402 Zr
atom 2.7401666967806735 2.7916205634162119 29.9982912432766717 S
atom 7.1874775390381744 2.1988429768753557 29.9982953717327590 S
atom 2.1473891098663249 7.2389314061343226 29.9982870841868703 S
atom 7.7128692890313655 7.7643231557698753 29.9982912430892057 S
atom 2.3117760857211560 2.2329478361716237 35.0646299350748833 S
atom 7.7461502680747776 2.6272335889448941 35.0646340862862615 S
atom 2.7060618386697044 7.6673220181359802 35.0646258006852278 S
atom 7.2844786780665345 7.2056504281201255 35.0646299356141498 S
atom 2.8298139013881465 -0.0217271434977655 32.1787960547557148 S
atom 7.2232874865326506 -0.0523608857715372 32.7314758350824491 S
atom 2.1831990573836144 4.9877275413625748 32.7314675492729918 S
atom 7.8025164935275164 4.9509754468283287 32.1787960548083802 S
atom -0.0119657510788806 2.1765816088608094 32.1787919122129438 S
atom 4.9913705340431047 2.7558106176673438 32.7314716919335567 S
atom -0.0487178949916300 7.7958990471178566 32.7314634062112191 S
atom 4.9607368409432819 7.1492842009543649 32.1787919121892756 S
atom 2.3538569072380953 2.6567152652415937 38.1628552381931030 Ba
atom 7.3223828339916395 2.5851527692725931 38.1628593808167764 Ba
atom 2.2822944068481279 7.6252411996207190 38.1628510950424626 Ba
atom 7.3265594976044159 7.6294178587477077 38.1628552388903586 Ba
atom 2.7521818733511161 2.2961893098645692 42.9527117719541138 Ba
atom 7.6829087942885854 2.1868277976295447 42.9527159151212388 Ba
atom 2.6428203657708251 7.2269162274326080 42.9527076289419441 Ba
atom 7.7248844647609705 7.2688919025414798 42.9527117720287279 Ba
atom 4.9576157797852343 4.9804457904796866 40.3445148739558874 Zr
atom 9.9713548920651291 4.9540964925983610 40.3445190165677445 Zr
atom 4.9312664657752396 9.9941849197493227 40.3445107286738605 Zr
atom 9.9303183704346782 9.9531483795172235 40.3445148745743154 Zr
atom 4.9831412518856135 4.9670345005671104 45.3974450307045245 Zr
atom 9.9847662001329525 4.9285710168711070 45.3974492236849088 Zr
atom 4.9446777717623895 9.9686594457616291 45.3974409289532659 Zr
atom 9.9558438422257041 9.9397370927475439 45.3974450307437465 Zr
atom 4.7981524221682017 4.7192276328287726 37.8380667392674255 S
atom 10.2325730574597351 5.1135598385666396 37.8380709249369360 S
atom 5.1924846289868745 10.1536482685609180 37.8380626328664462 S
atom 9.7708550150827005 9.6919302251768986 37.8380667407245213 S
atom 5.2266401194046157 5.2778618887887587 42.9043822787418918 S
atom 9.6739388084406404 4.6850721462327058 42.9043863468544870 S
atom 4.6338503791336416 9.7251605759335771 42.9043780792675733 S
atom 10.1993427119559534 10.2505644811176548 42.9043822757879880 S
atom 5.3162640773863750 2.4645626278874961 40.7239218577857898 S
atom 9.7097111213598897 2.4339337823859957 40.1712258071671329 S
atom 4.6696226912615888 7.4740222022913008 40.1712175202152437 S
atom 10.2889666687717636 7.4372652121345872 40.7239218572907120 S
atom 5.3735626803495462 2.4650664218672533 45.1058222800360511 S
atom 9.6061436948840324 2.4347024540405702 45.7302678031870258 S
atom 4.5660552659476679 7.4747908908614349 45.7302595169606150 S
atom 10.3462652734116656 7.4377690214612917 45.1058222791814671 S
atom 2.4744469360654975 4.6628340262576424 40.7239177157545527 S
atom 7.4777786176615759 5.2420895679232862 40.1712216645602211 S
atom 2.4376901735964069 10.2821779988533866 40.1712133776963185 S
atom 7.4471495409182875 9.6355366182101019 40.7239177156214041 S
atom 2.4739432701007673 4.6055354212867279 45.1058181359949160 S
atom 7.4770097840824485 5.3456570013592835 45.7302636600915093 S
atom 2.4369213638302147 10.3857454297112479 45.7302553740497260 S
atom 7.4466458534788806 9.5782380145315180 45.1058181368341735 S
atom 2.2047609320174013 2.6685873553868014 47.9241261522164947 Ba
atom 7.3105107529495603 2.7342487375693327 47.9241302949135743 Ba
atom 2.2704223220553557 7.7743371646942476 47.9241220090266467 Ba
atom 7.1774635259544137 7.6412899451606906 47.9241261522703610 Ba
atom 2.7690312105394144 2.3046817921581551 52.9248930955386214 Ba
atom 7.6744163104074063 2.1699784634198829 52.9248972389059702 Ba
atom 2.6343278819965312 7.2100668926949192 52.9248889531404103 Ba
atom 7.7417338019041830 7.2773843844392987 52.9248930954071497 Ba
atom 4.9688267981437466 4.9741443978762163 50.4128951337922757 Zr
atom 9.9776563014635169 4.9428854679768897 50.4128992499453261 Zr
atom 4.9375678722921581 9.9829738973536717 50.4128909720333951 Zr
atom 9.9415293891396193 9.9468469905925740 50.4128951331321460 Zr
atom 4.9728151539940022 4.9725900286955422 55.4260034700824136 Zr
atom 9.9792106648679297 4.9388971111145006 55.4260076029799720 Zr
atom 4.9391222348933770 9.9789855406778258 55.4259993154709250 Zr
atom 9.9455177464258266 9.9452926208843184 55.4260034735299811 Zr
atom 4.7076790238796820 4.6420976178005606 47.9149470566463691 S
atom 10.3097030807975205 5.2040332437709740 47.9149511799040511 S
atom 5.2696146508669548 10.2441216728866120 47.9149428853707064 S
atom 9.6803816161081251 9.6148002104435992 47.9149470600478793 S
atom 5.2405517524535457 5.3057983941163327 52.9223246797322560 S
atom 9.6460023004433353 4.6711605129746125 52.9223288851706144 S
atom 4.6059138711949501 9.7112489423980843 52.9223205994287511 S
atom 10.2132543446442963 10.2785009861798180 52.9223246756354726 S
atom 5.3723329203924237 2.4689562243233296 50.7438475659552495 S
atom 9.6130421884958839 2.4381743438446613 50.1033423672016198 S
atom 4.5729537587947959 7.4782627760189548 50.1033340806367065 S
atom 10.3450355125592459 7.4416588191049788 50.7438475661747006 S
atom 5.3715976801938128 2.4679441824446022 55.1043455672300837 S
atom 9.6141210576621390 2.4371474494541778 55.7476696475230966 S
atom 4.5740326287056288 7.4772358776672609 55.7476613618251378 S
atom 10.3443002724081321 7.4406467737294548 55.1043455667906557 S
atom 2.4700535141453779 4.6067651805838530 50.7438434233013780 S
atom 7.4735378522377811 5.3387585092777865 50.1033382239135534 S
atom 2.4334494207999828 10.3788469381761033 50.1033299378919637 S
atom 7.4427561090178331 9.5794677729459874 50.7438434229606656 S
atom 2.4710654378805352 4.6075004242769646 55.1043414241640335 S
atom 7.4745648711500365 5.3376796354002662 55.7476655044690332 S
atom 2.4344764435549395 10.3777680646061228 55.7476572187476762 S
atom 7.4437680287252856 9.5802030163132859 55.1043414242668774 S
atom 2.2038965072906467 2.6677956745950340 57.9271138331680859 Ba
atom 7.3113024266157520 2.7351131677912464 57.9271179758134593 Ba
atom 2.2712139967030214 7.7752015977203488 57.9271096898668674 Ba
atom 7.1765991001001783 7.6404982675184039 57.9271138332685211 Ba
atom 2.7681667824942728 2.3038901143997230 62.9278807775400821 Ba
atom 7.6752079866517331 2.1708428922576246 62.9278849206191211 Ba
atom 2.6351195579073652 7.2109313224348250 62.9278766347459921 Ba
atom 7.7408693741385592 7.2765927076896650 62.9278807776442122 Ba
atom 4.9768035114395213 4.9710356622247973 60.4391117925318326 Zr
atom 9.9807650297035178 4.9349087539735503 60.4391159520179357 Zr
atom 4.9406766001468307 9.9749971835465185 60.4391076686894380 Zr
atom 9.9495061034784769 9.9437382547375552 60.4391117910809683 Zr
atom 4.9624890598403590 4.9781455626167137 65.4545618891749967 Zr
atom 9.9736551320212996 4.9492232060580079 65.4545660302430292 Zr
atom 4.9335667028779246 9.9893116351716991 65.4545577401523389 Zr
atom 9.9351916515195864 9.9508481551205055 65.4545618873449087 Zr
atom 4.7050785562300073 4.6393816650308812 57.9296822392925606 S
atom 10.3124190284063673 5.2066337085878480 57.9296863496703551 S
atom 5.2723305992765210 10.2467221380499129 57.9296780611072890 S
atom 9.6777811483370986 9.6120842568840938 57.9296822384730916 S
atom 5.2379512861941144 5.3030824432728156 62.9370598830430481 S
atom 9.6487182509401048 4.6737609793220338 62.9370640235976211 S
atom 4.6086298215004708 9.7138494084520151 62.9370557388559746 S
atom 10.2106538783663936 10.2757850356844145 62.9370598854485408 S
atom 5.3726765507359309 2.4669172578802039 60.7486728493983605 S
atom 9.6133858171115119 2.4361354362824743 60.1081676507322271 S
atom 4.5732973879779575 7.4762238613641037 60.1081593646036154 S
atom 10.3453791430448678 7.4396198458618237 60.7486728495976962 S
atom 5.3795750435025482 2.4703891708103232 65.1217474108257619 S
atom 9.6121560579095000 2.4400252068244703 65.7461929338625026 S
atom 4.5720676284587993 7.4801136355230371 65.7461846481539567 S
atom 10.3522776357090507 7.4430917622247863 65.1217474107606762 S
atom 2.4720924280235228 4.6064215518395688 60.7486687065023858 S
atom 7.4755768225546015 5.3384148779150911 60.1081635077414731 S
atom 2.4354883932164295 10.3785033074775495 60.1081552215291879 S
atom 7.4447950205616742 9.5791241434998646 60.7486687066735698 S
atom 2.4686205170945552 4.5995230591702567 65.1217432678729580 S
atom 7.4716870453325663 5.3396446377560407 65.7461887909020959 S
atom 2.4315986148395643 10.3797330670601955 65.7461805051321022 S
atom 7.4413231106546380 9.5722256512420287 65.1217432679490145 S
atom 2.2207458420182027 2.6762881594057233 67.8992951590821150 Ba
atom 7.3028099442183096 2.7182638315716123 67.8992993019583793 Ba
atom 2.2627215149256896 7.7583522599894721 67.8992910162082808 Ba
atom 7.1934484343311293 7.6489907507441739 67.8992951589343789 Ba
atom 2.6190708118048205 2.3157622013352883 72.6891516894128955 Ba
atom 7.6633359016669482 2.3199388622021622 72.6891558322305826 Ba
atom 2.6232474722553913 7.3600272910050650 72.6891475461634684 Ba
atom 7.5917734041503211 7.2884647930215776 72.6891516894424115 Ba
atom 4.9880145329105332 4.9647342642502927 70.5074920501512707 Zr
atom 9.9870664301477881 4.9236977338222854 70.5074961912858384 Zr
atom 4.9469780003860402 9.9637861626078088 70.5074879061238420 Zr
atom 9.9607171256144564 9.9374368556800512 70.5074920508099723 Zr
atom 4.7189901901872409 4.6673181728095630 67.9476246756434108 S
atom 10.2844825232501602 5.1927220761919024 67.9476288193372540 S
atom 5.2443940940199987 10.2328105054718481 67.9476205373480582 S
atom 9.6916927823469390 9.6400207651749312 67.9476246768231107 S
atom 5.1474778842947284 5.2259524248148708 73.0139401743713563 S
atom 9.7258482697635653 4.7642343809460765 73.0139443220347317 S
atom 4.6857598407798307 9.8043228104501434 73.0139360340513548 S
atom 10.1201804764199554 10.1986550168770265 73.0139401733158024 S
atom 5.2760076147291723 2.4711579176437173 70.6807894101800258 S
atom 9.6694546611071264 2.4405289457907577 70.1280933581322188 S
atom 4.6293662320501809 7.4806173791566009 70.1280850722666855 S
atom 10.2487102067554474 7.4438605145398169 70.6807894102990986 S
atom 2.4678517663735278 4.7030904875356079 70.6807852675057546 S
atom 7.4711833067819677 5.2823460341261317 70.1280892153613280 S
atom 2.4310948788204212 10.3224344630426348 70.1280809294590313 S
atom 7.4405543571317487 9.6757930801798366 70.6807852670546595 S
