#=======================================================
# FHI-aims file: full_relax/full_relax_RP_7_00Mz_000.in
# Created using the Atomic Simulation Environment (ASE)
# Mon Mar 24 15:35:19 2025
#=======================================================
lattice_vector 10.0077698707091116 -0.0000000000000000 -0.0000000000000774 
lattice_vector -0.0000000000000000 10.0077698707091116 -0.0000000000001910 
lattice_vector -0.0000000000005861 -0.0000000000014457 76.3833881299545965 
atom -0.0000000000467865 -0.0000000000263010 0.1645618387280213 Ba
atom 5.0038849353780028 0.0000000001634246 0.1645618387283479 Ba
atom 0.0000000000150320 5.0038849354583865 0.1645618387274607 Ba
atom 5.0038849353143062 5.0038849352456811 0.1645618387287752 Ba
atom 0.0000000000278647 0.0000000000560271 4.9244001061598821 Ba
atom 5.0038849353390233 -0.0000000001289440 4.9244001061598643 Ba
atom -0.0000000000171538 5.0038849352197206 4.9244001061597915 Ba
atom 5.0038849353835007 5.0038849353968908 4.9244001061596947 Ba
atom 2.5019424677222277 2.5019424676970798 2.2994943148859721 Zr
atom 7.5058274029786300 2.5019424676847621 2.2994943148830265 Zr
atom 2.5019424676239153 7.5058274030396310 2.2994943149077756 Zr
atom 7.5058274030769194 7.5058274030519820 2.2994943149046110 Zr
atom 2.5019424676767215 2.5019424676679920 7.4128330817746457 Zr
atom 7.5058274030346066 2.5019424676685249 7.4128330817745178 Zr
atom 2.5019424676799291 7.5058274030230470 7.4128330817827752 Zr
atom 7.5058274030312644 7.5058274030225327 7.4128330817812369 Zr
atom 2.5019424682670288 2.5019424677625230 -0.2104590505999270 S
atom 7.5058274024505041 2.5019424675621016 -0.2104590506003084 S
atom 2.5019424670960100 7.5058274029167933 -0.2104590506101236 S
atom 7.5058274036215256 7.5058274031172196 -0.2104590506093097 S
atom 2.5019424674751618 2.5019424676514337 4.9004534353501521 S
atom 7.5058274032238916 2.5019424677474040 4.9004534353519311 S
atom 2.5019424678691546 7.5058274031019598 4.9004534353492408 S
atom 7.5058274028298193 7.5058274030060304 4.9004534353484548 S
atom 2.2266507855698601 0.0000000000021975 2.4237900969270769 S
atom 7.7811190851459129 0.0000000000024284 2.4237900970583910 S
atom 2.7772341497920650 5.0038849353621533 2.4237900970578710 S
atom 7.2305357209250714 5.0038849353618051 2.4237900969275623 S
atom 2.9943270487702884 0.0000000000048159 7.4334656113251798 S
atom 7.0134428219363159 0.0000000000046613 7.4334656112796749 S
atom 2.0095578865816393 5.0038849353599062 7.4334656112788240 S
atom 7.9982119841246861 5.0038849353599204 7.4334656113257127 S
atom -0.0000000000020906 2.7772341497413415 2.4237900966776507 S
atom 5.0038849353523478 2.2266507855271831 2.4237900973165112 S
atom -0.0000000000017824 7.2305357208747658 2.4237900973079354 S
atom 5.0038849353521115 7.7811190851031089 2.4237900966689367 S
atom -0.0000000000018025 2.0095578865791621 7.4334656114012070 S
atom 5.0038849353521329 2.9943270487663964 7.4334656112100106 S
atom -0.0000000000019332 7.9982119841221966 7.4334656112034354 S
atom 5.0038849353525281 7.0134428219324567 7.4334656113945288 S
atom 0.0000000000164786 -0.0000000000653491 9.9829479350302517 Ba
atom 5.0038849353656838 -0.0000000000490681 9.9829479350302162 Ba
atom 0.0000000000110570 5.0038849352967354 9.9829479350301042 Ba
atom 5.0038849353720618 5.0038849352900039 9.9829479350300456 Ba
atom 0.0000000000145808 0.0000000000510889 15.0519857808327817 Ba
atom 5.0038849353693235 0.0000000000512828 15.0519857808327711 Ba
atom 0.0000000000151016 5.0038849354037245 15.0519857808327711 Ba
atom 5.0038849353688626 5.0038849354052850 15.0519857808326378 Ba
atom 2.5019424676805091 2.5019424676781541 12.5017335145161095 Zr
atom 7.5058274030336136 2.5019424676735165 12.5017335145136279 Zr
atom 2.5019424676791298 7.5058274030280039 12.5017335145187651 Zr
atom 7.5058274030351493 7.5058274030326375 12.5017335145186106 Zr
atom 2.5019424676723054 2.5019424676730639 17.5882801615055548 Zr
atom 7.5058274030264629 2.5019424676780790 17.5882801615058177 Zr
atom 2.5019424676718836 7.5058274030327494 17.5882801615078499 Zr
atom 7.5058274030267933 7.5058274030276539 17.5882801615078179 Zr
atom 2.5019424677407285 2.5019424677100526 9.9707205373082051 S
atom 7.5058274029575678 2.5019424676883335 9.9707205373073187 S
atom 2.5019424676030519 7.5058274030428276 9.9707205373073240 S
atom 7.5058274030952621 7.5058274030645498 9.9707205373066206 S
atom 2.5019424676159669 2.5019424676825088 15.0492713831178264 S
atom 7.5058274030823675 2.5019424676476634 15.0492713831165155 S
atom 2.5019424677278601 7.5058274030021872 15.0492713831168352 S
atom 7.5058274029705272 7.5058274030370056 15.0492713831168388 S
atom 2.9652474556444051 0.0000000000002431 12.5174196338898245 S
atom 7.0425224150638641 -0.0000000000000161 12.5174196338860160 S
atom 2.0386374797092515 5.0038849353546446 12.5174196338855559 S
atom 7.9691323909989444 5.0038849353550336 12.5174196338900217 S
atom 2.9685224361738460 -0.0000000000011976 17.5882801614723050 S
atom 7.0392474345303420 -0.0000000000007176 17.5882801615446489 S
atom 2.0353624991758008 5.0038849353541730 17.5882801615444890 S
atom 7.9724073715284094 5.0038849353537707 17.5882801614724755 S
atom 0.0000000000010335 2.0386374797083686 12.5174196338246002 S
atom 5.0038849353556634 2.9652474556433424 12.5174196339511088 S
atom 0.0000000000009210 7.9691323909980305 12.5174196339510413 S
atom 5.0038849353552859 7.0425224150628045 12.5174196338244528 S
atom -0.0000000000034195 2.0353624991771269 17.5882801615655069 S
atom 5.0038849353510697 2.9685224361751454 17.5882801614512694 S
atom -0.0000000000028786 7.9724073715297212 17.5882801614513262 S
atom 5.0038849353507713 7.0392474345316671 17.5882801615654536 S
atom -0.0000000000512315 -0.0000000000523190 20.1245745421823976 Ba
atom 5.0038849353042343 -0.0000000000554663 20.1245745421823514 Ba
atom -0.0000000000502126 5.0038849352995269 20.1245745421823585 Ba
atom 5.0038849353025148 5.0038849353022599 20.1245745421822413 Ba
atom 0.0000000000875826 0.0000000000396318 25.1936123879859366 Ba
atom 5.0038849354298485 0.0000000000537240 25.1936123879859224 Ba
atom 0.0000000000745558 5.0038849354117891 25.1936123879859757 Ba
atom 5.0038849354397614 5.0038849353939581 25.1936123879858052 Ba
atom 2.5019424676802871 2.5019424676796382 22.6748268084977269 Zr
atom 7.5058274030355427 2.5019424676738051 22.6748268084978264 Zr
atom 2.5019424676808573 7.5058274030282668 22.6748268085002920 Zr
atom 7.5058274030347825 7.5058274030341687 22.6748268084995850 Zr
atom 2.5019424676802964 2.5019424676800353 27.7637272412390494 Zr
atom 7.5058274030420753 2.5019424676766095 27.7637272412344771 Zr
atom 2.5019424676875248 7.5058274030312155 27.7637272412431955 Zr
atom 7.5058274030349121 7.5058274030346439 27.7637272412401686 Zr
atom 2.5019424677395188 2.5019424676367228 20.1272889398969710 S
atom 7.5058274029884027 2.5019424677394988 20.1272889398980723 S
atom 2.5019424676337580 7.5058274030941323 20.1272889398985129 S
atom 7.5058274030940639 7.5058274029913825 20.1272889398962462 S
atom 2.5019424676120154 2.5019424677451547 25.2058397857079655 S
atom 7.5058274030498229 2.5019424675892759 25.2058397857094043 S
atom 2.5019424676952124 7.5058274029436101 25.2058397857083136 S
atom 7.5058274029666281 7.5058274030995022 25.2058397857095677 S
atom 2.9652474556434441 -0.0000000000008944 22.6591406891979190 S
atom 7.0425224150628658 -0.0000000000009765 22.6591406890583116 S
atom 2.0386374797082492 5.0038849353537316 22.6591406890583897 S
atom 7.9691323909980101 5.0038849353535371 22.6591406891974430 S
atom 2.9943270487688389 0.0000000000006825 27.7430947116185536 S
atom 7.0134428219347473 0.0000000000005583 27.7430947118062612 S
atom 2.0095578865805752 5.0038849353548134 27.7430947118047904 S
atom 7.9982119841236976 5.0038849353550496 27.7430947116205573 S
atom 0.0000000000000282 2.0386374797068738 22.6591406890764198 S
atom 5.0038849353556696 2.9652474556421029 22.6591406891797327 S
atom -0.0000000000004530 7.9691323909966219 22.6591406891795479 S
atom 5.0038849353564787 7.0425224150615522 22.6591406890760716 S
atom -0.0000000000037870 2.0095578865774240 27.7430947117440070 S
atom 5.0038849353516532 2.9943270487666891 27.7430947116845665 S
atom -0.0000000000038469 7.9982119841206289 27.7430947116811062 S
atom 5.0038849353515342 7.0134428219325979 27.7430947117405715 S
atom 0.0000000000708722 -0.0000000000294760 30.2521602168570958 Ba
atom 5.0038849352920147 -0.0000000000257781 30.2521602168568364 Ba
atom -0.0000000000581699 5.0038849353333541 30.2521602168569927 Ba
atom 5.0038849354236277 5.0038849353321675 30.2521602168568045 Ba
atom -0.0000000001028796 -0.0000000000394213 35.0119984842867709 Ba
atom 5.0038849353884052 -0.0000000000018577 35.0119984842889878 Ba
atom 0.0000000000596690 5.0038849353799106 35.0119984842862451 Ba
atom 5.0038849352329446 5.0038849353510653 35.0119984842871759 Ba
atom 2.5019424676717730 2.5019424676933841 32.8770660081196340 Zr
atom 7.5058274030168821 2.5019424676587048 32.8770660081126920 Zr
atom 2.5019424676627735 7.5058274030132122 32.8770660081324948 Zr
atom 7.5058274030259176 7.5058274030478751 32.8770660081248423 Zr
atom 2.5019424676728557 2.5019424675422055 30.2761068876654811 S
atom 7.5058274030208620 2.5019424678267232 30.2761068876668986 S
atom 2.5019424676665252 7.5058274031816596 30.2761068876652608 S
atom 7.5058274030272596 7.5058274028971503 30.2761068876673498 S
atom 2.5019424677470186 2.5019424679518294 35.3870193736191041 S
atom 7.5058274029887739 2.5019424674038606 35.3870193736233389 S
atom 2.5019424676340503 7.5058274027580394 35.3870193736155727 S
atom 7.5058274031017662 7.5058274033059753 35.3870193736197791 S
atom 2.2266507855777133 0.0000000000004863 32.7527702262025286 S
atom 7.7811190851547742 0.0000000000004882 32.7527702258462057 S
atom 2.7772341497982276 5.0038849353522927 32.7527702258430509 S
atom 7.2305357209300594 5.0038849353523016 32.7527702262043263 S
atom -0.0000000000047386 2.7772341497816528 32.7527702260511333 S
atom 5.0038849353507091 2.2266507855562869 32.7527702259991145 S
atom -0.0000000000047850 7.2305357209136467 32.7527702259969615 S
atom 5.0038849353507198 7.7811190851326906 32.7527702260480922 S
atom 2.5019424675189628 2.5019424670532504 38.5183224460662856 Ba
atom 7.5058274031925105 2.5019424682967681 38.5183224460387379 Ba
atom 2.5019424678382864 7.5058274036517663 38.5183224461165992 Ba
atom 7.5058274028731820 7.5058274024082206 38.5183224460889591 Ba
atom 2.5019424676440911 2.5019424679384223 43.3258399112821735 Ba
atom 7.5058274030625007 2.5019424674128876 43.3258399113524462 Ba
atom 2.5019424677069946 7.5058274027672320 43.3258399111312116 Ba
atom 7.5058274029995902 7.5058274032927743 43.3258399112014487 Ba
atom 5.0038849353285011 5.0038849353605936 40.5859070958609323 Zr
atom 10.0077698707303568 5.0038849353221213 40.5859070958612307 Zr
atom 5.0038849353848995 10.0077698707018090 40.5859070958585733 Zr
atom 10.0077698706735490 10.0077698707395957 40.5859070958609678 Zr
atom 5.0038849353438533 5.0038849352947974 45.6746827887943567 Zr
atom 10.0077698707166824 5.0038849354587933 45.6746827887926088 Zr
atom 5.0038849353485952 10.0077698707658023 45.6746827887940938 Zr
atom 10.0077698707119005 10.0077698706016740 45.6746827887917135 Zr
atom 5.0038849364006621 5.0038849358253099 38.0810895565442422 S
atom 10.0077698696424182 5.0038849352846846 38.0810895565470702 S
atom 5.0038849340468960 10.0077698702445286 38.0810895565439722 S
atom 10.0077698719930783 10.0077698707807983 38.0810895565465444 S
atom 5.0038849340255229 5.0038849351499533 43.1713816300524940 S
atom 10.0077698720323021 5.0038849344738994 43.1713816300551088 S
atom 5.0038849372217644 10.0077698709124565 43.1713816300566648 S
atom 10.0077698688355738 10.0077698715877901 43.1713816300552509 S
atom 5.0038849353785384 2.5019467473959169 40.6970111435103803 S
atom 10.0077698706830507 2.5019381879560618 40.6970111436161233 S
atom 5.0038849353186885 7.5058231233123225 40.6970111442926097 S
atom 10.0077698707429281 7.5058316827513201 40.6970111441851117 S
atom 5.0038849347655452 2.5019422442885282 45.7020154738686841 S
atom 10.0077698712952472 2.5019426910640314 45.7020154759385022 S
atom 5.0038849359574025 7.5058276264177666 45.7020154743904072 S
atom 10.0077698701033686 7.5058271796421261 45.7020154723212855 S
atom 2.5019381879544200 5.0038849353378012 40.6970111427729080 S
atom 7.5058316827492106 5.0038849353976023 40.6970111450290588 S
atom 2.5019467473941521 10.0077698707231910 40.6970111453999408 S
atom 7.5058231233084847 10.0077698706633758 40.6970111424018341 S
atom 2.5019426910637246 5.0038849359111772 45.7020154754420389 S
atom 7.5058271796421865 5.0038849347193182 45.7020154728176919 S
atom 2.5019422442872754 10.0077698701492572 45.7020154721270160 S
atom 7.5058276264183936 10.0077698713411465 45.7020154761316633 S
atom 2.5019424677314630 2.5019424676090769 48.2783075395629311 Ba
atom 7.5058274029750383 2.5019424677420434 48.2783075395136194 Ba
atom 2.5019424676205353 7.5058274030965340 48.2783075396893295 Ba
atom 7.5058274030859495 7.5058274029635710 48.2783075396398402 Ba
atom 2.5019424676469426 2.5019424676838229 53.2769964245537011 Ba
atom 7.5058274030595200 2.5019424676671109 53.2769964245729142 Ba
atom 2.5019424677056321 7.5058274030215602 53.2769964244975611 Ba
atom 7.5058274030008647 7.5058274030382623 53.2769964245167600 Ba
atom 5.0038849353874335 5.0038849354568891 50.7294984913319169 Zr
atom 10.0077698706735330 5.0038849352057397 50.7294984913296219 Zr
atom 5.0038849353235575 10.0077698706031430 50.7294984913311637 Zr
atom 10.0077698707372438 10.0077698708543110 50.7294984913300624 Zr
atom 5.0038849353112234 5.0038849352435681 55.7799742264861180 Zr
atom 10.0077698707496658 5.0038849354776769 55.7799742264862388 Zr
atom 5.0038849354009693 10.0077698708163343 55.7799742264855212 Zr
atom 10.0077698706600327 10.0077698705821554 55.7799742264860541 Zr
atom 5.0038849366150391 5.0038849344106655 48.2149065294502677 S
atom 10.0077698694453581 5.0038849383709962 48.2149065294500474 S
atom 5.0038849332662627 10.0077698716498578 48.2149065294510137 S
atom 10.0077698727940003 10.0077698676894311 48.2149065294502748 S
atom 5.0038849345822811 5.0038849381673600 53.2581700786591341 S
atom 10.0077698714785619 5.0038849295624113 53.2581700786634613 S
atom 5.0038849370300102 10.0077698678926730 53.2581700786599299 S
atom 10.0077698690308416 10.0077698764975889 53.2581700786615215 S
atom 5.0038849374165268 2.5019423973760779 50.7409840126758596 S
atom 10.0077698686444023 2.5019425379755504 50.7409840063952444 S
atom 5.0038849332852990 7.5058274733296919 50.7409840089734061 S
atom 10.0077698727756381 7.5058273327301812 50.7409840152533889 S
atom 5.0038849324434738 2.5019424771104997 55.7799742226775095 S
atom 10.0077698736174501 2.5019424582393959 55.7799742335659161 S
atom 5.0038849382483379 7.5058273935947630 55.7799742302970643 S
atom 10.0077698678125504 7.5058274124659157 55.7799742194067321 S
atom 2.5019425379748998 5.0038849333297355 50.7409840097646878 S
atom 7.5058273327314797 5.0038849374609358 50.7409840118844713 S
atom 2.5019423973761152 10.0077698727303535 50.7409840127805722 S
atom 7.5058274733304637 10.0077698685991301 50.7409840088682600 S
atom 2.5019424582411030 5.0038849382351067 55.7799742269273793 S
atom 7.5058274124653632 5.0038849324302399 55.7799742260463631 S
atom 2.5019424771115624 10.0077698678247007 55.7799742251793518 S
atom 7.5058273935947719 10.0077698736295968 55.7799742277939572 S
atom 2.5019424677324431 2.5019424676761921 58.2829520284658784 Ba
atom 7.5058274029739689 2.5019424676745223 58.2829520284798619 Ba
atom 2.5019424676192705 7.5058274030290448 58.2829520283961244 Ba
atom 7.5058274030871308 7.5058274030307173 58.2829520284103282 Ba
atom 2.5019424674085813 2.5019424676623094 63.2816409133004143 Ba
atom 7.5058274032976824 2.5019424676876567 63.2816409132687028 Ba
atom 2.5019424679426772 7.5058274030429128 63.2816409134750941 Ba
atom 7.5058274027636109 7.5058274030175447 63.2816409134431623 Ba
atom 5.0038849353838701 5.0038849354148134 60.8304499616411505 Zr
atom 10.0077698706768992 5.0038849353130930 60.8304499616408947 Zr
atom 5.0038849353102774 10.0077698706449958 60.8304499616411078 Zr
atom 10.0077698707503604 10.0077698707467420 60.8304499616420600 Zr
atom 5.0038849353432431 5.0038849353678190 65.8852656641819863 Zr
atom 10.0077698707172580 5.0038849352874530 65.8852656641803094 Zr
atom 5.0038849353749590 10.0077698706929432 65.8852656641803236 Zr
atom 10.0077698706855838 10.0077698707736236 65.8852656641778793 Zr
atom 5.0038849354504409 5.0038849307842774 58.3017783743096132 S
atom 10.0077698706103888 5.0038849432652590 58.3017783743119509 S
atom 5.0038849344843657 10.0077698752757520 58.3017783743114606 S
atom 10.0077698715764551 10.0077698627947704 58.3017783743138409 S
atom 5.0038849357590180 5.0038849405918837 63.3450419235206539 S
atom 10.0077698703015425 5.0038849271971024 63.3450419235212010 S
atom 5.0038849354640300 10.0077698654692249 63.3450419235240716 S
atom 10.0077698705965066 10.0077698788644032 63.3450419235222597 S
atom 5.0038849348686139 2.5019423973755948 60.8189644472306554 S
atom 10.0077698711921848 2.5019425379749847 60.8189644338287891 S
atom 5.0038849358618762 7.5058274733300170 60.8189644370675140 S
atom 10.0077698701989064 7.5058273327306946 60.8189644504686129 S
atom 5.0038849356094408 2.5019422442893675 65.8579329739382899 S
atom 10.0077698704512290 2.5019426910650604 65.8579329861460678 S
atom 5.0038849350770720 7.5058276264176751 65.8579329837470198 S
atom 10.0077698709836156 7.5058271796422140 65.8579329715400235 S
atom 2.5019425379757871 5.0038849358336206 60.8189644423362310 S
atom 7.5058273327306990 5.0038849348403351 60.8189644419621942 S
atom 2.5019423973769532 10.0077698702260989 60.8189644426164477 S
atom 7.5058274733297852 10.0077698712193452 60.8189644416803290 S
atom 2.5019426910640270 5.0038849351204009 65.8579329783342899 S
atom 7.5058271796421323 5.0038849356527821 65.8579329793508492 S
atom 2.5019422442876951 10.0077698709399403 65.8579329789713199 S
atom 7.5058276264183057 10.0077698704075431 65.8579329787141887 S
atom 2.5019424685693270 2.5019424677501259 68.2341085418343454 Ba
atom 7.5058274021369167 2.5019424676007107 68.2341085418709525 Ba
atom 2.5019424667828813 7.5058274029548446 68.2341085415914108 Ba
atom 7.5058274039233579 7.5058274031042345 68.2341085416280038 Ba
atom 2.5019424657620246 2.5019424674589228 73.0416260068536047 Ba
atom 7.5058274049459550 2.5019424678824378 73.0416260068417529 Ba
atom 2.5019424695912864 7.5058274032364407 73.0416260069464442 Ba
atom 7.5058274011166919 7.5058274028129430 73.0416260069346777 Ba
atom 5.0038849353443116 5.0038849352633710 70.9740413571137481 Zr
atom 10.0077698707152880 5.0038849354823878 70.9740413571130233 Zr
atom 5.0038849353548276 10.0077698708028180 70.9740413571121991 Zr
atom 10.0077698707050615 10.0077698705856530 70.9740413571144586 Zr
atom 5.0038849347973864 5.0038849308118234 68.3885668229204100 S
atom 10.0077698712619334 5.0038849417600444 68.3885668229186336 S
atom 5.0038849356458464 10.0077698752559598 68.3885668229167010 S
atom 10.0077698704136431 10.0077698643096014 68.3885668229162746 S
atom 5.0038849357928115 5.0038849385949957 73.4788588964233327 S
atom 10.0077698702602103 5.0038849313672218 73.4788588964270417 S
atom 5.0038849349999150 10.0077698675125362 73.4788588964270417 S
atom 10.0077698710541245 10.0077698747505082 73.4788588964269849 S
atom 5.0038849353411088 2.5019467473987875 70.8629373126969853 S
atom 10.0077698707197289 2.5019381879604135 70.8629373041957251 S
atom 5.0038849353723194 7.5058231233150501 70.8629373054447598 S
atom 10.0077698706885236 7.5058316827556135 70.8629373139453378 S
atom 2.5019381879548179 5.0038849353501327 70.8629373095544963 S
atom 7.5058316827501637 5.0038849353189576 70.8629373085864529 S
atom 2.5019467473951518 10.0077698707097937 70.8629373087482577 S
atom 7.5058231233097521 10.0077698707409830 70.8629373093932600 S
