#=======================================================
# FHI-aims file: full_relax/full_relax_RP_9_RxRyMz_RxRy-Mz.in
# Created using the Atomic Simulation Environment (ASE)
# Mon Mar 24 17:58:11 2025
#=======================================================
lattice_vector 10.0066329305939146 -0.0765471891644451 -0.0000000000000001 
lattice_vector -0.0765471891644445 10.0066329305942219 0.0000000000000014 
lattice_vector -0.0000000000000008 0.0000000000000134 96.0334647264007941 
atom 0.1017638217069387 -0.1821078190887446 0.2148268884095981 Ba
atom 5.1854242843852738 -0.1400374162937288 0.2148268884111828 Ba
atom 0.1438342245029608 4.9015526435842052 0.2148268884158425 Ba
atom 5.0668066924241462 4.7829350516247198 0.2148268884071028 Ba
atom -0.2707475031049222 0.1887590526974355 5.0096528250645713 Ba
atom 4.8145574125999353 0.2324739085202790 5.0096528250647454 Ba
atom -0.2270326472820293 5.2740639683961694 5.0096528250638972 Ba
atom 4.6942953676126891 5.1538019234083379 5.0096528250641752 Ba
atom 2.4831429869399724 2.4724712508891140 2.4039318733128461 Zr
atom 7.4958880851239140 2.4436262891896767 2.4039318733141246 Zr
atom 2.4542980252463633 7.4852163490655208 2.4039318733095616 Zr
atom 7.4481858576566990 7.4375141215984906 2.4039318733098152 Zr
atom 2.4722819543876566 2.4884294100927753 7.4617428813516602 Zr
atom 7.4799299259169532 2.4544873217401273 7.4617428813446729 Zr
atom 2.4383398660347018 7.4960773816211566 7.4617428813548159 Zr
atom 7.4373248251039898 7.4534722808086116 7.4617428813404114 Zr
atom 2.6055723551722112 2.6920104966832001 -0.1037357822566643 S
atom 7.2763488393256184 2.3211969209567394 -0.1037357822595832 S
atom 2.2347587794474801 7.3627869808372290 -0.1037357822453501 S
atom 7.5706152258886217 7.6570533673978902 -0.1037357822583955 S
atom 2.2337775918615481 2.1888435695939945 4.9675566514402405 S
atom 7.7795157664144439 2.6929916842682231 4.9675566514469089 S
atom 2.7379257065348663 7.7345817441474276 4.9675566514291534 S
atom 7.1988204625762906 7.1538864403101226 4.9675566514541929 S
atom 2.8061126743138036 -0.0139111941888691 2.2501250296230815 S
atom 7.1748870198188301 -0.0495266332104391 2.7584233821464155 S
atom 2.1332969599417817 4.9920634266835728 2.7584233821456379 S
atom 7.7711555450297611 4.9511316765445104 2.2501250296209014 S
atom 2.8974253425726477 -0.0172239600835749 7.7914027407175590 S
atom 7.1131820279145952 -0.0526435114049938 7.1748852232650737 S
atom 2.0715919680348818 4.9889465484857718 7.1748852232641358 S
atom 7.8624682132859558 4.9478189106427113 7.7914027407174808 S
atom -0.0243624004080059 2.1972037909786266 2.2501250296215427 S
atom 4.9762959093351045 2.7934723161899297 2.7584233821464625 S
atom -0.0652941505217741 7.8350623760683140 2.7584233821460349 S
atom 4.9406804702787106 7.1622466616965266 2.2501250296227351 S
atom -0.0210496345066430 2.1058911227218515 7.7914027407176105 S
atom 4.9794127875281573 2.8551773080955956 7.1748852232639893 S
atom -0.0621772723582032 7.8967673679732275 7.1748852232648890 S
atom 4.9439932362157535 7.0709339934372153 7.7914027407176505 S
atom 0.2846364959557994 -0.1826461289658686 9.9900992160122186 Ba
atom 5.1859625942602943 -0.3229100905369774 9.9900992160118935 Ba
atom 0.1443725343846452 4.7186799693380017 9.9900992160123465 Ba
atom 5.2496793666676931 4.7823967417445603 9.9900992160119966 Ba
atom -0.2866103166858095 0.1827104391353501 14.9951444425100640 Ba
atom 4.8206060261583499 0.2483367221009272 14.9951444425107407 Ba
atom -0.2209840337204813 5.2899267819807338 14.9951444425109450 Ba
atom 4.6784325540285829 5.1477533098507706 14.9951444425115419 Ba
atom 2.4865749087130227 2.4812444926734245 12.4796820907646691 Zr
atom 7.4871148433377890 2.4401943674137963 12.4796820907677315 Zr
atom 2.4455247834537910 7.4817844272946967 12.4796820907697210 Zr
atom 7.4516177794319605 7.4462873633881275 12.4796820907769508 Zr
atom 2.4806439101448188 2.4833644390827248 17.4944986989630351 Zr
atom 7.4849948969259721 2.4461253659868372 17.4944986989662219 Zr
atom 2.4434048370472481 7.4877154258635574 17.4944986989773348 Zr
atom 7.4456867808581366 7.4484073097972878 17.4944986989756615 Zr
atom 2.7442253020890894 2.8098373854348409 9.9818173861182657 S
atom 7.1585219505744782 2.1825439740407773 9.9818173861184682 S
atom 2.1169318906959469 7.2241340339210183 9.9818173861224206 S
atom 7.7092681728028447 7.7748802561478350 9.9818173861183688 S
atom 2.2163736092594326 2.1523069820434086 14.9924883452213500 S
atom 7.8160523539654241 2.7103956668701783 14.9924883452198348 S
atom 2.7744622940872063 7.7519857267502728 14.9924883451997761 S
atom 7.1814164799737732 7.1173498527580179 14.9924883451982112 S
atom 2.8891157819156508 -0.0211795930885518 12.1741689154585249 S
atom 7.1175991814649349 -0.0569308372385457 12.8117187637066738 S
atom 2.0760091215858330 4.9846592226562141 12.8117187637073897 S
atom 7.8541586526282554 4.9438632776427189 12.1741689154582584 S
atom 2.8875844684563265 -0.0196541752972902 17.8205208140879634 S
atom 7.1180768164588919 -0.0553886345984199 17.1785472900352190 S
atom 2.0764867565800924 4.9862014252570823 17.1785472900347251 S
atom 7.8526273391720407 4.9453886953926558 17.8205208140882903 S
atom -0.0170940015065012 2.1142006833792357 12.1741689154576154 S
atom 4.9837001133624073 2.8507601545450099 12.8117187637075265 S
atom -0.0578899465209195 7.8923502144224331 12.8117187637067875 S
atom 4.9479488692128024 7.0792435540949699 12.1741689154588997 S
atom -0.0186194192757969 2.1157319968384809 17.8205208140878000 S
atom 4.9821579107408906 2.8502825195485704 17.1785472900358300 S
atom -0.0594321491396424 7.8918725794306717 17.1785472900338156 S
atom 4.9464234514403191 7.0807748675513498 17.8205208140886668 S
atom 0.2866149755267670 -0.1817216916198614 20.0030860567293622 Ba
atom 5.1850381569105561 -0.3248885701153126 20.0030860567296003 Ba
atom 0.1434480970301824 4.7167014897713226 20.0030860567293836 Ba
atom 5.2516578462418950 4.7833211791028960 20.0030860567297175 Ba
atom -0.2866149755293586 0.1817216916126178 25.0126005337916624 Ba
atom 4.8215947736847413 0.2483413809437265 25.0126005337920425 Ba
atom -0.2199952861978309 5.2899314408205163 25.0126005337912716 Ba
atom 4.6784278951888787 5.1467645623249378 25.0126005337915949 Ba
atom 2.4825214353509497 2.4825214353493879 22.5078432952073051 Zr
atom 7.4858379006590106 2.4442478407818800 22.5078432952131138 Zr
atom 2.4442478407807133 7.4858379006587716 22.5078432951913108 Zr
atom 7.4475643060622563 7.4475643060648533 22.5078432951959329 Zr
atom 2.4843989605685612 2.4816784316265492 27.5211878915995065 Zr
atom 7.4866809043796660 2.4423703155642382 27.5211878915902375 Zr
atom 2.4450908445014385 7.4839603754433295 27.5211878916232173 Zr
atom 7.4494418312777535 7.4467213023437884 27.5211878916015884 Zr
atom 2.7489919085481658 2.8144240050585640 20.0027982746938235 S
atom 7.1539353309490572 2.1777773675816285 20.0027982746833040 S
atom 2.1123452710692852 7.2193674274606288 20.0027982746960689 S
atom 7.7140347792632271 7.7794668757758192 20.0027982746959481 S
atom 2.2160509621607631 2.1506188656507503 25.0128883159298034 S
atom 7.8177404703600111 2.7107183139691986 25.0128883159328197 S
atom 2.7761504104800792 7.7523083738496155 25.0128883159350899 S
atom 7.1810938328750700 7.1156617363649826 25.0128883159392998 S
atom 2.8879401555771493 -0.0203876192715701 22.1864663077504929 S
atom 7.1186927750104116 -0.0561595698864459 22.8292202828107804 S
atom 2.0771027151318302 4.9854304899838642 22.8292202828110256 S
atom 7.8529830262937050 4.9446552514324695 22.1864663077492175 S
atom 2.8885561141266658 -0.0211585545522997 27.8371393004937566 S
atom 7.1190484621386387 -0.0568930138632198 27.1951657764559194 S
atom 2.0774584022585967 4.9846970460177698 27.1951657764549459 S
atom 7.8535989848423498 4.9438843161623343 27.8371393004952417 S
atom -0.0178859752943461 2.1153763097162486 22.1864663077491464 S
atom 4.9829288460068080 2.8496665609981839 22.8292202828098816 S
atom -0.0586612138630796 7.8912566208786297 22.8292202828121198 S
atom 4.9471568954119451 7.0804191804306296 22.1864663077503437 S
atom -0.0171150400220709 2.1147603511668915 27.8371393004959096 S
atom 4.9836622899809910 2.8493108738710893 27.1951657764564771 S
atom -0.0579277698953690 7.8909009337503813 27.1951657764542531 S
atom 4.9479278306918451 7.0798032218814795 27.8371393004931669 S
atom 0.2866103166858463 -0.1827104391440074 30.0205421480555046 Ba
atom 5.1860269044300447 -0.3248839112703970 30.0205421480556893 Ba
atom 0.1444368445565278 4.7167061486167379 30.0205421480553518 Ba
atom 5.2516531873945249 4.7823324315794205 30.0205421480556751 Ba
atom -0.2846364959594805 0.1826461289687492 35.0255873745437682 Ba
atom 4.8206703363302887 0.2463629013770757 35.0255873745434769 Ba
atom -0.2209197235497026 5.2879529612487080 35.0255873745439033 Ba
atom 4.6804063747565881 5.1476889996756849 35.0255873745431572 Ba
atom 2.4784679620122674 2.4837983780505071 32.5360044998685822 Zr
atom 7.4845609579557282 2.4483013141230834 32.5360044998781959 Zr
atom 2.4429708980805418 7.4898913739994448 32.5360044998404092 Zr
atom 7.4435108327187240 7.4488412487665476 32.5360044998546911 Zr
atom 2.4927609163286490 2.4766134606239145 37.5539437091821284 Zr
atom 7.4917458753836890 2.4340083598086446 37.5539437091970498 Zr
atom 2.4501558155100360 7.4755984196796197 37.5539437092046455 Zr
atom 7.4578037870383893 7.4416563313325703 37.5539437092041055 Zr
atom 2.7486692614522128 2.8127358886667944 30.0231982452390938 S
atom 7.1556234473410880 2.1781000146767666 30.0231982452407458 S
atom 2.1140333874593273 7.2196900745562198 30.0231982452120079 S
atom 7.7137121321666910 7.7777787593826835 30.0231982452394277 S
atom 2.2208175686243319 2.1552054852782625 35.0338692043551561 S
atom 7.8131538507326219 2.7059517075058177 35.0338692043376554 S
atom 2.7715637908522059 7.7475417673860720 35.0338692044075088 S
atom 7.1858604393395193 7.1202483559950513 35.0338692043656152 S
atom 2.8890337491284783 -0.0196163519058557 32.2039678268237139 S
atom 7.1175171486792390 -0.0553675960912498 32.8415176750754370 S
atom 2.0759270887969805 4.9862224637635535 32.8415176750776965 S
atom 7.8540766198431733 4.9454265187820790 32.2039678268247442 S
atom 2.8934509026789232 -0.0239036777893722 37.8408013672799299 S
atom 7.1092075880153827 -0.0593232291179346 37.2242838498178301 S
atom 2.0676175281373066 4.9822668308107749 37.2242838498200967 S
atom 7.8584937733957361 4.9411391929749762 37.8408013672816921 S
atom -0.0186572426452104 2.1142827161660600 32.2039678268239058 S
atom 4.9821368722120223 2.8508421873307999 32.8415176750745488 S
atom -0.0594531876921209 7.8924322472135859 32.8415176750787765 S
atom 4.9463856280957694 7.0793255868784151 32.2039678268242611 S
atom -0.0143699167932475 2.1098655626101972 37.8408013672834471 S
atom 4.9860925051969822 2.8591517479949031 37.2242838498184341 S
atom -0.0554975546517968 7.9007418078708644 37.2242838498195638 S
atom 4.9506729538895211 7.0749084333326193 37.8408013672780186 S
atom 0.2707475030995107 -0.1887590527009902 40.0060337654602378 Ba
atom 5.1920755179968392 -0.3090210976863887 40.0060337654605931 Ba
atom 0.1504854581112530 4.7325689621941933 40.0060337654592360 Ba
atom 5.2357903738201141 4.7762838180138090 40.0060337654593567 Ba
atom -0.1017638217131054 0.1821078190771670 44.8008597021036437 Ba
atom 4.8212086462130106 0.0634902271247926 44.8008597021096051 Ba
atom -0.2203814136641898 5.1050802870101561 44.8008597021051500 Ba
atom 4.8632790490000737 5.1471506897989574 44.8008597021122554 Ba
atom 2.4818998837640636 2.4925716198296355 42.6117547171020092 Zr
atom 7.4757877161877175 2.4448693923724649 42.6117547170866331 Zr
atom 2.4341976563173318 7.4864594522468160 42.6117547171052351 Zr
atom 7.4469427544721087 7.4576144905319790 42.6117547170958062 Zr
atom 2.7312652788472338 2.7761993011154984 40.0481299391908081 S
atom 7.1921600348903079 2.1955039972794501 40.0481299391808463 S
atom 2.1505699750127465 7.2370940571617153 40.0481299391190007 S
atom 7.6963081495639161 7.7412421718311135 40.0481299391572847 S
atom 2.3594705155308580 2.2730323740236984 45.1194223728629922 S
atom 7.6953269619894247 2.5672987605981477 45.1194223728900710 S
atom 2.6537369021086867 7.6088888204810470 45.1194223729023989 S
atom 7.3245133862476868 7.2380752447372005 45.1194223728832071 S
atom 2.8317459107709917 -0.0270205559089899 42.2572632084176334 S
atom 7.2005202562751753 -0.0626359950034078 42.7655615609390694 S
atom 2.1589301963973964 4.9789540648191180 42.7655615609386572 S
atom 7.7967887814868790 4.9380223147609987 42.2572632084195945 S
atom -0.0112530385960650 2.1715705545236266 42.2572632084190900 S
atom 4.9894052710909502 2.7678390797334225 42.7655615609365611 S
atom -0.0521847887894273 7.8094291396189934 42.7655615609416628 S
atom 4.9537898321190434 7.1366134252366793 42.2572632084186495 S
atom 2.3004136162852244 2.5842852570718708 48.2315592516572096 Ba
atom 7.3840740789324322 2.6263556598582807 48.2315592516552840 Ba
atom 2.3424840190697327 7.6679457197280181 48.2315592516445690 Ba
atom 7.2654564869821332 7.5493281277786819 48.2315592516485054 Ba
atom 2.6712804880569068 2.2117739322590388 53.0263851882726485 Ba
atom 7.7565854037556079 2.2554887880791350 53.0263851882760946 Ba
atom 2.7149953438803052 7.2970788479451327 53.0263851882760164 Ba
atom 7.6363233587686032 7.1768168029610120 53.0263851882788018 Ba
atom 4.9549926862593159 4.9656644222969382 50.4206642366890563 Zr
atom 9.9677377844110193 4.9368194605734992 50.4206642366940301 Zr
atom 4.9261477245249017 9.9784095204938250 50.4206642366712998 Zr
atom 9.9200355569610501 9.9307072930438878 50.4206642366963678 Zr
atom 4.9709508454532738 4.9548033897486263 55.4784752444444536 Zr
atom 9.9785988169679740 4.9208613013889382 55.4784752445058373 Zr
atom 4.9370087570990275 9.9624513612677745 55.4784752444940068 Zr
atom 9.9359937161654646 9.9198462604651372 55.4784752445216967 Zr
atom 5.1745319320528091 5.0880937905440611 47.9129965807830160 S
atom 9.8453084161853752 4.7172802147970643 47.9129965808223233 S
atom 4.8037183563026948 9.7588702746748943 47.9129965808180174 S
atom 10.1395748027590074 10.0531366612519264 47.9129965808381968 S
atom 4.6713650049527491 4.7162990272242338 52.9842890146840872 S
atom 10.2171031795015121 5.2204471418923095 52.9842890145958449 S
atom 5.1755131196191746 10.2620372017654873 52.9842890146518286 S
atom 9.6364078756660430 9.6813418979351393 52.9842890145464906 S
atom 4.6797252263303140 2.4581590348860596 50.2668573927908682 S
atom 10.3175838114210183 2.4172272847874803 50.7751557453166598 S
atom 5.2759937515517699 7.4588173447387573 50.7751557453211291 S
atom 9.6447680970488872 7.4232019056891376 50.2668573927987978 S
atom 4.5884125580788009 2.4614718008360126 55.8081351039288194 S
atom 10.3792888033365784 2.4203441630277376 55.1916175864660303 S
atom 5.3376987434479695 7.4619342229009380 55.1916175864734626 S
atom 9.5534554287868581 7.4265146715424795 55.8081351039316544 S
atom 2.4686102411122777 5.2886341096859981 50.2668573927914224 S
atom 7.4745848620900768 4.6158183952963130 50.7751557453183722 S
atom 2.4329948021123511 9.6574084551767605 50.7751557453190827 S
atom 7.4336531119542331 10.2536769803838528 50.2668573927981654 S
atom 2.4652974753045007 5.3799467779321155 55.8081351039301907 S
atom 7.4714679838142972 4.5541134033911579 55.1916175864703860 S
atom 2.4298779240247517 9.5957034632671121 55.1916175864687730 S
atom 7.4303403459292090 10.3449896486501061 55.8081351039303897 S
atom 2.2998753063796453 2.7671579313094532 58.0068315791956266 Ba
atom 7.2012014047065609 2.6268939697333717 58.0068315791946603 Ba
atom 2.1596113448067893 7.6684840296216734 58.0068315791964650 Ba
atom 7.2649181771161606 7.7322008020307775 58.0068315791964508 Ba
atom 2.6652318744995647 2.1959111186658524 63.0118768056800107 Ba
atom 7.7724482173312985 2.2615374016282752 63.0118768056803660 Ba
atom 2.7308581574575150 7.3031274615201438 63.0118768056790088 Ba
atom 7.6302747452078190 7.1609539893924392 63.0118768056787246 Ba
atom 4.9637659280089359 4.9690963440634164 60.4964144538858477 Zr
atom 9.9643058626663059 4.9280462188350684 60.4964144538512940 Zr
atom 4.9227158027865050 9.9696362787072417 60.4964144539018847 Zr
atom 9.9288087987321418 9.9341392147668373 60.4964144538486011 Zr
atom 4.9658858744369629 4.9631653455020723 65.5112310621671554 Zr
atom 9.9702368612248158 4.9259262724129051 65.5112310621306477 Zr
atom 4.9286468013437510 9.9675163322893336 65.5112310621264271 Zr
atom 9.9309287451525918 9.9282082162125285 65.5112310621539393 Zr
atom 5.2923588207885883 5.2267467374456631 57.9985497494080136 S
atom 9.7066554692751463 4.5994533260510675 57.9985497494023292 S
atom 4.6650654093978350 9.6410433859308018 57.9985497493445621 S
atom 10.2574016915090649 10.1917896081613346 57.9985497494420912 S
atom 4.6348284174037611 4.6988950446192383 63.0092207085220366 S
atom 10.2345071621049719 5.2569837294394439 63.0092207085717249 S
atom 5.1929171022268319 10.2985737893245162 63.0092207085507567 S
atom 9.5998712881166597 9.6639379153320828 63.0092207085220579 S
atom 4.5967221187366345 2.4654274338968500 60.1909012786636808 S
atom 10.3748716497839162 2.4246314888238736 60.8284511269206334 S
atom 5.3332815899048871 7.4662215486727872 60.8284511269175212 S
atom 9.5617649894506140 7.4304703045822782 60.1909012786667148 S
atom 4.5982534321995940 2.4639020160976011 65.8372531772870389 S
atom 10.3743940147765290 2.4230892862488158 65.1952796532572449 S
atom 5.3328039549009851 7.4646793460783654 65.1952796532570744 S
atom 9.5632963029177258 7.4289448867640528 65.8372531772855183 S
atom 2.4613418423100990 5.3716372172667946 60.1909012786656348 S
atom 7.4671806579740281 4.5585305569410233 60.8284511269181607 S
atom 2.4255905980982546 9.6001206168198134 60.8284511269201360 S
atom 7.4263847130170166 10.3366800879880518 60.1909012786647040 S
atom 2.4628672600312154 5.3701059038049941 65.8372531772851488 S
atom 7.4687228606419360 4.5590081919461287 65.1952796532584387 S
atom 2.4271328007466968 9.6005982518216992 65.1952796532555112 S
atom 7.4279101307622915 10.3351487745249511 65.8372531772876641 S
atom 2.3007997437513703 2.7691364108763725 68.0198184199745981 Ba
atom 7.1992229251210968 2.6259695323821171 68.0198184199757208 Ba
atom 2.1576328652499135 7.6675595922676925 68.0198184199728928 Ba
atom 7.2658426144565702 7.7341792815973260 68.0198184199734897 Ba
atom 2.6642431269670510 2.1959064598250349 73.0293328970110878 Ba
atom 7.7724528761873781 2.2625261491583109 73.0293328970097519 Ba
atom 2.7308628162960984 7.3041162090362439 73.0293328970101641 Ba
atom 7.6292859976951819 7.1609493305373944 73.0293328970104625 Ba
atom 4.9650428707325114 4.9650428707251706 70.5245756586065653 Zr
atom 9.9683593359942559 4.9267692761209663 70.5245756586751469 Zr
atom 4.9267692761182582 9.9683593360006579 70.5245756586270147 Zr
atom 9.9300857414388339 9.9300857414453354 70.5245756586264179 Zr
atom 4.9641998669936687 4.9669203959328314 75.5379202546855879 Zr
atom 9.9664818107928834 4.9276122798515489 75.5379202546449164 Zr
atom 4.9248917509077383 9.9692023397314422 75.5379202546652380 Zr
atom 9.9292427377104797 9.9319632666497952 75.5379202546641721 Zr
atom 5.2969454404227783 5.2315133439110575 68.0195306376932507 S
atom 9.7018888628124689 4.5948667064249031 68.0195306377102895 S
atom 4.6602988029318286 9.6364567663012419 68.0195306377372617 S
atom 10.2619883111368182 10.1965562146277744 68.0195306377258220 S
atom 4.6331403010140875 4.6985723975252229 73.0296206791263671 S
atom 10.2348298091990557 5.2586718458334385 73.0296206790048785 S
atom 5.1932397493185167 10.3002619057110181 73.0296206790535507 S
atom 9.5981831717262907 9.6636152682404397 73.0296206790738580 S
atom 4.5978977450657892 2.4646354600274307 70.2031986709142330 S
atom 10.3737780562322026 2.4238602215094334 70.8459526459816118 S
atom 5.3321879963531016 7.4654502813958405 70.8459526459851503 S
atom 9.5629406157833419 7.4296783307478576 70.2031986709140341 S
atom 4.5972817865179829 2.4654063953736443 75.8538716637251866 S
atom 10.3734223691150707 2.4245936654168614 75.2118981396675110 S
atom 5.3318323092298714 7.4661837252974621 75.2118981396710353 S
atom 9.5623246572248508 7.4304492660895622 75.8538716637319226 S
atom 2.4621338160440933 5.3704615909439042 70.2031986709136646 S
atom 7.4679519253814846 4.5596241504896824 70.8459526459839850 S
atom 2.4263618654831447 9.6012142103683153 70.8459526459831892 S
atom 7.4271766867812010 10.3355044616561766 70.2031986709142615 S
atom 2.4613628808844266 5.3710775494903418 75.8538716637289099 S
atom 7.4672184812948288 4.5599798376152583 75.2118981396699837 S
atom 2.4256284214917394 9.6015698974921637 75.2118981396685058 S
atom 7.4264057515249249 10.3361204202069441 75.8538716637279293 S
atom 2.2998109962208515 2.7691317520405341 78.0372745112085084 Ba
atom 7.1992275839684146 2.6269582799095859 78.0372745112109953 Ba
atom 2.1576375240895338 7.6685483397860015 78.0372745112097732 Ba
atom 7.2648538669358480 7.7341746227527643 78.0372745112101569 Ba
atom 2.6651675643246797 2.1978849394061979 83.0423197377503897 Ba
atom 7.7704743966055512 2.2616017118097100 83.0423197377510292 Ba
atom 2.7288843367329458 7.3031917716798098 83.0423197377481728 Ba
atom 7.6302104350327067 7.1629278101134748 83.0423197377505034 Ba
atom 4.9663198133879503 4.9609893973549628 80.5527368629984721 Zr
atom 9.9724128093725319 4.9254923334520768 80.5527368629738021 Zr
atom 4.9308227494904093 9.9670823933257253 80.5527368629741005 Zr
atom 9.9313626841082439 9.9260322680653239 80.5527368629795433 Zr
atom 4.9591348959685746 4.9752823516743154 85.5706760724446127 Zr
atom 9.9581198550470535 4.9326772508724117 85.5706760724589657 Zr
atom 4.9165297951697120 9.9742673107524293 85.5706760724582267 Zr
atom 9.9241777666849682 9.9403252223903635 85.5706760724627742 Zr
atom 5.2952573240288894 5.2311906968129556 78.0399306085259923 S
atom 9.7022115099091497 4.5965548228147535 78.0399306087075786 S
atom 4.6606214500318695 9.6381448826963609 78.0399306086452640 S
atom 10.2603001947428059 10.1962335675275266 78.0399306086131332 S
atom 4.6377269206314535 4.7033390039781864 83.0506015676144642 S
atom 10.2300632027406255 5.2540852262067865 83.0506015675030795 S
atom 5.1884731428630255 10.2956752860850127 83.0506015675536133 S
atom 9.6027697913493242 9.6683818746948376 83.0506015675665026 S
atom 4.5968041515274054 2.4638641926425886 80.2207001900373058 S
atom 10.3749536825602728 2.4230682477364294 80.8582500382732121 S
atom 5.3333636226864307 7.4646583076402138 80.8582500382779159 S
atom 9.5618470222471004 7.4289070633811018 80.2207001900415690 S
atom 4.5923869979754839 2.4681515185343548 85.8575337304720989 S
atom 10.3832632432298340 2.4270238806770514 85.2410162130134381 S
atom 5.3416731833476394 7.4686139405830740 85.2410162130167777 S
atom 9.5574298686872954 7.4331943892760677 85.8575337304733495 S
atom 2.4629050833336787 5.3715551844828511 80.2207001900385137 S
atom 7.4687438992384338 4.5584485241526949 80.8582500382765943 S
atom 2.4271538392919347 9.6000385840382467 80.8582500382752727 S
atom 7.4279479541141260 10.3365980551949885 80.2207001900396648 S
atom 2.4586177576074921 5.3759723380344013 85.8575337304733068 S
atom 7.4647882661297587 4.5501389634939144 85.2410162130145608 S
atom 2.4231982062783821 9.5917290233755601 85.2410162130158824 S
atom 7.4236606282917501 10.3410152087476188 85.8575337304716584 S
atom 2.2937623826575120 2.7532689384593212 88.0227661286820506 Ba
atom 7.2150903975496492 2.6330068934737167 88.0227661286824343 Ba
atom 2.1735003376701116 7.6745969533498286 88.0227661286824059 Ba
atom 7.2588052533728966 7.7183118091713112 88.0227661286824627 Ba
atom 2.6646292544455625 2.3807576136458612 92.8175920653227848 Ba
atom 7.5876017223604766 2.2621400216856271 92.8175920653241207 Ba
atom 2.5460116624886360 7.3037300815662283 92.8175920653205253 Ba
atom 7.6296721251522088 7.3458004843621314 92.8175920653239785 Ba
atom 4.9750930551725432 4.9644213191269824 90.6284870804042555 Zr
atom 9.9689808875970769 4.9167190916535448 90.6284870803889788 Zr
atom 4.9273908277178169 9.9583091515324629 90.6284870804060034 Zr
atom 9.9401359258972821 9.9294641898398019 90.6284870804000207 Zr
atom 5.2587207364743769 5.2137867142065009 88.0648623022469508 S
atom 9.7196154925166578 4.6330914103703709 88.0648623023325428 S
atom 4.6780254326386714 9.6746814702516826 88.0648623022835295 S
atom 10.2237636071889568 10.1788295849201091 88.0648623022689492 S
atom 4.7555538093821079 4.8419919508932772 93.1361547360480699 S
atom 10.0914102558248882 5.1362583374557680 93.1361547360019557 S
atom 5.0498201959478557 10.1778483973362306 93.1361547360118749 S
atom 9.7205966800995309 9.8070348216086529 93.1361547360334185 S
atom 4.6540919898776725 2.4712683966852365 90.2739955716021285 S
atom 10.2919505749644831 2.4303366466604368 90.7822939241277993 S
atom 5.2503605150899926 7.4719267065392909 90.7822939241302294 S
atom 9.6191348605953255 7.4363112673997716 90.2739955716042459 S
atom 2.4555008793327811 5.3142673461285463 90.2739955716039191 S
atom 7.4614755003234698 4.6414516317494945 90.7822939241292204 S
atom 2.4198854403876675 9.6830416916314093 90.7822939241298030 S
atom 7.4205437500899984 10.2793102168436281 90.2739955716037485 S
