#=======================================================
# FHI-aims file: full_relax/full_relax_RP_3_RxRyRz_-Rx-Ry-Rz.in
# Created using the Atomic Simulation Environment (ASE)
# Fri Mar 14 11:21:37 2025
#=======================================================
lattice_vector 10.0410235397506007 -0.0044912730373046 -0.0128624945760486 
lattice_vector -0.0044912730472930 10.0410235381933681 0.0128625004220672 
lattice_vector -0.0498303862175010 0.0498304075089838 35.6921832670553556 
atom 0.0448153236857701 -0.1333691927804688 0.2378966953973719 Ba
atom 5.1538809026453958 -0.0470608391219724 0.2314661270288136 Ba
atom 0.1311234299355085 4.9756964737089859 0.2443285127698985 Ba
atom 5.0630814116098106 4.8848970566651264 0.2378969667254703 Ba
atom -0.2467040427952190 0.1959955878986696 4.9753114339579465 Ba
atom 4.8245160352177079 0.2444582954694082 4.9688800936533877 Ba
atom -0.1982413570360599 5.2672159187596508 4.9817426295642733 Ba
atom 4.7715621825778660 5.2142619228763136 4.9753116039491019 Ba
atom 2.4909954744440617 2.5266116804706100 2.3866600098854653 Zr
atom 7.5121668275407636 2.5250236822299352 2.3802277829407723 Zr
atom 2.4894086332439507 7.5477824093809227 2.3930901174288088 Zr
atom 7.5092623614580791 7.5448779760663855 2.3866604154973388 Zr
atom 2.4987515836163552 2.5195150806669058 7.4358702110884494 Zr
atom 7.5192642378644701 2.5172677000574142 7.4294420920019411 Zr
atom 2.4965069310690242 7.5400253585381689 7.4423041876343738 Zr
atom 7.5170177864172878 7.5377809334024750 7.4358698670969883 Zr
atom 2.6650436829775233 2.7930657653869098 -0.1152413971050327 S
atom 7.2457121043912025 2.3509766745986864 -0.1216739452288169 S
atom 2.2229546027398928 7.3737345430969823 -0.1088104505087561 S
atom 7.6833100392831346 7.8113320068106136 -0.1152415925717406 S
atom 2.2338406383557405 2.2132419550003641 4.9367595947491338 S
atom 7.8255364545682129 2.7821803900708284 4.9303270697203647 S
atom 2.8027791344732345 7.8049380122469749 4.9431895287234102 S
atom 7.2521066905914529 7.2315077055091193 4.9367596680643580 S
atom 2.7155598220865445 0.0244740638371180 2.2060546940222743 S
atom 7.2448921975243019 0.0255068871730257 2.7449792995627758 S
atom 2.2221348130859861 5.0482633420786440 2.7578418276125163 S
atom 7.7338259453558296 5.0427417134240251 2.2060547844943885 S
atom 2.8709703384177385 0.0059956235826312 7.7369263644436685 S
atom 7.1492915609450662 0.0102759314600650 7.1219538611397777 S
atom 2.1265341474152168 5.0330326253524911 7.1348162461702307 S
atom 7.8892364774318056 5.0242622209240455 7.7369264653212655 S
atom -0.0267202954601463 2.3049520336363427 2.2124861444094854 S
atom 4.9905132508305083 2.7938861073483245 2.7514107460656740 S
atom -0.0322441073235433 7.8166434697386249 2.7642728780186308 S
atom 4.9915460534251777 7.3232179840300438 2.2124859576723730 S
atom -0.0082425174809854 2.1495419762523209 7.7433575305561053 S
atom 5.0057430334700630 2.8894869539704606 7.1283848901602660 S
atom -0.0170140850866314 7.9122443756071412 7.1412475231654309 S
atom 5.0100232856608553 7.1678080986462289 7.7433576163723359 S
atom 0.2259413492678077 -0.1752332384849754 9.8964312608356568 Ba
atom 5.1957449283277883 -0.2281868709837933 9.8899999508784777 Ba
atom 0.1729876050429535 4.7945704631010670 9.9028623004975529 Ba
atom 5.2442074631955888 4.8430328583369491 9.8964312695713819 Ba
atom -0.0655780447323686 0.1541316517414087 14.6338466050890919 Ba
atom 4.8663798718062647 0.0633321799917063 14.6274153675986067 Ba
atom -0.1563774919120905 5.0860896662984221 14.6402782167415619 Ba
atom 4.9526880437028007 5.1723977555707243 14.6338464968765880 Ba
atom 2.5065077441881169 2.5124169319669467 12.4850812654404653 Zr
atom 7.5263593825049995 2.5095132749029250 12.4786512321464365 Zr
atom 2.5036030320428204 7.5322707314358963 12.4915142180048093 Zr
atom 7.5247736409774557 7.5306840270117616 12.4850816589873190 Zr
atom 2.7636632192128183 2.8257870877919089 9.9349868017087477 S
atom 7.2129910297428310 2.2523575702952012 9.9285538341716890 S
atom 2.1902336399979552 7.2751147826419409 9.9414166574797189 S
atom 7.7819296807420679 7.8440532318968472 9.9349861853692474 S
atom 2.3324595038849583 2.2459626834316744 14.9869859635594160 S
atom 7.7928148197427234 2.6835606048168743 14.9805520105907846 S
atom 2.7700577506973172 7.7063182381146946 14.9934135243994877 S
atom 7.3507255860297063 7.2642293072961772 14.9869863494966484 S
atom 2.7753683781695355 -0.0092355963847613 12.1139015671799282 S
atom 7.3047011628458485 -0.0082033923293401 12.6528257606740748 S
atom 2.2819437690799300 5.0145547234094963 12.6656880834806298 S
atom 7.7936345946060284 5.0090292183968446 12.1139012829213915 S
atom 0.0069917429514564 2.2451429793016153 12.1203327092450799 S
atom 5.0242245453435235 2.7340771117252727 12.6592570160076754 S
atom 0.0014660917358242 7.7568345188032435 12.6721194269534330 S
atom 5.0252568928575814 7.2634090682676300 12.1203328719978050 S
atom 2.6175863527261267 2.4892331634434099 18.0839890385210396 Ba
atom 7.5495449400347550 2.3984340865228901 18.0775582530428665 Ba
atom 2.5267866818347344 7.4211901445042319 18.0904208385605401 Ba
atom 7.6358535307685154 7.5074980358521870 18.0839887771729479 Ba
atom 2.2882220656757641 2.7807520183003271 22.8214030900437415 Ba
atom 7.2580257166286355 2.7277980249604310 22.8149718014426526 Ba
atom 2.2352681766670690 7.7505558399537238 22.8278344982284871 Ba
atom 7.3064885441049094 7.7990186155644174 22.8214033965563061 Ba
atom 4.9758730035040264 5.0613177812542256 20.2327547121722624 Zr
atom 9.9957262804820335 5.0584137828233935 20.2263123224246684 Zr
atom 4.9729684313738263 10.0811698438397066 20.2391810082920962 Zr
atom 9.9941385983048576 10.0795844003191011 20.2327567494863914 Zr
atom 4.9829696473677512 5.0535640628353180 25.2819670689576839 Zr
atom 10.0034818808607469 5.0513163377333141 25.2755291563253834 Zr
atom 4.9807255015997178 10.0740733110003458 25.2883965697903612 Zr
atom 10.0012349773793918 10.0718297963195518 25.2819642560412881 Zr
atom 4.7094182447226167 4.8872701175660689 17.7308451903944899 S
atom 10.1697730012813157 5.3248679260103104 17.7244247339224401 S
atom 5.1470158402749249 10.3476254622169144 17.7372808766314698 S
atom 9.7276841536066616 9.9055365359457355 17.7308440775505680 S
atom 5.2892427386020247 5.3184737226870791 22.7828436792338600 S
atom 9.7385698640242619 4.7450442852757639 22.7764230381175565 S
atom 4.7158119635087523 9.7678011712466724 22.7892776278327602 S
atom 10.3075085640551833 10.3367399072871144 22.7828465297622529 S
atom 4.7085979556523263 2.5618039156465304 20.5975034427011359 S
atom 10.2202896848162013 2.5562806515636987 20.0457150840243763 S
atom 5.1975319811757332 7.5790379180323564 20.0585790112035127 S
atom 9.7268642555738012 7.5800682313823211 20.5975024846357293 S
atom 4.6129972125978362 2.5465692227622001 24.9744775698920449 S
atom 10.3756995868558146 2.5377961423489097 25.5765861162775465 S
atom 5.3529423131079836 7.5605556806776821 25.5894503325638105 S
atom 9.6312632105144349 7.5648363491572654 24.9744759094142381 S
atom 2.4542185604547706 5.3301791127662783 20.6039338934365084 S
atom 7.4780099214333164 4.8367540396588264 20.0521467870237942 S
atom 2.4552506521285431 9.8595113120495164 20.0650098201707436 S
atom 7.4724883835243867 10.3484449927435449 20.6039342562748828 S
atom 2.4694502230499302 5.4257807369139854 24.9809073585394827 S
atom 7.4964860238325821 4.6813443601523730 25.5830177008623458 S
atom 2.4737296981148869 9.7041021103960361 25.5958813818667998 S
atom 7.4877172446077189 10.4440469804499845 24.9809088083935897 S
atom 2.6594511829624103 2.3081069705241930 27.7425233720980096 Ba
atom 7.7306709666238245 2.3565696653889097 27.7360918506450531 Ba
atom 2.7079138926055482 7.3793271015565969 27.7489541320061832 Ba
atom 7.6777167087714577 7.3263731020962330 27.7425229614648003 Ba
atom 2.3300868076760102 2.5996267064379448 32.4799372969691689 Ba
atom 7.4391515416615555 2.6859355023294840 32.4735067576296927 Ba
atom 2.4163946930086433 7.7086917302245475 32.4863687895302604 Ba
atom 7.3483519407992022 7.6178917828656276 32.4799376173535421 Ba
atom 4.9900677586980571 5.0458056444051760 30.3311751319588296 Zr
atom 10.0112345349318161 5.0442210143675750 30.3247470187296067 Zr
atom 4.9884773906464970 10.0669781391232860 30.3376091850403640 Zr
atom 10.0083333422831675 10.0640719853047234 30.3311708537940703 Zr
atom 4.6766969803250191 4.7886512865040842 27.7810735297212759 S
atom 10.2683932452479869 5.3575904079973755 27.7746540426498072 S
atom 5.2456353833846148 10.3803471725642105 27.7875074681746383 S
atom 9.6949631646310586 9.8069176291751923 27.7810744280645281 S
atom 5.2565204292578045 5.2198546209794703 32.8330754111032590 S
atom 9.8371895036704711 4.7777654562745884 32.8266413325839324 S
atom 4.8144321199870195 9.8005231412524090 32.8395036281313040 S
atom 10.2747867793176777 10.2381209652690046 32.8330819405975802 S
atom 4.7684067060106070 2.5280907272086561 30.5053491708263564 S
atom 10.2800982086103083 2.5225638926713416 29.9535608183762605 S
atom 5.2573406974517667 7.5453241165740392 29.9664244908157364 S
atom 9.7866730806309263 7.5463581957103525 30.5053475994746357 S
atom 2.4879344646510320 5.2703712023173530 30.5117795528472264 S
atom 7.5117180716819236 4.7769458648318439 29.9599925318498848 S
atom 2.4889632060027442 9.7997031341869878 29.9728553965818705 S
atom 7.5061975319587360 10.2886368666646142 30.5117798991241074 S
