#=======================================================
# FHI-aims file: full_relax/full_relax_RP_2_RxRyRz_-Rx-RyRz.in
# Created using the Atomic Simulation Environment (ASE)
# Fri Mar 14 11:18:25 2025
#=======================================================
lattice_vector 10.0810422155742536 0.1195222208345483 -0.0000000000019642 
lattice_vector 0.1195222208345640 10.0810422155744188 -0.0000000000023872 
lattice_vector -0.0000000000053164 -0.0000000000064359 25.5129814529960264 
atom -0.0998308116663599 -0.0998264539513192 0.2830150607944857 Ba
atom 5.1403475616833010 0.1595919226417273 0.2830150600237486 Ba
atom 0.1595875649791959 5.1403519198299659 0.2830150603102550 Ba
atom 5.0004514056037390 5.0004557637428588 0.2830150596333915 Ba
atom 0.0263234478881621 0.0263234481877810 4.9063425868963515 Ba
atom 5.0141976598423241 0.0334376618434421 4.9063425868905144 Ba
atom 0.0334376614274416 5.0141976594263893 4.9063425868900534 Ba
atom 5.1266056671008764 5.1266056668035942 4.9063425868920145 Ba
atom 2.5408091768376502 2.5408097203502207 2.3647053840397674 Zr
atom 7.5999936057387876 2.6192341520862539 2.3647053863203817 Zr
atom 2.6192336086653096 7.5999941494987056 2.3647053854122979 Zr
atom 7.6410913944064109 7.6410919381921021 2.3647053866215977 Zr
atom 2.5408097200253539 2.5408091764708796 7.4479797875422857 Zr
atom 7.5999941496591177 2.6192336088114270 7.4479797856965932 Zr
atom 2.6192341522384792 7.5999936057917123 7.4479797863308494 Zr
atom 7.6410919383375022 7.6410913946461685 7.4479797863951829 Zr
atom 2.7330712070880221 2.7330735425382140 -0.1263035288282347 S
atom 7.4077297836186871 2.4269721218561142 -0.1263035249827074 S
atom 2.4269697862643782 7.4077321192153072 -0.1263035270804352 S
atom 7.8333534247857335 7.8333557604761594 -0.1263035255784937 S
atom 2.2948880261419680 2.2948880261899491 4.9063425871665505 S
atom 7.8459152998915158 2.8651553024660341 4.9063425879880729 S
atom 2.8651553023137599 7.8459152997121961 4.9063425870507285 S
atom 7.3951702444476819 7.3951702444227649 4.9063425865543531 S
atom 2.5202562741458139 0.0298812103919170 2.2328208464938788 S
atom 7.5607842398991334 0.0896421856329468 2.6833808506028873 S
atom 2.5800242425857896 5.0704021822929723 2.6833808517608095 S
atom 7.6205384924378174 5.1301634283121373 2.2328208456721446 S
atom 2.5202648333700441 0.0298799007509362 7.5798643283251588 S
atom 7.5607790834568691 0.0896411453273840 7.1293043240540959 S
atom 2.5800190860595045 5.0704011432855705 7.1293043232526454 S
atom 7.6205470516898597 5.1301621186768323 7.5798643288248178 S
atom 0.0298799005236003 2.5202648333887634 2.2328208461510441 S
atom 5.0704011430182216 2.5800190859320287 2.6833808511903077 S
atom 0.0896411463525601 7.5607790833830819 2.6833808511330681 S
atom 5.1301621180964956 7.6205470518486722 2.2328208460619781 S
atom 0.0298812103586794 2.5202562740179721 7.5798643282672691 S
atom 5.0704021827678254 2.5800242426644644 7.1293043234715947 S
atom 0.0896421853754847 7.5607842400707401 7.1293043238636189 S
atom 5.1301634280284469 7.6205384923923738 7.5798643288289380 S
atom -0.0998264538797534 -0.0998308117185754 9.5296701134745732 Ba
atom 5.1403519197283982 0.1595875644117165 9.5296701141040145 Ba
atom 0.1595919221650937 5.1403475616112582 9.5296701140376054 Ba
atom 5.0004557642858103 5.0004514062543652 9.5296701141426858 Ba
atom 2.7330735426193744 2.7330712070110850 9.9389887037633411 S
atom 7.4077321189903573 2.4269697860752277 9.9389887005408468 S
atom 2.4269721217398375 7.4077297834644318 9.9389887016797100 S
atom 7.8333557606332205 7.8333534250351207 9.9389887001077497 S
atom 2.6499719213607071 2.6499675632791702 13.0395057861805910 Ba
atom 7.4908357626726332 2.5100714075602548 13.0395057874127716 Ba
atom 2.5100757656208441 7.4908314048589393 13.0395057871114943 Ba
atom 7.7502541390305177 7.7502497812906617 13.0395057873785181 Ba
atom 2.5238176603808151 2.5238176606363116 17.6628333134892053 Ba
atom 7.6169856656691968 2.6362256680043741 17.6628333134907223 Ba
atom 2.6362256676110967 7.6169856652831269 17.6628333136030555 Ba
atom 7.6240998790970238 7.6240998788613288 17.6628333135308750 Ba
atom 5.1096141505578156 5.1096136071126290 15.1211961122522887 Zr
atom 10.1314719370895343 5.1507113962256623 15.1211961126219112 Zr
atom 5.1507119393988354 10.1314713932695302 15.1211961119880431 Zr
atom 10.2098963691444578 10.2098958257834358 15.1211961137281410 Zr
atom 5.1096136070837659 5.1096141508702555 20.2044705133603273 Zr
atom 10.1314713934024994 5.1507119394062952 20.2044705128202224 Zr
atom 5.1507113959231425 10.1314719370608319 20.2044705131188636 Zr
atom 10.2098958256664520 10.2098963690625375 20.2044705130999489 Zr
atom 4.9173521202564663 4.9173497847455483 12.6301872006942091 S
atom 10.3237357592812842 5.3429734262970285 12.6301871996355324 S
atom 5.3429757617233182 10.3237334236198599 12.6301872007082956 S
atom 10.0176343387630791 10.0176320031932207 12.6301872014712817 S
atom 5.3555353011599083 5.3555353011536928 17.6628333097871710 S
atom 9.8855502429299555 4.9047902457048629 17.6628333218523252 S
atom 4.9047902458852795 9.8855502432065059 17.6628333134636009 S
atom 10.4558175191659917 10.4558175192716494 17.6628333098626698 S
atom 5.0703990844452349 2.5800211446716181 15.4398715776131716 S
atom 10.1109270505606617 2.6397821214880861 14.9893115715381509 S
atom 5.1301670531859207 7.6205421175428087 14.9893115727508786 S
atom 10.1706813028090135 7.6803033602368140 15.4398715767003694 S
atom 5.0704042413338186 2.5800221841153741 19.8857950497288165 S
atom 10.1109184907123293 2.6397834280584327 20.3363550543714346 S
atom 5.1301584938152835 7.6205434264925556 20.3363550548662921 S
atom 10.1706864595372117 7.6803044040539916 19.8857950498691842 S
atom 2.5800221828609251 5.0704042413446331 15.4398715768732320 S
atom 7.6205434287072391 5.1301584940539975 14.9893115717817960 S
atom 2.6397834298501479 10.1109184912829093 14.9893115724939143 S
atom 7.6803044027974794 10.1706864593988193 15.4398715774475654 S
atom 2.5800211463145861 5.0703990846616689 19.8857950494667328 S
atom 7.6205421153151081 5.1301670528841132 20.3363550541673455 S
atom 2.6397821198681748 10.1109270502401536 20.3363550551385117 S
atom 7.6803033622920323 10.1706813029341152 19.8857950500796399 S
atom 2.6499675632627384 2.6499719214755704 22.2861608426181057 Ba
atom 7.4908314052400957 2.5100757658325628 22.2861608402288951 Ba
atom 2.5100714072039696 7.4908357624578112 22.2861608415721548 Ba
atom 7.7502497813361693 7.7502541390035216 22.2861608404612852 Ba
atom 4.9173497845909955 4.9173521201989292 22.6954794302578193 S
atom 10.3237334240158294 5.3429757622316920 22.6954794267386752 S
atom 5.3429734263604223 10.3237357593349639 22.6954794292943589 S
atom 10.0176320031377752 10.0176343386741955 22.6954794271151457 S
