#=======================================================
# FHI-aims file: full_relax/full_relax_RP_1_00Rz_000.in
# Created using the Atomic Simulation Environment (ASE)
# Fri Mar 14 11:16:59 2025
#=======================================================
lattice_vector 10.0137778567155991 0.0000000000000000 0.0000000000000002 
lattice_vector 0.0000000000000000 10.0137778567155991 -0.0000000000000000 
lattice_vector 0.0000000000000003 -0.0000000000000000 15.6661243489996309 
atom 0.0000000000000044 -0.0000000000000684 0.2276195719963132 Ba
atom 5.0068889283575047 -0.0000000000000147 0.2276195719961837 Ba
atom -0.0000000000000773 5.0068889283575517 0.2276195719962337 Ba
atom 5.0068889283576210 5.0068889283574940 0.2276195719961869 Ba
atom -0.0000000000000310 -0.0000000000000620 4.6680442870660865 Ba
atom 5.0068889283575571 -0.0000000000000438 4.6680442870663699 Ba
atom -0.0000000000000424 5.0068889283575286 4.6680442870661363 Ba
atom 5.0068889283575633 5.0068889283575029 4.6680442870662331 Ba
atom 2.5034444641787070 2.5034444641787856 2.4478319295311031 Zr
atom 7.5103333925365039 2.5034444641787794 2.4478319295310760 Zr
atom 2.5034444641787430 7.5103333925365554 2.4478319295310866 Zr
atom 7.5103333925365021 7.5103333925365803 2.4478319295311346 Zr
atom 2.5034444641787172 2.5034444641787390 -0.1067281600699750 S
atom 7.5103333925365980 2.5034444641786808 -0.1067281600699446 S
atom 2.5034444641787608 7.5103333925365403 -0.1067281600699558 S
atom 7.5103333925365137 7.5103333925365439 -0.1067281600699501 S
atom 2.5034444641786955 2.5034444641787812 5.0023920191323015 S
atom 7.5103333925366327 2.5034444641786857 5.0023920191322189 S
atom 2.5034444641787275 7.5103333925365003 5.0023920191322384 S
atom 7.5103333925365323 7.5103333925365430 5.0023920191323370 S
atom 2.5034090872635923 -0.0000000000000987 2.4478319295311772 S
atom 7.5103687694518122 -0.0000000000001118 2.4478319295311466 S
atom 2.5034798410939323 5.0068889283576326 2.4478319295311826 S
atom 7.5102980156213066 5.0068889283576512 2.4478319295311599 S
atom -0.0000000000001251 2.5034798410940176 2.4478319295312105 S
atom 5.0068889283576086 2.5034090872636061 2.4478319295311599 S
atom -0.0000000000001380 7.5102980156212755 2.4478319295311781 S
atom 5.0068889283576192 7.5103687694517332 2.4478319295311088 S
atom 2.5034444641787172 2.5034444641787572 8.0606680490812028 Ba
atom 7.5103333925365252 2.5034444641787834 8.0606680490812881 Ba
atom 2.5034444641787204 7.5103333925364755 8.0606680490813165 Ba
atom 7.5103333925365119 7.5103333925364621 8.0606680490815528 Ba
atom 2.5034444641787652 2.5034444641787550 12.5011201589804184 Ba
atom 7.5103333925365083 2.5034444641787603 12.5011201589803047 Ba
atom 2.5034444641787430 7.5103333925365057 12.5011201589803083 Ba
atom 7.5103333925364879 7.5103333925365163 12.5011201589802337 Ba
atom 5.0068889283576681 5.0068889283576423 10.2808941040309776 Zr
atom 10.0137778567154907 5.0068889283576121 10.2808941040310504 Zr
atom 5.0068889283575686 10.0137778567154321 10.2808941040309723 Zr
atom 10.0137778567153823 10.0137778567154268 10.2808941040309971 Zr
atom 5.0068889283576308 5.0068889283576583 7.7263286174892851 S
atom 10.0137778567153717 5.0068889283576992 7.7263286174893091 S
atom 5.0068889283576725 10.0137778567153966 7.7263286174893757 S
atom 10.0137778567154712 10.0137778567153983 7.7263286174893508 S
atom 5.0068889283575837 5.0068889283576938 12.8354595905725439 S
atom 10.0137778567153770 5.0068889283576361 12.8354595905726772 S
atom 5.0068889283578022 10.0137778567153877 12.8354595905724569 S
atom 10.0137778567153557 10.0137778567153966 12.8354595905725244 S
atom 5.0068889283575713 2.5034382699820186 10.2808941040309936 S
atom 10.0137778567152829 2.5034506583754750 10.2808941040309794 S
atom 5.0068889283576050 7.5103395867332319 10.2808941040310735 S
atom 10.0137778567153113 7.5103271983397502 10.2808941040310078 S
atom 2.5034506583754577 5.0068889283576414 10.2808941040309492 S
atom 7.5103271983398017 5.0068889283576414 10.2808941040309882 S
atom 2.5034382699819626 10.0137778567152953 10.2808941040310113 S
atom 7.5103395867332186 10.0137778567153113 10.2808941040310540 S
