#=======================================================
# FHI-aims file: full_relax/full_relax_RP_3_RxRy0_RxRy0.in
# Created using the Atomic Simulation Environment (ASE)
# Fri Mar 14 11:19:15 2025
#=======================================================
lattice_vector 10.0776139788645054 0.1105617252915947 0.0000000000000072 
lattice_vector 0.1105617252916038 10.0776139788651804 0.0000000000000055 
lattice_vector 0.0000000000000267 0.0000000000000207 35.4301180888285572 
atom -0.1019049729927039 -0.1019049729928631 0.2847354491767883 Ba
atom 5.1407119624234614 0.1571858356345790 0.2847354491825886 Ba
atom 0.1571858356374107 5.1407119624236488 0.2847354491779393 Ba
atom 4.9921828790873031 4.9921828790885980 0.2847354491852716 Ba
atom -0.0030794845964839 -0.0030794845985275 4.9518965477550383 Ba
atom 5.0418864740272733 0.0583603472402547 4.9518965477555614 Ba
atom 0.0583603472403453 5.0418864740302558 4.9518965477546786 Ba
atom 5.0910083674828845 5.0910083674825009 4.9518965477551955 Ba
atom 2.5340545324389119 2.5340545324429158 2.3525425726085345 Zr
atom 7.5988403090689474 2.6153141822818928 2.3525425726096438 Zr
atom 2.6153141822762334 7.5988403090658121 2.3525425726093117 Zr
atom 7.6281423845261553 7.6281423845219987 2.3525425726114761 Zr
atom 2.5470439260411588 2.5470439260343420 7.3812746018451145 Zr
atom 7.5858509154688418 2.6023247886862952 7.3812746018353241 Zr
atom 2.6023247886863023 7.5858509154730784 7.3812746018316790 Zr
atom 7.6411317781167458 7.6411317781167725 7.3812746018322839 Zr
atom 2.7377045158417403 2.7377045158447149 -0.1318205822884296 S
atom 7.3951903256674374 2.4116641988782357 -0.1318205822878168 S
atom 2.4116641988793566 7.3951903256641387 -0.1318205822816003 S
atom 7.8317923679230619 7.8317923679240771 -0.1318205822812610 S
atom 2.2435847264293711 2.2435847264267470 4.8967791020944569 S
atom 7.8893101150795752 2.9057839882956378 4.8967791020954730 S
atom 2.9057839882940648 7.8893101150810194 4.8967791021008722 S
atom 7.3376725785083865 7.3376725785065906 4.8967791020898170 S
atom 2.5194034947160984 0.0276404313250084 2.1973755229334944 S
atom 7.5582104841474278 0.0829212939627091 2.7015366531447520 S
atom 2.5746843573609617 5.0664474207524659 2.7015366531439140 S
atom 7.6134913467934551 5.1217282833994355 2.1973755229339154 S
atom 2.5194034947160948 0.0276404313253072 7.7007298309015555 S
atom 7.5582104841484821 0.0829212939681732 7.0618193727929102 S
atom 2.5746843573612739 5.0664474207602179 7.0618193727912599 S
atom 7.6134913467947847 5.1217282833949875 7.7007298309032999 S
atom 0.0276404313211243 2.5194034947162822 2.1973755229364862 S
atom 5.0664474207619099 2.5746843573619405 2.7015366531442671 S
atom 0.0829212939718628 7.5582104841489564 2.7015366531413605 S
atom 5.1217282833949387 7.6134913467940670 2.1973755229347613 S
atom 0.0276404313250305 2.5194034947152550 7.7007298309000252 S
atom 5.0664474207553098 2.5746843573616505 7.0618193727925078 S
atom 0.0829212939658968 7.5582104841485460 7.0618193727947212 S
atom 5.1217282834002651 7.6134913467933814 7.7007298309024366 S
atom 0.0030794845985487 0.0030794845978537 9.8106526559208316 Ba
atom 5.0357275048338614 0.0522013780483514 9.8106526559202205 Ba
atom 0.0522013780487224 5.0357275048329795 9.8106526559215688 Ba
atom 5.0971673366747590 5.0971673366743655 9.8106526559212224 Ba
atom 0.1019049729924380 0.1019049729930712 14.4778137545455010 Ba
atom 4.9369020164392063 -0.0466241103463688 14.4778137545484409 Ba
atom -0.0466241103485383 4.9369020164383262 14.4778137545422663 Ba
atom 5.1959928250719516 5.1959928250687222 14.4778137545446768 Ba
atom 2.5600333196318310 2.5600333196337894 12.4100066310619130 Zr
atom 7.5728615218754873 2.5893353950917679 12.4100066310674002 Zr
atom 2.5893353950885558 7.5728615218748807 12.4100066310595114 Zr
atom 7.6541211717130402 7.6541211717103721 12.4100066310659436 Zr
atom 2.8505031256483591 2.8505031256498179 9.8657701015686037 S
atom 7.2823917158593616 2.2988655890711587 9.8657701015784021 S
atom 2.2988655890739151 7.2823917158575568 9.8657701015729664 S
atom 7.9445909777288266 7.9445909777311252 9.8657701015639869 S
atom 2.3563833362277373 2.3563833362263931 14.8943697859797393 S
atom 7.7765115052817393 2.7929853784981291 14.8943697859813398 S
atom 2.7929853784975336 7.7765115052836835 14.8943697859909996 S
atom 7.4504711883045776 7.4504711883034558 14.8943697859911612 S
atom 2.5194034947161712 0.0276404313258015 12.0610125505384840 S
atom 7.5582104841472582 0.0829212939620983 12.5651736807426442 S
atom 2.5746843573616611 5.0664474207526435 12.5651736807442322 S
atom 7.6134913467935732 5.1217282834038462 12.0610125505381305 S
atom 0.0276404313255767 2.5194034947153168 12.0610125505391022 S
atom 5.0664474207581076 2.5746843573613383 12.5651736807423209 S
atom 0.0829212939696001 7.5582104841478372 12.5651736807417755 S
atom 5.1217282833966040 7.6134913467942313 12.0610125505389139 S
atom 2.4451389530461776 2.4451389530435366 17.9997944935650693 Ba
atom 7.6877558884630863 2.7042297616729325 17.9997944935629661 Ba
atom 2.7042297616764843 7.6877558884649462 17.9997944935641918 Ba
atom 7.5392268051242306 7.5392268051281697 17.9997944935628134 Ba
atom 2.5439644414357616 2.5439644414377454 22.6669555921727444 Ba
atom 7.5889304000758377 2.6054042732847265 22.6669555921727692 Ba
atom 2.6054042732800502 7.5889304000698798 22.6669555921732702 Ba
atom 7.6380522935214730 7.6380522935153916 22.6669555921726307 Ba
atom 5.0810984584785119 5.0810984584827299 20.0676016170012019 Zr
atom 10.1458842351093512 5.1623581083211336 20.0676016170227811 Zr
atom 5.1623581083178456 10.1458842351017307 20.0676016169913609 Zr
atom 10.1751863105625127 10.1751863105691740 20.0676016169947395 Zr
atom 5.0940878520854680 5.0940878520744581 25.0963336463315585 Zr
atom 10.1328948415064772 5.1493687147195093 25.0963336463029378 Zr
atom 5.1493687147206737 10.1328948415036688 25.0963336463155677 Zr
atom 10.1881757041571515 10.1881757041475485 25.0963336462892421 Zr
atom 5.2847484418903052 5.2847484418903958 17.5832384620872126 S
atom 9.9422342516969682 4.9587081249125591 17.5832384620880298 S
atom 4.9587081249122047 9.9422342516973483 17.5832384620896889 S
atom 10.3788362939676215 10.3788362939673231 17.5832384621101383 S
atom 4.7906286524605290 4.7906286524582091 22.6118381465308254 S
atom 10.4363540411259326 5.4528279143384557 22.6118381465429721 S
atom 5.4528279143392604 10.4363540411239217 22.6118381465858285 S
atom 9.8847165045412950 9.8847165045408296 22.6118381465761971 S
atom 5.0664474207533665 2.5746843573485396 19.9124345673555183 S
atom 10.1052544101879249 2.6299652199892503 20.4165956975610250 S
atom 5.1217282834009152 7.6134913468096332 20.4165956975656471 S
atom 10.1605352728324547 7.6687722094381856 19.9124345673517986 S
atom 5.0664474207543293 2.5746843573917713 25.4157888752881362 S
atom 10.1052544101884969 2.6299652200236183 24.7768784171831946 S
atom 5.1217282834037414 7.6134913467909362 24.7768784171751584 S
atom 10.1605352728311544 7.6687722094447253 25.4157888752938739 S
atom 2.5746843573597715 5.0664474207555923 19.9124345673579199 S
atom 7.6134913468008465 5.1217282834015245 20.4165956975655121 S
atom 2.6299652200024353 10.1052544101882429 20.4165956975610285 S
atom 7.6687722094410544 10.1605352728334175 19.9124345673495746 S
atom 2.5746843573610474 5.0664474207498591 25.4157888752960623 S
atom 7.6134913467902932 5.1217282833955453 24.7768784171847258 S
atom 2.6299652200039163 10.1052544101835782 24.7768784171756700 S
atom 7.6687722094399424 10.1605352728302059 25.4157888752857417 S
atom 2.5501234106340176 2.5501234106309232 27.5257117003285039 Ba
atom 7.5827714308745309 2.5992453040927654 27.5257117003289622 Ba
atom 2.5992453040969790 7.5827714308798582 27.5257117003280207 Ba
atom 7.6442112627049426 7.6442112627083310 27.5257117003279959 Ba
atom 2.6489488990336962 2.6489488990294281 32.1928727989630161 Ba
atom 7.4839459424751054 2.5004198156904511 32.1928727989643875 Ba
atom 2.5004198156946176 7.4839459424793828 32.1928727989623340 Ba
atom 7.7430367511069464 7.7430367511101768 32.1928727989625685 Ba
atom 5.1070772456726266 5.1070772456772531 30.1250656754501449 Zr
atom 10.1199054479099146 5.1363793211209359 30.1250656754496156 Zr
atom 5.1363793211274560 10.1199054479141317 30.1250656754570301 Zr
atom 10.2011650977549664 10.2011650977547763 30.1250656754472388 Zr
atom 5.3975470516771678 5.3975470516762103 27.5808291460397541 S
atom 9.8294356419094484 4.8459095151188798 27.5808291459984893 S
atom 4.8459095151228384 9.8294356419065494 27.5808291460290675 S
atom 10.4916349037587544 10.4916349037568395 27.5808291460385249 S
atom 4.9034272622719071 4.9034272622717623 32.6094288302849620 S
atom 10.3235554313151976 5.3400293045308116 32.6094288303239495 S
atom 5.3400293045293026 10.3235554313173736 32.6094288302848909 S
atom 9.9975151143487597 9.9975151143462426 32.6094288303259461 S
atom 5.0664474207545904 2.5746843573660114 29.7760715949789976 S
atom 10.1052544101876851 2.6299652200123975 30.2802327251729508 S
atom 5.1217282834004285 7.6134913467834489 30.2802327251764432 S
atom 10.1605352728329112 7.6687722094446160 29.7760715949737715 S
atom 2.5746843573565363 5.0664474207540753 29.7760715949787880 S
atom 7.6134913468116645 5.1217282834001496 30.2802327251752317 S
atom 2.6299652200102193 10.1052544101878503 30.2802327251719632 S
atom 7.6687722094310331 10.1605352728323215 29.7760715949762442 S
