#=======================================================
# FHI-aims file: full_relax/full_relax_RP_7_Rx0Rz_0-RyRz.in
# Created using the Atomic Simulation Environment (ASE)
# Mon Mar 24 15:41:47 2025
#=======================================================
lattice_vector 9.8999545981289803 0.0002676590064958 -0.0003989563630816 
lattice_vector 0.0002676590064974 9.8999545981464507 -0.0003989563538482 
lattice_vector 0.0023914488537533 0.0023914489219874 77.3835764776265478 
atom 0.0234348110961792 -0.0143825611524990 0.1615816180127910 Ba
atom 4.9645930114900754 -0.0225274635271509 0.1613746726821618 Ba
atom 0.0147495018822360 4.9273160724295400 0.1613741807666846 Ba
atom 4.9735460011886410 4.9357286302948378 0.1611827621033796 Ba
atom -0.0091281236507289 -0.0067442254610460 5.0700023225411419 Ba
atom 4.9570086161658207 0.0087703206103620 5.0698040356664125 Ba
atom 0.0071649337046435 4.9586137739924254 5.0698042638416423 Ba
atom 4.9409832088953198 4.9433668790685967 5.0696035574356415 Ba
atom 2.4803309361682033 2.4674504947489253 2.4392571475278144 Zr
atom 7.4326649244449419 2.4700618945511645 2.4390568934882162 Zr
atom 2.4828232583335899 7.4199053701156465 2.4390565912717141 Zr
atom 7.4304402628141109 7.4175616245114568 2.4388582510792172 Zr
atom 2.4767264978775243 2.4745879617124409 7.5810210338708508 Zr
atom 7.4257694009488180 2.4737249593066513 7.5808135746693530 Zr
atom 2.4759275627993844 7.4235676209929435 7.5808136050919055 Zr
atom 7.4268359927354171 7.4246982780085835 7.5806223127713670 Zr
atom 2.4597297250784815 2.4554662375521619 -0.1040576957079829 S
atom 7.4433245563187409 2.4910646837512598 -0.1042607643159295 S
atom 2.4934808847617260 7.4409081592678836 -0.1042607263990383 S
atom 7.4098410511155874 7.4055773722472473 -0.1044565690798942 S
atom 2.4960308316884339 2.4890769509377830 5.0435840503133882 S
atom 7.4121093539448966 2.4534897533901137 5.0433845824873558 S
atom 2.4622655916599574 7.4033332928139171 5.0433847516233650 S
atom 7.4461422607675507 7.4391881480986060 5.0431847862576120 S
atom 2.0483159642042459 -0.0046754031163336 2.5531745872070086 S
atom 7.8574496086322005 -0.0045755065102547 2.5135748396874451 S
atom 2.9076057416188710 4.9452679005742075 2.5135748753297680 S
atom 6.9984273379838449 4.9454356637685004 2.5527756088901894 S
atom 3.0112886696204981 -0.0014704800153989 7.5926840069444381 S
atom 6.8890014920766127 -0.0013294642353752 7.6136712563344195 S
atom 1.9391579866145510 4.9485138058230502 7.6136711831679520 S
atom 7.9614001231573344 4.9486404521677931 7.5922850726657414 S
atom 0.0048183774029878 2.9015779980770953 2.5521311805938414 S
atom 4.9548261154454973 2.0425356946803905 2.5146351448731892 S
atom 0.0049834295794644 6.9923789907264595 2.5146352584485707 S
atom 4.9549287236496271 7.8516889684425051 2.5517321878968575 S
atom 0.0018714689206521 1.9388585654391839 7.5932316704244665 S
atom 4.9518432778025963 3.0112609590593897 7.6131043146589370 S
atom 0.0020008018360043 7.9611048283455244 7.6131043651679748 S
atom 4.9519816090003017 6.8889700549998807 7.5928326823294077 S
atom 0.0019798315187612 0.0066481093445756 10.1577053785515652 Ba
atom 4.9434377961027112 -0.0012915356758831 10.1575296135253570 Ba
atom -0.0064059552760371 4.9485519963470228 10.1575295636250917 Ba
atom 4.9520912145307081 4.9567592947326569 10.1573065004414023 Ba
atom -0.0024751745672752 -0.0009238414194561 15.2649189457975378 Ba
atom 4.9518869410180182 0.0033284198787137 15.2647239615362942 Ba
atom 0.0020432245213378 4.9531720901369560 15.2647241730051313 Ba
atom 4.9476362156095002 4.9491874897206332 15.2645198648348046 Ba
atom 2.4751989163239685 2.4752649471641295 12.6999289398151429 Zr
atom 7.4254555017976571 2.4756873512489297 12.6997213561770810 Zr
atom 2.4756136222617569 7.4255293410528509 12.6997215882709895 Zr
atom 7.4253084559893390 7.4253745954475434 12.6995301860576433 Zr
atom 2.4756067292973132 2.4756068589013074 17.8183877725894142 Zr
atom 7.4255830208476201 2.4757406819479653 17.8181886957543085 Zr
atom 2.4757405574875060 7.4255828962737063 17.8181886819883353 Zr
atom 7.4257168507486897 7.4257167322375164 17.8179891273548101 Zr
atom 2.4694583504472516 2.4645980730219548 10.1527111273306048 S
atom 7.4355947609185735 2.4816843408921021 10.1525060669653229 S
atom 2.4857510053248650 7.4315280095553575 10.1525060507487410 S
atom 7.4195697600083133 7.4147093975234926 10.1523117638518148 S
atom 2.4800385805714575 2.4790729333298778 15.2630308934453573 S
atom 7.4221517594217028 2.4708889718497660 15.2628305392184984 S
atom 2.4723080664483796 7.4207326747408171 15.2628304909462802 S
atom 7.4301499358380774 7.4291842966225330 15.2626314813384454 S
atom 1.9396774311863865 -0.0000244806946756 12.7167731605525738 S
atom 7.9604634351795918 0.0001049867468936 12.7074691394119910 S
atom 3.0106193054391706 4.9499478221187383 12.7074690846683271 S
atom 6.8897888757298693 4.9500860145192362 12.7163742593532358 S
atom 3.0108868795573764 0.0006127071030497 17.8155351077429174 S
atom 6.8901688330918303 0.0007574048509563 17.8212386548958719 S
atom 1.9403255786898994 4.9505997442540766 17.8212386246018255 S
atom 7.9609982184309889 4.9507227048966556 17.8151361365348571 S
atom 0.0008188479613534 3.0109133647444652 12.7165338637482161 S
atom 4.9507979417309382 1.9402741675053565 12.7077766709807332 S
atom 0.0009557931636395 6.8901175858308932 12.7077766677968569 S
atom 4.9509286526260619 7.9610246101558673 12.7161349262146572 S
atom 0.0006240574788867 1.9401906492985908 17.8157564961640098 S
atom 4.9505883993527924 3.0110214347469699 17.8210172216317240 S
atom 0.0007466374288613 7.9608654287865406 17.8210172153794204 S
atom 4.9507334791524640 6.8903019894657467 17.8153575905403656 S
atom 0.0035761856121560 0.0020249179517458 20.3722552404651687 Ba
atom 4.9491692770800730 -0.0019596810332559 20.3720510034723716 Ba
atom -0.0006745402266525 4.9478840797663510 20.3720510062266129 Ba
atom 4.9536876780133809 4.9521363455019758 20.3718560932938466 Ba
atom -0.0008788509301586 -0.0055469687784094 25.4794675608510133 Ba
atom 4.9576185021545642 0.0026603344382077 25.4792442959251630 Ba
atom 0.0077745698664386 4.9525041144299564 25.4792444142054464 Ba
atom 4.9492327173054882 4.9445644624385148 25.4790684485733649 Ba
atom 2.4760143207056400 2.4759486618574122 22.9368449481420917 Zr
atom 7.4257107655425543 2.4757939190074261 22.9366536355252322 Zr
atom 2.4758672713078882 7.4256365548673866 22.9366535245075234 Zr
atom 7.4261254717868335 7.4260589584627041 22.9364461645982018 Zr
atom 2.4744864689035864 2.4766252720334450 28.0557532289853526 Zr
atom 7.4253971508698768 2.4777559838863721 28.0555612390551161 Zr
atom 2.4755530697958559 7.4275986411790491 28.0555612529665872 Zr
atom 7.4245982101555343 7.4267355969365312 28.0553539487125789 Zr
atom 2.4711737184265736 2.4721393105751668 20.3737432960297191 S
atom 7.4290154463565878 2.4805909298407598 20.3735444767907126 S
atom 2.4791718895532506 7.4304345888087795 20.3735444476028960 S
atom 7.4212849293646492 7.4222506263525068 20.3733440292748469 S
atom 2.4817539915503977 2.4866142060195005 25.4840644688555678 S
atom 7.4155724035146200 2.4697955985811428 25.4838704007795940 S
atom 2.4657289981835500 7.4196392109634157 25.4838702282310514 S
atom 7.4318650632190577 7.4367254875619286 25.4836656711280938 S
atom 1.9405927545756536 0.0012650576519617 22.9293052507958386 S
atom 7.9613786676918465 0.0013944954037834 22.9200011235728347 S
atom 3.0115348029598645 4.9512365088681474 22.9200012058382008 S
atom 6.8907037413787329 4.9513747289631524 22.9289062905494347 S
atom 3.0120544434133176 0.0026993430964544 28.0231036007532985 S
atom 6.8897668405340129 0.0028402328357221 28.0440907496424749 S
atom 1.9399238702469461 4.9526822535946122 28.0440907542404005 S
atom 7.9621655674093263 4.9528090142356325 28.0227045513050044 S
atom 0.0004148725514955 3.0109382707191736 22.9289976771458832 S
atom 4.9503932450260661 1.9402989135578481 22.9202404770538379 S
atom 0.0005517927528021 6.8901423449839365 22.9202404839232159 S
atom 4.9505239885027290 7.9610497503508961 22.9285987484889056 S
atom -0.0006303923746434 1.9399513569921232 28.0236704481803045 S
atom 4.9493405368335956 3.0123535781948876 28.0435431026480479 S
atom -0.0005011849182131 7.9621973055186199 28.0435431231002070 S
atom 4.9494789823464886 6.8900623750414720 28.0232714603752591 S
atom 0.0102291879964791 0.0078454564193901 30.5671704066076479 Ba
atom 4.9440475928035790 -0.0074014427943710 30.5669696159606552 Ba
atom -0.0057962222145785 4.9424422434605670 30.5669699854200694 Ba
atom 4.9603406456052799 4.9579567943218841 30.5667716198874722 Ba
atom -0.0223334720695889 0.0154838211449634 35.4755922302215367 Ba
atom 4.9364628932761168 0.0238963532280930 35.4754003570693541 Ba
atom -0.0133804940242447 4.9737399157423656 35.4753999569364069 Ba
atom 4.9277775773348775 4.9655950240994935 35.4751929710754581 Ba
atom 2.4708814241874100 2.4837632341771623 33.1975163259691612 Zr
atom 7.4185022309148261 2.4814193977922603 33.1973175411819241 Zr
atom 2.4686567424615364 7.4312604046248909 33.1973179258367779 Zr
atom 7.4209945631785628 7.4338719061936622 33.1971166151749273 Zr
atom 2.4551815695229715 2.4621353306267477 30.5931900250139606 S
atom 7.4390577549627119 2.4979901879014861 30.5929904267394797 S
atom 2.4892144666257336 7.4478339323747553 30.5929902917588521 S
atom 7.4052925041841950 7.4122467281475792 30.5927918360402700 S
atom 2.4914827540235196 2.4957460792186610 35.7408316633756087 S
atom 7.4078424691754483 2.4604152807376005 35.7406366863623361 S
atom 2.4579992340319063 7.4102590217464632 35.7406366029432192 S
atom 7.4415936568119792 7.4458574862436473 35.7404334719911105 S
atom 2.0436066326781779 0.0059449591724045 33.1231998829768486 S
atom 7.8527397931612173 0.0060448704884658 33.0836002260662170 S
atom 2.9028962795530777 4.9558874575340361 33.0836002478085618 S
atom 6.9937176257726721 4.9560551996311935 33.1228010371334847 S
atom -0.0036135530949612 2.9086764856396399 33.1221396530690200 S
atom 4.9463939629856970 2.0496342940247154 33.0846437319830429 S
atom -0.0034484820696997 6.9994782847127990 33.0846436678290488 S
atom 4.9464965494871764 7.8587883203020876 33.1217406843617255 S
atom 2.4618686946321091 2.4996861456467419 38.8531711623330125 Ba
atom 7.4035674175758110 2.4910008378038810 38.8529635509132731 Ba
atom 2.4537237901582833 7.4408442552045360 38.8529638353530018 Ba
atom 7.4119799462149700 7.4497972270234385 38.8527718960170745 Ba
atom 2.4695068829809181 2.4671230604351257 43.7615908379393233 Ba
atom 7.4348652435640936 2.4834161216643533 43.7613930812002110 Ba
atom 2.4850214368545300 7.4332600102282367 43.7613923809991547 Ba
atom 7.4196183410005103 7.4172345946927676 43.7611922038192773 Ba
atom 4.9437004355125547 4.9565819908974751 41.1308469251450930 Zr
atom 9.8961580025082423 4.9590743265177295 41.1306467137943699 Zr
atom 4.9463118646403261 9.9089164435731458 41.1306470650099101 Zr
atom 9.8938142285033521 9.9066917785926272 41.1304488702939537 Zr
atom 4.9508392907727439 4.9529768352568091 46.2726084411330945 Zr
atom 9.8998188676142789 4.9521779029047570 46.2724010040166291 Zr
atom 4.9499762823783691 9.9020216450141465 46.2724013932556488 Zr
atom 9.9009495251681301 9.9030882334440591 46.2722099249427075 Zr
atom 4.9317176703926116 4.9359810299908711 38.5875304732298474 S
atom 9.9171593093020203 4.9697322061130240 38.5873268747568687 S
atom 4.9673161290542991 9.9195758326393424 38.5873267273585441 S
atom 9.8818284998037225 9.8860923050602096 38.5871304913923794 S
atom 4.9653283287103536 4.9722822426005804 43.7351741499096462 S
atom 9.8795844858895308 4.9385170089270218 43.7349745433995594 S
atom 4.9297411370352400 9.8883605163939858 43.7349742392452754 S
atom 9.9154393468155924 9.9223934267662788 43.7347742421289638 S
atom 5.3778294938654874 2.4810699365846656 41.2437194646257055 S
atom 9.4686299229409556 2.4812350443806079 41.2062235334888456 S
atom 4.5187871490352567 7.4310771323922218 41.2062235749544854 S
atom 10.3279402261623492 7.4311796833788062 41.2433206164838353 S
atom 4.4151101331724867 2.4781235566297921 46.2848206346166791 S
atom 10.4373560581961300 2.4782527521836477 46.3046933301320820 S
atom 5.4875122423375329 7.4280937647116305 46.3046932284544184 S
atom 9.3652211306559412 7.4282322352857877 46.2844216083442888 S
atom 2.4715765110498422 4.5245673975065852 41.2447629121102395 S
atom 7.4215185661803309 5.3838572983071522 41.2051632295990515 S
atom 2.4716764636405153 10.3337008108278372 41.2051631784282790 S
atom 7.4216862740187501 9.4746783166908237 41.2443639844648686 S
atom 2.4747817004485664 5.4875399924178243 46.2842729822862893 S
atom 7.4247642019354672 4.4154095699143294 46.3052600816452582 S
atom 2.4749225819693401 9.3652525496156223 46.3052602367525168 S
atom 7.4248909904183078 10.4376513135964704 46.2838739859720931 S
atom 2.4828992552855356 2.4782309076721436 48.8492940968196407 Ba
atom 7.4248034254117892 2.4698451286964582 48.8491185737299318 Ba
atom 2.4749596151052238 7.4196892923222970 48.8491182751006718 Ba
atom 7.4330107237042826 7.4283427124963630 48.8488954531881348 Ba
atom 2.4753274354247132 2.4737759506662176 53.9565076150331322 Ba
atom 7.4294233864267740 2.4782943486206328 53.9563128063330240 Ba
atom 2.4795797032919165 7.4281383966383618 53.9563126510919560 Ba
atom 7.4254387878481891 7.4238876664350268 53.9561085182972064 Ba
atom 4.9515167993965727 4.9514489642837329 51.3915187809563747 Zr
atom 9.9017800679492893 4.9518636665046776 51.3913110154921711 Zr
atom 4.9519392000884812 9.9017080296190265 51.3913110611207102 Zr
atom 9.9016253228433975 9.9015609897242953 51.3911194577848036 Zr
atom 4.9518589949497054 4.9518571232419673 56.5099761587010931 Zr
atom 9.9018333370513627 4.9519909480230559 56.5097768075183993 Zr
atom 4.9519928176926156 9.9018352043023352 56.5097762690292384 Zr
atom 9.9019671736258186 9.9019690399151497 56.5095766768654642 Zr
atom 4.9408493151801798 4.9457098229775536 48.8442995971254916 S
atom 9.9077793502360461 4.9620024762458899 48.8440949919414962 S
atom 4.9579355797343041 9.9118458688510245 48.8440943119510749 S
atom 9.8909607316174561 9.8958208635576028 48.8439003638358855 S
atom 4.9553240986114151 4.9562900545343425 53.9546190978953177 S
atom 9.8969840868954950 4.9485595441020571 53.9544192574826553 S
atom 4.9471401379874802 9.8984028610448966 53.9544195996299365 S
atom 9.9054357075126660 9.9064010378617642 53.9542210229659247 S
atom 5.4871643434901349 2.4770712078509174 51.4081224411689277 S
atom 9.3663690806848212 2.4772080509412784 51.3993652262887153 S
atom 4.4165252191667612 7.4270481617092621 51.3993652869745716 S
atom 10.4372762385005942 7.4271789704211484 51.4077235247244104 S
atom 4.4164419243342516 2.4768755508718692 56.5073455582071205 S
atom 10.4371167029115046 2.4769981447774483 56.5126062303245504 S
atom 5.4872727038672728 7.4268394841515759 56.5126062649263048 S
atom 9.3665533275921113 7.4269845473266969 56.5069465875057944 S
atom 2.4762272618089893 4.4159289786170426 51.4083617772645169 S
atom 7.4261986555360178 5.4868706125179196 51.3990576786224764 S
atom 2.4763566305554430 10.4367147365264117 51.3990577199943175 S
atom 7.4263369491265623 9.3660398764907455 51.4079628190848652 S
atom 2.4768638787902701 5.4871384005695303 56.5071241512491795 S
atom 7.4268511496837668 4.4165771962526765 56.5128276926146285 S
atom 2.4770085923855674 9.3664198268707874 56.5128276450404314 S
atom 7.4269740955085535 10.4372492388633251 56.5067251520483467 S
atom 2.4782762437225201 2.4798275254078024 59.0638439350021542 Ba
atom 7.4241353385016371 2.4755768039978912 59.0636397083481768 Ba
atom 2.4742916398823360 7.4254205127907369 59.0636398975535997 Ba
atom 7.4283875950015492 7.4299389135535474 59.0634449949647262 Ba
atom 2.4707043507259865 2.4753726624378367 64.1710563923052746 Ba
atom 7.4287553709909231 2.4840260852802731 64.1708331232110680 Ba
atom 2.4789116572675605 7.4338695674860356 64.1708333237183126 Ba
atom 7.4208157185497985 7.4254837780048391 64.1706573549685402 Ba
atom 4.9522005528620578 4.9522650794081597 61.6284352817525942 Zr
atom 9.9018872446437971 4.9521180295604577 61.6282438975049800 Zr
atom 4.9520458052328014 9.9019625837629590 61.6282434628629119 Zr
atom 9.9023096510295865 9.9023772892660347 61.6280359451339521 Zr
atom 4.9528768258485387 4.9507380328013788 66.7473403422681315 Zr
atom 9.9038496587518665 4.9518046473305386 66.7471483461919206 Zr
atom 4.9540075434389692 9.9016481730930579 66.7471483314626823 Zr
atom 9.9029866020469264 9.9008492157373169 66.7469410313629368 Zr
atom 4.9483904765490747 4.9474251307635644 59.0653312831071773 S
atom 9.9066860003156751 4.9554233039833289 59.0651324853373367 S
atom 4.9568420970418838 9.9052666105323652 59.0651333043948910 S
atom 9.8985020363798313 9.8975360933920715 59.0649329383197568 S
atom 4.9628654144499897 4.9580052950887401 64.1756525078437505 S
atom 9.8958905833812878 4.9419802970955660 64.1754582476474553 S
atom 4.9460468051272413 9.8918236815004548 64.1754588441312137 S
atom 9.9129768560451339 9.9081163359111564 64.1752543092941750 S
atom 5.4871893944761023 2.4766654912608783 61.6205862477244182 S
atom 9.3663938386758563 2.4768024575287590 61.6118290327319542 S
atom 4.4165500043650248 7.4266452049934957 61.6118289941924147 S
atom 10.4373011951574597 7.4267759016315580 61.6201872419264873 S
atom 4.4162024574575565 2.4756198151982804 66.7152594816052158 S
atom 10.4384487270397397 2.4757488768663394 66.7351321704055493 S
atom 5.4886048648728112 7.4255928989728588 66.7351321441593370 S
atom 9.3663137252069184 7.4257314973221202 66.7148605009644911 S
atom 2.4775161602789826 4.4168439631745819 61.6208938213663444 S
atom 7.4274879803372800 5.4877861815870910 61.6115897489142412 S
atom 2.4776456462889178 10.4376298593446606 61.6115896462747870 S
atom 7.4276261558625807 9.3669551190485461 61.6204947837340384 S
atom 2.4789504732026657 5.4883059285717470 66.7146925841597920 S
atom 7.4289337030029703 4.4161749143383568 66.7356798574975585 S
atom 2.4790912172447124 9.3660182417418341 66.7356797385452722 S
atom 7.4290606173716247 10.4384167878830993 66.7142936440574346 S
atom 2.4840967830012599 2.4864806966122868 69.2587586867515768 Ba
atom 7.4186934912330722 2.4704552983800978 69.2585580303196906 Ba
atom 2.4688498915908101 7.4202986529663137 69.2585583552344133 Ba
atom 7.4342080417095300 7.4365917107220350 69.2583601271668101 Ba
atom 2.4917351608423295 2.4539177982599929 74.1671819232580418 Ba
atom 7.4499911446234588 2.4628707732396262 74.1669895438655118 Ba
atom 2.5001477141329818 7.4127142008020268 74.1669896172946039 Ba
atom 7.4418462603147262 7.4040288725625869 74.1667823088913138 Ba
atom 4.9600143358765827 4.9471347056584642 71.8891062745773866 Zr
atom 9.9075118895602010 4.9449100825323473 71.8889077390026756 Zr
atom 4.9576705641104315 9.8947515204079330 71.8889080853719236 Zr
atom 9.9101233155857216 9.8972438017765594 71.8887072049410705 Zr
atom 4.9383866079181038 4.9314326952511491 69.2847804562412932 S
atom 9.9240852302642342 4.9654655968053474 69.2845810597870013 S
atom 4.9742414617318031 9.9153091990703803 69.2845808483240546 S
atom 9.8884980296320517 9.8815439611654785 69.2843817546991971 S
atom 4.9719973865120846 4.9677338099647628 74.4324194999284856 S
atom 9.8865102939231839 4.9342502999047362 74.4322241967061444 S
atom 4.9366666021591028 9.8840940006336897 74.4322235051754291 S
atom 9.9221087428399812 9.9178451642909984 74.4320205708887386 S
atom 5.3849279418316138 2.4726366993032238 71.8137279717980448 S
atom 9.4757294507870728 2.4728023149127325 71.7762320090913306 S
atom 4.5258859111425380 7.4226462820797723 71.7762320062423385 S
atom 10.3350392187630202 7.4227483249532860 71.8133289645618902 S
atom 2.4821957720555998 4.5198577258148802 71.8147881748089389 S
atom 7.4321392183640631 5.3791472469495227 71.7751885511015644 S
atom 2.4822962335794956 10.3289911471175291 71.7751884885713167 S
atom 7.4323064160119658 9.4699693910255078 71.8143892975646168 S
