#=======================================================
# FHI-aims file: full_relax/full_relax_RP_9_RxRyMz_-Rx-Ry0.in
# Created using the Atomic Simulation Environment (ASE)
# Mon Mar 24 18:06:17 2025
#=======================================================
lattice_vector 10.0095629472366081 -0.0740449802842581 -0.0000005506050346 
lattice_vector -0.0740449802842252 10.0095629472349081 0.0000005506085180 
lattice_vector 0.0000572738283310 -0.0000572737950958 95.9670432425652109 
atom 0.1392220006464140 -0.1719759093765392 0.2108363172338017 Ba
atom 5.1767573817248032 -0.1762444907378068 0.2108360303138491 Ba
atom 0.1349534179825326 4.8655594730684619 0.2108365806513756 Ba
atom 5.1069809840951006 4.7957830741459553 0.2108363172765787 Ba
atom -0.2686862310351606 0.1908622167857496 5.0055932204662561 Ba
atom 4.8139192569656304 0.2316637410462584 5.0055929452579138 Ba
atom -0.2278847069264225 5.2734677045712521 5.0055934958691788 Ba
atom 4.6990727525785054 5.1586211999994305 5.0055932204249078 Ba
atom 2.5006495052465101 2.4752366595207427 2.3962162054492300 Zr
atom 7.4973037970920782 2.4300869888667678 2.3962159298996220 Zr
atom 2.4554998335624885 7.4718909525715533 2.3962164798653052 Zr
atom 7.4684084884132611 7.4429956429761033 2.3962162052538249 Zr
atom 2.4730551480518654 2.4895572222492146 7.4501022647049489 Zr
atom 7.4829832347142640 2.4576813453755926 7.4501019891771270 Zr
atom 2.4411792709964373 7.4994853091895202 7.4501025401449610 Zr
atom 7.4408141314420657 7.4573162058366353 7.4501022648609796 Zr
atom 2.6584127988336004 2.7353061764127258 -0.1108554193449180 S
atom 7.2372342812254002 2.2723236947733554 -0.1108556940692220 S
atom 2.1954303174532361 7.3141276585870258 -0.1108551431125077 S
atom 7.6261717823309194 7.7030651599197455 -0.1108554191773024 S
atom 2.2315437555117774 2.1797128447086482 4.9571401002476048 S
atom 7.7928276122971756 2.6991927377627039 4.9571398247692553 S
atom 2.7510236484233763 7.7409967014756536 4.9571403759594990 S
atom 7.1993027389933273 7.1474718282355205 4.9571401002426692 S
atom 2.7948742761623313 -0.0173865145256606 2.2234376675789935 S
atom 7.1748463540374168 -0.0514893793058651 2.7759355026632595 S
atom 2.1330423902176143 4.9903145847975017 2.7759360532776931 S
atom 7.7626332596852716 4.9503724692928079 2.2234376675887044 S
atom 2.8946251402055245 -0.0172625192877219 7.7840609969685000 S
atom 7.1206085440062630 -0.0512077580564302 7.1607791422749667 S
atom 2.0788045802521666 4.9905962067187657 7.1607796929247387 S
atom 7.8623841237496785 4.9504964651493761 7.7840609970100401 S
atom -0.0196359770272819 2.2099071978858404 2.2234379423712647 S
atom 4.9822258733011120 2.7976941022402242 2.7759357781610858 S
atom -0.0595780903549568 7.8394980659874776 2.7759363287984526 S
atom 4.9481230063828363 7.1776661814018468 2.2234379424214787 S
atom -0.0197599724745856 2.1101563333504352 7.7840612723407387 S
atom 4.9819442520208579 2.8519319130811813 7.1607794175889765 S
atom -0.0598597110226748 7.8937358767119843 7.1607799682512114 S
atom 4.9479990103194487 7.0779153169306106 7.7840612722871763 S
atom 0.2842932439389906 -0.1829908931994913 9.9787987546630301 Ba
atom 5.1877723669723803 -0.3213157341875335 9.9787984793380051 Ba
atom 0.1459684031541710 4.7204882295059463 9.9787990299738780 Ba
atom 5.2520522274731540 4.7847680901988925 9.9787987546281993 Ba
atom -0.2852409845865403 0.1819790899246557 14.9817864573041106 Ba
atom 4.8228023837538414 0.2482184941462006 14.9817861819713674 Ba
atom -0.2190015798750189 5.2900224580810740 14.9817867325578895 Ba
atom 4.6825179987532168 5.1497380736024123 14.9817864573075195 Ba
atom 2.4887720710404979 2.4820187500004920 12.4665487659193435 Zr
atom 7.4905217075002311 2.4419644222775179 12.4665484923778500 Zr
atom 2.4487177436997491 7.4837683860172870 12.4665490437275110 Zr
atom 7.4565310546469039 7.4497777334042299 12.4665487660170520 Zr
atom 2.4822106340295513 2.4844586669914568 17.4801265036877709 Zr
atom 7.4880817905369534 2.4485258593266250 17.4801262260973544 Zr
atom 2.4462778267942347 7.4903298230919875 17.4801267761965029 Zr
atom 7.4499696175515746 7.4522176504201409 17.4801265035406637 Zr
atom 2.7478029312386045 2.8128551628300160 9.9695761114526906 S
atom 7.1596852943166889 2.1829335621040493 9.9695758360164319 S
atom 2.1178813305716200 7.2247375258648496 9.9695763851977919 S
atom 7.7155619147202064 7.7806141462920273 9.9695761112036401 S
atom 2.2172359758242584 2.1518275474749680 14.9788207922085288 S
atom 7.8207129098106485 2.7135005176032321 14.9788205137948598 S
atom 2.7789089461115917 7.7553044813826100 14.9788210646788933 S
atom 7.1849949593150111 7.1195865309246109 14.9788207923114509 S
atom 2.8881828570055279 -0.0211853600865240 12.1603936316628172 S
atom 7.1222103240842349 -0.0555397383039784 12.7998731081018899 S
atom 2.0804063603323963 4.9862642248487754 12.7998736587233921 S
atom 7.8559418404347063 4.9465736228132222 12.1603936317018508 S
atom 2.8866707517144654 -0.0193569710569699 17.8069342037473106 S
atom 7.1225305616980927 -0.0537289951995638 17.1636585177681589 S
atom 2.0807265979270917 4.9880749683223149 17.1636590683872718 S
atom 7.8544297351619230 4.9484020122155048 17.8069342037179084 S
atom -0.0158371302323520 2.1165986166911877 12.1603939070135532 S
atom 4.9862762322915044 2.8503301329684194 12.7998733833881762 S
atom -0.0555277318910294 7.8921340968067843 12.7998739340258307 S
atom 4.9519218536348140 7.0843576001113862 12.1603939069667248 S
atom -0.0176655135485622 2.1181107217733945 17.8069344790283459 S
atom 4.9844654830716495 2.8500098955968198 17.1636587930470057 S
atom -0.0573384809364045 7.8918138593951150 17.1636593436853495 S
atom 4.9500934701518693 7.0858697052198636 17.8069344790809190 S
atom 0.2858361206019454 -0.1815023609481816 19.9881792019764220 Ba
atom 5.1862838346846143 -0.3228586108877707 19.9881789267559036 Ba
atom 0.1444798709601246 4.7189453528551510 19.9881794773550574 Ba
atom 5.2535951040524598 4.7862566225200700 19.9881792019727413 Ba
atom -0.2858092730167570 0.1814755129201103 24.9963723142033771 Ba
atom 4.8233059603854773 0.2487867830454339 24.9963720388043171 Ba
atom -0.2184980033632072 5.2905907469869513 24.9963725894421884 Ba
atom 4.6819497104295280 5.1492344965934658 24.9963723141983465 Ba
atom 2.4838929142689352 2.4838660674559003 22.4922757434295093 Zr
atom 7.4886743895813517 2.4468435790814529 22.4922754680862909 Zr
atom 2.4468704258238714 7.4886475428960368 22.4922760190302355 Zr
atom 7.4516518977752906 7.4516250509216473 22.4922757437562666 Zr
atom 2.4855751952523950 2.4832734683088340 27.5044250351382118 Zr
atom 7.4892669877850606 2.4451612980403481 27.5044247656590031 Zr
atom 2.4474630239696089 7.4869652618002904 27.5044253155316198 Zr
atom 7.4533341788694916 7.4510324517210140 27.5044250349373343 Zr
atom 2.7513547325443426 2.8169725466038469 19.9878602943377999 S
atom 7.1555679106710421 2.1793817609025972 19.9878600270529354 S
atom 2.1137639468814875 7.2211857246313524 19.9878605777311655 S
atom 7.7191137160176435 7.7847315300897133 19.9878602943106820 S
atom 2.2164310969156089 2.1507595889906703 24.9966912406776842 S
atom 7.8217808681075702 2.7143053964271040 24.9966909556424817 S
atom 2.7799769043743940 7.7561093602012452 24.9966915061770187 S
atom 7.1841900803850747 7.1185185724201832 24.9966912402905663 S
atom 2.8868933570449462 -0.0198510714167415 22.1702159284211398 S
atom 7.1226964367940804 -0.0542207560504206 22.8143350466297008 S
atom 2.0808924730320832 4.9875832075132314 22.8143355972214188 S
atom 7.8546523405067994 4.9479079118985654 22.1702159284504283 S
atom 2.8870592313432843 -0.0203428303900451 27.8208924463489851 S
atom 7.1229190432839902 -0.0547148574665999 27.1776167640050694 S
atom 2.0811150795933102 4.9870891056311244 27.1776173146383435 S
atom 7.8548182148232737 4.9474161524639548 27.8208924463390552 S
atom -0.0171714284569194 2.1178881169356503 22.1702162037866088 S
atom 4.9849572593326235 2.8498440199946455 22.8143353219184135 S
atom -0.0568467045734997 7.8916479837728568 22.8143358724856640 S
atom 4.9505875551585143 7.0856471003759047 22.1702162037381534 S
atom -0.0166796505568760 2.1177222420289969 27.8208927216286384 S
atom 4.9854513426885649 2.8496214140105831 27.1776170393314089 S
atom -0.0563526209393866 7.8914253778279448 27.1776175899001764 S
atom 4.9510793327547784 7.0854812254582411 27.8208927216822097 S
atom 0.2852678320947780 -0.1820059375930060 30.0027650710478682 Ba
atom 5.1867874105795186 -0.3222903213171756 30.0027647957511334 Ba
atom 0.1449834466830582 4.7195136423432862 30.0027653463585331 Ba
atom 5.2530268157043736 4.7857530457570299 30.0027650710915061 Ba
atom -0.2842663964835030 0.1829640461813125 35.0057527593001296 Ba
atom 4.8218174264171481 0.2472439080292895 35.0057524841865160 Ba
atom -0.2199865372880310 5.2890478714495064 35.0057530347844974 Ba
atom 4.6834925869698116 5.1507230292923945 35.0057527593356923 Ba
atom 2.4790137600021058 2.4857133860084200 32.5180027674013132 Zr
atom 7.4868270688584646 2.4517227331876805 32.5180024787419910 Zr
atom 2.4450231051495255 7.4935266968900223 32.5180030292313873 Zr
atom 7.4467727434482462 7.4534723695308127 32.5180027667353500 Zr
atom 2.4947306839946779 2.4781749149270431 37.5344492194528883 Zr
atom 7.4943655410591106 2.4360058083543668 37.5344489590211978 Zr
atom 2.4525615773853122 7.4778097720180670 37.5344495106946354 Zr
atom 7.4624896672973016 7.4459338984934851 37.5344492204685451 Zr
atom 2.7505498543741016 2.8159045885480216 30.0057306972166131 S
atom 7.1566358681613105 2.1801866387881721 30.0057304243322847 S
atom 2.1148319044542205 7.2219906025685257 30.0057309761628161 S
atom 7.7183088378546216 7.7836635720023981 30.0057306981050687 S
atom 2.2199828998583317 2.1548769735200857 35.0149754211330659 S
atom 7.8176634826977418 2.7107535931843345 35.0149751644234613 S
atom 2.7758595188838084 7.7525575568994354 35.0149757139418725 S
atom 7.1877418833315447 7.1226359570842925 35.0149754210468629 S
atom 2.8873794714099792 -0.0185320874385411 32.1846778579142310 S
atom 7.1214069364214936 -0.0528864692660282 32.8241573385758940 S
atom 2.0796029726460366 4.9889174958916200 32.8241578891406149 S
atom 7.8551384549032370 4.9492268973776419 32.1846778579031820 S
atom 2.8889812509022077 -0.0228640844363082 37.8237718310643203 S
atom 7.1149646545631704 -0.0568092938112607 37.2004899778371794 S
atom 2.0731606907047810 4.9849946701987253 37.2004905284159975 S
atom 7.8567402343722161 4.9448948991933532 37.8237718310230662 S
atom -0.0184903994673975 2.1174020019406954 32.1846781331231639 S
atom 4.9836229587691268 2.8511335208464437 32.8241576139535027 S
atom -0.0581810045403933 7.8929374844683222 32.8241581645087166 S
atom 4.9492685835403423 7.0851609855756799 32.1846781332427412 S
atom -0.0141584368304700 2.1158002238023883 37.8237721061723988 S
atom 4.9875458178415224 2.8575758016756594 37.2004902531266239 S
atom -0.0542581463878881 7.8993797654347873 37.2004908036911033 S
atom 4.9536005471409998 7.0835592072871520 37.8237721061109156 S
atom 0.2687130780522576 -0.1908890631699417 39.9789582988439918 Ba
atom 5.1956705364333855 -0.3057355678945835 39.9789580233759665 Ba
atom 0.1538665727211637 4.7360683961485837 39.9789585739986180 Ba
atom 5.2364720614701517 4.7768699206034730 39.9789582988138363 Ba
atom -0.1391951540591229 0.1719490634587953 44.7737152134705454 Ba
atom 4.8328324115946346 0.1021726622309394 44.7737149408490893 Ba
atom -0.2089715521993099 5.1439766261203257 44.7737154914204893 Ba
atom 4.8285638294407169 5.1397080471050378 44.7737152133375602 Ba
atom 2.4671363262370645 2.4924954814433815 42.5883353386842671 Zr
atom 7.4800449837096741 2.4636001643492960 42.5883350684716859 Zr
atom 2.4382410198447708 7.5054041280160542 42.5883356186990909 Zr
atom 7.4348953097297716 7.4602544647412241 42.5883353385180641 Zr
atom 2.7362420763648982 2.7880192921497127 40.0274114473160481 S
atom 7.1845211648193974 2.1944944175063275 40.0274111282551175 S
atom 2.1427172010079008 7.2362983812662058 40.0274116783128804 S
atom 7.7040010598178208 7.7557782756650191 40.0274114461738506 S
atom 2.3093730339391989 2.2324259621579294 45.0954069109689399 S
atom 7.7401144970651705 2.6213634616289889 45.0954066548879879 S
atom 2.6983105333497899 7.6631674254255797 45.0954072059908029 S
atom 7.2771320173705485 7.2001849455286591 45.0954069115687517 S
atom 2.8347434397389808 -0.0225824185409137 42.2086154614961870 S
atom 7.2147155205654370 -0.0566853449301673 42.7611132961514500 S
atom 2.1729115568796482 4.9851186172591957 42.7611138467436405 S
atom 7.8025024232366906 4.9451765635418043 42.2086154615103339 S
atom -0.0144400147545081 2.1700380340097309 42.2086157373410273 S
atom 4.9874217746953811 2.7578249393365377 42.7611135717440618 S
atom -0.0543821888853876 7.7996289032024020 42.7611141224931401 S
atom 4.9533189685950338 7.1377970173772827 42.2086157373558848 S
atom 2.3447173842319362 2.6557947715098207 48.1944096143867000 Ba
atom 7.3167456867692717 2.5860191077896979 48.1944093355583618 Ba
atom 2.2749417228685274 7.6278230717340021 48.1944098861819157 Ba
atom 7.3124763678322884 7.6235537551595094 48.1944096141611524 Ba
atom 2.7526810510569111 2.2929197476756547 52.9891812653657794 Ba
atom 7.6796207094332090 2.1780554429656322 52.9891809902182374 Ba
atom 2.6378167454044061 7.2198594062915582 52.9891815408730835 Ba
atom 7.7204400348186315 7.2606787306568377 52.9891812654603171 Ba
atom 4.9510546747506217 4.9763462334848478 50.3797817598568756 Zr
atom 9.9639532129771933 4.9474407999350136 50.3797814815547227 Zr
atom 4.9221492486136968 9.9892447638766537 50.3797820310825557 Zr
atom 9.9188136588131268 9.9441052169889712 50.3797817591958434 Zr
atom 4.9786942067401982 4.9619730856644484 55.4336852225124161 Zr
atom 9.9783263524425951 4.9198012689056272 55.4336849229833106 Zr
atom 4.9365223885487213 9.9616052324338593 55.4336854740486444 Zr
atom 9.9464531904102937 9.9297320688904485 55.4336852221454990 Zr
atom 4.7932790136794221 4.7162985179063863 47.8727123491567497 S
atom 10.2240009242657344 5.1052164648058165 47.8727120585880144 S
atom 5.1821969604941369 10.1470204285519028 47.8727126097838536 S
atom 9.7610379970589705 9.6840575013279047 47.8727123488999666 S
atom 5.2201835721227994 5.2718139309640923 52.9407196833673268 S
atom 9.6684855100207567 4.6783119054081190 52.9407194474175640 S
atom 4.6266815464808291 9.7201158692819920 52.9407199990507351 S
atom 10.1879425555493111 10.2395729143055068 52.9407196852205928 S
atom 5.3186633979209494 2.4612616507348055 50.7594954640362488 S
atom 9.6986490576716111 2.4271536632365938 50.2070114043075932 S
atom 4.6568450941299835 7.4689576267120055 50.2070119550214002 S
atom 10.2864223813966635 7.4290206340628515 50.7594954640363056 S
atom 5.3729576685780058 2.4609329865990421 55.1443871232028755 S
atom 9.5989004616799800 2.4269957268844888 55.7676461802489456 S
atom 4.5570964979491464 7.4687996934435592 55.7676467308405250 S
atom 10.3407166519525084 7.4286919729582577 55.1443871231818505 S
atom 2.4694748865484826 4.6538770593967298 50.7594957389448567 S
atom 7.4713417637655404 5.2416503850472207 50.2070116793059285 S
atom 2.4295378013659232 10.2834543487310146 50.2070122299065105 S
atom 7.4372338687920321 9.6216360428265055 50.7594957390490436 S
atom 2.4698034722486137 4.5995827895490660 55.1443873985113981 S
atom 7.4714997821058535 5.3413989781021085 55.7676464556980420 S
atom 2.4296958187401816 10.3832029416086460 55.7676470061897547 S
atom 7.4375624552833948 9.5673417733451291 55.1443873987369031 S
atom 2.1996827586341277 2.6667763386600285 57.9623994927643622 Ba
atom 7.3057641158202946 2.7310537383712155 57.9623992176664231 Ba
atom 2.2639601520614034 7.7728577017792970 57.9623997682046479 Ba
atom 7.1674417421398031 7.6345353217590866 57.9623994928324180 Ba
atom 2.7692034903193830 2.3018283263399515 62.9653745845861437 Ba
atom 7.6707121272267873 2.1615330064127716 62.9653743085677604 Ba
atom 2.6289081638638341 7.2033369709542159 62.9653748591966931 Ba
atom 7.7369624733752689 7.2695873106944324 62.9653745845628805 Ba
atom 4.9629529937405303 4.9695267083332109 60.4501237634882216 Zr
atom 9.9707727254212237 4.9355424829760430 60.4501235247522430 Zr
atom 4.9289687617924889 9.9773464467107971 60.4501240779431228 Zr
atom 9.9307119768263483 9.9372856920960864 60.4501237647328935 Zr
atom 4.9695200120582914 4.9670906855959629 65.4636841198084909 Zr
atom 9.9732087508624225 4.9289754648400184 65.4636838234030876 Zr
atom 4.9314047872773878 9.9707794285463702 65.4636843723729100 Zr
atom 9.9372789952487928 9.9348496693330759 65.4636841182351077 Zr
atom 4.7039462378982595 4.6387047843372589 57.9531668386744414 S
atom 10.3015946540358083 5.1945492379379887 57.9531665603251156 S
atom 5.2597906902590879 10.2363532017022649 57.9531671081550002 S
atom 9.6717052213532124 9.6064637678745655 57.9531668367889736 S
atom 5.2344898041133785 5.2997226119760095 62.9623920303464857 S
atom 9.6405768261462725 4.6640056714315712 62.9623916917799349 S
atom 4.5987728621186985 9.7058096350754628 62.9623922412808170 S
atom 10.2022487875085908 10.2674815955579497 62.9623920311722856 S
atom 5.3713348918493313 2.4652864806389205 60.7834487236734233 S
atom 9.6053431864194252 2.4309314025654944 60.1439855997394730 S
atom 4.5635392225613733 7.4727353648718822 60.1439861503307895 S
atom 10.3390938754190724 7.4330454624837969 60.7834487236791361 S
atom 5.3709958288592645 2.4634814814311334 65.1472302990385543 S
atom 9.6068277146046306 2.4291159533043754 65.7904947095828874 S
atom 4.5650237505915978 7.4709199152663137 65.7904952602801671 S
atom 10.3387548122576085 7.4312404629322124 65.1472302992214480 S
atom 2.4654499858037036 4.6012055659723226 60.7834489988847793 S
atom 7.4675641051902524 5.3349562528757586 60.1439858752101983 S
atom 2.4257601410691687 10.3767602167669146 60.1439864256038774 S
atom 7.4332089697187254 9.5689645492559166 60.7834489988669660 S
atom 2.4672551069031798 4.6015446250930738 65.1472305742083648 S
atom 7.4693794320334908 5.3334717288661322 65.7904949850601923 S
atom 2.4275754660199103 10.3752756928678451 65.7904955358812913 S
atom 7.4350140926527635 9.5693036083010625 65.1472305741778683 S
atom 2.1981149448234132 2.6653263469061974 67.9717295714986847 Ba
atom 7.3072141097055487 2.7326215492879724 67.9717292971550791 Ba
atom 2.2654101463376919 7.7744255128559141 67.9717298478534104 Ba
atom 7.1658739279444736 7.6330853302115482 67.9717295714161054 Ba
atom 2.7697281581762017 2.3023485167889040 72.9798651932904221 Ba
atom 7.6701919438992547 2.1610083317636719 72.9798649171725060 Ba
atom 2.6283879792617424 7.2028122948811459 72.9798654677547063 Ba
atom 7.7374871425214771 7.2701074994775432 72.9798651932719480 Ba
atom 4.9678010431842168 4.9677169240704862 70.4757973979508847 Zr
atom 9.9725825191642787 4.9306944336611034 70.4757971107297294 Zr
atom 4.9307785554764880 9.9724983971190184 70.4757976585708690 Zr
atom 9.9355600270224560 9.9354759072625374 70.4757973991962388 Zr
atom 4.9660820749418919 4.9683431621627463 75.4879106172997325 Zr
atom 9.9719562869819658 4.9324134019599359 75.4879103863605536 Zr
atom 4.9301523231383344 9.9742173655510005 75.4879109401595656 Zr
atom 9.9338410589304509 9.9361021453491194 75.4879106169206437 Zr
atom 4.7003523718021123 4.6346191799708469 67.9714008470044746 S
atom 10.3056802600379989 5.1981431047243589 67.9714006751641051 S
atom 5.2638762963219996 10.2399470684536418 67.9714012298875048 S
atom 9.6681113552931723 9.6023781635319043 67.9714008476852882 S
atom 5.2352497155378046 5.3008146660851327 72.9801938978134785 S
atom 9.6394847760870270 4.6632457620641752 72.9801935368141415 S
atom 4.5976808126572770 9.7050497259362984 72.9801940873856978 S
atom 10.2030086990625133 10.2685736494872337 72.9801938959264049 S
atom 5.3708128414258143 2.4640027712868178 70.7978415464545208 S
atom 9.6065932099161309 2.4296271076985474 70.1537526618079852 S
atom 4.5647892462460806 7.4714310741136449 70.1537532125963850 S
atom 10.3385718248561922 7.4317617574750416 70.7978415463754089 S
atom 5.3705783381136385 2.4645139098697748 75.1610995036034097 S
atom 9.6064102212033724 2.4301484200193562 75.8043639166196925 S
atom 4.5646062577790234 7.4719523845721287 75.8043644669294139 S
atom 10.3383373217092256 7.4322728942630656 75.1610995035524496 S
atom 2.4667336152956754 4.6017276190268968 70.7978418215373893 S
atom 7.4688684724298309 5.3337062273149520 70.1537529373912179 S
atom 2.4270645095606853 10.3755101908718324 70.1537534881737201 S
atom 7.4344925976685845 9.5694866028849805 70.7978418213783698 S
atom 2.4662226390522881 4.6019621172349590 75.1610997787273192 S
atom 7.4683469973318788 5.3338892213108524 75.8043641919090447 S
atom 2.4265430362041509 10.3756931849594149 75.8043647424403417 S
atom 7.4339816197105684 9.5697211009504013 75.1610997787503976 S
atom 2.1986396133445920 2.6658465364480635 77.9862201728818150 Ba
atom 7.3066939252482062 2.7320968741549665 77.9862198977763796 Ba
atom 2.2648899617254328 7.7739008381144794 77.9862204482456463 Ba
atom 7.1663985965819936 7.6336055201642532 77.9862201730096416 Ba
atom 2.7681603445928418 2.3008985250002043 82.9891952739396146 Ba
atom 7.6716419362284567 2.1625761426584411 82.9891949994453029 Ba
atom 2.6298379731140580 7.2043801070750888 82.9891955499949177 Ba
atom 7.7359193274167879 7.2686575092566601 82.9891952740041603 Ba
atom 4.9726490949719100 4.9659071395584169 80.5014710088958623 Zr
atom 9.9743923114835393 4.9258463829781878 80.5014706690309936 Zr
atom 4.9325883477294106 9.9676503468419551 80.5014712210509913 Zr
atom 9.9404080782523998 9.9336661232490471 80.5014710090583918 Zr
atom 4.9569078841123844 4.9734607614745396 85.5179095443226061 Zr
atom 9.9668386820518720 4.9415875973047694 85.5179093247824511 Zr
atom 4.9250347182374261 9.9833915612312403 85.5179098717292590 Zr
atom 9.9246668671188676 9.9412197452020230 85.5179095450641711 Zr
atom 4.7011122835508754 4.6357112340284052 77.9892027762784181 S
atom 10.3045882094857735 5.1973831946630575 77.9892025164983806 S
atom 5.2627842458062757 10.2391871584442011 77.9892030622653749 S
atom 9.6688712670216841 9.6034702174627249 77.9892027780863231 S
atom 5.2316558504733912 5.2967290623770769 82.9984278668109283 S
atom 9.6435703814216893 4.6668396274576240 82.9984276779532166 S
atom 4.6017664173762531 9.7086435911120113 82.9984282309607693 S
atom 10.1994148338920478 10.2644880459440788 82.9984278647118145 S
atom 5.3720628635827934 2.4626985110384334 80.8076086112560432 S
atom 9.6060711617232535 2.4283433734242346 80.1681454905987749 S
atom 4.5642671976272906 7.4701473352388872 80.1681460409334932 S
atom 10.3398218468320078 7.4304574924824678 80.8076086110655183 S
atom 5.3785055920090112 2.4666341044582207 85.1839480278699313 S
atom 9.6044483811570327 2.4326969467349389 85.8072070865473648 S
atom 4.5626444174343037 7.4745009089257914 85.8072076372053942 S
atom 10.3462645756849643 7.4343930862870806 85.1839480276939156 S
atom 2.4680380105658246 4.6004775929622301 80.8076088866971389 S
atom 7.4701520735111648 5.3342282801892500 80.1681457657474681 S
atom 2.4283481061834915 10.3760322442247510 80.1681463162317982 S
atom 7.4357969977227549 9.5682365760830823 80.8076088868046440 S
atom 2.4641022550348484 4.5940348689562622 85.1839483029995250 S
atom 7.4657986669146519 5.3358510545014486 85.8072073610066752 S
atom 2.4239947040664629 10.3776550183215583 85.8072079117864490 S
atom 7.4318612378575928 9.5617938522171677 85.1839483029754660 S
atom 2.2151620525169236 2.6747551158156533 87.9624134971733156 Ba
atom 7.2977853419818270 2.7155744397852963 87.9624132212633612 Ba
atom 2.2559813774902526 7.7573784033424333 87.9624137719485049 Ba
atom 7.1829210367028660 7.6425140990562115 87.9624134971826095 Ba
atom 2.6231257227141129 2.3118800903511918 92.7571851446689806 Ba
atom 7.6606603624213570 2.3076107768202880 92.7571848705685795 Ba
atom 2.6188563984447986 7.3494147403303156 92.7571854211592921 Ba
atom 7.5908847063516331 7.2796390735178829 92.7571851445622002 Ba
atom 4.9845474185173417 4.9590876017086565 90.5718129711160742 Zr
atom 9.9812118096245381 4.9139480680868912 90.5718127176587871 Zr
atom 4.9394078461624309 9.9557520316252717 90.5718132691256415 Zr
atom 9.9523064017002358 9.9268465846580405 90.5718129702379571 Zr
atom 4.7154185157009314 4.6636199155964730 88.0108751426125053 S
atom 10.2766795245264344 5.1830769585639267 88.0108746951211458 S
atom 5.2348755605910711 10.2248809223955686 88.0108752484874941 S
atom 9.6831774991383703 9.6313788989886948 88.0108751434937062 S
atom 5.1423230715999813 5.2191353256733723 93.0788824005244777 S
atom 9.7211641068034389 4.7561723967539207 93.0788821961928505 S
atom 4.6793601432031124 9.7979763606942232 93.0788827451306986 S
atom 10.1100820551850603 10.1868943091486042 93.0788824009605804 S
atom 5.2787569899199269 2.4664763120953626 90.7445828118941904 S
atom 9.6587426537722276 2.4323681494760732 90.1920987513459522 S
atom 4.6169386901849991 7.4741721151814344 90.1920993019249835 S
atom 10.2465159735298030 7.4342352978476205 90.7445828121466320 S
atom 2.4642604187649582 4.6937834558557867 90.7445830884617806 S
atom 7.4661271186573615 5.2815567871478191 90.1920990287891158 S
atom 2.4243231573331934 10.3233607507689715 90.1920995793709181 S
atom 7.4320193995830452 9.6615424396482901 90.7445830882220719 S
