#=======================================================
# FHI-aims file: full_relax/full_relax_RP_8_RxRyRz_-RxRy0.in
# Created using the Atomic Simulation Environment (ASE)
# Mon Mar 24 16:20:13 2025
#=======================================================
lattice_vector 9.9782615610279652 -0.0271960595762774 0.0024061825169196 
lattice_vector -0.0271960595762752 9.9782615610288357 -0.0024061825170493 
lattice_vector 0.0218136402506979 -0.0218136402517969 86.5253778409216352 
atom 0.0413049602441878 -0.1306826616882520 0.1378626943553759 Ba
atom 5.1198134422628421 -0.0549029899931116 0.1390657836565321 Ba
atom 0.1170846319784542 4.9478258203441223 0.1366596012853350 Ba
atom 5.0168377109551932 4.8448500890811594 0.1378626944587323 Ba
atom -0.2653131988165410 0.1934461094397746 4.9457125497040630 Ba
atom 4.7956846710306458 0.2517151691008245 4.9469156409939892 Ba
atom -0.2070441392278886 5.2544439793751652 4.9445094584619556 Ba
atom 4.7102195518713339 5.1689788601356037 4.9457125496890368 Ba
atom 2.4590090588838067 2.5100071400581441 2.3273625955235411 Zr
atom 7.4546563912392987 2.5029256621292260 2.3285656865751649 Zr
atom 2.4519275809423431 7.5056544723745864 2.3261595040048371 Zr
atom 7.4345418095832096 7.4855398907665105 2.3273625953866537 Zr
atom 2.4147654806451970 2.5241552708017352 7.4125599138704175 Zr
atom 7.4405082603524244 2.5471692403803985 7.4137630055292441 Zr
atom 2.4377794500837400 7.5498980507438729 7.4113568228579947 Zr
atom 7.3902982313582015 7.4996880215539701 7.4125599139442491 Zr
atom 2.5772106394804322 2.7007845367981718 -0.1831598038386041 S
atom 7.2638789944677944 2.3847240814236610 -0.1819567122532610 S
atom 2.2611501841501465 7.3874528917098079 -0.1843628948331779 S
atom 7.5527433902051229 7.6763172875142862 -0.1831598037783326 S
atom 2.2488081992903344 2.2863590295732266 4.9056766205126330 S
atom 7.6783045016153251 2.7131265216215112 4.9068797117283571 S
atom 2.6755756913119102 7.7158553319190810 4.9044735295098265 S
atom 7.2243409500226923 7.2618917803122045 4.9056766206851519 S
atom 2.7663833956520971 0.0273637387762986 2.2118775160407100 S
atom 7.1284757585068990 0.0163476166741762 2.6530652335723564 S
atom 2.1257469481888691 5.0190764268356949 2.6506590510540247 S
atom 7.7419161463727715 5.0028964893169894 2.2118775160516022 S
atom 2.9361563304260567 0.0345974155746190 7.6331307653045144 S
atom 7.0042096497994262 0.0212975983125988 7.2419362755927246 S
atom 2.0014808394827019 5.0240264089365976 7.2395300930774660 S
atom 7.9116890811498717 5.0101301666642666 7.6331307653060145 S
atom -0.0409617694767806 2.2227473850272004 2.2106744247286048 S
atom 4.9455871051690563 2.8361877725981004 2.6518621423243269 S
atom -0.0571417053038244 7.8389165829243401 2.6494559598156959 S
atom 4.9345709814504142 7.1982801357476882 2.2106744247181633 S
atom -0.0481954464387364 2.0529744500746645 7.6319276740616049 S
atom 4.9406371232732118 2.9604538814567025 7.2407331843246512 S
atom -0.0620916870825174 7.9631826917214514 7.2383270018260921 S
atom 4.9273373043416990 7.0285072008386464 7.6319276740562207 S
atom 0.0138589728705972 -0.0877865485569210 9.9672181894578120 Ba
atom 5.0769173290982490 -0.0274570026491955 9.9684212807161039 Ba
atom 0.0741885187670586 4.9752718076050835 9.9660150982002857 Ba
atom 4.9893917236246415 4.8877462021202529 9.9672181894579204 Ba
atom 0.0656651104578904 0.0009104257824869 15.0393057683991547 Ba
atom 4.9882203546900348 -0.0792631402896086 15.0405088596577396 Ba
atom -0.0145084556349207 4.9234656700730604 15.0381026771385145 Ba
atom 5.0411978612090316 4.9764431765699211 15.0393057683973481 Ba
atom 2.5060312290583044 2.4814602223272684 12.4903542311307181 Zr
atom 7.4832033088668846 2.4559034919360214 12.4915573227653898 Zr
atom 2.4804744985775304 7.4586323022588594 12.4891511404403772 Zr
atom 7.4815639797660953 7.4569929730588589 12.4903542313060694 Zr
atom 2.4970956119470955 2.4785237785464926 17.5778039294525357 Zr
atom 7.4861397526670190 2.4648391090200712 17.5790070201687953 Zr
atom 2.4834109423649511 7.4675679193407740 17.5766008377253655 Zr
atom 7.4726283626679368 7.4540565292910275 17.5778039293332533 Zr
atom 2.5861248896332798 2.6637357218275692 9.9620519417611213 S
atom 7.3009278094457652 2.3758098313096085 9.9632550320386368 S
atom 2.2981989991479783 7.3785386416172036 9.9608488494107501 S
atom 7.5616576403585496 7.6392684725377125 9.9620519413832085 S
atom 2.4183239466697852 2.4386425301431638 15.0393153032398885 S
atom 7.5260210011129995 2.5436107742775436 15.0405183946486858 S
atom 2.5232921908082062 7.5463395845796040 15.0381122119222130 S
atom 7.3938566973907323 7.4141752808645247 15.0393153033245888 S
atom 2.0215230737842922 -0.0101749595937424 12.4326793881303317 S
atom 8.0066222035117658 -0.0222249370535721 12.5788730051825581 S
atom 3.0038933931856353 4.9805038731259561 12.5764668226586842 S
atom 6.9970558244841561 4.9653577910216198 12.4326793881246491 S
atom 3.0109647643702404 -0.0115765037778960 17.6164212498473240 S
atom 6.9829825999370190 -0.0257105149348629 17.5491176999279190 S
atom 1.9802537896250541 4.9770182951246058 17.5467115174075410 S
atom 7.9864975150918198 4.9639562467029670 17.6164212498467059 S
atom -0.0034230693068677 2.9676077067411168 12.4314762968589889 S
atom 4.9841596571782603 1.9580413277616460 12.5776699139328727 S
atom -0.0185691529158345 6.9607701380436087 12.5752637314143989 S
atom 4.9721096812153789 7.9431404574760593 12.4314762968544361 S
atom -0.0020215251936641 1.9781660161555663 17.6152181585894709 S
atom 4.9876452352836420 2.9816809312910415 17.5479146086686484 S
atom -0.0150835750852170 7.9844097416248259 17.5455084261495564 S
atom 4.9735112256036311 6.9536987668447523 17.6152181585896273 S
atom -0.0157114496374076 -0.0258573288689260 20.1221808931364414 Ba
atom 5.0149881093299618 0.0021134198418796 20.1233839843938433 Ba
atom 0.0122592990614629 5.0048422301942646 20.1209778018764887 Ba
atom 4.9598213010552863 4.9496754219059103 20.1221808931369388 Ba
atom 0.0110563050138022 0.0555192312965020 25.2050560182603149 Ba
atom 4.9336115492226336 -0.0246543347757524 25.2062591095206763 Ba
atom -0.0691172610667706 4.9780744754717965 25.2038529270001987 Ba
atom 4.9865890557250134 5.0310519819650397 25.2050560182559771 Ba
atom 2.4886696577673355 2.4869497327251500 22.6665578571026352 Zr
atom 7.4777137984872502 2.4732650631903734 22.6677609486394971 Zr
atom 2.4749849881938770 7.4759938734993803 22.6653547659205898 Zr
atom 7.4642024084810892 7.4624824834643873 22.6665578569642001 Zr
atom 2.4916061016545696 2.4958853497994968 27.7540075565669611 Zr
atom 7.4687781814003733 2.4703286194883147 27.7552106458791030 Zr
atom 2.4660493711040297 7.4730574298451558 27.7528044631336783 Zr
atom 7.4671388523684588 7.4714181005820537 27.7540075565302331 Zr
atom 2.5328739901969275 2.5227281110090463 20.1221808931255985 S
atom 7.4419354202259527 2.4290607307440557 20.1233839852095286 S
atom 2.4392066099202232 7.4317895410415762 20.1209778027666388 S
atom 7.5084067409229158 7.4982608617346660 20.1221808932478190 S
atom 2.4487884093088610 2.4081780674720910 25.2050464826124205 S
atom 7.5564854637720469 2.5131463116112371 25.2062495735177023 S
atom 2.5537566534626408 7.5158751219049416 25.2038433913901834 S
atom 7.4243211600357304 7.3837108182024700 25.2050464828310794 S
atom 1.9883118953647221 -0.0121674050031975 22.6291436279281939 S
atom 7.9945556207438742 -0.0252294535139699 22.6988533603484051 S
atom 2.9918268104571868 4.9774993567286048 22.6964471778321766 S
atom 6.9638446461077423 4.9633653456583309 22.6291436279278138 S
atom 2.9777535859477622 -0.0135689493947480 27.8128854895418058 S
atom 6.9709160171969096 -0.0287150319677148 27.6690980549589725 S
atom 1.9681872068899522 4.9740137788565564 27.6666918724488760 S
atom 7.9532863366865580 4.9619638018405654 27.8128854895419586 S
atom -0.0014306254677637 3.0008188851406947 22.6279405366747355 S
atom 4.9871641751820617 1.9701079104876518 22.6976502690922146 S
atom -0.0155646352339187 6.9728367207810020 22.6952440865695806 S
atom 4.9741021253778124 7.9763516358698476 22.6279405366643402 S
atom -0.0000290809749010 2.0113771945296066 27.8116823982730708 S
atom 4.9906497528512723 2.9937475140771488 27.6678949637030307 S
atom -0.0120790573964403 7.9964763243054451 27.6654887812107226 S
atom 4.9755036697039898 6.9869099453167127 27.8116823982788191 S
atom -0.0776406694347338 0.0037130936615272 30.2771435969206273 Ba
atom 4.9854176867415392 0.0640426396765201 30.2783466881782815 Ba
atom -0.0173111236067647 5.0667714498464820 30.2759405056854547 Ba
atom 4.8978920813339029 4.9792458442557992 30.2771435969361526 Ba
atom 0.2035919887066661 -0.2754590782515509 35.2986492367410705 Ba
atom 5.2645898584021964 -0.2171900183806367 35.2998523279570691 Ba
atom 0.2618610481248587 4.7855387920807244 35.2974461454322110 Ba
atom 5.1791247394021065 4.7000736726278065 35.2986492367468543 Ba
atom 2.5343011501746777 2.4046196018330015 32.8318018689755604 Zr
atom 7.5600439302892202 2.4276335711119659 32.8330049651739202 Zr
atom 2.5573151199876722 7.4303623813991280 32.8305987832650459 Zr
atom 7.5098339009055621 7.3801523524670669 32.8318018693525460 Zr
atom 2.5201530180694478 2.4488631796299205 37.9169991915132911 Zr
atom 7.5158003515199105 2.4417817006505915 37.9182022836277639 Zr
atom 2.5130715412805826 7.4445105107217246 37.9157961010106916 Zr
atom 7.4956857686867426 7.4243959302433087 37.9169991914069868 Zr
atom 2.6738816010724662 2.5759790104968432 30.2823098442985703 S
atom 7.3886845208707586 2.2880531200303964 30.2835129384042823 S
atom 2.3859557105713405 7.2907819303506871 30.2811067557466842 S
atom 7.6494143517977298 7.5515117612160667 30.2823098440471057 S
atom 2.2965049089380738 2.2386623201155933 35.3386851728707114 S
atom 7.7260012111718996 2.6654298122980209 35.3398882511628045 S
atom 2.7232724008626503 7.6681586226432588 35.3374820678904769 S
atom 7.2720376596593912 7.2141950708531573 35.3386851725144666 S
atom 2.0631203293566154 -0.0583413282422372 32.6124341125437383 S
atom 7.9733285709304367 -0.0722375640529045 33.0060347847776967 S
atom 2.9705997606137386 4.9304912463515409 33.0036286022443903 S
atom 7.0386530800623026 4.9171914226262166 32.6124341125444417 S
atom 2.2328932637131276 -0.0511076352424409 38.0336873615784938 S
atom 7.8490624620241807 -0.0672875946180265 37.5949058265968432 S
atom 2.8463336517221682 4.9354412147135367 37.5924996440886474 S
atom 7.2084260145076184 4.9244251143200506 38.0336873615502640 S
atom 0.0447432924341766 2.9260104512735623 32.6112310213159660 S
atom 5.0341722901398231 1.9913349602807340 33.0048316935594528 S
atom 0.0314434799711000 6.9940637706025770 33.0024255110167530 S
atom 5.0202760429966684 7.9015432019984946 32.6112310213138059 S
atom 0.0375096304374340 2.7562375158981882 38.0324842702629127 S
atom 5.0292222954933870 2.1156010689839282 37.5937027352031308 S
atom 0.0264934849410314 7.1183298792255654 37.5912965526814133 S
atom 5.0130423814733787 7.7317702667222656 38.0324842703392889 S
atom -0.1205367826748744 0.0311590811822681 40.1064990931893988 Ba
atom 4.9579716997017638 0.1069387525954215 40.1077021844689767 Ba
atom -0.0447571105692051 5.1096675630180579 40.1052960019601841 Ba
atom 4.8549959680132568 5.0066918320046678 40.1064990931683951 Ba
atom 2.7109304154928764 2.5670647599094902 40.4275215857273196 S
atom 7.3975987706560105 2.2510043046107424 40.4287246843364088 S
atom 2.3948699603273074 7.2537331148856818 40.4263185022522435 S
atom 7.6864631662410901 7.5425975107018912 40.4275215859967432 S
atom 2.6357468138352185 2.4287950640350129 43.5481602334824558 Ba
atom 7.5358684672228238 2.3261879070801204 43.5493633236061228 Ba
atom 2.5331396569208682 7.3289167173177505 43.5469571409844889 Ba
atom 7.6112795645599398 7.4043278146995952 43.5481602334608624 Ba
atom 2.2825969200497149 2.7611070645858438 48.3497059980960628 Ba
atom 7.2035564666796859 2.6793378006973003 48.3509090893475530 Ba
atom 2.2008276563652682 7.6820666112076221 48.3485029068391583 Ba
atom 7.2581296707738243 7.7366398154998919 48.3497059981160646 Ba
atom 4.9606862865565091 4.9980753819879862 45.7395102207318800 Zr
atom 9.9421208998086161 4.9767811850769945 45.7407133128300600 Zr
atom 4.9393920896255175 9.9795099953452606 45.7383071306696039 Zr
atom 9.9362190371895025 9.9736081327504085 45.7395102211093132 Zr
atom 4.9470632775596615 5.0084783317201040 50.8063932731691423 Zr
atom 9.9317179502342778 4.9904041941462234 50.8075963646722926 Zr
atom 4.9289891400343517 9.9931330043648252 50.8051901819771530 Zr
atom 9.9225960281977539 9.9840110824127599 50.8063932728759298 Zr
atom 4.7526367335795747 4.8640037469833244 43.2283047151561632 S
atom 10.0761925350215549 5.1848307380918586 43.2295078062217115 S
atom 5.0734637247198657 10.1875595483998485 43.2271016236108920 S
atom 9.7281694843085038 9.8395364977143824 43.2283047150405366 S
atom 5.2383603440813644 5.2475135989718344 48.3077337369386086 S
atom 9.6926826828348780 4.6991071273554130 48.3089368258440928 S
atom 4.6899538725083305 9.7018359375956571 48.3065306428145007 S
atom 10.2138930948586388 10.2230463497413933 48.3077337364588573 S
atom 4.6294403088548046 2.5125551810892275 46.0905580378407791 S
atom 10.2451280153474542 2.4953156072001108 45.5918132136390355 S
atom 5.2423992050178310 7.4980444175596608 45.5894070311276707 S
atom 9.6049730596047365 7.4880879318139515 46.0905580378325155 S
atom 4.5627746936689162 2.5089258021781982 50.5264947290366564 S
atom 10.3506527959846224 2.4915368301721048 51.1311751274524298 S
atom 5.3479239856711214 7.4942656394234684 51.1287689449235359 S
atom 9.5383074444497833 7.4844585517966671 50.5264947290453676 S
atom 2.4493795398247560 5.3352232224431528 46.0893549465954493 S
atom 7.4421518645349565 4.6950682665367989 45.5906101224176297 S
atom 2.4394230542381536 9.6977970768349895 45.5882039398954575 S
atom 7.4249122905363949 10.3107559731630420 46.0893549465563197 S
atom 2.4530089242225621 5.4018888373455685 50.5252916378269035 S
atom 7.4459306371887841 4.5895434860737518 51.1299720361697965 S
atom 2.4432018268664812 9.5922722962789511 51.1275658537033380 S
atom 7.4285416749664313 10.3774215881757197 50.5252916377437131 S
atom 2.6415577678326012 2.2445107745537269 53.3419512220558829 Ba
atom 7.7201527564273542 2.3203769532921936 53.3431543133114872 Ba
atom 2.7174239461563872 7.3231057636063106 53.3407481308437070 Ba
atom 7.6170905185216196 7.2200435253026232 53.3419512220602172 Ba
atom 2.2848585128855072 2.7745119425109008 58.3634339764107892 Ba
atom 7.1901515879535527 2.6770762091345985 58.3646370677653223 Ba
atom 2.1874227776551942 7.6798050189591098 58.3622308852815976 Ba
atom 7.2603912636473300 7.7500446927928319 58.3634339763917254 Ba
atom 4.9513858771730641 4.9935888277622027 55.8349251650439768 Zr
atom 9.9466074544843419 4.9860815953858237 55.8361282500358698 Zr
atom 4.9438786440759968 9.9888104057157268 55.8337220666611529 Zr
atom 9.9269186279512098 9.9691215783559048 55.8349251643078546 Zr
atom 4.9320531457443337 5.0341967147110811 60.8655739297130580 Zr
atom 9.9059995657400837 5.0054143273761582 60.8667770303106792 Zr
atom 4.9032707551604480 10.0081431377734287 60.8643708492930458 Zr
atom 9.9075858966990040 10.0097294653022342 60.8655739313653399 Zr
atom 4.6369212382462326 4.7375769147382725 53.3310851062264248 S
atom 10.2026193671704082 5.3005462333878599 53.3322882021338742 S
atom 5.1998905568553919 10.3032750436818894 53.3298820208187863 S
atom 9.6124539889951368 9.7131096654943825 53.3310851075377528 S
atom 5.2509087248063686 5.2501175734903756 58.3524216470621582 S
atom 9.6900787087877109 4.6865587474677390 58.3536247445047920 S
atom 4.6873498984914805 9.6892875578768010 58.3512185616580155 S
atom 10.2264414754669595 10.2256503241886101 58.3524216463872065 S
atom 4.5575712492555551 2.5061620220775724 56.1547926238184587 S
atom 10.3435758904343658 2.4889485546212429 55.5448189633711777 S
atom 5.3408470801416881 7.4916773662492036 55.5424127808446784 S
atom 9.5331039999447338 7.4816947742193634 56.1547926238095698 S
atom 4.5477546854105952 2.5184709965856955 60.6038136617406522 S
atom 10.3111423894861112 2.5019045811022145 61.1300034773714245 S
atom 5.3084135792254115 7.5046333918083317 61.1275972948688917 S
atom 9.5232874360451767 7.4940037478244568 60.6038136617336107 S
atom 2.4557726940346605 5.4070922821383425 56.1535895325254089 S
atom 7.4485189201193007 4.5966203914120056 55.5436158720510917 S
atom 2.4457901096790136 9.5993492018676463 55.5412096896903478 S
atom 7.4313054449000839 10.3826250327418190 56.1535895325250038 S
atom 2.4434637074520085 5.4169088461755228 60.6026105706362799 S
atom 7.4355629081688628 4.6290538922536770 61.1288003857855315 S
atom 2.4328340980888119 9.6317827025961247 61.1263942031583838 S
atom 7.4189964579427992 10.3924415968877550 60.6026105705742566 S
atom 2.5120264419544989 2.4800669221143936 63.3848698139858584 Ba
atom 7.4845966085145070 2.4499082786318933 63.3860729052122167 Ba
atom 2.4818677981719284 7.4526370894317111 63.3836667225591341 Ba
atom 7.4875591927744765 7.4555996733771588 63.3848698139320561 Ba
atom 2.8064714628367113 2.2528989923280855 68.4063056503939606 Ba
atom 7.7117645376468351 2.1554632591902569 68.4075087420264509 Ba
atom 2.7090357273541956 7.1581920696649348 68.4051025595979212 Ba
atom 7.7820042135258127 7.2284317432464960 68.4063056505136160 Ba
atom 5.0661562375114428 4.9000936243005091 65.9041656922594541 Zr
atom 10.0401026553538468 4.8713112389987474 65.9053687851037893 Zr
atom 5.0373738450894576 9.8740400499985643 65.9029626022170731 Zr
atom 10.0416889882111313 9.8756263754225397 65.9041656915831027 Zr
atom 5.0255483471494715 4.9194263560669897 70.9348144715155939 Zr
atom 10.0207699236086221 4.9119191247806304 70.9360175501419263 Zr
atom 5.0180411134801091 9.9146479350661760 70.9336113662235874 Zr
atom 10.0010810976083508 9.8949591069797531 70.9348144702562280 Zr
atom 4.7515510955705045 4.7195915764667120 63.3848698269031843 S
atom 10.2206047064183441 5.1859163763668903 63.3860728919133933 S
atom 5.2178758961371638 10.1886451867448660 63.3836667075928375 S
atom 9.7270838462134819 9.6951243270366003 63.3848698252343112 S
atom 5.2820770925890868 5.2189492048183270 68.4173179650177730 S
atom 9.7212470768007773 4.6553903788232933 68.4185210808809359 S
atom 4.7185182664582754 9.6581191891040294 68.4161149008949678 S
atom 10.2576098433110037 10.1944819555250827 68.4173179676505185 S
atom 5.4488683652445822 2.4115042147028678 66.1671290568973802 S
atom 9.6637422222898195 2.4008745526257811 65.6433454235251190 S
atom 4.6610134120038804 7.4036033596670450 65.6409392409390335 S
atom 10.4244011160477257 7.3870369624972847 66.1671290569133959 S
atom 5.4390518015106259 2.4238131690578255 70.6161500951724861 S
atom 9.6313087211289297 2.4138305942657681 71.2285299379730787 S
atom 4.6285799107169643 7.4165594066920537 71.2261237554789091 S
atom 10.4145845522791873 7.3993459218053301 70.6161500951310330 S
atom 2.5504305415907824 4.5157951656700499 66.1659259654610992 S
atom 7.5365928834355707 5.2764540600925383 65.6421423329156255 S
atom 2.5338640732336795 10.2791828706194028 65.6397361502508687 S
atom 7.5259632922849988 9.4913279160493325 66.1659259656418328 S
atom 2.5381215376475756 4.5256117298270198 70.6149470037783544 S
atom 7.5236368900526838 5.3088875606358519 71.2273268467515521 S
atom 2.5209080797608836 10.3116163707448329 71.2249206641866408 S
atom 7.5136542883796045 9.5011444807492502 70.6149470039765959 S
atom 2.2764702947905424 2.6095982480443261 73.4277884053728798 Ba
atom 7.3550652824579448 2.6854644277779913 73.4289914965775665 Ba
atom 2.3523364721637061 7.6881932374598048 73.4265853140948934 Ba
atom 7.2520030455659930 7.5851309980937902 73.4277884053969530 Ba
atom 2.7930665844315992 2.2506374001708402 78.4200336295801179 Ba
atom 7.7140261303739450 2.1688681370299663 78.4212367206807528 Ba
atom 2.7112973200975472 7.1715969476876920 78.4188305382086526 Ba
atom 7.7685993351140761 7.2261701512559560 78.4200336295226634 Ba
atom 5.0404378509227818 4.9151037572849798 75.9633463483275193 Zr
atom 10.0250925231295565 4.8970296204492545 75.9645494524851586 Zr
atom 5.0223637130054790 9.8997584305615760 75.9621432717258216 Zr
atom 10.0159706013450105 9.8906365080821761 75.9633463498290240 Zr
atom 5.0300349017135009 4.9287267695351735 81.0302294049480309 Zr
atom 10.0114695170078942 4.9074325706062281 81.0314324969471187 Zr
atom 5.0087407066860390 9.9101613807046700 81.0290263141542653 Zr
atom 10.0055676524873647 9.9042595197814798 81.0302294046619522 Zr
atom 4.7695364339305861 4.6049617182744367 73.4386545187293223 S
atom 10.3352345627861411 5.1679310373212273 73.4398576095176736 S
atom 5.3325057523753125 10.1706598475650303 73.4374514264089839 S
atom 9.7450691846720119 9.5804944691492508 73.4386545180336583 S
atom 5.2794731185581858 5.2064008246301610 78.4620059032956476 S
atom 9.7337954571433265 4.6579943532894337 78.4632089715796184 S
atom 4.7310666468042752 9.6607231636419222 78.4608027874194818 S
atom 10.2550058692799890 10.1819335754120885 78.4620059021155498 S
atom 5.4338483569615299 2.4210493960866675 76.2444479893768658 S
atom 9.6242318156474553 2.4112423154994680 75.6421737735174844 S
atom 4.6215030052730075 7.4139711265743236 75.6397675909927329 S
atom 10.4093811077446237 7.3965821474533975 76.2444479893842697 S
atom 5.3671827421506624 2.4174200383482853 80.6803846808338960 S
atom 9.7297565970747328 2.4074635151593680 81.1815356877087169 S
atom 4.7270277868282600 7.4101923229856039 81.1791295052047843 S
atom 10.3427154928233254 7.3929527870602829 80.6803846808659415 S
atom 2.5408853127323252 4.5308151744451868 76.2432448981284807 S
atom 7.5262251678076852 5.3159644661310743 75.6409706822645518 S
atom 2.5234963576086988 10.3186932763833212 75.6385644996737199 S
atom 7.5164180633656734 9.5063479252714576 76.2432448979810857 S
atom 2.5445147173343066 4.5974807896980927 80.6791815898334477 S
atom 7.5300039163397363 5.2104396863967199 81.1803325964131943 S
atom 2.5272751055899914 10.2131684969308250 81.1779264141010941 S
atom 7.5200474684306879 9.5730135402985344 80.6791815898515665 S
atom 2.4607545830747890 2.6037872944393734 83.2215793942027773 Ba
atom 7.3608762370470329 2.5011801370229416 83.2227824855694109 Ba
atom 2.3581474267973874 7.5039089475309053 83.2203763030103829 Ba
atom 7.4362873337541640 7.5793200454207286 83.2215793941570610 Ba
atom 4.8959632669633706 4.7206772148966705 83.5414349065834472 S
atom 10.2195190686271520 5.0415042058571915 83.5426380103222215 S
atom 5.2167902584132966 10.0442330162911304 83.5402318286989640 S
atom 9.8714960176792328 9.6962099655555374 83.5414349072196103 S
