#=======================================================
# FHI-aims file: full_relax/full_relax_RP_4_RxRyRz_-RxRy0.in
# Created using the Atomic Simulation Environment (ASE)
# Fri Mar 14 11:28:19 2025
#=======================================================
lattice_vector 10.0226977950747713 0.0129127644372567 0.0116170073037053 
lattice_vector 0.0129127644380556 10.0226977952379119 -0.0116170068073499 
lattice_vector 0.0534886088534875 -0.0534886065526272 45.8278467835636789 
atom 0.0117767738408966 -0.1392573774733283 0.2410374799014379 Ba
atom 5.1506062804291437 -0.0053204856103326 0.2468462524998041 Ba
atom 0.1457136591718720 4.9995720904632917 0.2352292523848632 Ba
atom 5.0295821505236651 4.8785479858651062 0.2410375686057147 Ba
atom -0.2371705709547177 0.1923098176087897 4.9924989593247169 Ba
atom 4.8190390566826000 0.2436268368169915 4.9983074710432733 Ba
atom -0.1858535613935386 5.2485194924726146 4.9866904265781011 Ba
atom 4.7806348066119906 5.2101152431790769 4.9924989475310459 Ba
atom 2.4821628812277705 2.5239794879401427 2.3866846058665687 Zr
atom 7.5051747211290856 2.5420988774855853 2.3924931792999278 Zr
atom 2.5002823165375636 7.5469912051424588 2.3808762789602942 Zr
atom 7.4999681816597965 7.5417846710646774 2.3866848022653566 Zr
atom 2.4500040921328288 2.5511499247208937 7.4470983563439423 Zr
atom 7.4780042847730135 2.5742576033196332 7.4529064013455883 Zr
atom 2.4731117713939601 7.5791501151788951 7.4412895995650361 Zr
atom 7.4678092706864323 7.5689551427320101 7.4470975422027346 Zr
atom 2.6262263961884833 2.7346142997742464 -0.1148302200078103 S
atom 7.2945398336551488 2.3980352528131448 -0.1090218837682898 S
atom 2.2896473428682644 7.4029277676687117 -0.1206389048140808 S
atom 7.6440317242821783 7.7524196711197133 -0.1148308065588468 S
atom 2.2506842254217108 2.2512501025604883 4.9465792101984993 S
atom 7.7779040786714289 2.7735774197841931 4.9523880707310841 S
atom 2.7730115693765907 7.7784699639540920 4.9407707894394344 S
atom 7.2684895114790775 7.2690553650818064 4.9465800966001483 S
atom 2.7179876077556817 0.0294259804672680 2.2489499103254342 S
atom 7.2346742504662833 0.0399223966205145 2.7373162215261342 S
atom 2.2297817870966674 5.0448141872191288 2.7256992119722874 S
atom 7.7357929517969319 5.0472303649671302 2.2489498523963678 S
atom 2.8432767429704735 0.0335009146805439 7.7078546260439236 S
atom 7.1080785645057318 0.0430214064516496 7.2075730161885385 S
atom 2.1031860214056723 5.0479137790476658 7.1959559609648265 S
atom 7.8610819786494961 5.0513060548696185 7.7078546297304600 S
atom -0.0229690674571255 2.2933612648240373 2.2431414127285123 S
atom 4.9843395660144161 2.7944798757105782 2.7315077179175158 S
atom -0.0205521757589171 7.7993724781524243 2.7198907143393627 S
atom 4.9948352396724873 7.3111665384086866 2.2431413550647838 S
atom -0.0270445403522993 2.1680721822772893 7.7020461219075882 S
atom 4.9812403774008294 2.9210756166779581 7.2017644898201851 S
atom -0.0236524813467588 7.9259681539753339 7.1901474776323786 S
atom 4.9907611579884303 7.1858774487552290 7.7020461247386685 S
atom -0.0075453746324958 -0.0308013573228725 9.9625752926694684 Ba
atom 5.0421501800541746 0.0140018725657308 9.9683837766170242 Ba
atom 0.0372578593159998 5.0188943594365467 9.9567667962422295 Ba
atom 5.0102597065026169 4.9870038767947209 9.9625752789407152 Ba
atom 0.2155657697140846 -0.2604263777779734 14.9326518951408804 Ba
atom 5.2717753643523899 -0.2091093483624595 14.9384604117555693 Ba
atom 0.2668827698540532 4.7957830341347556 14.9268433890581651 Ba
atom 5.2333711290782636 4.7573787765694586 14.9326519091959842 Ba
atom 2.5744057423704025 2.4267481328082479 12.4780522122138695 Zr
atom 7.6024061451835951 2.4498559565773945 12.4838612918799097 Zr
atom 2.5975134810952336 7.4547483906453591 12.4722436629022475 Zr
atom 7.5922110680487709 7.4445533565581208 12.4780525277640226 Zr
atom 2.5472352007327737 2.4589069089845008 17.5384665517839267 Zr
atom 7.5702472473213795 2.4770263202532670 17.5442750526884552 Zr
atom 2.5653547269475676 7.4819188676893722 17.5326582021539998 Zr
atom 7.5650406196360009 7.4767121587959355 17.5384666973366237 Zr
atom 2.7640184281140479 2.7407624944184534 9.9625756126600589 S
atom 7.2883916998541949 2.2602432444951237 9.9683842375991958 S
atom 2.2834991560885269 7.2651357692826242 9.9567674132496844 S
atom 7.7818236667409781 7.7585677667142727 9.9625759038686184 S
atom 2.2745060144318536 2.2274282932554259 14.9785713926532900 S
atom 7.8017258732153367 2.7497556692522460 14.9843789665533897 S
atom 2.7968333721956982 7.7546481598747832 14.9727626925020019 S
atom 7.2923113007858031 7.2452335957472211 14.9785709016316986 S
atom 2.1913281043098980 -0.0503004933875672 12.2231047297172566 S
atom 7.9492240148741393 -0.0469083335540570 12.7350032700398046 S
atom 2.9443315458799839 4.9579844976420153 12.7233863199811079 S
atom 7.2091334292989799 4.9675051236787136 12.2231047332099205 S
atom 2.3166172057462382 -0.0462252108716526 17.6820092852333204 S
atom 7.8226283619335453 -0.0438092150424306 17.2052599664912265 S
atom 2.8177358072858389 4.9610838457549171 17.1936429656920282 S
atom 7.3344224143303354 4.9715807383813049 17.6820093537082244 S
atom 0.0567564248266194 2.8200207850220926 12.2172962282467665 S
atom 5.0711700800669863 2.0799301173188636 12.7291948077224042 S
atom 0.0662771062130283 7.0848226783746489 12.7175777780345847 S
atom 5.0745622357471074 7.8378260406798654 12.2172962260198794 S
atom 0.0526824998728855 2.6947317132435922 17.6762008363995413 S
atom 5.0680696068001811 2.2065258027887813 17.1994514565927616 S
atom 0.0631778438720867 7.2114183663319489 17.1878344583136808 S
atom 5.0704868315118272 7.7125369710157745 17.6762008021955204 S
atom -0.1160014901938710 -0.0114790669646110 19.6841132205713407 Ba
atom 5.0228280409588866 0.1224578432113137 19.6899216970479785 Ba
atom 0.0179354290887901 5.1273503054523522 19.6783047072263457 Ba
atom 4.9018038986286010 5.0063261763640918 19.6841132154302230 Ba
atom 2.7578702180569095 2.6029704846757813 20.0399808018357035 S
atom 7.4261836606197900 2.2663913880444522 20.0457897920827186 S
atom 2.4212912067299364 7.2712839503134497 20.0341722900252961 S
atom 7.7756755052729654 7.6207757363311410 20.0399808215046882 S
atom 2.6749014138653737 2.4703585411430895 23.1549212995751681 Ba
atom 7.5587956379245327 2.3493602145899235 23.1607296906019435 Ba
atom 2.5539030702428218 7.3542527439191439 23.1491128031911053 Ba
atom 7.6927067533779256 7.4881638437766087 23.1549212615934756 Ba
atom 2.3432973783190731 2.7194040550071810 27.9064067653204688 Ba
atom 7.3097501060648975 2.6809645124187296 27.9122153043606964 Ba
atom 2.3048576719517868 7.6858567810854304 27.9005982339800376 Ba
atom 7.3611025742535254 7.7372091075341531 27.9064067649171292 Ba
atom 5.0294568877965542 5.0178147392759360 25.3005867104078028 Zr
atom 10.0291448173485040 5.0126100649926553 25.3063945374232873 Zr
atom 5.0242520888463940 10.0175025183188957 25.2947773200501587 Zr
atom 10.0472622970141678 10.0356199570480680 25.3005861403040697 Zr
atom 5.0022766478718914 5.0500034116924439 30.3610103181760032 Zr
atom 9.9969559136635944 5.0397903771008785 30.3668201237370177 Zr
atom 4.9920635310215289 10.0446830869503945 30.3552035426346514 Zr
atom 10.0200818858151823 10.0678088866990247 30.3610103744162814 Zr
atom 4.8188184631120912 4.8737540556761942 22.7990687634713929 S
atom 10.1732053734186429 5.2232484527963026 22.8048776147303762 S
atom 5.1683128494114978 10.2281409512068944 22.7932608407123851 S
atom 9.8366237415462461 9.8915593632512060 22.7990689981960237 S
atom 5.3021982179326441 5.2492859294410383 27.8604884259172287 S
atom 9.7976735798670624 4.7398688132765239 27.8662975881833930 S
atom 4.7927810606895971 9.7447613651798850 27.8546804145062161 S
atom 10.3200034147755328 10.2670911648439702 27.8604892207354773 S
atom 4.7588962366391350 2.5156343889554091 25.6454101839233708 S
atom 10.2650539283920690 2.5180514326385688 25.1686757975060651 S
atom 5.2601614277109698 7.5229443663261550 25.1570588122604377 S
atom 9.7767014743998519 7.5334400401763002 25.6454101918123776 S
atom 4.6323403308576028 2.5187411715345749 30.1156806693605574 S
atom 10.3902909639217995 2.5221349439911656 30.6275774996007542 S
atom 5.3853985453971882 7.5270285764819906 30.6159605370331285 S
atom 9.6501456728511972 7.5365475098613555 30.1156807255988426 S
atom 2.5086265036221036 5.2702579618365206 25.6396016668932454 S
atom 7.5240159213559634 4.7819054904869507 25.1628672965897593 S
atom 2.5191236335895120 9.7867980395538510 25.1512503173333286 S
atom 7.5264316266455840 10.2880632266009346 25.6396016956218809 S
atom 2.5055183442595927 5.3968139006966886 30.1098721763873591 S
atom 7.5199330727504341 4.6566684161548322 30.6217690008280812 S
atom 2.5150396765565879 9.6615610073911160 30.6101519707293015 S
atom 7.5233244331684652 10.4146190502767357 30.1098722348642482 S
atom 2.5664681855697506 2.4897235964758737 32.8764987539592966 Ba
atom 7.5394304682944959 2.4577935700516735 32.8823072307493476 Ba
atom 2.5345381350003486 7.4626860158874457 32.8706902505471277 Ba
atom 7.5842732716802708 7.5075287967459285 32.8764987571935876 Ba
atom 2.7961484977202651 2.2665525812786700 37.8465907958639320 Ba
atom 7.7626014203728131 2.2281130628545727 37.8523993656160016 Ba
atom 2.7577087867632573 7.2330058585334918 37.8407823336237925 Ba
atom 7.8139538825704671 7.2843581550778822 37.8465907932082501 Ba
atom 5.1267483914323195 4.9255318479417456 35.3919861883555882 Zr
atom 10.1214272469558306 4.9153192681879228 35.3977945186676379 Zr
atom 5.1165347642960306 9.9202118478014647 35.3861776057093422 Zr
atom 10.1445537393688809 9.9433372638873738 35.3919872868683782 Zr
atom 5.0945591978189535 4.9527121651204871 40.4524121175468210 Zr
atom 10.0942467945829826 4.9475074576075651 40.4582195354808221 Zr
atom 5.0893542447251594 9.9524001192481268 40.4466021951561103 Zr
atom 10.1123643957980995 9.9705175390994256 40.4524116110446030 Zr
atom 4.8127091020461252 4.7359646135449749 32.8765011505477815 S
atom 10.3109949639900673 5.2293579301543645 32.8823061332283686 S
atom 5.3061024761918665 10.2342504225617361 32.8706885150807580 S
atom 9.8305144254999668 9.7537699024412259 32.8764999212681843 S
atom 5.3260303638960291 5.2254535337621926 37.8925066627842355 S
atom 9.8215058064540042 4.7160365034143732 37.8983189810380594 S
atom 4.8166132625934912 9.7209289713397986 37.8867023205111551 S
atom 10.3438356467385244 10.2432588686588542 37.8925061315424969 S
atom 5.4735583222910869 2.4287777042372962 35.6431253563847079 S
atom 9.7383055316637659 2.4382926834942360 35.1428455454389095 S
atom 4.7334129725707097 7.4431844327859213 35.1312285284273713 S
atom 10.4913636053897719 7.4465822315534389 35.6431253285054410 S
atom 5.3470024155920202 2.4318808897170934 40.1133958899617298 S
atom 9.8635424597004331 2.4423813406372856 40.6017473072211317 S
atom 4.8586499868332291 7.4472728558643722 40.5901302465121461 S
atom 10.3648077505279215 7.4496853227936342 40.1133958943381472 S
atom 2.5954892545255532 4.5555958620650010 35.6373168280750718 S
atom 7.6037693831663615 5.3086539333943543 35.1370371300130415 S
atom 2.5988766119214661 10.3135465122440007 35.1254200793679274 S
atom 7.6132947182033872 9.5734010615291236 35.6373168544034016 S
atom 2.5923779812147409 4.6821516880055141 40.1075873566077234 S
atom 7.5996901294348573 5.1834168261692986 40.5959387410122190 S
atom 2.5947984103012636 10.1883093680994481 40.5843218114867526 S
atom 7.6101826238025607 9.6999568815636419 40.1075873776585397 S
atom 2.5471030843937261 2.5981568712293703 42.5980762189364697 Ba
atom 7.4309973065930279 2.4771586220173822 42.6038847318113696 Ba
atom 2.4261047104706841 7.4820511680082884 42.5922677336540332 Ba
atom 7.5649084390194590 7.6159622059522754 42.5980763062512651 Ba
atom 4.9504985545609301 4.7420739006063934 42.9539288031766660 S
atom 10.3048854465243434 5.0915682864660115 42.9597364594433913 S
atom 5.2999929131394312 10.0964608210279412 42.9481196319989280 S
atom 9.9683037946701010 9.7598790988610133 42.9539294633999305 S
