#=======================================================
# FHI-aims file: full_relax/full_relax_RP_3_RxRyMz_-Rx-Ry-Mz.in
# Created using the Atomic Simulation Environment (ASE)
# Fri Mar 14 11:21:31 2025
#=======================================================
lattice_vector 10.0410201208239513 -0.0044895797321972 -0.0134252229459468 
lattice_vector -0.0044895797321855 10.0410201208275041 0.0134252229361428 
lattice_vector -0.0477002493268034 0.0477002492910647 35.6921960611388869 
atom 0.0448293336431189 -0.1333909396935387 0.2378860364036173 Ba
atom 5.1539010027451431 -0.0470741308301422 0.2311734415971352 Ba
atom 0.1311461465564366 4.9756807241241798 0.2445986330265000 Ba
atom 5.0630946098590961 4.8848743359579707 0.2378860303333163 Ba
atom -0.2464179093993547 0.1956859282832108 4.9753358701326658 Ba
atom 4.8248241335548006 0.2441731169418110 4.9686232584344836 Ba
atom -0.1979307160813405 5.2669279685534933 4.9820484886826515 Ba
atom 4.7718473597969799 5.2139511996978660 4.9753358739001712 Ba
atom 2.4911572619515012 2.5264468703931575 2.3866632803629866 Zr
atom 7.5123284531738159 2.5248632046842610 2.3799506726078379 Zr
atom 2.4895736150494150 7.5476180626614555 2.3933758905275999 Zr
atom 7.5094225413398101 7.5447121829029671 2.3866632643909518 Zr
atom 2.4991950811536237 2.5190701993172380 7.4358741915805524 Zr
atom 7.5197051377512345 2.5168253987807421 7.4291615736967476 Zr
atom 2.4969502881260155 7.5395802424309650 7.4425867647049992 Zr
atom 7.5174603632730461 7.5373354531637897 7.4358742076864202 Zr
atom 2.6650417468406817 2.7930555837406437 -0.1152354171404542 S
atom 7.2457197365256345 2.3509787377064844 -0.1219480348339608 S
atom 2.2229648990361701 7.3737335906538695 -0.1085227942354111 S
atom 7.6833070128053089 7.8113208662184253 -0.1152354044073198 S
atom 2.2341257614559273 2.2129519555128270 4.9367572650306224 S
atom 7.8258233738308149 2.7818947218867809 4.9300446551296782 S
atom 2.8030685266913955 7.8046495655209194 4.9434698958455021 S
atom 7.2523910345149387 7.2312172256383782 4.9367572554296553 S
atom 2.7157015393748742 0.0243305131256677 2.2059068582913763 S
atom 7.2450579774814967 0.0253350800272816 2.7445694727441672 S
atom 2.2223031296157765 5.0480899429895496 2.7579946964877191 S
atom 7.7339668081690771 5.0425957317206498 2.2059068684740804 S
atom 2.8714256624437833 0.0055360834314232 7.7367646854470253 S
atom 7.1497193496047808 0.0098494396006848 7.1215584551107014 S
atom 2.1269645017390570 5.0326042821983741 7.1349836746215090 S
atom 7.8896909332312681 5.0238013756271975 7.7367646887248620 S
atom -0.0265752723793975 2.3048085266661427 2.2126194763550764 S
atom 4.9906853834182803 2.7937173589580184 2.7512820855097626 S
atom -0.0320694623685061 7.8164722052779458 2.7647073082736791 S
atom 4.9916899416251956 7.3230737968155726 2.2126194738914657 S
atom -0.0077808649736550 2.1490843931027404 7.7434772972206209 S
atom 5.0061710472037815 2.8890559760309555 7.1282710635131554 S
atom -0.0165837942145695 7.9118108276850796 7.1416962898054752 S
atom 5.0104843869192699 7.1673496673909138 7.7434772998425956 S
atom 0.2265428001126902 -0.1758108219994106 9.8964124881279805 Ba
atom 5.1963208896519122 -0.2287875926070016 9.8896998792922499 Ba
atom 0.1735660316024562 4.7939672521664756 9.9031250960726478 Ba
atom 5.2448080771219336 4.8424544434195322 9.8964124867644827 Ba
atom -0.0647044403062171 0.1532660398757061 14.6338623352430623 Ba
atom 4.8672440121082721 0.0624596471438160 14.6271497344041297 Ba
atom -0.1555108329954022 5.0852145017827413 14.6405749600402189 Ba
atom 4.9535608260881308 5.1715313165062282 14.6338623373596590 Ba
atom 2.5072329010867396 2.5116934931074386 12.4850850825922599 Zr
atom 7.5270818358552178 2.5087875823605335 12.4783724884799216 Zr
atom 2.5043270052745870 7.5315424506015383 12.4917977411489911 Zr
atom 7.5254981704289268 7.5299587678536994 12.4850850781569918 Zr
atom 2.7642644011706778 2.8251884217323395 9.9349910789311675 S
atom 7.2135869099414274 2.2517560745186671 9.9282784596785980 S
atom 2.1908320642828003 7.2745109289730534 9.9417036930616032 S
atom 7.7825296753360309 7.8434536870011033 9.9349910555319401 S
atom 2.3333484247281375 2.2450847891981471 14.9869837666711874 S
atom 7.7936905435581165 2.6826720571784883 14.9802711389426442 S
atom 2.7709356990170320 7.7054269083382572 14.9936963468980409 S
atom 7.3516136946606352 7.2633500561222100 14.9869837749373733 S
atom 2.7760870416350221 -0.0099495711684589 12.1137536577835103 S
atom 7.3054434862327131 -0.0089449836857308 12.6524162709190211 S
atom 2.2826886356367195 5.0138098474708324 12.6658414884420871 S
atom 7.7943523124275380 5.0083157120093142 12.1137536615191479 S
atom 0.0077047661830333 2.2444230223255723 12.1204662724243235 S
atom 5.0249654645769795 2.7333318528542909 12.6591288817816885 S
atom 0.0022105852250268 7.7560867043189727 12.6725541040710770 S
atom 5.0259700357257087 7.2626882909441610 12.1204662712254549 S
atom 2.6186734459725458 2.4881534233845333 18.0839840741085460 Ba
atom 7.5506219118387286 2.3973470289095897 18.0772714644308259 Ba
atom 2.5278670468064321 7.4201018784583539 18.0906966818038626 Ba
atom 7.6369387304453751 7.5064186936383139 18.0839840728805790 Ba
atom 2.2895965845033168 2.7794006699269538 22.8214338835764110 Ba
atom 7.2593746624035944 2.7264238942760897 22.8147212674584559 Ba
atom 2.2366198104380013 7.7491787470036844 22.8281464959221729 Ba
atom 7.3078618556523383 7.7976659403646993 22.8214338892444886 Ba
atom 4.9771008918152990 5.0600907430598099 20.2327613133667867 Zr
atom 9.9969498510399060 5.0571848703898334 20.2260486291534676 Zr
atom 4.9741950146814018 10.0799397203667542 20.2394738804823540 Zr
atom 9.9953661339148674 10.0783560088904611 20.2327612864535133 Zr
atom 4.9844775867875599 5.0520529927189370 25.2819721397251165 Zr
atom 10.0049876759995300 5.0498081629992715 25.2752596036695394 Zr
atom 4.9822328401897309 10.0725629448424314 25.2886848503888508 Zr
atom 10.0027428432078480 10.0703182176342185 25.2819721303347436 Zr
atom 4.7104921962387332 4.8862062879387071 17.7308625816405971 S
atom 10.1708343121308253 5.3237935545853476 17.7241500116400523 S
atom 5.1480794586835756 10.3465484072453986 17.7375751851043546 S
atom 9.7287574637176721 9.9044715604974360 17.7308626121338548 S
atom 5.2905958224055132 5.3171222517745100 22.7828554480131338 S
atom 9.7399183287896669 4.7436899179951348 22.7761427234777116 S
atom 4.7171634731163312 9.7664447699476327 22.7895680450218379 S
atom 10.3088610957933149 10.3353875343809207 22.7828554294187455 S
atom 4.7098304195239704 2.5605626637188972 20.5973801155366267 S
atom 10.2214941100544809 2.5550684702156077 20.0452922775385147 S
atom 5.1987392567418063 7.5778233058044231 20.0587174912139368 S
atom 9.7280956919747723 7.5788279338362292 20.5973801206762772 S
atom 4.6144917958858311 2.5450770244770973 24.9743690784233259 S
atom 10.3772182378348514 2.5362740549833891 25.5761500939498063 S
atom 5.3544633748103987 7.5590289548533640 25.5895753032874467 S
atom 9.6327570764572634 7.5633422794294844 24.9743690877239537 S
atom 2.4554578617169045 5.3289449001186764 20.6040927322148306 S
atom 7.4792172594147592 4.8355464892899720 20.0520048876619228 S
atom 2.4564624408626203 9.8583013390910121 20.0654301032188442 S
atom 7.4737231266002278 10.3472101728917920 20.6040927257527393 S
atom 2.4709435132240802 5.4242835107724261 24.9810817072714819 S
atom 7.4980116691194318 4.6798223571784252 25.5828627075550976 S
atom 2.4752568362388478 9.7025772144310114 25.5962879157428524 S
atom 7.4892087789773134 10.4425487901572449 24.9810816897448511 S
atom 2.6610933448050602 2.3064399509773024 27.7425105302534654 Ba
atom 7.7323353676235262 2.3549271348055401 27.7357979158137731 Ba
atom 2.7095805282216512 7.3776819955063146 27.7492231231099993 Ba
atom 7.6793586030844887 7.3247052316435290 27.7425105176837974 Ba
atom 2.3320164583362226 2.5976872191160183 32.4799603544216993 Ba
atom 7.4410881400864586 2.6840040274967545 32.4732477412406766 Ba
atom 2.4183332556778208 7.7067588357923098 32.4866729664678431 Ba
atom 7.3502817667450024 7.6159524587773495 32.4799603513914334 Ba
atom 4.9918543030564146 5.0440150809614392 30.3311831354567047 Zr
atom 10.0130254592258066 5.0424314657689173 30.3244705488671080 Zr
atom 4.9902706610407019 10.0651863696298651 30.3378955993034651 Zr
atom 10.0101195162249343 10.0622804099883858 30.3311831175120368 Zr
atom 4.6783593631758613 4.7869836134596033 27.7810891058831757 S
atom 10.2700569787419642 5.3559263881244181 27.7743764853757291 S
atom 5.2473021117101686 10.3786812268257354 27.7878017470540009 S
atom 9.6966246358597505 9.8052488983620911 27.7810891761954899 S
atom 5.2584629924458399 5.2178996119427739 32.8330818089967806 S
atom 9.8391409986526419 4.7758227555542661 32.8263691639716058 S
atom 4.8163861353535973 9.7985776005684073 32.8397944847641980 S
atom 10.2767282754728395 10.2361648795107136 32.8330818110722404 S
atom 4.7702159318565336 2.5262825540748870 30.5052269098321247 S
atom 10.2818796172322120 2.5207883909714552 29.9531390714461345 S
atom 5.2591247577349440 7.5435433056222134 29.9665643021350689 S
atom 9.7884812006001276 7.5445478297758379 30.5052269104828682 S
atom 2.4897379173307423 5.2685594078520461 30.5119395284452821 S
atom 7.5134973086455572 4.7751609919718989 29.9598516881370180 S
atom 2.4907425319883809 9.7979158369696915 29.9732769087384163 S
atom 7.5080031515506267 10.2868246590745080 30.5119395128335356 S
