#=======================================================
# FHI-aims file: full_relax/full_relax_RP_7_RxRyRz_-Rx-RyRz.in
# Created using the Atomic Simulation Environment (ASE)
# Mon Mar 24 15:48:03 2025
#=======================================================
lattice_vector 9.9602004748390165 -0.0002321956916124 -0.0000000000325869 
lattice_vector -0.0002321956916064 9.9602004748693780 0.0000000000533430 
lattice_vector -0.0000000002446386 0.0000000004005819 76.6771626569249634 
atom 0.0605978197486788 -0.1102097283536931 0.1972934421736706 Ba
atom 5.0903100342729246 -0.0607139043770311 0.1972933368597816 Ba
atom 0.1100937735391229 4.9195024010239896 0.1972934029961486 Ba
atom 5.0405818814008549 4.8697743389685728 0.1972934172784681 Ba
atom -0.2623543130548556 0.2018435447231397 5.0120790868739364 Ba
atom 4.7782567851408668 0.2622382400225294 5.0120791732493366 Ba
atom -0.2019595609133498 5.2424544677855591 5.0120791044174862 Ba
atom 4.7176298697279897 5.1818275289363696 5.0120791473224315 Ba
atom 2.4660451320898980 2.5233646891246622 2.3913306557804805 Zr
atom 7.4367197234171272 2.5138218780847699 2.3913307333393732 Zr
atom 2.4565028740689043 7.4940391372053305 2.3913304177578576 Zr
atom 7.4460297400243247 7.5033497004235610 2.3913306320614822 Zr
atom 2.4107783521822057 2.5327801334446058 7.4788300359256992 Zr
atom 7.4273037467818845 2.5690892969596222 7.4788301902529613 Zr
atom 2.4470873812288274 7.5493065667847450 7.4788300970463935 Zr
atom 7.3907625400744843 7.5127651430463889 7.4788299058082082 Zr
atom 2.6235112007999848 2.7514600414272410 -0.1226682723186260 S
atom 7.2086243719552998 2.3563569885151159 -0.1226683813731706 S
atom 2.2284080982558692 7.3365731740493398 -0.1226679706649774 S
atom 7.6034952534195712 7.7314439716542855 -0.1226680983398091 S
atom 2.2358510649082968 2.2879461225075608 4.9689188477604809 S
atom 7.6721382931795636 2.7440171210598652 4.9689188095270849 S
atom 2.6919219751159393 7.7242332641709979 4.9689187327710105 S
atom 7.2158351541147274 7.2679301469033009 4.9689188759130047 S
atom 2.7430122163127950 0.0393189245890078 2.2520537064581241 S
atom 7.0993926567662786 0.0424615352313694 2.7382033486756141 S
atom 2.1191763183852914 5.0226785299091832 2.7382034359944569 S
atom 7.7229963230767780 5.0193038143874036 2.2520536492693246 S
atom 2.9269882361137687 0.0476012237624816 7.6995671200079041 S
atom 6.9820694081501493 0.0486465327184560 7.3033852928767971 S
atom 2.0018529944800250 5.0288635812263847 7.3033852623131583 S
atom 7.9069724702383457 5.0275861270332767 7.6995671752282195 S
atom -0.0394353221221549 2.2370880763302279 2.2520536468965395 S
atom 4.9374061956259574 2.8606918587233996 2.7382034250618172 S
atom -0.0428101129131133 7.8409079431481636 2.7382033823574536 S
atom 4.9405488238445514 7.2170720874214291 2.2520536843730481 S
atom -0.0477175864132941 2.0531119903119777 7.6995671696477350 S
atom 4.9312209917959828 2.9780151456891941 7.3033852534978427 S
atom -0.0489953697931700 7.9582312154504731 7.3033852983270293 S
atom 4.9322665888094512 7.0330960556487829 7.6995671393867671 S
atom -0.0009951188872733 -0.0783648840245662 10.0352735245399529 Ba
atom 5.0584652389624001 0.0008791716446711 10.0352735132739852 Ba
atom 0.0782488788966584 4.9810952619391795 10.0352736085258751 Ba
atom 4.9789890284505356 4.9016190052647133 10.0352735982857624 Ba
atom 0.0561386575435197 0.0184681446059342 15.1127173333435216 Ba
atom 4.9616321746197478 -0.0562546372334558 15.1127173093049585 Ba
atom -0.0185841455790088 4.9239614951195945 15.1127174061145020 Ba
atom 5.0361227816096674 4.9984520930862395 15.1127173818861991 Ba
atom 2.4990976692664715 2.4925862970709693 12.5623128663129222 Zr
atom 7.4674977540630554 2.4807702812188119 12.5623127299658623 Zr
atom 2.4872814905527640 7.4609869641447126 12.5623128569904736 Zr
atom 7.4790817731831014 7.4725708015634149 12.5623128457194362 Zr
atom 2.4899919905985808 2.4899921469837718 17.6559251127418690 Zr
atom 7.4700923684043703 2.4898759962378634 17.6559250713567124 Zr
atom 2.4898758749064811 7.4700922333250741 17.6559252622158418 Zr
atom 7.4699762899975903 7.4699761986412998 17.6559252343063307 Zr
atom 2.5861114820315043 2.6722614785619587 10.0301370418670377 S
atom 7.2878229769044296 2.3937565865434114 10.0301369883346538 S
atom 2.3076066648684104 7.3739728376505393 10.0301373037094734 S
atom 7.5660956197535683 7.6522454643424940 10.0301372353016234 S
atom 2.4119777934268618 2.4349124450896715 15.1123855527138868 S
atom 7.5251719392665546 2.5678902673970194 15.1123856326865678 S
atom 2.5449556149367636 7.5481065534835858 15.1123852827022169 S
atom 7.3919619383692705 7.4148965748766358 15.1123855186804494 S
atom 2.0035055705865119 0.0037043992214425 12.4990277370322271 S
atom 7.9900167045304640 0.0045105752755987 12.6496184648270393 S
atom 3.0098003917912610 4.9847280101855240 12.6496184721691112 S
atom 6.9834896604796590 4.9836896066954575 12.4990277290723419 S
atom 3.0022976849697764 -0.0000413254275189 17.7011302916044890 S
atom 6.9579028271419014 -0.0001916122724217 17.6107211379773929 S
atom 1.9776864968212691 4.9800254714176440 17.6107211523762537 S
atom 7.9822817689995498 4.9799435524942837 17.7011302755462729 S
atom -0.0038208218143664 2.9765948058174789 12.4990277215780079 S
atom 4.9753567481842866 1.9700676311224528 12.6496184957132414 S
atom -0.0048594986000553 6.9502840377376778 12.6496184422363562 S
atom 4.9761631850026138 7.9565787215486825 12.4990277392539255 S
atom -0.0000750878697318 1.9778025357366682 17.7011302901866010 S
atom 4.9800592348645383 3.0021815979193489 17.6107211388094456 S
atom -0.0001572929296494 7.9823978337526240 17.6107211526829595 S
atom 4.9799092388888262 6.9577867665557527 17.7011302749870225 S
atom -0.0561386147173913 -0.0184679869787515 20.1991337116699867 Ba
atom 4.9985682596464143 0.0560225857664506 20.1991337562467095 Ba
atom 0.0183519661341907 5.0362388156871702 20.1991337162741758 Ba
atom 4.9238454803377456 4.9615160525591957 20.1991337604552541 Ba
atom 0.0009952155859192 0.0783650990373594 25.2765779624394185 Ba
atom 4.9017351671659588 -0.0011111908829242 25.2765778079611465 Ba
atom -0.0784810474416466 4.9791050030160537 25.2765780269944322 Ba
atom 4.9809792238780810 5.0583490751362490 25.2765778722351939 Ba
atom 2.4808865108454050 2.4873976032471448 22.7495391318983877 Zr
atom 7.4726867904866996 2.4989816122262773 22.7495390623931897 Zr
atom 2.4924705775671199 7.4791978679305569 22.7495390862045035 Zr
atom 7.4608705139510452 7.4673816694568913 22.7495389345668890 Zr
atom 2.5692052841475239 2.4472037288438084 27.8330210995177332 Zr
atom 7.5128814115116214 2.4106626135419171 27.8330210190400287 Zr
atom 2.5326641970848955 7.3908783018883550 27.8330210794716031 Zr
atom 7.5491902977132401 7.4271872935243239 27.8330212087147970 Zr
atom 2.5680063571645388 2.5450717038015238 20.1994660076876329 S
atom 7.4150126619180510 2.4118616824772516 20.1994660951533191 S
atom 2.4347963294246995 7.3920780426412724 20.1994659859431671 S
atom 7.5479904786402745 7.5250558492579032 20.1994659891738166 S
atom 2.3938726888046853 2.3077227029731020 25.2817131749787194 S
atom 7.6523615890653032 2.5859953685679664 25.2817132834088731 S
atom 2.6721453271653575 7.5662117418579005 25.2817131432783100 S
atom 7.3738567737143867 7.2877069341166534 25.2817132161576339 S
atom 1.9701837736212975 -0.0047436347336877 22.6622326712454800 S
atom 7.9566948823657393 -0.0039374233344683 22.8128233734523533 S
atom 2.9764785675733028 4.9762795386982539 22.8128233800997151 S
atom 6.9501679760640993 4.9752411335339746 22.6622326958803342 S
atom 2.9781312812560494 -0.0488793958189815 28.0084660071030171 S
atom 7.0332120572647296 -0.0478341018419995 27.6122840135074163 S
atom 2.0529958681020699 4.9323828578090199 27.6122840436780663 S
atom 7.9581151553625276 4.9311053145945811 28.0084659619346219 S
atom 0.0046271965368571 3.0099164611607412 22.6622326544461430 S
atom 4.9838051670499333 2.0033894294817483 22.8128233741454167 S
atom 0.0035885639724392 6.9836058702967128 22.8128233829373279 S
atom 4.9846116246380987 7.9899005367609641 22.6622327104922547 S
atom 0.0487628311077518 2.0019690549480078 28.0084659614512645 S
atom 5.0277019927246513 2.9268722906573847 27.6122839888964862 S
atom 0.0474851269691490 7.9070885460890583 27.6122840671859855 S
atom 5.0287475362816298 6.9819532667151041 28.0084660076501208 S
atom 0.2623543556273965 -0.2018433818807921 30.2997719622126382 Ba
atom 5.1819435971108865 -0.2624703435696167 30.2997719595441808 Ba
atom 0.2017273828450795 4.7177458673342212 30.2997718018281041 Ba
atom 5.2423384223150791 4.7781406482983728 30.2997718197665264 Ba
atom -0.0605977508548708 0.1102098327908522 35.1145579984750427 Ba
atom 4.8698903563834435 0.0604816730518970 35.1145580832682924 Ba
atom -0.1103259392797520 5.0406980356243221 35.1145580568360955 Ba
atom 4.9193863765831969 5.0901939669810323 35.1145582591828074 Ba
atom 2.5139380074654305 2.4566185696878371 32.9205199335645275 Zr
atom 7.5034658837345836 2.4659294648287990 32.9205201688587223 Zr
atom 2.5232485279075094 7.4461463414994826 32.9205200892478373 Zr
atom 7.4939232042491870 7.4366032446287651 32.9205202426646579 Zr
atom 2.7441332139559607 2.6920381227510894 30.3429332629592778 S
atom 7.2680462110605619 2.2357349050557862 30.3429334014057659 S
atom 2.2878300130628109 7.2159512539027810 30.3429330933720216 S
atom 7.7241171595759894 7.6720222239945146 30.3429329798741136 S
atom 2.3564730331130268 2.2285242147775670 35.4345195436470277 S
atom 7.7315601366108213 2.6233950633530951 35.4345192415571475 S
atom 2.7513439411463048 7.6036113436807620 35.4345196133224078 S
atom 7.3364570643616362 7.2085083060387491 35.4345194228353435 S
atom 2.8608078787491986 -0.0426941307706921 32.5736478996491670 S
atom 7.2171882423535525 -0.0395515239151956 33.0597974912519845 S
atom 2.2369719892174085 4.9406649317372207 33.0597975433388243 S
atom 7.8407918410524768 4.9372900997027678 32.5736479089213731 S
atom 0.0425777511135196 2.1192925151092954 32.5736479407282147 S
atom 5.0194197471314537 2.7428961592985019 33.0597975288018162 S
atom 0.0392028781185369 7.7231123375686987 33.0597974776847181 S
atom 5.0225623469306395 7.0992765020653854 32.5736478402179799 S
atom 2.4293942621183722 2.6002018222651229 38.5358751243689071 Ba
atom 7.3598825355119031 2.5504738219565257 38.5358752364642143 Ba
atom 2.3796661715167025 7.5306901191852207 38.5358750496624722 Ba
atom 7.4093784234225311 7.5801859225668586 38.5358751293411359 Ba
atom 2.7523463494462690 2.2881486705995266 43.3506598324317736 Ba
atom 7.6719358338690773 2.2275218295244561 43.3506596998455080 Ba
atom 2.6917194101442239 7.2077378898254265 43.3506599325261561 Ba
atom 7.7323305890235297 7.2681325032308326 43.3506597879024724 Ba
atom 5.0039309116315840 4.9466108001251339 40.7299127364443976 Zr
atom 9.9934570796076994 4.9559215933284637 40.7299128009378535 Zr
atom 5.0132411984474867 9.9361382907387998 40.7299123885092484 Zr
atom 9.9839147066617802 9.9265953499467710 40.7299124543963913 Zr
atom 5.0591977281536318 4.9371958263484936 45.8174098269519519 Zr
atom 10.0028731572261922 4.9006546831021955 45.8174098598121731 Zr
atom 5.0226562477271361 9.8808704328087504 45.8174097315567508 Zr
atom 10.0391823955787434 9.9171794837100489 45.8174095655255513 Zr
atom 4.8464649818790626 4.7185162337344480 38.2159114564366931 S
atom 10.2215523554973480 5.1133871841797012 38.2159116436347119 S
atom 5.2413359515828502 10.0936034277605771 38.2159120610054046 S
atom 9.8264491912627943 9.6985003730184527 38.2159119510857082 S
atom 5.2341251504844015 5.1820301359704226 43.3075027732636144 S
atom 9.7580383780004176 4.7257269906696795 43.3075021990798206 S
atom 4.7778221562049685 9.7059433784095877 43.3075025825023943 S
atom 10.2141092790674790 10.1620142282665391 43.3075026292606324 S
atom 5.3507999315313066 2.4472975168617719 41.0767846692367584 S
atom 9.7071803132353924 2.4504399883910666 40.5906347543661354 S
atom 4.7269639071181873 7.4306575015147320 40.5906347445118953 S
atom 10.3307841406547993 7.4272827164611925 41.0767846751030277 S
atom 5.4681231099773155 2.4411124189153517 45.6419670417851080 S
atom 9.5232042768364078 2.4421574484837394 46.0381487234068416 S
atom 4.5429881850854175 7.4223751972641105 46.0381486455972606 S
atom 10.4481071812648096 7.4210978587353233 45.6419669726616277 S
atom 2.5325700935551585 4.6092843882241388 41.0767847017418291 S
atom 7.5094114244351911 5.2328883013437251 40.5906347378655994 S
atom 2.5291950325917441 10.2131045339606388 40.5906347714339830 S
atom 7.5125541556844873 9.5892685825389012 41.0767846719755312 S
atom 2.5387555616210733 4.4919612195990295 45.6419670180483550 S
atom 7.5176932940287760 5.4168642091938493 46.0381487183913265 S
atom 2.5374775813458186 10.3970804017535698 46.0381486320059494 S
atom 7.5187390357273287 9.4719455679922007 45.6419670033527822 S
atom 2.4909871809687272 2.5683572383144480 48.3738553143383996 Ba
atom 7.3917273477484349 2.4888811105620747 48.3738553367567192 Ba
atom 2.4115109555993905 7.4690970003085608 48.3738554247947832 Ba
atom 7.4709713392265726 7.5483409303039686 48.3738554357372479 Ba
atom 2.4338535121440290 2.4715241825410472 53.4512985291478628 Ba
atom 7.4885602812006704 2.5460148171245192 53.4512986142448696 Ba
atom 2.5083440778158583 7.5262307937969579 53.4512985621714733 Ba
atom 7.4138375025241849 7.4515079760138709 53.4512986468819946 Ba
atom 4.9708782366460920 4.9773900771281419 50.9008962561264653 Zr
atom 9.9626790805645218 4.9889743097917787 50.9008958730519723 Zr
atom 4.9824619820155593 9.9691895905598784 50.9008963410876589 Zr
atom 9.9508630239077629 9.9573731568957804 50.9008960781016668 Zr
atom 4.9799842565947872 4.9799846893291866 55.9945047950717907 Zr
atom 9.9600843442034481 4.9798688057150935 55.9945047306595072 Zr
atom 4.9798683644932895 9.9600837718374766 55.9945050130381929 Zr
atom 9.9599680268669903 9.9599674198402468 55.9945051072930227 Zr
atom 4.8838647614358699 4.7977147280002148 48.3687160579299729 S
atom 10.1423537159573538 5.0759874263714959 48.3687165800617720 S
atom 5.1621374126144133 10.0562038273275807 48.3687165566810862 S
atom 9.8638487922722877 9.7776990914857080 48.3687173635649614 S
atom 5.0579984471129364 5.0350636896756189 53.4509680171405890 S
atom 9.9050047319640484 4.9018536209038972 53.4509680464837444 S
atom 4.9247884221990317 9.8820702073867199 53.4509670371489491 S
atom 10.0379824973533811 10.0150480219688340 53.4509667290457102 S
atom 4.4601757266233628 2.4852476742973626 50.9881994846882876 S
atom 10.4466870413481665 2.4860534979096958 50.8376086582011126 S
atom 5.4664707784908897 7.4662723055622973 50.8376086061102157 S
atom 9.4401599464626518 7.4652342712248254 50.9881994007430848 S
atom 5.4922897981141219 2.4899508908297001 55.9493027124634565 S
atom 9.4478948508184875 2.4898004242790619 56.0397118220031274 S
atom 4.4676785652751567 7.4700173868753792 56.0397118574583430 S
atom 10.4722737507726560 7.4699357213684161 55.9493026992428568 S
atom 2.4946193730589106 5.4999086308794771 50.9881994318493739 S
atom 7.4737972035045388 4.4933811398951029 50.8376085939060403 S
atom 2.4935804022799113 9.4735980704910752 50.8376086671230709 S
atom 7.4746041496052769 10.4798927430123108 50.9881994682390740 S
atom 2.4899169319624117 4.4677944834836252 55.9493026964853470 S
atom 7.4700513007417806 5.4921735469910358 56.0397118289367739 S
atom 2.4898345095176553 10.4723900703661990 56.0397118487401187 S
atom 7.4699015650607157 9.4477790026257669 55.9493027176506956 S
atom 2.5461307553396586 2.5084601851225954 58.5377150099408610 Ba
atom 7.4516241988062886 2.4337374459728243 58.5377149913019608 Ba
atom 2.4714080097087479 7.4139536189409325 58.5377148315803382 Ba
atom 7.5261147471076972 7.4884441544074241 58.5377148129582494 Ba
atom 2.4889971679493974 2.4116272420962406 63.6151592952870644 Ba
atom 7.5484570890847102 2.4908713717102025 63.6151594839692081 Ba
atom 2.5682412499166154 7.4710873081366147 63.6151592322860537 Ba
atom 7.4689807947666429 7.3916109675542385 63.6151594213596852 Ba
atom 4.9890898267887387 4.9825788817304719 61.0881211982720629 Zr
atom 9.9574897851375663 4.9707624433571187 61.0881208703100782 Zr
atom 4.9772733627510268 9.9509785245058406 61.0881210129942005 Zr
atom 9.9690740883655025 9.9625626900650257 61.0881201808207592 Zr
atom 4.9007710499475214 5.0227726068901344 66.1716027178350430 Zr
atom 9.9172950981733958 5.0590815347139859 66.1716023972733183 Zr
atom 4.9370799325166557 10.0392982899205965 66.1716024426193457 Zr
atom 9.8807539254343233 10.0027569607052129 66.1716034173246896 Zr
atom 4.9019698223866772 4.9249044190772677 58.5380473945823212 S
atom 10.0151640333710716 5.0578822493060782 58.5380480674863080 S
atom 5.0349476868493435 10.0380987324761186 58.5380481144726019 S
atom 9.8819540357980209 9.9048887144270346 58.5380484449445291 S
atom 5.0761035207727216 5.1622535083104850 63.6202938376661038 S
atom 9.7778151206004473 4.8837486125608933 63.6202943568721082 S
atom 4.7975986663283940 9.8639650179429506 63.6202941805114577 S
atom 10.0560876584403314 10.1422375227959964 63.6202945871960210 S
atom 4.4934975670548303 2.4936962551632180 61.1514045689085251 S
atom 10.4800086514834341 2.4945024536235456 61.0008138751596150 S
atom 5.4997924429978058 7.4747202518620828 61.0008138596770877 S
atom 9.4734819433259272 7.4736819546458380 61.1514045378763029 S
atom 5.4169804209684749 2.5375926750290732 65.9508653984734678 S
atom 9.4720616006403606 2.5386380192165476 66.3470472948811789 S
atom 4.4918448346555602 7.5188562632243796 66.3470473465659438 S
atom 10.3969644688251197 7.5175787927562423 65.9508654051538201 S
atom 2.4861705728202752 5.4665867706455575 61.1514045743486108 S
atom 7.4653494880887035 4.4600596830862971 61.0008138553574000 S
atom 2.4851317723322399 9.4402762672649150 61.0008138795403738 S
atom 7.4661559849790287 10.4465707582230731 61.1514045334560095 S
atom 2.4422734502519639 4.5431038313856016 65.9508653241606311 S
atom 7.4212142807910464 5.4680071864550550 66.3470473612313896 S
atom 2.4409956658455418 10.4482233772979729 66.3470473013056079 S
atom 7.4222599234010174 9.5230882629860272 65.9508654604083517 S
atom 2.2276379340858328 2.6918356604022993 68.6383534443757668 Ba
atom 7.2682486728711275 2.7522302707878903 68.6383530061268630 Ba
atom 2.2880326925963392 7.7324465008642527 68.6383535875905721 Ba
atom 7.2076217545061345 7.6718196967475629 68.6383532676284176 Ba
atom 2.5505897839574829 2.3797822128613966 73.4531391234707911 Ba
atom 7.5803021809894338 2.4292778675961690 73.4531392937833942 Ba
atom 2.6000857755203466 7.4094945930378646 73.4531389216264898 Ba
atom 7.5305740476975993 7.3597668223507293 73.4531391365010649 Ba
atom 4.9560359651018322 5.0133577721733253 71.2591008586022809 Zr
atom 9.9267127719196839 5.0038149267888770 71.2591017923396919 Zr
atom 4.9464951096749203 9.9840296046871781 71.2591019045883058 Zr
atom 9.9360216278075715 9.9933408039686515 71.2591020966719668 Zr
atom 4.7258431275946622 4.7779379937449677 68.6815148971454477 S
atom 10.1621302373484053 5.2340090740384202 68.6815142095778128 S
atom 5.1819140371541392 10.2142254867602702 68.6815136276259040 S
atom 9.7058273078328927 9.7579223389079885 68.6815125696939646 S
atom 5.1135033778137746 5.2414518492837567 73.7731009767354919 S
atom 9.6986163289423839 4.8463489604818628 73.7731006062272314 S
atom 4.7184001287430908 9.8265653542375144 73.7731009504839506 S
atom 10.0934873598683446 10.2214362825007328 73.7731008857978168 S
atom 5.2330044166454206 2.5293126989698673 71.3983790119419979 S
atom 9.5893845811289786 2.5324549894459780 70.9122292282172992 S
atom 4.6091685139668019 7.5126695738142093 70.9122293159710750 S
atom 10.2129882526719111 7.5092943315263474 71.3983789105809308 S
atom 2.4505566284065892 4.7270800814618257 71.3983789066442682 S
atom 7.4273987669586230 5.3506836571552849 70.9122292145028581 S
atom 2.4471818660035112 10.3309002798688869 70.9122291738247270 S
atom 7.4305409505817455 9.7070642036938946 71.3983790119564077 S
