#=======================================================
# FHI-aims file: full_relax/full_relax_RP_6_RxRyMz_-Rx-RyMz.in
# Created using the Atomic Simulation Environment (ASE)
# Fri Mar 14 11:47:37 2025
#=======================================================
lattice_vector 10.0115748120578552 -0.0655815418716761 -0.0000000000001349 
lattice_vector -0.0655815418716796 10.0115748120578765 0.0000000000002138 
lattice_vector -0.0000000000009005 0.0000000000014192 65.9415383194935174 
atom 0.0573691210872974 -0.1467491468976797 0.2255720979083101 Ba
atom 5.1525365529931619 -0.0901598919980673 0.2255720978917229 Ba
atom 0.1139583760179728 4.9484182848647862 0.2255720983866585 Ba
atom 5.0303657561991155 4.8262474881009938 0.2255720983438811 Ba
atom -0.2961791256315413 0.2189042800666658 5.0102198379003706 Ba
atom 4.7868831259267512 0.2633883549113848 5.0102198380297116 Ba
atom -0.2516950507240616 5.3019665316773201 5.0102198377897711 Ba
atom 4.6768175091740298 5.1919009149624404 5.0102198379163152 Ba
atom 2.4540362774504878 2.5088572889478251 2.4049400647446895 Zr
atom 7.4699267529700810 2.4861695866871818 2.4049400644202454 Zr
atom 2.4313485753742237 7.5247477628795281 2.4049400647477750 Zr
atom 7.4270329131757968 7.4818539232274981 2.4049400642426315 Zr
atom 2.4460322328741033 2.5234012010748854 7.4621268435682460 Zr
atom 7.4553828398481254 2.4941736312805736 7.4621268434411752 Zr
atom 2.4168046630950371 7.5327518084144245 7.4621268440323947 Zr
atom 7.4190288677322274 7.4963978364301243 7.4621268440278481 Zr
atom 2.5807757663097588 2.7262490458510666 -0.1010501721479518 S
atom 7.2525349951673324 2.3594300978452947 -0.1010501719525610 S
atom 2.2139568183214906 7.3980082749593192 -0.1010501720700561 S
atom 7.5537724012496641 7.6992456810070138 -0.1010501718095154 S
atom 2.2048480991623878 2.2227783402696013 4.9675402753726958 S
atom 7.7560057007248000 2.7353577649774432 4.9675402757871501 S
atom 2.7174275238797581 7.7739359419790919 4.9675402752281412 S
atom 7.1778447342897174 7.1957749755137765 4.9675402759398830 S
atom 2.7605917350141000 0.0211415021451462 2.2519132025427138 S
atom 7.1580955554827401 -0.0087677514995583 2.7591153832980937 S
atom 2.1195173786213393 5.0298104260649126 2.7591153833096178 S
atom 7.7335883698959833 4.9941381379324659 2.2519132025866959 S
atom 2.8640603990243236 0.0162323810755259 7.7892132694125387 S
atom 7.0897740137982206 -0.0132876212733189 7.1715670204390598 S
atom 2.0511958366127194 5.0252905563307113 7.1715670204230584 S
atom 7.8370570339966612 4.9892290167516267 7.7892132692892710 S
atom -0.0539322737371925 2.2451956710385077 2.2519132025671649 S
atom 4.9489736156398303 2.8206884855456282 2.7591153833254363 S
atom -0.0896045619096736 7.8592666625850693 2.7591153832948807 S
atom 4.9190643620250611 7.2181923062972428 2.2519132025608788 S
atom -0.0490231527046570 2.1417270070659589 7.7892132693758578 S
atom 4.9534934855327926 2.8890100274651034 7.1715670204155648 S
atom -0.0850846930215721 7.9275882043976296 7.1715670204420725 S
atom 4.9239734839296618 7.1147236421454467 7.7892132693248293 S
atom 0.2489699028406117 -0.1505378581976185 9.9869650524791478 Ba
atom 5.1563252639996930 -0.2817606736899094 9.9869650524220610 Ba
atom 0.1177470873448437 4.7568175033824707 9.9869650525277578 Ba
atom 5.2219665376587123 4.8224587770354992 9.9869650524668270 Ba
atom -0.3132174654340555 0.2139128877570411 14.9867132535766086 Ba
atom 4.7918745178665363 0.2804266949033652 14.9867132536222787 Ba
atom -0.2467036584305993 5.3190048718302796 14.9867132535691052 Ba
atom 4.6597791690697443 5.1869095228494730 14.9867132536002661 Ba
atom 2.4573325238399018 2.5172308601237030 12.4790411180319580 Zr
atom 7.4615531811262734 2.4828733402732928 12.4790411169801896 Zr
atom 2.4229750039566826 7.5214515169637259 12.4790411172169637 Zr
atom 7.4303291592040415 7.4902274950114718 12.4790411173720273 Zr
atom 2.4573325239307167 2.5172308601470621 17.4943853899332140 Zr
atom 7.4615531812243523 2.4828733402097520 17.4943853895575536 Zr
atom 2.4229750039011919 7.5214515169397407 17.4943853907786675 Zr
atom 7.4303291591739313 7.4902274949623191 17.4943853891202146 Zr
atom 2.7186371990919582 2.8471188449492386 9.9787971912790514 S
atom 7.1316651962738105 2.2215686651466733 9.9787971916827480 S
atom 2.0930870191696953 7.2601468420853408 9.9787971910258264 S
atom 7.6916338340849739 7.8201154800120687 9.9787971902813126 S
atom 2.1878451609094371 2.1870299935038160 14.9867132558584863 S
atom 7.7917540472628897 2.7523607030690331 14.9867132579794777 S
atom 2.7531758706225649 7.7909388801497155 14.9867132574044337 S
atom 7.1608417961389987 7.1600266287720249 14.9867132583764882 S
atom 2.8547048858973567 0.0133315139420136 12.1673331966746368 S
atom 7.0935445174952525 -0.0165243421387757 12.8054884430487839 S
atom 2.0549663404886487 5.0220538339017677 12.8054884431091978 S
atom 7.8277015208337408 4.9863281480769190 12.1673331966590599 S
atom 2.8547048858693529 0.0133315124330180 17.8060933121206091 S
atom 7.0935445179126999 -0.0165243425072760 17.1679380667253696 S
atom 2.0549663405636349 5.0220538354388209 17.1679380664287287 S
atom 7.8277015204535489 4.9863281485016904 17.8060933119707059 S
atom -0.0461222856130709 2.1510825202592541 12.1673331966850906 S
atom 4.9567302080333571 2.8852395235393749 12.8054884430317379 S
atom -0.0818479700479166 7.9238177006711901 12.8054884431355660 S
atom 4.9268743505445203 7.1240791552820575 12.1673331966478475 S
atom -0.0461222877357537 2.1510825204717929 17.8060933120603657 S
atom 4.9567302100211625 2.8852395233150010 17.1679380665167720 S
atom -0.0818479709630004 7.9238177003283941 17.1679380666357169 S
atom 4.9268743514867435 7.1240791555461813 17.8060933120210336 S
atom 0.2489699032212480 -0.1505378581326743 19.9864614577338067 Ba
atom 5.1563252634277967 -0.2817606736394409 19.9864614577811643 Ba
atom 0.1177470877365627 4.7568175034189606 19.9864614577019672 Ba
atom 5.2219665371830892 4.8224587771594356 19.9864614577829158 Ba
atom -0.2961791258978080 0.2189042798680262 24.9632066705769446 Ba
atom 4.7868831259951792 0.2633883546169333 24.9632066705318145 Ba
atom -0.2516950510354845 5.3019665320537257 24.9632066706622133 Ba
atom 4.6768175092361588 5.1919009154910736 24.9632066705953157 Ba
atom 2.4460322331865991 2.5234012016994987 22.5112996686641509 Zr
atom 7.4553828398029944 2.4941736311818077 22.5112996712005184 Zr
atom 2.4168046628388851 7.5327518079347344 22.5112996697626038 Zr
atom 7.4190288679985095 7.4963978362931929 22.5112996714250002 Zr
atom 2.4540362782841649 2.5088572893569832 27.5684864379979970 Zr
atom 7.4699267521359740 2.4861695862869349 27.5684864378676551 Zr
atom 2.4313485754636592 7.5247477622455605 27.5684864367247791 Zr
atom 7.4270329135172073 7.4818539234820616 27.5684864375136627 Zr
atom 2.7186371992766660 2.8471188450522784 19.9946293146908367 S
atom 7.1316651962929454 2.2215686649717634 19.9946293121395016 S
atom 2.0930870189437156 7.2601468419661215 19.9946293111179152 S
atom 7.6916338341839374 7.8201154800929347 19.9946293125266834 S
atom 2.2048480993389061 2.2227783404739512 25.0058862347298572 S
atom 7.7560057006348551 2.7353577646871621 25.0058862328774083 S
atom 2.7174275238620078 7.7739359419140639 25.0058862359978633 S
atom 7.1778447345536502 7.1957749755962297 25.0058862327023519 S
atom 2.8640603993311000 0.0162323832242471 22.1842132382462083 S
atom 7.0897740137459708 -0.0132876206112701 22.8018594876857357 S
atom 2.0511958365843896 5.0252905541621242 22.8018594878607850 S
atom 7.8370570341267154 4.9892290162419695 22.1842132383808739 S
atom 2.7605917349693807 0.0211415032280035 27.7215133073776805 S
atom 7.1580955554058159 -0.0087677508760619 27.2143111267901219 S
atom 2.1195173786840287 5.0298104252784004 27.2143111268441977 S
atom 7.7335883702056751 4.9941381373203582 27.7215133076011888 S
atom -0.0490231527680905 2.1417270069348051 22.1842132383941433 S
atom 4.9534934853879298 2.8890100273773074 22.8018594877181400 S
atom -0.0850846945261563 7.9275882046791457 22.8018594878326049 S
atom 4.9239734853615422 7.1147236417724464 22.1842132382390922 S
atom -0.0539322719737261 2.2451956708599328 27.7215133074799738 S
atom 4.9489736140743297 2.8206884854640131 27.2143111268110971 S
atom -0.0896045609717253 7.8592666626892473 27.2143111268321327 S
atom 4.9190643606886706 7.2181923061632807 27.7215133075014926 S
atom 0.0573691209806581 -0.1467491466554056 29.7478544095364619 Ba
atom 5.1525365528797593 -0.0901598921052695 29.7478544096021693 Ba
atom 0.1139583755195416 4.9484182848629903 29.7478544095306958 Ba
atom 5.0303657564223343 4.8262474884521644 29.7478544095020219 Ba
atom 2.5807757664987365 2.7262490461161324 30.0744766842232139 S
atom 7.2525349948114783 2.3594300975285987 30.0744766850121117 S
atom 2.2139568179179054 7.3980082745977587 30.0744766849207110 S
atom 7.5537724017133261 7.6992456814695247 30.0744766852052692 S
atom 2.4291291963703383 2.6332474640775416 33.1963412605845321 Ba
atom 7.3455365771288808 2.5110766679766452 33.1963412605234751 Ba
atom 2.3069584002040409 7.5496548446628049 33.1963412609551085 Ba
atom 7.4021258313607605 7.6062440988859912 33.1963412608788175 Ba
atom 2.7826774431930983 2.2675940369089251 37.9809889964341778 Ba
atom 7.7111900041279346 2.1575284203977945 37.9809889964642053 Ba
atom 2.6726118268400758 7.1961065979894725 37.9809889964949932 Ba
atom 7.7556740786270026 7.2405906725706624 37.9809889964628411 Ba
atom 5.0054586748232754 4.9506376650596149 35.3757092331138523 Zr
atom 10.0011430116925197 4.9077438263839763 35.3757092329837377 Zr
atom 4.9625648355320733 9.9463220008595350 35.3757092334398777 Zr
atom 9.9784553091463764 9.9236342981534325 35.3757092347613664 Zr
atom 5.0134627194437700 4.9360937520273334 40.4328959921235978 Zr
atom 10.0156869249779792 4.8997397814518022 40.4328959917927762 Zr
atom 4.9771087488454144 9.9383179559228285 40.4328959921700459 Zr
atom 9.9864593539082485 9.9090903850131511 40.4328959900935416 Zr
atom 4.8787191858716490 4.7332459061381327 32.8697189800335963 S
atom 10.2185347700479241 5.0344833132115987 32.8697189797041602 S
atom 5.1799565929320677 10.0730614903736022 32.8697189799461569 S
atom 9.8517158210663105 9.7062425415096456 32.8697189795935145 S
atom 5.2546468529364958 5.2367166117429456 37.9383094404129224 S
atom 9.7150640643976001 4.6585556461309832 37.9383094423257887 S
atom 4.6764858872652999 9.6971338234105211 37.9383094403886076 S
atom 10.2276434882034195 10.2097132474759409 37.9383094390907303 S
atom 5.3399775741972606 2.4296845266349734 35.7298845416278255 S
atom 9.7374813943296292 2.3997752723547188 35.2226823601323247 S
atom 4.6989032173436742 7.4383534502554749 35.2226823602862780 S
atom 10.3129742093294219 7.4026811621283928 35.7298845413357782 S
atom 5.4082991157509142 2.4342043963343958 40.1423361820563755 S
atom 9.6340127303486884 2.4046843971294822 40.7599824311784857 S
atom 4.5954345535032708 7.4432625714643423 40.7599824309490089 S
atom 10.3812957508941643 7.4072010284438239 40.1423361822127873 S
atom 2.5105213377634508 4.6388064666660531 35.7298845416112414 S
atom 7.5134272257920163 5.2142992817438296 35.2226823602219028 S
atom 2.4748490491488258 10.2528774590625158 35.2226823601931045 S
atom 7.4835179724833010 9.6118031022621224 35.7298845413879249 S
atom 2.5060014663191863 4.5704849253122868 40.1423361822164324 S
atom 7.5085181063354023 5.3177679453227613 40.7599824309264775 S
atom 2.4699399293969955 10.3563461231253520 40.7599824311908279 S
atom 7.4789981012432536 9.5434815607166446 40.1423361820636302 S
atom 2.2375284152408894 2.6370361754337210 42.9577342112142446 Ba
atom 7.3417478655506567 2.7026774492946513 42.9577342111508145 Ba
atom 2.3031696890921678 7.7412556259771126 42.9577342111325464 Ba
atom 7.2105250497829063 7.6100328103545314 42.9577342111575078 Ba
atom 2.7997157834961626 2.2725854301184687 47.9574824153784931 Ba
atom 7.7061986113384515 2.1404900814561154 47.9574824153552868 Ba
atom 2.6676204347849994 7.1790682572866453 47.9574824154322101 Ba
atom 7.7727124184648444 7.2455820638543056 47.9574824153522172 Ba
atom 5.0021624284628903 4.9422640938477436 45.4498102848057997 Zr
atom 10.0095165833652295 4.9110400720720850 45.4498102858399236 Zr
atom 4.9709384068817553 9.9496182466049152 45.4498102835843980 Zr
atom 9.9751590633198273 9.9152607262813355 45.4498102830289454 Zr
atom 5.0021624284769608 4.9422640942622769 50.4651545473235430 Zr
atom 10.0095165833273487 4.9110400719484959 50.4651545456886907 Zr
atom 4.9709384064687390 9.9496182462016201 50.4651545497521923 Zr
atom 9.9751590638975465 9.9152607262888477 50.4651545493603919 Zr
atom 4.7408577530368445 4.6123761070887692 42.9495663542957544 S
atom 10.3394045688932188 5.1723447459522784 42.9495663515253199 S
atom 5.3008263919276564 10.2109229233033219 42.9495663541138555 S
atom 9.7138543883817707 9.5853727428553981 42.9495663595106620 S
atom 5.2716497913062055 5.2724649586169088 47.9574824096511634 S
atom 9.6793157173566691 4.6415527075150340 47.9574824113560467 S
atom 4.6407375403508544 9.6801308851376930 47.9574824104168442 S
atom 10.2446464263660086 10.2454615938008669 47.9574824076286461 S
atom 5.4045286119616316 2.4374411186139087 45.7762576011839926 S
atom 9.6433682440840034 2.4075852571267498 45.1381023554108367 S
atom 4.6047900669585262 7.4461634386913023 45.1381023555688827 S
atom 10.3775252464674566 7.4104377583042318 45.7762576007011148 S
atom 5.4045286124028094 2.4374411178294628 50.1387072259711175 S
atom 9.6433682436297747 2.4075852606977208 50.7768624728546172 S
atom 4.6047900668005530 7.4461634395138914 50.7768624726809179 S
atom 10.3775252469061225 7.4104377548672762 50.1387072263063303 S
atom 2.5027647468126166 4.5742554288306341 45.7762576010428788 S
atom 7.5056172363113269 5.3084124322570210 45.1381023553061951 S
atom 2.4670390568848761 10.3469906094003168 45.1381023556633920 S
atom 7.4757613842543700 9.5472520648763002 45.7762576008370772 S
atom 2.5027647451738040 4.5742554286139061 50.1387072260507907 S
atom 7.5056172379346950 5.3084124323018251 50.7768624727884088 S
atom 2.4670390595596023 10.3469906097003648 50.7768624727178732 S
atom 7.4757613815050190 9.5472520644883954 50.1387072262598252 S
atom 2.2375284153396469 2.6370361752238041 52.9572306157599115 Ba
atom 7.3417478651450772 2.7026774490635606 52.9572306159098574 Ba
atom 2.3031696891312823 7.7412556264188268 52.9572306155446810 Ba
atom 7.2105250494741195 7.6100328109213633 52.9572306157200074 Ba
atom 2.7826774437477186 2.2675940362242764 57.9339758314922761 Ba
atom 7.7111900032836065 2.1575284197150340 57.9339758315323365 Ba
atom 2.6726118268876977 7.1961065989364164 57.9339758311414457 Ba
atom 7.7556740781883482 7.2405906737876737 57.9339758311623783 Ba
atom 5.0134627198920851 4.9360937513724137 55.4820688262212940 Zr
atom 10.0156869247254114 4.8997397802525997 55.4820688267813793 Zr
atom 4.9771087481164242 9.9383179561401391 55.4820688292321194 Zr
atom 9.9864593544724798 9.9090903860574695 55.4820688295814435 Zr
atom 5.0054586748508418 4.9506376632831328 60.5392556034388534 Zr
atom 10.0011430122145786 4.9077438239262294 60.5392556042634880 Zr
atom 4.9625648353741694 9.9463220027611605 60.5392555997563662 Zr
atom 9.9784553092744517 9.9236342992794651 60.5392556018175299 Zr
atom 4.7408577533336418 4.6123761074730325 52.9653984803491369 S
atom 10.3394045685444329 5.1723447456412952 52.9653984808491103 S
atom 5.3008263919448666 10.2109229230921379 52.9653984749663422 S
atom 9.7138543886308408 9.5853727428662054 52.9653984778365299 S
atom 5.2546468533331145 5.2367166119442334 57.9766553915116418 S
atom 9.7150640642639718 4.6585556460261168 57.9766553905406496 S
atom 4.6764858866315580 9.6971338226370278 57.9766553917656040 S
atom 10.2276434883575398 10.2097132474593959 57.9766553881165834 S
atom 5.4082991158196325 2.4342044009859274 55.7726286476422004 S
atom 9.6340127308610377 2.4046843960171178 55.1549823989578911 S
atom 4.5954345535314296 7.4432625671627441 55.1549823988146102 S
atom 10.3812957507679577 7.4072010297524997 55.7726286474335922 S
atom 5.3399775739523117 2.4296845305172314 60.1850802855591240 S
atom 9.7374813945115903 2.3997752778254933 60.6922824664839951 S
atom 4.6989032176584171 7.4383534455229636 60.6922824664455405 S
atom 10.3129742093375629 7.4026811582349010 60.1850802854408258 S
atom 2.5060014668773061 4.5704849255887385 55.7726286473757185 S
atom 7.5085181056423895 5.3177679450994129 55.1549823991092154 S
atom 2.4699399243008555 10.3563461230723508 55.1549823986842114 S
atom 7.4789981064553546 9.5434815600674288 55.7726286477037547 S
atom 2.5105213373490005 4.6388064674587532 60.1850802854630658 S
atom 7.5134272258817294 5.2142992814513995 60.6922824661739568 S
atom 2.4748490492700994 10.2528774587786220 60.6922824667434497 S
atom 7.4835179724243996 9.6118031016635204 60.1850802855250038 S
atom 2.4291291963196859 2.6332474641323786 62.7186235697230643 Ba
atom 7.3455365768382634 2.5110766675124370 62.7186235695585310 Ba
atom 2.3069583995369123 7.5496548448816254 62.7186235698544010 Ba
atom 7.4021258317548471 7.6062440997982161 62.7186235697064731 Ba
atom 4.8787191863966992 4.7332459070570545 63.0452458409327505 S
atom 10.2185347693977011 5.0344833127655049 63.0452458406693310 S
atom 5.1799565926524913 10.0730614899904314 63.0452458447969235 S
atom 9.8517158213997824 9.7062425415011973 63.0452458441309531 S
