#=======================================================
# FHI-aims file: full_relax/full_relax_RP_4_RxRy0_RxRy0.in
# Created using the Atomic Simulation Environment (ASE)
# Fri Mar 14 11:23:07 2025
#=======================================================
lattice_vector 10.0766640554691929 0.1152507822699432 -0.0000000000000051 
lattice_vector 0.1152507822699426 10.0766640554682176 -0.0000000000000107 
lattice_vector -0.0000000000000245 -0.0000000000000507 45.2727469661706081 
atom -0.0866990372452488 -0.0866990372444788 0.2744652089337354 Ba
atom 5.1250310649779314 0.1443244283773957 0.2744652089326508 Ba
atom 0.1443244283779861 5.1250310649780273 0.2744652089302523 Ba
atom 5.0092583816254157 5.0092583816262630 0.2744652089343477 Ba
atom -0.0049099378351843 -0.0049099378370662 4.9413353230346688 Ba
atom 5.0432419655700667 0.0625353289697897 4.9413353230348145 Ba
atom 0.0625353289706647 5.0432419655700285 4.9413353230346670 Ba
atom 5.0910474810342512 5.0910474810328372 4.9413353230346786 Ba
atom 2.5414304420256872 2.5414304420246574 2.3350474652287638 Zr
atom 7.5928590045784734 2.6121523679784731 2.3350474652274142 Zr
atom 2.6121523679786298 7.5928590045774573 2.3350474652278148 Zr
atom 7.6373878608954984 7.6373878608937567 2.3350474652253101 Zr
atom 2.5501615130182902 2.5501615130170370 7.3571772127357482 Zr
atom 7.5841279335866121 2.6034212969869648 7.3571772127408481 Zr
atom 2.6034212969859527 7.5841279335845524 7.3571772127359791 Zr
atom 7.6461189318862726 7.6461189318870160 7.3571772127277395 Zr
atom 2.7839773221123867 2.7839773221134907 -0.1507395542765165 S
atom 7.3503121244908849 2.3696054878905164 -0.1507395542780196 S
atom 2.3696054878906803 7.3503121244889194 -0.1507395542756314 S
atom 7.8799347409821801 7.8799347409821863 -0.1507395542702387 S
atom 2.2322943534842041 2.2322943534816213 4.8793323748530115 S
atom 7.9019950931200471 2.9212884565226469 4.8793323748495663 S
atom 2.9212884565197621 7.9019950931211573 4.8793323748448953 S
atom 7.3282517723535774 7.3282517723515870 4.8793323748519137 S
atom 2.5191660138674323 0.0288126955694179 2.1660083204434706 S
atom 7.5574980416017672 0.0864380867036723 2.7120075519283153 S
atom 2.5767914050020408 5.0671447233018592 2.7120075519281257 S
atom 7.6151234327369712 5.1247701144374238 2.1660083204428706 S
atom 2.5191660138659424 0.0288126955679760 7.7040235770960690 S
atom 7.5574980416030995 0.0864380867017312 7.0168436684956035 S
atom 2.5767914050032572 5.0671447233054066 7.0168436684959445 S
atom 7.6151234327355857 5.1247701144313593 7.7040235770956578 S
atom 0.0288126955666819 2.5191660138672844 2.1660083204447917 S
atom 5.0671447232998901 2.5767914050009448 2.7120075519273987 S
atom 0.0864380867001267 7.5574980416000113 2.7120075519268623 S
atom 5.1247701144370197 7.6151234327364579 2.1660083204448504 S
atom 0.0288126955630851 2.5191660138685976 7.7040235770933556 S
atom 5.0671447233000100 2.5767914050009608 7.0168436684979980 S
atom 0.0864380867030043 7.5574980415999962 7.0168436684985060 S
atom 5.1247701144352025 7.6151234327375841 7.7040235770940608 S
atom 0.0305036908381047 0.0305036908419347 9.8419015143861692 Ba
atom 5.0078283368935272 0.0271217002967898 9.8419015143862083 Ba
atom 0.0271217002946275 5.0078283368941472 9.8419015143862580 Ba
atom 5.1264611097071890 5.1264611097090578 9.8419015143862758 Ba
atom -0.0049099378344799 -0.0049099378369028 14.7424677057377895 Ba
atom 5.0432419655694876 0.0625353289689782 14.7424677057376048 Ba
atom 0.0625353289694715 5.0432419655693792 14.7424677057377878 Ba
atom 5.0910474810357496 5.0910474810335602 14.7424677057377469 Ba
atom 2.5501615130171325 2.5501615130156536 12.3266258160379909 Zr
atom 7.5841279335873963 2.6034212969872841 12.3266258160318287 Zr
atom 2.6034212969864527 7.5841279335861866 12.3266258160368647 Zr
atom 7.6461189318859022 7.6461189318858178 12.3266258160436006 Zr
atom 2.5414304420251574 2.5414304420247569 17.3487555635331674 Zr
atom 7.5928590045777247 2.6121523679791778 17.3487555635280302 Zr
atom 2.6121523679790135 7.5928590045766056 17.3487555635295791 Zr
atom 7.6373878608973236 7.6373878608953385 17.3487555635309576 Zr
atom 2.8961150497543935 2.8961150497560291 9.8419015143906208 S
atom 7.2381743968519414 2.2574677602484243 9.8419015143955626 S
atom 2.2574677602503854 7.2381743968455927 9.8419015143961541 S
atom 7.9920724686241185 7.9920724686268052 9.8419015143949977 S
atom 2.2322943534856492 2.2322943534818154 14.8044706539236195 S
atom 7.9019950931180096 2.9212884565229360 14.8044706539308528 S
atom 2.9212884565182726 7.9019950931208198 14.8044706539313093 S
atom 7.3282517723553839 7.3282517723516554 14.8044706539324746 S
atom 2.5191660138655774 0.0288126955688286 11.9797794516713125 S
atom 7.5574980416032629 0.0864380867023252 12.6669593602701873 S
atom 2.5767914050034042 5.0671447233026283 12.6669593602715533 S
atom 7.6151234327353645 5.1247701144333755 11.9797794516699980 S
atom 2.5191660138672423 0.0288126955708012 17.5177947083299479 S
atom 7.5574980416016997 0.0864380867006832 16.9717954768435462 S
atom 2.5767914050023464 5.0671447233028459 16.9717954768436314 S
atom 7.6151234327368957 5.1247701144355053 17.5177947083291556 S
atom 0.0288126955634376 2.5191660138684333 11.9797794516745704 S
atom 5.0671447232998412 2.5767914050004910 12.6669593602687520 S
atom 0.0864380867025491 7.5574980415998185 12.6669593602668389 S
atom 5.1247701144364131 7.6151234327376658 11.9797794516726359 S
atom 0.0288126955687060 2.5191660138674519 17.5177947083259760 S
atom 5.0671447233025431 2.5767914050011944 16.9717954768459833 S
atom 0.0864380866992934 7.5574980416003799 16.9717954768463883 S
atom 5.1247701144326108 7.6151234327364277 17.5177947083254963 S
atom -0.0866990372447059 -0.0866990372427177 19.4093378198382496 Ba
atom 5.1250310649773922 0.1443244283763240 19.4093378198410242 Ba
atom 0.1443244283780536 5.1250310649760662 19.4093378198387008 Ba
atom 5.0092583816249681 5.0092583816273502 19.4093378198382780 Ba
atom 2.7839773221117881 2.7839773221145441 19.8345425830533557 S
atom 7.3503121244907961 2.3696054878883039 19.8345425830593740 S
atom 2.3696054878916448 7.3503121244873570 19.8345425830551747 S
atom 7.8799347409823426 7.8799347409851110 19.8345425830485311 S
atom 2.4612796721910781 2.4612796721912025 22.9108386920234466 Ba
atom 7.6730097744105192 2.6923031378121154 22.9108386920233116 Ba
atom 2.6923031378123863 7.6730097744110859 22.9108386920234217 Ba
atom 7.5572370910594104 7.5572370910600437 22.9108386920241465 Ba
atom 2.5430687715993647 2.5430687715992772 27.5777088061200537 Ba
atom 7.5912206750052666 2.6105140384048342 27.5777088061200288 Ba
atom 2.6105140384049670 7.5912206750020959 27.5777088061200821 Ba
atom 7.6390261904693597 7.6390261904654473 27.5777088061198512 Ba
atom 5.0894091514614095 5.0894091514586197 24.9714209483116569 Zr
atom 10.1408377140136192 5.1601310774150102 24.9714209483203682 Zr
atom 5.1601310774146922 10.1408377140108570 24.9714209483138916 Zr
atom 10.1853665703316416 10.1853665703322740 24.9714209483147442 Zr
atom 5.0981402224483956 5.0981402224475980 29.9935506958132692 Zr
atom 10.1321066430224818 5.1514000064257255 29.9935506958224281 Zr
atom 5.1514000064222332 10.1321066430172131 29.9935506958351397 Zr
atom 10.1940976413224771 10.1940976413198410 29.9935506958142462 Zr
atom 5.3319560315479695 5.3319560315465013 22.4856339288151794 S
atom 9.8982908339251487 4.9175841973256773 22.4856339288012315 S
atom 4.9175841973257164 9.8982908339245910 22.4856339287964886 S
atom 10.4279134504172077 10.4279134504177176 22.4856339288103193 S
atom 4.7802730629175718 4.7802730629156356 27.5157058579511080 S
atom 10.4499738025537106 5.4692671659568068 27.5157058579456795 S
atom 5.4692671659562073 10.4499738025541262 27.5157058579365454 S
atom 9.8762304817895412 9.8762304817882605 27.5157058579463332 S
atom 5.0671447233026585 2.5767914050061274 24.8023818035280073 S
atom 10.1054767510373686 2.6344167961345266 25.3483810350135848 S
atom 5.1247701144380997 7.6151234327388657 25.3483810350140679 S
atom 10.1631021421720078 7.6727488238638548 24.8023818035273962 S
atom 5.0671447233008182 2.5767914049994314 30.3403970601810791 S
atom 10.1054767510386636 2.6344167961442246 29.6532171515786906 S
atom 5.1247701144395394 7.6151234327519344 29.6532171515819378 S
atom 10.1631021421698922 7.6727488238548140 30.3403970601784820 S
atom 2.5767914050025920 5.0671447233024045 24.8023818035267887 S
atom 7.6151234327322959 5.1247701144361439 25.3483810350125118 S
atom 2.6344167961277689 10.1054767510353685 25.3483810350144729 S
atom 7.6727488238708741 10.1631021421714784 24.8023818035299577 S
atom 2.5767914049889660 5.0671447233043754 30.3403970601787023 S
atom 7.6151234327513659 5.1247701144345710 29.6532171515822860 S
atom 2.6344167961268892 10.1054767510337449 29.6532171515815648 S
atom 7.6727488238683970 10.1631021421729830 30.3403970601779562 S
atom 2.5784824002704947 2.5784824002744768 32.4782749974712459 Ba
atom 7.5558070463286446 2.5751004097309509 32.4782749974718001 Ba
atom 2.5751004097286176 7.5558070463317240 32.4782749974720559 Ba
atom 7.6744398191415408 7.6744398191452863 32.4782749974720559 Ba
atom 2.5430687716012792 2.5430687715962192 37.3788411888232375 Ba
atom 7.5912206750042781 2.6105140384037515 37.3788411888244099 Ba
atom 2.6105140384066505 7.5912206750044113 37.3788411888228964 Ba
atom 7.6390261904682832 7.6390261904675425 37.3788411888241612 Ba
atom 5.0981402224559149 5.0981402224525461 34.9629992991283629 Zr
atom 10.1321066430154172 5.1514000064167247 34.9629992990751859 Zr
atom 5.1514000064187995 10.1321066430198083 34.9629992991042613 Zr
atom 10.1940976413217257 10.1940976413256337 34.9629992991259400 Zr
atom 5.0894091514592592 5.0894091514568638 39.9851290466107869 Zr
atom 10.1408377140164774 5.1601310774167048 39.9851290466039089 Zr
atom 5.1601310774134559 10.1408377140102335 39.9851290466079661 Zr
atom 10.1853665703303591 10.1853665703303502 39.9851290466149294 Zr
atom 5.4440937591900722 5.4440937591901823 32.4782749974632949 S
atom 9.7861531062893370 4.8054464696877748 32.4782749975152143 S
atom 4.8054464696879373 9.7861531062821054 32.4782749974967402 S
atom 10.5400511780593984 10.5400511780618462 32.4782749974847036 S
atom 4.7802730629199033 4.7802730629161676 37.4408441370293019 S
atom 10.4499738025584747 5.4692671659621084 37.4408441370650991 S
atom 5.4692671659531609 10.4499738025564195 37.4408441370056622 S
atom 9.8762304817893245 9.8762304817870756 37.4408441370012355 S
atom 5.0671447233003182 2.5767914050060163 34.6161529347589223 S
atom 10.1054767510380437 2.6344167961406564 35.3033328433538287 S
atom 5.1247701144401105 7.6151234327242179 35.3033328433591649 S
atom 10.1631021421692651 7.6727488238499504 34.6161529347551564 S
atom 5.0671447233016655 2.5767914049974991 40.1541681914140653 S
atom 10.1054767510382053 2.6344167961199405 39.6081689599245408 S
atom 5.1247701144369024 7.6151234327517248 39.6081689599276743 S
atom 10.1631021421726508 7.6727488238809762 40.1541681914093829 S
atom 2.5767914049975169 5.0671447233049012 34.6161529347560943 S
atom 7.6151234327250288 5.1247701144357309 35.3033328433512210 S
atom 2.6344167961366911 10.1054767510352992 35.3033328433569409 S
atom 7.6727488238692692 10.1631021421747363 34.6161529347632637 S
atom 2.5767914050095122 5.0671447233024587 40.1541681914037056 S
atom 7.6151234327243991 5.1247701144360382 39.6081689599247255 S
atom 2.6344167961363625 10.1054767510345016 39.6081689599316888 S
atom 7.6727488238700152 10.1631021421710379 40.1541681914134756 S
atom 2.4612796721911239 2.4612796721920782 42.0457113029213474 Ba
atom 7.6730097744102039 2.6923031378092199 42.0457113029215108 Ba
atom 2.6923031378110012 7.6730097744095014 42.0457113029219371 Ba
atom 7.5572370910599673 7.5572370910623414 42.0457113029212763 Ba
atom 5.3319560315483354 5.3319560315491348 42.4709160661461880 S
atom 9.8982908339241522 4.9175841973220820 42.4709160661765281 S
atom 4.9175841973256063 9.8982908339221947 42.4709160661601501 S
atom 10.4279134504168685 10.4279134504193127 42.4709160661453993 S
