#=======================================================
# FHI-aims file: full_relax/full_relax_RP_3_RxRyRz_RxRyRz.in
# Created using the Atomic Simulation Environment (ASE)
# Fri Mar 14 11:21:02 2025
#=======================================================
lattice_vector 10.0297139426322541 -0.0218809349699317 -0.0093713262181264 
lattice_vector -0.0218809349723689 10.0297139433204485 0.0093713275906350 
lattice_vector -0.0362909132032872 0.0362909181731343 35.7907071735511764 
atom 0.0355952408857735 -0.1522724710749208 0.2373647298177985 Ba
atom 5.1671296872280479 -0.0465358829007390 0.2326789411583414 Ba
atom 0.1413319660581241 4.9792615564919043 0.2420497845644876 Ba
atom 5.0395119939652062 4.8516439498492732 0.2373637821972176 Ba
atom -0.2508626207525599 0.1926313086631935 4.9875906207541822 Ba
atom 4.8222258573836898 0.2399221472537922 4.9829048172658572 Ba
atom -0.2035714266217505 5.2657192897518730 4.9922765496979400 Ba
atom 4.7530537981065839 5.1965475705438067 4.9875907944830162 Ba
atom 2.4796682107637609 2.5100947542582377 2.3997398476745797 Zr
atom 7.5086780599760141 2.5133066249687350 2.3950542735344871 Zr
atom 2.4828807803159152 7.5391058126565582 2.4044255125910721 Zr
atom 7.4835846486885655 7.5140131612953711 2.3997392189050673 Zr
atom 2.4943972710122466 2.5095187724757939 7.4563970942865874 Zr
atom 7.5092557506947539 2.4985793022041562 7.4517103958095934 Zr
atom 2.4834573887587377 7.5243763788057523 7.4610821754084595 Zr
atom 7.4983137804116673 7.5134354704027677 7.4563975527873350 Zr
atom 2.6149202834823271 2.7325956622697114 -0.1041639105432888 S
atom 7.2861778751854240 2.3780559758922233 -0.1088490030339060 S
atom 2.2603805574872697 7.4038531519065369 -0.0994776453319317 S
atom 7.6188368169250644 7.7365119575242094 -0.1041647354381701 S
atom 2.2399763042742800 2.2159624035056011 4.9540830292060605 S
atom 7.8028113483825310 2.7530002299483232 4.9493965227254231 S
atom 2.7770138048412880 7.7787972926478481 4.9587690180891038 S
atom 7.2438924006574883 7.2198788867379271 4.9540826831234916 S
atom 2.7441869679965540 0.0162418893008086 2.2388621110561084 S
atom 7.2287172588403603 0.0081601761493273 2.7356462518480269 S
atom 2.2029198601092137 5.0339582216264827 2.7450173839635794 S
atom 7.7481035170545001 5.0201589482523366 2.2388624230878342 S
atom 2.8847103108607972 -0.0006642322289083 7.7505100198075434 S
atom 7.1298824852401967 -0.0060978863987135 7.1529137060831349 S
atom 2.1040850783023335 5.0197007488439134 7.1622849469282199 S
atom 7.8886267339293656 5.0032518040157088 7.7505100686510717 S
atom -0.0271822151512403 2.2706699836512612 2.2435478134758764 S
atom 4.9848152608350684 2.7900564026678252 2.7403317811323973 S
atom -0.0409821947795027 7.8158534900567949 2.7497031526984790 S
atom 4.9767340569495593 7.2745862924536384 2.2435480794958060 S
atom -0.0102769879740863 2.1301470056903189 7.7551957899113058 S
atom 4.9990710863204360 2.8888913874163560 7.1575992632587155 S
atom -0.0267249993830599 7.9146886488253507 7.1669707078047775 S
atom 4.9936401110914268 7.1340635153700180 7.7551956167298650 S
atom 0.2357414859383408 -0.1775096135272983 9.9252039082123567 Ba
atom 5.1923665222205440 -0.2466819308869123 9.9205181572418315 Ba
atom 0.1665693532632134 4.7791154977617749 9.9298894280184218 Ba
atom 5.2396577824052057 4.8264068659800294 9.9252038336220689 Ba
atom -0.0507166332020857 0.1673934586233386 14.6754307150788819 Ba
atom 4.8474631454963308 0.0397760528055673 14.6707460468358182 Ba
atom -0.1783340651740781 5.0655737467558080 14.6801165478427702 Ba
atom 4.9531998964845849 5.1713102454719690 14.6754310516002615 Ba
atom 2.5091269905340523 2.5089420619848659 12.5130551086898567 Zr
atom 7.5098309746338652 2.4838486381040088 12.5083695027958441 Zr
atom 2.4840333330613262 7.5096468775384011 12.5177413713379035 Zr
atom 7.5130438852127623 7.5128592126184053 12.5130555618241122 Zr
atom 2.7488192347020965 2.8030757631112673 9.9587120035051342 S
atom 7.2156979635289327 2.2441569177421732 9.9540266209802866 S
atom 2.1899003548076710 7.2699542916375366 9.9633962137895313 S
atom 7.7527355910713496 7.8069923233319640 9.9587119507937985 S
atom 2.3738749530036332 2.2864422300020313 15.0169578837295283 S
atom 7.7323314963581007 2.6191012308081181 15.0122741736159409 S
atom 2.7065339491184592 7.6448984096167756 15.0216441665711642 S
atom 7.3777915293840506 7.2903584510454733 15.0169582037486329 S
atom 2.7858753494055986 -0.0149214033523556 12.1677770525621298 S
atom 7.2704057868080003 -0.0230008063526725 12.6645604577645745 S
atom 2.2446080993866886 5.0027965630516205 12.6739323856014305 S
atom 7.7897918195703193 4.9889951407886874 12.1677768813008012 S
atom 0.0039809432637486 2.2289815315163923 12.1724625998632749 S
atom 5.0159772716542337 2.7483678671694896 12.6692464384251835 S
atom -0.0098205147054602 7.7741652819147493 12.6786179331646380 S
atom 5.0078974813011667 7.2328980120539068 12.1724626511476242 S
atom 2.5194083146307920 2.3678309128616681 18.1327174961479507 Ba
atom 7.6509421715355543 2.4735676943937137 18.1280312795177494 Ba
atom 2.6251452238246560 7.4993655766952969 18.1374031721703091 Ba
atom 7.5233244165231179 7.3717480033076335 18.1327174842761742 Ba
atom 2.2329500497834784 2.7127344247111043 22.8829446668486156 Ba
atom 7.3060389899191733 2.7600259985178943 22.8782588333160568 Ba
atom 2.2802414299330258 7.7858232499787414 22.8876297353541851 Ba
atom 7.2368666317369401 7.7166509565665820 22.8829441122523924 Ba
atom 4.9634814595957799 5.0302005881538401 20.2950928567235351 Zr
atom 9.9924907840358816 5.0334117675368377 20.2904074443167701 Zr
atom 4.9666927981921987 10.0592068502668006 20.2997766758993521 Zr
atom 9.9673979243190711 10.0341154638946346 20.2950922932009341 Zr
atom 4.9782104941265111 5.0296227586401878 25.3517514658248899 Zr
atom 9.9930673689569733 5.0186813229505214 25.3470665760535852 Zr
atom 4.9672703979346799 10.0444793466896023 25.3564373706250556 Zr
atom 9.9821277887054585 10.0335408212451576 25.3517519551134463 Zr
atom 5.0987331215649085 5.2526990691387052 17.7911901992618553 S
atom 9.7699907109688358 4.8981593279729108 17.7865034817785812 S
atom 4.7441932267336338 9.9239570649400388 17.7958753791134008 S
atom 10.1026494627442549 10.2566159126262146 17.7911901070069334 S
atom 4.7237889869276479 4.7360655799671001 22.8494341634204545 S
atom 10.2866244181291737 5.2731040696202065 22.8447508176145071 S
atom 5.2608270833145383 10.2989012511265230 22.8541263588562060 S
atom 9.7277056094775762 9.7399823619517480 22.8494373814899205 S
atom 5.2279999951185507 2.5363446712699682 20.1342159466119384 S
atom 9.7125301700202549 2.5282656306853863 20.6309997767064317 S
atom 4.6867327271509218 7.5540640254890992 20.6403711047136049 S
atom 10.2319164406826424 7.5402609125503268 20.1342159805139751 S
atom 5.3685234223475646 2.5194403903254212 25.6458630505771836 S
atom 9.6136957232176812 2.5140066117739677 25.0482667743744116 S
atom 4.5878983803106470 7.5398047421089647 25.0576380364507756 S
atom 10.3724399976898116 7.5233558657622313 25.6458630386729780 S
atom 2.4566309978951009 4.7907733324091382 20.1389018321588935 S
atom 7.4686264275323806 5.3101596054459792 20.6356857105384464 S
atom 2.4428301408487947 10.3359574360358462 20.6450566810360314 S
atom 7.4605472477777512 9.7946900609782741 20.1389012495717807 S
atom 2.4735362505547216 4.6502506577987885 25.6505489978118462 S
atom 7.4828841214203168 5.4089949901217924 25.0529526176767554 S
atom 2.4570851409894403 10.4347924433548638 25.0623232913439367 S
atom 7.4774507621354926 9.6541670684259753 25.6505483145601083 S
atom 2.7195539974565035 2.3425934714550620 27.8205570888415252 Ba
atom 7.6761798797419996 2.2734217936278678 27.8158713190410616 Ba
atom 2.6503818636188496 7.2992195214103468 27.8252428364503217 Ba
atom 7.7234710225862102 7.3465101773638199 27.8205573980767156 Ba
atom 2.4330963575267224 2.6874972689745067 32.5707848137080944 Ba
atom 7.3312759668114493 2.5598798434114118 32.5660990674148678 Ba
atom 2.3054783988138974 7.5856774024425153 32.5754701039891970 Ba
atom 7.4370129186239993 7.6914141343571014 32.5707855056447286 Ba
atom 4.9929406131117178 5.0290456331188000 30.4084075957015258 Zr
atom 9.9936432426362636 5.0039544787163424 30.4037214316483961 Zr
atom 4.9678464532536921 10.0297511235015850 30.4130934164827913 Zr
atom 9.9968561520221098 10.0329609000932827 30.4084073396685142 Zr
atom 5.2326319179657022 5.3231791915949653 27.8540669302315429 S
atom 9.6995107385546113 4.7642607950845104 27.8493809899521381 S
atom 4.6737136389284437 9.7900581548609189 27.8587519999707638 S
atom 10.2365485695046825 10.3270960037907340 27.8540657671527114 S
atom 4.8576875642933466 4.8065458841003874 32.9123122579650911 S
atom 10.2161443052330050 5.1392045379450408 32.9076255063170038 S
atom 5.1903465925760024 10.1650021357286793 32.9169962048415030 S
atom 9.8616042406340068 9.8104624687345243 32.9123104380282356 S
atom 5.2696880913860333 2.5051825699149992 30.0631310176528004 S
atom 9.7542182639693227 2.4971030202779056 30.5599149770873240 S
atom 4.7284208762263535 7.5228991783256420 30.5692859437014306 S
atom 10.2736046533010370 7.5090987344817659 30.0631314273140582 S
atom 2.4877944439951869 4.7490854281865813 30.0678167199594384 S
atom 7.4997889862798663 5.2684711243904720 30.5645999582567462 S
atom 2.4739923057172994 10.2942690062488591 30.5739718851803701 S
atom 7.4917110020716606 9.7530020726279147 30.0678169178854979 S
