#=======================================================
# FHI-aims file: full_relax/full_relax_RP_2_00Mz1_00Mz2.in
# Created using the Atomic Simulation Environment (ASE)
# Fri Mar 14 11:17:25 2025
#=======================================================
lattice_vector 9.9627875000742456 0.0000000000000004 0.0000000000000051 
lattice_vector 0.0000000000000004 9.9627875000742456 -0.0000000000000007 
lattice_vector 0.0000000000000132 -0.0000000000000018 26.0321919370135184 
atom -0.0000000000012664 -0.0000000000009986 0.2025436974034595 Ba
atom 4.9813937500366388 -0.0000000000016454 0.2025436974025887 Ba
atom -0.0000000000012441 4.9813937500369141 0.2025436974023096 Ba
atom 4.9813937500368528 4.9813937500373919 0.2025436974024344 Ba
atom -0.0000000000008405 -0.0000000000016543 5.0061907571183122 Ba
atom 4.9813937500371415 -0.0000000000013328 5.0061907571186808 Ba
atom -0.0000000000008178 4.9813937500373875 5.0061907571184454 Ba
atom 4.9813937500368564 4.9813937500362417 5.0061907571174116 Ba
atom 2.4906968750174276 2.4906968750184317 2.4290293669441976 Zr
atom 7.4720906250553911 2.4906968750179099 2.4290293669435443 Zr
atom 2.4906968750180662 7.4720906250558805 2.4290293669442273 Zr
atom 7.4720906250557251 7.4720906250553165 2.4290293669448761 Zr
atom 2.4906968750181298 2.4906968750185463 7.5833521472903112 Zr
atom 7.4720906250557562 2.4906968750175684 7.5833521472904843 Zr
atom 2.4906968750177749 7.4720906250555732 7.5833521472908716 Zr
atom 7.4720906250551780 7.4720906250548733 7.5833521472920591 Zr
atom 2.4906968750175928 2.4906968750172434 -0.1087181839561608 S
atom 7.4720906250561043 2.4906968750175986 -0.1087181839573274 S
atom 2.4906968750172318 7.4720906250559951 -0.1087181839566557 S
atom 7.4720906250557046 7.4720906250558627 -0.1087181839567280 S
atom 2.4906968750173553 2.4906968750181520 5.0061907571196542 S
atom 7.4720906250561141 2.4906968750172904 5.0061907571197475 S
atom 2.4906968750174259 7.4720906250551247 5.0061907571196187 S
atom 7.4720906250573220 7.4720906250566976 5.0061907571196871 S
atom 2.8255555053896493 -0.0000000000004774 2.5127855053494974 S
atom 7.1372319946861902 -0.0000000000008549 2.5127855053491390 S
atom 2.1558382446447952 4.9813937500365313 2.5127855053500174 S
atom 7.8069492554258213 4.9813937500364656 2.5127855053498402 S
atom 2.8255555053899650 -0.0000000000006490 7.4995960088895774 S
atom 7.1372319946833844 -0.0000000000010531 7.4995960088890214 S
atom 2.1558382446453552 4.9813937500365313 7.4995960088888385 S
atom 7.8069492554280835 4.9813937500368519 7.4995960088886422 S
atom -0.0000000000009454 2.1558382446458815 2.5127855053491110 S
atom 4.9813937500364096 2.8255555053891031 2.5127855053491852 S
atom -0.0000000000005160 7.8069492554261970 2.5127855053484072 S
atom 4.9813937500361192 7.1372319946845924 2.5127855053506418 S
atom -0.0000000000006913 2.1558382446451696 7.4995960088887044 S
atom 4.9813937500369558 2.8255555053903452 7.4995960088889406 S
atom -0.0000000000009736 7.8069492554277211 7.4995960088884024 S
atom 4.9813937500361005 7.1372319946821534 7.4995960088886449 S
atom -0.0000000000014320 -0.0000000000010466 9.8098378168357172 Ba
atom 4.9813937500365197 -0.0000000000015184 9.8098378168342499 Ba
atom -0.0000000000014928 4.9813937500360357 9.8098378168346425 Ba
atom 4.9813937500368644 4.9813937500363288 9.8098378168366676 Ba
atom 2.4906968750170861 2.4906968750180498 10.1210996981932002 S
atom 7.4720906250563788 2.4906968750181062 10.1210996981935111 S
atom 2.4906968750184744 7.4720906250551407 10.1210996981938948 S
atom 7.4720906250546593 7.4720906250558166 10.1210996981938681 S
atom 2.4906968750172358 2.4906968750169711 13.2186428816133148 Ba
atom 7.4720906250554036 2.4906968750177056 13.2186428816136488 Ba
atom 2.4906968750176461 7.4720906250560715 13.2186428816139490 Ba
atom 7.4720906250557908 7.4720906250551211 13.2186428816141159 Ba
atom 2.4906968750171679 2.4906968750177221 18.0222867256218002 Ba
atom 7.4720906250579384 2.4906968750176235 18.0222867256221448 Ba
atom 2.4906968750169569 7.4720906250561763 18.0222867256273283 Ba
atom 7.4720906250569392 7.4720906250572332 18.0222867256218571 Ba
atom 4.9813937500361973 4.9813937500363989 15.4451260494522948 Zr
atom 9.9627875000735227 4.9813937500363146 15.4451260494526057 Zr
atom 4.9813937500372329 9.9627875000735919 15.4451260494515754 Zr
atom 9.9627875000743451 9.9627875000735475 15.4451260494545384 Zr
atom 4.9813937500364913 4.9813937500351564 20.5994474017990186 Zr
atom 9.9627875000740929 4.9813937500359051 20.5994474017991713 Zr
atom 4.9813937500356635 9.9627875000727997 20.5994474017989724 Zr
atom 9.9627875000736701 9.9627875000734054 20.5994474018000346 Zr
atom 4.9813937500374799 4.9813937500351919 12.9073789175869997 S
atom 9.9627875000757093 4.9813937500378209 12.9073789175869571 S
atom 4.9813937500357683 9.9627875000761410 12.9073789175869660 S
atom 9.9627875000748123 9.9627875000744233 12.9073789175872644 S
atom 4.9813937500355445 4.9813937500377357 18.0222867256248023 S
atom 9.9627875000731798 4.9813937500346759 18.0222867256256620 S
atom 4.9813937500378032 9.9627875000755743 18.0222867256239248 S
atom 9.9627875000751711 9.9627875000754695 18.0222867256256940 S
atom 5.3162487650236043 2.4906968750182088 15.5288824706318493 S
atom 9.6279324850885946 2.4906968750174969 15.5288824706310677 S
atom 4.6465387350504148 7.4720906250551611 15.5288824706316291 S
atom 10.2976425150556317 7.4720906250546557 15.5288824706334410 S
atom 5.3162487650207382 2.4906968750175142 20.5156909806148811 S
atom 9.6279324850917245 2.4906968750171745 20.5156909806177019 S
atom 4.6465387350527676 7.4720906250548413 20.5156909806164869 S
atom 10.2976425150597670 7.4720906250547490 20.5156909806185226 S
atom 2.4906968750173970 4.6465387350524754 15.5288824706320767 S
atom 7.4720906250548840 5.3162487650234596 15.5288824706341160 S
atom 2.4906968750174103 10.2976425150577811 15.5288824706339845 S
atom 7.4720906250549772 9.6279324850888841 15.5288824706309398 S
atom 2.4906968750175822 4.6465387350518448 20.5156909806190768 S
atom 7.4720906250550749 5.3162487650207790 20.5156909806161245 S
atom 2.4906968750170861 10.2976425150581701 20.5156909806164087 S
atom 7.4720906250552828 9.6279324850916712 20.5156909806162133 S
atom 2.4906968750166545 2.4906968750172260 22.8259305696326464 Ba
atom 7.4720906250532941 2.4906968750172331 22.8259305696305823 Ba
atom 2.4906968750176883 7.4720906250558272 22.8259305696332113 Ba
atom 7.4720906250560333 7.4720906250552490 22.8259305696313888 Ba
atom 4.9813937500365970 4.9813937500360597 23.1371945336648217 S
atom 9.9627875000727073 4.9813937500384267 23.1371945336648004 S
atom 4.9813937500353340 9.9627875000761037 23.1371945336623241 S
atom 9.9627875000758923 9.9627875000736434 23.1371945336662428 S
