#=======================================================
# FHI-aims file: full_relax/full_relax_RP_5_RxRyRz_RxRy-Rz.in
# Created using the Atomic Simulation Environment (ASE)
# Fri Mar 14 11:34:58 2025
#=======================================================
lattice_vector 9.9835231971081342 0.0035356375526198 -0.0000000001909223 
lattice_vector 0.0035356375527044 9.9835231973085481 -0.0000000003034195 
lattice_vector -0.0000000010629243 -0.0000000016904839 56.2263865389552322 
atom 0.0163762818646935 -0.1191021639812771 0.2147951492678485 Ba
atom 5.1108634896131777 -0.0146084621827496 0.2147957688875105 Ba
atom 0.1208699224664253 4.9753854746036730 0.2147958895102497 Ba
atom 5.0099054839176382 4.8744274693376024 0.2147954857688905 Ba
atom -0.2545842373898394 0.1962013218654822 5.0076417530233224 Ba
atom 4.7955604527807338 0.2563518642275337 5.0076417204312653 Ba
atom -0.1944335622974616 5.2463457299829956 5.0076416785577447 Ba
atom 4.7389453456656110 5.1897307867857707 5.0076417003061735 Ba
atom 2.4589248165430075 2.5270356058229715 2.3941726153134186 Zr
atom 7.4582553115652246 2.5363727782581909 2.3941735912329962 Zr
atom 2.4682618087197636 7.5263663982836819 2.3941726924103217 Zr
atom 7.4524537793049790 7.5205647967209668 2.3941729892377475 Zr
atom 2.4193574429146882 2.5398345469712105 7.4769247124037079 Zr
atom 7.4454565250344151 2.5759398727670919 7.4769239371091132 Zr
atom 2.4554628227417670 7.5659338745689011 7.4769236503296739 Zr
atom 7.4128864451732026 7.5333640407331117 7.4769239879834624 Zr
atom 2.5854011193279507 2.7253813642350173 -0.1158933039999141 S
atom 7.2599098529087227 2.4098963304787109 -0.1158928510554846 S
atom 2.2699160388117852 7.3998898808730313 -0.1158921620939495 S
atom 7.5789304910673048 7.7189105151305455 -0.1158928092105564 S
atom 2.2481209493153989 2.2942034493276231 4.9674549616428552 S
atom 7.6910876509171029 2.7471761135535555 4.9674544570655419 S
atom 2.7010936804531256 7.7371699447026376 4.9674540826734335 S
atom 7.2416505098816142 7.2877328950512821 4.9674550093033512 S
atom 2.7410689496484490 0.0416467016358095 2.2715893540876921 S
atom 7.1472306613180079 0.0464835732713924 2.7178253300132398 S
atom 2.1572367312155651 5.0364770261545555 2.7178253357261868 S
atom 7.7345984775153989 5.0351758368809207 2.2715891123262462 S
atom 2.9222227369223996 0.0450417684062965 7.6921308421484884 S
atom 7.0109756665421870 0.0482360462161586 7.2933935590892878 S
atom 2.0209818056364472 5.0382303736784255 7.2933935524757327 S
atom 7.9157522096939577 5.0385716227431487 7.6921308715733456 S
atom -0.0398786976175895 2.2506926374379184 2.2715894095906948 S
atom 4.9488138778220812 2.8380604308396467 2.7178252507007059 S
atom -0.0411801917062646 7.8280542376225064 2.7178253874621081 S
atom 4.9536511673022838 7.2442218778107286 2.2715892066960328 S
atom -0.0432751482516604 2.0695388342490553 7.6921307544330197 S
atom 4.9470613663550225 2.9743153822326391 7.2933935525190288 S
atom -0.0429328681383760 7.9643091305805820 7.2933935944498609 S
atom 4.9502554470910329 7.0630682621773220 7.6921309248839300 S
atom -0.0233429984428249 -0.0691130170130444 10.0237699819701120 Ba
atom 5.0608747785791461 0.0251108860482203 10.0237699429826197 Ba
atom 0.0708808663807071 5.0151043979684999 10.0237699720282443 Ba
atom 4.9701864433373322 4.9244161967459199 10.0237699319574940 Ba
atom 0.0233431263655559 0.0691130828160300 15.0772955811387153 Ba
atom 4.9226484073832735 -0.0215751960199945 15.0772955086048075 Ba
atom -0.0673452221622047 4.9684185640713343 15.0772955804931410 Ba
atom 5.0168724276821841 5.0626425141027589 15.0772955292598780 Ba
atom 2.4967647644651421 2.4967647696652242 12.5505324389040709 Zr
atom 7.4885264137369587 2.4985324389927448 12.5505323223306444 Zr
atom 2.4985327138781601 7.4885263246671094 12.5505330389530485 Zr
atom 7.4902944002908596 7.4902938480209684 12.5505324168776742 Zr
atom 2.5741722262283226 2.4536948975264057 17.6241416213229023 Zr
atom 7.5315964014565369 2.4211252704156858 17.6241417675276502 Zr
atom 2.5416024145254208 7.4111188129569907 17.6241416257518821 Zr
atom 7.5677018654635706 7.4472240928099263 17.6241410788709416 Zr
atom 2.6202827563680096 2.6811651254739250 10.0173712331786504 S
atom 7.3041259888633974 2.3750144948248582 10.0173708042483973 S
atom 2.3141322323903450 7.3650083799402033 10.0173710537436289 S
atom 7.6138121429439405 7.6746944382141384 10.0173713508322688 S
atom 2.3732468748167608 2.3123643549170119 15.0836956556400246 S
atom 7.6729267183852601 2.6220503582488899 15.0836957365026727 S
atom 2.6829330327501806 7.6120442144964953 15.0836955581401106 S
atom 7.3667763388261731 7.3058937564858475 15.0836958184414502 S
atom 2.0220254004678622 0.0005947168501986 12.4402471070550469 S
atom 7.9614979356651423 0.0029410040967228 12.6608177188770163 S
atom 2.9715041426088753 4.9929346380237947 12.6608176919146285 S
atom 7.0155548220748987 4.9941248365008901 12.4402471775953938 S
atom 2.9725477019177116 -0.0447008196513640 17.8076718706434427 S
atom 7.0613005416559460 -0.0415064552319428 17.4089344866574969 S
atom 2.0713067967033258 4.9484876740447730 17.4089345130827944 S
atom 7.9660769991142386 4.9488287951198009 17.8076718070760087 S
atom 0.0011725871003630 2.9697362612222773 12.4402471978969782 S
atom 4.9923565106834955 2.0237930850501122 12.6608177736749745 S
atom 0.0023625441932015 7.0137869596163300 12.6608176518308095 S
atom 4.9947013767789032 7.9632656697129498 12.4402470818925970 S
atom 0.0464679638610967 2.0192140924067452 17.8076718709620501 S
atom 5.0368033999980790 2.9239905637189807 17.4089345978899104 S
atom 0.0468097513546220 7.9139843438760309 17.4089344383620315 S
atom 5.0399970938163552 7.0127435429187388 17.8076717684554708 S
atom 0.2545841979258546 -0.1962015019720579 20.0934234451652998 Ba
atom 5.1879629247361922 -0.2528161843217976 20.0934234153292195 Ba
atom 0.1979693950773226 4.7371775025659755 20.0934234418699234 Ba
atom 5.2481134146840684 4.7973278486794326 20.0934233926037287 Ba
atom -0.0163763517664698 0.1191018142589002 24.8862700373164252 Ba
atom 4.8726599037041636 0.0181441626521387 24.8862694140671366 Ba
atom -0.1173339072781721 5.0081379030467739 24.8862695225447332 Ba
atom 4.9771531083849219 5.1126311334968593 24.8862697819515333 Ba
atom 2.5346048861491104 2.4664940282614229 22.7068925828542696 Zr
atom 7.5187971143273051 2.4606919320874536 22.7068930866873551 Zr
atom 2.5288027684727545 7.4506857526670665 22.7068929926819720 Zr
atom 7.5281349713165469 7.4600234518109376 22.7068929574829141 Zr
atom 2.7454083592823739 2.6993257772709818 20.1336090847072775 S
atom 7.2859652536552550 2.2498889304310685 20.1336099970166877 S
atom 2.2959715045222717 7.2398827493732210 20.1336105709449988 S
atom 7.7389377230043266 7.6928551741011235 20.1336104779574150 S
atom 2.4081284798726745 2.2681480895976449 25.2169550064411752 S
atom 7.7171426924060285 2.5871685457917390 25.2169543973624748 S
atom 2.7271489608274893 7.5771625230613289 25.2169536869717739 S
atom 7.4016578632675758 7.2616777595806399 25.2169546987199453 S
atom 2.8362927390513026 -0.0429471043443087 22.3832413708635762 S
atom 7.2424539924708125 -0.0381110394989533 22.8294772973202811 S
atom 2.2524602726461489 4.9518830506660976 22.8294774317615605 S
atom 7.8298219998189049 4.9505826526305974 22.3832410861297326 S
atom 0.0447151176325320 2.1554688164808993 22.3832412864089001 S
atom 5.0334083550277446 2.7428369061734075 22.8294773619368421 S
atom 0.0434135407806397 7.7328306611240585 22.8294771837488781 S
atom 5.0382454372465499 7.1489982780220638 22.3832411691142603 S
atom 2.3776630897888893 2.5131413629825299 28.3279894869100275 Ba
atom 7.4721500305900488 2.6176344609222917 28.3279893871030559 Ba
atom 2.4821560503660054 7.6076274801225079 28.3279896296991716 Ba
atom 7.3711927167337112 7.5066702458377650 28.3279892211718476 Ba
atom 2.6929660756026315 2.2421807082314813 33.1208351089729476 Ba
atom 7.7431105309146862 2.3023311792716252 33.1208350443423996 Ba
atom 2.7531165120901808 7.2923247819671317 33.1208351807605652 Ba
atom 7.6864957671342617 7.2357098687285948 33.1208351123360174 Ba
atom 5.0238005842736184 4.9556882683195864 30.5073669694810299 Zr
atom 10.0231307261956228 4.9650259526641589 30.5073668416700308 Zr
atom 5.0331381321236943 9.9550210908841716 30.5073678773200960 Zr
atom 10.0173283938758946 9.9492185206382722 30.5073685643153212 Zr
atom 5.0365998218426302 4.9161220672349568 35.5901177610456401 Zr
atom 10.0626979316795353 4.9522264784973746 35.5901177511631346 Zr
atom 5.0727048417732767 9.9422209078055417 35.5901198044486833 Zr
atom 10.0301288748024682 9.9096518573754135 35.5901193862009109 Zr
atom 5.2221458136372805 5.0821657558141835 27.9973027283584592 S
atom 9.8966548781459576 4.7666806641954116 27.9973034322682821 S
atom 4.9066607791887265 9.7566744175961446 27.9973016456542219 S
atom 10.2156755540994872 10.0756952164908107 27.9972989487449304 S
atom 4.7909682346429632 4.7448858652403390 33.0806497588075459 S
atom 10.2339346594427436 5.1978583033863206 33.0806491852356572 S
atom 5.2439407130643367 10.1878519825557241 33.0806487796640241 S
atom 9.7844977000213120 9.7384149245265110 33.0806506544272168 S
atom 4.7474570122864730 2.4568870927030675 30.3847813627189680 S
atom 10.3248190525106800 2.4555864953878528 30.8310174479559862 S
atom 5.3348250541446420 7.4455781530964114 30.8310174976396461 S
atom 9.7409864306706648 7.4504153449308399 30.3847813596507130 S
atom 4.5663037174227670 2.4534892269522941 35.8053238857586251 S
atom 10.4610738479306224 2.4538315052460780 35.4065868261642009 S
atom 5.4710799079567822 7.4438271563857104 35.4065867822882083 S
atom 9.5598330592945668 7.4470212561223237 35.8053239337495555 S
atom 2.5384119662978510 5.2378339674594203 30.3847810784797048 S
atom 7.5332409511275067 4.6540015227225089 30.8310172799562743 S
atom 2.5432491657562242 9.6439949587938081 30.8310176913310166 S
atom 7.5319399723309104 10.2313630096488062 30.3847815976370299 S
atom 2.5418072290571603 5.4189873870677250 35.8053239662409908 S
atom 7.5349944447904216 4.5177465746140291 35.4065868044711110 S
atom 2.5450012380312494 9.5077403447212987 35.4065867484698984 S
atom 7.5353351791010423 10.4125165155703794 35.8053238442271322 S
atom 2.4276513428551905 2.4734212532300068 38.1369634302279792 Ba
atom 7.5118694969189788 2.5676455037573094 38.1369634098663326 Ba
atom 2.5218755801931945 7.5576399801198795 38.1369635150394686 Ba
atom 7.4211808892904578 7.4669512766439228 38.1369634443758940 Ba
atom 2.5658775481394134 2.5201079194780496 43.1904888910843354 Ba
atom 7.4651836607583926 2.4294199260452531 43.1904886533246000 Ba
atom 2.4751895074735391 7.4194130020865856 43.1904888499275756 Ba
atom 7.5594072804855479 7.5136367219245743 43.1904886439977389 Ba
atom 4.9935295262650357 4.9935286028917458 40.6637256241445257 Zr
atom 9.9852911138287652 4.9952975084062148 40.6637248203915149 Zr
atom 4.9952975517530360 9.9852912374042706 40.6637220510719928 Zr
atom 9.9870587302136471 9.9870589380612973 40.6637234585305620 Zr
atom 4.9504595325669536 5.0709367657299431 45.7373333798676427 Zr
atom 9.9078842009425703 5.0383668125809535 45.7373347448667360 Zr
atom 4.9178893423586505 10.0283609797134865 45.7373365114800308 Zr
atom 9.9439893976852520 10.0644663776748882 45.7373340526702705 Zr
atom 5.1779295974428221 5.1170472506962810 38.1305616382183956 S
atom 9.8617732410969605 4.8108970792772698 38.1305609319350367 S
atom 4.8717795505861625 9.8008907075164782 38.1305608168468595 S
atom 10.1714591318520533 10.1105765398582630 38.1305603227975496 S
atom 4.8091291285292614 4.8700113870381827 43.1968877249702174 S
atom 10.1088091970250495 5.1796977872679770 43.1968881786345875 S
atom 5.1188154014799574 10.1696914260374527 43.1968865701417357 S
atom 9.8026583525897220 9.8635407883025170 43.1968875305795734 S
atom 5.4665008359952374 2.4979371459591104 40.5534417219730017 S
atom 9.5105513893870572 2.4991269882229461 40.7740123827712964 S
atom 4.5205576754811512 7.4891223029037084 40.7740123191873280 S
atom 10.4600304981816734 7.4914664689226633 40.5534415563552031 S
atom 4.5159788229611335 2.5432345695090630 45.9208645952456038 S
atom 10.4107494021979150 2.5435757857674459 45.5221268583393410 S
atom 5.4207557258941437 7.5335664597259120 45.5221269930700316 S
atom 9.5095079883990330 7.5367616824058299 45.9208646803455593 S
atom 2.4973598205578491 4.5187900945377528 40.5534413627608004 S
atom 7.4896990177954992 5.4682691274903110 40.7740120762455831 S
atom 2.4997059719540000 10.4582627606518894 40.7740126098913649 S
atom 7.4908881923631778 9.5123195158239113 40.5534419155124155 S
atom 2.4520641905441840 5.4693124154904798 45.9208647269785999 S
atom 7.4452506168959545 4.5680712342256573 45.5221270119067967 S
atom 2.4552579140505957 9.5580648394912480 45.5221268016444540 S
atom 7.4455935697355793 10.4628419786748914 45.9208646226367279 S
atom 2.3005631179450212 2.7513488664390349 48.2066155488312873 Ba
atom 7.2339422485831726 2.6947339440656974 48.2066155601872737 Ba
atom 2.2439485044101146 7.6847277486821950 48.2066155175833160 Ba
atom 7.2940925554592546 7.7448782960308709 48.2066154565595397 Ba
atom 2.6158667540636964 2.4803881232930673 52.9994654919494366 Ba
atom 7.5049024192093583 2.3794300345868162 52.9994652994747142 Ba
atom 2.5149086717898741 7.3694247321930932 52.9994652488136282 Ba
atom 7.6093961550242151 7.4739183495576684 52.9994655559855019 Ba
atom 4.9632587412683078 5.0313698486777882 50.8200830894473938 Zr
atom 9.9474512674039346 5.0255677846429894 50.8200829704343278 Zr
atom 4.9574563467203099 10.0155623834377501 50.8200849847769760 Zr
atom 9.9567889190124337 10.0248996059033733 50.8200849634175285 Zr
atom 5.1960908052447463 5.2421731534818727 48.2468094148403424 S
atom 9.7366476647935940 4.7927362021146180 48.2468103194628597 S
atom 4.7466539117246001 9.7827299085331951 48.2468113373239120 S
atom 10.1896200122143448 10.2357023525380999 48.2468110114020590 S
atom 4.7649128773983582 4.9048930170190239 53.3301507419931511 S
atom 10.0739273786814749 5.2239138110354517 53.3301486100673330 S
atom 5.0839335315361893 10.2139076344155733 53.3301456578647830 S
atom 9.7584422368241697 9.8984225378434338 53.3301479671990961 S
atom 4.6522341935215890 2.5414786339462587 50.4964337727133667 S
atom 10.2295950088000591 2.5401780398490232 50.9426689142169025 S
atom 5.2396014324064968 7.5301727627833284 50.9426689136390323 S
atom 9.6457633838537120 7.5350096428998610 50.4964336449150508 S
atom 2.4538161851601363 5.3330572840165544 50.4964336691293241 S
atom 7.4486475621881025 4.7492256352907187 50.9426689393358529 S
atom 2.4586539138971011 9.7392194092509428 50.9426689560398955 S
atom 7.4473458205415390 10.3265867111290728 50.4964337401195777 S
