#=======================================================
# FHI-aims file: full_relax/full_relax_RP_5_Rx0Rz_0Ry0.in
# Created using the Atomic Simulation Environment (ASE)
# Fri Mar 14 11:32:48 2025
#=======================================================
lattice_vector 10.0872848182781443 -0.0000000000000479 0.0035339806546205 
lattice_vector -0.0000000000000479 10.0904040037176230 -0.0000000000000551 
lattice_vector 0.0168322536576189 -0.0000000000003158 55.0815069030726931 
atom -0.1641711502412244 -0.0000000000029862 0.2796907087781491 Ba
atom 5.1878460728782585 -0.0000000000025539 0.2806038666145801 Ba
atom 0.1442036637174045 5.0452020018583044 0.2788368762908989 Ba
atom 4.8794712588749247 5.0452020018578239 0.2814576990959625 Ba
atom 0.0015319202893144 -0.0000000000023999 4.9463361236769847 Ba
atom 4.9885361633142047 -0.0000000000016413 4.9370745731632990 Ba
atom -0.0551062458975761 5.0452020018577315 4.9353075828711983 Ba
atom 5.0451743293708322 5.0452020018567945 4.9481031140049971 Ba
atom 2.5098144075926845 2.5099078483480763 2.3204331478524045 Zr
atom 7.5534568166414742 2.5352941534921123 2.3222001381846562 Zr
atom 2.5098144075905311 7.5804961553633419 2.3204331478524773 Zr
atom 7.5534568166435818 7.5551098502237002 2.3222001381862798 Zr
atom 2.5112939838300186 2.5214792530272470 7.3329638513419830 Zr
atom 7.5549363929642173 2.5237227488276810 7.3347308416675894 Zr
atom 2.5112939838248818 7.5689247506899449 7.3329638513243802 Zr
atom 7.5549363929694247 7.5666812548849878 7.3347308416573513 Zr
atom 2.5121276655673630 2.8774415270612228 -0.1605063767246467 S
atom 7.5557700747795122 2.1677604747953096 -0.1587393864074013 S
atom 2.5121276655677214 7.2129624766511276 -0.1605063767398553 S
atom 7.5557700747791046 7.9226435289199202 -0.1587393864210740 S
atom 2.5134862505365256 2.0516631392991997 4.8617238354970418 S
atom 7.5571286595630580 2.9935388625602268 4.8634908258332148 S
atom 2.5134862505368303 8.0387408644131852 4.8617238355295127 S
atom 7.5571286595626752 7.0968651411548738 4.8634908258566911 S
atom 2.5126054815170065 0.0000000000138343 2.0062873250468538 S
atom 7.5504658876391453 0.0000000000073687 2.7976193216488094 S
atom 2.5068234784768362 5.0452020018451789 2.7958523313239096 S
atom 7.5562478906700576 5.0452020018448422 2.0080543153710413 S
atom 2.5876886291086185 -0.0000000000193282 7.8037278680413165 S
atom 7.5014178788196872 -0.0000000000122405 6.8817330517350346 S
atom 2.4577754696808025 5.0452020018733874 6.8799660613990277 S
atom 7.6313310382391846 5.0452020018682324 7.8054948583769725 S
atom -0.0113034754446696 2.5215821680825776 2.4535188464197657 S
atom 5.0323389336730209 2.5236198337740108 2.4552858366563166 S
atom -0.0113034754482857 7.5688218356314119 2.4535188464177295 S
atom 5.0323389336766784 7.5667841699398855 2.4552858366547765 S
atom -0.0059907995006601 2.4451476881075931 7.3452555836499913 S
atom 5.0376516096314461 2.6000543137469263 7.3470225741341002 S
atom -0.0059907994923630 7.6452563156060300 7.3452555836499300 S
atom 5.0376516096233512 7.4903496899678155 7.3470225741337956 S
atom -0.0167234379058292 0.0000000000010579 9.7859506213574452 Ba
atom 5.0464816404181105 0.0000000000022497 9.8730677216434763 Ba
atom 0.0028392311876897 5.0452020018541655 9.8713007313696028 Ba
atom 5.0269189711473965 5.0452020018528865 9.7877176117265439 Ba
atom 0.0242378369395487 0.0000000000025304 14.8040078174975722 Ba
atom 5.0483175769053021 0.0000000000031114 14.7204246978658464 Ba
atom 0.0046751676697140 5.0452020018529717 14.7186577075794478 Ba
atom 5.0678802459979684 5.0452020018522434 14.8057748078773272 Ba
atom 2.5255784040306044 2.5226010009296007 12.2958627146102710 Zr
atom 7.5692208131984646 2.5226010009293147 12.2976297049501966 Zr
atom 2.5255784040257967 7.5678030027843484 12.2958627146102462 Zr
atom 7.5692208132031995 7.5678030027862881 12.2976297049417465 Zr
atom 2.5398628242826833 2.5237227488298455 17.2587615779082277 Zr
atom 7.5835052333813318 2.5214792530282950 17.2605285682188772 Zr
atom 2.5398628242807884 7.5666812548811277 17.2587615779276611 Zr
atom 7.5835052333830086 7.5689247506894723 17.2605285682398417 Zr
atom 2.5214547688847300 3.0244747429616354 9.8186445185068578 S
atom 7.5650971781929099 2.0207272588931549 9.8204115088280926 S
atom 2.5214547688855768 7.0659292607565671 9.8186445185057014 S
atom 7.5650971781919241 8.0696767448182545 9.8204115088246056 S
atom 2.5297020392053384 2.0207272588922027 14.7730809107144232 S
atom 7.5733444481751953 3.0244747429633221 14.7748479010346241 S
atom 2.5297020392055836 8.0696767448180715 14.7730809107138334 S
atom 7.5733444481749581 7.0659292607544710 14.7748479010497356 S
atom 2.4348134369136329 -0.0000000000165254 11.8249746310523562 S
atom 7.6599857803215539 -0.0000000000090154 12.7685177885057772 S
atom 2.6163433711820798 5.0452020018722248 12.7667507981758028 S
atom 7.4784558460409345 5.0452020018636441 11.8267416213751630 S
atom 2.5933813384033497 -0.0000000000156838 17.7117593678240084 S
atom 7.5071105881309501 -0.0000000000236781 16.7897645515004506 S
atom 2.4634681789782595 5.0452020018726405 16.7879975611819496 S
atom 7.6370237475549887 5.0452020018776302 17.7135263581456428 S
atom 0.0037571994858671 2.6317856617436086 12.2949792195424088 S
atom 5.0473996086040520 2.4134163401111510 12.2967462096846987 S
atom 0.0037571994966354 7.4586183419714658 12.2949792195423750 S
atom 5.0473996085932997 7.6769876636022216 12.2967462096852316 S
atom 0.0135051984751747 2.4451476881076264 17.2447028550908392 S
atom 5.0571476075742314 2.6000543137481498 17.2464698455739267 S
atom 0.0135051984664601 7.6452563156059368 17.2447028550906118 S
atom 5.0571476075825759 7.4903496899668722 17.2464698455730527 S
atom 0.0059824787192748 -0.0000000000023886 19.6436223152121912 Ba
atom 5.1062630539870248 -0.0000000000023392 19.6564178463633255 Ba
atom 0.0626206447787448 5.0452020018580006 19.6546508560537951 Ba
atom 5.0496248877986352 5.0452020018577679 19.6453893055572486 Ba
atom 0.1716855492156843 -0.0000000000024142 24.3102677301237478 Ba
atom 4.9069531443779209 -0.0000000000027426 24.3128885529214749 Ba
atom -0.1366892647878442 5.0452020018581338 24.3111215626084558 Ba
atom 5.2153279583248624 5.0452020018584145 24.3120347204337754 Ba
atom 2.5413424006031962 2.5352941535058888 22.2712922813305241 Zr
atom 7.5849848096206411 2.5099078483621899 22.2730592716544393 Zr
atom 2.5413424006045688 7.5551098502096812 22.2712922813251630 Zr
atom 7.5849848096192378 7.5804961553484249 22.2730592716528335 Zr
atom 2.5376705575419463 2.9935388625540265 19.7300015937216102 S
atom 7.5813129668165660 2.0516631392965490 19.7317685840697337 S
atom 2.5376705575421465 7.0968651411618877 19.7300015936939346 S
atom 7.5813129668164096 8.0387408644159475 19.7317685840243655 S
atom 2.5390291425068834 2.1677604747917170 24.7522318059913360 S
atom 7.5826715516044576 2.8774415270616562 24.7539987963132155 S
atom 2.5390291425065845 7.9226435289239294 24.7522318060052164 S
atom 7.5826715516047090 7.2129624766500902 24.7539987963352530 S
atom 2.5443333295953301 0.0000000000077413 21.7958730979102313 S
atom 7.5821937357180786 0.0000000000229046 22.5872050945177669 S
atom 2.5385513265531454 5.0452020018448067 22.5854381041899153 S
atom 7.5879757387472715 5.0452020018381347 21.7976400882405770 S
atom 0.0188178743980446 2.5215821680811961 22.1364395925746713 S
atom 5.0624602835536949 2.5236198337725089 22.1382065828162382 S
atom 0.0188178744111760 7.5688218356328134 22.1364395925774211 S
atom 5.0624602835404255 7.5667841699414433 22.1382065828191230 S
atom 2.5382405596215696 2.6770827312162320 27.8267697743440294 Ba
atom 7.5818829687355596 2.3681192706383913 27.8285367646734620 Ba
atom 2.5382405596227411 7.4133212724959643 27.8267697743278219 Ba
atom 7.5818829687343898 7.7222847330777435 27.8285367646554747 Ba
atom 2.5365813715381669 2.4941049964797992 32.4894895182384005 Ba
atom 7.5802237806846691 2.5510970053785389 32.4912565085658613 Ba
atom 2.5365813715390702 7.5962990072345447 32.4894895182324106 Ba
atom 7.5802237806837640 7.5393069983345553 32.4912565085586351 Ba
atom 5.0720823474674583 5.0452020018048342 29.8674757702177160 Zr
atom 10.0902057627918289 5.0452020017989492 29.8694852069255070 Zr
atom 5.0465633536774739 10.0904040037681586 29.8677182165525181 Zr
atom 10.1157247566142043 10.0904040037740668 29.8692427605802386 Zr
atom 5.0584891860888952 5.0452020017771897 34.8784118619600747 Zr
atom 10.1003941949819875 5.0452020017777111 34.8802671013083696 Zr
atom 5.0567517858389293 10.0904040037965927 34.8785001109471366 Zr
atom 10.1021315952195270 10.0904040037960545 34.8801788523422971 Zr
atom 4.7047348950588708 5.0452020018633572 27.3865358644850758 S
atom 10.4593186093832387 5.0452020018635313 27.3888257756985958 S
atom 5.4156762002498473 10.0904040037097893 27.3870587853659622 S
atom 9.7483773042067412 10.0904040037095157 27.3883028548142313 S
atom 5.5326903717538647 5.0452020018700532 32.4083864234317147 S
atom 9.6278459985674250 5.0452020018712824 32.4098739592070331 S
atom 4.5842035894351287 10.0904040037031493 32.4081069689946233 S
atom 10.5763327809001169 10.0904040037017957 32.4101534136582075 S
atom 5.0593061417287224 2.5226124255645854 30.0021237569916401 S
atom 10.1029485508694048 2.5225895762932580 30.0038907473198542 S
atom 5.0593061417289746 7.5677915781496798 30.0021237569954273 S
atom 10.1029485508691774 7.5678144274210277 30.0038907473226892 S
atom 5.0575885103401355 2.5225982743418602 34.8937355263018176 S
atom 10.1012309194762846 2.5226037274947641 34.8955025166293140 S
atom 5.0575885103371467 7.5678057293728793 34.8937355263031819 S
atom 10.1012309194791747 7.5678002762199306 34.8955025166328454 S
atom 2.5373702969928242 5.0452020018680592 30.3436299415132424 S
atom 7.5812674898091741 5.0452020018670733 29.5516869448348487 S
atom 2.5376250805682354 10.0904040037061051 29.5499199545072848 S
atom 7.5810127062013848 10.0904040037050748 30.3453969318407637 S
atom 2.5359275982652001 5.0452020018718819 34.4195492375846399 S
atom 7.5792528981194325 5.0452020018755794 35.3549078972425974 S
atom 2.5356104891078761 10.0904040037008915 35.3531409069133744 S
atom 7.5795700072827890 10.0904040036983442 34.4213162279144029 S
atom 2.5348989075341657 2.5318098299592036 37.3748084307052792 Ba
atom 7.5785413167012043 2.5133921718957826 37.3765754210339054 Ba
atom 2.5348989075319510 7.5585941737570748 37.3748084307043129 Ba
atom 7.5785413167033493 7.5770118318229480 37.3765754210297629 Ba
atom 2.5330901541844084 2.5133921718898606 42.2984239015872205 Ba
atom 7.5767325633528495 2.5318098299559710 42.3001908919073344 Ba
atom 2.5330901541820108 7.5770118318240929 42.2984239015876753 Ba
atom 7.5767325633551881 7.5585941737585696 42.3001908919220710 Ba
atom 5.0558157354454654 5.0452020017605177 39.8374996612871755 Zr
atom 10.0994581445804386 5.0452020017714512 39.8392666516099396 Zr
atom 5.0558157354409792 10.0904040038133509 39.8374996612885681 Zr
atom 10.0994581445872722 10.0904040038023641 39.8392666516280443 Zr
atom 5.0531422847931351 5.0452020017917345 44.7965874606936154 Zr
atom 10.0985220941763263 5.0452020018077306 44.7982662019510869 Zr
atom 5.0548796850486530 10.0904040037802005 44.7964992116801213 Zr
atom 10.0967846939529782 10.0904040037641334 44.7983544508967597 Zr
atom 4.5486944257181383 5.0452020018739088 37.3622138166125524 S
atom 10.6083689040773024 5.0452020018718970 37.3643623244283489 S
atom 5.5647264949237165 10.0904040036994527 37.3625953340595700 S
atom 9.5923368348400295 10.0904040037013853 37.3639808069197557 S
atom 5.5629370451719149 5.0452020018720996 42.3127855060395248 S
atom 9.5905473850890282 5.0452020018712682 42.3141709789186322 S
atom 4.5469049759627245 10.0904040037008738 42.3124039886129850 S
atom 10.6065794543234109 10.0904040037015879 42.3145524964031168 S
atom 5.0558157354496442 2.5226008881892685 39.8374996613159951 S
atom 10.0994581445762410 2.5226011137207411 39.8392666516420988 S
atom 5.0558157354374726 7.5678031155252645 39.8374996613159311 S
atom 10.0994581445883966 7.5678028899937706 39.8392666516387024 S
atom 5.0540429605411878 2.5225982743192183 44.7812637963257032 S
atom 10.0976853696932327 2.5226037275219988 44.7830307866508122 S
atom 5.0540429605540309 7.5678057293944976 44.7812637963243674 S
atom 10.0976853696803381 7.5678002761917380 44.7830307866524535 S
atom 2.5338184067868497 5.0452020018700585 40.3134591464180900 S
atom 7.5778130640995744 5.0452020018808268 39.3615401762143620 S
atom 2.5341706550601151 10.0904040037020124 39.3597731858813304 S
atom 7.5774608158253249 10.0904040036922709 40.3152261367482012 S
atom 2.5323785727359329 5.0452020018752997 44.3200914253894638 S
atom 7.5757038726576109 5.0452020018636334 45.2554500850379426 S
atom 2.5320614636054297 10.0904040036994171 45.2536830947105528 S
atom 7.5760209817724879 10.0904040037091676 44.3218584157192979 S
atom 2.5314076902155103 2.5510970053789581 47.1837428140708965 Ba
atom 7.5750500993351650 2.4941049964834638 47.1855098043979950 Ba
atom 2.5314076902119744 7.5393069983300878 47.1837428140754156 Ba
atom 7.5750500993386245 7.5962990072282333 47.1855098044001622 Ba
atom 2.5297485021527475 2.3681192706347809 51.8464625579645855 Ba
atom 7.5733909112631892 2.6770827312220802 51.8482295482945830 Ba
atom 2.5297485021505990 7.7222847330797038 51.8464625579796419 Ba
atom 7.5733909112653084 7.4133212724897408 51.8482295483089217 Ba
atom 5.0395491234181602 5.0452020018055466 49.8075235524457867 Zr
atom 10.1087105263764787 5.0452020018167341 49.8090480964375786 Zr
atom 5.0650681172039880 10.0904040037661513 49.8072811061276397 Zr
atom 10.0831915325537071 10.0904040037548590 49.8092905427860515 Zr
atom 4.5789410991274995 5.0452020018677572 47.2666128991402630 S
atom 10.5710702905938732 5.0452020018649906 47.2686593440492189 S
atom 5.5274278814543587 10.0904040037043394 47.2668923535910963 S
atom 9.6225835082631814 10.0904040037070164 47.2683798896285126 S
atom 5.4068965758302125 5.0452020018624344 52.2884634581439087 S
atom 9.7395976797888775 5.0452020018616013 52.2897075275245768 S
atom 4.6959552706365617 10.0904040037094980 52.2879405372296020 S
atom 10.4505389849502457 10.0904040037103702 52.2902304483964571 S
atom 5.0523253291584931 2.5226124255310229 49.6728755656316494 S
atom 10.0959677382947994 2.5225895762849655 49.6746425559513085 S
atom 5.0523253291586236 7.5677915781818905 49.6728755656278125 S
atom 10.0959677382946484 7.5678144274279200 49.6746425559475355 S
atom 2.5303639810092635 5.0452020018645012 50.1233123777864691 S
atom 7.5742611739487335 5.0452020018651211 49.3313693811035279 S
atom 2.5306187646493519 10.0904040037061389 49.3296023907769055 S
atom 7.5740063903636852 10.0904040037075262 50.1250793681105407 S
