#=======================================================
# FHI-aims file: full_relax/full_relax_RP_4_00Rz_000.in
# Created using the Atomic Simulation Environment (ASE)
# Fri Mar 14 11:22:48 2025
#=======================================================
lattice_vector 10.0140645781078330 0.0000000000000000 -0.0000000000000028 
lattice_vector 0.0000000000000000 10.0140645781078330 0.0000000000000012 
lattice_vector -0.0000000000000129 0.0000000000000054 45.9739561832212686 
atom 0.0000000000000893 -0.0000000000006101 0.2033664833938322 Ba
atom 5.0070322890532966 -0.0000000000006929 0.2033664833933913 Ba
atom -0.0000000000008055 5.0070322890535044 0.2033664833928423 Ba
atom 5.0070322890539849 5.0070322890537096 0.2033664833929393 Ba
atom -0.0000000000007735 -0.0000000000004964 4.9468028234452559 Ba
atom 5.0070322890536065 -0.0000000000004039 4.9468028234452852 Ba
atom -0.0000000000002258 5.0070322890535488 4.9468028234452817 Ba
atom 5.0070322890531580 5.0070322890535017 4.9468028234452053 Ba
atom 2.5035161445263849 2.5035161445264991 2.3351692970775475 Zr
atom 7.5105484335806096 2.5035161445268579 2.3351692970777993 Zr
atom 2.5035161445267011 7.5105484335803476 2.3351692970776599 Zr
atom 7.5105484335801798 7.5105484335801274 2.3351692970775866 Zr
atom 2.5035161445265315 2.5035161445265075 7.4507915926973212 Zr
atom 7.5105484335802739 2.5035161445266403 7.4507915926974073 Zr
atom 2.5035161445265595 7.5105484335803228 7.4507915926971782 Zr
atom 7.5105484335803006 7.5105484335802855 7.4507915926976418 Zr
atom 2.5035161445258809 2.5035161445251890 -0.1763400780361802 S
atom 7.5105484335808406 2.5035161445279464 -0.1763400780360667 S
atom 2.5035161445268961 7.5105484335815804 -0.1763400780359641 S
atom 7.5105484335797765 7.5105484335789523 -0.1763400780359959 S
atom 2.5035161445266509 2.5035161445270528 4.9308233520193667 S
atom 7.5105484335803059 2.5035161445258423 4.9308233520193685 S
atom 2.5035161445263765 7.5105484335798014 4.9308233520198410 S
atom 7.5105484335805883 7.5105484335810972 4.9308233520198703 S
atom 2.2433068529883022 -0.0000000000004809 2.4522489008597459 S
atom 7.7707577251184645 -0.0000000000005931 2.4522489008581192 S
atom 2.7637254360644929 5.0070322890535408 2.4522489008582316 S
atom 7.2503391420423311 5.0070322890533880 2.4522489008599271 S
atom 3.0084885282305018 -0.0000000000002022 7.4578472283666501 S
atom 7.0055760498762654 -0.0000000000002931 7.4578472283672577 S
atom 1.9985437608223275 5.0070322890534191 7.4578472283671697 S
atom 8.0155208172845089 5.0070322890532761 7.4578472283665631 S
atom -0.0000000000004253 2.7637254360646093 2.4522489008593942 S
atom 5.0070322890534085 2.2433068529884190 2.4522489008587525 S
atom -0.0000000000003503 7.2503391420423364 2.4522489008588688 S
atom 5.0070322890535275 7.7707577251186457 2.4522489008592281 S
atom -0.0000000000002188 1.9985437608224499 7.4578472283668100 S
atom 5.0070322890535595 3.0084885282305760 7.4578472283670934 S
atom -0.0000000000003127 8.0155208172845942 7.4578472283668074 S
atom 5.0070322890535293 7.0055760498762725 7.4578472283668393 S
atom -0.0000000000002523 -0.0000000000004585 9.9943383007002460 Ba
atom 5.0070322890532895 -0.0000000000006030 9.9943383007003437 Ba
atom -0.0000000000006373 5.0070322890534058 9.9943383007001287 Ba
atom 5.0070322890536856 5.0070322890535293 9.9943383007001945 Ba
atom -0.0000000000006950 -0.0000000000007497 15.0418737779556597 Ba
atom 5.0070322890537025 -0.0000000000003490 15.0418737779556082 Ba
atom -0.0000000000001886 5.0070322890536287 15.0418737779556206 Ba
atom 5.0070322890533205 5.0070322890532575 15.0418737779556047 Ba
atom 2.5035161445266527 2.5035161445266367 12.5378850087029292 Zr
atom 7.5105484335801487 2.5035161445264338 12.5378850087030127 Zr
atom 2.5035161445264715 7.5105484335802126 12.5378850087027729 Zr
atom 7.5105484335803689 7.5105484335804142 12.5378850087030553 Zr
atom 2.5035161445263294 2.5035161445263654 17.6535073043237922 Zr
atom 7.5105484335805466 2.5035161445266096 17.6535073043238846 Zr
atom 2.5035161445264698 7.5105484335806576 17.6535073043239912 Zr
atom 7.5105484335803077 7.5105484335804249 17.6535073043239557 Zr
atom 2.5035161445263956 2.5035161445263010 9.9943383006997042 S
atom 7.5105484335804498 2.5035161445269449 9.9943383006995887 S
atom 2.5035161445266678 7.5105484335807118 9.9943383006998410 S
atom 7.5105484335802428 7.5105484335800607 9.9943383006995887 S
atom 2.5035161445268637 2.5035161445271497 15.0578532493816617 S
atom 7.5105484335799844 2.5035161445260430 15.0578532493811714 S
atom 2.5035161445259830 7.5105484335799071 15.0578532493815391 S
atom 7.5105484335808299 7.5105484335809480 15.0578532493810417 S
atom 1.9985437608224954 -0.0000000000002128 12.5308293730345017 S
atom 8.0155208172845107 -0.0000000000002555 12.5308293730340292 S
atom 3.0084885282304543 5.0070322890533872 12.5308293730339368 S
atom 7.0055760498763942 5.0070322890533960 12.5308293730346669 S
atom 2.7637254360650503 -0.0000000000005156 17.5364277005407025 S
atom 7.2503391420418311 -0.0000000000005281 17.5364277005420988 S
atom 2.2433068529880482 5.0070322890533747 17.5364277005421130 S
atom 7.7707577251190409 5.0070322890534866 17.5364277005408056 S
atom -0.0000000000001604 3.0084885282304623 12.5308293730345817 S
atom 5.0070322890535524 1.9985437608224828 12.5308293730340523 S
atom -0.0000000000002489 7.0055760498763355 12.5308293730341624 S
atom 5.0070322890535630 8.0155208172844947 12.5308293730344662 S
atom -0.0000000000006131 2.2433068529880296 17.5364277005408624 S
atom 5.0070322890535675 2.7637254360649690 17.5364277005420455 S
atom -0.0000000000005122 7.7707577251189051 17.5364277005421165 S
atom 5.0070322890535577 7.2503391420418764 17.5364277005408233 S
atom -0.0000000000001746 -0.0000000000002424 19.7853101180079456 Ba
atom 5.0070322890531633 -0.0000000000008096 19.7853101180077822 Ba
atom -0.0000000000010227 5.0070322890535426 19.7853101180079420 Ba
atom 5.0070322890536128 5.0070322890540799 19.7853101180080522 Ba
atom 2.5035161445256171 2.5035161445254475 20.1650166794383416 S
atom 7.5105484335813077 2.5035161445274294 20.1650166794381640 S
atom 2.5035161445275675 7.5105484335812527 20.1650166794383345 S
atom 7.5105484335792889 7.5105484335793555 20.1650166794381711 S
atom 2.5035161445286240 2.5035161445283975 23.2898377255003552 Ba
atom 7.5105484335781449 2.5035161445243372 23.2898377255002629 Ba
atom 2.5035161445240814 7.5105484335783714 23.2898377255005293 Ba
atom 7.5105484335825903 7.5105484335823656 23.2898377255004583 Ba
atom 2.5035161445254506 2.5035161445253515 28.0730788428076501 Ba
atom 7.5105484335812545 2.5035161445273255 28.0730788428073978 Ba
atom 2.5035161445274134 7.5105484335813513 28.0730788428068365 Ba
atom 7.5105484335792649 7.5105484335793395 28.0730788428065523 Ba
atom 5.0070322890533996 5.0070322890534227 25.3607396349471159 Zr
atom 10.0140645781074547 5.0070322890532299 25.3607396349464054 Zr
atom 5.0070322890533197 10.0140645781073516 25.3607396349470697 Zr
atom 10.0140645781074973 10.0140645781073871 25.3607396349465297 Zr
atom 5.0070322890532211 5.0070322890530301 30.4510413645800959 Zr
atom 10.0140645781075097 5.0070322890534724 30.4510413645807532 Zr
atom 5.0070322890533676 10.0140645781074813 30.4510413645809983 Zr
atom 10.0140645781072024 10.0140645781070283 30.4510413645802061 Zr
atom 5.0070322890498771 5.0070322890509056 22.8563012214198800 S
atom 10.0140645781107889 5.0070322890593078 22.8563012214200150 S
atom 5.0070322890573955 10.0140645781097124 22.8563012214199830 S
atom 10.0140645781030813 10.0140645781012854 22.8563012214204555 S
atom 5.0070322890585945 5.0070322890557213 27.9433286465941215 S
atom 10.0140645781020812 5.0070322890433605 27.9433286465951873 S
atom 5.0070322890463093 10.0140645781047812 27.9433286465943738 S
atom 10.0140645781141835 10.0140645781171340 27.9433286465936099 S
atom 5.0070322890523595 2.5035167616753058 25.4710181751209994 S
atom 10.0140645781083659 2.5035155273776595 25.4710181751111620 S
atom 5.0070322890544592 7.5105478164311643 25.4710181751165408 S
atom 10.0140645781061934 7.5105490507288506 25.4710181751262112 S
atom 5.0070322890559362 2.5035159586723328 30.4668098365193387 S
atom 10.0140645781045929 2.5035163303801671 30.4668098365322741 S
atom 5.0070322890507262 7.5105486194342976 30.4668098365234172 S
atom 10.0140645781098332 7.5105482477262164 30.4668098365102367 S
atom 2.5035155273771763 5.0070322890544281 25.4710181751228362 S
atom 7.5105490507290646 5.0070322890523817 25.4710181751146756 S
atom 2.5035167616750877 10.0140645781062130 25.4710181751136702 S
atom 7.5105478164310471 10.0140645781082416 25.4710181751240441 S
atom 2.5035163303803616 5.0070322890506231 30.4668098365156439 S
atom 7.5105482477257510 5.0070322890558661 30.4668098365270481 S
atom 2.5035159586724864 10.0140645781098723 30.4668098365298974 S
atom 7.5105486194341529 10.0140645781046391 30.4668098365132849 S
atom 2.5035161445267646 2.5035161445268277 32.9813163923115127 Ba
atom 7.5105484335797472 2.5035161445259031 32.9813163923113919 Ba
atom 2.5035161445259493 7.5105484335796975 32.9813163923118395 Ba
atom 7.5105484335806842 7.5105484335807420 32.9813163923114274 Ba
atom 2.5035161445251939 2.5035161445250340 37.8895539418151799 Ba
atom 7.5105484335813815 2.5035161445275440 37.8895539418155067 Ba
atom 2.5035161445272016 7.5105484335816239 37.8895539418161889 Ba
atom 7.5105484335794142 7.5105484335790882 37.8895539418165299 Ba
atom 5.0070322890532317 5.0070322890535763 35.5115914200434588 Zr
atom 10.0140645781069733 5.0070322890532477 35.5115914200424996 Zr
atom 5.0070322890533792 10.0140645781069697 35.5115914200425919 Zr
atom 10.0140645781073196 10.0140645781070852 35.5115914200444678 Zr
atom 5.0070322890534520 5.0070322890533738 40.6018931496765774 Zr
atom 10.0140645781070941 5.0070322890531562 40.6018931496758171 Zr
atom 5.0070322890532637 10.0140645781073445 40.6018931496772595 Zr
atom 10.0140645781074777 10.0140645781075737 40.6018931496759521 Zr
atom 5.0070322890468733 5.0070322890513506 32.9813163923106316 S
atom 10.0140645781135760 5.0070322890654761 32.9813163923106814 S
atom 5.0070322890630097 10.0140645781091013 32.9813163923103190 S
atom 10.0140645780974999 10.0140645780950095 32.9813163923101200 S
atom 5.0070322890595174 5.0070322890551413 38.0193041380274579 S
atom 10.0140645781008999 5.0070322890430496 38.0193041380284100 S
atom 5.0070322890438090 10.0140645781053692 38.0193041380284171 S
atom 10.0140645781168338 10.0140645781174822 38.0193041380293906 S
atom 5.0070322890592678 2.5035163303800241 35.4958229481038003 S
atom 10.0140645781011521 2.5035159586723106 35.4958229480906340 S
atom 5.0070322890473236 7.5105482477262866 35.4958229481003826 S
atom 10.0140645781131479 7.5105486194343936 35.4958229481131724 S
atom 5.0070322890526819 2.5035155273778100 40.4916146095027187 S
atom 10.0140645781077815 2.5035167616754554 40.4916146095121547 S
atom 5.0070322890538819 7.5105490507284189 40.4916146095062288 S
atom 10.0140645781065682 7.5105478164306883 40.4916146094965370 S
atom 2.5035159586722195 5.0070322890472374 35.4958229481083691 S
atom 7.5105486194346458 5.0070322890592047 35.4958229480958565 S
atom 2.5035163303798953 10.0140645781131123 35.4958229480921759 S
atom 7.5105482477261880 10.0140645781011912 35.4958229481114316 S
atom 2.5035167616752982 5.0070322890540346 40.4916146094992300 S
atom 7.5105478164312656 5.0070322890527708 40.4916146095095399 S
atom 2.5035155273775125 10.0140645781064723 40.4916146095123821 S
atom 7.5105490507288613 10.0140645781077495 40.4916146094969207 S
atom 2.5035161445285916 2.5035161445295571 42.6727950591220591 Ba
atom 7.5105484335780472 2.5035161445232132 42.6727950591216683 Ba
atom 2.5035161445242871 7.5105484335771013 42.6727950591214906 Ba
atom 7.5105484335823434 7.5105484335834598 42.6727950591212206 Ba
atom 5.0070322890483201 5.0070322890514278 43.1063315632030921 S
atom 10.0140645781121567 5.0070322890594152 43.1063315632037671 S
atom 5.0070322890604153 10.0140645781090107 43.1063315632020547 S
atom 10.0140645781003599 10.0140645781010598 43.1063315632011594 S
