#=======================================================
# FHI-aims file: full_relax/full_relax_RP_5_Rx0Rz_0-Ry0.in
# Created using the Atomic Simulation Environment (ASE)
# Fri Mar 14 11:33:50 2025
#=======================================================
lattice_vector 10.0802728319430166 0.0000000012930147 0.0084842269112847 
lattice_vector 0.0000000012902544 10.0854730922952669 -0.0000000043754474 
lattice_vector 0.0018086003022934 -0.0000000250748601 55.1971268261087573 
atom -0.1828013249227247 0.0000002925769523 0.2874411382280543 Ba
atom 5.1946423978914922 0.0000001847750835 0.2900740507458247 Ba
atom 0.1545067376400711 5.0427362911698115 0.2858324918625928 Ba
atom 4.8573338412056000 5.0427364016464225 0.2916840745985159 Ba
atom -0.0148749410865485 0.0000001040360646 4.9649923412521026 Ba
atom 4.9725556542026803 0.0000000529310370 4.9487637212327726 Ba
atom -0.0675808437971460 5.0427365576719634 4.9445215741928292 Ba
atom 5.0252600639353560 5.0427366135925613 4.9692345217666860 Ba
atom 2.5023001536141320 2.4994957397164130 2.3388519533099870 Zr
atom 7.5424379122185066 2.5432394632378452 2.3430931835480902 Zr
atom 2.5023007612484243 7.5859770497136561 2.3388505565877460 Zr
atom 7.5424373237019369 7.5422333707806493 2.3430943758208653 Zr
atom 2.5039810130241480 2.5204913314568138 7.3566624396325766 Zr
atom 7.5441172131521839 2.5222441428483298 7.3609092864926389 Zr
atom 2.5039811771961222 7.5649815025773757 7.3566645006660991 Zr
atom 7.5441170635904617 7.5632286428440381 7.3609077846467486 Zr
atom 2.5065758901566468 2.8066318752572070 -0.1402563962843180 S
atom 7.5467130169931558 2.2361047421768192 -0.1360179820469918 S
atom 2.5065758374666811 7.2788412856153242 -0.1402566996455712 S
atom 7.5467130722529472 7.8493681432824491 -0.1360151916750401 S
atom 2.5065310615955849 2.0614301014590781 4.8838704671790039 S
atom 7.5466661308058613 2.9813067285805772 4.8881189890864851 S
atom 2.5065309817266970 8.0240430595178953 4.8838732037757797 S
atom 7.5466662181862256 7.1041665533750997 4.8881171061727366 S
atom 2.5065814007085758 -0.0000011304334811 2.0435691911271179 S
atom 7.5392462894279726 -0.0000005900116716 2.7814408436433551 S
atom 2.4991098957916122 5.0427377679077781 2.7771990305460208 S
atom 7.5467176772594451 5.0427369604308891 2.0478104341244650 S
atom 2.6132900238270205 0.0000005503385181 7.8218795435812885 S
atom 7.4617091317130173 -0.0000000113253266 6.9093936623033345 S
atom 2.4215728258292253 5.0427357414606000 6.9051531572047988 S
atom 7.6534265220542981 5.0427367214560963 7.8261200927864412 S
atom -0.0166824094615389 2.5204497829160237 2.4736159004497296 S
atom 5.0234568439046408 2.5222868172932449 2.4778571455014107 S
atom -0.0166818529833406 7.5650233111444258 2.4736155577852639 S
atom 5.0234562522622870 7.5631862838935016 2.4778567462884817 S
atom -0.0106690716567285 2.4089857257048517 7.3690249853884424 S
atom 5.0294673211846082 2.6337515396886300 7.3732685985346240 S
atom -0.0106694499561617 7.6764875977660489 7.3690246468523535 S
atom 5.0294676892601275 7.4517217346786664 7.3732682831989456 S
atom -0.0149283990926766 -0.0000000862600978 9.8022530078947856 Ba
atom 5.0442642886580220 -0.0000000287635043 9.9069679661464338 Ba
atom 0.0041250748009451 5.0427366612023645 9.9027265093423402 Ba
atom 5.0252091605843772 5.0427366429597669 9.8064956729445427 Ba
atom 0.0157348745880838 0.0000003317067326 14.8393204487586541 Ba
atom 5.0368182374715795 0.0000003749678112 14.7430896060038510 Ba
atom -0.0033194045086431 5.0427361261988866 14.7388484270731244 Ba
atom 5.0558712737526657 5.0427360590109886 14.8435633387811006 Ba
atom 2.5204718770903138 2.5213673251450128 12.3229072537056386 Zr
atom 7.5606083302067484 2.5213682877882100 12.3271477790275839 Zr
atom 2.5204714451753607 7.5641056359510861 12.3229061969585612 Zr
atom 7.5606085505716489 7.5641050371644081 12.3271460896342671 Zr
atom 2.5369627622073057 2.5222451806708079 17.2891547998175383 Zr
atom 7.5770997049565700 2.5204922864127779 17.2933903294806655 Zr
atom 2.5369625391046280 7.5632282408699831 17.2891526937593305 Zr
atom 7.5770999818699778 7.5649815760141399 17.2933932947629110 Zr
atom 2.5161160443821520 3.0194143968794589 9.8440929084026934 S
atom 7.5562539964906748 2.0233229799423822 9.8483385699975177 S
atom 2.5161159843032679 7.0660591209777701 9.8440954552790512 S
atom 7.5562539738345889 8.0621500253306682 9.8483392523561086 S
atom 2.5248279042256456 2.0233217520436355 14.8017239004474845 S
atom 7.5649626389979758 3.0194144241291201 14.8059629464923770 S
atom 2.5248279542725172 8.0621507184280272 14.8017218373043704 S
atom 7.5649625518995407 7.0660589759650394 14.8059619759069303 S
atom 2.4229870881663347 -0.0000014457953616 11.8536589121109159 S
atom 7.6580933471372878 -0.0000014557007015 12.7964012875110384 S
atom 2.6179568863019549 5.0427378698232337 12.7921589946639020 S
atom 7.4631233352210211 5.0427379306256794 11.8579013802089417 S
atom 2.6193712054930063 -0.0000007416496044 17.7406630696033645 S
atom 7.4677902922208235 -0.0000020600813286 16.8281806530281735 S
atom 2.4276538027687331 5.0427373673974163 16.8239364464703200 S
atom 7.6595074179876796 5.0427377831275750 17.7449066983115280 S
atom 0.0004035217798858 2.6400311021282716 12.3207885014887690 S
atom 5.0405402703553221 2.4027056281152390 12.3250288498713978 S
atom 0.0004030667360348 7.4454420634400513 12.3207888589287755 S
atom 5.0405411973939938 7.6827673669749315 12.3250292238169692 S
atom 0.0114774101154959 2.4089850681931742 17.2725475506270598 S
atom 5.0516116254920336 2.6337509730241639 17.2767911307126241 S
atom 0.0114766457169295 7.6764878339117715 17.2725480810103420 S
atom 5.0516122005909887 7.4517221542870296 17.2767916624893196 S
atom 0.0156848867889647 0.0000003245352072 19.6765826589198873 Ba
atom 5.1085233254610092 0.0000003243070236 19.7012954084301484 Ba
atom 0.0683891144624520 5.0427360623420761 19.6970536933837330 Ba
atom 5.0558180205105554 5.0427360752753234 19.6808249821392351 Ba
atom 0.1836095692249190 -0.0000002540450367 24.3541305117532367 Ba
atom 4.8864375515377665 -0.0000002731975024 24.3599821744148279 Ba
atom -0.1536992173325943 5.0427368130359556 24.3557411174622658 Ba
atom 5.2237457397412879 5.0427368365108851 24.3583733657165205 Ba
atom 2.5386426483671167 2.5432412658441041 22.3069662775002762 Zr
atom 7.5787797413468878 2.4994970574327389 22.3112113772858720 Zr
atom 2.5386427474287130 7.5422321667913179 22.3069682762458577 Zr
atom 7.5787796276456483 7.5859760314588698 22.3112119606256947 Zr
atom 2.5344127830960437 2.9813066766589249 19.7619479294796996 S
atom 7.5745505102759747 2.0614293933659584 19.7661848590822977 S
atom 2.5344128467789520 7.1041662864207726 19.7619433168124417 S
atom 7.5745504969819057 8.0240435264304129 19.7661834224708350 S
atom 2.5343681960854982 2.2361054170641776 24.7860694314532424 S
atom 7.5745036641353067 2.8066316681874195 24.7903193589069630 S
atom 2.5343681735232289 7.8493679193631927 24.7860742835919297 S
atom 7.5745036729207342 7.2788414121090605 24.7903192389764655 S
atom 2.5418341115789298 0.0000002696307148 21.8686168557918705 S
atom 7.5744987042682252 0.0000004126230233 22.6064889285217951 S
atom 2.5343624689554494 5.0427365250988858 22.6022472005712096 S
atom 7.5819703623728589 5.0427359916984980 21.8728577801254183 S
atom 0.0174868561794364 2.5204496976696045 22.1679588201383773 S
atom 5.0576263916768847 2.5222865106028522 22.1722000803880732 S
atom 0.0174872136642147 7.5650233079909750 22.1679584260931222 S
atom 5.0576261130360143 7.5631864978324241 22.1721996699515955 S
atom 2.5314442830543999 2.3521653912236125 27.8971184431922659 Ba
atom 7.5715809531625258 2.6905722665102609 27.9013580538036621 Ba
atom 2.5314443434785812 7.7333078480766906 27.8971169789550331 Ba
atom 7.5715808945046499 7.3949008975966590 27.9013580767603280 Ba
atom 2.5276657587786038 2.5483187763423731 32.5672670495063628 Ba
atom 7.5678023846209470 2.4944161425700528 32.5715092104563837 Ba
atom 2.5276657916383329 7.5371542739661255 32.5672672339667741 Ba
atom 7.5678023462465678 7.5910573632932561 32.5715092052822115 Ba
atom 5.0279323014850998 5.0427379524899942 29.9484009713820463 Zr
atom 10.1118900603699622 5.0427376209645010 29.9531410862252017 Zr
atom 5.0717516698469041 10.0854717691225471 29.9489033587945954 Zr
atom 10.0680674011735594 10.0854720418111743 29.9526435738925514 Zr
atom 5.0451418889107753 5.0427376501030663 34.9631891773870009 Zr
atom 10.0862012338255482 5.0427377269316285 34.9675923118344159 Zr
atom 5.0460644582331797 10.0854720864029375 34.9633477267618744 Zr
atom 10.0852781733006367 10.0854719850012220 34.9674307567685503 Zr
atom 5.3393481020817513 5.0427365329765870 27.4698126424176898 S
atom 9.8046210505330951 5.0427365389607486 27.4740684245637183 S
atom 4.7644847957387650 10.0854729722506686 27.4698267507975373 S
atom 10.3794830036796597 10.0854729485505974 27.4740586351062497 S
atom 4.5811061685890468 5.0427360802883712 32.4918585815342809 S
atom 10.5545623491367362 5.0427361085104900 32.4969866061010677 S
atom 5.5144248420085198 10.0854736176251283 32.4927448541936030 S
atom 9.6212417463695079 10.0854735464718548 32.4961010328663349 S
atom 5.0497515835573292 2.5213893098162381 30.0866359694435843 S
atom 10.0898878489503971 2.5213472019557894 30.0908775389105756 S
atom 5.0497514830667409 7.5640837722683738 30.0866362984414195 S
atom 10.0898879504023089 7.5641260027230501 30.0908778296420714 S
atom 5.0456070242546467 2.5213617698330251 34.9802745223461073 S
atom 10.0857428217131009 2.5213759406460841 34.9845161704594290 S
atom 5.0456062981437810 7.5641111861833616 34.9802739017412350 S
atom 10.0857435488273968 7.5640970728278436 34.9845156380790598 S
atom 2.5300372026781375 5.0427362247469638 29.6458179853609778 S
atom 7.5695299840256789 5.0427363569507051 30.3926195457496071 S
atom 2.5293956248976861 10.0854732024114995 30.3883763348778828 S
atom 7.5701806860917928 10.0854734180932670 29.6500591608622592 S
atom 2.5251507404179443 5.0427359804130516 35.4347327404113130 S
atom 7.5660939519500765 5.0427365858228219 34.5046495486928606 S
atom 2.5259637767689402 10.0854735731126635 34.5004079849862890 S
atom 7.5652827201917168 10.0854730262558991 35.4389755998736220 S
atom 2.5234229944643762 2.5130034925910185 37.4578388288465334 Ba
atom 7.5635601549856322 2.5297323768075350 37.4620804063840751 Ba
atom 2.5234228796860410 7.5724693239880487 37.4578384692388440 Ba
atom 7.5635602982510388 7.5557410386241628 37.4620809461463224 Ba
atom 2.5193287670116931 2.5297326515435010 42.3851043194825507 Ba
atom 7.5594660140134797 2.5130048588396767 42.3893467606176841 Ba
atom 2.5193286188045905 7.5557399490310919 42.3851044412078011 Ba
atom 7.5594661347132739 7.5724682908986694 42.3893463073621817 Ba
atom 5.0414443493868184 5.0427375117778057 39.9235929825208515 Zr
atom 10.0815807181810246 5.0427385352672784 39.9278334376210466 Zr
atom 5.0414445552158060 10.0854717606568371 39.9235896213103771 Zr
atom 10.0815799283385825 10.0854713040417021 39.9278348504966516 Zr
atom 5.0377458944144129 5.0427369742852521 44.8839913351206761 Zr
atom 10.0769604478449288 5.0427376165179405 44.8880777242752487 Zr
atom 5.0368225899709644 10.0854725845324467 44.8838392430614235 Zr
atom 10.0778830968557411 10.0854719004806057 44.8882337705561909 Zr
atom 5.5511599341522206 5.0427366057588792 37.4483021336773447 S
atom 9.5759869761828291 5.0427365950511245 37.4517210918772037 S
atom 4.5358508777875768 10.0854729133595544 37.4474761963979077 S
atom 10.5912969134388852 10.0854731210220709 37.4525418288992924 S
atom 4.5317289102999760 5.0427359698231493 42.3988884651222051 S
atom 10.5871748471783000 5.0427360132937773 42.4039501802572829 S
atom 5.5470385885868216 10.0854735113504024 42.3997041089286029 S
atom 9.5718649090100651 10.0854736573929369 42.4031275282914706 S
atom 5.0414441269804815 2.5213648948380047 39.9235928268505660 S
atom 10.0815812849559041 2.5213726937308265 39.9278349970628170 S
atom 5.0414451329049870 7.5641088096539999 39.9235935321070841 S
atom 10.0815802794529841 7.5640997377419117 39.9278355649463421 S
atom 5.0372819297296276 2.5213638729285850 44.8669116678014106 S
atom 10.0774182377702104 2.5213737280674011 44.8711545638338976 S
atom 5.0372816852545297 7.5641090448668988 44.8669110887677363 S
atom 10.0774184869226122 7.5640992877170108 44.8711540997416591 S
atom 2.5217745266828513 5.0427366219793610 39.4431807324239259 S
atom 7.5611143266819987 5.0427358196856655 40.4040046461571762 S
atom 2.5209819121987835 10.0854729416044862 40.3997638397827501 S
atom 7.5619074764864243 10.0854738094109386 39.4474242179608012 S
atom 2.5167928877434051 5.0427362730150209 45.3425354914403727 S
atom 7.5577403124316644 5.0427364537484172 44.4124524160924210 S
atom 2.5176037899282453 10.0854733226038498 44.4082112929676285 S
atom 7.5569298898194104 10.0854731692189574 45.3467784822827724 S
atom 2.5150869539308975 2.4944175469647072 47.2756769528056182 Ba
atom 7.5552227328810506 2.5483198572791546 47.2799191120204298 Ba
atom 2.5150868311817263 7.5910551589604705 47.2756770106834949 Ba
atom 7.5552228579903504 7.5371533330731673 47.2799192380041973 Ba
atom 2.5113077819626106 2.6905715045461287 51.9458254692942987 Ba
atom 7.5514440902676574 2.3521640180892858 51.9500681464894214 Ba
atom 2.5113077403216555 7.3949014517050173 51.9458253337643967 Ba
atom 7.5514441324969370 7.7333088775136032 51.9500666410645735 Ba
atom 5.0549579608589976 5.0427373551627079 49.8987861274089610 Zr
atom 10.0512735125315107 5.0427375625352502 49.9025319832107357 Zr
atom 5.0111369272738333 10.0854721732056074 49.8982922526918600 Zr
atom 10.0950941821942362 10.0854718873060847 49.9030311199154042 Zr
atom 5.5017840053519018 5.0427366088271519 47.3553303525427793 S
atom 9.6085991940930455 5.0427364840995370 47.3586814361609143 S
atom 4.5684630383622800 10.0854729565639616 47.3544397432364690 S
atom 10.5419200855282362 10.0854730275099485 47.3595676888636206 S
atom 4.7435418349449341 5.0427363285493945 52.3773745504454524 S
atom 10.3585400507978509 5.0427363112387615 52.3816001309814752 S
atom 5.3184040340040486 10.0854733488440029 52.3773558197771365 S
atom 9.7836780215837909 10.0854733446203522 52.3816176862652867 S
atom 5.0331379128941913 2.5213876688648029 49.7605479953223337 S
atom 10.0732741014833422 2.5213456265867387 49.7647901113633750 S
atom 5.0331378410840042 7.5640853366689367 49.7605484426811771 S
atom 10.0732741754076933 7.5641275457170458 49.7647905389635810 S
atom 2.5133566305985933 5.0427363091495732 49.4545645827587279 S
atom 7.5528468011109950 5.0427364255599976 50.2013668460318527 S
atom 2.5127103260939094 10.0854731358558496 50.1971245927245207 S
atom 7.5534937052294300 10.0854733024665375 49.4588064346485083 S
