#=======================================================
# FHI-aims file: full_relax/full_relax_RP_3_RxRyRz_-Rx-RyRz.in
# Created using the Atomic Simulation Environment (ASE)
# Fri Mar 14 11:21:25 2025
#=======================================================
lattice_vector 10.0405607476125311 -0.0038631885131578 0.0000000001280110 
lattice_vector -0.0038631885131543 10.0405607476148759 0.0000000001407699 
lattice_vector 0.0000000004667141 0.0000000005130572 35.6782586811660067 
atom 0.0652405479904740 -0.1514224067518903 0.2341136127400565 Ba
atom 5.1717027813897243 -0.0671721344924494 0.2341136411823257 Ba
atom 0.1494908294514352 4.9550398220910727 0.2341136487001462 Ba
atom 5.0835893105103782 4.8669263537856979 0.2341136115137753 Ba
atom -0.2329675268509667 0.1821138894550476 4.9712486894515573 Ba
atom 4.8381665006100514 0.2310359330214038 4.9712486847723456 Ba
atom -0.1840454760977648 5.2532478785873957 4.9712487044128846 Ba
atom 4.7853812620346439 5.2004626464371464 4.9712487051591712 Ba
atom 2.5074026319366771 2.5103887103628497 2.3841531152598341 Zr
atom 7.5282404737145869 2.5090145735689808 2.3841531878238942 Zr
atom 2.5060284829693567 7.5312265656866719 2.3841531665431788 Zr
atom 7.5257513386753025 7.5287375517510391 2.3841531771845639 Zr
atom 2.5091743752857067 2.5091744069777735 7.4329705284886334 Zr
atom 7.5294548134246186 2.5072428855766242 7.4329705134215303 Zr
atom 2.5072428489343430 7.5294547476330997 7.4329706096033306 Zr
atom 7.5275231545047996 7.5275231199302306 7.4329705689969909 Zr
atom 2.6837963971654362 2.7756685880891574 -0.1180733752583422 S
atom 7.2629605811240916 2.3326208209535224 -0.1180734167662689 S
atom 2.2407486051293137 7.3548327673726721 -0.1180734634889851 S
atom 7.7021451560840006 7.7940173572265596 -0.1180734507719817 S
atom 2.2469087656476852 2.1995402992953288 4.9339941152385505 S
atom 7.8390888682790782 2.7695084404158865 4.9339941586735101 S
atom 2.8168768884775450 7.7917204071337318 4.9339940588376434 S
atom 7.2652575393192143 7.2178891029170407 4.9339940894247185 S
atom 2.7322105627935929 0.0078673059104832 2.2059761454266931 S
atom 7.2626396064579746 0.0097065860425778 2.7516848152385616 S
atom 2.2404276353613857 5.0319186450549882 2.7516848261805404 S
atom 7.7505593456980986 5.0262160482175471 2.2059761221843317 S
atom 2.8808624929511999 -0.0038430072092511 7.7379534436639252 S
atom 7.1596982805225924 -0.0000202520551587 7.1279876870024133 S
atom 2.1374863103303121 5.0221917411958099 7.1279876948741050 S
atom 7.8992112663115641 5.0145057372657238 7.7379534313913005 S
atom -0.0097989805899340 2.2880698256678773 2.2059761291921403 S
atom 5.0067104638361943 2.7759895779566799 2.7516848032980050 S
atom -0.0155014199499796 7.7982015359529893 2.7516848355991521 S
atom 5.0085498945956131 7.3064185939471287 2.2059761486375451 S
atom 0.0019113248560326 2.1394179018690624 7.7379534305518849 S
atom 5.0164374053008354 2.8789308921271304 7.1279876838432479 S
atom -0.0057746509866099 7.9011428746896204 7.1279876938162836 S
atom 5.0202601411771299 7.1577666942520954 7.7379534411013555 S
atom 0.2329675209328670 -0.1821138759530595 9.8946924257560003 Ba
atom 5.2023942433285244 -0.2348991204321448 9.8946924222013681 Ba
atom 0.1801822733274465 4.7873128570354657 9.8946924158982394 Ba
atom 5.2513163027158489 4.8362349140994709 9.8946924159342355 Ba
atom -0.0652405274829630 0.1514224145938572 14.6318274941907678 Ba
atom 4.8688579479045480 0.0633089584400499 14.6318275008281624 Ba
atom -0.1533539896033290 5.0855209280478251 14.6318274797131611 Ba
atom 4.9531082193544176 5.1697711927522221 14.6318274600808405 Ba
atom 2.5109462607561475 2.5079600818366909 12.4817880886446062 Zr
atom 7.5306691044160132 2.5054709211018138 12.4817878994186859 Zr
atom 2.5084571279398493 7.5276828714380075 12.4817879807357581 Zr
atom 7.5292950538954182 7.5263088521618959 12.4817880102090850 Zr
atom 2.7714400571106195 2.8188084765606458 9.9319470124563658 S
atom 7.2198206916443315 2.2449771467805935 9.9319470060633410 S
atom 2.1976087281040226 7.2671891225316667 9.9319469534478220 S
atom 7.7897888337191272 7.8371572677375587 9.9319469793861686 S
atom 2.3345524045160517 2.2426801883477969 14.9840144394481953 S
atom 7.7959489804721347 2.6818647863968090 14.9840146734253228 S
atom 2.7737369908597311 7.7040767407549708 14.9840145334333137 S
atom 7.3529012030949250 7.2610289666850507 14.9840145066645576 S
atom 2.7779211924200893 -0.0135698434256874 12.1142562925761617 S
atom 7.3083502275495551 -0.0117304239477766 12.6599649680063120 S
atom 2.2861382533293293 5.0104816261372953 12.6599649833829346 S
atom 7.7962699703286482 5.0047790085364898 12.1142562903106050 S
atom 0.0116381346467367 2.2423591890827019 12.1142562878947935 S
atom 5.0281475520760326 2.7302789455383838 12.6599649698258929 S
atom 0.0059355948521353 7.7524909098687171 12.6599649866546287 S
atom 5.0299869241184334 7.2607079779333068 12.1142562995569740 S
atom 2.4439338637530224 2.6605967581753331 18.0732429674128419 Ba
atom 7.3780323183380485 2.5724833322724017 18.0732429473885610 Ba
atom 2.3558204261564590 7.5946953352876250 18.0732429726770505 Ba
atom 7.4622825899996927 7.6789455686208479 18.0732429727884423 Ba
atom 2.7421419294492435 2.3270605291120137 22.8103780453732696 Ba
atom 7.7115686192523540 2.2742752942517135 22.8103780735531139 Ba
atom 2.6893566750633959 7.2964872186680312 22.8103780330483730 Ba
atom 7.7604906901794655 7.3454092663614317 22.8103780576364379 Ba
atom 5.0201206891069567 5.0171345321872316 20.2232826674036090 Zr
atom 10.0398434133543901 5.0146453747349593 20.2232826767342715 Zr
atom 5.0176314225690941 10.0368574007333464 20.2232824262033191 Zr
atom 10.0384694718482201 10.0354832241566978 20.2232827074219941 Zr
atom 5.0183488448575311 5.0183486552530523 25.2720997242885943 Zr
atom 10.0386291459351504 5.0164172615275531 25.2720998571162561 Zr
atom 5.0164173683745652 10.0386292916772817 25.2720998749960906 Zr
atom 10.0366974664779658 10.0366974699422808 25.2720999854110033 Zr
atom 4.8437267872956458 4.7518545962503236 17.7210559019100664 S
atom 10.3051233620313134 5.1910391782408745 17.7210557853007238 S
atom 5.2829114021275725 10.2132511595527156 17.7210560096291339 S
atom 9.8620755416485455 9.7702033474510497 17.7210557217480726 S
atom 5.2806143979331797 5.3279828868505668 22.7731235349857641 S
atom 9.7289950898660837 4.7541515339302336 22.7731234241576281 S
atom 4.7067831041680090 9.7763635175563159 22.7731234599568175 S
atom 10.2989632139083689 10.3463316516986250 22.7731232732098618 S
atom 5.2870955577060048 2.4956044691825934 20.5908141151810895 S
atom 9.8175245934857234 2.4974439598962350 20.0451054976103364 S
atom 4.7953126211353849 7.5196557709087530 20.0451054424195192 S
atom 10.3054443318150550 7.5139533765662856 20.5908141591472820 S
atom 5.3900368643288656 2.5053314532652498 24.9671170271867169 S
atom 9.6688726813825063 2.5091541962232640 25.5770828104959200 S
atom 4.6466606891159490 7.5313660904861122 25.5770827793592126 S
atom 10.4083856739445597 7.5236801504093016 24.9671170609820940 S
atom 2.5208125896545615 4.7515336064541804 20.5908141302612222 S
atom 7.5373219691961681 5.2394533508556318 20.0451054434673672 S
atom 2.5151101127006283 10.2616653285911816 20.0451054894199281 S
atom 7.5391614196869137 9.7698823977680149 20.5908141622903678 S
atom 2.5110857814176870 4.6485922882116215 24.9671170309804964 S
atom 7.5256117186736606 5.3881052826259559 25.5770827829534255 S
atom 2.5033997041798943 10.4103172542897084 25.5770828039084499 S
atom 7.5294344842499221 9.6669410662101711 24.9671170513312894 S
atom 2.2762068702950073 2.6912882682919199 27.7338217652265477 Ba
atom 7.3473408854675997 2.7402103046695943 27.7338217360408557 Ba
atom 2.3251288846428104 7.7624222866040604 27.7338217668641356 Ba
atom 7.2945556769987370 7.7096370615227592 27.7338217413578967 Ba
atom 2.5744149342483080 2.3577519762648733 32.4709568239235935 Ba
atom 7.6808771857916591 2.4420022504353289 32.4709568167680374 Ba
atom 2.6586651843007596 7.4642142398143605 32.4709568363891279 Ba
atom 7.5927637452933512 7.3761007868944146 32.4709568292915378 Ba
atom 5.0165769542354992 5.0195630785925855 30.3209170663585574 Zr
atom 10.0374148856223684 5.0181889576201471 30.3209173512962771 Zr
atom 5.0152028567693661 10.0404009554766311 30.3209173372089573 Zr
atom 10.0349257868692714 10.0379118675872263 30.3209171555917862 Zr
atom 4.7560831506553187 4.7087147068331978 27.7710763899546649 S
atom 10.3482632609294303 5.2786828150322789 27.7710763388280704 S
atom 5.3260512845036905 10.3008947769776622 27.7710763691235236 S
atom 9.7744319611535655 9.7270634814331309 27.7710762456576816 S
atom 5.1929707949208455 5.2848429828047951 32.8231441909760164 S
atom 9.7721349529784103 4.8417951948318816 32.8231437685753420 S
atom 4.7499229963449947 9.8640071568990901 32.8231437924375342 S
atom 10.2113195547750362 10.3031917488600051 32.8231439866598151 S
atom 5.2413849660297069 2.5170416209134183 30.4990943237622645 S
atom 9.7718139939347424 2.5188810149001384 29.9533856690531088 S
atom 4.7496020297703394 7.5410930686724402 29.9533856330295265 S
atom 10.2597337335650263 7.5353905465586841 30.4990943552077525 S
atom 2.4993754986849908 4.7972442009756930 30.4990943206924996 S
atom 7.5158848079911662 5.2851639510279753 29.9533856423366665 S
atom 2.4936728192672657 10.3073759162601064 29.9533856641708347 S
atom 7.5177243377587857 9.8155929761593317 30.4990943528331364 S
