#=======================================================
# FHI-aims file: full_relax/full_relax_RP_2_Rx0Rz_0-RyRz.in
# Created using the Atomic Simulation Environment (ASE)
# Fri Mar 14 11:17:55 2025
#=======================================================
lattice_vector 10.1108459755361828 0.0000520843106300 0.0004709796270235 
lattice_vector 0.0000520843106302 10.1108459755367903 0.0004709796269380 
lattice_vector -0.0011962356676619 -0.0011962356678943 25.3660295661678461 
atom -0.1548540308827548 -0.0000241971200382 0.2814230994696512 Ba
atom 5.2102573827794876 0.0000235921245751 0.2816691037160782 Ba
atom 0.1548604371213846 5.0554205374320178 0.2816691040353351 Ba
atom 4.9005949990725446 5.0554248325061550 0.2818940788653184 Ba
atom 0.0481617096654122 -0.0002466998325742 4.8780923126446147 Ba
atom 5.0068011874560314 -0.0001873490423230 4.8783083952646455 Ba
atom -0.0485957583528445 5.0552095969593509 4.8783083950878154 Ba
atom 5.1036107397963697 5.0552023304620048 4.8785632923943174 Ba
atom 2.5276113719831641 2.5153670336467546 2.3475511114967156 Zr
atom 7.5830361120093492 2.5398775574197137 2.3477946718431881 Zr
atom 2.5276391652936150 7.5952745030516660 2.3477946727056747 Zr
atom 7.5830604032603146 7.5708160631506400 2.3480220925352766 Zr
atom 2.5273758156625066 2.5151374246084894 7.4090770150551730 Zr
atom 7.5828005540566270 2.5396479473564777 7.4093205746005379 Zr
atom 2.5274036087452880 7.5950448930430410 7.4093205745475093 Zr
atom 7.5828248455905314 7.5705864545269197 7.4095479938371751 Zr
atom 2.5277787573759340 2.8831430188932399 -0.1397434136536944 S
atom 7.5831400049721838 2.1723277863865356 -0.1395353160795823 S
atom 2.5277430595089512 7.2277247321757212 -0.1395353163696974 S
atom 7.5832277872168738 7.9385920489105981 -0.1392724346172875 S
atom 2.5274602925114320 2.0898319415101017 4.8782968378685858 S
atom 7.5829516344054095 2.9651830399863841 4.8785748485446154 S
atom 2.5275546889864660 8.0205799857125228 4.8785748474843782 S
atom 7.5829093224319735 7.1452809712969563 4.8787678166871524 S
atom 2.5276062378785702 -0.0000905788836630 2.0403744576134955 S
atom 7.5829952053897589 -0.0000985367777242 2.8004511214576158 S
atom 2.5275982599979465 5.0552984089949700 2.8004511215206223 S
atom 7.5830552675814298 5.0553584514120438 2.0408454372064826 S
atom 2.5273566593197865 -0.0003434684821375 7.7160262502821331 S
atom 7.5828136671379909 -0.0002834270294108 6.9564205657609142 S
atom 2.5274167215336361 5.0551135167621810 6.9564205656530724 S
atom 7.5828056892360962 5.0551055597605385 7.7164972299232319 S
atom -0.0001008649047944 2.5275841446119918 2.4610059069888499 S
atom 5.0553169016139252 2.5276055912370774 2.4613419791576607 S
atom -0.0000800437522139 7.5830025369085874 2.4613419790855553 S
atom 5.0553481642356157 7.5830331745986674 2.4614768865872509 S
atom -0.0003331823646430 2.5273787524600859 7.2953948006392855 S
atom 5.0550950250364179 2.5274093901729984 7.2955297081455459 S
atom -0.0003019208465457 7.5828063358048308 7.2955297082572788 S
atom 5.0551158471741289 7.5828277824077635 7.2958657804211340 S
atom -0.1552944856340849 -0.0004576405453203 9.4747316034281592 Ba
atom 5.2098169280124687 -0.0004098512896651 9.4749776078613372 Ba
atom 0.1544199824191383 5.0549870944827875 9.4749776079957062 Ba
atom 4.9001545442352183 5.0549913895475145 9.4752025829966620 Ba
atom 2.5272719220171860 2.8826871948287089 9.8964070040914809 S
atom 7.5826331696433211 2.1718719624558527 9.8966151021235671 S
atom 2.5272362241608017 7.2272689081100623 9.8966151027092959 S
atom 7.5827209518928971 7.9381362249706724 9.8968779844449006 S
atom 2.5271021994684468 2.3722723663422438 12.9646733723088197 Ba
atom 7.5825469351063663 2.6819868344724380 12.9649193769706681 Ba
atom 2.5271499891581968 7.7373837797844187 12.9649193767391981 Ba
atom 7.5825512297194466 7.4277213959846504 12.9651443520624863 Ba
atom 2.5268796977587642 2.5752881065629989 17.5613425854861163 Ba
atom 7.5823359936304255 2.4785306385481234 17.5615586678755626 Ba
atom 2.5269390486197882 7.5339275848024387 17.5615586678831725 Ba
atom 7.5823287271085329 7.6307371371354931 17.5618135649614082 Ba
atom 5.0424934316532726 5.0547377712345050 15.0308013850302782 Zr
atom 10.1224008987507244 5.0547655617260103 15.0310449432549706 Zr
atom 5.0670039549202288 10.1101625074262618 15.0310449465010070 Zr
atom 10.0979424603773165 10.1101868009330165 15.0312723647244635 Zr
atom 5.0422638213888336 5.0545022117613039 20.0923272887148094 Zr
atom 10.1221712904721652 5.0545300065307526 20.0925708500623337 Zr
atom 5.0667743457234051 10.1099269530616098 20.0925708479048382 Zr
atom 10.0977128504673850 10.1099512420393847 20.0927982674499503 Zr
atom 5.4102694159128877 5.0549051543688588 12.5435068585879606 S
atom 9.7548511293422919 5.0548694566611374 12.5437149570452355 S
atom 4.6994541835278332 10.1102664023328241 12.5437149550078573 S
atom 10.4657184460873456 10.1103541842698217 12.5439778377982041 S
atom 4.6169583383695807 5.0545866898155571 17.5615471108853924 S
atom 10.5477063827857958 5.0546810860762346 17.5618251227027748 S
atom 5.4923094372100678 10.1100780317838570 17.5618251213631424 S
atom 9.6724073686683383 10.1100357195332808 17.5620180917008355 S
atom 5.0547105416768998 2.5270255319349717 15.1442561798564412 S
atom 10.1101289341234892 2.5270463535580716 15.1445922519987235 S
atom 5.0547319882720663 7.5824432981557974 15.1445922519728704 S
atom 10.1101595718335115 7.5824745615116598 15.1447271595134012 S
atom 5.0545051495666469 2.5267932143446563 19.9786450735351053 S
atom 10.1099327330160857 2.5268244774701043 19.9787799807983646 S
atom 5.0545357872733048 7.5822214207713783 19.9787799810052640 S
atom 10.1099541796112984 7.5822422431624812 19.9791160529685250 S
atom 2.5270358184556043 5.0547326349381292 14.7236247304005214 S
atom 7.5824248061950135 5.0547246570425814 15.4837013944599118 S
atom 2.5270278601758149 10.1101216026513949 15.4837013944735151 S
atom 7.5824848484540794 10.1101816648710390 14.7240957099305003 S
atom 2.5267829259617995 5.0544830566385937 20.3992765227818857 S
atom 7.5822399164071745 5.0545431188419405 19.6396708384849532 S
atom 2.5268429681804814 10.1099400643409698 19.6396708384201730 S
atom 7.5822319584618576 10.1099320864181141 20.3997475025170303 S
atom 2.5266687570292801 2.3718319115831195 22.1579818765870300 Ba
atom 7.5821134912580801 2.6815463795616292 22.1582278810137971 Ba
atom 2.5267165458986569 7.7369433250538480 22.1582278810603874 Ba
atom 7.5821177866836234 7.4272809413326568 22.1584528561402720 Ba
atom 5.4098135920598560 5.0543983193824111 22.5796572763192849 S
atom 9.7543953054383490 5.0543626212154047 22.5798653723670348 S
atom 4.6989983594952953 10.1097595667609923 22.5798653746616935 S
atom 10.4652626220291953 10.1098473490849816 22.5801282562590160 S
