#=======================================================
# FHI-aims file: full_relax/full_relax_RP_3_00Mz_00Mz.in
# Created using the Atomic Simulation Environment (ASE)
# Fri Mar 14 11:18:52 2025
#=======================================================
lattice_vector 9.9102514221506794 0.0000014603229869 -0.0000000000000662 
lattice_vector 0.0000014603229869 9.9102514221488409 0.0000000000003523 
lattice_vector -0.0000000000002646 0.0000000000011934 36.4535894262288167 
atom 0.0000000000423273 0.0000000000821251 0.1681474959829258 Ba
atom 4.9551257110289431 0.0000007301891947 0.1681474959707656 Ba
atom 0.0000007301404312 4.9551257110290834 0.1681474960107182 Ba
atom 4.9551264411947145 4.9551264410600444 0.1681474960394026 Ba
atom 0.0000000000352567 0.0000000000792815 5.0644093883974737 Ba
atom 4.9551257110925873 0.0000007301886281 5.0644093882332299 Ba
atom 0.0000007301785154 4.9551257110436788 5.0644093882648509 Ba
atom 4.9551264412583089 4.9551264411323448 5.0644093883194863 Ba
atom 2.4775632205998366 2.4775632206408735 2.4502760412745275 Zr
atom 7.4326889316673013 2.4775639508084133 2.4502760413579203 Zr
atom 2.4775639507814127 7.4326889317126144 2.4502760412824478 Zr
atom 7.4326896618651457 7.4326896619072240 2.4502760412335287 Zr
atom 2.4775632206294995 2.4775632206441118 7.5944977971400851 Zr
atom 7.4326889316813300 2.4775639507573710 7.5944977971429593 Zr
atom 2.4775639507868226 7.4326889317371574 7.5944977971096188 Zr
atom 7.4326896618187686 7.4326896618420006 7.5944977971438892 Zr
atom 2.4775632206321667 2.4775632206403206 -0.0969194891702805 S
atom 7.4326889316466280 2.4775639508013043 -0.0969194890543910 S
atom 2.4775639507718514 7.4326889317407874 -0.0969194890717411 S
atom 7.4326896618231038 7.4326896618387934 -0.0969194891261895 S
atom 2.4775632206875886 2.4775632205918519 5.0437111086032269 S
atom 7.4326889316531810 2.4775639507926090 5.0437111086286510 S
atom 2.4775639508147891 7.4326889316613736 5.0437111086006094 S
atom 7.4326896618256031 7.4326896619389702 5.0437111086121220 S
atom 2.0542813436417284 0.0000024075391925 2.5328504942883110 S
atom 7.8559700786549609 -0.0000009471454497 2.5328504943116239 S
atom 2.9008450976446882 4.9551240337141715 2.5328504943100985 S
atom 7.0094077848126108 4.9551288487598937 2.5328504942388004 S
atom 3.0118364784188407 -0.0000003622179344 7.5944977971427887 S
atom 6.8984149437139157 0.0000018225786254 7.5944977972206837 S
atom 1.9432899629006004 4.9551268034805140 7.5944977971417051 S
atom 7.9669629196565293 4.9551260789786609 7.5944977972306340 S
atom -0.0000016773547077 2.9008443673900834 2.5328504942661172 S
atom 4.9551281185873837 2.0542820738516983 2.5328504941992840 S
atom 0.0000031376735936 7.0094070546963270 2.5328504942324690 S
atom 4.9551247638993114 7.8559708086531117 2.5328504942168020 S
atom 0.0000010924025897 1.9432892326631030 7.5944977971973326 S
atom 4.9551253488498146 3.0118372085566536 7.5944977971554062 S
atom 0.0000003679108423 7.9669621895567433 7.5944977971090148 S
atom 4.9551275336426563 6.8984156738601774 7.5944977972052721 S
atom 0.0000000000427796 0.0000000000671611 10.1245862059738112 Ba
atom 4.9551257111491314 0.0000007302141070 10.1245862060641638 Ba
atom 0.0000007301821944 4.9551257110413349 10.1245862059562963 Ba
atom 4.9551264412867635 4.9551264410864135 10.1245862060624834 Ba
atom -0.0000000000424316 0.0000000001483819 15.0208480983014319 Ba
atom 4.9551257110813181 0.0000007302081553 15.0208480982671375 Ba
atom 0.0000007300537277 4.9551257110084652 15.0208480981200427 Ba
atom 4.9551264412239959 4.9551264410402913 15.0208480980584635 Ba
atom 2.4775632205870766 2.4775632206134328 12.7387195529597577 Zr
atom 7.4326889316903495 2.4775639508257714 12.7387195528912631 Zr
atom 2.4775639507399680 7.4326889316978519 12.7387195528823263 Zr
atom 7.4326896618462284 7.4326896619311666 12.7387195529765123 Zr
atom 2.4775632206210330 2.4775632205952873 10.1452844857076272 S
atom 7.4326889316710272 2.4775639507326455 10.1452844857280891 S
atom 2.4775639508111773 7.4326889317176370 10.1452844856858935 S
atom 7.4326896618283040 7.4326896618528373 10.1452844857358677 S
atom 2.4775632206676610 2.4775632206177352 15.2859150833548085 S
atom 7.4326889316289311 2.4775639507983236 15.2859150833184181 S
atom 2.4775639508371881 7.4326889317186149 15.2859150832224628 S
atom 7.4326896617953437 7.4326896617885705 15.2859150833427506 S
atom 2.0542813435901590 0.0000024075342625 12.6561451001515195 S
atom 7.8559700785959130 -0.0000009471491213 12.6561451000692990 S
atom 2.9008450976349791 4.9551240337092288 12.6561450999847729 S
atom 7.0094077849834386 4.9551288487617207 12.6561451001537328 S
atom -0.0000016773472669 2.9008443674358189 12.6561450999659098 S
atom 4.9551281185906593 2.0542820739527241 12.6561451002066345 S
atom 0.0000031376634146 7.0094070545848748 12.6561450999859488 S
atom 4.9551247638901641 7.8559708086746847 12.6561451001851957 S
atom 2.4775632205978009 2.4775632206339098 18.3949422092107469 Ba
atom 7.4326889316468314 2.4775639506794800 18.3949422089983052 Ba
atom 2.4775639507822276 7.4326889317509153 18.3949422089445385 Ba
atom 7.4326896617362364 7.4326896618409357 18.3949422091594101 Ba
atom 2.4775632205921192 2.4775632205944627 23.2912041010786020 Ba
atom 7.4326889316866795 2.4775639508766516 23.2912041014021547 Ba
atom 2.4775639508199561 7.4326889317538853 23.2912041013469810 Ba
atom 7.4326896618497651 7.4326896619356981 23.2912041013879403 Ba
atom 4.9551264412739302 4.9551264412853753 20.6770707543258574 Zr
atom 9.9102521523123297 4.9551271714246727 20.6770707543256442 Zr
atom 4.9551271714602807 9.9102521522718376 20.6770707543661416 Zr
atom 9.9102528825140013 9.9102528824235048 20.6770707543578958 Zr
atom 4.9551264412339533 4.9551264412415339 25.8212925102454172 Zr
atom 9.9102521523573017 4.9551271713676410 25.8212925101444704 Zr
atom 4.9551271714200125 9.9102521523287539 25.8212925102436301 Zr
atom 9.9102528825296101 9.9102528824316103 25.8212925102370257 Zr
atom 4.9551264411799210 4.9551264413507559 18.1298752239882930 S
atom 9.9102521522923066 4.9551271714163363 18.1298752240166010 S
atom 4.9551271714084288 9.9102521523299707 18.1298752240057937 S
atom 9.9102528825688250 9.9102528824259064 18.1298752240078187 S
atom 4.9551264412480105 4.9551264412506226 23.2705058216874470 S
atom 9.9102521523308535 4.9551271715006866 23.2705058216301701 S
atom 4.9551271713319407 9.9102521520737845 23.2705058216813221 S
atom 9.9102528825203571 9.9102528824409575 23.2705058216351723 S
atom 5.3784075880388995 2.4775615432610292 20.7596452072046525 S
atom 9.4869702753624150 2.4775663582819156 20.7596452071554474 S
atom 4.5318452943897460 7.4326913391973175 20.7596452071604070 S
atom 10.3335340293269056 7.4326879844942830 20.7596452072375293 S
atom 4.4208524532596361 2.4775643130164480 25.8212925104100215 S
atom 10.4445254101185228 2.4775635885326124 25.8212925102649855 S
atom 5.4894004291885308 7.4326885694636085 25.8212925103766011 S
atom 9.3759788946309026 7.4326907542635192 25.8212925101623796 S
atom 2.4775656281474556 4.5318445642907808 20.7596452072467201 S
atom 7.4326872543448808 5.3784083183735545 20.7596452074760123 S
atom 2.4775622734708880 10.3335332989409370 20.7596452071578668 S
atom 7.4326920693919618 9.4869710054482415 20.7596452071920794 S
atom 2.4775628584054257 5.4893996991592227 25.8212925103644224 S
atom 7.4326900241035885 4.4208531834939935 25.8212925103295312 S
atom 2.4775650432213383 9.3759781643032447 25.8212925104183668 S
atom 7.4326892996168219 10.4445261402740464 25.8212925104374662 S
atom 2.4775632206365659 2.4775632206489830 28.3513809192815636 Ba
atom 7.4326889316742415 2.4775639507544200 28.3513809192484949 Ba
atom 2.4775639508128218 7.4326889317322991 28.3513809190102961 Ba
atom 7.4326896616867222 7.4326896618265001 28.3513809190299249 Ba
atom 2.4775632206512843 2.4775632205846323 33.2476428107889106 Ba
atom 7.4326889316818203 2.4775639508954046 33.2476428113111950 Ba
atom 2.4775639508277445 7.4326889317740665 33.2476428110031037 Ba
atom 7.4326896616392784 7.4326896618661689 33.2476428108913495 Ba
atom 4.9551264412084022 4.9551264413442784 30.9655142659790208 Zr
atom 9.9102521522707452 4.9551271714909539 30.9655142658750258 Zr
atom 4.9551271714820002 9.9102521523189022 30.9655142658453180 Zr
atom 9.9102528824820819 9.9102528824190390 30.9655142659048614 Zr
atom 4.9551264412848557 4.9551264413674394 28.3720791988200176 S
atom 9.9102521522640430 4.9551271714441958 28.3720791987296188 S
atom 4.9551271713584244 9.9102521522189573 28.3720791988098604 S
atom 9.9102528824829204 9.9102528823966569 28.3720791987403267 S
atom 4.9551264413017648 4.9551264413086713 33.5127097963428540 S
atom 9.9102521523627747 4.9551271715192051 33.5127097962589033 S
atom 4.9551271713613829 9.9102521521050786 33.5127097962363507 S
atom 9.9102528823692566 9.9102528823017622 33.5127097962490552 S
atom 5.3784075878586766 2.4775615432907778 30.8829398132530670 S
atom 9.4869702755553558 2.4775663582793017 30.8829398131773978 S
atom 4.5318452945682610 7.4326913392139424 30.8829398130636115 S
atom 10.3335340293709805 7.4326879844988341 30.8829398130216468 S
atom 2.4775656281456211 4.5318445645957883 30.8829398130833077 S
atom 7.4326872543426523 5.3784083181183409 30.8829398129516477 S
atom 2.4775622734558844 10.3335332987347677 30.8829398130124737 S
atom 7.4326920693965404 9.4869710054517657 30.8829398127585080 S
