#=======================================================
# FHI-aims file: full_relax/full_relax_RP_1_Rx0Mz_0RyMz.in
# Created using the Atomic Simulation Environment (ASE)
# Fri Mar 14 11:17:03 2025
#=======================================================
lattice_vector 10.1083997533928986 0.0000243595730228 -0.0003358439917650 
lattice_vector 0.0000243595730232 10.1083997533911880 0.0003358439923942 
lattice_vector 0.0005100181922475 -0.0005100181911995 15.5284656698157679 
atom -0.1566165759552343 -0.0000283362693763 0.2394987676592141 Ba
atom 5.2108316165053461 0.0000260430534779 0.2393220668079775 Ba
atom 0.1566439194845712 5.0542137424863691 0.2396579094329270 Ba
atom 4.8975954803158910 5.0541837228595092 0.2394987696624362 Ba
atom 0.1567759570010223 -0.0001310448868621 4.6131467534612201 Ba
atom 4.8977275177857607 -0.0001610633511598 4.6129876119087490 Ba
atom -0.1564601795303959 5.0540266309631736 4.6133234566366905 Ba
atom 5.2109880132319013 5.0540810090408668 4.6131467536692377 Ba
atom 2.5271857218220739 2.5270263315159074 2.4263227658274586 Zr
atom 7.5813855884872341 2.5270385178236494 2.4261548439287139 Zr
atom 2.5271978994441238 7.5812262075849519 2.4264906809312312 Zr
atom 7.5813977720069170 7.5812383956163014 2.4263227592436118 Zr
atom 2.5271211159399667 2.8451035443633312 -0.1070334132475486 S
atom 7.5812757617542674 2.2091273843066324 -0.1072236647624694 S
atom 2.5270880653258057 7.2633150783360865 -0.1068878165531670 S
atom 7.5813331723797459 7.8993156026273335 -0.1070334091410100 S
atom 2.5272503192051645 2.2089491274645510 4.9596789291178212 S
atom 7.5814954290520671 2.8449496516486095 4.9595333378482263 S
atom 2.5273077305106399 7.8991373467103854 4.9598691856842869 S
atom 7.5814623777002215 7.2631611867719030 4.9596789326923583 S
atom 2.5271714685707178 -0.0000638456880063 2.1154460917472044 S
atom 7.5813876641520475 -0.0000711630975955 2.7368635857417418 S
atom 2.5271999659550097 5.0541165481247168 2.7371994294544453 S
atom 7.5813835260748075 5.0541481974351932 2.1154460914295385 S
atom 0.0000863867554019 2.5270183284498295 2.4263850770337445 S
atom 5.0542850575513469 2.5270343436444018 2.4262604435972577 S
atom 0.0000973598339482 7.5812220404646302 2.4265962887950416 S
atom 5.0542984408738016 7.5812303849117741 2.4263850771549516 S
atom 2.5273893747428309 2.6834675958982288 8.0037315966798896 Ba
atom 7.5815470468231521 2.3702314604195376 8.0035548937281948 Ba
atom 2.5273593537575612 7.4244191553311785 8.0038907386627418 Ba
atom 7.5816014284072413 7.7376796506372143 8.0037315972702849 Ba
atom 2.5274920830561904 2.3700750604066871 12.3773795940048075 Ba
atom 7.5817341597379304 2.6833355582089418 12.3772204526765126 Ba
atom 2.5275464587634975 7.7375232566661571 12.3775562965800052 Ba
atom 7.5817041425867000 7.4242871188348900 12.3773795941777287 Ba
atom 5.0545467540277302 5.0538773604991496 10.1905555864953588 Zr
atom 10.1087466261885144 5.0538895352490902 10.1903876748386768 Zr
atom 5.0545589290945081 10.1080772494013793 10.1907235136031478 Zr
atom 10.1087588158795825 10.1080893940641161 10.1905556025929300 Zr
atom 4.7364695460911452 5.0539419626072215 7.6571994404303423 S
atom 10.4266577657701749 5.0539993666668108 7.6570091818028807 S
atom 5.3724700698470240 10.1081870684490713 7.6573450294444028 S
atom 9.7906816031640584 10.1081540134986394 7.6571994316649992 S
atom 5.3726239628537646 5.0538127576059644 12.7239117612045955 S
atom 9.7908354973816039 5.0537796997658395 12.7237661639681363 S
atom 4.7366478016231053 10.1079674029104929 12.7241020097998465 S
atom 10.4268360199759211 10.1080248098660768 12.7239117532392019 S
atom 5.0545387466795502 2.5267780015024051 10.1904932798723191 S
atom 10.1087424584500933 2.5267890167809584 10.1902820686930298 S
atom 5.0545547618125717 7.5809766738126196 10.1906179124049636 S
atom 10.1087508028913522 7.5809900994855148 10.1904932795061445 S
atom 2.5274565675055434 5.0538631077639593 10.5014322637593605 S
atom 7.5816369587424290 5.0538916053445870 9.8796789287918276 S
atom 2.5274492615434050 10.1080793026201583 9.8800147728696306 S
atom 7.5816686202043373 10.1080751648080280 10.5014322637945465 S
