#=======================================================
# FHI-aims file: full_relax/full_relax_RP_5_00Mz_00Mz.in
# Created using the Atomic Simulation Environment (ASE)
# Fri Mar 14 11:28:31 2025
#=======================================================
lattice_vector 9.9098561912630441 -0.0000000188569680 0.0000000000000020 
lattice_vector -0.0000000188569680 9.9098561912632039 -0.0000000000000050 
lattice_vector 0.0000000000000108 -0.0000000000000277 56.9122338266444530 
atom 0.0000000000003098 -0.0000000000004939 0.1654436686927578 Ba
atom 4.9549280956303967 -0.0000000094289060 0.1654436686934242 Ba
atom -0.0000000094293994 4.9549280956307094 0.1654436686934364 Ba
atom 4.9549280862023908 4.9549280862023188 0.1654436686933901 Ba
atom -0.0000000000004483 -0.0000000000008927 5.0674319614687189 Ba
atom 4.9549280956315602 -0.0000000094290609 5.0674319614678627 Ba
atom -0.0000000094281722 4.9549280956302546 5.0674319614699046 Ba
atom 4.9549280862023153 4.9549280862025284 5.0674319614679577 Ba
atom 2.4774640431009729 2.4774640431005728 2.4403097312421291 Zr
atom 7.4323921387322711 2.4774640336722276 2.4403097312407764 Zr
atom 2.4774640336724341 7.4323921387323404 2.4403097312404238 Zr
atom 7.4323921293040245 7.4323921293039676 2.4403097312423432 Zr
atom 2.4774640431008903 2.4774640431010897 7.5795955612273138 Zr
atom 7.4323921387320020 2.4774640336722236 7.5795955612263404 Zr
atom 2.4774640336724585 7.4323921387328369 7.5795955612268253 Zr
atom 7.4323921293034427 7.4323921293035156 7.5795955612266317 Zr
atom 2.4774640431012407 2.4774640431009307 -0.1037082712558075 S
atom 7.4323921387314273 2.4774640336723075 -0.1037082712566993 S
atom 2.4774640336721387 7.4323921387321619 -0.1037082712568754 S
atom 7.4323921293039650 7.4323921293039295 -0.1037082712547864 S
atom 2.4774640431012704 2.4774640431014112 5.0385220493722436 S
atom 7.4323921387326184 2.4774640336723053 5.0385220493719327 S
atom 2.4774640336731477 7.4323921387313661 5.0385220493718883 S
atom 7.4323921293032784 7.4323921293042918 5.0385220493718972 S
atom 2.0533187209988122 0.0000076283511904 2.5312735654820697 S
atom 7.8565374702636523 -0.0000076472107774 2.5312735654808689 S
atom 2.9016093652038704 4.9549204578488517 2.5312735654809120 S
atom 7.0082468072003081 4.9549357145544297 2.5312735654810976 S
atom 2.9973499127265519 0.0000010833452338 7.5898192280345818 S
atom 6.9125062785343223 -0.0000011022042029 7.5898192280367605 S
atom 1.9575781734757554 4.9549270028561709 7.5898192280366317 S
atom 7.9522779989296817 4.9549291695482056 7.5898192280340799 S
atom -0.0000076377823443 2.9016093746320526 2.5312735654813139 S
atom 4.9549357239831506 2.0533187115691507 2.5312735654820209 S
atom 0.0000076189232637 7.0082468166299599 2.5312735654810763 S
atom 4.9549204484204745 7.8565374608353178 2.5312735654806078 S
atom -0.0000010927756473 1.9575781829044068 7.5898192280356502 S
atom 4.9549291789766912 2.9973499032985957 7.5898192280348322 S
atom 0.0000010739164315 7.9522780083579452 7.5898192280346937 S
atom 4.9549269934275033 6.9125062691056618 7.5898192280351475 S
atom -0.0000000000026265 -0.0000000000012032 10.1531469545140602 Ba
atom 4.9549280956289330 -0.0000000094298834 10.1531469545137316 Ba
atom -0.0000000094301897 4.9549280956301445 10.1531469545132005 Ba
atom 4.9549280862005665 4.9549280862016447 10.1531469545136321 Ba
atom 0.0000000000019251 -0.0000000000004175 15.2541002895293012 Ba
atom 4.9549280956327797 -0.0000000094283533 15.2541002895291484 Ba
atom -0.0000000094283345 4.9549280956315647 15.2541002895288287 Ba
atom 4.9549280862042666 4.9549280862033278 15.2541002895294042 Ba
atom 2.4774640431017358 2.4774640431014228 12.7036236220218708 Zr
atom 7.4323921387328804 2.4774640336726432 12.7036236220216949 Zr
atom 2.4774640336728773 7.4323921387320215 12.7036236220221976 Zr
atom 7.4323921293044206 7.4323921293042225 12.7036236220210217 Zr
atom 2.4774640431016959 2.4774640431010497 17.8276516828156133 Zr
atom 7.4323921387323733 2.4774640336724985 17.8276516828164340 Zr
atom 2.4774640336731681 7.4323921387319629 17.8276516828179545 Zr
atom 7.4323921293040485 7.4323921293040343 17.8276516828152367 Zr
atom 2.4774640431017034 2.4774640431000443 10.1466440182054445 S
atom 7.4323921387315970 2.4774640336746159 10.1466440182054018 S
atom 2.4774640336722218 7.4323921387325154 10.1466440182054729 S
atom 7.4323921293045530 7.4323921293012027 10.1466440182052065 S
atom 2.4774640431000803 2.4774640431032107 15.2606032258390201 S
atom 7.4323921387321379 2.4774640336722888 15.2606032258388939 S
atom 2.4774640336720184 7.4323921387301208 15.2606032258393149 S
atom 7.4323921293030137 7.4323921293051285 15.2606032258383628 S
atom 2.9770294831425010 0.0000003159540384 12.7036236220235672 S
atom 6.9328267081186334 -0.0000003348128527 12.7036236220212277 S
atom 1.9778986030589241 4.9549277702471786 12.7036236220194922 S
atom 7.9319575693461539 4.9549284021573792 12.7036236220236969 S
atom 2.9973499127249417 0.0000010833452512 17.8174280160087584 S
atom 6.9125062785348286 -0.0000011022039099 17.8174280160101581 S
atom 1.9575781734769921 4.9549270028559391 17.8174280160102612 S
atom 7.9522779989288015 4.9549291695482092 17.8174280160062253 S
atom -0.0000003253842270 1.9778986124878200 12.7036236220210839 S
atom 4.9549284115857812 2.9770294737141247 12.7036236220219969 S
atom 0.0000003065257154 7.9319575787741075 12.7036236220224676 S
atom 4.9549277608188111 6.9328266986896319 12.7036236220211496 S
atom -0.0000010927753923 1.9575781829053918 17.8174280160105738 S
atom 4.9549291789767720 2.9973499032977058 17.8174280160088792 S
atom 0.0000010739168859 7.9522780083561146 17.8174280160083320 S
atom 4.9549269934277991 6.9125062691065553 17.8174280160095044 S
atom -0.0000000000001958 -0.0000000000009022 20.3398152825732943 Ba
atom 4.9549280956290715 -0.0000000094291153 20.3398152825748362 Ba
atom -0.0000000094289041 4.9549280956310096 20.3398152825730314 Ba
atom 4.9549280862015994 4.9549280862019787 20.3398152825748255 Ba
atom -0.0000000000013611 -0.0000000000011862 25.2418035753464913 Ba
atom 4.9549280956298745 -0.0000000094304218 25.2418035753468182 Ba
atom -0.0000000094289102 4.9549280956308497 25.2418035753485057 Ba
atom 4.9549280862019671 4.9549280862024538 25.2418035753463741 Ba
atom 2.4774640431006514 2.4774640431001305 22.9669375128000226 Zr
atom 7.4323921387324550 2.4774640336724731 22.9669375128024384 Zr
atom 2.4774640336722493 7.4323921387318368 22.9669375128026374 Zr
atom 7.4323921293039312 7.4323921293039534 22.9669375128016320 Zr
atom 2.4774640431017789 2.4774640430999928 20.3687251946709900 S
atom 7.4323921387316636 2.4774640336736957 20.3687251946715548 S
atom 2.4774640336727747 7.4323921387340697 20.3687251946714980 S
atom 7.4323921293044455 7.4323921293017445 20.3687251946708621 S
atom 2.4774640431010222 2.4774640431016000 25.5109555152979937 S
atom 7.4323921387325012 2.4774640336721299 25.5109555152995000 S
atom 2.4774640336726854 7.4323921387315783 25.5109555153003065 S
atom 7.4323921293032429 7.4323921293042865 25.5109555152991589 S
atom 2.0533187210001005 0.0000076283509343 22.8759736785596317 S
atom 7.8565374702629551 -0.0000076472110018 22.8759736785590384 S
atom 2.9016093652015513 4.9549204578493828 22.8759736785566936 S
atom 7.0082468072015294 4.9549357145548196 22.8759736785597845 S
atom -0.0000076377823862 2.9016093746301754 22.8759736785588288 S
atom 4.9549357239832288 2.0533187115707872 22.8759736785603991 S
atom 0.0000076189233751 7.0082468166313046 22.8759736785589567 S
atom 4.9549204484205074 7.8565374608347156 22.8759736785588537 S
atom 2.4774640431013268 2.4774640431000972 28.6215605820199137 Ba
atom 7.4323921387316449 2.4774640336723048 28.6215605820191819 Ba
atom 2.4774640336720433 7.4323921387316831 28.6215605820197148 Ba
atom 7.4323921293026478 7.4323921293029667 28.6215605820201979 Ba
atom 2.4774640430999115 2.4774640431006980 33.5235488747899097 Ba
atom 7.4323921387310588 2.4774640336737583 33.5235488747920485 Ba
atom 2.4774640336723239 7.4323921387317453 33.5235488747888226 Ba
atom 7.4323921293028592 7.4323921293038140 33.5235488747830743 Ba
atom 4.9549280862024583 4.9549280862019334 30.8964266445662261 Zr
atom 9.9098561818337814 4.9549280767741193 30.8964266445682227 Zr
atom 4.9549280767734709 9.9098561818334545 30.8964266445670468 Zr
atom 9.9098561724053198 9.9098561724061458 30.8964266445661266 Zr
atom 4.9549280862020462 4.9549280862019689 36.0357124745510973 Zr
atom 9.9098561818335238 4.9549280767726032 36.0357124745499817 Zr
atom 4.9549280767739390 9.9098561818333426 36.0357124745496478 Zr
atom 9.9098561724037868 9.9098561724039627 36.0357124745512039 Zr
atom 4.9549280862024201 4.9549280862034140 28.3524086420678216 S
atom 9.9098561818318647 4.9549280767744772 28.3524086420679424 S
atom 4.9549280767748716 9.9098561818319233 28.3524086420690189 S
atom 9.9098561724039129 9.9098561724026659 28.3524086420675765 S
atom 4.9549280862041831 4.9549280862040606 33.4946389626944310 S
atom 9.9098561818338027 4.9549280767740980 33.4946389626941397 S
atom 4.9549280767731947 9.9098561818316888 33.4946389626941325 S
atom 9.9098561724054743 9.9098561724052026 33.4946389626945660 S
atom 5.3790734177336308 2.4774564053196007 30.9873904788097789 S
atom 9.4857108597294140 2.4774716620253390 30.9873904788059598 S
atom 4.5307827546709536 7.4323997670847968 30.9873904788073276 S
atom 10.3340015039369266 7.4323844915228001 30.9873904788066596 S
atom 4.4350422260063267 2.4774629503254699 36.0459361413542467 S
atom 10.4297420514598365 2.4774651170176329 36.0459361413569326 S
atom 5.4748139463986494 7.4323932220784865 36.0459361413539696 S
atom 9.3899703122052678 7.4323910365287889 36.0459361413539767 S
atom 2.4774716714531801 4.5307827640987073 30.9873904788077468 S
atom 7.4323845009508176 5.3790734083058576 30.9873904788091323 S
atom 2.4774563958909819 10.3340015133662906 30.9873904788073453 S
atom 7.4323997576567660 9.4857108503019010 30.9873904788087700 S
atom 2.4774651264461989 5.4748139558252573 36.0459361413527262 S
atom 7.4323910459578206 4.4350422165777070 36.0459361413552912 S
atom 2.4774629408970248 9.3899703216380406 36.0459361413555897 S
atom 7.4323932126496413 10.4297420420319931 36.0459361413573518 S
atom 2.4774640431016803 2.4774640430997761 38.6092638678377043 Ba
atom 7.4323921387343344 2.4774640336679323 38.6092638678336328 Ba
atom 2.4774640336739222 7.4323921387326068 38.6092638678322757 Ba
atom 7.4323921293054243 7.4323921293026647 38.6092638678358497 Ba
atom 2.4774640430988777 2.4774640431026187 43.7102172028499538 Ba
atom 7.4323921387294281 2.4774640336751208 43.7102172028532365 Ba
atom 2.4774640336703406 7.4323921387315286 43.7102172028519007 Ba
atom 7.4323921293022988 7.4323921293038344 43.7102172028496412 Ba
atom 4.9549280862027256 4.9549280862016314 41.1597405353477797 Zr
atom 9.9098561818336712 4.9549280767736077 41.1597405353477654 Zr
atom 4.9549280767732817 9.9098561818337085 41.1597405353446959 Zr
atom 9.9098561724055987 9.9098561724054832 41.1597405353472539 Zr
atom 4.9549280862017895 4.9549280862020977 46.2837685961412149 Zr
atom 9.9098561818338027 4.9549280767741157 46.2837685961398151 Zr
atom 4.9549280767731725 9.9098561818333017 46.2837685961397156 Zr
atom 9.9098561724046821 9.9098561724043961 46.2837685961407814 Zr
atom 4.9549280862016332 4.9549280861996117 38.6027609315268592 S
atom 9.9098561818331454 4.9549280767755883 38.6027609315272855 S
atom 4.9549280767760289 9.9098561818363979 38.6027609315260847 S
atom 9.9098561724041847 9.9098561724049414 38.6027609315271363 S
atom 4.9549280862032150 4.9549280862037151 43.7167201391618576 S
atom 9.9098561818312554 4.9549280767704911 43.7167201391616942 S
atom 4.9549280767736130 9.9098561818326516 43.7167201391607563 S
atom 9.9098561724046821 9.9098561724062595 43.7167201391611826 S
atom 4.4553626555882966 2.4774637177171290 41.1597405353474741 S
atom 10.4094216218753104 2.4774643496272559 41.1597405353460388 S
atom 5.4544935168125503 7.4323924546867746 41.1597405353416050 S
atom 9.4102907417943893 7.4323918039201402 41.1597405353490871 S
atom 4.4350422260060736 2.4774629503257906 46.2735449293292405 S
atom 10.4297420514593391 2.4774651170181836 46.2735449293279260 S
atom 5.4748139463994034 7.4323932220779030 46.2735449293327576 S
atom 9.3899703122085416 7.4323910365284940 46.2735449293274854 S
atom 2.4774643590557566 5.4544935262431862 41.1597405353450583 S
atom 7.4323918133483566 4.4553626461605953 41.1597405353453212 S
atom 2.4774637082887105 9.4102907512205984 41.1597405353434667 S
atom 7.4323924452585066 10.4094216124467813 41.1597405353448025 S
atom 2.4774651264464995 5.4748139558264066 46.2735449293322105 S
atom 7.4323910459575178 4.4350422165785668 46.2735449293337808 S
atom 2.4774629408973716 9.3899703216356212 46.2735449293334398 S
atom 7.4323932126493721 10.4297420420303535 46.2735449293304271 S
atom 2.4774640431026236 2.4774640431021684 48.7959321958973078 Ba
atom 7.4323921387325766 2.4774640336722857 48.7959321958973860 Ba
atom 2.4774640336727818 7.4323921387325376 48.7959321958995744 Ba
atom 7.4323921293035342 7.4323921293013422 48.7959321958989563 Ba
atom 2.4774640431001980 2.4774640430999799 53.6979204886723309 Ba
atom 7.4323921387336389 2.4774640336731042 53.6979204886691832 Ba
atom 2.4774640336736362 7.4323921387316698 53.6979204886715777 Ba
atom 7.4323921293039392 7.4323921293025554 53.6979204886730557 Ba
atom 4.9549280862017930 4.9549280862019875 51.4230544261273224 Zr
atom 9.9098561818328808 4.9549280767742188 51.4230544261245086 Zr
atom 4.9549280767742196 9.9098561818333479 51.4230544261240823 Zr
atom 9.9098561724047691 9.9098561724052132 51.4230544261258089 Zr
atom 4.9549280862026865 4.9549280862003675 48.8248421079937103 S
atom 9.9098561818325539 4.9549280767753823 48.8248421079936321 S
atom 4.9549280767743644 9.9098561818338826 48.8248421079942361 S
atom 9.9098561724039893 9.9098561724047318 48.8248421079936747 S
atom 4.9549280862030338 4.9549280862026892 53.9670724286213286 S
atom 9.9098561818333710 4.9549280767741140 53.9670724286201846 S
atom 4.9549280767751238 9.9098561818334634 53.9670724286212220 S
atom 9.9098561724037584 9.9098561724035452 53.9670724286227284 S
atom 5.3790734177341015 2.4774564053197055 51.3320905918842669 S
atom 9.4857108597300357 2.4774716620243749 51.3320905918829169 S
atom 4.5307827546709527 7.4323997670853572 51.3320905918805011 S
atom 10.3340015039349886 7.4323844915227655 51.3320905918856951 S
atom 2.4774716714530927 4.5307827640999951 51.3320905918831158 S
atom 7.4323845009503859 5.3790734083066729 51.3320905918822916 S
atom 2.4774563958905351 10.3340015133650542 51.3320905918854749 S
atom 7.4323997576564222 9.4857108503009311 51.3320905918883099 S
