#=======================================================
# FHI-aims file: full_relax/full_relax_RP_3_000_000.in
# Created using the Atomic Simulation Environment (ASE)
# Fri Mar 14 11:18:48 2025
#=======================================================
lattice_vector 10.0669275617161773 -0.0000000000000000 0.0000000000000015 
lattice_vector -0.0000000000000000 10.0669275617161773 0.0000000000000009 
lattice_vector 0.0000000000000056 0.0000000000000032 35.6209449274094609 
atom -0.0000000000000091 0.0000000000000878 0.2881932588308533 Ba
atom 5.0334637808582334 -0.0000000000000196 0.2881932588308468 Ba
atom -0.0000000000000617 5.0334637808581162 0.2881932588305324 Ba
atom 5.0334637808582494 5.0334637808582920 0.2881932588307610 Ba
atom -0.0000000000000973 -0.0000000000000516 5.0110249352919443 Ba
atom 5.0334637808583507 -0.0000000000000060 5.0110249352920349 Ba
atom -0.0000000000000570 5.0334637808582929 5.0110249352920082 Ba
atom 5.0334637808582414 5.0334637808580895 5.0110249352921281 Ba
atom 2.5167318904291718 2.5167318904292326 2.3348500488740207 Zr
atom 7.5501956712870832 2.5167318904293157 2.3348500488742889 Zr
atom 2.5167318904291180 7.5501956712871801 2.3348500488741548 Zr
atom 7.5501956712870610 7.5501956712872129 2.3348500488742276 Zr
atom 2.5167318904291935 2.5167318904291918 7.4210301932102478 Zr
atom 7.5501956712871481 2.5167318904291962 7.4210301932103953 Zr
atom 2.5167318904291416 7.5501956712871570 7.4210301932108234 Zr
atom 7.5501956712871436 7.5501956712871392 7.4210301932105001 Zr
atom 2.5167318904291416 2.5167318904291514 -0.1621917579163309 S
atom 7.5501956712872884 2.5167318904291847 -0.1621917579161446 S
atom 2.5167318904292983 7.5501956712873719 -0.1621917579163719 S
atom 7.5501956712871827 7.5501956712871969 -0.1621917579162710 S
atom 2.5167318904295093 2.5167318904291567 4.9111655972822970 S
atom 7.5501956712868354 2.5167318904292424 4.9111655972827757 S
atom 2.5167318904292317 7.5501956712871170 4.9111655972825368 S
atom 7.5501956712870042 7.5501956712872431 4.9111655972824577 S
atom 2.5167318904296332 0.0000000000000526 2.4514033975612795 S
atom 7.5501956712868976 0.0000000000001269 2.4514033975608949 S
atom 2.5167318904294884 5.0334637808581126 2.4514033975612408 S
atom 7.5501956712867182 5.0334637808581002 2.4514033975613190 S
atom 2.5167318904298539 0.0000000000000798 7.4210301932105125 S
atom 7.5501956712864562 0.0000000000000810 7.4210301932107638 S
atom 2.5167318904290066 5.0334637808580620 7.4210301932108278 S
atom 7.5501956712875646 5.0334637808580283 7.4210301932106955 S
atom 0.0000000000000018 2.5167318904295777 2.4514033975611809 S
atom 5.0334637808582441 2.5167318904295368 2.4514033975612333 S
atom 0.0000000000000035 7.5501956712868319 2.4514033975609797 S
atom 5.0334637808581784 7.5501956712866125 2.4514033975612697 S
atom -0.0000000000000369 2.5167318904292451 7.4210301932107772 S
atom 5.0334637808580949 2.5167318904295994 7.4210301932108109 S
atom -0.0000000000000435 7.5501956712869660 7.4210301932107621 S
atom 5.0334637808581721 7.5501956712868212 7.4210301932106395 S
atom -0.0000000000000344 -0.0000000000000747 9.8310354511297451 Ba
atom 5.0334637808581748 -0.0000000000001135 9.8310354511297096 Ba
atom -0.0000000000000583 5.0334637808583240 9.8310354511297113 Ba
atom 5.0334637808582485 5.0334637808582521 9.8310354511297895 Ba
atom -0.0000000000000045 -0.0000000000001829 14.5538671275907650 Ba
atom 5.0334637808582920 -0.0000000000000827 14.5538671275905394 Ba
atom 0.0000000000001318 5.0334637808584857 14.5538671275899389 Ba
atom 5.0334637808582450 5.0334637808584102 14.5538671275899567 Ba
atom 2.5167318904291176 2.5167318904291540 12.5072103375471748 Zr
atom 7.5501956712871516 2.5167318904291358 12.5072103375468284 Zr
atom 2.5167318904292264 7.5501956712872209 12.5072103375475425 Zr
atom 7.5501956712871321 7.5501956712872049 12.5072103375471286 Zr
atom 2.5167318904290834 2.5167318904294365 9.9308947891392840 S
atom 7.5501956712874225 2.5167318904293672 9.9308947891395682 S
atom 2.5167318904290776 7.5501956712871490 9.9308947891392734 S
atom 7.5501956712871374 7.5501956712870948 9.9308947891391099 S
atom 2.5167318904293632 2.5167318904292744 15.0042521443381300 S
atom 7.5501956712871694 2.5167318904292060 15.0042521443377517 S
atom 2.5167318904293676 7.5501956712873435 15.0042521443381691 S
atom 7.5501956712871054 7.5501956712874012 15.0042521443380465 S
atom 2.5167318904294875 -0.0000000000000847 12.3906569888607869 S
atom 7.5501956712868958 -0.0000000000000564 12.3906569888609273 S
atom 2.5167318904296452 5.0334637808583729 12.3906569888601918 S
atom 7.5501956712866773 5.0334637808583436 12.3906569888606306 S
atom 0.0000000000000772 2.5167318904294387 12.3906569888607123 S
atom 5.0334637808580105 2.5167318904295146 12.3906569888608917 S
atom 0.0000000000000178 7.5501956712868559 12.3906569888605773 S
atom 5.0334637808581046 7.5501956712867404 12.3906569888609148 S
atom 2.5167318904298277 2.5167318904290616 18.0986657225386978 Ba
atom 7.5501956712866143 2.5167318904290350 18.0986657225371808 Ba
atom 2.5167318904296048 7.5501956712870140 18.0986657225366372 Ba
atom 7.5501956712868106 7.5501956712871516 18.0986657225373193 Ba
atom 2.5167318904294196 2.5167318904294191 22.8214973989972201 Ba
atom 7.5501956712868941 2.5167318904294902 22.8214973989964172 Ba
atom 2.5167318904295954 7.5501956712870131 22.8214973989964527 Ba
atom 7.5501956712869243 7.5501956712870033 22.8214973989970957 Ba
atom 5.0334637808582636 5.0334637808583382 20.1453225125785167 Zr
atom 10.0669275617162750 5.0334637808583498 20.1453225125785274 Zr
atom 5.0334637808581819 10.0669275617163443 20.1453225125787014 Zr
atom 10.0669275617162466 10.0669275617164136 20.1453225125792095 Zr
atom 5.0334637808582237 5.0334637808582130 25.2315026569164687 Zr
atom 10.0669275617162892 5.0334637808582459 25.2315026569176979 Zr
atom 5.0334637808582263 10.0669275617164669 25.2315026569168950 Zr
atom 10.0669275617162732 10.0669275617164065 25.2315026569166463 Zr
atom 5.0334637808582228 5.0334637808581109 17.6482807057892259 S
atom 10.0669275617161205 5.0334637808580318 17.6482807057887356 S
atom 5.0334637808581961 10.0669275617160405 17.6482807057886433 S
atom 10.0669275617163656 10.0669275617162217 17.6482807057895172 S
atom 5.0334637808581553 5.0334637808580913 22.7216380609877007 S
atom 10.0669275617163478 5.0334637808580966 22.7216380609883544 S
atom 5.0334637808582299 10.0669275617163461 22.7216380609874307 S
atom 10.0669275617164296 10.0669275617163709 22.7216380609878641 S
atom 5.0334637808579696 2.5167318904291691 20.2618758612662226 S
atom 10.0669275617164367 2.5167318904294511 20.2618758612649614 S
atom 5.0334637808583071 7.5501956712873479 20.2618758612647873 S
atom 10.0669275617162235 7.5501956712872218 20.2618758612653949 S
atom 5.0334637808580744 2.5167318904292859 25.2315026569153495 S
atom 10.0669275617163301 2.5167318904295772 25.2315026569155805 S
atom 5.0334637808581775 7.5501956712871587 25.2315026569161134 S
atom 10.0669275617160530 7.5501956712870699 25.2315026569159926 S
atom 2.5167318904292921 5.0334637808582032 20.2618758612652243 S
atom 7.5501956712871907 5.0334637808580363 20.2618758612654197 S
atom 2.5167318904292393 10.0669275617167830 20.2618758612653735 S
atom 7.5501956712872555 10.0669275617162501 20.2618758612654197 S
atom 2.5167318904290403 5.0334637808580611 25.2315026569152465 S
atom 7.5501956712875540 5.0334637808580878 25.2315026569152145 S
atom 2.5167318904291212 10.0669275617163247 25.2315026569161667 S
atom 7.5501956712873319 10.0669275617165432 25.2315026569153069 S
atom 2.5167318904291043 2.5167318904296958 27.6415079148344809 Ba
atom 7.5501956712871499 2.5167318904296470 27.6415079148347225 Ba
atom 2.5167318904291047 7.5501956712867102 27.6415079148344667 Ba
atom 7.5501956712871214 7.5501956712867937 27.6415079148344383 Ba
atom 2.5167318904295053 2.5167318904298366 32.3643395912966767 Ba
atom 7.5501956712869314 2.5167318904297886 32.3643395912970888 Ba
atom 2.5167318904294467 7.5501956712865255 32.3643395912966341 Ba
atom 7.5501956712870983 7.5501956712864766 32.3643395912967335 Ba
atom 5.0334637808582032 5.0334637808581588 30.3176828012531168 Zr
atom 10.0669275617163194 5.0334637808581890 30.3176828012530777 Zr
atom 5.0334637808581411 10.0669275617163407 30.3176828012535893 Zr
atom 10.0669275617162928 10.0669275617163194 30.3176828012529569 Zr
atom 5.0334637808583045 5.0334637808580140 27.7413672528447712 S
atom 10.0669275617161880 5.0334637808583018 27.7413672528468709 S
atom 5.0334637808582690 10.0669275617163958 27.7413672528446504 S
atom 10.0669275617161880 10.0669275617164189 27.7413672528446540 S
atom 5.0334637808579963 5.0334637808579403 32.8147246080441519 S
atom 10.0669275617167102 5.0334637808581499 32.8147246080439885 S
atom 5.0334637808579492 10.0669275617162732 32.8147246080445427 S
atom 10.0669275617167262 10.0669275617162874 32.8147246080441732 S
atom 5.0334637808579750 2.5167318904291296 30.2011294525643379 S
atom 10.0669275617164402 2.5167318904291647 30.2011294525642455 S
atom 5.0334637808582050 7.5501956712874536 30.2011294525645404 S
atom 10.0669275617164331 7.5501956712874243 30.2011294525639649 S
atom 2.5167318904296252 5.0334637808581020 30.2011294525650023 S
atom 7.5501956712868790 5.0334637808583489 30.2011294525649419 S
atom 2.5167318904293099 10.0669275617165610 30.2011294525638654 S
atom 7.5501956712871756 10.0669275617164047 30.2011294525641354 S
