#=======================================================
# FHI-aims file: full_relax/full_relax_RP_7_RxRy0_RxRy0.in
# Created using the Atomic Simulation Environment (ASE)
# Mon Mar 24 15:37:11 2025
#=======================================================
lattice_vector 10.0669419044286883 0.0944689546952449 -0.0000000000000343 
lattice_vector 0.0944689546952729 10.0669419044314949 0.0000000000000285 
lattice_vector -0.0000000000002636 0.0000000000002187 75.1459993214884747 
atom -0.0988991505029819 -0.0988991505306611 0.2790207924390506 Ba
atom 5.1323701027147948 0.1461336278789893 0.2790207924403248 Ba
atom 0.1461336278482408 5.1323701027465134 0.2790207924399651 Ba
atom 4.9818062790582571 4.9818062790321198 0.2790207924368723 Ba
atom -0.0078086478056563 -0.0078086478145765 4.9551046206921905 Ba
atom 5.0412796000411637 0.0550431251385827 4.9551046206918246 Ba
atom 0.0550431251755885 5.0412796000063747 4.9551046206919684 Ba
atom 5.0728967817551078 5.0728967817481445 4.9551046206920226 Ba
atom 2.5274805034841004 2.5274805034832339 2.3449903550448146 Zr
atom 7.5866958782925664 2.6004594034264850 2.3449903550456677 Zr
atom 2.6004594034268043 7.5866958782929803 2.3449903550442759 Zr
atom 7.6081859330440738 7.6081859330444530 2.3449903550465754 Zr
atom 2.5424143562394601 2.5424143562426007 7.3714448056686672 Zr
atom 7.5717620255333618 2.5855255506679957 7.3714448056680810 Zr
atom 2.5855255506667962 7.5717620255363123 7.3714448056660764 Zr
atom 7.6231197858022854 7.6231197858074653 7.3714448056735007 Zr
atom 2.7280924385960774 2.7280924385330874 -0.1391204802489324 S
atom 7.3860839431806884 2.3998474683772195 -0.1391204802501209 S
atom 2.3998474683146935 7.3860839432442047 -0.1391204802482726 S
atom 7.8087978681571411 7.8087978680952093 -0.1391204802556604 S
atom 2.2323437517808546 2.2323437518395441 4.8943479325849477 S
atom 7.8818326299880450 2.8955961550761353 4.8943479325769879 S
atom 2.8955961551207694 7.8818326299436956 4.8943479325856813 S
atom 7.3130491813428948 7.3130491814028593 4.8943479325789694 S
atom 2.5167354761026863 0.0236172386726750 2.1933853869220123 S
atom 7.5502064283275079 0.0708517160203425 2.7006801534994209 S
atom 2.5639699534608691 5.0570881908886962 2.7006801534971774 S
atom 7.5974409056644276 5.1043226682372760 2.1933853869245246 S
atom 2.5167354760805969 0.0236172386750763 7.7244586283832044 S
atom 7.5502064283424755 0.0708517160204271 7.0362942707500329 S
atom 2.5639699534759171 5.0570881908900320 7.0362942707498153 S
atom 7.5974409056423644 5.1043226682373906 7.7244586283840073 S
atom 0.0236172386746047 2.5167354761103442 2.1933853868639828 S
atom 5.0570881908861258 2.5639699534488463 2.7006801535424567 S
atom 0.0708517160230697 7.5502064283166703 2.7006801535432929 S
atom 5.1043226682340110 7.5974409056733823 2.1933853868638371 S
atom 0.0236172386711783 2.5167354761327214 7.7244586284182377 S
atom 5.0570881908882912 2.5639699534326210 7.0362942707168843 S
atom 0.0708517160168513 7.5502064283007888 7.0362942707163256 S
atom 5.1043226682374803 7.5974409056959384 7.7244586284173433 S
atom 0.0345554182057536 0.0345554182343114 9.8682188611195940 Ba
atom 4.9989155339690701 0.0126790591488351 9.8682188611196313 Ba
atom 0.0126790591024917 4.9989155340178799 9.8682188611197219 Ba
atom 5.1152608477679573 5.1152608477985053 9.8682188611198924 Ba
atom -0.0356555236216280 -0.0356555236585194 14.8253204536297378 Ba
atom 5.0691264758762964 0.0828900009620562 14.8253204536298568 Ba
atom 0.0828900010081021 5.0691264758308145 14.8253204536297840 Ba
atom 5.0450499059419931 5.0450499059057252 14.8253204536297698 Ba
atom 2.5407843350825288 2.5407843350815100 12.3390352211919900 Zr
atom 7.5733920466933915 2.5871555718269170 12.3390352211999694 Zr
atom 2.5871555718272101 7.5733920466943516 12.3390352211984951 Zr
atom 7.6214897646449504 7.6214897646455109 12.3390352211943934 Zr
atom 2.5403527147791016 2.5403527147795946 17.3033551069249008 Zr
atom 7.5738236669964794 2.5875871921302807 17.3033551069198204 Zr
atom 2.5875871921290043 7.5738236669974066 17.3033551069219733 Zr
atom 7.6210581443401395 7.6210581443425767 17.3033551069189429 Zr
atom 2.8899524248448021 2.8899524248029596 9.8612522840763450 S
atom 7.2242239569422315 2.2379874820926986 9.8612522840764392 S
atom 2.2379874820759404 7.2242239569601452 9.8612522840746930 S
atom 7.9706578544065536 7.9706578543666673 9.8612522840801944 S
atom 2.1866848836058757 2.1866848836339772 14.8224100118807502 S
atom 7.9274914981540379 2.9412550232871206 14.8224100118841893 S
atom 2.9412550232872814 7.9274914981554563 14.8224100118818143 S
atom 7.2673903131688924 7.2673903131987601 14.8224100118795672 S
atom 2.5167354760784257 0.0236172386759728 11.9806219972799326 S
atom 7.5502064283500685 0.0708517160216336 12.7082472442432231 S
atom 2.5639699534833156 5.0570881908910694 12.7082472442440810 S
atom 7.5974409056403784 5.1043226682369820 11.9806219972791990 S
atom 2.5167354760753771 0.0236172386733991 17.6680683648388275 S
atom 7.5502064283514096 0.0708517160246123 16.9386418490293842 S
atom 2.5639699534844498 5.0570881908921681 16.9386418490292172 S
atom 7.5974409056377894 5.1043226682342970 17.6680683648387600 S
atom 0.0236172386717378 2.5167354761346337 11.9806219972634640 S
atom 5.0570881908891794 2.5639699534248561 12.7082472442617682 S
atom 0.0708517160196058 7.5502064282931896 12.7082472442618286 S
atom 5.1043226682332117 7.5974409056981287 11.9806219972639258 S
atom 0.0236172386705605 2.5167354761380305 17.6680683648475139 S
atom 5.0570881908887868 2.5639699534240723 16.9386418490201471 S
atom 0.0708517160208972 7.5502064282922285 16.9386418490221047 S
atom 5.1043226682352838 7.5974409057013732 17.6680683648489669 S
atom 0.0356555236188769 0.0356555236615520 19.7813897602341058 Ba
atom 4.9978154285496936 0.0115789537308253 19.7813897602339921 Ba
atom 0.0115789536829117 4.9978154285974457 19.7813897602341164 Ba
atom 5.1163609531801661 5.1163609532233361 19.7813897602339246 Ba
atom -0.0345554181999905 -0.0345554182444874 24.7384913527445320 Ba
atom 5.0680263704579307 0.0817898955456183 24.7384913527442194 Ba
atom 0.0817898955933958 5.0680263704135378 24.7384913527446493 Ba
atom 5.0461500113599680 5.0461500113185194 24.7384913527443260 Ba
atom 2.5399210944809330 2.5399210944798600 22.2676749926732889 Zr
atom 7.5742552872948181 2.5880188124263022 22.2676749926586375 Zr
atom 2.5880188124274093 7.5742552872956352 22.2676749926611990 Zr
atom 7.6206265240430486 7.6206265240424358 22.2676749926693027 Zr
atom 2.5382910733198796 2.5382910733177053 27.2352654082021708 Zr
atom 7.5758853084572220 2.5896488335870127 27.2352654082120829 Zr
atom 2.5896488335915633 7.5758853084564892 27.2352654082059438 Zr
atom 7.6189965028815729 7.6189965028805329 27.2352654082071552 Zr
atom 2.8940205459551525 2.8940205459319399 19.7843002019803755 S
atom 7.2201558358364419 2.2339193609621315 19.7843002019893319 S
atom 2.2339193609696566 7.2201558358307549 19.7843002019826706 S
atom 7.9747259755167441 7.9747259754948123 19.7843002019773984 S
atom 2.1907530047254284 2.1907530047461234 24.7454579298072090 S
atom 7.9234233770371265 2.9371869021792905 24.7454579298037807 S
atom 2.9371869021699526 7.9234233770472500 24.7454579298227877 S
atom 7.2714584342862221 7.2714584343081308 24.7454579298169435 S
atom 2.5167354760744591 0.0236172386703030 21.8984629696090103 S
atom 7.5502064283544561 0.0708517160153697 22.6260882165865169 S
atom 2.5639699534873177 5.0570881908899539 22.6260882165860515 S
atom 7.5974409056365024 5.1043226682465130 21.8984629696100299 S
atom 2.5167354760808851 0.0236172386769670 27.5704159431211124 S
atom 7.5502064283520056 0.0708517160249066 26.8822515854568174 S
atom 2.5639699534859322 5.0570881908850520 26.8822515854589774 S
atom 7.5974409056423688 5.1043226682348752 27.5704159431193609 S
atom 0.0236172386727745 2.5167354761392189 21.8984629696051769 S
atom 5.0570881908830172 2.5639699534218074 22.6260882165930362 S
atom 0.0708517160238914 7.5502064282895223 22.6260882165915760 S
atom 5.1043226682304184 7.5974409057025465 21.8984629696029529 S
atom 0.0236172386687533 2.5167354761334231 27.5704159431262212 S
atom 5.0570881908918244 2.5639699534233227 26.8822515854551440 S
atom 0.0708517160201710 7.5502064282913102 26.8822515854527673 S
atom 5.1043226682368354 7.5974409056963630 27.5704159431236349 S
atom 0.0078086477937022 0.0078086478201919 29.6516055931712970 Ba
atom 5.0256623043921387 0.0394258295520206 29.6516055931713574 Ba
atom 0.0394258295237861 5.0256623044209272 29.6516055931714675 Ba
atom 5.0885140773574511 5.0885140773847093 29.6516055931714000 Ba
atom 0.0988991505161291 0.0988991505152135 34.3276894214344281 Ba
atom 4.9345718016990681 -0.0516646731709253 34.3276894214326447 Ba
atom -0.0516646731690230 4.9345718016965501 34.3276894214336181 Ba
atom 5.1796045800785988 5.1796045800781778 34.3276894214312733 Ba
atom 2.5532249260780548 2.5532249260792184 32.2617198588081422 Zr
atom 7.5609514556950295 2.5747149808309309 32.2617198588070266 Zr
atom 2.5747149808283734 7.5609514556987554 32.2617198588071332 Zr
atom 7.6339303556405333 7.6339303556438782 32.2617198588056269 Zr
atom 2.8483616777537577 2.8483616777429712 29.7123622812847721 S
atom 7.2658147040287062 2.2795782291582687 29.7123622813060884 S
atom 2.2795782291616509 7.2658147040258383 29.7123622812961656 S
atom 7.9290671073162784 7.9290671073064294 29.7123622812944852 S
atom 2.3526129909968918 2.3526129909974389 34.7458306941101966 S
atom 7.7615633907767458 2.7753269159120304 34.7458306941001283 S
atom 2.7753269159103326 7.7615633907805854 34.7458306941037236 S
atom 7.4333184205590195 7.4333184205620491 34.7458306941034962 S
atom 2.5167354760987521 0.0236172386752682 31.9060300603499734 S
atom 7.5502064283249952 0.0708517160194255 32.4133248269715466 S
atom 2.5639699534585421 5.0570881908880816 32.4133248269731951 S
atom 7.5974409056607985 5.1043226682363088 31.9060300603497318 S
atom 0.0236172386770936 2.5167354761144911 31.9060300603487015 S
atom 5.0570881908828946 2.5639699534503428 32.4133248269739411 S
atom 0.0708517160204584 7.5502064283185417 32.4133248269751277 S
atom 5.1043226682352358 7.5974409056780825 31.9060300603489928 S
atom 2.4414535642576358 2.4414535642676602 37.8520204531775661 Ba
atom 7.6727228175165969 2.6864863426410275 37.8520204531789446 Ba
atom 2.6864863426493359 7.6727228175092810 37.8520204531788806 Ba
atom 7.5221589938210007 7.5221589938316784 37.8520204531788949 Ba
atom 2.5325440669742885 2.5325440669709054 42.5281042814403136 Ba
atom 7.5816323147995277 2.5953958399404868 42.5281042814400436 Ba
atom 2.5953958399355392 7.5816323148070941 42.5281042814401218 Ba
atom 7.6132494965337578 7.6132494965323936 42.5281042814405694 Ba
atom 5.0678332182625789 5.0678332182638286 39.9179900157966259 Zr
atom 10.1270485930728480 5.1408121182081246 39.9179900157933005 Zr
atom 5.1408121182067248 10.1270485930762835 39.9179900157959153 Zr
atom 10.1485386478256228 10.1485386478276336 39.9179900157912542 Zr
atom 5.0827670710207560 5.0827670710212276 44.9444444663891147 Zr
atom 10.1121147403143414 5.1258782654504822 44.9444444663956446 Zr
atom 5.1258782654456523 10.1121147403169633 44.9444444663992329 Zr
atom 10.1634725005853888 10.1634725005885986 44.9444444663995739 Zr
atom 5.2684451533352821 5.2684451533515348 37.4338791805179909 S
atom 9.9264366580000072 4.9402001831199254 37.4338791805151700 S
atom 4.9402001831337827 9.9264366579882441 37.4338791805149853 S
atom 10.3491505828980248 10.3491505829157386 37.4338791805104449 S
atom 4.7726964666002942 4.7726964665873801 42.4673475933389710 S
atom 10.4221853447370538 5.4359488698865333 42.4673475932919899 S
atom 5.4359488698710203 10.4221853447539594 42.4673475932909170 S
atom 9.8534018961615928 9.8534018961500092 42.4673475933270055 S
atom 5.0570881908876446 2.5639699534606062 39.7663850476293632 S
atom 10.0905591431017942 2.6112044308013882 40.2736798142691867 S
atom 5.1043226682352474 7.5974409056665424 40.2736798142670835 S
atom 10.1377936204496102 7.6446753830211209 39.7663850476317080 S
atom 5.0570881908870104 2.5639699534539186 45.2974582891583708 S
atom 10.0905591431001689 2.6112044308116480 44.6092939314817372 S
atom 5.1043226682333520 7.5974409056732322 44.6092939314826822 S
atom 10.1377936204495160 7.6446753830024159 45.2974582891579729 S
atom 2.5639699534613110 5.0570881908887584 39.7663850476450946 S
atom 7.5974409056635812 5.1043226682369074 40.2736798142566812 S
atom 2.6112044307978208 10.0905591431047092 40.2736798142579175 S
atom 7.6446753830205534 10.1377936204517329 39.7663850476478373 S
atom 2.5639699534514073 5.0570881908883640 45.2974582891487003 S
atom 7.5974409056725163 5.1043226682365548 44.6092939314880681 S
atom 2.6112044308058824 10.0905591431043007 44.6092939314909884 S
atom 7.6446753830128715 10.1377936204514842 45.2974582891514359 S
atom 2.5749081330025918 2.5749081330049317 47.4412185218662046 Ba
atom 7.5392682487721050 2.5530317739053174 47.4412185218661051 Ba
atom 2.5530317739058752 7.5392682487722009 47.4412185218665314 Ba
atom 7.6556135625637474 7.6556135625674520 47.4412185218661406 Ba
atom 2.5046971911406839 2.5046971911397367 52.3983201143752595 Ba
atom 7.6094791906390391 2.6232427157614224 52.3983201143752737 Ba
atom 2.6232427157686020 7.6094791906322330 52.3983201143754513 Ba
atom 7.5854026207063114 7.5854026207059961 52.3983201143757853 Ba
atom 5.0811370498625461 5.0811370498677570 49.9120348819341970 Zr
atom 10.1137447614752762 5.1275082866101167 49.9120348819675641 Zr
atom 5.1275082866121791 10.1137447614805538 49.9120348819694186 Zr
atom 10.1618424794219369 10.1618424794249957 49.9120348819589452 Zr
atom 5.0807054295618199 5.0807054295647003 54.8763547676893140 Zr
atom 10.1141763817750494 5.1279399069131104 54.8763547676676353 Zr
atom 5.1279399069058744 10.1141763817816699 54.8763547676679337 Zr
atom 10.1614108591212808 10.1614108591279262 54.8763547676799135 Zr
atom 5.4303051396047053 5.4303051396116704 47.4342519448147399 S
atom 9.7645766717283955 4.7783401968597445 47.4342519448336120 S
atom 4.7783401968620325 9.7645766717286353 47.4342519448139655 S
atom 10.5110105691688798 10.5110105691761415 47.4342519448025755 S
atom 4.7270375983931645 4.7270375984077679 52.3954096726642931 S
atom 10.4678442129368889 5.4816077380641000 52.3954096726318213 S
atom 5.4816077380698429 10.4678442129329472 52.3954096726376548 S
atom 9.8077430279571427 9.8077430279728635 52.3954096726415344 S
atom 5.0570881908857368 2.5639699534475660 49.5536216580148405 S
atom 10.0905591431027197 2.6112044307962550 50.2812469049956690 S
atom 5.1043226682363976 7.5974409056669998 50.2812469049950650 S
atom 10.1377936204469243 7.6446753830242917 49.5536216580155084 S
atom 5.0570881908777308 2.5639699534432063 55.2410680255778672 S
atom 10.0905591431060735 2.6112044307990843 54.5116415097808229 S
atom 5.1043226682385230 7.5974409056776500 54.5116415097783431 S
atom 10.1377936204400534 7.6446753830170726 55.2410680255810291 S
atom 2.5639699534659055 5.0570881908896421 49.5536216580106341 S
atom 7.5974409056662227 5.1043226682347171 50.2812469049948163 S
atom 2.6112044308006817 10.0905591431028192 50.2812469049981559 S
atom 7.6446753830162191 10.1377936204530670 49.5536216580124247 S
atom 2.5639699534426796 5.0570881908969945 55.2410680255924333 S
atom 7.5974409056780452 5.1043226682302638 54.5116415097609419 S
atom 2.6112044308018700 10.0905591430992541 54.5116415097629030 S
atom 7.6446753830251719 10.1377936204605223 55.2410680255946929 S
atom 2.5760082384168363 2.5760082384220460 57.3543894209818603 Ba
atom 7.5381681433430572 2.5519316685021987 57.3543894209816614 Ba
atom 2.5519316684764104 7.5381681433703474 57.3543894209817608 Ba
atom 7.6567136679784475 7.6567136679851222 57.3543894209820593 Ba
atom 2.5057972965615329 2.5057972965576361 62.3114910134904321 Ba
atom 7.6083790852372184 2.6221426103312977 62.3114910134900981 Ba
atom 2.6221426103745546 7.6083790851955477 62.3114910134906381 Ba
atom 7.5865027261198827 7.5865027261176960 62.3114910134905244 Ba
atom 5.0802738092614739 5.0802738092630433 59.8406746534074472 Zr
atom 10.1146080020769293 5.1283715272107004 59.8406746534008462 Zr
atom 5.1283715272085120 10.1146080020775795 59.8406746533997165 Zr
atom 10.1609792388226179 10.1609792388270073 59.8406746533917300 Zr
atom 5.0786437880992352 5.0786437880971214 64.8082650689353699 Zr
atom 10.1162380232365301 5.1300015483707844 64.8082650689754729 Zr
atom 5.1300015483659198 10.1162380232391982 64.8082650689726307 Zr
atom 10.1593492176604698 10.1593492176643423 64.8082650689643600 Zr
atom 5.4343732607383188 5.4343732607053887 57.3572998627151520 S
atom 9.7605085506027116 4.7742720757634816 57.3572998627162534 S
atom 4.7742720757347028 9.7605085506312061 57.3572998627115851 S
atom 10.5150786902978481 10.5150786902677051 57.3572998627141217 S
atom 4.7311057194810502 4.7311057195527431 62.3184575905518372 S
atom 10.4637760918520275 5.4775396169328143 62.3184575905390332 S
atom 5.4775396169824662 10.4637760918000104 62.3184575905532725 S
atom 9.8118111490382542 9.8118111491130442 62.3184575905430052 S
atom 5.0570881908735723 2.5639699534568448 59.4714626303774594 S
atom 10.0905591431165735 2.6112044307969118 60.1990878773260150 S
atom 5.1043226682501563 7.5974409056605436 60.1990878773247644 S
atom 10.1377936204355006 7.6446753830156498 59.4714626303802163 S
atom 5.0570881908702852 2.5639699534594333 65.1434156038362744 S
atom 10.0905591431190018 2.6112044307992215 64.4552512462348517 S
atom 5.1043226682529790 7.5974409056633272 64.4552512462362444 S
atom 10.1377936204317134 7.6446753830163274 65.1434156038362886 S
atom 2.5639699534630576 5.0570881909027969 59.4714626303391825 S
atom 7.5974409056596075 5.1043226682221938 60.1990878773593963 S
atom 2.6112044308115245 10.0905591430895463 60.1990878773597018 S
atom 7.6446753830158718 10.1377936204661161 59.4714626303404756 S
atom 2.5639699534549432 5.0570881909051346 65.1434156039048418 S
atom 7.5974409056596146 5.1043226682184670 64.4552512461693965 S
atom 2.6112044308001692 10.0905591430862458 64.4552512461673928 S
atom 7.6446753830296830 10.1377936204679973 65.1434156039025822 S
atom 2.5481613625924471 2.5481613625833859 67.2246052539152856 Ba
atom 7.5660150191645688 2.5797785443407037 67.2246052539150298 Ba
atom 2.5797785442955101 7.5660150192121769 67.2246052539151151 Ba
atom 7.6288667921568623 7.6288667921491928 67.2246052539148451 Ba
atom 2.6392518652696877 2.6392518653219517 71.9006890821829074 Ba
atom 7.4749245165055083 2.4886880415823160 71.9006890821835469 Ba
atom 2.4886880416357111 7.4749245164527078 71.9006890821831348 Ba
atom 7.7199572948342157 7.7199572948878679 71.9006890821843996 Ba
atom 5.0935776408615991 5.0935776408617928 69.8347195195470078 Zr
atom 10.1013041704760429 5.1150676956139307 69.8347195195578081 Zr
atom 5.1150676956088512 10.1013041704816438 69.8347195195594850 Zr
atom 10.1742830704201630 10.1742830704235008 69.8347195195520101 Zr
atom 5.3887143925820755 5.3887143924806002 67.2853619420606321 S
atom 9.8061674187625840 4.8199309439896121 67.2853619420274214 S
atom 4.8199309438931293 9.8061674188575871 67.2853619420222202 S
atom 10.4694198221417683 10.4694198220435162 67.2853619420654070 S
atom 4.8929657057278124 4.8929657058276517 72.3188303548640619 S
atom 10.3019161056058195 5.3156796306441345 72.3188303548307942 S
atom 5.3156796307398553 10.3019161055122872 72.3188303548308511 S
atom 9.9736711352892229 9.9736711353913901 72.3188303548375728 S
atom 5.0570881908822045 2.5639699534485620 69.4790297211317807 S
atom 10.0905591431051782 2.6112044308075926 69.9863244876662804 S
atom 5.1043226682383231 7.5974409056760495 69.9863244876655415 S
atom 10.1377936204440768 7.6446753830139960 69.4790297211325480 S
atom 2.5639699534494111 5.0570881908944880 69.4790297210576000 S
atom 7.5974409056700969 5.1043226682341123 69.9863244877689965 S
atom 2.6112044308067532 10.0905591431023023 69.9863244877722082 S
atom 7.6446753830171863 10.1377936204578241 69.4790297210592627 S
