#=======================================================
# FHI-aims file: full_relax/full_relax_RP_7_RxRyMz_RxRy0.in
# Created using the Atomic Simulation Environment (ASE)
# Mon Mar 24 15:49:59 2025
#=======================================================
lattice_vector 10.0088587111227447 -0.0711234825119773 -0.0000036188459294 
lattice_vector -0.0711234825119692 10.0088587111225262 0.0000036188461581 
lattice_vector 0.0000401560717482 -0.0000401560700198 75.9686463060477024 
atom 0.0980792313145783 -0.1817750432021838 0.2168887926352286 Ba
atom 5.1862043985469803 -0.1336409726335904 0.2168869840137256 Ba
atom 0.1462133013750528 4.9063501246109036 0.2168906018744096 Ba
atom 5.0669468458621161 4.7870925715215771 0.2168887919212385 Ba
atom -0.2675435157992920 0.1874768460764981 5.0082233378618364 Ba
atom 4.8169525102535138 0.2319817741728600 5.0082215284165033 Ba
atom -0.2230385871335306 5.2719728705452447 5.0082251473196315 Ba
atom 4.7013240991213729 5.1563444598406409 5.0082233378467835 Ba
atom 2.4848640344615700 2.4741271413128976 2.4034338530131598 Zr
atom 7.4991698252870673 2.4484418384003099 2.4034320437149161 Zr
atom 2.4591787296598286 7.4884329362610904 2.4034356607794325 Zr
atom 7.4537316477886053 7.4429947570788695 2.4034338521350427 Zr
atom 2.4754231614410909 2.4894904888470157 7.4606621024145223 Zr
atom 7.4838064810832403 2.4578827116950421 7.4606602869863536 Zr
atom 2.4438153843921220 7.4978738091367978 7.4606639079147863 Zr
atom 7.4442907753044230 7.4583581038342306 7.4606621013341829 Zr
atom 2.6085792746491694 2.6944700967146318 -0.1037948683625444 S
atom 7.2788268725106624 2.3247265977357685 -0.1037966843346146 S
atom 2.2388357756180737 7.3647176943984869 -0.1037930644856402 S
atom 7.5774468892279803 7.6633377110276175 -0.1037948692040585 S
atom 2.2353959663208305 2.1892133724311162 4.9661766085586168 S
atom 7.7840835976848686 2.6979099067402799 4.9661748105879502 S
atom 2.7440925005628203 7.7379010032983500 4.9661784302044873 S
atom 7.2042635807223565 7.1580809867455919 4.9661766121862438 S
atom 2.8029732504211613 -0.0129508312989091 2.2490691288688169 S
atom 7.1814284968743873 -0.0457535141805816 2.7575558914196470 S
atom 2.1414374000017808 4.9942375814181563 2.7575595103166402 S
atom 7.7718408652969879 4.9559167813145102 2.2490691285534665 S
atom 2.8969559206790652 -0.0168114402534697 7.7890696766047292 S
atom 7.1175695362695572 -0.0493201055780440 7.1718099535569051 S
atom 2.0775784392121288 4.9906709948104284 7.1718135722769736 S
atom 7.8658235350266521 4.9520561774571794 7.7890696766968990 S
atom -0.0226108892791892 2.2014561040171174 2.2490709380692779 S
atom 4.9790593716273044 2.7918684730006302 2.7575577006739893 S
atom -0.0609317224460972 7.8318595697101845 2.7575613197078774 S
atom 4.9462567217508733 7.1703237181424537 2.2490709381042553 S
atom -0.0187503073451261 2.1074734349201161 7.7890714861866854 S
atom 4.9826259813669092 2.8557274338021141 7.1718117628495293 S
atom -0.0573651153697623 7.8957185301532204 7.1718153819090960 S
atom 4.9501173070449696 7.0763410494193062 7.7890714859554553 S
atom 0.2831440193491245 -0.1828032384896045 9.9872496696009723 Ba
atom 5.1872325941729907 -0.3187057606889109 9.9872478600942003 Ba
atom 0.1472414977833535 4.7212853359893048 9.9872514790102951 Ba
atom 5.2520116332504747 4.7860643757040604 9.9872496695491435 Ba
atom -0.2839997208372645 0.1820556247257865 14.9905864406158216 Ba
atom 4.8223737305667482 0.2484379794237462 14.9905846312118580 Ba
atom -0.2176173660030845 5.2884290766149693 14.9905882500026664 Ba
atom 4.6848678932405905 5.1509232394587547 14.9905864406111675 Ba
atom 2.4881626037543829 2.4829048172685817 12.4780307847962586 Zr
atom 7.4903921530851427 2.4451432691806425 12.4780289780092435 Zr
atom 2.4504010561153700 7.4851343661501595 12.4780325973973820 Zr
atom 7.4570302181838626 7.4517724315576421 12.4780307859451263 Zr
atom 2.4844430532126696 2.4844245602863757 17.4927804036627421 Zr
atom 7.4888724095706420 2.4488628197899982 17.4927785943408871 Zr
atom 2.4488813126415461 7.4888539166442474 17.4927822134103614 Zr
atom 7.4533106675322340 7.4532921745295351 17.4927804028465843 Zr
atom 2.7476441536686056 2.8121848230838271 9.9790291997694940 S
atom 7.1611121471050971 2.1856617194982557 9.9790273895618302 S
atom 2.1211210501723468 7.2256528162701912 9.9790310043087551 S
atom 7.7165117679617250 7.7810524372716010 9.9790291973271099 S
atom 2.2179168689668298 2.1531004916498744 14.9882495014425068 S
atom 7.8201964781832611 2.7153890040104263 14.9882476894720238 S
atom 2.7802053815594996 7.7553801009201715 14.9882513104938333 S
atom 7.1867844833544741 7.1219681059003221 14.9882495029056173 S
atom 2.8881508270237921 -0.0201345567038004 12.1693801380710820 S
atom 7.1212833591570304 -0.0529730363606611 12.8075533192981865 S
atom 2.0812922622950460 4.9870180576758525 12.8075569383314836 S
atom 7.8570184412190782 4.9487330548812869 12.1693801380459501 S
atom 2.8867939801953537 -0.0191514815649404 17.8135255987555610 S
atom 7.1220832238391898 -0.0519904945935820 17.1720315801748136 S
atom 2.0820921269115407 4.9880006028994597 17.1720351988860500 S
atom 7.8556615943538155 4.9497161334524913 17.8135255988293650 S
atom -0.0154271856687805 2.1162785288005677 12.1693819475801082 S
atom 4.9862789130920211 2.8520136105638358 12.8075551287309395 S
atom -0.0537121852805033 7.8920047076543440 12.8075587477497983 S
atom 4.9534404302475812 7.0851461427952085 12.1693819473693807 S
atom -0.0164102578491698 2.1176353753517083 17.8135274082470509 S
atom 4.9852963651028999 2.8512137461539786 17.1720333894970594 S
atom -0.0546947325745904 7.8912048429620132 17.1720370084096743 S
atom 4.9524573573784876 7.0865029896577472 17.8135274081798016 S
atom 0.2840182143035809 -0.1820741180687827 19.9949743597896479 Ba
atom 5.1865034730798847 -0.3195799552041828 19.9949725504261870 Ba
atom 0.1465123768160880 4.7204111417968271 19.9949761691410082 Ba
atom 5.2528858280797808 4.7867934964841785 19.9949743597817857 Ba
atom -0.2831255266139858 0.1827847460263653 24.9983111270076002 Ba
atom 4.8216446098536565 0.2475637855654381 24.9983093175578475 Ba
atom -0.2183464874757980 5.2875548819535574 24.9983129364866485 Ba
atom 4.6857420881861200 5.1516523598216581 24.9983111269694263 Ba
atom 2.4807235034688087 2.4859443038259799 22.5075300117650485 Zr
atom 7.4873526655201159 2.4525823696296327 22.5075282018013603 Zr
atom 2.4473615687398156 7.4925734666701072 22.5075318178755417 Zr
atom 7.4495911173511526 7.4548119184060395 22.5075300124363764 Zr
atom 2.4934629468407445 2.4793586331475757 27.5248986878644182 Zr
atom 7.4939383365125822 2.4398429263474606 27.5248968819885853 Zr
atom 2.4539472399247568 7.4798340227428248 27.5249005008228487 Zr
atom 7.4623305610154853 7.4482262469757368 27.5248986882682658 Zr
atom 2.7509692381030102 2.8157486296433634 19.9973112921609335 S
atom 7.1575483401678834 2.1823366349016462 19.9973094837214447 S
atom 2.1175572431852077 7.2223277316984813 19.9973131010759531 S
atom 7.7198368523644101 7.7846162439278137 19.9973112912336681 S
atom 2.2212419537901584 2.1566642984790438 25.0065316083233355 S
atom 7.8166326713728109 2.7120639192657525 25.0065297987140198 S
atom 2.7766415743593296 7.7520550160652570 25.0065334235435905 S
atom 7.1901095680732316 7.1255319128673920 25.0065316082835309 S
atom 2.8875938451815730 -0.0181689354707772 22.1780038602002101 S
atom 7.1207263768637716 -0.0510074179979630 22.8161770426183033 S
atom 2.0807352798894927 4.9889836772488518 22.8161806616146841 S
atom 7.8564614594909425 4.9506986771972183 22.1780038602575793 S
atom 2.8913076677509331 -0.0218218734478719 27.8137472275163944 S
atom 7.1119212835488677 -0.0543305390010609 27.1964875050071235 S
atom 2.0719301870486144 4.9856605617852239 27.1964911240929545 S
atom 7.8601752823298643 4.9470457449551555 27.8137472277803575 S
atom -0.0173928044973478 2.1168355104489569 22.1780056697065291 S
atom 4.9843132914135069 2.8525705930686134 22.8161788520497524 S
atom -0.0556778068052882 7.8925616899836042 22.8161824710434225 S
atom 4.9514748113665306 7.0857031245133193 22.1780056695981607 S
atom -0.0137398718324252 2.1131216875067014 27.8137490371781446 S
atom 4.9876364121181949 2.8613756862182140 27.1964893144526698 S
atom -0.0523546805739116 7.9013667826464555 27.1964929335094077 S
atom 4.9551277381784260 7.0819893024267611 27.8137490368891243 S
atom 0.2675620079348126 -0.1874953381918541 29.9773374610076608 Ba
atom 5.1919246941547748 -0.3031237491406583 29.9773356515162241 Ba
atom 0.1519335966296957 4.7368673473480722 29.9773392703727417 Ba
atom 5.2364296229127225 4.7813722756761372 29.9773374608963117 Ba
atom -0.0980607382070618 0.1817565502742228 34.7686720093821720 Ba
atom 4.8226728050342169 0.0624989966157320 34.7686701989649123 Ba
atom -0.2173182915228330 5.1024900939982514 34.7686738171962446 Ba
atom 4.8708068757922209 5.1506241651504068 34.7686720088302295 Ba
atom 2.4840220737410958 2.4947219798983036 32.5821269565467091 Zr
atom 7.4785749921529208 2.4492837994434224 32.5821251461291865 Zr
atom 2.4385838953244505 7.4892748958553295 32.5821287676766929 Zr
atom 7.4528896884497930 7.4635895933091918 32.5821269564458831 Zr
atom 2.7334901411615853 2.7796357491432655 30.0193841898622296 S
atom 7.1936612204390418 2.1998157317596858 30.0193823737383454 S
atom 2.1536701239929124 7.2398068288188151 30.0193859875503719 S
atom 7.7023577556024208 7.7485033634618681 30.0193841890390480 S
atom 2.3603068329172259 2.2743790251908713 35.0893556604089696 S
atom 7.6989179453593817 2.5729990406564420 35.0893538562592298 S
atom 2.6589268485704558 7.6129901373888504 35.0893574749141948 S
atom 7.3291744472711393 7.2432466392436448 35.0893556609581125 S
atom 2.8274487071418677 -0.0253884603664631 32.2280012866665331 S
atom 7.2059039535672991 -0.0581911407441796 32.7364880493008954 S
atom 2.1659128568819122 4.9817999534134039 32.7364916681999318 S
atom 7.7963163213770681 4.9434791519513031 32.2280012868593815 S
atom -0.0101732669517926 2.1769806484986156 32.2280030963452688 S
atom 4.9914969993262144 2.7673930169562380 32.7364898587027326 S
atom -0.0484940979059553 7.8073841140433720 32.7364934776848600 S
atom 4.9586943475093417 7.1458482627494115 32.2280030962270843 S
atom 2.3026776833646703 2.5824998764889671 38.2012265885231628 Ba
atom 7.3907970923727229 2.6306281893598582 38.2012247787070294 Ba
atom 2.3508059956190435 7.6706192873668391 38.2012283971660906 Ba
atom 7.2715452976737547 7.5513674918881355 38.2012265886997611 Ba
atom 2.6719436567187094 2.2168311318592457 42.9925574260081262 Ba
atom 7.7564658391733818 2.2613622163049589 42.9925556165175351 Ba
atom 2.7164747413114854 7.3013533118531111 42.9925592353974579 Ba
atom 7.6408112722559274 7.1856987449802050 42.9925574259832644 Ba
atom 4.9585728962139326 4.9692904649197915 40.3877620509168409 Zr
atom 9.9728741188969625 4.9436005951257700 40.3877602450642073 Zr
atom 4.9328830231085359 9.9835916902031361 40.3877638587433054 Zr
atom 9.9274405097194141 9.9381580789917461 40.3877620494780842 Zr
atom 4.9739983650038653 4.9597626777584196 45.4449676545881402 Zr
atom 9.9824019062065137 4.9281751234434799 45.4449658410670523 Zr
atom 4.9424108095630945 9.9681662198797962 45.4449694630694410 Zr
atom 9.9428659784465765 9.9286302921239127 45.4449676513063991 Zr
atom 5.1789330377838239 5.0930277226932059 37.8805414093806263 S
atom 9.8491368619190407 4.7232404502295431 37.8805396050707301 S
atom 4.8091457652344989 9.7632315470416042 37.8805432248171599 S
atom 10.1478006523300710 10.0618953374385960 37.8805414075261169 S
atom 4.6736658001717437 4.7197606654665938 42.9504939493686919 S
atom 10.2224039186566902 5.2285076872793104 42.9504921281912715 S
atom 5.1824128215660012 10.2684987834604762 42.9504957544463508 S
atom 9.6425334146387396 9.6886282802833410 42.9504939568560999 S
atom 4.6859601765710845 2.4618024944769985 40.2333671117330383 S
atom 10.3162965677706815 2.4234795970172733 40.7419209143233161 S
atom 5.2763054705145462 7.4634706897120626 40.7419245332327122 S
atom 9.6548277911706677 7.4306701030301197 40.2333671115332905 S
atom 4.5919716938387118 2.4656364983945567 45.7733800813963114 S
atom 10.3801490624350645 2.4270153996998016 45.1561177008996708 S
atom 5.3401579648774185 7.4670065078930516 45.1561213198201301 S
atom 9.5608393077503493 7.4345041236486304 45.7733800816963949 S
atom 2.4715033606124894 5.2873367940273832 40.2333689211785099 S
atom 7.4786939091006692 4.6258680168367192 40.7419227234336887 S
atom 2.4387028144223577 9.6658591133567349 40.7419263426708866 S
atom 7.4403709724568001 10.2562044088790394 40.2333689208189682 S
atom 2.4676693759624024 5.3813252765834969 45.7733818912220229 S
atom 7.4751580745811994 4.5620155219132092 45.1561195100189394 S
atom 2.4351669806535630 9.6020066196123466 45.1561231296978605 S
atom 7.4365369877880534 10.3501928898119324 45.7733818906370260 S
atom 2.3016657350000709 2.7675354510914567 47.9715578896898762 Ba
atom 7.2057615183592993 2.6316401394881774 47.9715560804152474 Ba
atom 2.1657704223748446 7.6716312351039582 47.9715596994768561 Ba
atom 7.2705333484938706 7.7364030643513697 47.9715578898414066 Ba
atom 2.6665018076602229 2.2004161077133415 52.9749112433046037 Ba
atom 7.7728808608925037 2.2668040648613013 52.9749094338604749 Ba
atom 2.7328897642089984 7.3067951635836783 52.9749130524658511 Ba
atom 7.6353694216327490 7.1692837237751927 52.9749112435267691 Ba
atom 4.9673567875608304 4.9725809504054865 50.4623465019715312 Zr
atom 9.9695836344391484 4.9348167004122141 50.4623446979318047 Zr
atom 4.9295925366520859 9.9748077974732539 50.4623483204661056 Zr
atom 9.9362244022242745 9.9414485641834744 50.4623465078152194 Zr
atom 4.9688969388423851 4.9688382898407113 55.4771035550995464 Zr
atom 9.9733262945621100 4.9332765486940833 55.4771017442357888 Zr
atom 4.9333351975680468 9.9732676456048388 55.4771053616183494 Zr
atom 9.9377645531786243 9.9377059039049804 55.4771035536785320 Zr
atom 5.2966628779894069 5.2320318526217005 47.9633403420146038 S
atom 9.7101327319547810 4.6055106100380030 47.9633385498948925 S
atom 4.6701416349945557 9.6455017069632607 47.9633421547652290 S
atom 10.2655304920257660 10.2008994669674475 47.9633403370365130 S
atom 4.6375824025756236 4.7023431967875782 52.9725732558665214 S
atom 10.2398213875145903 5.2645910847459900 52.9725714191215289 S
atom 5.1998302907994916 10.3045821821239407 52.9725750454309292 S
atom 9.6064500167287772 9.6712108109307096 52.9725732530892017 S
atom 4.6007330848696348 2.4689900540938541 50.1537088549292065 S
atom 10.3764381929070897 2.4307036136610134 50.7918626138197382 S
atom 5.3364470970651094 7.4706947035748428 50.7918662332439581 S
atom 9.5696006996981584 7.4378576618807983 50.1537088551640551 S
atom 4.6020885420291409 2.4679845497951285 55.7978417408836691 S
atom 10.3756964326833536 2.4297009351884373 55.1563617445595114 S
atom 5.3357053356596840 7.4696920297092335 55.1563653636465290 S
atom 9.5709561560743772 7.4368521619701298 55.7978417412117196 S
atom 2.4643158000462275 5.3725638852043396 50.1537106647176216 S
atom 7.4714698987820620 4.5657263904192824 50.7918644234265528 S
atom 2.4314787961076911 9.6057174868647657 50.7918680425616884 S
atom 7.4331834204331786 10.3414314999725132 50.1537106641075212 S
atom 2.4653213495147646 5.3712084269809486 55.7978435502582144 S
atom 7.4724725280104671 4.5664681525620168 55.1563635540874841 S
atom 2.4324814350556951 9.6064592489870915 55.1563671731179355 S
atom 7.4341889599909301 10.3400760417367401 55.7978435505229982 S
atom 2.3024244559376070 2.7683928561305304 57.9792958615607930 Ba
atom 7.2049041132273040 2.6308814166168446 57.9792940526058302 Ba
atom 2.1649130165404173 7.6708725145691448 57.9792976712179211 Ba
atom 7.2712920700195758 7.7372604713963309 57.9792958617124441 Ba
atom 2.6672605287986699 2.2012735142140318 62.9826492151031587 Ba
atom 7.7720234554817509 2.2660453435428978 62.9826474052936192 Ba
atom 2.7320323589466144 7.3060364413604253 62.9826510245000364 Ba
atom 7.6361281427063563 7.1701411295424160 62.9826492151402562 Ba
atom 4.9704370902173638 4.9650956293988742 60.4918605973410095 Zr
atom 9.9770689546733990 4.9317363965189589 60.4918587853522638 Zr
atom 4.9370778582439838 9.9717274936267621 60.4918624045591500 Zr
atom 9.9393047041649076 9.9339632438183969 60.4918605972575918 Zr
atom 4.9637955120617825 4.9779139024820411 65.5092394557557043 Zr
atom 9.9642506832591788 4.9383779731939210 65.5092376522008379 Zr
atom 4.9242595848333703 9.9783690704414543 65.5092412608225061 Zr
atom 9.9326631279795770 9.9467815155659576 65.5092394501901651 Zr
atom 5.3002114750026088 5.2353333826565205 57.9816338473344857 S
atom 9.7068312014333227 4.6019620125159735 57.9816320672898016 S
atom 4.6668401044188679 9.6419531088100339 57.9816356791543512 S
atom 10.2690790894908819 10.2042009972818590 57.9816338497335835 S
atom 4.6411309997170376 4.7056447268377415 62.9908667687314008 S
atom 10.2365198570116540 5.2610424870662182 62.9908649347206335 S
atom 5.1965287601816135 10.3010335840929610 62.9908685650505262 S
atom 9.6099986139498448 9.6745123411468601 62.9908667699672122 S
atom 4.6013467807336728 2.4669818735679137 60.1623408720649167 S
atom 10.3770518890084542 2.4286954378326939 60.8004946313076857 S
atom 5.3370607927498828 7.4686865277476286 60.8004982504180163 S
atom 9.5702143958008588 7.4358494811136060 60.1623408725373139 S
atom 4.5976359127669744 2.4706700785128888 65.7980857845111160 S
atom 10.3858132809538102 2.4320489726859109 65.1808234038950758 S
atom 5.3458221839748221 7.4720400744135196 65.1808270231173736 S
atom 9.5665035260601119 7.4395376986584427 65.7980857846702349 S
atom 2.4663239767358744 5.3719501892275936 60.1623426821051552 S
atom 7.4734780795002820 4.5651126943203613 60.8004964409559960 S
atom 2.4334869774711856 9.6051037905922474 60.8005000597731353 S
atom 7.4351915961821504 10.3408178040014533 60.1623426812473170 S
atom 2.4626358079772523 5.3756610571389594 65.7980875939010446 S
atom 7.4701244967824874 4.5563513032695644 65.1808252131953054 S
atom 2.4301334044515954 9.5963424008048150 65.1808288326962355 S
atom 7.4315034174424897 10.3445286712743663 65.7980875939993695 S
atom 2.2969826048939539 2.7519778361365845 67.9616496788323161 Ba
atom 7.2213191365669260 2.6363232690498810 67.9616478697616486 Ba
atom 2.1813280386312250 7.6763143620316461 67.9616514883773704 Ba
atom 7.2658502206216911 7.7208454467053338 67.9616496791409617 Ba
atom 2.6662485798073141 2.3863090885766338 72.7529805152352367 Ba
atom 7.5869878819224335 2.2670572938321261 72.7529787067908984 Ba
atom 2.5469967854773103 7.3070483893632270 72.7529823250510503 Ba
atom 7.6351161938151826 7.3551767019190653 72.7529805150134905 Ba
atom 4.9792209821064306 4.9683861157193370 70.5664450498211835 Zr
atom 9.9737784695156648 4.9229525047909188 70.5664432343600367 Zr
atom 4.9337873725086983 9.9629435981807664 70.5664468600229355 Zr
atom 9.9480885966694910 9.9372537279119335 70.5664450518436297 Zr
atom 5.2641280770480510 5.2179159135896773 68.0037131478011503 S
atom 9.7242486701085156 4.6380454093785763 68.0037113519818632 S
atom 4.6842575735688410 9.6780365074133368 68.0037149740188340 S
atom 10.2329956911579689 10.1867835278665293 68.0037131545388718 S
atom 4.7588608392865250 4.8446488559742154 73.0736657011190402 S
atom 10.0975157274686111 5.1433126477033007 73.0736638894430115 S
atom 5.0575246303214216 10.1833037440052241 73.0736675010628716 S
atom 9.7277284540034579 9.8135164712838190 73.0736656958060991 S
atom 4.6614884069078784 2.4742058845608494 70.2122825724762691 S
atom 10.2918247983964015 2.4358829782483040 70.7208363756349456 S
atom 5.2518337008873246 7.4758740920962650 70.7208399941815884 S
atom 9.6303560210431414 7.4430735129555714 70.2122825728304605 S
atom 2.4590999713588264 5.3118085633868954 70.2122843822506724 S
atom 7.4662905135181674 4.6503397845248911 70.7208381855774775 S
atom 2.4262994172198340 9.6903308830152053 70.7208418031510888 S
atom 7.4279675850586289 10.2806761769435919 70.2122843820808242 S
