#=======================================================
# FHI-aims file: full_relax/full_relax_RP_9_Rx0Rz_0RyRz.in
# Created using the Atomic Simulation Environment (ASE)
# Mon Mar 24 16:30:29 2025
#=======================================================
lattice_vector 9.9067142772879020 0.0050459474342388 0.0114147005484768 
lattice_vector 0.0050459474342540 9.9067142772912362 -0.0114147005368858 
lattice_vector 0.1120084210698693 -0.1120084209614949 97.7413454582076326 
atom -0.0520277705753692 0.0382354783898646 0.1662912817836439 Ba
atom 4.9150578349715390 0.0544689345068888 0.1720093231973034 Ba
atom -0.0357762683090208 5.0053031688003236 0.1605943423782070 Ba
atom 4.9038522796064203 4.9941156434739025 0.1662909367363727 Ba
atom 0.0952596477072317 -0.0268191646077484 5.0602103365344906 Ba
atom 4.9801809238560688 -0.0927397934158209 5.0659279997408255 Ba
atom 0.0293467631523466 4.8580946553037609 5.0545132447863486 Ba
atom 5.0511397590898390 4.9290612361933501 5.0602104481249102 Ba
atom 2.5036960882433870 2.4734056133475066 2.4301579206107187 Zr
atom 7.4357928180122546 2.4546652699938818 2.4358653666736259 Zr
atom 2.4849585914902677 7.4055007367818888 2.4244509138555519 Zr
atom 7.4595762206765528 7.4292869800634058 2.4301583848371839 Zr
atom 2.5161240254529869 2.4343532322849657 7.5654745730599382 Zr
atom 7.4748785197044612 2.4423070423595843 7.5711821734093299 Zr
atom 2.5240444947195391 7.3931421295107160 7.5597673465321202 Zr
atom 7.4720039804239899 7.3902342776791894 7.5654745915922978 Zr
atom 2.6196945976968822 2.5434055503668738 -0.1070661675890470 S
atom 7.3658559666025383 2.3386266802360818 -0.1013599698225963 S
atom 2.4150217863418386 7.2894606794875454 -0.1127751356124110 S
atom 7.5755747183860338 7.4992855327617045 -0.1070667143008040 S
atom 2.4232797100302226 2.3728962096954906 5.0317823342401162 S
atom 7.5362556679253938 2.5351920433825756 5.0374887968218180 S
atom 2.5854214966435292 7.4860260488294985 5.0260740986790315 S
atom 7.3791598104341638 7.3287761040225616 5.0317821080699359 S
atom 2.1078740754247347 -0.0241082353479931 2.4262922059113552 S
atom 7.8898332799682986 -0.0217671677953689 2.6392832187694810 S
atom 2.9389992691344045 4.9290658817592661 2.6278686038353984 S
atom 7.0637541030031414 4.9317707941373339 2.4262922172020427 S
atom 3.0534518894998062 -0.0361148948700723 7.6368116103311134 S
atom 6.9476060761715619 -0.0337431383378388 7.5533332674514604 S
atom 1.9967717637038040 4.9170896739785386 7.5419185316345043 S
atom 8.0093321710049583 4.9197638440051952 7.6368116509564592 S
atom 0.0265962052380714 2.8454406643296459 2.4206658393560141 S
atom 4.9801364426119719 2.0193620100533409 2.6335269715690437 S
atom 0.0293021126600352 6.9701958483467150 2.6221123027924333 S
atom 4.9824764987268360 7.8013206896042506 2.4206658063244899 S
atom 0.0386567758842940 1.8999683080955372 7.6310441881883113 S
atom 4.9921660573046260 2.9617038534384563 7.5476819495457823 S
atom 0.0413319755015994 7.9125380475017320 7.5362672541279565 S
atom 4.9945368261585541 6.8558480912470268 7.6310441981533641 S
atom 0.0344151638943526 -0.0706602131758221 10.1412591110737598 Ba
atom 5.0241310134571044 -0.0319319939757882 10.1469540997492977 Ba
atom 0.0732968025436383 4.9189024415256721 10.1355394723286985 Ba
atom 4.9902953206976139 4.8852201645793745 10.1412590708985935 Ba
atom 0.0463412330302804 -0.0316289800613598 15.2467469065053063 Ba
atom 4.9850468645634853 -0.0438416366665712 15.2524533616125684 Ba
atom 0.0342125049708858 4.9069926667621218 15.2410387041492772 Ba
atom 5.0022215363253357 4.9242512800215854 15.2467469261318040 Ba
atom 2.5167398876565135 2.4400782151513560 12.6800315013761882 Zr
atom 7.4691501133200164 2.4416747326767663 12.6857375252342326 Zr
atom 2.5183160176215824 7.3925096222445488 12.6743223843632098 Zr
atom 7.4726199207487394 7.3959590511008120 12.6800315293325934 Zr
atom 2.5099570640093374 2.4455686410675961 17.7945462092697717 Zr
atom 7.4636815074369833 2.4484757640599639 17.8002518564072929 Zr
atom 2.5128471077348697 7.3993103975428509 17.7888369076608051 Zr
atom 7.4658374090827788 7.4014492218895960 17.7945455669211547 Zr
atom 2.5425763749154919 2.4812878010125736 10.1366483515431387 S
atom 7.4279819447493933 2.4157799137560705 10.1423550366547612 S
atom 2.4771477507914441 7.3666139232463941 10.1309406827236739 S
atom 7.4984565074557761 7.4371677869951593 10.1366482790532668 S
atom 2.4948545037209757 2.4324694929983206 15.2447702915095924 S
atom 7.4767656637616238 2.4635505936795070 15.2504768470210674 S
atom 2.5259315135263227 7.4143846538904450 15.2390629105731303 S
atom 7.4507345931249960 7.3883494957019815 15.2447706334466417 S
atom 1.9824772621992632 -0.0345652310077715 12.6808668264945386 S
atom 8.0012319708159350 -0.0320940634700513 12.7222550550133633 S
atom 3.0503978300303731 4.9187390066428369 12.7108403676375179 S
atom 6.9383572114368057 4.9213137933024154 12.6808668247634504 S
atom 3.0422977324278131 -0.0301638364403487 17.8126356940196935 S
atom 6.9292293836669385 -0.0275340004984380 17.8011985935111312 S
atom 1.9783953117885773 4.9233001376691075 17.7897839047431106 S
atom 7.9981779873468293 4.9257162470798992 17.8126356589073467 S
atom 0.0370832074370323 2.9708481734504293 12.6751669345398081 S
atom 4.9904922454726695 1.9079874683521583 12.7165352656090018 S
atom 0.0396585861076826 6.8588213512059548 12.7051205187327145 S
atom 4.9929628301074604 7.9267282890952488 12.6751669024501741 S
atom 0.0327139285626771 1.9111071863329383 17.8069287018266920 S
atom 4.9859643754936691 2.9800793091262907 17.7954715300191353 S
atom 0.0351311392422563 7.9309133614651666 17.7840567925461457 S
atom 4.9885931137597037 6.8669871743667787 17.8069286540305605 S
atom 0.0262604323215161 -0.0341940209908160 20.3538676534731380 Ba
atom 4.9875767224479439 -0.0237471073770993 20.3595865751978700 Ba
atom 0.0367424876477080 4.9270869361665097 20.3481719817076403 Ba
atom 4.9821406214509443 4.9216859622440152 20.3538676560446454 Ba
atom 0.0262435714792937 -0.0183097449736169 25.4623882407693607 Ba
atom 4.9716414492864427 -0.0237107097059773 25.4680839497776397 Ba
atom 0.0208074631765621 4.9271232123213409 25.4566692584472207 Ba
atom 4.9821234929176041 4.9375701306195161 25.4623882148016776 Ba
atom 2.5041918123102582 2.4516879585285709 22.9081282865133886 Zr
atom 7.4575493868895437 2.4542109271157182 22.9138352085508892 Zr
atom 2.5067147811563149 7.4050453413553798 22.9024207393012489 Zr
atom 7.4600723684308665 7.4075683231793006 22.9081276813158645 Zr
atom 2.4984265759305186 2.4578072298828064 28.0217107440337969 Zr
atom 7.4514172584789078 2.4599460582482369 28.0274192192853739 Zr
atom 2.5005824753913806 7.4107803312748093 28.0160047840006996 Zr
atom 7.4543072999423776 7.4136874562919486 28.0217102704048528 Zr
atom 2.5138025396253139 2.4574062290393925 20.3536816247853096 S
atom 7.4518265996341295 2.4446104362368266 20.3593890532857387 S
atom 2.5009924940185404 7.3954445400286986 20.3479741701366699 S
atom 7.4696825958048718 7.4132862776930173 20.3536829112570317 S
atom 2.4945815912770568 2.4459699821413992 25.4625723778599031 S
atom 7.4632716618741215 2.4638117262011208 25.4682808405145664 S
atom 2.5124375899180369 7.4146458553502894 25.4568658025619428 S
atom 7.4504616142332782 7.4018500645517795 25.4625728954591430 S
atom 1.9692735053265089 -0.0249345345308987 22.9048138753449315 S
atom 7.9899446603710054 -0.0225244933870821 22.9228565857531308 S
atom 3.0391106727660353 4.9283107028007649 22.9114419423919635 S
atom 6.9251535586457331 4.9309466064605267 22.9048138192483748 S
atom 3.0299889798710407 -0.0199246031955597 28.0264716814251571 S
atom 6.9169204087167424 -0.0172947158328784 28.0150345488856196 S
atom 1.9660861596994552 4.9335406411320530 28.0036198937546423 S
atom 7.9858688263054711 4.9359566908382115 28.0264716230033919 S
atom 0.0274564865228111 2.9840782437792055 22.8990997792904452 S
atom 4.9809275725481541 1.9192979042647929 22.9171560261801126 S
atom 0.0300929269961678 6.8701322196148755 22.9057412669756992 S
atom 4.9833370768988212 7.9399582392537447 22.8990997492087764 S
atom 0.0224185424348471 1.9232968329089852 28.0207840455651294 S
atom 4.9756712663634346 2.9922692314750057 28.0093268781620601 S
atom 0.0248358096335498 7.9431031236139953 27.9979121608382897 S
atom 4.9782999524628844 6.8791769987335787 28.0207840331389484 S
atom 0.0061628229869197 -0.0208748927674207 30.5695086683372352 Ba
atom 4.9741712517021215 -0.0036162803431594 30.5752169073023055 Ba
atom 0.0233375005445215 4.9472175838045480 30.5638022115184818 Ba
atom 4.9620425239495196 4.9350049197377270 30.5695086835750587 Ba
atom 0.0180890067374664 0.0181562841960732 35.6749960707650260 Ba
atom 4.9350869836015310 -0.0155259780489497 35.6807157848815848 Ba
atom -0.0157466702667281 4.9353078802887076 35.6693010447536665 Ba
atom 4.9739686103625971 4.9740360849785583 35.6749961492046950 Ba
atom 2.4916439510746575 2.4632974375249823 33.1362226846546193 Zr
atom 7.4459484280948773 2.4667468960581194 33.1419314275347574 Zr
atom 2.4951137805109407 7.4175813551588776 33.1305168642321064 Zr
atom 7.4475245361041829 7.4191778513942284 33.1362225056945334 Zr
atom 2.4922600777792816 2.4690224336780258 38.2507811139157354 Zr
atom 7.4402197775821861 2.4661145463851577 38.2564886696995146 Zr
atom 2.4893854986518567 7.4169487739684392 38.2450740101524858 Zr
atom 7.4481403107663517 7.4249026597394803 38.2507815670785902 Zr
atom 2.5135296231230582 2.4709067479564171 30.5714851322728869 S
atom 7.4383326224734239 2.4448715890430508 30.5771936975941792 S
atom 2.4874985452245730 7.3957057183810724 30.5657785875582988 S
atom 7.4694096244016119 7.4267868180308652 30.5714859523734681 S
atom 2.4658076931036721 2.4220884265525902 35.6796093960449170 S
atom 7.4871163689889286 2.4926422969664359 35.6853169129277816 S
atom 2.5362822752655441 7.4434764215313436 35.6739022107349086 S
atom 7.4216877680887432 7.3779685444982670 35.6796089226466222 S
atom 1.9579860960399960 -0.0153642410523198 33.1054155167897406 S
atom 7.9767408657864252 -0.0128929895706476 33.1468037543761511 S
atom 3.0259071551607057 4.9379427711717145 33.1353890626188772 S
atom 6.9138664068762532 4.9405174604865181 33.1054154979246889 S
atom 3.0116122437069133 -0.0137147187097286 38.2743370028997205 S
atom 6.9057665103873767 -0.0113430014637649 38.1908586957688456 S
atom 1.9549320870485267 4.9394923258072918 38.1794439579976128 S
atom 7.9674920709228045 4.9421664983592999 38.2743370180338118 S
atom 0.0178902839642114 2.9953889799377698 33.0997206200707978 S
atom 4.9713023859380385 1.9325278292131529 33.1410889632603016 S
atom 0.0204657561704919 6.8833622184691121 33.1296742671928826 S
atom 4.9737728865862358 7.9512689013098372 33.0997206316685322 S
atom 0.0162169524594112 1.9416723585417484 38.2685736086502502 S
atom 4.9697283215244621 3.0034079834751304 38.1852113898529666 S
atom 0.0188921100985104 7.9542419627028060 38.1737967355408614 S
atom 4.9720990900323656 6.8975525894940040 38.2685736088992172 S
atom -0.0427555169311066 -0.0256848658543033 40.7560456936227311 Ba
atom 4.9790371337561918 0.0452817397806342 40.7617427796821303 Ba
atom 0.0282033456661411 4.9961157540992858 40.7503281372640132 Ba
atom 4.9131242165254259 4.9301950852407241 40.7560456824539088 Ba
atom 0.1045318053068639 -0.0907394830672270 45.6499649964177934 Ba
atom 5.0441603260378125 -0.1019269650039568 45.6556616467456351 Ba
atom 0.0933262470792351 4.8489072166226705 45.6442469129543866 Ba
atom 5.0604118054445459 4.8651406428911770 45.6499651012642218 Ba
atom 2.5046880145542740 2.4299700125379746 43.3860979386234789 Zr
atom 7.4793055849251369 2.4537560438427919 43.3918056980935702 Zr
atom 2.5284710191868385 7.4045901718384783 43.3803908630914918 Zr
atom 7.4605684501373482 7.3858501237743157 43.3860985678976334 Zr
atom 2.5851043832952270 2.5304800666291083 40.7844726613988939 S
atom 7.3788426775933367 2.3732301655033448 40.7901800942396946 S
atom 2.4280085186775908 7.3240643034341186 40.7787653614186709 S
atom 7.5409844018338399 7.4863601465043272 40.7844719952107724 S
atom 2.3886894454775485 2.3599706700130265 45.9233217902531408 S
atom 7.5492423668620550 2.5697955255957097 45.9290300313521556 S
atom 2.5984082453777071 7.5206297088783032 45.9176155884350905 S
atom 7.3445695612293029 7.3158508086587482 45.9233210460280574 S
atom 2.0693847737694546 -0.0256900713240101 43.1883870272839872 S
atom 7.8513441033231590 -0.0233498518565835 43.4013781044414415 S
atom 2.9005101357443150 4.9274847855729007 43.3899634022402765 S
atom 7.0252649949277179 4.9301905025331489 43.1883870467948441 S
atom 0.0282473106563248 2.8840143672522767 43.1827286084012201 S
atom 4.9817880989984369 2.0579355107385982 43.3955897825304859 S
atom 0.0309523506100961 7.0087697346283724 43.3841751010147831 S
atom 4.9841290544466865 7.8398944631095029 43.1827286036874227 S
atom 2.4957087430175231 2.4739636587331879 49.0369638875920870 Ba
atom 7.4353554504938550 2.4627581358099264 49.0426819008686294 Ba
atom 2.4845212795321134 7.4135922414263122 49.0312673808518653 Ba
atom 7.4515888499628335 7.4298436863061070 49.0369638707282007 Ba
atom 2.5607631867425615 2.3266762015710629 53.9308822453605003 Ba
atom 7.5825641171532281 2.3976351028460217 53.9365999140075800 Ba
atom 2.6317298367825201 7.3484692084048104 53.9251851555262149 Ba
atom 7.5166434225634111 7.2825562551569787 53.9308823645258215 Ba
atom 5.0164177487376991 4.8741203586046336 51.3008309150543127 Zr
atom 9.9910388579042948 4.8979034524272631 51.3065383991702220 Zr
atom 5.0402037647804399 9.8487370153674920 51.2951235354011246 Zr
atom 9.9722988339460681 9.8299998716210180 51.3008310736481548 Zr
atom 5.0554704414357277 4.8616922999574710 56.4361450275863987 Zr
atom 10.0033971709366387 4.8588177743762913 56.4418522755898664 Zr
atom 5.0525625861956263 9.8096514047222136 56.4304376673975554 Zr
atom 10.0113509780837084 9.8175718784944319 56.4361448015863587 Zr
atom 4.9464189272313313 4.7581212875260892 48.7636058058322774 S
atom 10.1070778819536038 4.9678401045830105 48.7693117712955058 S
atom 5.1562438057733404 9.9186743322581759 48.7578973770063300 S
atom 9.9022989378280819 9.7140014848926839 48.7636059337174999 S
atom 5.1169283194774655 4.9545361941855477 53.9024577753751259 S
atom 9.9105124619543563 4.7974403591901211 53.9081645421224636 S
atom 4.9596784346174143 9.7482746383255297 53.8967495674043278 S
atom 10.0728083204122285 9.9104164025009744 53.9024573606738855 S
atom 5.4704627285605065 2.3976794571524946 51.5041996473934205 S
atom 9.5952177310529656 2.4003848525184219 51.3027530663831612 S
atom 4.6443837883244825 7.3512197686526868 51.2913383853244014 S
atom 10.4263426664130847 7.3535603276608379 51.5041995814306617 S
atom 4.5281206965150949 2.3856498628090739 56.4183551863099808 S
atom 10.5406902798135071 2.3883250487606751 56.5131320457659569 S
atom 5.5898560646885906 7.3391591603596584 56.5017173498229539 S
atom 9.4840007417275043 7.3415299194851702 56.4183551562353571 S
atom 2.5607583745311708 4.4388166170917236 51.4985411622682605 S
atom 7.5139327701011265 5.2699420348986799 51.2969647594234530 S
atom 2.5630989478273740 10.2207761469787037 51.2855500727564433 S
atom 7.5166381162489539 9.3946968114040246 51.4985412117462786 S
atom 2.5727342684657803 5.3810438895696624 56.4125917950517177 S
atom 7.5259397754605688 4.3243640461432014 56.5074848065749151 S
atom 2.5751060402668706 9.2751983781017486 56.4960700609202391 S
atom 7.5286139483877319 10.3369241596811001 56.4125917431935164 S
atom 2.6046043235903058 2.3875207013775159 59.0119320795331603 Ba
atom 7.5217562596222693 2.3536850439249575 59.0176270888270835 Ba
atom 2.5709220801840003 7.3045190926801062 59.0062124034855344 Ba
atom 7.5604844471489816 7.3434007031116444 59.0119320223153636 Ba
atom 2.5655732677664944 2.3755946640507339 64.1174204013881734 Ba
atom 7.5336658560959213 2.3927693412144313 64.1231269117988205 Ba
atom 2.5828318881860088 7.3436032047176925 64.1117121703967427 Ba
atom 7.5214531891724707 7.3314744671928525 64.1174204478015213 Ba
atom 5.0497455848719683 4.8610763459964703 61.5507076793113015 Zr
atom 10.0040296565142910 4.8645461835197983 61.5564131302068489 Zr
atom 5.0531950506368268 9.8153798180702179 61.5449984483976777 Zr
atom 10.0056261303646572 9.8169559156945212 61.5507070331737580 Zr
atom 5.0442553527001950 4.8678589698700527 66.6652181219684081 Zr
atom 9.9972286413137876 4.8700148665960263 66.6709238018187307 Zr
atom 5.0463941738947957 9.8208486529914207 66.6595092096453641 Zr
atom 10.0001357730678198 9.8237387058399914 66.6652176766162228 Zr
atom 5.0085366794298345 4.8352395212890960 59.0073193025671401 S
atom 10.0299246205746506 4.9057140942920281 59.0130268843464236 S
atom 5.0790905321400492 9.8565483491694224 59.0016124191334299 S
atom 9.9644167156180536 9.7911197294080949 59.0073206453191332 S
atom 5.0573549722967330 4.8829614307974527 64.1154405362961057 S
atom 9.9821539187740349 4.8569303613226325 64.1211474392124501 S
atom 5.0313198197675773 9.8077646095696203 64.1097324178557528 S
atom 10.0132350166414117 9.8388416111752885 64.1154408339290143 S
atom 5.5818370844028591 2.3873226038450994 61.5872075286643792 S
atom 9.4698103999450360 2.3898982653670249 61.5572538691206432 S
atom 4.5189763154458609 7.3407338718474895 61.5458392048839826 S
atom 10.5377169651645293 7.3432041747842405 61.5872074831849758 S
atom 4.5097448553186101 2.3918504133158058 66.6661444434323016 S
atom 10.5295515261929165 2.3942676048217617 66.6890162945174154 S
atom 5.5787175328667917 7.3451032024166478 66.6776016258764628 S
atom 9.4656251338316846 7.3477319548569549 66.6661444078866907 S
atom 2.5710843531476320 4.3274181159750453 61.5815126412482599 S
atom 7.5243905922559504 5.3953387814240772 61.5515391065499244 S
atom 2.5735558078500596 10.3461727979820921 61.5401243814312480 S
atom 7.5269650921968783 9.2832984439715371 61.5815126071661325 S
atom 2.5665236233991338 5.3994209243568410 66.6604568231060881 S
atom 7.5199888359781060 4.3355178098283158 66.6833086117230920 S
atom 2.5691534413759940 9.2863522794241948 66.6718939045088348 S
atom 7.5224049563888435 10.3553009495845281 66.6604568029100335 S
atom 2.5681385340427725 2.3956755799621861 69.2245398467764232 Ba
atom 7.5135713625801719 2.3902394792440473 69.2302588404994736 Ba
atom 2.5627375668729142 7.3410732345202048 69.2188440497701265 Ba
atom 7.5240182745537432 7.3515552821010974 69.2245397963155682 Ba
atom 2.5522543434695599 2.3956924876768149 74.3330607961469241 Ba
atom 7.5135349985813287 2.4061745377955654 74.3387564998084116 Ba
atom 2.5627012628729822 7.3570084708884407 74.3273417425017726 Ba
atom 7.5081340237254652 7.3515723611760491 74.3330606935933105 Ba
atom 5.0381362586569542 4.8736239222062530 71.7788001367435982 Zr
atom 9.9914934679650855 4.8761468820554326 71.7845075361708069 Zr
atom 5.0406592193121913 9.8269810756644240 71.7730932124484156 Zr
atom 9.9940164552703141 9.8295040653667627 71.7788003246547532 Zr
atom 5.0320170397317145 4.8793887865317735 76.8923810584441156 Zr
atom 9.9857584191780902 4.8822788267568278 76.8980902079151889 Zr
atom 5.0349241662355722 9.8331135924195987 76.8866750891587714 Zr
atom 9.9878972337403269 9.8352695021355743 76.8923812249306025 Zr
atom 5.0324181940271959 4.8640134260463999 69.2243567366956256 S
atom 10.0010940722994004 4.8818694285936770 69.2300636396049640 S
atom 5.0502599420345380 9.8327036206582701 69.2186488763058350 S
atom 9.9882982816750552 9.8198935717879454 69.2243575826741022 S
atom 5.0438544232447997 4.8832344371804011 74.3332466686743061 S
atom 9.9818927760669709 4.8704243902314257 74.3389542953178903 S
atom 5.0310586271387265 9.8212585016740448 74.3275390121073087 S
atom 9.9997345082272524 9.8391144925536391 74.3332455863221924 S
atom 5.5705265041743974 2.3968877862477966 71.7878285961577092 S
atom 9.4565805300061161 2.3995237397565963 71.7811870680809392 S
atom 4.5057461011565545 7.3503600674105138 71.7697723728789185 S
atom 10.5264063273945698 7.3527700599338388 71.7878285976962047 S
atom 4.4975552473831506 2.4021454653938119 76.8799999455724787 S
atom 10.5173615042768294 2.4045619229490729 76.9028718640534237 S
atom 5.5665276610612260 7.3553966265461010 76.8914571367474480 S
atom 9.4534354757075931 7.3580261156350053 76.8800000039971678 S
atom 2.5615133871253151 4.3387052877937951 71.7821145130253910 S
atom 7.5147592102705296 5.4085425912841432 71.7754864679898077 S
atom 2.5639229414129914 10.3593764584474304 71.7640717345109636 S
atom 7.5173956029547719 9.2945856532614410 71.7821145182848710 S
atom 2.5562839250453111 5.4117298236499591 76.8742929861945186 S
atom 7.5097488085113238 4.3478271303332754 76.8971447619846771 S
atom 2.5589130145009249 9.2986612922573837 76.8857300581335039 S
atom 7.5121656771925744 10.3676097583134190 76.8742929714721868 S
atom 2.5548194209953414 2.4157733787136593 79.4401811872169930 Ba
atom 7.4934406890478540 2.4036446556428142 79.4458894086774450 Ba
atom 2.5426067742287897 7.3544785188568307 79.4344746773288080 Ba
atom 7.5106992923736344 7.3716531842505102 79.4401811319041968 Ba
atom 2.5157880421982943 2.4038473528839326 84.5456703220574184 Ba
atom 7.5053506313535916 2.4427290121526575 84.5513898613556876 Ba
atom 2.5545162825546415 7.3935626062353590 84.5399753135198608 Ba
atom 7.4716683289828314 7.3597268944623684 84.5456702430103775 Ba
atom 5.0265265950825331 4.8861713162973057 82.0068988722706820 Zr
atom 9.9789577012991586 4.8877474394373248 82.0126083389115763 Zr
atom 5.0281231233624641 9.8385824415924663 82.0011925088785318 Zr
atom 9.9824071227832309 9.8420522672609287 82.0068991440333548 Zr
atom 5.0208015147556209 4.8855554642688945 87.1214528086422462 Zr
atom 9.9795902793635030 4.8934758221648025 87.1271603798490446 Zr
atom 5.0287552287890147 9.8443109143937289 87.1157457021830197 Zr
atom 9.9766824942285499 9.8414364617053440 87.1214531607610212 Zr
atom 5.0189176739674304 4.8642864468020166 79.4421588966166183 S
atom 10.0008329013607078 4.8953634730959816 79.4478663655400794 S
atom 5.0499987789308678 9.8461975036918314 79.4364533787418594 S
atom 9.9747977452978596 9.8201664453495887 79.4421593913243100 S
atom 5.0677360110098570 4.9120083628964659 84.5502773582367979 S
atom 9.9530621549234048 4.8465797161784190 84.5559842410169580 S
atom 5.0022281105791899 9.7974137736849460 84.5445703125112402 S
atom 10.0236160039911084 9.8678883095411720 84.5502760598583620 S
atom 5.5572962288683447 2.4065137509219494 82.0117611357993468 S
atom 9.4452699157627666 2.4090886585734590 81.9818076088176326 S
atom 4.4944356605282358 7.3599255463432067 81.9703928291510806 S
atom 10.5131763393373063 7.3623965727835694 82.0117611680202856 S
atom 4.4864163436813485 2.4080876002017724 87.0558843289805111 S
atom 10.4989864354395586 2.4107625789792833 87.1506614041356897 S
atom 5.5481523536076560 7.3615989690068293 87.1392466696392773 S
atom 9.4422959780610451 7.3639699980442899 87.0558843433918810 S
atom 2.5518824383064036 4.3519091719500684 82.0060612434236305 S
atom 7.5051877295594105 5.4198298306042156 81.9760877459808910 S
atom 2.5543531494343266 10.3706634409163936 81.9646730516352164 S
atom 7.5077629753859103 9.3077894247917747 82.0060612479970246 S
atom 2.5503335502697997 5.4228842922204059 87.0501168799779208 S
atom 7.5035376762304766 4.3662033677742942 87.1450100981444962 S
atom 2.5527050797201003 9.3170378065757760 87.1335953772252907 S
atom 7.5062121048685713 10.3787640690847276 87.0501169205474099 S
atom 2.5596290115231604 2.4646917490194968 89.6267170624196581 Ba
atom 7.4445428674020038 2.3987789151033945 89.6324142137751920 Ba
atom 2.4937084288082589 7.3496126356497262 89.6209995296700583 Ba
atom 7.5155094077708515 7.4205714223170611 89.6267171394193838 Ba
atom 2.6246837159836436 2.3174040964028828 94.5206377800312794 Ba
atom 7.5917513748184380 2.3336556770526249 94.5263344578180948 Ba
atom 2.6409172119224036 7.2844897523049124 94.5149197964426122 Ba
atom 7.5805638213203590 7.2732841013927603 94.5206380833475635 Ba
atom 5.0598541696548374 4.8731280032704074 92.2567696653851925 Zr
atom 9.9919485800952454 4.8543902939948014 92.2624766202131354 Zr
atom 5.0411132770411502 9.8052247697677526 92.2510628365668737 Zr
atom 10.0157353114641641 9.8290084815827115 92.2567697461341112 Zr
atom 4.9593444058855436 4.7927116500722393 89.6551493472725269 S
atom 10.0724743171383953 4.9548534930824779 89.6608573465437644 S
atom 5.1216402614130478 9.9056874941316195 89.6494420143561541 S
atom 9.9152243299804734 9.7485916701807351 89.6551495505544835 S
atom 5.1298537332463141 4.9891265064250563 94.7939940079007357 S
atom 9.8759089191247060 4.7844537065932018 94.7997032791071490 S
atom 4.9250749019058198 9.7352878523230686 94.7882874493443524 S
atom 10.0857337163450627 9.9450065432495460 94.7939934851838757 S
atom 5.4318887617193941 2.3960279663094131 92.2662625099424787 S
atom 9.5566442639487086 2.3987323196947257 92.0648161868433874 S
atom 4.6058102947864628 7.3495684596155915 92.0534014647097791 S
atom 10.3877687952539173 7.3519100041757683 92.2662625218974313 S
atom 2.5623405176160130 4.4773060215047735 92.2606361492850340 S
atom 7.5155135759913412 5.3084311426077475 92.0590598468273669 S
atom 2.5646800055381735 10.2592649228188240 92.0476452703073278 S
atom 7.5182200855829970 9.4331861611831958 92.2606360977396776 S
