#=======================================================
# FHI-aims file: full_relax/full_relax_RP_7_RxRy0_-Rx-Ry0.in
# Created using the Atomic Simulation Environment (ASE)
# Mon Mar 24 15:38:13 2025
#=======================================================
lattice_vector 10.0688406782594697 0.1011029978996849 -0.0000000000000429 
lattice_vector 0.1011029978996812 10.0688406782576561 0.0000000000000479 
lattice_vector -0.0000000000003289 0.0000000000003679 75.0658406525532484 
atom -0.0839510620721072 -0.0839510620433899 0.2690420635004057 Ba
atom 5.1183714011976917 0.1345025609931707 0.2690420635020740 Ba
atom 0.1345025610174252 5.1183714011719585 0.2690420635023912 Ba
atom 5.0010207760079641 5.0010207760351344 0.2690420635013335 Ba
atom -0.0073197365108717 -0.0073197365373799 4.9427520566379268 Ba
atom 5.0417400756513215 0.0578712354716818 4.9427520566378842 Ba
atom 0.0578712354700576 5.0417400756513837 4.9427520566377128 Ba
atom 5.0776521015701359 5.0776521015423466 4.9427520566377341 Ba
atom 2.5361806140026237 2.5361806140006755 2.3314843118373658 Zr
atom 7.5832115632050838 2.5993427230256696 2.3314843118383157 Zr
atom 2.5993427230248902 7.5832115632030774 2.3314843118394868 Zr
atom 7.6211524520829395 7.6211524520790670 2.3314843118389410 Zr
atom 2.5441423131381558 2.5441423131368563 7.3544326936130160 Zr
atom 7.5752498640695016 2.5913810238897863 7.3544326936112379 Zr
atom 2.5913810238894599 7.5752498640689012 7.3544326936128170 Zr
atom 7.6291141512165854 7.6291141512147282 7.3544326936067357 Zr
atom 2.7755236508740895 2.7755236509190149 -0.1546860640335802 S
atom 7.3438685263342061 2.3599996861069195 -0.1546860640317833 S
atom 2.3599996861540848 7.3438685262849770 -0.1546860640341816 S
atom 7.8604954889541121 7.8604954889973557 -0.1546860640282600 S
atom 2.2284319120646865 2.2284319120186322 4.8781700089889375 S
atom 7.8909602651388893 2.9070914250110529 4.8781700089934734 S
atom 2.9070914249588582 7.8909602651901372 4.8781700089939317 S
atom 7.3134037501445093 7.3134037500980371 4.8781700089947284 S
atom 2.5172101695610958 0.0252757494741183 2.1649561229376881 S
atom 7.5516305086981825 0.0758272484227586 2.7092739843562397 S
atom 2.5677616685181306 5.0596960886052695 2.7092739843571625 S
atom 7.6021820076408151 5.1102475875530455 2.1649561229359517 S
atom 2.5172101695516327 0.0252757494745510 7.7096729282135952 S
atom 7.5516305087052622 0.0758272484241760 7.0183311347223682 S
atom 2.5677616685253524 5.0596960886033413 7.0183311347217368 S
atom 7.6021820076312387 5.1102475875542828 7.7096729282140810 S
atom 0.0252757494730122 2.5172101695656464 2.1649561229876118 S
atom 5.0596960886048219 2.5677616685088647 2.7092739843213618 S
atom 0.0758272484230837 7.5516305086880768 2.7092739843203129 S
atom 5.1102475875533058 7.6021820076444060 2.1649561229865792 S
atom 0.0252757494742636 2.5172101695756441 7.7096729281784482 S
atom 5.0596960886013269 2.5677616685017290 7.0183311347579540 S
atom 0.0758272484242370 7.5516305086808266 7.0183311347577515 S
atom 5.1102475875521520 7.6021820076544726 7.7096729281781782 S
atom 0.0339404668682167 0.0339404668940795 9.8519544432333230 Ba
atom 5.0004798722449992 0.0166110320684386 9.8519544432331863 Ba
atom 0.0166110320657020 5.0004798722475181 9.8519544432331774 Ba
atom 5.1189123049472522 5.1189123049727954 9.8519544432330797 Ba
atom -0.0350550505396439 -0.0350550505440432 14.8074754964528985 Ba
atom 5.0694753896637907 0.0856065494977687 14.8074754964528807 Ba
atom 0.0856065494854051 5.0694753896748992 14.8074754964529891 Ba
atom 5.0499167875381543 5.0499167875327560 14.8074754964529998 Ba
atom 2.5429941172302488 2.5429941172333499 12.3211974797266706 Zr
atom 7.5763980599725596 2.5925292197955057 12.3211974797231711 Zr
atom 2.5925292197925982 7.5763980599737577 12.3211974797204444 Zr
atom 7.6279659553105015 7.6279659553125221 12.3211974797220165 Zr
atom 2.5424859190395921 2.5424859190352493 17.2848975186819942 Zr
atom 7.5769062581702213 2.5930374179858546 17.2848975186899416 Zr
atom 2.5930374179906974 7.5769062581661979 17.2848975186874014 Zr
atom 7.6274577571198510 7.6274577571142768 17.2848975186924214 Zr
atom 2.8933266060469967 2.8933266060780354 9.8439692071694100 S
atom 7.2260655711645150 2.2421967309435979 9.8439692071635303 S
atom 2.2421967309849142 7.2260655711230299 9.8439692071671345 S
atom 7.9782984441270157 7.9782984441570308 9.8439692071655340 S
atom 2.1878878442297989 2.1878878442035905 14.8043374923949997 S
atom 7.9315043329787596 2.9476354928221578 14.8043374923932820 S
atom 2.9476354927992978 7.9315043330014046 14.8043374923940299 S
atom 7.2728596823081455 7.2728596822811351 14.8043374923933513 S
atom 2.5172101695567215 0.0252757494781100 11.9630836432865291 S
atom 7.5516305086957090 0.0758272484280254 12.6909541674298527 S
atom 2.5677616685159794 5.0596960886049649 12.6909541674291209 S
atom 7.6021820076362694 5.1102475875539559 11.9630836432875363 S
atom 2.5172101695767566 0.0252757494727067 17.6497439034636656 S
atom 7.5516305086856956 0.0758272484231620 16.9200511339124162 S
atom 2.5677616685061047 5.0596960886021387 16.9200511339131481 S
atom 7.6021820076558635 5.1102475875554605 17.6497439034629160 S
atom 0.0252757494739515 2.5172101695703235 11.9630836433102381 S
atom 5.0596960886020730 2.5677616685108116 12.6909541674042696 S
atom 0.0758272484237713 7.5516305086894873 12.6909541674048718 S
atom 5.1102475875503544 7.6021820076488238 11.9630836433107763 S
atom 0.0252757494761498 2.5172101695503386 17.6497439034457528 S
atom 5.0596960886033076 2.5677616685207330 16.9200511339312243 S
atom 0.0758272484239279 7.5516305086995041 16.9200511339292419 S
atom 5.1102475875562332 7.6021820076288611 17.6497439034442500 S
atom 0.0350550505487081 0.0350550505316958 19.7623195409245760 Ba
atom 4.9993652886030002 0.0154964483912189 19.7623195409246755 Ba
atom 0.0154964484219439 4.9993652885713269 19.7623195409243309 Ba
atom 5.1200268886297540 5.1200268886114104 19.7623195409245049 Ba
atom -0.0339404668974382 -0.0339404668692424 24.7178405941436985 Ba
atom 5.0683608059902783 0.0844919658505819 24.7178405941439721 Ba
atom 0.0844919658094342 5.0683608060312828 24.7178405941439578 Ba
atom 5.0510313711831891 5.0510313712108967 24.7178405941441568 Ba
atom 2.5419777208444363 2.5419777208462970 22.2485975576498411 Zr
atom 7.5774144563603034 2.5935456161824333 22.2485975576547901 Zr
atom 2.5935456161806507 7.5774144563612609 22.2485975576562467 Zr
atom 7.6269495589241858 7.6269495589254062 22.2485975576512161 Zr
atom 2.5408295249388537 2.5408295249404387 27.2153623437746788 Zr
atom 7.5785626522672285 2.5946938120890053 27.2153623437601446 Zr
atom 2.5946938120872112 7.5785626522665739 27.2153623437632994 Zr
atom 7.6258013630177688 7.6258013630177874 27.2153623437611429 Zr
atom 2.8970839938467940 2.8970839938751625 19.7654575449867522 S
atom 7.2223081833518794 2.2384393431599001 19.7654575449835299 S
atom 2.2384393431718199 7.2223081833385052 19.7654575449908734 S
atom 7.9820558319256376 7.9820558319528487 19.7654575449947494 S
atom 2.1916452320292916 2.1916452319974504 24.7258258302197902 S
atom 7.9277469451868372 2.9438781050161249 24.7258258302178859 S
atom 2.9438781050071343 7.9277469451952758 24.7258258302122869 S
atom 7.2766170701107580 7.2766170700774140 24.7258258302125391 S
atom 2.5172101695844771 0.0252757494776954 21.8788408699510022 S
atom 7.5516305086695725 0.0758272484278461 22.6067113940856643 S
atom 2.5677616684897266 5.0596960886044942 22.6067113940856856 S
atom 7.6021820076641813 5.1102475875515729 21.8788408699507784 S
atom 2.5172101695844442 0.0252757494746121 27.5514639026471073 S
atom 7.5516305086690103 0.0758272484257377 26.8601221091727567 S
atom 2.5677616684887292 5.0596960886096189 26.8601221091737195 S
atom 7.6021820076644095 5.1102475875552287 27.5514639026466739 S
atom 0.0252757494707546 2.5172101695424685 21.8788408699671955 S
atom 5.0596960886068212 2.5677616685367912 22.6067113940694249 S
atom 0.0758272484219181 7.5516305087157871 22.6067113940688103 S
atom 5.1102475875543876 7.6021820076208728 21.8788408699672345 S
atom 0.0252757494701278 2.5172101695423090 27.5514639026276420 S
atom 5.0596960886068478 2.5677616685375213 26.8601221091897564 S
atom 0.0758272484209841 7.5516305087166584 26.8601221091913693 S
atom 5.1102475875527773 7.6021820076209847 27.5514639026294397 S
atom 0.0073197365303039 0.0073197365152130 29.6270429807387927 Ba
atom 5.0271006026189813 0.0432317624132873 29.6270429807388602 Ba
atom 0.0432317624408229 5.0271006025905018 29.6270429807390840 Ba
atom 5.0922915746076471 5.0922915745919202 29.6270429807386968 Ba
atom 0.0839510620602059 0.0839510620520462 34.3007529738839381 Ba
atom 4.9504692770656264 -0.0333995631007229 34.3007529738829859 Ba
atom -0.0333995631131388 4.9504692770775529 34.3007529738829859 Ba
atom 5.1689229001379227 5.1689229001295889 34.3007529738835757 Ba
atom 2.5487912240752459 2.5487912240743631 32.2383107255373957 Zr
atom 7.5706009531318488 2.5867321129500014 32.2383107255335375 Zr
atom 2.5867321129523857 7.5706009531297163 32.2383107255359675 Zr
atom 7.6337630621550687 7.6337630621545225 32.2383107255364010 Zr
atom 2.8565399260204307 2.8565399260483302 29.6916250283778709 S
atom 7.2628522511790612 2.2789834109836695 29.6916250283920746 S
atom 2.2789834109991967 7.2628522511631584 29.6916250283840455 S
atom 7.9415117641009836 7.9415117641279327 29.6916250283859107 S
atom 2.3094481871879018 2.3094481871719834 34.7244811014028727 S
atom 7.8099439900191214 2.8260751498546783 34.7244811014146464 S
atom 2.8260751498397521 7.8099439900332097 34.7244811014126142 S
atom 7.3944200252670989 7.3944200252506453 34.7244811014147459 S
atom 2.5172101695697471 0.0252757494752841 31.8605210530348621 S
atom 7.5516305086898390 0.0758272484236087 32.4048389144244808 S
atom 2.5677616685097395 5.0596960886032463 32.4048389144272875 S
atom 7.6021820076494313 5.1102475875521991 31.8605210530321479 S
atom 0.0252757494773285 2.5172101695567295 31.8605210530477407 S
atom 5.0596960885997015 2.5677616685165909 32.4048389144061559 S
atom 0.0758272484243245 7.5516305086958484 32.4048389144053601 S
atom 5.1102475875521929 7.6021820076357587 31.8605210530461633 S
atom 2.6264369810957304 2.6264369810936889 37.8019623897727826 Ba
atom 7.4929551961070224 2.5090863559369021 37.8019623897714538 Ba
atom 2.5090863559269674 7.4929551961148864 37.8019623897710559 Ba
atom 7.7114088191755519 7.7114088191716013 37.8019623897709209 Ba
atom 2.5498056555796764 2.5498056555430222 42.4756723829172316 Ba
atom 7.5695865216669382 2.5857176814435290 42.4756723829163860 Ba
atom 2.5857176814871918 7.5695865216224369 42.4756723829167484 Ba
atom 7.6347774936596187 7.6347774936214687 42.4756723829168763 Ba
atom 5.0912771431157715 5.0912771431137616 39.8644046381171293 Zr
atom 10.1130868721721150 5.1292180319904874 39.8644046381169090 Zr
atom 5.1292180319915852 10.1130868721675249 39.8644046381201065 Zr
atom 10.1762489811941670 10.1762489811929200 39.8644046381169233 Zr
atom 5.0833154439754829 5.0833154439795081 44.8873530198947535 Zr
atom 10.1210485713043497 5.1371797311282963 44.8873530198858433 Zr
atom 5.1371797311244753 10.1210485713084051 44.8873530198897726 Zr
atom 10.1682872820557826 10.1682872820592287 44.8873530198934318 Zr
atom 4.8519341062244985 4.8519341062148582 37.3782342622439003 S
atom 10.3524299090629661 5.3685610688896537 37.3782342622491512 S
atom 5.3685610688833387 10.3524299090686380 37.3782342622450301 S
atom 9.9369059443034065 9.9369059442932723 37.3782342622421240 S
atom 5.3990258450630328 5.3990258450868556 42.4110903352762350 S
atom 9.8053381702112929 4.8214693300311193 42.4110903352707993 S
atom 4.8214693300312348 9.8053381702093496 42.4110903352574979 S
atom 10.4839976831416344 10.4839976831648727 42.4110903352791979 S
atom 5.0596960886145776 2.5677616685154496 40.2421943106191833 S
atom 10.0941164277264548 2.6183131674614208 39.6978764492325809 S
atom 5.1102475875463593 7.6021820076402564 39.6978764492342862 S
atom 10.1446679266943125 7.6527335065890387 40.2421943106176130 S
atom 5.0596960886433004 2.5677616685074387 44.5512514610128392 S
atom 10.0941164276843818 2.6183131674640272 45.2425932544757785 S
atom 5.1102475875042126 7.6021820076524786 45.2425932544788481 S
atom 10.1446679267228674 7.6527335065957569 44.5512514610101533 S
atom 2.5677616685132296 5.0596960885912656 40.2421943106109481 S
atom 7.6021820076430409 5.1102475875589120 39.6978764492439637 S
atom 2.6183131674607454 10.0941164277375908 39.6978764492458964 S
atom 7.6527335065979143 10.1446679266695625 40.2421943106109978 S
atom 2.5677616685106557 5.0596960885632072 44.5512514610213941 S
atom 7.6021820076421225 5.1102475876013154 45.2425932544684812 S
atom 2.6183131674617282 10.0941164277808149 45.2425932544673941 S
atom 7.6527335065917530 10.1446679266421818 44.5512514610205272 S
atom 2.5085454521203108 2.5085454521922195 47.3848747695118035 Ba
atom 7.6108467250118510 2.6269778849082530 47.3848747695113843 Ba
atom 2.6269778848303691 7.6108467250872884 47.3848747695111143 Ba
atom 7.5935172902008361 7.5935172902715875 47.3848747695115833 Ba
atom 2.5775409696253178 2.5775409695334357 52.3403958227315798 Ba
atom 7.5418512076724582 2.5579823674003359 52.3403958227311534 Ba
atom 2.5579823674933624 7.5418512075799526 52.3403958227312032 Ba
atom 7.6625128077045739 7.6625128076128677 52.3403958227314021 Ba
atom 5.0844636398859615 5.0844636398837073 49.8541178060062933 Zr
atom 10.1199003754005545 5.1360315352194288 49.8541178060103150 Zr
atom 5.1360315352221502 10.1199003753973482 49.8541178060075723 Zr
atom 10.1694354779635674 10.1694354779617893 49.8541178059962746 Zr
atom 5.0849718380745710 5.0849718380782223 54.8178178449651412 Zr
atom 10.1193921772053326 5.1355233370296798 54.8178178449633648 Zr
atom 5.1355233370242326 10.1193921772083701 54.8178178449582845 Zr
atom 10.1699436761551993 10.1699436761579491 54.8178178449589026 Zr
atom 4.7341311510710069 4.7341311510369470 47.3768895334321556 S
atom 10.4702328642397209 5.4863640240441462 47.3768895334494999 S
atom 5.4863640240586573 10.4702328642226377 47.3768895334510347 S
atom 9.8191029891518440 9.8191029891173915 47.3768895334508002 S
atom 5.4395699128816144 5.4395699129157835 52.3372578186616337 S
atom 9.7647941023717628 4.7809252622217686 52.3372578186585571 S
atom 4.7809252621920555 9.7647941023993994 52.3372578186785233 S
atom 10.5245417509617258 10.5245417509948815 52.3372578186676662 S
atom 5.0596960886649569 2.5677616685125271 50.2238744936990571 S
atom 10.0941164276749511 2.6183131674589255 49.4960039695766127 S
atom 5.1102475874955093 7.6021820076454691 49.4960039695751348 S
atom 10.1446679267439919 7.6527335065911437 50.2238744936987160 S
atom 5.0596960886724887 2.5677616685196711 54.4529714602066548 S
atom 10.0941164276565498 2.6183131674725515 55.1826642297371066 S
atom 5.1102475874770805 7.6021820076388531 55.1826642297374335 S
atom 10.1446679267522413 7.6527335065870599 54.4529714602068324 S
atom 2.5677616685198421 5.0596960885409645 50.2238744936955186 S
atom 7.6021820076388877 5.1102475876104698 49.4960039695825316 S
atom 2.6183131674665261 10.0941164277893645 49.4960039695784673 S
atom 7.6527335065914635 10.1446679266199435 50.2238744936910706 S
atom 2.5677616685119777 5.0596960885325810 54.4529714602049850 S
atom 7.6021820076448670 5.1102475876278328 55.1826642297387622 S
atom 2.6183131674588296 10.0941164278070623 55.1826642297367442 S
atom 7.6527335065989091 10.1446679266112341 54.4529714602038624 S
atom 2.5074308684385400 2.5074308685534801 57.2952398672044154 Ba
atom 7.6119613086555189 2.6280924685858240 57.2952398672046499 Ba
atom 2.6280924684766029 7.6119613087638998 57.2952398672037830 Ba
atom 7.5924027065177171 7.5924027066313888 57.2952398672047352 Ba
atom 2.5764263859823839 2.5764263858578298 62.2507609204238790 Ba
atom 7.5429657913421293 2.5590969510502601 62.2507609204228558 Ba
atom 2.5590969511607389 7.5429657912296628 62.2507609204233248 Ba
atom 7.6613982240638059 7.6613982239369633 62.2507609204236161 Ba
atom 5.0854800362737036 5.0854800362715347 59.7815178839337804 Zr
atom 10.1188839790157630 5.1350151388324550 59.7815178839291121 Zr
atom 5.1350151388340679 10.1188839790112990 59.7815178839293040 Zr
atom 10.1704518743526435 10.1704518743493129 59.7815178839384984 Zr
atom 5.0866282321805265 5.0866282321737000 64.7482826700486100 Zr
atom 10.1177357831123071 5.1338669429256312 64.7482826700585576 Zr
atom 5.1338669429345130 10.1177357831061929 64.7482826700687468 Zr
atom 10.1716000702577869 10.1716000702512090 64.7482826700527596 Zr
atom 4.7303737632696965 4.7303737632392027 57.2983778712559015 S
atom 10.4739902520528059 5.4901214118279054 57.2983778712608540 S
atom 5.4901214118733153 10.4739902520082246 57.2983778712461387 S
atom 9.8153456013476816 9.8153456013166345 57.2983778712605627 S
atom 5.4358125250937963 5.4358125251110962 62.2587461564967910 S
atom 9.7685514901515944 4.7846826500315673 62.2587461564957110 S
atom 4.7846826499708204 9.7685514902104362 62.2587461564938494 S
atom 10.5207843631728366 10.5207843631902414 62.2587461565082023 S
atom 5.0596960886877147 2.5677616685101583 60.1396317203543376 S
atom 10.0941164276488227 2.6183131674630586 59.4117611962428924 S
atom 5.1102475874688382 7.6021820076419280 59.4117611962459335 S
atom 10.1446679267673190 7.6527335065920097 60.1396317203514883 S
atom 5.0596960886856683 2.5677616685201992 64.3930424354690985 S
atom 10.0941164276623176 2.6183131674724387 65.0843842289024792 S
atom 5.1102475874834941 7.6021820076344744 65.0843842289005607 S
atom 10.1446679267648676 7.6527335065835649 64.3930424354702353 S
atom 2.5677616685167846 5.0596960885173976 60.1396317203630772 S
atom 7.6021820076388993 5.1102475876361071 59.4117611962330230 S
atom 2.6183131674635036 10.0941164278142281 59.4117611962319003 S
atom 7.6527335065969968 10.1446679265952611 60.1396317203620967 S
atom 2.5677616685191449 5.0596960885201163 64.3930424354427231 S
atom 7.6021820076419067 5.1102475876223519 65.0843842289241792 S
atom 2.6183131674699389 10.0941164278010334 65.0843842289264671 S
atom 7.6527335065928659 10.1446679265987729 64.3930424354467590 S
atom 2.5351661824753706 2.5351661825587710 67.1599633070152464 Ba
atom 7.5842259946574799 2.6003571545400646 67.1599633070156017 Ba
atom 2.6003571544787829 7.5842259947204766 67.1599633070150617 Ba
atom 7.6201380205539078 7.6201380206380405 67.1599633070163549 Ba
atom 2.4585348569960752 2.4585348569660246 71.8336733001654295 Ba
atom 7.6608573202163797 2.6769884800524815 71.8336733001642074 Ba
atom 2.6769884800371906 7.6608573202343333 71.8336733001650458 Ba
atom 7.5435066950747256 7.5435066950471867 71.8336733001635821 Ba
atom 5.0786665330366718 5.0786665330427718 69.7712310518042926 Zr
atom 10.1256974822431811 5.1418286420661587 69.7712310518058558 Zr
atom 5.1418286420623094 10.1256974822446946 69.7712310518130465 Zr
atom 10.1636383711195641 10.1636383711224294 69.7712310518121228 Zr
atom 4.7709178310737332 4.7709178310914595 67.2245453546837126 S
atom 10.4334461842316113 5.4495773439930790 67.2245453546749161 S
atom 5.4495773440505948 10.4334461841710180 67.2245453546573231 S
atom 9.8558896691548163 9.8558896691696667 67.2245453546445901 S
atom 5.3180095699558150 5.3180095699185115 72.2574014276794685 S
atom 9.8863544453260221 4.9024856051899874 72.2574014276730168 S
atom 4.9024856051465431 9.8863544453699088 72.2574014276625007 S
atom 10.4029814080345293 10.4029814079970127 72.2574014276738268 S
atom 5.0596960886136380 2.5677616685068410 69.9377592406751774 S
atom 10.0941164277108619 2.6183131674598195 69.3934413793385261 S
atom 5.1102475875298010 7.6021820076499473 69.3934413793382561 S
atom 10.1446679266938133 7.6527335065989730 69.9377592406777921 S
atom 2.5677616685117397 5.0596960885909628 69.9377592407141009 S
atom 7.6021820076445152 5.1102475875744364 69.3934413793067648 S
atom 2.6183131674574169 10.0941164277538107 69.3934413793109002 S
atom 7.6527335065940241 10.1446679266699640 69.9377592407205952 S
