#=======================================================
# FHI-aims file: full_relax/full_relax_RP_5_RxRyRz_RxRy0.in
# Created using the Atomic Simulation Environment (ASE)
# Fri Mar 14 11:37:14 2025
#=======================================================
lattice_vector 10.0013888846834771 -0.0266404260569388 -0.0016531054853081 
lattice_vector -0.0266404260566508 10.0013888846039745 0.0016531050669304 
lattice_vector -0.0092734055846393 0.0092734032497215 56.0481236816143635 
atom 0.0172377658044942 -0.1181220007783913 0.1948811964282350 Ba
atom 5.1188164372960694 -0.0305579659221806 0.1940544814670521 Ba
atom 0.1048018367450210 4.9834566812696233 0.1957074526728954 Ba
atom 5.0046119578030961 4.8692522233326212 0.1948812283691371 Ba
atom -0.2767502599030513 0.2085432370079088 4.9814905514352716 Ba
atom 4.7921509858088376 0.2634301126143664 4.9806639889348716 Ba
atom -0.2218634762417757 5.2774449101620915 4.9823171422202170 Ba
atom 4.7106237805914661 5.1959176371932942 4.9814905689282041 Ba
atom 2.4492242825175734 2.5295108474546009 2.3674077668620277 Zr
atom 7.4585578847486280 2.5248297766027181 2.3665808626798253 Zr
atom 2.4445432460191512 7.5388444802210079 2.3682344712694059 Zr
atom 7.4365984510747012 7.5168851515176893 2.3674077640696254 Zr
atom 2.4078399714268142 2.5442672468314056 7.4440163462512503 Zr
atom 7.4438014451489423 2.5662142239206172 7.4431906579746050 Zr
atom 2.4297867971340441 7.5802286481600820 7.4448431336837535 Zr
atom 7.3952142027315579 7.5316412997102207 7.4440167167859794 Zr
atom 2.5708931421379164 2.7309995684264856 -0.1393970948200920 S
atom 7.2570691876526094 2.4031609225594277 -0.1402228733860788 S
atom 2.2430544765961384 7.4171755419657162 -0.1385702603780221 S
atom 7.5582673615685696 7.7183737890003545 -0.1393969811521333 S
atom 2.2365671836348233 2.2908395250396545 4.9379753613663464 S
atom 7.6972290852446603 2.7374867949718658 4.9371481837625479 S
atom 2.6832144866319720 7.7515014734431293 4.9388012921571711 S
atom 7.2239414233201407 7.2782137472952444 4.9379749854256527 S
atom 2.7354122209537426 0.0415407997652580 2.2422561807842865 S
atom 7.1559995033905652 0.0307089495714409 2.6949362557927254 S
atom 2.1419847834905958 5.0447233124327724 2.6965893409239370 S
atom 7.7227864187152742 5.0289146812162269 2.2422562369586050 S
atom 2.9108483079640184 0.0443748202570297 7.6661395994594113 S
atom 7.0252279085690841 0.0320541409415144 7.2527446929411168 S
atom 2.0112132387695936 5.0460681076511467 7.2543977970161668 S
atom 7.8982224846416385 5.0317482976264030 7.6661395638056407 S
atom -0.0548626964461557 2.2652823315526600 2.2430827648139617 S
atom 4.9433467720590887 2.8320691808020428 2.6957628124332089 S
atom -0.0706685425432386 7.8460838595191102 2.6974159052415136 S
atom 4.9325123078970172 7.2526565143375237 2.2430827475661754 S
atom -0.0576952169256147 2.0898461855190287 7.6669661412613515 S
atom 4.9420007467687714 2.9628407077442485 7.2535712621347788 S
atom -0.0720142503117921 7.9768554807755407 7.2552243264786549 S
atom 4.9296793626662474 7.0772203658975625 7.6669661428930915 S
atom -0.0190872910647294 -0.0662128670379497 9.9879086109726334 Ba
atom 5.0669073185885392 0.0057670005095409 9.9870820743349693 Ba
atom 0.0528925643311204 5.0197817150257764 9.9887351353138900 Ba
atom 4.9682870487327708 4.9211614334430260 9.9879085974189614 Ba
atom 0.0149472671038756 0.0703528992823971 15.0335752963166325 Ba
atom 4.9303417694439604 -0.0282674132668862 15.0327487636883017 Ba
atom -0.0836730585181236 4.9857469551756131 15.0344018729197924 Ba
atom 5.0023216580159753 5.0577268521946603 15.0335753409166539 Ba
atom 2.4916171774761917 2.4957570259516517 12.5107426829949304 Zr
atom 7.4923116124704352 2.4824368461214212 12.5099161664561880 Zr
atom 2.4782969394077119 7.4964514967261975 12.5115685739893188 Zr
atom 7.4789913964652044 7.4831313162892839 12.5107422121289247 Zr
atom 2.5753944151764889 2.4472469657221518 17.5774662989188002 Zr
atom 7.5408217237044015 2.3986597050095342 17.5766392608594728 Zr
atom 2.5268070838121250 7.4126741637399460 17.5782937874662615 Zr
atom 7.5627685052419622 7.4346211580784756 17.5774665941661468 Zr
atom 2.6152124598851731 2.6871964246378504 9.9806805737190061 S
atom 7.3008722477487122 2.3588415541330177 9.9798530628704629 S
atom 2.2868575826059190 7.3728562069665582 9.9815074436582680 S
atom 7.6025866993101872 7.6745706937884091 9.9806805565644456 S
atom 2.3680218632248038 2.3043176813523982 15.0408024160747047 S
atom 7.6837509795144232 2.6060321641624884 15.0399766453922528 S
atom 2.6697362797588449 7.6200467872313364 15.0416293902546538 S
atom 7.3553960901556943 7.2916919525579100 15.0408029943137169 S
atom 2.0348165435279104 -0.0051571580499371 12.3978825003552142 S
atom 7.9624325294299414 -0.0173438508679791 12.6219480429916562 S
atom 2.9484177578977833 4.9966713379850418 12.6236011340728034 S
atom 7.0221906671421213 4.9822175712156813 12.3978824783326349 S
atom 2.9720211035084545 -0.0545546368642463 17.7670861179840358 S
atom 7.0864006621790390 -0.0668753347639769 17.3536911733828561 S
atom 2.0723859857523901 4.9471401020909660 17.3553442773409436 S
atom 7.9593953432287634 4.9328202287628091 17.7670861371891107 S
atom -0.0081626427031494 2.9658779811165532 12.3987090035795937 S
atom 4.9913969246254188 2.0256361716717866 12.6227745911645020 S
atom -0.0226168109657334 7.0396508863493956 12.6244277022891822 S
atom 4.9792107000904409 7.9532521488234673 12.3987090688315593 S
atom 0.0412337338292286 2.0286732942276591 17.7679127216093065 S
atom 5.0409293660608752 2.9016680448986207 17.3545177240998676 S
atom 0.0269147175630266 7.9156826392177226 17.3561708212862733 S
atom 5.0286079757832152 7.0160476061254817 17.7679126382254680 S
atom 0.2726105466798390 -0.2044035156261774 20.0399930414720444 Ba
atom 5.2050977657958759 -0.2859307886765837 20.0391664764591795 Ba
atom 0.1910832739454747 4.7280840842338403 20.0408195667225328 Ba
atom 5.2599846106495001 4.7829709393330324 20.0399930154047219 Ba
atom -0.0213776277531236 0.1222618082358722 24.8266026635018555 Ba
atom 4.8784324508904460 0.0080573243072252 24.8257762170172107 Ba
atom -0.1355821060265150 5.0220721952038314 24.8274294843496612 Ba
atom 4.9659965222047378 5.1096362944815441 24.8266025396010761 Ba
atom 2.5340100897500077 2.4620034435774483 22.6540759445949789 Zr
atom 7.5260653718079880 2.4400440039826141 22.6532496154713137 Zr
atom 2.5120508880386638 7.4540586048626247 22.6549025301637244 Zr
atom 7.5213842325432019 7.4493773457488723 22.6540760475359626 Zr
atom 2.7466671292749929 2.7006746049429293 20.0835102361658038 S
atom 7.2873940765274918 2.2273868763383904 20.0826836636300747 S
atom 2.2733793659188226 7.2414015480574134 20.0843350737873791 S
atom 7.7340413666838179 7.6880488672501146 20.0835094127650322 S
atom 2.4123411948291382 2.2605146522165187 25.1608802410728138 S
atom 7.7275540239612539 2.5617127748363191 25.1600535439653648 S
atom 2.7135394508452335 7.5757275341720138 25.1617075746342387 S
atom 7.3997154612792597 7.2478888353980526 25.1608805090647216 S
atom 2.8412495166957608 -0.0532075328608906 22.3248944261687008 S
atom 7.2618368393984127 -0.0640410787586335 22.7775743841079574 S
atom 2.2478221465063819 4.9499713588536212 22.7792275523622223 S
atom 7.8286236962263942 4.9341648856580500 22.3248944337184767 S
atom 0.0398883229059281 2.1594450305837416 22.3257209865309676 S
atom 5.0380960742267176 2.7262317590020628 22.7784009012382960 S
atom 0.0240803995375183 7.7402466072865801 22.7800541589688059 S
atom 5.0272634154095304 7.1468191477359531 22.3257209806838510 S
atom 2.5535610841750152 2.3334646682086095 28.2785549793806972 Ba
atom 7.6546041429861349 2.4204929841006391 28.2777284713953883 Ba
atom 2.6405892527451007 7.4345075422407580 28.2793813581677789 Ba
atom 7.5409354870238232 7.3208387771622201 28.2785549429072063 Ba
atom 2.2375059201380942 2.6841305862456362 33.0584212559661594 Ba
atom 7.3039386544750391 2.7365477112736492 33.0575947557029366 Ba
atom 2.2899232115272312 7.7505621937124554 33.0592477886869176 Ba
atom 7.2248809101114579 7.6715045968811122 33.0584212540330853 Ba
atom 4.9750488820721452 4.9895157876733700 30.4537781084350740 Zr
atom 9.9859264918307868 4.9863791528081425 30.4529523794439072 Zr
atom 4.9719121338356356 10.0003939424065749 30.4546043741559949 Zr
atom 9.9624230669085652 9.9768899434077110 30.4537788915615906 Zr
atom 4.9727206681638751 4.9993183987066336 35.5139167239083022 Zr
atom 9.9761245956724824 4.9887076458170743 35.5130863387313838 Zr
atom 4.9621098314034358 10.0027226297171925 35.5147422311280536 Zr
atom 9.9600945783507004 9.9866929586305080 35.5139154150804899 Zr
atom 5.1100127892111837 5.2058146301812069 27.9467985944037736 S
atom 9.7696279448716847 4.8514151829848844 27.9459692514009461 S
atom 4.7556134666422167 9.8654299445552969 27.9476238858945791 S
atom 10.0973871429312734 10.1931889111324470 27.9467977598003969 S
atom 4.7260303946304152 4.7019155010297427 33.0167030407455684 S
atom 10.2735275384026892 5.2353978511628769 33.0158805201883752 S
atom 5.2595126949308915 10.2494124877867456 33.0175321234888344 S
atom 9.7134045799246760 9.6892896357638101 33.0167033341539806 S
atom 5.2602723180307462 2.5027136470833016 30.3003411374757228 S
atom 9.6775376762306866 2.4927948256253254 30.8046102412379348 S
atom 4.6635232095674946 7.5068103961939467 30.8062634041385479 S
atom 10.2476467534284996 7.4900890478452498 30.3003408930155871 S
atom 5.3776589309127534 2.4943822241447959 35.8351513520298823 S
atom 9.6026314534925508 2.4854554667474233 35.2207624650390940 S
atom 4.5886168493317099 7.4994699429453231 35.2224155540692649 S
atom 10.3650333239803842 7.4817562126079897 35.8351515082199086 S
atom 2.4713467395174362 4.7277959655767487 30.3011674938002358 S
atom 7.4686272956100943 5.2979051054260244 30.8054367979787678 S
atom 2.4546152874631471 10.3119196644274904 30.8070899175124993 S
atom 7.4587177749957121 9.7151703362974846 30.3011676029454264 S
atom 2.4796705599270115 4.6104097521379312 35.8359779965260614 S
atom 7.4759740715333729 5.3728114372010127 35.2215890317847311 S
atom 2.4619606126514122 10.3868259927079105 35.2232420993322819 S
atom 7.4670438260674041 9.5977838785902527 35.8359779863271939 S
atom 2.7527791979049159 2.3219043268591357 38.0354985496456734 Ba
atom 7.6661640644794540 2.2212747569173117 38.0346719422329400 Ba
atom 2.6521499295061233 7.2352896641114723 38.0363251391258217 Ba
atom 7.7401529304353183 7.3092788740628256 38.0354985250850675 Ba
atom 2.2211821737912572 2.6788829798674376 43.0341088078643637 Ba
atom 7.3091852827012866 2.7528720838604177 43.0332821743634710 Ba
atom 2.2951711877981462 7.7668868658492531 43.0349353559152590 Ba
atom 7.2085558842112523 7.6662573915404613 43.0341087562328894 Ba
atom 4.9806675455963125 4.9940809022574753 40.5348027107707765 Zr
atom 9.9813621091038396 4.9807607655468678 40.5339769485866910 Zr
atom 4.9673474857554965 9.9947753820842369 40.5356298852247434 Zr
atom 9.9680417334273486 9.9814551327830507 40.5348024598455154 Zr
atom 4.9886144504345280 4.9888433013107649 45.5556917592164439 Zr
atom 9.9865994471844939 4.9728137399434509 45.5548686084103522 Zr
atom 4.9725848680408049 9.9868281213830521 45.5565192640747654 Zr
atom 9.9759889731621669 9.9762172462079839 45.5556929012837912 Zr
atom 5.2469924633497085 5.3201290911597496 38.0297349538521061 S
atom 9.6553140858033792 4.7144359328862464 38.0289111898204766 S
atom 4.6412992434982190 9.7284505315083383 38.0305615056816109 S
atom 10.2343666341311295 10.3075033104129830 38.0297367843781586 S
atom 4.7143426428713093 4.6680326882752592 43.0398738142021884 S
atom 10.3074100432204467 5.2470855059269610 43.0390428126619753 S
atom 5.2933955715862142 10.2611002091776786 43.0406988454855579 S
atom 9.7017169457022199 9.6554069654760291 43.0398724887901238 S
atom 5.3691300807239148 2.4918137659287378 40.2187468070471965 S
atom 9.6062200065632197 2.4823344757242674 40.8492075792705052 S
atom 4.5922050310704359 7.4963479865344214 40.8508609056964715 S
atom 10.3565040123639616 7.4791868305490530 40.2187470024533340 S
atom 5.3727182157452331 2.4886932912077713 45.8471917020865334 S
atom 9.5976907738417641 2.4797630929028087 45.2328027614300083 S
atom 4.5836762283737986 7.4937781161717192 45.2344560005975964 S
atom 10.3600924519540101 7.4760679599373310 45.8471916825913226 S
atom 2.4822362999580250 4.6189388905533724 40.2195734868135588 S
atom 7.4790988281093300 5.3692229120292536 40.8500342021247960 S
atom 2.4650807130688461 10.3832377563717646 40.8516873872450788 S
atom 7.4696139877091072 9.6063129461060246 40.2195734234241087 S
atom 2.4853626686331025 4.6153503248296532 45.8480182415136568 S
atom 7.4816630210330013 5.3777520576570401 45.2336293727277976 S
atom 2.4676490012365044 10.3917667460711840 45.2352825064954729 S
atom 7.4727360633754190 9.6027246909279409 45.8480182283032462 S
atom 2.7364543652346520 2.3166571443647275 48.0111864578817347 Ba
atom 7.6714118360585175 2.2375996703755123 48.0103599500858849 Ba
atom 2.6573965828966299 7.2516140722964986 48.0120129643274893 Ba
atom 7.7238291774559631 7.3040310732013856 48.0111864499602916 Ba
atom 2.4203996800436460 2.6673229606439235 52.7910524741978833 Ba
atom 7.3207458763284796 2.5536542373708340 52.7902258697142202 Ba
atom 2.3067310538439303 7.5676688280224704 52.7918789951188927 Ba
atom 7.4077740292536696 7.6546971075256653 52.7910524885595649 Ba
atom 4.9862863076295341 4.9986459845796043 50.6158294999273011 Zr
atom 9.9767973646776067 4.9751420545193126 50.6150016761526658 Zr
atom 4.9627825633873952 9.9891567348416075 50.6166558566495866 Zr
atom 9.9736605320438780 9.9860203986545866 50.6158290694463631 Zr
atom 5.2353046638230278 5.2862461854027485 48.0529027464043565 S
atom 9.6891964418782575 4.7261234740985181 48.0520739205805683 S
atom 4.6751819436154296 9.7401381526234960 48.0537280229295618 S
atom 10.2226789181213551 10.2736204349807192 48.0529023473144434 S
atom 4.8513223253552562 4.7823471273403424 53.1228091243328535 S
atom 10.1930960915953062 5.1101061830411778 53.1219853380466844 S
atom 5.1790812940556465 10.1241207391163552 53.1236371554071525 S
atom 9.8386964771057581 9.7697213311304711 53.1228095927452202 S
atom 5.2978119637872805 2.4813515567619580 50.2633440568991219 S
atom 9.7150772906500613 2.4714321194414564 50.7676135259924592 S
atom 4.7010627670308525 7.4854479068605331 50.7692664389750874 S
atom 10.2851863455840320 7.4687266955770655 50.2633441102367513 S
atom 2.4927076579355800 4.6902566554170493 50.2641706715342167 S
atom 7.4899886643500349 5.2603658335776551 50.7684400394306010 S
atom 2.4759763043815854 10.2743803477204789 50.7700930511398596 S
atom 7.4800799619133693 9.6776309555599216 50.2641706510900335 S
