#=======================================================
# FHI-aims file: full_relax/full_relax_RP_9_Rx0Mz_0RyMz.in
# Created using the Atomic Simulation Environment (ASE)
# Mon Mar 24 16:28:37 2025
#=======================================================
lattice_vector 10.0095720726520181 0.0740410592575269 -0.0000199826860840 
lattice_vector 0.0740410592575189 10.0095720726533006 0.0000199826860912 
lattice_vector -0.0001795804398315 0.0001795804399014 95.9672867938824936 
atom 0.1391928394678296 0.1720557209821282 0.2108592683529951 Ba
atom 5.1767409025451459 0.1763346700682691 0.2108458463556876 Ba
atom 0.2089753958213362 5.1441001767625725 0.2108658289989201 Ba
atom 5.1809994054348003 5.2138622869390172 0.2108592683153319 Ba
atom -0.2687581092650955 -0.1908474037651456 5.0056525445649402 Ba
atom 4.8138627843875481 -0.2316669749638822 5.0056368642035141 Ba
atom -0.1539027223149014 4.7360985317171087 5.0056568469046239 Ba
atom 4.7730484567028597 4.8509591621814305 5.0056525446041711 Ba
atom 2.5295145393069260 2.5377531857722060 2.3962501417789190 Zr
atom 7.5424247208054709 2.5666545903454225 2.3962531886111509 Zr
atom 2.5746592140177476 7.5344200974076632 2.3962731713333234 Zr
atom 7.5713211053490257 7.5795597521039699 2.3962501417800239 Zr
atom 2.5151823777453877 2.5100753871705708 7.4501627546017684 Zr
atom 7.5148221964101216 2.5522416450549898 7.4501643844392822 Zr
atom 2.5470566897243780 7.5200071519042586 7.4501843671041081 Zr
atom 7.5569889436997997 7.5518819532773271 7.4501627545205640 Zr
atom 2.2694774624119676 2.6954952366263822 -0.1108322872606538 S
atom 7.7001703931075820 2.3065799708036145 -0.1108241279960560 S
atom 2.7324048864352619 7.2743454774560981 -0.1108041453688837 S
atom 7.3112840283374236 7.7373018025343523 -0.1108322872595196 S
atom 2.8249962907940933 2.2685867303680158 4.9571869020777477 S
atom 7.2733168317511918 2.8620936181098879 4.9571898243115973 S
atom 2.3055513250659549 7.8298591247546900 4.9572098069801198 S
atom 7.8668028567389943 7.3103932962784999 4.9571869021878259 S
atom 2.7948431984869466 0.0174537731929536 2.2234591071591820 S
atom 7.1747939384765518 0.0515426763654621 2.7759580241747548 S
atom 2.2070284317777524 5.0193081831173876 2.7759780068925224 S
atom 7.8366497644528179 5.0592603391817148 2.2234591071459109 S
atom 2.8946252386193705 0.0172536474106895 7.7841097581451812 S
atom 7.1205377827306062 0.0511945316813475 7.1608481028552982 S
atom 2.1527722760122328 5.0189600384532271 7.1608680855212068 S
atom 7.9364318045858600 5.0590602134319038 7.7841097581515788 S
atom 0.0144295647190918 2.1701245165324274 2.7759649410923606 S
atom 5.0221380230289370 2.8319896417943715 2.2234736824898444 S
atom 0.0543725164034599 7.7997551484291883 2.2234936651757904 S
atom 5.0562361306127794 7.2119310824201488 2.7759649410935556 S
atom 0.0141382976955346 2.1157825340971277 7.1608770886137441 S
atom 5.0220056465643541 2.9316608657090604 7.7841031463570607 S
atom 0.0542401397925123 7.8994263723654097 7.7841231290375026 S
atom 5.0559448637195272 7.1575891000249765 7.1608770886080979 S
atom 0.2842510589964242 0.1829784256328928 9.9788768262459975 Ba
atom 5.1877349498384522 0.3212851949123453 9.9788760605994096 Ba
atom 0.2199694431566538 5.2890507015903214 9.9788960433019103 Ba
atom 5.3260576249294163 5.2247849915591154 9.9788768262489089 Ba
atom -0.2852935196718829 -0.1819343641202001 14.9818844332332670 Ba
atom 4.8227412520942705 -0.2481850663907143 14.9818301847454141 Ba
atom -0.1450242546040945 4.7195804402627832 14.9818501674296805 Ba
atom 4.7565130462840228 4.8598722017878515 14.9818844332394168 Ba
atom 2.5227103018579204 2.5257970973417350 12.4666277838257393 Zr
atom 7.5305176896513233 2.5597801642475320 12.4666193208471263 Zr
atom 2.5627521829199069 7.5275456710183226 12.4666393034921796 Zr
atom 7.5645168678510979 7.5676036633779296 12.4666277838292316 Zr
atom 2.5202694916638202 2.5193009021735122 17.4802086270866219 Zr
atom 7.5239693677892960 2.5574014465657200 17.4801912216674786 Zr
atom 2.5562038610871616 7.5251669533332981 17.4802112043603088 Zr
atom 7.5620760576360322 7.5611074681979114 17.4802086269975980 Zr
atom 2.1919102166066593 2.7848028247760666 9.9696514127570541 S
atom 7.7895575203078309 2.2289595647245943 9.9696425625928047 S
atom 2.8217920136173089 7.1967250714077426 9.9696625453367709 S
atom 7.2337167825686572 7.8266093907017789 9.9696514127654670 S
atom 2.8528862487406963 2.2543038404053304 14.9789062038649927 S
atom 7.2589888357306629 2.8899982396358848 14.9788853833588629 S
atom 2.2912233290387878 7.8577637463021199 14.9789053660638878 S
atom 7.8946928146789803 7.2961104063601283 14.9789062039460941 S
atom 2.8881277097238787 0.0211920692520477 12.1604776791966103 S
atom 7.1221516755907404 0.0555482383761373 12.7999201310375668 S
atom 2.1543861688964645 5.0233137452063863 12.7999401137335127 S
atom 7.9299342756808340 5.0629986353346723 12.1604776791832112 S
atom 2.8865882045725102 0.0194192201717441 17.8069926507884766 S
atom 7.1224460562404825 0.0537923618114280 17.1637280377320707 S
atom 2.1546805495376242 5.0215578687245097 17.1637480204092867 S
atom 7.9283947705312947 5.0612257863402634 17.8069926507894429 S
atom 0.0184612341378857 2.1174510985299300 12.7999450747566250 S
atom 5.0259145432864321 2.9252251073193336 12.1604834322323576 S
atom 0.0581490365713678 7.8929906139824535 12.1605034149233457 S
atom 5.0602678001063968 7.1592576644812542 12.7999450747470593 S
atom 0.0166408655296449 2.1178224736446567 17.1637399315036134 S
atom 5.0240757212385292 2.9237748805778425 17.8070229162968623 S
atom 0.0563102144696744 7.8915403872335208 17.8070428989659817 S
atom 5.0584474315509214 7.1596290396075677 17.1637399315085055 S
atom 0.2857777492371233 0.1815667915431084 19.9882547269707516 Ba
atom 5.1862132402388017 0.3229181901241532 19.9882267805537168 Ba
atom 0.2184477335696075 5.2906836967648898 19.9882467632487675 Ba
atom 5.3275843151607374 5.2233733574258503 19.9882547269684459 Ba
atom -0.2858619275386261 -0.1814826131362239 24.9964109577165416 Ba
atom 4.8232746540414402 -0.2487929524682282 24.9964189214372432 Ba
atom -0.1444908526201296 4.7189725541430745 24.9964389041280945 Ba
atom 4.7559446383795700 4.8603239527225952 24.9964109577120048 Ba
atom 2.5208611937918928 2.5209453721199808 22.4923328423760118 Zr
atom 7.5256472301569612 2.5579659017556642 22.4923228510241806 Zr
atom 2.5578817234172049 7.5257314084861031 22.4923428336878573 Zr
atom 7.5626677597859251 7.5627519381165831 22.4923328423360829 Zr
atom 2.5214528959112852 2.5225898420551425 27.5044570575590406 Zr
atom 7.5273250925240509 2.5585303569330811 27.5044544801864710 Zr
atom 2.5595595857527673 7.5262958636531820 27.5044744629939224 Zr
atom 7.5632594619453322 7.5643964080508290 27.5044570575662028 Zr
atom 2.1877479639381607 2.7884189007443734 19.9879332920899024 S
atom 7.7930930703366332 2.2248891861206817 19.9879168134287930 S
atom 2.8253275636478463 7.1926546928306498 19.9879367961214598 S
atom 7.2295545299118329 7.8302254666716333 19.9879332921738389 S
atom 2.8539744236890923 2.2534718435492991 24.9967323926043505 S
atom 7.2582013899349382 2.8910426174239432 24.9967288886582431 S
atom 2.2904358832411589 7.8588081240906709 24.9967488713026711 S
atom 7.8957809896002740 7.2952784095220098 24.9967323926415936 S
atom 2.8868652029865700 0.0198805001346022 22.1702812580064119 S
atom 7.1226226913353310 0.0542447371530544 22.8143644439977251 S
atom 2.1548571846386793 5.0220102441508159 22.8143844266976856 S
atom 7.9286717689315367 5.0616870663824347 22.1702812580029764 S
atom 2.8870418380933192 0.0203328755171562 27.8209176643105280 S
atom 7.1228996897458945 0.0547060171546803 27.1776530512607266 S
atom 2.1551341830503281 5.0224715241542208 27.1776730339330648 S
atom 7.9288484040186651 5.0621394417651269 27.8209176643004668 S
atom 0.0171419012567820 2.1179107310551011 22.8144001233051874 S
atom 5.0245804863615522 2.9239800132383964 22.1702655613846069 S
atom 0.0568149795301598 7.8917455198895414 22.1702855440912856 S
atom 5.0589484673468581 7.1597172970358383 22.8144001232958082 S
atom 0.0176466663114640 2.1181158637187889 27.1776427684348398 S
atom 5.0250815221607361 2.9240682706586214 27.8209257532239640 S
atom 0.0573160152551612 7.8918337773056866 27.8209457358884720 S
atom 5.0594532324715900 7.1599224296970156 27.1776427684464608 S
atom 0.2852093413652800 0.1820185424897359 30.0027812514787868 Ba
atom 5.1867466421802622 0.3223103040135235 30.0028155172814692 Ba
atom 0.2189811355527781 5.2900758106745407 30.0028354999792057 Ba
atom 5.3270159072582919 5.2238251083921945 30.0027812514844605 Ba
atom -0.2843352372988687 -0.1828942472871377 35.0057888585113801 Ba
atom 4.8217529444397274 -0.2471599573125279 35.0057696414412618 Ba
atom -0.1460125622067857 4.7206055493651320 35.0057896241401778 Ba
atom 4.7574713286053338 4.8589123186515071 35.0057888584762011 Ba
atom 2.5190120856866174 2.5160936469255781 32.5180379010587970 Zr
atom 7.5207767706955888 2.5561516392556412 32.5180263814201354 Zr
atom 2.5530112639153195 7.5239171459366494 32.5180463641213748 Zr
atom 7.5608186517311564 7.5579002128598862 32.5180379011572569 Zr
atom 2.5265400097263506 2.5318153570341462 37.5345029300154636 Zr
atom 7.5364722640062558 2.5636901583793925 37.5344813174168337 Zr
atom 2.5687067570492235 7.5314556651022588 37.5345013001760108 Zr
atom 7.5683465759354567 7.5736219230305855 37.5345029300268536 Zr
atom 2.1888361388717565 2.7875869038944772 30.0057594807714736 S
atom 7.7923056245338094 2.2259335639094298 30.0057603186536070 S
atom 2.8245401178642915 7.1936990706142954 30.0057803011880608 S
atom 7.2306427048441790 7.8293934698348870 30.0057594806864962 S
atom 2.8498121710329642 2.2570879195255764 35.0150142718578010 S
atom 7.2617369399583582 2.8869722388162598 35.0150031392511210 S
atom 2.2939714332821577 7.8547377455148730 35.0150231219522894 S
atom 7.8916187369283461 7.2988944854896998 35.0150142717551347 S
atom 2.8873362187493585 0.0185769991017521 32.1847255709312918 S
atom 7.1213601845985819 0.0529331682272889 32.8241680227752397 S
atom 2.1535946778971797 5.0206986750018681 32.8241880054763016 S
atom 7.9291427846622913 5.0603835651354636 32.1847255709409907 S
atom 2.8889501116432226 0.0229307058650972 37.8237975992020665 S
atom 7.1148626556698620 0.0568715901273917 37.2005359438739873 S
atom 2.1470971490029536 5.0246370968450469 37.2005559265486312 S
atom 7.9307566775289162 5.0647372718277728 37.8237975991989614 S
atom 0.0158078442107117 2.1166656369807715 32.8241822524163993 S
atom 5.0232611535996101 2.9244396457702515 32.1847206099052556 S
atom 0.0554956466443533 7.8922051524442329 32.1847405926070991 S
atom 5.0576144104277052 7.1584722029445436 32.8241822524309868 S
atom 0.0197167410109452 2.1102298785998714 37.2005625383558325 S
atom 5.0275840899657602 2.9261082102311278 37.8237885961346052 S
atom 0.0598185831102474 7.8938737168883817 37.8238085787933969 S
atom 5.0615233071323411 7.1520364445309159 37.2005625383412166 S
atom 0.2686739309446280 0.1909315820878343 39.9790131400703075 Ba
atom 5.1956251099036512 0.3057922125375220 39.9790088377376875 Ba
atom 0.2278596032594769 5.2735577192710918 39.9790288204255404 Ba
atom 5.3104804968577408 5.2327381480607249 39.9790131400328477 Ba
atom -0.1392770178023744 -0.1719715426385965 44.7738064163006086 Ba
atom 4.8327469917740302 -0.1022094324637253 44.7737998556661196 Ba
atom -0.1350185148948238 4.8655560741962667 44.7738198383737682 Ba
atom 4.9025295481359601 4.8698350232856571 44.7738064164004612 Ba
atom 2.5122078480755339 2.5041375582115490 42.5884155427208597 Zr
atom 7.5088697397229724 2.5492772129494674 42.5883925132574959 Zr
atom 2.5411042325767039 7.5170427197962537 42.5884124958001991 Zr
atom 7.5540144144468870 7.5459441243591190 42.5884155427208526 Zr
atom 2.2167260968518017 2.7733040139459382 40.0274787827827865 S
atom 7.7779776284781006 2.2538381854701757 40.0274558779925798 S
atom 2.8102121218548008 7.2216036921371591 40.0274758606365708 S
atom 7.2585326627586602 7.8151105798861629 40.0274787828149030 S
atom 2.7722449252672892 2.3463955076812222 45.0954979720620059 S
atom 7.3511240671214209 2.8093518327764717 45.0954698300547534 S
atom 2.3833585604750409 7.7771173394514914 45.0954898128516248 S
atom 7.8140514911474073 7.3882020736205893 45.0954979720367604 S
atom 2.8346939558808346 0.0225825611768284 42.2086876778691362 S
atom 7.2146446958018124 0.0566714643878310 42.7611865948783390 S
atom 2.2468791891551700 5.0244369711122783 42.7612065775797490 S
atom 7.8765005217529493 5.0643891271168107 42.2086876778688662 S
atom 0.0195843644087134 2.2099011025427679 42.7611920022251795 S
atom 5.0272928230426599 2.8717662278159843 42.2087007436305726 S
atom 0.0595273161784425 7.8395317344452629 42.2087207263615980 S
atom 5.0613909305906200 7.2517076684519850 42.7611920022459984 S
atom 2.3487577717490424 2.3818002337209538 48.1945026653868922 Ba
atom 7.3862853886627429 2.3860587366355928 48.1944892432956280 Ba
atom 2.4185198819224114 7.3538242433056089 48.1945092260245218 Ba
atom 7.3905643377605035 7.4236067996726058 48.1945026652643449 Ba
atom 2.7116608965265123 2.7897511825207597 52.9892959415500044 Ba
atom 7.7942870336976879 2.7489368548371824 52.9892802612040654 Ba
atom 2.8265215269751165 7.7167023613944172 52.9893002438787590 Ba
atom 7.7534674624735054 7.8315577483397893 52.9892959415928502 Ba
atom 5.0248668724316632 5.0332850996299969 50.3798935391765212 Zr
atom 10.0377720344420549 5.0621814841071995 50.3798965859319665 Zr
atom 5.0700065271970347 10.0299469912107977 50.3799165685021180 Zr
atom 10.0666734389466299 10.0750916659738898 50.3798935388399158 Zr
atom 5.0525446713324467 5.0476172612430945 55.4338061514006952 Zr
atom 10.0521849796553226 5.0897840085516144 55.4338077813258110 Zr
atom 5.0844194726960490 10.0575495155322052 55.4338277640810944 Zr
atom 10.0943512375566247 10.0894238275048167 55.4338061515950002 Zr
atom 4.8671248221276588 5.2933221767916958 47.8728111093988815 S
atom 10.2978466538762117 4.9044358119885034 47.8728192686008072 S
atom 5.3300811472107936 9.8722013186559110 47.8728392515589221 S
atom 9.9089313880221734 10.3351287426769094 47.8728111096472162 S
atom 5.2940333283959564 4.7378033483748467 52.9408302988847836 S
atom 9.7423330065303997 5.3312893733885973 52.9408332212551898 S
atom 4.7745674999255003 10.2990548799938288 52.9408532035901871 S
atom 10.3358398942755159 9.7796099143072492 52.9408302989648689 S
atom 4.7306304170024429 2.5406616158415849 50.2071170794018755 S
atom 10.3602610488494022 2.5806045675007909 50.7595883552828795 S
atom 5.3924955422638217 7.5483700746698759 50.7596083379947700 S
atom 9.7724369828356163 7.5824681823495794 50.2071170793771131 S
atom 4.6309591930406757 2.5407939925201317 55.7677465433151482 S
atom 10.4146030312705502 2.5808958345321500 55.1445005028850446 S
atom 5.4468375246895944 7.5486613415234505 55.1445204855274156 S
atom 9.6727657589399865 7.5826005587596406 55.7677465433129385 S
atom 2.5433118758184872 5.3557712074080674 50.7596214037435089 S
atom 7.5451662852966717 4.7679564406432018 50.2071025040236378 S
atom 2.5774007789201585 9.7357219473560477 50.2071224867675312 S
atom 7.5851184414534396 10.3975777732841888 50.7596214037875697 S
atom 2.5436600202187294 5.4100273631636089 55.1445114824809437 S
atom 7.5453664113449372 4.6681744005153254 55.7677531551308761 S
atom 2.5776009044081225 9.6359399072108598 55.7677731377727781 S
atom 7.5854665864040633 10.4518339290601681 55.1445114824575739 S
atom 2.3378350671285433 2.2367420142377248 57.9625202231376733 Ba
atom 7.2413348638031101 2.3750646893415412 57.9625194575119522 Ba
atom 2.2735693571007163 7.3428301959604836 57.9625394402123462 Ba
atom 7.3796416331038461 7.2785485801311047 57.9625202231795029 Ba
atom 2.7027478569076782 2.8062865929043594 62.9655278301471881 Ba
atom 7.8108051251160218 2.7400583870918518 62.9654735816559068 Ba
atom 2.8430396184182372 7.7078238937089445 62.9654935643508438 Ba
atom 7.7445544228473500 7.8480931587856100 62.9655278301593384 Ba
atom 5.0368229612692010 5.0400893371859592 60.4502711807027922 Zr
atom 10.0446464604407737 5.0740885154386630 60.4502627175690677 Zr
atom 5.0768809535857242 10.0418540222405372 60.4502827003071772 Zr
atom 10.0786295273776361 10.0818959032524642 60.4502711806129014 Zr
atom 5.0433191564348947 5.0425301474490789 65.4638520239317216 Zr
atom 10.0470251781254927 5.0806368372689796 65.4638346185544435 Zr
atom 5.0792596713325739 10.0484023440418024 65.4638546012592144 Zr
atom 10.0851257224965813 10.0843367134749311 65.4638520238797526 Zr
atom 4.7778172339643099 5.3708894225710120 57.9532948099245004 S
atom 10.3754670599400551 4.8150486848013569 57.9532859595236403 S
atom 5.4077015532594785 9.7828141914794227 57.9533059425854304 S
atom 9.8196237998867808 10.4126959884560559 57.9532948097121263 S
atom 5.3083162183220276 4.7099133904056112 62.9625496007866801 S
atom 9.7144283850279827 5.3456173693871021 62.9625287807775180 S
atom 4.7466628783656315 10.3133828760460400 62.9625487629094280 S
atom 10.3501227842434744 9.7517199563787145 62.9625496010807595 S
atom 4.6373949514415767 2.5368850956734956 60.1441268292124818 S
atom 10.4129344668692774 2.5765728980871705 60.7835684890287808 S
atom 5.4451689601961117 7.5443384051996265 60.7835884716972217 S
atom 9.6792015173309185 7.5786916620473352 60.1441268291688615 S
atom 4.6388451781408770 2.5387239177779142 65.7906663132448841 S
atom 10.4125630917186491 2.5783932668882663 65.1473633457955259 S
atom 5.4447975850945420 7.5461587737548816 65.1473833284400570 S
atom 9.6806517441159485 7.5805304839030265 65.7906663132178267 S
atom 2.5393063137583356 5.4084134702858488 60.7835835106875564 S
atom 7.5414279892013614 4.6746719294025461 60.1441210761257210 S
atom 2.5736624828625496 9.6424374361439220 60.1441410588492076 S
atom 7.5811128793525597 10.4502200361831168 60.7835835106805646 S
atom 2.5410621897850891 5.4081190896068572 65.1473914173714093 S
atom 7.5432008387406819 4.6762114345785033 65.7906360477393832 S
atom 2.5754353315866245 9.6439769412786518 65.7906560304110570 S
atom 7.5828687561869508 10.4499256555476769 65.1473914173644317 S
atom 2.3392467012685296 2.2352153240168753 67.9718981239112452 Ba
atom 7.2397018685961863 2.3765863989418161 67.9718701775022538 Ba
atom 2.2719363619390456 7.3443519055430269 67.9718901602005445 Ba
atom 7.3810532671780917 7.2770218898887631 67.9718981239258540 Ba
atom 2.7022961059405453 2.8068550008102986 72.9800543547024887 Ba
atom 7.8114130112253646 2.7395249851591559 72.9800623184251549 Ba
atom 2.8436475045180156 7.7072904917176928 72.9800823011040052 Ba
atom 7.7441026718870987 7.8486615666442860 72.9800543546914469 Ba
atom 5.0416746865138462 5.0419384453408167 70.4759762394081122 Zr
atom 10.0464607229365033 5.0789589749370174 70.4759662481320532 Zr
atom 5.0786952161887795 10.0467244816598580 70.4759862307011531 Zr
atom 10.0834812525374584 10.0837450113297251 70.4759762393968145 Zr
atom 5.0400302166255724 5.0413467431143815 75.4881004546865313 Zr
atom 10.0458962677016377 5.0772811125705744 75.4880978771974895 Zr
atom 5.0781307609956139 10.0450466193958547 75.4881178601226424 Zr
atom 10.0818367826247570 10.0831533092066916 75.4881004546829644 Zr
atom 4.7742011579756456 5.3750516752295932 67.9715766891863069 S
atom 10.3795374385314378 4.8115131347546365 67.9715602099844318 S
atom 5.4117719318423267 9.7792786414679824 67.9715801932695456 S
atom 9.8160077239271466 10.4168582411302566 67.9715766890431752 S
atom 5.3091482151599232 4.7088252154628965 72.9803757892585878 S
atom 9.7133840072432580 5.3464048151854886 72.9803722857289614 S
atom 4.7456185005685407 10.3141703218420382 72.9803922678810011 S
atom 10.3509547810991300 9.7506317814527090 72.9803757894303970 S
atom 4.6386400455048395 2.5382191525956452 70.1539089583549043 S
atom 10.4124748343225910 2.5778922307789522 70.7980235375475786 S
atom 5.4447093276410587 7.5456577380843566 70.7980435202289442 S
atom 9.6804466114403915 7.5800257191519300 70.1539089583189792 S
atom 4.6385517880598597 2.5377181169002392 75.8045691501500301 S
atom 10.4122697016503292 2.5773874659589624 75.1612661826956270 S
atom 5.4445041950178235 7.5451529729227689 75.1612861653463540 S
atom 9.6803583540406386 7.5795246831196641 75.8045691501349950 S
atom 2.5406098148867078 5.4079424545404136 70.7980278236354508 S
atom 7.5427395582553451 4.6759344361327244 70.1539246549226050 S
atom 2.5749740518149373 9.6436999428975252 70.1539446376558971 S
atom 7.5824163805720373 10.4497490204239636 70.7980278236095018 S
atom 2.5401485344567529 5.4076654561242350 75.1613164308582213 S
atom 7.5422871833035865 4.6757578010784577 75.8045610612372798 S
atom 2.5745216762061114 9.6435233077631981 75.8045810439206065 S
atom 7.5819551007928254 10.4494720220334809 75.1613164308686095 S
atom 2.3387949503301355 2.2357837318856069 77.9864246484405044 Ba
atom 7.2403097546743211 2.3760529969700785 77.9864589142671747 Ba
atom 2.2725442480529203 7.3438185036016552 77.9864788969264708 Ba
atom 7.3806015162007501 7.2775902977709643 77.9864246484549142 Ba
atom 2.7037077401081824 2.8053283105183127 82.9894322553462302 Ba
atom 7.8097800159863624 2.7410466946933281 82.9894130383112838 Ba
atom 2.8420145093810221 7.7088122013795131 82.9894330209832134 Ba
atom 7.7455143059520157 7.8471348764740121 82.9894322553525967 Ba
atom 5.0465264118793689 5.0437875533082810 80.5016812978971217 Zr
atom 10.0482749853249231 5.0838294343746728 80.5016697782304789 Zr
atom 5.0805094787601455 10.0515949412661652 80.5016897610108799 Zr
atom 10.0883329776929891 10.0855941194415824 80.5016812979082772 Zr
atom 5.0308047017558062 5.0362596291874615 85.5181463266084023 Zr
atom 10.0407364661492355 5.0681339410881838 85.5181247139634451 Zr
atom 5.0729709597432660 10.0358994480233026 85.5181446968746712 Zr
atom 10.0726112674493624 10.0780661953911785 85.5181463266963107 Zr
atom 4.7750331548035474 5.3739635003071067 77.9894028776947863 S
atom 10.3784930607444110 4.8123005805659638 77.9894037153636077 S
atom 5.4107275540517357 9.7800660872501446 77.9894236981874087 S
atom 9.8168397207933644 10.4157700661899639 77.9894028775267998 S
atom 5.3055321391663188 4.7129874681575297 82.9986576690586020 S
atom 9.7174543858864730 5.3428692651454890 82.9986465367822888 S
atom 4.7496888791147640 10.3106347718072122 82.9986665189198050 S
atom 10.3473387051378101 9.7547940340959141 82.9986576691974278 S
atom 4.6381804129242097 2.5395384855054770 80.1683640068605712 S
atom 10.4137199284293569 2.5792262880120420 80.8078056666959981 S
atom 5.4459544217393612 7.5469917949700553 80.8078256494007121 S
atom 9.6799869789143038 7.5813450517365144 80.1683640068358443 S
atom 4.6365118484504899 2.5352155493596054 85.8074319931080822 S
atom 10.4201556867792995 2.5753173913914607 85.1841859527027765 S
atom 5.4523901801281429 7.5430828979571025 85.1842059353192980 S
atom 9.6783184145083290 7.5770221151920110 85.8074319930829716 S
atom 2.5419213836655690 5.4092049612959476 80.8078314024464675 S
atom 7.5440430596480024 4.6754634204253858 80.1683689678593510 S
atom 2.5762775528595894 9.6432289271008145 80.1683889505670493 S
atom 7.5837279497142811 10.4510115271780091 80.8078314024271549 S
atom 2.5379829615380181 5.4157024901682176 85.1841993235488957 S
atom 7.5396893531912035 4.6738495276015835 85.8074409961524935 S
atom 2.5719238457192670 9.6416150341822515 85.8074609788845208 S
atom 7.5797895282450085 10.4575090560798056 85.1841993235691604 S
atom 2.3298819107381914 2.2523191422613498 87.9626565369946434 Ba
atom 7.2568278460947591 2.3671745291916371 87.9626522347176092 Ba
atom 2.2890623395221477 7.3349400359566426 87.9626722173632629 Ba
atom 7.3716884765569404 7.2941257082485453 87.9626565370253672 Ba
atom 2.6927850354005294 2.6602700909721850 92.7574498134044632 Ba
atom 7.6648294912156132 2.7300526473458016 92.7574432526524646 Ba
atom 2.6970639844560456 7.6978181541054953 92.7574632354775162 Ba
atom 7.7345916014106546 7.7020766569903421 92.7574498133859606 Ba
atom 5.0584825006348799 5.0505917907578954 90.5720589399959550 Zr
atom 10.0551494113682605 5.0957364654128963 90.5720359107469477 Zr
atom 5.0873839052909515 10.0635019724274297 90.5720558931129176 Zr
atom 10.1002890660134899 10.0923983569515485 90.5720589402897787 Zr
atom 4.7893160446989436 5.3460735423586279 88.0111221799024008 S
atom 10.3505884392269767 4.8266285766003154 88.0110992748359422 S
atom 5.3828229325073869 9.7943940832433576 88.0111192577338954 S
atom 9.8311226107678653 10.3878801082512560 88.0111221794697940 S
atom 5.2162245509839558 4.7905547139583096 93.0791413687091023 S
atom 9.7950747919511727 5.2534821379404111 93.0791132266070917 S
atom 4.8273092851765567 10.2212476446300151 93.0791332094997017 S
atom 10.2580311170133438 9.8323612798586133 93.0791413686588669 S
atom 4.6908538308866490 2.5355068162870018 90.1923441405310911 S
atom 10.3204844629247976 2.5754497681595061 90.7448154164018064 S
atom 5.3527189561311372 7.5432152745000174 90.7448353990925654 S
atom 9.7326603969218475 7.5773133819757650 90.1923441404973403 S
atom 2.5381830875734486 5.3159204500334427 90.7448499744211574 S
atom 7.5400374975845157 4.7281056833736939 90.1923310747580729 S
atom 2.5722719909120171 9.6958711899435563 90.1923510573834619 S
atom 7.5799896534985773 10.3577270159277379 90.7448499744301955 S
