#=======================================================
# FHI-aims file: full_relax/full_relax_RP_7_Rx0Mz_0Ry0.in
# Created using the Atomic Simulation Environment (ASE)
# Mon Mar 24 15:42:53 2025
#=======================================================
lattice_vector 10.0781869280023155 -0.0000010984439688 -0.0050469959702567 
lattice_vector -0.0000010973839413 10.0845058928314479 -0.0000004710639687 
lattice_vector -0.0398412332650690 -0.0000036676392615 74.9415001924051865 
atom -0.1313603962084106 0.0000019577742319 0.2691537837551173 Ba
atom 5.2122799331170544 0.0000014867887345 0.2680280710608051 Ba
atom 0.1731859209836615 5.0422549868031092 0.2705513298954058 Ba
atom 4.9077325196539983 5.0422543593250673 0.2666300584537502 Ba
atom 0.0719067645358337 0.0000031069617206 4.9257876965203247 Ba
atom 5.0568902627894081 0.0000008950317931 4.9407980584061812 Ba
atom 0.0177962482777989 5.0422543890618492 4.9433213205539648 Ba
atom 5.1109996820655326 5.0422555024839415 4.9232639630391555 Ba
atom 2.5433312650896971 2.5088183339559618 2.3115992254958098 Zr
atom 7.5824252359148598 2.5334381387388261 2.3090763690158935 Zr
atom 2.5433312205939020 7.5756916329595239 2.3115996239618068 Zr
atom 7.5824241830365100 7.5510707325621942 2.3090754892524781 Zr
atom 2.5403006821209417 2.5195208207613797 7.3267507515387233 Zr
atom 7.5793943709084806 2.5227340495597770 7.3242283717269396 Zr
atom 2.5403003599143776 7.5649875442736576 7.3267516360751239 Zr
atom 7.5793935957905614 7.5617732174916572 7.3242270163807470 Zr
atom 2.5400495953704412 2.8732595716702298 -0.1701624287619391 S
atom 7.5791474481543837 2.1689964037349676 -0.1726847032095817 S
atom 2.5400534352447988 7.2112499002001815 -0.1701614483646773 S
atom 7.5791425109028205 7.9155119691592217 -0.1726861654270403 S
atom 2.5384468040580535 2.0542813324552598 4.8550058398668874 S
atom 7.5775346436838369 2.9879739481172800 4.8524789806557198 S
atom 2.5384406313829349 8.0302274439846357 4.8550022469600069 S
atom 7.5775397190958191 7.0965337295335820 4.8524821087790322 S
atom 2.5393954342722207 -0.0000003015461295 2.0006242744431852 S
atom 7.5863989956199580 0.0000028595848575 2.7837176637806289 S
atom 2.5473049823930567 5.0422563527124256 2.7862409277365994 S
atom 7.5784883471119695 5.0422520928599557 1.9981005400305532 S
atom 2.4336921980215740 0.0000027980002493 7.7979397529712893 S
atom 7.6570919028432112 -0.0000007863832378 6.8758798760066080 S
atom 2.6179978897123575 5.0422527083108797 6.8784031376515236 S
atom 7.4727851135118524 5.0422551949140937 7.7954160203883820 S
atom 0.0228219673781633 2.5224467640921859 2.4466687678279939 S
atom 5.0619198625229203 2.5198100580632952 2.4441405339706694 S
atom 0.0228258504337008 7.5620635538902032 2.4466637994979186 S
atom 5.0619148821492050 7.5646991614654002 2.4441450368264310 S
atom 0.0151698785925957 2.6295338980128333 7.3427570733741456 S
atom 5.0542593424576943 2.4127217933248266 7.3402416994670512 S
atom 0.0151653291012344 7.4549752894417214 7.3427649615608548 S
atom 5.0542627946062355 7.6717862953116365 7.3402333393205295 S
atom 0.0029193429053956 -0.0000006297719857 9.8863140899759152 Ba
atom 5.0593538572557115 0.0000030374564434 9.7786504073232425 Ba
atom 0.0202598443840030 5.0422565317840986 9.7811736695219214 Ba
atom 5.0420122587901952 5.0422517663919262 9.8837903562213150 Ba
atom 0.0026286692462164 0.0000026527979658 14.7332765031705630 Ba
atom 5.0259948130503895 -0.0000032847701372 14.8284143204783696 Ba
atom -0.0130991984788650 5.0422502116750767 14.8309375827575671 Ba
atom 5.0417215831644455 5.0422550506852666 14.7307527698344156 Ba
atom 2.5224980383399931 2.5223665239993691 12.2919172780020780 Zr
atom 7.5615875781792150 2.5198863974812795 12.2893915999525962 Zr
atom 2.5224935673222637 7.5621398929752992 12.2919148665379705 Zr
atom 7.5615909517756288 7.5646189206983863 12.2893935460891264 Zr
atom 2.5103724909982286 2.5211253534497255 17.2550046198974236 Zr
atom 7.5494659521927012 2.5211248056514766 17.2524811227300141 Zr
atom 2.5103719422860000 7.5633783007688349 17.2550043866612803 Zr
atom 7.5494654034990152 7.5633777504622834 17.2524808867680157 Zr
atom 2.5275104857134947 3.0191931946525030 9.8158511122072376 S
atom 7.5666131975455588 2.0230606422024153 9.8133291931208895 S
atom 2.5275191842614189 7.0653141382490183 9.8158524613017484 S
atom 7.5666034014911521 8.0614455917983978 9.8133273796076868 S
atom 2.5163376705459708 2.0212733730255250 14.7750942127454188 S
atom 7.5554194175495502 3.0209780222078191 14.7725736425396494 S
atom 2.5163254045021031 8.0632315169741950 14.7750969089491750 S
atom 7.5554305861628572 7.0635257707281998 14.7725704818650616 S
atom 2.6259298230898844 0.0000004502134459 11.8285099650257131 S
atom 7.4588781365178063 -0.0000001821583679 12.7669806454646331 S
atom 2.4197841234231436 5.0422533161934719 12.7695039071109164 S
atom 7.6650227386215226 5.0422528488540799 11.8259862323570228 S
atom 2.4176072058292730 -0.0000035534496743 17.7264019647042268 S
atom 7.6422317850300967 0.0000007603322397 16.7810840295367889 S
atom 2.6031377718853563 5.0422542618332962 16.7836072919829711 S
atom 7.4567001218613216 5.0422488495398134 17.7238782309332272 S
atom 0.0028746983976586 2.3959151260578055 12.3016201565073917 S
atom 5.0419680886315374 2.6463389229434826 12.2990842562623488 S
atom 0.0028740777556055 7.6885924184256078 12.3016075175142987 S
atom 5.0419676119105068 7.4381675232308009 12.2990964215907237 S
atom -0.0091774470656358 2.6356297988903905 17.2562590320568710 S
atom 5.0299224255667072 2.4066209094250466 17.2537502226580415 S
atom -0.0091715853163125 7.4488744050627478 17.2562734850211328 S
atom 5.0299154664872230 7.6778821960625310 17.2537352987384658 S
atom -0.0209766019563658 -0.0000043427230016 19.7792564789712095 Ba
atom 5.0338441762598896 0.0000004964509110 19.6790716658513709 Ba
atom -0.0052498354083421 5.0422539933382264 19.6815949287729097 Ba
atom 5.0181163117939684 5.0422480558049436 19.7767327454867718 Ba
atom -0.0212672831059053 -0.0000010582448568 24.6262188940979492 Ba
atom 5.0004851380088260 -0.0000058237274101 24.7288355802800481 Ba
atom -0.0386088758013420 5.0422476713098332 24.7313588426128952 Ba
atom 5.0178256334263986 5.0422513382044292 24.6236951601633685 Ba
atom 2.4982469421906348 2.5198841854167275 22.2180919683773723 Zr
atom 7.5373443273709482 2.5223632126276883 22.2155706518411371 Zr
atom 2.4982503152166853 7.5646167070709076 22.2180939089489407 Zr
atom 7.5373398570099788 7.5621365818342667 22.2155682346789192 Zr
atom 2.4804442975077756 2.5227298889082803 27.1832585052366511 Zr
atom 7.5195375348731348 2.5195155608937325 27.1807338854890084 Zr
atom 2.4804435219403742 7.5617690559786697 27.1832571452834237 Zr
atom 7.5195372130798388 7.5649822859771731 27.1807347714830598 Zr
atom 2.5044073080812921 3.0209773367056258 19.7349150307677803 S
atom 7.5435124898355985 2.0212715862044766 19.7323886074327106 S
atom 2.5044184767731568 7.0635250828705169 19.7349118633973930 S
atom 7.5435002236336333 8.0632297337617818 19.7323912939289485 S
atom 2.4932344929709416 2.0230575111277651 24.6941581399784695 S
atom 7.5323187096417046 3.0191889698191914 24.6916330606324834 S
atom 2.4932246968313083 8.0614424660405515 24.6941563172331300 S
atom 7.5323274082779088 7.0653099080924280 24.6916344043337652 S
atom 2.6009608550339203 -0.0000026065025203 21.7405053456413526 S
atom 7.4339091680155205 -0.0000032376915685 22.6789760246791694 S
atom 2.3948151552140700 5.0422502566447474 22.6814992880992641 S
atom 7.6400537705990494 5.0422497907644326 21.7379816110324633 S
atom 2.4027470895154637 -0.0000019974074503 27.6316061076430977 S
atom 7.6261467938180338 -0.0000055837900452 26.7095462293703783 S
atom 2.5870527809076154 5.0422479080420084 26.7120694927204347 S
atom 7.4418400045777586 5.0422503951230500 27.6290823736389513 S
atom -0.0212231106908929 2.3959117853025473 22.2109249956298136 S
atom 5.0178702810522777 2.6463355820316399 22.2083890952455469 S
atom -0.0212237313011204 7.6885890781513035 22.2109123596215134 S
atom 5.0178698042991119 7.4381641828321383 22.2084012637199173 S
atom -0.0335143626788198 2.6295289150039163 27.1697675461953914 S
atom 5.0055751000500459 2.4127168102619239 27.1672521727417937 S
atom -0.0335189134563776 7.4549703058360484 27.1697754368607995 S
atom 5.0055785533870401 7.6717813121168952 27.1672438147167234 S
atom -0.0902547035718499 -0.0000047939659267 29.5867452888807456 Ba
atom 5.0029487306272351 -0.0000036803184452 29.5666879316121083 Ba
atom -0.0361452842804431 5.0422498133764870 29.5692111941818290 Ba
atom 4.9488382140873686 5.0422476013041226 29.5842215549495009 Ba
atom 0.1130124626913243 -0.0000036478335444 34.2433792079742929 Ba
atom 4.8475590555706480 -0.0000042752384396 34.2394579102992580 Ba
atom -0.1915349571382513 5.0422492196588040 34.2419811756463517 Ba
atom 5.1521053770848955 5.0422487486362231 34.2408554683787401 Ba
atom 2.4774137110986225 2.5334323739927398 32.1984100344534738 Zr
atom 7.5165066747488849 2.5088114723475927 32.1958858964536958 Zr
atom 2.4774126579172320 7.5510649690084533 32.1984091629386810 Zr
atom 7.5165066305101114 7.5756847709603772 32.1958863009283291 Zr
atom 2.4822981753335038 2.9879693771598950 29.6550034190165341 S
atom 7.5213972633071817 2.0542756608221486 29.6524832799913725 S
atom 2.4823032508336067 7.0965291562433777 29.6550065400640577 S
atom 7.5213910903550660 8.0302217746011433 29.6524796831623227 S
atom 2.4806953830929674 2.1689911396404109 34.6801716843059751 S
atom 7.5197844579342386 2.8732532035871876 34.6776469635675610 S
atom 2.4806904457955556 7.9155067001275539 34.6801702389381035 S
atom 7.5197882978890593 7.2112435360189995 34.6776479560803352 S
atom 2.4734399950912600 -0.0000056444660581 31.7237683132496890 S
atom 7.5204435568937855 -0.0000024808643799 32.5068617071298718 S
atom 2.4813495469119444 5.0422510106433407 32.5093849687667458 S
atom 7.5125329103965699 5.0422467498358543 31.7212445813861734 S
atom -0.0411748839092277 2.5224406499987122 32.0658687084236433 S
atom 4.9979230111745823 2.5198039454141288 32.0633404750295838 S
atom -0.0411709993008955 7.5620574408357832 32.0658637359127923 S
atom 4.9979180290804903 7.5646930469957043 32.0633449740056307 S
atom 2.4819243412705450 2.6740186177968499 37.7555324146307427 Ba
atom 7.5210201249336439 2.3682261601230370 37.7530091669948646 Ba
atom 2.4819261100496686 7.4104796378002558 37.7555324195231705 Ba
atom 7.5210172587946218 7.7162710332837996 37.7530086753680223 Ba
atom 2.4843057063861020 2.4937298187228651 42.4223112323693101 Ba
atom 7.5234176268233153 2.5485169008598878 42.4197874687427046 Ba
atom 2.4843236227654057 7.5907703441834959 42.4223107248710534 Ba
atom 7.5233986130395101 7.5359822625020607 42.4197874923596956 Ba
atom 5.0149634484296444 5.0422477930162550 39.7968679735831259 Zr
atom 10.0291244823301149 5.0422498447089810 39.7939122234409908 Zr
atom 4.9900304667595714 10.0845033287094505 39.7964354983525084 Zr
atom 10.0540563634263833 10.0845001785883639 39.7943442216815058 Zr
atom 5.0062420100931213 5.0422518910681386 44.8087336817738660 Zr
atom 10.0429140351789616 5.0422472081891767 44.8060144607275035 Zr
atom 5.0038200206538201 10.0845006902160765 44.8085377154292175 Zr
atom 10.0453349232125877 10.0845042746521845 44.8062099596356802 Zr
atom 4.6478376212550980 5.0422558826977442 37.3154856802042829 S
atom 10.3938225955913577 5.0422414004873497 37.3121645651081337 S
atom 5.3547285832794245 10.0844949406478950 37.3146878236396091 S
atom 9.6869305375845425 10.0845083244508302 37.3129619422802321 S
atom 5.4771292651382701 5.0422290498634190 42.3384388814563764 S
atom 9.5695865918875924 5.0422692658815249 42.3362882625420838 S
atom 4.5304925771656039 10.0845226691792487 42.3388115234590217 S
atom 10.5162221781166991 10.0844813547181698 42.3359151519019790 S
atom 5.0025813423758922 2.5211026088816597 39.9313310671699071 S
atom 10.0416753146826405 2.5211421546058190 39.9288363329421401 S
atom 5.0025813019545486 7.5633956507861750 39.9313595239384895 S
atom 10.0416742576586522 7.5633550066304629 39.9288072699981598 S
atom 5.0050362566552433 2.5211282437009359 44.8258249162319302 S
atom 10.0441330016525026 2.5211175904223917 44.8232302910527025 S
atom 5.0050389887625641 7.5633710856643939 44.8257536845675375 S
atom 10.0441291722784403 7.5633806404925865 44.8233013122520347 S
atom 2.4831788030540012 5.0422497441980161 40.2756604790563770 S
atom 7.5219002624732534 5.0422485115208415 39.4790330753308751 S
atom 2.4828062363635213 10.0845020092770223 39.4815563391227329 S
atom 7.5222717302462838 10.0845021498799756 40.2731367478090192 S
atom 2.4852705215281743 5.0422509851873567 44.3523742873660467 S
atom 7.5248186281212863 5.0422479627004639 45.2874476779088155 S
atom 2.4857245979856479 10.0845014496564485 45.2899709391541165 S
atom 7.5243634569656432 10.0845033819995624 44.3498505529036819 S
atom 2.4867422740852256 2.5285663187694816 47.3158475328421844 Ba
atom 7.5257890507621275 2.5136813470429411 47.3133269494192206 Ba
atom 2.4866950410080850 7.5559347671856045 47.3158502149343576 Ba
atom 7.5258351864423902 7.5708187894807990 47.3133238018485045 Ba
atom 2.4892008575296138 2.5139708610680560 52.2546705893470289 Ba
atom 7.5283572580670182 2.5282760659962817 52.2521425607900909 Ba
atom 2.4892632404103399 7.5705294733921535 52.2546658224510665 Ba
atom 7.5282937778122854 7.5562233502331475 52.2521468554426107 Ba
atom 5.0060064336580563 5.0422486534842514 49.7676200629723127 Zr
atom 10.0481123407999675 5.0422507937348016 49.7650164255938350 Zr
atom 5.0090183296935855 10.0845042759433792 49.7675396774634606 Zr
atom 10.0450993510683730 10.0845010372513055 49.7650963451527417 Zr
atom 5.0099983331091602 5.0422497200542136 54.7244928404149249 Zr
atom 10.0490917966589066 5.0422491703038812 54.7219693687881374 Zr
atom 5.0099977838612340 10.0845026543733525 54.7244926281738771 Zr
atom 10.0490912476693204 10.0845021056801407 54.7219691108286170 Zr
atom 4.4981342730366247 5.0422878785698986 47.2950498899943881 S
atom 10.5534789102796491 5.0422108971132600 47.2919633125632686 S
atom 5.5143848976787604 10.0844645458387046 47.2944865927466012 S
atom 9.5372271884980044 10.0845404288551208 47.2925261432791473 S
atom 5.5181641562753319 5.0421998904951115 52.2473945105796105 S
atom 9.5384587829114675 5.0422993013038679 52.2453655299337569 S
atom 4.4993647717080698 10.0845526156239682 52.2478887877606937 S
atom 10.5572570724704153 10.0844521063527282 52.2448707850788239 S
atom 5.0075272144856742 2.5211259460879085 49.7748573414482465 S
atom 10.0466119178193605 2.5211203141832033 49.7724458019988631 S
atom 5.0075179053466314 7.5633738106359925 49.7749688835321322 S
atom 10.0466201293923358 7.5633783441002791 49.7723334231838521 S
atom 5.0099934848480867 2.5211252454285722 54.7245567073381523 S
atom 10.0490971875881119 2.5211206893287561 54.7219055383667765 S
atom 5.0100031749322973 7.5633741870862519 54.7244290032833476 S
atom 10.0490864003020093 7.5633776447436771 54.7220331744931485 S
atom 2.4882115541819601 5.0422465229434659 50.2569249532794800 S
atom 7.5268164687067518 5.0422530291532599 49.2940807528176563 S
atom 2.4877224682437347 10.0845065274957815 49.2966040140107253 S
atom 7.5273044574343189 10.0844989331465928 50.2544012186079030 S
atom 2.4902136364478236 5.0422541180324769 54.2450940782190330 S
atom 7.5297830231196601 5.0422453183070095 55.2038916318564929 S
atom 2.4906890158679942 10.0844988105273590 55.2064148944296988 S
atom 7.5293065454716013 10.0845065234888338 54.2425703445265981 S
atom 2.4917028812515971 2.5282760697352513 57.1968388764767326 Ba
atom 7.5307334208136432 2.5139699471695156 57.1943198631235887 Ba
atom 2.4916394012374057 7.5562233548529631 57.1968431249128741 Ba
atom 7.5307958034582603 7.5705285590724518 57.1943151426288807 Ba
atom 2.4941614745471767 2.5136806572502350 62.1356618809397148 Ba
atom 7.5333016211476442 2.5285646783616595 62.1331355203950935 Ba
atom 2.4942076104152582 7.5708180987449953 62.1356587861944050 Ba
atom 7.5332543878719544 7.5559331282451137 62.1331381499574462 Ba
atom 5.0139902277670734 5.0422507936058372 59.6813656476189607 Zr
atom 10.0500712484438726 5.0422475539639207 59.6789222845790732 Zr
atom 5.0109772340112242 10.0845010389308811 59.6814455596227376 Zr
atom 10.0530831403416254 10.0845031801305218 59.6788418964466416 Zr
atom 5.0137546461972260 5.0422475636909168 64.6402520520248629 Zr
atom 10.0552695499584335 5.0422511472841265 64.6379242284806281 Zr
atom 5.0161755383937310 10.0845046304594259 64.6404475017235143 Zr
atom 10.0528475647054787 10.0844999484201185 64.6377283028159866 Zr
atom 4.5018325016839205 5.0422995420885037 57.2015911841721945 S
atom 10.5597248036758469 5.0421990330157884 57.1985731950251761 S
atom 5.5206307898481368 10.0844527145639109 57.2010964597817804 S
atom 9.5409254166947370 10.0845521252138646 57.1990674443242852 S
atom 5.5218623907894457 5.0422115560815230 62.1539358322559536 S
atom 9.5447046805087119 5.0422874391601233 62.1519753890090243 S
atom 4.5056106672576526 10.0845407863727097 62.1544986337929259 S
atom 10.5609553055039278 10.0844638048509818 62.1514121110617452 S
atom 5.0124786801258292 2.5211256248863618 59.6740168255206882 S
atom 10.0515635349305335 2.5211199928521060 59.6716052898869265 S
atom 5.0124695217756310 7.5633734882860342 59.6741283675544096 S
atom 10.0515715957159344 7.5633780218791467 59.6714929113058901 S
atom 5.0149577026715928 2.5211283568643243 64.6232320221948981 S
atom 10.0540543896054508 2.5211176975313143 64.6206374004830479 S
atom 5.0149603773855054 7.5633711912540029 64.6231607907147634 S
atom 10.0540506176279649 7.5633807521448304 64.6207084216491978 S
atom 2.4931801940149456 5.0422464660014850 60.1549049564521994 S
atom 7.5317851051213180 5.0422528459697018 59.1920607558713670 S
atom 2.4926911052856737 10.0845063335772807 59.1945840194543536 S
atom 7.5322730965617382 10.0844988655633259 60.1523812242869269 S
atom 2.4951780379477846 5.0422514466566941 64.1615380293760325 S
atom 7.5347261360223330 5.0422484694233054 65.0966114198442227 S
atom 2.4956321042552196 10.0845019705724130 65.0991346831275024 S
atom 7.5342709720527417 10.0845038578008914 64.1590142969484134 S
atom 2.4965980501293186 2.5485171834441944 67.0291982193544982 Ba
atom 7.5356730388131821 2.4937291005561604 67.0266749852633552 Ba
atom 2.4965790364978182 7.5359825442514117 67.0291982404776547 Ba
atom 7.5356909550566451 7.5907696269750335 67.0266744780678465 Ba
atom 2.4989794020691116 2.3682284070895663 71.6959770218062715 Ba
atom 7.5380705501403051 2.6740198006301403 71.6934532742262007 Ba
atom 2.4989765359437155 7.7162732784458683 71.6959765341349566 Ba
atom 7.5380723188889167 7.4104808220120644 71.6934532849971617 Ba
atom 5.0050332080016426 5.0422516572434333 69.6521177283390216 Zr
atom 10.0690591065480568 5.0422485069548530 69.6500265043405875 Zr
atom 5.0299650930456750 10.0845019936116085 69.6525497524118151 Zr
atom 10.0441261280073899 10.0845040454449375 69.6495940135314129 Zr
atom 4.5428673978760559 5.0422703866084442 67.1105468517998958 S
atom 10.5285969980964325 5.0422290722620531 67.1076504304635932 S
atom 5.4895029878142587 10.0844826648189816 67.1101737024695382 S
atom 9.5819603148407229 10.0845228807196285 67.1080231089940042 S
atom 5.3721590397249530 5.0422435557090335 72.1334999998931892 S
atom 9.7043609965535786 5.0422569394553820 72.1317741683799909 S
atom 4.6652669832561591 10.0845103925319606 72.1342974294247909 S
atom 10.4112519535622354 10.0844959103013032 72.1309762770106602 S
atom 5.0174153607431142 2.5211037820546922 69.5176261865253480 S
atom 10.0565093308607700 2.5211433393900973 69.5151314442262276 S
atom 5.0174153188016533 7.5633968379562537 69.5176546435908165 S
atom 10.0565082753580484 7.5633561821589650 69.5151023816240468 S
atom 2.4980963899111495 5.0422509243317597 69.9699526364593964 S
atom 7.5368178650659585 5.0422496962554222 69.1733252296304926 S
atom 2.4977238396518175 10.0845031861660903 69.1758484904078017 S
atom 7.5371893195409756 10.0845033255185470 69.9674289019886828 S
