#=======================================================
# FHI-aims file: full_relax/full_relax_RP_9_RxRyRz_RxRyRz.in
# Created using the Atomic Simulation Environment (ASE)
# Mon Mar 24 17:57:16 2025
#=======================================================
lattice_vector 9.9360781834074086 -0.0071573558338180 -0.0011025907075279 
lattice_vector -0.0071573558344019 9.9360781835554803 0.0011025908739541 
lattice_vector -0.0028242510602630 0.0028242526258298 97.3358812881868545 
atom 0.0407275392626826 -0.1171468382741826 0.1906234675533264 Ba
atom 5.0851861672561789 -0.0443058816379384 0.1900719836389688 Ba
atom 0.1135678818197040 4.9273116619640440 0.1911772580072068 Ba
atom 5.0051878150504709 4.8473135280408046 0.1906244799251899 Ba
atom -0.2539680901340374 0.1884453520904500 5.0331096540398255 Ba
atom 4.7795934300738070 0.2503894480364502 5.0325583195697199 Ba
atom -0.1920247406854807 5.2220075687880616 5.0336609290921102 Ba
atom 4.7104926120456350 5.1529059784948421 5.0331095821113569 Ba
atom 2.4522649298643309 2.5090231349889081 2.4096419047241571 Zr
atom 7.4234760488961395 2.5086168670794105 2.4090883863757910 Zr
atom 2.4518582704239980 7.4802349592347186 2.4101911373739795 Zr
atom 7.4167251063099142 7.4734838340557372 2.4096428776031660 Zr
atom 2.4086019430959040 2.5207601969066795 7.5126049955513601 Zr
atom 7.4117387562528929 2.5522802188162865 7.5120568531077945 Zr
atom 2.4401209199613425 7.5238978404774643 7.5131590526860679 Zr
atom 7.3730623257498058 7.4852206463453088 7.5126044542248689 Zr
atom 2.5678116839619758 2.6827197338801843 -0.1109430821860220 S
atom 7.2497797689654764 2.3930703652556913 -0.1114940898394327 S
atom 2.2781623049030264 7.3646880775670676 -0.1103915071806296 S
atom 7.5322717344828058 7.6471799296180096 -0.1109417646440548 S
atom 2.2537153584706209 2.3067605515679834 4.9965192741553901 S
atom 7.6257390444314908 2.7071662357298041 4.9959684653256557 S
atom 2.6541209106961596 7.6787842153278802 4.9970711898818490 S
atom 7.2181761352746534 7.2712212133708363 4.9965190356598335 S
atom 2.7843915772545627 0.0349447208627268 2.3039784004790191 S
atom 7.0592610436686476 0.0340087020538297 2.7153475939979965 S
atom 2.0876429800479843 5.0056264426740231 2.7164499663867852 S
atom 7.7488528815510413 4.9994048746654487 2.3039772769792681 S
atom 2.9440838859821765 0.0429273911086901 7.7139947861213329 S
atom 6.9487911117347823 0.0398645359344370 7.3598972555402646 S
atom 1.9771733429658911 5.0114828138441911 7.3609998208829088 S
atom 7.9085444452591869 5.0073876214822679 7.7139951038464067 S
atom -0.0385231732192154 2.1836470115284827 2.3045295034307522 S
atom 4.9268722800162781 2.8732389202732298 2.7158986752512653 S
atom -0.0447452916366114 7.8448567866771297 2.7170014748043516 S
atom 4.9259375015473088 7.1481072455028976 2.3045286774090199 S
atom -0.0465062118862375 2.0239551863773726 7.7145460018034528 S
atom 4.9210172705224169 2.9837084063222807 7.3604485289994823 S
atom -0.0506010410385322 7.9553262740877146 7.3615510676585894 S
atom 4.9179548328340177 6.9884155055439399 7.7145464647360136 S
atom 0.0014749554332447 -0.0772104819023290 10.0763325337372720 Ba
atom 5.0452495331336502 -0.0050534597193403 10.0757812430068814 Ba
atom 0.0736314461106685 4.9665643308812992 10.0768835929430036 Ba
atom 4.9659354788553891 4.8872500850941902 10.0763323528653945 Ba
atom 0.0450300628727331 0.0089526520706183 15.1665911437621030 Ba
atom 4.9590864109725326 -0.0486085773627510 15.1660399022588717 Ba
atom -0.0125311154150425 4.9230090587841691 15.1671424261459880 Ba
atom 5.0094902995245931 4.9734128721974562 15.1665911349810134 Ba
atom 2.4886203277531478 2.4862952611588036 12.6075703056499293 Zr
atom 7.4462037423353857 2.4722621876719733 12.6070182919174680 Zr
atom 2.4745858644327310 7.4438798814986811 12.6081211683883900 Zr
atom 7.4530807472638410 7.4507556997040814 12.6075694677675010 Zr
atom 2.4828190024784109 2.4817088790474151 17.7100742149761849 Zr
atom 7.4507911719764817 2.4780622262058380 17.7095207884428802 Zr
atom 2.4791734061195232 7.4496799408429917 17.7106235476031380 Zr
atom 7.4472793628400655 7.4461692658299627 17.7100743606361561 Zr
atom 2.5598400450558616 2.6436727436162109 10.0724763780414186 S
atom 7.2888268379474894 2.4010418770259703 10.0719245280921506 S
atom 2.3172091398751804 7.3726595611049577 10.0730271919672507 S
atom 7.5243002991243797 7.6081332172261877 10.0724758751547174 S
atom 2.4215966267257722 2.4525246116428234 15.1659289453839339 S
atom 7.4799750334396187 2.5392852318970327 15.1653766238756056 S
atom 2.5083571884006708 7.5109029760707990 15.1664792035250642 S
atom 7.3860570619731218 7.4169850452083503 15.1659286151863952 S
atom 1.9802667608214288 0.0041580752199796 12.5647017426345844 S
atom 7.9810801901329471 0.0016498053622650 12.6807454153731367 S
atom 3.0094623890717300 4.9732676881944142 12.6818478165688315 S
atom 6.9447271950396239 4.9686184883866931 12.5647019538089602 S
atom 3.0062390119324838 0.0014329922895890 17.7402604803896047 S
atom 6.9282994173692467 -0.0023553458818246 17.6918188021143337 S
atom 1.9566816012618933 4.9692623108260126 17.6929213833322301 S
atom 7.9706993582668435 4.9658932015394148 17.7402604920129434 S
atom -0.0077370384766271 2.9877724697700336 12.5652531466400053 S
atom 4.9592309224163111 1.9514195711047670 12.6812964739575698 S
atom -0.0123865276576618 6.9230373454061223 12.6823993269281150 S
atom 4.9567234027039317 7.9522329173206749 12.5652531426934289 S
atom -0.0050116494831457 1.9618001617159666 17.7408117556700091 S
atom 4.9632369045389053 3.0042002130295056 17.6923701446918784 S
atom -0.0083806650686976 7.9758179651555832 17.6934726906907720 S
atom 4.9594486852889306 6.9262606095788390 17.7408117646062102 S
atom -0.0103654598303370 -0.0141163723042939 20.2639025119533436 Ba
atom 4.9821554899633531 0.0067867736882698 20.2633512131551328 Ba
atom 0.0105379692058138 4.9784044822823823 20.2644538063111561 Ba
atom 4.9540947600906176 4.9503439320499796 20.2639024984002027 Ba
atom 0.0090416480794270 0.0154402556169048 25.3622915794646318 Ba
atom 4.9525987641703351 -0.0126203634395925 25.3617402438019859 Ba
atom -0.0190192740242609 4.9589974702953086 25.3628428361640452 Ba
atom 4.9735022373502602 4.9799007930482571 25.3622915506584619 Ba
atom 2.4815678140217252 2.4828924901138514 22.8130961701682118 Zr
atom 7.4496075511530639 2.4793136213499167 22.8125459997449056 Zr
atom 2.4779899102343803 7.4509313710493288 22.8136481381535923 Zr
atom 7.4460282967491604 7.4473528936637896 22.8130971080214415 Zr
atom 2.4803181488100114 2.4840750514896817 27.9161203753437555 Zr
atom 7.4484232218304864 2.4805652335152031 27.9155712590123670 Zr
atom 2.4768054941670292 7.4521829880348545 27.9166740450961868 Zr
atom 7.4447785649266800 7.4485354519814422 27.9161204473551514 Zr
atom 2.5023997505394164 2.5106514547557985 20.2638741230415071 S
atom 7.4218479858674575 2.4584821132570749 20.2633226979215628 S
atom 2.4502302392849176 7.4300998833396932 20.2644252706498307 S
atom 7.4668601870017239 7.4751118814857049 20.2638742207117346 S
atom 2.4607367912663785 2.4551329835939888 25.3623198902034517 S
atom 7.4773665506664306 2.5001448365628605 25.3617701821309680 S
atom 2.5057488161089201 7.4717626060192872 25.3628728450098748 S
atom 7.4251972493250546 7.4195933998606751 25.3623202437093376 S
atom 1.9598585308503342 -0.0011977625382844 22.7949667572631043 S
atom 7.9748956266522564 -0.0046363700948265 22.8301251627707700 S
atom 3.0032778362902190 4.9669813028786827 22.8312279552738957 S
atom 6.9243189295666996 4.9632624030264516 22.7949665838011164 S
atom 3.0064548003433931 -0.0034787598597715 27.9332729144907042 S
atom 6.9285154070366683 -0.0072655999258354 27.8848311746608886 S
atom 1.9568977160976178 4.9643521060738527 27.8859338135043728 S
atom 7.9709152935229088 4.9609816144371548 27.9332728971291253 S
atom -0.0023802057151385 3.0081805420469596 22.7955180196760026 S
atom 4.9655174546999223 1.9576039265869505 22.8306766243042922 S
atom -0.0061001782303754 6.9292216874492345 22.8317791055581161 S
atom 4.9620796124545290 7.9726409739999919 22.7955179173383193 S
atom -0.0001010754258078 1.9615841099344606 27.9338242334084228 S
atom 4.9681486258416188 3.0039839356494040 27.8853825105336846 S
atom -0.0034690212009004 7.9756017584699670 27.8864850351002715 S
atom 4.9643591413804629 6.9260444867502269 27.9338241923653534 S
atom -0.0463539648804076 -0.0076287983231441 30.4596035119950592 Ba
atom 4.9756678736691029 0.0427751096849713 30.4590522097033585 Ba
atom 0.0040498920789283 5.0143930432713688 30.4601547985073857 Ba
atom 4.9181066402492712 4.9568317997142071 30.4596035046605103 Ba
atom -0.0027987489298954 0.0785341672415071 35.5498619522087722 Ba
atom 4.8895048959495613 -0.0007798620866665 35.5493108843312200 Ba
atom -0.0821127604868559 4.9708378942200584 35.5504134848985061 Ba
atom 4.9616616829215037 5.0429944489389600 35.5498620395856619 Ba
atom 2.4745162651944104 2.4794891797127265 33.0186252359095604 Zr
atom 7.4530114502952669 2.4863640671735268 33.0180720734587325 Zr
atom 2.4813936111546742 7.4579818903921700 33.0191746560595902 Zr
atom 7.4389767038642631 7.4439495289685800 33.0186246142546125 Zr
atom 2.5545355405275587 2.4450225941877721 38.1135885674344124 Zr
atom 7.4874748539484557 2.4063479248723074 38.1130376763106256 Zr
atom 2.5158566358997896 7.3779660317133144 38.1141402881337328 Zr
atom 7.5189958918373332 7.4094828399633075 38.1135884628427490 Zr
atom 2.5415398927432116 2.5132595646878344 30.4602657105412895 S
atom 7.4192398677828209 2.4193416023916701 30.4597138445441971 S
atom 2.4476221026716862 7.3909593707325572 30.4608163111897170 S
atom 7.5060003187770183 7.4777199480890912 30.4602658449040931 S
atom 2.4032965265248247 2.3221114297410828 35.5537195770467136 S
atom 7.6103879158597074 2.5575848943001445 35.5531661347923773 S
atom 2.6387701118128741 7.5292027772308776 35.5542687728267381 S
atom 7.3677567610266079 7.2865717470693188 35.5537188411375453 S
atom 1.9536742002573768 -0.0074822511616530 32.9443465094182386 S
atom 7.9544876496772909 -0.0099916769711947 33.0603900431784723 S
atom 2.9828698631988400 4.9616261741890790 33.0614924688962262 S
atom 6.9181346067457063 4.9569785415749656 32.9443466279064694 S
atom 2.9859628872675605 -0.0456971435158523 38.2651940887464121 S
atom 6.9906698997122287 -0.0487607771305643 37.9110964443582077 S
atom 2.0190520984205702 4.9228565403398079 37.9121988357950812 S
atom 7.9504232416351099 4.9187635053543222 38.2651943283180671 S
atom 0.0039054605749265 3.0143645769141618 32.9448977335851154 S
atom 4.9708727333863241 1.9780115820995381 33.0609412035152843 S
atom -0.0007452228154512 6.9496293437596766 33.0620439110806075 S
atom 4.9683660941757237 7.9788249803519955 32.9448978903860379 S
atom 0.0421205151763977 1.9820756164602482 38.2657455756842069 S
atom 5.0096423764826392 2.9418289412516572 37.9116476885303015 S
atom 0.0380254233146777 7.9134466142910114 37.9127505977901791 S
atom 5.0065815378288132 6.9465360460753729 38.2657456380694185 S
atom 0.2526444289280623 -0.1871217456373609 40.5930847745834313 Ba
atom 5.1551605944491135 -0.2562227984088898 40.5925337779571009 Ba
atom 0.1835431829213121 4.7153947713754603 40.5936363011111112 Ba
atom 5.2171046234737872 4.7773385088847853 40.5930848539970413 Ba
atom -0.0420512200632413 0.1184707355817191 45.4355697318971394 Ba
atom 4.8495684875541327 0.0384725151823091 45.4350163170776753 Ba
atom -0.1220490834081824 5.0100903066258411 45.4361195545724570 Ba
atom 4.9224090067671300 5.0829311186097890 45.4355696311035970 Ba
atom 2.5108719038554925 2.4567605675211892 43.2165514327672611 Zr
atom 7.4757388709911270 2.4500105454168342 43.2160020172140449 Zr
atom 2.5041209540757157 7.4216282440619228 43.2171048211933879 Zr
atom 7.4753323627794410 7.4212208699681490 43.2165515396888935 Zr
atom 2.7094208470919172 2.6590236615445426 40.6296769142281633 S
atom 7.2734759311340698 2.2514604479400737 40.6291219001687551 S
atom 2.3018579472079237 7.2230782650438679 40.6302245844334919 S
atom 7.6738812622361410 7.6234839057298451 40.6296760353107871 S
atom 2.3953249646725023 2.2830647201694836 45.7371374092150802 S
atom 7.6494347954919295 2.5655565496774742 45.7365862415760560 S
atom 2.6778170402274144 7.5371742279160969 45.7376889832740758 S
atom 7.3597853559035755 7.2475250245768406 45.7371383716787392 S
atom 2.8754938066727633 -0.0398432891189551 42.9097446237809379 S
atom 7.1503619168547532 -0.0407773637853052 43.3211145531006494 S
atom 2.1787441131643361 4.9308405724362920 43.3222171232095192 S
atom 7.8399541112238715 4.9246172648203439 42.9097446476420927 S
atom 0.0362624781936312 2.0925455085109688 42.9102957322852561 S
atom 5.0016608206482793 2.7821373928168089 43.3216655488311915 S
atom 0.0300427529685403 7.7537550208839674 43.3227679376602666 S
atom 5.0007234498639361 7.0570058666796092 42.9102956735035477 S
atom 2.5215455033724199 2.3664958563001046 48.8585660521410574 Ba
atom 7.5660039308826725 2.4393362684774282 48.8580136918796839 Ba
atom 2.5943862661789661 7.4109539817237904 48.8591158707215385 Ba
atom 7.4860059575264311 7.3309563875018826 48.8585661234147466 Ba
atom 2.2268501394743421 2.6720880127861140 53.7010504740778885 Ba
atom 7.2604113886486372 2.7340313871234363 53.7004991626710861 Ba
atom 2.2887942596658921 7.7056496595795663 53.7016017674082704 Ba
atom 7.1913097551446796 7.6365490652078467 53.7010505398207982 Ba
atom 4.9330828136808016 4.9926661512058699 51.0775842739650940 Zr
atom 9.9042940742903358 4.9922591770033380 51.0770315297460940 Zr
atom 4.9326766175942875 9.9638767372932247 51.0781357623209047 Zr
atom 9.8975433238497974 9.9571261903035619 51.0775841227914214 Zr
atom 4.8894198596865683 5.0044039499927813 56.1805467940010175 Zr
atom 9.8925576669997035 5.0359221697395062 56.1799948333672248 Zr
atom 4.9209395350448775 10.0075391236934390 56.1810955052686722 Zr
atom 9.8538799742501233 9.9688648342789268 56.1805478611761302 Zr
atom 5.0486297558933533 5.1663621017113011 48.5569945202599698 S
atom 9.7305978564747484 4.8767125304993639 48.5564473877325895 S
atom 4.7589802935894134 9.8483304314416031 48.5575517832702630 S
atom 10.0130900843593551 10.1308225692677194 48.5569949771235585 S
atom 4.7345334978484503 4.7904030454043349 53.6644630539880296 S
atom 10.1065570389809807 5.1908088949681241 53.6639104889381713 S
atom 5.1349392153723352 10.1624262080439269 53.6650112397164705 S
atom 9.6989940219738155 9.7548635654482290 53.6644611201577462 S
atom 5.2652101193549434 2.5185869792686923 50.9719175084438305 S
atom 9.5400789064424227 2.5176508977230281 51.3832874894672855 S
atom 4.5684611008510538 7.4892684951901280 51.3843898295570796 S
atom 10.2296702710080964 7.4830475681069970 50.9719181728383219 S
atom 5.4249023017582054 2.5265691225223352 56.3819357189266768 S
atom 9.4296093851983329 2.5235051348497715 56.0278375779840658 S
atom 4.4579914142554680 7.4951251597641564 56.0289403830755148 S
atom 10.3893626062294206 7.4910286932600023 56.3819352685485597 S
atom 2.4422945527332751 4.6672890210198856 50.9724688227342213 S
atom 7.4076915261870377 5.3568811882733520 51.3838384069412086 S
atom 2.4360727007539476 10.3284990139474004 51.3849410360027505 S
atom 7.4067554926509933 9.6317492795509825 50.9724686162334564 S
atom 2.4343109567808976 4.5075978553573215 56.3824861412550007 S
atom 7.4018346299486293 5.4673509437302066 56.0283888836254604 S
atom 2.4302168122848116 10.4389687017680490 56.0294919294109235 S
atom 7.3987727137789134 9.4720580877188958 56.3824870202655504 S
atom 2.4822928635773027 2.4064317013923238 58.7442732861555754 Ba
atom 7.5260675798339882 2.4785889576806213 58.7437216676570984 Ba
atom 2.5544497040322884 7.4502065385608285 58.7448242783059911 Ba
atom 7.4467534727790188 7.3708922959056693 58.7442729787045153 Ba
atom 2.5258477336197807 2.4925955259855397 63.8345310820706189 Ba
atom 7.4399050329953855 2.4350342694191833 63.8339798967180059 Ba
atom 2.4682864668951998 7.4066509315472073 63.8350823217014565 Ba
atom 7.4903089671937320 7.4570548946207493 63.8345309785972006 Ba
atom 4.9694394571000977 4.9699368934162518 61.2755100174675391 Zr
atom 9.9270205382899217 4.9559060168158551 61.2749611309595679 Zr
atom 4.9554026837754730 9.9275234876860488 61.2760610332883218 Zr
atom 9.9338993634277397 9.9343970695632073 61.2755094278913219 Zr
atom 4.9636359344910650 4.9653513105943627 66.3780133660120555 Zr
atom 9.9316100094329478 4.9617034116338550 66.3774585085992612 Zr
atom 4.9599926423431357 9.9333212630252579 66.3785657297166978 Zr
atom 9.9280960832985201 9.9298114651525964 66.3780132978791926 Zr
atom 5.0406582220835761 5.1273152374158730 58.7404173365763995 S
atom 9.7696451890777425 4.8846844693585023 58.7398647213310241 S
atom 4.7980272549256009 9.8563021768219574 58.7409671194348633 S
atom 10.0051183037681497 10.0917759209655742 58.7404164381373874 S
atom 4.9024148544500159 4.9361671887542116 63.8338672849741613 S
atom 9.9607930084649805 5.0229275066607970 63.8333180913881151 S
atom 4.9891750735199247 9.9945452726788435 63.8344200621447158 S
atom 9.8668752378981210 9.9006275025700781 63.8338675080371090 S
atom 4.4610849013143419 2.4877995630485357 61.2326429912184693 S
atom 10.4618985451882072 2.4852906269428403 61.3486862996187341 S
atom 5.4902805268635291 7.4569088722128836 61.3497892664945468 S
atom 9.4255452386066612 7.4522608411295428 61.2326429496932363 S
atom 5.4870570099510338 2.4850754642292934 66.4082016705837646 S
atom 9.4091175370214444 2.4812879323141210 66.3597601251355513 S
atom 4.4374997671406371 7.4529054599430706 66.3608623452408892 S
atom 10.4515174795634831 7.4495367047845624 66.4082022419636786 S
atom 2.4730818774700642 5.4714153101047165 61.2331940385083229 S
atom 7.4400480409712424 4.4350620642676848 61.3492375162332237 S
atom 2.4684319944103867 9.4066799632118556 61.3503406695962212 S
atom 7.4375418625271434 10.4358754840559556 61.2331944125880909 S
atom 2.4758065226299615 4.4454423549651327 66.4087533524916012 S
atom 7.4440552631947634 5.4878423486615810 66.3603116785612599 S
atom 2.4724373212120909 10.4594600696293565 66.3614137053398849 S
atom 7.4402669608552685 9.4099029735035824 66.4087528848609452 S
atom 2.4704528600111919 2.4695259212733722 68.9318431891753391 Ba
atom 7.4629733965610772 2.4904289913577573 68.9312919833314481 Ba
atom 2.4913561350180720 7.4620472085423515 68.9323943525738088 Ba
atom 7.4349126230678353 7.4339864900501684 68.9318431078834948 Ba
atom 2.4898598182806002 2.4990822681174918 74.0302327582757869 Ba
atom 7.4334168843596302 2.4710216724156866 74.0296816190197688 Ba
atom 2.4617992289048782 7.4426401776564433 74.0307837875899111 Ba
atom 7.4543200766850246 7.4635434269058694 74.0302326271068551 Ba
atom 4.9623866415611566 4.9665332383613299 71.4810371840910506 Zr
atom 9.9304239146852691 4.9629560897468608 71.4804881894104938 Zr
atom 4.9588070661434305 9.9345739018785579 71.4815904578195926 Zr
atom 9.9268479872307882 9.9309940313994360 71.4810385770784649 Zr
atom 4.9611348143703093 4.9677192610254082 76.5840620124483422 Zr
atom 9.9292428028399513 4.9642060864777555 76.5835118729734035 Zr
atom 4.9576244636726408 9.9358232477269457 76.5846120206580991 Zr
atom 9.9255944188806957 9.9321798651356961 76.5840617921503650 Zr
atom 4.9832177493557888 4.9942935720128458 68.9318142434034797 S
atom 9.9026658807861505 4.9421243061662841 68.9312639693759621 S
atom 4.9310485310650032 9.9137420556473277 68.9323668623487862 S
atom 9.9476784825596116 9.9587539317814606 68.9318143163900316 S
atom 4.9415546774387700 4.9387750862599571 74.0302617236905434 S
atom 9.9581849202797876 4.9837873125679426 74.0297086861757094 S
atom 4.9865671061293666 9.9554050576416326 74.0308128485113599 S
atom 9.9060153035693936 9.9032358880345619 74.0302614988951575 S
atom 4.4406767490913897 2.4824448811636386 71.4629069183281160 S
atom 10.4557136510719957 2.4790075974180397 71.4980654656719707 S
atom 5.4840961074649544 7.4506259174662537 71.4991680037972088 S
atom 9.4051372575765519 7.4469040230686874 71.4629068425634841 S
atom 5.4872731553448677 2.4801642248956148 76.6012132011252191 S
atom 9.4093333778525405 2.4763743035060415 76.5527710681590037 S
atom 4.4377158908480157 7.4479935455816566 76.5538743355847942 S
atom 10.4517336500779923 7.4446234839016547 76.6012134471669413 S
atom 2.4784368872277525 5.4918226231452136 71.4634586499145428 S
atom 7.4463380262168730 4.4412462115673454 71.4986165519239165 S
atom 2.4747175827847512 9.4128637838982669 71.4997190976544630 S
atom 7.4428959968842472 10.4562832330924387 71.4634580666296415 S
atom 2.4807179023943062 4.4452268249965989 76.6017642060779025 S
atom 7.4489644116586398 5.4876266069866304 76.5533228798520327 S
atom 2.4773497248716705 10.4592445450416740 76.5544254526286636 S
atom 7.4451779422522568 9.4096872290295579 76.6017647039991658 S
atom 2.4344638326806662 2.4760137031160747 79.1275439007041967 Ba
atom 7.4564862643408665 2.5264175307205448 79.1269928716710353 Ba
atom 2.4848680236878358 7.4980351149252167 79.1280952146383640 Ba
atom 7.3989247752659191 7.4404741162058565 79.1275440918851558 Ba
atom 2.4780199871778001 2.5621765865209918 84.2178027867712018 Ba
atom 7.3703224652296395 2.4828628343005592 84.2172518057470398 Ba
atom 2.3987051394751275 7.4544803340785455 84.2183539878087544 Ba
atom 7.4424797848617379 7.5266364905642664 84.2178027567018432 Ba
atom 4.9553352386565868 4.9631314174811996 81.6865677695088550 Zr
atom 9.9338289068526446 4.9700075338356138 81.6860115964848887 Zr
atom 4.9622111928232453 9.9416250636487913 81.6871163084601193 Zr
atom 9.9197951814892615 9.9275912122114178 81.6865655338234689 Zr
atom 5.0353545056821600 4.9286637667102760 86.7815234995165241 Zr
atom 9.9682917383627370 4.8899910149364896 86.7809823115661487 Zr
atom 4.9966744931839369 9.8616095069689980 86.7820832742439876 Zr
atom 9.9998162239585184 9.8931237222620592 86.7815260950580551 Zr
atom 5.0223584149155815 4.9969020846292924 79.1282086037975745 S
atom 9.9000580830701228 4.9029845825525733 79.1276558193502666 S
atom 4.9284400429438113 9.8746020308319178 79.1287568375454384 S
atom 9.9868183648324234 9.9613623256531962 79.1282088120781850 S
atom 4.8841145785270603 4.8057540422397178 84.2216589881450659 S
atom 10.0912061707522565 5.0412269547882715 84.2211064501631910 S
atom 5.1195885221116173 10.0128452945216342 84.2222069124474189 S
atom 9.8485752578915342 9.7702144823610126 84.2216587903755283 S
atom 4.4344925475444343 2.4761586856110700 81.6122871016603710 S
atom 10.4353057744582483 2.4736506115818080 81.7283307039280658 S
atom 5.4636879641487166 7.4452673757901202 81.7294328421457408 S
atom 9.3989530291649110 7.4406193227646558 81.6122868917334756 S
atom 5.4667812945709944 2.4379456372846051 86.9331354402525989 S
atom 9.4714880577647182 2.4348821677564607 86.5790372258963856 S
atom 4.4998704316515097 7.4064976085030905 86.5801405457865769 S
atom 10.4312417489330791 7.4024074144241050 86.9331354902266042 S
atom 2.4847225994344018 5.4980072846643244 81.6128381483399465 S
atom 7.4516905612307855 4.4616542490094249 81.7288814183282284 S
atom 2.4800726972076172 9.4332720291539243 81.7299845982197013 S
atom 7.4491840212437834 10.4624676367712013 81.6128384187215943 S
atom 2.5229396945129805 4.4657177536897077 86.9336865457276957 S
atom 7.4904596772274594 5.4254711326079761 86.5795888667228297 S
atom 2.5188401317874356 10.3970887632115456 86.5806918025056120 S
atom 7.4873991946958416 9.4301782443661661 86.9336870853105665 S
atom 2.7334625212478310 2.2965203856043743 89.2610250099857154 Ba
atom 7.6359785356683423 2.2274200796332608 89.2604741677196643 Ba
atom 2.6643602493494973 7.1990374547864144 89.2615764342535556 Ba
atom 7.6979235344341177 7.2609802298754031 89.2610250582705760 Ba
atom 2.4387667795104657 2.6021128754707226 94.1035106788522739 Ba
atom 7.3303864675391752 2.5221147927587761 94.1029595919262505 Ba
atom 2.3587683691324384 7.4937328213470975 94.1040622572012069 Ba
atom 7.4032274291390578 7.5665734479774089 94.1035098987690475 Ba
atom 4.9916899698598307 4.9404028879607438 91.8844942655670565 Zr
atom 9.9565566760952375 4.9336526126664406 91.8839414912789749 Zr
atom 4.9849387833896515 9.9052708541147272 91.8850437972172358 Zr
atom 9.9561505498277523 9.9048632797723180 91.8844946914475003 Zr
atom 5.1902390169077464 5.1426663578404819 89.2976194281461062 S
atom 9.7542938005724853 4.7351027533110139 89.2970608516275348 S
atom 4.7826765367195101 9.7067204614742799 89.2981643024963603 S
atom 10.1546995998100709 10.1071261494797842 89.2976167297719172 S
atom 4.8761431153770944 4.7667069645472182 94.4050795533691200 S
atom 10.1302527070935113 5.0491988208527259 94.4045226139653835 S
atom 5.1586352502845161 10.0208168183802897 94.4056298183731712 S
atom 9.8406034389296639 9.7311673038000333 94.4050798499112886 S
atom 5.3563118481589811 2.4437965064099543 91.5776848345705901 S
atom 9.6311803759432202 2.4428654089283541 91.9890550178972717 S
atom 4.6595626567958845 7.4144844151878848 91.9901567308459249 S
atom 10.3207724043191806 7.4082592767912638 91.5776854011575097 S
atom 2.5170804371377664 4.5761882364644650 91.5782365795530211 S
atom 7.4824790376719976 5.2657798340062412 91.9896062936743988 S
atom 2.5108627423863474 10.2373973091174442 91.9907083394392231 S
atom 7.4815395021787827 9.5406485218350152 91.5782362118385294 S
