#=======================================================
# FHI-aims file: full_relax/full_relax_RP_6_Rx0Mz_0-Ry0.in
# Created using the Atomic Simulation Environment (ASE)
# Fri Mar 14 11:44:50 2025
#=======================================================
lattice_vector 10.0798427126944361 0.0000000019320929 -0.0000000000015935 
lattice_vector 0.0000000019310828 10.0868451584022480 0.0000000000082217 
lattice_vector -0.0000000000107662 0.0000000000555644 65.0256412686505882 
atom -0.1587752968754492 0.0000000026603465 0.2718550301371333 Ba
atom 5.1863891233000192 0.0000000053901346 0.2704727186443452 Ba
atom 0.1464677681157068 5.0434225836053681 0.2704727202549747 Ba
atom 4.8811460605200967 5.0434225828058405 0.2718550298501299 Ba
atom -0.0043134000876787 0.0000000027390254 4.9425134917137790 Ba
atom 4.9821772727352753 0.0000000150674677 4.9261107458916644 Ba
atom -0.0577440820794864 5.0434225920731093 4.9261107459855893 Ba
atom 5.0356079568677599 5.0434225816568832 4.9425134917091347 Ba
atom 2.5117044941280819 2.5093026890226620 2.3137085327788811 Zr
atom 7.5516258518171835 2.5341199003582564 2.3137085343994697 Zr
atom 2.5117044966962734 7.5775424789425392 2.3137085330211113 Zr
atom 7.5516258511556691 7.5527252700598133 2.3137085297838245 Zr
atom 2.5185197254104197 2.5195906870379678 7.3291991785260988 Zr
atom 7.5584410820196908 2.5238318970961271 7.3291991924976907 Zr
atom 2.5185197263314727 7.5672544749392996 7.3291991919801989 Zr
atom 7.5584410830998339 7.5630132678349291 7.3291991845859439 Zr
atom 2.5139439318432943 2.8742235518612316 -0.1679379237391401 S
atom 7.5538652751561637 2.1691990367327936 -0.1679379223921525 S
atom 2.5139439196108917 7.2126216146840667 -0.1679379218797053 S
atom 7.5538652893195275 7.9176461316394295 -0.1679379223966962 S
atom 2.5189656507024036 2.0558232741492262 4.8569928063365877 S
atom 7.5588870370863228 2.9875993134577774 4.8569927921928482 S
atom 2.5189656814900983 8.0310218911740154 4.8569927940337569 S
atom 7.5588870081942821 7.0992458545627866 4.8569928066610366 S
atom 2.5161098755403764 0.0000000010995555 2.0031618484414548 S
atom 7.5463998248818642 0.0000000061891168 2.7877388647836785 S
atom 2.5064784695431319 5.0434225860490027 2.7877388646866126 S
atom 7.5560312329930923 5.0434225827586108 2.0031618485297891 S
atom 2.6453316412890686 0.0000000100576323 7.7983768300348828 S
atom 7.4696905305454315 -0.0000000079583871 6.8836877397874598 S
atom 2.4297691752447794 5.0434225743713865 6.8836877400191820 S
atom 7.6852529985805376 5.0434225937423500 7.7983768297178795 S
atom -0.0071575848668382 2.5195859219150738 2.4470591441570315 S
atom 5.0327637770836926 2.5238366664136049 2.4470591672145039 S
atom -0.0071575790324293 7.5672592445303080 2.4470591672543618 S
atom 5.0327637731983019 7.5630085019648421 2.4470591444939149 S
atom 0.0052729591281776 2.3962854300798702 7.3417429603023825 S
atom 5.0451942887492143 2.6471371557217269 7.3417429143391040 S
atom 0.0052729341164180 7.6905597338776284 7.3417429143934854 S
atom 5.0451943155665520 7.4397080104312918 7.3417429598810369 S
atom -0.0003072986038809 0.0000000104751094 9.7684333421907592 Ba
atom 5.0606705196978217 -0.0000000127119614 9.9022446855049768 Ba
atom 0.0207491627181026 5.0434225659532936 9.9022446854485242 Ba
atom 5.0396140605576125 5.0434225909692092 9.7684333421322549 Ba
atom 0.0849700473575710 -0.0000000401213861 14.7785548333507659 Ba
atom 5.1142682913998003 -0.0000000066456996 14.7785548333278012 Ba
atom 0.0743469356192219 5.0434225721500807 14.7785548332993528 Ba
atom 5.1248914054085821 5.0434225405810755 14.7785548333081849 Ba
atom 2.5515973353187662 2.5216794941984704 12.2964138858631902 Zr
atom 7.5915186899765210 2.5217430667250675 12.2964138860765502 Zr
atom 2.5515973342265768 7.5651656449044644 12.2964138882245866 Zr
atom 7.5915186930655887 7.5651020741906558 12.2964138844588859 Zr
atom 2.5515973348717496 2.5216794948150532 17.2606957859723273 Zr
atom 7.5915186904704184 2.5217430670781917 17.2606957763052691 Zr
atom 2.5515973344201872 7.5651656455498895 17.2606957771345435 Zr
atom 7.5915186927984237 7.5651020744184034 17.2606957809210826 Zr
atom 2.5327935527995482 3.0162742795638726 9.8186952826768525 S
atom 7.5727148602081220 2.0271482909188498 9.8186952623763499 S
atom 2.5327935051827715 7.0705708692651532 9.8186952608459919 S
atom 7.5727149097771838 8.0596968600678238 9.8186952741891194 S
atom 2.5418032285065451 2.0266740010696576 14.7785548269244327 S
atom 7.5817246460616623 3.0167485674638956 14.7785548399902495 S
atom 2.5418032904783998 8.0601711457648726 14.7785548379325640 S
atom 7.5817245859735261 7.0700965810583183 14.7785548381588008 S
atom 2.4163729045734428 0.0000000163262527 11.8324509395906663 S
atom 7.6967335229975102 -0.0000000275956423 12.7657672270958020 S
atom 2.6568121674487464 5.0434225454837840 12.7657672263664157 S
atom 7.4562942614835528 5.0434225913343980 11.8324509389192105 S
atom 2.4163729043685946 0.0000000063853723 17.7246587282455330 S
atom 7.6967335227097209 -0.0000000261045980 16.7913424418241313 S
atom 2.6568121676183214 5.0434225549538931 16.7913424410271119 S
atom 7.4562942617817622 5.0434225897211427 17.7246587279701444 S
atom 0.0241592543505347 2.6587400991286145 12.3082903748265533 S
atom 5.0640805425654021 2.3846824604707457 12.3082904431124636 S
atom 0.0241591964727771 7.4281050386088960 12.3082904427249709 S
atom 5.0640806023259799 7.7021626795951335 12.3082903751892001 S
atom 0.0241592391332149 2.6587400993251151 17.2488192926855177 S
atom 5.0640805577849424 2.3846824604889170 17.2488192245948433 S
atom 0.0241591962069078 7.4281050387979173 17.2488192251212737 S
atom 5.0640806026207494 7.7021626793636946 17.2488192926529891 S
atom -0.0003072970535711 0.0000000107855399 19.7886763258236336 Ba
atom 5.0606705180486209 -0.0000000123126320 19.6548649826867674 Ba
atom 0.0207491641953283 5.0434225652641871 19.6548649826081920 Ba
atom 5.0396140590846032 5.0434225903790253 19.7886763261182992 Ba
atom -0.0043134009023140 0.0000000015147133 24.6145961759101617 Ba
atom 4.9821772735582952 0.0000000138541632 24.6309989216536351 Ba
atom -0.0577440831437520 5.0434225930899963 24.6309989218530490 Ba
atom 5.0356079578833182 5.0434225826828456 24.6145961760120358 Ba
atom 2.5185197262680719 2.5195906883901626 22.2279104811852299 Zr
atom 7.5584410811679428 2.5238318974041238 22.2279104824792100 Zr
atom 2.5185197267723765 7.5672544760562674 22.2279104810349786 Zr
atom 7.5584410825648778 7.5630132677382207 22.2279104886955494 Zr
atom 2.5117044942837885 2.5093026889365606 27.2434011368562210 Zr
atom 7.5516258516356363 2.5341199002798680 27.2434011334870334 Zr
atom 2.5117044970382585 7.5775424780071523 27.2434011330541956 Zr
atom 7.5516258508338456 7.5527252686009438 27.2434011336485433 Zr
atom 2.5327935527721825 3.0162742803028149 19.7384143910850050 S
atom 7.5727148602304970 2.0271482912053171 19.7384144015533209 S
atom 2.5327935050857513 7.0705708694971312 19.7384144018309335 S
atom 7.5727149098176749 8.0596968604332062 19.7384143851388636 S
atom 2.5189656506088052 2.0558232746337133 24.7001168683320707 S
atom 7.5588870371471595 2.9875993129809144 24.7001168679004977 S
atom 2.5189656814143069 8.0310218914385931 24.7001168694728150 S
atom 7.5588870082965265 7.0992458544525583 24.7001168642455156 S
atom 2.6453316412232351 0.0000000096595852 21.7587328372361526 S
atom 7.4696905306756438 -0.0000000022143364 22.6734219272975572 S
atom 2.4297691751232011 5.0434225737134257 22.6734219274540294 S
atom 7.6852529987314631 5.0434225882353418 21.7587328369408155 S
atom 2.5161098756009022 0.0000000127313503 27.5539478190269378 S
atom 7.5463998249760174 0.0000000016099352 26.7693708029143380 S
atom 2.5064784694592488 5.0434225763745220 26.7693708030512916 S
atom 7.5560312329749530 5.0434225887808690 27.5539478195580116 S
atom 0.0052729556397096 2.3962854302923278 22.2153667070304124 S
atom 5.0451942921622681 2.6471371557785646 22.2153667530390244 S
atom 0.0052729379484782 7.6905597339956646 22.2153667527230851 S
atom 5.0451943118758882 7.4397080103100404 22.2153667071880854 S
atom -0.0071575713542122 2.5195859215283196 27.1100505233261728 S
atom 5.0327637635806859 2.5238366660298794 27.1100505003481729 S
atom -0.0071575847651391 7.5672592444148714 27.1100505006395629 S
atom 5.0327637788972073 7.5630085018373823 27.1100505234951221 S
atom -0.1587752970194861 0.0000000027202602 29.2852546376332761 Ba
atom 5.1863891237382029 0.0000000054322810 29.2866369465744683 Ba
atom 0.1464677675484158 5.0434225837144773 29.2866369478706794 Ba
atom 4.8811460610035695 5.0434225829345118 29.2852546375035629 Ba
atom 2.5139439320431487 2.8742235507786149 29.7250475856249459 S
atom 7.5538652748666815 2.1691990359801707 29.7250475928395339 S
atom 2.5139439198071636 7.2126216145070918 29.7250475924089024 S
atom 7.5538652890412630 7.9176461318227629 29.7250475905788356 S
atom 2.5137124565257931 2.3683518100065410 32.8002525302780654 Ba
atom 7.5536338158623204 2.6750707768692834 32.8002525295195966 Ba
atom 2.5137124587216921 7.7184933543280234 32.8002525293959266 Ba
atom 7.5536338155993574 7.4117743868842272 32.8002525292651157 Ba
atom 2.5137805204745001 2.5493206474280612 37.4659408341956777 Ba
atom 7.5537018855366451 2.4941019367986446 37.4659408341051474 Ba
atom 2.5137805313975456 7.5375245171598975 37.4659408340250053 Ba
atom 7.5537018765498924 7.5927432229391272 37.4659408344375038 Ba
atom 5.0211275719610589 5.0434225812403346 34.8418001931341195 Zr
atom 10.0861617671441568 5.0434225833984110 34.8422076793217883 Zr
atom 5.0462404129062355 10.0868451614769352 34.8422076841397512 Zr
atom 10.0610489311261659 10.0868451612502739 34.8418001901698915 Zr
atom 5.0325662983389297 5.0434225842282707 39.8534771852915455 Zr
atom 10.0747866977019562 5.0434225833859916 39.8536495059957119 Zr
atom 5.0348653425096037 10.0868451565563255 39.8536495108900439 Zr
atom 10.0724876554979232 10.0868451593306965 39.8534771883911674 Zr
atom 5.3877760693985275 5.0434225860041764 32.3603932066973243 S
atom 9.7195884997092232 5.0434225760614577 32.3608259946175991 S
atom 4.6796671454090371 10.0868451572973807 32.3608259982204629 S
atom 10.4276974270036664 10.0868451691696794 32.3603932085209323 S
atom 4.5599428376147983 5.0434225722471169 37.3834607463748796 S
atom 10.5474652790499963 5.0434225970113786 37.3835518460734235 S
atom 5.5075439246004123 10.0868451694139072 37.3835518275585557 S
atom 9.5998641958940674 10.0868451465844142 37.3834607488898882 S
atom 5.0337142468801321 2.5217320624567252 34.9765506095486955 S
atom 10.0736356034394472 2.5216905088734936 34.9765506274331344 S
atom 5.0337142483476880 7.5651131009842247 34.9765506228903931 S
atom 10.0736356039029129 7.5651546564990300 34.9765506048060715 S
atom 5.0337011673045984 2.5217047793158271 39.8700430324198791 S
atom 10.0736225241310642 2.5217178107355354 39.8700429938957797 S
atom 5.0337011686375943 7.5651403823714451 39.8700430021345369 S
atom 10.0736225247275648 7.5651273528839678 39.8700430411617219 S
atom 2.5137476596803259 5.0434225816384384 34.5251012653886633 S
atom 7.5536461077700467 5.0434225814734468 35.3196635440659179 S
atom 2.5137247585138058 10.0868451602504887 35.3196635437209068 S
atom 7.5536690075775716 10.0868451617275454 34.5251012666312960 S
atom 2.5137528672889209 5.0434225801608505 40.3328209293187427 S
atom 7.5536886172393167 5.0434225809248181 39.3955858726927559 S
atom 2.5137672473850778 10.0868451599515616 39.3955858718204084 S
atom 7.5536742386622926 10.0868451607649554 40.3328209295422724 S
atom 2.5137322192984621 2.5138449504228633 42.3578651436428046 Ba
atom 7.5536535504343236 2.5295776299549595 42.3578651444851531 Ba
atom 2.5137321965464783 7.5730002141891708 42.3578651450793657 Ba
atom 7.5536535751207889 7.5572675269673706 42.3578651441670786 Ba
atom 2.5137350804219207 2.5299463874531436 47.2913754674620321 Ba
atom 7.5536564666904553 2.5134761936569610 47.2913754661952410 Ba
atom 2.5137351098957770 7.5568987779381445 47.2913754659923455 Ba
atom 7.5536564391544774 7.5733689628408509 47.2913754671108748 Ba
atom 5.0349014464354536 5.0434225843426628 44.8124556965805212 Zr
atom 10.0723750001356667 5.0434225861736470 44.8125111705821908 Zr
atom 5.0324536437958898 10.0868451556692200 44.8125111643032099 Zr
atom 10.0748228027194671 10.0868451557695433 44.8124557009135387 Zr
atom 5.0349014446389813 5.0434225831574011 49.7702952290583340 Zr
atom 10.0723749985027329 5.0434225850591394 49.7702397726319745 Zr
atom 5.0324536431611371 10.0868451571031201 49.7702397696242400 Zr
atom 10.0748228019204902 10.0868451571326467 49.7702952262451745 Zr
atom 5.5418570712321626 5.0434225952230181 42.3389647814997332 S
atom 9.5654748928623903 5.0434225560627377 42.3390091921001286 S
atom 4.5255535369935629 10.0868451452501464 42.3390092071124329 S
atom 10.5817784281967029 10.0868451863407067 42.3389647729721119 S
atom 4.5248897795190608 5.0434225617701021 47.2913754943206683 S
atom 10.5824804518145559 5.0434226096515697 47.2913754555571160 S
atom 5.5425590958540303 10.0868451783617967 47.2913754516879266 S
atom 9.5648111362807047 10.0868451324183788 47.2913754953409651 S
atom 5.0337538483186544 2.5217083505641278 44.8183522589920216 S
atom 10.0736752022341722 2.5217142312206704 44.8183523141009772 S
atom 5.0337538467919005 7.5651368103534891 44.8183523028666002 S
atom 10.0736752056906642 7.5651309316285875 44.8183522476363194 S
atom 5.0337538460170563 2.5217084018568436 49.7643986778920393 S
atom 10.0736752042739734 2.5217141837753481 49.7643986226838280 S
atom 5.0337538489605214 7.5651367591794303 49.7643986340481135 S
atom 10.0736752032607910 7.5651309791930084 49.7643986891767725 S
atom 2.5137476923865534 5.0434225782146083 44.3392968365981446 S
atom 7.5536735562957418 5.0434225807886515 45.2975127587059703 S
atom 2.5137522077663550 10.0868451613108085 45.2975127585824566 S
atom 7.5536690439253151 10.0868451599495650 44.3392968367523821 S
atom 2.5137477279272771 5.0434225802687429 50.2434540987502132 S
atom 7.5536735222087712 5.0434225791274754 49.2852381797302925 S
atom 2.5137521687421120 10.0868451592417756 49.2852381796708841 S
atom 7.5536690833699831 10.0868451614577488 50.2434540993039747 S
atom 2.5137322182019921 2.5138449523815631 52.2248857940346554 Ba
atom 7.5536535522439801 2.5295776314227707 52.2248857941735594 Ba
atom 2.5137321954163587 7.5730002131584513 52.2248857935887969 Ba
atom 7.5536535769608557 7.5572675264175677 52.2248857933656438 Ba
atom 2.5137805208328743 2.5493206471477805 57.1168101014921703 Ba
atom 7.5537018858524725 2.4941019363186876 57.1168101019517351 Ba
atom 2.5137805317078166 7.5375245177123409 57.1168101022008372 Ba
atom 7.5537018769159205 7.5927432237257486 57.1168101019665286 Ba
atom 5.0325662956872570 5.0434225826806713 54.7292737684797927 Zr
atom 10.0747866953493208 5.0434225820366123 54.7291014220691991 Zr
atom 5.0348653407059283 10.0868451584570469 54.7291014294517737 Zr
atom 10.0724876539433126 10.0868451610334926 54.7292737654732875 Zr
atom 5.0211275725645628 5.0434225815494829 59.7409507332537117 Zr
atom 10.0861617667074128 5.0434225839388356 59.7405432537333496 Zr
atom 5.0462404102541196 10.0868451613521657 59.7405432560670064 Zr
atom 10.0610489279164312 10.0868451608941978 59.7409507356271590 Zr
atom 5.5418570701779553 5.0434225955516281 52.2437861194211948 S
atom 9.5654748906254383 5.0434225563725050 52.2437417522383356 S
atom 4.5255535358744945 10.0868451450588452 52.2437417596484011 S
atom 10.5817784278758182 10.0868451861704003 52.2437861223726117 S
atom 4.5599428374679469 5.0434225724871675 57.1992901983347721 S
atom 10.5474652785670848 5.0434225972209843 57.1991991004188520 S
atom 5.5075439229840191 10.0868451693505996 57.1991990811771558 S
atom 9.5998641949287347 10.0868451465531841 57.1992902005327437 S
atom 5.0337011674558028 2.5217047508614048 54.7127079026878178 S
atom 10.0736225235525669 2.5217178227437977 54.7127079415103097 S
atom 5.0337011682760799 7.5651404110642968 54.7127079329498756 S
atom 10.0736225246619497 7.5651273411149429 54.7127078942196761 S
atom 5.0337142463502955 2.5217320813323885 59.6062003273787440 S
atom 10.0736356034989800 2.5216905147763145 59.6062003089901751 S
atom 5.0337142478489616 7.5651130822652863 59.6062003139936820 S
atom 10.0736356039309705 7.5651546507537528 59.6062003315904221 S
atom 2.5137528632330564 5.0434225803804376 54.2499300044905368 S
atom 7.5536886232904159 5.0434225814205149 55.1871650638085569 S
atom 2.5137672736618142 10.0868451598703572 55.1871650629936923 S
atom 7.5536742140081188 10.0868451603350291 54.2499300052945017 S
atom 2.5137476527957885 5.0434225816291987 60.0576496702387530 S
atom 7.5536461130047039 5.0434225816115497 59.2630873931949935 S
atom 2.5137247447139934 10.0868451604864102 59.2630873925000756 S
atom 7.5536690274626253 10.0868451618802641 60.0576496710790622 S
atom 2.5137124587662125 2.3683518083717630 61.7824984059878801 Ba
atom 7.5536338141326551 2.6750707750042766 61.7824984054867770 Ba
atom 2.5137124609182395 7.7184933562347364 61.7824984059134863 Ba
atom 7.5536338139126524 7.4117743890451315 61.7824984063209399 Ba
atom 5.3877760698104895 5.0434225859863488 62.2223577322747019 S
atom 9.7195885005616081 5.0434225760226372 62.2219249399911050 S
atom 4.6796671436780191 10.0868451574227631 62.2219249474650127 S
atom 10.4276974262317506 10.0868451693169945 62.2223577298527530 S
