#=======================================================
# FHI-aims file: full_relax/full_relax_RP_7_Rx0Mz_0RyMz.in
# Created using the Atomic Simulation Environment (ASE)
# Mon Mar 24 15:39:24 2025
#=======================================================
lattice_vector 10.0127604032587953 0.0673844968799671 -0.0000237114071318 
lattice_vector 0.0673844968799891 10.0127604032586284 0.0000237114070583 
lattice_vector -0.0001916163367471 0.0001916163361784 75.8986001909041477 
atom 0.1325428497222859 0.1704818817676994 0.2134983711087539 Ba
atom 5.1767852624025004 0.1662545233583880 0.2134989239535748 Ba
atom 0.2040973092036189 5.1389424765485687 0.2135226352512756 Ba
atom 5.1726152997712802 5.2105543318182388 0.2134983708107943 Ba
atom -0.2657469920495230 -0.1900248553742158 5.0033341026908627 Ba
atom 4.8162746632697315 -0.2320056035814703 5.0033291058562792 Ba
atom -0.1564132898492284 4.7406823495042163 5.0033528172649326 Ba
atom 4.7743254579592911 4.8500475946230726 5.0033341028466678 Ba
atom 2.5278321978418572 2.5352309147057497 2.3951554963170842 Zr
atom 7.5415364852163460 2.5615800790374954 2.3951348417456408 Zr
atom 2.5688485310566707 7.5342680332017400 2.3951585531840958 Zr
atom 7.5679046488775432 7.5753033657888222 2.3951554962401818 Zr
atom 2.5144385825463531 2.5097864057572079 7.4480930626365627 Zr
atom 7.5160585579662396 2.5482389051015786 7.4480873950280415 Zr
atom 2.5433706045015421 7.5209268586569245 7.4481111064384633 Zr
atom 7.5545110328868583 7.5498588562142528 7.4480930626065307 Zr
atom 2.2666471460064952 2.6946724410170839 -0.1112943361077148 S
atom 7.7009718953181245 2.3003885763500898 -0.1113167313017814 S
atom 2.7282839422772711 7.2730765294340101 -0.1112930201304030 S
atom 7.3067195959615212 7.7347448909709904 -0.1112943359762879 S
atom 2.8252403658109744 2.2662593502653050 4.9550279294514317 S
atom 7.2725600276591233 2.8589934214396413 4.9550119024327142 S
atom 2.2998720745854446 7.8316813744899978 4.9550356138846556 S
atom 7.8653128157348835 7.3063318002266859 4.9550279295711013 S
atom 2.7894557807352358 0.0150850582602178 2.2218654940488975 S
atom 7.1829322284196211 0.0457136203567802 2.7745137666438637 S
atom 2.2102442753098797 5.0184015737764476 2.7745374781389662 S
atom 7.8295282306783571 5.0551575085032354 2.2218654940482603 S
atom 2.8931068213594715 0.0158984564131573 7.7808970965399853 S
atom 7.1255634182903282 0.0462610819229088 7.1564791866279123 S
atom 2.1528754651034783 5.0189490353229669 7.1565028980051446 S
atom 7.9331792713814915 5.0559709066536351 7.7808970965340682 S
atom 0.0119480661119167 2.1766496005898697 2.7745296151121210 S
atom 5.0213918421767163 2.8232401266868719 2.2218668325175464 S
atom 0.0487038886632651 7.7959280796420511 2.2218905439492898 S
atom 5.0520205165115390 7.2167220504438863 2.7745296151873591 S
atom 0.0124770390452052 2.1192589709813774 7.1564867768295946 S
atom 5.0221908200044130 2.9268890269626531 7.7809017914032026 S
atom 0.0495028665303888 7.8995769800187281 7.7809255027754336 S
atom 5.0525494894139289 7.1593314209542003 7.1564867767758882 S
atom 0.2816619396171987 0.1824139461267477 9.9747827220169309 Ba
atom 5.1886691742051037 0.3154825053535650 9.9747948966841449 Ba
atom 0.2159812210946465 5.2881704585351663 9.9748186081288868 Ba
atom 5.3217343896132920 5.2224863961600390 9.9747827220761991 Ba
atom -0.2826424778885847 -0.1815074697500077 14.9755445980252482 Ba
atom 4.8247427263919320 -0.2488134073692600 14.9755652027188972 Ba
atom -0.1479452266483488 4.7238745457170861 14.9755889141112810 Ba
atom 4.7574299720434015 4.8585649801962720 14.9755445980608393 Ba
atom 2.5215243827855947 2.5240898555989224 12.4635451071746974 Zr
atom 7.5303441027561240 2.5553378987305733 12.4635357047795701 Zr
atom 2.5576561494067964 7.5280258519720045 12.4635594161976417 Zr
atom 7.5615968329844341 7.5641623057357368 12.4635451069566798 Zr
atom 2.5199921028800194 2.5200803471847033 17.4766513597721271 Zr
atom 7.5263723044526225 2.5537725956513828 17.4766395040783244 Zr
atom 2.5536843512905785 7.5264605488836258 17.4766632154342751 Zr
atom 7.5600645529241532 7.5601527972905700 17.4766513597411652 Zr
atom 2.1894949334932838 2.7852214986220125 9.9655971552352085 S
atom 7.7914825936017698 2.2232912541568033 9.9655919681816183 S
atom 2.8187946404787998 7.1959792072984641 9.9656156795007345 S
atom 7.2295673835667866 7.8252939486275199 9.9655971552803244 S
atom 2.8531798914824149 2.2523579643226066 14.9729760256583617 S
atom 7.2585983434092975 2.8869504342470411 14.9729693930732584 S
atom 2.2859103902033326 7.8596383874090137 14.9729931045521010 S
atom 7.8932523414641391 7.2924304144137038 14.9729760260583600 S
atom 2.8861239822834492 0.0193780638562793 12.1540137327172229 S
atom 7.1267915869148215 0.0501545105575700 12.7944736235531611 S
atom 2.1541036337123973 5.0228424639137863 12.7944973349839675 S
atom 7.9261964322901672 5.0594505140771791 12.1540137327214985 S
atom 2.8851069627462036 0.0183411948431637 17.7982804926764757 S
atom 7.1275651961925144 0.0491315458032071 17.1549985155213989 S
atom 2.1548772429440315 5.0218194995854786 17.1550222268958841 S
atom 7.9251794127721586 5.0584136455078852 17.7982804926372324 S
atom 0.0163316356838287 2.1205660355767213 12.7945067010274194 S
atom 5.0256241578026257 2.9199655901191472 12.1539799672848741 S
atom 0.0529362042378578 7.8926535432480218 12.1540036787164745 S
atom 5.0564040861391968 7.1606384856568726 12.7945067010216391 S
atom 0.0153500472063943 2.1212832906007364 17.1550067642991770 S
atom 5.0246341584917547 2.9188774038383358 17.7982959552710582 S
atom 0.0519462046164455 7.8915653569398936 17.7983196666442751 S
atom 5.0554224979599995 7.1613557407416195 17.1550067643312047 S
atom 0.2825542336555671 0.1815957142455429 19.9777581214832196 Ba
atom 5.1879294323517273 0.3162861487242005 19.9777138054056671 Ba
atom 0.2152414793040497 5.2889741017950698 19.9777375168168234 Ba
atom 5.3226266835906850 5.2216681641675846 19.9777581214833013 Ba
atom -0.2817501838854371 -0.1823257016793922 24.9785199976100287 Ba
atom 4.8240029845814565 -0.2480097640468388 24.9784841114832155 Ba
atom -0.1486849684506546 4.7246781890279124 24.9785078229329862 Ba
atom 4.7583222660375863 4.8577467482686618 24.9785199975274672 Ba
atom 2.5184598228305020 2.5160708387947848 22.4897576125700454 Zr
atom 7.5224005063006345 2.5522072924945882 22.4897433033479643 Zr
atom 2.5497125531165525 7.5248952457351344 22.4897670148195736 Zr
atom 7.5585322728961772 7.5561432889114055 22.4897576126027943 Zr
atom 2.5255456227665132 2.5303742883854428 27.5052096570152287 Zr
atom 7.5366860513769627 2.5593062859581517 27.5051916131754410 Zr
atom 2.5639980977048094 7.5319942392622758 27.5052153249878586 Zr
atom 7.5656180733127458 7.5704467386366590 27.5052096572553140 Zr
atom 2.1868043142180658 2.7878027301238908 19.9803266938101522 S
atom 7.7941462655407276 2.2205947570733877 19.9803096150553650 S
atom 2.8214583123817154 7.1932827102759527 19.9803333264465444 S
atom 7.2268767643703073 7.8278751801440318 19.9803266935134580 S
atom 2.8504892722811337 2.2549391958221117 24.9877055638996133 S
atom 7.2612620153130036 2.8842539371916369 24.9876870399328475 S
atom 2.2885740621328226 7.8569418903562980 24.9877107510905567 S
atom 7.8905617222268587 7.2950116459033350 24.9877055640680332 S
atom 2.8858805719925811 0.0173182304158423 22.1588053845850119 S
atom 7.1265481766639338 0.0480946771972657 22.7992652754030907 S
atom 2.1538602234361961 5.0207826306923815 22.7992889868283690 S
atom 7.9259530220305425 5.0573906807865585 22.1588053845917941 S
atom 2.8871087406866280 0.0212116589478542 27.7967998215003753 S
atom 7.1195653375410775 0.0515742847452811 27.1723819115651750 S
atom 2.1468773843553270 5.0242622382244599 27.1724056229006976 S
atom 7.9271811905820568 5.0612841092675973 27.7967998214701808 S
atom 0.0143600478420101 2.1201951043314970 22.7993227522335218 S
atom 5.0236525700658605 2.9195946588763593 22.1587960185229846 S
atom 0.0509646164649707 7.8922826120065208 22.1588197299566261 S
atom 5.0544324983248634 7.1602675544315266 22.7993227522486599 S
atom 0.0177933852803155 2.1132716675295851 27.1724009280930439 S
atom 5.0275071670804188 2.9209017235723262 27.7968159427372221 S
atom 0.0548192130360800 7.8935896766361227 27.7968396540756224 S
atom 5.0578658361911515 7.1533441175743935 27.1724009280837429 S
atom 0.2656587478033127 0.1901130997308421 29.9499686167642238 Ba
atom 5.1963974954912420 0.2994783448159840 29.9499499022303404 Ba
atom 0.2237095424937565 5.2721662981397346 29.9499736136672219 Ba
atom 5.3057311977121691 5.2301855498992049 29.9499686167168342 Ba
atom -0.1326310940980926 -0.1703936374558904 34.7398043483444425 Ba
atom 4.8358868965211528 -0.0987817821646583 34.7397800841654245 Ba
atom -0.1368010566981596 4.8739061711267864 34.7398037956009773 Ba
atom 4.9074413560227912 4.8696788127523423 34.7398043485267394 Ba
atom 2.5121520070526970 2.5049297789377092 32.5581472224464719 Zr
atom 7.5112081245347690 2.5459651117341737 32.5581441659964170 Zr
atom 2.5385201705057954 7.5186530652734591 32.5581678770422087 Zr
atom 7.5522244579632227 7.5450022293393610 32.5581472228647613 Zr
atom 2.2147438399928516 2.7739013442301936 29.9982747906469918 S
atom 7.7801845811456181 2.2485517699964288 29.9982671058354669 S
atom 2.8074966281165961 7.2212397230940084 29.9982908169985549 S
atom 7.2548162899983577 7.8139737942628296 29.9982747899190905 S
atom 2.7733370598077967 2.3454882534742882 35.0645970559972184 S
atom 7.3517727135021440 2.8071566150064604 35.0645957397598238 S
atom 2.3790847604052825 7.7798445682398656 35.0646194515347176 S
atom 7.8134095097745959 7.3855607035185775 35.0645970558600553 S
atom 2.8297399305066482 0.0217591212454882 32.1787652415715542 S
atom 7.2232163781561338 0.0523876832233077 32.7314135141708533 S
atom 2.2505284250451831 5.0250756355665658 32.7314372255981780 S
atom 7.8698123804209201 5.0618315705429779 32.1787652415291063 S
atom 0.0185923636327861 2.2169205679300346 32.7314358870685425 S
atom 5.0280361394642892 2.8635110939698718 32.1787731044573491 S
atom 0.0553481860898413 7.8361990471016316 32.1787968159353497 S
atom 5.0586648139468844 7.2569930178439499 32.7314358871507523 S
atom 2.3494585350628583 2.3875891835114018 38.1627984666300719 Ba
atom 7.3937583436171881 2.3834192209547891 38.1627990195590669 Ba
atom 2.4210703902787412 7.3561071740532098 38.1628227310257770 Ba
atom 7.3895309852732414 7.4276616334741234 38.1627984668623057 Ba
atom 2.7099652722769521 2.7858790251577674 42.9526341979297541 Ba
atom 7.7920184705457158 2.7439298198688227 42.9526292010096498 Ba
atom 2.8193305173592162 7.7166177733062584 42.9526529123217315 Ba
atom 7.7500377224040804 7.8259514754442785 42.9526341978184547 Ba
atom 5.0247819519954620 5.0323722855477016 40.3444555912355938 Zr
atom 10.0385052372691614 5.0587404493071064 40.3444349365385335 Zr
atom 5.0658172843384097 10.0314284011860977 40.3444586486267482 Zr
atom 10.0648544016343493 10.0724447342471368 40.3444555916528813 Zr
atom 5.0502264612194496 5.0457659007254163 45.3973931584809520 Zr
atom 10.0518464114813266 5.0842183757724078 45.3973874909706083 Zr
atom 5.0791584585996663 10.0569063285546392 45.3974112021522416 Zr
atom 10.0902989109457373 10.0858383503372107 45.3973931583109120 Zr
atom 4.8653404259561883 5.2935573372368765 37.8380057591097909 S
atom 10.2996967407682209 4.8993050378415930 37.8379833636199407 S
atom 5.3270087874780154 9.8719929912086073 37.8380070749480169 S
atom 9.9054128760344238 10.3336297874861280 37.8380057588365162 S
atom 5.2937535166762588 4.7349641175246733 42.9043280264070717 S
atom 9.7410918957114045 5.3277169055038742 42.9043119996950750 S
atom 4.7684039424277120 10.3004048588995456 42.9043357102993639 S
atom 10.3338259668140431 9.7750365676517479 42.9043280260414832 S
atom 4.7367727402686999 2.5388126412365684 40.1711669278816004 S
atom 10.3560512197859040 2.5755684637226368 40.7238059993609838 S
atom 5.3833632663792415 7.5482564170137749 40.7238297106250968 S
atom 9.7768451904433658 7.5788850914006094 40.1711669279027603 S
atom 4.6331238401018444 2.5380136639623796 45.7302018866770581 S
atom 10.4134418492012575 2.5750394916726469 45.1057631609527121 S
atom 5.4407538958368402 7.5477274434918362 45.1057868724237991 S
atom 9.6731962902220552 7.5780861127126871 45.7302018866562960 S
atom 2.5416112935369819 5.3499602079473512 40.7238375736628200 S
atom 7.5449278082093665 4.7707487024340214 40.1711655894183295 S
atom 2.5722398557137574 9.7434366558524221 40.1711893008189733 S
atom 7.5816837431026087 10.3900326582092770 40.7238375736171108 S
atom 2.5410638316713672 5.4073290179838169 45.1058029936360398 S
atom 7.5441144104480857 4.6670976620680618 45.7301971917492764 S
atom 2.5714264574152002 9.6397856151788801 45.7302209032909204 S
atom 7.5811362816191856 10.4474014682520941 45.1058029935831613 S
atom 2.3375264707188657 2.2384700935564905 47.9240828180879319 Ba
atom 7.2445303616288648 2.3715353089766711 47.9240949927232904 Ba
atom 2.2718424083333852 7.3442232623020907 47.9241187040868866 Ba
atom 7.3775989209022468 7.2785425437390012 47.9240828179973519 Ba
atom 2.7014478865801230 2.8027745110816009 52.9248446930524921 Ba
atom 7.8088262744623336 2.7354617567466151 52.9248652976977851 Ba
atom 2.8361383210965934 7.7081497100851921 52.9248890091146578 Ba
atom 7.7415203368459320 7.8428469613091583 52.9248446930185636 Ba
atom 5.0359230113753570 5.0386801003607031 50.4128452028261478 Zr
atom 10.0447474181375238 5.0699328305319451 50.4128358007777848 Zr
atom 5.0720594651834396 10.0426207839147281 50.4128595120320142 Zr
atom 10.0759954612336067 10.0787525505949027 50.4128452029877252 Zr
atom 5.0399325196914360 5.0402123802785370 55.4259514547913597 Zr
atom 10.0463127213139600 5.0739046286111789 55.4259395986458827 Zr
atom 5.0736247682581421 10.0465925821834201 55.4259633106965097 Zr
atom 10.0800049697172636 10.0802848307410606 55.4259514547089154 Zr
atom 4.7747913683210186 5.3707095497364152 47.9148972483379225 S
atom 10.3767940629290418 4.8087943396835371 47.9148920606315940 S
atom 5.4041061096664977 9.7814822928734539 47.9149157730573236 S
atom 9.8148638184009638 10.4107819999104780 47.9148972487470317 S
atom 5.3076549025331810 4.7070245919273361 52.9222761234363830 S
atom 9.7131348827813113 5.3416785899213037 52.9222694910517220 S
atom 4.7404469295805756 10.3143665431073011 52.9222932014540675 S
atom 10.3477273526810993 9.7470970418466276 52.9222761228954539 S
atom 4.6400472767583718 2.5345803257796917 50.1032800625471140 S
atom 10.4121347846693890 2.5711848940144173 50.7437830852017839 S
atom 5.4394468313849087 7.5438728472599790 50.7438067966090713 S
atom 9.6801197268005481 7.5746527759285236 50.1032800624981220 S
atom 4.6411354632469637 2.5355703258516620 55.7475960505894932 S
atom 10.4114175294257088 2.5721664831885973 55.1042831485802012 S
atom 5.4387295761864518 7.5448544349896514 55.1043068599686450 S
atom 9.6812079132260749 7.5756427745305226 55.7475960506482906 S
atom 2.5371704036064555 5.4061008496787375 50.7437974305749080 S
atom 7.5406348025017413 4.6740805009269017 50.1033138279382655 S
atom 2.5679468499797302 9.6467684540805223 50.1033375393596359 S
atom 7.5772428530065010 10.4461732996745127 50.7437974305369792 S
atom 2.5381933678134394 5.4053272401959118 55.1043223226147347 S
atom 7.5416716716471051 4.6750975207192536 55.7475805879778505 S
atom 2.5689837186945783 9.6477854736806137 55.7476042994705736 S
atom 7.5782658176048674 10.4453996902967958 55.1043223225378682 S
atom 2.3383447027139259 2.2375777994770982 57.9270582172996882 Ba
atom 7.2437267182401657 2.3722750506961234 57.9270139012352274 Ba
atom 2.2710387651164519 7.3449630042147405 57.9270376126378750 Ba
atom 7.3784171527537863 7.2776502498142772 57.9270582173164996 Ba
atom 2.7022661186119157 2.8018822170138695 62.9278200925444082 Ba
atom 7.8080226310468772 2.7362014985210741 62.9277842065450770 Ba
atom 2.8353346778775506 7.7088894519473818 62.9278079178390684 Ba
atom 7.7423385686556996 7.8419546673263261 62.9278200925571483 Ba
atom 5.0439420282025047 5.0417446602075815 60.4390577080146869 Zr
atom 10.0478780243438361 5.0778764268769780 60.4390433990442801 Zr
atom 5.0751900712619884 10.0505643804504334 60.4390671102520045 Zr
atom 10.0840144781850771 10.0818171106718086 60.4390577078489883 Zr
atom 5.0296385786967415 5.0346588599746820 65.4545097523671870 Zr
atom 10.0407790307115210 5.0635908818068920 65.4544917081472732 Zr
atom 5.0680910780482087 10.0362788357494122 65.4545154191767153 Zr
atom 10.0697110282050541 10.0747313107167891 65.4545097520856274 Zr
atom 4.7722101368154917 5.3734001689937170 57.9296267874212347 S
atom 10.3794905599245251 4.8061306678281976 57.9296097089722508 S
atom 5.4068026067718522 9.7788186208794912 57.9296334204558079 S
atom 9.8122825868955310 10.4134726190996982 57.9296267880499940 S
atom 5.3050736710413542 4.7097152111664693 62.9370056615148954 S
atom 9.7158313798741975 5.3390149180380932 62.9369871371273035 S
atom 4.7431434265729120 10.3117028711692758 62.9370108486386570 S
atom 10.3451461211847509 9.7497876610486767 62.9370056614320248 S
atom 4.6404182080231759 2.5365519139036357 60.1080961137963143 S
atom 10.4125057158362999 2.5731564822579243 60.7485991363436071 S
atom 5.4398177626687110 7.5458444347180409 60.7486228478169963 S
atom 9.6804906580741505 7.5766243632602528 60.1080961137607943 S
atom 4.6391111434758159 2.5326973172518663 65.7461160381039065 S
atom 10.4194291525326843 2.5697231445369657 65.1216773124165229 S
atom 5.4467411992809120 7.5424110969160019 65.1217010237635492 S
atom 9.6791835935945922 7.5727697665763918 65.7461160381445069 S
atom 2.5392302364181916 5.4063442598991251 60.7485890823640773 S
atom 7.5426946363623797 4.6743239113038486 60.1081054798566825 S
atom 2.5700066829081529 9.6470118643099863 60.1081291912152835 S
atom 7.5793026867431204 10.4464167099573881 60.7485890823578316 S
atom 2.5357506290841405 5.4133270988869011 65.1217057186448187 S
atom 7.5388012076447106 4.6730957428737048 65.7460999168495306 S
atom 2.5661132543900260 9.6457836957818373 65.7461236283797348 S
atom 7.5758230792328209 10.4533995488428904 65.1217057186390633 S
atom 2.3298273170471284 2.2544732855404748 67.8992687124996763 Ba
atom 7.2605345220975890 2.3638069876912562 67.8992499980999753 Ba
atom 2.2878465688956546 7.3364949408438767 67.8992737093724372 Ba
atom 7.3698997671359781 7.2945457355092680 67.8992687125571877 Ba
atom 2.6903340541888063 2.6527631273265029 72.6891044437969214 Ba
atom 7.6587946491352428 2.7243175867427896 72.6890801793533115 Ba
atom 2.6861066957985233 7.6970055399071429 72.6891038911539624 Ba
atom 7.7304065043843364 7.6928355774055150 72.6891044438043679 Ba
atom 5.0550830882334061 5.0480524753882197 70.5074473191939148 Zr
atom 10.0541202047608405 5.0890688084272950 70.5074442625368079 Zr
atom 5.0814322529907825 10.0617567627943263 70.5074679737276853 Zr
atom 10.0951555369256099 10.0881249265861932 70.5074473194629832 Zr
atom 4.7861115226207707 5.3454606433805330 67.9475748836290165 S
atom 10.3515335471035979 4.8200923521902066 67.9475672000131254 S
atom 5.3788455937534678 9.7927803052002194 67.9475909121664614 S
atom 9.8261839728681828 10.3855330932970862 67.9475748840257552 S
atom 5.2145246134036416 4.7868674235528443 73.0138971516075372 S
atom 9.7929287020707392 5.2485042198181100 73.0138958349767933 S
atom 4.8202407487674135 10.2211921728603823 73.0139195462208903 S
atom 10.2545970636570924 9.8269398734858129 73.0138971513781172 S
atom 4.6965017728846981 2.5321683428017345 70.1280731997808431 S
atom 10.3157802524183833 2.5689241670257243 70.6807122710815889 S
atom 5.3430922990441552 7.5416121207172129 70.6807359825088071 S
atom 9.7365742230762837 7.5722407934194091 70.1280731996612303 S
atom 2.5349372302156512 5.3096760583919007 70.6807373210240257 S
atom 7.5382537467038873 4.7304645529267040 70.1280653368319378 S
atom 2.5655657940399763 9.7031525058582808 70.1280890480995680 S
atom 7.5750096797222835 10.3497485081409497 70.6807373209143606 S
