#=======================================================
# FHI-aims file: full_relax/full_relax_RP_6_Rx00_0-Ry0.in
# Created using the Atomic Simulation Environment (ASE)
# Fri Mar 14 11:40:19 2025
#=======================================================
lattice_vector 10.0824450275963695 -0.0000000000000064 0.0000000000000004 
lattice_vector -0.0000000000000064 10.0824450275963695 0.0000000000000004 
lattice_vector 0.0000000000000025 0.0000000000000026 65.0886130984404900 
atom -0.1691815869619427 -0.0000000000004372 0.2912002314630173 Ba
atom 5.2104041007594404 -0.0000000000004498 0.2912002314629587 Ba
atom 0.1691815869612204 5.0412225137976936 0.2912002314630404 Ba
atom 4.8720409268362124 5.0412225137977069 0.2912002314630095 Ba
atom 0.0267266912376493 -0.0000000000004356 4.9625267326385822 Ba
atom 5.0144958225598240 -0.0000000000004041 4.9625267326385973 Ba
atom -0.0267266912383658 5.0412225137977922 4.9625267326385636 Ba
atom 5.0679492050358501 5.0412225137977513 4.9625267326385805 Ba
atom 2.5206112568987624 2.4986375845100435 2.3399778491404386 Zr
atom 7.5618337706968948 2.5425849292872944 2.3399778491403969 Zr
atom 2.5206112568987655 7.5838074430854165 2.3399778491403831 Zr
atom 7.5618337706968841 7.5398600983081812 2.3399778491404306 Zr
atom 2.5206112568987900 2.5198652250030342 7.3545138410126327 Zr
atom 7.5618337706969241 2.5213572887943720 7.3545138410126416 Zr
atom 2.5206112568987784 7.5625798025925315 7.3545138410127056 Zr
atom 7.5618337706969267 7.5610877388011524 7.3545138410126585 Zr
atom 2.5206112568987638 2.8074063647335623 -0.1386099871620642 S
atom 7.5618337706968868 2.2338161490636677 -0.1386099871621192 S
atom 2.5206112568986931 7.2750386628618422 -0.1386099871621495 S
atom 7.5618337706969347 7.8486288785318106 -0.1386099871621732 S
atom 2.5206112568987069 2.0541922526267440 4.8843902479762225 S
atom 7.5618337706969889 2.9870302611705766 4.8843902479763637 S
atom 2.5206112568987722 8.0282527749687720 4.8843902479762722 S
atom 7.5618337706969161 7.0954147664249607 4.8843902479763059 S
atom 2.5206112568987349 -0.0000000000003989 2.0408640381886460 S
atom 7.5618337706969214 -0.0000000000004298 2.7818364397570554 S
atom 2.5206112568987420 5.0412225137976598 2.7818364397570634 S
atom 7.5618337706969037 5.0412225137977069 2.0408640381886256 S
atom 2.5206112568988566 -0.0000000000004528 7.8303165619008359 S
atom 7.5618337706969019 -0.0000000000005075 6.8956779653814797 S
atom 2.5206112568986954 5.0412225137978108 6.8956779653814895 S
atom 7.5618337706970351 5.0412225137978828 7.8303165619007826 S
atom -0.0000000000003402 2.5206112568986407 2.4788105875232187 S
atom 5.0412225137978144 2.5206112568986403 2.4788105875232747 S
atom -0.0000000000003455 7.5618337706968308 2.4788105875232782 S
atom 5.0412225137978108 7.5618337706968237 2.4788105875232072 S
atom -0.0000000000003232 2.5206112568986101 7.3731222209206884 S
atom 5.0412225137978393 2.5206112568987642 7.3731222209205631 S
atom -0.0000000000003197 7.5618337706969445 7.3731222209205614 S
atom 5.0412225137978464 7.5618337706967775 7.3731222209206235 S
atom -0.0075109844740895 -0.0000000000003701 9.8578124280333608 Ba
atom 5.0487334982716430 -0.0000000000004401 9.8578124280334638 Ba
atom 0.0075109844734458 5.0412225137977877 9.8578124280334247 Ba
atom 5.0337115293241270 5.0412225137978313 9.8578124280333963 Ba
atom 0.0082374088284864 -0.0000000000004120 14.7928666132809870 Ba
atom 5.0329851049690575 -0.0000000000003581 14.7928666132809870 Ba
atom -0.0082374088291367 5.0412225137978544 14.7928666132809497 Ba
atom 5.0494599226267045 5.0412225137977780 14.7928666132810047 Ba
atom 2.5206112568987971 2.5218867276576886 12.3138092014167029 Zr
atom 7.5618337706969232 2.5193357861397749 12.3138092014167437 Zr
atom 2.5206112568987922 7.5605582999379228 12.3138092014167029 Zr
atom 7.5618337706969214 7.5631092414558490 12.3138092014166549 Zr
atom 2.5206112568987717 2.5218867276576593 17.2719240251454877 Zr
atom 7.5618337706969294 2.5193357861398700 17.2719240251454593 Zr
atom 2.5206112568987789 7.5605582999380010 17.2719240251453137 Zr
atom 7.5618337706969214 7.5631092414558516 17.2719240251454131 Zr
atom 2.5206112568988353 3.0285562898094724 9.8402475664208566 S
atom 7.5618337706969019 2.0126662239879249 9.8402475664208851 S
atom 2.5206112568987398 7.0538887377861332 9.8402475664210538 S
atom 7.5618337706969925 8.0697788036076687 9.8402475664210911 S
atom 2.5206112568987025 2.0121689683295498 14.7928666132814044 S
atom 7.5618337706970236 3.0290535454678800 14.7928666132812676 S
atom 2.5206112568987931 8.0702760592660585 14.7928666132812268 S
atom 7.5618337706969143 7.0533914821277781 14.7928666132812197 S
atom 2.5206112568987344 -0.0000000000003888 11.8407490216210114 S
atom 7.5618337706969889 -0.0000000000002257 12.7981434937301817 S
atom 2.5206112568988011 5.0412225137978144 12.7981434937301533 S
atom 7.5618337706969285 5.0412225137976101 11.8407490216210487 S
atom 2.5206112568987842 -0.0000000000004295 17.7449842049407174 S
atom 7.5618337706969605 -0.0000000000004727 16.7875897328316945 S
atom 2.5206112568987593 5.0412225137978988 16.7875897328316697 S
atom 7.5618337706969481 5.0412225137975666 17.7449842049407351 S
atom -0.0000000000001809 2.5206112568987646 12.3198308354928514 S
atom 5.0412225137977131 2.5206112568986807 12.3198308354930344 S
atom -0.0000000000003079 7.5618337706968779 12.3198308354930219 S
atom 5.0412225137978393 7.5618337706969490 12.3198308354929367 S
atom -0.0000000000003679 2.5206112568987313 17.2659023910689626 S
atom 5.0412225137979068 2.5206112568987540 17.2659023910688738 S
atom -0.0000000000003808 7.5618337706969418 17.2659023910689520 S
atom 5.0412225137978979 7.5618337706969072 17.2659023910689911 S
atom -0.0075109844742033 -0.0000000000003388 19.7279207985285012 Ba
atom 5.0487334982716954 -0.0000000000003605 19.7279207985285794 Ba
atom 0.0075109844735139 5.0412225137977629 19.7279207985285545 Ba
atom 5.0337115293240196 5.0412225137977975 19.7279207985285545 Ba
atom 0.0267266912376967 -0.0000000000004274 24.6232064939232274 Ba
atom 5.0144958225598666 -0.0000000000004112 24.6232064939232345 Ba
atom -0.0267266912383394 5.0412225137978215 24.6232064939232451 Ba
atom 5.0679492050359096 5.0412225137978046 24.6232064939232700 Ba
atom 2.5206112568987789 2.5198652250030769 22.2312193855489646 Zr
atom 7.5618337706969392 2.5213572887943694 22.2312193855490108 Zr
atom 2.5206112568987811 7.5625798025924746 22.2312193855489788 Zr
atom 7.5618337706969303 7.5610877388012261 22.2312193855491671 Zr
atom 2.5206112568988028 2.4986375845100368 27.2457553774210552 Zr
atom 7.5618337706968806 2.5425849292872922 27.2457553774209664 Zr
atom 2.5206112568987984 7.5838074430855169 27.2457553774209771 Zr
atom 7.5618337706968868 7.5398600983082105 27.2457553774210126 Zr
atom 2.5206112568988126 3.0285562898093890 19.7454856601409183 S
atom 7.5618337706969143 2.0126662239880369 19.7454856601408970 S
atom 2.5206112568987544 7.0538887377861492 19.7454856601408544 S
atom 7.5618337706969427 8.0697788036076776 19.7454856601408721 S
atom 2.5206112568987362 2.0541922526267165 24.7013429785848579 S
atom 7.5618337706969641 2.9870302611706543 24.7013429785851599 S
atom 2.5206112568987540 8.0282527749688430 24.7013429785855720 S
atom 7.5618337706969498 7.0954147664249092 24.7013429785851102 S
atom 2.5206112568986869 -0.0000000000003574 21.7554166646611691 S
atom 7.5618337706970147 -0.0000000000004318 22.6900552611804791 S
atom 2.5206112568988215 5.0412225137979565 22.6900552611804756 S
atom 7.5618337706968966 5.0412225137977380 21.7554166646612046 S
atom 2.5206112568987149 -0.0000000000003109 27.5448691883732693 S
atom 7.5618337706969614 -0.0000000000003844 26.8038967868047742 S
atom 2.5206112568987598 5.0412225137975879 26.8038967868047671 S
atom 7.5618337706969347 5.0412225137977513 27.5448691883733403 S
atom -0.0000000000002529 2.5206112568987584 22.2126110056413708 S
atom 5.0412225137977646 2.5206112568986123 22.2126110056414099 S
atom -0.0000000000002027 7.5618337706967909 22.2126110056413175 S
atom 5.0412225137977265 7.5618337706969365 22.2126110056413175 S
atom -0.0000000000003302 2.5206112568986918 27.1069226390386291 S
atom 5.0412225137978348 2.5206112568986607 27.1069226390385722 S
atom -0.0000000000003974 7.5618337706968370 27.1069226390385758 S
atom 5.0412225137978925 7.5618337706968619 27.1069226390385580 S
atom -0.1691815869618605 -0.0000000000004439 29.2945329950983719 Ba
atom 5.2104041007593436 -0.0000000000004680 29.2945329950984146 Ba
atom 0.1691815869611774 5.0412225137977593 29.2945329950983151 Ba
atom 4.8720409268363207 5.0412225137977638 29.2945329950983364 Ba
atom 2.5206112568987646 2.8074063647336547 29.7243432137239019 S
atom 7.5618337706968992 2.2338161490636175 29.7243432137239658 S
atom 2.5206112568987229 7.2750386628618413 29.7243432137238450 S
atom 7.5618337706969401 7.8486288785318683 29.7243432137238699 S
atom 2.5206112568986789 2.6897928438600931 32.8355067806833034 Ba
atom 7.5618337706968592 2.3514296699370338 32.8355067806833176 Ba
atom 2.5206112568987455 7.3926521837352430 32.8355067806833034 Ba
atom 7.5618337706968051 7.7310153576583032 32.8355067806833034 Ba
atom 2.5206112568985080 2.4938845656605424 37.5068332818585617 Ba
atom 7.5618337706970076 2.5473379481366143 37.5068332818585688 Ba
atom 2.5206112568987415 7.5885604619347662 37.5068332818585688 Ba
atom 7.5618337706966843 7.5351070794586699 37.5068332818586327 Ba
atom 5.0631961861863672 5.0412225137977025 34.8842843983607409 Zr
atom 10.0604713552072944 5.0412225137976954 34.8842843983608546 Zr
atom 5.0192488414091256 10.0824450275957975 34.8842843983607125 Zr
atom 10.1044186999845831 10.0824450275957922 34.8842843983608333 Zr
atom 5.0419685456934493 5.0412225137976696 39.8988203902327641 Zr
atom 10.0816989957001990 5.0412225137975968 39.8988203902328920 Zr
atom 5.0404764819020338 10.0824450275957300 39.8988203902329062 Zr
atom 10.0831910594915719 10.0824450275957513 39.8988203902328777 Zr
atom 4.7544274059627414 5.0412225137977691 32.4056965620582815 S
atom 10.3692401354309940 5.0412225137975195 32.4056965620581110 S
atom 5.3280176216327941 10.0824450275957158 32.4056965620581323 S
atom 9.7956499197609332 10.0824450275959805 32.4056965620581607 S
atom 5.5076415180697005 5.0412225137973481 37.4286967971967002 S
atom 9.6160260233239061 5.0412225137979352 37.4286967971964231 S
atom 4.5748035095257613 10.0824450275960835 37.4286967971963946 S
atom 10.5488640318678595 10.0824450275955311 37.4286967971969631 S
atom 5.0412225137977478 2.5206112568985479 35.0231171367429397 S
atom 10.0824450275958934 2.5206112568985182 35.0231171367434229 S
atom 5.0412225137977185 7.5618337706967500 35.0231171367434229 S
atom 10.0824450275959379 7.5618337706967793 35.0231171367429397 S
atom 5.0412225137975790 2.5206112568983610 39.9174287701408232 S
atom 10.0824450275960178 2.5206112568986359 39.9174287701398498 S
atom 5.0412225137978321 7.5618337706968344 39.9174287701400914 S
atom 10.0824450275957869 7.5618337706965510 39.9174287701408801 S
atom 2.5206112568988046 5.0412225137976385 35.3261429889769119 S
atom 7.5618337706968077 5.0412225137976527 34.5851705874084487 S
atom 2.5206112568985324 10.0824450275958721 34.5851705874085411 S
atom 7.5618337706970005 10.0824450275958313 35.3261429889770184 S
atom 2.5206112568987802 5.0412225137977034 39.4399845146012140 S
atom 7.5618337706967909 5.0412225137975026 40.3746231111206342 S
atom 2.5206112568986896 10.0824450275956394 40.3746231111206484 S
atom 7.5618337706968815 10.0824450275959201 39.4399845146012780 S
atom 2.5206112568988326 2.5281222413723041 42.4021189772532026 Ba
atom 7.5618337706965697 2.5131002724246043 42.4021189772531741 Ba
atom 2.5206112568983312 7.5543227862227038 42.4021189772532239 Ba
atom 7.5618337706971488 7.5693447551704942 42.4021189772532381 Ba
atom 2.5206112568983534 2.5123738480696614 47.3371731625005836 Ba
atom 7.5618337706971275 2.5288486657272511 47.3371731625008891 Ba
atom 2.5206112568989472 7.5700711795253763 47.3371731625009460 Ba
atom 7.5618337706964489 7.5535963618679398 47.3371731625006475 Ba
atom 5.0399470430387572 5.0412225137975648 44.8581157506359602 Zr
atom 10.0837204983548823 5.0412225137975391 44.8581157506358892 Zr
atom 5.0424979845565971 10.0824450275957300 44.8581157506363937 Zr
atom 10.0811695568368975 10.0824450275957247 44.8581157506359034 Zr
atom 5.0399470430387323 5.0412225137975772 49.8162305743651714 Zr
atom 10.0837204983548148 5.0412225137975497 49.8162305743649512 Zr
atom 5.0424979845566842 10.0824450275957762 49.8162305743652709 Zr
atom 10.0811695568368709 10.0824450275957638 49.8162305743651999 Zr
atom 4.5332774808869996 5.0412225137979263 42.3845541156408601 S
atom 10.5903900605065964 5.0412225137970914 42.3845541156408174 S
atom 5.5491675467083930 10.0824450275953836 42.3845541156406611 S
atom 9.5744999946852012 10.0824450275962683 42.3845541156409169 S
atom 5.5496648023669417 5.0412225137971305 47.3371731625003136 S
atom 9.5740027390266924 5.0412225137981688 47.3371731625007968 S
atom 4.5327802252285032 10.0824450275961865 47.3371731625003633 S
atom 10.5908873161651211 10.0824450275951847 47.3371731625004060 S
atom 5.0412225137975675 2.5206112568982562 44.8641373847123504 S
atom 10.0824450275960693 2.5206112568985453 44.8641373847136222 S
atom 5.0412225137978650 7.5618337706968770 44.8641373847134588 S
atom 10.0824450275957318 7.5618337706965848 44.8641373847121869 S
atom 5.0412225137979059 2.5206112568985892 49.8102089402891650 S
atom 10.0824450275956945 2.5206112568984187 49.8102089402880637 S
atom 5.0412225137975115 7.5618337706965653 49.8102089402882555 S
atom 10.0824450275960942 7.5618337706967313 49.8102089402894848 S
atom 2.5206112568984684 5.0412225137977220 45.3424500429501620 S
atom 7.5618337706968797 5.0412225137974165 44.3850555708410823 S
atom 2.5206112568988246 10.0824450275956750 44.3850555708410894 S
atom 7.5618337706967864 10.0824450275958988 45.3424500429501336 S
atom 2.5206112568987828 5.0412225137973987 49.3318962820514955 S
atom 7.5618337706965644 5.0412225137977336 50.2892907541606959 S
atom 2.5206112568986736 10.0824450275959006 50.2892907541607315 S
atom 7.5618337706968362 10.0824450275956092 49.3318962820515310 S
atom 2.5206112568989210 2.5281222413722029 52.2722273477484194 Ba
atom 7.5618337706965200 2.5131002724247522 52.2722273477482346 Ba
atom 2.5206112568983969 7.5543227862229481 52.2722273477482489 Ba
atom 7.5618337706970493 7.5693447551705315 52.2722273477484336 Ba
atom 2.5206112568984844 2.4938845656604069 57.1675130431429892 Ba
atom 7.5618337706969863 2.5473379481365925 57.1675130431431313 Ba
atom 2.5206112568987220 7.5885604619347315 57.1675130431430176 Ba
atom 7.5618337706967020 7.5351070794586938 57.1675130431431455 Ba
atom 5.0419685456933463 5.0412225137976590 54.7755259347689645 Zr
atom 10.0816989957001937 5.0412225137975728 54.7755259347692345 Zr
atom 5.0404764819021155 10.0824450275957371 54.7755259347688082 Zr
atom 10.0831910594915577 10.0824450275957940 54.7755259347692416 Zr
atom 5.0631961861863379 5.0412225137976634 59.7900619266413429 Zr
atom 10.0604713552072802 5.0412225137976412 59.7900619266412505 Zr
atom 5.0192488414091754 10.0824450275957638 59.7900619266414424 Zr
atom 10.1044186999845316 10.0824450275957762 59.7900619266412008 Zr
atom 4.5332774808868805 5.0412225137979112 52.2897922093612237 S
atom 10.5903900605067331 5.0412225137970603 52.2897922093610816 S
atom 5.5491675467085022 10.0824450275954280 52.2897922093610887 S
atom 9.5744999946851195 10.0824450275962612 52.2897922093611598 S
atom 5.5076415180695966 5.0412225137974076 57.2456495278053907 S
atom 9.6160260233239683 5.0412225137979583 57.2456495278059734 S
atom 4.5748035095258714 10.0824450275959698 57.2456495278053410 S
atom 10.5488640318677867 10.0824450275954440 57.2456495278056181 S
atom 5.0412225137976501 2.5206112568985963 54.7569175548607845 S
atom 10.0824450275959343 2.5206112568986514 54.7569175548615945 S
atom 5.0412225137977336 7.5618337706966141 54.7569175548614169 S
atom 10.0824450275958650 7.5618337706965031 54.7569175548605429 S
atom 5.0412225137977069 2.5206112568984502 59.6512291882586041 S
atom 10.0824450275958988 2.5206112568985968 59.6512291882582915 S
atom 5.0412225137977567 7.5618337706968175 59.6512291882583696 S
atom 10.0824450275958810 7.5618337706966230 59.6512291882588883 S
atom 2.5206112568986039 5.0412225137976181 55.2343618104002232 S
atom 7.5618337706969694 5.0412225137975302 54.2997232138807959 S
atom 2.5206112568986847 10.0824450275957460 54.2997232138809380 S
atom 7.5618337706968841 10.0824450275958153 55.2343618104002303 S
atom 2.5206112568988308 5.0412225137976341 59.3482033360246604 S
atom 7.5618337706966958 5.0412225137976039 60.0891757375931519 S
atom 2.5206112568986945 10.0824450275957869 60.0891757375931803 S
atom 7.5618337706968441 10.0824450275958331 59.3482033360247598 S
atom 2.5206112568986212 2.6897928438601331 61.8388395443189580 Ba
atom 7.5618337706968948 2.3514296699369419 61.8388395443189722 Ba
atom 2.5206112568986700 7.3926521837350503 61.8388395443189580 Ba
atom 7.5618337706968290 7.7310153576583618 61.8388395443190007 Ba
atom 4.7544274059627618 5.0412225137976598 62.2686497629433120 S
atom 10.3692401354308874 5.0412225137974351 62.2686497629431202 S
atom 5.3280176216327435 10.0824450275957940 62.2686497629435181 S
atom 9.7956499197609865 10.0824450275959823 62.2686497629433617 S
