#=======================================================
# FHI-aims file: full_relax/full_relax_RP_6_Rx0Rz_0RyRz.in
# Created using the Atomic Simulation Environment (ASE)
# Fri Mar 14 11:41:53 2025
#=======================================================
lattice_vector 9.9954449856594181 -0.0001274829497486 0.0146123838157721 
lattice_vector -0.0001274829497485 9.9954449856594181 -0.0146123838157708 
lattice_vector 0.0965804844461572 -0.0965804844461526 66.1343117760500263 
atom -0.1922136791020677 -0.0435470243665145 0.2567645093849156 Ba
atom 5.0682681325803403 -0.0438643848615967 0.2612584415464881 Ba
atom 0.0704818982587931 4.9539218494239652 0.2466460577353617 Ba
atom 4.8054450722356714 4.9541117269681223 0.2567645093864437 Ba
atom -0.0993285396951573 -0.0370712440223835 4.9575048510637840 Ba
atom 4.8496192552312705 -0.0372279912127732 4.9361446684689945 Ba
atom -0.1481669791064641 4.9605582430983741 4.9215322846619483 Ba
atom 4.8983302115990393 4.9605875073328747 4.9575048511186486 Ba
atom 2.4391876724557431 2.4484935354074300 2.3382589172416530 Zr
atom 7.4368792213382537 2.4677988190638973 2.3446363242686412 Zr
atom 2.4390929870346496 7.4655850533596988 2.3300239404490308 Zr
atom 7.4368464238095644 7.4461522867654919 2.3382589172406694 Zr
atom 2.4637256595269950 2.4497317422002118 7.4240550260297971 Zr
atom 7.4613841651771304 2.4815327628162605 7.4308449147696214 Zr
atom 2.4635979308690708 7.4793189971166738 7.4162325309585606 Zr
atom 7.4613844108851080 7.4473904935524962 7.4240550260250515 Zr
atom 2.4492386015605851 2.6859184728003211 -0.1566977264629005 S
atom 7.4474956836614501 2.2234676529652635 -0.1495455360862526 S
atom 2.4497094493126110 7.2212538872477019 -0.1641579199087050 S
atom 7.4468973529600566 7.6835772241804108 -0.1566977264655291 S
atom 2.4618981020026371 2.1657727742710207 4.9187322551794832 S
atom 7.4586931819819897 2.7582430454114704 4.9249706534122657 S
atom 2.4609069477529282 7.7560292796948520 4.9103582695949886 S
atom 7.4595568532805725 7.1634315256188161 4.9187322551770132 S
atom 2.4157808391771165 -0.0409552756945569 2.1517106419538696 S
atom 7.4589851957310103 -0.0401475516940908 2.7243748312985510 S
atom 2.4611989614256200 4.9576386826056291 2.7097624474775395 S
atom 7.4134395905342600 4.9567034756670241 2.1517106419415115 S
atom 2.9561549711649033 -0.0328056547686663 7.6763005405572686 S
atom 7.0403400867966628 -0.0335797549558549 7.2084680342987912 S
atom 2.0425538524907463 4.9642064793471699 7.1938556504729041 S
atom 7.9538137225314278 4.9648530965879472 7.6763005405473494 S
atom -0.0562858551183112 2.4875977409816641 2.4521759703413473 S
atom 4.9414865186264452 2.4289481232036305 2.4587692477242062 S
atom -0.0562997156790223 7.4267343575080771 2.4441568639632840 S
atom 4.9413728962371692 7.4852564923367861 2.4521759702724242 S
atom -0.0258797343708294 2.0028615443855546 7.4407948402139032 S
atom 4.9718351604966031 2.9286642415400150 7.4475673162065208 S
atom -0.0259510738073104 7.9264504758486884 7.4329549323108477 S
atom 4.9717790169835707 7.0005202957454893 7.4407948402918143 S
atom -0.0588609497756210 -0.0291700409054183 9.9672874496355135 Ba
atom 5.0934635868055871 -0.0293312842313977 9.9891939758315669 Ba
atom 0.0956773524449617 4.9684549500717692 9.9745815920677323 Ba
atom 4.9387978015402592 4.9684887104495381 9.9672874496790413 Ba
atom 0.0960380348249798 -0.0220809058305353 15.0327513597689890 Ba
atom 4.9455846782445745 -0.0218830558508821 15.0356056393758895 Ba
atom -0.0522015561014431 4.9759031784539340 15.0209932556046812 Ba
atom 5.0936967861385440 4.9755778455245316 15.0327513598135329 Ba
atom 2.5132679104835294 2.4755831635123378 12.4929300030034085 Zr
atom 7.5110304472721712 2.4707682546282292 12.4999260282216333 Zr
atom 2.5132442129681887 7.4685544889327424 12.4853136444063377 Zr
atom 7.5109266618376589 7.4732419148674341 12.4929300030025150 Zr
atom 2.5282510171110442 2.4829265350453920 17.5684309709666380 Zr
atom 7.5260135538994781 2.4781116261612399 17.5754269961862519 Zr
atom 2.5282273195958007 7.4758978604656781 17.5608146123708480 Zr
atom 7.5259097684650875 7.4805852864004505 17.5684309709666664 Zr
atom 2.4880039319008844 2.6882830273067042 9.9658246743572185 S
atom 7.4863138517537582 2.2505566474766425 9.9736393154065279 S
atom 2.4885276173627799 7.2483428817727313 9.9590269315927369 S
atom 7.4856626833414444 7.6859417786562449 9.9658246743544776 S
atom 2.5209388573270051 2.2930789101775688 15.0308435920520829 S
atom 7.5183426070562165 2.6606158794958037 15.0375134071377765 S
atom 2.5205563728377358 7.6584021138000438 15.0229010233203759 S
atom 7.5185976085956892 7.2907376615334725 15.0308435920537047 S
atom 2.0408011163883000 -0.0258748220518538 12.3418741838698676 S
atom 7.9899971552945379 -0.0254629449778435 12.6747301670260430 S
atom 2.9922109209946037 4.9723232893262432 12.6601177832073262 S
atom 7.0384598677463019 4.9717839293032515 12.3418741838687573 S
atom 3.0008215966367411 -0.0180891396295042 17.7264828153208249 S
atom 7.0470705433882399 -0.0186284996526872 17.4082392159818120 S
atom 2.0492843090886539 4.9791577346514364 17.3936268321631324 S
atom 7.9984803479945050 4.9795696117256423 17.7264828153198195 S
atom 0.0115577922475675 2.9544459397198581 12.4984745431846491 S
atom 5.0092759512958951 1.9921168884383738 12.5068676850798788 S
atom 0.0114897169905957 6.9899031227446793 12.4922553013469724 S
atom 5.0092165436027649 7.9521046910764284 12.4984745431006754 S
atom 0.0322786864761972 1.9993763329038527 17.5552700721896535 S
atom 5.0300055130870680 2.9615779012353869 17.5614893141091279 S
atom 0.0322192787832104 7.9593641355378155 17.5468769302113152 S
atom 5.0299374378305846 6.9970350842566722 17.5552700722727408 S
atom -0.0518408737218123 -0.0146326774481836 20.0791630233059628 Ba
atom 5.1004836628424757 -0.0147939207757861 20.1010695495110845 Ba
atom 0.1026974284997112 4.9829923135288103 20.0864571657375777 Ba
atom 4.9458178775781398 4.9830260739050765 20.0791630233574026 Ba
atom 0.1920034578299065 -0.0067359704750524 25.1322123307111802 Ba
atom 5.1409512527834336 -0.0068927176592562 25.1108521480707338 Ba
atom 0.1431650184203832 4.9908935166456416 25.0962397643084998 Ba
atom 5.1896622091527425 4.9909227808862289 25.1322123307196854 Ba
atom 2.5778972992059703 2.4721620268574847 22.6375120844196545 Zr
atom 7.5755558048563429 2.5039630474735382 22.6443019731592656 Zr
atom 2.5777695705482264 7.5017492817804161 22.6296895893486294 Zr
atom 7.5755560505645532 7.4698207782162029 22.6375120844144995 Zr
atom 2.6024022430445539 2.4858959706102040 27.7237206749201022 Zr
atom 7.6000937919274776 2.5052012542667281 27.7300980819462062 Zr
atom 2.6023075576236385 7.5029874885672667 27.7154856981314879 Zr
atom 7.6000609943986293 7.4835547219728582 27.7237206749240350 Zr
atom 2.5529676126301548 2.7031381421976395 20.0947176837817238 S
atom 7.5512775324816008 2.2654117623664987 20.1025323248316532 S
atom 2.5534912980927764 7.2631979966761779 20.0879199410185265 S
atom 7.5506263640698066 7.7007968935606277 20.0947176837798693 S
atom 2.5805882824001194 2.1954517442616694 25.1433863457754114 S
atom 7.5773833623815916 2.7879220154032276 25.1496247440107759 S
atom 2.5795971281515278 7.7857082497145464 25.1350123601971340 S
atom 7.5782470336816532 7.1931104956373870 25.1433863457773086 S
atom 2.0854677418523071 -0.0111583069142127 22.3920564586409121 S
atom 7.9967276118919184 -0.0105116896738197 22.8745013487164073 S
atom 2.9989413775860418 4.9872745446294280 22.8598889648908141 S
atom 7.0831264932185043 4.9865004444425445 22.3920564586311741 S
atom 2.6258418738474463 -0.0030086859957027 27.9166463572472523 S
atom 7.5780825029587726 -0.0039438929306111 27.3585945517104143 S
atom 2.5802962686536550 4.9938423413693052 27.3439821678896884 S
atom 7.6235006252049642 4.9946500653662422 27.9166463572352797 S
atom 0.0697162130948467 2.9509607282374266 22.6129497751585049 S
atom 5.0674463038862978 2.0250305481340112 22.6207896829837445 S
atom 0.0696600695810811 7.0228167824345311 22.6061772992456973 S
atom 5.0673749644499573 7.9486194795870126 22.6129497750826793 S
atom 0.1001223338395735 2.4662245316429745 27.6015686450325433 S
atom 5.0977949457591265 2.5247466664686029 27.6095877514629038 S
atom 0.1000087114544537 7.5225329007732578 27.5949753675948024 S
atom 5.0977810851946863 7.4638832829974220 27.6015686450989826 S
atom -0.0266454195358084 -0.0000995768007622 29.8070985576362553 Ba
atom 5.2338363921467179 -0.0004169372947555 29.8115924898021163 Ba
atom 0.2360501578257751 4.9973692969897021 29.7969801059858916 Ba
atom 4.9710133318026219 4.9975591745350911 29.8070985576420462 Ba
atom 2.5917857807224021 2.7302271367085238 30.2179025352758508 S
atom 7.5900428628216829 2.2677763168728791 30.2250547256497484 S
atom 2.5922566284741895 7.2655625511526285 30.2104423418366395 S
atom 7.5894445321197956 7.7278858880854786 30.2179025352822563 S
atom 2.5906666422697944 2.6427528125345909 33.3239203974103617 Ba
atom 7.5886427541250487 2.3799297522544460 33.3284143295810651 Ba
atom 2.5908565198146594 7.3777159865155566 33.3138019457505123 Ba
atom 7.5883253936308090 7.6404115639416421 33.3239203974109941 Ba
atom 2.5841908619186773 2.5498676730912653 38.0246607390377989 Ba
atom 7.5820063604594790 2.5985786296375588 38.0033005565085560 Ba
atom 2.5842201261571422 7.5963648638485672 37.9886881726691001 Ba
atom 7.5818496132730973 7.5475264246153753 38.0246607391918303 Ba
atom 5.0962848338448525 5.0090102123514280 35.4054148052638524 Zr
atom 10.0746383015415031 5.0089774148228967 35.4117922122903082 Zr
atom 5.0768520672463326 10.0067636491240961 35.3971798284747123 Zr
atom 10.0939435851943387 10.0066689637027419 35.4054148052662541 Zr
atom 5.0950466270571768 4.9844722252715359 40.4912109140419361 Zr
atom 10.0609043577864465 4.9844724709796315 40.4980008027868976 Zr
atom 5.0631181234924094 9.9822587052939475 40.4833884189883122 Zr
atom 10.0927053784020586 9.9821309766361637 40.4912109140593870 Zr
atom 4.8588598964264795 4.9989592831599641 32.9104581615586085 S
atom 10.3189694676550960 4.9983609524583530 32.9176103519361050 S
atom 5.3211832333442199 9.9961471868873595 32.9029979681175462 S
atom 9.8565186478041475 9.9966180346392459 32.9104581615611096 S
atom 5.3790055950033917 4.9862997829482580 37.9858881432006470 S
atom 9.7841940751827732 4.9871634542471304 37.9921265414342528 S
atom 4.7864078409216697 9.9849496883377267 37.9775141576198365 S
atom 10.3766643463196093 9.9839585340883410 37.9858881432041002 S
atom 5.1158302460464284 2.5067113661785103 35.5259251358611294 S
atom 10.0549668625747568 2.5066975056190124 35.5339442422348100 S
atom 5.0571806282705243 7.5044837399235060 35.5193318582439375 S
atom 10.1134889974012552 7.5043701175332229 35.5259251356903505 S
atom 4.6161141277029030 2.4763627243073030 40.5147232040789405 S
atom 10.5397030591741672 2.4762913848704611 40.5225631119813769 S
atom 5.5419168248557904 7.4740776191765166 40.5079507283872289 S
atom 9.6137728790706323 7.4740214756637862 40.5147232043011201 S
atom 2.5871396866417480 4.9869989233792102 35.7769183355139475 S
atom 7.5857336449416799 5.0324170456221617 35.2188665299499419 S
atom 2.5879474106393161 10.0302032799343461 35.2042541461770142 S
atom 7.5847984379982600 9.9846576747360416 35.7769183354956652 S
atom 2.5805718899027461 5.4056440323106463 40.2610115385152696 S
atom 7.5775840240186145 4.4920429136179685 40.7434564285624461 S
atom 2.5797977897141791 9.4898291479556764 40.7288440447751938 S
atom 7.5782306412585845 10.4033027836702114 40.2610115384874305 S
atom 2.5762896588016124 2.5094000831907866 43.0344433376191446 Ba
atom 7.5741096534835375 2.3547342981068442 43.0563498639550275 Ba
atom 2.5763234191783591 7.3525205322527611 43.0417374799911912 Ba
atom 7.5739484101564312 7.5070588346545826 43.0344433377413793 Ba
atom 2.5692005237267352 2.3545010985863231 48.0999072477510694 Ba
atom 7.5666614251017998 2.5026132066399600 48.1027615274855833 Ba
atom 2.5688751907970984 7.5003994408264267 48.0881491435421111 Ba
atom 7.5668592750812298 7.3521598500596337 48.0999072478785550 Ba
atom 5.0691952057384952 4.9349299743227713 45.5600858910249116 Zr
atom 10.0716688659777525 4.9348261888883247 45.5670819162440992 Zr
atom 5.0738826316731860 9.9326124231907773 45.5524695324312034 Zr
atom 10.0668539570934801 9.9325887256754513 45.5600858910278390 Zr
atom 5.0618518342056911 4.9199468676950904 50.6355868589892495 Zr
atom 10.0643254944444305 4.9198430822607273 50.6425828842081103 Zr
atom 5.0665392601403170 9.9176293165634792 50.6279705003958611 Zr
atom 10.0595105855602487 9.9176056190482562 50.6355868589917861 Zr
atom 4.8564953419559771 4.9601939527396297 43.0329805623752932 S
atom 10.2918804731240279 4.9595427843272590 43.0407952034274004 S
atom 5.2940942388393415 9.9573290188756172 43.0261828196187679 S
atom 9.8541540932920348 9.9578527043380269 43.0329805623829174 S
atom 5.2516994590730901 4.9272590276443626 48.0979994800774762 S
atom 9.8818212411100408 4.9275140291836479 48.1046692951616848 S
atom 4.8840350068058305 9.9253002632420433 48.0900569113428276 S
atom 10.2493582104280190 9.9249177787528531 48.0979994800736250 S
atom 5.5526614808085517 2.4389219335105299 45.5740235732623589 S
atom 9.5881186638378200 2.4388538582532266 45.5802428150999930 S
atom 4.5903324295279644 7.4366400925561500 45.5656304310472251 S
atom 10.5503202321693355 7.4365806848634550 45.5740235730264160 S
atom 4.5832004680193652 2.4181923717163829 50.6286452019724535 S
atom 10.5431882706503774 2.4181329640238389 50.6370383439511542 S
atom 5.5454020363510974 7.4159191983301005 50.6224259603722828 S
atom 9.5808592193685342 7.4158511230729163 50.6286452022097819 S
atom 2.5724550799244863 4.4559869638193863 45.7272736712361620 S
atom 7.5706531913027542 5.4073967684103383 45.4090300718914008 S
atom 2.5728669569978906 10.4051830027239927 45.3944176880777519 S
atom 7.5701138312797749 9.4536457151604250 45.7272736712279695 S
atom 2.5656206345991355 5.3989135757256053 50.4607827201917445 S
atom 7.5628675088804105 4.4473762881621921 50.7936387033420260 S
atom 2.5650812745763201 9.4451625224756128 50.7790263195284197 S
atom 7.5632793859538809 10.3965723270666786 50.4607827201838788 S
atom 2.5617522953452028 2.5023800071195756 53.1463189112813410 Ba
atom 7.5595722900266891 2.3477142220361751 53.1682254376171173 Ba
atom 2.5617860557226755 7.3455004562314103 53.1536130536782068 Ba
atom 7.5594110467003492 7.5000387586338633 53.1463189114290486 Ba
atom 2.5538555883693501 2.2585356755895729 58.1993682187274288 Ba
atom 7.5516710869096944 2.3072466321362208 58.1780080361986833 Ba
atom 2.5538848526059108 7.3050328662707305 58.1633956522285658 Ba
atom 7.5515143397214830 7.2561944270382828 58.1993682187511041 Ba
atom 5.0726163423864570 4.8703005855921626 55.7046679724314657 Zr
atom 10.0384740731360669 4.8703008313002574 55.7114578611774078 Zr
atom 5.0406878388217571 9.8680870656149349 55.6968454773788224 Zr
atom 10.0702750937514907 9.8679593369571190 55.7046679724486893 Zr
atom 5.0588823986321856 4.8457956417625123 60.7908765629459680 Zr
atom 10.0372358663444139 4.8457628442338168 60.7972539699707326 Zr
atom 5.0394496320344349 9.8435490785349842 60.7826415861562879 Zr
atom 10.0565411499966348 9.8434543931139977 60.7908765629470267 Zr
atom 4.8416402270397016 4.8952302720104885 53.1618735718017277 S
atom 10.2770253582458615 4.8945791035985780 53.1696882128531598 S
atom 5.2792391239221175 9.8923653381469148 53.1550758290453231 S
atom 9.8392989784147300 9.8928890236092837 53.1618735718087194 S
atom 5.3493266249565083 4.8676096025493116 58.2105422338010925 S
atom 9.7545151052192036 4.8684732738488341 58.2167806320331778 S
atom 4.7567288708763282 9.8662595079378175 58.2021682482200973 S
atom 10.3469853763547714 9.8652683536889931 58.2105422338031815 S
atom 5.5197478211260647 2.3807515809194864 55.6879455711573144 S
atom 9.5916038753134423 2.3806954374058655 55.6947180470708290 S
atom 4.5938176410227314 7.3784816717095767 55.6801056630328901 S
atom 10.5174065724680030 7.3784103322734476 55.6879455709343461 S
atom 5.0200317027815506 2.3504029390490575 60.6767436393758715 S
atom 10.0763400719141085 2.3502893166573897 60.6833369168172609 S
atom 5.0785538376093573 7.3480755509621138 60.6687245331780787 S
atom 10.0176904541361367 7.3480616904042053 60.6767436395463946 S
atom 2.5575038246211972 4.4492565072156829 55.9270448529325606 S
atom 7.5559366761635838 5.3627301429311034 55.4592123466457352 S
atom 2.5581504418605077 10.3605163772687021 55.4445999628584616 S
atom 7.5551625759756620 9.4469152585749789 55.9270448529047144 S
atom 2.5509360278811335 4.8679016161512276 60.4111380559256617 S
atom 7.5477870552388646 4.8223560109514736 60.9838022452435595 S
atom 2.5500008209364387 9.8201422452637352 60.9691898614707526 S
atom 7.5485947792379475 9.8655603675079178 60.4111380559075570 S
atom 2.5472191947029947 2.4771845529723202 62.8742544456567174 Ba
atom 7.5451953065597586 2.2143614926926207 62.8787483778266392 Ba
atom 2.5474090722474951 7.2121477269447523 62.8641359940101694 Ba
atom 7.5448779460650064 7.4748433043706699 62.8742544456714967 Ba
atom 4.8145512325352184 4.8564121039987569 63.2850584233028499 S
atom 10.2746608037337381 4.8558137732971085 63.2922106136764100 S
atom 5.2768745694522465 9.8536000077269641 63.2775982298609136 S
atom 9.8122099838836334 9.8540708554788061 63.2850584233019759 S
