#=======================================================
# FHI-aims file: full_relax/full_relax_RP_5_RxRy0_-Rx-Ry0.in
# Created using the Atomic Simulation Environment (ASE)
# Fri Mar 14 11:30:10 2025
#=======================================================
lattice_vector 10.0730450897347286 0.1085878206372282 -0.0000000000000036 
lattice_vector 0.1085878206372305 10.0730450897344745 -0.0000000000000030 
lattice_vector -0.0000000000000207 -0.0000000000000171 55.2040702770547256 
atom -0.0854143519850985 -0.0854143519868027 0.2721672015773904 Ba
atom 5.1219368968517349 0.1397082623052714 0.2721672015731189 Ba
atom 0.1397082623029807 5.1219368968535166 0.2721672015760058 Ba
atom 5.0054021032007086 5.0054021031989233 0.2721672015753953 Ba
atom -0.0062040553359273 -0.0062040553354880 4.9434279431424706 Ba
atom 5.0427266002044639 0.0604979656542045 4.9434279431425603 Ba
atom 0.0604979656553592 5.0427266002006208 4.9434279431431696 Ba
atom 5.0846123998494832 5.0846123998479005 4.9434279431428028 Ba
atom 2.5389804600251455 2.5389804600211336 2.3332228754122522 Zr
atom 7.5883585400264142 2.6061299054797411 2.3332228754127815 Zr
atom 2.6061299054810179 7.5883585400271558 2.3332228754109785 Zr
atom 7.6297969152080372 7.6297969152125811 2.3332228754115949 Zr
atom 2.5472570682148201 2.5472570682167381 7.3554152124825665 Zr
atom 7.5800819318347310 2.5978532972914445 7.3554152124713124 Zr
atom 2.5978532972847996 7.5800819318344006 7.3554152124788246 Zr
atom 7.6380735234020873 7.6380735234055672 7.3554152124843570 Zr
atom 2.7801144304236574 2.7801144304180720 -0.1525890156837745 S
atom 7.3472245696279845 2.3649959350833609 -0.1525890156800507 S
atom 2.3649959350810468 7.3472245696333598 -0.1525890156830001 S
atom 7.8709308856085247 7.8709308856069722 -0.1525890156860183 S
atom 2.2302460419344419 2.2302460419383610 4.8787148492205157 S
atom 7.8970929581148299 2.9148643235655847 4.8787148492270678 S
atom 2.9148643235666118 7.8970929581117906 4.8787148492203025 S
atom 7.3210624971212441 7.3210624971268068 4.8787148492090280 S
atom 2.5182612724329507 0.0271469551607490 2.1654566642281274 S
atom 7.5547838173003292 0.0814408654815586 2.7109942580345652 S
atom 2.5725551827520650 5.0636695000333969 2.7109942580352340 S
atom 7.6090777276188772 5.1179634103350073 2.1654566642292701 S
atom 2.5182612724302365 0.0271469551600164 7.7080817562401460 S
atom 7.5547838173008897 0.0814408654708363 7.0178353555113029 S
atom 2.5725551827519966 5.0636695000303025 7.0178353555133848 S
atom 7.6090777276161559 5.1179634103386675 7.7080817562386352 S
atom 0.0271469551616039 2.5182612724331830 2.1654566642238189 S
atom 5.0636695000250791 2.5725551827505546 2.7109942580358917 S
atom 0.0814408654759240 7.5547838172991844 2.7109942580392170 S
atom 5.1179634103471283 7.6090777276192272 2.1654566642263595 S
atom 0.0271469551602920 2.5182612724361078 7.7080817562416559 S
atom 5.0636695000359007 2.5725551827514148 7.0178353555103010 S
atom 0.0814408654753645 7.5547838172999970 7.0178353555096544 S
atom 5.1179634103546983 7.6090777276216670 7.7080817562418744 S
atom 0.0325208997531220 0.0325208997551875 9.8477632580978050 Ba
atom 5.0040016451102467 0.0217730105654179 9.8477632580978725 Ba
atom 0.0217730105621911 5.0040016451145739 9.8477632580980980 Ba
atom 5.1233373549390899 5.1233373549412118 9.8477632580979844 Ba
atom -0.0325208997534095 -0.0325208997578379 14.7969109727372867 Ba
atom 5.0690434446242971 0.0868148100696376 14.7969109727376615 Ba
atom 0.0868148100747662 5.0690434446207648 14.7969109727373311 Ba
atom 5.0582955554318181 5.0582955554309690 14.7969109727374359 Ba
atom 2.5454082275904528 2.5454082275885943 12.3223371154197263 Zr
atom 7.5819307724619422 2.5997021379130110 12.3223371154122798 Zr
atom 2.5997021379120655 7.5819307724600922 12.3223371154251655 Zr
atom 7.6362246827751861 7.6362246827779137 12.3223371154224317 Zr
atom 2.5435593869712303 2.5435593869713222 17.2892590183708599 Zr
atom 7.5837796130790656 2.6015509785364186 17.2892590183640245 Zr
atom 2.6015509785318738 7.5837796130801998 17.2892590183478134 Zr
atom 7.6343758421544150 7.6343758421589758 17.2892590183484742 Zr
atom 2.8966477557421393 2.8966477557383921 9.8431295762921103 S
atom 7.2306912443101892 2.2484626097652392 9.8431295763160893 S
atom 2.2484626097600824 7.2306912443107274 9.8431295763061559 S
atom 7.9874642109271967 7.9874642109265546 9.8431295763114850 S
atom 2.1941686994409144 2.1941686994432312 14.8015446545095362 S
atom 7.9331703006104597 2.9509416660623353 14.8015446545229050 S
atom 2.9509416660579997 7.9331703006051173 14.8015446545158316 S
atom 7.2849851546281679 7.2849851546339712 14.8015446545129041 S
atom 2.5182612724304123 0.0271469551586138 11.9603871598030587 S
atom 7.5547838173026243 0.0814408654757045 12.6842870710332605 S
atom 2.5725551827536117 5.0636695000360268 12.6842870710367475 S
atom 7.6090777276165404 5.1179634103398151 11.9603871598000051 S
atom 2.5182612724302857 0.0271469551498769 17.6268388753235357 S
atom 7.5547838173021544 0.0814408654664839 16.9365924745934961 S
atom 2.5725551827530708 5.0636695000444085 16.9365924745953222 S
atom 7.6090777276162100 5.1179634103377056 17.6268388753216847 S
atom 0.0271469551631439 2.5182612724346845 11.9603871598001792 S
atom 5.0636695000182801 2.5725551827488444 12.6842870710372964 S
atom 0.0814408654777524 7.5547838172979116 12.6842870710364881 S
atom 5.1179634103518525 7.6090777276211652 11.9603871597992271 S
atom 0.0271469551673901 2.5182612724365954 17.6268388753253404 S
atom 5.0636695000266823 2.5725551827505457 16.9365924745934535 S
atom 0.0814408654790187 7.5547838172990582 16.9365924745914782 S
atom 5.1179634103526386 7.6090777276222958 17.6268388753239265 S
atom 0.0062040553349065 0.0062040553381437 19.7012462876936389 Ba
atom 5.0303184895291917 0.0480898549854233 19.7012462876944987 Ba
atom 0.0480898549806544 5.0303184895307202 19.7012462876940653 Ba
atom 5.0970205105210669 5.0970205105209816 19.7012462876945520 Ba
atom 0.0854143519854884 0.0854143519884292 24.3725070292492916 Ba
atom 4.9511081928822200 -0.0311204416658299 24.3725070292529900 Ba
atom -0.0311204416666244 4.9511081928784542 24.3725070292493839 Ba
atom 5.1762308071712226 5.1762308071704384 24.3725070292503112 Ba
atom 2.5518359951585556 2.5518359951594753 22.3114513554348939 Zr
atom 7.5755030048917549 2.5932743703464540 22.3114513554223208 Zr
atom 2.5932743703431780 7.5755030048909742 22.3114513554155067 Zr
atom 7.6426524503447304 7.6426524503460946 22.3114513554263567 Zr
atom 2.8605704132471952 2.8605704132450747 19.7659593815973373 S
atom 7.2667685868033791 2.2845399522588630 19.7659593816168702 S
atom 2.2845399522531347 7.2667685868048748 19.7659593816282424 S
atom 7.9513868684356428 7.9513868684349225 19.7659593816223129 S
atom 2.3107020247647463 2.3107020247663703 24.7972632465154881 S
atom 7.8166369752878495 2.8344083407387175 24.7972632465274430 S
atom 2.8344083407416365 7.8166369752868521 24.7972632465448868 S
atom 7.4015184799478915 7.4015184799517852 24.7972632465336886 S
atom 2.5182612724317419 0.0271469551602058 21.9336799727952432 S
atom 7.5547838173009172 0.0814408654821908 22.4792175666035483 S
atom 2.5725551827515782 5.0636695000239405 22.4792175666052430 S
atom 7.6090777276181658 5.1179634103325604 21.9336799727948772 S
atom 0.0271469551651759 2.5182612724343292 21.9336799727952076 S
atom 5.0636695000211125 2.5725551827520321 22.4792175666104050 S
atom 0.0814408654754302 7.5547838173007653 22.4792175666033920 S
atom 5.1179634103478531 7.6090777276206119 21.9336799727914062 S
atom 2.6308225795752165 2.6308225795733780 27.8742023401219718 Ba
atom 7.4965164204769072 2.5142877859265642 27.8742023401219932 Ba
atom 2.5142877859242541 7.4965164204779162 27.8742023401197550 Ba
atom 7.7216390347657500 7.7216390347625312 27.8742023401198935 Ba
atom 2.5516122829239123 2.5516122829358241 32.5454630816711301 Ba
atom 7.5757267171222553 2.5934980825755614 32.5454630816705546 Ba
atom 2.5934980825665011 7.5757267171223246 32.5454630816716559 Ba
atom 7.6424287381169513 7.6424287381198113 32.5454630816712012 Ba
atom 5.0972442227548411 5.0972442227575225 29.9352580139571955 Zr
atom 10.1209112324839410 5.1386825979392254 29.9352580139425797 Zr
atom 5.1386825979304964 10.1209112324797967 29.9352580139426614 Zr
atom 10.1880606779380845 10.1880606779397755 29.9352580139449103 Zr
atom 5.0889676145548242 5.0889676145559628 34.9574503510336143 Zr
atom 10.1291878406782967 5.1469592061291873 34.9574503510079566 Zr
atom 5.1469592061264304 10.1291878406846969 34.9574503510437111 Zr
atom 10.1797840697386643 10.1797840697481110 34.9574503510002543 Zr
atom 4.8561102523588522 4.8561102523561077 27.4494461227904942 S
atom 10.3620452028789938 5.3798165683343626 27.4494461228192286 S
atom 5.3798165683294892 10.3620452028826229 27.4494461227979123 S
atom 9.9469267075444545 9.9469267075416852 27.4494461228194275 S
atom 5.4059786408417487 5.4059786408465635 32.4807499877098067 S
atom 9.8121768143972599 4.8299481798446235 32.4807499877421932 S
atom 4.8299481798422894 9.8121768143886303 32.4807499876713663 S
atom 10.4967950960231171 10.4967950960297145 32.4807499877303343 S
atom 5.0636695000226926 2.5725551827603135 30.3130293965835733 S
atom 10.1001920448930331 2.6268490930755730 29.7674918027557176 S
atom 5.1179634103436866 7.6090777276153405 29.7674918027694630 S
atom 10.1544859552094326 7.6633716379259376 30.3130293965718529 S
atom 5.0636695000178502 2.5725551827376019 34.6198704940350410 S
atom 10.1001920448969127 2.6268490930650428 35.3101168947673685 S
atom 5.1179634103480307 7.6090777276279651 35.3101168947740263 S
atom 10.1544859552032687 7.6633716379400294 34.6198704940299464 S
atom 2.5725551827465054 5.0636695000293681 30.3130293965727304 S
atom 7.6090777276269206 5.1179634103444567 29.7674918027635478 S
atom 2.6268490930570847 10.1001920448916156 29.7674918027700350 S
atom 7.6633716379639356 10.1544859552133406 30.3130293965768196 S
atom 2.5725551827738982 5.0636695000324083 34.6198704940360287 S
atom 7.6090777276027346 5.1179634103394784 35.3101168947656561 S
atom 2.6268490930923845 10.1001920448878142 35.3101168947685267 S
atom 7.6633716379559456 10.1544859552188065 34.6198704940368529 S
atom 2.5128873278456823 2.5128873278349664 37.4497983966250914 Ba
atom 7.6144516722166706 2.6322230376635369 37.4497983966244874 Ba
atom 2.6322230376698310 7.6144516722080988 37.4497983966256243 Ba
atom 7.6037037830284930 7.6037037830180942 37.4497983966250132 Ba
atom 2.5779291273411777 2.5779291273448717 42.3989461112629584 Ba
atom 7.5494098727031584 2.5671812381596020 42.3989461112634629 Ba
atom 2.5671812381595056 7.5494098727145991 42.3989461112636405 Ba
atom 7.6687455825232158 7.6687455825378308 42.3989461112635766 Ba
atom 5.0908164551805264 5.0908164551825292 39.9243722539555392 Zr
atom 10.1273390000500925 5.1451103655089288 39.9243722539683716 Zr
atom 5.1451103654999999 10.1273390000501866 39.9243722539883308 Zr
atom 10.1816329103664902 10.1816329103692169 39.9243722539589001 Zr
atom 5.0926652958095477 5.0926652958132479 44.8912941568296588 Zr
atom 10.1254901594230251 5.1432615248814910 44.8912941568483888 Zr
atom 5.1432615248684437 10.1254901594201545 44.8912941568060191 Zr
atom 10.1834817509976236 10.1834817510047664 44.8912941568303125 Zr
atom 4.7395769270384713 4.7395769270379793 37.4451647148671256 S
atom 10.4785785281970298 5.4963498936584765 37.4451647148494828 S
atom 5.4963498936441262 10.4785785282033910 37.4451647148653848 S
atom 9.8303933822195173 9.8303933822225602 37.4451647148877598 S
atom 5.4420559833226090 5.4420559833271041 42.4035797930521454 S
atom 9.7760994719124596 4.7938708373608403 42.4035797930602953 S
atom 4.7938708373687051 9.7760994719104861 42.4035797930519678 S
atom 10.5328724385090755 10.5328724385180514 42.4035797930814837 S
atom 5.0636695000188654 2.5725551827476507 40.2863222095572837 S
atom 10.1001920448967422 2.6268490930672970 39.5624222983149636 S
atom 5.1179634103491711 7.6090777276246957 39.5624222983177205 S
atom 10.1544859552036151 7.6633716379273356 40.2863222095544913 S
atom 5.0636695000192686 2.5725551827470965 44.5386276131286252 S
atom 10.1001920448949178 2.6268490930636998 45.2288740138585368 S
atom 5.1179634103462508 7.6090777276299040 45.2288740138625940 S
atom 10.1544859552052191 7.6633716379265389 44.5386276131263088 S
atom 2.5725551827649347 5.0636695000327911 40.2863222095552302 S
atom 7.6090777276216972 5.1179634103392999 39.5624222983239022 S
atom 2.6268490930788468 10.1001920448877662 39.5624222983172871 S
atom 7.6633716379405694 10.1544859552186661 40.2863222095484872 S
atom 2.5725551827729261 5.0636695000316534 44.5386276131323413 S
atom 7.6090777276152064 5.1179634103424494 45.2288740138551830 S
atom 2.6268490930841621 10.1001920448917080 45.2288740138548349 S
atom 7.6633716379390382 10.1544859552186182 44.5386276131331726 S
atom 2.5392041722528851 2.5392041722517678 47.3032814262278691 Ba
atom 7.5881348278032856 2.6059061932517262 47.3032814262282599 Ba
atom 2.6059061932478178 7.5881348277966651 47.3032814262278904 Ba
atom 7.6300206274447655 7.6300206274348987 47.3032814262279828 Ba
atom 2.4599938756074708 2.4599938756156883 51.9745421677543575 Ba
atom 7.6673451244442461 2.6851164898934718 51.9745421677545849 Ba
atom 2.6851164898910498 7.6673451244351227 51.9745421677539241 Ba
atom 7.5508103307964900 7.5508103307959846 51.9745421677552031 Ba
atom 5.0843886876142363 5.0843886876157933 49.9134864939480138 Zr
atom 10.1337667676179990 5.1515381330721883 49.9134864939406384 Zr
atom 5.1515381330717904 10.1337667676234542 49.9134864939271594 Zr
atom 10.1752051428014951 10.1752051428054795 49.9134864939391036 Zr
atom 4.7756542695254449 4.7756542695200661 47.3679945201585610 S
atom 10.4425011857064174 5.4602725511691217 47.3679945201264445 S
atom 5.4602725511588472 10.4425011857173597 47.3679945201430570 S
atom 9.8664707247117249 9.8664707247095134 47.3679945201511856 S
atom 5.3255226580098185 5.3255226580182127 52.3992983851190672 S
atom 9.8926327972268524 4.9104041626733839 52.3992983851173477 S
atom 4.9104041626779011 9.8926327972208075 52.3992983851580121 S
atom 10.4163391131973917 10.4163391132027883 52.3992983851213836 S
atom 5.0636695000245133 2.5725551827496211 50.0812527051288257 S
atom 10.1001920448924825 2.6268490930753914 49.5357151113097487 S
atom 5.1179634103442719 7.6090777276227435 49.5357151113035172 S
atom 10.1544859552099993 7.6633716379266295 50.0812527051348653 S
atom 2.5725551827517292 5.0636695000268812 50.0812527051264809 S
atom 7.6090777276329700 5.1179634103440188 49.5357151113131948 S
atom 2.6268490930717534 10.1001920448930065 49.5357151113099050 S
atom 7.6633716379430457 10.1544859552131417 50.0812527051231200 S
