#=======================================================
# FHI-aims file: full_relax/full_relax_RP_5_RxRyRz_-Rx-RyRz.in
# Created using the Atomic Simulation Environment (ASE)
# Fri Mar 14 11:35:31 2025
#=======================================================
lattice_vector 9.9961016574299588 0.0160095126374285 0.0000000011356112 
lattice_vector 0.0160095126368679 9.9961016571199295 0.0000000010541078 
lattice_vector 0.0000000063635429 0.0000000058981805 56.0741710219886045 
atom 0.0240024620500289 -0.1007366179274158 0.2187766200076603 Ba
atom 5.0987875280104777 -0.0159977090044987 0.2187767943984664 Ba
atom 0.1087412705545495 4.9740482873101941 0.2187774409664079 Ba
atom 5.0300581646819120 4.9053188703127715 0.2187760612297113 Ba
atom -0.2577655519293201 0.2063147767033806 4.9938893565333684 Ba
atom 4.7917357459343917 0.2657705673714722 4.9938893803141289 Ba
atom -0.1983100091611514 5.2558166587422894 4.9938894128386577 Ba
atom 4.7482897471435130 5.2123703832428063 4.9938894776134175 Ba
atom 2.4673341204032884 2.5440975798831507 2.3786329304358240 Zr
atom 7.4600081002316481 2.5467256754474064 2.3786321350818231 Zr
atom 2.4699619361047538 7.5367721218705173 2.3786332481551304 Zr
atom 7.4733900152908879 7.5501536152112365 2.3786326874193060 Zr
atom 2.4188789462362106 2.5527514236485365 7.4515590786948520 Zr
atom 7.4513543473352222 2.5951815941940106 7.4515596993009012 Zr
atom 2.4613081113492270 7.5852273937238683 7.4515599624720057 Zr
atom 7.4249343345915140 7.5588067644530810 7.4515594972400718 Zr
atom 2.6355777918037813 2.7867157997455436 -0.1276693236692177 S
atom 7.2173904729445395 2.3784824292669038 -0.1276697353036886 S
atom 2.2273444107052223 7.3685286081014114 -0.1276712943000759 S
atom 7.6416333901230331 7.7927715476295250 -0.1276697688005866 S
atom 2.2329299736935888 2.2850249681777983 4.9467369403608812 S
atom 7.7190811842574298 2.7811302315633348 4.9467375314342776 S
atom 2.7290351996589486 7.7711763254136512 4.9467370355895595 S
atom 7.2389854602787587 7.2910805473132205 4.9467365951179731 S
atom 2.6986504262881481 0.0510025095547743 2.2315246886556865 S
atom 7.1693873804371773 0.0624572839155406 2.7347891947437515 S
atom 2.1793413529648542 5.0525029605372636 2.7347892533376155 S
atom 7.7047059816141870 5.0570576051100975 2.2315247255377786 S
atom 2.9024847534424669 0.0530407034825661 7.6820433309980567 S
atom 7.0300625304261199 0.0631713690344245 7.2533978866106965 S
atom 2.0400164012340922 5.0532165119763777 7.2533980668752500 S
atom 7.9085402487734511 5.0590953937983336 7.6820431007153402 S
atom -0.0429974043230456 2.2994002404268294 2.2315246287781099 S
atom 4.9516047432014849 2.8347188509667802 2.7347891926618142 S
atom -0.0384426506599987 7.8247649673446071 2.7347893329636852 S
atom 4.9630592261072710 7.3054559062655446 2.2315249266011605 S
atom -0.0450336300389463 2.0955658182143035 7.6820431483375691 S
atom 4.9508892204835089 2.9740436317877630 7.2533978650034996 S
atom -0.0391569502620494 7.9640897481972939 7.2533980480111842 S
atom 4.9610228033742603 7.1016213743825940 7.6820433124972833 S
atom -0.0299143566378866 -0.0619778436175972 9.9955881950981276 Ba
atom 5.0600285508840113 0.0379192106917253 9.9955882290765832 Ba
atom 0.0699826398398102 5.0279653134081599 9.9955881893880125 Ba
atom 4.9761411388499646 4.9440778047159402 9.9955881899411239 Ba
atom 0.0299143249109976 0.0619774414269093 15.0375253083976936 Ba
atom 4.9360735308835357 -0.0219095991408505 15.0375253678136751 Ba
atom -0.0539728313420845 4.9681362754029168 15.0375254048079672 Ba
atom 5.0359701276550108 5.0680328615922861 15.0375253447568227 Ba
atom 2.5030276260897222 2.5030278433728452 12.5165543480156813 Zr
atom 7.5010783572514015 2.5110321794268011 12.5165557643738250 Zr
atom 2.5110326928293070 7.5010788432259297 12.5165554771619991 Zr
atom 7.5090829978048239 7.5090834640554345 12.5165546169091737 Zr
atom 2.5871767573567168 2.4533036117726734 17.5815564641781030 Zr
atom 7.5508018061331752 2.4268847161702558 17.5815549687797379 Zr
atom 2.5607554065592022 7.4169300383962948 17.5815559424205716 Zr
atom 7.5932317391794335 7.4593590050686593 17.5815566194746395 Zr
atom 2.6409689635729428 2.7047932581645617 9.9874362493156230 S
atom 7.2993129537010306 2.3730910252172350 9.9874359752279798 S
atom 2.3092668567505190 7.3631371974244901 9.9874346299198411 S
atom 7.6470245293524046 7.7108487127988994 9.9874361040323034 S
atom 2.3650859808681184 2.3012620998089846 15.0456741734693189 S
atom 7.7028441276356121 2.6489740327973763 15.0456739433177571 S
atom 2.7127979174793908 7.6390201006557348 15.0456727645231911 S
atom 7.3711414643245439 7.3073176892729883 15.0456740910291877 S
atom 2.0399436454454709 0.0038741716925632 12.3896617661169195 S
atom 7.9561577805371693 0.0121362321250585 12.6434503325844325 S
atom 2.9661117359885938 5.0021812900199540 12.6434506818193579 S
atom 7.0459991782658991 5.0099298743608420 12.3896614017577207 S
atom 2.9660387162545714 -0.0471624263868376 17.7797127871467850 S
atom 7.0936155881356759 -0.0370312104701575 17.3510663377959062 S
atom 2.1035696721750972 4.9530177662302561 17.3510665413997351 S
atom 7.9720944362394528 4.9588947369517182 17.7797127536334436 S
atom 0.0041323493880417 2.9581070527469229 12.3896613831740243 S
atom 5.0019244293109253 2.0479485235517232 12.6434502903463901 S
atom 0.0118780310701993 7.0379944716465097 12.6434506972097545 S
atom 5.0101874613173694 7.9641625557637985 12.3896617975583432 S
atom 0.0551673790921806 2.0320114323948371 17.7797127890264832 S
atom 5.0510910083436915 2.9104903034244685 17.3510664517039608 S
atom 0.0610471635286136 7.9005362788667615 17.3510665232107719 S
atom 5.0612222239529663 7.0380671890550550 17.7797128671347799 S
atom 0.2577657149663302 -0.2063152846806910 20.0392208422369613 Ba
atom 5.2043662515020195 -0.2497610454585920 20.0392209324148673 Ba
atom 0.2143200782979412 4.7402850587508949 20.0392208423408498 Ba
atom 5.2638213798224367 4.7997403303705486 20.0392207239932070 Ba
atom -0.0240024150333540 0.1007366385771765 24.8143358215031498 Ba
atom 4.8973143564068220 0.0320071236659204 24.8143351793060525 Ba
atom -0.0927316667012849 5.0220532928898924 24.8143346794224193 Ba
atom 4.9820531809617128 5.1067922159066166 24.8143350653495816 Ba
atom 2.5387206455976727 2.4619559137410523 22.6544725688405855 Zr
atom 7.5421503792594979 2.4753387907452638 22.6544726563130610 Zr
atom 2.5521038127039826 7.4653852266386709 22.6544729027769129 Zr
atom 7.5447760202196443 7.4680120217024530 22.6544730685685103 Zr
atom 2.7731251112539059 2.7210300261589135 20.0863844603204704 S
atom 7.2830760938892354 2.2409350117556248 20.0863835617285815 S
atom 2.2930298496882080 7.2309810142207533 20.0863826605005329 S
atom 7.7791804202289843 7.7270856794734772 20.0863846074014951 S
atom 2.3704777619918072 2.2193392851856228 25.1607800552474430 S
atom 7.7847668964935712 2.6435823890357355 25.1607812515219926 S
atom 2.7947206889236629 7.6336286522292873 25.1607808805813242 S
atom 7.3765334392753683 7.2253951188481702 25.1607783951382693 S
atom 2.8267139502770084 -0.0464458177297655 22.2983245225379392 S
atom 7.2974514404777562 -0.0349907021487463 22.8015880387425369 S
atom 2.3074052549281592 4.9550555348872631 22.8015880095660890 S
atom 7.8327695319788324 4.9596093155027692 22.2983245070996574 S
atom 0.0544515908742779 2.1713365454295728 22.2983244279745811 S
atom 5.0490513833447235 2.7066548258964023 22.8015879185446551 S
atom 0.0590058983782178 7.6967007489152985 22.8015879983741065 S
atom 5.0605079045351511 7.1773921295321550 22.2983245617666981 S
atom 2.4790255365962515 2.6037648827564506 28.2558635235565596 Ba
atom 7.4003417214794753 2.5350349886741244 28.2558633384017028 Ba
atom 2.4102958818592839 7.5250807538592674 28.2558634561979147 Ba
atom 7.4850808418585997 7.6098200286959212 28.2558641359181983 Ba
atom 2.7607934721303904 2.2967129413365095 33.0309759812493766 Ba
atom 7.7073936170948594 2.2532670389111864 33.0309762613009070 Ba
atom 2.7173473736921752 7.2433127503452610 33.0309758683905628 Ba
atom 7.7668493052455965 7.3027681325159977 33.0309762326824909 Ba
atom 5.0417472253334452 4.9649829404001062 30.4157193088528182 Zr
atom 10.0451781486689189 4.9783672987285303 30.4157199374615104 Zr
atom 5.0551319862893926 9.9684129572845350 30.4157189233749392 Zr
atom 10.0478039260790428 9.9710393198552492 30.4157212073839496 Zr
atom 5.0902055728794720 4.9563306916955083 35.4886434999852014 Zr
atom 10.0538284938838949 4.9299107288962052 35.4886434636458930 Zr
atom 5.0637834822913375 9.9199575690675932 35.4886443450332223 Zr
atom 10.0962600930773494 9.9623871571380320 35.4886431230392816 Zr
atom 4.8735059033374624 4.7223674702690124 27.9094201793036234 S
atom 10.2877942288497017 5.1466100478654999 27.9094199063592718 S
atom 5.2977482587689044 10.1366559977291395 27.9094182905304500 S
atom 9.8795613774516688 9.7284232341657617 27.9094146473138203 S
atom 5.2761529917069288 5.2240578632976078 32.9838175608504827 S
atom 9.7861036498384752 4.7439626691935723 32.9838155450837931 S
atom 4.7960575114564810 9.7340081770621794 32.9838193654938792 S
atom 10.2822088619066943 10.2301134054419851 32.9838202337140629 S
atom 5.3297417457504217 2.4565831734093209 30.7718732618942816 S
atom 9.8004787452402073 2.4680364403970327 30.2686093175287354 S
atom 4.8104328272868795 7.4580830009591450 30.2686091468988288 S
atom 10.3357974602059457 7.4626371876616462 30.7718737640774584 S
atom 5.4690667679628824 2.4558663642389242 35.2904831972666102 S
atom 9.5966441296356439 2.4660016516752479 35.7191295957201831 S
atom 4.6065974952514495 7.4560467925898086 35.7191291818745853 S
atom 10.4751224511825303 7.4619207874868003 35.2904835738018079 S
atom 2.5574830613499082 4.6743641520902415 30.7718733554876707 S
atom 7.5520784072127158 5.2096827927362668 30.2686092302663425 S
atom 2.5620340125306815 10.1997287854519794 30.2686092383878815 S
atom 7.5635350222447952 9.6804197287575207 30.7718735187499952 S
atom 2.5581914204314984 4.5350391177393847 35.2904836919353002 S
atom 7.5541219010552911 5.4135175035529990 35.7191297900299389 S
atom 2.5640729987441220 10.4035634572917726 35.7191289050639256 S
atom 7.5642505238460513 9.5410945265245175 35.2904830872678303 S
atom 2.5329425601689297 2.5650053178501575 38.0326724191710568 Ba
atom 7.4391008217613468 2.4811178954163626 38.0326720495473154 Ba
atom 2.4490551413475230 7.4711643516530195 38.0326724098278675 Ba
atom 7.5389977684930445 7.5710609068112786 38.0326722010618994 Ba
atom 2.4731135739966073 2.4410500150116370 43.0746100761355848 Ba
atom 7.5630558649117052 2.5409464263761548 43.0746099593961418 Ba
atom 2.5730101792673907 7.5309932683037735 43.0746101360863776 Ba
atom 7.4791686335890288 7.4471060943958607 43.0746099984347950 Ba
atom 5.0060556761775956 5.0060549689444018 40.5536401169730709 Zr
atom 10.0041074556467517 5.0140607160933532 40.5536367178687200 Zr
atom 5.0140611316759109 10.0041063231212775 40.5536385042527314 Zr
atom 10.0121109459239843 10.0121104289738838 40.5536399841179289 Zr
atom 4.9219067023128158 5.0557793259819741 45.6186385159990309 Zr
atom 9.9543827161535017 5.0982091733221493 45.6186436367664143 Zr
atom 4.9643370450325284 10.0882553627153015 45.6186398771573991 Zr
atom 9.9279636541303145 10.0618355600043010 45.6186378563311479 Zr
atom 4.8681140474369906 4.8042895166497184 38.0245260024862475 S
atom 10.2058720755403822 5.1520014080601158 38.0245260332315809 S
atom 5.2158259077541613 10.1420474569700758 38.0245265178776108 S
atom 9.8741697330241820 9.8103451403276214 38.0245269132380201 S
atom 5.1439971410563778 5.2078210036828425 43.0827613508541916 S
atom 9.8023410134297961 4.8761187299227862 43.0827631591340463 S
atom 4.8122951750764145 9.8661647167069422 43.0827612546793546 S
atom 10.1500530191982516 10.2138766704363135 43.0827619041590495 S
atom 4.5429717480436915 2.5069021535411542 40.6805360303291295 S
atom 10.4591857837251130 2.5151635603476836 40.4267469207721177 S
atom 5.4691398329012646 7.5052110410702433 40.4267473312447976 S
atom 9.5490277017935803 7.5129587610405038 40.6805355963073225 S
atom 5.4055130502718480 2.5560664357644352 45.3881534843375505 S
atom 9.5330904665958034 2.5661991243994255 45.8167981568164464 S
atom 4.5430447183307665 7.5562457638093745 45.8167990447133349 S
atom 10.4115689476988962 7.5621226835656650 45.3881521559085286 S
atom 2.5071571555873060 5.4611344835410351 40.6805358692263184 S
atom 7.5049516447262716 4.5509761550186081 40.4267471649384476 S
atom 2.5149038090159399 9.5410221771359165 40.4267470096420496 S
atom 7.5132155859246295 10.4671901032243344 40.6805358448598255 S
atom 2.4579945800111811 4.5985933094872369 45.3881523971094651 S
atom 7.4539161654676072 5.4770714937237459 45.8167981654608596 S
atom 2.4638710873687470 10.4671175441417272 45.8167989209034090 S
atom 7.4640445517466887 9.6046490272124050 45.3881532534214074 S
atom 2.2452614753857372 2.7093435091431974 48.0763076284932040 Ba
atom 7.2947640551881090 2.7687986487207930 48.0763077643537997 Ba
atom 2.3047172685147932 7.7588437628527345 48.0763077141066546 Ba
atom 7.2513179278105628 7.7153980158869944 48.0763078697425641 Ba
atom 2.5270304470293228 2.4022916147785702 52.8514211751342842 Ba
atom 7.6018151578317381 2.4870303514782006 52.8514218321787297 Ba
atom 2.6117693595034193 7.4770758465478631 52.8514218489266696 Ba
atom 7.5330857180748012 7.4083464068919573 52.8514216528106999 Ba
atom 4.9703620487852724 5.0471258156084025 50.6915644432540873 Zr
atom 9.9630360005883070 5.0497540356687489 50.6915614664464158 Zr
atom 4.9729903112738461 10.0397996519558106 50.6915633959464245 Zr
atom 9.9764176799190540 10.0531812915292491 50.6915631448566089 Zr
atom 4.7359578255278612 4.7880527992108144 48.1234631996303648 S
atom 10.2221089535364644 5.2841576809721333 48.1234667905770692 S
atom 5.2320631748655506 10.2742038626648409 48.1234625572020462 S
atom 9.7420137806730516 9.7941086998230791 48.1234645956486418 S
atom 5.1386055270392585 5.2897437761648156 53.1978673138561433 S
atom 9.7204182326680755 4.8815102947923110 53.1978644772272773 S
atom 4.7303721859871697 9.8715563170093610 53.1978667925336524 S
atom 10.1446612868293808 10.2957991710671273 53.1978677312371317 S
atom 5.2016780455159486 2.5540289906599045 50.8386725496976766 S
atom 9.6724153171507474 2.5654831775730016 50.3354084964989426 S
atom 4.6823691948821402 7.5555319417613722 50.3354084357845863 S
atom 10.2077336177322557 7.5600867375471639 50.8386725977124669 S
atom 2.4600308943171796 4.8024279533419802 50.8386727679300776 S
atom 7.4546323668264778 5.3377466334954971 50.3354085399456110 S
atom 2.4645854035505330 10.3277924947166646 50.3354085071360728 S
atom 7.4660857258007844 9.8084839190909623 50.8386724934464453 S
