#=======================================================
# FHI-aims file: full_relax/full_relax_RP_1_Rx0Rz_0Ry0.in
# Created using the Atomic Simulation Environment (ASE)
# Fri Mar 14 11:17:09 2025
#=======================================================
lattice_vector 10.1083879406627837 -0.0000000000000046 0.0002416211105324 
lattice_vector -0.0000000000000046 10.1084182862196759 0.0000000000000141 
lattice_vector -0.0002690134767926 0.0000000000000235 15.5284617907242097 
atom -0.1566176483495317 0.0000000000266184 0.2394832967691115 Ba
atom 5.2108215563282965 -0.0000000000455294 0.2396356981770070 Ba
atom 0.1566275859898201 5.0542091430869540 0.2395148875554179 Ba
atom 4.8975763219967607 5.0542091431567613 0.2396041074324355 Ba
atom 0.1565335816763516 0.0000000000454600 4.6131610128513341 Ba
atom 4.8974823175954745 -0.0000000000245610 4.6132502325771778 Ba
atom -0.1567116527351804 5.0542091430663145 4.6131294220692025 Ba
atom 5.2107275519839620 5.0542091431382179 4.6132818233229562 Ba
atom 2.5270549518153720 2.5271045715220710 2.4263825602304627 Zr
atom 7.5812489220235149 2.5271045716577483 2.4265033707440198 Zr
atom 2.5270549522101065 7.5813137145833442 2.4263825601666476 Zr
atom 7.5812489215467158 7.5813137144981502 2.4265033706905204 Zr
atom 2.5271212197528135 2.8451010140419810 -0.1069764106784293 S
atom 7.5813151900900841 2.2091081290197616 -0.1068556001754308 S
atom 2.5271212196997186 7.2633172721439125 -0.1069764106014455 S
atom 7.5813151901217264 7.8993101571826827 -0.1068556001210835 S
atom 2.5269886838172626 2.2091081290315420 4.9597415306721864 S
atom 7.5811826541868266 2.8451010140375570 4.9598623413390133 S
atom 2.5269886837642117 7.8993101571541757 4.9597415306827237 S
atom 7.5811826542185647 7.2633172721639934 4.9598623413208065 S
atom 2.5270559771279331 0.0000000000853068 2.1155778581750395 S
atom 7.5812478967431138 0.0000000000579643 2.7373080725170751 S
atom 2.5270539263169201 5.0542091432468030 2.7371872619409823 S
atom 7.5812499475496997 5.0542091432035434 2.1156986687325330 S
atom -0.0000420331795826 2.5271108796766710 2.4263221547885157 S
atom 5.0541519370215315 2.5270982633519203 2.4264429653355966 S
atom -0.0000420330974228 7.5813074064878379 2.4263221547901885 S
atom 5.0541519371058348 7.5813200228123820 2.4264429653372583 S
atom 2.5269799877350363 2.6837258778963262 8.0037789734878633 Ba
atom 7.5811739580387405 2.3704832651933025 8.0038997839196515 Ba
atom 2.5269799877630166 7.4246924083254440 8.0037789735376119 Ba
atom 7.5811739580076649 7.7379350210211433 8.0038997839763937 Ba
atom 2.5268609023844313 2.3704832652130658 12.3774479373560613 Ba
atom 7.5810548727996983 2.6837258779209416 12.3775687480291889 Ba
atom 2.5268609024153283 7.7379350209987861 12.3774479373087054 Ba
atom 7.5810548727714977 7.4246924083036383 12.3775687479861816 Ba
atom 5.0540174297443157 5.0542091433744583 10.1906738605753464 Zr
atom 10.1082114008228796 5.0542091432689453 10.1907946713027489 Zr
atom 5.0540174297747456 10.1084182859684013 10.1906738605090936 Zr
atom 10.1082114009581971 10.1084182861855556 10.1907946712190451 Zr
atom 4.7360575162519778 5.0542091430846732 7.6572987282349230 S
atom 10.4262543929961833 5.0542091431167613 7.6574325950354369 S
atom 5.3720604227882252 10.1084182862474528 7.6573117846521273 S
atom 9.7902514865122932 10.1084182862444454 7.6574195386884281 S
atom 5.3719773442446774 5.0542091430789169 12.7240489933729410 S
atom 9.7901684079761093 5.0542091431108460 12.7241567474668749 S
atom 4.7359744377641713 10.1084182862531442 12.7240359369705676 S
atom 10.4261713145102046 10.1084182862501955 12.7241698039103497 S
atom 5.0540174302545520 2.5270999023598728 10.1906738607392100 S
atom 10.1082114004541435 2.5271092405807867 10.1907946712886837 S
atom 5.0540174302546523 7.5813183838325955 10.1906738607362737 S
atom 10.1082114004538539 7.5813090453848861 10.1907946712857527 S
atom 2.5269168739602628 5.0542091430983689 10.5014079604429327 S
atom 7.5811179869673273 5.0542091430991771 9.8799397609778108 S
atom 2.5269240165815634 10.1084182862672591 9.8798189504790077 S
atom 7.5811108440945238 10.1084182862680034 10.5015287710499496 S
