#=======================================================
# FHI-aims file: full_relax/full_relax_RP_8_RxRyMz_RxRy0.in
# Created using the Atomic Simulation Environment (ASE)
# Mon Mar 24 16:16:58 2025
#=======================================================
lattice_vector 10.0109485089919552 -0.0712217686023479 0.0000000000000068 
lattice_vector -0.0712217686023491 10.0109485089918557 0.0000000000000128 
lattice_vector 0.0000000000000582 0.0000000000001096 85.9341570741732426 
atom 0.1366181652284258 -0.1715431943147014 0.2120071101946128 Ba
atom 5.1770174487956808 -0.1722290495381140 0.2120071100424834 Ba
atom 0.1359323099940926 4.8688560892598032 0.2120071100488535 Ba
atom 5.1064815354266955 4.7983201758812921 0.2120071102138527 Ba
atom -0.2672558117830044 0.1902935894158799 5.0047584653604984 Ba
atom 4.8151806650773992 0.2316449274867740 5.0047584653636061 Ba
atom -0.2259044737224626 5.2727300662785783 5.0047584653599957 Ba
atom 4.7026075584140177 5.1601569596052448 5.0047584653589512 Ba
atom 2.5012390058920002 2.4764136037849038 2.3958161046971678 Zr
atom 7.4989240209281025 2.4330134800102683 2.3958161046844526 Zr
atom 2.4578388821321231 7.4740986187822891 2.3958161046760327 Zr
atom 7.4711023760879707 7.4462769739563397 2.3958161046886270 Zr
atom 2.4744831859847785 2.4903601353982143 7.4493222605319263 Zr
atom 7.4849774892785081 2.4597692999095115 7.4493222605941067 Zr
atom 2.4438923504835302 7.5008544387015830 7.4493222606168681 Zr
atom 7.4443465561755113 7.4602235055904940 7.4493222605369809 Zr
atom 2.6596893797622885 2.7370020925169252 -0.1109878617888238 S
atom 7.2383355321808711 2.2745631061375073 -0.1109878617287527 S
atom 2.1972503933875744 7.3156482449386893 -0.1109878617129219 S
atom 7.6295527499563125 7.7068654627155473 -0.1109878617932419 S
atom 2.2321493834598520 2.1801185884206538 4.9563464144245577 S
atom 7.7952190362600655 2.7021031024272997 4.9563464143560658 S
atom 2.7541338974614407 7.7431882412261182 4.9563464143452167 S
atom 7.2020127536554206 7.1499819586189632 4.9563464144485918 S
atom 2.7928166236812983 -0.0166090866096542 2.2228420318214810 S
atom 7.1785255570368749 -0.0492330258365132 2.7754159221192016 S
atom 2.1374404182432132 4.9918521129658879 2.7754159221179484 S
atom 7.7626799938773168 4.9532542835882047 2.2228420318196265 S
atom 2.8942136792016369 -0.0168589550038533 7.7828871627388434 S
atom 7.1229400179685767 -0.0492830223817872 7.1591288057576543 S
atom 2.0818548791697151 4.9918021164362463 7.1591288057582094 S
atom 7.8640770493957541 4.9530044152095600 7.7828871627376621 S
atom -0.0190017978847819 2.2126576308252703 2.2228420318152038 S
atom 4.9834855118888859 2.7968120676334003 2.7754159221231993 S
atom -0.0575996268850010 7.8378972064345893 2.7754159221241914 S
atom 4.9508615722826317 7.1825210010241527 2.2228420318138662 S
atom -0.0187519293274717 2.1112605752904612 7.7828871627386320 S
atom 4.9835355082835502 2.8523976067186276 7.1591288057574696 S
atom -0.0575496305229981 7.8934827455155290 7.1591288057585798 S
atom 4.9511114408770274 7.0811239454870734 7.7828871627381941 S
atom 0.2834077502144286 -0.1829380716817734 9.9772857081107755 Ba
atom 5.1884123261670512 -0.3190186345143842 9.9772857081094326 Ba
atom 0.1473271873720995 4.7220665042868504 9.9772857081094006 Ba
atom 5.2532711204069651 4.7869252985181667 9.9772857081089885 Ba
atom -0.2839289537822844 0.1815337698641133 14.9793902385829121 Ba
atom 4.8239404846193139 0.2483180694749350 14.9793902385840791 Ba
atom -0.2171446541662267 5.2894032082827644 14.9793902385841093 Ba
atom 4.6859344164009844 5.1513971400719969 14.9793902385842976 Ba
atom 2.4897264415976483 2.4829447038514134 12.4653438933401741 Zr
atom 7.4923929208365427 2.4445260442922301 12.4653438933204761 Zr
atom 2.4513077820375533 7.4856111830874763 12.4653438933465299 Zr
atom 7.4595898117978017 7.4528080740433067 12.4653438933384866 Zr
atom 2.4840502432599747 2.4851149801959616 17.4786053602574007 Zr
atom 7.4902226445053586 2.4502022426337060 17.4786053602136739 Zr
atom 2.4491375057090039 7.4912873814240406 17.4786053601832947 Zr
atom 7.4539136134589858 7.4549783503844917 17.4786053602735585 Zr
atom 2.7495676239904205 2.8143291304364109 9.9680381301645617 S
atom 7.1610084942469534 2.1846848618984316 9.9680381300971099 S
atom 2.1199233554479258 7.2257700006952383 9.9680381300578453 S
atom 7.7194309941841501 7.7841925006333881 9.9680381301319887 S
atom 2.2179819792732771 2.1520830906772765 14.9765088606728618 S
atom 7.8232545340116220 2.7162705066171910 14.9765088607704744 S
atom 2.7821693952200715 7.7573556454173724 14.9765088607667884 S
atom 7.1878453494690158 7.1219464608701131 14.9765088606970451 S
atom 2.8875831698048007 -0.0206399927075139 12.1578990018306090 S
atom 7.1244545634241829 -0.0534783754734559 12.7978289782213661 S
atom 2.0833694246277692 4.9876067632758989 12.7978289782206645 S
atom 7.8574465399978175 4.9492233774401209 12.1578990018325932 S
atom 2.8863234028019535 -0.0191106774108452 17.8037306363468204 S
atom 7.1249950441897107 -0.0519653860984575 17.1601151270019159 S
atom 2.0839099053903514 4.9891197526709163 17.1601151269996954 S
atom 7.8561867729927179 4.9507526927563896 17.8037306363436869 S
atom -0.0149708914602189 2.1178910846875465 12.1578990018327922 S
atom 4.9877308612776963 2.8508830612638514 12.7978289782193073 S
atom -0.0533542775365290 7.8919682000668967 12.7978289782228583 S
atom 4.9548924787498665 7.0877544548776763 12.1578990018300974 S
atom -0.0165002069406070 2.1191508516963791 17.8037306363448486 S
atom 4.9862178720621371 2.8503425804958056 17.1601151270015073 S
atom -0.0548672667803595 7.8914277192990792 17.1601151270001360 S
atom 4.9533631632970696 7.0890142218885455 17.8037306363458043 S
atom 0.2848455066386632 -0.1816300971090587 19.9846876916184577 Ba
atom 5.1871043516061990 -0.3204563909553012 19.9846876916214491 Ba
atom 0.1460192128060266 4.7206287478487141 19.9846876916179532 Ba
atom 5.2547088768360055 4.7882332730929908 19.9846876916198504 Ba
atom -0.2839289537825787 0.1815337698682434 24.9899851447671253 Ba
atom 4.8239404846320699 0.2483180694769105 24.9899851447655159 Ba
atom -0.2171446541765219 5.2894032082699685 24.9899851447660915 Ba
atom 4.6859344164227652 5.1513971400578802 24.9899851447665462 Ba
atom 2.4840502432367728 2.4851149801582122 22.4907700228153296 Zr
atom 7.4902226445305011 2.4502022426585133 22.4907700228681087 Zr
atom 2.4491375057375522 7.4912873814580800 22.4907700228375980 Zr
atom 7.4539136134241533 7.4549783503581448 22.4907700228091230 Zr
atom 2.4897264415651010 2.4829447038115338 27.5040314903232677 Zr
atom 7.4923929208607456 2.4445260443248866 27.5040314904150662 Zr
atom 2.4513077820631661 7.4856111831219829 27.5040314904034062 Zr
atom 7.4595898117618527 7.4528080740055014 27.5040314903229124 Zr
atom 2.7529860395807235 2.8182010842243308 19.9846876918700360 S
atom 7.1571365404699421 2.1812664463143658 19.9846876918757914 S
atom 2.1160514016717964 7.2223515851097453 19.9846876919326846 S
atom 7.7228494097766189 7.7880644544222308 19.9846876918189338 S
atom 2.2179819792645028 2.1520830906698243 24.9928665226409628 S
atom 7.8232545340212143 2.7162705066279402 24.9928665224994511 S
atom 2.7821693952190447 7.7573556454235506 24.9928665225179429 S
atom 7.1878453494566843 7.1219464608634011 24.9928665226944311 S
atom 2.8863234027830971 -0.0191106774712708 22.1656447470460343 S
atom 7.1249950441899044 -0.0519653860446999 22.8092602563584066 S
atom 2.0839099053968644 4.9891197527298266 22.8092602563538662 S
atom 7.8561867729856916 4.9507526926992229 22.1656447470436042 S
atom 2.8875831697876380 -0.0206399927378500 27.8114763814450932 S
atom 7.1244545634263146 -0.0534783755350851 27.1715464050839586 S
atom 2.0833694246314263 4.9876067633044583 27.1715464050855999 S
atom 7.8574465399835551 4.9492233775002488 27.8114763814442547 S
atom -0.0165002069449745 2.1191508517121362 22.1656447470460165 S
atom 4.9862178720687291 2.8503425804918181 22.8092602563552624 S
atom -0.0548672666710522 7.8914277192882931 22.8092602563558984 S
atom 4.9533631631940427 7.0890142219057601 22.1656447470441265 S
atom -0.0149708914218341 2.1178910846971184 27.8114763814463295 S
atom 4.9877308612453133 2.8508830612664231 27.1715464050841646 S
atom -0.0533542775288974 7.8919682000586162 27.1715464050858735 S
atom 4.9548924787490716 7.0877544548967242 27.8114763814425103 S
atom 0.2834077502128468 -0.1829380716838580 29.9920896753322204 Ba
atom 5.1884123261771684 -0.3190186345056187 29.9920896753325330 Ba
atom 0.1473271873658761 4.7220665042842471 29.9920896753333004 Ba
atom 5.2532711204209024 4.7869252985020099 29.9920896753334780 Ba
atom -0.2672558117838114 0.1902935894123046 34.9646169179267545 Ba
atom 4.8151806650736537 0.2316449274902515 34.9646169179271453 Ba
atom -0.2259044737168888 5.2727300662863037 34.9646169179250279 Ba
atom 4.7026075584040248 5.1601569596061934 34.9646169179267829 Ba
atom 2.4744831859949294 2.4903601354203344 32.5200531229617269 Zr
atom 7.4849774892552663 2.4597692998885865 32.5200531227900669 Zr
atom 2.4438923504579733 7.5008544386796183 32.5200531228343053 Zr
atom 7.4443465561957209 7.4602235056099042 32.5200531229366803 Zr
atom 2.5012390059228222 2.4764136038184494 37.5735592783673269 Zr
atom 7.4989240209176842 2.4330134799529639 37.5735592783501531 Zr
atom 2.4578388821067478 7.4740986187534695 37.5735592783509418 Zr
atom 7.4711023761223858 7.4462769740153485 37.5735592783593617 Zr
atom 2.7495676239809201 2.8143291304285656 30.0013372528199760 S
atom 7.1610084942457499 2.1846848619025030 30.0013372528025890 S
atom 2.1199233554540826 7.2257700007016306 30.0013372527995017 S
atom 7.7194309941770998 7.7841925006224013 30.0013372527890105 S
atom 2.2321493834666466 2.1801185884221583 35.0130289689422156 S
atom 7.7952190362621421 2.7021031024272721 35.0130289692669763 S
atom 2.7541338974647029 7.7431882412232920 35.0130289692055499 S
atom 7.2020127536607887 7.1499819586178388 35.0130289690123746 S
atom 2.8942136792140039 -0.0168589549132783 32.1864882205739917 S
atom 7.1229400179567151 -0.0492830224598894 32.8102465776025198 S
atom 2.0818548791647666 4.9918021163453439 32.8102465775985408 S
atom 7.8640770494120460 4.9530044152901755 32.1864882205722367 S
atom 2.7928166236952165 -0.0166090867234357 37.7465333515699442 S
atom 7.1785255570485402 -0.0492330257432827 37.1939594612782685 S
atom 2.1374404182452151 4.9918521130719036 37.1939594612773021 S
atom 7.7626799938821271 4.9532542834922069 37.7465333515627464 S
atom -0.0187519292166041 2.1112605752703386 32.1864882205736009 S
atom 4.9835355081714656 2.8523976067339127 32.8102465776020296 S
atom -0.0575496305766235 7.8934827455300809 32.8102465776011485 S
atom 4.9511114409277086 7.0811239454689883 32.1864882205728264 S
atom -0.0190017980499620 2.2126576308273078 37.7465333515688428 S
atom 4.9834855120240880 2.7968120676341766 37.1939594612703175 S
atom -0.0575996268528158 7.8378972064292434 37.1939594612726125 S
atom 4.9508615722385230 7.1825210010184684 37.7465333515696884 S
atom 0.1366181652322329 -0.1715431942980630 39.7573682731061453 Ba
atom 5.1770174487829177 -0.1722290495381360 39.7573682732100835 Ba
atom 0.1359323099986103 4.8688560892555808 39.7573682732091953 Ba
atom 5.1064815354157469 4.7983201758942018 39.7573682731169171 Ba
atom 2.6596893797743570 2.7370020925270229 40.0803632453373027 S
atom 7.2383355321827105 2.2745631061340363 40.0803632451878258 S
atom 2.1972503933810383 7.3156482449321407 40.0803632452065770 S
atom 7.6295527499658062 7.7068654627194295 40.0803632453082415 S
atom 2.6215275849626036 2.3134485709211399 43.1790684733716503 Ba
atom 7.6618890537304738 2.3127249009835298 43.1790684733824079 Ba
atom 2.6208039149450868 7.3538100397705595 43.1790684733794237 Ba
atom 7.5913909551468794 7.2833119411028955 43.1790684733760628 Ba
atom 2.2175862919517000 2.6753723071279349 47.9718168270500342 Ba
atom 7.2999653175947792 2.7166661939033445 47.9718168270479808 Ba
atom 2.2588801788097994 7.7577513326834744 47.9718168270533880 Ba
atom 7.1874496621356219 7.6452356773057728 47.9718168270542975 Ba
atom 4.9861011308048413 4.9614326519626681 45.3628767784723905 Zr
atom 9.9837683426912207 4.9180147253685229 45.3628767785057008 Zr
atom 4.9426832038817903 9.9590998641790680 45.3628767784964779 Zr
atom 9.9559645010013273 9.9312960221647302 45.3628767784549254 Zr
atom 4.9593018979071841 4.9754250146655483 50.4163578641051942 Zr
atom 9.9697759803105530 4.9448139582157458 50.4163578634519993 Zr
atom 4.9286908415218864 9.9858990969943502 50.4163578634258727 Zr
atom 9.9291652681031888 9.9452883848581610 50.4163578642497470 Zr
atom 5.1445802382811232 5.2219679041266280 42.8560775299993466 S
atom 9.7232330906842268 4.7595356177278640 42.8560775293308467 S
atom 4.6821479518871021 9.8006207565268593 42.8560775293412846 S
atom 10.1144436084693918 10.1918312743116957 42.8560775300602046 S
atom 4.7170002263874551 4.6651386955972214 47.9233915105368879 S
atom 10.2800622993306021 5.1871156297071188 47.9233915115394851 S
atom 5.2389771605319639 10.2282007685027754 47.9233915115464839 S
atom 9.6868635965790020 9.6350020657934632 47.9233915103910846 S
atom 5.2776969844643515 2.4684034857067831 45.1898987069261580 S
atom 9.6633218118807900 2.4357733528222139 45.7425088395227988 S
atom 4.6222366730755100 7.4768584917199732 45.7425088395213493 S
atom 10.2475603546485932 7.4382668560177754 45.1898987069366882 S
atom 5.3789993772813833 2.4682049373093724 50.7499148079332087 S
atom 9.6077559741695833 2.4357802064550196 50.1261538591797589 S
atom 4.5666708353787495 7.4768653452211442 50.1261538591856848 S
atom 10.3488627474854802 7.4380683074681118 50.7499148079334645 S
atom 2.4658490022484965 4.6976406401303850 45.1898987069192799 S
atom 7.4683425013437210 5.2818791830163017 45.7425088395013759 S
atom 2.4272573624691418 10.3229643218033083 45.7425088395012622 S
atom 7.4357123725328975 9.6675040103273933 45.1898987069291920 S
atom 2.4660475484129809 4.5963382474129837 50.7499148079348856 S
atom 7.4683356498051605 5.3374450207061903 50.1261538591903815 S
atom 2.4272505110714064 10.3785301595075445 50.1261538591841713 S
atom 7.4359109185385712 9.5662016176111244 50.7499148079319937 S
atom 2.7681971416806359 2.3021692947285985 52.9443060789177409 Ba
atom 7.6731683300220395 2.1660553441208155 52.9443060789227076 Ba
atom 2.6320831911785594 7.2071404829365715 52.9443060789211728 Ba
atom 7.7380605119154477 7.2720326649391458 52.9443060789191122 Ba
atom 2.2008120570833429 2.6666634831518476 57.9464332095762416 Ba
atom 7.3086741415365708 2.7334404288229348 57.9464332095732004 Ba
atom 2.2675890027076711 7.7745255676118354 57.9464332095672319 Ba
atom 7.1706754273067981 7.6365268533366395 57.9464332095742307 Ba
atom 4.9744589052419270 4.9680793644096530 55.4323656266772034 Zr
atom 9.9771216305108421 4.9296569508449153 55.4323656268350007 Zr
atom 4.9360364917215236 9.9707420896308250 55.4323656268112188 Zr
atom 9.9443222754301193 9.9379427346041389 55.4323656266112010 Zr
atom 4.9687550675866881 4.9702511634380357 60.4456450577251161 Zr
atom 9.9749498313558984 4.9353607884804962 60.4456450581824143 Zr
atom 4.9338646925537430 9.9764459272927652 60.4456450582928326 Zr
atom 9.9386184377692448 9.9401145336490462 60.4456450576763800 Zr
atom 5.2343593002662603 5.2994466890009564 52.9350639994281096 S
atom 9.6457543059225124 4.6697565558428478 52.9350639998310228 S
atom 4.6046691671369029 9.7108416946404397 52.9350639998904100 S
atom 10.2042226704677876 10.2693100592060755 52.9350639993761405 S
atom 4.7027343258122256 4.6372141892785574 57.9435387245643483 S
atom 10.3079868055874453 5.2013815302644995 57.9435387238439716 S
atom 5.2669016667796207 10.2424666690606472 57.9435387237847479 S
atom 9.6725976960015796 9.6070775594690421 57.9435387246947400 S
atom 5.3723071205182240 2.4644798092832159 55.1248934670886683 S
atom 9.6092252856501386 2.4316429503093082 55.7648768629072222 S
atom 4.5681401468702578 7.4727280890793057 55.7648768628972888 S
atom 10.3421704907337499 7.4343431794448378 55.1248934670780528 S
atom 5.3711073353152177 2.4660223858579884 60.7707447540847383 S
atom 9.6096904951887634 2.4331657540324225 60.1271677653861047 S
atom 4.5686053563891802 7.4742508928705353 60.1271677653858418 S
atom 10.3409707055113955 7.4358857560909906 60.7707447540835943 S
atom 2.4697726756104559 4.6030305041930637 55.1248934670824440 S
atom 7.4724729067842057 5.3359757091937876 55.7648768628994560 S
atom 2.4313877681626632 10.3770608479909807 55.7648768629059433 S
atom 7.4396360456269530 9.5728938743922978 55.1248934670856201 S
atom 2.4682301004707123 4.6042302893526932 60.7707447540858183 S
atom 7.4709501015978823 5.3355104997065634 60.1271677653851242 S
atom 2.4298649628056572 10.3765956384956173 60.1271677653852379 S
atom 7.4380934706684512 9.5740936595456283 60.7707447540804608 S
atom 2.7695590101199885 2.3034978211588326 62.9517662288205599 Ba
atom 7.6718398034618964 2.1646934758399707 62.9517662288156146 Ba
atom 2.6307546646842681 7.2057786146466940 62.9517662288211497 Ba
atom 7.7394223802958333 7.2733611913661784 62.9517662288220947 Ba
atom 2.2008120570854270 2.6666634831699856 67.9570992478569025 Ba
atom 7.3086741415142864 2.7334404288020813 67.9570992478648890 Ba
atom 2.2675890027471999 7.7745255676003984 67.9570992478622173 Ba
atom 7.1706754272537809 7.6365268533683874 67.9570992478545577 Ba
atom 4.9687550675898038 4.9702511634799524 65.4578873998899553 Zr
atom 9.9749498313684661 4.9353607884887580 65.4578873995637167 Zr
atom 4.9338646925681884 9.9764459272671910 65.4578873995623525 Zr
atom 9.9386184377883122 9.9401145336586900 65.4578873998674311 Zr
atom 4.9744589052660189 4.9680793644725112 70.4711668307261903 Zr
atom 9.9771216305399477 4.9296569508212151 70.4711668300559495 Zr
atom 4.9360364917339155 9.9707420896119352 70.4711668300590901 Zr
atom 9.9443222754675507 9.9379427346563816 70.4711668306963759 Zr
atom 5.2376866104072581 5.3032497098099087 62.9517662287175526 S
atom 9.6419512850117499 4.6664292456445011 62.9517662283978723 S
atom 4.6008661462088103 9.7075143844423142 62.9517662282794319 S
atom 10.2075499805984631 10.2731130800051833 62.9517662287148312 S
atom 4.7027343258258734 4.6372141892964782 67.9599937329836763 S
atom 10.3079868055812636 5.2013815302570467 67.9599937341489237 S
atom 5.2669016667972368 10.2424666690587678 67.9599937342128726 S
atom 9.6725976960272320 9.6070775594973057 67.9599937330587096 S
atom 5.3711073353300200 2.4660223862722122 65.1327877033672564 S
atom 9.6096904951891808 2.4331657537284870 65.7763646921248721 S
atom 4.5686053563851790 7.4742508924516349 65.7763646921343934 S
atom 10.3409707055148417 7.4358857563916523 65.1327877033685780 S
atom 5.3723071205372959 2.4644798092567948 70.7786389904880906 S
atom 9.6092252856801714 2.4316429502373698 70.1386555946960755 S
atom 4.5681401468712259 7.4727280890950949 70.1386555946892400 S
atom 10.3421704907158230 7.4343431795144577 70.7786389904843105 S
atom 2.4682301007750267 4.6042302893250815 65.1327877033695586 S
atom 7.4709501012870199 5.3355104997217788 65.7763646921275580 S
atom 2.4298649623872830 10.3765956385327307 65.7763646921351040 S
atom 7.4380934710711371 9.5740936595135278 65.1327877033656222 S
atom 2.4697726754812872 4.6030305041944928 70.7786389904867264 S
atom 7.4724729068905731 5.3359757091841944 70.1386555946873926 S
atom 2.4313877679844222 10.3770608479803492 70.1386555946965018 S
atom 7.4396360457869442 9.5728938743920367 70.7786389904874369 S
atom 2.7681971416885354 2.3021692947665011 72.9592263785854129 Ba
atom 7.6731683299866962 2.1660553441178609 72.9592263785836792 Ba
atom 2.6320831912280274 7.2071404829075352 72.9592263785824144 Ba
atom 7.7380605118510895 7.2720326649571136 72.9592263785803965 Ba
atom 2.2175862919441052 2.6753723071021356 77.9317156305300500 Ba
atom 7.2999653175938235 2.7166661938738108 77.9317156305234420 Ba
atom 2.2588801787922059 7.7577513327171941 77.9317156305278900 Ba
atom 7.1874496621406054 7.6452356773448926 77.9317156305264689 Ba
atom 4.9593018979338703 4.9754250146950172 75.4871745933932488 Zr
atom 9.9697759803185821 4.9448139581943433 75.4871745945110320 Zr
atom 4.9286908414978452 9.9858990970005390 75.4871745945331156 Zr
atom 9.9291652681488163 9.9452883848769016 75.4871745935437417 Zr
atom 4.9861011307966745 4.9614326518774838 80.5406556790195509 Zr
atom 9.9837683426374912 4.9180147253968061 80.5406556791380410 Zr
atom 4.9426832038078494 9.9590998642004500 80.5406556790666741 Zr
atom 9.9559645010435496 9.9312960220792643 80.5406556789647823 Zr
atom 5.2343593002940922 5.2994466890329290 72.9684684579425920 S
atom 9.6457543059354549 4.6697565558332101 72.9684684579895020 S
atom 4.6046691671289990 9.7108416946294938 72.9684684579120955 S
atom 10.2042226704827215 10.2693100592248090 72.9684684578550673 S
atom 4.7170002263862818 4.6651386956028880 77.9801409473642479 S
atom 10.2800622993077848 5.1871156296840049 77.9801409452257985 S
atom 5.2389771605263684 10.2282007684888967 77.9801409452872321 S
atom 9.6868635965777905 9.6350020657874218 77.9801409472400309 S
atom 5.3789993773038018 2.4682049368921684 75.1536176495409478 S
atom 9.6077559741678051 2.4357802069470185 75.7773785982737991 S
atom 4.5666708353708128 7.4768653456391787 75.7773785982794266 S
atom 10.3488627474845014 7.4380683069939790 75.1536176495468311 S
atom 5.2776969844327022 2.4684034864439401 80.7136337505846626 S
atom 9.6633218118649467 2.4357733524334346 80.1610236179788700 S
atom 4.6222366730850517 7.4768584910799891 80.1610236179789268 S
atom 10.2475603546318244 7.4382668564733789 80.7136337505954486 S
atom 2.4660475478768245 4.5963382474356607 75.1536176495475985 S
atom 7.4683356503382408 5.3374450206767943 75.7773785982689390 S
atom 2.4272505114419474 10.3785301594833079 75.7773785982672052 S
atom 7.4359109181717793 9.5662016176146878 75.1536176495366419 S
atom 2.4658490029300868 4.6976406401063766 80.7136337505954913 S
atom 7.4683425007529607 5.2818791830098899 80.1610236180079028 S
atom 2.4272573620277487 10.3229643218160252 80.1610236180115265 S
atom 7.4357123730331001 9.6675040102893721 80.7136337506100432 S
atom 2.6215275849670312 2.3134485709005528 82.7244639841228917 Ba
atom 7.6618890537291611 2.3127249009911788 82.7244639841396605 Ba
atom 2.6208039149166527 7.3538100397941291 82.7244639841327967 Ba
atom 7.5913909551746785 7.2833119411056995 82.7244639841328109 Ba
atom 5.1445802382576513 5.2219679040980500 83.0474549272984746 S
atom 9.7232330906611892 4.7595356177104007 83.0474549283567569 S
atom 4.6821479518693243 9.8006207565011128 83.0474549284060259 S
atom 10.1144436084547973 10.1918312743022810 83.0474549273956058 S
