#=======================================================
# FHI-aims file: full_relax/full_relax_RP_2_Rx0Mz_0RyMz.in
# Created using the Atomic Simulation Environment (ASE)
# Fri Mar 14 11:17:44 2025
#=======================================================
lattice_vector 10.0975472648833104 0.0000051473955301 0.0000000000006117 
lattice_vector 0.0000051473955306 10.0975472648833087 0.0000000000000069 
lattice_vector 0.0000000000016390 0.0000000000000188 25.4732648699591238 
atom -0.1651834349645463 -0.0000062611284200 0.2875295959769535 Ba
atom 5.2139756297232802 0.0000168977207286 0.2875112010049156 Ba
atom 0.1652045709959397 5.0487879564332649 0.2875112009923372 Ba
atom 4.8835927711516636 5.0487699449800401 0.2875295959663905 Ba
atom 0.0440492591346486 0.0000414572810131 4.8987047826847752 Ba
atom 5.0047344565536012 0.0000081621902475 4.8987047826898120 Ba
atom -0.0440366021988700 5.0487792208566047 4.8987047826821586 Ba
atom 5.0928254652759266 5.0488176633439901 4.8987047826815635 Ba
atom 2.5243937610041840 2.5043133510955862 2.3639453852692021 Zr
atom 7.5731691009587552 2.5444158562324333 2.3639624691671806 Zr
atom 2.5243980424209540 7.5931869149753446 2.3639624691340959 Zr
atom 7.5731699669564492 7.5530895572864072 2.3639453852685044 Zr
atom 2.5243937610471119 2.5043133510946181 7.4334641799466237 Zr
atom 7.5731691009704880 2.5444158562086363 7.4334470961571810 Zr
atom 2.5243980424178432 7.5931869149965001 7.4334470960786758 Zr
atom 7.5731699669350840 7.5530895572480885 7.4334641799233321 Zr
atom 2.5243774307553823 2.8072726983579810 -0.1225365644561249 S
atom 7.5731537406800067 2.2414540150321560 -0.1225197775341235 S
atom 2.5243826819394881 7.2902250737660257 -0.1225197774563852 S
atom 7.5731536368968193 7.8560489044912156 -0.1225365643334710 S
atom 2.5243837131656268 2.1093402167672810 4.8987047828753267 S
atom 7.5731506020136274 2.9394028582628624 4.8987047828722021 S
atom 2.5243795432218423 7.9881739169410402 4.8987047825849137 S
atom 7.5731599193394139 7.1581164229680034 4.8987047827118433 S
atom 2.5243948024360252 -0.0000014881862919 2.0833944685236960 S
atom 7.5731632206698647 0.0000063986000263 2.7784414258085675 S
atom 2.5243921618947458 5.0487774575925606 2.7784414258300236 S
atom 7.5731710086084183 5.0487747180194127 2.0833944685005945 S
atom 2.5243948024299963 -0.0000014884443835 7.7140150968176870 S
atom 7.5731632206859301 0.0000063983707078 7.0189681395156489 S
atom 2.5243921619048328 5.0487774578211271 7.0189681395116112 S
atom 7.5731710086120705 5.0487747183206908 7.7140150968089456 S
atom 0.0000061620274254 2.5244431053632219 2.4788056786094987 S
atom 5.0487743843705299 2.5244465401761946 2.4788217420297558 S
atom 0.0000033255152679 7.5732175989199781 2.4788217420921508 S
atom 5.0487823682381654 7.5732193115029425 2.4788056786489112 S
atom 0.0000061620346828 2.5244431053546297 7.3186038866660565 S
atom 5.0487743842453341 2.5244465401811094 7.3185878232398096 S
atom 0.0000033256141931 7.5732175989190633 7.3185878232857844 S
atom 5.0487823681881476 7.5732193114866533 7.3186038867228822 S
atom -0.1651834349698868 -0.0000062610798792 9.5098799693516103 Ba
atom 5.2139756297266695 0.0000168977696734 9.5098983642722477 Ba
atom 0.1652045709674620 5.0487879563930331 9.5098983643150419 Ba
atom 4.8835927711801101 5.0487699449378383 9.5098799693951133 Ba
atom 2.5243774307612989 2.8072726983726248 9.9199461299889933 S
atom 7.5731537407113985 2.2414540150117501 9.9199293429609785 S
atom 2.5243826819354682 7.2902250737806984 9.9199293430280751 S
atom 7.5731536369168042 7.8560489044849637 9.9199461299120948 S
atom 2.5243943642073905 2.6895715381005574 13.0241620309174113 Ba
atom 7.5731474114829229 2.3591886794965822 13.0241436359930134 Ba
atom 2.5243763527517045 7.4079597381609261 13.0241436359537346 Ba
atom 7.5731705703343470 7.7383477441714090 13.0241620309001096 Ba
atom 2.5243466458076975 2.4803388439520822 17.6353372177170016 Ba
atom 7.5731561470681346 2.5684298526793037 17.6353372176931664 Ba
atom 2.5243850882931120 7.6172009113875774 17.6353372177121912 Ba
atom 7.5731228519792086 7.5291150500445410 17.6353372176891696 Ba
atom 5.0688509580028471 5.0487705480963010 15.1005778202580636 Zr
atom 10.0775246592189944 5.0487714140903712 15.1005949040753826 Zr
atom 5.0287536004981757 10.0975424733191730 15.1005949040995961 Zr
atom 10.1176271642610107 10.0975467547057978 15.1005778205274979 Zr
atom 5.0688509582219137 5.0487705480596645 20.1700966147349803 Zr
atom 10.0775246590250678 5.0487714140848752 20.1700795311791268 Zr
atom 5.0287536003410969 10.0975424733231733 20.1700795311468113 Zr
atom 10.1176271643187174 10.0975467547494677 20.1700966150200607 Zr
atom 4.7658916108680724 5.0487868784972765 12.6140958704576835 S
atom 10.3804865003151452 5.0487867747081614 12.6141126576628224 S
atom 5.3317154415737482 10.0975578333768627 12.6141126577690468 S
atom 9.8146678170239614 10.0975630845572528 12.6140958705389057 S
atom 5.4638240924068722 5.0487805960976306 17.6353372186229045 S
atom 9.6825376571017721 5.0487899134356420 17.6353372172360388 S
atom 4.6337665984137946 10.0975609720798829 17.6353372168521823 S
atom 10.5126002985654523 10.0975568021509314 17.6353372173444605 S
atom 5.0487177690198708 2.5243899248925761 15.2154541770124467 S
atom 10.0974922626188839 2.5243870881767343 15.2154381136414916 S
atom 5.0487212038410449 7.5731581469685363 15.2154381135889629 S
atom 10.0974939751934691 7.5731661311110177 15.2154541770813960 S
atom 5.0487177690634155 2.5243899245070973 20.0552202582045780 S
atom 10.0974922625984007 2.5243870881078276 20.0552363217574516 S
atom 5.0487212038819376 7.5731581474219709 20.0552363216227327 S
atom 10.0974939751740962 7.5731661310992484 20.0552202583123353 S
atom 2.5243868520402430 5.0487721473613938 15.5150738607458791 S
atom 7.5731657970501933 5.0487695068258782 14.8200269034187926 S
atom 2.5243947384874761 10.0975405654784289 14.8200269036032957 S
atom 7.5731630577249298 10.0975483534113515 15.5150738608225804 S
atom 2.5243868515905761 5.0487721473653586 19.7556005744384109 S
atom 7.5731657975474667 5.0487695068252361 20.4506475317321907 S
atom 2.5243947385438110 10.0975405654786865 20.4506475319066290 S
atom 7.5731630578581353 10.0975483534113462 19.7556005745469037 S
atom 2.5243943641940212 2.6895715380178524 22.2465124043238376 Ba
atom 7.5731474115193134 2.3591886795240171 22.2465307992463792 Ba
atom 2.5243763527385963 7.4079597382442630 22.2465307993059547 Ba
atom 7.5731705703692764 7.7383477441439217 22.2465124043581426 Ba
atom 4.7658916108104332 5.0487868784855721 22.6565785650321381 S
atom 10.3804865003362874 5.0487867747063202 22.6565617780405120 S
atom 5.3317154416020518 10.0975578333825755 22.6565617781893458 S
atom 9.8146678169972681 10.0975630845721955 22.6565785647634961 S
