#=======================================================
# FHI-aims file: full_relax/full_relax_RP_9_Rx0Mz_0Ry0.in
# Created using the Atomic Simulation Environment (ASE)
# Mon Mar 24 16:37:30 2025
#=======================================================
lattice_vector 9.9734871025956515 -0.0259635310311891 -0.0008014377128797 
lattice_vector -0.0256434616365566 10.1284598394107022 0.0010134995234688 
lattice_vector -0.0065038488082840 0.0102982069689440 95.1895419350212819 
atom 0.0484815275633381 -0.1546516876693933 0.1732980197475353 Ba
atom 5.1244614104067674 -0.0614917320106557 0.1583531953499273 Ba
atom 0.1248962196885224 5.0157199069615572 0.1592600645017605 Ba
atom 5.0224033316813932 4.8965963327758404 0.1734043721124621 Ba
atom -0.2356671313006225 0.1848397039431836 4.8919183812877751 Ba
atom 4.8030534973633525 0.2387186268616745 4.8888034554756530 Ba
atom -0.1965117268332449 5.3159301855602950 4.8897111085474920 Ba
atom 4.7382546374561096 5.2360877623467523 4.8920240399497761 Ba
atom 2.4772486471619142 2.5291969433651595 2.2794207008314706 Zr
atom 7.4672182757795227 2.5157135862874931 2.2809902509873634 Zr
atom 2.4676552866833110 7.5929246364910759 2.2818978303603181 Zr
atom 7.4511680911481601 7.5804444221134650 2.2795265982182311 Zr
atom 2.4760851501842169 2.5399530569564539 7.3233554732440282 Zr
atom 7.4694217581471065 2.5294703641337182 7.3244828134416435 Zr
atom 2.4698563671002898 7.6066821104411551 7.3253901485887489 Zr
atom 7.4500071056631469 7.5912012652953491 7.3234614748760114 Zr
atom 2.6455425206159395 2.7946902222298022 -0.2133648848380824 S
atom 7.2077116630336855 2.3524088367913207 -0.2092274905315301 S
atom 2.2081460820762202 7.4296205798553174 -0.2083200895310647 S
atom 7.6194646086286522 7.8459383887364114 -0.2132587857773833 S
atom 2.1946695029262271 2.2421318337332146 4.8430706929270384 S
atom 7.8109639094720222 2.7608014549490498 4.8433925368776194 S
atom 2.8113984587973371 7.8380131417769094 4.8442999883871973 S
atom 7.1685915284788724 7.2933800757532392 4.8431765855281137 S
atom 2.6975495246839243 0.0096171134545591 2.1489928206312237 S
atom 7.2335266769261102 -0.0000191866114408 2.6453743508159877 S
atom 2.2339610261908129 5.0771931016043750 2.6462818066903608 S
atom 7.6714715878397532 5.0608659425764442 2.1490989410616210 S
atom 2.8490997099100852 -0.0021861491853248 7.6376828453828649 S
atom 7.1231609410735635 -0.0092415541422180 7.0554647857894270 S
atom 2.1235956217499381 5.0679704737750253 7.0563722385482306 S
atom 7.8230214696927298 5.0490623377740196 7.6377888369964895 S
atom -0.0190447153975708 2.3313570451855274 2.1018362974458147 S
atom 4.9645435622457796 2.7851592290659037 2.6898468986262705 S
atom -0.0350218635111975 7.8623710682789003 2.6907544856154866 S
atom 4.9548774297254656 7.3826054480544574 2.1019424140225511 S
atom -0.0091551527699856 2.1669763325882427 7.6984131481995730 S
atom 4.9731861225839218 2.8818001348159168 6.9977616893708028 S
atom -0.0263792898831183 7.9590118048006717 6.9986691388596149 S
atom 4.9647667901544059 7.2182244748010325 7.6985192602568642 S
atom 0.2582307005695519 -0.1697520624861973 9.8465669426424789 Ba
atom 5.1607294843937677 -0.2792267693269114 9.8444571479958292 Ba
atom 0.1611642427203606 4.7979847189892251 9.8453647444602232 Ba
atom 5.2321525121272057 4.8814959221484830 9.8466727169207715 Ba
atom -0.2633039416886109 0.1738948129382917 14.8290721905860750 Ba
atom 4.8092278189099869 0.2597051335434986 14.8283846862920310 Ba
atom -0.1903373939755864 5.3369168782893848 14.8292921936908400 Ba
atom 4.7106177862158880 5.2251429033304939 14.8291781384417334 Ba
atom 2.4897789182852441 2.5245723811717964 12.3218955366968927 Zr
atom 7.4724493608726119 2.5087234956559565 12.3220122064501911 Zr
atom 2.4728825074699756 7.5859355419953181 12.3229197460246844 Zr
atom 7.4637023440221633 7.5758208653372607 12.3220017013391079 Zr
atom 2.4835349134319396 2.5296330702068945 17.3169538859062513 Zr
atom 7.4715863870309649 2.5175985479174048 17.3167223625464501 Zr
atom 2.4720190503797146 7.5948107057419865 17.3176300320024090 Zr
atom 7.4574588232922148 7.5808817301459284 17.3170601386529341 Zr
atom 2.7882155483246645 2.8521512774263744 9.8355860322377264 S
atom 7.0955290949067651 2.2631360167292414 9.8353087872584624 S
atom 2.0959639627686446 7.3403476952397204 9.8362162373871822 S
atom 7.7621371901788008 7.9033993288207771 9.8356920640491818 S
atom 2.1772579532007947 2.2028298627831564 14.8255627826115237 S
atom 7.8508529112441439 2.7713886138832544 14.8251651067910206 S
atom 2.8512879765648762 7.8486002469927953 14.8260723208088905 S
atom 7.1511794138212883 7.2540779425118940 14.8256685048541961 S
atom 2.8419267916656357 -0.0076888870404996 12.0360735844025992 S
atom 7.1287631853646243 -0.0153925476319369 12.6368715664588773 S
atom 2.1291981919223959 5.0618195639438150 12.6377790309809477 S
atom 7.8158483033018511 5.0435597476208143 12.0361796094274585 S
atom 2.8398711735748772 -0.0057330283867594 17.6246005229376479 S
atom 7.1294626750941994 -0.0133674065497384 17.0193272171485894 S
atom 2.1298977614622592 5.0638442276392279 17.0202346802127060 S
atom 7.8137926017834225 5.0455151059010674 17.6247065546661474 S
atom -0.0054179074418945 2.1791817610034592 11.9767545515624700 S
atom 4.9775488244271822 2.8776908029571282 12.6986139965065039 S
atom -0.0220166677129766 7.9549022094286110 12.6995212720276083 S
atom 4.9685040642160985 7.2304297706166354 11.9768605535450607 S
atom -0.0067347470883763 2.1810125496737753 17.6864774692933864 S
atom 4.9761028343561033 2.8763327555220388 16.9589812516313216 S
atom -0.0234625779200130 7.9535441532351179 16.9598889152184462 S
atom 4.9671871296709487 7.2322604093609870 17.6865837168130895 S
atom 0.2603600722521466 -0.1672326696504803 19.8155950418249951 Ba
atom 5.1600398357406059 -0.2806580036593314 19.8151079343921062 Ba
atom 0.1604745326865138 4.7965535412408684 19.8160154179245325 Ba
atom 5.2342819618048750 4.8840154550036123 19.8157010363925963 Ba
atom -0.2631976778951966 0.1724803260640242 24.8045150211012988 Ba
atom 4.8106335540766496 0.2599221464114653 24.8041873933616728 Ba
atom -0.1889317036806606 5.3371341693992118 24.8050948126854287 Ba
atom 4.7107240671798651 5.2237287537972543 24.8046211535581911 Ba
atom 2.4855488529676535 2.5282815140365895 22.3100975305597196 Zr
atom 7.4723113531191299 2.5153010540581375 22.3097038043911695 Zr
atom 2.4727438086451921 7.5925132950981871 22.3106114739153476 Zr
atom 7.4594729968688975 7.5795301808664854 22.3102038311471560 Zr
atom 2.4875747834647775 2.5267343170572181 27.3032660553881676 Zr
atom 7.4730104463665503 2.5128176420152144 27.3027149395549067 Zr
atom 2.4734434934872409 7.5900297179307348 27.3036224716785902 Zr
atom 7.4614983114084765 7.5779828748613554 27.3033721832651288 Zr
atom 2.7942297420749771 2.8554008892052045 19.8153355779575158 S
atom 7.0913999020914691 2.2588862466052304 19.8149746099745343 S
atom 2.0918350015413965 7.3360978302163620 19.8158818640257941 S
atom 7.7681511282124101 7.9066489238469586 19.8154413075329998 S
atom 2.1768973423933127 2.2010636175274043 24.8048557106520029 S
atom 7.8531744691174756 2.7715942332444592 24.8044439516665740 S
atom 2.8536095815251246 7.8488058732700541 24.8053514105310668 S
atom 7.1508187590364916 7.2523115830894955 24.8049617086953553 S
atom 2.8405412360049307 -0.0064854209125478 22.0068975554977335 S
atom 7.1301369324698944 -0.0142177762930547 22.6123964966138047 S
atom 2.1305720851937902 5.0629933999780130 22.6133039628890700 S
atom 7.8144626309869807 5.0447622872408449 22.0070035934897810 S
atom 2.8413033465741062 -0.0074936997338607 27.5999812776491460 S
atom 7.1306881448589694 -0.0151067548555237 26.9947394799821723 S
atom 2.1311231950558844 5.0621044299308746 26.9956469435888700 S
atom 7.8152248703841156 5.0437539805999876 27.6000873137499134 S
atom -0.0059150362641191 2.1806529434092701 21.9460557418813238 S
atom 4.9770308698441994 2.8758646813553588 22.6741431387822523 S
atom -0.0225344713356610 7.9530761067961233 22.6750504385944573 S
atom 4.9680067803808443 7.2319007299106008 21.9461615249936202 S
atom -0.0050099993873376 2.1799157059846075 27.6611856896677537 S
atom 4.9778284130905472 2.8754710289415750 26.9337883577220687 S
atom -0.0217369319287042 7.9526825337275797 26.9346959716974261 S
atom 4.9689118232391465 7.2311635739159517 27.6612918756130064 S
atom 0.2604509956090029 -0.1689391889067458 29.7910274655812408 Ba
atom 5.1613976050987098 -0.2807209488703544 29.7909869565942387 Ba
atom 0.1618322757747096 4.7964908593141828 29.7918943494109953 Ba
atom 5.2343728734251869 4.8823092007775815 29.7911336551142831 Ba
atom -0.2612312644552285 0.1744507859375679 34.7736119125142480 Ba
atom 4.8097482956511657 0.2579741043774666 34.7748488866955014 Ba
atom -0.1898169776549019 5.3351858940486627 34.7757562646553211 Ba
atom 4.7126905407359576 5.2256990462691526 34.7737181139994362 Ba
atom 2.4812210629998495 2.5314833201555174 32.2983525727080192 Zr
atom 7.4720210726029954 2.5213552997755224 32.2974229278257994 Zr
atom 2.4724550057019683 7.5985671223474869 32.2983301913837479 Zr
atom 7.4551436745695199 7.5827316537570590 32.2984583312114282 Zr
atom 2.4946935447356342 2.5158815186875731 37.2968929207778075 Zr
atom 7.4748283546018843 2.5004273946374997 37.2949332435084813 Zr
atom 2.4752632858269088 7.5776390487227809 37.2958404484159445 Zr
atom 7.4686151823784463 7.5671296305316540 37.2969989357351608 Zr
atom 2.7937676666647371 2.8533835681679851 29.7946975235290878 S
atom 7.0936816125321558 2.2588775573685869 29.7942463561627910 S
atom 2.0941165375466193 7.3360891815299327 29.7951537779293645 S
atom 7.7676892442362142 7.9046317293742261 29.7948033560146612 S
atom 2.1826732879471402 2.2038280150569727 34.7846333894699598 S
atom 7.8488799517259960 2.7668907972832795 34.7841429251847742 S
atom 2.8493147391907714 7.8441025010306067 34.7850507245293272 S
atom 7.1565950261542364 7.2550761027693955 34.7847398816042244 S
atom 2.8418048449061066 -0.0057277789406639 31.9824601049676680 S
atom 7.1286333962643660 -0.0134565007144321 32.5832692309347749 S
atom 2.1290682696706460 5.0637544268020456 32.5841766995190198 S
atom 7.8157265288971702 5.0455196261761381 31.9825661497908165 S
atom 2.8470951661746113 -0.0120815719326376 37.5638422122128901 S
atom 7.1213526997930980 -0.0191362671704284 36.9816617604099349 S
atom 2.1217873987941531 5.0580754165641277 36.9825692600522657 S
atom 7.8210170552520148 5.0391665845845406 37.5639482535868794 S
atom -0.0065540179432352 2.1784334466438304 31.9216563537320361 S
atom 4.9764047734193024 2.8768515146640623 32.6434828793612866 S
atom -0.0231604009183984 7.9540631843263991 32.6443903817407985 S
atom 4.9673676580249992 7.2296813974624374 31.9217622302634858 S
atom -0.0024146815870016 2.1741399846697753 37.6225093265447015 S
atom 4.9799373511275347 2.8888745426141917 36.9217836881992056 S
atom -0.0196279161053273 7.9660862437796496 36.9226911719976911 S
atom 4.9715071278846459 7.2253881977910090 37.6226152436908521 S
atom 0.2324213529086363 -0.1802290944172238 39.7281217177018888 Ba
atom 5.1671840984305133 -0.2601102538083657 39.7305211307081620 Ba
atom 0.1676187860953883 4.8171014977279212 39.7314284065853300 Ba
atom 5.2063431827476698 4.8710190641983750 39.7282280595121833 Ba
atom -0.0520110767215444 0.1593111394436200 44.4468111702855708 Ba
atom 4.8455279381193535 0.0402429091913854 44.4610029682129309 Ba
atom -0.1540372995620642 5.1174544313168537 44.4619102475199384 Ba
atom 4.9219106763754841 5.2105591361652124 44.4469167548301130 Ba
atom 2.4932258178766555 2.5266781019914757 42.3407782481831276 Zr
atom 7.4767512253421780 2.5142002577033558 42.3384093668747852 Zr
atom 2.4771884071221422 7.5914115569177580 42.3393166771082790 Zr
atom 7.4671451141023093 7.5779259746196619 42.3408837047066484 Zr
atom 2.7760352481231907 2.8137661728148586 39.7771710475016036 S
atom 7.1331346888632456 2.2690902289501640 39.7759976048479658 S
atom 2.1335691856842511 7.3463019197523094 39.7769052175866094 S
atom 7.7499573074904653 7.8650143786283868 39.7772769948781999 S
atom 2.3249296344990680 2.2611213717966465 44.8335550274989814 S
atom 7.7363453386426544 2.6774548970927614 44.8286410798722699 S
atom 2.7367798188619425 7.7546666326589868 44.8295487289134300 S
atom 7.2988516985811467 7.3123696262874018 44.8336615636543527 S
atom 2.7366650513110069 -0.0213401644117088 41.9738993627373915 S
atom 7.2723467826138091 -0.0309708199351754 42.4703224695825270 S
atom 2.2727810360493752 5.0462409780294735 42.4712299568165363 S
atom 7.7105872751127276 5.0299080107762908 41.9740054272172216 S
atom 0.0059662015844502 2.2705590898031214 41.9302807572077114 S
atom 4.9895502547189219 2.7245968538821286 42.5184135463054531 S
atom -0.0100148770253950 7.8018086942044498 42.5193211123259189 S
atom 4.9798879814071393 7.3218074675260096 41.9303870100312395 S
atom 2.4648371640639302 2.6797903113389796 47.9363428761675507 Ba
atom 7.4876178703227962 2.3784048568697496 47.9395684874941068 Ba
atom 2.4880527280850191 7.4556164727490239 47.9404756205584235 Ba
atom 7.4387588455539495 7.7310385086197044 47.9364484787281739 Ba
atom 2.4830886148261051 2.5155313196474580 52.6220596419397779 Ba
atom 7.4693283300679107 2.5424617001685221 52.6286711008717702 Ba
atom 2.4697632135340855 7.6196730901637446 52.6295784985956985 Ba
atom 7.4570102746929861 7.5667791432648581 52.6221656035717800 Ba
atom 4.9813189621226046 5.0564941565042343 50.0165581377509127 Zr
atom 9.9447984854738820 5.0539346393281699 50.0157467249858598 Zr
atom 4.9452325636666581 10.1311487490809178 50.0166541362197705 Zr
atom 9.9552415688306386 10.1077447247317789 50.0166638124110037 Zr
atom 4.9715970212601537 5.0671916802200592 55.0261519475804377 Zr
atom 9.9561591657372794 5.0485768358175633 55.0255604994898064 Zr
atom 4.9565933853451769 10.1257913439276095 55.0264685251932804 Zr
atom 9.9455194019370694 10.1184426496496354 55.0262578272615173 Zr
atom 4.6229342957596931 5.0477733511738760 47.5292988554587623 S
atom 10.3048674671878260 5.0627664626115507 47.5275800603169216 S
atom 5.3053023476445889 10.1399778099237796 47.5284864582629965 S
atom 9.5968561079210364 10.0990211826832308 47.5294048562371998 S
atom 5.4529549756005542 5.0439381420794627 52.5511886101703425 S
atom 9.4740294395288576 5.0678187566425787 52.5506870727396276 S
atom 4.4744641183682088 10.1450299079556920 52.5515942969754093 S
atom 10.4268765360896403 10.0951857647471215 52.5512951075873005 S
atom 4.9720970921864964 2.5304362556369751 50.1329568384280790 S
atom 9.9660442381360657 2.5174040528433874 50.1394015033955611 S
atom 4.9664790563408978 7.5946159206575077 50.1403091664387546 S
atom 9.9460188157081930 7.5816846069523711 50.1330628098607249 S
atom 4.9853096175223204 2.5312582518480715 55.0686278817393955 S
atom 9.9553202740025064 2.5181690260924672 55.0042624702097243 S
atom 4.9557550503148509 7.5953806369890842 55.0051699047982936 S
atom 9.9592313696521284 7.5825063267410249 55.0687339642130596 S
atom 2.4761768628931962 5.0733653607271929 50.5022781997462573 S
atom 7.4630735180322558 5.0545845382325085 49.6601586675863018 S
atom 2.4635071426758075 10.1317958090656717 49.6610662936220635 S
atom 7.4500995234123133 10.1246130306580699 50.5023844867236562 S
atom 2.4769680162899297 5.0607688720565127 54.5389980092949855 S
atom 7.4638364415605336 5.0646564162140848 55.5271026422885612 S
atom 2.4642694844853050 10.1418675235606681 55.5280099124738342 S
atom 7.4508915233053150 10.1120164395393548 54.5391038774828871 S
atom 2.5006043586030122 2.5487329675278367 57.5221510350018903 Ba
atom 7.4585515376551763 2.5306871100325665 57.5323844075734883 Ba
atom 2.4589866538011642 7.6078987733060890 57.5332919414724842 Ba
atom 7.4745257803301222 7.5999811180052950 57.5222570764221004 Ba
atom 2.4532440144049699 2.5257732845946195 62.4921109696438180 Ba
atom 7.4892314410748506 2.5182976356279800 62.4549080722678909 Ba
atom 2.4896666497647670 7.5955095709999592 62.4558157277416583 Ba
atom 7.4271653362036281 7.5770217021816926 62.4922171777886746 Ba
atom 4.9675425471225507 5.0597880311238166 59.9872903870635739 Zr
atom 9.9572888569584794 5.0509590422148118 59.9860657616664881 Zr
atom 4.9577229051491978 10.1281731759259959 59.9869738267676667 Zr
atom 9.9414649358622960 10.1110386150383711 59.9873965728403391 Zr
atom 4.9631130119844951 5.0530324748267041 64.9469590746394942 Zr
atom 9.9495899129237042 5.0378298471309346 64.9453615774452828 Zr
atom 4.9500239598272140 10.1150424462380180 64.9462687023290925 Zr
atom 9.9370354346771990 10.1042815346219541 64.9470650630205881 Zr
atom 4.4554621138045549 5.1024188196940230 57.5109572559735938 S
atom 10.4708350054431563 5.0081252259654416 57.5103142217824157 S
atom 5.4712700884369605 10.0853363678023396 57.5112218310607517 S
atom 9.4293840569654179 10.1536664397775578 57.5110636261741419 S
atom 5.4800446730693562 5.0012784047535046 62.4686317308588954 S
atom 9.4395637510296933 5.1031405424018379 62.4668746001349788 S
atom 4.4399983986280880 10.1803518924057972 62.4677822257598621 S
atom 10.4539660902645206 10.0525262342946746 62.4687377992661297 S
atom 5.0164121371873511 2.5282904006695599 59.9336500244717953 S
atom 9.9236700337536963 2.5150761527308765 60.0469505512957795 S
atom 4.9241048501273417 7.5922878536276750 60.0478579977445861 S
atom 9.9903338168689082 7.5795385667820785 59.9337560944475882 S
atom 4.9493653695748261 2.5237664930674546 65.0197816097308987 S
atom 9.9724753708278069 2.5109948526262156 64.8731600607381438 S
atom 4.9729102264740312 7.5882065459958898 64.8740674791239513 S
atom 9.9232870778364504 7.5750146620917898 65.0198875990899126 S
atom 2.4754705657916598 5.0294107121304821 60.4970523403464853 S
atom 7.4625930236126017 5.0859543891829393 59.4905342784348008 S
atom 2.4630257875392210 10.1631655387516098 59.4914416967812372 S
atom 7.4493943373022287 10.0806583716869778 60.4971583546704395 S
atom 2.4700904483286301 5.0834011898006963 64.4443640780499010 S
atom 7.4567276576072308 5.0375422378352237 65.4509850110626132 S
atom 2.4571604553369206 10.1147537818686342 65.4518924723502948 S
atom 7.4440142147132145 10.1346491160251748 64.4444700471392338 S
atom 2.5005710208586880 2.5173992847256765 67.4375025548097966 Ba
atom 7.4282277672345538 2.5015985139303054 67.4130898207790494 Ba
atom 2.4286629105667443 7.5788103727742326 67.4139974731370444 Ba
atom 7.4744924085402120 7.5686476269864897 67.4376088334673938 Ba
atom 2.4635922123066787 2.5491579701994094 72.3718358126968724 Ba
atom 7.5095648164055406 2.5390272867360060 72.3962439525350874 Ba
atom 2.5099997605888493 7.6162387060686028 72.3971515218706969 Ba
atom 7.4375138177625750 7.6004058821400582 72.3719418910886390 Ba
atom 4.9690885930287454 5.0589672869818765 69.9049169504181833 Zr
atom 9.9558323383013008 5.0460130796361495 69.9045275725662805 Zr
atom 4.9562665521856939 10.1232238839246165 69.9054343327873511 Zr
atom 9.9430110477482287 10.1102145486848265 69.9050230215782733 Zr
atom 4.9752001740065177 5.0649365926079870 74.8628771072889663 Zr
atom 9.9622328622359042 5.0541277109781140 74.8636832028431058 Zr
atom 4.9626669275067865 10.1313378979384865 74.8645902871807749 Zr
atom 9.9491225688617035 10.1161832289809066 74.8629833580739756 Zr
atom 4.4529716829833843 5.1242092550753204 67.4264816449073550 S
atom 10.4662026910991592 4.9783920481098898 67.4249477235070742 S
atom 5.4666377238112540 10.0556037161722003 67.4258552331680079 S
atom 9.4268936199019286 10.1754573894984119 67.4265873287333477 S
atom 5.4852730226695030 4.9937113177024024 72.3833455935647692 S
atom 9.4455465745990210 5.1137657654929978 72.3841127257187935 S
atom 4.4459812247982038 10.1909777003021240 72.3850202073116122 S
atom 10.4591945676495062 10.0449597345160502 72.3834512323621482 S
atom 4.9180587274847936 2.5266179347429825 69.8262075860449869 S
atom 10.0196012567733828 2.5142097842106259 69.9826649657413640 S
atom 5.0200360651307667 7.5914215690787241 69.9835724671047359 S
atom 9.8919805002663299 7.5778661835952050 69.8263135810695559 S
atom 4.9664982236810973 2.5297323176156246 74.9360145981870289 S
atom 9.9874964187466588 2.5169560419587023 74.7889320512308444 S
atom 4.9879312516921708 7.5941677420221563 74.7898395297727347 S
atom 9.9404199309625021 7.5809804951846038 74.9361206273874387 S
atom 2.4761596341867063 5.1172016776490405 70.4088204882932871 S
atom 7.4620163507586597 5.0009855308044582 69.4010329778880788 S
atom 2.4624496485949510 10.0781973662738675 69.4019406540142114 S
atom 7.4500828588379324 10.1684500459884362 70.4089267086658737 S
atom 2.4815941633913323 5.0795367845313315 74.3588315747247748 S
atom 7.4682431738483945 5.0353961574989938 75.3654654627402323 S
atom 2.4686769591604238 10.1126081318796057 75.3663728484676199 S
atom 7.4555169538978552 10.1307852427461942 74.3589375940448605 S
atom 2.5114676036033492 2.5409900550882578 77.3180155913502460 Ba
atom 7.4486497406155490 2.5225098055305941 77.3536191368197024 Ba
atom 2.4490844949795316 7.5997212404603500 77.3545264406516537 Ba
atom 7.4853893958739990 7.5922379750150846 77.3181214284968377 Ba
atom 2.4637434765624966 2.5175482766112300 82.2874402181865747 Ba
atom 7.4795190925872417 2.5096196816860172 82.2766576887541703 Ba
atom 2.4799539049924308 7.5868314084579085 82.2775648607136674 Ba
atom 7.4376652029324024 7.5687964854158976 82.2875460086607404 Ba
atom 4.9708613736382317 5.0579360389456083 79.8225379860542148 Zr
atom 9.9546273780722334 5.0407655530095266 79.8229625343290223 Zr
atom 4.9550614707521889 10.1179772427292889 79.8238704684466143 Zr
atom 9.9447838082641837 10.1091841847928059 79.8226443155326706 Zr
atom 4.9667575558881101 5.0501888715717866 84.7836676343554814 Zr
atom 9.9557011974985183 5.0428457398734814 84.7834641611626978 Zr
atom 4.9561352764828834 10.1200596950626132 84.7843717771008585 Zr
atom 9.9406799548076545 10.1014392820308707 84.7837738455913410 Zr
atom 4.4583327910694326 5.1167739601365607 77.3412029778888837 S
atom 10.4722921687106556 4.9884789098031028 77.3421470240807452 S
atom 5.4727271464503744 10.0656907114162451 77.3430548617389491 S
atom 9.4322545472580419 10.1680222436488155 77.3413086765493603 S
atom 5.4829243966497012 5.0149114990530341 82.2988617244810712 S
atom 9.4410488036085383 5.0836325378291942 82.2987065951011374 S
atom 4.4414836161286972 10.1608440011486252 82.2996146495087260 S
atom 10.4568460506198893 10.0661594326827295 82.2989678940511311 S
atom 5.0141493987366479 2.5253975113180420 79.7616598425334047 S
atom 9.9217616360556207 2.5121756217964486 79.8755372965374164 S
atom 4.9221964854322247 7.5893872043151900 79.8764446971230768 S
atom 9.9880710782523998 7.5766455602680933 79.7617659779497217 S
atom 4.9827302267333300 2.5220101186767003 84.8048248701286695 S
atom 9.9525342933711265 2.5089237273758012 84.7401101610844023 S
atom 4.9529690883448154 7.5861356569211562 84.7410175917329269 S
atom 9.9566519700459910 7.5732585204147522 84.8049309735798573 S
atom 2.4758192905793481 5.0317531343405726 80.3192877205259919 S
atom 7.4629407779125057 5.0881738854832346 79.3127767140585576 S
atom 2.4633750439246014 10.1653856032389847 79.3136841353697690 S
atom 7.4497415311276685 10.0830012160567648 80.3193937106625242 S
atom 2.4745311651630626 5.0526642502170320 84.2827278646990408 S
atom 7.4613934647821889 5.0566492702093706 85.2708210304159167 S
atom 2.4618279854682492 10.1338604498886617 85.2717283076342625 S
atom 7.4484532317064227 10.1039119864435669 84.2828336955270458 S
atom 2.4813628379194186 2.5505598423414986 87.1876925000088363 Ba
atom 7.4685263577857217 2.4976716026499348 87.1802330964161456 Ba
atom 2.4689611917883134 7.5748835853238798 87.1811404833070611 Ba
atom 7.4552845369094944 7.6018083427844925 87.1877984062270173 Ba
atom 2.4994124579544046 2.3862155644040177 91.8734094432274730 Ba
atom 7.4501002428874950 2.6616328851388844 91.8693778406162238 Ba
atom 2.4505350410835129 7.7388445645646105 91.8702856410464790 Ba
atom 7.4733341975827523 7.4374635918293928 91.8735159911807671 Ba
atom 4.9568718210462848 5.0607580243292443 89.7932952910378788 Zr
atom 9.9669092352182602 5.0373509477936764 89.7932886952782923 Zr
atom 4.9673428629178904 10.1145660136588464 89.7941958709695456 Zr
atom 9.9307946031125258 10.1120095441035804 89.7934009818921197 Zr
atom 4.4853595725552857 5.0734876231899682 87.2586292973147408 S
atom 10.4377527460751871 5.0234460284104303 87.2583470302427173 S
atom 5.4381876250610377 10.1006571518786767 87.2592546778621454 S
atom 9.4592812766538508 10.1247352163121107 87.2587353080073171 S
atom 5.3152192201876645 5.0694693184023789 92.2805555475001853 S
atom 9.6067999120421810 5.0285785728849248 92.2814560561479027 S
atom 4.6072347012966866 10.1057898097449055 92.2823625604003865 S
atom 10.2891408920590877 10.1207170355956073 92.2806615136563835 S
atom 4.9717454921848763 2.5226588587028966 89.6694602964333569 S
atom 9.9656422347758120 2.5096214437734958 89.6760476054681277 S
atom 4.9660770939719887 7.5868330056905471 89.6769550425626392 S
atom 9.9456671689193872 7.5739069054340131 89.6695661752159907 S
atom 2.4751358721533894 5.0626584406814104 90.1496721282617983 S
atom 7.4620352696993084 5.0439359397387262 89.3075742160061878 S
atom 2.4624697906301174 10.1211470092006888 89.3084820133992423 S
atom 7.4490580699783049 10.1139059893610828 90.1497783588635713 S
