#=======================================================
# FHI-aims file: full_relax/full_relax_RP_2_RxRyMz_RxRy-Mz.in
# Created using the Atomic Simulation Environment (ASE)
# Fri Mar 14 11:18:17 2025
#=======================================================
lattice_vector 10.0883895063650204 0.1462449571715626 0.0000000000008142 
lattice_vector 0.1462449571715193 10.0883895063637858 -0.0000000000048903 
lattice_vector 0.0000000000020018 -0.0000000000130787 25.4318568316707747 
atom -0.0908652135218300 -0.0909233347893890 0.2763138706902730 Ba
atom 5.1351180895522157 0.1639876932164530 0.2763138704161565 Ba
atom 0.1640458135850242 5.1350599655001963 0.2763138705941136 Ba
atom 5.0264520186394819 5.0263938951415739 0.2763138709921344 Ba
atom 0.0274064281545465 0.0274578696811654 4.8907416986299594 Ba
atom 5.0167368841296076 0.0457160508129828 4.8907416983561411 Ba
atom 0.0456646089854509 5.0167883246575924 4.8907416986886858 Ba
atom 5.1447236599328487 5.1447751006873021 4.8907416983371403 Ba
atom 2.5545344967274710 2.5545126923722212 2.3530620599419776 Zr
atom 7.6069992906634978 2.6359052139363679 2.3530620582527146 Zr
atom 2.6359270185762789 7.6069774883652483 2.3530620622189100 Zr
atom 7.6718517287417205 7.6718299244948458 2.3530620612359776 Zr
atom 2.5545344957867275 2.5545126926721702 7.4284213363729190 Zr
atom 7.6069992932147015 2.6359052142095614 7.4284213324476474 Zr
atom 2.6359270172339233 7.6069774880233911 7.4284213375940285 Zr
atom 7.6718517289347838 7.6718299249855546 7.4284213361028106 Zr
atom 2.7923995583846501 2.7924046459933782 -0.1389082737790907 S
atom 7.3691073383094823 2.3980401518621561 -0.1389082706520806 S
atom 2.3980350651658289 7.3691124269698731 -0.1389082765639944 S
atom 7.9097167897010037 7.9097218775777174 -0.1389082753799183 S
atom 2.2828046252154928 2.2827754357903496 4.8907416971091653 S
atom 7.8787365486400525 2.9076350850298351 4.8907416986640664 S
atom 2.9076642742037682 7.8787073590820693 4.8907416972710198 S
atom 7.4001218577031507 7.4000926684284369 4.8907416994344999 S
atom 2.5221383979442464 0.0365513556300508 2.1965672938925866 S
atom 7.5662573835100559 0.1096762165361723 2.7014891290415219 S
atom 2.5951851091510814 5.0807484925060038 2.7014891294461263 S
atom 7.6394556298166831 5.1538685861461921 2.1965672932345175 S
atom 2.5221383979099676 0.0365513544471714 7.5849161031983812 S
atom 7.5662573835355680 0.1096762174907552 7.0799942669909548 S
atom 2.5951851092069016 5.0807484929717743 7.0799942675018359 S
atom 7.6394556301283014 5.1538685853956290 7.5849161028911096 S
atom 0.0365711243021784 2.5220563551058928 2.1965672934697160 S
atom 5.0807634952604479 2.5952546011473676 2.7014891288883387 S
atom 0.1096912164453847 7.5663268760369311 2.7014891295777121 S
atom 5.1538883548418326 7.6393735868397235 2.1965672936087062 S
atom 0.0365711244831753 2.5220563553323845 7.5849161032890864 S
atom 5.0807634925408909 2.5952546012304492 7.0799942670874847 S
atom 0.1096912178119022 7.5663268758412690 7.0799942673878729 S
atom 5.1538883553899817 7.6393735870203079 7.5849161028113690 S
atom -0.0908652129573457 -0.0909233359160404 9.5051695255089541 Ba
atom 5.1351180885090217 0.1639876915743578 9.5051695267853145 Ba
atom 0.1640458143799531 5.1350599665728973 9.5051695245564964 Ba
atom 5.0264520178558545 5.0263938961896502 9.5051695260529030 Ba
atom 2.7923995579942984 2.7924046459047180 9.9203916723307248 S
atom 7.3691073392564590 2.3980401521009451 9.9203916772399143 S
atom 2.3980350642966650 7.3691124268941355 9.9203916710475042 S
atom 7.9097167902761099 7.9097218777103793 9.9203916722368817 S
atom 2.4677352818795200 2.4677934024953561 12.9922422873839700 Ba
atom 7.6937185810702990 2.7227044302319729 12.9922422863756157 Ba
atom 2.7226463091702895 7.6937767048289221 12.9922422869656984 Ba
atom 7.5850525104641964 7.5851106342091938 12.9922422869211225 Ba
atom 2.5861164847918992 2.5860650440795205 17.6066701143510400 Ba
atom 7.5754469411538574 2.6043232256252269 17.6066701142278959 Ba
atom 2.6043746662269900 7.5753954993582751 17.6066701145436539 Ba
atom 7.7034337170310652 7.7033822754549925 17.6066701143254321 Ba
atom 5.1131713100065888 5.1131931126366288 15.0689904733376601 Zr
atom 10.1656361038831236 5.1945856339771757 15.0689904809025315 Zr
atom 5.1945638282229201 10.1656579084957812 15.0689904720622412 Zr
atom 10.2304885400400707 10.2305103448235588 15.0689904778871941 Zr
atom 5.1131713088971100 5.1131931121877958 20.1443497519918751 Zr
atom 10.1656361045947712 5.1945856343252528 20.1443497539048586 Zr
atom 5.1945638301841894 10.1656579084462528 20.1443497470544450 Zr
atom 10.2304885396252345 10.2305103455099484 20.1443497572933623 Zr
atom 5.3510632618972958 5.3510581741634144 12.5770201438808247 S
atom 9.9277710427338466 4.9566936799086108 12.5770201375092849 S
atom 4.9566987681415746 9.9277659553745927 12.5770201415698128 S
atom 10.4683804932058688 10.4683754062032115 12.5770201363194349 S
atom 4.8414340529466093 4.8414632418365295 17.6066701123182803 S
atom 10.4373659749163217 5.4663228904731183 17.6066701120528073 S
atom 5.4662936999913079 10.4373951642782359 17.6066701260009033 S
atom 9.9587512833965270 9.9587804733765246 17.6066701172975826 S
atom 5.0807149703634957 2.5952297380171037 14.9124957084383194 S
atom 10.1249854916807411 2.6683498298967296 15.4174175449254260 S
atom 5.1539132169241730 7.6394221086757303 15.4174175447428397 S
atom 10.1980322025616328 7.7125469738693280 14.9124957097587885 S
atom 5.0807149711346415 2.5952297412404111 20.3008445180040091 S
atom 10.1249854915316817 2.6683498351764667 19.7959226830357728 S
atom 5.1539132173239643 7.6394221085432523 19.7959226819615850 S
atom 10.1980322029702215 7.7125469667208755 20.3008445196128307 S
atom 2.5952099689829811 5.0807970140375236 14.9124957092359622 S
atom 7.6394071091824927 5.1538437255492004 15.4174175455769760 S
atom 2.6683348385809955 10.1249159999790557 15.4174175445821575 S
atom 7.7125271998154954 10.1981142452650619 14.9124957081967704 S
atom 2.5952099698970845 5.0807970144468495 20.3008445206165717 S
atom 7.6394071067689424 5.1538437249126474 19.7959226829019812 S
atom 2.6683348324905292 10.1249159997039264 19.7959226816143143 S
atom 7.7125272060756922 10.1981142459716789 20.3008445175513259 S
atom 2.4677352789698803 2.4677934027781689 22.2210979408834639 Ba
atom 7.6937185832745314 2.7227044298061531 22.2210979407882689 Ba
atom 2.7226463059745254 7.6937767039231213 22.2210979400018758 Ba
atom 7.5850525133414655 7.5851106343236960 22.2210979405645119 Ba
atom 5.3510632610397098 5.3510581738523681 22.6363200889516811 S
atom 9.9277710435951132 4.9566936815236478 22.6363200859394631 S
atom 4.9566987681703063 9.9277659548918447 22.6363200935700846 S
atom 10.4683804931430746 10.4683754052409927 22.6363200826866198 S
