#=======================================================
# FHI-aims file: full_relax/full_relax_RP_2_RxRyMz_-Rx-Ry0.in
# Created using the Atomic Simulation Environment (ASE)
# Fri Mar 14 11:18:39 2025
#=======================================================
lattice_vector 10.0810466111727433 0.1194864174609146 -0.0000000003002466 
lattice_vector 0.1194864174609854 10.0810466111760988 -0.0000000003586397 
lattice_vector -0.0000000008133667 -0.0000000009674835 25.5129719155063768 
atom -0.0997789089446273 -0.0998272899825691 0.2830348017263796 Ba
atom 5.1403506173879121 0.1595221485227316 0.2830346284778987 Ba
atom 0.1595705134032447 5.1403022316372695 0.2830347845688415 Ba
atom 5.0004875823056132 5.0004392171268570 0.2830347452756569 Ba
atom 0.0263311766100231 0.0263732704331284 4.9063407830041212 Ba
atom 5.0141500431806625 0.0334119623325551 4.9063407778979844 Ba
atom 0.0333698651397812 5.0141921214328669 4.9063407813101225 Ba
atom 5.1265977752467435 5.1266398580925721 4.9063407787111784 Ba
atom 2.5408103980782570 2.5408143387591013 2.3647102703652694 Zr
atom 7.5999754648714797 2.6191993235547337 2.3647102929177564 Zr
atom 2.6191953966527706 7.5999794232309279 2.3647102088666512 Zr
atom 7.6410768801862963 7.6410808491429858 2.3647104163820303 Zr
atom 2.5408104199439263 2.5408143417869855 7.4479713690563125 Zr
atom 7.5999754640608890 2.6191993190520484 7.4479713322331227 Zr
atom 2.6191953951536857 7.5999794433708070 7.4479712847349466 Zr
atom 7.6410768765865091 7.6410808416052873 7.4479711424783099 Zr
atom 2.7330643550565048 2.7330743650949780 -0.1262933107844932 S
atom 7.4077154413471975 2.4269453779609944 -0.1262932535844825 S
atom 2.4269353810313676 7.4077254812691180 -0.1262932366310388 S
atom 7.8333308262931718 7.8333408511951248 -0.1262929452447537 S
atom 2.2949496674461201 2.2948759768012450 4.9063407207161962 S
atom 7.8459138566503865 2.8650600505677351 4.9063408691853141 S
atom 2.8651337356422264 7.8458401520204646 4.9063411407839723 S
atom 7.3952161949882482 7.3951424935407060 4.9063408274648026 S
atom 2.5202955101671538 0.0298644309204157 2.2328612669569132 S
atom 7.5607812060383761 0.0896064013136402 2.6833806833836933 S
atom 2.5800011054934155 5.0703865638268342 2.6833807327064561 S
atom 7.6205620393892355 5.1301310028448137 2.2328612176845342 S
atom 2.5202955115071579 0.0298645494453711 7.5798200073090287 S
atom 7.5607812050938330 0.0896064618595976 7.1293006272339596 S
atom 2.5800011143670423 5.0703864387037809 7.1293005387531734 S
atom 7.6205620485634640 5.1301309647129658 7.5798200958690058 S
atom 0.0298787191133452 2.5202277807833520 2.2328612916342578 S
atom 5.0704033356966534 2.5800086090190608 2.6833807417932234 S
atom 0.0896232735787345 7.5607887124179012 2.6833806754533409 S
atom 5.1301451603187527 7.6204942948336285 2.2328611920803167 S
atom 0.0298787428176881 2.5202277781785551 7.5798200460586838 S
atom 5.0704032749710182 2.5800086090677787 7.1293005697616403 S
atom 0.0896232010601627 7.5607887150334188 7.1293005957824080 S
atom 5.1301452677150783 7.6204943061871164 7.5798200582722046 S
atom -0.0997789489633547 -0.0998273183332864 9.5296467593274095 Ba
atom 5.1403506637840142 0.1595222192337053 9.5296470016043990 Ba
atom 0.1595705732481566 5.1403022703927297 9.5296468527139915 Ba
atom 5.0004875177593995 5.0004391369509049 9.5296468728774109 Ba
atom 2.7330643486033526 2.7330743606575747 9.9389751564306970 S
atom 7.4077154519102351 2.4269453738044802 9.9389750227951641 S
atom 2.4269353629825807 7.4077254750335584 9.9389750789108238 S
atom 7.8333308194692215 7.8333408436033007 9.9389747759719071 S
atom 2.6499984024601049 2.6499635542339570 13.0394909774671035 Ba
atom 7.4908262461588855 2.5100113340494046 13.0394910211020854 Ba
atom 2.5100461954693603 7.4907914355200873 13.0394909987197742 Ba
atom 7.7502648481916454 7.7502300291414006 13.0394911649782355 Ba
atom 2.5236921716050342 2.5239147288423487 17.6628267294337959 Ba
atom 7.6168751567857269 2.6363174989229590 17.6628267312001803 Ba
atom 2.6360949323143044 7.6170975600436170 17.6628267490594340 Ba
atom 7.6239588113637611 7.6241812250004584 17.6628267431625545 Ba
atom 5.1096108766952018 5.1095922952135808 15.1211761613982567 Zr
atom 10.1314640930081268 5.1506653908660258 15.1211760037470562 Zr
atom 5.1506839289328692 10.1314454726612979 15.1211759340120437 Zr
atom 10.2098773758277623 10.2098588262698868 15.1211762081214474 Zr
atom 5.1096108395384476 5.1095922510590572 20.2044773174825920 Zr
atom 10.1314640193342704 5.1506653500600956 20.2044770491608681 Zr
atom 5.1506839577721042 10.1314454911950254 20.2044773834000360 Zr
atom 10.2098774014572307 10.2098588360901115 20.2044771401668406 Zr
atom 4.9173290643364878 4.9173554986440262 12.6301650240181367 S
atom 10.3237008085801278 5.3429471447959198 12.6301650531323926 S
atom 5.3429207262716654 10.3237272687508543 12.6301647522538367 S
atom 10.0175956098226315 10.0176220516984138 12.6301652227428729 S
atom 5.3554968484894072 5.3555304047344627 17.6628257409678611 S
atom 9.8855259215180169 4.9047793907763051 17.6628279179215504 S
atom 4.9047458270600384 9.8855594740110622 17.6628268240446786 S
atom 10.4557633627182263 10.4557969207135155 17.6628266351367564 S
atom 5.0703398187130402 2.5800062562102903 15.4398446223834700 S
atom 10.1109776153661954 2.6397458197028048 14.9892847435724654 S
atom 5.1301975249273939 7.6205259136347081 14.9892850429913800 S
atom 10.1706063440164005 7.6802727057008200 15.4398443789228068 S
atom 5.0703397951293789 2.5800064891423835 19.8858089791582309 S
atom 10.1109776051156732 2.6397454534700140 20.3363685370658835 S
atom 5.1301975082648443 7.6205256623142423 20.3363686597236359 S
atom 10.1706063138434875 7.6802730346206012 19.8858089304627406 S
atom 2.5800030003214309 5.0704500343921053 15.4398444831473718 S
atom 7.6205308565046401 5.1300787505729009 14.9892848699250312 S
atom 2.6397504908285288 10.1108588013261773 14.9892849165736930 S
atom 7.6802699684177238 10.1707165174244487 15.4398445173375816 S
atom 2.5800036957446100 5.0704499781617276 19.8858089626646368 S
atom 7.6205302446495633 5.1300787101283190 20.3363685990201475 S
atom 2.6397505908095047 10.1108588138826221 20.3363685968455883 S
atom 7.6802697159027717 10.1707165127544545 19.8858089472732047 S
atom 2.6499983202122031 2.6499634687551454 22.2861620721382074 Ba
atom 7.4908263272541484 2.5100113897916296 22.2861620658554322 Ba
atom 2.5100462383950624 7.4907915075066889 22.2861620874284618 Ba
atom 7.7502648188180867 7.7502299987877779 22.2861619460091980 Ba
atom 4.9173291004826662 4.9173555351064211 22.6954885257719390 S
atom 10.3237008126214604 5.3429471433694360 22.6954882886802913 S
atom 5.3429207117591835 10.3237272571375005 22.6954886366942823 S
atom 10.0175956301156432 10.0176220743782682 22.6954882606358410 S
