#=======================================================
# FHI-aims file: full_relax/full_relax_RP_8_00Rz1_00Rz2.in
# Created using the Atomic Simulation Environment (ASE)
# Mon Mar 24 15:54:53 2025
#=======================================================
lattice_vector 9.8983900549709176 0.0000000412443428 -0.0000000000000098 
lattice_vector 0.0000000412443428 9.8983900549709176 0.0000000000000085 
lattice_vector -0.0000000000000816 0.0000000000000710 87.6218682433295299 
atom -0.0000000000004964 -0.0000000000011972 0.1603596665744839 Ba
atom 4.9491950274846053 0.0000000206206022 0.1603596665745463 Ba
atom 0.0000000206212391 4.9491950274838361 0.1603596665743220 Ba
atom 4.9491950481071862 4.9491950481063869 0.1603596665744393 Ba
atom -0.0000000000019066 -0.0000000000009221 5.0704739766944247 Ba
atom 4.9491950274844561 0.0000000206221787 5.0704739766943909 Ba
atom 0.0000000206211170 4.9491950274854277 5.0704739766943492 Ba
atom 4.9491950481057270 4.9491950481067528 5.0704739766944682 Ba
atom 2.4745975240525753 2.4745975240528444 2.4390226571716345 Zr
atom 7.4237925515382761 2.4745975446751998 2.4390226571715545 Zr
atom 2.4745975446749826 7.4237925515384768 2.4390226571716456 Zr
atom 7.4237925721602247 7.4237925721604201 2.4390226571715075 Zr
atom 2.4745975240526525 2.4745975240530780 7.5811607428200238 Zr
atom 7.4237925515381287 2.4745975446751869 7.5811607428200016 Zr
atom 2.4745975446747899 7.4237925515385612 7.5811607428199794 Zr
atom 7.4237925721603082 7.4237925721607061 7.5811607428199368 Zr
atom 2.4745975240513283 2.4745975240521068 -0.1044544683694484 S
atom 7.4237925515390391 2.4745975446764450 -0.1044544683695403 S
atom 2.4745975446757971 7.4237925515396901 -0.1044544683694204 S
atom 7.4237925721588880 7.4237925721596048 -0.1044544683695589 S
atom 2.4745975240534026 2.4745975240536220 5.0442628840563097 S
atom 7.4237925515375345 2.4745975446743005 5.0442628840562902 S
atom 2.4745975446740309 7.4237925515377539 5.0442628840563053 S
atom 7.4237925721612106 7.4237925721613527 5.0442628840562733 S
atom 2.0436710277100483 0.0000000099660933 2.5335867953401401 S
atom 7.8547190272580218 0.0000000312766414 2.5335867953381523 S
atom 2.9055240203948367 4.9491950381399548 2.5335867953383295 S
atom 6.9928660758177097 4.9491950580737099 2.5335867953402245 S
atom 3.0114268300440168 0.0000000093116396 7.6047357526497050 S
atom 6.8869632249245960 0.0000000319311216 7.6047357526503641 S
atom 1.9377682180613527 4.9491950387944366 7.6047357526503525 S
atom 7.9606218781515876 4.9491950574192520 7.6047357526496979 S
atom 0.0000000106540857 2.9055239997734454 2.5335867953400997 S
atom 4.9491950374511493 2.0436710483331053 2.5335867953381785 S
atom 0.0000000305878553 6.9928660551963127 2.5335867953380404 S
atom 4.9491950587617302 7.8547190478809998 2.5335867953402351 S
atom 0.0000000113086416 1.9377681974395329 7.6047357526497610 S
atom 4.9491950367967714 3.0114268506665209 7.6047357526503196 S
atom 0.0000000299334746 7.9606218575299126 7.6047357526504893 S
atom 4.9491950594162546 6.8869632455472676 7.6047357526496713 S
atom -0.0000000000010173 -0.0000000000005246 10.1592538736374518 Ba
atom 4.9491950274841763 0.0000000206213714 10.1592538736373648 Ba
atom 0.0000000206208208 4.9491950274847172 10.1592538736373736 Ba
atom 4.9491950481066480 4.9491950481070326 10.1592538736372688 Ba
atom -0.0000000000011656 -0.0000000000007872 15.2675349682210335 Ba
atom 4.9491950274843441 0.0000000206214816 15.2675349682210175 Ba
atom 0.0000000206211098 4.9491950274847234 15.2675349682209678 Ba
atom 4.9491950481065361 4.9491950481067448 15.2675349682209021 Ba
atom 2.4745975240527445 2.4745975240530029 12.7001905713607233 Zr
atom 7.4237925515382202 2.4745975446752051 12.7001905713607055 Zr
atom 2.4745975446749657 7.4237925515384813 12.7001905713606149 Zr
atom 7.4237925721603828 7.4237925721606608 12.7001905713606700 Zr
atom 2.4745975240528271 2.4745975240529940 17.8184387657784171 Zr
atom 7.4237925515382637 2.4745975446751456 17.8184387657783212 Zr
atom 2.4745975446750039 7.4237925515384307 17.8184387657781578 Zr
atom 7.4237925721604192 7.4237925721606119 17.8184387657782679 Zr
atom 2.4745975240525726 2.4745975240526885 10.1543190489992181 S
atom 7.4237925515384688 2.4745975446753401 10.1543190489992181 S
atom 2.4745975446752277 7.4237925515387095 10.1543190489992146 S
atom 7.4237925721601874 7.4237925721603766 10.1543190489992146 S
atom 2.4745975240528555 2.4745975240529710 15.2656061079863790 S
atom 7.4237925515383028 2.4745975446750816 15.2656061079863523 S
atom 2.4745975446749431 7.4237925515384262 15.2656061079863079 S
atom 7.4237925721605498 7.4237925721606146 15.2656061079863399 S
atom 1.9386461811852347 0.0000000108036862 12.7149179425943810 S
atom 7.9597438737836166 0.0000000304390644 12.7149179425941412 S
atom 3.0105488669203155 4.9491950373023403 12.7149179425940861 S
atom 6.8878412292928308 4.9491950589113198 12.7149179425942709 S
atom 3.0107627600243920 0.0000000097595277 17.8227385000828669 S
atom 6.8876272949445134 0.0000000314831409 17.8227385000827745 S
atom 1.9384322880812559 4.9491950383464234 17.8227385000826928 S
atom 7.9599578081319926 4.9491950578671382 17.8227385000827923 S
atom 0.0000000098166504 3.0105488462984646 12.7149179425942780 S
atom 4.9491950382889209 1.9386462018076738 12.7149179425941714 S
atom 0.0000000314256372 6.8878412086709977 12.7149179425941572 S
atom 4.9491950579242934 7.9597438944060803 12.7149179425943810 S
atom 0.0000000108608200 1.9384322674592547 17.8227385000828455 S
atom 4.9491950372448343 3.0107627806467283 17.8227385000826821 S
atom 0.0000000303815383 7.9599577875099330 17.8227385000827709 S
atom 4.9491950589684555 6.8876273155668342 17.8227385000826715 S
atom -0.0000000000010107 -0.0000000000009108 20.3771786612383536 Ba
atom 4.9491950274845165 0.0000000206214154 20.3771786612385242 Ba
atom 0.0000000206211599 4.9491950274845644 20.3771786612383572 Ba
atom 4.9491950481066791 4.9491950481067928 20.3771786612383075 Ba
atom -0.0000000000008916 -0.0000000000008422 25.4868223542556969 Ba
atom 4.9491950274842873 0.0000000206212520 25.4868223542557537 Ba
atom 0.0000000206209869 4.9491950274847198 25.4868223542557395 Ba
atom 4.9491950481066356 4.9491950481067812 25.4868223542556755 Ba
atom 2.4745975240528262 2.4745975240530078 22.9359185566984145 Zr
atom 7.4237925515383063 2.4745975446751425 22.9359185566982369 Zr
atom 2.4745975446749902 7.4237925515384289 22.9359185566980912 Zr
atom 7.4237925721604565 7.4237925721605951 22.9359185566982546 Zr
atom 2.4745975240527232 2.4745975240529834 28.0541667511159822 Zr
atom 7.4237925515382335 2.4745975446751300 28.0541667511158224 Zr
atom 2.4745975446749022 7.4237925515384289 28.0541667511156803 Zr
atom 7.4237925721604023 7.4237925721606048 28.0541667511158437 Zr
atom 2.4745975240529652 2.4745975240530411 20.3771786612384034 S
atom 7.4237925515381757 2.4745975446750483 20.3771786612383288 S
atom 2.4745975446751114 7.4237925515383907 20.3771786612382790 S
atom 7.4237925721604157 7.4237925721606848 20.3771786612383288 S
atom 2.4745975240527556 2.4745975240528728 25.4887512144903496 S
atom 7.4237925515384582 2.4745975446753667 25.4887512144902750 S
atom 2.4745975446749413 7.4237925515385923 25.4887512144902395 S
atom 7.4237925721605968 7.4237925721603570 25.4887512144902608 S
atom 1.9384322674591326 0.0000000108609863 22.9316188223938511 S
atom 7.9599577875098939 0.0000000303816942 22.9316188223939541 S
atom 3.0107627806466075 4.9491950372450031 22.9316188223940181 S
atom 6.8876273155667995 4.9491950589685976 22.9316188223938440 S
atom 3.0105488462980601 0.0000000098168444 28.0394393798825448 S
atom 6.8878412086707330 0.0000000314258045 28.0394393798821007 S
atom 1.9386462018074175 4.9491950382891297 28.0394393798821824 S
atom 7.9597438944057703 4.9491950579244879 28.0394393798827686 S
atom 0.0000000097593986 3.0107627600245843 22.9316188223939257 S
atom 4.9491950383463088 1.9384322880814548 22.9316188223942277 S
atom 0.0000000314830276 6.8876272949447053 22.9316188223938298 S
atom 4.9491950578670201 7.9599578081321267 22.9316188223940394 S
atom 0.0000000108034825 1.9386461811854128 28.0394393798824737 S
atom 4.9491950373021281 3.0105488669204901 28.0394393798824169 S
atom 0.0000000304388476 7.9597438737838182 28.0394393798824382 S
atom 4.9491950589111022 6.8878412292931515 28.0394393798823742 S
atom -0.0000000000017097 -0.0000000000008448 30.5951034488392963 Ba
atom 4.9491950274843006 0.0000000206212349 30.5951034488390867 Ba
atom 0.0000000206213098 4.9491950274847669 30.5951034488392857 Ba
atom 4.9491950481059011 4.9491950481067688 30.5951034488392111 Ba
atom -0.0000000000004739 -0.0000000000007998 35.6838833457821352 Ba
atom 4.9491950274836052 0.0000000206214248 35.6838833457821138 Ba
atom 0.0000000206201888 4.9491950274845591 35.6838833457821707 Ba
atom 4.9491950481068914 4.9491950481069393 35.6838833457819788 Ba
atom 2.4745975240526956 2.4745975240529199 33.1731965796565902 Zr
atom 7.4237925515381686 2.4745975446751540 33.1731965796564765 Zr
atom 2.4745975446748969 7.4237925515384555 33.1731965796563770 Zr
atom 7.4237925721603384 7.4237925721605835 33.1731965796565049 Zr
atom 2.4745975240529492 2.4745975240530607 38.3153346653048885 Zr
atom 7.4237925515383631 2.4745975446749942 38.3153346653046896 Zr
atom 2.4745975446751434 7.4237925515382610 38.3153346653046967 Zr
atom 7.4237925721605595 7.4237925721606892 38.3153346653047180 Zr
atom 2.4745975240529186 2.4745975240535243 30.6000382734773986 S
atom 7.4237925515383383 2.4745975446743995 30.6000382734773844 S
atom 2.4745975446751109 7.4237925515378738 30.6000382734773346 S
atom 7.4237925721604983 7.4237925721613021 30.6000382734773986 S
atom 2.4745975240527578 2.4745975240516942 35.7100944384201853 S
atom 7.4237925515383356 2.4745975446763420 35.7100944384202208 S
atom 2.4745975446750985 7.4237925515396590 35.7100944384201355 S
atom 7.4237925721603810 7.4237925721593276 35.7100944384201924 S
atom 1.9377681974391796 0.0000000113089000 33.1496215698257544 S
atom 7.9606218575295271 0.0000000299337457 33.1496215698275165 S
atom 3.0114268506661053 4.9491950367970290 33.1496215698272962 S
atom 6.8869632455467951 4.9491950594165344 33.1496215698257544 S
atom 2.9055239997727060 0.0000000106544271 38.2207705271386473 S
atom 6.9928660551958428 0.0000000305881845 38.2207705271359970 S
atom 2.0436710483326030 4.9491950374514522 38.2207705271358691 S
atom 7.8547190478802271 4.9491950587620428 38.2207705271386899 S
atom 0.0000000093113579 3.0114268300443414 33.1496215698265715 S
atom 4.9491950387941586 1.9377682180616997 33.1496215698264578 S
atom 0.0000000319308713 6.8869632249249220 33.1496215698265786 S
atom 4.9491950574190051 7.9606218781519589 33.1496215698265431 S
atom 0.0000000099658892 2.0436710277107557 38.2207705271372760 S
atom 4.9491950381397336 2.9055240203951684 38.2207705271370557 S
atom 0.0000000312764611 7.8547190272583887 38.2207705271370841 S
atom 4.9491950580735367 6.9928660758183367 38.2207705271373257 S
atom -0.0000000000006125 -0.0000000000010254 40.5939976559016529 Ba
atom 4.9491950274855343 0.0000000206213059 40.5939976559019442 Ba
atom 0.0000000206222578 4.9491950274847163 40.5939976559018234 Ba
atom 4.9491950481073577 4.9491950481066160 40.5939976559017168 Ba
atom 2.4745975240527200 2.4745975240544538 40.8588117908458770 S
atom 7.4237925515378924 2.4745975446737436 40.8588117908458131 S
atom 2.4745975446746571 7.4237925515369376 40.8588117908457562 S
atom 7.4237925721603668 7.4237925721620046 40.8588117908458557 S
atom 2.4745975240528808 2.4745975240533351 43.9712914435452191 Ba
atom 7.4237925515380763 2.4745975446759680 43.9712914435450486 Ba
atom 2.4745975446754374 7.4237925515392105 43.9712914435450912 Ba
atom 7.4237925721606919 7.4237925721609894 43.9712914435451410 Ba
atom 2.4745975240529332 2.4745975240527796 48.8814859003008237 Ba
atom 7.4237925515385790 2.4745975446740038 48.8814859003008451 Ba
atom 2.4745975446748600 7.4237925515370602 48.8814859003010014 Ba
atom 7.4237925721599556 7.4237925721605507 48.8814859003008308 Ba
atom 4.9491950481066933 4.9491950481066169 46.2499924947578407 Zr
atom 9.8983900755919016 4.9491950687288400 46.2499924947577625 Zr
atom 4.9491950687286019 9.8983900755920580 46.2499924947579402 Zr
atom 9.8983900962143299 9.8983900962142712 46.2499924947576702 Zr
atom 4.9491950481063869 4.9491950481063363 51.3921249787621548 Zr
atom 9.8983900755919603 4.9491950687284341 51.3921249787620198 Zr
atom 4.9491950687286383 9.8983900755917986 51.3921249787621548 Zr
atom 9.8983900962140847 9.8983900962139479 51.3921249787619630 Zr
atom 4.9491950481079119 4.9491950481061826 43.7065093471212407 S
atom 9.8983900755906546 4.9491950687286694 43.7065093471212691 S
atom 4.9491950687272261 9.8983900755919372 43.7065093471212478 S
atom 9.8983900962156852 9.8983900962137419 43.7065093471211910 S
atom 4.9491950481054543 4.9491950481069829 48.8552254410822115 S
atom 9.8983900755929923 4.9491950687284492 48.8552254410822400 S
atom 4.9491950687298836 9.8983900755915268 48.8552254410822826 S
atom 9.8983900962129407 9.8983900962143210 48.8552254410822471 S
atom 4.5181526799337055 2.4745975337627408 46.3445735174078806 S
atom 10.3294324231428067 2.4745975555869628 46.3445735174076745 S
atom 5.3802374162794173 7.4237925624502550 46.3445735174074045 S
atom 9.4673477280412914 7.4237925818704005 46.3445735174080156 S
atom 5.4859722259425006 2.4745975335924282 51.4157151508360144 S
atom 9.3616128771335720 2.4745975557570090 51.4157151508369097 S
atom 4.4124178702703309 7.4237925626203403 51.4157151508370944 S
atom 10.4351672740501549 7.4237925817000390 51.4157151508367463 S
atom 2.4745975349648450 5.3802373956569998 46.3445735174063955 S
atom 7.4237925612482654 4.5181527005555555 46.3445735174089180 S
atom 2.4745975543849745 9.4673477074188277 46.3445735174090672 S
atom 7.4237925830724798 10.3294324437646381 46.3445735174062676 S
atom 2.4745975351349490 4.4124178496479534 51.4157151508369381 S
atom 7.4237925610779634 5.4859722465644678 51.4157151508359149 S
atom 2.4745975542146850 10.4351672534278492 51.4157151508358794 S
atom 7.4237925832425731 9.3616128977556308 51.4157151508373360 S
atom 2.4745975240522120 2.4745975240521254 53.9701985286148869 Ba
atom 7.4237925515375798 2.4745975446743609 53.9701985286147234 Ba
atom 2.4745975446746473 7.4237925515380088 53.9701985286152279 Ba
atom 7.4237925721600071 7.4237925721595079 53.9701985286146382 Ba
atom 2.4745975240527458 2.4745975240523497 59.0784891608838763 Ba
atom 7.4237925515383019 2.4745975446747757 59.0784891608837626 Ba
atom 2.4745975446749533 7.4237925515378640 59.0784891608841249 Ba
atom 7.4237925721602966 7.4237925721603739 59.0784891608837555 Ba
atom 4.9491950481063673 4.9491950481063096 56.5111436929755655 Zr
atom 9.8983900755917809 4.9491950687284723 56.5111436929753665 Zr
atom 4.9491950687285486 9.8983900755918128 56.5111436929756223 Zr
atom 9.8983900962140243 9.8983900962139373 56.5111436929753594 Zr
atom 4.9491950481062963 4.9491950481063620 61.6293646796293899 Zr
atom 9.8983900755917862 4.9491950687285335 61.6293646796292975 Zr
atom 4.9491950687284358 9.8983900755918039 61.6293646796295889 Zr
atom 9.8983900962139568 9.8983900962139657 61.6293646796293260 Zr
atom 4.9491950481065752 4.9491950481061044 53.9652782062062570 S
atom 9.8983900755917915 4.9491950687284296 53.9652782062062428 S
atom 4.9491950687280397 9.8983900755923155 53.9652782062063281 S
atom 9.8983900962146905 9.8983900962143263 53.9652782062063210 S
atom 4.9491950481065299 4.9491950481067200 59.0765497811444575 S
atom 9.8983900755914931 4.9491950687287201 59.0765497811444504 S
atom 4.9491950687287503 9.8983900755914824 59.0765497811445854 S
atom 9.8983900962136051 9.8983900962138591 59.0765497811445144 S
atom 4.4132423520469430 2.4745975348547331 56.5258736642765456 S
atom 10.4343427510290052 2.4745975544946650 56.5258736642768369 S
atom 5.4851477441656655 7.4237925613579607 56.5258736642761406 S
atom 9.3624374001545938 7.4237925829623626 56.5258736642761050 S
atom 5.4853653272966252 2.4745975338117763 61.6336683895572079 S
atom 9.3622197757792556 2.4745975555376627 61.6336683895577124 S
atom 4.4130247689159026 7.4237925624009353 61.6336683895581743 S
atom 10.4345603754043630 7.4237925819193968 61.6336683895577835 S
atom 2.4745975338725055 5.4851477235434336 56.5258736642766593 S
atom 7.4237925623401901 4.4132423726689956 56.5258736642762187 S
atom 2.4745975554769388 9.3624373795324214 56.5258736642771069 S
atom 7.4237925819801349 10.4343427716511155 56.5258736642764603 S
atom 2.4745975349154619 4.4130247482937301 61.6336683895574069 S
atom 7.4237925612971587 5.4853653479188740 61.6336683895576343 S
atom 2.4745975544338830 10.4345603547822847 61.6336683895575348 S
atom 7.4237925830230864 9.3622197964015381 61.6336683895580251 S
atom 2.4745975240523230 2.4745975240527165 64.1881127829029623 Ba
atom 7.4237925515376793 2.4745975446746913 64.1881127829023512 Ba
atom 2.4745975446744803 7.4237925515383516 64.1881127829031470 Ba
atom 7.4237925721600533 7.4237925721600719 64.1881127829027491 Ba
atom 2.4745975240525961 2.4745975240519473 69.2977364049219346 Ba
atom 7.4237925515381367 2.4745975446745745 69.2977364049211104 Ba
atom 2.4745975446750501 7.4237925515375842 69.2977364049220341 Ba
atom 7.4237925721602984 7.4237925721599014 69.2977364049218210 Ba
atom 4.9491950481063487 4.9491950481063292 66.7468608861760515 Zr
atom 9.8983900755917560 4.9491950687285957 66.7468608861759805 Zr
atom 4.9491950687285291 9.8983900755917631 66.7468608861764778 Zr
atom 9.8983900962139977 9.8983900962139977 66.7468608861760941 Zr
atom 4.9491950481064517 4.9491950481062279 71.8650818728299043 Zr
atom 9.8983900755918661 4.9491950687284767 71.8650818728297338 Zr
atom 4.9491950687286943 9.8983900755917240 71.8650818728304728 Zr
atom 9.8983900962140865 9.8983900962139142 71.8650818728299328 Zr
atom 4.9491950481061648 4.9491950481060494 64.1881127829027065 S
atom 9.8983900755919567 4.9491950687284287 64.1881127829026497 S
atom 4.9491950687281259 9.8983900755920899 64.1881127829029197 S
atom 9.8983900962144755 9.8983900962140581 64.1881127829028060 S
atom 4.9491950481067430 4.9491950481067963 69.2996757846609768 S
atom 9.8983900755914203 4.9491950687288924 69.2996757846608489 S
atom 4.9491950687286357 9.8983900755915375 69.2996757846612468 S
atom 9.8983900962139657 9.8983900962137916 69.2996757846610905 S
atom 4.4130247482938172 2.4745975349154889 66.7425571762481695 S
atom 10.4345603547821497 2.4745975544339784 66.7425571762484111 S
atom 5.4853653479189441 7.4237925612972191 66.7425571762476864 S
atom 9.3622197964013356 7.4237925830231628 66.7425571762475869 S
atom 5.4851477235436255 2.4745975338724864 71.8503519015283132 S
atom 9.3624373795327198 2.4745975554768864 71.8503519015283132 S
atom 4.4132423726694103 7.4237925623401644 71.8503519015294927 S
atom 10.4343427716511865 7.4237925819801225 71.8503519015288958 S
atom 2.4745975338117474 5.4853653272967513 66.7425571762479564 S
atom 7.4237925624009327 4.4130247689159221 66.7425571762474874 S
atom 2.4745975555376787 9.3622197757792947 66.7425571762485248 S
atom 7.4237925819193933 10.4345603754043186 66.7425571762475016 S
atom 2.4745975348548255 4.4132423520470718 71.8503519015285121 S
atom 7.4237925613579963 5.4851477441655847 71.8503519015295780 S
atom 2.4745975544947933 10.4343427510287992 71.8503519015295922 S
atom 7.4237925829624842 9.3624374001545281 71.8503519015291374 S
atom 2.4745975240531961 2.4745975240527116 74.4060270371907251 Ba
atom 7.4237925515382797 2.4745975446740882 74.4060270371900003 Ba
atom 2.4745975446746327 7.4237925515374652 74.4060270371906967 Ba
atom 7.4237925721606643 7.4237925721603037 74.4060270371906682 Ba
atom 2.4745975240524731 2.4745975240516573 79.4947396655048664 Ba
atom 7.4237925515392051 2.4745975446750004 79.4947396655043264 Ba
atom 2.4745975446761479 7.4237925515382717 79.4947396655048948 Ba
atom 7.4237925721602700 7.4237925721592131 79.4947396655041700 Ba
atom 4.9491950481065627 4.9491950481062590 76.9841005870432014 Zr
atom 9.8983900755920136 4.9491950687283994 76.9841005870431445 Zr
atom 4.9491950687286703 9.8983900755917045 76.9841005870438835 Zr
atom 9.8983900962142961 9.8983900962139959 76.9841005870432582 Zr
atom 4.9491950481062883 4.9491950481064420 82.1262330710476789 Zr
atom 9.8983900755919461 4.9491950687288995 82.1262330710474515 Zr
atom 4.9491950687286890 9.8983900755921486 82.1262330710481763 Zr
atom 9.8983900962138645 9.8983900962140439 82.1262330710475226 Zr
atom 4.9491950481056319 4.9491950481057136 74.4109473595991773 S
atom 9.8983900755924186 4.9491950687286161 74.4109473595989499 S
atom 4.9491950687292423 9.8983900755926122 74.4109473595994331 S
atom 9.8983900962134275 9.8983900962140705 74.4109473595992199 S
atom 4.9491950481076064 4.9491950481080638 79.5210001247231872 S
atom 9.8983900755906138 4.9491950687276569 79.5210001247230451 S
atom 4.9491950687272359 9.8983900755903491 79.5210001247234572 S
atom 9.8983900962154454 9.8983900962150830 79.5210001247231446 S
atom 4.4124178496482171 2.4745975351347882 76.9605104149698604 S
atom 10.4351672534282969 2.4745975542145593 76.9605104149684820 S
atom 5.4859722465647733 7.4237925610778053 76.9605104149682973 S
atom 9.3616128977561122 7.4237925832424372 76.9605104149689510 S
atom 5.3802373956575753 2.4745975349647176 82.0316520483959266 S
atom 9.4673477074193428 2.4745975543848737 82.0316520483989962 S
atom 4.5181527005560120 7.4237925612481810 82.0316520483999341 S
atom 10.3294324437650982 7.4237925830723608 82.0316520483963387 S
atom 2.4745975335925254 5.4859722259423327 76.9605104149694910 S
atom 7.4237925626204531 4.4124178702700441 76.9605104149677999 S
atom 2.4745975557571818 9.3616128771331937 76.9605104149682546 S
atom 7.4237925817002060 10.4351672740499009 76.9605104149695052 S
atom 2.4745975337627519 4.5181526799333298 82.0316520483962677 S
atom 7.4237925624502790 5.3802374162791837 82.0316520483990388 S
atom 2.4745975555869872 10.3294324231424230 82.0316520483996499 S
atom 7.4237925818703818 9.4673477280408882 82.0316520483962393 S
atom 2.4745975240519265 2.4745975240540545 84.4049341222605847 Ba
atom 7.4237925515369110 2.4745975446753614 84.4049341222603005 Ba
atom 2.4745975446733954 7.4237925515387699 84.4049341222607978 Ba
atom 7.4237925721599307 7.4237925721613687 84.4049341222603857 Ba
atom 4.9491950481052944 4.9491950481044134 84.6697162186843144 S
atom 9.8983900755937011 4.9491950687299626 84.6697162186841581 S
atom 4.9491950687306092 9.8983900755935270 84.6697162186845276 S
atom 9.8983900962127649 9.8983900962123244 84.6697162186843428 S
