#=======================================================
# FHI-aims file: full_relax/full_relax_RP_9_Rx00_0-Ry0.in
# Created using the Atomic Simulation Environment (ASE)
# Mon Mar 24 16:26:01 2025
#=======================================================
lattice_vector 10.0806211148673412 -0.0000000000000002 -0.0000000000000002 
lattice_vector -0.0000000000000002 10.0806211148673412 -0.0000000000000007 
lattice_vector -0.0000000000000015 -0.0000000000000065 94.7329938884081599 
atom -0.1525956106763519 -0.0000000000008115 0.2770109784119173 Ba
atom 5.1929061681087845 -0.0000000000008182 0.2770109784118804 Ba
atom 0.1525956106750723 5.0403105574328348 0.2770109784118535 Ba
atom 4.8877149467572680 5.0403105574328357 0.2770109784119812 Ba
atom 0.0274556270269800 -0.0000000000007520 4.9443938961620155 Ba
atom 5.0128549304055632 -0.0000000000007384 4.9443938961619978 Ba
atom -0.0274556270281842 5.0403105574329299 4.9443938961619924 Ba
atom 5.0677661844604920 5.0403105574329095 4.9443938961619693 Ba
atom 2.5201552787161940 2.5077341957026587 2.3194148867888895 Zr
atom 7.5604658361498807 2.5325763617293764 2.3194148867888700 Zr
atom 2.5201552787161940 7.5728869191630537 2.3194148867888984 Zr
atom 7.5604658361498798 7.5480447531363390 2.3194148867888802 Zr
atom 2.5201552787162314 2.5189050017175316 7.3318409060577814 Zr
atom 7.5604658361498958 2.5214055557146602 7.3318409060578409 Zr
atom 2.5201552787162278 7.5617161131483339 7.3318409060578311 Zr
atom 7.5604658361499020 7.5592155591511991 7.3318409060578142 Zr
atom 2.5201552787161341 2.8731023850281008 -0.1621185223519750 S
atom 7.5604658361498993 2.1672081724039134 -0.1621185223520376 S
atom 2.5201552787161186 7.2075187298375667 -0.1621185223519784 S
atom 7.5604658361499233 7.9134129424617674 -0.1621185223520082 S
atom 2.5201552787163135 2.0477466345361650 4.8619541199473035 S
atom 7.5604658361497812 2.9925639228959890 4.8619541199472982 S
atom 2.5201552787163513 8.0328744803296459 4.8619541199473231 S
atom 7.5604658361497510 7.0880571919698312 4.8619541199473391 S
atom 2.5201552787161892 -0.0000000000008144 2.0048095545398730 S
atom 7.5604658361498878 -0.0000000000007901 2.7966671765328890 S
atom 2.5201552787161901 5.0403105574328819 2.7966671765328885 S
atom 7.5604658361498664 5.0403105574328562 2.0048095545398876 S
atom 2.5201552787162687 -0.0000000000007205 7.8114747343595781 S
atom 7.5604658361498656 -0.0000000000007185 6.8757666722104700 S
atom 2.5201552787162060 5.0403105574329263 6.8757666722104700 S
atom 7.5604658361498984 5.0403105574329388 7.8114747343595496 S
atom -0.0000000000006340 2.5201552787160373 2.4544870554075979 S
atom 5.0403105574330356 2.5201552787160315 2.4544870554074705 S
atom -0.0000000000006387 7.5604658361496959 2.4544870554076228 S
atom 5.0403105574330400 7.5604658361496950 2.4544870554074381 S
atom -0.0000000000006087 2.5201552787160795 7.3497034499676461 S
atom 5.0403105574330622 2.5201552787161177 7.3497034499679099 S
atom -0.0000000000006043 7.5604658361497874 7.3497034499676168 S
atom 5.0403105574330649 7.5604658361497368 7.3497034499680121 S
atom -0.0074065676367785 -0.0000000000006654 9.8386183266567926 Ba
atom 5.0477171250694983 -0.0000000000007281 9.8386183266567624 Ba
atom 0.0074065676356539 5.0403105574329352 9.8386183266567127 Ba
atom 5.0329039897966910 5.0403105574329619 9.8386183266567748 Ba
atom 0.0068611989841990 -0.0000000000007254 14.7789907086348897 Ba
atom 5.0334493584486122 -0.0000000000006648 14.7789907086351437 Ba
atom -0.0068611989853579 5.0403105574330596 14.7789907086351047 Ba
atom 5.0471717564176188 5.0403105574329459 14.7789907086348791 Ba
atom 2.5201552787162513 2.5217750109646619 12.2910524239355219 Zr
atom 7.5604658361499197 2.5185355464676276 12.2910524239355805 Zr
atom 2.5201552787162513 7.5588461039012866 12.2910524239355272 Zr
atom 7.5604658361499091 7.5620855683983192 12.2910524239355414 Zr
atom 2.5201552787162607 2.5198128079083042 17.2477169793258156 Zr
atom 7.5604658361499197 2.5204977495240248 17.2477169793258049 Zr
atom 2.5201552787162473 7.5608083069577070 17.2477169793258014 Zr
atom 7.5604658361499268 7.5601233653419735 17.2477169793258298 Zr
atom 2.5201552787160657 3.0276002903595041 9.8186115827965050 S
atom 7.5604658361500441 2.0127102670727264 9.8186115827965725 S
atom 2.5201552787160022 7.0530208245063699 9.8186115827965335 S
atom 7.5604658361501329 8.0679108477932022 9.8186115827965139 S
atom 2.5201552787164729 2.0108963427367037 14.7720361917224103 S
atom 7.5604658361496959 3.0294142146955760 14.7720361917224547 S
atom 2.5201552787165959 8.0697247721292289 14.7720361917224334 S
atom 7.5604658361495511 7.0512069001704045 14.7720361917224281 S
atom 2.5201552787163322 -0.0000000000007172 11.8204025035071254 S
atom 7.5604658361497989 -0.0000000000006870 12.7794841411132154 S
atom 2.5201552787160932 5.0403105574329778 12.7794841411132190 S
atom 7.5604658361500174 5.0403105574329690 11.8204025035071041 S
atom 2.5201552787160719 -0.0000000000006736 17.7315055921915885 S
atom 7.5604658361501258 -0.0000000000006654 16.7691678975128795 S
atom 2.5201552787164703 5.0403105574329654 16.7691678975128973 S
atom 7.5604658361496710 5.0403105574330054 17.7315055921915459 S
atom -0.0000000000005813 2.5201552787159782 12.2996095964320133 S
atom 5.0403105574330693 2.5201552787162846 12.2996095964316208 S
atom -0.0000000000005910 7.5604658361499402 12.2996095964320968 S
atom 5.0403105574330720 7.5604658361496488 12.2996095964314556 S
atom -0.0000000000005734 2.5201552787164272 17.2500283860892871 S
atom 5.0403105574330791 2.5201552787158801 17.2500283860898200 S
atom -0.0000000000005815 7.5604658361495494 17.2500283860890349 S
atom 5.0403105574330826 7.5604658361500983 17.2500283860899728 S
atom -0.0059104029884441 -0.0000000000005559 19.7270939177072187 Ba
atom 5.0462209604212998 -0.0000000000007062 19.7270939177070055 Ba
atom 0.0059104029872265 5.0403105574329059 19.7270939177069238 Ba
atom 5.0344001544448806 5.0403105574330080 19.7270939177072044 Ba
atom 0.0059104029876673 -0.0000000000008048 24.6789969674945588 Ba
atom 5.0344001544453016 -0.0000000000006120 24.6789969674947720 Ba
atom -0.0059104029888179 5.0403105574331253 24.6789969674947471 Ba
atom 5.0462209604208619 5.0403105574329041 24.6789969674945482 Ba
atom 2.5201552787162429 2.5201552787161545 22.2030454426009634 Zr
atom 7.5604658361499197 2.5201552787161567 22.2030454426009669 Zr
atom 2.5201552787162584 7.5604658361498407 22.2030454426008603 Zr
atom 7.5604658361499082 7.5604658361497865 22.2030454426008887 Zr
atom 2.5201552787162460 2.5204977495240404 27.1583739058761893 Zr
atom 7.5604658361499082 2.5198128079082496 27.1583739058761964 Zr
atom 2.5201552787162402 7.5601233653419202 27.1583739058761502 Zr
atom 7.5604658361499144 7.5608083069576857 27.1583739058761324 Zr
atom 2.5201552787159662 3.0305226495438289 19.7261066758125096 S
atom 7.5604658361501933 2.0097879078885010 19.7261066758124279 S
atom 2.5201552787157691 7.0500984653220646 19.7261066758123818 S
atom 7.5604658361504153 8.0708332069775466 19.7261066758124457 S
atom 2.5201552787165786 2.0097879078884433 24.6799842093893176 S
atom 7.5604658361496213 3.0305226495438489 24.6799842093893709 S
atom 2.5201552787168939 8.0708332069774400 24.6799842093893389 S
atom 7.5604658361492874 7.0500984653221801 24.6799842093893211 S
atom 2.5201552787164103 -0.0000000000006881 21.7209642350249723 S
atom 7.5604658361497972 -0.0000000000006792 22.6851266501767626 S
atom 2.5201552787160746 5.0403105574330169 22.6851266501767377 S
atom 7.5604658361500920 5.0403105574330214 21.7209642350249723 S
atom 2.5201552787161985 -0.0000000000007120 27.6369229876888944 S
atom 7.5604658361500539 -0.0000000000006235 26.6745852930103275 S
atom 2.5201552787163739 5.0403105574329974 26.6745852930102529 S
atom 7.5604658361498052 5.0403105574329699 27.6369229876889513 S
atom -0.0000000000006022 2.5201552787159591 22.2030454426011339 S
atom 5.0403105574331075 2.5201552787163575 22.2030454426005512 S
atom -0.0000000000005831 7.5604658361500183 22.2030454426014039 S
atom 5.0403105574330951 7.5604658361496204 22.2030454426001747 S
atom -0.0000000000005694 2.5201552787162709 27.1560624991118758 S
atom 5.0403105574330791 2.5201552787160022 27.1560624991125152 S
atom -0.0000000000005787 7.5604658361496817 27.1560624991114032 S
atom 5.0403105574330809 7.5604658361499357 27.1560624991129380 S
atom -0.0068611989849770 -0.0000000000005355 29.6271001765668984 Ba
atom 5.0471717564178871 -0.0000000000007679 29.6271001765669624 Ba
atom 0.0068611989837588 5.0403105574328295 29.6271001765669872 Ba
atom 5.0334493584481503 5.0403105574330525 29.6271001765669837 Ba
atom 0.0074065676359381 -0.0000000000008161 34.5674725585457097 Ba
atom 5.0329039897969903 -0.0000000000006613 34.5674725585456528 Ba
atom -0.0074065676371060 5.0403105574330791 34.5674725585456244 Ba
atom 5.0477171250691262 5.0403105574328837 34.5674725585456954 Ba
atom 2.5201552787162331 2.5185355464676102 32.1150384612667992 Zr
atom 7.5604658361498993 2.5217750109646415 32.1150384612668205 Zr
atom 2.5201552787162247 7.5620855683983423 32.1150384612667281 Zr
atom 7.5604658361499073 7.5588461039012564 32.1150384612667494 Zr
atom 2.5201552787162385 2.5214055557146779 37.0742499791448878 Zr
atom 7.5604658361499215 2.5189050017175147 37.0742499791449518 Zr
atom 2.5201552787162549 7.5592155591512000 37.0742499791449163 Zr
atom 7.5604658361499126 7.5617161131483561 37.0742499791449660 Zr
atom 2.5201552787159205 3.0294142146953744 29.6340546934796230 S
atom 7.5604658361502395 2.0108963427368818 29.6340546934796834 S
atom 2.5201552787155665 7.0512069001704729 29.6340546934796478 S
atom 7.5604658361505930 8.0697247721291561 29.6340546934796087 S
atom 2.5201552787165693 2.0127102670729204 34.5874793024059386 S
atom 7.5604658361495849 3.0276002903593229 34.5874793024059457 S
atom 2.5201552787168215 8.0679108477929145 34.5874793024059102 S
atom 7.5604658361493176 7.0530208245066399 34.5874793024058818 S
atom 2.5201552787161776 -0.0000000000006707 31.6266067440888996 S
atom 7.5604658361499633 -0.0000000000007321 32.5856883816950926 S
atom 2.5201552787162682 5.0403105574329121 32.5856883816949860 S
atom 7.5604658361498016 5.0403105574329734 31.6266067440889778 S
atom 2.5201552787163086 -0.0000000000007720 37.5303242129921131 S
atom 7.5604658361498762 -0.0000000000007387 36.5946161508431871 S
atom 2.5201552787161474 5.0403105574329317 36.5946161508432013 S
atom 7.5604658361499828 5.0403105574329627 37.5303242129920847 S
atom -0.0000000000005725 2.5201552787162003 32.1064812887705742 S
atom 5.0403105574330356 2.5201552787160528 32.1064812887699844 S
atom -0.0000000000005856 7.5604658361497270 32.1064812887709365 S
atom 5.0403105574330525 7.5604658361498753 32.1064812887695155 S
atom -0.0000000000006210 2.5201552787160226 37.0563874352346900 S
atom 5.0403105574331111 2.5201552787161927 37.0563874352352585 S
atom -0.0000000000006395 7.5604658361498265 37.0563874352342708 S
atom 5.0403105574331262 7.5604658361496684 37.0563874352353508 S
atom -0.0274556270278824 -0.0000000000007087 39.4616969890410374 Ba
atom 5.0677661844607202 -0.0000000000007897 39.4616969890410445 Ba
atom 0.0274556270267185 5.0403105574328828 39.4616969890410729 Ba
atom 5.0128549304054717 5.0403105574329450 39.4616969890408811 Ba
atom 0.1525956106750116 -0.0000000000008285 44.1290799067922705 Ba
atom 4.8877149467575078 -0.0000000000008375 44.1290799067922279 Ba
atom -0.1525956106762353 5.0403105574328642 44.1290799067922848 Ba
atom 5.1929061681085216 5.0403105574328677 44.1290799067922279 Ba
atom 2.5201552787162229 2.5325763617293560 42.0866759984145204 Zr
atom 7.5604658361498842 2.5077341957027115 42.0866759984145204 Zr
atom 2.5201552787162171 7.5480447531363692 42.0866759984144849 Zr
atom 7.5604658361498913 7.5728869191630261 42.0866759984144068 Zr
atom 2.5201552787159978 2.9925639228956480 39.5441367652556011 S
atom 7.5604658361501320 2.0477466345364528 39.5441367652556579 S
atom 2.5201552787158468 7.0880571919701278 39.5441367652555158 S
atom 7.5604658361502874 8.0328744803293954 39.5441367652557787 S
atom 2.5201552787163126 2.1672081724041026 44.5682094075557771 S
atom 7.5604658361497439 2.8731023850279938 44.5682094075556137 S
atom 2.5201552787163828 7.9134129424615551 44.5682094075555781 S
atom 7.5604658361496702 7.2075187298377239 44.5682094075555000 S
atom 2.5201552787162447 -0.0000000000007479 41.6094237086706045 S
atom 7.5604658361499126 -0.0000000000007767 42.4012813306634229 S
atom 2.5201552787161843 5.0403105574328473 42.4012813306633447 S
atom 7.5604658361498513 5.0403105574328597 41.6094237086705121 S
atom -0.0000000000006067 2.5201552787160342 41.9516038297962126 S
atom 5.0403105574330400 2.5201552787160235 41.9516038297958787 S
atom -0.0000000000005694 7.5604658361497039 41.9516038297962908 S
atom 5.0403105574330036 7.5604658361497110 41.9516038297957152 S
atom 2.5201552787161146 2.6727508893914615 47.6435079226159388 Ba
atom 7.5604658361497634 2.3675596680401845 47.6435079226159601 Ba
atom 2.5201552787161119 7.4078702254740678 47.6435079226160170 Ba
atom 7.5604658361497723 7.7130614468250078 47.6435079226160241 Ba
atom 2.5201552787161088 2.4926996516884605 52.3108908403671506 Ba
atom 7.5604658361497385 2.5476109057430101 52.3108908403671506 Ba
atom 2.5201552787160644 7.5879214631770875 52.3108908403672501 Ba
atom 7.5604658361497687 7.5330102091218221 52.3108908403671933 Ba
atom 5.0527316404462352 5.0403105574326581 49.6859118309934900 Zr
atom 10.0682000318532889 5.0403105574326528 49.6859118309935823 Zr
atom 5.0278894744195988 10.0806211148663358 49.6859118309936605 Zr
atom 10.0930421978799210 10.0806211148663269 49.6859118309937102 Zr
atom 5.0415608344314915 5.0403105574326261 54.6983378502633855 Zr
atom 10.0793708378679838 5.0403105574326039 54.6983378502632931 Zr
atom 5.0390602804343336 10.0806211148662737 54.6983378502633286 Zr
atom 10.0818713918651373 10.0806211148662950 54.6983378502633641 Zr
atom 4.6873634511209827 5.0403105574328446 47.2043784218522759 S
atom 10.4335682211785556 5.0403105574329050 47.2043784218524323 S
atom 5.3932576637448220 10.0806211148661919 47.2043784218524110 S
atom 9.7276740085547502 10.0806211148661440 47.2043784218524323 S
atom 5.5127192016125361 5.0403105574323304 52.2284510641525799 S
atom 9.6082124706869187 5.0403105574322771 52.2284510641524662 S
atom 4.5679019132533600 10.0806211148666041 52.2284510641524662 S
atom 10.5530297590462041 10.0806211148666574 52.2284510641524662 S
atom 5.0403105574329334 2.5201552787158530 49.8209839996119968 S
atom 10.0806211148665792 2.5201552787158521 49.8209839996119044 S
atom 5.0403105574329281 7.5604658361494659 49.8209839996124444 S
atom 10.0806211148665827 7.5604658361494606 49.8209839996124728 S
atom 5.0403105574331013 2.5201552787157495 54.7162003941737467 S
atom 10.0806211148664122 2.5201552787157606 54.7162003941736756 S
atom 5.0403105574327398 7.5604658361494979 54.7162003941729083 S
atom 10.0806211148667728 7.5604658361494890 54.7162003941728941 S
atom 2.5201552787161470 5.0403105574326599 50.1631641207377115 S
atom 7.5604658361497332 5.0403105574326617 49.3713064987447936 S
atom 2.5201552787160959 10.0806211148663287 49.3713064987449357 S
atom 7.5604658361497599 10.0806211148662968 50.1631641207376830 S
atom 2.5201552787160590 5.0403105574325169 54.2422636164160750 S
atom 7.5604658361497670 5.0403105574327753 55.1779716785650720 S
atom 2.5201552787160386 10.0806211148664655 55.1779716785650791 S
atom 7.5604658361497767 10.0806211148661653 54.2422636164160679 S
atom 2.5201552787160693 2.5275618463522878 57.2051152708627768 Ba
atom 7.5604658361496977 2.5127487110792752 57.2051152708625281 Ba
atom 2.5201552787160191 7.5530592685133273 57.2051152708625139 Ba
atom 7.5604658361497448 7.5678724037854703 57.2051152708628408 Ba
atom 2.5201552787159049 2.5132940797314300 62.1454876528412470 Ba
atom 7.5604658361497812 2.5270164777002297 62.1454876528413820 Ba
atom 2.5201552787161732 7.5673270351342419 62.1454876528414530 Ba
atom 7.5604658361495609 7.5536046371645194 62.1454876528413109 Ba
atom 5.0386908251843430 5.0403105574325746 59.6575493681416518 Zr
atom 10.0822408471150489 5.0403105574326004 59.6575493681415807 Zr
atom 5.0419302896813765 10.0806211148662825 59.6575493681416376 Zr
atom 10.0790013826180100 10.0806211148662292 59.6575493681415381 Zr
atom 5.0406530282407127 5.0403105574326093 64.6142139235322048 Zr
atom 10.0802786440586107 5.0403105574325933 64.6142139235321196 Zr
atom 5.0399680866249357 10.0806211148662523 64.6142139235321338 Zr
atom 10.0809635856744020 10.0806211148662808 64.6142139235320911 Zr
atom 4.5328655457897664 5.0403105574330898 57.1851085270024484 S
atom 10.5880661265096681 5.0403105574329627 57.1851085270023916 S
atom 5.5477555690760632 10.0806211148657834 57.1851085270024200 S
atom 9.5731761032233766 10.0806211148658935 57.1851085270023916 S
atom 5.5495694934120658 5.0403105574319138 62.1385331359287107 S
atom 9.5713621788873322 5.0403105574323153 62.1385331359287889 S
atom 4.5310516214535346 10.0806211148669291 62.1385331359287960 S
atom 10.5898800508458297 10.0806211148664993 62.1385331359285900 S
atom 5.0403105574326341 2.5201552787157504 59.6661065406373581 S
atom 10.0806211148667710 2.5201552787157828 59.6661065406375712 S
atom 5.0403105574330942 7.5604658361494286 59.6661065406386015 S
atom 10.0806211148663021 7.5604658361493779 59.6661065406382676 S
atom 5.0403105574329556 2.5201552787157886 64.6165253302969376 S
atom 10.0806211148663891 2.5201552787157109 64.6165253302963691 S
atom 5.0403105574327478 7.5604658361493922 64.6165253302952607 S
atom 10.0806211148665916 7.5604658361494748 64.6165253302959997 S
atom 2.5201552787160200 5.0403105574327940 60.1459810853192067 S
atom 7.5604658361497084 5.0403105574323552 59.1868994477132304 S
atom 2.5201552787160613 10.0806211148660942 59.1868994477131665 S
atom 7.5604658361496959 10.0806211148663820 60.1459810853192778 S
atom 2.5201552787160706 5.0403105574325018 64.1356648417195032 S
atom 7.5604658361496337 5.0403105574326643 65.0980025363982406 S
atom 2.5201552787159391 10.0806211148663269 65.0980025363981696 S
atom 7.5604658361497945 10.0806211148661777 64.1356648417194180 S
atom 2.5201552787162194 2.5260656817040972 67.0935908619139241 Ba
atom 7.5604658361495014 2.5142448757275626 67.0935908619138672 Ba
atom 2.5201552787158206 7.5545554331616609 67.0935908619139667 Ba
atom 7.5604658361498647 7.5663762391372034 67.0935908619138388 Ba
atom 2.5201552787159280 2.5142448757278455 72.0454939117013851 Ba
atom 7.5604658361497963 2.5260656817035430 72.0454939117015414 Ba
atom 2.5201552787162074 7.5663762391375835 72.0454939117011861 Ba
atom 7.5604658361494561 7.5545554331611937 72.0454939117015556 Ba
atom 5.0403105574328659 5.0403105574325675 69.5695423868074414 Zr
atom 10.0806211148665419 5.0403105574325613 69.5695423868074982 Zr
atom 5.0403105574328952 10.0806211148662328 69.5695423868073277 Zr
atom 10.0806211148664708 10.0806211148662577 69.5695423868076261 Zr
atom 5.0399680866249934 5.0403105574325018 74.5248708500824506 Zr
atom 10.0809635856744304 5.0403105574325515 74.5248708500826780 Zr
atom 5.0406530282406816 10.0806211148662062 74.5248708500826638 Zr
atom 10.0802786440586658 10.0806211148661564 74.5248708500825217 Zr
atom 4.5299431866052373 5.0403105574333820 67.0926036200191049 S
atom 10.5909884856941172 5.0403105574327300 67.0926036200189060 S
atom 5.5506779282605399 10.0806211148654317 67.0926036200187923 S
atom 9.5702537440388955 10.0806211148660729 67.0926036200192186 S
atom 5.5506779282604821 5.0403105574319200 72.0464811535958773 S
atom 9.5702537440387569 5.0403105574324165 72.0464811535958773 S
atom 4.5299431866052098 10.0806211148668030 72.0464811535959342 S
atom 10.5909884856942931 10.0806211148663412 72.0464811535959626 S
atom 5.0403105574330445 2.5201552787157149 69.5695423868067877 S
atom 10.0806211148663429 2.5201552787157739 69.5695423868076261 S
atom 5.0403105574326830 7.5604658361494153 69.5695423868084788 S
atom 10.0806211148667142 7.5604658361493629 69.5695423868077683 S
atom 5.0403105574326803 2.5201552787156531 74.5225594433194516 S
atom 10.0806211148667000 2.5201552787157202 74.5225594433191247 S
atom 5.0403105574330587 7.5604658361493904 74.5225594433184568 S
atom 10.0806211148663305 7.5604658361493353 74.5225594433185989 S
atom 2.5201552787159756 5.0403105574324085 70.0516235943834147 S
atom 7.5604658361496497 5.0403105574326688 69.0874611792316529 S
atom 2.5201552787160750 10.0806211148664566 69.0874611792316813 S
atom 7.5604658361495503 10.0806211148661102 70.0516235943834715 S
atom 2.5201552787159551 5.0403105574327078 74.0410822372167416 S
atom 7.5604658361497918 5.0403105574324494 75.0034199318955501 S
atom 2.5201552787160169 10.0806211148659575 75.0034199318954649 S
atom 7.5604658361496888 10.0806211148663056 74.0410822372168411 S
atom 2.5201552787159822 2.5270164777002728 76.9935971207733729 Ba
atom 7.5604658361497314 2.5132940797309509 76.9935971207734013 Ba
atom 2.5201552787159351 7.5536046371648391 76.9935971207737424 Ba
atom 7.5604658361497989 7.5673270351339275 76.9935971207733587 Ba
atom 2.5201552787160968 2.5127487110794782 81.9339695027518218 Ba
atom 7.5604658361496249 2.5275618463520519 81.9339695027515091 Ba
atom 2.5201552787159942 7.5678724037857670 81.9339695027516086 Ba
atom 7.5604658361497554 7.5530592685130822 81.9339695027519781 Ba
atom 5.0419302896814031 5.0403105574325462 79.4815354054729823 Zr
atom 10.0790013826180171 5.0403105574325009 79.4815354054729255 Zr
atom 5.0386908251843510 10.0806211148661902 79.4815354054729397 Zr
atom 10.0822408471150045 10.0806211148662186 79.4815354054729539 Zr
atom 5.0390602804342786 5.0403105574325915 84.4407469233508721 Zr
atom 10.0818713918651124 5.0403105574325853 84.4407469233505310 Zr
atom 5.0415608344314125 10.0806211148662612 84.4407469233507442 Zr
atom 10.0793708378679963 10.0806211148662417 84.4407469233507584 Zr
atom 4.5310516214533640 5.0403105574327443 77.0005516376858736 S
atom 10.5898800508459310 5.0403105574326288 77.0005516376862289 S
atom 5.5495694934122968 10.0806211148659681 77.0005516376862005 S
atom 9.5713621788872079 10.0806211148660854 77.0005516376860442 S
atom 5.5477555690762133 5.0403105574325755 81.9539762466121999 S
atom 9.5731761032231848 5.0403105574324263 81.9539762466117594 S
atom 4.5328655457895248 10.0806211148662346 81.9539762466118304 S
atom 10.5880661265099167 10.0806211148663554 81.9539762466120862 S
atom 5.0403105574329574 2.5201552787157264 79.4729782329764447 S
atom 10.0806211148664584 2.5201552787156087 79.4729782329764305 S
atom 5.0403105574327753 7.5604658361493424 79.4729782329767005 S
atom 10.0806211148666236 7.5604658361494455 79.4729782329766863 S
atom 5.0403105574325817 2.5201552787157802 84.4228843794406600 S
atom 10.0806211148668172 2.5201552787157997 84.4228843794409300 S
atom 5.0403105574331422 7.5604658361494215 84.4228843794406316 S
atom 10.0806211148662506 7.5604658361493806 84.4228843794405179 S
atom 2.5201552787160750 5.0403105574324885 79.9521853259013113 S
atom 7.5604658361495671 5.0403105574325089 78.9931036882950082 S
atom 2.5201552787159529 10.0806211148662843 78.9931036882952355 S
atom 7.5604658361496959 10.0806211148661120 79.9521853259013540 S
atom 2.5201552787159942 5.0403105574328224 83.9611130950489013 S
atom 7.5604658361498052 5.0403105574323632 84.8968211571979765 S
atom 2.5201552787161230 10.0806211148660569 84.8968211571980760 S
atom 7.5604658361496648 10.0806211148665490 83.9611130950488729 S
atom 2.5201552787160670 2.5476109057433622 86.8281939332464248 Ba
atom 7.5604658361497448 2.4926996516881808 86.8281939332465953 Ba
atom 2.5201552787161394 7.5330102091218398 86.8281939332467658 Ba
atom 7.5604658361496302 7.5879214631768157 86.8281939332463679 Ba
atom 2.5201552787160608 2.3675596680401489 91.4955768509966418 Ba
atom 7.5604658361497963 2.6727508893915832 91.4955768509965850 Ba
atom 2.5201552787160915 7.7130614468252308 91.4955768509966134 Ba
atom 7.5604658361497918 7.4078702254737427 91.4955768509966134 Ba
atom 5.0278894744195659 5.0403105574326315 89.4531729426196023 Zr
atom 10.0930421978799369 5.0403105574326359 89.4531729426195881 Zr
atom 5.0527316404462796 10.0806211148663216 89.4531729426197302 Zr
atom 10.0682000318531983 10.0806211148663110 89.4531729426196449 Zr
atom 4.5679019132530874 5.0403105574326243 86.9106337094611376 S
atom 10.5530297590464173 5.0403105574328180 86.9106337094612087 S
atom 5.5127192016128035 10.0806211148663039 86.9106337094612513 S
atom 9.6082124706865830 10.0806211148660694 86.9106337094610666 S
atom 5.3932576637450627 5.0403105574326572 91.9347063517603829 S
atom 9.7276740085545708 5.0403105574325417 91.9347063517604113 S
atom 4.6873634511207563 10.0806211148663518 91.9347063517605534 S
atom 10.4335682211787013 10.0806211148664531 91.9347063517605676 S
atom 5.0403105574329068 2.5201552787158006 89.3181007740010529 S
atom 10.0806211148665934 2.5201552787158068 89.3181007740007402 S
atom 5.0403105574329583 7.5604658361494881 89.3181007740010671 S
atom 10.0806211148665668 7.5604658361494756 89.3181007740011808 S
atom 2.5201552787160821 5.0403105574326856 89.7677782748686610 S
atom 7.5604658361497243 5.0403105574326208 88.9759206528756863 S
atom 2.5201552787160764 10.0806211148662985 88.9759206528756579 S
atom 7.5604658361497608 10.0806211148663145 89.7677782748686610 S
