#=======================================================
# FHI-aims file: full_relax/full_relax_RP_3_Rx0Mz_0RyMz.in
# Created using the Atomic Simulation Environment (ASE)
# Fri Mar 14 11:19:40 2025
#=======================================================
lattice_vector 10.1029652737818942 -0.0000057621584655 -0.0000064616110447 
lattice_vector -0.0000057621584571 10.1029652735074027 0.0000064613033877 
lattice_vector -0.0000089247137026 0.0000089235706948 35.2420324165927497 
atom -0.1572480018917607 -0.0000002973080683 0.2857341018471474 Ba
atom 5.2087370193178915 0.0000047683143467 0.2857203142894876 Ba
atom 0.1572514837409332 5.0514903754046934 0.2857270902054818 Ba
atom 4.8942318046227831 5.0514795442967655 0.2857340154794377 Ba
atom 0.0302295280236219 0.0000225192642015 4.9296779588140067 Ba
atom 5.0212952510052382 -0.0000371662219567 4.9296884803524712 Ba
atom -0.0301901690966263 5.0514482433742067 4.9296949104176440 Ba
atom 5.0817091849303457 5.0515021729111904 4.9296779349881064 Ba
atom 2.5257540788887534 2.5117198919896642 2.3305955505911933 Zr
atom 7.5772312174817360 2.5397868478309502 2.3305931714751749 Zr
atom 2.5257455570774887 7.5912720378488219 2.3305994408260027 Zr
atom 7.5772338701991524 7.5631994616492655 2.3305949545149569 Zr
atom 2.5257379860785831 2.5257412101078285 7.3420899044357206 Zr
atom 7.5772206514126950 2.5257391509225751 7.3420871962622307 Zr
atom 2.5257350181129263 7.5772248387948240 7.3420929785774165 Zr
atom 7.5772178040706430 7.5772210388339349 7.3420902371168149 Zr
atom 2.5257387763641521 2.8840008024969990 -0.1508087205429002 S
atom 7.5772097152806008 2.1674671679996789 -0.1508073534426674 S
atom 2.5257241472802221 7.2189526534128241 -0.1508003606943260 S
atom 7.5772185528310070 7.9354805311602306 -0.1508082213878988 S
atom 2.5257562974329821 2.0518555479063396 4.8654110555357573 S
atom 7.5772317154808961 2.9996683969548532 4.8654093090421693 S
atom 2.5257461821364515 8.0511538401395271 4.8654160200593344 S
atom 7.5772360110185168 7.1033353356729521 4.8654108773782729 S
atom 2.5257519296461584 0.0000101580184468 2.0083607532460666 S
atom 7.5772389633247519 0.0000072511232637 2.7993116406820877 S
atom 2.5257534735278613 5.0514932958059271 2.7993179996082258 S
atom 7.5772316951868612 5.0514902925005787 2.0083608183190162 S
atom 2.5256633326052254 -0.0000013086930914 7.7937814833221593 S
atom 7.5772981855090427 -0.0000008018726265 6.8903923074404378 S
atom 2.5258126870054607 5.0514850208921862 6.8903987219901452 S
atom 7.5771430700763140 5.0514788483320689 7.7937815248480957 S
atom 0.0000084379313915 2.5257491328052271 2.4579705528391163 S
atom 5.0514914633311347 2.5257496426710930 2.4579490887253188 S
atom 0.0000063343285931 7.5772351841552155 2.4579555434192328 S
atom 5.0514880346773623 7.5772289102656183 2.4579705686833311 S
atom -0.0000043987684315 2.5258259623484260 7.3421022905154407 S
atom 5.0514805164115870 2.5256574030423722 7.3420780307593692 S
atom -0.0000049022156453 7.5771429365231153 7.3420844392396196 S
atom 5.0514753747940331 7.5773057331863161 7.3421022425402374 S
atom -0.0302331281271547 -0.0000186777594554 9.7545022193208588 Ba
atom 5.0816661933078011 0.0000352555563872 9.7544852301333194 Ba
atom 0.0301805773789693 5.0515206247435218 9.7544916792764287 Ba
atom 5.0212467172827475 5.0514609308999736 9.7545022133320796 Ba
atom 0.1572442282444996 0.0000040356794931 14.3984461006828894 Ba
atom 4.8942246359180333 -0.0000068187851576 14.3984534232667869 Ba
atom -0.1572608354489044 5.0514786093536976 14.3984598711072831 Ba
atom 5.2087238848233328 5.0514836995478483 14.3984461562782045 Ba
atom 2.5257217343971554 2.5397641199582401 12.3535854511271399 Zr
atom 7.5772101236025335 2.5116906430143904 12.3535808249823535 Zr
atom 2.5257245748007029 7.5631760369574232 12.3535876298632221 Zr
atom 7.5772016064475114 7.5912439513958523 12.3535853324015310 Zr
atom 2.5257197105759968 2.9996279681315348 9.8187689473729129 S
atom 7.5772095334239182 2.0518092753403909 9.8187636151258566 S
atom 2.5257240442966977 7.1032947663977888 9.8187708513755698 S
atom 7.5771994506233451 8.0511076505675803 9.8187689812817602 S
atom 2.5257371780658193 2.1674826424546123 14.8349884489097885 S
atom 7.5772316632863701 2.8840106575014506 14.8349806813389957 S
atom 2.5257460293906244 7.9354960667664072 14.8349870163829802 S
atom 7.5772170741277378 7.2189624397174432 14.8349883014800721 S
atom 2.5257225702042243 -0.0000097872279374 11.8848620141728176 S
atom 7.5772095248912894 -0.0000128414085600 12.6758129366653236 S
atom 2.5257239890777665 5.0514734457195249 12.6758192994795067 S
atom 7.5772023363733894 5.0514702927988546 11.8848621346216508 S
atom -0.0000156435604598 2.5257339034951474 12.2262311130788763 S
atom 5.0514682074271988 2.5257343129761889 12.2262096002796543 S
atom -0.0000178572700412 7.5772198074300459 12.2262160495820229 S
atom 5.0514644742211496 7.5772136349473458 12.2262310274869304 S
atom 2.5257359135656241 2.6829924967490837 17.9067499894933277 Ba
atom 7.5772102572083027 2.3684868031762023 17.9067363495582548 Ba
atom 2.5257252104877499 7.4199724099851991 17.9067426324791406 Ba
atom 7.5772152128477019 7.7344723915687741 17.9067498737352899 Ba
atom 2.5257129668866201 2.4955150745057746 22.5506943179474781 Ba
atom 7.5772523548990884 2.5559284315999267 22.5507049546111702 Ba
atom 2.5257670421103553 7.6074141145269172 22.5507113361987557 Ba
atom 7.5771924984657684 7.5469949794025837 22.5506944847366704 Ba
atom 5.0654948647073725 5.0514698475821138 19.9516098071137229 Zr
atom 10.0889084762153693 5.0514716872816106 19.9516091464877441 Zr
atom 5.0374231219269019 10.1029586479847424 19.9516148871806216 Zr
atom 10.1169745270123741 10.1029505893102609 19.9516102845907604 Zr
atom 5.0514737931263243 5.0514859066159739 24.9631054181504553 Zr
atom 10.1029563857987696 5.0514823555349544 24.9631040077928787 Zr
atom 5.0514717661124173 10.1029686543186212 24.9631093573349645 Zr
atom 10.1029524894113436 10.1029664027234336 24.9631054565052501 Zr
atom 4.6932144765432700 5.0514854036967147 17.4702098477933063 S
atom 10.4612276010225820 5.0514942509391432 17.4702092435104248 S
atom 5.4097421412068725 10.1029796807183487 17.4702166931077691 S
atom 9.7446943140952147 10.1029649433947437 17.4702095524750618 S
atom 5.5253597818984117 5.0514678543905802 22.4864270956071088 S
atom 9.6290264918613566 5.0514721901039046 22.4864236751830475 S
atom 4.5775407763922624 10.1029576230626486 22.4864305509426536 S
atom 10.5768395502102521 10.1029473489075787 22.4864266101481434 S
atom 5.0514654683141655 2.5257323156352856 20.0789653255625034 S
atom 10.1029514592004102 2.5257302284549237 20.0789804361071198 S
atom 5.0514659304640919 7.5772152546646989 20.0789868097482476 S
atom 10.1029452427230861 7.5772125636850074 20.0789654766760250 S
atom 5.0515578291713430 2.5257440975759584 24.9630941898411329 S
atom 10.1028749629336652 2.5257433436356314 24.9631119397210099 S
atom 5.0513892700992278 7.5772285617362503 24.9631184397902537 S
atom 10.1030377612582960 7.5772236423313997 24.9630941193646869 S
atom 2.5257215535879576 5.0514707941536283 20.4203343049053956 S
atom 7.5772053109059696 5.0514722618917451 19.6293772393982735 S
atom 2.5257188127703722 10.1029575615936285 19.6293836573539942 S
atom 7.5772028000230334 10.1029503260665816 20.4203342059105388 S
atom 2.5257299806871449 5.0514114050649139 24.5114147036650323 S
atom 7.5772160474387658 5.0515607260745137 25.4147977723610623 S
atom 2.5257303245496803 10.1030461389893311 25.4148043771807721 S
atom 7.5772097886268579 10.1028909930824593 24.5114148458862928 S
atom 2.5257540764630129 2.5559775104681117 27.3755181041587079 Ba
atom 7.5771800426333451 2.4955580498630883 27.3755009407529961 Ba
atom 2.5256944820351079 7.5470433937088721 27.3755078188330891 Ba
atom 7.5772338762458515 7.6074570919872251 27.3755181805563339 Ba
atom 2.5257316662720819 2.3684996731242309 32.0194628011838489 Ba
atom 7.5772219449310292 2.6829996857619665 32.0194700482371104 Ba
atom 2.5257367666454660 7.7344854290309772 32.0194762451088550 Ba
atom 7.5772110812345437 7.4199797122022497 32.0194626234086357 Ba
atom 5.0374517842738449 5.0515030599229060 29.9746015461749238 Zr
atom 10.1170036992427477 5.0514943998499868 29.9745975473902710 Zr
atom 5.0655176254204255 10.1029783803238882 29.9746052776323566 Zr
atom 10.0889317558051985 10.1029812491831770 29.9746016348961639 Zr
atom 4.5775871453527444 5.0515042593021322 27.4397877283237897 S
atom 10.5768856913413334 5.0514942194217944 27.4397811649656234 S
atom 5.5254002950094678 10.1029798082991391 27.4397872406602517 S
atom 9.6290670436835750 10.1029840675622413 27.4397881341165970 S
atom 5.4097324467129813 5.0514867356915394 32.4560043519829691 S
atom 9.7446845519263601 5.0514721340232320 32.4559949095018752 S
atom 4.6931989922862840 10.1029578641967728 32.4560013812003874 S
atom 10.4612120622778182 10.1029666957402000 32.4560036741340099 S
atom 5.0514808544883767 2.5257565072037931 29.8472256447765254 S
atom 10.1029667877366887 2.5257544981983533 29.8472407771911179 S
atom 5.0514813143764012 7.5772394603512954 29.8472471512256448 S
atom 10.1029605652583712 7.5772357684072524 29.8472257751604850 S
atom 2.5257407857144893 5.0514998902077632 30.2968353342178141 S
atom 7.5772258020182797 5.0515013752736753 29.5058783969417959 S
atom 2.5257386470793617 10.1029871594711480 29.5058847633627259 S
atom 7.5772221977285490 10.1029799389881969 30.2968353316589969 S
