#=======================================================
# FHI-aims file: full_relax/full_relax_RP_2_RxRyRz_RxRy-Rz.in
# Created using the Atomic Simulation Environment (ASE)
# Fri Mar 14 11:18:20 2025
#=======================================================
lattice_vector 10.0883598091274109 0.1463207915482375 0.0000000000026523 
lattice_vector 0.1463207915482438 10.0883598091281339 -0.0000000000006338 
lattice_vector 0.0000000000070927 -0.0000000000016008 25.4319656737248216 
atom -0.0908671761002571 -0.0909260376152061 0.2763049501623371 Ba
atom 5.1351059420949134 0.1640275717708930 0.2763049500623786 Ba
atom 0.1640864333573120 5.1350470809186799 0.2763049495886846 Ba
atom 5.0264731241500451 5.0264142629951207 0.2763049497920243 Ba
atom 0.0274634071855040 0.0274634075880264 4.8907626298947404 Ba
atom 5.0167164973819682 0.0456969882366467 4.8907626299367832 Ba
atom 0.0456969878755320 5.0167164969142473 4.8907626299089690 Ba
atom 5.1448037081349982 5.1448037079102793 4.8907626299118512 Ba
atom 2.5545683740731087 2.5545098292050783 2.3530729457613173 Zr
atom 7.6070103764513419 2.6359323230645604 2.3530729457574879 Zr
atom 2.6359908677254968 7.6069518314617959 2.3530729447047385 Zr
atom 7.6719086733134079 7.6718501291333263 2.3530729456861517 Zr
atom 2.5545098287397092 2.5545683742798051 7.4284523144991654 Zr
atom 7.6069518314356408 2.6359908677048471 7.4284523128054323 Zr
atom 2.6359323232052150 7.6070103761403045 7.4284523130313085 Zr
atom 7.6718501287204619 7.6719086741302132 7.4284523129853177 Zr
atom 2.7923976407155497 2.7924386909559034 -0.1389036874575677 S
atom 7.3690815139512136 2.3981030556361720 -0.1389036854285271 S
atom 2.3980620052694857 7.3691225646049050 -0.1389036864357281 S
atom 7.9097379407089594 7.9097789914556254 -0.1389036844679607 S
atom 2.2828031446336956 2.2828031446871271 4.8907626278704512 S
atom 7.8787170605101444 2.9076975517401507 4.8907626308027279 S
atom 2.9076975513951240 7.8787170605777126 4.8907626287371189 S
atom 7.4001434450478998 7.4001434451637023 4.8907626257843884 S
atom 2.5221467042483576 0.0365637278048623 2.1965652632261308 S
atom 7.5662477497287925 0.1097243119129923 2.7015038602786037 S
atom 2.5952282409471681 5.0807438193609515 2.7015038609663726 S
atom 7.6394870046140770 5.1539040269708840 2.1965652627970087 S
atom 2.5220332002946853 0.0365966677040845 7.5849599956786760 S
atom 7.5662919640281698 0.1097568736220534 7.0800213981444857 S
atom 2.5952724550708450 5.0807763831149648 7.0800213976957105 S
atom 7.6393735008588211 5.1539369687854384 7.5849599961150842 S
atom 0.0365966666279628 2.5220332003307422 2.1965652628334622 S
atom 5.0807763836629958 2.5952724552546140 2.7015038604278052 S
atom 0.1097568765800662 7.5662919641609232 2.7015038608770254 S
atom 5.1539369672514290 7.6393735010267507 2.1965652631464869 S
atom 0.0365637281588759 2.5221467043067189 7.5849599957624472 S
atom 5.0807438209495297 2.5952282411386616 7.0800213978360906 S
atom 0.1097243120633231 7.5662477499619190 7.0800213979165623 S
atom 5.1539040276771786 7.6394870048427723 7.5849599960685525 S
atom -0.0909260374123634 -0.0908671758841738 9.5052203089550904 Ba
atom 5.1350470806642203 0.1640864333456684 9.5052203090211336 Ba
atom 0.1640275719575360 5.1351059417952687 9.5052203093935237 Ba
atom 5.0264142626672621 5.0264731239951583 9.5052203094230556 Ba
atom 2.7924386908441448 2.7923976406215263 9.9204289476207741 S
atom 7.3691225644543010 2.3980620052061661 9.9204289464831685 S
atom 2.3981030554600480 7.3690815139548400 9.9204289494738234 S
atom 7.9097789914463519 7.9097379407499018 9.9204289478109580 S
atom 2.4677441128485116 2.4678029738161191 12.9922877839957902 Ba
atom 7.6937172304938555 2.7227565832555261 12.9922877851400695 Ba
atom 2.7226977226033173 7.6937760923730645 12.9922877840023396 Ba
atom 7.5850844124956822 7.5851432743393987 12.9922877846746871 Ba
atom 2.5861335580729534 2.5861335578222397 17.6067454661677338 Ba
atom 7.5753866467234969 2.6043671377513502 17.6067454661395644 Ba
atom 2.6043671380993394 7.5753866470882905 17.6067454662636962 Ba
atom 7.7034738582760225 7.7034738585237932 17.6067454663004028 Ba
atom 5.1131799792704751 5.1132385245867296 15.0690557820097979 Zr
atom 10.1656219808418840 5.1946610177109473 15.0690557850423943 Zr
atom 5.1946024738907521 10.1656805260830794 15.0690557841141555 Zr
atom 10.2305202787765417 10.2305788238930955 15.0690557847185431 Zr
atom 5.1132385232015398 5.1131799793402637 20.1444351483707251 Zr
atom 10.1656805264967502 5.1946024743830019 20.1444351478983528 Zr
atom 5.1946610179061805 10.1656219817928051 20.1444351453122685 Zr
atom 10.2305788246269831 10.2305202785695428 20.1444351491373510 Zr
atom 5.3511088413017900 5.3510677909243451 12.5770791524177241 S
atom 9.9277927143300673 4.9567321550893357 12.5770791494513468 S
atom 4.9567732054442928 9.9277516637878538 12.5770791536331483 S
atom 10.4684491420364001 10.4684080914125683 12.5770791523931127 S
atom 4.8414732946528529 4.8414732949091634 17.6067454726940262 S
atom 10.4373872101290068 5.4663677015282959 17.6067454726418404 S
atom 5.4663677017117296 10.4373872105974907 17.6067454657746438 S
atom 9.9588135956035160 9.9588135955256387 17.6067454637981768 S
atom 5.0807033506388910 2.5952668201830829 14.9125480990789718 S
atom 10.1249621140191426 2.6684270257866407 15.4174866967386510 S
atom 5.1539426051724000 7.6394465313367332 15.4174866963190240 S
atom 10.1980436509453352 7.7126071178219551 14.9125480995497366 S
atom 5.0808168542301315 2.5952338749640926 20.3009428329819208 S
atom 10.1249179001835135 2.6683944611423160 19.7960042362051603 S
atom 5.1538983910408129 7.6394139730899644 19.7960042360787121 S
atom 10.1981571547130088 7.7125741778668182 20.3009428332894366 S
atom 2.5952338774621331 5.0808168544299610 14.9125480986461199 S
atom 7.6394139731368940 5.1538983912101681 15.4174866962251027 S
atom 2.6683944632500465 10.1249178999598328 15.4174866969075044 S
atom 7.7125741756677826 10.1981571548712129 14.9125480999267293 S
atom 2.5952668192802610 5.0807033505338000 20.3009428321411782 S
atom 7.6394465340565718 5.1539426053362671 19.7960042353929460 S
atom 2.6684270236844707 10.1249621144494029 19.7960042368707327 S
atom 7.7126071189898724 10.1980436511507708 20.3009428342032194 S
atom 2.4678029738470078 2.4677441130027371 22.2212031481409156 Ba
atom 7.6937760924573020 2.7226977223862256 22.2212031475745277 Ba
atom 2.7227565828708724 7.6937172303975041 22.2212031480534939 Ba
atom 7.5851432747135012 7.5850844126925576 22.2212031470116287 Ba
atom 5.3510677908090161 5.3511088414926196 22.6364117801953668 S
atom 9.9277516637691665 4.9567732053928628 22.6364117801723559 S
atom 4.9567321551164909 9.9277927144839389 22.6364117827881479 S
atom 10.4684080913172899 10.4684491418569969 22.6364117788196566 S
