#=======================================================
# FHI-aims file: full_relax/full_relax_RP_6_00Rz_000.in
# Created using the Atomic Simulation Environment (ASE)
# Fri Mar 14 11:39:00 2025
#=======================================================
lattice_vector 10.0057548958948992 -0.0000000000000000 -0.0000000000000966 
lattice_vector -0.0000000000000000 10.0057548958948992 -0.0000000000000551 
lattice_vector -0.0000000000006357 -0.0000000000003626 66.2552760097178606 
atom 0.0000000000426935 -0.0000000000068113 0.1762410272599485 Ba
atom 5.0028774479180287 -0.0000000000108021 0.1762410272608421 Ba
atom -0.0000000000060767 5.0028774479499480 0.1762410272604904 Ba
atom 5.0028774479735487 5.0028774479586051 0.1762410272604863 Ba
atom -0.0000000000369193 -0.0000000000026558 4.9351276000147362 Ba
atom 5.0028774479544103 -0.0000000000039280 4.9351276000146642 Ba
atom 0.0000000000107402 5.0028774479454334 4.9351276000147459 Ba
atom 5.0028774479089648 5.0028774479481832 4.9351276000147024 Ba
atom 2.5014387239805198 2.5014387239597027 2.3129772099225150 Zr
atom 7.5043161719213627 2.5014387239879565 2.3129772099280719 Zr
atom 2.5014387239739784 7.5043161719350939 2.3129772099174066 Zr
atom 7.5043161719279157 7.5043161719069280 2.3129772099228210 Zr
atom 2.5014387239712121 2.5014387239744518 7.4285709529945585 Zr
atom 7.5043161719186244 2.5014387239719347 7.4285709529962567 Zr
atom 2.5014387239712215 7.5043161719192666 7.4285709529921222 Zr
atom 7.5043161719187346 7.5043161719218432 7.4285709529935744 Zr
atom 2.5014387239950460 2.5014387238117433 -0.1968654698429252 S
atom 7.5043161718919915 2.5014387241359475 -0.1968654698453902 S
atom 2.5014387239444389 7.5043161720831550 -0.1968654698402779 S
atom 7.5043161719426195 7.5043161717589850 -0.1968654698428075 S
atom 2.5014387239786955 2.5014387240243479 4.9158119797938893 S
atom 7.5043161719294060 2.5014387239238727 4.9158119797947943 S
atom 2.5014387239821110 7.5043161718713760 4.9158119797956168 S
atom 7.5043161719260514 7.5043161719719080 4.9158119797954276 S
atom 2.2247481709760102 -0.0000000000000223 2.4373983242370536 S
atom 7.7810067248961587 0.0000000000003073 2.4373983240612764 S
atom 2.7781292769467667 5.0028774479471148 2.4373983240640849 S
atom 7.2276256189213894 5.0028774479466760 2.4373983242341795 S
atom 3.0098395719753066 0.0000000000004529 7.4520559342485297 S
atom 6.9959153239135734 0.0000000000000158 7.4520559342850827 S
atom 1.9930378759664782 5.0028774479470544 7.4520559342868333 S
atom 8.0127170199230004 5.0028774479474434 7.4520559342466912 S
atom 0.0000000000004300 2.7781292769576229 2.4373983241398123 S
atom 5.0028774479495546 2.2247481709831320 2.4373983241570265 S
atom 0.0000000000003092 7.2276256189320938 2.4373983241583952 S
atom 5.0028774479497526 7.7810067249035049 2.4373983241411619 S
atom 0.0000000000020440 1.9930378759686729 7.4520559342658297 S
atom 5.0028774479488485 3.0098395719780076 7.4520559342665766 S
atom 0.0000000000017615 8.0127170199252404 7.4520559342678387 S
atom 5.0028774479488147 6.9959153239163552 7.4520559342669799 S
atom -0.0000000000005180 0.0000000000007366 9.9909818175032115 Ba
atom 5.0028774479363012 -0.0000000000006747 9.9909818175031688 Ba
atom -0.0000000000114660 5.0028774479478448 9.9909818175031777 Ba
atom 5.0028774479455738 5.0028774479479159 9.9909818175031582 Ba
atom -0.0000000000014793 0.0000000000009816 15.0580172749345227 Ba
atom 5.0028774479460623 -0.0000000000003505 15.0580172749344499 Ba
atom -0.0000000000004783 5.0028774479476095 15.0580172749344818 Ba
atom 5.0028774479453118 5.0028774479490687 15.0580172749344463 Ba
atom 2.5014387239723619 2.5014387239733553 12.5146390898879503 Zr
atom 7.5043161719198679 2.5014387239733735 12.5146390898878028 Zr
atom 2.5014387239724796 7.5043161719206877 12.5146390898871633 Zr
atom 7.5043161719197071 7.5043161719205846 12.5146390898878224 Zr
atom 2.5014387239733193 2.5014387239737261 17.6013954599777804 Zr
atom 7.5043161719203129 2.5014387239740246 17.6013954599804912 Zr
atom 2.5014387239729210 7.5043161719211424 17.6013954599799760 Zr
atom 7.5043161719204017 7.5043161719212064 17.6013954599796918 Zr
atom 2.5014387239765505 2.5014387239637066 9.9842815215564382 S
atom 7.5043161719253222 2.5014387239820017 9.9842815215543208 S
atom 2.5014387239778295 7.5043161719295082 9.9842815215563565 S
atom 7.5043161719240716 7.5043161719111859 9.9842815215558094 S
atom 2.5014387239727789 2.5014387239729117 15.0580172749335812 S
atom 7.5043161719228184 2.5014387239714635 15.0580172749317800 S
atom 2.5014387239753306 7.5043161719188003 15.0580172749333485 S
atom 7.5043161719201033 7.5043161719203564 15.0580172749338974 S
atom 2.0007081650932963 0.0000000000002686 12.5258699773620936 S
atom 8.0050467307997728 0.0000000000000925 12.5258699773571429 S
atom 3.0021692828521576 5.0028774479470064 12.5258699773570612 S
atom 7.0035856130405936 5.0028774479474949 12.5258699773619941 S
atom 3.0021692828525826 -0.0000000000007493 17.5901645725084563 S
atom 7.0035856130407845 -0.0000000000003371 17.5901645725091207 S
atom 2.0007081650935503 5.0028774479473661 17.5901645725085558 S
atom 8.0050467308003057 5.0028774479459059 17.5901645725088507 S
atom 0.0000000000006209 3.0021692828527868 12.5258699773595232 S
atom 5.0028774479479940 2.0007081650936640 12.5258699773597204 S
atom 0.0000000000003299 7.0035856130412544 12.5258699773596991 S
atom 5.0028774479482827 8.0050467308001032 12.5258699773593207 S
atom 0.0000000000002399 2.0007081650938350 17.5901645725117319 S
atom 5.0028774479465365 3.0021692828532194 17.5901645725062679 S
atom 0.0000000000006998 8.0050467308005189 17.5901645725057563 S
atom 5.0028774479466378 7.0035856130414356 17.5901645725112097 S
atom 0.0000000000003965 -0.0000000000012465 20.1250527323648143 Ba
atom 5.0028774479468696 0.0000000000083614 20.1250527323647894 Ba
atom 0.0000000000000946 5.0028774479558793 20.1250527323648747 Ba
atom 5.0028774479479470 5.0028774479477445 20.1250527323648356 Ba
atom -0.0000000000007065 0.0000000000218253 25.1809069498518667 Ba
atom 5.0028774479582561 -0.0000000000100287 25.1809069498519840 Ba
atom 0.0000000000120311 5.0028774479410449 25.1809069498518490 Ba
atom 5.0028774479447220 5.0028774479710654 25.1809069498518525 Ba
atom 2.5014387239723002 2.5014387239745410 22.6874635968763343 Zr
atom 7.5043161719220102 2.5014387239741231 22.6874635968750518 Zr
atom 2.5014387239747897 7.5043161719209275 22.6874635968761211 Zr
atom 7.5043161719197826 7.5043161719221070 22.6874635968781071 Zr
atom 2.5014387239794553 2.5014387239632132 27.8030573399407253 Zr
atom 7.5043161719112561 2.5014387239780289 27.8030573399364087 Zr
atom 2.5014387239639744 7.5043161719254501 27.8030573399468217 Zr
atom 7.5043161719267779 7.5043161719104923 27.8030573399433649 Zr
atom 2.5014387239803266 2.5014387239694420 20.1317530283147583 S
atom 7.5043161719117570 2.5014387239711202 20.1317530283126978 S
atom 2.5014387239642972 7.5043161719182416 20.1317530283150639 S
atom 7.5043161719277620 7.5043161719170701 20.1317530283125024 S
atom 2.5014387239363187 2.5014387239824982 25.2002225700760434 S
atom 7.5043161719513014 2.5014387239554403 25.2002225700732900 S
atom 2.5014387240039744 7.5043161719029685 25.2002225700750309 S
atom 7.5043161718837821 7.5043161719303448 25.2002225700698865 S
atom 1.9930378759689380 -0.0000000000001213 22.6639786156035221 S
atom 8.0127170199255193 -0.0000000000003712 22.6639786155983209 S
atom 3.0098395719777518 5.0028774479468279 22.6639786155964487 S
atom 6.9959153239161767 5.0028774479450488 22.6639786156057603 S
atom 2.7781292769648602 -0.0000000000012440 27.6786362256877858 S
atom 7.2276256189405466 -0.0000000000010200 27.6786362257514611 S
atom 2.2247481709943453 5.0028774479453739 27.6786362257491376 S
atom 7.7810067249133645 5.0028774479454752 27.6786362256893703 S
atom -0.0000000000008047 3.0098395719793261 22.6639786155873963 S
atom 5.0028774479468705 1.9930378759700171 22.6639786156159921 S
atom -0.0000000000004822 6.9959153239177363 22.6639786156147665 S
atom 5.0028774479463287 8.0127170199265958 22.6639786155859966 S
atom -0.0000000000023384 2.2247481709926893 27.6786362257741558 S
atom 5.0028774479475455 2.7781292769660482 27.6786362256667431 S
atom -0.0000000000028034 7.7810067249115855 27.6786362256646008 S
atom 5.0028774479480216 7.2276256189421222 27.6786362257719816 S
atom 0.0000000000065804 -0.0000000000339430 29.9397935226126464 Ba
atom 5.0028774479389018 -0.0000000000005320 29.9397935226123408 Ba
atom 0.0000000000005718 5.0028774479696985 29.9397935226128311 Ba
atom 5.0028774479416001 5.0028774479301381 29.9397935226130620 Ba
atom 2.5014387240687666 2.5014387239065514 30.3129000197086249 S
atom 7.5043161718251969 2.5014387240456633 30.3129000197106180 S
atom 2.5014387238777172 7.5043161719929028 30.3129000197071825 S
atom 7.5043161720162717 7.5043161718538149 30.3129000197063156 S
atom 2.5014387236787532 2.5014387242773441 33.4446486590733016 Ba
atom 7.5043161722156446 2.5014387236705269 33.4446486590567957 Ba
atom 2.5014387242680702 7.5043161716177860 33.4446486590983554 Ba
atom 7.5043161716263080 7.5043161722246063 33.4446486590821905 Ba
atom 2.5014387241154967 2.5014387238034037 38.2503791016887504 Ba
atom 7.5043161717776581 2.5014387241424636 38.2503791017342465 Ba
atom 2.5014387238300060 7.5043161720900100 38.2503791016236860 Ba
atom 7.5043161720632670 7.5043161717510225 38.2503791016690897 Ba
atom 5.0028774479752505 5.0028774479230984 35.5135893088241801 Zr
atom 10.0057548958646088 5.0028774479604010 35.5135893088255159 Zr
atom 5.0028774479245701 10.0057548959166365 35.5135893088254946 Zr
atom 10.0057548959152882 10.0057548958796971 35.5135893088247627 Zr
atom 5.0028774479119988 5.0028774479644369 40.6030238760999467 Zr
atom 10.0057548959285967 5.0028774479422315 40.6030238760980424 Zr
atom 5.0028774479688067 10.0057548958763736 40.6030238760996838 Zr
atom 10.0057548958717728 10.0057548958984430 40.6030238760980353 Zr
atom 5.0028774472955782 5.0028774486119234 33.0083351027089265 S
atom 10.0057548965372138 5.0028774474915148 33.0083351027090970 S
atom 5.0028774484588761 10.0057548952194910 33.0083351027091894 S
atom 10.0057548953753912 10.0057548963426335 33.0083351027099923 S
atom 5.0028774492057728 5.0028774467974193 38.0989914282471958 S
atom 10.0057548946337320 5.0028774485867142 38.0989914282451352 S
atom 5.0028774470285304 10.0057548970419479 38.0989914282468405 S
atom 10.0057548968111796 10.0057548952531210 38.0989914282469400 S
atom 5.0028774479446252 2.5014484078945149 35.6242476464395352 S
atom 10.0057548958960965 2.5014290400499060 35.6242476477921315 S
atom 5.0028774479400306 7.5043064879969910 35.6242476481345349 S
atom 10.0057548959006937 7.5043258558425121 35.6242476467819245 S
atom 5.0028774479268963 2.5014369770736615 40.6295079740299130 S
atom 10.0057548959136824 2.5014404708720535 40.6295079719641663 S
atom 5.0028774479860587 7.5043179188191855 40.6295079713102538 S
atom 10.0057548958545048 7.5043144250211844 40.6295079733767253 S
atom 2.5014290400496062 5.0028774479494746 35.6242476481558725 S
atom 7.5043258558417971 5.0028774479540736 35.6242476464185813 S
atom 2.5014484078947286 10.0057548958915667 35.6242476466367890 S
atom 7.5043064879975079 10.0057548958869535 35.6242476479370751 S
atom 2.5014404708721210 5.0028774479671414 40.6295079710512468 S
atom 7.5043144250205414 5.0028774479079665 40.6295079742893535 S
atom 2.5014369770727547 10.0057548958736700 40.6295079738187894 S
atom 7.5043179188199352 10.0057548959328404 40.6295079715218677 S
atom 2.5014387239277318 2.5014387240354208 43.1979476106088427 Ba
atom 7.5043161719653861 2.5014387239103320 43.1979476105778915 Ba
atom 2.5014387240185552 7.5043161718579556 43.1979476106490239 Ba
atom 7.5043161718746170 7.5043161719830396 43.1979476106180655 Ba
atom 2.5014387239928171 2.5014387239388656 48.1856552797929965 Ba
atom 7.5043161719002498 2.5014387240072358 48.1856552797925275 Ba
atom 2.5014387239525759 7.5043161719544962 48.1856552797927122 Ba
atom 7.5043161719404958 7.5043161718860549 48.1856552797920088 Ba
atom 5.0028774479706222 5.0028774479466280 45.6590986947591517 Zr
atom 10.0057548958699751 5.0028774479425753 45.6590986947618731 Zr
atom 5.0028774479302465 10.0057548958942135 45.6590986947597770 Zr
atom 10.0057548959105240 10.0057548958982512 45.6590986947600612 Zr
atom 5.0028774479448233 5.0028774479307332 50.7122118648223719 Zr
atom 10.0057548958957696 5.0028774479558953 50.7122118648226206 Zr
atom 5.0028774479505147 10.0057548959100462 50.7122118648218532 Zr
atom 10.0057548958900089 10.0057548958849729 50.7122118648218390 Zr
atom 5.0028774459181102 5.0028774495161157 43.1426322762750019 S
atom 10.0057548979223139 5.0028774471678483 43.1426322762727139 S
atom 5.0028774493680874 10.0057548943244541 43.1426322762711578 S
atom 10.0057548944724122 10.0057548966728138 43.1426322762746679 S
atom 5.0028774504842355 5.0028774463123282 48.1856552797879303 S
atom 10.0057548933563698 5.0028774486980767 48.1856552797905522 S
atom 5.0028774461849377 10.0057548975284405 48.1856552797904598 S
atom 10.0057548976556649 10.0057548951427471 48.1856552797896782 S
atom 5.0028774474739786 2.5014388644040677 45.6678177431143411 S
atom 10.0057548963666321 2.5014385835409509 45.6678177455581675 S
atom 5.0028774484028231 7.5043160314891120 45.6678177464258255 S
atom 10.0057548954377680 7.5043163123523788 45.6678177439808621 S
atom 5.0028774522282635 2.5014385835415740 50.7034928163252587 S
atom 10.0057548916122201 2.5014388644041130 50.7034928141423720 S
atom 5.0028774436630856 7.5043163123517074 50.7034928133061484 S
atom 10.0057549001774220 7.5043160314889681 50.7034928154889570 S
atom 2.5014385835403989 5.0028774484146794 45.6678177471136379 S
atom 7.5043163123525476 5.0028774474858402 45.6678177424260738 S
atom 2.5014388644054026 10.0057548954261524 45.6678177431390679 S
atom 7.5043160314871056 10.0057548963550289 45.6678177464008215 S
atom 2.5014388644052499 5.0028774436708430 50.7034928122290083 S
atom 7.5043160314877708 5.0028774522360084 50.7034928174031094 S
atom 2.5014385835402693 10.0057549001699719 50.7034928166185637 S
atom 7.5043163123528265 10.0057548916048002 50.7034928130129643 S
atom 2.5014387239380556 2.5014387240531217 53.1733629489714517 Ba
atom 7.5043161719550131 2.5014387238929690 53.1733629490093591 Ba
atom 2.5014387240072127 7.5043161718402578 53.1733629489339137 Ba
atom 7.5043161718858098 7.5043161720003839 53.1733629489716293 Ba
atom 2.5014387240591134 2.5014387237138442 58.1209314579076448 Ba
atom 7.5043161718338851 2.5014387242319063 58.1209314578453373 Ba
atom 2.5014387238869911 7.5043161721794398 58.1209314579654546 Ba
atom 7.5043161720060008 7.5043161716613902 58.1209314579029339 Ba
atom 5.0028774479219651 5.0028774479710671 55.7682866834934856 Zr
atom 10.0057548959189866 5.0028774479363145 55.7682866834920148 Zr
atom 5.0028774479602518 10.0057548958698792 55.7682866834935425 Zr
atom 10.0057548958805693 10.0057548959044649 55.7682866834921498 Zr
atom 5.0028774479852123 5.0028774479290830 60.8577212507553469 Zr
atom 10.0057548958576419 5.0028774479559601 60.8577212507555316 Zr
atom 5.0028774479179674 10.0057548959122986 60.8577212507553540 Zr
atom 10.0057548959244098 10.0057548958848752 60.8577212507566685 Zr
atom 5.0028774454704656 5.0028774492464798 53.2286782833151193 S
atom 10.0057548983705953 5.0028774473824082 53.2286782833097192 S
atom 5.0028774496879063 10.0057548945943324 53.2286782833128242 S
atom 10.0057548941529344 10.0057548964583951 53.2286782833159720 S
atom 5.0028774498189739 5.0028774471713087 58.2723191313379516 S
atom 10.0057548940243013 5.0028774482799587 58.2723191313409217 S
atom 5.0028774465705652 10.0057548966700391 58.2723191313424635 S
atom 10.0057548972721442 10.0057548955609263 58.2723191313370350 S
atom 5.0028774463147307 2.5014404708717244 55.7418025858893600 S
atom 10.0057548975259980 2.5014369770750107 55.7418025873486584 S
atom 5.0028774495929875 7.5043144250212483 55.7418025879364620 S
atom 10.0057548942477545 7.5043179188181854 55.7418025864782294 S
atom 5.0028774480276450 2.5014290400513626 60.7470629128170927 S
atom 10.0057548958129718 2.5014484078951198 60.7470629120737939 S
atom 5.0028774478567151 7.5043258558424064 60.7470629117834875 S
atom 10.0057548959839231 7.5043064879985240 60.7470629125264168 S
atom 2.5014369770728009 5.0028774495754353 55.7418025890878184 S
atom 7.5043179188207016 5.0028774462971697 55.7418025847390552 S
atom 2.5014404708733213 10.0057548942653298 55.7418025853604462 S
atom 7.5043144250201523 10.0057548975435644 55.7418025884658945 S
atom 2.5014484078969601 5.0028774478661902 60.7470629108945630 S
atom 7.5043064879991599 5.0028774480370242 60.7470629137057117 S
atom 2.5014290400509709 10.0057548959745883 60.7470629133679481 S
atom 7.5043258558442361 10.0057548958037721 60.7470629112327174 S
atom 2.5014387238306393 2.5014387245164587 62.9266619005085701 Ba
atom 7.5043161720598075 2.5014387234287399 62.9266619005336096 Ba
atom 2.5014387241122922 7.5043161713764830 62.9266619004867493 Ba
atom 7.5043161717781599 7.5043161724642014 62.9266619005120020 Ba
atom 5.0028774468132120 5.0028774483100795 63.3629754568681207 S
atom 10.0057548970435466 5.0028774477663713 63.3629754568687744 S
atom 5.0028774488758536 10.0057548955346860 63.3629754568666854 S
atom 10.0057548949779616 10.0057548960762439 63.3629754568680070 S
