#=======================================================
# FHI-aims file: full_relax/full_relax_RP_5_RxRy0_RxRy0.in
# Created using the Atomic Simulation Environment (ASE)
# Fri Mar 14 11:29:37 2025
#=======================================================
lattice_vector 10.0703547058953458 0.0993680110103208 0.0000000000000048 
lattice_vector 0.0993680110103193 10.0703547058953653 0.0000000000000148 
lattice_vector 0.0000000000000280 0.0000000000000849 55.2857272952819017 
atom -0.0999689792386775 -0.0999689792363311 0.2816479597264733 Ba
atom 5.1351463321852826 0.1496529847408369 0.2816479597277372 Ba
atom 0.1496529847419549 5.1351463321820798 0.2816479597262118 Ba
atom 4.9848923792147000 4.9848923792148625 0.2816479597244530 Ba
atom -0.0069400604839277 -0.0069400604801812 4.9558879297020839 Ba
atom 5.0421174134272571 0.0566240659903991 4.9558879297019427 Ba
atom 0.0566240659845182 5.0421174134301774 4.9558879297022767 Ba
atom 5.0779212979682340 5.0779212979696968 4.9558879297019827 Ba
atom 2.5294594898849589 2.5294594898807645 2.3466647261215425 Zr
atom 7.5905792215153465 2.6050858740746876 2.3466647261226994 Zr
atom 2.6050858740752774 7.5905792215151733 2.3466647261268463 Zr
atom 7.6143208483313831 7.6143208483359803 2.3466647261203821 Zr
atom 2.5446728730485262 2.5446728730490933 7.3726157041941640 Zr
atom 7.5753658383447213 2.5898724909075477 7.3726157041898333 Zr
atom 2.5898724909051261 7.5753658383453564 7.3726157041974867 Zr
atom 7.6295342315049295 7.6295342315039543 7.3726157041969973 Zr
atom 2.7313843330880703 2.7313843330908583 -0.1371457607307786 S
atom 7.3886543783118155 2.4031610308662064 -0.1371457607328042 S
atom 2.4031610308689659 7.3886543783070948 -0.1371457607405061 S
atom 7.8162456915393523 7.8162456915438376 -0.1371457607374339 S
atom 2.2337127037099749 2.2337127037056912 4.8950267202436626 S
atom 7.8863260076874315 2.9008326602482226 4.8950267202557738 S
atom 2.9008326602453938 7.8863260076891226 4.8950267202438198 S
atom 7.3185740621641244 7.3185740621612316 4.8950267202444540 S
atom 2.5175886764735464 0.0248420027554198 2.1940750523660153 S
atom 7.5527660294195194 0.0745260082564579 2.7022021041648743 S
atom 2.5672726819770735 5.0600193557042097 2.7022021041651367 S
atom 7.6024500349261199 5.1097033612024232 2.1940750523645351 S
atom 2.5175886764760724 0.0248420027580746 7.7231713266740387 S
atom 7.5527660294166425 0.0745260082479678 7.0361764345438171 S
atom 2.5672726819740888 5.0600193557026829 7.0361764345456628 S
atom 7.6024500349288546 5.1097033612092186 7.7231713266723085 S
atom 0.0248420027482417 2.5175886764719930 2.1940750523673729 S
atom 5.0600193557006454 2.5672726819789875 2.7022021041607465 S
atom 0.0745260082617335 7.5527660294215142 2.7022021041641318 S
atom 5.1097033612074920 7.6024500349248338 2.1940750523700254 S
atom 0.0248420027577037 2.5175886764689688 7.7231713266714275 S
atom 5.0600193557105611 2.5672726819813763 7.0361764345471656 S
atom 0.0745260082625604 7.5527660294238528 7.0361764345461699 S
atom 5.1097033611982612 7.6024500349218913 7.7231713266710447 S
atom 0.0334219589975806 0.0334219589927709 9.8646719521020714 Ba
atom 5.0017553939549639 0.0162620465064739 9.8646719521018973 Ba
atom 0.0162620465115432 5.0017553939485957 9.8646719521018831 Ba
atom 5.1182833174504774 5.1182833174455604 9.8646719521021833 Ba
atom -0.0334219589963806 -0.0334219589950300 14.8164563047306945 Ba
atom 5.0685993119410702 0.0831059644991326 14.8164563047305595 Ba
atom 0.0831059644971371 5.0685993119439150 14.8164563047301634 Ba
atom 5.0514393994575757 5.0514393994609135 14.8164563047305791 Ba
atom 2.5424306792234939 2.5424306792261993 12.3405641284229510 Zr
atom 7.5776080321691142 2.5921146847258458 12.3405641284148118 Zr
atom 2.5921146847265639 7.5776080321718773 12.3405641284173520 Zr
atom 7.6272920376775248 7.6272920376761704 12.3405641284224608 Zr
atom 2.5401884853980379 2.5401884853977350 17.3085125526308694 Zr
atom 7.5798502259982783 2.5943568785573214 17.3085125526399963 Zr
atom 2.5943568785601601 7.5798502259978928 17.3085125526192840 Zr
atom 7.6250498438445042 7.6250498438505643 17.3085125526087324 Zr
atom 2.8921215454669902 2.8921215454716949 9.8608221655821566 S
atom 7.2279171659260308 2.2424238184841561 9.8608221655855726 S
atom 2.2424238184862255 7.2279171659285408 9.8608221655891199 S
atom 7.9769829039205726 7.9769829039236138 9.8608221655902000 S
atom 2.1927398129824467 2.1927398129812716 14.8203060912627240 S
atom 7.9272988984157333 2.9418055509738283 14.8203060912758886 S
atom 2.9418055509708805 7.9272988984147101 14.8203060912776916 S
atom 7.2776011714369746 7.2776011714358209 14.8203060912904405 S
atom 2.5175886764742668 0.0248420027467952 11.9787334512809114 S
atom 7.5527660294167918 0.0745260082525565 12.7023948055412799 S
atom 2.5672726819735940 5.0600193557019244 12.7023948055434861 S
atom 7.6024500349272515 5.1097033612237279 11.9787334512782895 S
atom 2.5175886764728945 0.0248420027588174 17.6449518222847210 S
atom 7.5527660294190042 0.0745260082476380 16.9579569301605275 S
atom 2.5672726819762550 5.0600193557055073 16.9579569301590887 S
atom 7.6024500349257886 5.1097033612079334 17.6449518222852433 S
atom 0.0248420027549367 2.5175886764689448 11.9787334512826664 S
atom 5.0600193557116464 2.5672726819795120 12.7023948055431983 S
atom 0.0745260082644739 7.5527660294227656 12.7023948055393898 S
atom 5.1097033612117357 7.6024500349221107 11.9787334512783197 S
atom 0.0248420027613251 2.5175886764716253 17.6449518222861030 S
atom 5.0600193556942701 2.5672726819790221 16.9579569301617106 S
atom 0.0745260082656328 7.5527660294214023 16.9579569301586943 S
atom 5.1097033612039819 7.6024500349248241 17.6449518222823372 S
atom 0.0069400604817557 0.0069400604834827 19.7252403271304360 Ba
atom 5.0282372924650440 0.0427439450234439 19.7252403271303720 Ba
atom 0.0427439450233431 5.0282372924628254 19.7252403271297254 Ba
atom 5.0918014189344349 5.0918014189324889 19.7252403271294732 Ba
atom 0.0999689792358964 0.0999689792364277 24.3994802971157476 Ba
atom 4.9352083737100125 -0.0502849737299535 24.3994802971151756 Ba
atom -0.0502849737315218 4.9352083737088188 24.3994802971154954 Ba
atom 5.1848303376876501 5.1848303376855549 24.3994802971179645 Ba
atom 2.5554018685694877 2.5554018685644242 22.3344635306922576 Zr
atom 7.5646368428329973 2.5791434953889345 22.3344635307011998 Zr
atom 2.5791434953838253 7.5646368428288699 22.3344635306966666 Zr
atom 7.6402632270231017 7.6402632270262716 22.3344635306840900 Zr
atom 2.8511486547404381 2.8511486547398106 19.7861015365936979 S
atom 7.2688900566592523 2.2833967092172722 19.7861015365674113 S
atom 2.2833967092135099 7.2688900566550423 19.7861015365960107 S
atom 7.9360100131938136 7.9360100131959097 19.7861015365928736 S
atom 2.3534770253596013 2.3534770253582717 24.8182740175739376 S
atom 7.7665616860388482 2.7810683385958872 24.8182740175626755 S
atom 2.7810683385954853 7.7665616860388162 24.8182740175768153 S
atom 7.4383383838120487 7.4383383838125914 24.8182740175976768 S
atom 2.5175886764724296 0.0248420027588405 21.9789261526726065 S
atom 7.5527660294218020 0.0745260082597932 22.4870532044693014 S
atom 2.5672726819780967 5.0600193557056405 22.4870532044665232 S
atom 7.6024500349257833 5.1097033611926701 21.9789261526728303 S
atom 0.0248420027496522 2.5175886764734896 21.9789261526755197 S
atom 5.0600193556980990 2.5672726819787419 22.4870532044698095 S
atom 0.0745260082549198 7.5527660294209449 22.4870532044647398 S
atom 5.1097033612165497 7.6024500349255968 21.9789261526705602 S
atom 2.4424616999908144 2.4424616999893174 27.9245116073508441 Ba
atom 7.6775770114087489 2.6920836639724528 27.9245116073512030 Ba
atom 2.6920836639728831 7.6775770114107083 27.9245116073500732 Ba
atom 7.5273230584370046 7.5273230584367408 27.9245116073478741 Ba
atom 2.5354906187452246 2.5354906187445283 32.5987515773439540 Ba
atom 7.5845480926549689 2.5990547452097350 32.5987515773442667 Ba
atom 2.5990547452127251 7.5845480926520343 32.5987515773439185 Ba
atom 7.6203519771994275 7.6203519771973607 32.5987515773436058 Ba
atom 5.0718901691136837 5.0718901691108726 29.9895283737466052 Zr
atom 10.1330099007402072 5.1475165533011440 29.9895283737553129 Zr
atom 5.1475165532984217 10.1330099007379264 29.9895283737567659 Zr
atom 10.1567515275625411 10.1567515275625784 29.9895283737756770 Zr
atom 5.0871035522736259 5.0871035522751304 35.0154793518142569 Zr
atom 10.1177965175878057 5.1323031701364519 35.0154793518055101 Zr
atom 5.1323031701299717 10.1177965175786824 35.0154793518193372 Zr
atom 10.1719649107251300 10.1719649107300381 35.0154793518514609 Zr
atom 5.2738150123172547 5.2738150123155290 27.5057178869470569 S
atom 9.9310850575370964 4.9455917100956883 27.5057178869420262 S
atom 4.9455917100933924 9.9310850575358938 27.5057178869438061 S
atom 10.3586763707709970 10.3586763707700342 27.5057178869147521 S
atom 4.7761433829402078 4.7761433829404369 32.5378903678886360 S
atom 10.4287566869126440 5.4432633394681540 32.5378903679539349 S
atom 5.4432633394693708 10.4287566869130988 32.5378903679116434 S
atom 9.8610047413872106 9.8610047413909889 32.5378903678788234 S
atom 5.0600193556985946 2.5672726819859433 29.8369387000037101 S
atom 10.0951967086469629 2.6169566874859869 30.3450657517955626 S
atom 5.1097033612053071 7.6024500349240496 30.3450657517963478 S
atom 10.1448807141508937 7.6521340404172928 29.8369387000003528 S
atom 5.0600193556948252 2.5672726819946137 35.3660349743172375 S
atom 10.0951967086509846 2.6169566874861490 34.6790400821906175 S
atom 5.1097033612064129 7.6024500348999551 34.6790400821947387 S
atom 10.1448807141506965 7.6521340404363469 35.3660349743132727 S
atom 2.5672726819646181 5.0600193556988957 29.8369386999973685 S
atom 7.6024500349363411 5.1097033612037865 30.3450657517949622 S
atom 2.6169566874905148 10.0951967086466521 30.3450657517987423 S
atom 7.6521340404227596 10.1448807141519683 29.8369387000040120 S
atom 2.5672726819679492 5.0600193557031359 35.3660349743079649 S
atom 7.6024500349149040 5.1097033612036000 34.6790400821828868 S
atom 2.6169566874850592 10.0951967086451777 34.6790400822010767 S
atom 7.6521340404543956 10.1448807141550823 35.3660349743232203 S
atom 2.5758526382167557 2.5758526382259737 37.5075355997450615 Ba
atom 7.5441860731778192 2.5586927257362877 37.5075355997443793 Ba
atom 2.5586927257274650 7.5441860731779853 37.5075355997452391 Ba
atom 7.6607139966750832 7.6607139966765789 37.5075355997439814 Ba
atom 2.5090087202375271 2.5090087202253324 42.4593199523745355 Ba
atom 7.6110299911686932 2.6255366437261465 42.4593199523734057 Ba
atom 2.6255366437346370 7.6110299911662098 42.4593199523754450 Ba
atom 7.5938700786810349 7.5938700786758107 42.4593199523733134 Ba
atom 5.0848613584560880 5.0848613584569629 39.9834277760662147 Zr
atom 10.1200387113972212 5.1345453639571765 39.9834277760268932 Zr
atom 5.1345453639577290 10.1200387114118726 39.9834277760717001 Zr
atom 10.1697227168992228 10.1697227169032853 39.9834277760382193 Zr
atom 5.0826191646299730 5.0826191646336021 44.9513762002922164 Zr
atom 10.1222809052185969 5.1367875577774971 44.9513762003274167 Zr
atom 5.1367875577748485 10.1222809052229490 44.9513762003178101 Zr
atom 10.1674805230821459 10.1674805230826255 44.9513762003138666 Zr
atom 5.4345522247029896 5.4345522247036921 37.5036858132469035 S
atom 9.7703478451579340 4.7848544977103558 37.5036858132350091 S
atom 4.7848544977072036 9.7703478451543724 37.5036858131569417 S
atom 10.5194135831458091 10.5194135831463349 37.5036858131719271 S
atom 4.7351704922080726 4.7351704922094644 42.4631697389043410 S
atom 10.4697295776482626 5.4842362302119856 42.4631697388976548 S
atom 5.4842362301996177 10.4697295776530623 42.4631697389220477 S
atom 9.8200318506543898 9.8200318506550914 42.4631697389099685 S
atom 5.0600193556959274 2.5672726819322258 39.6215970989253066 S
atom 10.0951967086509278 2.6169566874596213 40.3452584531929901 S
atom 5.1097033612085045 7.6024500349328337 40.3452584531892526 S
atom 10.1448807141463284 7.6521340404507852 39.6215970989294064 S
atom 5.0600193556946191 2.5672726819709260 45.2878154699272741 S
atom 10.0951967086511374 2.6169566874879204 44.6008205777889088 S
atom 5.1097033612097649 7.6024500349145256 44.6008205777977054 S
atom 10.1448807141464421 7.6521340404260414 45.2878154699208295 S
atom 2.5672726819774891 5.0600193557076709 39.6215970989256974 S
atom 7.6024500349138000 5.1097033612040015 40.3452584531837957 S
atom 2.6169566874964656 10.0951967086449645 40.3452584531957186 S
atom 7.6521340404432463 10.1448807141593651 39.6215970989330870 S
atom 2.5672726819826552 5.0600193557061344 45.2878154699208864 S
atom 7.6024500349209072 5.1097033612012943 44.6008205777992188 S
atom 2.6169566874845609 10.0951967086432539 44.6008205777969451 S
atom 7.6521340404419016 10.1448807141577273 45.2878154699180087 S
atom 2.5493707397005281 2.5493707397073750 47.3681039747677914 Ba
atom 7.5706679716934397 2.5851746242517240 47.3681039747681822 Ba
atom 2.5851746242491429 7.5706679716969010 47.3681039747678625 Ba
atom 7.6342320981557901 7.6342320981626655 47.3681039747681609 Ba
atom 2.6423996584645519 2.6423996584626850 52.0423439447736840 Ba
atom 7.4776390529351922 2.4921457054932845 52.0423439447743235 Ba
atom 2.4921457054871863 7.4776390529354009 52.0423439447749985 Ba
atom 7.7272610169227658 7.7272610169164073 52.0423439447763201 Ba
atom 5.0978325477959459 5.0978325477934314 49.9773271783486024 Zr
atom 10.1070675220620796 5.1215741746162644 49.9773271783446731 Zr
atom 5.1215741746135715 10.1070675220594861 49.9773271783383493 Zr
atom 10.1826939062421857 10.1826939062469002 49.9773271783511603 Zr
atom 5.3935793339617204 5.3935793339674616 47.4289651842124655 S
atom 9.8113207358940411 4.8258273884425433 47.4289651842351816 S
atom 4.8258273884502856 9.8113207358874650 47.4289651841958175 S
atom 10.4784406924116862 10.4784406924196034 47.4289651842468487 S
atom 4.8959077045928483 4.8959077045857162 52.4611376651717336 S
atom 10.3089923652608633 5.3234990178241803 52.4611376651521084 S
atom 5.3234990178157187 10.3089923652662758 52.4611376651635197 S
atom 9.9807690630446491 9.9807690630383235 52.4611376651468646 S
atom 5.0600193556986106 2.5672726819709650 49.6217898003252529 S
atom 10.0951967086483574 2.6169566874845849 50.1299168521178089 S
atom 5.1097033612058773 7.6024500349292863 50.1299168521244880 S
atom 10.1448807141513129 7.6521340404266907 49.6217898003220341 S
atom 2.5672726819749521 5.0600193557014403 49.6217898003274982 S
atom 7.6024500349137547 5.1097033612044420 50.1299168521125651 S
atom 2.6169566874965038 10.0951967086472987 50.1299168521149525 S
atom 7.6521340404311413 10.1448807141547945 49.6217898003300633 S
