#=======================================================
# FHI-aims file: full_relax/full_relax_RP_4_00Mz1_00Mz2.in
# Created using the Atomic Simulation Environment (ASE)
# Fri Mar 14 11:22:39 2025
#=======================================================
lattice_vector 9.9373381464026735 -0.0000006352887021 -0.0000000000000163 
lattice_vector -0.0000006352887021 9.9373381464026416 -0.0000000000000133 
lattice_vector -0.0000000000000737 -0.0000000000000604 46.5021921219065888 
atom -0.0000000000036657 0.0000000000029314 0.1903836263538572 Ba
atom 4.9686690731703917 -0.0000003176452415 0.1903836263478523 Ba
atom -0.0000003176791972 4.9686690731990106 0.1903836263490269 Ba
atom 4.9686687555554476 4.9686687555578262 0.1903836263509754 Ba
atom 0.0000000000240061 -0.0000000000048740 5.0339593674522165 Ba
atom 4.9686690732340884 -0.0000003176494251 5.0339593674525736 Ba
atom -0.0000003176106690 4.9686690731962315 5.0339593674509873 Ba
atom 4.9686687555808478 4.9686687555511275 5.0339593674513381 Ba
atom 2.4843343777730160 2.4843343777763667 2.4131404736385407 Zr
atom 7.4530034509736103 2.4843340601360109 2.4131404736379585 Zr
atom 2.4843340601292838 7.4530034509781267 2.4131404736411315 Zr
atom 7.4530031333281990 7.4530031333293749 2.4131404736386761 Zr
atom 2.4843343777758746 2.4843343777745517 7.5514887585398451 Zr
atom 7.4530034509741547 2.4843340601310908 7.5514887585355543 Zr
atom 2.4843340601305721 7.4530034509755847 7.5514887585385324 Zr
atom 7.4530031333308404 7.4530031333310376 7.5514887585399562 Zr
atom 2.4843343777715559 2.4843343777255629 -0.1209118991824668 S
atom 7.4530034509852721 2.4843340601864567 -0.1209118991849958 S
atom 2.4843340601395689 7.4530034510323127 -0.1209118991791600 S
atom 7.4530031333277016 7.4530031332825990 -0.1209118991853332 S
atom 2.4843343777687492 2.4843343778175946 5.0114382503758756 S
atom 7.4530034509655465 2.4843340600902928 5.0114382503733035 S
atom 2.4843340601186887 7.4530034509357561 5.0114382503744501 S
atom 7.4530031333263711 7.4530031333744917 5.0114382503752077 S
atom 2.8268086559573304 0.0000023287593384 2.5053224820698845 S
atom 7.1105294904437422 -0.0000029640453953 2.5053224819785047 S
atom 2.1418600995987265 4.9686664267943526 2.5053224819770885 S
atom 7.7954774115165790 4.9686710843111204 2.5053224820709938 S
atom 2.9832373565081460 0.0000002706996829 7.5564173297826436 S
atom 6.9541007898855529 -0.0000009059929250 7.5564173298641055 S
atom 1.9854313990403503 4.9686684848504417 7.5564173298626827 S
atom 7.9519061120650445 4.9686690262548270 7.5564173297832626 S
atom -0.0000026464068356 2.1418604172395459 2.5053224820287374 S
atom 4.9686714019538432 2.8268083383126172 2.5053224820177644 S
atom 0.0000020111088237 7.7954777291567812 2.5053224820184985 S
atom 4.9686661091495052 7.1105291727980147 2.5053224820282263 S
atom -0.0000005883489212 1.9854317166857800 7.5564173298236224 S
atom 4.9686693438976510 2.9832370388643108 7.5564173298236854 S
atom -0.0000000469449315 7.9519064297083633 7.5564173298238373 S
atom 4.9686681672048172 6.9541004722437609 7.5564173298249848 S
atom -0.0000000000381439 -0.0000000000060936 10.1091722004144220 Ba
atom 4.9686690731609628 -0.0000003176500636 10.1091722004152000 Ba
atom -0.0000003176829982 4.9686690731959491 10.1091722004148252 Ba
atom 4.9686687555179851 4.9686687555503095 10.1091722004133526 Ba
atom 0.0000000000264410 0.0000000000064760 15.1843850333813712 Ba
atom 4.9686690732355512 -0.0000003176394943 15.1843850333820143 Ba
atom -0.0000003176096778 4.9686690732051915 15.1843850333831654 Ba
atom 4.9686687555835860 4.9686687555614393 15.1843850333816963 Ba
atom 2.4843343777750442 2.4843343777761260 12.6668556422877590 Zr
atom 7.4530034509757961 2.4843340601318751 12.6668556422910434 Zr
atom 2.4843340601313049 7.4530034509773158 12.6668556422865244 Zr
atom 7.4530031333309923 7.4530031333325510 12.6668556422884890 Zr
atom 2.4843343777732274 2.4843343777757791 17.8052039271927889 Zr
atom 7.4530034509737808 2.4843340601342119 17.8052039271935669 Zr
atom 2.4843340601297270 7.4530034509765155 17.8052039271961284 Zr
atom 7.4530031333290996 7.4530031333293874 17.8052039271959330 Zr
atom 2.4843343777848617 2.4843343777389642 10.1091722004157027 S
atom 7.4530034509794651 2.4843340601674484 10.1091722004118658 S
atom 2.4843340601342949 7.4530034510137559 10.1091722004118960 S
atom 7.4530031333413147 7.4530031332972193 10.1091722004138056 S
atom 2.4843343777570750 2.4843343778165159 15.2069061504601848 S
atom 7.4530034509777909 2.4843340600878592 15.2069061504630163 S
atom 2.4843340601311508 7.4530034509331724 15.2069061504603873 S
atom 7.4530031333148896 7.4530031333730893 15.2069061504605827 S
atom 2.9832373565069119 0.0000002707002954 12.6619270710501333 S
atom 6.9541007898864677 -0.0000009059920795 12.6619270709670815 S
atom 1.9854313990415324 4.9686684848514160 12.6619270709684812 S
atom 7.9519061120641226 4.9686690262554611 12.6619270710505827 S
atom 2.8268086559592649 0.0000023287579268 17.7130219187595728 S
atom 7.1105294904433816 -0.0000029640470328 17.7130219188540643 S
atom 2.1418600995973169 4.9686664267948819 17.7130219188564482 S
atom 7.7954774115158125 4.9686710843106914 17.7130219187575157 S
atom -0.0000005883497234 1.9854317166863786 12.6619270710022054 S
atom 4.9686693438992444 2.9832370388640044 12.6619270710144072 S
atom -0.0000000469444985 7.9519064297087185 12.6619270710158105 S
atom 4.9686681672043669 6.9541004722442654 12.6619270710028822 S
atom -0.0000026464066153 2.1418604172394726 17.7130219188188356 S
atom 4.9686714019554534 2.8268083383133438 17.7130219187965210 S
atom 0.0000020111088016 7.7954777291587449 17.7130219187942579 S
atom 4.9686661091510151 7.1105291727971709 17.7130219188195532 S
atom -0.0000000000034292 -0.0000000000102575 20.0279607744739430 Ba
atom 4.9686690731688001 -0.0000003176450976 20.0279607744716337 Ba
atom -0.0000003176790335 4.9686690732011147 20.0279607744705146 Ba
atom 4.9686687555553881 4.9686687555461146 20.0279607744703831 Ba
atom 2.4843343777914977 2.4843343777271762 20.3392563000193718 S
atom 7.4530034509681471 2.4843340601878414 20.3392563000206081 S
atom 2.4843340601232380 7.4530034510338865 20.3392563000203843 S
atom 7.4530031333480506 7.4530031332846400 20.3392563000231910 S
atom 2.4843343777727087 2.4843343779055367 23.4414416697785271 Ba
atom 7.4530034509862233 2.4843340601375026 23.4414416697703700 Ba
atom 2.4843340601407409 7.4530034509851673 23.4414416697760082 Ba
atom 7.4530031333295126 7.4530031334636346 23.4414416697726544 Ba
atom 2.4843343777631182 2.4843343775819955 28.2850645322925658 Ba
atom 7.4530034509668015 2.4843340599580572 28.2850645322902210 Ba
atom 2.4843340601177881 7.4530034508016518 28.2850645322917948 Ba
atom 7.4530031333213138 7.4530031331386946 28.2850645322928536 Ba
atom 4.9686687555522902 4.9686687555570890 25.6642182160636914 Zr
atom 9.9373378287537513 4.9686684379119743 25.6642182160668071 Zr
atom 4.9686684379085406 9.9373378287552079 25.6642182160605330 Zr
atom 9.9373375111087103 9.9373375111118776 25.6642182160595560 Zr
atom 4.9686687555460756 4.9686687555559805 30.8025828830533932 Zr
atom 9.9373378287546430 4.9686684379140189 30.8025828830457336 Zr
atom 4.9686684379073327 9.9373378287586664 30.8025828830457122 Zr
atom 9.9373375111047615 9.9373375111124247 30.8025828830503734 Zr
atom 4.9686687553887499 4.9686687555438205 23.1301617259902450 S
atom 9.9373378289081522 4.9686684378686232 23.1301617259993826 S
atom 4.9686684380625206 9.9373378287146821 23.1301617259967713 S
atom 9.9373375109456799 9.9373375111006705 23.1301617259930730 S
atom 4.9686687557571485 4.9686687555812155 28.2625284901957237 S
atom 9.9373378285488538 4.9686684379568726 28.2625284901821310 S
atom 4.9686684377039736 9.9373378288032388 28.2625284901836551 S
atom 9.9373375113132507 9.9373375111383009 28.2625284901856837 S
atom 5.3112094896902740 2.4843372486106152 25.7564091051636836 S
atom 9.5947974122577424 2.4843308716524399 25.7564091051901904 S
atom 4.6261280214114784 7.4530002624898168 25.7564091051883395 S
atom 10.2798782452483621 7.4530060041580430 25.7564091051625574 S
atom 5.4675646408465850 2.4843349052436721 30.8075198351166115 S
atom 9.4384422611012742 2.4843332150217736 30.8075198351087920 S
atom 4.4697728702554906 7.4530026058693597 30.8075198351081809 S
atom 10.4362333964020628 7.4530036608026187 30.8075198351161248 S
atom 2.4843311892990481 4.6261283390426788 25.7564091053659823 S
atom 7.4530063218021940 5.3112091720353707 25.7564091049843640 S
atom 2.4843369309639209 10.2798785628813381 25.7564091049851704 S
atom 7.4529999448495969 9.5947970946022370 25.7564091053693964 S
atom 2.4843335326581197 4.4697731879071068 30.8075198348840722 S
atom 7.4530039784422710 5.4675643232049262 30.8075198353392317 S
atom 2.4843345875934815 10.4362337140495320 30.8075198353370894 S
atom 7.4530022882176832 9.4384419434642428 30.8075198348846762 S
atom 2.4843343777702254 2.4843343779961407 33.3602682613716723 Ba
atom 7.4530034509714627 2.4843340603752009 33.3602682613684323 Ba
atom 2.4843340601261081 7.4530034512192040 33.3602682613692920 Ba
atom 7.4530031333264528 7.4530031335501219 33.3602682613731716 Ba
atom 2.4843343777867153 2.4843343775697915 38.4354719904445261 Ba
atom 7.4530034509886223 2.4843340599438952 38.4354719904464659 Ba
atom 2.4843340601414003 7.4530034507902894 38.4354719904478728 Ba
atom 7.4530031333454012 7.4530031331274555 38.4354719904465938 Ba
atom 4.9686687555524216 4.9686687555583706 35.9179536396779469 Zr
atom 9.9373378287551528 4.9686684379105008 35.9179536396829988 Zr
atom 4.9686684379072661 9.9373378287538134 35.9179536396889034 Zr
atom 9.9373375111110107 9.9373375111144835 35.9179536396882000 Zr
atom 4.9686687555489675 4.9686687555560285 41.0563183066819732 Zr
atom 9.9373378287537264 4.9686684379121058 41.0563183066818596 Zr
atom 4.9686684379052517 9.9373378287563234 41.0563183066886666 Zr
atom 9.9373375111086322 9.9373375111124815 41.0563183066795361 Zr
atom 4.9686687553329767 4.9686687555076832 33.3602682613740598 S
atom 9.9373378289726091 4.9686684378694590 33.3602682613689794 S
atom 4.9686684381271347 9.9373378287152789 33.3602682613745714 S
atom 9.9373375108887885 9.9373375110656301 33.3602682613769872 S
atom 4.9686687557665490 4.9686687556069886 38.4580080325502891 S
atom 9.9373378285326890 4.9686684379338146 38.4580080325613380 S
atom 4.9686684376882972 9.9373378287808336 38.4580080325394746 S
atom 9.9373375113227027 9.9373375111657261 38.4580080325464309 S
atom 5.4675646408470282 2.4843349052480925 35.9130166876381551 S
atom 9.4384422611016685 2.4843332150248849 35.9130166876175778 S
atom 4.4697728702571418 7.4530026058637224 35.9130166876184234 S
atom 10.4362333964040399 7.4530036607962780 35.9130166876364569 S
atom 5.3112094896888999 2.4843372486064128 40.9641274175400056 S
atom 9.5947974122582718 2.4843308716532477 40.9641274175752841 S
atom 4.6261280214133782 7.4530002624939300 40.9641274175776715 S
atom 10.2798782452479500 7.4530060041588140 40.9641274175427768 S
atom 2.4843335326657421 4.4697731879046216 35.9130166878617914 S
atom 7.4530039784391340 5.4675643232069913 35.9130166873918810 S
atom 2.4843345875999434 10.4362337140520012 35.9130166873933447 S
atom 7.4530022882172116 9.4384419434617133 35.9130166878593471 S
atom 2.4843311892937341 4.6261283390435821 40.9641274173495091 S
atom 7.4530063218075098 5.3112091720338546 40.9641274177609063 S
atom 2.4843369309628693 10.2798785628802598 40.9641274177651056 S
atom 7.4529999448500286 9.5947970946016561 40.9641274173537866 S
atom 2.4843343777744726 2.4843343779185272 43.2790948529698980 Ba
atom 7.4530034509582546 2.4843340601377459 43.2790948529734081 Ba
atom 2.4843340601167592 7.4530034509846610 43.2790948529667219 Ba
atom 7.4530031333296618 7.4530031334770781 43.2790948529718591 Ba
atom 4.9686687553783973 4.9686687555098370 43.5903747967497424 S
atom 9.9373378289278609 4.9686684379001260 43.5903747967507442 S
atom 4.9686684380814574 9.9373378287450951 43.5903747967426725 S
atom 9.9373375109363113 9.9373375110661932 43.5903747967480797 S
