#=======================================================
# FHI-aims file: full_relax/full_relax_RP_9_00Mz_000.in
# Created using the Atomic Simulation Environment (ASE)
# Mon Mar 24 16:21:38 2025
#=======================================================
lattice_vector 10.0052656973318204 0.0000000000000005 0.0000000000029213 
lattice_vector 0.0000000000000005 10.0052656973318115 -0.0000000000027834 
lattice_vector 0.0000000000278696 -0.0000000000265542 96.6534478267648467 
atom -0.0000000022380852 -0.0000000001059289 0.1423920042089392 Ba
atom 5.0026328494967283 0.0000000003127417 0.1423920042151222 Ba
atom 0.0000000009701881 5.0026328491041943 0.1423920041980593 Ba
atom 5.0026328463317498 5.0026328487616052 0.1423920042070302 Ba
atom 0.0000000021160773 0.0000000005672106 4.9059027653604126 Ba
atom 5.0026328474003536 -0.0000000005452842 4.9059027653618932 Ba
atom -0.0000000012447068 5.0026328481078917 4.9059027653591025 Ba
atom 5.0026328507778910 5.0026328492526195 4.9059027653605396 Ba
atom 2.5013164244354908 2.5013164252507734 2.2795019917534396 Zr
atom 7.5039492723594119 2.5013164236017680 2.2795019917781936 Zr
atom 2.5013164236912266 7.5039492722662953 2.2795019917530057 Zr
atom 7.5039492731036201 7.5039492739152074 2.2795019917781238 Zr
atom 2.5013164245559265 2.5013164242679409 7.3932369385645140 Zr
atom 7.5039492731470432 2.5013164242254935 7.3932369385701886 Zr
atom 2.5013164244814208 7.5039492728915507 7.3932369385656322 Zr
atom 7.5039492732222755 7.5039492729339532 7.3932369385701833 Zr
atom 2.5013164283436917 2.5013164340191567 -0.2303483763894057 S
atom 7.5039492695679861 2.5013164144946383 -0.2303483764057633 S
atom 2.5013164209018495 7.5039492631601963 -0.2303483763510728 S
atom 7.5039492770098315 7.5039492826847063 -0.2303483763674226 S
atom 2.5013164227984630 2.5013164207394532 4.8819171086916047 S
atom 7.5039492739359162 2.5013164280193143 4.8819171086833721 S
atom 2.5013164252697631 7.5039492766854323 4.8819171087098709 S
atom 7.5039492714649416 7.5039492694055028 4.8819171086912245 S
atom 2.2214527143654079 0.0000000000285767 2.4050791388741630 S
atom 7.7838129843126129 0.0000000000302863 2.4050791497406592 S
atom 2.7811801356335586 5.0026328486882763 2.4050791497544295 S
atom 7.2240855630203136 5.0026328486866385 2.4050791388577424 S
atom 2.9944941748758942 0.0000000000074149 7.4163454076325106 S
atom 7.0107715224639335 0.0000000000055444 7.4163454033105740 S
atom 2.0081386737995643 5.0026328486700713 7.4163454033159306 S
atom 7.9971270235433698 5.0026328486725129 7.4163454076251032 S
atom -0.0000000001001871 2.7811801346873266 2.4050791424338938 S
atom 5.0026328485714764 2.2214527133894113 2.4050791461385104 S
atom -0.0000000000996824 7.2240855620733031 2.4050791461762766 S
atom 5.0026328485710962 7.7838129833378655 2.4050791424727596 S
atom -0.0000000000810062 2.0081386738015787 7.4163454064609446 S
atom 5.0026328485845850 2.9944941748803799 7.4163454044662416 S
atom -0.0000000000834778 7.9971270235452421 7.4163454044768260 S
atom 5.0026328485852911 7.0107715224686515 7.4163454064743242 S
atom 0.0000000017997550 -0.0000000010330669 9.9656907643075154 Ba
atom 5.0026328503919757 -0.0000000010500231 9.9656907643090822 Ba
atom 0.0000000017274815 5.0026328476359661 9.9656907643064017 Ba
atom 5.0026328504472133 5.0026328476287247 9.9656907643075137 Ba
atom -0.0000000016080132 0.0000000015773154 15.0364273520357461 Ba
atom 5.0026328471154349 0.0000000016315345 15.0364273520371068 Ba
atom -0.0000000015520439 5.0026328503022510 15.0364273520341918 Ba
atom 5.0026328470559429 5.0026328502431943 15.0364273520357958 Ba
atom 2.5013164243373081 2.5013164244112112 12.4822644827798364 Zr
atom 7.5039492730646256 2.5013164243542971 12.4822644827940650 Zr
atom 2.5013164243980825 7.5039492730203907 12.4822644827729778 Zr
atom 7.5039492730025499 7.5039492730769535 12.4822644827917344 Zr
atom 2.5013164243508847 2.5013164242477299 17.5683973801646225 Zr
atom 7.5039492729359578 2.5013164242782437 17.5683973801736357 Zr
atom 2.5013164242701400 7.5039492729451780 17.5683973801657665 Zr
atom 7.5039492730168567 7.5039492729126724 17.5683973801670881 Zr
atom 2.5013164249153075 2.5013164264323478 9.9535126979066675 S
atom 7.5039492713471452 2.5013164227974314 9.9535126979039621 S
atom 2.5013164226813678 7.5039492714635099 9.9535126979065058 S
atom 7.5039492735808810 7.5039492750982921 9.9535126979094493 S
atom 2.5013164230035847 2.5013164223273705 15.0335680486759440 S
atom 7.5039492750135794 2.5013164255983424 15.0335680486791059 S
atom 2.5013164263473970 7.5039492742646621 15.0335680486692684 S
atom 7.5039492716693434 7.5039492709927584 15.0335680486826604 S
atom 2.9655559650212178 0.0000000000369040 12.5022478629631113 S
atom 7.0397097322880402 0.0000000000341406 12.5022478665952281 S
atom 2.0370768836222477 5.0026328487009062 12.5022478665954129 S
atom 7.9681888136871697 5.0026328487036489 12.5022478629600062 S
atom 2.9695219053569377 -0.0000000000421396 17.5755708047194830 S
atom 7.0357437919629575 -0.0000000000391980 17.5755708014651120 S
atom 2.0331109432975287 5.0026328486226559 17.5755708014626997 S
atom 7.9721547540234665 5.0026328486246259 17.5755708047191526 S
atom -0.0000000000089037 2.0370768836581492 12.5022478633239906 S
atom 5.0026328486590161 2.9655559650573475 12.5022478662311514 S
atom -0.0000000000065463 7.9681888137230468 12.5022478662286805 S
atom 5.0026328486599239 7.0397097323240247 12.5022478633242322 S
atom -0.0000000000154721 2.0331109432802164 17.5755708051628581 S
atom 5.0026328486516167 2.9695219053408053 17.5755708010179781 S
atom -0.0000000000157389 7.9721547540059987 17.5755708010155338 S
atom 5.0026328486525795 7.0357437919467225 17.5755708051635438 S
atom 0.0000000014646903 -0.0000000021427386 20.1133557812491865 Ba
atom 5.0026328500441561 -0.0000000023085505 20.1133557812506645 Ba
atom 0.0000000013751007 5.0026328463618031 20.1133557812477868 Ba
atom 5.0026328501319908 5.0026328465220233 20.1133557812492967 Ba
atom -0.0000000012129553 0.0000000025054466 25.1929478875715347 Ba
atom 5.0026328475135458 0.0000000027325187 25.1929478875730446 Ba
atom -0.0000000011477340 5.0026328514139520 25.1929478875700354 Ba
atom 5.0026328474451818 5.0026328511744769 25.1929478875715951 Ba
atom 2.5013164243328787 2.5013164243922588 22.6531518344118687 Zr
atom 7.5039492730615489 2.5013164243582882 22.6531518344033351 Zr
atom 2.5013164243950046 7.5039492730240465 22.6531518344255680 Zr
atom 7.5039492729982236 7.5039492730582706 22.6531518344091580 Zr
atom 2.5013164243263470 2.5013164242866237 27.7379062886445205 Zr
atom 7.5039492729703072 2.5013164243193624 27.7379062886438525 Zr
atom 2.5013164243042874 7.5039492729858406 27.7379062886610122 Zr
atom 7.5039492729922914 7.5039492729520356 27.7379062886661210 Zr
atom 2.5013164262538687 2.5013164262693164 20.1132768749579789 S
atom 7.5039492704386905 2.5013164233784373 20.1132768749503690 S
atom 2.5013164217725974 7.5039492720447578 20.1132768749565827 S
atom 7.5039492749195036 7.5039492749349153 20.1132768749541384 S
atom 2.5013164219829878 2.5013164225182973 25.1930267938702031 S
atom 7.5039492759029995 2.5013164249571038 25.1930267938565713 S
atom 2.5013164272366128 7.5039492736231344 25.1930267938748074 S
atom 7.5039492706487980 7.5039492711840285 25.1930267938719226 S
atom 2.9702026737400926 0.0000000000189878 22.6531518329944035 S
atom 7.0350630236138745 0.0000000000180149 22.6531518358209745 S
atom 2.0324301749483267 5.0026328486857787 22.6531518358130164 S
atom 7.9728355224063359 5.0026328486854261 22.6531518329998178 S
atom 2.9695219053630666 -0.0000000000221784 27.7307328668794035 S
atom 7.0357437919688390 -0.0000000000190376 27.7307328645742395 S
atom 2.0331109433031345 5.0026328486405047 27.7307328645713334 S
atom 7.9721547540293098 5.0026328486398439 27.7307328668796060 S
atom 0.0000000000190631 2.0324301749384941 22.6531518318088310 S
atom 5.0026328486838176 2.9702026737318334 22.6531518370066891 S
atom 0.0000000000209236 7.9728355223967045 22.6531518370012783 S
atom 5.0026328486847946 7.0350630236056313 22.6531518318057472 S
atom -0.0000000000082795 2.0331109432856311 27.7307328685807413 S
atom 5.0026328486604124 2.9695219053476944 27.7307328628725784 S
atom -0.0000000000047891 7.9721547540117008 27.7307328628667271 S
atom 5.0026328486576848 7.0357437919533385 27.7307328685779737 S
atom 0.0000000009584674 -0.0000000026202372 30.2698763167815770 Ba
atom 5.0026328495870560 -0.0000000028184776 30.2698763167829945 Ba
atom 0.0000000009243877 5.0026328458877805 30.2698763167803619 Ba
atom 5.0026328496141534 5.0026328460541656 30.2698763167815308 Ba
atom -0.0000000006930909 0.0000000023736852 35.3406129045077435 Ba
atom 5.0026328479920998 0.0000000025502536 35.3406129045094985 Ba
atom -0.0000000006805273 5.0026328513427876 35.3406129045063011 Ba
atom 5.0026328479528805 5.0026328510288272 35.3406129045083475 Ba
atom 2.5013164243479986 2.5013164243349144 32.8240391860036880 Zr
atom 7.5039492730378106 2.5013164243166761 32.8240391860084273 Zr
atom 2.5013164243724471 7.5039492729820187 32.8240391860478766 Zr
atom 7.5039492730143662 7.5039492730013277 32.8240391860523317 Zr
atom 2.5013164242024604 2.5013164245187438 37.9130667301989206 Zr
atom 7.5039492730275636 2.5013164245601578 37.9130667301706055 Zr
atom 2.5013164243615238 7.5039492732265050 37.9130667303199758 Zr
atom 7.5039492728681632 7.5039492731843103 37.9130667302872908 Zr
atom 2.5013164268459809 2.5013164258714489 30.2727356201366504 S
atom 7.5039492700840871 2.5013164239391541 30.2727356201460793 S
atom 2.5013164214185921 7.5039492726048334 30.2727356201397271 S
atom 7.5039492755118582 7.5039492745371321 30.2727356201445730 S
atom 2.5013164220336876 2.5013164229099045 35.3527909709047279 S
atom 7.5039492757112614 2.5013164243813510 35.3527909709129844 S
atom 2.5013164270452046 7.5039492730478337 35.3527909708991928 S
atom 7.5039492707000024 7.5039492715764426 35.3527909709029942 S
atom 2.9655559650570114 -0.0000000000353208 32.8040558031586613 S
atom 7.0397097323237530 -0.0000000000362347 32.8040558049354374 S
atom 2.0370768836585929 5.0026328486222971 32.8040558049364819 S
atom 7.9681888137235344 5.0026328486212357 32.8040558031551583 S
atom 2.9944941748875156 -0.0000000000578973 37.8899582640666566 S
atom 7.0107715224756442 -0.0000000000606185 37.8899582626438658 S
atom 2.0081386738140692 5.0026328485976546 37.8899582626164744 S
atom 7.9971270235577911 5.0026328486020484 37.8899582640908363 S
atom 0.0000000000267437 2.0370768835809372 32.8040558012665358 S
atom 5.0026328486955931 2.9655559649824177 32.8040558068258719 S
atom 0.0000000000238360 7.9681888136460435 32.8040558068224755 S
atom 5.0026328486955656 7.0397097322491655 32.8040558012658110 S
atom 0.0000000000269707 2.0081386737255711 37.8899582659723961 S
atom 5.0026328486887479 2.9944941748221972 37.8899582608343906 S
atom 0.0000000000277370 7.9971270234692993 37.8899582607314471 S
atom 5.0026328486892417 7.0107715224105149 37.8899582658732044 S
atom -0.0000000004865046 -0.0000000016941373 40.4004009034591149 Ba
atom 5.0026328490816052 0.0000000016098710 40.4004009034611329 Ba
atom 0.0000000004572369 5.0026328503755808 40.4004009034576583 Ba
atom 5.0026328481583855 5.0026328471779626 40.4004009034595342 Ba
atom 0.0000000004981846 -0.0000000000059421 45.1639116646247416 Ba
atom 5.0026328484970035 -0.0000000023886606 45.1639116646257861 Ba
atom 0.0000000000694800 5.0026328471396670 45.1639116646227379 Ba
atom 5.0026328489895979 5.0026328498413095 45.1639116646262124 Ba
atom 2.5013164236820193 2.5013164237766552 43.0268016769269295 Zr
atom 7.5039492738309654 2.5013164243630008 43.0268016768606074 Zr
atom 2.5013164251652840 7.5039492730285726 43.0268016772598116 Zr
atom 7.5039492723477990 7.5039492724423438 43.0268016771935322 Zr
atom 2.5013164279370503 2.5013164251841475 40.4243865601395242 S
atom 7.5039492695367720 2.5013164231576228 40.4243865601214338 S
atom 2.5013164208709457 7.5039492718231475 40.4243865601231960 S
atom 7.5039492766027545 7.5039492738493347 40.4243865601130423 S
atom 2.5013164156168086 2.5013164215776369 45.5366520452693067 S
atom 7.5039492816038651 2.5013164276393725 45.5366520452996397 S
atom 2.5013164329377862 7.5039492763055851 45.5366520451300261 S
atom 7.5039492642829151 7.5039492702438517 45.5366520451641179 S
atom 2.2214527134828979 -0.0000000000523898 42.9012245229485529 S
atom 7.7838129834315239 -0.0000000000518195 42.9012245260646594 S
atom 2.7811801347448117 5.0026328485314977 42.9012245260356053 S
atom 7.2240855621287574 5.0026328485307667 42.9012245229745375 S
atom 0.0000000000258714 2.7811801355788477 42.9012245196940896 S
atom 5.0026328487147573 2.2214527141912965 42.9012245294304435 S
atom 0.0000000000267713 7.2240855629598606 42.9012245293154635 S
atom 5.0026328487137910 7.7838129841416279 42.9012245195800759 S
atom 2.5013164535718442 2.5013164362884392 48.6693145781820604 Ba
atom 7.5039492437416904 2.5013164124846781 48.6693145779026182 Ba
atom 2.5013163950757233 7.5039492611508134 48.6693145795969997 Ba
atom 7.5039493022377792 7.5039492849546008 48.6693145793167758 Ba
atom 2.5013164084756587 2.5013164171656137 53.4795884351197301 Ba
atom 7.5039492888872283 2.5013164314661656 53.4795884358789806 Ba
atom 2.5013164402229227 7.5039492801322103 53.4795884312823162 Ba
atom 7.5039492571400279 7.5039492658316442 53.4795884320417869 Ba
atom 5.0026328498657495 5.0026328505687800 50.7378787255258672 Zr
atom 10.0052656961991566 5.0026328460791669 50.7378787255273167 Zr
atom 5.0026328476394770 10.0052656953102126 50.7378787255254906 Zr
atom 10.0052656984201640 10.0052656997744798 50.7378787255240411 Zr
atom 5.0026328469623413 5.0026328467244161 55.8271395361061806 Zr
atom 10.0052656990720479 5.0026328514690865 55.8271395361163343 Zr
atom 5.0026328502336144 10.0052656992237186 55.8271395361102449 Zr
atom 10.0052656958004373 10.0052656944762930 55.8271395361057330 Zr
atom 5.0026328247221530 5.0026327981818488 48.2323136811481206 S
atom 10.0052657216034717 5.0026329100784013 48.2323136811436655 S
atom 5.0026328705776715 10.0052657470958088 48.2323136811433670 S
atom 10.0052656757189702 10.0052656350543661 48.2323136811487885 S
atom 5.0026328976600780 5.0026329344765985 53.3231580770379807 S
atom 10.0052656484129070 5.0026327342828907 53.3231580770327938 S
atom 5.0026328053933602 10.0052656113788156 53.3231580770399702 S
atom 10.0052657406745915 10.0052658115467885 53.3231580770235496 S
atom 5.0026328458324087 2.5013179850240288 50.8480323020782308 S
atom 10.0052657001945775 2.5013148634767410 50.8480321593576008 S
atom 5.0026328514095422 7.5039477121565872 50.8480321781352842 S
atom 10.0052656946174867 7.5039508336743221 50.8480323208639220 S
atom 5.0026329042238613 2.5013157118774143 55.8538964358052823 S
atom 10.0052656418075934 2.5013171367260303 55.8538966866212760 S
atom 5.0026327933730546 7.5039499853960869 55.8538966489666180 S
atom 10.0052657526583069 7.5039485605428364 55.8538963981532603 S
atom 2.5013148636082225 5.0026328517415797 50.8480322730113770 S
atom 7.5039508338036329 5.0026328461644676 50.8480322072044686 S
atom 2.5013179851399525 10.0052656942245317 50.8480322109498459 S
atom 7.5039477122663749 10.0052656998016509 50.8480322692637756 S
atom 2.5013171367749933 5.0026327926001155 55.8538964766112329 S
atom 7.5039485605976326 5.0026329034509009 55.8538966081600705 S
atom 2.5013157119237430 10.0052657533544469 55.8538966007373432 S
atom 7.5039499854474689 10.0052656425037192 55.8538964840317789 S
atom 2.5013164300354620 2.5013164271065937 58.4365942872810109 Ba
atom 7.5039492673301051 2.5013164215228327 58.4365942866830537 Ba
atom 2.5013164186653585 7.5039492701879009 58.4365942903906870 Ba
atom 7.5039492787002287 7.5039492757716468 58.4365942897926374 Ba
atom 2.5013164235781060 2.5013164240732704 63.4433768671581930 Ba
atom 7.5039492737892672 2.5013164245553714 63.4433768675207119 Ba
atom 2.5013164251185964 7.5039492732209974 63.4433768652020333 Ba
atom 7.5039492722488168 7.5039492727389172 63.4433768655645309 Ba
atom 5.0026328506724456 5.0026328501708459 60.8822470711551702 Zr
atom 10.0052656953598262 5.0026328465658088 60.8822470711551986 Zr
atom 5.0026328467777077 10.0052656957885588 60.8822470711438086 Zr
atom 10.0052656992544620 10.0052656993929077 60.8822470711651818 Zr
atom 5.0026328468138095 5.0026328479754971 65.9321096257588124 Zr
atom 10.0052656992204856 5.0026328492621257 65.9321096257537107 Zr
atom 5.0026328506123585 10.0052656979837078 65.9321096257609867 Zr
atom 10.0052656954219525 10.0052656966970197 65.9321096257476000 Zr
atom 5.0026327620549802 5.0026327169628759 58.3675596137394095 S
atom 10.0052657839826615 5.0026330271713597 58.3675596137547004 S
atom 5.0026329261864735 10.0052658289804857 58.3675596137418182 S
atom 10.0052656198501850 10.0052655187673096 58.3675596137563488 S
atom 5.0026329761861161 5.0026330186166819 63.4119548355386939 S
atom 10.0052655698479160 5.0026326218574795 63.4119548355256626 S
atom 5.0026327317241694 10.0052655273405975 63.4119548355213709 S
atom 10.0052658143097606 10.0052659240989978 63.4119548355387934 S
atom 5.0026326735941717 2.5013165409573692 60.8940862739013937 S
atom 10.0052658724376471 2.5013163076699554 60.8940859126009855 S
atom 5.0026330236667622 7.5039491563342633 60.8940859662236775 S
atom 10.0052655223649634 7.5039493896213658 60.8940863275186217 S
atom 5.0026324571251664 2.5013164028209882 65.9353384907752655 S
atom 10.0052660889091385 2.5013164458067809 65.9353389177135227 S
atom 5.0026332400551388 7.5039492944719486 65.9353388602425383 S
atom 10.0052653059791883 7.5039492514861301 65.9353384333125945 S
atom 2.5013163077114395 5.0026330240805477 60.8940862283796847 S
atom 7.5039493896558280 5.0026326740079901 60.8940860117419547 S
atom 2.5013165409921103 10.0052655218796485 60.8940860219723561 S
atom 7.5039491563747900 10.0052658719522185 60.8940862181455742 S
atom 2.5013164458396018 5.0026332403299190 65.9353385272026742 S
atom 7.5039492515291251 5.0026324573998586 65.9353388238177871 S
atom 2.5013164028631838 10.0052653056295320 65.9353388136328391 S
atom 7.5039492945053698 10.0052660885595390 65.9353385373847658 S
atom 2.5013164226551705 2.5013164228536988 68.4657760206437729 Ba
atom 7.5039492747144898 2.5013164257731999 68.4657760205364383 Ba
atom 2.5013164260498915 7.5039492744387370 68.4657760212333528 Ba
atom 7.5039492713197724 7.5039492715191853 68.4657760211261035 Ba
atom 2.5013164260059129 2.5013164258694354 73.4939754745850848 Ba
atom 7.5039492713667535 2.5013164227520122 73.4939754745757483 Ba
atom 2.5013164227061857 7.5039492714199589 73.4939754748344143 Ba
atom 7.5039492746665042 7.5039492745374092 73.4939754748242962 Ba
atom 5.0026328498223949 5.0026328480293003 70.9798757477909135 Zr
atom 10.0052656962146482 5.0026328498841686 70.9798757477923203 Zr
atom 5.0026328473745263 10.0052656979276762 70.9798757478011595 Zr
atom 10.0052656986624182 10.0052656960729074 70.9798757477878297 Zr
atom 5.0026328486631177 5.0026328503652113 76.0276418698358896 Zr
atom 10.0052656973758669 5.0026328460821023 76.0276418698403376 Zr
atom 5.0026328489019294 10.0052656955891273 76.0276418698176144 Zr
atom 10.0052656971369434 10.0052656998722505 76.0276418698435066 Zr
atom 5.0026326872798208 5.0026326609009173 68.4571495078422032 S
atom 10.0052658587558749 5.0026330899775404 68.4571495078481291 S
atom 5.0026330012052753 10.0052658850568204 68.4571495078556467 S
atom 10.0052655448303245 10.0052654559801137 68.4571495078326677 S
atom 5.0026330278884039 5.0026330284626122 73.5026019877417980 S
atom 10.0052655181489953 5.0026326294381658 73.5026019877400643 S
atom 5.0026326743911476 10.0052655174932834 73.5026019877349768 S
atom 10.0052658716460847 10.0052659165177165 73.5026019877478092 S
atom 5.0026341831958145 2.5013164272969575 70.9798759380388589 S
atom 10.0052643628412188 2.5013164213262806 70.9798755094202534 S
atom 5.0026315145911777 7.5039492699941936 70.9798755575506704 S
atom 10.0052670314458023 7.5039492759645521 70.9798759861756849 S
atom 5.0026351670846774 2.5013164028221238 76.0244126506535736 S
atom 10.0052633789546466 2.5013164458036123 76.0244130203072928 S
atom 5.0026305298467513 7.5039492944667643 76.0244129895112479 S
atom 10.0052680161925522 7.5039492514851434 76.0244126198514465 S
atom 2.5013164213704773 5.0026315136017230 70.9798759236481942 S
atom 7.5039492760002515 5.0026341822062994 70.9798755719449588 S
atom 2.5013164273346633 10.0052670323553592 70.9798755791091764 S
atom 7.5039492700362436 10.0052643637506300 70.9798759164780648 S
atom 2.5013164458444375 5.0026305309372852 76.0244126375576883 S
atom 7.5039492515279820 5.0026351681751953 76.0244130026005536 S
atom 2.5013164028643944 10.0052680150169362 76.0244129998774838 S
atom 7.5039492945083701 10.0052633777791229 76.0244126402823071 S
atom 2.5013164248050934 2.5013164248994513 78.5163746295695830 Ba
atom 7.5039492725687040 2.5013164237240808 78.5163746295783653 Ba
atom 2.5013164239000663 7.5039492723881818 78.5163746288795039 Ba
atom 7.5039492734737490 7.5039492735635358 78.5163746288890536 Ba
atom 2.5013164206166318 2.5013164189064425 83.5231572067227717 Ba
atom 7.5039492767568401 2.5013164297162129 83.5231572068344548 Ba
atom 2.5013164280854148 7.5039492783797694 83.5231572072742381 Ba
atom 7.5039492692880065 7.5039492675700110 83.5231572073863475 Ba
atom 5.0026328476733442 5.0026328465038237 81.0775044244337124 Zr
atom 10.0052656983646706 5.0026328514590732 81.0775044244458769 Zr
atom 5.0026328495839270 10.0052656994489411 81.0775044244369099 Zr
atom 10.0052656964539963 10.0052656944935485 81.0775044244384304 Zr
atom 5.0026328505099746 5.0026328506491184 86.1326119594858994 Zr
atom 10.0052656955118238 5.0026328463035927 86.1326119594656774 Zr
atom 5.0026328468560770 10.0052656953070969 86.1326119594937438 Zr
atom 10.0052656991653706 10.0052656996515719 86.1326119594794193 Zr
atom 5.0026326744584875 5.0026326996443764 78.5477966600617776 S
atom 10.0052658715772242 5.0026330189464128 78.5477966600655293 S
atom 5.0026330222856528 10.0052658463101398 78.5477966600462594 S
atom 10.0052655237498769 10.0052655270077668 78.5477966600602571 S
atom 5.0026329939101917 5.0026329533549507 83.5921918818342107 S
atom 10.0052655521055573 5.0026327370388630 83.5921918818514484 S
atom 5.0026327014709882 10.0052655926045961 83.5921918818540064 S
atom 10.0052658445440379 10.0052658089192423 83.5921918818353475 S
atom 5.0026305735430219 2.5013165409505302 81.0656655043510881 S
atom 10.0052679724963944 2.5013163076705700 81.0656652331309857 S
atom 5.0026351241023441 7.5039491563370584 81.0656652467038583 S
atom 10.0052634219370713 7.5039493896166816 81.0656655179235344 S
atom 5.0026332619012406 2.5013157118898963 86.1058548728437074 S
atom 10.0052652841299317 2.5013171367342961 86.1058550361798609 S
atom 5.0026324354025862 7.5039499854047831 86.1058550335539934 S
atom 10.0052661106283818 7.5039485605592517 86.1058548702331734 S
atom 2.5013163077057015 5.0026351232130999 81.0656655390613423 S
atom 7.5039493896641014 5.0026305726538007 81.0656652119908472 S
atom 2.5013165409938471 10.0052634227390467 81.0656652110694438 S
atom 7.5039491563758709 10.0052679732982330 81.0656655399824757 S
atom 2.5013171367704672 5.0026324357189749 86.1058548316494807 S
atom 7.5039485605742451 5.0026332622173726 86.1058550747582387 S
atom 2.5013157119133274 10.0052661102333236 86.1058550770316629 S
atom 7.5039499854305465 10.0052652837348752 86.1058548293655832 S
atom 2.5013164337244853 2.5013164406124813 88.4801630622172581 Ba
atom 7.5039492636525864 2.5013164079996679 88.4801630619598996 Ba
atom 2.5013164149928500 7.5039492566708192 88.4801630620544444 Ba
atom 7.5039492823842737 7.5039492892836215 88.4801630617991179 Ba
atom 2.5013164091018565 2.5013163922639183 93.2904369168040830 Ba
atom 7.5039492884343897 2.5013164562947350 93.2904369169355192 Ba
atom 2.5013164397689236 7.5039493049597548 93.2904369167234080 Ba
atom 7.5039492577672906 7.5039492409289679 93.2904369168544889 Ba
atom 5.0026328464592442 5.0026328472407471 91.2218727700573311 Zr
atom 10.0052656994670439 5.0026328501731694 91.2218727700632854 Zr
atom 5.0026328508201017 10.0052656987536839 91.2218727700458913 Zr
atom 10.0052656951027021 10.0052656958151296 91.2218727700567058 Zr
atom 5.0026327478026751 5.0026327881979276 88.6365934185633648 S
atom 10.0052657980971933 5.0026329090440100 88.6365934185344457 S
atom 5.0026329516490495 10.0052657578059492 88.6365934185589595 S
atom 10.0052655942472715 10.0052656369535136 88.6365934185574247 S
atom 5.0026329086507140 5.0026328789860006 93.7274378144254285 S
atom 10.0052656365328012 5.0026328198286336 93.7274378144507381 S
atom 5.0026327866637601 10.0052656673309546 93.7274378144161062 S
atom 10.0052657585021763 10.0052657264625626 93.7274378144287112 S
atom 5.0026328301968768 2.5013179851072067 91.1117192963314864 S
atom 10.0052657158444696 2.5013148635737501 91.1117192156025624 S
atom 5.0026328671623057 7.5039477122377756 91.1117192146396064 S
atom 10.0052656788791943 7.5039508337645939 91.1117192953659156 S
atom 2.5013148635062157 5.0026328670618785 91.1117193298377686 S
atom 7.5039508337157388 5.0026328300962648 91.1117191811290041 S
atom 2.5013179850415939 10.0052656788865377 91.1117191794409678 S
atom 7.5039477121765588 10.0052657158520582 91.1117193315280502 S
