#=======================================================
# FHI-aims file: full_relax/full_relax_RP_1_Rx00_0Ry0.in
# Created using the Atomic Simulation Environment (ASE)
# Fri Mar 14 11:17:00 2025
#=======================================================
lattice_vector 10.0712891700400657 0.0000000000000001 0.0000000000000002 
lattice_vector 0.0000000000000001 10.0712891700397815 -0.0000000000000029 
lattice_vector 0.0000000000000003 -0.0000000000000047 15.6175305266480375 
atom -0.1383451561944463 0.0000000000000270 0.2385691658788742 Ba
atom 5.1739897412143954 0.0000000000000163 0.2385691658788705 Ba
atom 0.1383451561942580 5.0356445850198446 0.2385691658788963 Ba
atom 4.8972994288255878 5.0356445850197220 0.2385691658788704 Ba
atom 0.1383451561942508 -0.0000000000000985 4.6419091236990173 Ba
atom 4.8972994288255691 -0.0000000000000883 4.6419091236990564 Ba
atom -0.1383451561943054 5.0356445850199210 4.6419091236991212 Ba
atom 5.1739897412142959 5.0356445850197344 4.6419091236995857 Ba
atom 2.5178222925096674 2.5178222925092442 2.4402391447878182 Zr
atom 7.5534668775294316 2.5178222925095537 2.4402391447879030 Zr
atom 2.5178222925099285 7.5534668775297433 2.4402391447883183 Zr
atom 7.5534668775293055 7.5534668775292833 2.4402391447877569 Zr
atom 2.5178222925098024 2.7383824076601107 -0.0978603397270805 S
atom 7.5534668775300773 2.2972621773594586 -0.0978603397274952 S
atom 2.5178222925097500 7.3329067623795119 -0.0978603397273581 S
atom 7.5534668775301119 7.7740269926799552 -0.0978603397271845 S
atom 2.5178222925098659 2.2972621773593143 4.9783386293049494 S
atom 7.5534668775300444 2.7383824076601231 4.9783386293049992 S
atom 2.5178222925098344 7.7740269926802457 4.9783386293042424 S
atom 7.5534668775300116 7.3329067623794444 4.9783386293048517 S
atom 2.5178222925097606 0.0000000000004285 2.2110214340496621 S
atom 7.5534668775299387 0.0000000000006460 2.6694568555275602 S
atom 2.5178222925096900 5.0356445850205773 2.6694568555274105 S
atom 7.5534668775299023 5.0356445850207630 2.2110214340496404 S
atom 0.0000000000007272 2.5178222925097380 2.4402391447885026 S
atom 5.0356445850211600 2.5178222925098224 2.4402391447884697 S
atom 0.0000000000005823 7.5534668775296465 2.4402391447884195 S
atom 5.0356445850210028 7.5534668775295915 2.4402391447885972 S
atom 2.5178222925099130 2.3794771363155656 8.0473344292025857 Ba
atom 7.5534668775298677 2.6561674487043989 8.0473344292021736 Ba
atom 2.5178222925099027 7.6918120337238589 8.0473344292028219 Ba
atom 7.5534668775299147 7.4151217213351428 8.0473344292027722 Ba
atom 2.5178222925100529 2.6561674487040063 12.4506743870232466 Ba
atom 7.5534668775296989 2.3794771363156473 12.4506743870234704 Ba
atom 2.5178222925100897 7.4151217213354759 12.4506743870230547 Ba
atom 7.5534668775298623 7.6918120337238509 12.4506743870232270 Ba
atom 5.0356445850205525 5.0356445850200391 10.2490044081110927 Zr
atom 10.0712891700411653 5.0356445850199947 10.2490044081114124 Zr
atom 5.0356445850205693 10.0712891700407230 10.2490044081118690 Zr
atom 10.0712891700405986 10.0712891700405454 10.2490044081114071 Zr
atom 5.2562047001702519 5.0356445850200640 7.7109049235966891 S
atom 9.8507290548899835 5.0356445850199654 7.7109049235965470 S
atom 4.8150844698698334 10.0712891700399467 7.7109049235964662 S
atom 10.2918492851901533 10.0712891700400160 7.7109049235970737 S
atom 4.8150844698698805 5.0356445850199663 12.7871038926288207 S
atom 10.2918492851901409 5.0356445850200684 12.7871038926291547 S
atom 5.2562047001703363 10.0712891700396128 12.7871038926290748 S
atom 9.8507290548900457 10.0712891700396696 12.7871038926297995 S
atom 5.0356445850201341 2.5178222925088689 10.2490044081128424 S
atom 10.0712891700402061 2.5178222925094018 10.2490044081127838 S
atom 5.0356445850202913 7.5534668775290603 10.2490044081129952 S
atom 10.0712891700402238 7.5534668775288063 10.2490044081129170 S
atom 2.5178222925092708 5.0356445850199858 10.0197866973738385 S
atom 7.5534668775286784 5.0356445850201670 10.4782221188519014 S
atom 2.5178222925091882 10.0712891700403500 10.4782221188521429 S
atom 7.5534668775293685 10.0712891700402132 10.0197866973737124 S
