#=======================================================
# FHI-aims file: full_relax/full_relax_RP_1_RxRy0_RxRy0.in
# Created using the Atomic Simulation Environment (ASE)
# Fri Mar 14 11:17:00 2025
#=======================================================
lattice_vector 10.0578066677730877 0.1251437233457858 -0.0000000000000111 
lattice_vector 0.1251437233457860 10.0578066677731073 0.0000000000000481 
lattice_vector -0.0000000000000177 0.0000000000000792 15.6289482988535422 
atom -0.0908151525718582 -0.0908151525733036 0.2364327664784510 Ba
atom 5.1197184864596945 0.1533870142452432 0.2364327664882905 Ba
atom 0.1533870142479089 5.1197184864612666 0.2364327664733769 Ba
atom 5.0006600429861354 5.0006600429855999 0.2364327664804757 Ba
atom 0.0908151525734900 0.0908151525742454 4.6476135769137263 Ba
atom 4.9380881813142761 -0.0282432909002230 4.6476135769186966 Ba
atom -0.0282432909006156 4.9380881813126347 4.6476135769207145 Ba
atom 5.1822903481342921 5.1822903481345861 4.6476135769176485 Ba
atom 2.5457375977804224 2.5457375977789045 2.4420231717020151 Zr
atom 7.5746409316608512 2.6083094594528333 2.4420231716996033 Zr
atom 2.6083094594520468 7.5746409316613033 2.4420231716972318 Zr
atom 7.6372127933323251 7.6372127933352294 2.4420231717042764 Zr
atom 2.6909474993145963 2.6909474993157825 -0.0990334543219617 S
atom 7.4294310301322044 2.4630995579168520 -0.0990334543254589 S
atom 2.4630995579154025 7.4294310301282582 -0.0990334543216404 S
atom 7.7824226948744739 7.7824226948724737 -0.0990334543193171 S
atom 2.4005276962452942 2.4005276962433455 4.9830797977029411 S
atom 7.7198508331984224 2.7535193609871698 4.9830797977169814 S
atom 2.7535193609876130 7.7198508332001810 4.9830797977080827 S
atom 7.4920028918026080 7.4920028918033665 4.9830797977098680 S
atom 2.5144516669432821 0.0312859308380601 2.2905049618512363 S
atom 7.5433550008278001 0.0938577925188433 2.5935413815462320 S
atom 2.5770235286165706 5.0601892647315454 2.5935413815479191 S
atom 7.6059268624993273 5.1227611263936916 2.2905049618460338 S
atom 0.0312859308418130 2.5144516669413197 2.2905049618462634 S
atom 5.0601892647241282 2.5770235286143053 2.5935413815500521 S
atom 0.0938577925074760 7.5433550008301227 2.5935413815460691 S
atom 5.1227611264051927 7.6059268625017111 2.2905049618487046 S
atom 2.4549224452088150 2.4549224452061633 8.0509069158987376 Ba
atom 7.6654560842368129 2.6991246120263144 8.0509069158906410 Ba
atom 2.6991246120284016 7.6654560842399748 8.0509069159044184 Ba
atom 7.5463976407626321 7.5463976407677178 8.0509069158881807 Ba
atom 2.6365527503497197 2.6365527503546553 12.4620877263453629 Ba
atom 7.4838257790947571 2.5174943068807294 12.4620877263495711 Ba
atom 2.5174943068795690 7.4838257790948157 12.4620877263380496 Ba
atom 7.7280279459123120 7.7280279459142198 12.4620877263466134 Ba
atom 5.0914751955562636 5.0914751955647510 10.2564973211289896 Zr
atom 10.1203785294438013 5.1540470572278236 10.2564973211239696 Zr
atom 5.1540470572396826 10.1203785294451993 10.2564973211136756 Zr
atom 10.1829503911071146 10.1829503911173607 10.2564973211360027 Zr
atom 5.2366850970934724 5.2366850970942558 7.7154406951006695 S
atom 9.9751686279123479 5.0088371556954865 7.7154406950972190 S
atom 5.0088371556938851 9.9751686279096514 7.7154406951050856 S
atom 10.3281602926543332 10.3281602926590104 7.7154406951076648 S
atom 4.9462652940265173 4.9462652940271736 12.7975539471315454 S
atom 10.2655884309809462 5.2992569587727134 12.7975539471408428 S
atom 5.2992569587671072 10.2655884309845451 12.7975539471209494 S
atom 10.0377404895824398 10.0377404895801838 12.7975539471286055 S
atom 5.0601892647272608 2.5770235286170009 10.1049791112741083 S
atom 10.0890925986053137 2.6395953902893918 10.4080155309661322 S
atom 5.1227611263933452 7.6059268624911249 10.4080155309742661 S
atom 10.1516644602830883 7.6684987241756861 10.1049791112802048 S
atom 2.5770235286144421 5.0601892647302043 10.1049791112704170 S
atom 7.6059268625081309 5.1227611263955870 10.4080155309762592 S
atom 2.6395953902974441 10.0890925986022015 10.4080155309745646 S
atom 7.6684987241765867 10.1516644602816015 10.1049791112778156 S
