#=======================================================
# FHI-aims file: full_relax/full_relax_RP_2_RxRy0_RxRy0.in
# Created using the Atomic Simulation Environment (ASE)
# Fri Mar 14 11:17:33 2025
#=======================================================
lattice_vector 10.0883656552582615 0.1463593571627668 0.0000000000000137 
lattice_vector 0.1463593571627712 10.0883656552583485 0.0000000000000096 
lattice_vector 0.0000000000000372 0.0000000000000260 25.4319249837291679 
atom -0.0908964100949507 -0.0908964100932832 0.2763003493417553 Ba
atom 5.1350792377239296 0.1640760886767268 0.2763003493420290 Ba
atom 0.1640760886764782 5.1350792377229926 0.2763003493415097 Ba
atom 5.0264660961156773 5.0264660961153336 0.2763003493400713 Ba
atom 0.0274908804454816 0.0274908804456396 4.8907548045613165 Ba
atom 5.0166919471831211 0.0456887981361364 4.8907548045611895 Ba
atom 0.0456887981353909 5.0166919471834781 4.8907548045608396 Ba
atom 5.1448533866562389 5.1448533866552362 4.8907548045614258 Ba
atom 2.5545576010774180 2.5545576010772089 2.3530448962128947 Zr
atom 7.6069877327583706 2.6359845837098725 2.3530448962101191 Zr
atom 2.6359845837117710 7.6069877327620405 2.3530448962158634 Zr
atom 7.6719201072902719 7.6719201072909096 2.3530448962148021 Zr
atom 2.5545576010756683 2.5545576010734741 7.4284647129074379 Zr
atom 7.6069877327601576 2.6359845837113349 7.4284647129082604 Zr
atom 2.6359845837123919 7.6069877327645168 7.4284647129092951 Zr
atom 7.6719201072902434 7.6719201072897505 7.4284647129095971 Zr
atom 2.7924549734873989 2.7924549734886934 -0.1389244042457961 S
atom 7.3690903603516142 2.3980872113037819 -0.1389244042437357 S
atom 2.3980872113040461 7.3690903603508566 -0.1389244042498021 S
atom 7.9098174796976295 7.9098174796985274 -0.1389244042463088 S
atom 2.2828441694658199 2.2828441694657626 4.8907548045608005 S
atom 7.8787011643712530 2.9076980153258178 4.8907548045611673 S
atom 2.9076980153248773 7.8787011643726501 4.8907548045579459 S
atom 7.4002066756772082 7.4002066756760749 4.8907548045612801 S
atom 2.5220914138136470 0.0365898392892259 2.1965454379347698 S
atom 7.5662742414435318 0.1097695178708906 2.7014596516225198 S
atom 2.5952710923963123 5.0807726669221145 2.7014596516230278 S
atom 7.6394539200236258 5.1539523455039733 2.1965454379339384 S
atom 2.5220914138140262 0.0365898392895936 7.5849641711938398 S
atom 7.5662742414430815 0.1097695178728628 7.0800499575059979 S
atom 2.5952710923956781 5.0807726669239726 7.0800499575066906 S
atom 7.6394539200240077 5.1539523455032326 7.5849641711937794 S
atom 0.0365898392949824 2.5220914138139725 2.1965454379350873 S
atom 5.0807726669218374 2.5952710923970002 2.7014596516217630 S
atom 0.1097695178722951 7.5662742414438942 2.7014596516221303 S
atom 5.1539523455007554 7.6394539200240681 2.1965454379356291 S
atom 0.0365898392951879 2.5220914138144619 7.5849641711927394 S
atom 5.0807726669220807 2.5952710923962679 7.0800499575062767 S
atom 0.1097695178722133 7.5662742414425725 7.0800499575074705 S
atom 5.1539523455002367 7.6394539200238807 7.5849641711935272 S
atom -0.0908964100935561 -0.0908964100929138 9.5052092597822408 Ba
atom 5.1350792377223335 0.1640760886745567 9.5052092597835820 Ba
atom 0.1640760886749874 5.1350792377227457 9.5052092597849569 Ba
atom 5.0264660961166765 5.0264660961167156 9.5052092597825570 Ba
atom 2.7924549734881881 2.7924549734899875 9.9204340133668172 S
atom 7.3690903603509028 2.3980872113034617 9.9204340133702011 S
atom 2.3980872113036380 7.3690903603496931 9.9204340133656768 S
atom 7.9098174796979839 7.9098174796984058 9.9204340133625539 S
atom 2.4677848430106861 2.4677848430114890 12.9922628412184764 Ba
atom 7.6937604908275752 2.7227573417781001 12.9922628412162720 Ba
atom 2.7227573417792033 7.6937604908275761 12.9922628412183290 Ba
atom 7.5851473492227797 7.5851473492230568 12.9922628412187482 Ba
atom 2.5861721335498888 2.5861721335503312 17.6067172964253764 Ba
atom 7.5753732002891825 2.6043700512420527 17.6067172964254901 Ba
atom 2.6043700512419408 7.5753732002896363 17.6067172964249146 Ba
atom 7.7035346397601536 7.7035346397601927 17.6067172964247689 Ba
atom 5.1132388541829306 5.1132388541841003 15.0690073880679325 Zr
atom 10.1656689858708873 5.1946658368177836 15.0690073880717357 Zr
atom 5.1946658368202252 10.1656689858680807 15.0690073880722402 Zr
atom 10.2306013603958483 10.2306013603933739 15.0690073880640210 Zr
atom 5.1132388541822236 5.1132388541805698 20.1444272047763242 Zr
atom 10.1656689858668567 5.1946658368153891 20.1444272047902864 Zr
atom 5.1946658368174878 10.1656689858699387 20.1444272047899489 Zr
atom 10.2306013603975767 10.2306013603960864 20.1444272047794648 Zr
atom 5.3511362265923488 5.3511362265930220 12.5770380876109140 S
atom 9.9277716134582192 4.9567684644097483 12.5770380876012240 S
atom 4.9567684644099730 9.9277716134571286 12.5770380876020518 S
atom 10.4684987328027965 10.4684987328025976 12.5770380876176109 S
atom 4.8415254225714790 4.8415254225701858 17.6067172964449163 S
atom 10.4373824174793821 5.4663792684320782 17.6067172964381307 S
atom 5.4663792684330748 10.4373824174812029 17.6067172964359884 S
atom 9.9588879287819498 9.9588879287801824 17.6067172964272203 S
atom 5.0807726669217663 2.5952710923952216 14.9125079297968650 S
atom 10.1249554945488764 2.6684507709809764 15.4174221434899898 S
atom 5.1539523455019625 7.6394539200227420 15.4174221434874745 S
atom 10.1981351731312415 7.7126335986080230 14.9125079297979557 S
atom 5.0807726669206676 2.5952710923935607 20.3009266630506211 S
atom 10.1249554945491234 2.6684507709737302 19.7960124493643725 S
atom 5.1539523455015823 7.6394539200229810 19.7960124493634488 S
atom 10.1981351731301615 7.7126335986107586 20.3009266630542804 S
atom 2.5952710923927578 5.0807726669201578 14.9125079297963907 S
atom 7.6394539200194611 5.1539523455009828 15.4174221434879826 S
atom 2.6684507709761811 10.1249554945484608 15.4174221434890590 S
atom 7.7126335986011316 10.1981351731301029 14.9125079297993768 S
atom 2.5952710923921041 5.0807726669200353 20.3009266630514027 S
atom 7.6394539200267815 5.1539523455018559 19.7960124493630332 S
atom 2.6684507709715253 10.1249554945481979 19.7960124493658611 S
atom 7.7126335986049881 10.1981351731301242 20.3009266630530476 S
atom 2.4677848430117755 2.4677848430119687 22.2211717516430376 Ba
atom 7.6937604908286268 2.7227573417810791 22.2211717516430944 Ba
atom 2.7227573417820592 7.6937604908286641 22.2211717516435172 Ba
atom 7.5851473492213302 7.5851473492215522 22.2211717516430198 Ba
atom 5.3511362265922662 5.3511362265942761 22.6363965052486833 S
atom 9.9277716134586811 4.9567684644105627 22.6363965052312892 S
atom 4.9567684644097456 9.9277716134557270 22.6363965052333498 S
atom 10.4684987328027042 10.4684987328024164 22.6363965052471805 S
