#=======================================================
# FHI-aims file: full_relax/full_relax_RP_6_00Mz1_00Mz2.in
# Created using the Atomic Simulation Environment (ASE)
# Fri Mar 14 11:38:35 2025
#=======================================================
lattice_vector 9.9094477562829795 0.0000000056347991 -0.0000000000000019 
lattice_vector 0.0000000056347991 9.9094477562829795 -0.0000000000000124 
lattice_vector -0.0000000000000124 -0.0000000000000795 67.1447751465884437 
atom -0.0000000000127649 -0.0000000000024614 0.1641455768858365 Ba
atom 4.9547238781372132 0.0000000028095790 0.1641455768859608 Ba
atom 0.0000000028131193 4.9547238781336826 0.1641455768860812 Ba
atom 4.9547238809462177 4.9547238809563838 0.1641455768857621 Ba
atom -0.0000000000004612 -0.0000000000178067 5.0666138479305856 Ba
atom 4.9547238781143248 0.0000000028161066 5.0666138479305882 Ba
atom 0.0000000027903128 4.9547238781400864 5.0666138479306246 Ba
atom 4.9547238809584675 4.9547238809410006 5.0666138479305349 Ba
atom 2.4773619404771785 2.4773619404778029 2.4381157468022017 Zr
atom 7.4320858186184795 2.4773619432951079 2.4381157468022194 Zr
atom 2.4773619432944187 7.4320858186192815 2.4381157468020969 Zr
atom 7.4320858214360310 7.4320858214367860 2.4381157468019641 Zr
atom 2.4773619404805780 2.4773619404850593 7.5768126883197162 Zr
atom 7.4320858186270753 2.4773619432952660 7.5768126883198041 Zr
atom 2.4773619433029697 7.4320858186192886 7.5768126883195439 Zr
atom 7.4320858214395349 7.4320858214440140 7.5768126883198885 Zr
atom 2.4773619404752343 2.4773619404918228 -0.1053153994005006 S
atom 7.4320858186288143 2.4773619432863097 -0.1053153994002182 S
atom 2.4773619433047855 7.4320858186104299 -0.1053153994003997 S
atom 7.4320858214340220 7.4320858214507730 -0.1053153994004576 S
atom 2.4773619404992604 2.4773619404552529 5.0375132191753886 S
atom 7.4320858186079546 2.4773619433253344 5.0375132191755201 S
atom 2.4773619432838450 7.4320858186492895 5.0375132191753318 S
atom 7.4320858214582355 7.4320858214141143 5.0375132191754330 S
atom 2.0531341930417271 -0.0000063360757879 2.5303448345852639 S
atom 7.8563135632367080 0.0000063417090150 2.5303448346142363 S
atom 2.9015896879125922 4.9547302170331440 2.5303448346141750 S
atom 7.0078580740006631 4.9547175448830787 2.5303448345852946 S
atom 2.9977453485835310 -0.0000000885008037 7.5899135842018586 S
atom 6.9117024076920028 0.0000000941365881 7.5899135841212448 S
atom 1.9569785323678979 4.9547239694604128 7.5899135841213887 S
atom 7.9524692295424160 4.9547237924577621 7.5899135842018719 S
atom 0.0000063388915561 2.9015896850954603 2.5303448346082074 S
atom 4.9547175420655885 2.0531341958594722 2.5303448345914958 S
atom -0.0000063332584687 7.0078580711835929 2.5303448345915567 S
atom 4.9547302198504637 7.8563135660544559 2.5303448346081510 S
atom 0.0000000913198185 1.9569785295515323 7.5899135841356786 S
atom 4.9547237896412089 2.9977453514019303 7.5899135841874763 S
atom -0.0000000856828172 7.9524692267261070 7.5899135841876451 S
atom 4.9547239722786802 6.9117024105104221 7.5899135841356316 S
atom 0.0000000000642687 0.0000000000303912 10.1545179631693223 Ba
atom 4.9547238781887541 0.0000000028586685 10.1545179631691926 Ba
atom 0.0000000028646237 4.9547238781827332 10.1545179631692193 Ba
atom 4.9547238810232672 4.9547238809892855 10.1545179631692193 Ba
atom -0.0000000000734308 -0.0000000000402041 15.2601761696761535 Ba
atom 4.9547238780807277 0.0000000027689965 15.2601761696760398 Ba
atom 0.0000000027567670 4.9547238780929250 15.2601761696760683 Ba
atom 4.9547238808858518 4.9547238809187144 15.2601761696760558 Ba
atom 2.4773619404779601 2.4773619404778495 12.6995848308446071 Zr
atom 7.4320858186191527 2.4773619432956413 12.6995848308448007 Zr
atom 2.4773619432950942 7.4320858186196146 12.6995848308447119 Zr
atom 7.4320858214368126 7.4320858214367131 12.6995848308447421 Zr
atom 2.4773619404778660 2.4773619404780600 17.8207675085080126 Zr
atom 7.4320858186193899 2.4773619432957936 17.8207675085075827 Zr
atom 2.4773619432952891 7.4320858186199414 17.8207675085073127 Zr
atom 7.4320858214368917 7.4320858214370054 17.8207675085077248 Zr
atom 2.4773619404382257 2.4773619405217113 10.1461019081993751 S
atom 7.4320858186430527 2.4773619432416232 10.1461019081994994 S
atom 2.4773619433190159 7.4320858185656933 10.1461019081988706 S
atom 7.4320858213970604 7.4320858214807162 10.1461019081990322 S
atom 2.4773619405274561 2.4773619404269294 15.2601761696763312 S
atom 7.4320858185920269 2.4773619433614598 15.2601761696764200 S
atom 2.4773619432678711 7.4320858186854508 15.2601761696762317 S
atom 7.4320858214864032 7.4320858213857139 15.2601761696762299 S
atom 2.9792641830100175 -0.0000000192204954 12.7070079304167489 S
atom 6.9301835732681543 0.0000000248520532 12.7070079305394827 S
atom 1.9754596979440078 4.9547239001765417 12.7070079305393584 S
atom 7.9339880639689353 4.9547238617385041 12.7070079304167933 S
atom 2.9792641830100854 -0.0000000192203301 17.8133444089353574 S
atom 6.9301835732681720 0.0000000248523629 17.8133444088123447 S
atom 1.9754596979440364 4.9547239001764858 17.8133444088123341 S
atom 7.9339880639690543 4.9547238617387777 17.8133444089354889 S
atom 0.0000000220346492 1.9754596951272057 12.7070079305181434 S
atom 4.9547238589209028 2.9792641858279683 12.7070079304379551 S
atom -0.0000000164032661 7.9339880611520934 12.7070079304381576 S
atom 4.9547239029935426 6.9301835760860735 12.7070079305183192 S
atom 0.0000000220347275 1.9754596951271692 17.8133444088331991 S
atom 4.9547238589208673 2.9792641858279412 17.8133444089144390 S
atom -0.0000000164031200 7.9339880611521467 17.8133444089146806 S
atom 4.9547239029933898 6.9301835760859838 17.8133444088333448 S
atom 0.0000000000649468 0.0000000000314499 20.3658343761830203 Ba
atom 4.9547238781890428 0.0000000028607433 20.3658343761828817 Ba
atom 0.0000000028651732 4.9547238781847964 20.3658343761830345 Ba
atom 4.9547238810239893 4.9547238809900707 20.3658343761829634 Ba
atom -0.0000000000000706 -0.0000000000187716 25.4537384914217277 Ba
atom 4.9547238781141747 0.0000000028167676 25.4537384914216922 Ba
atom 0.0000000027898291 4.9547238781403991 25.4537384914217668 Ba
atom 4.9547238809586664 4.9547238809405201 25.4537384914215217 Ba
atom 2.4773619404805793 2.4773619404853826 22.9435396510321077 Zr
atom 7.4320858186271082 2.4773619432953224 22.9435396510324949 Zr
atom 2.4773619433030740 7.4320858186194156 22.9435396510319087 Zr
atom 7.4320858214393981 7.4320858214442955 22.9435396510321965 Zr
atom 2.4773619404770137 2.4773619404778366 28.0822365925499682 Zr
atom 7.4320858186184475 2.4773619432949876 28.0822365925500996 Zr
atom 2.4773619432943557 7.4320858186191483 28.0822365925493962 Zr
atom 7.4320858214359129 7.4320858214367496 28.0822365925501813 Zr
atom 2.4773619404373282 2.4773619405220386 20.3742504311533317 S
atom 7.4320858186439152 2.4773619432411840 20.3742504311528165 S
atom 2.4773619433197624 7.4320858185652163 20.3742504311531114 S
atom 7.4320858213962540 7.4320858214809045 20.3742504311529267 S
atom 2.4773619405002929 2.4773619404546445 25.4828391201767488 S
atom 7.4320858186069403 2.4773619433259197 25.4828391201763935 S
atom 2.4773619432827618 7.4320858186501271 25.4828391201761875 S
atom 7.4320858214591601 7.4320858214136676 25.4828391201763651 S
atom 2.9977453485834857 -0.0000000885007023 22.9304387551499076 S
atom 6.9117024076920153 0.0000000941366413 22.9304387552313358 S
atom 1.9569785323679585 4.9547239694605478 22.9304387552315667 S
atom 7.9524692295422721 4.9547237924579477 22.9304387551499644 S
atom 2.0531341930421658 -0.0000063360757844 27.9900075047672630 S
atom 7.8563135632363919 0.0000063417091438 27.9900075047370827 S
atom 2.9015896879123266 4.9547302170332852 27.9900075047368624 S
atom 7.0078580740009269 4.9547175448830831 27.9900075047671955 S
atom 0.0000000913198526 1.9569785295514217 22.9304387552178390 S
atom 4.9547237896411511 2.9977453514017331 22.9304387551638733 S
atom -0.0000000856828031 7.9524692267258352 22.9304387551637028 S
atom 4.9547239722787575 6.9117024105104008 22.9304387552175655 S
atom 0.0000063388914724 2.9015896850953826 27.9900075047433887 S
atom 4.9547175420655494 2.0531341958598275 27.9900075047617065 S
atom -0.0000063332585220 7.0078580711838967 27.9900075047613335 S
atom 4.9547302198503438 7.8563135660541574 27.9900075047429659 S
atom -0.0000000000133285 -0.0000000000029684 30.3562067624654901 Ba
atom 4.9547238781369209 0.0000000028085577 30.3562067624658098 Ba
atom 0.0000000028128984 4.9547238781332616 30.3562067624660870 Ba
atom 4.9547238809456475 4.9547238809564131 30.3562067624655931 Ba
atom 2.4773619404744704 2.4773619404929135 30.6256677387534602 S
atom 7.4320858186296839 2.4773619432858256 30.6256677387530019 S
atom 2.4773619433055813 7.4320858186099485 30.6256677387528953 S
atom 7.4320858214333754 7.4320858214517802 30.6256677387524761 S
atom 2.4773619404730045 2.4773619404793710 33.7365243753151560 Ba
atom 7.4320858186178640 2.4773619432997043 33.7365243753153266 Ba
atom 2.4773619432937211 7.4320858186233112 33.7365243753151134 Ba
atom 7.4320858214321319 7.4320858214378198 33.7365243753150921 Ba
atom 2.4773619404782110 2.4773619404840628 38.6389705945028084 Ba
atom 7.4320858186076864 2.4773619432941705 38.6389705945032063 Ba
atom 2.4773619432834386 7.4320858186179963 38.6389705945033768 Ba
atom 7.4320858214363605 7.4320858214424552 38.6389705945033555 Ba
atom 4.9547238809573839 4.9547238809580714 36.0104864478887166 Zr
atom 9.9094477590981036 4.9547238837757677 36.0104864478897255 Zr
atom 4.9547238837740144 9.9094477590996117 36.0104864478898961 Zr
atom 9.9094477619163914 9.9094477619169350 36.0104864478888160 Zr
atom 4.9547238809607226 4.9547238809585012 41.1492039636039948 Zr
atom 9.9094477591006367 4.9547238837723420 41.1492039636044424 Zr
atom 4.9547238837764764 9.9094477590963308 41.1492039636036964 Zr
atom 9.9094477619196084 9.9094477619174732 41.1492039636033198 Zr
atom 4.9547238809637140 4.9547238809609730 33.4670566545786343 S
atom 9.9094477590950500 4.9547238837706979 33.4670566545776396 S
atom 4.9547238837707059 9.9094477590941210 33.4670566545766590 S
atom 9.9094477619231984 9.9094477619194929 33.4670566545778883 S
atom 4.9547238809532130 4.9547238809454317 38.6098959435844051 S
atom 9.9094477591079340 4.9547238837862704 38.6098959435841493 S
atom 4.9547238837842293 9.9094477591102024 38.6098959435840001 S
atom 9.9094477619118226 9.9094477619043175 38.6098959435845330 S
atom 4.5305262696396342 2.4773535241220417 36.1027079272928191 S
atom 10.3336453675981819 2.4773703624691725 36.1027079273047562 S
atom 5.3789214922743378 7.4320942377935255 36.1027079273046141 S
atom 9.4852501505980769 7.4320774050811886 36.1027079272933165 S
atom 5.4751766053836697 2.4773620464676691 41.1623031407595690 S
atom 9.3889950318532822 2.4773618401228292 41.1623031407225568 S
atom 4.4342711565291566 7.4320857154469255 41.1623031407223863 S
atom 10.4299004863426372 7.4320859274267850 41.1623031407596471 S
atom 2.4773703596516690 5.3789214894576229 36.1027079272943041 S
atom 7.4320774022637348 4.5305262724575606 36.1027079273041380 S
atom 2.4773535269396452 9.4852501477814535 36.1027079273042588 S
atom 7.4320942406106321 10.3336453704163826 36.1027079272936788 S
atom 2.4773618373066020 4.4342711537137047 41.1623031407497635 S
atom 7.4320859246107025 5.4751766082029123 41.1623031407325257 S
atom 2.4773620492868695 10.4299004835272999 41.1623031407318223 S
atom 7.4320857182654319 9.3889950346725932 41.1623031407497564 S
atom 2.4773619405087666 2.4773619404681759 43.7269563101380996 Ba
atom 7.4320858186420891 2.4773619432817249 43.7269563101382701 Ba
atom 2.4773619433182157 7.4320858186056391 43.7269563101385117 Ba
atom 7.4320858214678678 7.4320858214271110 43.7269563101383767 Ba
atom 2.4773619404451646 2.4773619404901583 48.8325637429695405 Ba
atom 7.4320858185926149 2.4773619433098593 48.8325637429697679 Ba
atom 2.4773619432686083 7.4320858186336061 48.8325637429704216 Ba
atom 7.4320858214042254 7.4320858214488119 48.8325637429699384 Ba
atom 4.9547238809576903 4.9547238809578262 46.2719875527691968 Zr
atom 9.9094477590989598 4.9547238837751406 46.2719875527689055 Zr
atom 4.9547238837748058 9.9094477590993240 46.2719875527678823 Zr
atom 9.9094477619165442 9.9094477619165673 46.2719875527677331 Zr
atom 4.9547238809574266 4.9547238809580350 51.3931399331726269 Zr
atom 9.9094477590989065 4.9547238837754914 51.3931399331721153 Zr
atom 4.9547238837748431 9.9094477590996668 51.3931399331720655 Zr
atom 9.9094477619162742 9.9094477619170078 51.3931399331718524 Zr
atom 4.9547238809640675 4.9547238809823497 43.7184968055094529 S
atom 9.9094477590851326 4.9547238837546708 43.7184968055095879 S
atom 4.9547238837610905 9.9094477590783008 43.7184968055089698 S
atom 9.9094477619230243 9.9094477619408785 43.7184968055089058 S
atom 4.9547238809512280 4.9547238809291496 48.8325637429702724 S
atom 9.9094477591154551 4.9547238837997627 48.8325637429706063 S
atom 4.9547238837915151 9.9094477591240491 48.8325637429703860 S
atom 9.9094477619099912 9.9094477618881811 48.8325637429688513 S
atom 5.4565668706968120 2.4773619401278251 46.2794255293161640 S
atom 9.4076047665416151 2.4773619464640055 46.2794255293724603 S
atom 4.4528808912173137 7.4320858217878252 46.2794255293728654 S
atom 10.4112907516560842 7.4320858210868321 46.2794255293165406 S
atom 5.4565668706972348 2.4773619401282700 51.3857019566235849 S
atom 9.4076047665410680 2.4773619464639145 51.3857019565680417 S
atom 4.4528808912172151 7.4320858217877968 51.3857019565681270 S
atom 10.4112907516558550 7.4320858210873650 51.3857019566235564 S
atom 2.4773619436457377 4.4528808884009665 46.2794255293318741 S
atom 7.4320858182690692 5.4565668735152855 46.2794255293568497 S
atom 2.4773619429452491 10.4112907488394182 46.2794255293565229 S
atom 7.4320858246047559 9.4076047693598355 46.2794255293320376 S
atom 2.4773619436457426 4.4528808884007782 51.3857019566071145 S
atom 7.4320858182690221 5.4565668735155306 51.3857019565841924 S
atom 2.4773619429449600 10.4112907488395336 51.3857019565834889 S
atom 7.4320858246048056 9.4076047693595672 51.3857019566072779 S
atom 2.4773619405077283 2.4773619404693905 53.9381711758012727 Ba
atom 7.4320858186415224 2.4773619432842291 53.9381711758019904 Ba
atom 2.4773619433173772 7.4320858186084475 53.9381711758020046 Ba
atom 7.4320858214667496 7.4320858214284291 53.9381711758016564 Ba
atom 2.4773619404775342 2.4773619404829756 59.0261568914364005 Ba
atom 7.4320858186081571 2.4773619432949898 59.0261568914368340 Ba
atom 2.4773619432838534 7.4320858186193934 59.0261568914368411 Ba
atom 7.4320858214367895 7.4320858214421675 59.0261568914363366 Ba
atom 4.9547238809604446 4.9547238809587260 56.5159235223362586 Zr
atom 9.9094477591006225 4.9547238837727567 56.5159235223369549 Zr
atom 4.9547238837764205 9.9094477590968548 56.5159235223359389 Zr
atom 9.9094477619194201 9.9094477619176455 56.5159235223358039 Zr
atom 4.9547238809573084 4.9547238809579746 61.6546410380517571 Zr
atom 9.9094477590984926 4.9547238837754586 61.6546410380520342 Zr
atom 4.9547238837744603 9.9094477590994803 61.6546410380508050 Zr
atom 9.9094477619163026 9.9094477619171926 61.6546410380507126 Zr
atom 4.9547238809629199 4.9547238809813656 53.9466306804302391 S
atom 9.9094477590865591 4.9547238837550411 53.9466306804308076 S
atom 4.9547238837621395 9.9094477590790291 53.9466306804305873 S
atom 9.9094477619220953 9.9094477619402639 53.9466306804295357 S
atom 4.9547238809544947 4.9547238809456990 59.0552315423564949 S
atom 9.9094477591067545 4.9547238837857046 59.0552315423561041 S
atom 4.9547238837823526 9.9094477591098720 59.0552315423556280 S
atom 9.9094477619136061 9.9094477619049322 59.0552315423557133 S
atom 5.4751766053839530 2.4773620464678698 56.5028243451814447 S
atom 9.3889950318532485 2.4773618401227990 56.5028243452172063 S
atom 4.4342711565292889 7.4320857154466875 56.5028243452174053 S
atom 10.4299004863424827 7.4320859274272850 56.5028243451812955 S
atom 4.5305262696390809 2.4773535241219333 61.5624195586462619 S
atom 10.3336453675986508 2.4773703624691397 61.5624195586355043 S
atom 5.3789214922745208 7.4320942377935193 61.5624195586351703 S
atom 9.4852501505981444 7.4320774050811398 61.5624195586464324 S
atom 2.4773618373069097 4.4342711537134587 56.5028243451914278 S
atom 7.4320859246105870 5.4751766082028794 56.5028243452065624 S
atom 2.4773620492866377 10.4299004835271063 56.5028243452062142 S
atom 7.4320857182658440 9.3889950346726305 56.5028243451914065 S
atom 2.4773703596516605 5.3789214894580164 61.5624195586448266 S
atom 7.4320774022637677 4.5305262724573110 61.5624195586377425 S
atom 2.4773535269395182 9.4852501477817093 61.5624195586376004 S
atom 7.4320942406106489 10.3336453704168409 61.5624195586443648 S
atom 2.4773619404734570 2.4773619404784109 63.9286031106249411 Ba
atom 7.4320858186180176 2.4773619432978782 63.9286031106252892 Ba
atom 2.4773619432940324 7.4320858186223386 63.9286031106249766 Ba
atom 7.4320858214322678 7.4320858214378616 63.9286031106249197 Ba
atom 4.9547238809624794 4.9547238809605911 64.1980708313624007 S
atom 9.9094477590965973 4.9547238837709040 64.1980708313620880 S
atom 4.9547238837726937 9.9094477590950856 64.1980708313622728 S
atom 9.9094477619211379 9.9094477619199886 64.1980708313623154 S
