#=======================================================
# FHI-aims file: full_relax/full_relax_RP_9_Rx0Rz_0-Ry0.in
# Created using the Atomic Simulation Environment (ASE)
# Mon Mar 24 17:54:30 2025
#=======================================================
lattice_vector 9.9660976710400586 -0.0000000000017369 0.0100018543309737 
lattice_vector -0.0000000000017166 10.0842902242991368 0.0000000000000556 
lattice_vector 0.0963851912535194 0.0000000000005573 95.7628076889799331 
atom -0.1974534353074394 -0.0000000000017617 0.0852012437731462 Ba
atom 5.0514853873587198 -0.0000000000038288 0.0888853311723786 Ba
atom 0.0684365549250720 5.0421451121451621 0.0838844029084728 Ba
atom 4.7855954034729606 5.0421451121450787 0.0902021706826320 Ba
atom -0.0835739789589693 -0.0000000000022584 4.7864480270676566 Ba
atom 4.8363728318378207 -0.0000000000026300 4.7568644478487743 Ba
atom -0.1466759978552016 5.0421451121485301 4.7518635187536171 Ba
atom 4.8994748665638790 5.0421451121460281 4.7914489453070388 Ba
atom 2.4335710767640624 2.5097675829247996 2.1621629408443099 Zr
atom 7.4166199123227070 2.5323775287013084 2.1671638680879681 Zr
atom 2.4335710767627954 7.5745226413661975 2.1621629408428720 Zr
atom 7.4166199123222531 7.5519126955899782 2.1671638680864467 Zr
atom 2.4592048567743667 2.5063715388106971 7.2465442513094125 Zr
atom 7.4422536921040665 2.5357735729377859 7.2515451793151158 Zr
atom 2.4592048567739315 7.5779186854822012 7.2465442513089791 Zr
atom 7.4422536921027600 7.5485166513536148 7.2515451793157917 Zr
atom 2.4453672734871068 2.7338512025675010 -0.3266519614574218 S
atom 7.4284161003412201 2.3082939103274587 -0.3216510342215391 S
atom 2.4453672734808101 7.3504390217200886 -0.3266519614595108 S
atom 7.4284161003459950 7.7759963139651482 -0.3216510342236795 S
atom 2.4571369436486048 2.2488485888198997 4.7466440680577673 S
atom 7.4401857925623176 2.7932965208805842 4.7516449953670783 S
atom 2.4571369436505397 7.8354416354710326 4.7466440680572761 S
atom 7.4401857925584078 7.2909937034107131 4.7516449953675126 S
atom 2.3837904994230450 -0.0000000000045630 2.0130918069783590 S
atom 7.4674782619286955 -0.0000000000044471 2.5161792546417869 S
atom 2.4844294264975040 5.0421451121458576 2.5111783284445783 S
atom 7.3668393345290806 5.0421451121458283 2.0180927367277182 S
atom 2.9388938246247496 -0.0000000000031967 7.4768984307504986 S
atom 7.0163235388721716 -0.0000000000035114 7.0550304632084648 S
atom 2.0332747037560721 5.0421451121459775 7.0500295373692436 S
atom 7.9219426588887067 5.0421451121452430 7.4818993588688842 S
atom -0.0537703660516382 2.5806927828445305 2.2850722256415059 S
atom 4.9292784694476950 2.4614523291137509 2.2900731644298311 S
atom -0.0537703660524611 7.5035974414477069 2.2850722256457039 S
atom 4.9292784694467082 7.6228378951770024 2.2900731644251549 S
atom -0.0269662770230712 2.0468531320239456 7.2710972349198153 S
atom 4.9560825586141384 2.9952919804883842 7.2760981494727206 S
atom -0.0269662770240455 8.0374370922685792 7.2710972349179430 S
atom 4.9560825586133461 7.0889982438026902 7.2760981494741346 S
atom -0.0588023861656137 -0.0000000000030250 9.7886326328676638 Ba
atom 5.0762607884812763 -0.0000000000039521 9.8084102360903778 Ba
atom 0.0932119598126407 5.0421451121457723 9.8034093026689941 Ba
atom 4.9242464543447708 5.0421451121452012 9.7936335532848346 Ba
atom 0.0866736611741661 -0.0000000000032046 14.8541381622481641 Ba
atom 4.9386890747827676 -0.0000000000029555 14.8495046150059657 Ba
atom -0.0443597570260639 5.0421451121475611 14.8445036828637793 Ba
atom 5.0697225000117321 5.0421451121456089 14.8591390854558512 Ba
atom 2.4996485118052485 2.5239592047091266 12.3094811286272510 Zr
atom 7.4826973469611868 2.5181859076914965 12.3144820560625696 Zr
atom 2.4996485118043652 7.5603310195836508 12.3094811286277803 Zr
atom 7.4826973469603315 7.5661043165994695 12.3144820560635146 Zr
atom 2.5081102371091295 2.5203641148706186 17.3780548481290005 Zr
atom 7.4911590730100031 2.5217809974709886 17.3830557753432231 Zr
atom 2.5081102371082502 7.5639261094229306 17.3780548481299881 Zr
atom 7.4911590730091540 7.5625092268209331 17.3830557753430881 Zr
atom 2.4742358704130845 2.7202941807014964 9.7904046541679719 S
atom 7.4572846937531025 2.3218509309391084 9.7954055817302343 S
atom 2.4742358704125036 7.3639960435914853 9.7904046541680749 S
atom 7.4572846937518191 7.7624392933525677 9.7954055817305861 S
atom 2.4949189158417111 2.3714707691538970 14.8504312973406520 S
atom 7.4779677605853649 2.6706743436877161 14.8554322244303059 S
atom 2.4949189158383160 7.7128194551396652 14.8504312973409647 S
atom 7.4779677605868971 7.4136158806043397 14.8554322244308992 S
atom 2.0343959264571332 -0.0000000000028788 12.1874198895033441 S
atom 7.9528519814474787 -0.0000000000040075 12.4695299825471473 S
atom 2.9698031459100331 5.0421451121464038 12.4645290550958840 S
atom 7.0174447613227429 5.0421451121458958 12.1924208167351829 S
atom 2.9845055288873374 -0.0000000000030339 17.4969508568402183 S
atom 7.0152222839733716 -0.0000000000032660 17.2764300540566822 S
atom 2.0321734480422196 5.0421451121473089 17.2714291273245237 S
atom 7.9675543647030320 5.0421451121457030 17.5019517840822019 S
atom 0.0028229494890863 3.0105289466077298 12.3238156624029038 S
atom 4.9858717849362977 2.0316161652719660 12.3288165999018755 S
atom 0.0028229494882075 7.0737612776862013 12.3238156624011062 S
atom 4.9858717849353749 8.0526740590200436 12.3288165999029147 S
atom 0.0143218176196185 2.0240539954086230 17.3813143928595402 S
atom 4.9973706531969881 3.0180911162653068 17.3863153126746361 S
atom 0.0143218176185822 8.0602362288860245 17.3813143928619347 S
atom 4.9973706531962554 7.0661991080275168 17.3863153126719112 S
atom -0.0380588194340283 -0.0000000000015256 19.9071063453784127 Ba
atom 5.0644614113294049 -0.0000000000039508 19.9214594555830402 Ba
atom 0.0814125779493161 5.0421451121468328 19.9164585259005804 Ba
atom 4.9449900184030424 5.0421451121474909 19.9121072688232701 Ba
atom 0.0832393759044363 -0.0000000000025337 24.9817097618155017 Ba
atom 4.9468168161052422 -0.0000000000019969 24.9773585055687661 Ba
atom -0.0362320175553680 5.0421451121486989 24.9723575757757708 Ba
atom 5.0662882129542854 5.0421451121462573 24.9867106868107989 Ba
atom 2.5141146970775430 2.5210725561266552 22.4469085156721491 Zr
atom 7.4971635323565282 2.5210725561255667 22.4519094429057340 Zr
atom 2.5141146970766730 7.5632176681678045 22.4469085156719927 Zr
atom 7.4971635323556525 7.5632176681670575 22.4519094429053752 Zr
atom 2.5201191565723065 2.5217809973957586 27.5157621832864905 Zr
atom 7.5031679921767065 2.5203641147939089 27.5207631104013615 Zr
atom 2.5201191565714360 7.5625092268991772 27.5157621832855881 Zr
atom 7.5031679921758085 7.5639261094994685 27.5207631104015711 Zr
atom 2.5084974637634279 2.6543465638860142 19.9145103281820326 S
atom 7.4915462927572865 2.3877985484413360 19.9195112554488425 S
atom 2.5084974637658117 7.4299436604080062 19.9145103281825229 S
atom 7.4915462927530738 7.6964916758510444 19.9195112554477340 S
atom 2.5197319309367665 2.3877985484993363 24.9793067032111509 S
atom 7.5027807714105963 2.6543465639422608 24.9843076303156408 S
atom 2.5197319309327724 7.6964916757950661 24.9793067032106180 S
atom 7.5027807714127244 7.4299436603504034 24.9843076303162377 S
atom 2.0359797403902826 -0.0000000000022907 22.3402581848569639 S
atom 7.9752984890932739 -0.0000000000037144 22.5585597738496055 S
atom 2.9922496537522107 5.0421451121468417 22.5535588464658225 S
atom 7.0190285756329445 5.0421451121469367 22.3452591119942809 S
atom 2.9960559456293723 -0.0000000000021172 27.6223879042703544 S
atom 7.0267727004733080 -0.0000000000028525 27.4018671016312751 S
atom 2.0437238648045688 5.0421451121475123 27.3968661746101212 S
atom 7.9791047812235130 5.0421451121460485 27.6273888315109239 S
atom 0.0225902792126225 3.0198068064115793 22.4444080494725142 S
atom 5.0056391147017774 2.0223383054057011 22.4494089819451368 S
atom 0.0225902792119184 7.0644834178835501 22.4444080494697076 S
atom 5.0056391147007240 8.0619519188878606 22.4494089819479576 S
atom 0.0308587407298603 2.0240539955790413 27.5075017172522287 S
atom 5.0139075762817198 3.0180911164358584 27.5125026400454757 S
atom 0.0308587407288797 8.0602362287168141 27.5075017172547263 S
atom 5.0139075762809631 7.0661991078581066 27.5125026400433015 S
atom -0.0414931053258981 -0.0000000000008723 30.0346779451324117 Ba
atom 5.0725891519819717 -0.0000000000026018 30.0493133470793445 Ba
atom 0.0895403180889372 5.0421451121476357 30.0443124178830310 Ba
atom 4.9415557319692303 5.0421451121477912 30.0396788699956083 Ba
atom 0.1039829411663706 -0.0000000000005264 35.1001834759200193 Ba
atom 4.9350174362126689 -0.0000000000016764 35.0904077268999686 Ba
atom -0.0480313966787611 5.0421451121488472 35.0854067971754731 Ba
atom 5.0870317784822774 5.0421451121478169 35.1051844007613596 Ba
atom 2.5285808822982334 2.5181859075521076 32.5843359026810901 Zr
atom 7.5116297178033697 2.5239592045682344 32.5893368297966077 Zr
atom 2.5285808822973914 7.5661043167435977 32.5843359026809907 Zr
atom 7.5116297178024070 7.5603310197256679 32.5893368297961104 Zr
atom 2.5690245371688039 2.5357735732165474 37.6472727798370954 Zr
atom 7.5520733728195850 2.5063715390880299 37.6522737067059623 Zr
atom 2.5690245371672060 7.5485166510770920 37.6472727798378841 Zr
atom 7.5520733728192795 7.5779186852042981 37.6522737067052020 Zr
atom 2.5333104756988085 2.6706743433237676 30.0433857340912844 S
atom 7.5163593067421157 2.3714707687891119 30.0483866613015564 S
atom 2.5333104756998250 7.4136158809707213 30.0433857340907728 S
atom 7.5163593067392700 7.7128194555037934 30.0483866613012154 S
atom 2.5539935273015675 2.3218509313312743 35.1034123771200939 S
atom 7.5370423673998266 2.7202941810903023 35.1084133041493658 S
atom 2.5539935273014858 7.7624392929627701 35.1034123771205344 S
atom 7.5370423673979570 7.3639960432026630 35.1084133041495505 S
atom 2.0584262480784417 -0.0000000000021857 32.4292879761749475 S
atom 7.9768823033602025 -0.0000000000029687 32.7113980690546455 S
atom 2.9938334677279808 5.0421451121474075 32.7063971418630715 S
atom 7.0414750834309059 5.0421451121470398 32.4342889033409136 S
atom 2.9949546902854638 -0.0000000000019950 37.8437874945017185 S
atom 7.0723844056852254 -0.0000000000027079 37.4219195271753620 S
atom 2.0893355696662699 5.0421451121470815 37.4169186003668202 S
atom 7.9780035259541950 5.0421451121458611 37.8487884220788828 S
atom 0.0423576089545342 3.0105289466875678 32.5650004345230784 S
atom 5.0254064444471016 2.0316161653512332 32.5700013659997794 S
atom 0.0423576089535455 7.0737612776088268 32.5650004345224175 S
atom 5.0254064444461717 8.0526740589432322 32.5700013660002270 S
atom 0.0721468353401979 2.0468531317295851 37.6177188778542231 S
atom 5.0551956708948822 2.9952919801950553 37.6227198005830132 S
atom 0.0721468353394364 8.0374370925672398 37.6177188778506277 S
atom 5.0551956708939594 7.0889982440998551 37.6227198005864665 S
atom 0.1287545306623595 -0.0000000000028552 40.1023680832013198 Ba
atom 5.1749053937289196 -0.0000000000045856 40.1419535120111206 Ba
atom 0.1918565601150429 5.0421451121446239 40.1369525842197277 Ba
atom 5.1118033695554823 5.0421451121456959 40.1073690072567359 Ba
atom 0.2426339915522843 -0.0000000000046215 44.8036148606474782 Ba
atom 4.9597928400466653 -0.0000000000045444 44.8099326281364725 Ba
atom -0.0232559945014593 5.0421451121487797 44.8049317006113412 Ba
atom 5.2256828281088854 5.0421451121474039 44.8086157877295435 Ba
atom 2.5946583171428541 2.5323775290490578 42.7316540905459021 Zr
atom 7.5777071526370259 2.5097675832726285 42.7366550176846758 Zr
atom 2.5946583171423785 7.5519126952434963 42.7316540905457956 Zr
atom 7.5777071526357531 7.5745226410200406 42.7366550176854716 Zr
atom 2.5710924458188908 2.7932965225316320 40.1471729633121868 S
atom 7.5541412768371492 2.2488485904746098 40.1521738904278607 S
atom 2.5710924458130719 7.2909937017619493 40.1471729633123076 S
atom 7.5541412768408964 7.8354416338196495 40.1521738904268872 S
atom 2.5828621233577307 2.3082939098209181 45.2204689928478345 S
atom 7.5659109616796538 2.7338512020637755 45.2254699199898056 S
atom 2.5828621233636686 7.7759963144700288 45.2204689928475929 S
atom 7.5659109616721683 7.3504390222317912 45.2254699199906938 S
atom 2.5437999674465162 -0.0000000000030887 42.3826387032940062 S
atom 7.6274877303062585 -0.0000000000033333 42.8857261498697611 S
atom 2.6444388946144612 5.0421451121464731 42.8807252235907512 S
atom 7.5268488029872724 5.0421451121468550 42.3876396307900265 S
atom 0.0989509244584384 2.5806927829666213 42.6037438708872642 S
atom 5.0819997599720210 2.4614523292288122 42.6087448018803698 S
atom 0.0989509244572638 7.5035974413284405 42.6037438708926928 S
atom 5.0819997599714277 7.6228378950644480 42.6087448018731934 S
atom 2.5846618441499496 2.3649502361958623 48.3293674109561024 Ba
atom 7.5677106800810003 2.6771948759415811 48.3343683381127676 Ba
atom 2.5846618441444731 7.7193399880924174 48.3293674109570688 Ba
atom 7.5677106800848044 7.4070953483565614 48.3343683381127320 Ba
atom 2.5799123141171449 2.5400189466032437 53.0170733175939262 Ba
atom 7.5629611495340541 2.5021261655657172 53.0220742447599989 Ba
atom 2.5799123140925762 7.5442712776876908 53.0170733175993973 Ba
atom 7.5629611495569078 7.5821640587500454 53.0220742447595228 Ba
atom 5.0563252679458515 5.0421451121490062 50.4035918052311374 Zr
atom 10.0749449179667590 5.0421451121447047 50.4088558696659490 Zr
atom 5.0918960823519610 10.0842902242948540 50.4038549425096321 Zr
atom 10.0393741033607036 10.0842902242974510 50.4085927325083034 Zr
atom 5.0680138186627337 5.0421451121440084 55.4262730427403341 Zr
atom 10.0530016406407405 5.0421451121490595 55.4313822718649334 Zr
atom 5.0699528051069604 10.0842902242994246 55.4263813447359723 Zr
atom 10.0510626541752401 10.0842902242925678 55.4312739699139243 Zr
atom 5.3664265385381835 5.0421451121423404 47.9147203246995090 S
atom 9.7693983994178293 5.0421451121640466 47.9193192312496166 S
atom 4.7863495634618065 10.0842902243009078 47.9143183040508589 S
atom 10.3494753735485503 10.0842902242772805 47.9197212520378741 S
atom 4.6036599216798724 5.0421451121617435 52.9482292381097750 S
atom 10.5223833558486142 5.0421451121039471 52.9542324164398934 S
atom 5.5393345201977731 10.0842902242799717 52.9492314892560287 S
atom 9.5867087570267824 10.0842902243359287 52.9532301653328190 S
atom 5.0740426837834951 2.5210623369543810 50.5335617691078056 S
atom 10.0570915193003838 2.5210827751986602 50.5385626963812769 S
atom 5.0740426837812675 7.5632278873396874 50.5335617690846419 S
atom 10.0570915193008137 7.5632074490936514 50.5385626964425327 S
atom 5.0689637435298502 2.5210692314721843 55.4416325817789755 S
atom 10.0520125790026409 2.5210758806656965 55.4466335090647888 S
atom 5.0689637434805981 7.5632209928181036 55.4416325818437130 S
atom 10.0520125790502615 7.5632143436228301 55.4466335089322797 S
atom 2.5828920055297035 5.0421451121459784 50.0746216391693650 S
atom 7.5651802363954976 5.0421451121490444 50.8647619121510530 S
atom 2.5821314007966754 10.0842902242976145 50.8597609849970382 S
atom 7.5659408409131750 10.0842902242957670 50.0796225663455346 S
atom 2.5769553408117742 5.0421451121209238 55.9208389093856653 S
atom 7.5609978409185832 5.0421451121619407 54.9467507143785028 S
atom 2.5779490053710923 10.0842902243130332 54.9417497871973239 S
atom 7.5600041762996781 10.0842902242727117 55.9258398365706739 S
atom 2.5748925465213919 2.5192602441570462 57.9309040421246237 Ba
atom 7.5579413821332571 2.5228848679937563 57.9359049692594041 Ba
atom 2.5748925465820225 7.5650299801179512 57.9309040420920311 Ba
atom 7.5579413820708510 7.5614053563173753 57.9359049692915420 Ba
atom 2.5698777324263542 2.5233965215325744 62.8856058815589449 Ba
atom 7.5529265678481528 2.5187485905753269 62.8906068087426249 Ba
atom 2.5698777323354598 7.5608937026978804 62.8856058815788117 Ba
atom 7.5529265679373356 7.5655416337021952 62.8906068087235752 Ba
atom 5.0655838660999866 5.0421451121418777 60.3958840787314841 Zr
atom 10.0453091987343690 5.0421451121357892 60.4009234201487715 Zr
atom 5.0622603632109575 10.0842902242865673 60.3959224929847736 Zr
atom 10.0486327016155972 10.0842902242910331 60.4008850059066376 Zr
atom 5.0585733175693619 5.0421451121278986 65.3638805762658706 Zr
atom 10.0422760812712983 5.0421451121301306 65.3688997827114520 Zr
atom 5.0592272457504732 10.0842902242806147 65.3638988555454858 Zr
atom 10.0416221530880456 10.0842902242766108 65.3688815034351478 Zr
atom 5.5731913335394578 5.0421451121094467 57.9173812263755536 S
atom 9.5427324343045683 5.0421451122150875 57.9213868427999898 S
atom 4.5596835987348525 10.0842902243265353 57.9163859156358640 S
atom 10.5562401690369772 10.0842902242191848 57.9223821535502594 S
atom 4.5539987362011258 5.0421451121913510 62.8815594923219479 S
atom 10.5518663927969722 5.0421451120399370 62.8875859645679611 S
atom 5.5688175572689218 10.0842902242402594 62.8825850373988615 S
atom 9.5370475717048322 10.0842902243899388 62.8865604194920493 S
atom 5.0639056169616810 2.5210678554821042 60.4029238321255875 S
atom 10.0469544525638987 2.5210772566468918 60.4079247591399806 S
atom 5.0639056170438277 7.5632223687985203 60.4029238320118012 S
atom 10.0469544524798717 7.5632129676320581 60.4079247593502160 S
atom 5.0589101178892326 2.5210725487544465 65.3657277358218920 S
atom 10.0419589534772804 2.5210725633697013 65.3707286631949245 S
atom 5.0589101179560974 7.5632176755197831 65.3657277359716318 S
atom 10.0419589534088392 7.5632176609027733 65.3707286629298920 S
atom 2.5728892934385268 5.0421451121770477 59.9010222073506853 S
atom 7.5549294231536388 5.0421451121051861 60.9069075438709149 S
atom 2.5718805876281681 10.0842902242516992 60.9019066167154079 S
atom 7.5559381289501095 10.0842902243258159 59.9060231345104981 S
atom 2.5668658181592021 5.0421451121700391 65.8652523784774075 S
atom 7.5509305058109595 5.0421451121227578 64.8672694399758143 S
atom 2.5678816702884277 10.0842902242723245 64.8622685128112551 S
atom 7.5499146536757902 10.0842902243221495 65.8702533056464290 S
atom 2.5648511031234729 2.5195871758888715 67.8462590269568580 Ba
atom 7.5478999387544325 2.5225579361787998 67.8512599542499970 Ba
atom 2.5648511032286883 7.5647030482979725 67.8462590270823966 Ba
atom 7.5478999386474630 7.5617322880616236 67.8512599541237478 Ba
atom 2.5597634820431434 2.5225579362159105 72.8103656934727752 Ba
atom 7.5428123174507578 2.5195871759781414 72.8153666204516696 Ba
atom 2.5597634819364194 7.5617322881014957 72.8103656932884462 Ba
atom 7.5428123175557840 7.5647030483921869 72.8153666206353449 Ba
atom 5.0538317103430961 5.0421451121431824 70.3308128237803061 Zr
atom 10.0368805458630455 5.0421451121423715 70.3358137509481054 Zr
atom 5.0538317103411572 10.0842902242927330 70.3308128237841430 Zr
atom 10.0368805458608517 10.0842902242918289 70.3358137509531360 Zr
atom 5.0490901031159359 5.0421451121725376 75.2977450712929368 Zr
atom 10.0314850104553006 5.0421451121684822 75.3027277191781224 Zr
atom 5.0484361749310711 10.0842902243190640 75.2977267920275892 Zr
atom 10.0321389386347004 10.0842902243213359 75.3027459984654257 Zr
atom 5.5645843209214272 5.0421451120824115 67.8484766522958438 S
atom 9.5311788869573899 5.0421451122576171 67.8524501087834153 S
atom 4.5481300514310545 10.0842902243521237 67.8474491816164971 S
atom 10.5476331564353014 10.0842902241751506 67.8534775794651352 S
atom 4.5430790997689767 5.0421451122117684 72.8131489952665731 S
atom 10.5425822047766555 5.0421451120346745 72.8191773931125113 S
atom 5.5595333692426419 10.0842902242408670 72.8141764659508937 S
atom 9.5261279352833643 10.0842902244162342 72.8181499224371009 S
atom 5.0538317105615604 2.5210727736893563 70.3308128238626722 S
atom 10.0368805456444665 2.5210723384539535 70.3358137508058832 S
atom 5.0538317101235135 7.5632174506028997 70.3308128236993610 S
atom 10.0368805460806740 7.5632178858365915 70.3358137510918056 S
atom 5.0487533026508666 2.5210725487770866 75.2958979115910978 S
atom 10.0318021383943581 2.5210725633932713 75.3008988389679672 S
atom 5.0487533028734353 7.5632176755428073 75.2958979117409797 S
atom 10.0318021381702049 7.5632176609248685 75.3008988387032900 S
atom 2.5628160217665958 5.0421451119660237 69.8260221454639947 S
atom 7.5448473989204352 5.0421451123357226 70.8356035020977259 S
atom 2.5617985633973630 10.0842902244842634 70.8306025749320014 S
atom 7.5458648572839744 10.0842902241166481 69.8310230726338688 S
atom 2.5567329148774371 5.0421451122389715 75.7943562075917896 S
atom 7.5407976025316330 5.0421451120516183 74.7963732690810730 S
atom 2.5577487670029897 10.0842902241988241 74.7913723419247845 S
atom 7.5397817503903894 10.0842902243884200 75.7993571347510482 S
atom 2.5547368527316068 2.5187485906207181 77.7710188388423092 Ba
atom 7.5377856883657124 2.5233965216256857 77.7760197659847137 Ba
atom 2.5547368528206023 7.5655416337646946 77.7710188388153369 Ba
atom 7.5377856882750498 7.5608937028056911 77.7760197660122117 Ba
atom 2.5497220386812600 2.5228848679465257 82.7257206782347794 Ba
atom 7.5327708740359638 2.5192602441461549 82.7307216055099985 Ba
atom 2.5497220386190271 7.5614053563141335 82.7257206783493473 Ba
atom 7.5327708740966060 7.5650299801498955 82.7307216053939385 Ba
atom 5.0420795545943990 5.0421451121597389 80.2657415688039322 Zr
atom 10.0284518929951645 5.0421451121640768 80.2707040817398791 Zr
atom 5.0454030574673627 10.0842902243143531 80.2657031545830932 Zr
atom 10.0251283900991801 10.0842902243082051 80.2707424960129714 Zr
atom 5.0396496020384465 5.0421451121431220 85.2353526048029266 Zr
atom 10.0207594511127791 5.0421451121363017 85.2402452299597115 Zr
atom 5.0377106155491518 10.0842902242867325 85.2352443028926956 Zr
atom 10.0226984375326591 10.0842902242917720 85.2403535320028993 Zr
atom 5.5536646845172575 5.0421451121062031 77.7800661552303723 S
atom 9.5218946989430950 5.0421451122557750 77.7840415373293297 S
atom 4.5388458634006383 10.0842902243568613 77.7790406101646994 S
atom 10.5367135199844597 10.0842902242055281 77.7850670824127377 S
atom 4.5344720871939304 5.0421451121843157 82.7442444211628896 S
atom 10.5310286575260310 5.0421451120774909 82.7502406590926967 S
atom 5.5479798218434997 10.0842902242659740 82.7452397319274411 S
atom 9.5175209226374360 10.0842902243710828 82.7492453483683192 S
atom 5.0437578035494370 2.5210678555006942 80.2587018155311540 S
atom 10.0268066393369875 2.5210772566648143 80.2637027425705867 S
atom 5.0437578038176607 7.5632223688147340 80.2587018154174388 S
atom 10.0268066390670025 7.5632129676488233 80.2637027427790173 S
atom 5.0386996772574806 2.5210692314751526 85.2199930656790343 S
atom 10.0217485126217642 2.5210758806677038 85.2249939930045457 S
atom 5.0386996770975987 7.5632209928172367 85.2199930657441200 S
atom 10.0217485127799435 7.5632143436228914 85.2249939928738627 S
atom 2.5527339975424219 5.0421451122694609 79.7547181036777886 S
atom 7.5347741272621418 5.0421451120350484 80.7606034402286923 S
atom 2.5517252917168403 10.0842902241856791 80.7556025130425752 S
atom 7.5357828330448644 10.0842902244219363 79.7597190308685668 S
atom 2.5466655798231805 5.0421451120908696 85.7148749332171036 S
atom 7.5307080799412258 5.0421451122236345 84.7407867381407982 S
atom 2.5476592443146409 10.0842902243708306 84.7357858110327129 S
atom 7.5297144152569073 10.0842902242391990 85.7198758603370550 S
atom 2.5447022709525848 2.5021261654924030 87.6395514028032636 Ba
atom 7.5277511067682559 2.5400189465527574 87.6445523299674960 Ba
atom 2.5447022709751876 7.5821640587472032 87.6395514027962008 Ba
atom 7.5277511067438132 7.5442712777106307 87.6445523299781399 Ba
atom 2.5399527414691394 2.6771948759511357 92.3272573094337048 Ba
atom 7.5230015756722599 2.3649502362142880 92.3322582366237157 Ba
atom 2.5399527414730327 7.4070953483309827 92.3272573094357512 Ba
atom 7.5230015756667425 7.7193399880782199 92.3322582366275242 Ba
atom 5.0513381529608887 5.0421451121399921 90.2580338421062010 Zr
atom 9.9988161739621759 5.0421451121426415 90.2627716322298994 Zr
atom 5.0157673381287484 10.0842902242928627 90.2577707050602385 Zr
atom 10.0343869881416747 10.0842902242885604 90.2630347696156008 Zr
atom 5.5040034993737006 5.0421451121284671 87.7133964093337113 S
atom 9.5513777361564145 5.0421451121841026 87.7173950855007547 S
atom 4.5683289002037784 10.0842902243097647 87.7123941582587889 S
atom 10.4870523343301709 10.0842902242525021 87.7183973366879712 S
atom 4.7412368832065326 5.0421451121475718 92.7469053225258619 S
atom 10.3043626932276826 5.0421451121245857 92.7523082707321862 S
atom 5.3213138563022495 10.0842902242884183 92.7473073434375550 S
atom 9.7242857171156505 10.0842902243098109 92.7519062501989708 S
atom 5.0336207369104162 2.5210623369323719 90.1280638781571781 S
atom 10.0166695724181203 2.5210827751787099 90.1330648057708999 S
atom 5.0336207369040347 7.5632278873514913 90.1280638781337728 S
atom 10.0166695724227672 7.5632074491034738 90.1330648058310686 S
atom 2.5424831844576006 5.0421451121360885 89.7968637353811943 S
atom 7.5247714154408856 5.0421451121449046 90.5870040083680124 S
atom 2.5417225794874008 10.0842902242958097 90.5820030812407708 S
atom 7.5255320197179643 10.0842902242861818 89.8018646625935872 S
