#=======================================================
# FHI-aims file: full_relax/full_relax_RP_8_RxRyRz_RxRy0.in
# Created using the Atomic Simulation Environment (ASE)
# Mon Mar 24 16:19:18 2025
#=======================================================
lattice_vector 9.9838045776857882 -0.0228935154533434 0.0000742344197896 
lattice_vector -0.0228935154533140 9.9838045776748405 -0.0000742343692184 
lattice_vector 0.0016199300661930 -0.0016199296351183 86.4256162114900377 
atom 0.0592058483516513 -0.1097801297737197 0.1376947774437617 Ba
atom 5.1016824125940055 -0.0706526113109990 0.1377318023362762 Ba
atom 0.0983333660198092 4.9326964365406614 0.1376575694848856 Ba
atom 5.0396613794800675 4.8706754026278292 0.1376947771066614 Ba
atom -0.2815673589475957 0.2136708526473435 4.9402551009518518 Ba
atom 4.7782314373275057 0.2701206001933523 4.9402922197137835 Ba
atom -0.2251176115075473 5.2734696465536572 4.9402179853906576 Ba
atom 4.6988881742846011 5.1941263832359130 4.9402551005205684 Ba
atom 2.4605097005593652 2.5291472064594642 2.3191251509175319 Zr
atom 7.4432105980996823 2.5084990770145486 2.3191622595851671 Zr
atom 2.4398615522999405 7.5118481260243826 2.3190880197719257 Zr
atom 7.4409652307948146 7.5096027406483197 2.3191251519691911 Zr
atom 2.4028157367377028 2.5401587600372957 7.3972151729278446 Zr
atom 7.4321990598366998 2.5661930456831263 7.3972522575276747 Zr
atom 2.4288500122812704 7.5695420955121850 7.3971780246162107 Zr
atom 7.3832712697492289 7.5206142932936642 7.3972151672236048 Zr
atom 2.6188509994243385 2.7672889198945292 -0.1896412916799221 S
atom 7.2050688991447513 2.3501577726967784 -0.1896042127085668 S
atom 2.2017198523301302 7.3535068184089516 -0.1896784469328412 S
atom 7.5993065309465617 7.7477444508621387 -0.1896412949709838 S
atom 2.2244670456810085 2.2834217719228418 4.8929653543092888 S
atom 7.6889360496727894 2.7445417278715363 4.8930025592893616 S
atom 2.6855870025130817 7.7478907739578906 4.8929283350031625 S
atom 7.2049225766033000 7.2638773024963443 4.8929653605042125 S
atom 2.7329200735930366 0.0404562213731174 2.1755542026305559 S
atom 7.1194456474175496 0.0320257087120029 2.6760882779191353 S
atom 2.1160966009350219 5.0353747480767641 2.6760140438737667 S
atom 7.7133756055021907 5.0209117442620208 2.1755542021333141 S
atom 2.9136517845449479 0.0484725919817866 7.6298217914554760 S
atom 7.0047591075031566 0.0378797301926825 7.2132343496070677 S
atom 2.0014100617785302 5.0412287861694640 7.2131601153929985 S
atom 7.8941073165591078 5.0289281338248752 7.6298217919547708 S
atom -0.0519028490545665 2.2589822163167512 2.1755170822089784 S
atom 4.9369829556515805 2.8529121645618685 2.6760511609294495 S
atom -0.0663660869712821 7.8562612111658208 2.6759769268220550 S
atom 4.9285526778854587 7.2394377464838540 2.1755170816510114 S
atom -0.0599194279174313 2.0782505046498025 7.6297846752726244 S
atom 4.9311291025360129 2.9675987125436718 7.2131972322718534 S
atom -0.0722199358652157 7.9709477574518015 7.2131229986969414 S
atom 4.9205360941970895 7.0587060363589389 7.6297846754055181 S
atom 0.0038503148615849 -0.0771924637260278 9.9500178419531125 Ba
atom 5.0690947528231955 -0.0152970736273705 9.9500549590791678 Ba
atom 0.0657457062546038 4.9880519716452154 9.9499807250837442 Ba
atom 4.9843058458575022 4.9032630660007994 9.9500178422790135 Ba
atom 0.0633933566726623 0.0091277176913305 15.0181404057956076 Ba
atom 4.9827745682252358 -0.0748401157361989 15.0181775231165702 Ba
atom -0.0205744775084399 4.9285089342213206 15.0181032885056904 Ba
atom 5.0438488869397400 4.9895832521866961 15.0181404057924137 Ba
atom 2.5012081902290673 2.4923315545955873 12.4708091766396159 Zr
atom 7.4800262675518461 2.4678005836853023 12.4708463288153943 Zr
atom 2.4766772205261320 7.4711496309209036 12.4707721041516439 Zr
atom 7.4816637222270108 7.4727870854390561 12.4708091835024142 Zr
atom 2.4942132810370672 2.4862545183580798 17.5557100908124610 Zr
atom 7.4861033005087423 2.4747954940067318 17.5557471931212135 Zr
atom 2.4827542538282459 7.4781445414639736 17.5556729448524713 Zr
atom 7.4746688123038743 7.4667100498453873 17.5557100788019618 Zr
atom 2.5874594756484757 2.6866955706301603 9.9443105279014450 S
atom 7.2856622523017220 2.3815492991672862 9.9443476119816783 S
atom 2.2823132062729834 7.3848983458995203 9.9442733602889550 S
atom 7.5679150067642187 7.6671511012209281 9.9443105273595460 S
atom 2.4061995187507432 2.4415211315915131 15.0184139934509808 S
atom 7.5308366888845466 2.5628092549780725 15.0184510781122658 S
atom 2.5274876424549233 7.5661583018168965 15.0183768496270940 S
atom 7.3866550497708205 7.4219766624878085 15.0184139891241664 S
atom 2.0208605096515697 -0.0010754641236855 12.4052100131570349 S
atom 7.9999702886080870 -0.0110454269886408 12.5650027499126828 S
atom 2.9966212431799968 4.9923036122228277 12.5649285157015669 S
atom 7.0013160413995603 4.9793800602233507 12.4052100130975003 S
atom 3.0046609924416638 -0.0049677477776558 17.5988224142048573 S
atom 6.9842356934093948 -0.0168508480700103 17.5201264626008495 S
atom 1.9808866470068147 4.9864981926194298 17.5200522284794360 S
atom 7.9851165237749644 4.9754877776816668 17.5988224140368317 S
atom -0.0103712906864601 2.9710417786216530 12.4051728960938519 S
atom 4.9800542033245998 1.9723875313898207 12.5649656334041371 S
atom -0.0232948509761453 6.9757365771809416 12.5648913985185757 S
atom 4.9700842475699272 7.9514973106531031 12.4051728951074605 S
atom -0.0064789516947843 1.9872412962991666 17.5987852962460920 S
atom 4.9858595689551439 2.9881221263609832 17.5200893455796276 S
atom -0.0174894753728403 7.9914711733848156 17.5200151117492346 S
atom 4.9739765773017712 6.9676968267094033 17.5987852970317853 S
atom -0.0234500382532912 -0.0242034924722771 20.0989805120345686 Ba
atom 5.0161057829548570 0.0120032832641989 20.0990176291738436 Ba
atom 0.0127567367885194 5.0153523255996593 20.0989433947738370 Ba
atom 4.9570054922864992 4.9562520345928354 20.0989805120693106 Ba
atom 0.0098811768596428 0.0626399005605395 25.1798206241922387 Ba
atom 4.9292623871420087 -0.0213279326662249 25.1798577413395464 Ba
atom -0.0740866569840129 4.9820211131426779 25.1797835076630925 Ba
atom 4.9903367054846974 5.0430954311079530 25.1798206246759797 Ba
atom 2.4870079751586318 2.4934598232761904 22.6422509440434574 Zr
atom 7.4788979950990688 2.4820007984207182 22.6422880551203924 Zr
atom 2.4755489486987114 7.4853498464456445 22.6422138304621434 Zr
atom 7.4674635063651928 7.4739153554804778 22.6422509459586472 Zr
atom 2.4930850108320772 2.5004547351842352 27.7271518487591280 Zr
atom 7.4719030863015208 2.4759237678339909 27.7271889431245988 Zr
atom 2.4685540391081462 7.4792728122319589 27.7271147058020304 Zr
atom 7.4735405446194303 7.4809102637140859 27.7271518810134410 Zr
atom 2.5369710916117620 2.5362176358363189 20.0989804844876936 S
atom 7.4361401841653656 2.4320376819400717 20.0990176593443373 S
atom 2.4327911375962836 7.4353867285777504 20.0989434360274579 S
atom 7.5174266224791522 7.5166731667153615 20.0989805084998707 S
atom 2.4422745867243596 2.4054460628590757 25.1795470735114009 S
atom 7.5669117571152151 2.5267341861375305 25.1795841640557860 S
atom 2.5635627108985943 7.5300832328793987 25.1795099085840448 S
atom 7.4227301178812954 7.3859015937289545 25.1795470365787608 S
atom 1.9879947523353534 -0.0072324677915891 22.5991757324877369 S
atom 7.9922246274823436 -0.0182428999394760 22.6779459187979846 S
atom 2.9888755822645545 4.9851061733872859 22.6778716838198022 S
atom 6.9684502844383083 4.9732230904631400 22.5991757337109043 S
atom 2.9717952342539729 -0.0111247340804595 27.7927881312152714 S
atom 6.9764900326928485 -0.0240482838008049 27.6330696274468011 S
atom 1.9731409875734529 4.9793007342382962 27.6329953940313651 S
atom 7.9522507659962844 4.9693307699708331 27.7927881299669934 S
atom -0.0042143455455640 3.0039075381340217 22.5991386159046463 S
atom 4.9872517021457847 1.9801331902744279 22.6779088011801697 S
atom -0.0160973545740803 6.9834822399695424 22.6778345665523133 S
atom 4.9762411956510064 7.9843630657153906 22.5991386163148960 S
atom -0.0003220138603250 2.0201070560415708 27.7927510133878215 S
atom 4.9930570735639312 2.9958677847982713 27.6330325116121003 S
atom -0.0102919683593807 7.9992168350554049 27.6329582760336407 S
atom 4.9801335112710801 7.0005625840363965 27.7927510130220305 S
atom -0.0764390125738299 0.0030968533936942 30.2479431898859907 Ba
atom 4.9888054306913219 0.0649922467321855 30.2479803087468433 Ba
atom -0.0145436232997365 5.0683413012781680 30.2479060717798660 Ba
atom 4.9040165263931303 4.9835523928878898 30.2479431903900107 Ba
atom 0.2144243109809963 -0.2823208129232319 35.2577059233050818 Ba
atom 5.2742230984974743 -0.2258710613124140 35.2577430386460406 Ba
atom 0.2708740549140585 4.7774779784828931 35.2576688049868139 Ba
atom 5.1948798396153686 4.6981347115285290 35.2577059218648756 Ba
atom 2.5409122235487520 2.4020622845678270 32.8007458362165849 Zr
atom 7.5702955481632550 2.4280965598479174 32.8007830468348516 Zr
atom 2.5669465135186469 7.4314456085533651 32.8007088063530361 Zr
atom 7.5213677494480695 7.3825178199071315 32.8007457926862713 Zr
atom 2.5299006493478671 2.4597562475148340 37.8788358532192220 Zr
atom 7.5126015830546979 2.4391080679095465 37.8788729913286204 Zr
atom 2.5092525418787348 7.4424571281481704 37.8787987659033121 Zr
atom 7.5103561722390104 7.4402117889752564 37.8788358541473968 Zr
atom 2.6874490255143599 2.5867060204928416 30.2536504783658877 S
atom 7.3856518020805897 2.2815597509972068 30.2536876480652488 S
atom 2.3823027562212977 7.2849087971856141 30.2536134363512019 S
atom 7.6679045592971207 7.5671615522778666 30.2536504735401230 S
atom 2.2841752312346388 2.2237135920220781 35.3049957582425620 S
atom 7.7486442317527686 2.6848335531121501 35.3050326170521984 S
atom 2.7452951843885200 7.6881825974658549 35.3049583705713061 S
atom 7.2646307643728267 7.2041691223452959 35.3049958193768347 S
atom 2.0790039615687470 -0.0606729131365661 32.5681763531599913 S
atom 7.9717012170598247 -0.0729733659175193 32.9848380322940500 S
atom 2.9683521661529872 4.9303756723902445 32.9847637955717872 S
atom 7.0594594906393819 4.9197826068157369 32.5681763526404922 S
atom 2.2597356615277100 -0.0526561252207457 38.0224439486346668 S
atom 7.8570146688455331 -0.0671197458647832 37.5219841089254089 S
atom 2.8536656254757617 4.9362293401353599 37.5219098731799363 S
atom 7.2401911955266600 4.9277994501673525 38.0224439451717870 S
atom 0.0492260394496694 2.9128983308340244 32.5681392360339927 S
atom 5.0419822487490098 2.0006566060829747 32.9848009136482361 S
atom 0.0386332307851464 7.0040056504929558 32.9847266813363973 S
atom 5.0296815372758150 7.8933538623554993 32.5681392371520460 S
atom 0.0412098513180783 2.7321666126334749 38.0224068322357382 S
atom 5.0361280490204319 2.1153431487177872 37.5219469868125017 S
atom 0.0327789574998068 7.1186921962875660 37.5218727512648158 S
atom 5.0216654329165760 7.7126221375930450 38.0224068285085508 S
atom -0.1090266707069149 0.0584524035811232 40.0602663115706505 Ba
atom 4.9334498977448300 0.0975799111131338 40.0603034012508559 Ba
atom -0.0698991428262034 5.1009289530734598 40.0602291713405450 Ba
atom 4.8714288532948071 5.0389079309438438 40.0602663134823231 Ba
atom 2.7680423692074676 2.6180975382177047 40.3876022767710481 S
atom 7.3542602676986846 2.2009663875442853 40.3876395409746323 S
atom 2.3509112196655777 7.2043154340104101 40.3875653053236192 S
atom 7.7484978971051346 7.5985530666079004 40.3876022499006879 S
atom 2.5560396551046809 2.3706085603762994 43.4954892800264759 Ba
atom 7.6017492701155156 2.4129691038746297 43.4955263770709664 Ba
atom 2.5984002216547437 7.4163181485665044 43.4954521438042931 Ba
atom 7.5364951878466480 7.3510640892537928 43.4954892859550100 Ba
atom 2.2002158191733643 2.7158217072014486 48.2922174616504307 Ba
atom 7.2565361049716257 2.7687929659350892 48.2922545777504695 Ba
atom 2.2531870666720213 7.7721420109840142 48.2921803427973515 Ba
atom 7.1806713427969013 7.6962772373673669 48.2922174626311502 Ba
atom 4.9507133463762161 5.0165121721134565 45.6795153492874988 Zr
atom 9.9363012476055736 4.9987509510649524 45.6795524873417307 Zr
atom 4.9329522001045261 10.0020999906443517 45.6794782668102712 Zr
atom 9.9311688802582108 9.9969676954008602 45.6795153363886044 Zr
atom 4.9288228063470454 5.0269124685183542 50.7416641480168593 Zr
atom 9.9259008612829494 5.0206414919738807 50.7417014780428701 Zr
atom 4.9225518181948997 10.0239905332645858 50.7416272447642882 Zr
atom 9.9092783351345446 10.0073679958669359 50.7416641653878315 Zr
atom 5.1174007904275891 5.2635644272743809 43.1694782551612519 S
atom 9.6892489461039215 4.8320635336589461 43.1695155539027198 S
atom 4.6858999008594591 9.8354125809899688 43.1694413209731991 S
atom 10.0978563203250786 10.2440199577924478 43.1694782651104418 S
atom 4.6844465119445253 4.7254847857064988 48.2447855922530167 S
atom 10.2273285625289763 5.2650177961025841 48.2448223299167864 S
atom 5.2239795186324622 10.2683668441204379 48.2447480652988574 S
atom 9.6649020444360758 9.7059403189534930 48.2447855955863290 S
atom 5.2236345688164736 2.5290721603143878 45.5120109151681760 S
atom 9.6091863893362888 2.5215025429633044 46.0537811471052265 S
atom 4.6058373431284689 7.5248516052929491 46.0537069112293977 S
atom 10.2040900985348344 7.5095277095683128 45.5120109158700856 S
atom 5.3416570999923172 2.5262598314268234 51.0695453126221466 S
atom 9.5473289539316237 2.5190458262201867 50.4570876625293039 S
atom 4.5439799035778661 7.5223948609945914 50.4570134250565303 S
atom 10.3221126277912987 7.5067153503442974 51.0695453108391746 S
atom 2.4399360022890337 4.7487232730392490 45.5119737980244921 S
atom 7.4279622724760568 5.3436269645486050 46.0537440342137714 S
atom 2.4246132225323946 10.3469760113374587 46.0536697997452720 S
atom 7.4203915355982808 9.7291788064932589 45.5119737994351254 S
atom 2.4427492176799706 4.6307007176311226 51.0695081938580628 S
atom 7.4304182199362669 5.4054844041571233 50.4570505435271386 S
atom 2.4270691322354598 10.4088334539803942 50.4569763076362392 S
atom 7.4232047880685412 9.6111562483256119 51.0695081936307744 S
atom 2.7150819426336943 2.3540674449397803 53.2763834234057398 Ba
atom 7.6182903519113410 2.2539268558290284 53.2764205411761438 Ba
atom 2.6149413066194760 7.2572759065733230 53.2763463049213257 Ba
atom 7.6955374719567384 7.3345229807725962 53.2763834233697366 Ba
atom 2.1884448022176528 2.7088421170156605 58.2946844931492549 Ba
atom 7.2635156740276381 2.7805640061118990 58.2947216186714741 Ba
atom 2.2601666101323752 7.7839130518950670 58.2946473837065398 Ba
atom 7.1689003494365124 7.6892976458423767 58.2946844917467786 Ba
atom 4.9458801991359476 5.0211914687036110 55.7671407579345839 Zr
atom 9.9316218255397644 5.0035841033428232 55.7671775555370459 Zr
atom 4.9282727783699123 10.0069331538117048 55.7671032819318739 Zr
atom 9.9263357244699115 10.0016470029679478 55.7671407790943690 Zr
atom 4.9060330446330722 5.0402230792678910 60.7944899324403565 Zr
atom 9.9125901963620784 5.0434313733169844 60.7945272708273308 Zr
atom 4.9092411441299415 10.0467804306339588 60.7944530789892070 Zr
atom 9.8864885751792020 10.0206786186226875 60.7944898799262958 Zr
atom 5.2041761279044847 5.3404905061506005 53.2648178683010727 S
atom 9.6123228318519249 4.7452881710291717 53.2648550374479726 S
atom 4.6089737848513472 9.7486372177936484 53.2647808493757609 S
atom 10.1846316598925704 10.3209460387004786 53.2648178274456470 S
atom 4.6866779411409727 4.7165603379625072 58.2829689155017618 S
atom 10.2362529947969421 5.2627863533794654 58.2830065762264340 S
atom 5.2329039442408014 10.2661353995554556 58.2829323431773645 S
atom 9.6671334708053376 9.6970158667116841 58.2829689364700556 S
atom 5.3371855942163728 2.5226902761168284 55.4725873891276393 S
atom 9.5409049801955899 2.5149474105475735 56.0895291342077940 S
atom 4.5375559373200636 7.5182964498032820 56.0894548997863538 S
atom 10.3176411306827660 7.5031457993028852 55.4725873841041945 S
atom 5.3015014915657837 2.5345831437991984 61.0619069615885124 S
atom 9.5349341078798506 2.5264498665607857 60.5277064747094684 S
atom 4.5315850633835364 7.5297989281798916 60.5276322392484190 S
atom 10.2819570248406649 7.5150386907478177 61.0619069656327156 S
atom 2.4463186482923973 4.6351722192774893 55.4725502688049019 S
atom 7.4345167672454480 5.4119083713884972 56.0894920172795253 S
atom 2.4311677666382643 10.4152574168791592 56.0894177835614869 S
atom 7.4267741367558457 9.6156277494524431 55.4725502687682450 S
atom 2.4344246284708357 4.6708563398306051 61.0618698660610661 S
atom 7.4230153471478841 5.4178792306383974 60.5276693512811050 S
atom 2.4196663301800365 10.4212282729773058 60.5275951176075466 S
atom 7.4148801323758375 9.6513118702740481 61.0618698665188830 S
atom 2.4847890500340064 2.4824156568797102 63.3117886018755556 Ba
atom 7.4899421566752302 2.4842197409814863 63.3118257134014613 Ba
atom 2.4865931219830708 7.4875687835357523 63.3117514834486457 Ba
atom 7.4652445677817116 7.4628711825707539 63.3117886016253166 Ba
atom 2.7112155447373518 2.1860713806488654 68.3288927604010325 Ba
atom 7.7862863885970111 2.2577932756839210 68.3289298920720825 Ba
atom 2.7829373497892194 7.2611423249496667 68.3288556546722674 Ba
atom 7.6916710669212627 7.1665269152662470 68.3288927630075023 Ba
atom 5.0425965330658258 4.9036595177915165 65.8290870457681621 Zr
atom 10.0491536853278518 4.9068678472587521 65.8291243432191635 Zr
atom 5.0458046180259606 9.9102168901748104 65.8290501146381075 Zr
atom 10.0230520771809761 9.8841150436303575 65.8290870653020619 Zr
atom 5.0235649151094668 4.9435068067236889 70.8564370105881807 Zr
atom 10.0093065485851866 4.9258994729983918 70.8564736566136020 Zr
atom 5.0059575016302427 9.9292485148947307 70.8563993826291778 Zr
atom 10.0040204512439104 9.9239623298182966 70.8564370360417399 Zr
atom 5.2269052720923623 5.2245318964729925 63.3117892044684467 S
atom 9.7282814608906225 4.7225590161527213 63.3118253004809048 S
atom 4.7249324133034580 9.7259080630887880 63.3117510040420015 S
atom 10.2073607987099262 10.2049874248265446 63.3117892585689503 S
atom 4.7189337388222041 4.6843045605510625 68.3406075966941415 S
atom 10.2685087984245218 5.2305305801831965 68.3406454477657235 S
atom 5.2651597533134638 10.2338796293120833 68.3405712665777969 S
atom 9.6993892702902258 9.6647600917809342 68.3406075223713003 S
atom 4.6732297144367791 2.4320523546163049 65.5617074112732610 S
atom 10.4236016659223942 2.4172918838526130 66.0959821161658283 S
atom 5.4202526293781528 7.4206409354737133 66.0959078871658221 S
atom 9.6536852517104901 7.4125078938386650 65.5617074153940251 S
atom 4.6375456139742903 2.4439449795912402 71.1510269527264541 S
atom 10.4176308047058956 2.4287946135673990 70.5341594312112932 S
atom 5.4142817551403342 7.4321436464467237 70.5340852009744452 S
atom 9.6180011417764710 7.4244004980530276 71.1510269536053244 S
atom 2.5369576206004321 5.2991280861028942 65.5616702746407185 S
atom 7.5321713102016634 4.5292116942372012 66.0959450072449926 S
atom 2.5288221777641708 9.5325607441615237 66.0958707716639964 S
atom 7.5174132461366714 10.2795836172101716 65.5616702722104776 S
atom 2.5250634083859191 5.3348122160754796 71.1509898350842747 S
atom 7.5206700668706379 4.5351825417919152 70.5341223158951891 S
atom 2.5173210577455185 9.5385315887916722 70.5340480820987636 S
atom 7.5055188994583268 10.3152677510673829 71.1509898369971552 S
atom 2.3564408536585457 2.7127085196260663 73.3471938212340717 Ba
atom 7.2596492545913431 2.6125679554302459 73.3472309389729418 Ba
atom 2.2563001962252294 7.6159170012013284 73.3471567032332388 Ba
atom 7.3368963975858481 7.6931640488613944 73.3471938211645096 Ba
atom 2.7181951024090996 2.1978424134165415 78.3313597621156390 Ba
atom 7.7745153768308146 2.2508136929216502 78.3313968741745867 Ba
atom 2.7711663352634335 7.2541627375861744 78.3313226390427246 Ba
atom 7.6986506287654386 7.1782979431872160 78.3313597613446291 Ba
atom 5.0292858880975082 4.9264494350687507 75.8819126208775430 Zr
atom 10.0263639448830730 4.9201784781863482 75.8819502630159093 Zr
atom 5.0230149017067642 9.9235275202818691 75.8818760566657318 Zr
atom 10.0097414205379511 9.9069049600118486 75.8819125940080710 Zr
atom 5.0188854259757578 4.9483399865749256 80.9440618799388858 Zr
atom 10.0044734020097295 4.9305786810184751 80.9440990635696522 Zr
atom 5.0011243604078546 9.9339277237623378 80.9440248296983498 Zr
atom 9.9993409509565598 9.9287955152076197 80.9440618906419331 Zr
atom 5.3428639103446542 5.2018027476415725 73.3587592666479935 S
atom 9.7510106177611071 4.6066004241066905 73.3587964831381640 S
atom 4.7476615722799096 9.6099494730702375 73.3587222519790316 S
atom 10.3233194439793525 10.1822582792442589 73.3587592966296427 S
atom 4.7278581793588357 4.6820731187999485 78.3787924590575784 S
atom 10.2707402288862841 5.2216061449434639 78.3788285080089224 S
atom 5.2673911815216039 10.2249551916080055 78.3787542420896273 S
atom 9.7083137118168956 9.6625286507321739 78.3787924621132674 S
atom 4.6330741110473692 2.4403754241992459 75.5540690590707271 S
atom 10.4112068342732460 2.4246961691490139 76.1666009521169656 S
atom 5.4078577855270806 7.4280452349630446 76.1665267147860447 S
atom 9.6135296412779692 7.4208309741189158 75.5540690611534558 S
atom 4.7510966170790443 2.4375638867152944 81.1116034320264134 S
atom 10.3493493857771295 2.4222387588105625 80.5699074450480879 S
atom 5.3460003400158351 7.4255877938157999 80.5698332115285325 S
atom 9.7315521514246797 7.4180194038362659 81.1116034290840560 S
atom 2.5286327966140996 5.3392837210645396 75.5540319437657644 S
atom 7.5247686586591378 4.5416065060292325 76.1665638376804566 S
atom 2.5214196210523938 9.5449555554335337 76.1664896019253206 S
atom 7.5090883162011304 10.3197392519911446 75.5540319445762663 S
atom 2.5314468027540653 5.2212611357689562 81.1115663089839387 S
atom 7.5272239077568841 4.6034639504063595 80.5698703132859322 S
atom 2.5238748379902414 9.6068129963199969 80.5697960778299631 S
atom 7.5119023599518648 10.2017166674631969 81.1115663097558723 S
atom 2.3729819239147307 2.5536662950440032 83.1280879786520330 Ba
atom 7.4186915621745957 2.5960268199493974 83.1281251110061135 Ba
atom 2.4153425176749690 7.5993758691400526 83.1280508778549034 Ba
atom 7.3534374524443855 7.5341218285858345 83.1280879778552304 Ba
atom 5.2659377650422545 5.1150273627795295 83.4540985621757585 S
atom 9.8377859290376488 4.6835264710526729 83.4541362481799354 S
atom 4.8344368810694265 9.6868755167243954 83.4540620245711295 S
atom 10.2463932957085984 10.0954828946127488 83.4540985553526866 S
