lattice_vector 10.1084006710985719 -0.0000000000000005 -0.0000000000000018 
lattice_vector -0.0000000000000005 10.1084006710985719 -0.0000000000000008 
lattice_vector -0.0000000000000029 -0.0000000000000014 15.5284693453638916 
atom -0.1566268862452055 -0.0000000000001380 0.2394937652487226 Ba
atom 5.2108272217943270 -0.0000000000001397 0.2394937652487688 Ba
atom 0.1566268862449279 5.0542003355492424 0.2394937652486916 Ba
atom 4.8975734493040681 5.0542003355491500 0.2394937652488546 Ba
atom 0.1566268862449003 -0.0000000000001202 4.6131529051776550 Ba
atom 4.8975734493041321 -0.0000000000001393 4.6131529051776425 Ba
atom -0.1566268862452771 5.0542003355492726 4.6131529051776159 Ba
atom 5.2108272217944283 5.0542003355492362 4.6131529051775564 Ba
atom 2.5271001677744858 2.5271001677744418 2.4263233352131524 Zr
atom 7.5813005033238978 2.5271001677745697 2.4263233352132167 Zr
atom 2.5271001677744853 7.5813005033238383 2.4263233352131990 Zr
atom 7.5813005033239937 7.5813005033239085 2.4263233352130888 Zr
atom 2.5271001677745422 2.8450937405445300 -0.1070441971409863 S
atom 7.5813005033237921 2.2091065950045667 -0.1070441971408736 S
atom 2.5271001677745097 7.2633069305538207 -0.1070441971408349 S
atom 7.5813005033238063 7.8992940760938941 -0.1070441971408532 S
atom 2.5271001677745706 2.2091065950045512 4.9596908675673648 S
atom 7.5813005033238046 2.8450937405445349 4.9596908675672617 S
atom 2.5271001677745959 7.8992940760938612 4.9596908675672671 S
atom 7.5813005033237779 7.2633069305537967 4.9596908675672626 S
atom 2.5271001677746421 -0.0000000000002205 2.1155300711349256 S
atom 7.5813005033238126 -0.0000000000003670 2.7371165992916109 S
atom 2.5271001677746043 5.0542003355492824 2.7371165992915811 S
atom 7.5813005033237699 5.0542003355491119 2.1155300711349296 S
atom -0.0000000000001688 2.5271001677745826 2.4263233352132327 S
atom 5.0542003355492087 2.5271001677745839 2.4263233352132629 S
atom -0.0000000000002145 7.5813005033237655 2.4263233352132794 S
atom 5.0542003355491882 7.5813005033237477 2.4263233352132731 S
atom 2.5271001677744480 2.6837270540195632 8.0037284379306719 Ba
atom 7.5813005033238214 2.3704732815293363 8.0037284379308282 Ba
atom 2.5271001677745302 7.4246736170787067 8.0037284379308051 Ba
atom 7.5813005033238285 7.7379273895690384 8.0037284379308122 Ba
atom 2.5271001677745737 2.3704732815293976 12.3773875778595741 Ba
atom 7.5813005033237753 2.6837270540196236 12.3773875778596345 Ba
atom 2.5271001677745635 7.7379273895689487 12.3773875778596185 Ba
atom 7.5813005033237042 7.4246736170786365 12.3773875778596416 Ba
atom 5.0542003355491838 5.0542003355492824 10.1905580078952536 Zr
atom 10.1084006710986039 5.0542003355492913 10.1905580078950297 Zr
atom 5.0542003355493028 10.1084006710985257 10.1905580078951843 Zr
atom 10.1084006710983019 10.1084006710985221 10.1905580078951843 Zr
atom 4.7362067627791546 5.0542003355492673 7.6571904755410385 S
atom 10.4263942438685149 5.0542003355492771 7.6571904755410927 S
atom 5.3721939083192503 10.1084006710983711 7.6571904755410527 S
atom 9.7904070983286999 10.1084006710984013 7.6571904755412010 S
atom 5.3721939083191819 5.0542003355492406 12.7239255402489491 S
atom 9.7904070983287443 5.0542003355492762 12.7239255402494411 S
atom 4.7362067627791244 10.1084006710983978 12.7239255402490947 S
atom 10.4263942438684598 10.1084006710983960 12.7239255402494180 S
atom 5.0542003355492211 2.5271001677743459 10.1905580078949765 S
atom 10.1084006710984529 2.5271001677743521 10.1905580078950670 S
atom 5.0542003355492309 7.5813005033236154 10.1905580078951701 S
atom 10.1084006710984919 7.5813005033236749 10.1905580078950386 S
atom 2.5271001677742837 5.0542003355491882 10.5013512719735669 S
atom 7.5813005033238419 5.0542003355491874 9.8797647438168212 S
atom 2.5271001677744751 10.1084006710983978 9.8797647438168354 S
atom 7.5813005033239005 10.1084006710984777 10.5013512719734994 S
