lattice_vector   -2.4772084300000001     2.4772084300000001    12.6664911199999999
lattice_vector    2.4772084300000001    -2.4772084300000001    12.6664911199999999
lattice_vector    2.4772084300000001     2.4772084300000001   -12.6664911199999999
atom_frac     0.0000000000000000     0.0000000000000000     0.0000000000000000 Ba
atom_frac     0.1805328671181753     0.1805302928818247     1.0000000000000000 Ba
atom_frac     0.8194671328818247     0.8194697071181752     0.0000000000000000 Ba
atom_frac     0.5000000000000000     0.5000000000000000     1.0000000000000000 S
atom_frac     0.3008254786818849     0.3010029213181158     0.0000000000000006 S
atom_frac     0.6991745213181151     0.6989970786818842     0.9999999999999993 S
atom_frac     0.9049883560826055     0.4042323317744972     0.5011735088974524 S
atom_frac     0.4038148682255043     0.9030588439173874     0.4988264911025422 S
atom_frac     0.0950116439173946     0.5957676682255028     0.4988264911025478 S
atom_frac     0.5961851317744956     0.0969411560826125     0.5011735088974579 S
atom_frac     0.3992813773736201     0.3996622426263812     0.0000000000000014 Zr
atom_frac     0.6007186226263799     0.6003377573736187     0.9999999999999986 Zr
