#=======================================================
# FHI-aims file: full_relax/full_relax_RP_8_RxRyMz_RxRy-Mz.in
# Created using the Atomic Simulation Environment (ASE)
# Mon Mar 24 16:11:50 2025
#=======================================================
lattice_vector 10.0116684340048252 -0.0702508866719029 0.0000000000000584 
lattice_vector -0.0702508866719052 10.0116684340041608 0.0000000000000793 
lattice_vector 0.0000000000004983 0.0000000000006795 85.9457916426307236 
atom 0.0807220737477580 -0.1223124244715914 0.2194259433162067 Ba
atom 5.1281466414429602 -0.1158475171461013 0.2194259431741174 Ba
atom 0.0871869810391467 4.9251121432427238 0.2194259429358605 Ba
atom 5.0514308474729139 4.8483963492535205 0.2194259434270771 Ba
atom -0.3156035230048665 0.2393558688430516 5.0090513539639732 Ba
atom 4.7664783481679338 0.2804780796058248 5.0090513539100385 Ba
atom -0.2744813122181429 5.3214377399784398 5.0090513539702366 Ba
atom 4.6551052507150121 5.2100646425524326 5.0090513539116390 Ba
atom 2.4517587355726387 2.5260013732991760 2.3989021222424469 Zr
atom 7.4505416168549834 2.4838245950775271 2.3989021221988458 Zr
atom 2.4095819571880468 7.5247842554991733 2.3989021222403277 Zr
atom 7.4224675086177783 7.4967101470867137 2.3989021221769700 Zr
atom 2.4257203729309844 2.5400090560098216 7.4527777855299364 Zr
atom 7.4365339345815853 2.5098629574361668 7.4527777856215156 Zr
atom 2.3955742743944941 7.5508226177993221 7.4527777853190615 Zr
atom 7.3964291464722818 7.5107178296576134 7.4527777852910528 Zr
atom 2.6118836903377116 2.7834158416317814 -0.1072486191739375 S
atom 7.1931271490268704 2.3236996399242531 -0.1072486196015029 S
atom 2.1521674886193307 7.3646593002347887 -0.1072486195891916 S
atom 7.5825924641129454 7.7541246153255861 -0.1072486194345782 S
atom 2.1835455832200483 2.2299559760586312 4.9599512228641407 S
atom 7.7465870146853897 2.7520377470945623 4.9599512233850778 S
atom 2.7056273542713467 7.7929974074152977 4.9599512233757013 S
atom 7.1542543569560104 7.2006647497131882 4.9599512233788499 S
atom 2.7393002210123312 0.0331526139549798 2.2276828633586883 S
atom 7.1317248484090694 0.0011534356013236 2.7783870701609641 S
atom 2.0907651879887719 5.0421130956005804 2.7783870701418731 S
atom 7.7100089948480317 5.0038613872274453 2.2276828633210179 S
atom 2.8448926189512185 0.0325269912345377 7.7863040111230246 S
atom 7.0747853531519516 0.0006462967584429 7.1626394410597065 S
atom 2.0338256927716518 5.0416059572267784 7.1626394410397447 S
atom 7.8156013926333490 5.0032357650473669 7.7863040111068917 S
atom -0.0682780558870407 2.2665339958710957 2.2276828633325527 S
atom 4.9344298938323199 2.8448181422519534 2.7783870701231166 S
atom -0.1065297659860880 7.8857778026378700 2.7783870701669402 S
atom 4.9024307171964256 7.2372427695405506 2.2276828633192194 S
atom -0.0676524344517501 2.1609415980202971 7.7863040111138968 S
atom 4.9349370333095433 2.9017576375361132 7.1626394410534804 S
atom -0.1060226271435009 7.9427172978816944 7.1626394410542860 S
atom 4.9030563393262723 7.1316503717139730 7.7863040111092419 S
atom 0.2338541880252342 -0.1336401371548887 9.9807389740636907 Ba
atom 5.1394743542050998 -0.2689796313043961 9.9807389740534855 Ba
atom 0.0985146938150400 4.7719800289374641 9.9807389740636694 Ba
atom 5.2045629617417584 4.8370686363969257 9.9807389740661190 Ba
atom -0.3327664561427454 0.2305712814813867 14.9824688957799363 Ba
atom 4.7752629354953280 0.2976410127855571 14.9824688957864396 Ba
atom -0.2656967248520262 5.3386006731648310 14.9824688957954226 Ba
atom 4.6379423175289789 5.2012800551892386 14.9824688957833096 Ba
atom 2.4409990483241168 2.5325206541896299 12.4685175127302479 Zr
atom 7.4440223363984535 2.4945842820353463 12.4685175124077592 Zr
atom 2.4030626761539522 7.5355439423770312 12.4685175127406573 Zr
atom 7.4117078219301034 7.5032294278121636 12.4685175129047341 Zr
atom 2.4352738847056647 2.5347235776218926 17.4814678246694974 Zr
atom 7.4418194130445690 2.5003094456093788 17.4814678246923592 Zr
atom 2.4008597527298248 7.5412691059767578 17.4814678243393082 Zr
atom 7.4059826583673951 7.5054323512517627 17.4814678243337340 Zr
atom 2.7010198279345605 2.8642086352667131 9.9713573201932650 S
atom 7.1123343553491134 2.2345635023367336 9.9713573195351426 S
atom 2.0713746950187608 7.2755231626845429 9.9713573199269732 S
atom 7.6717286016439363 7.8349174089219025 9.9713573199623777 S
atom 2.1689911821630492 2.2013404346507173 14.9795250504226232 S
atom 7.7752025560261391 2.7665921481621392 14.9795250517751501 S
atom 2.7342428956717315 7.8075518084917501 14.9795250510476556 S
atom 7.1396999558467424 7.1720492083219733 14.9795250506074087 S
atom 2.8380221062875668 0.0287676048681214 12.1609453087560127 S
atom 7.0763282472400419 -0.0035592346005432 12.8011595614905289 S
atom 2.0353685869257592 5.0374004260244538 12.8011595614533604 S
atom 7.8087308800004340 4.9994763788494998 12.1609453087257382 S
atom 2.8368405929797760 0.0302905413764631 17.8067510040927601 S
atom 7.0768526116186870 -0.0020325453296112 17.1628332902419984 S
atom 2.0358929512584947 5.0389271147686721 17.1628332902056329 S
atom 7.8075493666165876 5.0009993148410041 17.8067510040636883 S
atom -0.0638930471885230 2.1678121106248454 12.1609453087406099 S
atom 4.9391425636334922 2.9002147434520964 12.8011595614939271 S
atom -0.1018170962256892 7.9411744037601872 12.8011595614498521 S
atom 4.9068157259870375 7.1385208843475034 12.1609453087392829 S
atom -0.0654159855829053 2.1689936240681571 17.8067510040489800 S
atom 4.9376158767466816 2.8996903790171369 17.1628332902257306 S
atom -0.1033437839775389 7.9406500393826773 17.1628332902299192 S
atom 4.9052927884689792 7.1397023977149692 17.8067510041000219 S
atom 0.2353146689849377 -0.1323264787516079 19.9873934053320568 Ba
atom 5.1381606958528163 -0.2704401122524482 19.9873934053182687 Ba
atom 0.0972010355000953 4.7705195479169191 19.9873934053382634 Ba
atom 5.2060234426713556 4.8383822947253190 19.9873934053444877 Ba
atom -0.3327664562527717 0.2305712815459834 24.9923179146578960 Ba
atom 4.7752629355859311 0.2976410128164166 24.9923179147078791 Ba
atom -0.2656967249208699 5.3386006731114843 24.9923179146891670 Ba
atom 4.6379423175833150 5.2012800551681977 24.9923179147243424 Ba
atom 2.4352738847161355 2.5347235776630348 22.4933189859863560 Zr
atom 7.4418194130872291 2.5003094455801587 22.4933189864188705 Zr
atom 2.4008597526635489 7.5412691059420132 22.4933189863459546 Zr
atom 7.4059826584155477 7.5054323513107430 22.4933189864340441 Zr
atom 2.4409990484791084 2.5325206541543461 27.5062692973379583 Zr
atom 7.4440223364546005 2.4945842820164223 27.5062692961928086 Zr
atom 2.4030626761558507 7.5355439423290482 27.5062692983778199 Zr
atom 7.4117078218317038 7.5032294280019478 27.5062692978009835 Zr
atom 2.7044772028144979 2.8681070829080251 19.9873934053993736 S
atom 7.1084359077451893 2.2311061274800146 19.9873934039021606 S
atom 2.0674762474524329 7.2720657878575858 19.9873934052014590 S
atom 7.6751859764927559 7.8388158565318653 19.9873934055323019 S
atom 2.1689911821995698 2.2013404346924914 24.9952617599256826 S
atom 7.7752025560319709 2.7665921481286202 24.9952617610926744 S
atom 2.7342428956704872 7.8075518085124367 24.9952617590372874 S
atom 7.1396999558483758 7.1720492083193683 24.9952617589542463 S
atom 2.8368405929493163 0.0302905415506849 22.1680358064484722 S
atom 7.0768526115982127 -0.0020325469062302 22.8119535203133559 S
atom 2.0358929513156356 5.0389271146016865 22.8119535203057069 S
atom 7.8075493666328608 5.0009993164004545 22.1680358063576257 S
atom 2.8380221062976769 0.0287676053433056 27.8138415018299590 S
atom 7.0763282472647822 -0.0035592330403525 27.1736272491790380 S
atom 2.0353685868805460 5.0374004256240230 27.1736272490849160 S
atom 7.8087308800459319 4.9994763771819342 27.8138415018906429 S
atom -0.0654159841634520 2.1689936239487877 22.1680358063428820 S
atom 4.9376158752973582 2.8996903791369597 22.8119535203337911 S
atom -0.1033437842755801 7.9406500393427075 22.8119535202879753 S
atom 4.9052927887732816 7.1397023977391818 22.1680358064606189 S
atom -0.0638930482231669 2.1678121107654942 27.8138415018722753 S
atom 4.9391425645767946 2.9002147433268943 27.1736272492492326 S
atom -0.1018170960242396 7.9411744038385832 27.1736272490199724 S
atom 4.9068157258158491 7.1385208842341736 27.8138415018426919 S
atom 0.2338541881931317 -0.1336401375807477 29.9940478364190994 Ba
atom 5.1394743540332000 -0.2689796317603299 29.9940478364542891 Ba
atom 0.0985146940106031 4.7719800293299990 29.9940478364501999 Ba
atom 5.2045629614980884 4.8370686369140730 29.9940478364885088 Ba
atom -0.3156035230965193 0.2393558692425836 34.9657354566104601 Ba
atom 4.7664783482125284 0.2804780799237307 34.9657354565685452 Ba
atom -0.2744813122646090 5.3214377395957566 34.9657354566628698 Ba
atom 4.6551052507441995 5.2100646422448458 34.9657354566104104 Ba
atom 2.4257203732016337 2.5400090560271580 32.5220090257046834 Zr
atom 7.4365339345741415 2.5098629576258698 32.5220090273627349 Zr
atom 2.3955742745874526 7.5508226176451103 32.5220090241306181 Zr
atom 7.3964291461936114 7.5107178297150083 32.5220090242837756 Zr
atom 2.4517587355731516 2.5260013739294593 37.5758846876496051 Zr
atom 7.4505416168027132 2.4838245956520741 37.5758846875949146 Zr
atom 2.4095819570577190 7.5247842549772326 37.5758846879001283 Zr
atom 7.4224675087295227 7.4967101462381072 37.5758846881296051 Zr
atom 2.7010198279857769 2.8642086352177420 30.0034294906703281 S
atom 7.1123343554531075 2.2345635023438200 30.0034294907170498 S
atom 2.0713746949194491 7.2755231626568424 30.0034294905345718 S
atom 7.6717286016519646 7.8349174090419504 30.0034294912751598 S
atom 2.1835455832462589 2.2299559760049856 35.0148355871155630 S
atom 7.7465870147208866 2.7520377470127464 35.0148355845991688 S
atom 2.7056273542635565 7.7929974074728072 35.0148355887045497 S
atom 7.1542543569891590 7.2006647498618008 35.0148355883812030 S
atom 2.8448926189259516 0.0325269920585904 32.1884827993569829 S
atom 7.0747853532350309 0.0006462973076025 32.8121473693551877 S
atom 2.0338256927169618 5.0416059564914466 32.8121473694639363 S
atom 7.8156013926567987 5.0032357643772869 32.1884827993621130 S
atom 2.7393002210548989 0.0331526124610823 37.7471039472581964 S
atom 7.1317248483334659 0.0011534325191871 37.1963997404185633 S
atom 2.0907651880690592 5.0421130969095680 37.1963997405348437 S
atom 7.7100089947331130 5.0038613907622427 37.7471039473719898 S
atom -0.0676524348564970 2.1609415980804658 32.1884827993309912 S
atom 4.9349370336411305 2.9017576374358613 32.8121473692758485 S
atom -0.1060226276785015 7.9427172979781737 32.8121473695281693 S
atom 4.9030563398694067 7.1316503716610304 32.1884827993972351 S
atom -0.0682780541019557 2.2665339955003208 37.7471039475395074 S
atom 4.9344298922609049 2.8448181423687893 37.1963997405198228 S
atom -0.1065297662196992 7.8857778025674863 37.1963997404907545 S
atom 4.9024307174497697 7.2372427697858122 37.7471039471080516 S
atom 0.0807220736924715 -0.1223124241708359 39.7553608673358383 Ba
atom 5.1281466415117150 -0.1158475168786435 39.7553608671919889 Ba
atom 0.0871869808956473 4.9251121430179854 39.7553608673385739 Ba
atom 5.0514308476094589 4.8483963489771833 39.7553608671412704 Ba
atom 2.6118836903238152 2.7834158416389734 40.0820354302089967 S
atom 7.1931271488266466 2.3236996396775549 40.0820354318071850 S
atom 2.1521674886720015 7.3646593003772782 40.0820354297780099 S
atom 7.5825924640787878 7.7541246152953205 40.0820354294333043 S
atom 2.3630419623068972 2.5660764608214635 43.1923217646452784 Ba
atom 7.4104665301300052 2.5725413681258775 43.1923217642573576 Ba
atom 2.3695068696317443 7.6135010280109086 43.1923217646866249 Ba
atom 7.3337507361974907 7.5367852340651655 43.1923217645713109 Ba
atom 2.7247102554192995 2.1697508639227427 47.9819471753554723 Ba
atom 7.8067921270849672 2.2108730746674747 47.9819471754255744 Ba
atom 2.7658324662003539 7.2518327349112157 47.9819471753128255 Ba
atom 7.6954190296507621 7.1404596374609133 47.9819471753741098 Ba
atom 5.0113557599177057 4.9371131219422004 45.3717979437759240 Zr
atom 10.0101386425027137 4.8949363433579949 45.3717979442782635 Zr
atom 4.9691789815528491 9.9358960043376374 45.3717979441447099 Zr
atom 9.9820645343169758 9.9078218959820461 45.3717979448043565 Zr
atom 5.0253634429688718 4.9110747595035873 50.4256736069724099 Zr
atom 10.0361770045917016 4.8809286610091540 50.4256736056530741 Zr
atom 4.9952173443272327 9.9218883216554996 50.4256736072413503 Zr
atom 9.9960722163597708 9.8817835335828335 50.4256736061074022 Zr
atom 5.2687702285088633 5.0972380773385826 42.8656472017856203 S
atom 9.8500136870072286 4.6375218754015215 42.8656472008328961 S
atom 4.8090540268087176 9.6784815358756653 42.8656472023032435 S
atom 10.2394790021956830 10.0679468508264911 42.8656472014583869 S
atom 4.7153103629469451 4.6688999701290088 47.9328470445323447 S
atom 10.2783517942342026 5.1909817411659773 47.9328470457740963 S
atom 5.2373921338830050 10.2319414013873740 47.9328470429876532 S
atom 9.6860191364480244 9.6396087437151206 47.9328470435331226 S
atom 4.7518883829228944 2.4170763288681631 45.2005786846608757 S
atom 10.3711321894886179 2.3788246196490768 45.7512828912862943 S
atom 5.3301725290672533 7.4197842824329410 45.7512828913468397 S
atom 9.7225971561708988 7.3877851054299448 45.2005786844172448 S
atom 4.6462959848567591 2.4177019527623735 50.7591998324755949 S
atom 10.4280716847296340 2.3793317608348881 50.1355352624186636 S
atom 5.3871120243672221 7.4202914197436716 50.1355352623614152 S
atom 9.6170047585116745 7.3884107250216697 50.7591998325772522 S
atom 2.5185070015102959 5.2246546080361629 45.2005786844539656 S
atom 7.5274674818003824 4.5761195748003649 45.7512828913753395 S
atom 2.4865078237027025 9.6170792352767833 45.7512828912521314 S
atom 7.4892157726489410 10.1953633815235882 45.2005786846387139 S
atom 2.5178813780123179 5.3302470058086948 50.7591998324588545 S
atom 7.5269603440697948 4.5191800797110711 50.1355352624158712 S
atom 2.4860006843423483 9.5601397398158117 50.1355352623621897 S
atom 7.4885901511992943 10.3009557795068112 50.7591998325907028 S
atom 2.3517142497638632 2.7192085748143593 52.9536347952547928 Ba
atom 7.2573344156806820 2.5838690806602287 52.9536347952097799 Ba
atom 2.2163747555564970 7.6248287410669757 52.9536347952814594 Ba
atom 7.3224230232059808 7.6899173485561674 52.9536347952394877 Ba
atom 2.7159256684061468 2.1525879303438682 57.9553647172872317 Ba
atom 7.8239550599276226 2.2196576616516230 57.9553647172847448 Ba
atom 2.7829953996491419 7.2606173227091739 57.9553647172393696 Ba
atom 7.6866344419532373 7.1232967046589648 57.9553647172426238 Ba
atom 5.0178750410055892 4.9263534351382852 55.4414133333810639 Zr
atom 10.0208983293038347 4.8884170629416861 55.4414133338634443 Zr
atom 4.9799386687780949 9.9293767233986951 55.4414133345973781 Zr
atom 9.9885838147548967 9.8970622087591860 55.4414133345088231 Zr
atom 5.0200779644577995 4.9206282716029763 60.4543636460208660 Zr
atom 10.0266234927991817 4.8862141395321332 60.4543636460954446 Zr
atom 4.9856638324028584 9.9271737999510226 60.4543636447303641 Zr
atom 9.9907867382911704 9.8913370451880223 60.4543636461364784 Zr
atom 5.3495630221399706 5.1863742148030392 52.9442531410066550 S
atom 9.7608775495368807 4.5567290819205031 52.9442531415087174 S
atom 4.7199178891728266 9.5976887421659374 52.9442531416392157 S
atom 10.3202717957885088 10.1570829884871063 52.9442531427366632 S
atom 4.6866948215336111 4.6543455690648923 57.9524208734929971 S
atom 10.2929061953173147 5.2195972824009891 57.9524208725328265 S
atom 5.2519465350076429 10.2605569429620544 57.9524208709548958 S
atom 9.6574035950861035 9.6250543425907509 57.9524208699626868 S
atom 4.6531664975094609 2.4214613387169082 55.1338411300654840 S
atom 10.4265287905031059 2.3835372905892913 55.7740553826612810 S
atom 5.3855691303095501 7.4244969513112471 55.7740553827781156 S
atom 9.6238752712060442 7.3921701128698478 55.1338411300954689 S
atom 4.6543480108411854 2.4199384040482763 60.7796468254676157 S
atom 10.4260044262095430 2.3820106048622778 60.1357291114008632 S
atom 5.3850447659563327 7.4229702607240773 60.1357291115245545 S
atom 9.6250567845119832 7.3906471733126802 60.7796468254494400 S
atom 2.5141219909004668 5.3233764931574568 55.1338411300600484 S
atom 7.5227548136357694 4.5207229737424370 55.7740553827622776 S
atom 2.4817951522859509 9.5616826341077328 55.7740553826747885 S
atom 7.4848307656188648 10.2940852667821545 55.1338411301034341 S
atom 2.5156449289741056 5.3221949795903232 60.7796468253135487 S
atom 7.5242815008668087 4.5212473382937848 60.1357291116138626 S
atom 2.4833218413836442 9.5622069982129823 60.1357291113180707 S
atom 7.4863537017084862 10.2929037537130146 60.7796468255955844 S
atom 2.3530279078090799 2.7206690556520194 62.9602892263539928 Ba
atom 7.2558739349790233 2.5825554222507399 62.9602892264145311 Ba
atom 2.2149142742592467 7.6235150828976908 62.9602892263152185 Ba
atom 7.3237366818580885 7.6913778295710555 62.9602892263469442 Ba
atom 2.7159256685637239 2.1525879309343425 67.9652137363938920 Ba
atom 7.8239550596789522 2.2196576623837112 67.9652137362970876 Ba
atom 2.7829953998321595 7.2606173220905799 67.9652137363238040 Ba
atom 7.6866344417531236 7.1232967040447033 67.9652137362833173 Ba
atom 5.0200779646424847 4.9206282716124656 65.4662148078930812 Zr
atom 10.0266234925306410 4.8862141397150003 65.4662148074532269 Zr
atom 4.9856638326977167 9.9271737997842529 65.4662148074768027 Zr
atom 9.9907867381707369 9.8913370451778810 65.4662148051348680 Zr
atom 5.0178750411050208 4.9263534350418432 70.4791651200035005 Zr
atom 10.0208983291425451 4.8884170631575472 70.4791651197003262 Zr
atom 4.9799386691189076 9.9293767232686534 70.4791651207719241 Zr
atom 9.9885838146249686 9.8970622087496380 70.4791651218092596 Zr
atom 5.3534614696684883 5.1898315896280405 62.9602892248356483 S
atom 9.7574201747160512 4.5528306343412011 62.9602892260360534 S
atom 4.7164605143844849 9.5937902946412343 62.9602892297250705 S
atom 10.3241702434597524 10.1605403633235483 62.9602892290140232 S
atom 4.6866948213431971 4.6543455689227233 67.9681575813191614 S
atom 10.2929061953694774 5.2195972825982428 67.9681575804738713 S
atom 5.2519465350732668 10.2605569428809726 67.9681575768525335 S
atom 9.6574035952362092 9.6250543426464858 67.9681575810491978 S
atom 4.6543480109553421 2.4199383994804124 65.1409316279245303 S
atom 10.4260044262733498 2.3820106020052645 65.7848493417363898 S
atom 5.3850447657103393 7.4229702654079759 65.7848493416035751 S
atom 9.6250567846104502 7.3906471760689936 65.1409316279831785 S
atom 4.6531664972680158 2.4214613408877628 70.7867373230004659 S
atom 10.4265287905860440 2.3835372897284111 70.1465230701616065 S
atom 5.3855691304618833 7.4244969493140118 70.1465230699953253 S
atom 9.6238752712954128 7.3921701136267952 70.7867373228211108 S
atom 2.5156449278417981 5.3221949798811208 65.1409316278152488 S
atom 7.5242815020248317 4.5212473379676741 65.7848493417564271 S
atom 2.4833218420265366 9.5622069986010416 65.7848493415967681 S
atom 7.4863537010061680 10.2929037533401448 65.1409316280842319 S
atom 2.5141219914834481 5.3233764931206498 70.7867373229491790 S
atom 7.5227548130559061 4.5207229737134211 70.1465230702039264 S
atom 2.4817951499340114 9.5616826340804337 70.1465230699659088 S
atom 7.4848307679085639 10.2940852667681781 70.7867373228474861 S
atom 2.3517142497473560 2.7192085747052568 72.9669436578039949 Ba
atom 7.2573344156274970 2.5838690806062412 72.9669436577870414 Ba
atom 2.2163747555368314 7.6248287412522160 72.9669436577764969 Ba
atom 7.3224230231087759 7.6899173487062757 72.9669436576883186 Ba
atom 2.7247102552194908 2.1697508641052496 77.9386312776014734 Ba
atom 7.8067921271619696 2.2108730749006567 77.9386312775408925 Ba
atom 2.7658324660743165 7.2518327348173219 77.9386312775947090 Ba
atom 7.6954190297066676 7.1404596373107143 77.9386312775670831 Ba
atom 5.0253634429233616 4.9110747593592805 75.4949048440369808 Zr
atom 10.0361770047174197 4.8809286611915512 75.4949048463741264 Zr
atom 4.9952173445633878 9.9218883216523501 75.4949048434485093 Zr
atom 9.9960722161822613 9.8817835335197426 75.4949048443956201 Zr
atom 5.0113557597875840 4.9371131218346243 80.5487805103014125 Zr
atom 10.0101386424785339 4.8949363430614667 80.5487805098490952 Zr
atom 4.9691789820128234 9.9358960039145980 80.5487805115111684 Zr
atom 9.9820645336467813 9.9078218961241689 80.5487805097564404 Zr
atom 5.3495630220654986 5.1863742147230951 72.9763253112934791 S
atom 9.7608775496094893 4.5567290819613797 72.9763253121610944 S
atom 4.7199178892409925 9.5976887422140926 72.9763253151699161 S
atom 10.3202717957017533 10.1570829883603437 72.9763253096518412 S
atom 4.7153103628849244 4.6688999700016591 77.9877314118977836 S
atom 10.2783517943340961 5.1909817413095212 77.9877314074236665 S
atom 5.2373921339102925 10.2319414013819561 77.9877314082660860 S
atom 9.6860191364191213 9.6396087436391511 77.9877314121471983 S
atom 4.6462959849838921 2.4177019505727211 75.1613786210737658 S
atom 10.4280716848239887 2.3793317611457341 75.7850431911489295 S
atom 5.3871120242539270 7.4202914221015357 75.7850431911108302 S
atom 9.6170047585214231 7.3884107246834496 75.1613786209173469 S
atom 4.7518883827611917 2.4170763324737821 80.7199997681745600 S
atom 10.3711321895064632 2.3788246175721732 80.1692955616981777 S
atom 5.3301725290174016 7.4197842794577022 80.1692955615953053 S
atom 9.7225971561733395 7.3877851077787966 80.7199997684140982 S
atom 2.5178813772601858 5.3302470058944627 75.1613786209121884 S
atom 7.5269603447869118 4.5191800795694821 75.7850431911007973 S
atom 2.4860006862506285 9.5601397397821408 75.7850431912019218 S
atom 7.4885901493202907 10.3009557794316802 75.1613786210761106 S
atom 2.5185070043212017 5.2246546078227301 80.7199997683421770 S
atom 7.5274674793175889 4.5761195749025960 80.1692955616039171 S
atom 2.4865078210081788 9.6170792352371439 80.1692955615836951 S
atom 7.4892157757531548 10.1953633813427942 80.7199997681935599 S
atom 2.3630419622284609 2.5660764607200615 82.7282566888982132 Ba
atom 7.4104665301712860 2.5725413679798232 82.7282566890488056 Ba
atom 2.3695068697887884 7.6135010282059135 82.7282566890944508 Ba
atom 7.3337507359959710 7.5367852342988462 82.7282566890962414 Ba
atom 5.2687702283236257 5.0972380771407382 83.0549312493104992 S
atom 9.8500136869733552 4.6375218753692344 83.0549312521344234 S
atom 4.8090540267436772 9.6784815357979692 83.0549312504390684 S
atom 10.2394790020490376 10.0679468507315644 83.0549312496657990 S
