#=======================================================
# FHI-aims file: full_relax/full_relax_RP_6_000_000.in
# Created using the Atomic Simulation Environment (ASE)
# Fri Mar 14 11:37:48 2025
#=======================================================
lattice_vector 10.0673078933153803 0.0000000000000000 0.0000000000000001 
lattice_vector 0.0000000000000000 10.0673078933153803 -0.0000000000000003 
lattice_vector 0.0000000000000008 -0.0000000000000019 65.7888967098925121 
atom -0.0000000000011275 0.0000000000000843 0.2880709643248505 Ba
atom 5.0336539466585686 -0.0000000000002991 0.2880709643237803 Ba
atom 0.0000000000001916 5.0336539466571546 0.2880709643275613 Ba
atom 5.0336539466571653 5.0336539466574601 0.2880709643230920 Ba
atom 0.0000000000002294 -0.0000000000001631 5.0586392511546627 Ba
atom 5.0336539466571804 0.0000000000001605 5.0586392511545304 Ba
atom -0.0000000000004301 5.0336539466576040 5.0586392511544114 Ba
atom 5.0336539466577594 5.0336539466573598 5.0586392511545748 Ba
atom 2.5168269733288580 2.5168269733288020 2.3121338348143765 Zr
atom 7.5504809199858398 2.5168269733287358 2.3121338348122129 Zr
atom 2.5168269733287252 7.5504809199864171 2.3121338348130904 Zr
atom 7.5504809199861880 7.5504809199861826 2.3121338348132792 Zr
atom 2.5168269733284947 2.5168269733286932 7.3909208533831103 Zr
atom 7.5504809199863052 2.5168269733286133 7.3909208533834567 Zr
atom 2.5168269733286199 7.5504809199862377 7.3909208533833564 Zr
atom 7.5504809199863807 7.5504809199864686 7.3909208533819024 Zr
atom 2.5168269733281758 2.5168269733295077 -0.1793317513014067 S
atom 7.5504809199864047 2.5168269733272428 -0.1793317513042843 S
atom 2.5168269733288762 7.5504809199854064 -0.1793317513030227 S
atom 7.5504809199857812 7.5504809199877299 -0.1793317513018281 S
atom 2.5168269733290276 2.5168269733270505 4.8997828612614907 S
atom 7.5504809199858220 2.5168269733307986 4.8997828612617038 S
atom 2.5168269733280306 7.5504809199880301 4.8997828612628869 S
atom 7.5504809199869527 7.5504809199841834 4.8997828612626257 S
atom 2.5168269733286879 -0.0000000000001377 2.4422742076817485 S
atom 7.5504809199861187 -0.0000000000009931 2.4422742076847244 S
atom 2.5168269733284778 5.0336539466567354 2.4422742076839135 S
atom 7.5504809199865619 5.0336539466583492 2.4422742076820367 S
atom 2.5168269733283570 -0.0000000000002084 7.4242680740709428 S
atom 7.5504809199867431 -0.0000000000005506 7.4242680740678457 S
atom 2.5168269733291546 5.0336539466573358 7.4242680740682774 S
atom 7.5504809199859082 5.0336539466573909 7.4242680740725602 S
atom -0.0000000000012162 2.5168269733287110 2.4422742076835724 S
atom 5.0336539466587320 2.5168269733284703 2.4422742076826411 S
atom 0.0000000000004213 7.5504809199862706 2.4422742076826589 S
atom 5.0336539466565142 7.5504809199865557 2.4422742076835062 S
atom 0.0000000000001378 2.5168269733296014 7.4242680740691673 S
atom 5.0336539466574077 2.5168269733278592 7.4242680740708886 S
atom 0.0000000000008484 7.5504809199854401 7.4242680740696931 S
atom 5.0336539466563366 7.5504809199871827 7.4242680740697651 S
atom 0.0000000000000723 0.0000000000000152 9.9857880570123339 Ba
atom 5.0336539466572683 -0.0000000000001066 9.9857880570124475 Ba
atom 0.0000000000003640 5.0336539466573926 9.9857880570123037 Ba
atom 5.0336539466571146 5.0336539466576635 9.9857880570119644 Ba
atom 0.0000000000003237 -0.0000000000000554 14.9520219795202607 Ba
atom 5.0336539466570729 -0.0000000000001447 14.9520219795201594 Ba
atom 0.0000000000000511 5.0336539466574752 14.9520219795203957 Ba
atom 5.0336539466574122 5.0336539466575587 14.9520219795204170 Ba
atom 2.5168269733285817 2.5168269733285924 12.4327384582700731 Zr
atom 7.5504809199862626 2.5168269733287878 12.4327384582701530 Zr
atom 2.5168269733288477 7.5504809199864020 12.4327384582700997 Zr
atom 7.5504809199861178 7.5504809199861569 12.4327384582702969 Zr
atom 2.5168269733289130 2.5168269733288495 17.4713055007690947 Zr
atom 7.5504809199861391 2.5168269733285458 17.4713055007724662 Zr
atom 2.5168269733286186 7.5504809199861835 17.4713055007728073 Zr
atom 7.5504809199865779 7.5504809199865246 17.4713055007731235 Zr
atom 2.5168269733279161 2.5168269733308142 9.9262585638407934 S
atom 7.5504809199870584 2.5168269733256117 9.9262585638402587 S
atom 2.5168269733290138 7.5504809199842446 9.9262585638437262 S
atom 7.5504809199860849 7.5504809199894085 9.9262585638397809 S
atom 2.5168269733289854 2.5168269733270274 14.9520219795203939 S
atom 7.5504809199861382 2.5168269733321784 14.9520219795208078 S
atom 2.5168269733292483 7.5504809199881739 14.9520219795192073 S
atom 7.5504809199858984 7.5504809199828200 14.9520219795216498 S
atom 2.5168269733286692 0.0000000000010742 12.4438042167575258 S
atom 7.5504809199859775 -0.0000000000001424 12.4438042167624499 S
atom 2.5168269733283384 5.0336539466560470 12.4438042167609062 S
atom 7.5504809199863052 5.0336539466569716 12.4438042167563037 S
atom 2.5168269733265975 -0.0000000000009786 17.4602397422812281 S
atom 7.5504809199885496 0.0000000000000939 17.4602397422758422 S
atom 2.5168269733309017 5.0336539466579273 17.4602397422775937 S
atom 7.5504809199842589 5.0336539466568819 17.4602397422817539 S
atom -0.0000000000004301 2.5168269733283748 12.4438042167600056 S
atom 5.0336539466577941 2.5168269733286781 12.4438042167588918 S
atom -0.0000000000011064 7.5504809199863878 12.4438042167595917 S
atom 5.0336539466579637 7.5504809199860787 12.4438042167584157 S
atom -0.0000000000001680 2.5168269733310424 17.4602397422793203 S
atom 5.0336539466570382 2.5168269733263204 17.4602397422791533 S
atom 0.0000000000001352 7.5504809199839045 17.4602397422773201 S
atom 5.0336539466563437 7.5504809199886109 17.4602397422799136 S
atom -0.0000000000004529 -0.0000000000006963 19.9182559020273935 Ba
atom 5.0336539466578554 -0.0000000000005571 19.9182559020282284 Ba
atom -0.0000000000000607 5.0336539466576937 19.9182559020272478 Ba
atom 5.0336539466570871 5.0336539466579930 19.9182559020270382 Ba
atom -0.0000000000005101 -0.0000000000000330 24.8454047078827251 Ba
atom 5.0336539466580144 -0.0000000000007200 24.8454047078835600 Ba
atom -0.0000000000011526 5.0336539466574894 24.8454047078830911 Ba
atom 5.0336539466585322 5.0336539466579477 24.8454047078829809 Ba
atom 2.5168269733284814 2.5168269733285356 22.5131231056562164 Zr
atom 7.5504809199865424 2.5168269733286306 22.5131231056539107 Zr
atom 2.5168269733286635 7.5504809199865157 22.5131231056528236 Zr
atom 7.5504809199862670 7.5504809199863887 22.5131231056565859 Zr
atom 2.5168269733283766 2.5168269733284383 27.5919101242192539 Zr
atom 7.5504809199866063 2.5168269733285000 27.5919101242201563 Zr
atom 2.5168269733284352 7.5504809199863745 27.5919101242207709 Zr
atom 7.5504809199862812 7.5504809199862564 27.5919101242169837 Zr
atom 2.5168269733295920 2.5168269733298128 19.9777853951967401 S
atom 7.5504809199856808 2.5168269733256801 19.9777853951978308 S
atom 2.5168269733271793 7.5504809199854117 19.9777853951981683 S
atom 7.5504809199878524 7.5504809199894343 19.9777853951967650 S
atom 2.5168269733273267 2.5168269733276190 25.0042610977757178 S
atom 7.5504809199877725 2.5168269733304940 25.0042610977739557 S
atom 2.5168269733308257 7.5504809199873577 25.0042610977679551 S
atom 7.5504809199839062 7.5504809199843903 25.0042610977775297 S
atom 2.5168269733307085 0.0000000000002095 22.4797758849690652 S
atom 7.5504809199842908 -0.0000000000007415 22.4797758849721454 S
atom 2.5168269733267428 5.0336539466567798 22.4797758849724758 S
atom 7.5504809199882601 5.0336539466576067 22.4797758849679603 S
atom 2.5168269733283126 -0.0000000000008829 27.4617697513577141 S
atom 7.5504809199864384 0.0000000000007138 27.4617697513554617 S
atom 2.5168269733294029 5.0336539466583607 27.4617697513553445 S
atom 7.5504809199856275 5.0336539466568171 27.4617697513581405 S
atom -0.0000000000004631 2.5168269733269168 22.4797758849694311 S
atom 5.0336539466574557 2.5168269733304167 22.4797758849709197 S
atom -0.0000000000026422 7.5504809199881553 22.4797758849723124 S
atom 5.0336539466595784 7.5504809199846346 22.4797758849687241 S
atom -0.0000000000000346 2.5168269733280604 27.4617697513570640 S
atom 5.0336539466572976 2.5168269733289841 27.4617697513552201 S
atom 0.0000000000020412 7.5504809199867129 27.4617697513551668 S
atom 5.0336539466550709 7.5504809199858798 27.4617697513590961 S
atom -0.0000000000010631 -0.0000000000009331 29.6159729947148094 Ba
atom 5.0336539466582035 0.0000000000007911 29.6159729947064747 Ba
atom 0.0000000000000092 5.0336539466580579 29.6159729947101411 Ba
atom 5.0336539466573011 5.0336539466562344 29.6159729947098107 Ba
atom 2.5168269733304145 2.5168269733296320 30.0833757103324935 S
atom 7.5504809199845964 2.5168269733270399 30.0833757103348738 S
atom 2.5168269733266064 7.5504809199851879 30.0833757103354280 S
atom 7.5504809199878640 7.5504809199876508 30.0833757103282728 S
atom 2.5168269733265567 2.5168269733273760 33.1825193192788461 Ba
atom 7.5504809199883569 2.5168269733303505 33.1825193192755989 Ba
atom 2.5168269733282513 7.5504809199878444 33.1825193192774464 Ba
atom 7.5504809199865281 7.5504809199846452 33.1825193192805727 Ba
atom 2.5168269733287181 2.5168269733296369 37.9530876061006737 Ba
atom 7.5504809199862342 2.5168269733285289 37.9530876061011853 Ba
atom 2.5168269733284050 7.5504809199852563 37.9530876061008939 Ba
atom 7.5504809199865699 7.5504809199866489 37.9530876061006595 Ba
atom 5.0336539466572896 5.0336539466575347 35.2065821897728526 Zr
atom 10.0673078933146201 5.0336539466572292 35.2065821897688522 Zr
atom 5.0336539466574228 10.0673078933143714 35.2065821897699891 Zr
atom 10.0673078933145081 10.0673078933146289 35.2065821897694136 Zr
atom 5.0336539466575392 5.0336539466577994 40.2853692083254700 Zr
atom 10.0673078933144904 5.0336539466574219 40.2853692083105770 Zr
atom 5.0336539466575738 10.0673078933143998 40.2853692083136536 Zr
atom 10.0673078933143465 10.0673078933145685 40.2853692083255481 Zr
atom 5.0336539466604782 5.0336539466595331 32.7151166036556944 S
atom 10.0673078933118774 5.0336539466563837 32.7151166036649954 S
atom 5.0336539466549137 10.0673078933125062 32.7151166036655496 S
atom 10.0673078933174764 10.0673078933159132 32.7151166036501522 S
atom 5.0336539466531178 5.0336539466554049 37.7942312162043024 S
atom 10.0673078933190983 5.0336539466575596 37.7942312162052332 S
atom 5.0336539466588039 10.0673078933168707 37.7942312162148824 S
atom 10.0673078933136857 10.0673078933145721 37.7942312162077840 S
atom 5.0336539466574228 2.5168269733271105 35.3367225626164583 S
atom 10.0673078933148830 2.5168269733281212 35.3367225626201602 S
atom 5.0336539466572772 7.5504809199886767 35.3367225626196628 S
atom 10.0673078933150411 7.5504809199880283 35.3367225626186894 S
atom 5.0336539466570409 2.5168269733310673 40.3187164290201494 S
atom 10.0673078933150002 2.5168269733289530 40.3187164290196023 S
atom 5.0336539466574193 7.5504809199849952 40.3187164290176270 S
atom 10.0673078933145899 7.5504809199872280 40.3187164290192896 S
atom 2.5168269733288624 5.0336539466571395 35.3367225626135379 S
atom 7.5504809199873506 5.0336539466572434 35.3367225626236348 S
atom 2.5168269733293531 10.0673078933148741 35.3367225626189168 S
atom 7.5504809199866987 10.0673078933150411 35.3367225626183341 S
atom 2.5168269733292563 5.0336539466572212 40.3187164290249882 S
atom 7.5504809199865308 5.0336539466573438 40.3187164290151685 S
atom 2.5168269733275226 10.0673078933150979 40.3187164290180675 S
atom 7.5504809199886882 10.0673078933150002 40.3187164290189557 S
atom 2.5168269733291719 2.5168269733279756 42.8802364119572132 Ba
atom 7.5504809199857856 2.5168269733282376 42.8802364119559272 Ba
atom 2.5168269733292119 7.5504809199871747 42.8802364119556643 Ba
atom 7.5504809199856586 7.5504809199867253 42.8802364119560764 Ba
atom 2.5168269733293074 2.5168269733283148 47.8464703344635325 Ba
atom 7.5504809199855512 2.5168269733282251 47.8464703344640583 Ba
atom 2.5168269733294659 7.5504809199866791 47.8464703344640441 Ba
atom 7.5504809199855272 7.5504809199865708 47.8464703344640654 Ba
atom 5.0336539466579477 5.0336539466581440 45.3271868131978906 Zr
atom 10.0673078933141937 5.0336539466578465 45.3271868132043778 Zr
atom 5.0336539466577719 10.0673078933144922 45.3271868132058557 Zr
atom 10.0673078933149007 10.0673078933144087 45.3271868131964268 Zr
atom 5.0336539466579193 5.0336539466577443 50.3657538557216071 Zr
atom 10.0673078933150357 5.0336539466577337 50.3657538557334874 Zr
atom 5.0336539466577017 10.0673078933148847 50.3657538557273128 Zr
atom 10.0673078933149487 10.0673078933145685 50.3657538557278741 Zr
atom 5.0336539466629304 5.0336539466581334 42.8207069187729275 S
atom 10.0673078933092768 5.0336539466580712 42.8207069187735740 S
atom 5.0336539466583856 10.0673078933142612 42.8207069187760965 S
atom 10.0673078933143980 10.0673078933141458 42.8207069187749951 S
atom 5.0336539466514321 5.0336539466575623 47.8464703344619977 S
atom 10.0673078933208497 5.0336539466556705 47.8464703344725919 S
atom 5.0336539466550967 10.0673078933149238 47.8464703344732385 S
atom 10.0673078933177838 10.0673078933165154 47.8464703344662254 S
atom 5.0336539466585446 2.5168269733281061 45.3382525717078693 S
atom 10.0673078933136875 2.5168269733288797 45.3382525717065974 S
atom 5.0336539466558721 7.5504809199865859 45.3382525717084519 S
atom 10.0673078933163591 7.5504809199862351 45.3382525717090843 S
atom 5.0336539466527608 2.5168269733287110 50.3546880972171778 S
atom 10.0673078933198283 2.5168269733281172 50.3546880972180091 S
atom 5.0336539466622989 7.5504809199858780 50.3546880972199062 S
atom 10.0673078933103355 7.5504809199872316 50.3546880972145132 S
atom 2.5168269733303306 5.0336539466553623 45.3382525717039471 S
atom 7.5504809199860112 5.0336539466589381 45.3382525717130278 S
atom 2.5168269733286346 10.0673078933169595 45.3382525717069740 S
atom 7.5504809199863807 10.0673078933133873 45.3382525717079972 S
atom 2.5168269733288851 5.0336539466622199 50.3546880972216755 S
atom 7.5504809199852154 5.0336539466527270 50.3546880972135966 S
atom 2.5168269733279214 10.0673078933102289 50.3546880972188333 S
atom 7.5504809199871881 10.0673078933197555 50.3546880972163891 S
atom 2.5168269733278135 2.5168269733279591 52.8127042569720473 Ba
atom 7.5504809199873346 2.5168269733284165 52.8127042569717133 Ba
atom 2.5168269733271691 7.5504809199872192 52.8127042569716565 Ba
atom 7.5504809199874998 7.5504809199865548 52.8127042569713865 Ba
atom 2.5168269733276811 2.5168269733298390 57.7398530628285229 Ba
atom 7.5504809199872120 2.5168269733296649 57.7398530628288214 Ba
atom 2.5168269733281985 7.5504809199852199 57.7398530628286295 Ba
atom 7.5504809199869136 7.5504809199851968 57.7398530628287858 Ba
atom 5.0336539466580152 5.0336539466573633 55.4075714606073149 Zr
atom 10.0673078933148243 5.0336539466578216 55.4075714605971328 Zr
atom 5.0336539466578802 10.0673078933151707 55.4075714605907734 Zr
atom 10.0673078933152826 10.0673078933148226 55.4075714606031013 Zr
atom 5.0336539466575312 5.0336539466574779 60.4863584791600601 Zr
atom 10.0673078933143980 5.0336539466574735 60.4863584791594207 Zr
atom 5.0336539466576529 10.0673078933142577 60.4863584791658653 Zr
atom 10.0673078933143714 10.0673078933148670 60.4863584791623978 Zr
atom 5.0336539466610164 5.0336539466554830 52.8722337501531072 S
atom 10.0673078933116820 5.0336539466592534 52.8722337501526454 S
atom 5.0336539466605359 10.0673078933170697 52.8722337501489008 S
atom 10.0673078933122451 10.0673078933129467 52.8722337501573634 S
atom 5.0336539466549723 5.0336539466590722 57.8987094527259742 S
atom 10.0673078933176292 5.0336539466553614 57.8987094527058304 S
atom 5.0336539466564005 10.0673078933132185 57.8987094527099160 S
atom 10.0673078933161229 10.0673078933170856 57.8987094527117137 S
atom 5.0336539466580117 2.5168269733303963 55.3742242399145610 S
atom 10.0673078933147373 2.5168269733301485 55.3742242399115909 S
atom 5.0336539466570187 7.5504809199847456 55.3742242399101485 S
atom 10.0673078933157658 7.5504809199847047 55.3742242399144402 S
atom 5.0336539466566954 2.5168269733274449 60.3562181062997922 S
atom 10.0673078933154567 2.5168269733295379 60.3562181063048300 S
atom 5.0336539466580099 7.5504809199887557 60.3562181063026699 S
atom 10.0673078933143874 7.5504809199857785 60.3562181063043042 S
atom 2.5168269733310522 5.0336539466572372 55.3742242399095161 S
atom 7.5504809199837979 5.0336539466576635 55.3742242399149802 S
atom 2.5168269733294530 10.0673078933155402 55.3742242399125999 S
atom 7.5504809199852367 10.0673078933151121 55.3742242399159466 S
atom 2.5168269733268094 5.0336539466566403 60.3562181063039915 S
atom 7.5504809199897140 5.0336539466580268 60.3562181063023289 S
atom 2.5168269733287660 10.0673078933153288 60.3562181063045031 S
atom 7.5504809199872005 10.0673078933144957 60.3562181063006946 S
atom 2.5168269733296387 2.5168269733281967 62.5104213496615628 Ba
atom 7.5504809199852234 2.5168269733283903 62.5104213496639645 Ba
atom 2.5168269733288815 7.5504809199865699 62.5104213496621384 Ba
atom 7.5504809199859295 7.5504809199865228 62.5104213496610726 Ba
atom 5.0336539466589043 5.0336539466565231 62.9778240652832864 S
atom 10.0673078933137656 5.0336539466584673 62.9778240652859083 S
atom 5.0336539466571422 10.0673078933156521 62.9778240652927011 S
atom 10.0673078933154709 10.0673078933141209 62.9778240652811903 S
