#=======================================================
# FHI-aims file: full_relax/full_relax_RP_4_000_000.in
# Created using the Atomic Simulation Environment (ASE)
# Fri Mar 14 11:22:21 2025
#=======================================================
lattice_vector 10.0681125566410596 0.0000000000000000 -0.0000000000000004 
lattice_vector 0.0000000000000000 10.0681125566410596 -0.0000000000000003 
lattice_vector -0.0000000000000020 -0.0000000000000015 45.6679306096645163 
atom 0.0000000000002935 0.0000000000001038 0.2903882864792894 Ba
atom 5.0340562783201799 0.0000000000003830 0.2903882864785367 Ba
atom 0.0000000000000828 5.0340562783203513 0.2903882864789349 Ba
atom 5.0340562783200804 5.0340562783200813 0.2903882864789998 Ba
atom 0.0000000000000718 0.0000000000000773 5.0406025075550067 Ba
atom 5.0340562783203779 -0.0000000000000061 5.0406025075551417 Ba
atom 0.0000000000000923 5.0340562783202891 5.0406025075551613 Ba
atom 5.0340562783202909 5.0340562783203460 5.0406025075549197 Ba
atom 2.5170281391605016 2.5170281391602187 2.3220218733060425 Zr
atom 7.5510844174809133 2.5170281391601286 2.3220218733063192 Zr
atom 2.5170281391598830 7.5510844174808378 2.3220218733061864 Zr
atom 7.5510844174810599 7.5510844174810723 2.3220218733066402 Zr
atom 2.5170281391599967 2.5170281391600837 7.4034021737181055 Zr
atom 7.5510844174813165 2.5170281391602503 7.4034021737187983 Zr
atom 2.5170281391603733 7.5510844174812055 7.4034021737176454 Zr
atom 7.5510844174807064 7.5510844174807996 7.4034021737176250 Zr
atom 2.5170281391602716 2.5170281391601312 -0.1713294363287802 S
atom 7.5510844174808689 2.5170281391604639 -0.1713294363287637 S
atom 2.5170281391600331 7.5510844174810661 -0.1713294363284471 S
atom 7.5510844174808494 7.5510844174804452 -0.1713294363282311 S
atom 2.5170281391603391 2.5170281391606975 4.9054535232864742 S
atom 7.5510844174807845 2.5170281391601406 4.9054535232869467 S
atom 2.5170281391605362 7.5510844174804523 4.9054535232862584 S
atom 7.5510844174804559 7.5510844174808742 4.9054535232865657 S
atom 2.5170281391604497 -0.0000000000005497 2.4479177212273560 S
atom 7.5510844174806646 -0.0000000000001620 2.4479177212268191 S
atom 2.5170281391603977 5.0340562783202882 2.4479177212271277 S
atom 7.5510844174805154 5.0340562783199143 2.4479177212274483 S
atom 2.5170281391604981 -0.0000000000002579 7.4222390605594102 S
atom 7.5510844174807845 -0.0000000000001685 7.4222390605594750 S
atom 2.5170281391604981 5.0340562783203113 7.4222390605595132 S
atom 7.5510844174807845 5.0340562783204597 7.4222390605590771 S
atom -0.0000000000002868 2.5170281391605047 2.4479177212269287 S
atom 5.0340562783197997 2.5170281391605176 2.4479177212273662 S
atom -0.0000000000001381 7.5510844174804985 2.4479177212272600 S
atom 5.0340562783208007 7.5510844174808520 2.4479177212270833 S
atom -0.0000000000005270 2.5170281391604084 7.4222390605594040 S
atom 5.0340562783200893 2.5170281391603937 7.4222390605591393 S
atom -0.0000000000004912 7.5510844174806477 7.4222390605595114 S
atom 5.0340562783204739 7.5510844174806477 7.4222390605599413 S
atom 0.0000000000000355 0.0000000000003044 9.9278110021028922 Ba
atom 5.0340562783204037 0.0000000000002990 9.9278110021030059 Ba
atom -0.0000000000000845 5.0340562783200911 9.9278110021027857 Ba
atom 5.0340562783204463 5.0340562783200866 9.9278110021029171 Ba
atom 0.0000000000001274 0.0000000000002882 14.8150194966475404 Ba
atom 5.0340562783203398 0.0000000000001640 14.8150194966476239 Ba
atom 0.0000000000002276 5.0340562783201044 14.8150194966472704 Ba
atom 5.0340562783200404 5.0340562783202589 14.8150194966473521 Ba
atom 2.5170281391604066 2.5170281391602884 12.4522198304906908 Zr
atom 7.5510844174807001 2.5170281391605211 12.4522198304899554 Zr
atom 2.5170281391601006 7.5510844174809186 12.4522198304912273 Zr
atom 7.5510844174808884 7.5510844174808467 12.4522198304903444 Zr
atom 2.5170281391600868 2.5170281391602045 17.5336001308967866 Zr
atom 7.5510844174809515 2.5170281391600313 17.5336001308948255 Zr
atom 2.5170281391602081 7.5510844174808955 17.5336001308962075 Zr
atom 7.5510844174808591 7.5510844174812233 17.5336001308972804 Zr
atom 2.5170281391606335 2.5170281391602320 9.9278110021033594 S
atom 7.5510844174802747 2.5170281391606988 9.9278110021037591 S
atom 2.5170281391601899 7.5510844174810021 9.9278110021033292 S
atom 7.5510844174806611 7.5510844174804204 9.9278110021039083 S
atom 2.5170281391601317 2.5170281391605847 14.9501684809174282 S
atom 7.5510844174812455 2.5170281391599576 14.9501684809155453 S
atom 2.5170281391603817 7.5510844174805216 14.9501684809163375 S
atom 7.5510844174805767 7.5510844174811229 14.9501684809165241 S
atom 2.5170281391605092 -0.0000000000000912 12.4333829436436538 S
atom 7.5510844174807126 0.0000000000001209 12.4333829436433199 S
atom 2.5170281391605371 5.0340562783197917 12.4333829436431884 S
atom 7.5510844174806797 5.0340562783198255 12.4333829436438705 S
atom 2.5170281391602694 -0.0000000000001372 17.4077042829792923 S
atom 7.5510844174808174 -0.0000000000000161 17.4077042829793385 S
atom 2.5170281391603324 5.0340562783204659 17.4077042829804007 S
atom 7.5510844174808218 5.0340562783198450 17.4077042829794948 S
atom -0.0000000000000428 2.5170281391604106 12.4333829436434833 S
atom 5.0340562783199561 2.5170281391604816 12.4333829436436165 S
atom -0.0000000000000699 7.5510844174807170 12.4333829436442418 S
atom 5.0340562783202349 7.5510844174806886 12.4333829436432630 S
atom -0.0000000000004512 2.5170281391603719 17.4077042829797932 S
atom 5.0340562783203895 2.5170281391603528 17.4077042829791893 S
atom -0.0000000000002319 7.5510844174807668 17.4077042829787842 S
atom 5.0340562783202945 7.5510844174808209 17.4077042829801520 S
atom 0.0000000000004713 -0.0000000000002178 19.5652337177320277 Ba
atom 5.0340562783201701 0.0000000000001876 19.5652337177328945 Ba
atom 0.0000000000001599 5.0340562783205964 19.5652337177316618 Ba
atom 5.0340562783203078 5.0340562783204001 19.5652337177328057 Ba
atom 2.5170281391605616 2.5170281391600682 20.0269514405289186 S
atom 7.5510844174807996 2.5170281391607912 20.0269514405301514 S
atom 2.5170281391602054 7.5510844174809177 20.0269514405276539 S
atom 7.5510844174805909 7.5510844174804150 20.0269514405279239 S
atom 2.5170281391607094 2.5170281391602454 23.1243535913027962 Ba
atom 7.5510844174807019 2.5170281391603164 23.1243535913034286 Ba
atom 2.5170281391603684 7.5510844174806344 23.1243535913032865 Ba
atom 7.5510844174811798 7.5510844174806016 23.1243535913031408 Ba
atom 2.5170281391601788 2.5170281391604408 27.8745678123900511 Ba
atom 7.5510844174806255 2.5170281391603990 27.8745678123900973 Ba
atom 2.5170281391601601 7.5510844174804896 27.8745678123902678 Ba
atom 7.5510844174807703 7.5510844174806770 27.8745678123905023 Ba
atom 5.0340562783204525 5.0340562783202882 25.1559871781404034 Zr
atom 10.0681125566409158 5.0340562783204170 25.1559871781411033 Zr
atom 5.0340562783203398 10.0681125566408376 25.1559871781398741 Zr
atom 10.0681125566405960 10.0681125566404877 25.1559871781408724 Zr
atom 5.0340562783205414 5.0340562783205609 30.2373674785442930 Zr
atom 10.0681125566404752 5.0340562783205645 30.2373674785447939 Zr
atom 5.0340562783202438 10.0681125566410117 30.2373674785452771 Zr
atom 10.0681125566406777 10.0681125566404184 30.2373674785442077 Zr
atom 5.0340562783209899 5.0340562783206542 22.6626358685067757 S
atom 10.0681125566413847 5.0340562783205787 22.6626358685055820 S
atom 5.0340562783207643 10.0681125566410401 22.6626358685053546 S
atom 10.0681125566410952 10.0681125566405854 22.6626358685059799 S
atom 5.0340562783199534 5.0340562783207368 27.7394188281193586 S
atom 10.0681125566413403 5.0340562783205414 27.7394188281181577 S
atom 5.0340562783205369 10.0681125566408340 27.7394188281188896 S
atom 10.0681125566407914 10.0681125566405214 27.7394188281190317 S
atom 5.0340562783204925 2.5170281391601876 25.2818830260587291 S
atom 10.0681125566403047 2.5170281391605580 25.2818830260587148 S
atom 5.0340562783204508 7.5510844174811984 25.2818830260586616 S
atom 10.0681125566407417 7.5510844174812810 25.2818830260587930 S
atom 5.0340562783203389 2.5170281391599647 30.2562043653928434 S
atom 10.0681125566411627 2.5170281391605642 30.2562043653933657 S
atom 5.0340562783203717 7.5510844174806415 30.2562043653928470 S
atom 10.0681125566413492 7.5510844174812579 30.2562043653929180 S
atom 2.5170281391600096 5.0340562783208771 25.2818830260590879 S
atom 7.5510844174803662 5.0340562783206684 25.2818830260589706 S
atom 2.5170281391601592 10.0681125566403171 25.2818830260582104 S
atom 7.5510844174811620 10.0681125566404699 25.2818830260591376 S
atom 2.5170281391601335 5.0340562783203984 30.2562043653934545 S
atom 7.5510844174815146 5.0340562783201008 30.2562043653924313 S
atom 2.5170281391608298 10.0681125566411556 30.2562043653928505 S
atom 7.5510844174810057 10.0681125566408518 30.2562043653931170 S
atom 2.5170281391603573 2.5170281391603413 32.7617763069327808 Ba
atom 7.5510844174805678 2.5170281391605434 32.7617763069348840 Ba
atom 2.5170281391602036 7.5510844174806087 32.7617763069335695 Ba
atom 7.5510844174806966 7.5510844174805971 32.7617763069340953 Ba
atom 2.5170281391599252 2.5170281391605442 37.6489848014819728 Ba
atom 7.5510844174807596 2.5170281391603844 37.6489848014825768 Ba
atom 2.5170281391599354 7.5510844174804728 37.6489848014808004 Ba
atom 7.5510844174809311 7.5510844174808307 37.6489848014820510 Ba
atom 5.0340562783204073 5.0340562783201808 35.2861851353237483 Zr
atom 10.0681125566406298 5.0340562783202731 35.2861851353243452 Zr
atom 5.0340562783204374 10.0681125566410881 35.2861851353238691 Zr
atom 10.0681125566407204 10.0681125566404770 35.2861851353239686 Zr
atom 5.0340562783201550 5.0340562783206408 40.3675654357300999 Zr
atom 10.0681125566405392 5.0340562783201301 40.3675654357292473 Zr
atom 5.0340562783201879 10.0681125566402212 40.3675654357290767 Zr
atom 10.0681125566407861 10.0681125566408820 40.3675654357284159 Zr
atom 5.0340562783208975 5.0340562783206479 32.7617763069335624 S
atom 10.0681125566408678 5.0340562783201959 32.7617763069338039 S
atom 5.0340562783202385 10.0681125566409158 32.7617763069346850 S
atom 10.0681125566402923 10.0681125566410845 32.7617763069336618 S
atom 5.0340562783205813 5.0340562783202873 37.7841337857535962 S
atom 10.0681125566411112 5.0340562783212821 37.7841337857510595 S
atom 5.0340562783201985 10.0681125566408785 37.7841337857527790 S
atom 10.0681125566416441 10.0681125566406102 37.7841337857517203 S
atom 5.0340562783209899 2.5170281391603266 35.2673482484752796 S
atom 10.0681125566402070 2.5170281391607356 35.2673482484762530 S
atom 5.0340562783202261 7.5510844174811345 35.2673482484753222 S
atom 10.0681125566410987 7.5510844174810634 35.2673482484751091 S
atom 5.0340562783206506 2.5170281391599341 40.2416695878093549 S
atom 10.0681125566415659 2.5170281391603191 40.2416695878097741 S
atom 5.0340562783203993 7.5510844174808689 40.2416695878097173 S
atom 10.0681125566399921 7.5510844174812792 40.2416695878107404 S
atom 2.5170281391611709 5.0340562783200999 35.2673482484758551 S
atom 7.5510844174807659 5.0340562783210290 35.2673482484753009 S
atom 2.5170281391603582 10.0681125566413225 35.2673482484756136 S
atom 7.5510844174811904 10.0681125566405711 35.2673482484753578 S
atom 2.5170281391599447 5.0340562783201843 40.2416695878105628 S
atom 7.5510844174815572 5.0340562783207217 40.2416695878106054 S
atom 2.5170281391604332 10.0681125566409779 40.2416695878092341 S
atom 7.5510844174811069 10.0681125566405818 40.2416695878110673 S
atom 2.5170281391601201 2.5170281391606624 42.3991990225623212 Ba
atom 7.5510844174808893 2.5170281391604239 42.3991990225624562 Ba
atom 2.5170281391605087 7.5510844174803635 42.3991990225626409 Ba
atom 7.5510844174809355 7.5510844174806389 42.3991990225629962 Ba
atom 5.0340562783203158 5.0340562783207172 42.8609167453601430 S
atom 10.0681125566410135 5.0340562783199543 42.8609167453596172 S
atom 5.0340562783207528 10.0681125566407417 42.8609167453612869 S
atom 10.0681125566408056 10.0681125566414380 42.8609167453599369 S
