#=======================================================
# FHI-aims file: full_relax/full_relax_RP_2_Rx00_0Ry0.in
# Created using the Atomic Simulation Environment (ASE)
# Fri Mar 14 11:17:31 2025
#=======================================================
lattice_vector 10.1108496880991616 -0.0000000000000019 -0.0000000000000008 
lattice_vector -0.0000000000000019 10.1108496880991403 -0.0000000000000002 
lattice_vector -0.0000000000000022 -0.0000000000000005 25.3660237670811810 
atom -0.1548481652204337 -0.0000000000000368 0.2814216266322577 Ba
atom 5.2102730092698373 -0.0000000000000509 0.2814216266320840 Ba
atom 0.1548481652199559 5.0554248440494094 0.2814216266321899 Ba
atom 4.9005766788294514 5.0554248440494254 0.2814216266322938 Ba
atom 0.0484051723938712 -0.0000000000001209 4.8780814936691259 Ba
atom 5.0070196716555690 -0.0000000000000928 4.8780814936691446 Ba
atom -0.0484051723939540 5.0554248440494796 4.8780814936691144 Ba
atom 5.1038300164433688 5.0554248440494369 4.8780814936691783 Ba
atom 2.5277124220242619 2.5154674258667975 2.3473192363702324 Zr
atom 7.5831372660745071 2.5399574181826363 2.3473192363694126 Zr
atom 2.5277124220244649 7.5953822622322882 2.3473192363701956 Zr
atom 7.5831372660744947 7.5708922699162349 2.3473192363695978 Zr
atom 2.5277124220247633 2.5154674258669831 7.4088437509675042 Zr
atom 7.5831372660740755 2.5399574181825502 7.4088437509662333 Zr
atom 2.5277124220244644 7.5953822622316496 7.4088437509675282 Zr
atom 7.5831372660744831 7.5708922699163548 7.4088437509667786 Zr
atom 2.5277124220246225 2.8831368701066702 -0.1399907743320735 S
atom 7.5831372660743064 2.1722879739427214 -0.1399907743311017 S
atom 2.5277124220246501 7.2277128179922840 -0.1399907743320007 S
atom 7.5831372660743277 7.9385617141562168 -0.1399907743313331 S
atom 2.5277124220246856 2.0900392955856448 4.8780814936692831 S
atom 7.5831372660741883 2.9653855484635945 4.8780814936697299 S
atom 2.5277124220247624 8.0208103925131500 4.8780814936693195 S
atom 7.5831372660742034 7.1454641396353518 4.8780814936693879 S
atom 2.5277124220247007 -0.0000000000003845 2.0402545709431394 S
atom 7.5831372660742131 -0.0000000000000977 2.8000794947235277 S
atom 2.5277124220246896 5.0554248440492868 2.8000794947235956 S
atom 7.5831372660742229 5.0554248440495524 2.0402545709430822 S
atom 2.5277124220247194 0.0000000000001626 7.7159084163946670 S
atom 7.5831372660742060 -0.0000000000001565 6.9560834926140291 S
atom 2.5277124220246807 5.0554248440498055 6.9560834926141668 S
atom 7.5831372660742149 5.0554248440497966 7.7159084163945284 S
atom -0.0000000000001256 2.5277124220246892 2.4609496751778672 S
atom 5.0554248440500329 2.5277124220246683 2.4609496751778970 S
atom -0.0000000000002463 7.5831372660742877 2.4609496751778783 S
atom 5.0554248440497203 7.5831372660743144 2.4609496751779103 S
atom -0.0000000000001103 2.5277124220246256 7.2952133121596781 S
atom 5.0554248440498721 2.5277124220246252 7.2952133121597456 S
atom 0.0000000000000019 7.5831372660741811 7.2952133121597322 S
atom 5.0554248440495204 7.5831372660741740 7.2952133121598157 S
atom -0.1548481652199444 -0.0000000000001800 9.4747413607057780 Ba
atom 5.2102730092694181 -0.0000000000001191 9.4747413607057567 Ba
atom 0.1548481652202996 5.0554248440495000 9.4747413607058810 Ba
atom 4.9005766788290588 5.0554248440494343 9.4747413607056910 Ba
atom 2.5277124220247562 2.8831368701066307 9.8961537616710409 S
atom 7.5831372660741918 2.1722879739426477 9.8961537616725312 S
atom 2.5277124220247935 7.2277128179921455 9.8961537616709627 S
atom 7.5831372660741794 7.9385617141562808 9.8961537616719948 S
atom 2.5277124220244098 2.3728642568044460 12.9644335101729400 Ba
atom 7.5831372660745826 2.6825605872446379 12.9644335101729666 Ba
atom 2.5277124220244063 7.7379854312944234 12.9644335101729045 Ba
atom 7.5831372660745577 7.4282891008542373 12.9644335101728707 Ba
atom 2.5277124220247287 2.5761175944186530 17.5610933772095272 Ba
atom 7.5831372660742202 2.4793072496307698 17.5610933772094526 Ba
atom 2.5277124220247260 7.5347320936802378 17.5610933772096303 Ba
atom 7.5831372660742664 7.6315424384681467 17.5610933772094633 Ba
atom 5.0431798478908219 5.0554248440491465 15.0303311199112031 Zr
atom 10.1230946842578593 5.0554248440489484 15.0303311199093077 Zr
atom 5.0676698402078451 10.1108496880990195 15.0303311199101248 Zr
atom 10.0986046919402455 10.1108496880990284 15.0303311199090341 Zr
atom 5.0431798478919099 5.0554248440495257 20.0918556345076027 Zr
atom 10.1230946842579357 5.0554248440494298 20.0918556345073753 Zr
atom 5.0676698402069258 10.1108496880988046 20.0918556345080219 Zr
atom 10.0986046919416097 10.1108496880982646 20.0918556345069277 Zr
atom 5.4108492921316174 5.0554248440493907 12.5430211092069737 S
atom 9.7554252400170345 5.0554248440494094 12.5430211092086505 S
atom 4.7000003959675238 10.1108496880989467 12.5430211092077553 S
atom 10.4662741361808251 10.1108496880989289 12.5430211092091710 S
atom 4.6177517176109264 5.0554248440493579 17.5610933772102982 S
atom 10.5485228145383161 5.0554248440491758 17.5610933772104154 S
atom 5.4930979704883685 10.1108496880989751 17.5610933772102022 S
atom 9.6731765616599823 10.1108496880988596 17.5610933772104616 S
atom 5.0554248440494964 2.5277124220248059 15.1439615587187077 S
atom 10.1108496880989982 2.5277124220252651 15.1439615587185514 S
atom 5.0554248440494556 7.5831372660746190 15.1439615587187024 S
atom 10.1108496880990213 7.5831372660746279 15.1439615587185834 S
atom 5.0554248440498553 2.5277124220246958 19.9782251957003041 S
atom 10.1108496880992771 2.5277124220254903 19.9782251957002117 S
atom 5.0554248440498064 7.5831372660744103 19.9782251957002899 S
atom 10.1108496880993055 7.5831372660749858 19.9782251957001691 S
atom 2.5277124220241967 5.0554248440493668 14.7232664544838148 S
atom 7.5831372660735141 5.0554248440493339 15.4830913782644632 S
atom 2.5277124220252487 10.1108496880988596 15.4830913782645059 S
atom 7.5831372660751519 10.1108496880988561 14.7232664544837739 S
atom 2.5277124220233991 5.0554248440492566 20.3989202999351562 S
atom 7.5831372660724341 5.0554248440492611 19.6390953761544722 S
atom 2.5277124220243792 10.1108496880989112 19.6390953761545681 S
atom 7.5831372660740888 10.1108496880989591 20.3989202999351420 S
atom 2.5277124220249001 2.3728642568046272 22.1577532442457432 Ba
atom 7.5831372660740666 2.6825605872447609 22.1577532442458960 Ba
atom 2.5277124220248437 7.7379854312941845 22.1577532442456473 Ba
atom 7.5831372660741003 7.4282891008541885 22.1577532442458036 Ba
atom 5.4108492921317364 5.0554248440494440 22.5791656452117415 S
atom 9.7554252400173276 5.0554248440493552 22.5791656452130383 S
atom 4.7000003959674954 10.1108496880989538 22.5791656452120648 S
atom 10.4662741361810525 10.1108496880989005 22.5791656452131484 S
