#=======================================================
# FHI-aims file: full_relax/full_relax_RP_7_RxRyMz_-Rx-RyMz.in
# Created using the Atomic Simulation Environment (ASE)
# Mon Mar 24 15:47:27 2025
#=======================================================
lattice_vector 10.0127738460350670 -0.0673847713916310 0.0000000000000016 
lattice_vector -0.0673847713916362 10.0127738460350670 -0.0000000000000008 
lattice_vector 0.0000000000000120 -0.0000000000000063 75.8988589015557693 
atom 0.1321079999654245 -0.1700074808615085 0.2135065752042550 Ba
atom 5.1763944038766718 -0.1658003856647553 0.2135065751997232 Ba
atom 0.1363150951627973 4.8742789230503378 0.2135065752047592 Ba
atom 5.1048025372877408 4.8026870564628670 0.2135065751957863 Ba
atom -0.2661289295175276 0.1904443537835863 5.0033717316823676 Ba
atom 4.8159425692271416 0.2324365438185641 5.0033717316821216 Ba
atom -0.2241367394816547 5.2725158525380591 5.0033717316836714 Ba
atom 4.7065656077997424 5.1631388911116396 5.0033717316836563 Ba
atom 2.5010866137988574 2.4789400349095838 2.3951464378037994 Zr
atom 7.5001414254250118 2.4379155378152171 2.3951464377999971 Zr
atom 2.4600621167074577 7.4779948465410078 2.3951464378141747 Zr
atom 7.4737811511269951 7.4516345722457906 2.3951464378022016 Zr
atom 2.4756861587259618 2.4922320793214392 7.4481335554940475 Zr
atom 7.4868493810200754 2.4633159928948727 7.4481335554976660 Zr
atom 2.4467700723044361 7.5033953016086121 7.4481335554688375 Zr
atom 7.4483806960537580 7.4649266166410193 7.4481335554883019 Zr
atom 2.6605065589822177 2.7401639064368513 -0.1113014556291242 S
atom 7.2389175539018664 2.2784955926439490 -0.1113014556201448 S
atom 2.1988382451873285 7.3185749013536769 -0.1113014556370051 S
atom 7.6332010963041723 7.7128584437579422 -0.1113014556351823 S
atom 2.2321454219532786 2.1814912143053919 4.9550477452740793 S
atom 7.7975902460317812 2.7068567296715846 4.9550477452657749 S
atom 2.7575109373208395 7.7469360383839607 4.9550477452780628 S
atom 7.2048399592748718 7.1541857516255432 4.9550477452909378 S
atom 2.7890570595005664 -0.0146260667531616 2.2218718575648473 S
atom 7.1825827105505962 -0.0452594335220029 2.7745261753250579 S
atom 2.1425034018375531 4.9948198751624702 2.7745261753250197 S
atom 7.7617515968226884 4.9580684705364559 2.2218718575650600 S
atom 2.8928479505848701 -0.0155204399694701 7.7809671047624986 S
atom 7.1252577035020446 -0.0458833464286504 7.1565350734284889 S
atom 2.0851783947885272 4.9941959622843459 7.1565350734274622 S
atom 7.8655424879041584 4.9571740973537262 7.7809671047612339 S
atom -0.0190663189458418 2.2173298635178211 2.2218718575665366 S
atom 4.9842615851759948 2.7964987497869624 2.7745261753252262 S
atom -0.0558177235442550 7.8365780585000850 2.7745261753250898 S
atom 4.9536282183820362 7.1900244008349059 2.2218718575636549 S
atom -0.0181719457248121 2.1135389724321247 7.7809671047611726 S
atom 4.9848854980490831 2.8538237568359364 7.1565350734268662 S
atom -0.0551938106785215 7.8939030655495506 7.1565350734288717 S
atom 4.9545225916093418 7.0862335097535194 7.7809671047626336 S
atom 0.2814560495889190 -0.1820858434434512 9.9748755692234159 Ba
atom 5.1884727664639279 -0.3151484352866117 9.9748755692240927 Ba
atom 0.1483934577481824 4.7249308734220428 9.9748755692237516 Ba
atom 5.2541505869133438 4.7906086938733736 9.9748755692238227 Ba
atom -0.2826464661858556 0.1816748379954835 14.9756335489588608 Ba
atom 4.8247120850198248 0.2489540804828034 14.9756335489590029 Ba
atom -0.2153672237000282 5.2890333892028591 14.9756335489591557 Ba
atom 4.6900480711411259 5.1543693753241753 14.9756335489600456 Ba
atom 2.4901658332060053 2.4849765215335222 12.4635984902138972 Zr
atom 7.4941049388081069 2.4488363184148025 12.4635984902229389 Zr
atom 2.4540256300908339 7.4889156271298800 12.4635984902358459 Zr
atom 7.4628603705323222 7.4576710588532116 12.4635984902370254 Zr
atom 2.4863472686591970 2.4863472686597197 17.4767109313033160 Zr
atom 7.4927341916770862 2.4526548829646555 17.4767109313075473 Zr
atom 2.4526548829624182 7.4927341916782186 17.4767109313094373 Zr
atom 7.4590418059819479 7.4590418059820740 17.4767109313036819 Zr
atom 2.7512236775187899 2.8170932836915297 9.9656499674670496 S
atom 7.1619881766465525 2.1877784741061901 9.9656499674730394 S
atom 2.1219088679351543 7.2278577828195409 9.9656499674982530 S
atom 7.7239182148407828 7.7897878210131930 9.9656499674476873 S
atom 2.2185086043027247 2.1532604820243151 14.9730411963791390 S
atom 7.8258209783146828 2.7204935473216691 14.9730411963507599 S
atom 2.7857416696005917 7.7605728560359086 14.9730411963137868 S
atom 7.1912031416225588 7.1259550193427073 14.9730411963601533 S
atom 2.8859750686438916 -0.0191293758139555 12.1540745662397907 S
atom 7.1267196357132878 -0.0499173158867989 12.7945640069762625 S
atom 2.0866403270038298 4.9901619928329604 12.7945640069739053 S
atom 7.8586696059668375 4.9535651615161029 12.1540745662386289 S
atom 2.8851547452030402 -0.0183054089316634 17.7983855987068935 S
atom 7.1276191008267418 -0.0490793624146225 17.1550362638676894 S
atom 2.0875397921165275 4.9909999462517893 17.1550362638683893 S
atom 7.8578492825274431 4.9543891283428856 17.7983855987077071 S
atom -0.0145630099168958 2.1204118543724464 12.1540745662396290 S
atom 4.9889194675365074 2.8523618246220330 12.7945640069760831 S
atom -0.0511598411480296 7.8924411333335307 12.7945640069739781 S
atom 4.9581315273758459 7.0931063916949695 12.1540745662389984 S
atom -0.0153869767082596 2.1212321778128538 17.7983855987064743 S
atom 4.9880815140286403 2.8514623595082051 17.1550362638698246 S
atom -0.0519977946731005 7.8915416682255000 17.1550362638659948 S
atom 4.9573075606020156 7.0939267151301211 17.7983855987083821 S
atom 0.2826464661800983 -0.1816748380059048 19.9777883136223480 Ba
atom 5.1880617610204913 -0.3163388518824783 19.9777883136241492 Ba
atom 0.1479824523012609 4.7237404568379118 19.9777883136227921 Ba
atom 5.2553410035061816 4.7910196993228471 19.9777883136239964 Ba
atom -0.2814560495913906 0.1820858434509834 24.9785462933528635 Ba
atom 4.8243010795710282 0.2477636639045642 24.9785462933534532 Ba
atom -0.2157782291425890 5.2878429726015517 24.9785462933527711 Ba
atom 4.6912384877323401 5.1547803807549508 24.9785462933534497 Ba
atom 2.4825287041141677 2.4877180157798846 22.4898233723528556 Zr
atom 7.4913634445446773 2.4564734475141745 22.4898233723258230 Zr
atom 2.4512841358385535 7.4965527562298728 22.4898233722930918 Zr
atom 7.4552232414264781 7.4604125531118131 22.4898233723070895 Zr
atom 2.4970083785940780 2.4804624579926751 27.5052883070873762 Zr
atom 7.4986190023319477 2.4419937730339778 27.5052883071221324 Zr
atom 2.4585396936263790 7.4820730817493271 27.5052883071632301 Zr
atom 7.4697029159036967 7.4531569953221890 27.5052883071202032 Zr
atom 2.7541859330154339 2.8194340552952237 19.9803806661963996 S
atom 7.1596474050417473 2.1848162186089710 19.9803806662234003 S
atom 2.1195680963291030 7.2248955273214346 19.9803806662662105 S
atom 7.7268804703383323 7.7921285926186554 19.9803806662260222 S
atom 2.2214708597988553 2.1556012536257598 24.9877718951148609 S
atom 7.8234802067102969 2.7175312918253871 24.9877718951295051 S
atom 2.7834008979931100 7.7576106005360890 24.9877718951231280 S
atom 7.1941653971208508 7.1282957909498439 24.9877718951487076 S
atom 2.8860542103152573 -0.0174674555165425 22.1588578556130642 S
atom 7.1267987773885908 -0.0482553955988523 22.7993472963496977 S
atom 2.0867194686737092 4.9918239131389326 22.7993472963492216 S
atom 7.8587487476416218 4.9552270818256980 22.1588578556107549 S
atom 2.8875161425300164 -0.0215014250052684 27.7968867891474396 S
atom 7.1199258954522682 -0.0518643314300458 27.1724547578173876 S
atom 2.0798465867333915 4.9882149773304780 27.1724547578159985 S
atom 7.8602106798522486 4.9511931123616675 27.7968867891464448 S
atom -0.0162249302153381 2.1203327126979827 22.1588578556098632 S
atom 4.9872575472364291 2.8522826829502836 22.7993472963487207 S
atom -0.0528217614529616 7.8923619916602226 22.7993472963501631 S
atom 4.9564696070828074 7.0930272500223355 22.1588578556139417 S
atom -0.0121909607475243 2.1188707804842806 27.7968867891498697 S
atom 4.9908664830635159 2.8591555648892459 27.1724547578168192 S
atom -0.0492128256626994 7.8992348735981501 27.1724547578165208 S
atom 4.9605035765887955 7.0915653178099047 27.7968867891434215 S
atom 0.2661289295201270 -0.1904443537929374 29.9500501309060674 Ba
atom 5.1968312768036116 -0.2998213152168995 29.9500501309059040 Ba
atom 0.1567519680918951 4.7402579935020430 29.9500501309070444 Ba
atom 5.2388234668395972 4.7822501835338773 29.9500501309071794 Ba
atom -0.1321079999705935 0.1700074808545068 34.7399152873764336 Ba
atom 4.8363794421602675 0.0984156142663008 34.7399152873791621 Ba
atom -0.2036998665542197 5.1384949229867365 34.7399152873777979 Ba
atom 4.8405865373523040 5.1427020181854726 34.7399152873600912 Ba
atom 2.4716079235219275 2.4937545024202539 32.5582754247625346 Zr
atom 7.4853269579331956 2.4673942281089905 32.5582754247661867 Zr
atom 2.4452476492289326 7.5074735368126930 32.5582754247643393 Zr
atom 7.4443024608312207 7.4664490397269931 32.5582754247659736 Zr
atom 2.7405491153649009 2.7912033230137094 29.9983741173396581 S
atom 7.1878781373233664 2.1984530362581260 29.9983741172609761 S
atom 2.1477988286077632 7.2385323449726489 29.9983741172191323 S
atom 7.7132436526875292 7.7638978603348878 29.9983741172777485 S
atom 2.3121879783390251 2.2325306308866439 35.0647233182002864 S
atom 7.7465508294561163 2.6268141732880808 35.0647233182421161 S
atom 2.7064715207435586 7.6668934820039381 35.0647233182579896 S
atom 7.2848825156604846 7.2052251682050397 35.0647233182212830 S
atom 2.8301911354828007 -0.0221253377673614 32.1788956872578211 S
atom 7.2237167865331022 -0.0527587046611598 32.7315500050222639 S
atom 2.1836374778211622 4.9873206039859292 32.7315500050212407 S
atom 7.8028856728069833 4.9505691994968126 32.1788956872582261 S
atom -0.0115670477887116 2.1761957875333633 32.1788956872588656 S
atom 4.9917608561883791 2.7553646738055013 32.7315500050197201 S
atom -0.0483184525157616 7.7954439825250361 32.7315500050255181 S
atom 4.9611274895272119 7.1488903248532880 32.1788956872589296 S
atom 2.3542392686864058 2.6563547495172344 38.1629360259688468 Ba
atom 7.3227267108242140 2.5847628829221478 38.1629360259581105 Ba
atom 2.2826474020984908 7.6248421916470841 38.1629360259615353 Ba
atom 7.3269338060177542 7.6290492868523829 38.1629360259647754 Ba
atom 2.7524761981690822 2.2959029148670194 42.9528011824790994 Ba
atom 7.6831785454728010 2.1865259534399470 42.9528011824791491 Ba
atom 2.6430992367367350 7.2266052621678600 42.9528011824796536 Ba
atom 7.7251707355122372 7.2685974522021910 42.9528011824794476 Ba
atom 4.9579551921688765 4.9801017710880178 40.3445758885658137 Zr
atom 9.9716742266177061 4.9537414967725661 40.3445758885823054 Zr
atom 4.9315949178857545 9.9938208054650435 40.3445758885678316 Zr
atom 9.9306497294989740 9.9527963083839577 40.3445758885915282 Zr
atom 4.9833556472525000 4.9668097266631763 45.3975630063973838 Zr
atom 9.9849662709910660 4.9283410416965001 45.3975630062970339 Zr
atom 4.9448869622812275 9.9684203503942328 45.3975630063029030 Zr
atom 9.9560501845760800 9.9395042639794866 45.3975630063100439 Zr
atom 4.7985352470068747 4.7188778995510861 37.8381279952485912 S
atom 10.2328980981188629 5.1131614419468496 37.8381279951409155 S
atom 5.1928187894030993 10.1532407506663809 37.8381279951475022 S
atom 9.7712297843211253 9.6915724368670944 37.8381279951687759 S
atom 5.2268963840295886 5.2775505916729566 42.9044771958712516 S
atom 9.6742254059768751 4.6848003049150124 42.9044771960399487 S
atom 4.6341460972676671 9.7248796136301650 42.9044771960469120 S
atom 10.1995909213514846 10.2502451290015042 42.9044771959932660 S
atom 5.3165384041387949 2.4642219309541549 40.7239556261029989 S
atom 9.7100640551918360 2.4335885639853525 40.1713013083441410 S
atom 4.6699847464944790 7.4736678725800809 40.1713013083556518 S
atom 10.2892329414679011 7.4369164681708364 40.7239556261016844 S
atom 5.3738634111961190 2.4648458436600524 45.1059645241893676 S
atom 9.6062731641080568 2.4344829372483110 45.7303965555339857 S
atom 4.5661938553946246 7.4745622459887979 45.7303965555318328 S
atom 10.3465579485177201 7.4375403810054586 45.1059645241930696 S
atom 2.4747802209599410 4.6625430561972809 40.7239556260991833 S
atom 7.4781081247478856 5.2417119424640664 40.1713013083533994 S
atom 2.4380288161614314 10.2817912511848935 40.1713013083445531 S
atom 7.4474747581716487 9.6352375935146828 40.7239556261020113 S
atom 2.4741563079144022 4.6052180491397863 45.1059645241895382 S
atom 7.4772137517248929 5.3455028335488404 45.7303965555325789 S
atom 2.4371344430089654 10.3855821422630807 45.7303965555331828 S
atom 7.4468508452343123 9.5779125864664056 45.1059645241941851 S
atom 2.2048912190721515 2.6684331121113263 47.9243050199955789 Ba
atom 7.3106483482239035 2.7341109325635764 47.9243050199955007 Ba
atom 2.2705690395179428 7.7741902412671147 47.9243050199940086 Ba
atom 7.1775857563873977 7.6411276494235238 47.9243050199941933 Ba
atom 2.7689937348427311 2.3046724306593607 52.9250629997250073 Ba
atom 7.6744090296740026 2.1700084167807332 52.9250629997239557 Ba
atom 2.6343297209639251 7.2100877254977780 52.9250629997257604 Ba
atom 7.7416882721616984 7.2773669679848849 52.9250629997249860 Ba
atom 4.9688759727778482 4.9740652844476543 50.4130279409032696 Zr
atom 9.9777107132041607 4.9428207161701838 50.4130279409298012 Zr
atom 4.9376314044937466 9.9829000248816726 50.4130279409453408 Zr
atom 9.9415705100965273 9.9467598217728170 50.4130279409320963 Zr
atom 4.9726945373244531 4.9726945373269320 55.4261403821000016 Zr
atom 9.9790814603350615 4.9390021516259974 55.4261403821093737 Zr
atom 4.9390021516220015 9.9790814603319227 55.4261403821066807 Zr
atom 9.9453890746455222 9.9453890746409730 55.4261403821125285 Zr
atom 4.7078181284656511 4.6419485222904902 47.9150794182904320 S
atom 10.3098274753650063 5.2038785604795414 47.9150794182856288 S
atom 5.2697481666515245 10.2439578691927355 47.9150794182694142 S
atom 9.6805126657860541 9.6146430596142007 47.9150794182755817 S
atom 5.2405332016813855 5.3057813239593843 52.9224706471752810 S
atom 9.6459946737010167 4.6711634872652308 52.9224706471677280 S
atom 4.6059153649859663 9.7112427959787233 52.9224706471544337 S
atom 10.2132277390019368 10.2784758612819385 52.9224706471822728 S
atom 5.3724014789797696 2.4688798131612191 50.7439934577683900 S
atom 9.6131460460513249 2.4380918730714884 50.1035040170296497 S
atom 4.5730667373365934 7.4781711817836802 50.1035040170318311 S
atom 10.3450960163016461 7.4415743504792413 50.7439934577662513 S
atom 5.3715020138650660 2.4680418596995599 55.1044657146471977 S
atom 9.6139663694921520 2.4372679062393408 55.7478150494788451 S
atom 4.5738870607783504 7.4773472149427560 55.7478150494782625 S
atom 10.3441965511845453 7.4407363970108289 55.1044657146503027 S
atom 2.4701223384347251 4.6066799813578472 50.7439934577686245 S
atom 7.4736048159061559 5.3386299516073628 50.1035040170319306 S
atom 2.4335255071891031 10.3787092603208251 50.1035040170293726 S
atom 7.4428168757595152 9.5793745186797672 50.7439934577663436 S
atom 2.4709602919241362 4.6075794464735056 55.1044657146486117 S
atom 7.4744287827161084 5.3378096281657088 55.7478150494781985 S
atom 2.4343494739819258 10.3778889368821972 55.7478150494790370 S
atom 7.4436548292672020 9.5802739837943438 55.1044657146486259 S
atom 2.2037008024761136 2.6680221066560978 57.9272177644232187 Ba
atom 7.3110593536789059 2.7353013491435920 57.9272177644216342 Ba
atom 2.2709800449614890 7.7753806578633897 57.9272177644240074 Ba
atom 7.1763953398000169 7.6407166439853205 57.9272177644222097 Ba
atom 2.7678033182427431 2.3042614252121085 62.9279757441281618 Ba
atom 7.6748200351349709 2.1711988333708843 62.9279757441285525 Ba
atom 2.6347407263989804 7.2112781420865462 62.9279757441291707 Ba
atom 7.7404978555858452 7.2769559625337124 62.9279757441300092 Ba
atom 4.9765131018636826 4.9713237901952940 60.4392528231584407 Zr
atom 9.9804522074667101 4.9351835870855467 60.4392528231975987 Zr
atom 4.9403728987539761 9.9752628957861287 60.4392528231576875 Zr
atom 9.9492076391922080 9.9440183275057858 60.4392528231790607 Zr
atom 4.9620334273841404 4.9785793479797347 65.4547177578441648 Zr
atom 9.9731966496767903 4.9496632615714171 65.4547177577601929 Zr
atom 4.9331173409758824 9.9897425702653990 65.4547177578175479 Zr
atom 9.9347279647054219 9.9512738852911209 65.4547177577559864 Zr
atom 4.7048558729644370 4.6396077506853102 57.9298101169616189 S
atom 10.3121682469754692 5.2068408159812112 57.9298101169170749 S
atom 5.2720889382610920 10.2469201246968371 57.9298101169497670 S
atom 9.6775504102839296 9.6123022880051767 57.9298101169035675 S
atom 5.2375709461755315 5.3034405523467916 62.9372013458926176 S
atom 9.6483354453063459 4.6741257427678820 62.9372013459033539 S
atom 4.6082561365972454 9.7142050514821072 62.9372013459110420 S
atom 10.2102654834991924 10.2761350896732697 62.9372013459534045 S
atom 5.3723223373032001 2.4672178928917790 60.7487767471191162 S
atom 9.6130669043686581 2.4364299527707440 60.1082873063702081 S
atom 4.5729875956651194 7.4765092614495421 60.1082873063792889 S
atom 10.3450168746307263 7.4399124301783477 60.7487767471187823 S
atom 5.3791952192430568 2.4708268286884492 65.1218842086082077 S
atom 9.6116049721613521 2.4404639222046089 65.7463162399476460 S
atom 4.5715256634472796 7.4805432309493662 65.7463162399428285 S
atom 10.3518897565655479 7.4435213660379045 65.1218842086117178 S
atom 2.4717842587875825 4.6067591230302094 60.7487767471182565 S
atom 7.4752667361565708 5.3387090932832422 60.1082873063761269 S
atom 2.4351874275079761 10.3787884020007066 60.1082873063735548 S
atom 7.4444787960401442 9.5794536603533054 60.7487767471195994 S
atom 2.4681753229625221 4.5998862410888082 65.1218842086085772 S
atom 7.4712327666867111 5.3401710254980506 65.7463162399456280 S
atom 2.4311534579835232 10.3802503342130468 65.7463162399452727 S
atom 7.4408698602676084 9.5725807784187307 65.1218842086117604 S
atom 2.2202183391526802 2.6767916224488375 67.8994795816647922 Ba
atom 7.3022898378809060 2.7187838124868997 67.8994795816676628 Ba
atom 2.2622105291904471 7.7588631211908599 67.8994795816628880 Ba
atom 7.1929128764529144 7.6494861597622670 67.8994795816652754 Ba
atom 2.6184552686305014 2.3163397877963896 72.6893447381765014 Ba
atom 7.6627416725336488 2.3205468829963074 72.6893447381744835 Ba
atom 2.6226623638333266 7.3606261917123526 72.6893447381762883 Ba
atom 7.5911498059418685 7.2890343251203475 72.6893447381765299 Ba
atom 4.9874338824704596 4.9652873035784220 70.5077048755721734 Zr
atom 9.9864886940790427 4.9242628064855314 70.5077048755874500 Zr
atom 4.9464093853728119 9.9643421151954765 70.5077048755833005 Zr
atom 9.9601284197756144 9.9379818409041647 70.5077048756094626 Zr
atom 4.7184926906101934 4.6678384829607467 67.9478035680887871 S
atom 10.2839375146957543 5.1932039983348872 67.9478035681908494 S
atom 5.2438582059830710 10.2332833070476443 67.9478035681150772 S
atom 9.6911872279343623 9.6405330202882968 67.9478035681464689 S
atom 5.1468538276436444 5.2265111750982918 73.0141527689844878 S
atom 9.7252648225678318 4.7648428613058966 73.0141527689285539 S
atom 4.6851855138463625 9.8049221700176492 73.0141527689637115 S
atom 10.1195483649618367 10.1992057124168714 73.0141527689323055 S
atom 5.2754043281632113 2.4717212018726844 70.6809794557906201 S
atom 9.6689299792185288 2.4410878351310097 70.1283251380308741 S
atom 4.6288506704928940 7.4811671438544938 70.1283251380315988 S
atom 10.2480988654786369 7.4444157392009975 70.6809794557794646 S
atom 2.4672809496414954 4.7036771321807054 70.6809794557856321 S
atom 7.4706088539013900 5.2828460184454888 70.1283251380321246 S
atom 2.4305295450788376 10.3229253271607355 70.1283251380298935 S
atom 7.4399754870889874 9.6763716694998632 70.6809794557840263 S
