#=======================================================
# FHI-aims file: full_relax/full_relax_RP_3_Rx00_0-Ry0.in
# Created using the Atomic Simulation Environment (ASE)
# Fri Mar 14 11:19:22 2025
#=======================================================
lattice_vector 10.1029630578470098 0.0000000000000008 -0.0000000000000010 
lattice_vector 0.0000000000000008 10.1029630578470098 -0.0000000000000015 
lattice_vector -0.0000000000000038 -0.0000000000000054 35.2420654797771675 
atom -0.1572596694345938 -0.0000000000002371 0.2857291152255172 Ba
atom 5.2087411983575826 -0.0000000000002267 0.2857291152253748 Ba
atom 0.1572596694340705 5.0514815289232260 0.2857291152256151 Ba
atom 4.8942218594889173 5.0514815289232446 0.2857291152253338 Ba
atom 0.0302043596689102 -0.0000000000002463 4.9296798514763189 Ba
atom 5.0212771692541240 -0.0000000000002244 4.9296798514763145 Ba
atom -0.0302043596693801 5.0514815289232571 4.9296798514763056 Ba
atom 5.0816858885923839 5.0514815289232837 4.9296798514762949 Ba
atom 2.5257407644613719 2.5117010166790950 2.3306093073198197 Zr
atom 7.5772222933851685 2.5397805122440706 2.3306093073199468 Zr
atom 2.5257407644614505 7.5912620411676697 2.3306093073200298 Zr
atom 7.5772222933852795 7.5631825456025572 2.3306093073199206 Zr
atom 2.5257407644614047 2.5257407644616596 7.3420969749540266 Zr
atom 7.5772222933852253 2.5257407644615815 7.3420969749537290 Zr
atom 2.5257407644613878 7.5772222933853195 7.3420969749534457 Zr
atom 7.5772222933851170 7.5772222933851801 7.3420969749538330 Zr
atom 2.5257407644615215 2.8839966137755542 -0.1507925346328275 S
atom 7.5772222933849847 2.1674849151474151 -0.1507925346328848 S
atom 2.5257407644615326 7.2189664440710590 -0.1507925346324425 S
atom 7.5772222933850131 7.9354781426990790 -0.1507925346325580 S
atom 2.5257407644615553 2.0518273676742771 4.8654181517799131 S
atom 7.5772222933849989 2.9996541612489271 4.8654181517798953 S
atom 2.5257407644615890 8.0511356901724103 4.8654181517800810 S
atom 7.5772222933850051 7.1033088965977464 4.8654181517801307 S
atom 2.5257407644615584 -0.0000000000005838 2.0083610554381606 S
atom 7.5772222933850077 -0.0000000000006394 2.7993497660560029 S
atom 2.5257407644615864 5.0514815289232056 2.7993497660560460 S
atom 7.5772222933850237 5.0514815289233042 2.0083610554382192 S
atom 2.5257407644615419 -0.0000000000007881 7.7938032812872402 S
atom 7.5772222933850184 -0.0000000000005886 6.8903906686220706 S
atom 2.5257407644615757 5.0514815289230643 6.8903906686221168 S
atom 7.5772222933849722 5.0514815289230919 7.7938032812871931 S
atom -0.0000000000004118 2.5257407644615619 2.4579692454175381 S
atom 5.0514815289233397 2.5257407644615726 2.4579692454175359 S
atom -0.0000000000004829 7.5772222933850806 2.4579692454174618 S
atom 5.0514815289229906 7.5772222933850717 2.4579692454174560 S
atom -0.0000000000005345 2.5257407644616698 7.3420969749545133 S
atom 5.0514815289233326 2.5257407644616237 7.3420969749545462 S
atom -0.0000000000002833 7.5772222933850903 7.3420969749546519 S
atom 5.0514815289233228 7.5772222933851090 7.3420969749546723 S
atom -0.0302043596692490 -0.0000000000001636 9.7545140984323844 Ba
atom 5.0816858885922640 -0.0000000000001603 9.7545140984323950 Ba
atom 0.0302043596687497 5.0514815289232073 9.7545140984324377 Ba
atom 5.0212771692542448 5.0514815289232216 9.7545140984324661 Ba
atom 0.1572596694339968 -0.0000000000001763 14.3984648346833239 Ba
atom 4.8942218594889892 -0.0000000000001896 14.3984648346832635 Ba
atom -0.1572596694345036 5.0514815289232242 14.3984648346832493 Ba
atom 5.2087411983574805 5.0514815289232260 14.3984648346832671 Ba
atom 2.5257407644612626 2.5397805122442350 12.3535846425891425 Zr
atom 7.5772222933853008 2.5117010166791873 12.3535846425889382 Zr
atom 2.5257407644613710 7.5631825456023565 12.3535846425892082 Zr
atom 7.5772222933852493 7.5912620411676475 12.3535846425893752 Zr
atom 2.5257407644615628 2.9996541612491541 9.8187757981279216 S
atom 7.5772222933850051 2.0518273676740546 9.8187757981285042 S
atom 2.5257407644615437 7.1033088965975919 9.8187757981278043 S
atom 7.5772222933850024 8.0511356901726803 9.8187757981275006 S
atom 2.5257407644614958 2.1674849151474884 14.8349864845421937 S
atom 7.5772222933850140 2.8839966137757038 14.8349864845422825 S
atom 2.5257407644614869 7.9354781426990444 14.8349864845426360 S
atom 7.5772222933850308 7.2189664440709675 14.8349864845420800 S
atom 2.5257407644615464 -0.0000000000005629 11.8848441838523406 S
atom 7.5772222933850042 -0.0000000000008479 12.6758328944704743 S
atom 2.5257407644615837 5.0514815289234418 12.6758328944705312 S
atom 7.5772222933849944 5.0514815289228565 11.8848441838524561 S
atom -0.0000000000002872 2.5257407644615881 12.2262247044910275 S
atom 5.0514815289231469 2.5257407644615903 12.2262247044909778 S
atom -0.0000000000005842 7.5772222933851081 12.2262247044911536 S
atom 5.0514815289233601 7.5772222933850832 12.2262247044911145 S
atom 2.5257407644615499 2.6830004338954696 17.9067618551138388 Ba
atom 7.5772222933848319 2.3684810950270689 17.9067618551138246 Ba
atom 2.5257407644615122 7.4199626239509548 17.9067618551138317 Ba
atom 7.5772222933848514 7.7344819628193893 17.9067618551138601 Ba
atom 2.5257407644615402 2.4955364047923982 22.5507125913648281 Ba
atom 7.5772222933847502 2.5559451241304822 22.5507125913648601 Ba
atom 2.5257407644615504 7.6074266530539454 22.5507125913646540 Ba
atom 7.5772222933847839 7.5470179337158942 22.5507125913647926 Ba
atom 5.0655212767055149 5.0514815289231851 19.9516420472090807 Zr
atom 10.0889233100641231 5.0514815289232677 19.9516420472087681 Zr
atom 5.0374417811404033 10.1029630578466758 19.9516420472078444 Zr
atom 10.1170028056293617 10.1029630578463880 19.9516420472084768 Zr
atom 5.0514815289227561 5.0514815289229560 24.9631297148426796 Zr
atom 10.1029630578466136 5.0514815289229817 24.9631297148448255 Zr
atom 5.0514815289227402 10.1029630578468499 24.9631297148427933 Zr
atom 10.1029630578464182 10.1029630578468943 24.9631297148434541 Zr
atom 4.6932256796089815 5.0514815289231931 17.4702402052543775 S
atom 10.4612189071607844 5.0514815289231425 17.4702402052538517 S
atom 5.4097373782373070 10.1029630578467309 17.4702402052557311 S
atom 9.7447072085325743 10.1029630578467167 17.4702402052548713 S
atom 5.5253949257104482 5.0514815289232020 22.4864508916689267 S
atom 9.6290496610588114 5.0514815289231709 22.4864508916683548 S
atom 4.5775681321356041 10.1029630578466598 22.4864508916698469 S
atom 10.5768764546339558 10.1029630578466403 22.4864508916689161 S
atom 5.0514815289231718 2.5257407644613692 20.0790019853059256 S
atom 10.1029630578465248 2.5257407644613421 20.0790019853062347 S
atom 5.0514815289231292 7.5772222933851952 20.0790019853059363 S
atom 10.1029630578465461 7.5772222933854740 20.0790019853061992 S
atom 5.0514815289228707 2.5257407644613674 24.9631297148427080 S
atom 10.1029630578463561 2.5257407644610561 24.9631297148428217 S
atom 5.0514815289228210 7.5772222933851312 24.9631297148426476 S
atom 10.1029630578463987 7.5772222933853248 24.9631297148427898 S
atom 2.5257407644619665 5.0514815289231558 20.4203825059447404 S
atom 7.5772222933851765 5.0514815289231514 19.6293937953267061 S
atom 2.5257407644617067 10.1029630578466847 19.6293937953266671 S
atom 7.5772222933852387 10.1029630578466900 20.4203825059447652 S
atom 2.5257407644624199 5.0514815289232180 24.5114234085101899 S
atom 7.5772222933862192 5.0514815289232269 25.4148360211752582 S
atom 2.5257407644618231 10.1029630578466829 25.4148360211751303 S
atom 7.5772222933859723 10.1029630578466847 24.5114234085101685 S
atom 2.5257407644613168 2.5559451241306950 27.3755468383210143 Ba
atom 7.5772222933850450 2.4955364047923880 27.3755468383208083 Ba
atom 2.5257407644613292 7.5470179337156882 27.3755468383209148 Ba
atom 7.5772222933849456 7.6074266530539703 27.3755468383207727 Ba
atom 2.5257407644614482 2.3684810950272768 32.0194975745717798 Ba
atom 7.5772222933848914 2.6830004338959963 32.0194975745718793 Ba
atom 2.5257407644615331 7.7344819628191148 32.0194975745716448 Ba
atom 7.5772222933848710 7.4199626239504335 32.0194975745717372 Ba
atom 5.0374417811404326 5.0514815289230857 29.9746173824781259 Zr
atom 10.1170028056291272 5.0514815289228956 29.9746173824773585 Zr
atom 5.0655212767055655 10.1029630578465799 29.9746173824773159 Zr
atom 10.0889233100639650 10.1029630578468463 29.9746173824773692 Zr
atom 4.5775681321355570 5.0514815289231443 27.4398085380167700 S
atom 10.5768764546335934 5.0514815289231985 27.4398085380154164 S
atom 5.5253949257103931 10.1029630578466492 27.4398085380171821 S
atom 9.6290496610591845 10.1029630578466438 27.4398085380171253 S
atom 5.4097373782371889 5.0514815289231780 32.4560192244292622 S
atom 9.7447072085325868 5.0514815289231709 32.4560192244288928 S
atom 4.6932256796090117 10.1029630578467184 32.4560192244303991 S
atom 10.4612189071607329 10.1029630578466563 32.4560192244298946 S
atom 5.0514815289230048 2.5257407644617698 29.8472574443796965 S
atom 10.1029630578464946 2.5257407644617706 29.8472574443799274 S
atom 5.0514815289231008 7.5772222933851356 29.8472574443797001 S
atom 10.1029630578464147 7.5772222933848399 29.8472574443798955 S
atom 2.5257407644613128 5.0514815289231736 30.2968656343592890 S
atom 7.5772222933861961 5.0514815289231141 29.5058769237412868 S
atom 2.5257407644615921 10.1029630578465976 29.5058769237411802 S
atom 7.5772222933855682 10.1029630578466243 30.2968656343590474 S
