#=======================================================
# FHI-aims file: full_relax/full_relax_RP_9_000_000.in
# Created using the Atomic Simulation Environment (ASE)
# Mon Mar 24 16:20:32 2025
#=======================================================
lattice_vector 10.0658177410573728 0.0000000000000000 0.0000000000000000 
lattice_vector 0.0000000000000000 10.0658177410573728 0.0000000000000001 
lattice_vector 0.0000000000000002 0.0000000000000008 95.9774954259157624 
atom -0.0000000000064095 0.0000000000002099 0.2842388665709144 Ba
atom 5.0329088705336940 -0.0000000000001214 0.2842388665678417 Ba
atom 0.0000000000057625 5.0329088705273053 0.2842388665900888 Ba
atom 5.0329088705215703 5.0329088705276686 0.2842388665975181 Ba
atom 0.0000000000050282 -0.0000000000022799 5.0600206447892520 Ba
atom 5.0329088705228147 -0.0000000000016563 5.0600206447899927 Ba
atom -0.0000000000014531 5.0329088705301492 5.0600206447909404 Ba
atom 5.0329088705292255 5.0329088705295311 5.0600206447908924 Ba
atom 2.5164544352634750 2.5164544352600897 2.3074833677360345 Zr
atom 7.5493633057932472 2.5164544352604157 2.3074833677317397 Zr
atom 2.5164544352630416 7.5493633057969856 2.3074833677398305 Zr
atom 7.5493633057932712 7.5493633057958407 2.3074833677372855 Zr
atom 2.5164544352639422 2.5164544352635803 7.3862365713626019 Zr
atom 7.5493633057930865 2.5164544352633684 7.3862365713720477 Zr
atom 2.5164544352635074 7.5493633057926530 7.3862365713607101 Zr
atom 7.5493633057931042 7.5493633057927996 7.3862365713649076 Zr
atom 2.5164544352631806 2.5164544352717892 -0.1840191722901387 S
atom 7.5493633057929159 2.5164544352494320 -0.1840191723062453 S
atom 2.5164544352649192 7.5493633057845049 -0.1840191722910015 S
atom 7.5493633057912373 7.5493633058066569 -0.1840191722975130 S
atom 2.5164544352672351 2.5164544352545088 4.8956958331159166 S
atom 7.5493633057891714 2.5164544352871299 4.8956958331210165 S
atom 2.5164544352641620 7.5493633058018510 4.8956958331069629 S
atom 7.5493633057920846 7.5493633057690266 4.8956958331109703 S
atom 2.5164544352653966 -0.0000000000016977 2.4379109226279692 S
atom 7.5493633057908553 0.0000000000034367 2.4379109226549618 S
atom 2.5164544352634306 5.0329088705273257 2.4379109226422195 S
atom 7.5493633057928049 5.0329088705239418 2.4379109226208815 S
atom 2.5164544352599965 -0.0000000000032994 7.4210509516458636 S
atom 7.5493633057965326 -0.0000000000029787 7.4210509516038305 S
atom 2.5164544352680593 5.0329088705312204 7.4210509516239540 S
atom 7.5493633057884804 5.0329088705309850 7.4210509516589882 S
atom -0.0000000000013909 2.5164544352650897 2.4379109226404094 S
atom 5.0329088705270895 2.5164544352634541 2.4379109226336726 S
atom -0.0000000000039480 7.5493633057914140 2.4379109226372284 S
atom 5.0329088705307994 7.5493633057929452 2.4379109226347184 S
atom -0.0000000000016046 2.5164544352679932 7.4210509516271665 S
atom 5.0329088705273053 2.5164544352601026 7.4210509516363716 S
atom -0.0000000000030844 7.5493633057882379 7.4210509516350296 S
atom 5.0329088705298632 7.5493633057961382 7.4210509516340055 S
atom -0.0000000000020114 0.0000000000000705 9.9984023218308202 Ba
atom 5.0329088705298544 -0.0000000000005096 9.9984023218306053 Ba
atom 0.0000000000009120 5.0329088705277671 9.9984023218296461 Ba
atom 5.0329088705268470 5.0329088705281704 9.9984023218293228 Ba
atom -0.0000000000004419 0.0000000000007421 14.9861699255013434 Ba
atom 5.0329088705280469 0.0000000000014412 14.9861699255019083 Ba
atom -0.0000000000021557 5.0329088705269527 14.9861699255016632 Ba
atom 5.0329088705300347 5.0329088705263549 14.9861699255021197 Ba
atom 2.5164544352636926 2.5164544352630687 12.4270945962700861 Zr
atom 7.5493633057923475 2.5164544352644742 12.4270945962677697 Zr
atom 2.5164544352637477 7.5493633057933272 12.4270945962652437 Zr
atom 7.5493633057927596 7.5493633057913350 12.4270945962653290 Zr
atom 2.5164544352646123 2.5164544352651319 17.4620963969948697 Zr
atom 7.5493633057925935 2.5164544352631020 17.4620963970041103 Zr
atom 2.5164544352636127 7.5493633057916201 17.4620963970089029 Zr
atom 7.5493633057928182 7.5493633057932499 17.4620963969995238 Zr
atom 2.5164544352569447 2.5164544352784213 9.9234566460372253 S
atom 7.5493633057992868 2.5164544352296114 9.9234566460407514 S
atom 2.5164544352643348 7.5493633057777920 9.9234566460308908 S
atom 7.5493633057919958 7.5493633058264988 9.9234566460440927 S
atom 2.5164544352722822 2.5164544352370353 14.9513102791527928 S
atom 7.5493633057840679 2.5164544353053810 14.9513102791605554 S
atom 2.5164544352629505 7.5493633058193899 14.9513102791526666 S
atom 7.5493633057933964 7.5493633057508172 14.9513102791509489 S
atom 2.5164544353104707 0.0000000000010878 12.4434884790895079 S
atom 7.5493633057458220 0.0000000000025903 12.4434884791446567 S
atom 2.5164544352170251 5.0329088705265050 12.4434884791275877 S
atom 7.5493633058392460 5.0329088705264020 12.4434884790677813 S
atom 2.5164544352397376 -0.0000000000049800 17.4671432235526787 S
atom 7.5493633058168257 -0.0000000000013577 17.4671432234722346 S
atom 2.5164544352883471 5.0329088705319105 17.4671432234812158 S
atom 7.5493633057681775 5.0329088705292264 17.4671432235609423 S
atom -0.0000000000010823 2.5164544352171823 12.4434884791142171 S
atom 5.0329088705292460 2.5164544353108238 12.4434884790988729 S
atom 0.0000000000002919 7.5493633058390559 12.4434884791070743 S
atom 5.0329088705269429 7.5493633057454019 12.4434884791094351 S
atom 0.0000000000010409 2.5164544352868261 17.4671432235095132 S
atom 5.0329088705244782 2.5164544352392326 17.4671432235255430 S
atom 0.0000000000011388 7.5493633057696172 17.4671432235151762 S
atom 5.0329088705263212 7.5493633058172183 17.4671432235171942 S
atom -0.0000000000018099 0.0000000000002493 19.9897681577742112 Ba
atom 5.0329088705294884 -0.0000000000004196 19.9897681577742290 Ba
atom -0.0000000000008558 5.0329088705276623 19.9897681577742397 Ba
atom 5.0329088705287335 5.0329088705283604 19.9897681577741899 Ba
atom -0.0000000000011426 -0.0000000000018021 24.9996828231293904 Ba
atom 5.0329088705290621 -0.0000000000019044 24.9996828231289143 Ba
atom -0.0000000000025644 5.0329088705296234 24.9996828231293335 Ba
atom 5.0329088705304024 5.0329088705297425 24.9996828231292199 Ba
atom 2.5164544352624909 2.5164544352621494 22.4947254904063492 Zr
atom 7.5493633057935385 2.5164544352641558 22.4947254903973359 Zr
atom 2.5164544352655414 7.5493633057941274 22.4947254903982596 Zr
atom 7.5493633057918554 7.5493633057922267 22.4947254904116072 Zr
atom 2.5164544352634439 2.5164544352648859 27.5273545838848008 Zr
atom 7.5493633057922374 2.5164544352635150 27.5273545838795037 Zr
atom 2.5164544352634812 7.5493633057917222 27.5273545838835467 Zr
atom 7.5493633057937837 7.5493633057932579 27.5273545838654705 Zr
atom 2.5164544352575198 2.5164544353120122 19.9801325783255095 S
atom 7.5493633057988623 2.5164544352182792 19.9801325783290906 S
atom 2.5164544352603357 7.5493633057443397 19.9801325783407009 S
atom 7.5493633057962812 7.5493633058380896 19.9801325783331762 S
atom 2.5164544352638583 2.5164544351897713 25.0093184025391544 S
atom 7.5493633057920890 2.5164544353117386 25.0093184025110737 S
atom 2.5164544352789537 7.5493633058665619 25.0093184025127329 S
atom 7.5493633057778826 7.5493633057447544 25.0093184025545092 S
atom 2.5164544353507998 0.0000000000026366 22.4947254904166947 S
atom 7.5493633057058576 -0.0000000000062078 22.4947254905220966 S
atom 2.5164544351768416 5.0329088705252980 22.4947254905369931 S
atom 7.5493633058797833 5.0329088705342730 22.4947254904294667 S
atom 2.5164544353390581 -0.0000000000013279 27.5223077574852937 S
atom 7.5493633057172991 0.0000000000043633 27.5223077573599610 S
atom 2.5164544351893428 5.0329088705283249 27.5223077573165398 S
atom 7.5493633058670291 5.0329088705225393 27.5223077574531736 S
atom 0.0000000000008319 2.5164544351783915 22.4947254904817342 S
atom 5.0329088705277405 2.5164544353518350 22.4947254904745826 S
atom -0.0000000000104093 7.5493633058779279 22.4947254904834857 S
atom 5.0329088705359828 7.5493633057044747 22.4947254904658784 S
atom 0.0000000000029376 2.5164544351876859 27.5223077574071624 S
atom 5.0329088705262714 2.5164544353380971 27.5223077573990338 S
atom 0.0000000000123164 7.5493633058688028 27.5223077573828832 S
atom 5.0329088705133769 7.5493633057183631 27.5223077574255015 S
atom -0.0000000000002236 -0.0000000000007700 30.0032810554071965 Ba
atom 5.0329088705281881 0.0000000000002003 30.0032810554078786 Ba
atom 0.0000000000041780 5.0329088705284581 30.0032810554054024 Ba
atom 5.0329088705236167 5.0329088705274572 30.0032810554061555 Ba
atom 0.0000000000063125 0.0000000000034229 34.9910486590835674 Ba
atom 5.0329088705214922 0.0000000000000399 34.9910486590818266 Ba
atom -0.0000000000033375 5.0329088705242597 34.9910486590869212 Ba
atom 5.0329088705311547 5.0329088705277147 34.9910486590850240 Ba
atom 2.5164544352640461 2.5164544352641274 32.5623563847005784 Zr
atom 7.5493633057934053 2.5164544352637370 32.5623563847245805 Zr
atom 2.5164544352635643 7.5493633057921778 32.5623563847153505 Zr
atom 7.5493633057921130 7.5493633057925287 32.5623563846965567 Zr
atom 2.5164544352637859 2.5164544352629186 37.6032144095950684 Zr
atom 7.5493633057927276 2.5164544352640306 37.6032144095945000 Zr
atom 2.5164544352630083 7.5493633057936753 37.6032144095896541 Zr
atom 7.5493633057932312 7.5493633057930829 37.6032144096186300 Zr
atom 2.5164544352716058 2.5164544353573532 30.0381407017915940 S
atom 7.5493633057847633 2.5164544352152962 30.0381407017784205 S
atom 2.5164544352351315 7.5493633056990461 30.0381407017996409 S
atom 7.5493633058211467 7.5493633058411636 30.0381407017554736 S
atom 2.5164544352511524 2.5164544351693401 35.0659943349320216 S
atom 7.5493633058054410 2.5164544353102976 35.0659943349286678 S
atom 2.5164544353003411 7.5493633058870282 35.0659943349045093 S
atom 7.5493633057555689 7.5493633057462128 35.0659943349480940 S
atom 2.5164544352550848 0.0000000000039381 32.5459625016696990 S
atom 7.5493633058012701 -0.0000000000024160 32.5459625018106777 S
atom 2.5164544352722733 5.0329088705236513 32.5459625018594849 S
atom 7.5493633057840714 5.0329088705302159 32.5459625017197709 S
atom 2.5164544352940164 -0.0000000000141140 37.5684000293282239 S
atom 7.5493633057623164 -0.0000000000034447 37.5684000292008662 S
atom 2.5164544352336122 5.0329088705413119 37.5684000291639109 S
atom 7.5493633058226903 5.0329088705296368 37.5684000292819107 S
atom -0.0000000000058418 2.5164544352725056 32.5459625017522569 S
atom 5.0329088705308802 2.5164544352554326 32.5459625017741843 S
atom -0.0000000000116551 7.5493633057837544 32.5459625017983782 S
atom 5.0329088705406111 7.5493633058008038 32.5459625017338894 S
atom 0.0000000000015657 2.5164544352337335 37.5684000292615750 S
atom 5.0329088705256000 2.5164544352951346 37.5684000292329472 S
atom 0.0000000000093654 7.5493633058229515 37.5684000292066500 S
atom 5.0329088705182761 7.5493633057615428 37.5684000292726310 S
atom -0.0000000000140479 -0.0000000000074733 39.9294303361146490 Ba
atom 5.0329088705418341 0.0000000000022440 39.9294303361173988 Ba
atom 0.0000000000089572 5.0329088705353158 39.9294303361110394 Ba
atom 5.0329088705188596 5.0329088705255334 39.9294303361132066 Ba
atom 0.0000000000209356 0.0000000000093368 44.7052121143697292 Ba
atom 5.0329088705066098 -0.0000000000122996 44.7052121143773888 Ba
atom -0.0000000000264584 5.0329088705183365 44.7052121143543033 Ba
atom 5.0329088705540377 5.0329088705399760 44.7052121143718608 Ba
atom 2.5164544352668226 2.5164544352649045 42.6819676131431081 Zr
atom 7.5493633057895533 2.5164544352629492 42.6819676131367629 Zr
atom 2.5164544352662022 7.5493633057920784 42.6819676131292454 Zr
atom 7.5493633057906999 7.5493633057945830 42.6819676131365568 Zr
atom 2.5164544352775140 2.5164544353387637 40.0937551477942407 S
atom 7.5493633057786909 2.5164544352237010 40.0937551477858420 S
atom 2.5164544352299996 7.5493633057177538 40.0937551478270464 S
atom 7.5493633058262724 7.5493633058331637 40.0937551478194436 S
atom 2.5164544352506701 2.5164544352162328 45.1734701531805953 S
atom 7.5493633058053069 2.5164544352970690 45.1734701531964546 S
atom 2.5164544352870788 7.5493633058400338 45.1734701531983589 S
atom 7.5493633057690230 7.5493633057594067 45.1734701531657592 S
atom 2.5164544352605072 0.0000000000056725 42.5515400582319643 S
atom 7.5493633057959562 0.0000000000049875 42.5515400583206826 S
atom 2.5164544352664731 5.0329088705204725 42.5515400583433205 S
atom 7.5493633057899903 5.0329088705200826 42.5515400582588939 S
atom -0.0000000000063801 2.5164544352646132 42.5515400582770198 S
atom 5.0329088705332712 2.5164544352639031 42.5515400583033454 S
atom -0.0000000000027940 7.5493633057922329 42.5515400583118293 S
atom 5.0329088705284919 7.5493633057930314 42.5515400582627521 S
atom 2.5164544352629235 2.5164544352571876 48.2729865794504462 Ba
atom 7.5493633057929657 2.5164544352622285 48.2729865794450959 Ba
atom 2.5164544352675402 7.5493633057988498 48.2729865794459698 Ba
atom 7.5493633057883560 7.5493633057938530 48.2729865794527413 Ba
atom 2.5164544352612097 2.5164544352696825 53.0487683577673934 Ba
atom 7.5493633057945990 2.5164544352607612 53.0487683577606717 Ba
atom 2.5164544352582761 7.5493633057863372 53.0487683577651339 Ba
atom 7.5493633057975442 7.5493633057950849 53.0487683577578650 Ba
atom 5.0329088705252323 5.0329088705273755 50.2962310807460042 Zr
atom 10.0658177410594050 5.0329088705287122 50.2962310807524133 Zr
atom 5.0329088705299476 10.0658177410568133 50.2962310807358364 Zr
atom 10.0658177410560885 10.0658177410550937 50.2962310807357866 Zr
atom 5.0329088705301350 5.0329088705290452 55.3749842842993729 Zr
atom 10.0658177410559322 5.0329088705271809 55.3749842842396589 Zr
atom 5.0329088705272111 10.0658177410555432 55.3749842842536992 Zr
atom 10.0658177410560814 10.0658177410572875 55.3749842842543814 Zr
atom 5.0329088705377591 5.0329088705340901 47.8047285406695934 S
atom 10.0658177410469172 5.0329088705287743 47.8047285407367823 S
atom 5.0329088705369038 10.0658177410504326 47.8047285406954288 S
atom 10.0658177410480114 10.0658177410554952 47.8047285406999194 S
atom 5.0329088704813545 5.0329088705099148 52.8844435460726601 S
atom 10.0658177411037286 5.0329088705283391 52.8844435461143831 S
atom 5.0329088705244684 10.0658177410744667 52.8844435460552376 S
atom 10.0658177410601333 10.0658177410559198 52.8844435460900044 S
atom 5.0329088705296687 2.5164544352676939 50.4266586355845376 S
atom 10.0658177410553602 2.5164544352602474 50.4266586355770627 S
atom 5.0329088705275229 7.5493633057892016 50.4266586356007664 S
atom 10.0658177410575096 7.5493633057970762 50.4266586355794075 S
atom 5.0329088705066445 2.5164544352674980 55.4097986646277434 S
atom 10.0658177410778631 2.5164544352442757 55.4097986646100793 S
atom 5.0329088705463194 7.5493633057880336 55.4097986645915199 S
atom 10.0658177410381438 7.5493633058115757 55.4097986646104417 S
atom 2.5164544352522884 5.0329088705261507 50.4266586355572315 S
atom 7.5493633058035527 5.0329088705289555 50.4266586356054773 S
atom 2.5164544352571072 10.0658177410581029 50.4266586355839337 S
atom 7.5493633057956302 10.0658177410554419 50.4266586355951745 S
atom 2.5164544352806892 5.0329088705470388 55.4097986646787106 S
atom 7.5493633057716973 5.0329088705080807 55.4097986645426914 S
atom 2.5164544352674194 10.0658177410373462 55.4097986646083385 S
atom 7.5493633057908109 10.0658177410762608 55.4097986646099940 S
atom 2.5164544352637028 2.5164544352647162 57.9871500347858486 Ba
atom 7.5493633057920428 2.5164544352721161 57.9871500347919806 Ba
atom 2.5164544352654765 7.5493633057912435 57.9871500347876250 Ba
atom 7.5493633057905596 7.5493633057839959 57.9871500347938778 Ba
atom 2.5164544352678044 2.5164544352601275 62.9749176384654277 Ba
atom 7.5493633057881455 2.5164544352537739 62.9749176384617115 Ba
atom 2.5164544352668554 7.5493633057957421 62.9749176384639924 Ba
atom 7.5493633057892113 7.5493633058022169 62.9749176384610010 Ba
atom 5.0329088705250369 5.0329088705274350 60.4158423091739891 Zr
atom 10.0658177410588099 5.0329088705276037 60.4158423091774779 Zr
atom 5.0329088705284759 10.0658177410577512 60.4158423092272301 Zr
atom 10.0658177410570051 10.0658177410570335 60.4158423091932022 Zr
atom 5.0329088705273026 5.0329088705272813 65.4508441100103084 Zr
atom 10.0658177410562750 5.0329088705288392 65.4508441100885818 Zr
atom 5.0329088705281251 10.0658177410575167 65.4508441100423681 Zr
atom 10.0658177410574794 10.0658177410553087 65.4508441100285694 Zr
atom 5.0329088706239107 5.0329088705533396 57.9122043589712305 S
atom 10.0658177409608527 5.0329088705265752 57.9122043588798761 S
atom 5.0329088705206635 10.0658177410313527 57.9122043589476050 S
atom 10.0658177410636949 10.0658177410579075 57.9122043589921915 S
atom 5.0329088703948335 5.0329088704993854 62.9400579921110648 S
atom 10.0658177411890914 5.0329088705295302 62.9400579921677661 S
atom 5.0329088705479785 10.0658177410853575 62.9400579921417886 S
atom 10.0658177410371348 10.0658177410549285 62.9400579921712620 S
atom 5.0329088705591882 2.5164544352652531 60.4322361920535371 S
atom 10.0658177410251888 2.5164544352748437 60.4322361920789817 S
atom 5.0329088704990159 7.5493633057894174 60.4322361921046465 S
atom 10.0658177410853451 7.5493633057811573 60.4322361920765800 S
atom 5.0329088705690337 2.5164544352656759 65.4558909364863268 S
atom 10.0658177410154384 2.5164544352641531 65.4558909364390473 S
atom 5.0329088704873168 7.5493633057891847 65.4558909364282613 S
atom 10.0658177410971579 7.5493633057923946 65.4558909364406816 S
atom 2.5164544352513420 5.0329088704983889 60.4322361919701905 S
atom 7.5493633058060743 5.0329088705582157 60.4322361922031419 S
atom 2.5164544352630078 10.0658177410864518 60.4322361920823639 S
atom 7.5493633057903304 10.0658177410266205 60.4322361920586815 S
atom 2.5164544352632050 5.0329088704861400 65.4558909365867123 S
atom 7.5493633057946772 5.0329088705692415 65.4558909363061190 S
atom 2.5164544352681464 10.0658177410981615 65.4558909364298529 S
atom 7.5493633057852794 10.0658177410150937 65.4558909364729686 S
atom 2.5164544352565783 2.5164544352593210 67.9785158707353929 Ba
atom 7.5493633057991589 2.5164544352635025 67.9785158707369987 Ba
atom 2.5164544352567337 7.5493633057966001 67.9785158707354782 Ba
atom 7.5493633057990435 7.5493633057924168 67.9785158707373540 Ba
atom 2.5164544352619016 2.5164544352718301 72.9884305360886003 Ba
atom 7.5493633057938316 2.5164544352690870 72.9884305360907035 Ba
atom 2.5164544352612639 7.5493633057841159 72.9884305360884440 Ba
atom 7.5493633057944942 7.5493633057865930 72.9884305360907177 Ba
atom 5.0329088705304939 5.0329088705265272 70.4834732034098863 Zr
atom 10.0658177410536993 5.0329088705288756 70.4834732033591536 Zr
atom 5.0329088705278124 10.0658177410583161 70.4834732033422142 Zr
atom 10.0658177410575185 10.0658177410564296 70.4834732033526308 Zr
atom 5.0329088705254383 5.0329088705278089 75.5161022967765945 Zr
atom 10.0658177410586163 5.0329088705281979 75.5161022967421189 Zr
atom 5.0329088705300338 10.0658177410565219 75.5161022967849220 Zr
atom 10.0658177410553726 10.0658177410554561 75.5161022967676843 Zr
atom 5.0329088706663860 5.0329088705587566 67.9688802913407528 S
atom 10.0658177409176091 5.0329088705283409 67.9688802913696151 S
atom 5.0329088705023093 10.0658177410258993 67.9688802913043730 S
atom 10.0658177410827125 10.0658177410563017 67.9688802913365038 S
atom 5.0329088704143450 5.0329088704938574 72.9980661154538524 S
atom 10.0658177411697469 5.0329088705201519 72.9980661153894772 S
atom 5.0329088705501963 10.0658177410906244 72.9980661154534403 S
atom 10.0658177410347029 10.0658177410644054 72.9980661154339430 S
atom 5.0329088705210827 2.5164544352537432 70.4834732034035767 S
atom 10.0658177410635030 2.5164544352548015 70.4834732034377964 S
atom 5.0329088705318519 7.5493633058010623 70.4834732034681082 S
atom 10.0658177410527330 7.5493633057992433 70.4834732034447171 S
atom 5.0329088704108011 2.5164544352806968 75.5110554704213826 S
atom 10.0658177411736069 2.5164544352662697 75.5110554704186967 S
atom 5.0329088706481482 7.5493633057757927 75.5110554703466903 S
atom 10.0658177409362484 7.5493633057919372 75.5110554703928187 S
atom 2.5164544352712954 5.0329088705337810 70.4834732033070708 S
atom 7.5493633057846656 5.0329088705234941 70.4834732035626672 S
atom 2.5164544352709428 10.0658177410510223 70.4834732034668434 S
atom 7.5493633057828315 10.0658177410612399 70.4834732034185407 S
atom 2.5164544352826650 5.0329088706449348 75.5110554704905468 S
atom 7.5493633057733867 5.0329088704089582 75.5110554703077668 S
atom 2.5164544352681526 10.0658177409394991 75.5110554703724830 S
atom 7.5493633057850822 10.0658177411755201 75.5110554704088486 S
atom 2.5164544352727898 2.5164544352628302 77.9920287683713838 Ba
atom 7.5493633057833520 2.5164544352656497 77.9920287683680442 Ba
atom 2.5164544352730394 7.5493633057930758 77.9920287683684137 Ba
atom 7.5493633057830118 7.5493633057902487 77.9920287683665237 Ba
atom 2.5164544352639995 2.5164544352579146 82.9797963720449872 Ba
atom 7.5493633057918492 2.5164544352563798 82.9797963720486393 Ba
atom 2.5164544352628200 7.5493633057982406 82.9797963720494494 Ba
atom 7.5493633057928546 7.5493633057996945 82.9797963720524763 Ba
atom 5.0329088705311511 5.0329088705277147 80.5511040976414989 Zr
atom 10.0658177410546141 5.0329088705275904 80.5511040977462187 Zr
atom 5.0329088705275398 10.0658177410574368 80.5511040977178823 Zr
atom 10.0658177410584635 10.0658177410555787 80.5511040977055472 Zr
atom 5.0329088705263842 5.0329088705283160 85.5919621226619824 Zr
atom 10.0658177410589129 5.0329088705281402 85.5919621226606750 Zr
atom 5.0329088705287033 10.0658177410558647 85.5919621225851728 Zr
atom 10.0658177410552820 10.0658177410571437 85.5919621226480132 Zr
atom 5.0329088705989777 5.0329088705671969 78.0268884147329942 S
atom 10.0658177409855725 5.0329088705450786 78.0268884146434232 S
atom 5.0329088705167786 10.0658177410173320 78.0268884147156143 S
atom 10.0658177410683223 10.0658177410388419 78.0268884146974386 S
atom 5.0329088704973248 5.0329088704893241 83.0547420479103806 S
atom 10.0658177410877450 5.0329088705064624 83.0547420479534964 S
atom 5.0329088705286269 10.0658177410951133 83.0547420479812359 S
atom 10.0658177410560832 10.0658177410779146 83.0547420479836092 S
atom 5.0329088706207150 2.5164544352391154 80.5347102146732681 S
atom 10.0658177409645351 2.5164544352561879 80.5347102146914722 S
atom 5.0329088704327294 7.5493633058154517 80.5347102147538436 S
atom 10.0658177411524878 7.5493633058030403 80.5347102147344884 S
atom 5.0329088705408225 2.5164544352946345 85.5571477422140134 S
atom 10.0658177410439347 2.5164544352875233 85.5571477421987225 S
atom 5.0329088705170673 7.5493633057618093 85.5571477421453324 S
atom 10.0658177410677325 7.5493633057669838 85.5571477421556210 S
atom 2.5164544352430265 5.0329088704335554 80.5347102146717901 S
atom 7.5493633058096163 5.0329088706230509 80.5347102147688076 S
atom 2.5164544352609366 10.0658177411507612 80.5347102147136553 S
atom 7.5493633057914105 10.0658177409612239 80.5347102146980518 S
atom 2.5164544352668363 5.0329088705157137 85.5571477421865296 S
atom 7.5493633057875806 5.0329088705407017 85.5571477421561752 S
atom 2.5164544352675704 10.0658177410688658 85.5571477421864302 S
atom 7.5493633057897807 10.0658177410439222 85.5571477421847959 S
atom 2.5164544352564850 2.5164544352708420 87.9181780490702920 Ba
atom 7.5493633057994387 2.5164544352703198 87.9181780490686293 Ba
atom 2.5164544352588067 7.5493633057851124 87.9181780490651619 Ba
atom 7.5493633057970744 7.5493633057856382 87.9181780490637124 Ba
atom 2.5164544352654521 2.5164544352591984 92.6939598273247327 Ba
atom 7.5493633057904264 2.5164544352649512 92.6939598273297065 Ba
atom 2.5164544352602998 7.5493633057966418 92.6939598273292233 Ba
atom 7.5493633057955707 7.5493633057908731 92.6939598273296923 Ba
atom 5.0329088705281579 5.0329088705280380 90.6707153260163778 Zr
atom 10.0658177410554206 5.0329088705277476 90.6707153259868477 Zr
atom 5.0329088705293206 10.0658177410576410 90.6707153260200158 Zr
atom 10.0658177410567582 10.0658177410565326 90.6707153260204848 Zr
atom 5.0329088705332801 5.0329088705562501 88.0825028608518608 S
atom 10.0658177410512160 5.0329088705436655 88.0825028607813181 S
atom 5.0329088705327774 10.0658177410284022 88.0825028607341380 S
atom 10.0658177410521326 10.0658177410410268 88.0825028607357297 S
atom 5.0329088705332943 5.0329088705126770 93.1622178659755775 S
atom 10.0658177410510916 5.0329088705214122 93.1622178660078788 S
atom 5.0329088705217506 10.0658177410721166 93.1622178660778388 S
atom 10.0658177410633591 10.0658177410631691 93.1622178660254292 S
atom 5.0329088705271072 2.5164544352371081 90.5402877712756009 S
atom 10.0658177410575860 2.5164544352467182 90.5402877712951550 S
atom 5.0329088705288365 7.5493633058160619 90.5402877713156755 S
atom 10.0658177410559588 7.5493633058096421 90.5402877713180203 S
atom 2.5164544352460356 5.0329088705283143 90.5402877713030279 S
atom 7.5493633058120375 5.0329088705268745 90.5402877713015926 S
atom 2.5164544352564020 10.0658177410564367 90.5402877712950271 S
atom 7.5493633057963070 10.0658177410578435 90.5402877713056427 S
