#=======================================================
# FHI-aims file: full_relax/full_relax_RP_1_000_000.in
# Created using the Atomic Simulation Environment (ASE)
# Fri Mar 14 11:16:57 2025
#=======================================================
lattice_vector 10.0137925914958785 0.0000000000000000 -0.0000000000000000 
lattice_vector 0.0000000000000000 10.0137925914958785 -0.0000000000000002 
lattice_vector -0.0000000000000000 -0.0000000000000002 15.6661026015161902 
atom 0.0000000000000203 0.0000000000000179 0.2276085723646327 Ba
atom 5.0068962957475955 0.0000000000000183 0.2276085723645350 Ba
atom 0.0000000000000081 5.0068962957476115 0.2276085723645306 Ba
atom 5.0068962957476595 5.0068962957476115 0.2276085723644902 Ba
atom -0.0000000000000054 0.0000000000000075 4.6680484906096513 Ba
atom 5.0068962957476693 0.0000000000000170 4.6680484906096789 Ba
atom 0.0000000000000162 5.0068962957476417 4.6680484906096806 Ba
atom 5.0068962957476613 5.0068962957476515 4.6680484906096567 Ba
atom 2.5034481478738786 2.5034481478738924 2.4478285314870041 Zr
atom 7.5103444436218494 2.5034481478738884 2.4478285314869752 Zr
atom 2.5034481478738790 7.5103444436218556 2.4478285314869828 Zr
atom 7.5103444436218387 7.5103444436218467 2.4478285314869805 Zr
atom 2.5034481478737538 2.5034481478736463 -0.1067269434722062 S
atom 7.5103444436217757 2.5034481478737161 -0.1067269434722443 S
atom 2.5034481478737658 7.5103444436218059 -0.1067269434722356 S
atom 7.5103444436217197 7.5103444436217552 -0.1067269434722750 S
atom 2.5034481478736628 2.5034481478737542 5.0023840064463450 S
atom 7.5103444436218005 2.5034481478737152 5.0023840064464551 S
atom 2.5034481478736716 7.5103444436217615 5.0023840064464142 S
atom 7.5103444436218005 7.5103444436217552 5.0023840064463583 S
atom 2.5034481478738924 -0.0000000000000840 2.4478285314868793 S
atom 7.5103444436217899 -0.0000000000000572 2.4478285314869881 S
atom 2.5034481478738928 5.0068962957478469 2.4478285314870325 S
atom 7.5103444436218059 5.0068962957478318 2.4478285314869792 S
atom -0.0000000000000648 2.5034481478738932 2.4478285314870343 S
atom 5.0068962957478478 2.5034481478738959 2.4478285314869019 S
atom -0.0000000000000683 7.5103444436217774 2.4478285314870218 S
atom 5.0068962957478602 7.5103444436217623 2.4478285314868717 S
atom 2.5034481478737565 2.5034481478737534 8.0606598731219066 Ba
atom 7.5103444436217934 2.5034481478737387 8.0606598731220878 Ba
atom 2.5034481478737711 7.5103444436217828 8.0606598731220220 Ba
atom 7.5103444436218272 7.5103444436217819 8.0606598731221624 Ba
atom 2.5034481478738022 2.5034481478737534 12.5010997913676878 Ba
atom 7.5103444436217677 2.5034481478737538 12.5010997913673965 Ba
atom 2.5034481478737978 7.5103444436217597 12.5010997913674000 Ba
atom 7.5103444436217677 7.5103444436217641 12.5010997913674107 Ba
atom 5.0068962957476870 5.0068962957476018 10.2808798322448727 Zr
atom 10.0137925914957471 5.0068962957476622 10.2808798322449295 Zr
atom 5.0068962957475769 10.0137925914956334 10.2808798322449260 Zr
atom 10.0137925914956227 10.0137925914957151 10.2808798322449473 Zr
atom 5.0068962957477723 5.0068962957477892 7.7263243572855140 S
atom 10.0137925914958803 5.0068962957477705 7.7263243572854963 S
atom 5.0068962957477652 10.0137925914958696 7.7263243572855487 S
atom 10.0137925914958750 10.0137925914958785 7.7263243572853009 S
atom 5.0068962957477208 5.0068962957477723 12.8354353072041896 S
atom 10.0137925914958892 5.0068962957477634 12.8354353072038556 S
atom 5.0068962957477794 10.0137925914958785 12.8354353072038574 S
atom 10.0137925914958750 10.0137925914958803 12.8354353072042748 S
atom 5.0068962957476915 2.5034481478737267 10.2808798322451693 S
atom 10.0137925914958448 2.5034481478736885 10.2808798322452279 S
atom 5.0068962957476630 7.5103444436216122 10.2808798322452351 S
atom 10.0137925914958448 7.5103444436217419 10.2808798322452262 S
atom 2.5034481478737711 5.0068962957476302 10.2808798322451587 S
atom 7.5103444436216993 5.0068962957476604 10.2808798322452368 S
atom 2.5034481478736574 10.0137925914958448 10.2808798322452297 S
atom 7.5103444436216797 10.0137925914958306 10.2808798322452297 S
