#=======================================================
# FHI-aims file: full_relax/full_relax_RP_7_000_000.in
# Created using the Atomic Simulation Environment (ASE)
# Mon Mar 24 15:34:44 2025
#=======================================================
lattice_vector 10.0667446418958981 -0.0000000000000000 0.0000000000000003 
lattice_vector -0.0000000000000000 10.0667446418958555 0.0000000000000004 
lattice_vector 0.0000000000000021 0.0000000000000030 75.8517698901541308 
atom 0.0000000000020119 -0.0000000000024311 0.2866297210666582 Ba
atom 5.0333723209457899 -0.0000000000037635 0.2866297210694820 Ba
atom 0.0000000000021789 5.0333723209495647 0.2866297210696274 Ba
atom 5.0333723209455794 5.0333723209509103 0.2866297210901777 Ba
atom -0.0000000000002688 -0.0000000000004022 5.0601244490031920 Ba
atom 5.0333723209482466 0.0000000000002887 5.0601244490032249 Ba
atom -0.0000000000004004 5.0333723209478132 5.0601244490032773 Ba
atom 5.0333723209482564 5.0333723209470458 5.0601244490025996 Ba
atom 2.5166861604725259 2.5166861604722617 2.3099934309149819 Zr
atom 7.5500584814219369 2.5166861604722510 2.3099934309273671 Zr
atom 2.5166861604724291 7.5500584814225666 2.3099934309145094 Zr
atom 7.5500584814223561 7.5500584814220906 2.3099934309139423 Zr
atom 2.5166861604736797 2.5166861604735642 7.3886053192033323 Zr
atom 7.5500584814218943 2.5166861604736974 7.3886053191975360 Zr
atom 2.5166861604740918 7.5500584814215896 7.3886053191950936 Zr
atom 7.5500584814214831 7.5500584814213809 7.3886053192007699 Zr
atom 2.5166861604730317 2.5166861604739079 -0.1813860335184105 S
atom 7.5500584814225302 2.5166861604729918 -0.1813860335019876 S
atom 2.5166861604752735 7.5500584814210852 -0.1813860335191760 S
atom 7.5500584814201357 7.5500584814217175 -0.1813860335205713 S
atom 2.5166861604749373 2.5166861604730606 4.8980576099063260 S
atom 7.5500584814204244 2.5166861604728159 4.8980576099014153 S
atom 2.5166861604717665 7.5500584814219662 4.8980576099029740 S
atom 7.5500584814236484 7.5500584814219582 4.8980576099066528 S
atom 2.5166861604737916 -0.0000000000009550 2.4404832743695177 S
atom 7.5500584814212113 -0.0000000000039273 2.4404832743679044 S
atom 2.5166861604737689 5.0333723209488461 2.4404832743700156 S
atom 7.5500584814214466 5.0333723209525250 2.4404832743671268 S
atom 2.5166861604741513 0.0000000000003667 7.4231949592675388 S
atom 7.5500584814215381 0.0000000000010361 7.4231949592681490 S
atom 2.5166861604736335 5.0333723209470600 7.4231949592667918 S
atom 7.5500584814220844 5.0333723209464312 7.4231949592675690 S
atom 0.0000000000035289 2.5166861604735087 2.4404832743692002 S
atom 5.0333723209470671 2.5166861604732635 2.4404832743651284 S
atom 0.0000000000019503 7.5500584814213401 2.4404832743693259 S
atom 5.0333723209475121 7.5500584814214582 2.4404832743709290 S
atom -0.0000000000005654 2.5166861604731454 7.4231949592655733 S
atom 5.0333723209486978 2.5166861604739590 7.4231949592691100 S
atom 0.0000000000005072 7.5500584814219156 7.4231949592701190 S
atom 5.0333723209479624 7.5500584814211038 7.4231949592653637 S
atom -0.0000000000003728 0.0000000000009625 9.9936287205546623 Ba
atom 5.0333723209480619 0.0000000000004601 9.9936287205546126 Ba
atom -0.0000000000003484 5.0333723209465786 9.9936287205548151 Ba
atom 5.0333723209481436 5.0333723209469277 9.9936287205547281 Ba
atom 0.0000000000000897 0.0000000000003831 14.9727592935504248 Ba
atom 5.0333723209477768 0.0000000000005040 14.9727592935502347 Ba
atom 0.0000000000000702 5.0333723209469934 14.9727592935501512 Ba
atom 5.0333723209476329 5.0333723209468655 14.9727592935501246 Ba
atom 2.5166861604736295 2.5166861604737703 12.4296403815105041 Zr
atom 7.5500584814219076 2.5166861604734323 12.4296403815098984 Zr
atom 2.5166861604742081 7.5500584814210869 12.4296403815111951 Zr
atom 7.5500584814211038 7.5500584814215479 12.4296403815100760 Zr
atom 2.5166861604739412 2.5166861604733857 17.4658680668111082 Zr
atom 7.5500584814219041 2.5166861604738942 17.4658680668191515 Zr
atom 2.5166861604739754 7.5500584814213783 17.4658680668179116 Zr
atom 7.5500584814215328 7.5500584814212521 17.4658680668182420 Zr
atom 2.5166861604717972 2.5166861604737480 9.9252461257900766 S
atom 7.5500584814239131 2.5166861604743427 9.9252461257842679 S
atom 2.5166861604762465 7.5500584814212086 9.9252461257874884 S
atom 7.5500584814194323 7.5500584814206153 9.9252461257865612 S
atom 2.5166861604766364 2.5166861604739275 14.9521915292266918 S
atom 7.5500584814191791 2.5166861604728896 14.9521915292289069 S
atom 2.5166861604713091 7.5500584814209315 14.9521915292321275 S
atom 7.5500584814242799 7.5500584814221190 14.9521915292309764 S
atom 2.5166861604762598 -0.0000000000006444 12.4445155619865915 S
atom 7.5500584814192937 -0.0000000000001898 12.4445155619867851 S
atom 2.5166861604713251 5.0333723209485015 12.4445155619867762 S
atom 7.5500584814242400 5.0333723209479304 12.4445155619876484 S
atom 2.5166861604791846 -0.0000000000012225 17.4658680668173432 S
atom 7.5500584814165945 -0.0000000000011052 17.4658680668176807 S
atom 2.5166861604687583 5.0333723209496659 17.4658680668177659 S
atom 7.5500584814269969 5.0333723209485841 17.4658680668164337 S
atom 0.0000000000005617 2.5166861604711670 12.4445155619897054 S
atom 5.0333723209479011 2.5166861604757527 12.4445155619850425 S
atom 0.0000000000000384 7.5500584814237657 12.4445155619839092 S
atom 5.0333723209488719 7.5500584814191791 12.4445155619894123 S
atom -0.0000000000008652 2.5166861604683533 17.4658680668162631 S
atom 5.0333723209485450 2.5166861604785495 17.4658680668215425 S
atom 0.0000000000006686 7.5500584814265528 17.4658680668183095 S
atom 5.0333723209477617 7.5500584814163538 17.4658680668139041 S
atom -0.0000000000009664 -0.0000000000007762 19.9589768400829328 Ba
atom 5.0333723209486187 -0.0000000000010811 19.9589768400828405 Ba
atom -0.0000000000009517 5.0333723209483026 19.9589768400828547 Ba
atom 5.0333723209485397 5.0333723209485459 19.9589768400828227 Ba
atom 0.0000000000003483 -0.0000000000013456 24.9381074130775708 Ba
atom 5.0333723209474046 -0.0000000000011725 24.9381074130775495 Ba
atom 0.0000000000004011 5.0333723209487076 24.9381074130779190 Ba
atom 5.0333723209473842 5.0333723209483896 24.9381074130774998 Ba
atom 2.5166861604740540 2.5166861604736788 22.5020957521195690 Zr
atom 7.5500584814216687 2.5166861604732151 22.5020957521126981 Zr
atom 2.5166861604737614 7.5500584814206251 22.5020957521165244 Zr
atom 7.5500584814216465 7.5500584814215204 22.5020957521159168 Zr
atom 2.5166861604742414 2.5166861604732413 27.5431308144330451 Zr
atom 7.5500584814218374 2.5166861604738471 27.5431308144314677 Zr
atom 2.5166861604736392 7.5500584814217806 27.5431308144256626 Zr
atom 7.5500584814215967 7.5500584814211775 27.5431308144305937 Zr
atom 2.5166861604710959 2.5166861604726671 19.9795446043980753 S
atom 7.5500584814248484 2.5166861604739923 19.9795446044007292 S
atom 2.5166861604749640 7.5500584814220355 19.9795446044102114 S
atom 7.5500584814205736 7.5500584814209910 19.9795446044060157 S
atom 2.5166861604766027 2.5166861604740967 25.0064900078400996 S
atom 7.5500584814193594 2.5166861604723882 25.0064900078350938 S
atom 2.5166861604741322 7.5500584814207876 25.0064900078354562 S
atom 7.5500584814213321 7.5500584814225675 25.0064900078326566 S
atom 2.5166861604620547 0.0000000000028443 22.4872205716503508 S
atom 7.5500584814335738 0.0000000000018660 22.4872205716506564 S
atom 2.5166861604854653 5.0333723209463939 22.4872205716495550 S
atom 7.5500584814101597 5.0333723209464489 22.4872205716521840 S
atom 2.5166861604808051 -0.0000000000007111 27.5085411743662895 S
atom 7.5500584814149629 -0.0000000000026431 27.5085411743686556 S
atom 2.5166861604670654 5.0333723209481214 27.5085411743671386 S
atom 7.5500584814286862 5.0333723209503924 27.5085411743671386 S
atom 0.0000000000002253 2.5166861604853610 22.4872205716538929 S
atom 5.0333723209478096 2.5166861604611981 22.4872205716491642 S
atom 0.0000000000003100 7.5500584814092733 22.4872205716497753 S
atom 5.0333723209484127 7.5500584814334335 22.4872205716511679 S
atom 0.0000000000018179 2.5166861604666035 27.5085411743650781 S
atom 5.0333723209454870 2.5166861604804063 27.5085411743686663 S
atom 0.0000000000003601 7.5500584814283638 27.5085411743672772 S
atom 5.0333723209485557 7.5500584814145473 27.5085411743680091 S
atom 0.0000000000004291 -0.0000000000002209 29.8716116846322386 Ba
atom 5.0333723209473975 -0.0000000000002461 29.8716116846320574 Ba
atom 0.0000000000001442 5.0333723209475858 29.8716116846318904 Ba
atom 5.0333723209476711 5.0333723209475822 29.8716116846319686 Ba
atom -0.0000000000013912 -0.0000000000000288 34.6451064125569204 Ba
atom 5.0333723209492724 -0.0000000000000459 34.6451064125580146 Ba
atom -0.0000000000001619 5.0333723209471364 34.6451064125612902 Ba
atom 5.0333723209477963 5.0333723209472634 34.6451064125536305 Ba
atom 2.5166861604727258 2.5166861604733994 32.6217427027325257 Zr
atom 7.5500584814221030 2.5166861604732333 32.6217427027428926 Zr
atom 2.5166861604734119 7.5500584814206810 32.6217427027367748 Zr
atom 7.5500584814225729 7.5500584814209759 32.6217427027370732 Zr
atom 2.5166861604717599 2.5166861604720112 30.0336785237334389 S
atom 7.5500584814238776 2.5166861604750239 30.0336785237240065 S
atom 2.5166861604725059 7.5500584814227736 30.0336785237285362 S
atom 7.5500584814232283 7.5500584814197271 30.0336785237339399 S
atom 2.5166861604752508 2.5166861604750883 35.1131221671614568 S
atom 7.5500584814203355 2.5166861604715556 35.1131221671645051 S
atom 2.5166861604752699 7.5500584814196365 35.1131221671658977 S
atom 7.5500584814206961 7.5500584814230249 35.1131221671601850 S
atom 2.5166861604740718 0.0000000000012754 32.4912528592518584 S
atom 7.5500584814213436 0.0000000000026208 32.4912528592506078 S
atom 2.5166861604737534 5.0333723209478780 32.4912528592505936 S
atom 7.5500584814219032 5.0333723209459791 32.4912528592520786 S
atom -0.0000000000015718 2.5166861604740163 32.4912528592515315 S
atom 5.0333723209511660 2.5166861604722066 32.4912528592506646 S
atom 0.0000000000006658 7.5500584814205789 32.4912528592511904 S
atom 5.0333723209466941 7.5500584814223641 32.4912528592514818 S
atom 2.5166861604729664 2.5166861604711688 38.2125146661478183 Ba
atom 7.5500584814227665 2.5166861604750981 38.2125146661424182 Ba
atom 2.5166861604739492 7.5500584814235498 38.2125146661446138 Ba
atom 7.5500584814219227 7.5500584814197547 38.2125146661460136 Ba
atom 2.5166861604727582 2.5166861604745723 42.9860093940822168 Ba
atom 7.5500584814230374 2.5166861604729549 42.9860093940829984 Ba
atom 2.5166861604718251 7.5500584814203666 42.9860093940824086 Ba
atom 7.5500584814237390 7.5500584814218019 42.9860093940828918 Ba
atom 5.0333723209469392 5.0333723209468317 40.2358783759982259 Zr
atom 10.0667446418952888 5.0333723209471986 40.2358783759996399 Zr
atom 5.0333723209468157 10.0667446418949709 40.2358783759916889 Zr
atom 10.0667446418957152 10.0667446418947097 40.2358783760024039 Zr
atom 5.0333723209472669 5.0333723209471204 45.3144902642598026 Zr
atom 10.0667446418950473 5.0333723209470289 45.3144902642709724 Zr
atom 5.0333723209475689 10.0667446418939370 45.3144902642734735 Zr
atom 10.0667446418953457 10.0667446418953599 45.3144902642509493 Zr
atom 5.0333723209500576 5.0333723209485290 37.7444989115895240 S
atom 10.0667446418935782 5.0333723209471852 37.7444989115717178 S
atom 5.0333723209436210 10.0667446418937470 37.7444989115759668 S
atom 10.0667446418999571 10.0667446418950863 37.7444989115867955 S
atom 5.0333723209451140 5.0333723209426831 42.8239425549827786 S
atom 10.0667446418980884 5.0333723209469152 42.8239425549734918 S
atom 5.0333723209539567 10.0667446418991844 42.8239425549856563 S
atom 10.0667446418892723 10.0667446418954736 42.8239425549740957 S
atom 5.0333723209474677 2.5166861604734527 40.3663682194356213 S
atom 10.0667446418956548 2.5166861604736503 40.3663682194401403 S
atom 5.0333723209474517 7.5500584814228526 40.3663682194439630 S
atom 10.0667446418954043 7.5500584814224849 40.3663682194422080 S
atom 5.0333723209474570 2.5166861604746074 45.3490799043542339 S
atom 10.0667446418956281 2.5166861604722039 45.3490799043533528 S
atom 5.0333723209479118 7.5500584814234726 45.3490799043415507 S
atom 10.0667446418952089 7.5500584814234344 45.3490799043521804 S
atom 2.5166861604763211 5.0333723209469428 40.3663682194378239 S
atom 7.5500584814230773 5.0333723209472296 40.3663682194426769 S
atom 2.5166861604769037 10.0667446418954274 40.3663682194451496 S
atom 7.5500584814216030 10.0667446418948110 40.3663682194364668 S
atom 2.5166861604749813 5.0333723209462935 45.3490799043519246 S
atom 7.5500584814238358 5.0333723209478309 45.3490799043485495 S
atom 2.5166861604694999 10.0667446418958448 45.3490799043445350 S
atom 7.5500584814279712 10.0667446418943207 45.3490799043556976 S
atom 2.5166861604744368 2.5166861604741313 47.9195136656320457 Ba
atom 7.5500584814210541 2.5166861604745256 47.9195136656313068 Ba
atom 2.5166861604752429 7.5500584814204190 47.9195136656327492 Ba
atom 7.5500584814203915 7.5500584814201561 47.9195136656319391 Ba
atom 2.5166861604775175 2.5166861604745292 52.8986442386272415 Ba
atom 7.5500584814182847 2.5166861604745168 52.8986442386282789 Ba
atom 2.5166861604768727 7.5500584814202867 52.8986442386270639 Ba
atom 7.5500584814185965 7.5500584814203924 52.8986442386274973 Ba
atom 5.0333723209476284 5.0333723209467118 50.3555253265937495 Zr
atom 10.0667446418950632 5.0333723209470067 50.3555253265844982 Zr
atom 5.0333723209471355 10.0667446418944166 50.3555253265910778 Zr
atom 10.0667446418956281 10.0667446418948803 50.3555253265822174 Zr
atom 5.0333723209473771 5.0333723209472438 55.3917530118840347 Zr
atom 10.0667446418953652 5.0333723209476124 55.3917530119059407 Zr
atom 5.0333723209470902 10.0667446418957010 55.3917530119025230 Zr
atom 10.0667446418953812 10.0667446418945090 55.3917530119140409 Zr
atom 5.0333723209486543 5.0333723209559489 47.8511310708681847 S
atom 10.0667446418946049 5.0333723209472252 47.8511310708478987 S
atom 5.0333723209397494 10.0667446418857658 47.8511310708607169 S
atom 10.0667446419033784 10.0667446418951094 47.8511310708623370 S
atom 5.0333723209482519 5.0333723209364196 52.8780764743092675 S
atom 10.0667446418948998 5.0333723209483434 52.8780764743090685 S
atom 5.0333723209532479 10.0667446419059043 52.8780764742998812 S
atom 10.0667446418897004 10.0667446418937168 52.8780764743180001 S
atom 5.0333723209460333 2.5166861604772492 50.3704005070566581 S
atom 10.0667446418970847 2.5166861604785065 50.3704005070680338 S
atom 5.0333723209490557 7.5500584814205025 50.3704005070733203 S
atom 10.0667446418941147 7.5500584814175973 50.3704005070650638 S
atom 5.0333723209481640 2.5166861604711559 55.3917530119041004 S
atom 10.0667446418949105 2.5166861604706865 55.3917530118861521 S
atom 5.0333723209470538 7.5500584814232692 55.3917530118853918 S
atom 10.0667446418960100 7.5500584814249585 55.3917530118916588 S
atom 2.5166861604734025 5.0333723209482315 50.3704005070651135 S
atom 7.5500584814244638 5.0333723209457046 50.3704005070661651 S
atom 2.5166861604744923 10.0667446418936777 50.3704005070707694 S
atom 7.5500584814234024 10.0667446418961823 50.3704005070598271 S
atom 2.5166861604760657 5.0333723209467154 55.3917530118930586 S
atom 7.5500584814220550 5.0333723209478523 55.3917530118942310 S
atom 2.5166861604768749 10.0667446418959212 55.3917530118863866 S
atom 7.5500584814223188 10.0667446418947470 55.3917530118940036 S
atom 2.5166861604722581 2.5166861604706980 57.8848617851599414 Ba
atom 7.5500584814236991 2.5166861604708903 57.8848617851600338 Ba
atom 2.5166861604725099 7.5500584814238785 57.8848617851601546 Ba
atom 7.5500584814230578 7.5500584814239167 57.8848617851598206 Ba
atom 2.5166861604716142 2.5166861604708171 62.8639923581561888 Ba
atom 7.5500584814243421 2.5166861604710196 62.8639923581558051 Ba
atom 2.5166861604710657 7.5500584814239549 62.8639923581563309 Ba
atom 7.5500584814251530 7.5500584814239735 62.8639923581562741 Ba
atom 5.0333723209468939 5.0333723209466017 60.4279806972010931 Zr
atom 10.0667446418957027 5.0333723209477190 60.4279806972053777 Zr
atom 5.0333723209478638 10.0667446418949567 60.4279806972008018 Zr
atom 10.0667446418950988 10.0667446418952853 60.4279806971977678 Zr
atom 5.0333723209473895 5.0333723209471000 65.4690157595343294 Zr
atom 10.0667446418956121 5.0333723209467349 65.4690157595117626 Zr
atom 5.0333723209476622 10.0667446418939885 65.4690157595017439 Zr
atom 10.0667446418951645 10.0667446418949549 65.4690157594919953 Zr
atom 5.0333723209453964 5.0333723209571506 57.9054295494728066 S
atom 10.0667446418976443 5.0333723209451202 57.9054295494768994 S
atom 5.0333723209446397 10.0667446418853750 57.9054295494772973 S
atom 10.0667446418984685 10.0667446418973245 57.9054295494960201 S
atom 5.0333723209513499 5.0333723209397014 62.9323749529059810 S
atom 10.0667446418918054 5.0333723209491357 62.9323749529024923 S
atom 5.0333723209482937 10.0667446419021385 62.9323749529054695 S
atom 10.0667446418950259 10.0667446418932602 62.9323749529174847 S
atom 5.0333723209420320 2.5166861604688648 60.4131055167197175 S
atom 10.0667446419010744 2.5166861604696948 60.4131055167278035 S
atom 5.0333723209532062 7.5500584814284570 60.4131055167359250 S
atom 10.0667446418899829 7.5500584814244878 60.4131055167226734 S
atom 5.0333723209485681 2.5166861604859880 65.4344261194493555 S
atom 10.0667446418947133 2.5166861604835793 65.4344261194513876 S
atom 5.0333723209466390 7.5500584814116154 65.4344261194398626 S
atom 10.0667446418966584 7.5500584814131555 65.4344261194545140 S
atom 2.5166861604720987 5.0333723209531325 60.4131055167294946 S
atom 7.5500584814268592 5.0333723209413144 60.4131055167259277 S
atom 2.5166861604713717 10.0667446418894144 60.4131055167264748 S
atom 7.5500584814259213 10.0667446419011792 60.4131055167239666 S
atom 2.5166861604868536 5.0333723209464907 65.4344261194421080 S
atom 7.5500584814109510 5.0333723209477084 65.4344261194472239 S
atom 2.5166861604833675 10.0667446418955322 65.4344261194539456 S
atom 7.5500584814145473 10.0667446418942461 65.4344261194525529 S
atom 2.5166861604767532 2.5166861604794120 67.7974966297094710 Ba
atom 7.5500584814187768 2.5166861604784816 67.7974966297108210 Ba
atom 2.5166861604778101 7.5500584814154159 67.7974966297089310 Ba
atom 7.5500584814178726 7.5500584814163085 67.7974966297093289 Ba
atom 2.5166861604725188 2.5166861604707216 72.5709913576406080 Ba
atom 7.5500584814232932 2.5166861604735500 72.5709913576208407 Ba
atom 2.5166861604716808 7.5500584814241227 72.5709913576440897 Ba
atom 7.5500584814241023 7.5500584814211962 72.5709913576437060 Ba
atom 5.0333723209468157 5.0333723209480823 70.5476276477909039 Zr
atom 10.0667446418960278 5.0333723209481693 70.5476276478200646 Zr
atom 5.0333723209468584 10.0667446418937772 70.5476276478214999 Zr
atom 10.0667446418965856 10.0667446418938731 70.5476276478248252 Zr
atom 5.0333723209438874 5.0333723209511936 67.9595634688348014 S
atom 10.0667446418995539 5.0333723209455394 67.9595634687824059 S
atom 5.0333723209490469 10.0667446418906064 67.9595634687879624 S
atom 10.0667446418944824 10.0667446418965536 67.9595634687732826 S
atom 5.0333723209514867 5.0333723209443857 73.0390071121977371 S
atom 10.0667446418922140 5.0333723209470307 73.0390071122244677 S
atom 5.0333723209464400 10.0667446418977509 73.0390071122333353 S
atom 10.0667446418972748 10.0667446418953528 73.0390071122413076 S
atom 5.0333723209494954 2.5166861604640092 70.4171378043389780 S
atom 10.0667446418938962 2.5166861604714672 70.4171378043396459 S
atom 5.0333723209470511 7.5500584814319174 70.4171378043383811 S
atom 10.0667446418963831 7.5500584814244016 70.4171378043360079 S
atom 2.5166861604648236 5.0333723209478203 70.4171378043415359 S
atom 7.5500584814332505 5.0333723209451442 70.4171378043396032 S
atom 2.5166861604682502 10.0667446418944557 70.4171378043335352 S
atom 7.5500584814283371 10.0667446418971753 70.4171378043389069 S
