#=======================================================
# FHI-aims file: full_relax/full_relax_RP_2_000_000.in
# Created using the Atomic Simulation Environment (ASE)
# Fri Mar 14 11:17:22 2025
#=======================================================
lattice_vector 10.0581950534885323 -0.0000000000000000 0.0000000000000001 
lattice_vector -0.0000000000000000 10.0581950534885323 -0.0000000000000000 
lattice_vector 0.0000000000000002 -0.0000000000000000 25.6097816532655251 
atom -0.0000000000000675 -0.0000000000000283 0.2780874862684719 Ba
atom 5.0290975267440663 -0.0000000000000293 0.2780874862684291 Ba
atom -0.0000000000000148 5.0290975267441302 0.2780874862684435 Ba
atom 5.0290975267440263 5.0290975267440752 0.2780874862683386 Ba
atom 0.0000000000000096 0.0000000000000044 4.9249580102429880 Ba
atom 5.0290975267439757 0.0000000000000029 4.9249580102430244 Ba
atom -0.0000000000000001 5.0290975267440574 4.9249580102429595 Ba
atom 5.0290975267440556 5.0290975267441498 4.9249580102429116 Ba
atom 2.5145487633719474 2.5145487633720438 2.3619507965076849 Zr
atom 7.5436462901162233 2.5145487633720878 2.3619507965073612 Zr
atom 2.5145487633719941 7.5436462901163130 2.3619507965075832 Zr
atom 7.5436462901162136 7.5436462901163868 2.3619507965074926 Zr
atom 2.5145487633719958 2.5145487633720327 7.4879652239788648 Zr
atom 7.5436462901162225 2.5145487633720589 7.4879652239789909 Zr
atom 2.5145487633719581 7.5436462901163051 7.4879652239789225 Zr
atom 7.5436462901161887 7.5436462901162944 7.4879652239790255 Zr
atom 2.5145487633719692 2.5145487633720243 -0.1456572717660320 S
atom 7.5436462901163139 2.5145487633720127 -0.1456572717661994 S
atom 2.5145487633720136 7.5436462901162393 -0.1456572717661418 S
atom 7.5436462901163051 7.5436462901162757 -0.1456572717662152 S
atom 2.5145487633719790 2.5145487633719914 4.9249580102436221 S
atom 7.5436462901162562 2.5145487633720149 4.9249580102436425 S
atom 2.5145487633719283 7.5436462901162900 4.9249580102435511 S
atom 7.5436462901162971 7.5436462901162580 4.9249580102431434 S
atom 2.5145487633719874 -0.0000000000000399 2.4612958490180890 S
atom 7.5436462901162766 -0.0000000000000225 2.4612958490182595 S
atom 2.5145487633719541 5.0290975267440619 2.4612958490180903 S
atom 7.5436462901162722 5.0290975267439881 2.4612958490182435 S
atom 2.5145487633720141 -0.0000000000001026 7.3886201714682196 S
atom 7.5436462901162651 -0.0000000000001608 7.3886201714680579 S
atom 2.5145487633719519 5.0290975267441373 7.3886201714680295 S
atom 7.5436462901163157 5.0290975267442644 7.3886201714680704 S
atom 0.0000000000000022 2.5145487633720887 2.4612958490181125 S
atom 5.0290975267442235 2.5145487633720132 2.4612958490181027 S
atom 0.0000000000000351 7.5436462901163344 2.4612958490182506 S
atom 5.0290975267441249 7.5436462901163326 2.4612958490182826 S
atom -0.0000000000001074 2.5145487633720371 7.3886201714680997 S
atom 5.0290975267441684 2.5145487633720225 7.3886201714680855 S
atom -0.0000000000001089 7.5436462901163823 7.3886201714680944 S
atom 5.0290975267441782 7.5436462901162917 7.3886201714680801 S
atom -0.0000000000000544 -0.0000000000000221 9.5718285342187919 Ba
atom 5.0290975267441267 -0.0000000000000575 9.5718285342189748 Ba
atom -0.0000000000000123 5.0290975267440592 9.5718285342190619 Ba
atom 5.0290975267441373 5.0290975267440654 9.5718285342191152 Ba
atom 2.5145487633719950 2.5145487633719834 9.9955732922528551 S
atom 7.5436462901162900 2.5145487633719479 9.9955732922529297 S
atom 2.5145487633720447 7.5436462901162669 9.9955732922528977 S
atom 7.5436462901162464 7.5436462901162811 9.9955732922530149 S
atom 2.5145487633719292 2.5145487633720216 13.0829783129003854 Ba
atom 7.5436462901162376 2.5145487633720416 13.0829783129002255 Ba
atom 2.5145487633719577 7.5436462901161958 13.0829783129003481 Ba
atom 7.5436462901162420 7.5436462901161452 13.0829783129004333 Ba
atom 2.5145487633720434 2.5145487633720611 17.7298488368762506 Ba
atom 7.5436462901162420 2.5145487633720265 17.7298488368761014 Ba
atom 2.5145487633720798 7.5436462901163654 17.7298488368762648 Ba
atom 7.5436462901162731 7.5436462901163512 17.7298488368761014 Ba
atom 5.0290975267441871 5.0290975267441169 15.1668416231396748 Zr
atom 10.0581950534885305 5.0290975267441462 15.1668416231394136 Zr
atom 5.0290975267441809 10.0581950534882445 15.1668416231395149 Zr
atom 10.0581950534884115 10.0581950534883973 15.1668416231396126 Zr
atom 5.0290975267442093 5.0290975267441480 20.2928560506123894 Zr
atom 10.0581950534885038 5.0290975267441373 20.2928560506123397 Zr
atom 5.0290975267442546 10.0581950534883280 20.2928560506123290 Zr
atom 10.0581950534885980 10.0581950534883919 20.2928560506123894 Zr
atom 5.0290975267442661 5.0290975267442031 12.6592335548658923 S
atom 10.0581950534884594 5.0290975267441302 12.6592335548659527 S
atom 5.0290975267441054 10.0581950534883280 12.6592335548662529 S
atom 10.0581950534884577 10.0581950534883600 12.6592335548662387 S
atom 5.0290975267439206 5.0290975267441871 17.7298488368753979 S
atom 10.0581950534884665 5.0290975267441391 17.7298488368761937 S
atom 5.0290975267440983 10.0581950534881699 17.7298488368764389 S
atom 10.0581950534884470 10.0581950534883653 17.7298488368754938 S
atom 5.0290975267441320 2.5145487633719212 15.2661866756511984 S
atom 10.0581950534883671 2.5145487633721975 15.2661866756513458 S
atom 5.0290975267441507 7.5436462901164925 15.2661866756511859 S
atom 10.0581950534883919 7.5436462901159098 15.2661866756514879 S
atom 5.0290975267442732 2.5145487633722508 20.1935109981011500 S
atom 10.0581950534884115 2.5145487633720349 20.1935109981007130 S
atom 5.0290975267442199 7.5436462901162091 20.1935109981007841 S
atom 10.0581950534884275 7.5436462901163104 20.1935109981009582 S
atom 2.5145487633719217 5.0290975267441596 15.2661866756513991 S
atom 7.5436462901159844 5.0290975267441871 15.2661866756511646 S
atom 2.5145487633720269 10.0581950534882960 15.2661866756512161 S
atom 7.5436462901163042 10.0581950534883457 15.2661866756512250 S
atom 2.5145487633720407 5.0290975267441995 20.1935109981012459 S
atom 7.5436462901159551 5.0290975267442057 20.1935109981008409 S
atom 2.5145487633719212 10.0581950534883848 20.1935109981009759 S
atom 7.5436462901162393 10.0581950534883298 20.1935109981009759 S
atom 2.5145487633719732 2.5145487633720029 22.3767193608499575 Ba
atom 7.5436462901161603 2.5145487633720816 22.3767193608499788 Ba
atom 2.5145487633719434 7.5436462901162482 22.3767193608500499 Ba
atom 7.5436462901161807 7.5436462901162509 22.3767193608499042 Ba
atom 5.0290975267443212 5.0290975267440983 22.8004641188865520 S
atom 10.0581950534883315 5.0290975267441169 22.8004641188863815 S
atom 5.0290975267441134 10.0581950534885127 22.8004641188865307 S
atom 10.0581950534884665 10.0581950534883617 22.8004641188863246 S
