lattice_vector   -2.4772084300000001     2.4772084300000001    12.6664911199999999
lattice_vector    2.4772084300000001    -2.4772084300000001    12.6664911199999999
lattice_vector    2.4772084300000001     2.4772084300000001   -12.6664911199999999
atom_frac     0.0000000000000000     0.0000000000000000     0.0000000000000000 Ba
atom_frac     0.1806730666893619     0.1806730666893623     0.0002833065179854 Ba
atom_frac     0.8193269333106383     0.8193269333106379     0.9997166934820146 Ba
atom_frac     0.5000000000000000     0.5000000000000000     0.0000000000000000 S
atom_frac     0.3013251451693261     0.3013251451693273     0.0008218928935480 S
atom_frac     0.6986748548306738     0.6986748548306726     0.9991781071064521 S
atom_frac     0.9041712109608364     0.4049106661624767     0.5010345507795345 S
atom_frac     0.4049106661624741     0.9041712109608369     0.5010345507795323 S
atom_frac     0.0958287890391635     0.5950893338375232     0.4989654492204656 S
atom_frac     0.5950893338375258     0.0958287890391631     0.4989654492204678 S
atom_frac     0.3993268955423518     0.3993268955423514     0.9997101868921535 Zr
atom_frac     0.6006731044576481     0.6006731044576485     0.0002898131078464 Zr
