lattice_vector   -2.4810521300000001     2.4810521300000001    17.6247548199999997
lattice_vector    2.4810521300000001    -2.4810521300000001    17.6247548199999997
lattice_vector    2.4810521300000001     2.4810521300000001   -17.6247548199999997
atom_frac     0.4325566278424579     0.4325566278424579     0.0000001510018534 Ba
atom_frac     0.5674433721575420     0.5674433721575420     0.9999998489981466 Ba
atom_frac     0.3005120519686197     0.3005120519686197     0.0000001525044619 Ba
atom_frac     0.6994879480313803     0.6994879480313803     0.9999998474955381 Ba
atom_frac     0.5000000000000000     0.0000000000000000     0.5000000000000000 S
atom_frac     0.0000000000000000     0.5000000000000000     0.5000000000000000 S
atom_frac     0.9293077058462416     0.9293077058462416     0.0000099195764597 S
atom_frac     0.0706922941537582     0.0706922941537582     0.9999900804235403 S
atom_frac     0.7864454813848596     0.7864454813848596     0.0000077938594767 S
atom_frac     0.2135545186151405     0.2135545186151405     0.9999922061405233 S
atom_frac     0.8608124895581111     0.3607642874850370     0.4999689646944825 S
atom_frac     0.3607642874850370     0.8608124895581111     0.4999689646944825 S
atom_frac     0.1391875104418891     0.6392357125149629     0.5000310353055175 S
atom_frac     0.6392357125149630     0.1391875104418891     0.5000310353055176 S
atom_frac     0.0000000000000000     0.0000000000000000     0.0000000000000000 Zr
atom_frac     0.8565913955985149     0.8565913955985149     0.0000156413352655 Zr
atom_frac     0.1434086044014851     0.1434086044014851     0.9999843586647346 Zr
