#=======================================================
# FHI-aims file: geometry-conventional.in
# Created using the Atomic Simulation Environment (ASE)
# Mon Mar 17 17:15:53 2025
#=======================================================
lattice_vector 5.0000000000000000 0.0000000000000000 0.0000000000000000 
lattice_vector 0.0000000000000000 5.0000000000000000 0.0000000000000000 
lattice_vector 0.0000000000000000 0.0000000000000000 16.0000000000000000 
atom_frac 0.0000000000000000 0.0000000000000000 0.8437500000000000 Ba
atom_frac 0.0000000000000000 0.0000000000000000 0.1562500000000000 Ba
atom_frac 0.5000000000000000 0.5000000000000000 0.0000000000000000 Zr
atom_frac 0.5000000000000000 0.5000000000000000 0.8437500000000000 S
atom_frac 0.5000000000000000 0.5000000000000000 0.1562500000000000 S
atom_frac 0.5000000000000000 0.0000000000000000 0.0000000000000000 S
atom_frac 0.0000000000000000 0.5000000000000000 0.0000000000000000 S
atom_frac 0.5000000000000000 0.5000000000000000 0.3437500000000000 Ba
atom_frac 0.5000000000000000 0.5000000000000000 0.6562500000000000 Ba
atom_frac 0.0000000000000000 0.0000000000000000 0.5000000000000000 Zr
atom_frac 0.0000000000000000 0.0000000000000000 0.3437500000000000 S
atom_frac 0.0000000000000000 0.0000000000000000 0.6562500000000000 S
atom_frac 0.0000000000000000 0.5000000000000000 0.5000000000000000 S
atom_frac 0.5000000000000000 0.0000000000000000 0.5000000000000000 S
