#=======================================================
# FHI-aims file: sym_relax_RP_3_14.in
# Created using the Atomic Simulation Environment (ASE)
# Tue Feb 25 12:07:56 2025
#=======================================================
lattice_vector 10.0626485587854333 0.0580394153781218 0.0109323307536157 
lattice_vector 0.0580394153781217 10.0626485587854440 -0.0109323307536157 
lattice_vector 0.0388554634452177 -0.0388554634452177 35.5332610586969437 
atom -0.0063846361236365 -0.1273027201100438 0.2612910937322940 Ba
atom 5.1586269995027676 0.0354043438126969 0.2667572591091020 Ba
atom 0.1563224277991046 5.0377089155163599 0.2558249283554865 Ba
atom 5.0539593509581495 4.9330412669717401 0.2612910937322940 Ba
atom -0.1894511695915593 0.1635134227156648 4.9470755932915811 Ba
atom 4.8678108566770639 0.2184708772806201 4.9525417586683949 Ba
atom -0.1344937150266038 5.2207754489842824 4.9416094279147798 Ba
atom 4.8708928174902280 5.2238574097974562 4.9470755932915811 Ba
atom 2.5163069575546149 2.5391102495965492 2.3615483463782376 Zr
atom 7.5525580168779634 2.5730567372162345 2.3670145117550465 Zr
atom 2.5502534451742980 7.5753613089199039 2.3560821810014301 Zr
atom 7.5766509446363886 7.5994542366783389 2.3615483463782376 Zr
atom 2.5382668817586462 2.5220771053231377 7.4027627205618423 Zr
atom 7.5695911611513669 2.5510968130121991 7.4082288859386525 Zr
atom 2.5672865894477122 7.5534013847158672 7.3972965551850400 Zr
atom 7.5986108688404341 7.5824210924049309 7.4027627205618423 Zr
atom 2.7131237962130363 2.8031822981244248 -0.1325229801974457 S
atom 7.2884859683500878 2.3762398985578082 -0.1270568148206375 S
atom 2.2861813966464233 7.3785444702614740 -0.1379891455742533 S
atom 7.7734677832948229 7.8635262852062056 -0.1325229801974456 S
atom 2.2643602462864210 2.2109246062893049 4.9111242041699006 S
atom 7.8807436601851970 2.8250034484844253 4.9165903695467126 S
atom 2.8784390884815383 7.8273080201880942 4.9056580387931001 S
atom 7.3247042333682080 7.2712685933710954 4.9111242041699006 S
atom 2.6529005681551636 0.0278036181446524 2.1969188589577486 S
atom 7.3587488553824798 0.0613167830025226 2.7362797112743391 S
atom 2.3564442836788153 5.0636213547061875 2.7253473805207253 S
atom 7.7132445552369511 5.0881476052264398 2.1969188589577486 S
atom 2.8794747051661886 0.0032944628045159 7.7087596293915226 S
atom 7.1993636300547639 0.0385551761380981 7.1076981424857895 S
atom 2.1970590583511020 5.0408597478417638 7.0967658117321744 S
atom 7.9398186922479859 5.0636384498863034 7.7087596293915226 S
atom 0.0012160895444087 2.3784237112375597 2.1914526935809375 S
atom 5.0280469117683229 2.7329194110920261 2.7308135458975329 S
atom 0.0257423400646593 7.7352239827956959 2.7198812151439165 S
atom 5.0615600766262023 7.4387676983193343 2.1914526935809375 S
atom 0.0257252448845455 2.1518495742265364 7.7032934640147133 S
atom 5.0508085186327447 2.8923046364197407 7.1022319771089792 S
atom 0.0485039469290843 7.8946092081234207 7.0912996463553686 S
atom 5.0860692319663299 7.2121935613083190 7.7032934640147133 S
atom 0.2056409460270664 -0.1797031991511723 9.8584498478320945 Ba
atom 5.2110274785438939 -0.1766212383380059 9.8639160132089003 Ba
atom 0.2087229068402335 4.8256833333656592 9.8529836824552905 Ba
atom 5.2659849331088493 4.8806407879306217 9.8584498478320945 Ba
atom 0.0225744125591440 0.1111129436745365 14.5442343473913969 Ba
atom 4.9202113357181894 0.0064452951299168 14.5497005127682009 Ba
atom -0.0820932359854750 5.0087498668335773 14.5387681820145911 Ba
atom 5.0829183996409313 5.1714569307563281 14.5442343473913969 Ba
atom 2.5602268059626807 2.5050439610497266 12.4439770947454562 Zr
atom 7.5866243054247775 2.5291368888081678 12.4494432601222726 Zr
atom 2.5843197337211210 7.5314414605118385 12.4385109293686433 Zr
atom 7.6205707930444690 7.5653879481315212 12.4439770947454580 Zr
atom 2.8121735172308724 2.8332296043569754 9.8944012369537813 S
atom 7.2584386621175403 2.2771901775399752 9.8998674023305799 S
atom 2.2561340904138745 7.2794947492436357 9.8889350715769666 S
atom 7.8725175043126585 7.8935735914387557 9.8944012369537813 S
atom 2.3634099673042543 2.2409719125218590 14.9380484213211346 S
atom 7.8506963539526549 2.7259537274665933 14.9435145866979457 S
atom 2.8483917822489877 7.7282582991702604 14.9325822559443235 S
atom 7.4237539543860400 7.3013158996036420 14.9380484213211346 S
atom 2.7200894798384723 -0.0194671440599081 12.0801780606029681 S
atom 7.4259377670657880 0.0140460207979615 12.6195389129195537 S
atom 2.4236331953621275 5.0163505925016310 12.6086065821659385 S
atom 7.7804334669202619 5.0408768430218771 12.0801780606029681 S
atom 0.0484868517489696 2.3112347995542546 12.0747118952261712 S
atom 5.0753176739728731 2.6657304994087210 12.6140727475427461 S
atom 0.0730131022692201 7.6680350711123832 12.6031404167891292 S
atom 5.1088308388307508 7.3715787866360412 12.0747118952261729 S
atom 2.6759064416982383 2.5209850669655340 18.0192757018446663 Ba
atom 7.5706831995089772 2.4134572530726093 18.0247418672214756 Ba
atom 2.5683786278053136 7.4157618247762818 18.0138095364678605 Ba
atom 7.7362504287800267 7.5813290540473233 18.0192757018446628 Ba
atom 2.3949465228593194 2.6954244167235237 22.7092845105901944 Ba
atom 7.3962438497509781 2.6944171719115269 22.7147506759669966 Ba
atom 2.3939392780473168 7.6967217436151900 22.7038183452133602 Ba
atom 7.4552905099411024 7.7557684038053187 22.7092845105901944 Ba
atom 5.0762891796384944 5.0536545363090362 20.1215987385286788 Zr
atom 10.0983577172472732 5.0734185022141265 20.1270649039054881 Zr
atom 5.0960531455436024 10.0757230739178141 20.1161325731518907 Zr
atom 10.1366331667202818 10.1139985233908192 20.1215987385286823 Zr
atom 5.0878666070221472 5.0328213671414286 25.1693932499102964 Zr
atom 10.1191908864148701 5.0618410748304870 25.1748594152870986 Zr
atom 5.1168863147112065 10.0641456465341470 25.1639270845334906 Zr
atom 10.1482105941039453 10.0931653542232098 25.1693932499102964 Zr
atom 4.8188976439501214 4.8494740396389853 17.6287396302857111 S
atom 10.3025382139173178 5.3308100379025110 17.6342057956625489 S
atom 5.3002336422136498 10.3331146096061808 17.6232734649089124 S
atom 9.8792416310319169 9.9098180267207816 17.6287396302857111 S
atom 5.4008040054728204 5.3063336627577460 22.6736860901768154 S
atom 9.8456785907985616 4.7489036763798138 22.6791522555535998 S
atom 4.8433740190948837 9.7512082480835041 22.6682199247999954 S
atom 10.4611479925545989 10.3666776498395254 22.6736860901768154 S
atom 4.8905399781031074 2.5375769138934459 20.4865376065852622 S
atom 10.2287385191958062 2.5623971592308328 19.9584721043667308 S
atom 5.2264339474921453 7.5647017309345053 19.9475397736131086 S
atom 9.9508839651848930 7.5979209009752351 20.4865376065852622 S
atom 4.7256291880520136 2.5205258244640478 24.8668727709545472 S
atom 10.4524085976959373 2.5428123381151351 25.4828460596196642 S
atom 5.4501040259922791 7.5451169098188062 25.4719137288660527 S
atom 9.7859731751338082 7.5808698115458384 24.8668727709545472 S
atom 2.5517867808774000 5.2011282883713923 20.4810714412084423 S
atom 7.5873105226217934 4.9232737343604862 19.9530059389899428 S
atom 2.5850059509181342 9.9255783060641427 19.9420736082363206 S
atom 7.6121307679591768 10.2614722754531940 20.4810714412084494 S
atom 2.5688378703067984 5.3660390784225047 24.8614066055777165 S
atom 7.6068953437374924 4.6996036558603569 25.4773798942428300 S
atom 2.6045907720338315 9.7019082275640258 25.4664475634892611 S
atom 7.6291818573885744 10.4263830655042860 24.8614066055777236 S
atom 2.7204427041031889 2.3098743304775358 27.6295019892303912 Ba
atom 7.7817939359969683 2.3689209906676556 27.6349681546072041 Ba
atom 2.7794893642933127 7.3712255623713148 27.6240358238535642 Ba
atom 7.7807866911849750 7.3702183175593232 27.6295019892303948 Ba
atom 2.4394827852642704 2.4843136802355263 32.3195107979758660 Ba
atom 7.6073545862389800 2.6498809095065772 32.3249769633526824 Ba
atom 2.6050500145353208 7.6521854812102390 32.3140446325990922 Ba
atom 7.4998267723460463 7.5446576673173178 32.3195107979758660 Ba
atom 5.0994440344057956 5.0119881979738219 30.2171877612918891 Zr
atom 10.1400240555824599 5.0502636474468403 30.2226539266687091 Zr
atom 5.1377194838788105 10.0525682191504959 30.2117215959150869 Zr
atom 10.1597880214875911 10.0723321850556200 30.2171877612918891 Zr
atom 4.7749292085714732 4.7593090715251138 27.6651004096437774 S
atom 10.3927031820311893 5.3747784732811681 27.6705665750205831 S
atom 5.3903986103275212 10.3770830449848201 27.6596342442669503 S
atom 9.8352731956532704 9.8196530586068800 27.6651004096437809 S
atom 5.3568355700941632 5.2161686946438648 32.7100468695348354 S
atom 9.9358435589124436 4.7928721117584612 32.7155130349116661 S
atom 4.9335389872087720 9.7951766834621363 32.7045807041580261 S
atom 10.4171795571759365 10.2765126817256540 32.7100468695348354 S
atom 4.9492992665521456 2.5009410033483506 30.3912467262074593 S
atom 10.2874978076448507 2.5257612486857437 29.8631812239889278 S
atom 5.2851932359411791 7.5280658203894042 29.8522488932353092 S
atom 10.0096432536339286 7.5612849904301376 30.3912467262074593 S
atom 2.5884226914224944 5.1423689999223647 30.3857805608306535 S
atom 7.6239464331668980 4.8645144459114533 29.8577150586121149 S
atom 2.6216418614632269 9.8668190176151214 29.8467827278584963 S
atom 7.6487666785042769 10.2027129870041673 30.3857805608306464 S
