#=======================================================
# FHI-aims file: sym_relax_RP_2_31.in
# Created using the Atomic Simulation Environment (ASE)
# Tue Feb 25 12:07:20 2025
#=======================================================
lattice_vector 10.1116860545773832 -0.0070702025576263 0.0000000000000000 
lattice_vector -0.0070702025576263 10.1116860545773832 0.0000000000000000 
lattice_vector 0.0000000000000000 0.0000000000000000 25.3638421962885197 
atom -0.1576291775376500 0.0048575340620957 0.2815487771345994 Ba
atom 5.2087129353316657 -0.0021568143326359 0.2820045507824300 Ba
atom 0.1493348067641542 5.0572213142348765 0.2820045507824300 Ba
atom 4.8946787484722352 5.0571654600719826 0.2815487771345994 Ba
atom 0.0431291406842941 0.0021299645389183 4.8776619608247138 Ba
atom 5.0029734398406553 -0.0003333738640077 4.8776619608247138 Ba
atom -0.0564046887268557 5.0590447547035033 4.8776619608247138 Ba
atom 5.0954370666941715 5.0544378905487992 4.8776619608247138 Ba
atom 2.5229042022315324 2.5171263406162461 2.3467981318878426 Zr
atom 7.5784078557101280 2.5384771339364560 2.3468485735790381 Zr
atom 2.5190297271426139 7.5978552625039573 2.3468485735790381 Zr
atom 7.5752121282414198 7.5694342666261285 2.3467981318878426 Zr
atom 2.5229042022315324 2.5171263406162461 7.4085257897615806 Zr
atom 7.5784078557101280 2.5384771339364560 7.4084753480703895 Zr
atom 2.5190297271426139 7.5978552625039573 7.4084753480703895 Zr
atom 7.5752121282414198 7.5694342666261285 7.4085257897615806 Zr
atom 2.5183555276957090 2.8845509380015257 -0.1404716190001570 S
atom 7.5852126408225926 2.1699505211971037 -0.1401755996116211 S
atom 2.5258345122550829 7.2293286497646134 -0.1401755996116211 S
atom 7.5706634537055857 7.9368588640114126 -0.1404716190001570 S
atom 2.5283626111623283 2.0912328687313826 4.8776619608247138 S
atom 7.5729549919291435 2.9639771089725260 4.8776619608247138 S
atom 2.5135768633616289 8.0233552375400325 4.8776619608247138 S
atom 7.5806705371722201 7.1435407947412664 4.8776619608247138 S
atom 2.5256088862299735 0.0014276512793581 2.0394796067992189 S
atom 7.5788981850785992 -0.0020225136038327 2.7994092810853397 S
atom 2.5195200565110856 5.0573556149636785 2.7994092810853397 S
atom 7.5779168122398577 5.0537355772892347 2.0394796067992189 S
atom 2.5256088862299735 0.0014276512793581 7.7158443148502078 S
atom 7.5788981850785992 -0.0020225136038327 6.9559146405640950 S
atom 2.5195200565110856 5.0573556149636785 6.9559146405640950 S
atom 7.5779168122398577 5.0537355772892347 7.7158443148502078 S
atom -0.0049595007981660 2.5299061819957598 2.4659036983061680 S
atom 5.0505673994972105 2.5295937347225430 2.4554529125221989 S
atom -0.0088107290702989 7.5889718632900527 2.4554529125221989 S
atom 5.0473484252117187 7.5822141080056440 2.4659036983061680 S
atom -0.0049595007981660 2.5299061819957598 7.2894202233432646 S
atom 5.0505673994972105 2.5295937347225430 7.2998710091272327 S
atom -0.0088107290702989 7.5889718632900527 7.2998710091272327 S
atom 5.0473484252117187 7.5822141080056440 7.2894202233432646 S
atom -0.1576291775376500 0.0048575340620957 9.4737751445148337 Ba
atom 5.2087129353316657 -0.0021568143326359 9.4733193708669976 Ba
atom 0.1493348067641542 5.0572213142348765 9.4733193708669976 Ba
atom 4.8946787484722352 5.0571654600719826 9.4737751445148337 Ba
atom 2.5183555276957090 2.8845509380015257 9.8957955406495763 S
atom 7.5852126408225926 2.1699505211971037 9.8954995212610548 S
atom 2.5258345122550829 7.2293286497646134 9.8954995212610548 S
atom 7.5706634537055857 7.9368588640114126 9.8957955406495763 S
atom 2.5310114970670385 2.3685247854672915 12.9634698752788537 Ba
atom 7.5833752772398171 2.6754887697690943 12.9639256489266934 Ba
atom 2.5239971486723061 7.7348668983366089 12.9639256489266934 Ba
atom 7.5833194230769250 7.4208327114771828 12.9634698752788537 Ba
atom 2.5282839275438609 2.5692831036892390 17.5595830589689683 Ba
atom 7.5851987177084439 2.4697492742780884 17.5595830589689683 Ba
atom 2.5258205891409333 7.5291274028455923 17.5595830589689683 Ba
atom 7.5805918535537451 7.6215910296991192 17.5595830589689683 Ba
atom 5.0432803036211880 5.0490581652364837 15.0287192300320918 Zr
atom 10.1240092255089014 5.0451836901475646 15.0287696717232961 Zr
atom 5.0646310969413930 10.1045618187150730 15.0287696717232961 Zr
atom 10.0955882296310868 10.1013660912463514 15.0287192300320918 Zr
atom 5.0432803036211880 5.0490581652364837 20.0904468879058555 Zr
atom 10.1240092255089014 5.0451836901475646 20.0903964462146192 Zr
atom 5.0646310969413930 10.1045618187150730 20.0903964462146192 Zr
atom 10.0955882296310868 10.1013660912463514 20.0904468879058555 Zr
atom 5.4107049010064729 5.0445094907006425 12.5414494791441165 S
atom 9.7554826127695691 5.0519884752600213 12.5417454985326362 S
atom 4.6961044842020518 10.1113666038275376 12.5417454985326362 S
atom 10.4630128270163301 10.0968174167105360 12.5414494791441165 S
atom 4.6173868317363276 5.0545165741672804 17.5595830589689683 S
atom 10.5495092005449767 5.0397308263665748 17.5595830589689683 S
atom 5.4901310719774710 10.0991089549340956 17.5595830589689683 S
atom 9.6696947577462051 10.1068245001771668 17.5595830589689683 S
atom 5.0560601450006954 2.5211944622067750 15.1478247964504291 S
atom 10.1151258262950012 2.5173432339346413 15.1373740106664521 S
atom 5.0557476977274849 7.5767213625021572 15.1373740106664521 S
atom 10.1083680710105863 7.5735023882166583 15.1478247964504291 S
atom 5.0560601450006954 2.5211944622067750 19.9713413214875359 S
atom 10.1151258262950012 2.5173432339346413 19.9817921072715023 S
atom 5.0557476977274849 7.5767213625021572 19.9817921072715023 S
atom 10.1083680710105863 7.5735023882166583 19.9713413214875359 S
atom 2.5275816142842973 5.0517628492349118 14.7214007049434947 S
atom 7.5835095779686208 5.0456740195160306 15.4813303792296004 S
atom 2.5241314494011111 10.1050521480835460 15.4813303792296004 S
atom 7.5798895402941735 10.1040707752447965 14.7214007049434947 S
atom 2.5275816142842973 5.0517628492349118 20.3977654129944383 S
atom 7.5835095779686208 5.0456740195160306 19.6378357387083469 S
atom 2.5241314494011111 10.1050521480835460 19.6378357387083469 S
atom 7.5798895402941735 10.1040707752447965 20.3977654129944383 S
atom 2.5310114970670385 2.3685247854672915 22.1556962426590758 Ba
atom 7.5833752772398171 2.6754887697690943 22.1552404690112468 Ba
atom 2.5239971486723061 7.7348668983366089 22.1552404690112468 Ba
atom 7.5833194230769250 7.4208327114771828 22.1556962426590758 Ba
atom 5.4107049010064729 5.0445094907006425 22.5777166387938806 S
atom 9.7554826127695691 5.0519884752600213 22.5774206194053022 S
atom 4.6961044842020518 10.1113666038275376 22.5774206194053022 S
atom 10.4630128270163301 10.0968174167105360 22.5777166387938806 S
