#=======================================================
# FHI-aims file: sym_relax_RP_4_14.in
# Created using the Atomic Simulation Environment (ASE)
# Tue Feb 25 12:09:54 2025
#=======================================================
lattice_vector 10.0769617291918667 0.0007877838271444 0.0134621734644639 
lattice_vector 0.0007877838271443 10.0769617291918667 0.0134621734644639 
lattice_vector 0.0605734987410970 0.0605734987410972 45.3000148553336786 
atom -0.1789943215434613 0.0202868524826350 0.2773713459744040 Ba
atom 5.1562543225224777 0.0208688072855285 0.2905250398507471 Ba
atom 0.1181673498401099 5.0589557799678895 0.2905250398507471 Ba
atom 4.8598804349660520 5.0591616089921354 0.2908335194388677 Ba
atom -0.0179009127876796 0.0186802747384257 4.9471623828024063 Ba
atom 4.9577292918501357 0.0192941519689626 4.9436931144995473 Ba
atom -0.0803576808322340 5.0573811246513234 4.9436931144995473 Ba
atom 5.0209738437218343 5.0575550312479427 4.9606245562668718 Ba
atom 2.4872409006415874 2.5315484084604973 2.3354785964249936 Zr
atom 7.5231038114660098 2.5541767400562088 2.3459776370309835 Zr
atom 2.4850168387836362 7.5922637127385713 2.3459776370309844 Zr
atom 7.5261156571510952 7.5704231649700002 2.3489407698894560 Zr
atom 2.5023930890681796 2.5339981746584233 7.3627743492335052 Zr
atom 7.5403201120964951 2.5321753350198142 7.3722930072530817 Zr
atom 2.5022331394141335 7.5702623077021789 7.3722930072530817 Zr
atom 7.5412678455776865 7.5728729311679341 7.3762365226979680 Zr
atom 2.4944998781798460 2.8902354761137459 -0.1503776847655595 S
atom 7.5284411397559072 2.1908669893113122 -0.1380340892990005 S
atom 2.4903541670735456 7.2289539619936747 -0.1380340892990005 S
atom 7.5333746346893564 7.9291102326232474 -0.1369155113010957 S
atom 2.4997890784717600 2.0710664730289792 4.8827867759351848 S
atom 7.5398595596815641 3.0047432699225807 4.8900918156549800 S
atom 2.5017725869991909 8.0428302426049427 4.8900918156549791 S
atom 7.5386638349812669 7.1099412295384816 4.8962489493996548 S
atom 2.4932219890741538 0.0183584282023011 2.0184706244778203 S
atom 7.5181580743232592 0.0175840475276792 2.8160314582358494 S
atom 2.4800711016408972 5.0556710202100366 2.8160314582358490 S
atom 7.5320967455836660 5.0572331847118059 2.0319327979422841 S
atom 2.6165243420595661 0.0116407516457005 7.8257311582599574 S
atom 7.4592609358802759 0.0170721866859626 6.8967178215344767 S
atom 2.4211739631979086 5.0551591593683298 6.8967178215344775 S
atom 7.6553990985690747 5.0505155081552022 7.8391933317244238 S
atom -0.0314081894884214 2.5206018495447342 2.4584288127384415 S
atom 5.0088405387432582 2.5359747114138451 2.4688235751342367 S
atom -0.0292464339391055 7.5740616840962049 2.4688235751342367 S
atom 5.0074665670210905 7.5594766060542451 2.4718909862029061 S
atom -0.0101160609695725 2.4214171053735121 7.3677193202075655 S
atom 5.0326618178319027 2.6443950033093344 7.3720995647774803 S
atom -0.0054251548504695 7.6824819759916938 7.3720995647774794 S
atom 5.0287586955399401 7.4602918618830207 7.3811814936720284 S
atom 0.0093564215375635 0.0133050686781194 9.8056752453213019 Ba
atom 5.0554607468588486 0.0134251270359293 9.8967144741646980 Ba
atom 0.0173737741764848 5.0515120997182894 9.8967144741646980 Ba
atom 5.0482311780470690 5.0521798251876238 9.8191374187857736 Ba
atom 0.1070878765462823 0.0074360437450866 14.7586966049864508 Ba
atom 5.0827180811840957 0.0080499209756235 14.7552273366835998 Ba
atom 0.0446311085017277 5.0461368936579811 14.7552273366835998 Ba
atom 5.1459626330557882 5.0463108002545995 14.7721587784509172 Ba
atom 2.5633718128094212 2.5334296172037378 12.3435588856973837 Zr
atom 7.6012988358377394 2.5316067775651310 12.3530775437169495 Zr
atom 2.5632118631553777 7.5696937502474908 12.3530775437169495 Zr
atom 7.6022465693189307 7.5723043737132461 12.3570210591618483 Zr
atom 2.5805881134399189 2.5114282121673481 17.3698742559194415 Zr
atom 7.6164510242643395 2.5340565437630596 17.3803732965254838 Zr
atom 2.5783640515819770 7.5721435164454274 17.3803732965254838 Zr
atom 7.6194628699494276 7.5503029686768492 17.3833364293839203 Zr
atom 2.5352299657750978 3.0252516999151173 9.8550309492734911 S
atom 7.5684619591308264 2.0403532523084418 9.8608209436769556 S
atom 2.5303749864484582 7.0784402249907989 9.8608209436769538 S
atom 7.5741047222846047 8.0641264564246242 9.8684931227379664 S
atom 2.5638323652243646 2.0608616823009736 14.8257600772954898 S
atom 7.6039028464341571 2.9945384791945799 14.8330651170152770 S
atom 2.5658158737517986 8.0326254518769353 14.8330651170152770 S
atom 7.6027071217338671 7.0997364388104778 14.8392222507599509 S
atom 2.4482928263368495 0.0150894440683487 11.8766585612260407 S
atom 7.6825179617080108 0.0104457928552305 12.8191340714159789 S
atom 2.6444309890256510 5.0485327655375958 12.8191340714159789 S
atom 7.4871675828463546 5.0539642005778527 11.8901207346905018 S
atom 2.5715951793222582 0.0083717675117477 17.6839190950081644 S
atom 7.6236208232650222 0.0099339320135145 16.8998204347146341 S
atom 2.5855338505826579 5.0480209046958784 16.8998204347146341 S
atom 7.6104699358317704 5.0472465240212587 17.6973812684726290 S
atom 0.0368462566836208 2.6434000630228995 12.3346703992784281 S
atom 5.0710301070740318 2.4212099489142243 12.3437523281729735 S
atom 0.0329431343916617 7.4592969215965859 12.3437523281729753 S
atom 5.0757210131931263 7.6822748195324113 12.3481325727428963 S
atom 0.0581383852024697 2.5442153188516756 17.2439609067475459 S
atom 5.0948513861626576 2.5296302408097140 17.2470283178162234 S
atom 0.0567644134802987 7.5677172134920712 17.2470283178162234 S
atom 5.0970131417119759 7.5830900753611781 17.2574230802120248 S
atom -0.0914371541260618 0.0058613884285208 19.4118646796352614 Ba
atom 5.2438114899398709 0.0064433432314142 19.4250183735115804 Ba
atom 0.2057245172575096 5.0445303159137715 19.4250183735115804 Ba
atom 4.9474376023834425 5.0447361449380317 19.4253268530997083 Ba
atom 2.5752507851500126 2.8747379629122443 19.8538859822494729 S
atom 7.6091920467260801 2.1753694761098070 19.8662295777160232 S
atom 2.5711050740437087 7.2134564487921722 19.8662295777160232 S
atom 7.6141255416595248 7.9136127194217440 19.8673481557139411 S
atom 2.5700109801079338 2.3707298060818389 22.9341098603734643 Ba
atom 7.6086799075931939 2.6678914774654081 22.9472635542497869 Ba
atom 2.5705929349108274 7.7059784501477715 22.9472635542497869 Ba
atom 7.6088857366174425 7.4096045625913520 22.9475720338379290 Ba
atom 2.5684044023637203 2.5318232148376207 27.6039008972014663 Ba
atom 7.6071052522766154 2.4693664467930652 27.6004316288986153 Ba
atom 2.5690182795942595 7.5074534194754277 27.6004316288986153 Ba
atom 7.6072791588732462 7.5706979713471325 27.6173630706659345 Ba
atom 5.0812725360857982 5.0369650282668825 24.9922171108240363 Zr
atom 10.1419878403638606 5.0347409664089424 25.0027161514300396 Zr
atom 5.1039008676815154 10.0728279390912991 25.0027161514300360 Zr
atom 10.1201472925953091 10.0758397847763739 25.0056792842884974 Zr
atom 5.0837223022837303 5.0521172166934827 30.0195128636325563 Zr
atom 10.1199864353274780 5.0519572670394410 30.0290315216521435 Zr
atom 5.0818994626451239 10.0900442397217951 30.0290315216521435 Zr
atom 10.1225970587932483 10.0909919732029909 30.0329750370970423 Zr
atom 5.4399596037390499 5.0442240058051429 22.5063608296335076 S
atom 9.7786780896189835 5.0400782946988487 22.5187044251000472 S
atom 4.7405911169366197 10.0781652673812072 22.5187044251000472 S
atom 10.4788343602485572 10.0830987623146626 22.5198230030979545 S
atom 4.6207906006542778 5.0495132060970640 27.5395252903342502 S
atom 10.5925543702302267 5.0514967146245011 27.5468303300540356 S
atom 5.5544673975478833 10.0895836873068685 27.5468303300540356 S
atom 9.6596653571637869 10.0883879626065855 27.5529874637987362 S
atom 5.0703259771700386 2.5183159381368823 25.1151673271375131 S
atom 10.1237858117215271 2.5204776936861970 25.1255620895333216 S
atom 5.0856988390391438 7.5585646663685546 25.1255620895333216 S
atom 10.1092007336795398 7.5571906946463958 25.1286295006019671 S
atom 4.9711412329988240 2.5396080666557324 30.0244578346066149 S
atom 10.2322061036170098 2.5442989727748344 30.0288380791765626 S
atom 5.1941191309346362 7.5823859454571991 30.0288380791765626 S
atom 10.0100159895083252 7.5784828231652419 30.0379200080710724 S
atom 2.5680825558276017 5.0429461166994507 24.6752091388768946 S
atom 7.6053951478353508 5.0297952292662016 25.4727699726348895 S
atom 2.5673081751529843 10.0678822019485565 25.4727699726348895 S
atom 7.6069573123371050 10.0818208732089438 24.6886713123413450 S
atom 2.5613648792710002 5.1662484696848567 30.4824696726590041 S
atom 7.6048832869936280 4.9708980908232077 29.5534563359335074 S
atom 2.5667963143112673 10.0089850635055679 29.5534563359335074 S
atom 7.6002396357805111 10.2051232261943721 30.4959318461234759 S
atom 2.5630291963034209 2.5590805491628674 32.4624137597203273 Ba
atom 7.6012362273435983 2.5670979018017830 32.5534529885637411 Ba
atom 2.5631492546612282 7.6051848744841513 32.5534529885637482 Ba
atom 7.6019039528129317 7.5979553056723708 32.4758759331848026 Ba
atom 2.5571601713703860 2.6568120041715821 37.4154351193855135 Ba
atom 7.5958610212832758 2.5943552361270314 37.4119658510826696 Ba
atom 2.5577740486009306 7.6324422088093851 37.4119658510826696 Ba
atom 7.5960349278799004 7.6956867606810899 37.4288972928499604 Ba
atom 5.0831537448290307 5.1130959404347234 35.0002974000964429 Zr
atom 10.1194178778727846 5.1129359907806808 35.0098160581160158 Zr
atom 5.0813309051904438 10.1510229634630438 35.0098160581160229 Zr
atom 10.1220285013385460 10.1519706969442289 35.0137595735609182 Zr
atom 5.0611523397926526 5.1303122410652229 40.0266127703185575 Zr
atom 10.1218676440707220 5.1280881792072757 40.0371118109245288 Zr
atom 5.0837806713883680 10.1661751518896448 40.0371118109245359 Zr
atom 10.1000270963021741 10.1691869975747107 40.0400749437830399 Zr
atom 5.5749758275404151 5.0849540934003912 32.5117694636725929 S
atom 9.6281643526160945 5.0800991140737644 32.5175594580760148 S
atom 4.5900773799337431 10.1181860867561149 32.5175594580760148 S
atom 10.6138505840499153 10.1238288499098879 32.5252316371370327 S
atom 4.6105858099262722 5.1135564928496633 37.4824985916945010 S
atom 10.5823495795022371 5.1155400013770969 37.4898036314143184 S
atom 5.5442626068198857 10.1536269740594420 37.4898036314143184 S
atom 9.6494605664357938 10.1524312493591644 37.4959607651590190 S
atom 5.1931241906482049 2.5865703843089234 34.9914089136775175 S
atom 10.0090210492218787 2.5826672620169600 35.0004908425720416 S
atom 4.9709340765395247 7.6207542346993327 35.0004908425720416 S
atom 10.2319989471577166 7.6254451408184272 35.0048710871419644 S
atom 5.0939394464769787 2.6078625128277713 39.9006994211466406 S
atom 10.1174413411173898 2.6064885411056027 39.9037668322152896 S
atom 5.0793543684350091 7.6445755137879612 39.9037668322152896 S
atom 10.1328142029864967 7.6467372693372768 39.9141615946110591 S
atom 2.5648135716936524 4.9980169539621535 34.5333970756250892 S
atom 7.5982568931628975 5.1941551166509523 35.4758725858150541 S
atom 2.5601699204805324 10.2322420893333099 35.4758725858150470 S
atom 7.6036883282031633 10.0368917104716591 34.5468592490895290 S
atom 2.5580958951370483 5.1213193069475631 40.3406576094071738 S
atom 7.5977450323211784 5.1352579782079602 39.5565589491136365 S
atom 2.5596580596388163 10.1733449508903053 39.5565589491136365 S
atom 7.5969706516465605 10.1601940634570784 40.3541197828716705 S
atom 2.5555855160538248 2.4582869734992379 42.0686031940342886 Ba
atom 7.5942544435390831 2.7554486448828106 42.0817568879106574 Ba
atom 2.5561674708567148 7.7935356175651656 42.0817568879106574 Ba
atom 7.5944602725633281 7.4971617300087479 42.0820653674988066 Ba
atom 5.4244620905375545 5.1249749127753139 42.5106244966484823 S
atom 9.7631805764174775 5.1208292016690065 42.5229680921151072 S
atom 4.7250936037350977 10.1589161743513632 42.5229680921151072 S
atom 10.4633368470470494 10.1638496692848275 42.5240866701129576 S
