#=======================================================
# FHI-aims file: sym_relax_RP_1_12.in
# Created using the Atomic Simulation Environment (ASE)
# Tue Feb 25 12:06:57 2025
#=======================================================
lattice_vector 10.1077715867443239 -0.0000000000000000 0.0001672163372301 
lattice_vector -0.0000000000000000 10.1092481660933213 0.0000000000000000 
lattice_vector -0.0003179373870357 0.0000000000000000 15.5281303254590011 
atom 0.1565441464974958 0.0000000000000000 0.2394801757038877 Ba
atom 4.8972056903395869 0.0000000000000000 0.2395399123407281 Ba
atom -0.1566801030325725 5.0546240830466624 0.2394563041721130 Ba
atom 5.2104299398696714 5.0546240830466624 0.2395637838725029 Ba
atom -0.1566435019309443 0.0000000000000000 4.6130605510020466 Ba
atom 5.2104665409712947 0.0000000000000000 4.6131680307024414 Ba
atom 0.1565807475991237 5.0546240830466624 4.6130844225338237 Ba
atom 4.8972422914412226 5.0546240830466624 4.6131441591706599 Ba
atom 2.5268932189693585 2.5273120415233312 2.4263121674372790 Zr
atom 7.5807790123415231 2.5273120415233312 2.4263957756058914 Zr
atom 2.5268932189693585 7.5819361245699950 2.4263121674372790 Zr
atom 7.5807790123415231 7.5819361245699950 2.4263957756058914 Zr
atom 2.5269937562302673 2.2093058191757260 -0.1070574063775803 S
atom 7.5808795496024315 2.8453182638709373 -0.1069737982089653 S
atom 2.5269937562302673 7.8999423469175953 -0.1070574063775804 S
atom 7.5808795496024315 7.2639299022223920 -0.1069737982089653 S
atom 2.5267926817084492 2.8453182638709373 4.9596817412521359 S
atom 7.5806784750806155 2.2093058191757260 4.9597653494207545 S
atom 2.5267926817084492 7.2639299022223920 4.9596817412521359 S
atom 7.5806784750806155 7.8999423469175953 4.9597653494207545 S
atom 2.5268952085368914 0.0000000000000000 2.7369326687483819 S
atom 7.5807770227739946 0.0000000000000000 2.1157752742947906 S
atom 2.5268912294018295 5.0546240830466624 2.1156916661261733 S
atom 7.5807810019090542 5.0546240830466624 2.7370162769169974 S
atom -0.0000496777167245 2.5273381264184982 2.4262703633529714 S
atom 5.0538361156554448 2.5272859566281616 2.4263539715215843 S
atom -0.0000496777167245 7.5819100396748196 2.4262703633529714 S
atom 5.0538361156554448 7.5819622094651669 2.4263539715215843 S
atom 2.5268772339670140 2.3707046627280590 8.0036599350489919 Ba
atom 7.5807630273391871 2.6839194203186048 8.0037435432176114 Ba
atom 2.5268772339670140 7.7385435033652596 8.0036599350489954 Ba
atom 7.5807630273391871 7.4253287457747259 8.0037435432176132 Ba
atom 2.5265912665846648 2.6839194203186056 12.3770947252845751 Ba
atom 7.5804770599568272 2.3707046627280599 12.3771783334532124 Ba
atom 2.5265912665846644 7.4253287457747259 12.3770947252845787 Ba
atom 7.5804770599568281 7.7385435033652596 12.3771783334532124 Ba
atom 5.0536771469619266 5.0546240830466624 10.1904191342510906 Zr
atom 10.1075629403340876 5.0546240830466624 10.1905027424197190 Zr
atom 5.0536771469619266 10.1092481660933249 10.1904191342510906 Zr
atom 10.1075629403340894 10.1092481660933249 10.1905027424197190 Zr
atom 5.3719693932103336 5.0546240830466624 7.6571198867224712 S
atom 9.7895788303082369 5.0546240830466624 7.6572007584290107 S
atom 4.7356930369360724 10.1092481660933249 7.6571171502603947 S
atom 10.4258551865825133 10.1092481660933249 7.6572034948910899 S
atom 4.7353849007135169 5.0546240830466624 12.7237183817797206 S
atom 10.4255470503599259 5.0546240830466624 12.7238047264104139 S
atom 5.3716612569877702 10.1092481660933249 12.7237211182418033 S
atom 9.7892706940856762 10.1092481660933249 12.7238019899483348 S
atom 5.0536771469619266 2.5273122678741600 10.1904191342510906 S
atom 10.1075629403340876 2.5273118151725034 10.1905027424197190 S
atom 5.0536771469619266 7.5819358982191734 10.1904191342510906 S
atom 10.1075629403340876 7.5819363509208255 10.1905027424197190 S
atom 2.5267448486775046 5.0546240830466624 9.8794674486676737 S
atom 7.5806094452463402 5.0546240830466624 10.5013708198345181 S
atom 2.5267236518741742 10.1092481660933249 10.5012872116658986 S
atom 7.5806306420496732 10.1092481660933249 9.8795510568362843 S
