#=======================================================
# FHI-aims file: sym_relax_RP_4_136.in
# Created using the Atomic Simulation Environment (ASE)
# Tue Feb 25 12:09:05 2025
#=======================================================
lattice_vector 10.0954309719777928 -0.0000000000000004 0.0000000000000000 
lattice_vector -0.0000000000000004 10.0954309719777928 0.0000000000000000 
lattice_vector -0.0000000000000000 0.0000000000000000 45.1499492164094107 
atom -0.1558778213567129 0.0000000000000000 0.2852021543611274 Ba
atom 5.2035933073456055 -0.0000000000000000 0.2852021543611274 Ba
atom 0.1558778213567129 5.0477154859888964 0.2852021543611274 Ba
atom 4.8918376646321766 5.0477154859888964 0.2852021543611274 Ba
atom 0.0299236545541324 -0.0000000000000000 4.9406786107664677 Ba
atom 5.0177918314347618 0.0000000000000000 4.9406786107664677 Ba
atom -0.0299236545541324 5.0477154859888964 4.9406786107664677 Ba
atom 5.0776391405430221 5.0477154859888964 4.9406786107664677 Ba
atom 2.5238577429944482 2.5107469725353546 2.3244037931927517 Zr
atom 7.5715732289833406 2.5369685134535369 2.3244037931927508 Zr
atom 2.5238577429944482 7.5846839994424364 2.3244037931927508 Zr
atom 7.5715732289833406 7.5584624585242501 2.3244037931927517 Zr
atom 2.5238577429944482 2.5241979566852550 7.3351095030670335 Zr
atom 7.5715732289833406 2.5235175293036396 7.3351095030670335 Zr
atom 2.5238577429944482 7.5712330152925276 7.3351095030670335 Zr
atom 7.5715732289833406 7.5719134426741519 7.3351095030670335 Zr
atom 2.5238577429944482 2.8807573528047437 -0.1561846446950764 S
atom 7.5715732289833406 2.1669581331841528 -0.1561846446950764 S
atom 2.5238577429944482 7.2146736191730483 -0.1561846446950763 S
atom 7.5715732289833406 7.9284728387936347 -0.1561846446950764 S
atom 2.5238577429944482 2.0493462656131380 4.8635260199343451 S
atom 7.5715732289833406 2.9983692203757553 4.8635260199343451 S
atom 2.5238577429944482 8.0460847063646401 4.8635260199343451 S
atom 7.5715732289833406 7.0970617516020384 4.8635260199343451 S
atom 2.5238577429944482 0.0000000000000000 2.0069490618583985 S
atom 7.5715732289833406 0.0000000000000000 2.7991578973137985 S
atom 2.5238577429944482 5.0477154859888964 2.7991578973137985 S
atom 7.5715732289833406 5.0477154859888964 2.0069490618583985 S
atom 2.5238577429944482 0.0000000000000000 7.8023840136974245 S
atom 7.5715732289833406 0.0000000000000000 6.8735021871147293 S
atom 2.5238577429944482 5.0477154859888964 6.8735021871147293 S
atom 7.5715732289833406 5.0477154859888964 7.8023840136974245 S
atom -0.0000000000000000 2.5238577429944482 2.4580120229126905 S
atom 5.0477154859888964 2.5238577429944482 2.4580120229126905 S
atom -0.0000000000000000 7.5715732289833406 2.4580120229126905 S
atom 5.0477154859888964 7.5715732289833406 2.4580120229126905 S
atom 0.0000000000000000 2.5238577429944482 7.3446614149665788 S
atom 5.0477154859888964 2.5238577429944482 7.3446614149665788 S
atom -0.0000000000000000 7.5715732289833406 7.3446614149665788 S
atom 5.0477154859888964 7.5715732289833406 7.3446614149665788 S
atom -0.0100952249628885 0.0000000000000000 9.8152063513933463 Ba
atom 5.0578107109517791 -0.0000000000000000 9.8152063513933463 Ba
atom 0.0100952249628885 5.0477154859888964 9.8152063513933463 Ba
atom 5.0376202610260075 5.0477154859888964 9.8152063513933463 Ba
atom 0.0299236545541324 -0.0000000000000000 14.6897340920202399 Ba
atom 5.0177918314347618 0.0000000000000000 14.6897340920202399 Ba
atom -0.0299236545541324 5.0477154859888964 14.6897340920202399 Ba
atom 5.0776391405430221 5.0477154859888964 14.6897340920202399 Ba
atom 2.5238577429944482 2.5241979566852550 12.2953031997196547 Zr
atom 7.5715732289833406 2.5235175293036396 12.2953031997196547 Zr
atom 2.5238577429944482 7.5712330152925276 12.2953031997196547 Zr
atom 7.5715732289833406 7.5719134426741519 12.2953031997196547 Zr
atom 2.5238577429944482 2.5107469725353546 17.3060089095939382 Zr
atom 7.5715732289833406 2.5369685134535369 17.3060089095939382 Zr
atom 2.5238577429944482 7.5846839994424364 17.3060089095939382 Zr
atom 7.5715732289833406 7.5584624585242501 17.3060089095939382 Zr
atom 2.5238577429944482 3.0312365400928964 9.8152063513933463 S
atom 7.5715732289833406 2.0164789458959982 9.8152063513933463 S
atom 2.5238577429944482 7.0641944318848893 9.8152063513933463 S
atom 7.5715732289833406 8.0789520260817866 9.8152063513933463 S
atom 2.5238577429944482 2.0493462656131380 14.7668866828523626 S
atom 7.5715732289833406 2.9983692203757553 14.7668866828523626 S
atom 2.5238577429944482 8.0460847063646401 14.7668866828523626 S
atom 7.5715732289833406 7.0970617516020384 14.7668866828523626 S
atom 2.5238577429944482 0.0000000000000000 11.8280286890892867 S
atom 7.5715732289833406 0.0000000000000000 12.7569105156719722 S
atom 2.5238577429944482 5.0477154859888964 12.7569105156719722 S
atom 7.5715732289833406 5.0477154859888964 11.8280286890892867 S
atom 2.5238577429944482 0.0000000000000000 17.6234636409283070 S
atom 7.5715732289833406 0.0000000000000000 16.8312548054728950 S
atom 2.5238577429944482 5.0477154859888964 16.8312548054728950 S
atom 7.5715732289833406 5.0477154859888964 17.6234636409283070 S
atom -0.0000000000000000 2.5238577429944482 12.2857512878201405 S
atom 5.0477154859888964 2.5238577429944482 12.2857512878201405 S
atom -0.0000000000000000 7.5715732289833406 12.2857512878201405 S
atom 5.0477154859888964 7.5715732289833406 12.2857512878201405 S
atom -0.0000000000000000 2.5238577429944482 17.1724006798740305 S
atom 5.0477154859888964 2.5238577429944482 17.1724006798740305 S
atom 0.0000000000000000 7.5715732289833406 17.1724006798740305 S
atom 5.0477154859888964 7.5715732289833406 17.1724006798740305 S
atom -0.1558778213567129 0.0000000000000000 19.3452105484255519 Ba
atom 5.2035933073456055 -0.0000000000000000 19.3452105484255519 Ba
atom 0.1558778213567129 5.0477154859888964 19.3452105484255519 Ba
atom 4.8918376646321766 5.0477154859888964 19.3452105484255519 Ba
atom 2.5238577429944482 2.8807573528047437 19.7865973474817878 S
atom 7.5715732289833406 2.1669581331841528 19.7865973474817878 S
atom 2.5238577429944482 7.2146736191730483 19.7865973474817878 S
atom 7.5715732289833406 7.9284728387936347 19.7865973474817878 S
atom 2.5238577429944482 2.3679799216377351 22.8601767625658283 Ba
atom 7.5715732289833406 2.6797355643511565 22.8601767625658283 Ba
atom 2.5238577429944482 7.7274510503400533 22.8601767625658283 Ba
atom 7.5715732289833406 7.4156954076266297 22.8601767625658283 Ba
atom 2.5238577429944482 2.5537813975485797 27.5156532189711527 Ba
atom 7.5715732289833406 2.4939340884403141 27.5156532189711527 Ba
atom 2.5238577429944482 7.5416495744292105 27.5156532189711527 Ba
atom 7.5715732289833406 7.6014968835374690 27.5156532189711527 Ba
atom 5.0346047155297997 5.0477154859888964 24.8993784013974491 Zr
atom 10.1085417424368735 5.0477154859888964 24.8993784013974491 Zr
atom 5.0608262564479887 10.0954309719777928 24.8993784013974491 Zr
atom 10.0823202015186837 10.0954309719777928 24.8993784013974491 Zr
atom 5.0480556996796961 5.0477154859888964 29.9100841112717397 Zr
atom 10.0950907582869789 5.0477154859888964 29.9100841112717397 Zr
atom 5.0473752722980780 10.0954309719777928 29.9100841112717397 Zr
atom 10.0957711856685979 10.0954309719777928 29.9100841112717397 Zr
atom 5.4046150957991825 5.0477154859888964 22.4187899635096421 S
atom 9.7385313621674996 5.0477154859888964 22.4187899635096421 S
atom 4.6908158761785987 10.0954309719777928 22.4187899635096421 S
atom 10.4523305817880718 10.0954309719777928 22.4187899635096421 S
atom 4.5732040086075862 5.0477154859888964 27.4385006281390602 S
atom 10.5699424493590985 5.0477154859888964 27.4385006281390602 S
atom 5.5222269633702012 10.0954309719777928 27.4385006281390602 S
atom 9.6209194945964818 10.0954309719777928 27.4385006281390602 S
atom 5.0477154859888964 2.5238577429944482 25.0329866311173745 S
atom 10.0954309719777928 2.5238577429944482 25.0329866311173745 S
atom 5.0477154859888964 7.5715732289833406 25.0329866311173745 S
atom 10.0954309719777928 7.5715732289833406 25.0329866311173745 S
atom 5.0477154859888964 2.5238577429944482 29.9196360231712823 S
atom 10.0954309719777928 2.5238577429944482 29.9196360231712823 S
atom 5.0477154859888964 7.5715732289833406 29.9196360231712823 S
atom 10.0954309719777928 7.5715732289833406 29.9196360231712823 S
atom 2.5238577429944482 5.0477154859888964 24.5819236700630910 S
atom 7.5715732289833406 5.0477154859888964 25.3741325055184852 S
atom 2.5238577429944482 10.0954309719777928 25.3741325055184852 S
atom 7.5715732289833406 10.0954309719777928 24.5819236700630910 S
atom 2.5238577429944482 5.0477154859888964 30.3773586219021112 S
atom 7.5715732289833406 5.0477154859888964 29.4484767953194009 S
atom 2.5238577429944482 10.0954309719777928 29.4484767953194009 S
atom 7.5715732289833406 10.0954309719777928 30.3773586219021112 S
atom 2.5238577429944482 2.5137625180315570 32.3901809595980765 Ba
atom 7.5715732289833406 2.5339529679573349 32.3901809595980765 Ba
atom 2.5238577429944482 7.5816684539462260 32.3901809595980765 Ba
atom 7.5715732289833406 7.5614780040204526 32.3901809595980765 Ba
atom 2.5238577429944482 2.5537813975485797 37.2647087002249151 Ba
atom 7.5715732289833406 2.4939340884403141 37.2647087002249151 Ba
atom 2.5238577429944482 7.5416495744292105 37.2647087002249151 Ba
atom 7.5715732289833406 7.6014968835374690 37.2647087002249151 Ba
atom 5.0480556996796961 5.0477154859888964 34.8702778079243245 Zr
atom 10.0950907582869789 5.0477154859888964 34.8702778079243245 Zr
atom 5.0473752722980780 10.0954309719777928 34.8702778079243245 Zr
atom 10.0957711856685979 10.0954309719777928 34.8702778079243245 Zr
atom 5.0346047155297997 5.0477154859888964 39.8809835177986756 Zr
atom 10.1085417424368735 5.0477154859888964 39.8809835177986756 Zr
atom 5.0608262564479887 10.0954309719777928 39.8809835177986756 Zr
atom 10.0823202015186837 10.0954309719777928 39.8809835177986756 Zr
atom 5.5550942830873442 5.0477154859888964 32.3901809595980765 S
atom 9.5880521748793370 5.0477154859888964 32.3901809595980765 S
atom 4.5403366888904451 10.0954309719777928 32.3901809595980765 S
atom 10.6028097690762362 10.0954309719777928 32.3901809595980765 S
atom 4.5732040086075862 5.0477154859888964 37.3418612910570786 S
atom 10.5699424493590985 5.0477154859888964 37.3418612910570786 S
atom 5.5222269633702012 10.0954309719777928 37.3418612910570786 S
atom 9.6209194945964818 10.0954309719777928 37.3418612910570786 S
atom 5.0477154859888964 2.5238577429944482 34.8607258960248174 S
atom 10.0954309719777928 2.5238577429944482 34.8607258960248174 S
atom 5.0477154859888964 7.5715732289833406 34.8607258960248174 S
atom 10.0954309719777928 7.5715732289833406 34.8607258960248174 S
atom 5.0477154859888964 2.5238577429944482 39.7473752880786506 S
atom 10.0954309719777928 2.5238577429944482 39.7473752880786506 S
atom 5.0477154859888964 7.5715732289833406 39.7473752880786506 S
atom 10.0954309719777928 7.5715732289833406 39.7473752880786506 S
atom 2.5238577429944482 5.0477154859888964 34.4030032972939495 S
atom 7.5715732289833406 5.0477154859888964 35.3318851238766385 S
atom 2.5238577429944482 10.0954309719777928 35.3318851238766385 S
atom 7.5715732289833406 10.0954309719777928 34.4030032972939495 S
atom 2.5238577429944482 5.0477154859888964 40.1984382491329484 S
atom 7.5715732289833406 5.0477154859888964 39.4062294136775932 S
atom 2.5238577429944482 10.0954309719777928 39.4062294136775932 S
atom 7.5715732289833406 10.0954309719777928 40.1984382491329484 S
atom 2.5238577429944482 2.3679799216377351 41.9201851566302253 Ba
atom 7.5715732289833406 2.6797355643511565 41.9201851566302253 Ba
atom 2.5238577429944482 7.7274510503400533 41.9201851566302253 Ba
atom 7.5715732289833406 7.4156954076266297 41.9201851566302253 Ba
atom 5.4046150957991825 5.0477154859888964 42.3615719556864860 S
atom 9.7385313621674996 5.0477154859888964 42.3615719556864860 S
atom 4.6908158761785987 10.0954309719777928 42.3615719556864860 S
atom 10.4523305817880718 10.0954309719777928 42.3615719556864860 S
