#=======================================================
# FHI-aims file: sym_relax_RP_2_38.in
# Created using the Atomic Simulation Environment (ASE)
# Tue Feb 25 12:07:47 2025
#=======================================================
lattice_vector 10.1102808766061454 0.0000000000000000 0.0000000000000000 
lattice_vector 0.0000000000000000 10.1137934396876421 0.0000000000000000 
lattice_vector 0.0000000000000000 0.0000000000000000 25.3622618351407390 
atom -0.1566953517103611 0.0000000000000000 0.2813778314209405 Ba
atom 5.2089603996177365 0.0000000000000000 0.2818420378626316 Ba
atom 0.1538199613146636 5.0568967198438175 0.2818420378626316 Ba
atom 4.8984450865927123 5.0568967198438175 0.2813778314209405 Ba
atom 0.0427693657175297 0.0000000000000000 4.8773580452193697 Ba
atom 5.0010552878704146 0.0000000000000000 4.8773580452193697 Ba
atom -0.0540851504326599 5.0568967198438175 4.8773580452193697 Ba
atom 5.0979098040206026 5.0568967198438175 4.8773580452193697 Ba
atom 2.5246177096012952 2.5160391388087731 2.3467325052835699 Zr
atom 7.5797581479043732 2.5408575810350502 2.3467325052835699 Zr
atom 2.5246177096012952 7.5977543008788704 2.3467325052835699 Zr
atom 7.5797581479043732 7.5729358586525990 2.3467325052835699 Zr
atom 2.5246177096012952 2.5160391388087731 7.4079835851551730 Zr
atom 7.5797581479043732 2.5408575810350502 7.4079835851551730 Zr
atom 2.5246177096012952 7.5977543008788704 7.4079835851551730 Zr
atom 7.5797581479043732 7.5729358586525990 7.4079835851551730 Zr
atom 2.5253423635497763 2.8834891370491480 -0.1403948137788176 S
atom 7.5804828018528578 2.1734075827946802 -0.1403948137788176 S
atom 2.5253423635497763 7.2303043026385030 -0.1403948137788176 S
atom 7.5804828018528578 7.9403858568929708 -0.1403948137788176 S
atom 2.5241865892579893 2.0906533125891387 4.8773580452193697 S
atom 7.5793270275610674 2.9662434072546828 4.8773580452193697 S
atom 2.5241865892579893 8.0231401270985110 4.8773580452193697 S
atom 7.5793270275610674 7.1475500324329682 4.8773580452193697 S
atom 2.5269085455049782 -0.0000000000000000 2.0405593002752904 S
atom 7.5771092642972571 0.0000000000000000 2.7986098633639065 S
atom 2.5219688259941888 5.0568967198438175 2.7986098633639065 S
atom 7.5820489838080505 5.0568967198438175 2.0405593002752904 S
atom 2.5269085455049782 -0.0000000000000000 7.7141567901634591 S
atom 7.5771092642972571 0.0000000000000000 6.9561062270748328 S
atom 2.5219688259941888 5.0568967198438175 6.9561062270748328 S
atom 7.5820489838080505 5.0568967198438175 7.7141567901634591 S
atom -0.0028699879379825 2.5261978125202327 2.4605566570624462 S
atom 5.0522704503650919 2.5306989073235928 2.4605566570624462 S
atom -0.0028699879379825 7.5875956271674152 2.4605566570624462 S
atom 5.0522704503650919 7.5830945323640515 2.4605566570624462 S
atom -0.0028699879379825 2.5261978125202327 7.2941594333762900 S
atom 5.0522704503650919 2.5306989073235928 7.2941594333762900 S
atom -0.0028699879379825 7.5875956271674152 7.2941594333762900 S
atom 5.0522704503650919 7.5830945323640515 7.2941594333762900 S
atom -0.1566953517103611 -0.0000000000000000 9.4733382590177921 Ba
atom 5.2089603996177365 0.0000000000000000 9.4728740525761150 Ba
atom 0.1538199613146636 5.0568967198438175 9.4728740525761150 Ba
atom 4.8984450865927123 5.0568967198438175 9.4733382590177921 Ba
atom 2.5253423635497763 2.8834891370491480 9.8951109042175673 S
atom 7.5804828018528578 2.1734075827946802 9.8951109042175673 S
atom 2.5253423635497763 7.2303043026385030 9.8951109042175673 S
atom 7.5804828018528578 7.9403858568929708 9.8951109042175673 S
atom 2.5303955306698906 2.3728118289474072 12.9628831615694420 Ba
atom 7.5855359689729616 2.6840848908964143 12.9628831615694420 Ba
atom 2.5303955306698906 7.7409816107402420 12.9628831615694420 Ba
atom 7.5855359689729616 7.4297085487912264 12.9628831615694420 Ba
atom 2.5304241775517746 2.5765352844365572 17.5584889627897311 Ba
atom 7.5855646158548460 2.4803614354072652 17.5584889627897311 Ba
atom 2.5304241775517746 7.5372581552510827 17.5584889627897311 Ba
atom 7.5855646158548460 7.6334320042803823 17.5584889627897311 Ba
atom 5.0457382617235629 5.0568967198438175 15.0284238679404822 Zr
atom 10.1257638871514430 5.0568967198438175 15.0278102941101501 Zr
atom 5.0706234488483641 10.1137934396876350 15.0278102941101501 Zr
atom 10.1008787000266409 10.1137934396876350 15.0284238679404822 Zr
atom 5.0457382617235629 5.0568967198438175 20.0885540576389943 Zr
atom 10.1257638871514430 5.0568967198438175 20.0891676314693086 Zr
atom 5.0706234488483641 10.1137934396876350 20.0891676314693086 Zr
atom 10.1008787000266409 10.1137934396876350 20.0885540576389943 Zr
atom 5.4136023548909522 5.0568967198438175 12.5413274554974379 S
atom 9.7570904001238858 5.0568967198438175 12.5407122655627958 S
atom 4.7019499618208132 10.1137934396876350 12.5407122655627958 S
atom 10.4687427931940320 10.1137934396876350 12.5413274554974379 S
atom 4.6188216680168583 5.0568967198438175 17.5584889627897311 S
atom 10.5524569708159355 5.0568967198438175 17.5584889627897311 S
atom 5.4973165325128637 10.1137934396876350 17.5584889627897311 S
atom 9.6739621063199195 10.1137934396876350 17.5584889627897311 S
atom 5.0579353603824497 2.5284045502721639 15.1420633002672211 S
atom 10.1130757986855428 2.5284921695716580 15.1420633002672211 S
atom 5.0579353603824497 7.5853888894154808 15.1420633002672211 S
atom 10.1130757986855428 7.5853012701159832 15.1420633002672211 S
atom 5.0579353603824497 2.5284045502721639 19.9749146253122625 S
atom 10.1130757986855428 2.5284921695716580 19.9749146253122625 S
atom 5.0579353603824497 7.5853888894154808 19.9749146253122625 S
atom 10.1130757986855428 7.5853012701159832 19.9749146253122625 S
atom 2.5305083738882423 5.0568967198438175 14.7198709157995165 S
atom 7.5856778267163190 5.0568967198438175 15.4811434670638679 S
atom 2.5305373884132547 10.1137934396876350 15.4811434670638679 S
atom 7.5856488121913221 10.1137934396876350 14.7198709157995165 S
atom 2.5305083738882423 5.0568967198438175 20.3971070097799476 S
atom 7.5856778267163190 5.0568967198438175 19.6358344585155962 S
atom 2.5305373884132547 10.1137934396876350 19.6358344585155962 S
atom 7.5856488121913221 10.1137934396876350 20.3971070097799476 S
atom 2.5303955306698906 2.3728118289474072 22.1540947640100576 Ba
atom 7.5855359689729616 2.6840848908964143 22.1540947640100576 Ba
atom 2.5303955306698906 7.7409816107402420 22.1540947640100576 Ba
atom 7.5855359689729616 7.4297085487912264 22.1540947640100576 Ba
atom 5.4136023548909522 5.0568967198438175 22.5756504700820457 S
atom 9.7570904001238858 5.0568967198438175 22.5762656600166665 S
atom 4.7019499618208132 10.1137934396876350 22.5762656600166665 S
atom 10.4687427931940320 10.1137934396876350 22.5756504700820457 S
