#=======================================================
# FHI-aims file: sym_relax_RP_4_31.in
# Created using the Atomic Simulation Environment (ASE)
# Tue Feb 25 12:09:38 2025
#=======================================================
lattice_vector 10.0665200617066706 -0.0042129835797895 0.0000000000000000 
lattice_vector -0.0042129835797895 10.0665200617066741 0.0000000000000000 
lattice_vector 0.0000000000000000 0.0000000000000000 45.4419829303164278 
atom -0.0831159923412703 0.0260898310011286 0.2653104395889139 Ba
atom 5.1894681911076948 -0.0053756002639622 0.2691009222784305 Ba
atom 0.1541016684644615 5.0299909223792696 0.2691009222784305 Ba
atom 4.9480375467221727 5.0572433700645760 0.2653104395889139 Ba
atom -0.1758969592780125 -0.1658925962465378 4.9405486228497564 Ba
atom 4.9028305511838690 -0.1885379711887094 4.9332615652045231 Ba
atom -0.1325359714593573 4.8468285514545242 4.9332615652045231 Ba
atom 4.8552565797854292 4.8652609428169038 4.9405486228497564 Ba
atom 2.5221502768962178 2.4879657792146088 2.3381594127829803 Zr
atom 7.5494127957082480 2.5014014615909179 2.3381715703404011 Zr
atom 2.5140462730650190 7.5367679842341531 2.3381715703404011 Zr
atom 7.5533038159596639 7.5191193182780518 2.3381594127829803 Zr
atom 2.5270317659836663 2.5189020865082785 7.3770220768299444 Zr
atom 7.5709512068668214 2.5249641199162922 7.3833039380132970 Zr
atom 2.5355846842235987 7.5603306425595225 7.3833039380132970 Zr
atom 7.5581853050471102 7.5500556255717264 7.3770220768299444 Zr
atom 2.4089311809495735 2.8083250175477295 -0.1488347661058001 S
atom 7.6607277135380842 2.1932547485167380 -0.1528425468784118 S
atom 2.6253611908948558 7.2286212711599722 -0.1528425468784118 S
atom 7.4400847200130098 7.8394785566111764 -0.1488347661058001 S
atom 2.7974446395430612 2.2154707404547751 4.8931040636576100 S
atom 7.3662349847518005 2.8763443433177285 4.8952330668926063 S
atom 2.3308684621085738 7.9117108659609610 4.8952330668926063 S
atom 7.8285981786065042 7.2466242795182296 4.8931040636576100 S
atom 2.6156622338915363 -0.0193997269975364 2.1041340121014147 S
atom 7.4184150428955293 -0.0238541025671930 2.7571539880132145 S
atom 2.3830485202522973 5.0115124200760421 2.7571539880132145 S
atom 7.6468157729549757 5.0117538120659155 2.1041340121014147 S
atom 2.8914505169935696 0.0106676359976485 7.7261675759883683 S
atom 7.2328389871012027 0.0028076749447749 7.0545264421410749 S
atom 2.1974724644579697 5.0381741975880105 7.0545264421410749 S
atom 7.9226040560570103 5.0418211750610906 7.7261675759883683 S
atom 0.0003356043626354 2.3600228345795564 2.6322651337392076 S
atom 5.0376635456281376 2.5877454083056164 2.2764013205106552 S
atom 0.0022970229849077 7.6231119309488502 2.2764013205106552 S
atom 5.0314891434260725 7.3911763736430052 2.6322651337392076 S
atom 0.0193631181146269 2.1818484983192312 7.0928900380473197 S
atom 5.0578547108259002 2.8756891674502287 7.6659112730187848 S
atom 0.0224881881826778 7.9110556900934590 7.6659112730187848 S
atom 5.0505166571780684 7.2130020373826822 7.0928900380473197 S
atom 0.2799495609701898 0.1692433761745603 9.8786919413731500 Ba
atom 5.2280463741328047 0.2391551674017801 9.8786919413731500 Ba
atom 0.1926798514895702 5.2745216900450123 9.8786919413731500 Ba
atom 5.3111031000336366 5.2003969152380058 9.8786919413731500 Ba
atom -0.1758969592780125 -0.1658925962465378 14.8168352598965249 Ba
atom 4.9028305511838690 -0.1885379711887094 14.8241223175417680 Ba
atom -0.1325359714593572 4.8468285514545242 14.8241223175417680 Ba
atom 4.8552565797854292 4.8652609428169038 14.8168352598965249 Ba
atom 2.5270317659836663 2.5189020865082785 12.3803618059163210 Zr
atom 7.5709512068668214 2.5249641199162922 12.3740799447329852 Zr
atom 2.5355846842235987 7.5603306425595225 12.3740799447329852 Zr
atom 7.5581853050471102 7.5500556255717264 12.3803618059163210 Zr
atom 2.5221502768962178 2.4879657792146088 17.4192244699633072 Zr
atom 7.5494127957082480 2.5014014615909179 17.4192123124059073 Zr
atom 2.5140462730650190 7.5367679842341531 17.4192123124059073 Zr
atom 7.5533038159596639 7.5191193182780518 17.4192244699633072 Zr
atom 2.2189021689360433 2.8105531618754171 9.8786919413731500 S
atom 7.8399560416126093 2.1531770935371082 9.8786919413731500 S
atom 2.8045895189693861 7.1885436161803442 9.8786919413731500 S
atom 7.2500557079994836 7.8417067009388637 9.8786919413731500 S
atom 2.7974446395430612 2.2154707404547751 14.8642798190886580 S
atom 7.3662349847518005 2.8763443433177285 14.8621508158536688 S
atom 2.3308684621085738 7.9117108659609610 14.8621508158536688 S
atom 7.8285981786065042 7.2466242795182296 14.8642798190886580 S
atom 2.8914505169935696 0.0106676359976485 12.0312163067578926 S
atom 7.2328389871012027 0.0028076749447749 12.7028574406052037 S
atom 2.1974724644579697 5.0381741975880105 12.7028574406052037 S
atom 7.9226040560570103 5.0418211750610906 12.0312163067578926 S
atom 2.6156622338915363 -0.0193997269975364 17.6532498706448528 S
atom 7.4184150428955293 -0.0238541025671930 17.0002298947330459 S
atom 2.3830485202522973 5.0115124200760421 17.0002298947330459 S
atom 7.6468157729549757 5.0117538120659155 17.6532498706448528 S
atom 0.0193631181146269 2.1818484983192312 12.6644938446989599 S
atom 5.0578547108259002 2.8756891674502287 12.0914726097274752 S
atom 0.0224881881826778 7.9110556900934590 12.0914726097274752 S
atom 5.0505166571780684 7.2130020373826822 12.6644938446989599 S
atom 0.0003356043626354 2.3600228345795564 17.1251187490070826 S
atom 5.0376635456281376 2.5877454083056164 17.4809825622356136 S
atom 0.0022970229849077 7.6231119309488502 17.4809825622356136 S
atom 5.0314891434260725 7.3911763736430052 17.1251187490070826 S
atom -0.0831159923412703 0.0260898310011286 19.4920734431573521 Ba
atom 5.1894681911076948 -0.0053756002639622 19.4882829604678527 Ba
atom 0.1541016684644615 5.0299909223792696 19.4882829604678527 Ba
atom 4.9480375467221727 5.0572433700645760 19.4920734431573521 Ba
atom 2.4089311809495735 2.8083250175477295 19.9062186488520751 S
atom 7.6607277135380842 2.1932547485167380 19.9102264296246716 S
atom 2.6253611908948558 7.2286212711599722 19.9102264296246716 S
atom 7.4400847200130098 7.8394785566111764 19.9062186488520751 S
atom 2.5416666005328485 2.4324607771904478 22.9863019047471262 Ba
atom 7.5455676919109909 2.6696784379961809 22.9900923874366612 Ba
atom 2.5102011692677584 7.7050449606394205 22.9900923874366612 Ba
atom 7.5728201395962911 7.4636143162539001 22.9863019047471262 Ba
atom 2.3496841732851852 2.3396798102537120 27.6615400880079747 Ba
atom 7.3624053209862348 2.3830407980723640 27.6542530303627423 Ba
atom 2.3270387983430099 7.4184073207155965 27.6542530303627423 Ba
atom 7.3808377123486162 7.3708333493171549 27.6615400880079747 Ba
atom 5.0035425487463252 5.0377270464279507 25.0591508779412067 Zr
atom 10.0523447537658619 5.0296230425967456 25.0591630354985853 Zr
atom 5.0169782311226356 10.0649895652399906 25.0591630354985853 Zr
atom 10.0346960878097775 10.0688805854913941 25.0591508779412067 Zr
atom 5.0344788560400051 5.0426085355153853 30.0980135419881698 Zr
atom 10.0759074120912402 5.0511614537553173 30.1042954031715198 Zr
atom 5.0405408894480059 10.0865279763985392 30.1042954031715198 Zr
atom 10.0656323951034370 10.0737620745788217 30.0980135419881698 Zr
atom 5.3239017870794516 4.9245079504812965 22.5721566990524138 S
atom 9.7441980406917015 5.1409379604265837 22.5681489182798174 S
atom 4.7088315180484530 10.1763044830698135 22.5681489182798174 S
atom 10.3550553261429013 9.9556614895447595 22.5721566990524138 S
atom 4.7310475099864968 5.3130214090747838 27.6140955288158310 S
atom 10.4272876354926858 4.8464452316403106 27.6162245320508219 S
atom 5.3919211128494435 9.8818117542835378 27.6162245320508219 S
atom 9.7622010490499296 10.3441749481382228 27.6140955288158310 S
atom 4.8755996041112732 2.5159123738943578 25.3532565988974241 S
atom 10.1386887004805608 2.5178737925166317 24.9973927856688753 S
atom 5.1033221778373390 7.5532403151598633 24.9973927856688753 S
atom 9.9067531431747131 7.5470659129577999 25.3532565988974241 S
atom 4.6974252678509592 2.5349398876463511 29.8138815032055646 S
atom 10.4266324596251803 2.5380649577144028 30.3869027381770245 S
atom 5.3912659369819478 7.5734314803576313 30.3869027381770245 S
atom 9.7285788069143706 7.5660934267097906 29.8138815032055646 S
atom 2.4961770425341854 5.1312390034232571 24.8251254772596219 S
atom 7.5270891896077599 4.8986252897840235 25.4781454531714502 S
atom 2.4917226669645238 9.9339918124272604 25.4781454531714502 S
atom 7.5273305815976208 10.1623925424866890 24.8251254772596219 S
atom 2.5262444055293658 5.4070272865252944 30.4471590411465804 S
atom 7.5537509671197256 4.7130492339896941 29.7755179072993172 S
atom 2.5183844444764918 9.7484157566329266 29.7755179072993172 S
atom 7.5573979445928092 10.4381808255887396 30.4471590411465804 S
atom 2.6848201457062797 2.7955263305019122 32.5996834065313834 Ba
atom 7.7900984595767309 2.7082566210212953 32.5996834065313834 Ba
atom 2.7547319369335037 7.7436231436645278 32.5996834065313834 Ba
atom 7.7159736847697182 7.8266798695653561 32.5996834065313834 Ba
atom 2.3496841732851852 2.3396798102537120 37.5378267250547282 Ba
atom 7.3624053209862348 2.3830407980723640 37.5451137826999712 Ba
atom 2.3270387983430099 7.4184073207155956 37.5451137826999712 Ba
atom 7.3808377123486162 7.3708333493171549 37.5378267250547282 Ba
atom 5.0344788560400051 5.0426085355153853 35.1013532710745793 Zr
atom 10.0759074120912402 5.0511614537553173 35.0950714098911405 Zr
atom 5.0405408894480059 10.0865279763985392 35.0950714098911405 Zr
atom 10.0656323951034370 10.0737620745788217 35.1013532710745793 Zr
atom 5.0035425487463252 5.0377270464279507 40.1402159351215317 Zr
atom 10.0523447537658619 5.0296230425967456 40.1402037775640750 Zr
atom 5.0169782311226356 10.0649895652399906 40.1402037775640750 Zr
atom 10.0346960878097775 10.0688805854913941 40.1402159351215317 Zr
atom 5.3261299314071309 4.7344789384677757 32.5996834065313834 S
atom 9.7041203857120610 5.3201662885011025 32.5996834065313834 S
atom 4.6687538630688330 10.3555328111443483 32.5996834065313834 S
atom 10.3572834704705699 9.7656324775312200 32.5996834065313834 S
atom 4.7310475099864968 5.3130214090747838 37.5852712842469217 S
atom 10.4272876354926858 4.8464452316403106 37.5831422810119165 S
atom 5.3919211128494435 9.8818117542835378 37.5831422810119165 S
atom 9.7622010490499296 10.3441749481382228 37.5852712842469217 S
atom 4.6974252678509592 2.5349398876463511 35.3854853098571454 S
atom 10.4266324596251803 2.5380649577144028 34.8124640748857033 S
atom 5.3912659369819478 7.5734314803576313 34.8124640748857033 S
atom 9.7285788069143706 7.5660934267097906 35.3854853098571454 S
atom 4.8755996041112732 2.5159123738943578 39.8461102141652930 S
atom 10.1386887004805608 2.5178737925166317 40.2019740273938311 S
atom 5.1033221778373390 7.5532403151598633 40.2019740273938311 S
atom 9.9067531431747131 7.5470659129577999 39.8461102141652930 S
atom 2.5262444055293658 5.4070272865252944 34.7522077719161260 S
atom 7.5537509671197256 4.7130492339896941 35.4238489057634141 S
atom 2.5183844444764918 9.7484157566329266 35.4238489057634141 S
atom 7.5573979445928092 10.4381808255887396 34.7522077719161260 S
atom 2.4961770425341854 5.1312390034232571 40.3742413358031271 S
atom 7.5270891896077599 4.8986252897840235 39.7212213598913166 S
atom 2.4917226669645238 9.9339918124272604 39.7212213598913166 S
atom 7.5273305815976208 10.1623925424866890 40.3742413358031271 S
atom 2.5416666005328485 2.4324607771904478 42.2130649083155944 Ba
atom 7.5455676919109909 2.6696784379961809 42.2092744256260559 Ba
atom 2.5102011692677584 7.7050449606394205 42.2092744256260559 Ba
atom 7.5728201395962911 7.4636143162539001 42.2130649083155944 Ba
atom 5.3239017870794516 4.9245079504812965 42.6272101140102748 S
atom 9.7441980406917015 5.1409379604265837 42.6312178947829139 S
atom 4.7088315180484530 10.1763044830698135 42.6312178947829139 S
atom 10.3550553261429013 9.9556614895447595 42.6272101140102748 S
