#=======================================================
# FHI-aims file: sym_relax_RP_4_55.in
# Created using the Atomic Simulation Environment (ASE)
# Tue Feb 25 12:10:01 2025
#=======================================================
lattice_vector 9.9403566235989018 -0.0000006710353445 0.0000000000000000 
lattice_vector -0.0000006710353445 9.9403566235989427 0.0000000000000000 
lattice_vector 0.0000000000000000 0.0000000000000000 46.4735336240787902 
atom 0.0000000000000000 0.0000000000000000 0.1957915026942471 Ba
atom 4.9701783117994465 -0.0000003355176724 0.1957915026942471 Ba
atom -0.0000003355176724 4.9701783117994687 0.1957915026942471 Ba
atom 4.9701779762817813 4.9701779762817999 0.1957915026942471 Ba
atom 0.0000000000000000 0.0000000000000000 5.0308713996406151 Ba
atom 4.9701783117994465 -0.0000003355176724 5.0308713996406151 Ba
atom -0.0000003355176724 4.9701783117994687 5.0308713996406151 Ba
atom 4.9701779762817813 4.9701779762817999 5.0308713996406151 Ba
atom 2.4850889881408906 2.4850889881409000 2.4129866497776344 Zr
atom 7.4552672999403420 2.4850886526232303 2.4129866497776344 Zr
atom 2.4850886526232197 7.4552672999403740 2.4129866497776344 Zr
atom 7.4552669644226652 7.4552669644226990 2.4129866497776344 Zr
atom 2.4850889881408906 2.4850889881409000 7.5469166270592396 Zr
atom 7.4552672999403420 2.4850886526232303 7.5469166270592396 Zr
atom 2.4850886526232197 7.4552672999403740 7.5469166270592396 Zr
atom 7.4552669644226652 7.4552669644226990 7.5469166270592396 Zr
atom 2.4850889881408906 2.4850889881409000 -0.1202640139228775 S
atom 7.4552672999403420 2.4850886526232303 -0.1202640139228775 S
atom 2.4850886526232197 7.4552672999403740 -0.1202640139228775 S
atom 7.4552669644226652 7.4552669644226990 -0.1202640139228775 S
atom 2.4850889881408906 2.4850889881409000 5.0093959110453046 S
atom 7.4552672999403420 2.4850886526232303 5.0093959110453046 S
atom 2.4850886526232197 7.4552672999403740 5.0093959110453046 S
atom 7.4552669644226652 7.4552669644226990 5.0093959110453046 S
atom 2.8171104073257722 0.0000031595233381 2.5067389954584516 S
atom 7.1232462162731238 -0.0000038305586830 2.5067389954584516 S
atom 2.1530675689560077 4.9701748167584583 2.5067389954584516 S
atom 7.7872883836075397 4.9701811358051380 2.5067389954584516 S
atom 2.9840647518195000 0.0000002204429746 7.5514647123147105 S
atom 6.9562918717793956 -0.0000008914783195 7.5514647123147105 S
atom 1.9861132244622748 4.9701777558388214 7.5514647123147105 S
atom 7.9542427281012777 4.9701781967247793 7.5514647123147105 S
atom -0.0000034950410106 2.1530679044736902 2.5067389954584516 S
atom 4.9701814713227863 2.8171100718081092 2.5067389954584516 S
atom 0.0000028240056657 7.7872887191252493 2.5067389954584516 S
atom 4.9701744812407576 7.1232458807554888 2.5067389954584516 S
atom -0.0000005559606470 1.9861135599799580 7.5514647123147105 S
atom 4.9701785322424170 2.9840644163018433 7.5514647123147105 S
atom -0.0000001150746979 7.9542430636189829 7.5514647123147105 S
atom 4.9701774203211251 6.9562915362617606 7.5514647123147105 S
atom 0.0000000000000000 0.0000000000000000 10.1029420921910358 Ba
atom 4.9701783117994465 -0.0000003355176724 10.1029420921910358 Ba
atom -0.0000003355176724 4.9701783117994687 10.1029420921910358 Ba
atom 4.9701779762817813 4.9701779762817999 10.1029420921910358 Ba
atom 0.0000000000000000 0.0000000000000000 15.1750127847414777 Ba
atom 4.9701783117994465 -0.0000003355176724 15.1750127847414777 Ba
atom -0.0000003355176724 4.9701783117994687 15.1750127847414777 Ba
atom 4.9701779762817813 4.9701779762817999 15.1750127847414777 Ba
atom 2.4850889881408906 2.4850889881409000 12.6589675573228391 Zr
atom 7.4552672999403420 2.4850886526232303 12.6589675573228391 Zr
atom 2.4850886526232197 7.4552672999403740 12.6589675573228391 Zr
atom 7.4552669644226652 7.4552669644226990 12.6589675573228391 Zr
atom 2.4850889881408906 2.4850889881409000 17.7928975346044389 Zr
atom 7.4552672999403420 2.4850886526232303 17.7928975346044389 Zr
atom 2.4850886526232197 7.4552672999403740 17.7928975346044389 Zr
atom 7.4552669644226652 7.4552669644226990 17.7928975346044389 Zr
atom 2.4850889881408906 2.4850889881409000 10.1029420921910358 S
atom 7.4552672999403420 2.4850886526232303 10.1029420921910358 S
atom 2.4850886526232197 7.4552672999403740 10.1029420921910358 S
atom 7.4552669644226652 7.4552669644226990 10.1029420921910358 S
atom 2.4850889881408906 2.4850889881409000 15.1964882733367723 S
atom 7.4552672999403420 2.4850886526232303 15.1964882733367723 S
atom 2.4850886526232197 7.4552672999403740 15.1964882733367723 S
atom 7.4552669644226652 7.4552669644226990 15.1964882733367723 S
atom 2.9840647518195000 0.0000002204429746 12.6544194720673921 S
atom 6.9562918717793956 -0.0000008914783195 12.6544194720673921 S
atom 1.9861132244622739 4.9701777558388214 12.6544194720673921 S
atom 7.9542427281012777 4.9701781967247793 12.6544194720673921 S
atom 2.8171104073257722 0.0000031595233381 17.6991451889236444 S
atom 7.1232462162731238 -0.0000038305586830 17.6991451889236444 S
atom 2.1530675689560073 4.9701748167584583 17.6991451889236444 S
atom 7.7872883836075397 4.9701811358051380 17.6991451889236444 S
atom -0.0000005559606470 1.9861135599799580 12.6544194720673921 S
atom 4.9701785322424170 2.9840644163018433 12.6544194720673921 S
atom -0.0000001150746979 7.9542430636189829 12.6544194720673921 S
atom 4.9701774203211251 6.9562915362617606 12.6544194720673921 S
atom -0.0000034950410106 2.1530679044736902 17.6991451889236444 S
atom 4.9701814713227863 2.8171100718081092 17.6991451889236444 S
atom 0.0000028240056657 7.7872887191252493 17.6991451889236444 S
atom 4.9701744812407576 7.1232458807554888 17.6991451889236444 S
atom 0.0000000000000000 -0.0000000000000000 20.0100926816878406 Ba
atom 4.9701783117994465 -0.0000003355176724 20.0100926816878406 Ba
atom -0.0000003355176724 4.9701783117994687 20.0100926816878406 Ba
atom 4.9701779762817813 4.9701779762817999 20.0100926816878406 Ba
atom 2.4850889881408906 2.4850889881409000 20.3261481983049350 S
atom 7.4552672999403420 2.4850886526232303 20.3261481983049350 S
atom 2.4850886526232197 7.4552672999403740 20.3261481983049350 S
atom 7.4552669644226652 7.4552669644226990 20.3261481983049350 S
atom 2.4850889881408906 2.4850889881409000 23.4297048985995389 Ba
atom 7.4552672999403420 2.4850886526232303 23.4297048985995389 Ba
atom 2.4850886526232197 7.4552672999403740 23.4297048985995389 Ba
atom 7.4552669644226652 7.4552669644226990 23.4297048985995389 Ba
atom 2.4850889881408906 2.4850889881409000 28.2618503655445181 Ba
atom 7.4552672999403420 2.4850886526232303 28.2618503655445181 Ba
atom 2.4850886526232197 7.4552672999403740 28.2618503655445181 Ba
atom 7.4552669644226652 7.4552669644226990 28.2618503655445181 Ba
atom 4.9701779762817813 4.9701779762817999 25.6491268487933652 Zr
atom 9.9403562880812277 4.9701776407641276 25.6491268487933652 Zr
atom 4.9701776407641027 9.9403562880812810 25.6491268487933652 Zr
atom 9.9403559525635625 9.9403559525635998 25.6491268487933652 Zr
atom 4.9701779762817813 4.9701779762817999 30.7811683969965237 Zr
atom 9.9403562880812277 4.9701776407641276 30.7811683969965237 Zr
atom 4.9701776407641027 9.9403562880812810 30.7811683969965237 Zr
atom 9.9403559525635625 9.9403559525635998 30.7811683969965237 Zr
atom 4.9701779762817813 4.9701779762817999 23.1150817915346387 S
atom 9.9403562880812277 4.9701776407641276 23.1150817915346387 S
atom 4.9701776407641027 9.9403562880812810 23.1150817915346387 S
atom 9.9403559525635625 9.9403559525635998 23.1150817915346387 S
atom 4.9701779762817813 4.9701779762817999 28.2432547278731398 S
atom 9.9403562880812277 4.9701776407641276 28.2432547278731398 S
atom 4.9701776407641027 9.9403562880812810 28.2432547278731398 S
atom 9.9403559525635625 9.9403559525635998 28.2432547278731398 S
atom 5.3083764582096844 2.4850928987500271 25.7425282221803116 S
atom 9.6021581416709925 2.4850844064964264 25.7425282221803116 S
atom 4.6319794943538710 7.4552630538135780 25.7425282221803116 S
atom 10.2785544344914630 7.4552708750318244 25.7425282221803116 S
atom 5.4673015027721732 2.4850893780879768 30.7835111328628095 S
atom 9.4432330971085054 2.4850879271584811 30.7835111328628095 S
atom 4.4730544497913769 7.4552665744756297 30.7835111328628095 S
atom 10.4374794790539447 7.4552673543697709 30.7835111328628095 S
atom 2.4850847420140889 4.6319798298715646 25.7425282221803116 S
atom 7.4552712105494665 5.3083761226920396 25.7425282221803116 S
atom 2.4850925632323446 10.2785547700091833 25.7425282221803116 S
atom 7.4552627182958666 9.6021578061533539 25.7425282221803116 S
atom 2.4850882626761392 4.4730547853090661 30.7835111328628095 S
atom 7.4552676898874095 5.4673011672545355 30.7835111328628095 S
atom 2.4850890425702938 10.4374798145716738 30.7835111328628095 S
atom 7.4552662389579245 9.4432327615908793 30.7835111328628095 S
atom 2.4850889881408906 2.4850889881409000 33.3397089042304486 Ba
atom 7.4552672999403420 2.4850886526232303 33.3397089042304486 Ba
atom 2.4850886526232197 7.4552672999403740 33.3397089042304486 Ba
atom 7.4552669644226652 7.4552669644226990 33.3397089042304486 Ba
atom 2.4850889881408906 2.4850889881409000 38.4175674429164076 Ba
atom 7.4552672999403420 2.4850886526232303 38.4175674429164076 Ba
atom 2.4850886526232197 7.4552672999403740 38.4175674429164076 Ba
atom 7.4552669644226652 7.4552669644226990 38.4175674429164076 Ba
atom 4.9701779762817813 4.9701779762817999 35.8982494114643060 Zr
atom 9.9403562880812277 4.9701776407641276 35.8982494114643060 Zr
atom 4.9701776407641027 9.9403562880812810 35.8982494114643060 Zr
atom 9.9403559525635625 9.9403559525635998 35.8982494114643060 Zr
atom 4.9701779762817813 4.9701779762817999 41.0302909596675036 Zr
atom 9.9403562880812277 4.9701776407641276 41.0302909596675036 Zr
atom 4.9701776407641027 9.9403562880812810 41.0302909596675036 Zr
atom 9.9403559525635625 9.9403559525635998 41.0302909596675036 Zr
atom 4.9701779762817813 4.9701779762817999 33.3397089042304486 S
atom 9.9403562880812277 4.9701776407641276 33.3397089042304486 S
atom 4.9701776407641027 9.9403562880812810 33.3397089042304486 S
atom 9.9403559525635625 9.9403559525635998 33.3397089042304486 S
atom 4.9701779762817813 4.9701779762817999 38.4361630805877255 S
atom 9.9403562880812277 4.9701776407641276 38.4361630805877255 S
atom 4.9701776407641027 9.9403562880812810 38.4361630805877255 S
atom 9.9403559525635625 9.9403559525635998 38.4361630805877255 S
atom 5.4673015027721732 2.4850893780879768 35.8959066755980558 S
atom 9.4432330971085054 2.4850879271584811 35.8959066755980558 S
atom 4.4730544497913769 7.4552665744756297 35.8959066755980558 S
atom 10.4374794790539447 7.4552673543697709 35.8959066755980558 S
atom 5.3083764582096844 2.4850928987500271 40.9368895862805786 S
atom 9.6021581416709925 2.4850844064964264 40.9368895862805786 S
atom 4.6319794943538710 7.4552630538135780 40.9368895862805786 S
atom 10.2785544344914630 7.4552708750318244 40.9368895862805786 S
atom 2.4850882626761392 4.4730547853090661 35.8959066755980558 S
atom 7.4552676898874095 5.4673011672545355 35.8959066755980558 S
atom 2.4850890425702938 10.4374798145716738 35.8959066755980558 S
atom 7.4552662389579245 9.4432327615908793 35.8959066755980558 S
atom 2.4850847420140889 4.6319798298715646 40.9368895862805786 S
atom 7.4552712105494665 5.3083761226920396 40.9368895862805786 S
atom 2.4850925632323446 10.2785547700091833 40.9368895862805786 S
atom 7.4552627182958666 9.6021578061533539 40.9368895862805786 S
atom 2.4850889881408906 2.4850889881409000 43.2497129098613655 Ba
atom 7.4552672999403420 2.4850886526232303 43.2497129098613655 Ba
atom 2.4850886526232197 7.4552672999403740 43.2497129098613655 Ba
atom 7.4552669644226652 7.4552669644226990 43.2497129098613655 Ba
atom 4.9701779762817813 4.9701779762817999 43.5643360169262834 S
atom 9.9403562880812277 4.9701776407641276 43.5643360169262834 S
atom 4.9701776407641027 9.9403562880812810 43.5643360169262834 S
atom 9.9403559525635625 9.9403559525635998 43.5643360169262834 S
