#=======================================================
# FHI-aims file: sym_relax_RP_2_139.in
# Created using the Atomic Simulation Environment (ASE)
# Tue Feb 25 12:07:01 2025
#=======================================================
lattice_vector 10.0581950534885323 0.0000000000000000 0.0000000000000000 
lattice_vector -0.0000000000000000 10.0581950534885323 0.0000000000000000 
lattice_vector -0.0000000000000000 0.0000000000000000 25.6097816532655322 
atom -0.0000000000000000 0.0000000000000000 0.2780874862683231 Ba
atom 5.0290975267442679 0.0000000000000000 0.2780874862683232 Ba
atom -0.0000000000000000 5.0290975267442679 0.2780874862683232 Ba
atom 5.0290975267442679 5.0290975267442679 0.2780874862683231 Ba
atom 0.0000000000000000 0.0000000000000000 4.9249580102433699 Ba
atom 5.0290975267442679 0.0000000000000000 4.9249580102433699 Ba
atom 0.0000000000000000 5.0290975267442679 4.9249580102433699 Ba
atom 5.0290975267442679 5.0290975267442679 4.9249580102433699 Ba
atom 2.5145487633721340 2.5145487633721340 2.3619507965073145 Zr
atom 7.5436462901163965 2.5145487633721340 2.3619507965073145 Zr
atom 2.5145487633721340 7.5436462901163965 2.3619507965073145 Zr
atom 7.5436462901163965 7.5436462901163965 2.3619507965073145 Zr
atom 2.5145487633721340 2.5145487633721340 7.4879652239794297 Zr
atom 7.5436462901163965 2.5145487633721340 7.4879652239794297 Zr
atom 2.5145487633721340 7.5436462901163965 7.4879652239794297 Zr
atom 7.5436462901163965 7.5436462901163965 7.4879652239794297 Zr
atom 2.5145487633721340 2.5145487633721340 -0.1456572717664845 S
atom 7.5436462901163965 2.5145487633721340 -0.1456572717664845 S
atom 2.5145487633721340 7.5436462901163965 -0.1456572717664845 S
atom 7.5436462901163965 7.5436462901163965 -0.1456572717664845 S
atom 2.5145487633721340 2.5145487633721340 4.9249580102433699 S
atom 7.5436462901163965 2.5145487633721340 4.9249580102433699 S
atom 2.5145487633721340 7.5436462901163965 4.9249580102433699 S
atom 7.5436462901163965 7.5436462901163965 4.9249580102433699 S
atom 2.5145487633721340 0.0000000000000000 2.4612958490184687 S
atom 7.5436462901163965 0.0000000000000000 2.4612958490184687 S
atom 2.5145487633721340 5.0290975267442679 2.4612958490184687 S
atom 7.5436462901163965 5.0290975267442679 2.4612958490184687 S
atom 2.5145487633721340 0.0000000000000000 7.3886201714682693 S
atom 7.5436462901163965 0.0000000000000000 7.3886201714682693 S
atom 2.5145487633721340 5.0290975267442679 7.3886201714682693 S
atom 7.5436462901163965 5.0290975267442679 7.3886201714682693 S
atom 0.0000000000000000 2.5145487633721340 2.4612958490184687 S
atom 5.0290975267442679 2.5145487633721340 2.4612958490184687 S
atom 0.0000000000000000 7.5436462901163965 2.4612958490184687 S
atom 5.0290975267442679 7.5436462901163965 2.4612958490184687 S
atom 0.0000000000000000 2.5145487633721340 7.3886201714682693 S
atom 5.0290975267442679 2.5145487633721340 7.3886201714682693 S
atom 0.0000000000000000 7.5436462901163965 7.3886201714682693 S
atom 5.0290975267442679 7.5436462901163965 7.3886201714682693 S
atom 0.0000000000000000 0.0000000000000000 9.5718285342184171 Ba
atom 5.0290975267442679 0.0000000000000000 9.5718285342184171 Ba
atom -0.0000000000000000 5.0290975267442679 9.5718285342184171 Ba
atom 5.0290975267442679 5.0290975267442679 9.5718285342184171 Ba
atom 2.5145487633721340 2.5145487633721340 9.9955732922532299 S
atom 7.5436462901163965 2.5145487633721340 9.9955732922532299 S
atom 2.5145487633721340 7.5436462901163965 9.9955732922532299 S
atom 7.5436462901163965 7.5436462901163965 9.9955732922532299 S
atom 2.5145487633721340 2.5145487633721340 13.0829783129010835 Ba
atom 7.5436462901163965 2.5145487633721340 13.0829783129010835 Ba
atom 2.5145487633721340 7.5436462901163965 13.0829783129010835 Ba
atom 7.5436462901163965 7.5436462901163965 13.0829783129010835 Ba
atom 2.5145487633721340 2.5145487633721340 17.7298488368761404 Ba
atom 7.5436462901163965 2.5145487633721340 17.7298488368761404 Ba
atom 2.5145487633721340 7.5436462901163965 17.7298488368761369 Ba
atom 7.5436462901163965 7.5436462901163965 17.7298488368761369 Ba
atom 5.0290975267442679 5.0290975267442679 15.1668416231400744 Zr
atom 10.0581950534885358 5.0290975267442679 15.1668416231400744 Zr
atom 5.0290975267442679 10.0581950534885358 15.1668416231400744 Zr
atom 10.0581950534885358 10.0581950534885358 15.1668416231400744 Zr
atom 5.0290975267442679 5.0290975267442679 20.2928560506121904 Zr
atom 10.0581950534885358 5.0290975267442679 20.2928560506121904 Zr
atom 5.0290975267442679 10.0581950534885358 20.2928560506121904 Zr
atom 10.0581950534885358 10.0581950534885358 20.2928560506121904 Zr
atom 5.0290975267442679 5.0290975267442679 12.6592335548662795 S
atom 10.0581950534885358 5.0290975267442679 12.6592335548662795 S
atom 5.0290975267442679 10.0581950534885358 12.6592335548662795 S
atom 10.0581950534885358 10.0581950534885358 12.6592335548662795 S
atom 5.0290975267442679 5.0290975267442679 17.7298488368761404 S
atom 10.0581950534885358 5.0290975267442679 17.7298488368761404 S
atom 5.0290975267442679 10.0581950534885358 17.7298488368761369 S
atom 10.0581950534885358 10.0581950534885358 17.7298488368761369 S
atom 5.0290975267442679 2.5145487633721340 15.2661866756512410 S
atom 10.0581950534885358 2.5145487633721340 15.2661866756512410 S
atom 5.0290975267442679 7.5436462901163965 15.2661866756512410 S
atom 10.0581950534885358 7.5436462901163965 15.2661866756512410 S
atom 5.0290975267442679 2.5145487633721340 20.1935109981010328 S
atom 10.0581950534885358 2.5145487633721340 20.1935109981010328 S
atom 5.0290975267442679 7.5436462901163965 20.1935109981010328 S
atom 10.0581950534885358 7.5436462901163965 20.1935109981010328 S
atom 2.5145487633721340 5.0290975267442679 15.2661866756512410 S
atom 7.5436462901163965 5.0290975267442679 15.2661866756512410 S
atom 2.5145487633721340 10.0581950534885358 15.2661866756512410 S
atom 7.5436462901163965 10.0581950534885358 15.2661866756512410 S
atom 2.5145487633721340 5.0290975267442679 20.1935109981010328 S
atom 7.5436462901163965 5.0290975267442679 20.1935109981010328 S
atom 2.5145487633721340 10.0581950534885358 20.1935109981010328 S
atom 7.5436462901163965 10.0581950534885358 20.1935109981010328 S
atom 2.5145487633721340 2.5145487633721340 22.3767193608511903 Ba
atom 7.5436462901163965 2.5145487633721340 22.3767193608511903 Ba
atom 2.5145487633721340 7.5436462901163965 22.3767193608511903 Ba
atom 7.5436462901163965 7.5436462901163965 22.3767193608511903 Ba
atom 5.0290975267442679 5.0290975267442679 22.8004641188860013 S
atom 10.0581950534885358 5.0290975267442679 22.8004641188860013 S
atom 5.0290975267442679 10.0581950534885358 22.8004641188860013 S
atom 10.0581950534885358 10.0581950534885358 22.8004641188860013 S
