#=======================================================
# FHI-aims file: sym_relax_RP_2_68.in
# Created using the Atomic Simulation Environment (ASE)
# Tue Feb 25 12:07:48 2025
#=======================================================
lattice_vector 9.9166760088953367 0.0000000000004598 0.0000000000000000 
lattice_vector 0.0000000000004598 9.9166760088953190 0.0000000000000000 
lattice_vector 0.0000000000000000 0.0000000000000000 26.2253064959726139 
atom 0.0000000000000000 0.0000000000000000 0.1715134653965245 Ba
atom 4.9583380044476701 0.0000000000002288 0.1715134653965245 Ba
atom 0.0000000000002288 4.9583380044476595 0.1715134653965245 Ba
atom 4.9583380044478984 4.9583380044478869 0.1715134653965245 Ba
atom -0.0000000000000000 0.0000000000000000 5.0433281723024290 Ba
atom 4.9583380044476701 0.0000000000002288 5.0433281723024290 Ba
atom 0.0000000000002288 4.9583380044476595 5.0433281723024290 Ba
atom 4.9583380044478984 4.9583380044478869 5.0433281723024290 Ba
atom 2.4791690022239492 2.4791690022239434 2.4604960131873144 Zr
atom 7.4375070066716118 2.4791690022241708 2.4604960131873144 Zr
atom 2.4791690022241788 7.4375070066716011 2.4604960131873144 Zr
atom 7.4375070066718365 7.4375070066718330 2.4604960131873144 Zr
atom 2.4791690022239492 2.4791690022239434 7.6261603314175455 Zr
atom 7.4375070066716118 2.4791690022241708 7.6261603314175455 Zr
atom 2.4791690022241788 7.4375070066716011 7.6261603314175455 Zr
atom 7.4375070066718365 7.4375070066718330 7.6261603314175455 Zr
atom 2.4791690022239492 2.4791690022239434 -0.0911556641533662 S
atom 7.4375070066716118 2.4791690022241708 -0.0911556641533662 S
atom 2.4791690022241788 7.4375070066716011 -0.0911556641533662 S
atom 7.4375070066718365 7.4375070066718330 -0.0911556641533662 S
atom 2.4791690022239492 2.4791690022239434 5.0433281723024290 S
atom 7.4375070066716118 2.4791690022241708 5.0433281723024290 S
atom 2.4791690022241788 7.4375070066716011 5.0433281723024290 S
atom 7.4375070066718365 7.4375070066718330 5.0433281723024290 S
atom 2.0575358824251775 0.0000000000001018 2.5371097765477750 S
atom 7.8591401264701561 0.0000000000003559 2.5371097765477750 S
atom 2.9008021220227196 4.9583380044477874 2.5371097765477750 S
atom 7.0158738868730728 4.9583380044479863 2.5371097765477750 S
atom 2.9008021220224922 0.0000000000001270 7.5495465680570897 S
atom 7.0158738868728419 0.0000000000003306 7.5495465680570897 S
atom 2.0575358824254040 4.9583380044477572 7.5495465680570897 S
atom 7.8591401264703853 4.9583380044480156 7.5495465680570897 S
atom 0.0000000000001275 2.9008021220224878 2.5371097765477750 S
atom 4.9583380044477714 2.0575358824254013 2.5371097765477750 S
atom 0.0000000000003301 7.0158738868728294 2.5371097765477750 S
atom 4.9583380044480290 7.8591401264703693 2.5371097765477750 S
atom 0.0000000000001018 2.0575358824251726 7.5495465680570897 S
atom 4.9583380044477954 2.9008021220227147 7.5495465680570897 S
atom 0.0000000000003563 7.8591401264701428 7.5495465680570897 S
atom 4.9583380044479970 7.0158738868730621 7.5495465680570897 S
atom -0.0000000000000000 0.0000000000000000 9.9151428792083447 Ba
atom 4.9583380044476701 0.0000000000002288 9.9151428792083447 Ba
atom 0.0000000000002288 4.9583380044476595 9.9151428792083447 Ba
atom 4.9583380044478984 4.9583380044478869 9.9151428792083447 Ba
atom 2.4791690022239492 2.4791690022239434 10.1778120087582327 S
atom 7.4375070066716118 2.4791690022241708 10.1778120087582327 S
atom 2.4791690022241788 7.4375070066716011 10.1778120087582327 S
atom 7.4375070066718365 7.4375070066718330 10.1778120087582327 S
atom 2.4791690022239492 2.4791690022239434 13.2841667133828292 Ba
atom 7.4375070066716118 2.4791690022241708 13.2841667133828292 Ba
atom 2.4791690022241788 7.4375070066716011 13.2841667133828292 Ba
atom 7.4375070066718365 7.4375070066718330 13.2841667133828292 Ba
atom 2.4791690022239492 2.4791690022239434 18.1559814202887502 Ba
atom 7.4375070066716118 2.4791690022241708 18.1559814202887502 Ba
atom 2.4791690022241788 7.4375070066716011 18.1559814202887502 Ba
atom 7.4375070066718365 7.4375070066718330 18.1559814202887502 Ba
atom 4.9583380044478984 4.9583380044478869 15.5731492611736257 Zr
atom 9.9166760088955677 4.9583380044481133 15.5731492611736257 Zr
atom 4.9583380044481249 9.9166760088955481 15.5731492611736257 Zr
atom 9.9166760088957968 9.9166760088957737 15.5731492611736257 Zr
atom 4.9583380044478984 4.9583380044478869 20.7388135794038533 Zr
atom 9.9166760088955677 4.9583380044481133 20.7388135794038533 Zr
atom 4.9583380044481249 9.9166760088955481 20.7388135794038533 Zr
atom 9.9166760088957968 9.9166760088957737 20.7388135794038533 Zr
atom 4.9583380044478984 4.9583380044478869 13.0214975838329341 S
atom 9.9166760088955677 4.9583380044481133 13.0214975838329341 S
atom 4.9583380044481249 9.9166760088955481 13.0214975838329341 S
atom 9.9166760088957968 9.9166760088957737 13.0214975838329341 S
atom 4.9583380044478984 4.9583380044478869 18.1559814202887502 S
atom 9.9166760088955677 4.9583380044481133 18.1559814202887502 S
atom 4.9583380044481249 9.9166760088955481 18.1559814202887502 S
atom 9.9166760088957968 9.9166760088957737 18.1559814202887502 S
atom 4.5367048846491249 2.4791690022240438 15.6497630245340851 S
atom 10.3383091286941031 2.4791690022243005 15.6497630245340851 S
atom 5.3799711242466604 7.4375070066717299 15.6497630245340851 S
atom 9.4950428890970162 7.4375070066719307 15.6497630245340851 S
atom 5.3799711242464365 2.4791690022240700 20.6621998160433833 S
atom 9.4950428890967871 2.4791690022242747 20.6621998160433833 S
atom 4.5367048846493514 7.4375070066717015 20.6621998160433833 S
atom 10.3383091286943323 7.4375070066719591 20.6621998160433833 S
atom 2.4791690022240775 5.3799711242464276 15.6497630245340851 S
atom 7.4375070066717059 4.5367048846493478 15.6497630245340851 S
atom 2.4791690022242774 9.4950428890967711 15.6497630245340851 S
atom 7.4375070066719697 10.3383091286943145 15.6497630245340851 S
atom 2.4791690022240500 4.5367048846491187 20.6621998160433833 S
atom 7.4375070066717379 5.3799711242466595 20.6621998160433833 S
atom 2.4791690022243054 10.3383091286940907 20.6621998160433833 S
atom 7.4375070066719422 9.4950428890970073 20.6621998160433833 S
atom 2.4791690022239492 2.4791690022239434 23.0277961271946481 Ba
atom 7.4375070066716118 2.4791690022241708 23.0277961271946481 Ba
atom 2.4791690022241788 7.4375070066716011 23.0277961271946481 Ba
atom 7.4375070066718365 7.4375070066718330 23.0277961271946481 Ba
atom 4.9583380044478984 4.9583380044478869 23.2904652567445396 S
atom 9.9166760088955677 4.9583380044481133 23.2904652567445396 S
atom 4.9583380044481249 9.9166760088955481 23.2904652567445396 S
atom 9.9166760088957968 9.9166760088957737 23.2904652567445396 S
