#=======================================================
# FHI-aims file: sym_relax_RP_2_13.in
# Created using the Atomic Simulation Environment (ASE)
# Tue Feb 25 12:07:42 2025
#=======================================================
lattice_vector 10.0867529102502012 0.1105953394346859 0.0006988191941608 
lattice_vector 0.1105953394346860 10.0867529102502012 -0.0006988191941608 
lattice_vector 0.0010731328497658 -0.0010731328497658 25.5098756539402309 
atom -0.0945616935216880 -0.1049812945391096 0.2833887206967073 Ba
atom 5.1483577496642186 0.1498593632390307 0.2837381302937873 Ba
atom 0.1602789642564524 5.1379381486467715 0.2830393110996268 Ba
atom 5.0041124313207623 4.9936928303033197 0.2833887206967073 Ba
atom 0.0275949909378252 0.0271822475340691 4.9057453180654358 Ba
atom 5.0161942075910284 0.0277026787795176 4.9060947276625164 Ba
atom 0.0281154221832736 5.0157814641872669 4.9053959084683560 Ba
atom 5.1262691157802740 5.1258563723765080 4.9057453180654358 Ba
atom 2.5422491451278599 2.5376682272605393 2.3641922310517653 Zr
atom 7.6043823527070131 2.6117226494319250 2.3645416406488469 Zr
atom 2.6163035672992425 7.5998014348396667 2.3638428214546825 Zr
atom 7.6409232699703109 7.6363423521029699 2.3641922310517662 Zr
atom 2.5380809706642999 2.5418364017240980 7.4472984050791080 Zr
atom 7.6002141782434443 2.6158908238954850 7.4476478146761851 Zr
atom 2.6121353928356870 7.6039696093032365 7.4469489954820274 Zr
atom 7.6367550955067482 7.6405105265665334 7.4472984050791080 Zr
atom 2.7275085253815496 2.7322137838264147 -0.1262122002232642 S
atom 7.4098367961411302 2.4264632691782388 -0.1258627906261839 S
atom 2.4217580107333618 7.4145420545859970 -0.1265616098203447 S
atom 7.8261826502239833 7.8308879086688599 -0.1262122002232642 S
atom 2.2958574446304243 2.2954447012266646 4.9057453180654358 S
atom 7.8466058787408786 2.8581143499293620 4.9060947276625164 S
atom 2.8585270933331208 7.8461931353371099 4.9053959084683560 S
atom 7.3945315694728810 7.3941188260690973 4.9057453180654358 S
atom 2.5318170851974102 0.0254721899582480 2.2349999139171763 S
atom 7.5659244047651963 0.0804595457150013 2.6814394806894337 S
atom 2.5778456193574435 5.0685383311227472 2.6807406614952711 S
atom 7.6304912100398514 5.1241463148006838 2.2349999139171763 S
atom 2.5119721133314501 0.0294127363553388 7.5768401318107710 S
atom 7.5646177040138589 0.0850207200332710 7.1310993842326784 S
atom 2.5765389186060998 5.0730995054410215 7.1304005650385172 S
atom 7.6106462381738922 5.1280868611977777 7.5768401318107710 S
atom 0.0298254797590944 2.5115593699276859 2.2346505043200993 S
atom 5.0735122488447857 2.5761261752023406 2.6810900710923513 S
atom 0.0854334634370266 7.5642049606101001 2.6803912518981905 S
atom 5.1284996046015427 7.6102334947701173 2.2346505043200997 S
atom 0.0258849333620046 2.5314043417936523 7.5764907222137028 S
atom 5.0689510745265220 2.5774328759536815 7.1307499746355978 S
atom 0.0808722891187580 7.5655116613614268 7.1300511554414339 S
atom 5.1245590582044525 7.6300784666360872 7.5764907222137028 S
atom -0.1045685511353533 -0.0949744369254439 9.5281019154341760 Ba
atom 5.1383508920505463 0.1598662208526961 9.5284513250312521 Ba
atom 0.1502721066427869 5.1479450062604499 9.5277525058370980 Ba
atom 4.9941055737070910 5.0036996879169928 9.5281019154341760 Ba
atom 2.7326265272301802 2.7270957819777881 9.9377028363541342 S
atom 7.4149547979897577 2.4213452673296039 9.9380522459512139 S
atom 2.4268760125819941 7.4094240527373509 9.9373534267570474 S
atom 7.8313006520726214 7.8257699068202200 9.9377028363541342 S
atom 2.6617750727314111 2.6337991883939473 13.0386569485801420 Ba
atom 7.5082513915735944 2.4921967218283720 13.0390063581772395 Ba
atom 2.5201726061658389 7.4802755072361187 13.0383075389830676 Ba
atom 7.7604491975738643 7.7324733132363850 13.0386569485801438 Ba
atom 2.5230879883228226 2.5216021120692940 17.6606831450355628 Ba
atom 7.6204484678982443 2.6308838062369633 17.6610325546326479 Ba
atom 2.6323696824904861 7.6189625916447099 17.6603337354384848 Ba
atom 7.6217621131652713 7.6202762369117334 17.6606831450355628 Ba
atom 5.1130210131333360 5.1011934193980411 15.1188141924353729 Zr
atom 10.1395312854119570 5.1396249062688888 15.1191636020324420 Zr
atom 5.1514525000041838 10.1277036916766363 15.1184647828382968 Zr
atom 10.2116951379757861 10.1998675442404831 15.1188141924353729 Zr
atom 5.1026792956515719 5.1115351368798025 20.2025520976357527 Zr
atom 10.1291895679301884 5.1499666237506556 20.2029015072328200 Zr
atom 5.1411107825224178 10.1380454091583925 20.2022026880386711 Zr
atom 10.2013534204940051 10.2102092617222393 20.2025520976357527 Zr
atom 4.9117282852900104 4.9151865823113576 12.6291406095690615 S
atom 10.3255381224986387 5.3409176341122073 12.6294900191661412 S
atom 5.3374593370908778 10.3289964195199531 12.6287911999720048 S
atom 10.0104024101324640 10.0138607071537962 12.6291406095690615 S
atom 5.3517296186729455 5.3502437424194165 17.6606831450355628 S
atom 9.8904809623905940 4.9009163007292855 17.6610325546326479 S
atom 4.9024021769828163 9.8889950861370401 17.6603337354384848 S
atom 10.4504037435153911 10.4489178672618426 17.6606831450355628 S
atom 5.0631372278195848 2.5719186746545994 15.4383327301484705 S
atom 10.1368495343725886 2.6285564010767066 14.9897795848469286 S
atom 5.1487707489648153 7.6166351864844595 14.9890807656527709 S
atom 10.1618113526620331 7.6705927994970216 15.4383327301484687 S
atom 5.0803992284014869 2.5805672436516600 19.8833829695197686 S
atom 10.0934398320986762 2.6345248566642363 20.3326349340154415 S
atom 5.1053610466909447 7.6226036420719891 20.3319361148212820 S
atom 10.1790733532439202 7.6792413684941048 19.8833829695197686 S
atom 2.5820531199051864 5.0789133521479553 15.4379833205513801 S
atom 7.6240895183255244 5.1038751704374050 14.9894301752498418 S
atom 2.6360107329177613 10.0919539558451561 14.9887313560556930 S
atom 7.6807272447476453 10.1775874769903805 15.4379833205513801 S
atom 2.5734045509081294 5.0616513515660557 19.8830335599226835 S
atom 7.6181210627379885 5.1472848727112863 20.3322855244183671 S
atom 2.6300422773302348 10.1353636581190454 20.3315867052241934 S
atom 7.6720786757505559 10.1603254764084898 19.8830335599226835 S
atom 2.6352850646474666 2.6602891964778852 22.2827093414909818 Ba
atom 7.4817613834896557 2.5186867299123108 22.2830587510880598 Ba
atom 2.4936825980819006 7.5067655153200690 22.2823599318939038 Ba
atom 7.7339591894899122 7.7589633213203228 22.2827093414909818 Ba
atom 4.9166724585648875 4.9102424090364822 22.6922256805020801 S
atom 10.3304822957734928 5.3359734608373381 22.6925750900991474 S
atom 5.3424035103657390 10.3240522462450759 22.6918762709050021 S
atom 10.0153465834073288 10.0089165338789154 22.6922256805020801 S
