#=======================================================
# FHI-aims file: sym_relax_RP_2_14.in
# Created using the Atomic Simulation Environment (ASE)
# Tue Feb 25 12:07:04 2025
#=======================================================
lattice_vector 10.1120236172513582 0.0015870440984424 0.0088988051060154 
lattice_vector 0.0015870440984424 10.1120236172513618 0.0088988051060155 
lattice_vector 0.0215046559355218 0.0215046559355219 25.3632662769774022 
atom -0.1503852692513257 0.0020624594839661 0.2828428986632338 Ba
atom 5.2152609818338531 0.0037262540254837 0.2847508040696843 Ba
atom 0.1600426952573915 5.0589445406019404 0.2847508040696842 Ba
atom 4.9064200614235673 5.0588677901588666 0.2917417037692489 Ba
atom 0.0528155026882074 0.0044992038572568 4.8787177048551440 Ba
atom 5.0114673274511361 0.0045653397056258 4.8808341119199508 Ba
atom -0.0437509591253249 5.0597836262820843 4.8808341119199499 Ba
atom 5.1096208333630981 5.0613045345321517 4.8876165099611573 Ba
atom 2.5326582954413999 2.5188146591157614 2.3508758579440476 Zr
atom 7.5894047221531631 2.5442178901612968 2.3563731191192110 Zr
atom 2.5341864355767028 7.5994361767377629 2.3563731191192128 Zr
atom 7.5894636261163022 7.5756199897906518 2.3597746630500631 Zr
atom 2.5316834386610791 2.5216519840764891 7.4120775027618953 Zr
atom 7.5884298653728255 2.5470552151220209 7.4175747639370622 Zr
atom 2.5332115787963727 7.6022735016984839 7.4175747639370631 Zr
atom 7.5884887693359637 7.5784573147513763 7.4209763078679112 Zr
atom 2.5345570276643845 2.8869555877208017 -0.1352563641196220 S
atom 7.5882971362986691 2.1777890844086305 -0.1317652836884061 S
atom 2.5330788497222159 7.2330073709850913 -0.1317652836884060 S
atom 7.5913623583393006 7.9437609183956992 -0.1263575590136067 S
atom 2.5312876560086015 2.0947618168307116 4.8818499678874749 S
atom 7.5898005048056332 2.9711080574070743 4.8866006539936340 S
atom 2.5345822182291835 8.0263263439835395 4.8866006539936340 S
atom 7.5880929866834963 7.1515671475056086 4.8907487729934864 S
atom 2.5310347608814170 0.0036183567029868 2.0424643763153560 S
atom 7.5918535063915131 0.0042116639954465 2.8059750447883967 S
atom 2.5366352198150550 5.0594299505719027 2.8059750447883958 S
atom 7.5878400915563180 5.0604236873778854 2.0513631814213746 S
atom 2.5332480692579233 0.0054461868598955 7.7170874404597338 S
atom 7.5844529409991805 0.0064399236658786 6.9624755770927056 S
atom 2.5292346544227238 5.0616582102423342 6.9624755770927056 S
atom 7.5900533999328159 5.0622515175347926 7.7259862455657471 S
atom 0.0050301869511982 2.5327923706664746 2.4614712310728804 S
atom 5.0609876352139755 2.5272696221734794 2.4680743536238028 S
atom 0.0057693486375181 7.5824879087499388 2.4680743536238028 S
atom 5.0618355176260987 7.5895977013413702 2.4703700361788941 S
atom 0.0040343566116845 2.5314904594728658 7.2980805857022064 S
atom 5.0601005256002614 2.5386002520642972 7.3003762682573035 S
atom 0.0048822390238065 7.5938185386407442 7.3003762682573035 S
atom 5.0608396872865775 7.5882957901477681 7.3069793908082259 S
atom -0.1509781516945089 0.0053382895373990 9.4748010127054005 Ba
atom 5.2146680993906607 0.0070020840789166 9.4767089181118571 Ba
atom 0.1594498128142086 5.0622203706553766 9.4767089181118571 Ba
atom 4.9058271789803829 5.0621436202122965 9.4836998178114129 Ba
atom 2.5327910245155660 2.8880807898291456 9.9002159055695209 S
atom 7.5865311331498448 2.1789142865169766 9.9037069860007367 S
atom 2.5313128465733885 7.2341325730934383 9.9037069860007367 S
atom 7.5895963551904604 7.9448861205040480 9.9091147106755226 S
atom 2.5412174527891755 2.3887697240538852 12.9689254397049609 Ba
atom 7.5980995339071482 2.6991976885626023 12.9708333451114157 Ba
atom 2.5428812473306950 7.7544159751390636 12.9708333451114157 Ba
atom 7.5980227834640734 7.4455750547287822 12.9778242448109715 Ba
atom 2.5436541971624682 2.5919704959934187 17.5648002458968655 Ba
atom 7.5989386195872841 2.4954040341798875 17.5669166529616732 Ba
atom 2.5437203330108389 7.5506223207563457 17.5669166529616732 Ba
atom 7.6004595278373710 7.6487758266683157 17.5736990510028797 Ba
atom 5.0579696524209670 5.0718132887466227 15.0369583989857656 Zr
atom 10.1385911700429592 5.0733414288819159 15.0424556601609360 Zr
atom 5.0833728834665024 10.1285597154583602 15.0424556601609360 Zr
atom 10.1147749830958738 10.1286186194215269 15.0458572040917744 Zr
atom 5.0608069773816906 5.0708384319662843 20.0981600438036239 Zr
atom 10.1414284950036979 5.0723665721015809 20.1036573049787748 Zr
atom 5.0862102084272385 10.1275848586780501 20.1036573049787748 Zr
atom 10.1176123080565841 10.1276437626411973 20.1070588489096558 Zr
atom 5.4261105810260126 5.0737120209696096 12.5508261769220812 S
atom 9.7721623642902955 5.0722338430274316 12.5543172573533148 S
atom 4.7169440777138458 10.1274521296038902 12.5543172573533148 S
atom 10.4829159117009265 10.1305173516444995 12.5597249820281061 S
atom 4.6339168101359185 5.0704426493138088 17.5679325089291787 S
atom 10.5654813372887393 5.0737372115343939 17.5726831950353706 S
atom 5.5102630507122798 10.1289554981108445 17.5726831950353706 S
atom 9.6907221408108022 10.1272479799887005 17.5768313140352035 S
atom 5.0719473639716854 2.5441851802564095 15.1475537721146019 S
atom 10.1216429020551590 2.5449243419427279 15.1541568946655314 S
atom 5.0664246154786952 7.6001426285191886 15.1541568946655332 S
atom 10.1287526946465789 7.6009905109313074 15.1564525772206036 S
atom 5.0706454527780780 2.5431893499168918 19.9841631267439226 S
atom 10.1329735319459733 2.5440372323290186 19.9864588092990338 S
atom 5.0777552453695032 7.5992555189054709 19.9864588092990338 S
atom 10.1274507834529786 7.5999946805917986 19.9930619318499154 S
atom 2.5427733500081975 5.0701897541866296 14.7285469173570700 S
atom 7.5985849438771105 5.0757902131202641 15.4920575858301266 S
atom 2.5433666573006568 10.1310084996967316 15.4920575858301248 S
atom 7.5995786806830941 10.1269950848615267 14.7374457224630913 S
atom 2.5446011801651065 5.0724030625631373 20.4031699815014669 S
atom 7.6008132035475420 5.0683896477279307 19.6485581181344422 S
atom 2.5455949169710874 10.1236079343043954 19.6485581181344422 S
atom 7.6014065108400093 10.1292083932380432 20.4120687866074881 S
atom 2.5444932828426072 2.3881768416107034 22.1608835537471300 Ba
atom 7.6013753639605897 2.6986048061194206 22.1627914591535919 Ba
atom 2.5461570773841284 7.7538230926958782 22.1627914591535919 Ba
atom 7.6012986135175078 7.4449821722855987 22.1697823588531762 Ba
atom 5.4272357831343605 5.0719460178207756 22.5862984466112309 S
atom 9.7732875663986434 5.0704678398786074 22.5897895270424414 S
atom 4.7180692798221910 10.1256861264550508 22.5897895270424414 S
atom 10.4840411138092549 10.1287513484956655 22.5951972517172379 S
