#=======================================================
# FHI-aims file: sym_relax_RP_2_36.in
# Created using the Atomic Simulation Environment (ASE)
# Tue Feb 25 12:07:30 2025
#=======================================================
lattice_vector 10.0891860804413565 0.1041142884170748 -0.0000000000000000 
lattice_vector 0.1041142884170748 10.0891860804413600 0.0000000000000000 
lattice_vector 0.0000000000000000 0.0000000000000000 25.4490683909876623 
atom -0.0898455131625279 -0.0942375783149472 0.2760781864967502 Ba
atom 5.1388306185356241 0.1419026573710643 0.2760781864967502 Ba
atom 0.1462947225234833 5.1344385533832160 0.2760781864967502 Ba
atom 5.0068046712666892 5.0024126061142669 0.2760781864967501 Ba
atom 0.0251174311852234 0.0183953160514403 4.8940516136514738 Ba
atom 5.0261977241692444 0.0269397130233133 4.8940516136514738 Ba
atom 0.0336618281570956 5.0194756090354611 4.8940516136514738 Ba
atom 5.1217676156144325 5.1150455004806537 4.8940516136514738 Ba
atom 2.5451920157092989 2.5398514244224919 2.3518067600723365 Zr
atom 7.6013918002274057 2.6035153129284563 2.3518067600723365 Zr
atom 2.6088559042152593 7.5960512089405992 2.3518067600723365 Zr
atom 7.6418422001385196 7.6365016088517157 2.3518067600723365 Zr
atom 2.5451920157092989 2.5398514244224919 7.4362964672306138 Zr
atom 7.6013918002274057 2.6035153129284563 7.4362964672306138 Zr
atom 2.6088559042152593 7.5960512089405992 7.4362964672306138 Zr
atom 7.6418422001385196 7.6365016088517157 7.4362964672306138 Zr
atom 2.7757222636827281 2.7746960772010736 -0.1397721898737729 S
atom 7.3665471474488324 2.3729850649550199 -0.1397721898737729 S
atom 2.3740112514366793 7.3655209609671637 -0.1397721898737729 S
atom 7.8723724481119506 7.8713462616302978 -0.1397721898737729 S
atom 2.3026108497584281 2.2761595444108269 4.8940516136514738 S
atom 7.8650836802390778 2.8460964788793266 4.8940516136514738 S
atom 2.8725477842269194 7.8386323748914739 4.8940516136514738 S
atom 7.3992610341876421 7.3728097288400454 4.8940516136514738 S
atom 2.5119448109537172 0.0265889498770860 2.2073223977106355 S
atom 7.5501656146063496 0.0777952368203648 2.6956244250730212 S
atom 2.5576297185941952 5.0703311328325071 2.6956244250730212 S
atom 7.6085949953829264 5.1232391343063082 2.2073223977106355 S
atom 2.5119448109537172 0.0265889498770860 7.5807808295923005 S
atom 7.5501656146063496 0.0777952368203648 7.0924788022299223 S
atom 2.5576297185941952 5.0703311328325071 7.0924788022299223 S
atom 7.6085949953829264 5.1232391343063082 7.5807808295923005 S
atom 0.0254681943314508 2.5326482292669623 2.2073223977106355 S
atom 5.0709120918173891 2.5910776100435564 2.6956244250730212 S
atom 0.0783761958052438 7.5836135060557019 2.6956244250730212 S
atom 5.1221183787606632 7.6292984136961879 2.2073223977106355 S
atom 0.0254681943314508 2.5326482292669623 7.5807808295923005 S
atom 5.0709120918173891 2.5910776100435564 7.0924788022299223 S
atom 0.0783761958052438 7.5836135060557019 7.0924788022299223 S
atom 5.1221183787606632 7.6292984136961879 7.5807808295923005 S
atom -0.0898455131625279 -0.0942375783149471 9.5120250408061953 Ba
atom 5.1388306185356241 0.1419026573710643 9.5120250408061953 Ba
atom 0.1462947225234833 5.1344385533832160 9.5120250408061953 Ba
atom 5.0068046712666892 5.0024126061142669 9.5120250408061953 Ba
atom 2.7757222636827281 2.7746960772010736 9.9278754171767059 S
atom 7.3665471474488324 2.3729850649550208 9.9278754171767059 S
atom 2.3740112514366793 7.3655209609671646 9.9278754171767059 S
atom 7.8723724481119506 7.8713462616302978 9.9278754171767059 S
atom 2.4584795790520775 2.4540875138996592 13.0006123819905817 Ba
atom 7.6871557107502388 2.6902277495856737 13.0006123819905817 Ba
atom 2.6946198147380902 7.6827636455978263 13.0006123819905817 Ba
atom 7.5551297634812871 7.5507376983288772 13.0006123819905817 Ba
atom 2.5734425233998324 2.5667204082660491 17.6185858091452907 Ba
atom 7.5745228163838503 2.5752648052379232 17.6185858091452907 Ba
atom 2.5819869203717047 7.5678007012500768 17.6185858091452907 Ba
atom 7.6700927078290437 7.6633705926952613 17.6185858091452907 Ba
atom 5.0935171079239066 5.0881765166371036 15.0763409555661596 Zr
atom 10.1497168924420063 5.1518404051430613 15.0763409555661596 Zr
atom 5.1571809964298669 10.1443763011552051 15.0763409555661596 Zr
atom 10.1901672923531343 10.1848267010663278 15.0763409555661596 Zr
atom 5.0935171079239066 5.0881765166371036 20.1608306627244147 Zr
atom 10.1497168924420063 5.1518404051430613 20.1608306627244147 Zr
atom 5.1571809964298669 10.1443763011552051 20.1608306627244147 Zr
atom 10.1901672923531343 10.1848267010663278 20.1608306627244147 Zr
atom 5.3240473558973429 5.3230211694156813 12.5847620056200586 S
atom 9.9148722396634223 4.9213101571696312 12.5847620056200586 S
atom 4.9223363436512884 9.9138460531817731 12.5847620056200586 S
atom 10.4206975403265414 10.4196713538448993 12.5847620056200586 S
atom 4.8509359419730389 4.8244846366254404 17.6185858091452907 S
atom 10.4134087724536730 5.3944215710939414 17.6185858091452907 S
atom 5.4208728764415399 10.3869574671060896 17.6185858091452907 S
atom 9.9475861264022338 9.9211348210546522 17.6185858091452907 S
atom 5.0602699031683311 2.5749140420916934 14.9318565932044631 S
atom 10.0984907068209520 2.6261203290349742 15.4201586205668448 S
atom 5.1059548108088046 7.6186562250471175 15.4201586205668448 S
atom 10.1569200875975465 7.6715642265209221 14.9318565932044631 S
atom 5.0602699031683311 2.5749140420916934 20.3053150250861520 S
atom 10.0984907068209520 2.6261203290349742 19.8170129977237472 S
atom 5.1059548108088046 7.6186562250471175 19.8170129977237472 S
atom 10.1569200875975465 7.6715642265209221 20.3053150250861520 S
atom 2.5737932865460591 5.0809733214815802 14.9318565932044631 S
atom 7.6192371840320003 5.1394027022581605 15.4201586205668448 S
atom 2.6267012880198517 10.1319385982703256 15.4201586205668448 S
atom 7.6704434709752718 10.1776235059107911 14.9318565932044631 S
atom 2.5737932865460591 5.0809733214815802 20.3053150250861520 S
atom 7.6192371840320003 5.1394027022581605 19.8170129977237472 S
atom 2.6267012880198517 10.1319385982703256 19.8170129977237472 S
atom 7.6704434709752718 10.1776235059107911 20.3053150250861520 S
atom 2.4584795790520775 2.4540875138996592 22.2365592363000246 Ba
atom 7.6871557107502388 2.6902277495856737 22.2365592363000246 Ba
atom 2.6946198147380902 7.6827636455978263 22.2365592363000246 Ba
atom 7.5551297634812871 7.5507376983288772 22.2365592363000246 Ba
atom 5.3240473558973429 5.3230211694156813 22.6524096126705352 S
atom 9.9148722396634223 4.9213101571696320 22.6524096126705352 S
atom 4.9223363436512884 9.9138460531817731 22.6524096126705352 S
atom 10.4206975403265414 10.4196713538448993 22.6524096126705352 S
