#=======================================================
# FHI-aims file: sym_relax_RP_2_60.in
# Created using the Atomic Simulation Environment (ASE)
# Tue Feb 25 12:07:22 2025
#=======================================================
lattice_vector 10.0897591225996095 0.1443496878119518 -0.0000000000000000 
lattice_vector 0.1443496878119518 10.0897591225996148 0.0000000000000000 
lattice_vector -0.0000000000000000 0.0000000000000000 25.4263472249551796 
atom -0.0937639336972421 -0.0889177383967283 0.2767171358194105 Ba
atom 5.1337972996965267 0.1659387776032182 0.2767171358194104 Ba
atom 0.1610925823027042 5.1386434949970470 0.2767171358194105 Ba
atom 5.0232904715085320 5.0281366668090532 0.2767171358194105 Ba
atom 0.0281451666773995 0.0281451666773995 4.8896821586452193 Ba
atom 5.0167343946224037 0.0440296772285762 4.8896821586452193 Ba
atom 0.0440296772285763 5.0167343946224099 4.8896821586452193 Ba
atom 5.1451995718831824 5.1451995718831842 4.8896821586452193 Ba
atom 2.5541628248072703 2.5546148326568661 2.3521439783059961 Zr
atom 7.6073191338487103 2.6350664243044877 2.3521439783059961 Zr
atom 2.6346144164548928 7.6077711416983194 2.3521439783059961 Zr
atom 7.6712172300130401 7.6716692378626448 2.3521439783059961 Zr
atom 2.5546148326568594 2.5541628248072756 7.4272203389844513 Zr
atom 7.6077711416983060 2.6346144164548924 7.4272203389844513 Zr
atom 2.6350664243044823 7.6073191338487307 7.4272203389844513 Zr
atom 7.6716692378626368 7.6712172300130570 7.4272203389844513 Zr
atom 2.7919853512441719 2.7924147272128788 -0.1394660795707271 S
atom 7.3695192392927016 2.3972438978675856 -0.1394660795707271 S
atom 2.3968145218988730 7.3699486152614186 -0.1394660795707271 S
atom 7.9090397564499462 7.9094691324186632 -0.1394660795707271 S
atom 2.2829851795535436 2.2829851795535476 4.8896821586452193 S
atom 7.8789487869520292 2.9062440695582135 4.8896821586452193 S
atom 2.9062440695582104 7.8789487869520469 4.8896821586452193 S
atom 7.4000395847593126 7.4000395847593285 4.8896821586452193 S
atom 2.5192005633108345 0.0366017310992705 2.1957291297620762 S
atom 7.5679441817256698 0.1087327368560164 2.7005926056268157 S
atom 2.5952394643318519 5.0814374542498495 2.7005926056268157 S
atom 7.6362549685166199 5.1536561363050470 2.1957291297620762 S
atom 2.5256789979889622 0.0355731128067052 7.5836351875283716 S
atom 7.5666945021737302 0.1077917948619107 7.0787717116636326 S
atom 2.5939897847798998 5.0804965122557419 7.0787717116636326 S
atom 7.6427334031947352 5.1526275180124914 7.5836351875283716 S
atom 0.0355731128067048 2.5256789979889658 2.1957291297620762 S
atom 5.0804965122557331 2.5939897847798994 2.7005926056268157 S
atom 0.1077917948619103 7.5666945021737400 2.7005926056268157 S
atom 5.1526275180124781 7.6427334031947503 2.1957291297620762 S
atom 0.0366017310992710 2.5192005633108434 7.5836351875283716 S
atom 5.0814374542498397 2.5952394643318590 7.0787717116636326 S
atom 0.1087327368560169 7.5679441817256770 7.0787717116636326 S
atom 5.1536561363050435 7.6362549685166261 7.5836351875283716 S
atom -0.0889177383967284 -0.0937639336972425 9.5026471814710387 Ba
atom 5.1386434949970390 0.1610925823027038 9.5026471814710387 Ba
atom 0.1659387776032177 5.1337972996965391 9.5026471814710387 Ba
atom 5.0281366668090435 5.0232904715085445 9.5026471814710387 Ba
atom 2.7924147272128743 2.7919853512441732 9.9188303968611766 S
atom 7.3699486152614018 2.3968145218988814 9.9188303968611766 S
atom 2.3972438978675847 7.3695192392927158 9.9188303968611766 S
atom 7.9094691324186517 7.9090397564499595 9.9188303968611766 S
atom 2.4696094642061590 2.4647632689056462 12.9898907482969932 Ba
atom 7.6971706975999270 2.7196197849055959 12.9898907482969932 Ba
atom 2.7244659802061091 7.6923245022994289 12.9898907482969932 Ba
atom 7.5866638694119297 7.5818176741114351 12.9898907482969932 Ba
atom 2.5866723692802904 2.5866723692802900 17.6028557711228046 Ba
atom 7.5752615972252801 2.6025568798314662 17.6028557711228046 Ba
atom 2.6025568798314618 7.5752615972252944 17.6028557711228046 Ba
atom 7.7037267744860616 7.7037267744860705 17.6028557711228046 Ba
atom 5.1131420352597452 5.1126900274101592 15.0653175907835806 Zr
atom 10.1662983443011683 5.1931416190577844 15.0653175907835806 Zr
atom 5.1935936269073739 10.1658463364516258 15.0653175907835806 Zr
atom 10.2301964404655301 10.2297444326159592 15.0653175907835806 Zr
atom 5.1126900274101557 5.1131420352597541 20.1403939514620482 Zr
atom 10.1658463364516152 5.1935936269073819 20.1403939514620482 Zr
atom 5.1931416190577773 10.1662983443011967 20.1403939514620482 Zr
atom 10.2297444326159432 10.2301964404655319 20.1403939514620482 Zr
atom 5.3509419298157592 5.3505125538470635 12.5737075329068482 S
atom 9.9284758178642978 4.9553417245017766 12.5737075329068482 S
atom 4.9557711004704679 9.9280464418955976 12.5737075329068482 S
atom 10.4679963350215317 10.4675669590528564 12.5737075329068482 S
atom 4.8415123821564281 4.8415123821564396 17.6028557711228046 S
atom 10.4374759895549190 5.4647712721611077 17.6028557711228046 S
atom 5.4647712721611050 10.4374759895549403 17.6028557711228046 S
atom 9.9585667873621908 9.9585667873622139 17.6028557711228046 S
atom 5.0842062005918498 2.5941003154095967 14.9089027422396594 S
atom 10.1252217047766173 2.6663189974648036 15.4137662181044046 S
atom 5.1525169873827874 7.6390237148586344 15.4137662181044046 S
atom 10.2012606057976409 7.7111547206153874 14.9089027422396594 S
atom 5.0777277659137265 2.5951289337021630 20.2968088000059623 S
atom 10.1264713843285588 2.6672599394589085 19.7919453241412135 S
atom 5.1537666669347413 7.6399646568527411 19.7919453241412135 S
atom 10.1947821711194795 7.7121833389079395 20.2968088000059623 S
atom 2.5951289337021586 5.0777277659137319 14.9089027422396594 S
atom 7.6399646568527260 5.1537666669347431 15.4137662181044046 S
atom 2.6672599394589045 10.1264713843285836 15.4137662181044046 S
atom 7.7121833389079306 10.1947821711195132 14.9089027422396594 S
atom 2.5941003154095932 5.0842062005918551 20.2968088000059623 S
atom 7.6390237148586237 5.1525169873827972 19.7919453241412135 S
atom 2.6663189974647974 10.1252217047766280 19.7919453241412135 S
atom 7.7111547206153670 10.2012606057976587 20.2968088000059623 S
atom 2.4647632689056422 2.4696094642061643 22.2158207939486019 Ba
atom 7.6923245022994129 2.7244659802061113 22.2158207939486019 Ba
atom 2.7196197849055923 7.6971706975999421 22.2158207939486019 Ba
atom 7.5818176741114218 7.5866638694119475 22.2158207939486019 Ba
atom 5.3505125538470555 5.3509419298157681 22.6320040093387540 S
atom 9.9280464418955798 4.9557711004704776 22.6320040093387540 S
atom 4.9553417245017650 9.9284758178642996 22.6320040093387540 S
atom 10.4675669590528191 10.4679963350215619 22.6320040093387540 S
