#=======================================================
# FHI-aims file: sym_relax_RP_1_14.in
# Created using the Atomic Simulation Environment (ASE)
# Tue Feb 25 12:06:52 2025
#=======================================================
lattice_vector 10.0875549868297529 0.2029934591840974 -0.0007688278637034 
lattice_vector 0.2029934591840975 10.0875549868297529 0.0007688278637034 
lattice_vector -0.0021156219738347 0.0021156219738347 15.5495579807016764 
atom -0.1071092429700178 -0.1074097487845155 0.2368316025849279 Ba
atom 5.1511872421993772 0.2086059725620664 0.2364471886530765 Ba
atom 0.2089064783765640 5.1508867363848951 0.2372160165167797 Ba
atom 5.0381649800369095 5.0378644742224008 0.2368316025849277 Ba
atom 0.1064481111031946 0.1080708806513392 4.6224052663843338 Ba
atom 4.9357066127635401 -0.0049513815111460 4.6220208524524873 Ba
atom -0.0065741510592908 4.9373293823116740 4.6227896803161892 Ba
atom 5.2517223341101120 5.2533451036582504 4.6224052663843338 Ba
atom 2.5723065455700476 2.5729676774368735 2.4296184344846341 Zr
atom 7.6160840389849200 2.6744644070289199 2.4292340205527836 Zr
atom 2.6738032751620984 7.6167451708517451 2.4300028484164891 Zr
atom 7.7175807685769708 7.7182419004437879 2.4296184344846341 Zr
atom 2.7864131787804554 2.7879083591589078 -0.1073760025221650 S
atom 7.4011433572628773 2.4603577738185081 -0.1077604164540166 S
atom 2.4588625934400588 7.4026385376413248 -0.1069915885903132 S
atom 7.9316874017873715 7.9331825821658297 -0.1073760025221650 S
atom 2.3581999123596384 2.3580269957148352 4.9666128714914333 S
atom 7.8310247207069521 2.8885710402393290 4.9662284575595832 S
atom 2.8887439568841313 7.8308518040621484 4.9669972854232913 S
atom 7.5034741353665524 7.5033012187217620 4.9666128714914342 S
atom 2.5237803988085243 0.0511045166752595 2.2198590324849969 S
atom 7.5631134561543911 0.1525500743756610 2.6386090086205702 S
atom 2.6208326923315703 5.0948308381984866 2.6393778364842717 S
atom 7.6690546218154436 5.1963787396821752 2.2198590324849969 S
atom 0.0503922129167885 2.5199970946063472 2.2202434464168506 S
atom 5.0942208782233038 2.6259382602673953 2.6389934225524190 S
atom 0.1519401144004842 7.5682190240902267 2.6397622504161218 S
atom 5.1956664359237115 7.6652713176132679 2.2202434464168510 S
atom 2.6806947288077008 2.6791233261978236 8.0115314250822625 Ba
atom 7.5099283902239646 2.5660762237912653 8.0111470111504008 Ba
atom 2.5676476264011416 7.5083569876140857 8.0119158390141187 Ba
atom 7.8259689518146152 7.8243975492047442 8.0115314250822625 Ba
atom 2.4618027403585643 2.4689276506497517 12.3972634245886812 Ba
atom 7.7201240657720378 2.7849682122404062 12.3968790106568214 Ba
atom 2.7778433019492161 7.7272489760632359 12.3976478385205233 Ba
atom 7.6070769633654729 7.6142018736566763 12.3972634245886848 Ba
atom 5.1438858460865813 5.1466625999272537 10.2043974248354683 Zr
atom 10.1876633395014711 5.2481593295192974 10.2040130109036191 Zr
atom 5.2453825756786321 10.1904400933421240 10.2047818387673122 Zr
atom 10.2891600690935121 10.2919368229341615 10.2043974248354683 Zr
atom 4.9291676824014612 4.9333446884798366 7.6672481100239542 S
atom 10.4009812509488722 5.4628774932044335 7.6668636960920962 S
atom 5.4587004871260536 10.4051582570272529 7.6676325239558043 S
atom 10.0744419054083725 10.0786189114867604 7.6672481100239542 S
atom 5.3586040097717200 5.3599805113746628 12.7415467396469744 S
atom 9.9743454280540718 5.0334411658341613 12.7411623257151341 S
atom 5.0320646642312319 9.9757219296569772 12.7419311535788413 S
atom 10.5038782327786482 10.5052547343815608 12.7415467396469744 S
atom 5.0884607799741426 2.6247791916911751 10.4129420369422263 S
atom 10.1415916760218749 2.7262652443405013 9.9950839848650013 S
atom 5.1993109121990440 7.6685460081633297 9.9958528127286961 S
atom 10.2337350029810601 7.7700534146980953 10.4129420369422263 S
atom 2.6219917609077914 5.1005909364476523 10.4133264508740773 S
atom 7.6657799312653792 5.1927342634068436 9.9954683987968540 S
atom 2.7234991674425637 10.1350150272296808 9.9962372266605630 S
atom 7.7672659839147151 10.2458651594545813 10.4133264508740773 S
