#=======================================================
# FHI-aims file: sym_relax_RP_4_139.in
# Created using the Atomic Simulation Environment (ASE)
# Tue Feb 25 12:09:26 2025
#=======================================================
lattice_vector 10.0681125566410596 0.0000000000000000 -0.0000000000000000 
lattice_vector 0.0000000000000000 10.0681125566410614 0.0000000000000000 
lattice_vector -0.0000000000000000 0.0000000000000001 45.6679306096644950 
atom -0.0000000000000000 0.0000000000000000 0.2903882864727696 Ba
atom 5.0340562783205316 0.0000000000000000 0.2903882864727696 Ba
atom -0.0000000000000000 5.0340562783205334 0.2903882864727698 Ba
atom 5.0340562783205316 5.0340562783205334 0.2903882864727698 Ba
atom -0.0000000000000000 0.0000000000000000 5.0406025075549818 Ba
atom 5.0340562783205316 0.0000000000000000 5.0406025075549818 Ba
atom -0.0000000000000000 5.0340562783205334 5.0406025075549818 Ba
atom 5.0340562783205316 5.0340562783205334 5.0406025075549818 Ba
atom 2.5170281391602658 2.5170281391602667 2.3220218733063209 Zr
atom 7.5510844174807934 2.5170281391602667 2.3220218733063209 Zr
atom 2.5170281391602658 7.5510844174807978 2.3220218733063209 Zr
atom 7.5510844174807934 7.5510844174807978 2.3220218733063209 Zr
atom 2.5170281391602658 2.5170281391602667 7.4034021737130216 Zr
atom 7.5510844174807934 2.5170281391602667 7.4034021737130216 Zr
atom 2.5170281391602658 7.5510844174807978 7.4034021737130216 Zr
atom 7.5510844174807934 7.5510844174807978 7.4034021737130216 Zr
atom 2.5170281391602658 2.5170281391602667 -0.1713294363269100 S
atom 7.5510844174807934 2.5170281391602667 -0.1713294363269100 S
atom 2.5170281391602658 7.5510844174807978 -0.1713294363269101 S
atom 7.5510844174807934 7.5510844174807978 -0.1713294363269101 S
atom 2.5170281391602658 2.5170281391602667 4.9054535232851553 S
atom 7.5510844174807934 2.5170281391602667 4.9054535232851553 S
atom 2.5170281391602658 7.5510844174807978 4.9054535232851562 S
atom 7.5510844174807934 7.5510844174807978 4.9054535232851562 S
atom 2.5170281391602658 0.0000000000000000 2.4479177212250596 S
atom 7.5510844174807934 0.0000000000000000 2.4479177212250596 S
atom 2.5170281391602658 5.0340562783205334 2.4479177212250596 S
atom 7.5510844174807934 5.0340562783205334 2.4479177212250596 S
atom 2.5170281391602658 0.0000000000000000 7.4222390605593036 S
atom 7.5510844174807934 0.0000000000000000 7.4222390605593036 S
atom 2.5170281391602658 5.0340562783205334 7.4222390605593036 S
atom 7.5510844174807934 5.0340562783205334 7.4222390605593036 S
atom -0.0000000000000000 2.5170281391602667 2.4479177212250596 S
atom 5.0340562783205316 2.5170281391602667 2.4479177212250596 S
atom -0.0000000000000000 7.5510844174807978 2.4479177212250596 S
atom 5.0340562783205316 7.5510844174807978 2.4479177212250596 S
atom -0.0000000000000000 2.5170281391602667 7.4222390605593036 S
atom 5.0340562783205316 2.5170281391602667 7.4222390605593036 S
atom -0.0000000000000000 7.5510844174807978 7.4222390605593036 S
atom 5.0340562783205316 7.5510844174807978 7.4222390605593036 S
atom 0.0000000000000000 0.0000000000000000 9.9278110021009809 Ba
atom 5.0340562783205316 0.0000000000000000 9.9278110021009809 Ba
atom 0.0000000000000000 5.0340562783205334 9.9278110021009809 Ba
atom 5.0340562783205316 5.0340562783205334 9.9278110021009809 Ba
atom -0.0000000000000000 0.0000000000000000 14.8150194966469773 Ba
atom 5.0340562783205316 0.0000000000000000 14.8150194966469773 Ba
atom -0.0000000000000000 5.0340562783205334 14.8150194966469773 Ba
atom 5.0340562783205316 5.0340562783205334 14.8150194966469773 Ba
atom 2.5170281391602658 2.5170281391602667 12.4522198304889429 Zr
atom 7.5510844174807934 2.5170281391602667 12.4522198304889429 Zr
atom 2.5170281391602658 7.5510844174807978 12.4522198304889429 Zr
atom 7.5510844174807934 7.5510844174807978 12.4522198304889429 Zr
atom 2.5170281391602658 2.5170281391602667 17.5336001308956320 Zr
atom 7.5510844174807934 2.5170281391602667 17.5336001308956320 Zr
atom 2.5170281391602658 7.5510844174807978 17.5336001308956320 Zr
atom 7.5510844174807934 7.5510844174807978 17.5336001308956320 Zr
atom 2.5170281391602658 2.5170281391602667 9.9278110021009809 S
atom 7.5510844174807934 2.5170281391602667 9.9278110021009809 S
atom 2.5170281391602658 7.5510844174807978 9.9278110021009809 S
atom 7.5510844174807934 7.5510844174807978 9.9278110021009809 S
atom 2.5170281391602658 2.5170281391602667 14.9501684809168047 S
atom 7.5510844174807934 2.5170281391602667 14.9501684809168047 S
atom 2.5170281391602658 7.5510844174807978 14.9501684809168047 S
atom 7.5510844174807934 7.5510844174807978 14.9501684809168047 S
atom 2.5170281391602658 0.0000000000000000 12.4333829436426484 S
atom 7.5510844174807934 0.0000000000000000 12.4333829436426484 S
atom 2.5170281391602658 5.0340562783205334 12.4333829436426484 S
atom 7.5510844174807934 5.0340562783205334 12.4333829436426484 S
atom 2.5170281391602658 0.0000000000000000 17.4077042829769155 S
atom 7.5510844174807934 0.0000000000000000 17.4077042829769155 S
atom 2.5170281391602658 5.0340562783205334 17.4077042829769155 S
atom 7.5510844174807934 5.0340562783205334 17.4077042829769155 S
atom -0.0000000000000000 2.5170281391602667 12.4333829436426484 S
atom 5.0340562783205316 2.5170281391602667 12.4333829436426484 S
atom -0.0000000000000000 7.5510844174807978 12.4333829436426484 S
atom 5.0340562783205316 7.5510844174807978 12.4333829436426484 S
atom -0.0000000000000000 2.5170281391602667 17.4077042829769155 S
atom 5.0340562783205316 2.5170281391602667 17.4077042829769155 S
atom -0.0000000000000000 7.5510844174807978 17.4077042829769155 S
atom 5.0340562783205316 7.5510844174807978 17.4077042829769155 S
atom -0.0000000000000000 0.0000000000000000 19.5652337177291997 Ba
atom 5.0340562783205316 0.0000000000000000 19.5652337177291997 Ba
atom -0.0000000000000000 5.0340562783205334 19.5652337177291997 Ba
atom 5.0340562783205316 5.0340562783205334 19.5652337177291997 Ba
atom 2.5170281391602658 2.5170281391602667 20.0269514405288760 S
atom 7.5510844174807934 2.5170281391602667 20.0269514405288760 S
atom 2.5170281391602658 7.5510844174807978 20.0269514405288760 S
atom 7.5510844174807934 7.5510844174807978 20.0269514405288760 S
atom 2.5170281391602658 2.5170281391602667 23.1243535913050096 Ba
atom 7.5510844174807934 2.5170281391602667 23.1243535913050096 Ba
atom 2.5170281391602658 7.5510844174807978 23.1243535913050096 Ba
atom 7.5510844174807934 7.5510844174807978 23.1243535913050096 Ba
atom 2.5170281391602658 2.5170281391602667 27.8745678123872302 Ba
atom 7.5510844174807934 2.5170281391602667 27.8745678123872302 Ba
atom 2.5170281391602658 7.5510844174807978 27.8745678123872302 Ba
atom 7.5510844174807934 7.5510844174807978 27.8745678123872302 Ba
atom 5.0340562783205316 5.0340562783205334 25.1559871781385773 Zr
atom 10.0681125566410632 5.0340562783205334 25.1559871781385773 Zr
atom 5.0340562783205316 10.0681125566410667 25.1559871781385773 Zr
atom 10.0681125566410632 10.0681125566410667 25.1559871781385773 Zr
atom 5.0340562783205316 5.0340562783205334 30.2373674785452806 Zr
atom 10.0681125566410632 5.0340562783205334 30.2373674785452806 Zr
atom 5.0340562783205316 10.0681125566410667 30.2373674785452806 Zr
atom 10.0681125566410632 10.0681125566410667 30.2373674785452806 Zr
atom 5.0340562783205316 5.0340562783205334 22.6626358685053475 S
atom 10.0681125566410632 5.0340562783205334 22.6626358685053475 S
atom 5.0340562783205316 10.0681125566410667 22.6626358685053475 S
atom 10.0681125566410632 10.0681125566410667 22.6626358685053475 S
atom 5.0340562783205316 5.0340562783205334 27.7394188281174117 S
atom 10.0681125566410632 5.0340562783205334 27.7394188281174117 S
atom 5.0340562783205316 10.0681125566410667 27.7394188281174117 S
atom 10.0681125566410632 10.0681125566410667 27.7394188281174117 S
atom 5.0340562783205316 2.5170281391602667 25.2818830260573115 S
atom 10.0681125566410632 2.5170281391602667 25.2818830260573115 S
atom 5.0340562783205316 7.5510844174807978 25.2818830260573115 S
atom 10.0681125566410632 7.5510844174807978 25.2818830260573115 S
atom 5.0340562783205316 2.5170281391602667 30.2562043653915609 S
atom 10.0681125566410632 2.5170281391602667 30.2562043653915609 S
atom 5.0340562783205316 7.5510844174807978 30.2562043653915609 S
atom 10.0681125566410632 7.5510844174807978 30.2562043653915609 S
atom 2.5170281391602658 5.0340562783205334 25.2818830260573115 S
atom 7.5510844174807934 5.0340562783205334 25.2818830260573115 S
atom 2.5170281391602658 10.0681125566410667 25.2818830260573115 S
atom 7.5510844174807934 10.0681125566410667 25.2818830260573115 S
atom 2.5170281391602658 5.0340562783205334 30.2562043653915609 S
atom 7.5510844174807934 5.0340562783205334 30.2562043653915609 S
atom 2.5170281391602658 10.0681125566410667 30.2562043653915609 S
atom 7.5510844174807934 10.0681125566410667 30.2562043653915609 S
atom 2.5170281391602658 2.5170281391602667 32.7617763069332568 Ba
atom 7.5510844174807934 2.5170281391602667 32.7617763069332568 Ba
atom 2.5170281391602658 7.5510844174807978 32.7617763069332568 Ba
atom 7.5510844174807934 7.5510844174807978 32.7617763069332568 Ba
atom 2.5170281391602658 2.5170281391602667 37.6489848014792372 Ba
atom 7.5510844174807934 2.5170281391602667 37.6489848014792372 Ba
atom 2.5170281391602658 7.5510844174807978 37.6489848014792372 Ba
atom 7.5510844174807934 7.5510844174807978 37.6489848014792372 Ba
atom 5.0340562783205316 5.0340562783205334 35.2861851353212046 Zr
atom 10.0681125566410632 5.0340562783205334 35.2861851353212046 Zr
atom 5.0340562783205316 10.0681125566410667 35.2861851353212117 Zr
atom 10.0681125566410632 10.0681125566410667 35.2861851353212117 Zr
atom 5.0340562783205316 5.0340562783205334 40.3675654357278901 Zr
atom 10.0681125566410632 5.0340562783205334 40.3675654357278901 Zr
atom 5.0340562783205316 10.0681125566410667 40.3675654357278901 Zr
atom 10.0681125566410632 10.0681125566410667 40.3675654357278901 Zr
atom 5.0340562783205316 5.0340562783205334 32.7617763069332568 S
atom 10.0681125566410632 5.0340562783205334 32.7617763069332568 S
atom 5.0340562783205316 10.0681125566410667 32.7617763069332568 S
atom 10.0681125566410632 10.0681125566410667 32.7617763069332568 S
atom 5.0340562783205316 5.0340562783205334 37.7841337857490913 S
atom 10.0681125566410632 5.0340562783205334 37.7841337857490913 S
atom 5.0340562783205316 10.0681125566410667 37.7841337857490913 S
atom 10.0681125566410632 10.0681125566410667 37.7841337857490913 S
atom 5.0340562783205316 2.5170281391602667 35.2673482484749030 S
atom 10.0681125566410632 2.5170281391602667 35.2673482484749030 S
atom 5.0340562783205316 7.5510844174807978 35.2673482484749030 S
atom 10.0681125566410632 7.5510844174807978 35.2673482484749030 S
atom 5.0340562783205316 2.5170281391602667 40.2416695878091772 S
atom 10.0681125566410632 2.5170281391602667 40.2416695878091772 S
atom 5.0340562783205316 7.5510844174807978 40.2416695878091772 S
atom 10.0681125566410632 7.5510844174807978 40.2416695878091772 S
atom 2.5170281391602658 5.0340562783205334 35.2673482484749030 S
atom 7.5510844174807934 5.0340562783205334 35.2673482484749030 S
atom 2.5170281391602658 10.0681125566410667 35.2673482484749030 S
atom 7.5510844174807934 10.0681125566410667 35.2673482484749030 S
atom 2.5170281391602658 5.0340562783205334 40.2416695878091772 S
atom 7.5510844174807934 5.0340562783205334 40.2416695878091772 S
atom 2.5170281391602658 10.0681125566410667 40.2416695878091772 S
atom 7.5510844174807934 10.0681125566410667 40.2416695878091772 S
atom 2.5170281391602658 2.5170281391602667 42.3991990225614259 Ba
atom 7.5510844174807934 2.5170281391602667 42.3991990225614259 Ba
atom 2.5170281391602658 7.5510844174807978 42.3991990225614259 Ba
atom 7.5510844174807934 7.5510844174807978 42.3991990225614259 Ba
atom 5.0340562783205316 5.0340562783205334 42.8609167453611164 S
atom 10.0681125566410632 5.0340562783205334 42.8609167453611164 S
atom 5.0340562783205316 10.0681125566410667 42.8609167453611164 S
atom 10.0681125566410632 10.0681125566410667 42.8609167453611164 S
