#=======================================================
# FHI-aims file: sym_relax_RP_1_48.in
# Created using the Atomic Simulation Environment (ASE)
# Tue Feb 25 12:06:56 2025
#=======================================================
lattice_vector 10.0712741668561367 -0.0001782708726555 0.0000000000000000 
lattice_vector -0.0001782708726554 10.0712741668561385 0.0000000000000000 
lattice_vector 0.0000000000000000 0.0000000000000000 15.6175531615525660 
atom 0.0000808300739718 -0.1383237959876077 0.2385646436284197 Ba
atom 5.0355562533540885 0.1382346605512796 0.2385646436284197 Ba
atom -0.0001699655102997 5.1739608794156817 0.2385646436284197 Ba
atom 5.0356287780657123 4.8972241520041369 0.2385646436284197 Ba
atom -0.0000808300739718 0.1383237959876077 4.6419207193567589 Ba
atom 5.0357179135020438 -0.1384129314239356 4.6419207193567589 Ba
atom -0.0000083053623562 4.8973132874404648 4.6419207193567589 Ba
atom 5.0354671179177624 5.1738717439793529 4.6419207193567589 Ba
atom 2.5177739739958711 2.5177739739958729 2.4402426814925904 Zr
atom 7.5534110574239328 2.5176848385595436 2.4402426814925904 Zr
atom 2.5176848385595427 7.5534110574239444 2.4402426814925904 Zr
atom 7.5533219219876120 7.5533219219876164 2.4402426814925904 Zr
atom 2.7383139382336488 2.5176418700816683 -0.0978568252923450 S
atom 7.3328710931861592 2.5178169424737491 -0.0978568252923450 S
atom 2.2971448743217628 7.5535431613381432 -0.0978568252923450 S
atom 7.7738618862253874 7.5531898180734114 -0.0978568252923450 S
atom 2.2972340097580912 2.5179060779100761 4.9783421882775230 S
atom 7.7739510216617091 2.5175527346453426 4.9783421882775230 S
atom 2.7382248027973217 7.5532789535097473 4.9783421882775230 S
atom 7.3327819577498365 7.5534540259018206 4.9783421882775230 S
atom 2.5178185417140320 -0.0000445677181640 2.4403832648678492 S
atom 7.5534556251420994 -0.0001337031544919 2.4401020981173329 S
atom 2.5177294062777076 5.0355925157099106 2.4401020981173329 S
atom 7.5533664897057751 5.0355033802735809 2.4403832648678492 S
atom -0.0000445677181640 2.5178185417140355 2.2110435860642688 S
atom 5.0355925157099017 2.5177294062777071 2.6694417769209111 S
atom -0.0001337031544919 7.5534556251421074 2.6694417769209111 S
atom 5.0355033802735729 7.5533664897057804 2.2110435860642688 S
atom 2.3794501780082626 2.5178548040698421 8.0473412244046880 Ba
atom 7.6917348534115417 2.5176040084855735 8.0473412244046880 Ba
atom 2.6560086345471481 7.5533302273499752 8.0473412244046880 Ba
atom 7.4149981260000022 7.5534027520615901 8.0473412244046880 Ba
atom 2.6560977699834782 2.5176931439219019 12.4506973001330543 Ba
atom 7.4150872614363266 2.5177656686335141 12.4506973001330543 Ba
atom 2.3793610425719347 7.5534918874979171 12.4506973001330543 Ba
atom 7.6916457179752147 7.5532410919136392 12.4506973001330543 Ba
atom 5.0355479479917422 5.0355479479917458 10.2490192622688738 Zr
atom 10.0711850314198035 5.0354588125554143 10.2490192622688738 Zr
atom 5.0354588125554152 10.0711850314198212 10.2490192622688738 Zr
atom 10.0710958959834844 10.0710958959834915 10.2490192622688738 Zr
atom 5.0354158440775363 5.2560879122295221 7.7109197554839444 S
atom 10.0713171353340041 4.8149188483176388 7.7109197554839444 S
atom 5.0355909164696158 9.8506450671820485 7.7109197554839444 S
atom 10.0709637920692821 10.2916358602212643 7.7109197554839444 S
atom 5.0356800519059375 4.8150079837539685 12.7871187690538086 S
atom 10.0710529275056047 5.2559987767931933 12.7871187690538086 S
atom 5.0353267086412101 10.2917249956575869 12.7871187690538086 S
atom 10.0712279998976797 9.8505559317457259 12.7871187690538086 S
atom 5.0355925157099017 2.5177294062777071 10.0198201668405531 S
atom 10.0712295991379701 2.5176402708413810 10.4782183576971999 S
atom 5.0355033802735729 7.5533664897057804 10.4782183576971999 S
atom 10.0711404637016386 7.5532773542694525 10.0198201668405531 S
atom 2.5177294062777076 5.0355925157099106 10.2491598456441455 S
atom 7.5533664897057751 5.0355033802735809 10.2488786788936110 S
atom 2.5176402708413779 10.0712295991379843 10.2488786788936110 S
atom 7.5532773542694436 10.0711404637016493 10.2491598456441455 S
