#=======================================================
# FHI-aims file: sym_relax_RP_3_64.in
# Created using the Atomic Simulation Environment (ASE)
# Tue Feb 25 12:08:16 2025
#=======================================================
lattice_vector 10.0822030546959791 0.1259540987959933 0.0000000000000000 
lattice_vector 0.1259540987959933 10.0822030546959862 -0.0000000000000000 
lattice_vector 0.0000000000000000 -0.0000000000000000 35.3459274044176155 
atom -0.0885749021593251 -0.0885749021593253 0.2761833085520126 Ba
atom 5.1296764295073114 0.1515519515573203 0.2761833085520126 Ba
atom 0.1515519515573221 5.1296764295073247 0.2761833085520126 Ba
atom 5.0155036745866655 5.0155036745866672 0.2761833085520126 Ba
atom -0.0019332430860114 -0.0019332430860115 4.9381984099901066 Ba
atom 5.0430347704339997 0.0649102924840065 4.9381984099901066 Ba
atom 0.0649102924840083 5.0430347704340051 4.9381984099901066 Ba
atom 5.1021453336599807 5.1021453336599834 4.9381984099901066 Ba
atom 2.5453470679848111 2.5453470679848129 2.3396352027169076 Zr
atom 7.5998330361091684 2.6217085581591766 2.3396352027169076 Zr
atom 2.6217085581591753 7.5998330361091773 2.3396352027169076 Zr
atom 7.6494256447308002 7.6494256447308064 2.3396352027169076 Zr
atom 2.5520392883729937 2.5520392883729959 7.3637348759203318 Zr
atom 7.5931408157209912 2.6150163377709901 7.3637348759203318 Zr
atom 2.6150163377709932 7.5931408157209965 7.3637348759203318 Zr
atom 7.6561178651189792 7.6561178651189925 7.3637348759203318 Zr
atom 2.7894550379177314 2.7894550379177350 -0.1466239953352013 S
atom 7.3557250661762401 2.3776005882262514 -0.1466239953352013 S
atom 2.3776005882262532 7.3557250661762534 -0.1466239953352013 S
atom 7.8935336146637276 7.8935336146637258 -0.1466239953352013 S
atom 2.2401167556967851 2.2401167556967878 4.8804803682410238 S
atom 7.9050633483971957 2.9269388704471999 4.8804803682410238 S
atom 2.9269388704471999 7.9050633483972028 4.8804803682410238 S
atom 7.3441953324427729 7.3441953324427809 4.8804803682410238 S
atom 2.5205507636739952 0.0314885246989975 2.1678379222284212 S
atom 7.5616522910219901 0.0944655740969926 2.7111792941345723 S
atom 2.5835278130719925 5.0725900520469951 2.7111792941345723 S
atom 7.6246293404199834 5.1355671014449884 2.1678379222284212 S
atom 2.5205507636739952 0.0314885246989975 7.6875956975966666 S
atom 7.5616522910219901 0.0944655740969926 7.0398740542440024 S
atom 2.5835278130719925 5.0725900520469951 7.0398740542440024 S
atom 7.6246293404199834 5.1355671014449884 7.6875956975966666 S
atom 0.0314885246989985 2.5205507636739997 2.1678379222284212 S
atom 5.0725900520469906 2.5835278130719934 2.7111792941345723 S
atom 0.0944655740969953 7.5616522910219990 2.7111792941345723 S
atom 5.1355671014449857 7.6246293404199905 2.1678379222284212 S
atom 0.0314885246989985 2.5205507636739997 7.6875956975966666 S
atom 5.0725900520469906 2.5835278130719934 7.0398740542440006 S
atom 0.0944655740969953 7.5616522910219990 7.0398740542440024 S
atom 5.1355671014449857 7.6246293404199905 7.6875956975966666 S
atom 0.0019332430860114 0.0019332430860115 9.7892713418505721 Ba
atom 5.0391682842619776 0.0610438063119836 9.7892713418505721 Ba
atom 0.0610438063119855 5.0391682842619874 9.7892713418505721 Ba
atom 5.1060118198319984 5.1060118198320037 9.7892713418505721 Ba
atom 0.0885749021593251 0.0885749021593253 14.4512864432886587 Ba
atom 4.9525266251886686 -0.0255978527613303 14.4512864432886587 Ba
atom -0.0255978527613282 4.9525266251886713 14.4512864432886587 Ba
atom 5.1926534789053065 5.1926534789053163 14.4512864432886587 Ba
atom 2.5587315087611815 2.5587315087611815 12.3878345491237685 Zr
atom 7.5864485953327954 2.6083241173828053 12.3878345491237649 Zr
atom 2.6083241173828058 7.5864485953328034 12.3878345491237649 Zr
atom 7.6628100855071661 7.6628100855071706 12.3878345491237685 Zr
atom 2.8639618210492008 2.8639618210492035 9.8469893835996505 S
atom 7.2812182830447796 2.3030938050947842 9.8469893835996505 S
atom 2.3030938050947767 7.2812182830447867 9.8469893835996505 S
atom 7.9680403977951952 7.9680403977951935 9.8469893835996505 S
atom 2.3146235388282550 2.3146235388282563 14.8740937471758858 S
atom 7.8305565652657263 2.8524320873157314 14.8740937471758858 S
atom 2.8524320873157318 7.8305565652657361 14.8740937471758858 S
atom 7.4187021155742414 7.4187021155742512 14.8740937471758858 S
atom 2.5205507636739952 0.0314885246989975 12.0162904577060896 S
atom 7.5616522910219901 0.0944655740969926 12.5596318296122345 S
atom 2.5835278130719925 5.0725900520469951 12.5596318296122345 S
atom 7.6246293404199834 5.1355671014449884 12.0162904577060896 S
atom 0.0314885246989985 2.5205507636739997 12.0162904577060896 S
atom 5.0725900520469906 2.5835278130719934 12.5596318296122345 S
atom 0.0944655740969953 7.5616522910219990 12.5596318296122345 S
atom 5.1355671014449857 7.6246293404199905 12.0162904577060896 S
atom 2.6406141905323177 2.6406141905323190 17.9491470107608357 Ba
atom 7.5045659135616569 2.5264414356116678 17.9491470107608357 Ba
atom 2.5264414356116682 7.5045659135616658 17.9491470107608357 Ba
atom 7.7446927672783037 7.7446927672783152 17.9491470107608357 Ba
atom 2.5539725314590047 2.5539725314590069 22.6111621121989153 Ba
atom 7.5912075726349668 2.6130830946849763 22.6111621121989153 Ba
atom 2.6130830946849763 7.5912075726349828 22.6111621121989153 Ba
atom 7.6580511082049947 7.6580511082050045 22.6111621121989153 Ba
atom 5.1107707971341707 5.1107707971341769 20.0125989049257065 Zr
atom 10.1384878837057997 5.1603634057558052 20.0125989049257065 Zr
atom 5.1603634057557892 10.1384878837058015 20.0125989049257065 Zr
atom 10.2148493738801616 10.2148493738801704 20.0125989049257065 Zr
atom 5.1040785767459873 5.1040785767459917 25.0366985781291511 Zr
atom 10.1451801040939813 5.1670556261439868 25.0366985781291511 Zr
atom 5.1670556261439851 10.1451801040939902 25.0366985781291511 Zr
atom 10.2081571534919746 10.2081571534919835 25.0366985781291511 Zr
atom 4.8666628272012469 4.8666628272012504 17.5263397068736282 S
atom 10.3825958536387191 5.4044713756887282 17.5263397068736282 S
atom 5.4044713756887237 10.3825958536387297 17.5263397068736282 S
atom 9.9707414039472368 9.9707414039472475 17.5263397068736282 S
atom 5.4160011094221980 5.4160011094222051 22.5534440704498351 S
atom 9.8332575714177644 4.8551330934677868 22.5534440704498351 S
atom 4.8551330934677823 9.8332575714177786 22.5534440704498351 S
atom 10.5200796861681951 10.5200796861682093 22.5534440704498351 S
atom 5.0725900520469906 2.5835278130719934 20.3841429963433747 S
atom 10.1136915793949775 2.6465048624699894 19.8408016244372440 S
atom 5.1355671014449857 7.6246293404199905 19.8408016244372440 S
atom 10.1766686287929691 7.6876063898179856 20.3841429963433747 S
atom 5.0725900520469906 2.5835278130719934 24.7128377564528101 S
atom 10.1136915793949775 2.6465048624699894 25.3605593998054708 S
atom 5.1355671014449857 7.6246293404199905 25.3605593998054708 S
atom 10.1766686287929691 7.6876063898179856 24.7128377564528101 S
atom 2.5835278130719925 5.0725900520469951 20.3841429963433747 S
atom 7.6246293404199834 5.1355671014449884 19.8408016244372440 S
atom 2.6465048624699876 10.1136915793949917 19.8408016244372440 S
atom 7.6876063898179821 10.1766686287929868 20.3841429963433747 S
atom 2.5835278130719925 5.0725900520469951 24.7128377564528101 S
atom 7.6246293404199834 5.1355671014449884 25.3605593998054708 S
atom 2.6465048624699876 10.1136915793949917 25.3605593998054708 S
atom 7.6876063898179821 10.1766686287929868 24.7128377564528101 S
atom 2.5501060452869835 2.5501060452869848 27.4622350440593728 Ba
atom 7.5950740588069934 2.6169495808570029 27.4622350440593728 Ba
atom 2.6169495808570034 7.5950740588070058 27.4622350440593728 Ba
atom 7.6541846220329663 7.6541846220329788 27.4622350440593728 Ba
atom 2.4634643862136709 2.4634643862136736 32.1242501454974843 Ba
atom 7.6817157178803077 2.7035912399303150 32.1242501454974843 Ba
atom 2.7035912399303177 7.6817157178803193 32.1242501454974843 Ba
atom 7.5675429629596529 7.5675429629596662 32.1242501454974843 Ba
atom 5.0973863563578066 5.0973863563578119 30.0607982513325567 Zr
atom 10.1518723244821576 5.1737478465321667 30.0607982513325602 Zr
atom 5.1737478465321685 10.1518723244821789 30.0607982513325602 Zr
atom 10.2014649331037841 10.2014649331037948 30.0607982513325567 Zr
atom 4.7921560440697855 4.7921560440697846 27.5199530858084600 S
atom 10.4571026367701982 5.4789781588201940 27.5199530858084600 S
atom 5.4789781588201887 10.4571026367702054 27.5199530858084600 S
atom 9.8962346208157701 9.8962346208157754 27.5199530858084600 S
atom 5.3414943262907313 5.3414943262907331 32.5470574493846669 S
atom 9.9077643545492560 4.9296398765992464 32.5470574493846669 S
atom 4.9296398765992482 9.9077643545492595 32.5470574493846669 S
atom 10.4455729030367053 10.4455729030367266 32.5470574493846669 S
atom 5.0725900520469906 2.5835278130719934 30.2325955318210653 S
atom 10.1136915793949775 2.6465048624699894 29.6892541599149205 S
atom 5.1355671014449857 7.6246293404199905 29.6892541599149205 S
atom 10.1766686287929691 7.6876063898179856 30.2325955318210653 S
atom 2.5835278130719925 5.0725900520469951 30.2325955318210653 S
atom 7.6246293404199834 5.1355671014449884 29.6892541599149205 S
atom 2.6465048624699876 10.1136915793949917 29.6892541599149205 S
atom 7.6876063898179821 10.1766686287929868 30.2325955318210653 S
