#=======================================================
# FHI-aims file: sym_relax_RP_2_125.in
# Created using the Atomic Simulation Environment (ASE)
# Tue Feb 25 12:07:33 2025
#=======================================================
lattice_vector 10.0292837690427028 -0.0000000000000004 -0.0000000000000000 
lattice_vector -0.0000000000000004 10.0292837690427028 -0.0000000000000000 
lattice_vector 0.0000000000000000 -0.0000000000000000 25.7317368738243069 
atom -0.0000000000000000 -0.0000000000000000 0.2341642365926731 Ba
atom 5.0146418845213496 -0.0000000000000000 0.2341642365926731 Ba
atom -0.0000000000000000 5.0146418845213496 0.2341642365926731 Ba
atom 5.0146418845213496 5.0146418845213496 0.2341642365926731 Ba
atom -0.0000000000000000 -0.0000000000000000 4.9484109372739056 Ba
atom 5.0146418845213496 -0.0000000000000000 4.9484109372739056 Ba
atom -0.0000000000000000 5.0146418845213496 4.9484109372739056 Ba
atom 5.0146418845213496 5.0146418845213496 4.9484109372739056 Ba
atom 2.5073209422606748 2.5073209422606748 2.3801526529101356 Zr
atom 7.5219628267820262 2.5073209422606748 2.3801526529101356 Zr
atom 2.5073209422606748 7.5219628267820262 2.3801526529101356 Zr
atom 7.5219628267820262 7.5219628267820262 2.3801526529101356 Zr
atom 2.5073209422606748 2.5073209422606748 7.5166692216376774 Zr
atom 7.5219628267820262 2.5073209422606748 7.5166692216376774 Zr
atom 2.5073209422606748 7.5219628267820262 7.5166692216376774 Zr
atom 7.5219628267820262 7.5219628267820262 7.5166692216376774 Zr
atom 2.5073209422606748 2.5073209422606748 -0.1409949490390160 S
atom 7.5219628267820262 2.5073209422606748 -0.1409949490390160 S
atom 2.5073209422606748 7.5219628267820262 -0.1409949490390160 S
atom 7.5219628267820262 7.5219628267820262 -0.1409949490390160 S
atom 2.5073209422606748 2.5073209422606748 4.9484109372739056 S
atom 7.5219628267820262 2.5073209422606748 4.9484109372739056 S
atom 2.5073209422606748 7.5219628267820262 4.9484109372739056 S
atom 7.5219628267820262 7.5219628267820262 4.9484109372739056 S
atom 2.2549324187599513 -0.0000000000000000 2.4801606133935148 S
atom 7.7743513502827444 0.0000000000000000 2.4801606133935148 S
atom 2.7597094657614023 5.0146418845213496 2.4801606133935148 S
atom 7.2695743032813063 5.0146418845213496 2.4801606133935148 S
atom 2.7597094657614023 0.0000000000000000 7.4166612611542924 S
atom 7.2695743032813063 -0.0000000000000000 7.4166612611542924 S
atom 2.2549324187599513 5.0146418845213496 7.4166612611542924 S
atom 7.7743513502827444 5.0146418845213496 7.4166612611542924 S
atom 0.0000000000000000 2.7597094657614023 2.4801606133935148 S
atom 5.0146418845213496 2.2549324187599513 2.4801606133935148 S
atom -0.0000000000000000 7.2695743032813098 2.4801606133935148 S
atom 5.0146418845213496 7.7743513502827444 2.4801606133935148 S
atom -0.0000000000000000 2.2549324187599513 7.4166612611542924 S
atom 5.0146418845213496 2.7597094657614023 7.4166612611542924 S
atom 0.0000000000000000 7.7743513502827444 7.4166612611542924 S
atom 5.0146418845213496 7.2695743032813098 7.4166612611542924 S
atom -0.0000000000000000 -0.0000000000000000 9.6626576379551281 Ba
atom 5.0146418845213496 -0.0000000000000000 9.6626576379551281 Ba
atom 0.0000000000000000 5.0146418845213496 9.6626576379551281 Ba
atom 5.0146418845213496 5.0146418845213496 9.6626576379551281 Ba
atom 2.5073209422606748 2.5073209422606748 10.0378168235868088 S
atom 7.5219628267820262 2.5073209422606748 10.0378168235868088 S
atom 2.5073209422606748 7.5219628267820262 10.0378168235868088 S
atom 7.5219628267820262 7.5219628267820262 10.0378168235868088 S
atom 2.5073209422606748 2.5073209422606748 13.1417358400148387 Ba
atom 7.5219628267820262 2.5073209422606748 13.1417358400148387 Ba
atom 2.5073209422606748 7.5219628267820262 13.1417358400148387 Ba
atom 7.5219628267820262 7.5219628267820262 13.1417358400148387 Ba
atom 2.5073209422606748 2.5073209422606748 17.8142793741860608 Ba
atom 7.5219628267820262 2.5073209422606748 17.8142793741860608 Ba
atom 2.5073209422606748 7.5219628267820262 17.8142793741860608 Ba
atom 7.5219628267820262 7.5219628267820262 17.8142793741860608 Ba
atom 5.0146418845213496 5.0146418845213496 15.2507716597266523 Zr
atom 10.0292837690426992 5.0146418845213496 15.2507716597266523 Zr
atom 5.0146418845213496 10.0292837690426992 15.2507716597266523 Zr
atom 10.0292837690426992 10.0292837690426992 15.2507716597266523 Zr
atom 5.0146418845213496 5.0146418845213496 20.3777870886454693 Zr
atom 10.0292837690426992 5.0146418845213496 20.3777870886454693 Zr
atom 5.0146418845213496 10.0292837690426992 20.3777870886454693 Zr
atom 10.0292837690426992 10.0292837690426992 20.3777870886454693 Zr
atom 5.0146418845213496 5.0146418845213496 12.7385538695521277 S
atom 10.0292837690426992 5.0146418845213496 12.7385538695521277 S
atom 5.0146418845213496 10.0292837690426992 12.7385538695521277 S
atom 10.0292837690426992 10.0292837690426992 12.7385538695521277 S
atom 5.0146418845213496 5.0146418845213496 17.8142793741860608 S
atom 10.0292837690426992 5.0146418845213496 17.8142793741860608 S
atom 5.0146418845213496 10.0292837690426992 17.8142793741860608 S
atom 10.0292837690426992 10.0292837690426992 17.8142793741860608 S
atom 5.0146418845213496 2.5073226150291825 15.3432099931705661 S
atom 10.0292837690426992 2.5073192694921702 15.3432099931705661 S
atom 5.0146418845213496 7.5219611540135247 15.3432099931705661 S
atom 10.0292837690426992 7.5219644995505286 15.3432099931705661 S
atom 5.0146418845213496 2.5073192694921711 20.2853487552015217 S
atom 10.0292837690426992 2.5073226150291834 20.2853487552015217 S
atom 5.0146418845213496 7.5219644995505286 20.2853487552015217 S
atom 10.0292837690426992 7.5219611540135247 20.2853487552015217 S
atom 2.5073192694921702 5.0146418845213496 15.3432099931705661 S
atom 7.5219644995505295 5.0146418845213496 15.3432099931705661 S
atom 2.5073226150291830 10.0292837690426992 15.3432099931705661 S
atom 7.5219611540135229 10.0292837690426992 15.3432099931705661 S
atom 2.5073226150291830 5.0146418845213496 20.2853487552015217 S
atom 7.5219611540135229 5.0146418845213496 20.2853487552015217 S
atom 2.5073192694921702 10.0292837690426992 20.2853487552015217 S
atom 7.5219644995505295 10.0292837690426992 20.2853487552015217 S
atom 2.5073209422606748 2.5073209422606748 22.4868229083572828 Ba
atom 7.5219628267820262 2.5073209422606748 22.4868229083572828 Ba
atom 2.5073209422606748 7.5219628267820262 22.4868229083572828 Ba
atom 7.5219628267820262 7.5219628267820262 22.4868229083572828 Ba
atom 5.0146418845213496 5.0146418845213496 22.8900048788199975 S
atom 10.0292837690426992 5.0146418845213496 22.8900048788199975 S
atom 5.0146418845213496 10.0292837690426992 22.8900048788199975 S
atom 10.0292837690426992 10.0292837690426992 22.8900048788199975 S
