#=======================================================
# FHI-aims file: sym_relax_RP_3_139.in
# Created using the Atomic Simulation Environment (ASE)
# Tue Feb 25 12:08:19 2025
#=======================================================
lattice_vector 10.0669275617161773 0.0000000000000000 0.0000000000000000 
lattice_vector -0.0000000000000000 10.0669275617161755 -0.0000000000000000 
lattice_vector 0.0000000000000000 -0.0000000000000001 35.6209449274094467 
atom 0.0000000000000000 -0.0000000000000000 0.2881932588305816 Ba
atom 5.0334637808580887 -0.0000000000000000 0.2881932588305816 Ba
atom 0.0000000000000000 5.0334637808580878 0.2881932588305814 Ba
atom 5.0334637808580887 5.0334637808580878 0.2881932588305814 Ba
atom 0.0000000000000000 -0.0000000000000000 5.0110249352914309 Ba
atom 5.0334637808580887 -0.0000000000000000 5.0110249352914309 Ba
atom 0.0000000000000000 5.0334637808580878 5.0110249352914309 Ba
atom 5.0334637808580887 5.0334637808580878 5.0110249352914309 Ba
atom 2.5167318904290443 2.5167318904290439 2.3348500488734318 Zr
atom 7.5501956712871348 2.5167318904290439 2.3348500488734318 Zr
atom 2.5167318904290443 7.5501956712871339 2.3348500488734318 Zr
atom 7.5501956712871348 7.5501956712871339 2.3348500488734318 Zr
atom 2.5167318904290443 2.5167318904290439 7.4210301932102949 Zr
atom 7.5501956712871348 2.5167318904290439 7.4210301932102949 Zr
atom 2.5167318904290443 7.5501956712871339 7.4210301932102949 Zr
atom 7.5501956712871348 7.5501956712871339 7.4210301932102949 Zr
atom 2.5167318904290443 2.5167318904290439 -0.1621917579170805 S
atom 7.5501956712871348 2.5167318904290439 -0.1621917579170804 S
atom 2.5167318904290443 7.5501956712871339 -0.1621917579170804 S
atom 7.5501956712871348 7.5501956712871339 -0.1621917579170804 S
atom 2.5167318904290443 2.5167318904290439 4.9111655972817436 S
atom 7.5501956712871348 2.5167318904290439 4.9111655972817436 S
atom 2.5167318904290443 7.5501956712871339 4.9111655972817436 S
atom 7.5501956712871348 7.5501956712871339 4.9111655972817436 S
atom 2.5167318904290443 -0.0000000000000000 2.4514033975606537 S
atom 7.5501956712871348 -0.0000000000000000 2.4514033975606537 S
atom 2.5167318904290443 5.0334637808580878 2.4514033975606537 S
atom 7.5501956712871348 5.0334637808580878 2.4514033975606537 S
atom 2.5167318904290443 -0.0000000000000000 7.4210301932102949 S
atom 7.5501956712871348 -0.0000000000000000 7.4210301932102949 S
atom 2.5167318904290443 5.0334637808580878 7.4210301932102949 S
atom 7.5501956712871348 5.0334637808580878 7.4210301932102949 S
atom 0.0000000000000000 2.5167318904290439 2.4514033975606537 S
atom 5.0334637808580887 2.5167318904290439 2.4514033975606537 S
atom 0.0000000000000000 7.5501956712871339 2.4514033975606537 S
atom 5.0334637808580887 7.5501956712871339 2.4514033975606537 S
atom 0.0000000000000000 2.5167318904290439 7.4210301932102949 S
atom 5.0334637808580887 2.5167318904290439 7.4210301932102949 S
atom 0.0000000000000000 7.5501956712871339 7.4210301932102949 S
atom 5.0334637808580887 7.5501956712871339 7.4210301932102949 S
atom 0.0000000000000000 -0.0000000000000000 9.8310354511291571 Ba
atom 5.0334637808580887 -0.0000000000000000 9.8310354511291571 Ba
atom 0.0000000000000000 5.0334637808580878 9.8310354511291571 Ba
atom 5.0334637808580887 5.0334637808580878 9.8310354511291571 Ba
atom -0.0000000000000000 -0.0000000000000001 14.5538671275900082 Ba
atom 5.0334637808580887 -0.0000000000000001 14.5538671275900082 Ba
atom -0.0000000000000000 5.0334637808580878 14.5538671275900082 Ba
atom 5.0334637808580887 5.0334637808580878 14.5538671275900082 Ba
atom 2.5167318904290443 2.5167318904290439 12.5072103375471482 Zr
atom 7.5501956712871348 2.5167318904290439 12.5072103375471482 Zr
atom 2.5167318904290443 7.5501956712871339 12.5072103375471482 Zr
atom 7.5501956712871348 7.5501956712871339 12.5072103375471482 Zr
atom 2.5167318904290443 2.5167318904290439 9.9308947891388470 S
atom 7.5501956712871348 2.5167318904290439 9.9308947891388470 S
atom 2.5167318904290443 7.5501956712871339 9.9308947891388470 S
atom 7.5501956712871348 7.5501956712871339 9.9308947891388470 S
atom 2.5167318904290443 2.5167318904290439 15.0042521443376682 S
atom 7.5501956712871348 2.5167318904290439 15.0042521443376682 S
atom 2.5167318904290443 7.5501956712871339 15.0042521443376682 S
atom 7.5501956712871348 7.5501956712871339 15.0042521443376682 S
atom 2.5167318904290443 -0.0000000000000000 12.3906569888599325 S
atom 7.5501956712871348 -0.0000000000000000 12.3906569888599325 S
atom 2.5167318904290443 5.0334637808580878 12.3906569888599325 S
atom 7.5501956712871348 5.0334637808580878 12.3906569888599325 S
atom -0.0000000000000000 2.5167318904290439 12.3906569888599325 S
atom 5.0334637808580887 2.5167318904290439 12.3906569888599325 S
atom -0.0000000000000000 7.5501956712871339 12.3906569888599325 S
atom 5.0334637808580887 7.5501956712871339 12.3906569888599325 S
atom 2.5167318904290443 2.5167318904290439 18.0986657225352978 Ba
atom 7.5501956712871348 2.5167318904290439 18.0986657225352978 Ba
atom 2.5167318904290443 7.5501956712871339 18.0986657225352978 Ba
atom 7.5501956712871348 7.5501956712871339 18.0986657225352978 Ba
atom 2.5167318904290443 2.5167318904290439 22.8214973989961507 Ba
atom 7.5501956712871348 2.5167318904290439 22.8214973989961507 Ba
atom 2.5167318904290443 7.5501956712871339 22.8214973989961507 Ba
atom 7.5501956712871348 7.5501956712871339 22.8214973989961507 Ba
atom 5.0334637808580887 5.0334637808580878 20.1453225125781401 Zr
atom 10.0669275617161773 5.0334637808580878 20.1453225125781401 Zr
atom 5.0334637808580887 10.0669275617161755 20.1453225125781401 Zr
atom 10.0669275617161773 10.0669275617161755 20.1453225125781401 Zr
atom 5.0334637808580887 5.0334637808580878 25.2315026569150049 Zr
atom 10.0669275617161773 5.0334637808580878 25.2315026569150049 Zr
atom 5.0334637808580887 10.0669275617161755 25.2315026569150049 Zr
atom 10.0669275617161773 10.0669275617161755 25.2315026569150049 Zr
atom 5.0334637808580887 5.0334637808580878 17.6482807057876450 S
atom 10.0669275617161773 5.0334637808580878 17.6482807057876450 S
atom 5.0334637808580887 10.0669275617161755 17.6482807057876450 S
atom 10.0669275617161773 10.0669275617161755 17.6482807057876450 S
atom 5.0334637808580887 5.0334637808580878 22.7216380609864572 S
atom 10.0669275617161773 5.0334637808580878 22.7216380609864572 S
atom 5.0334637808580887 10.0669275617161755 22.7216380609864572 S
atom 10.0669275617161773 10.0669275617161755 22.7216380609864572 S
atom 5.0334637808580887 2.5167318904290439 20.2618758612653735 S
atom 10.0669275617161773 2.5167318904290439 20.2618758612653735 S
atom 5.0334637808580887 7.5501956712871339 20.2618758612653735 S
atom 10.0669275617161773 7.5501956712871339 20.2618758612653735 S
atom 5.0334637808580887 2.5167318904290439 25.2315026569150049 S
atom 10.0669275617161773 2.5167318904290439 25.2315026569150049 S
atom 5.0334637808580887 7.5501956712871339 25.2315026569150049 S
atom 10.0669275617161773 7.5501956712871339 25.2315026569150049 S
atom 2.5167318904290443 5.0334637808580878 20.2618758612653735 S
atom 7.5501956712871348 5.0334637808580878 20.2618758612653735 S
atom 2.5167318904290443 10.0669275617161755 20.2618758612653735 S
atom 7.5501956712871348 10.0669275617161755 20.2618758612653735 S
atom 2.5167318904290443 5.0334637808580878 25.2315026569150049 S
atom 7.5501956712871348 5.0334637808580878 25.2315026569150049 S
atom 2.5167318904290443 10.0669275617161755 25.2315026569150049 S
atom 7.5501956712871348 10.0669275617161755 25.2315026569150049 S
atom 2.5167318904290443 2.5167318904290439 27.6415079148338663 Ba
atom 7.5501956712871348 2.5167318904290439 27.6415079148338663 Ba
atom 2.5167318904290443 7.5501956712871339 27.6415079148338663 Ba
atom 7.5501956712871348 7.5501956712871339 27.6415079148338663 Ba
atom 2.5167318904290443 2.5167318904290439 32.3643395912947369 Ba
atom 7.5501956712871348 2.5167318904290439 32.3643395912947369 Ba
atom 2.5167318904290443 7.5501956712871339 32.3643395912947369 Ba
atom 7.5501956712871348 7.5501956712871339 32.3643395912947369 Ba
atom 5.0334637808580887 5.0334637808580878 30.3176828012518698 Zr
atom 10.0669275617161773 5.0334637808580878 30.3176828012518698 Zr
atom 5.0334637808580887 10.0669275617161755 30.3176828012518698 Zr
atom 10.0669275617161773 10.0669275617161755 30.3176828012518698 Zr
atom 5.0334637808580887 5.0334637808580878 27.7413672528435455 S
atom 10.0669275617161773 5.0334637808580878 27.7413672528435455 S
atom 5.0334637808580887 10.0669275617161755 27.7413672528435455 S
atom 10.0669275617161773 10.0669275617161755 27.7413672528435455 S
atom 5.0334637808580887 5.0334637808580878 32.8147246080423827 S
atom 10.0669275617161773 5.0334637808580878 32.8147246080423827 S
atom 5.0334637808580887 10.0669275617161755 32.8147246080423827 S
atom 10.0669275617161773 10.0669275617161755 32.8147246080423827 S
atom 5.0334637808580887 2.5167318904290439 30.2011294525646541 S
atom 10.0669275617161773 2.5167318904290439 30.2011294525646541 S
atom 5.0334637808580887 7.5501956712871339 30.2011294525646541 S
atom 10.0669275617161773 7.5501956712871339 30.2011294525646541 S
atom 2.5167318904290443 5.0334637808580878 30.2011294525646541 S
atom 7.5501956712871348 5.0334637808580878 30.2011294525646541 S
atom 2.5167318904290443 10.0669275617161755 30.2011294525646541 S
atom 7.5501956712871348 10.0669275617161755 30.2011294525646541 S
