#=======================================================
# FHI-aims file: sym_relax_RP_1_55.in
# Created using the Atomic Simulation Environment (ASE)
# Tue Feb 25 12:06:51 2025
#=======================================================
lattice_vector 10.0137840008611114 -0.0000005818918692 0.0000000000000000 
lattice_vector -0.0000005818918692 10.0137840008611132 0.0000000000000000 
lattice_vector 0.0000000000000000 0.0000000000000000 15.6661260673145062 
atom 0.0000000000000000 0.0000000000000000 0.2276078784230682 Ba
atom 5.0068920004305548 -0.0000002909459348 0.2276078784230682 Ba
atom -0.0000002909459348 5.0068920004305504 0.2276078784230682 Ba
atom 5.0068917094846164 5.0068917094846181 0.2276078784230682 Ba
atom 0.0000000000000000 -0.0000000000000000 4.6680565176127189 Ba
atom 5.0068920004305548 -0.0000002909459348 4.6680565176127189 Ba
atom -0.0000002909459348 5.0068920004305504 4.6680565176127189 Ba
atom 5.0068917094846164 5.0068917094846181 4.6680565176127189 Ba
atom 2.5034458547423082 2.5034458547423091 2.4478321980178941 Zr
atom 7.5103378551728754 2.5034455637963733 2.4478321980178941 Zr
atom 2.5034455637963764 7.5103378551728630 2.4478321980178941 Zr
atom 7.5103375642269370 7.5103375642269263 2.4478321980178941 Zr
atom 2.5034458547423082 2.5034458547423091 -0.1067255992366837 S
atom 7.5103378551728754 2.5034455637963733 -0.1067255992366837 S
atom 2.5034455637963764 7.5103378551728630 -0.1067255992366837 S
atom 7.5103375642269370 7.5103375642269263 -0.1067255992366837 S
atom 2.5034458547423082 2.5034458547423091 5.0023899952724769 S
atom 7.5103378551728754 2.5034455637963733 5.0023899952724769 S
atom 2.5034455637963764 7.5103378551728630 5.0023899952724769 S
atom 7.5103375642269370 7.5103375642269263 5.0023899952724769 S
atom 2.5034589425882721 -0.0000029660999309 2.4478321980178941 S
atom 7.5103250582728469 0.0000023842080622 2.4478321980178941 S
atom 2.5034327668963492 5.0068946755845491 2.4478321980178941 S
atom 7.5103506520728907 5.0068887433846863 2.4478321980178941 S
atom 0.0000026751539966 2.5034330578422841 2.4478321980178941 S
atom 5.0068890343306265 2.5034586516423341 2.4478321980178941 S
atom -0.0000032570458664 7.5103509430188220 2.4478321980178941 S
atom 5.0068943846386231 7.5103247673269031 2.4478321980178941 S
atom 2.5034458547423082 2.5034458547423091 8.0606741205873487 Ba
atom 7.5103378551728754 2.5034455637963733 8.0606741205873487 Ba
atom 2.5034455637963764 7.5103378551728630 8.0606741205873487 Ba
atom 7.5103375642269370 7.5103375642269263 8.0606741205873487 Ba
atom 2.5034458547423082 2.5034458547423091 12.5011163427629626 Ba
atom 7.5103378551728754 2.5034455637963733 12.5011163427629626 Ba
atom 2.5034455637963764 7.5103378551728630 12.5011163427629626 Ba
atom 7.5103375642269370 7.5103375642269263 12.5011163427629626 Ba
atom 5.0068917094846164 5.0068917094846181 10.2808952316751512 Zr
atom 10.0137837099151934 5.0068914185386859 10.2808952316751512 Zr
atom 5.0068914185386868 10.0137837099151721 10.2808952316751512 Zr
atom 10.0137834189692327 10.0137834189692363 10.2808952316751512 Zr
atom 5.0068917094846164 5.0068917094846181 7.7263348123606477 S
atom 10.0137837099151934 5.0068914185386859 7.7263348123606477 S
atom 5.0068914185386868 10.0137837099151721 7.7263348123606477 S
atom 10.0137834189692327 10.0137834189692363 7.7263348123606477 S
atom 5.0068917094846164 5.0068917094846181 12.8354556509896511 S
atom 10.0137837099151934 5.0068914185386859 12.8354556509896511 S
atom 5.0068914185386868 10.0137837099151721 12.8354556509896511 S
atom 10.0137834189692327 10.0137834189692363 12.8354556509896511 S
atom 5.0068874797805378 2.5034442905811343 10.2808952316751512 S
atom 10.0137882305652024 2.5034468370116159 10.2808952316751512 S
atom 5.0068959391887100 7.5103391283881074 10.2808952316751512 S
atom 10.0137791892651666 7.5103360000657480 10.2808952316751512 S
atom 2.5034471279575539 5.0068962301346387 10.2808952316751512 S
atom 7.5103362910116873 5.0068871888345958 10.2808952316751512 S
atom 2.5034439996351994 10.0137794802110829 10.2808952316751512 S
atom 7.5103388374421769 10.0137879396192577 10.2808952316751512 S
