#=======================================================
# FHI-aims file: sym_relax_RP_3_61.in
# Created using the Atomic Simulation Environment (ASE)
# Tue Feb 25 12:08:01 2025
#=======================================================
lattice_vector 10.0628686478622011 0.0585692920269738 0.0000000000000000 
lattice_vector 0.0585692920269737 10.0628686478622011 0.0000000000000000 
lattice_vector 0.0000000000000000 0.0000000000000000 35.5273738962524774 
atom -0.0153624188806130 -0.1206291064414865 0.2555253086164272 Ba
atom 5.1520634303725865 0.0446470648940999 0.2555253086164273 Ba
atom 0.1499137524549733 5.0467967428117113 0.2555253086164273 Ba
atom 5.0453565510639775 4.9400898635031032 0.2555253086164272 Ba
atom -0.1943902282992006 0.1624520258634020 4.9457729414887481 Ba
atom 4.8689822980676984 0.2236748743126870 4.9457729414887481 Ba
atom -0.1331673798499153 5.2258245522302946 4.9457729414887481 Ba
atom 4.8663287416453809 5.2231709958079886 4.9457729414887481 Ba
atom 2.5129098312666915 2.5401455110739235 2.3596949236657698 Zr
atom 7.5520077828017600 2.5770937846913813 2.3596949236657698 Zr
atom 2.5498581048841493 7.5792434626090008 2.3596949236657698 Zr
atom 7.5736288012112718 7.6008644810185109 2.3596949236657698 Zr
atom 2.5303594849722946 2.5303594849722959 7.4015362283859254 Zr
atom 7.5617938089033867 2.5596441309857823 7.4015362283859254 Zr
atom 2.5596441309857783 7.5617938089033956 7.4015362283859254 Zr
atom 7.5910784549168815 7.5910784549168797 7.4015362283859254 Zr
atom 2.7171421018313207 2.7968659035307839 -0.1341762528859066 S
atom 7.2952873903449085 2.3728615141267557 -0.1341762528859066 S
atom 2.2931377124272911 7.3750111920443651 -0.1341762528859066 S
atom 7.7778610717759085 7.8575848734753748 -0.1341762528859066 S
atom 2.2594211334385892 2.2144990610147333 4.9083159857763157 S
atom 7.8776542328609480 2.8305824825194836 4.9083159857763157 S
atom 2.8755045549433400 7.8327321604370947 4.9083159857763157 S
atom 7.3201401033831868 7.2752180309593228 4.9083159857763157 S
atom 2.6473046342094508 0.0301608498336905 2.1884109572586232 S
atom 7.3548468844093389 0.0631193773855959 2.7247911744436157 S
atom 2.3526972064917318 5.0652690553032107 2.7247911744436157 S
atom 7.7080236041540422 5.0908798197782756 2.1884109572586232 S
atom 2.8635346241037407 0.0115030664249729 7.7039504087077946 S
atom 7.1993340237584649 0.0470662256020005 7.0991220480640491 S
atom 2.1971843458408458 5.0492159035196176 7.0991220480640491 S
atom 7.9242535940483201 5.0722220363695598 7.7039504087077946 S
atom -0.0008762038202039 2.3841296897216440 2.1884109572586232 S
atom 5.0268842385724719 2.7373064094663375 2.7247911744436157 S
atom 0.0247345606548642 7.7394560873839540 2.7247911744436157 S
atom 5.0598427661243832 7.4448486596662349 2.1884109572586232 S
atom 0.0177815795885138 2.1678996998273581 7.7039504087077946 S
atom 5.0429373903560695 2.8928192701172244 7.0991220480640491 S
atom 0.0407877124384595 7.8949689480348368 7.0991220480640491 S
atom 5.0785005495331053 7.2286186697719526 7.7039504087077946 S
atom 0.1943902282992006 -0.1624520258634019 9.8572995152830973 Ba
atom 5.1938863497944965 -0.1651055822857137 9.8572995152830973 Ba
atom 0.1917366718768888 4.8370440956319012 9.8572995152830973 Ba
atom 5.2551091982437823 4.8982669440811906 9.8572995152830973 Ba
atom 0.0153624188806131 0.1206291064414865 14.5475471481554344 Ba
atom 4.9108052174896137 0.0139222271328735 14.5475471481554344 Ba
atom -0.0913444604280002 5.0160719050504836 14.5475471481554344 Ba
atom 5.0760813888251981 5.1813480763860689 14.5475471481554344 Ba
atom 2.5478091386778932 2.5205734588706639 12.4433775331060819 Zr
atom 7.5715798350050214 2.5421944772801774 12.4433775331060819 Zr
atom 2.5694301570874090 7.5443441551977921 12.4433775331060819 Zr
atom 7.6085281086224903 7.5812924288152539 12.4433775331060819 Zr
atom 2.8012978365059933 2.8462199089298568 9.8947564709955245 S
atom 7.2459333849458254 2.2887057794520782 9.8947564709955245 S
atom 2.2437837070282125 7.2908554573696964 9.8947564709955245 S
atom 7.8620168064505727 7.9069388788744392 9.8947564709955245 S
atom 2.3435768681132680 2.2638530664138057 14.9372487096577551 S
atom 7.8283002274618774 2.7464267478448030 14.9372487096577551 S
atom 2.8261505495442707 7.7485764257624234 14.9372487096577551 S
atom 7.4042958380578465 7.3245720363583953 14.9372487096577551 S
atom 2.7080217634528529 -0.0045500853586221 12.0782812823282253 S
atom 7.4155640136527383 0.0284084421932819 12.6146614995132200 S
atom 2.4134143357351312 5.0305581201109018 12.6146614995132200 S
atom 7.7687407333974399 5.0561688845859631 12.0782812823282253 S
atom 0.0338347313721092 2.3234125604782507 12.0782812823282253 S
atom 5.0615951737647800 2.6765892802229443 12.6146614995132200 S
atom 0.0594454958471781 7.6787389581405598 12.6146614995132200 S
atom 5.0945537013166984 7.3841315304228283 12.0782812823282253 S
atom 2.5457219038529075 2.6509885914137796 18.0192122567426836 Ba
atom 7.4411647024619114 2.5442817121051662 18.0192122567426836 Ba
atom 2.4390150245442901 7.5464313900227857 18.0192122567426836 Ba
atom 7.6064408737974905 7.7117075613583657 18.0192122567426836 Ba
atom 2.7247497132714948 2.3679074591088902 22.7094598896149833 Ba
atom 7.7242458347667942 2.3652539026865789 22.7094598896149833 Ba
atom 2.7220961568491839 7.3674035806041926 22.7094598896149833 Ba
atom 7.7854686832160764 7.4286264290534794 22.7094598896149833 Ba
atom 5.0781686236501971 5.0509329438429571 20.1233818717920059 Zr
atom 10.1019393199773084 5.0725539622524733 20.1233818717920059 Zr
atom 5.0997896420596982 10.0747036401700854 20.1233818717920059 Zr
atom 10.1388875935947596 10.1116519137875489 20.1233818717920059 Zr
atom 5.0607189699445891 5.0607189699445918 25.1652231765121428 Zr
atom 10.0921532938756879 5.0900036159580777 25.1652231765121428 Zr
atom 5.0900036159580733 10.0921532938757057 25.1652231765121428 Zr
atom 10.1214379398891783 10.1214379398891836 25.1652231765121428 Zr
atom 4.8739363530855560 4.7942125513861003 17.6295106952403238 S
atom 10.3586597124341573 5.2767862328171011 17.6295106952403238 S
atom 5.3565100345165613 10.2789359107347309 17.6295106952403238 S
atom 9.9346553230301460 9.8549315213306965 17.6295106952403238 S
atom 5.3316573214782785 5.3765793939021478 22.6720029339025437 S
atom 9.7762928699181266 4.8190652644243777 22.6720029339025437 S
atom 4.7741431920005120 9.8212149423419870 22.6720029339025437 S
atom 10.3923762914228739 10.4372983638467485 22.6720029339025437 S
atom 5.2383812484251475 2.5258093996136686 20.4884781225698234 S
atom 9.9459234986250280 2.5587679271655768 19.9520979053848535 S
atom 4.9437738207074142 7.5609176050831950 19.9520979053848535 S
atom 10.2991002183697269 7.5865283695582528 20.4884781225698234 S
atom 5.3938941090760224 2.5418625513972630 24.8628089961902781 S
atom 9.7296935087307421 2.5774257105742961 25.4676373568340466 S
atom 4.7275438308131479 7.5795753884919126 25.4676373568340466 S
atom 10.4546130790206142 7.6025815213418459 24.8628089961902781 S
atom 2.5641942163444029 4.8537720454505386 20.4884781225698234 S
atom 7.5919546587370776 5.2069487651952393 19.9520979053848535 S
atom 2.5898049808194670 10.2090984431128540 19.9520979053848535 S
atom 7.6249131862889845 9.9144910153951233 20.4884781225698234 S
atom 2.5481410645608067 4.6982591847996602 24.8628089961902781 S
atom 7.5732968753283574 5.4231787550895145 25.4676373568340466 S
atom 2.5711471974107525 10.4253284330071487 25.4676373568340466 S
atom 7.6088600345054003 9.7589781547442342 24.8628089961902781 S
atom 2.3359692566730890 2.6928115108356954 27.6209864634093343 Ba
atom 7.3993417830399872 2.7540343592849843 27.6209864634093343 Ba
atom 2.3971921051223757 7.7561840372025959 27.6209864634093343 Ba
atom 7.3966882266176786 7.7535304807802810 27.6209864634093343 Ba
atom 2.5149970660916821 2.4097303785308046 32.3112340962817157 Ba
atom 7.6824229153448744 2.5750065498663988 32.3112340962817157 Ba
atom 2.6802732374272669 7.5771562277840019 32.3112340962817157 Ba
atom 7.5757160360362654 7.4704493484753947 32.3112340962817157 Ba
atom 5.0432693162389821 5.0705049960462159 30.2070644812323224 Zr
atom 10.0823672677740621 5.1074532696636759 30.2070644812323224 Zr
atom 5.0802175898564421 10.1096029475812923 30.2070644812323224 Zr
atom 10.1039882861835579 10.1312239659907988 30.2070644812323224 Zr
atom 4.7897806184108918 4.7448585459870278 27.6584434191217561 S
atom 10.4080137178332492 5.3609419674917733 27.6584434191217561 S
atom 5.4058640399156301 10.3630916454093924 27.6584434191217561 S
atom 9.8504995883554596 9.8055775159316081 27.6584434191217561 S
atom 5.2475015868036072 5.3272253885030763 32.7009356577839370 S
atom 9.8256468753171990 4.9032209990990481 32.7009356577839370 S
atom 4.8234971973995773 9.9053706770166663 32.7009356577839370 S
atom 10.3082205567482017 10.3879443584476618 32.7009356577839370 S
atom 5.1776641191817472 2.5605203348059851 30.3783484476394712 S
atom 9.8852063693816277 2.5934788623578897 29.8419682304544764 S
atom 4.8830566914640219 7.5956285402755048 29.8419682304544764 S
atom 10.2383830891263319 7.6212393047505707 30.3783484476394712 S
atom 2.5294832811520842 4.9144891746939416 30.3783484476394712 S
atom 7.5572437235447607 5.2676658944386343 29.8419682304544764 S
atom 2.5550940456271531 10.2698155723562543 29.8419682304544764 S
atom 7.5902022510966782 9.9752081446385272 30.3783484476394712 S
