#=======================================================
# FHI-aims file: sym_relax_RP_2_28.in
# Created using the Atomic Simulation Environment (ASE)
# Tue Feb 25 12:07:44 2025
#=======================================================
lattice_vector 10.0970596104744637 0.0098415976899576 -0.0000000000000000 
lattice_vector 0.0098415976899576 10.0970596104744637 0.0000000000000000 
lattice_vector -0.0000000000000000 0.0000000000000000 25.4758672241449524 
atom -0.1673651089066410 -0.0049300321097850 0.2877042614690303 Ba
atom 5.2113466782217861 0.0051855284135850 0.2875664982611577 Ba
atom 0.1677376718295429 5.0487945348058254 0.2875664982611577 Ba
atom 4.8860854951755659 5.0485205719724240 0.2877042614690303 Ba
atom 0.0413551300885482 0.0024897783949853 4.8992052354124853 Ba
atom 5.0029324642059292 0.0019638330179216 4.8992052354124853 Ba
atom -0.0406765421863246 5.0455728394101786 4.8992052354124853 Ba
atom 5.0948057341707464 5.0559403824771909 4.8992052354124853 Ba
atom 2.5245407378178459 2.5044048118115354 2.3640135989239357 Zr
atom 7.5732279181552613 2.5496846435094485 2.3641138354729661 Zr
atom 2.5296189117630203 7.5932936499017005 2.3641138354729661 Zr
atom 7.5779913419000549 7.5578554158937417 2.3640135989239357 Zr
atom 2.5245407378178459 2.5044048118115354 7.4343968719010389 Zr
atom 7.5732279181552613 2.5496846435094485 7.4342966353520090 Zr
atom 2.5296189117630203 7.5932936499017005 7.4342966353520090 Zr
atom 7.5779913419000549 7.5578554158937417 7.4343968719010389 Zr
atom 2.5295991609367050 2.8075872336219798 -0.1227618572481744 S
atom 7.5693378513167309 2.2468833230808265 -0.1224511170169667 S
atom 2.5257288449244810 7.2904923294730812 -0.1224511170169667 S
atom 7.5830497650189042 7.8610378377041856 -0.1227618572481744 S
atom 2.5205785499197773 2.1098189874239304 4.8992052354124853 S
atom 7.5767877419389427 2.9453125877521211 4.8992052354124853 S
atom 2.5331787355466986 7.9889215941443688 4.8992052354124853 S
atom 7.5740291540019813 7.1632695915061451 4.8992052354124853 S
atom 2.5216211566754971 -0.0000674827019467 2.0830923113233379 S
atom 7.5707782432097250 0.0050449264571672 2.7782928987868871 S
atom 2.5271692368174850 5.0486539328494153 2.7782928987868871 S
atom 7.5750717607576927 5.0533831213802625 2.0830923113233379 S
atom 2.5216211566754971 -0.0000674827019467 7.7153181595016314 S
atom 7.5707782432097250 0.0050449264571672 7.0201175720380844 S
atom 2.5271692368174850 5.0486539328494153 7.0201175720380844 S
atom 7.5750717607576927 5.0533831213802625 7.7153181595016314 S
atom 0.0005112857399919 2.5214700754455075 2.4749972784202141 S
atom 5.0487023501450707 2.5264175572088767 2.4830326055037233 S
atom 0.0050933437528310 7.5700265636011235 2.4830326055037233 S
atom 5.0539618898221921 7.5749206795277120 2.4749972784202141 S
atom 0.0005112857399919 2.5214700754455075 7.3234131924047592 S
atom 5.0487023501450707 2.5264175572088767 7.3153778653212544 S
atom 0.0050933437528310 7.5700265636011235 7.3153778653212544 S
atom 5.0539618898221921 7.5749206795277120 7.3234131924047592 S
atom -0.1673651089066410 -0.0049300321097850 9.5107062093559485 Ba
atom 5.2113466782217861 0.0051855284135850 9.5108439725638174 Ba
atom 0.1677376718295429 5.0487945348058254 9.5108439725638174 Ba
atom 4.8860854951755659 5.0485205719724240 9.5107062093559485 Ba
atom 2.5295991609367050 2.8075872336219798 9.9211723280731547 S
atom 7.5693378513167309 2.2468833230808265 9.9208615878419355 S
atom 2.5257288449244810 7.2904923294730812 9.9208615878419355 S
atom 7.5830497650189042 7.8610378377041856 9.9211723280731547 S
atom 2.5316553341508845 2.6940904109477457 13.0256378735414877 Ba
atom 7.5749903777097174 2.3688292279015202 13.0255001103336294 Ba
atom 2.5313813713174724 7.4124382342937656 13.0255001103336294 Ba
atom 7.5851059382330899 7.7475410150299471 13.0256378735414877 Ba
atom 2.5242355236461171 2.4853701719525554 17.6371388474849553 Ba
atom 7.5782120731053766 2.5772434419173873 17.6371388474849553 Ba
atom 2.5346030667131361 7.6208524483096349 17.6371388474849553 Ba
atom 7.5776861277283194 7.5388207760347621 17.6371388474849553 Ba
atom 5.0757710943117722 5.0556351683054590 15.1019472109964035 Zr
atom 10.0839418666960565 5.0603985920502454 15.1020474475454467 Zr
atom 5.0403328603038089 10.1040075984424984 15.1020474475454467 Zr
atom 10.1292216983939767 10.1090857723876741 15.1019472109964035 Zr
atom 5.0757710943117722 5.0556351683054590 20.1723304839735142 Zr
atom 10.0839418666960565 5.0603985920502454 20.1722302474244763 Zr
atom 5.0403328603038089 10.1040075984424984 20.1722302474244763 Zr
atom 10.1292216983939767 10.1090857723876741 20.1723304839735142 Zr
atom 4.7725886725013202 5.0505767451866097 12.6151717548242974 S
atom 10.3867431871246829 5.0642886588887803 12.6154824950555007 S
atom 5.3431341807324282 10.1078976652810208 12.6154824950555007 S
atom 9.8260392765835221 10.1040273492688133 12.6151717548242974 S
atom 5.4703569186993803 5.0595973562035219 17.6371388474849553 S
atom 9.6883139224533732 5.0568387682665694 17.6371388474849553 S
atom 4.6447049160611416 10.1004477746588055 17.6371388474849553 S
atom 10.5238075227815830 10.1130479602857317 17.6371388474849553 S
atom 5.0537583489144380 2.5314735559782320 15.2209662175761924 S
atom 10.1023148370700611 2.5360556139910733 15.2129308904926894 S
atom 5.0587058306777966 7.5796646203833173 15.2129308904926894 S
atom 10.1072089529966416 7.5849241600604422 15.2209662175761924 S
atom 5.0537583489144380 2.5314735559782320 20.0533114773936987 S
atom 10.1023148370700611 2.5360556139910733 20.0613468044772318 S
atom 5.0587058306777966 7.5796646203833173 20.0613468044772318 S
atom 10.1072089529966416 7.5849241600604422 20.0533114773936987 S
atom 2.5315219732738874 5.0530066693058311 15.5162265108593669 S
atom 7.5802433888252558 5.0585547494478087 14.8210259233958048 S
atom 2.5366343824330024 10.1021637558400599 14.8210259233958048 S
atom 7.5849725773560950 10.1064572733880222 15.5162265108593669 S
atom 2.5315219732738874 5.0530066693058311 19.7580511841105277 S
atom 7.5802433888252558 5.0585547494478087 20.4532517715740738 S
atom 2.5366343824330024 10.1021637558400599 20.4532517715740738 S
atom 7.5849725773560950 10.1064572733880222 19.7580511841105277 S
atom 2.5316553341508845 2.6940904109477457 22.2486398214284229 Ba
atom 7.5749903777097174 2.3688292279015202 22.2487775846363043 Ba
atom 2.5313813713174724 7.4124382342937656 22.2487775846363043 Ba
atom 7.5851059382330899 7.7475410150299471 22.2486398214284229 Ba
atom 4.7725886725013202 5.0505767451866097 22.6591059401456327 S
atom 10.3867431871246829 5.0642886588887803 22.6587951999144046 S
atom 5.3431341807324282 10.1078976652810208 22.6587951999144046 S
atom 9.8260392765835221 10.1040273492688133 22.6591059401456327 S
