#=======================================================
# FHI-aims file: sym_relax_RP_4_64.in
# Created using the Atomic Simulation Environment (ASE)
# Tue Feb 25 12:09:16 2025
#=======================================================
lattice_vector 9.9373495387738267 0.0000005536725145 0.0000000000000000 
lattice_vector 0.0000005536725145 9.9373495387738089 -0.0000000000000000 
lattice_vector 0.0000000000000000 -0.0000000000000000 46.5021271803020113 
atom 0.0000000000000000 -0.0000000000000000 0.1903758450583640 Ba
atom 4.9686747693869133 0.0000002768362579 0.1903758450583639 Ba
atom 0.0000002768362574 4.9686747693869027 0.1903758450583639 Ba
atom 4.9686750462231712 4.9686750462231659 0.1903758450583639 Ba
atom 0.0000000000000000 -0.0000000000000000 5.0339503560589938 Ba
atom 4.9686747693869124 0.0000002768362574 5.0339503560589938 Ba
atom 0.0000002768362574 4.9686747693869027 5.0339503560589938 Ba
atom 4.9686750462231712 4.9686750462231650 5.0339503560589938 Ba
atom 2.4843375231115856 2.4843375231115834 2.4131236518121266 Zr
atom 7.4530122924985047 2.4843377999478395 2.4131236518121266 Zr
atom 2.4843377999478440 7.4530122924984878 2.4131236518121266 Zr
atom 7.4530125693347626 7.4530125693347467 2.4131236518121266 Zr
atom 2.4843375231115856 2.4843375231115834 7.5514728626937231 Zr
atom 7.4530122924985047 2.4843377999478395 7.5514728626937231 Zr
atom 2.4843377999478440 7.4530122924984878 7.5514728626937231 Zr
atom 7.4530125693347626 7.4530125693347467 7.5514728626937231 Zr
atom 2.4843375231115856 2.4843375231115830 -0.1209288437815960 S
atom 7.4530122924985047 2.4843377999478395 -0.1209288437815960 S
atom 2.4843377999478440 7.4530122924984870 -0.1209288437815960 S
atom 7.4530125693347626 7.4530125693347458 -0.1209288437815961 S
atom 2.4843375231115856 2.4843375231115834 5.0114234410183540 S
atom 7.4530122924985047 2.4843377999478395 5.0114234410183540 S
atom 2.4843377999478440 7.4530122924984878 5.0114234410183540 S
atom 7.4530125693347626 7.4530125693347467 5.0114234410183540 S
atom 2.8268281104038340 -0.0000067343046134 2.5053135149505978 S
atom 7.1105214283699985 0.0000072879771278 2.5053135149505978 S
atom 2.1418469358193382 4.9686817805277776 2.5053135149505978 S
atom 7.7955031566269986 4.9686683119185515 2.5053135149505978 S
atom 2.9832299807937486 0.0000002215731022 7.5564051873442262 S
atom 6.9541195579800839 0.0000003320994122 7.5564051873442262 S
atom 1.9854450654294222 4.9686748246500629 7.5564051873442262 S
atom 7.9519050270169185 4.9686752677962680 7.5564051873442262 S
atom 0.0000070111408704 2.1418466589830745 2.5053135149505978 S
atom 4.9686680350822998 2.8268283872400866 2.5053135149505978 S
atom -0.0000064574683555 7.7955028797907291 2.5053135149505978 S
atom 4.9686820573640462 7.1105217052062422 2.5053135149505978 S
atom 0.0000000552631548 1.9854447885931608 7.5564051873442262 S
atom 4.9686749909600199 2.9832302576300034 7.5564051873442262 S
atom 0.0000004984093600 7.9519047501806481 7.5564051873442262 S
atom 4.9686751014863244 6.9541198348163276 7.5564051873442262 S
atom 0.0000000000000000 -0.0000000000000000 10.1091580826743499 Ba
atom 4.9686747693869124 0.0000002768362574 10.1091580826743499 Ba
atom 0.0000002768362574 4.9686747693869027 10.1091580826743499 Ba
atom 4.9686750462231712 4.9686750462231650 10.1091580826743499 Ba
atom 0.0000000000000000 -0.0000000000000000 15.1843658092897176 Ba
atom 4.9686747693869124 0.0000002768362574 15.1843658092897176 Ba
atom 0.0000002768362574 4.9686747693869036 15.1843658092897176 Ba
atom 4.9686750462231712 4.9686750462231668 15.1843658092897176 Ba
atom 2.4843375231115856 2.4843375231115834 12.6668433026549945 Zr
atom 7.4530122924985047 2.4843377999478400 12.6668433026549945 Zr
atom 2.4843377999478440 7.4530122924984887 12.6668433026549945 Zr
atom 7.4530125693347626 7.4530125693347449 12.6668433026549945 Zr
atom 2.4843375231115856 2.4843375231115834 17.8051925135365821 Zr
atom 7.4530122924985047 2.4843377999478400 17.8051925135365821 Zr
atom 2.4843377999478440 7.4530122924984887 17.8051925135365821 Zr
atom 7.4530125693347626 7.4530125693347449 17.8051925135365821 Zr
atom 2.4843375231115856 2.4843375231115834 10.1091580826743499 S
atom 7.4530122924985047 2.4843377999478395 10.1091580826743499 S
atom 2.4843377999478440 7.4530122924984878 10.1091580826743499 S
atom 7.4530125693347626 7.4530125693347467 10.1091580826743499 S
atom 2.4843375231115856 2.4843375231115834 15.2068927243303769 S
atom 7.4530122924985047 2.4843377999478400 15.2068927243303769 S
atom 2.4843377999478440 7.4530122924984887 15.2068927243303769 S
atom 7.4530125693347626 7.4530125693347449 15.2068927243303769 S
atom 2.9832299807937490 0.0000002215731039 12.6619109780044816 S
atom 6.9541195579800839 0.0000003320994122 12.6619109780044816 S
atom 1.9854450654294222 4.9686748246500638 12.6619109780044816 S
atom 7.9519050270169185 4.9686752677962680 12.6619109780044816 S
atom 2.8268281104038340 -0.0000067343046116 17.7130026503981277 S
atom 7.1105214283699985 0.0000072879771282 17.7130026503981277 S
atom 2.1418469358193382 4.9686817805277794 17.7130026503981277 S
atom 7.7955031566269986 4.9686683119185515 17.7130026503981277 S
atom 0.0000000552631548 1.9854447885931616 12.6619109780044816 S
atom 4.9686749909600199 2.9832302576300043 12.6619109780044816 S
atom 0.0000004984093600 7.9519047501806464 12.6619109780044816 S
atom 4.9686751014863244 6.9541198348163267 12.6619109780044816 S
atom 0.0000070111408704 2.1418466589830754 17.7130026503981277 S
atom 4.9686680350822998 2.8268283872400874 17.7130026503981277 S
atom -0.0000064574683555 7.7955028797907291 17.7130026503981277 S
atom 4.9686820573640462 7.1105217052062404 17.7130026503981277 S
atom 0.0000000000000000 -0.0000000000000000 20.0279403202903517 Ba
atom 4.9686747693869124 0.0000002768362574 20.0279403202903517 Ba
atom 0.0000002768362574 4.9686747693869036 20.0279403202903517 Ba
atom 4.9686750462231712 4.9686750462231668 20.0279403202903517 Ba
atom 2.4843375231115856 2.4843375231115834 20.3392450091303267 S
atom 7.4530122924985047 2.4843377999478400 20.3392450091303267 S
atom 2.4843377999478440 7.4530122924984887 20.3392450091303267 S
atom 7.4530125693347626 7.4530125693347449 20.3392450091303267 S
atom 2.4843375231115856 2.4843375231115843 23.4414394352093929 Ba
atom 7.4530122924985047 2.4843377999478400 23.4414394352093929 Ba
atom 2.4843377999478440 7.4530122924984887 23.4414394352093929 Ba
atom 7.4530125693347626 7.4530125693347458 23.4414394352093929 Ba
atom 2.4843375231115856 2.4843375231115834 28.2850139462100181 Ba
atom 7.4530122924985047 2.4843377999478400 28.2850139462100181 Ba
atom 2.4843377999478440 7.4530122924984870 28.2850139462100181 Ba
atom 7.4530125693347626 7.4530125693347458 28.2850139462100181 Ba
atom 4.9686750462231712 4.9686750462231668 25.6641872419631305 Zr
atom 9.9373498156100855 4.9686753230594212 25.6641872419631305 Zr
atom 4.9686753230594336 9.9373498156100730 25.6641872419631305 Zr
atom 9.9373500924463425 9.9373500924463318 25.6641872419631305 Zr
atom 4.9686750462231712 4.9686750462231668 30.8025364528447270 Zr
atom 9.9373498156100855 4.9686753230594212 30.8025364528447270 Zr
atom 4.9686753230594336 9.9373498156100730 30.8025364528447270 Zr
atom 9.9373500924463425 9.9373500924463318 30.8025364528447270 Zr
atom 4.9686750462231712 4.9686750462231668 23.1301347463694000 S
atom 9.9373498156100855 4.9686753230594203 23.1301347463694000 S
atom 4.9686753230594336 9.9373498156100712 23.1301347463694000 S
atom 9.9373500924463425 9.9373500924463318 23.1301347463694000 S
atom 4.9686750462231712 4.9686750462231668 28.2624870311693677 S
atom 9.9373498156100855 4.9686753230594212 28.2624870311693677 S
atom 4.9686753230594336 9.9373498156100730 28.2624870311693677 S
atom 9.9373500924463425 9.9373500924463318 28.2624870311693677 S
atom 4.6261841820946747 2.4843445342524531 25.7563771051015955 S
atom 10.2798404029023516 2.4843310656432269 25.7563771051015955 S
atom 5.3111659103516820 7.4530055581938743 25.7563771051015955 S
atom 9.5948592283178282 7.4530195804756190 25.7563771051015955 S
atom 4.4697823117047539 2.4843375783747397 30.8074687774952309 S
atom 10.4362422732922866 2.4843380215209416 30.8074687774952309 S
atom 5.4675677807415903 7.4530125140715855 30.8074687774952309 S
atom 9.4384573579279021 7.4530126245979025 30.8074687774952309 S
atom 2.4843307888069717 5.3111656335154072 25.7563771051015955 S
atom 7.4530193036393708 4.6261844589309176 25.7563771051015955 S
atom 2.4843448110887159 9.5948589514815552 25.7563771051015955 S
atom 7.4530058350301491 10.2798406797385837 25.7563771051015955 S
atom 2.4843377446846899 5.4675675039053235 30.8074687774952309 S
atom 7.4530123477616561 4.4697825885410012 30.8074687774952309 S
atom 2.4843378552109989 9.4384570810916379 30.8074687774952309 S
atom 7.4530127909078585 10.4362425501284957 30.8074687774952309 S
atom 2.4843375231115856 2.4843375231115834 33.3602216728253822 Ba
atom 7.4530122924985047 2.4843377999478400 33.3602216728253822 Ba
atom 2.4843377999478440 7.4530122924984870 33.3602216728253822 Ba
atom 7.4530125693347626 7.4530125693347458 33.3602216728253822 Ba
atom 2.4843375231115856 2.4843375231115834 38.4354293994407072 Ba
atom 7.4530122924985047 2.4843377999478400 38.4354293994407072 Ba
atom 2.4843377999478440 7.4530122924984887 38.4354293994407072 Ba
atom 7.4530125693347626 7.4530125693347467 38.4354293994407072 Ba
atom 4.9686750462231712 4.9686750462231668 35.9179068928060303 Zr
atom 9.9373498156100855 4.9686753230594212 35.9179068928060303 Zr
atom 4.9686753230594336 9.9373498156100730 35.9179068928060303 Zr
atom 9.9373500924463425 9.9373500924463336 35.9179068928060303 Zr
atom 4.9686750462231712 4.9686750462231668 41.0562561036875806 Zr
atom 9.9373498156100855 4.9686753230594212 41.0562561036875806 Zr
atom 4.9686753230594336 9.9373498156100730 41.0562561036875806 Zr
atom 9.9373500924463425 9.9373500924463336 41.0562561036875806 Zr
atom 4.9686750462231712 4.9686750462231668 33.3602216728253822 S
atom 9.9373498156100855 4.9686753230594212 33.3602216728253822 S
atom 4.9686753230594336 9.9373498156100730 33.3602216728253822 S
atom 9.9373500924463425 9.9373500924463318 33.3602216728253822 S
atom 4.9686750462231712 4.9686750462231668 38.4579563144813505 S
atom 9.9373498156100855 4.9686753230594212 38.4579563144813505 S
atom 4.9686753230594336 9.9373498156100730 38.4579563144813505 S
atom 9.9373500924463425 9.9373500924463336 38.4579563144813505 S
atom 4.4697823117047539 2.4843375783747397 35.9129745681555121 S
atom 10.4362422732922866 2.4843380215209434 35.9129745681555121 S
atom 5.4675677807415903 7.4530125140715873 35.9129745681555121 S
atom 9.4384573579279021 7.4530126245979034 35.9129745681555121 S
atom 4.6261841820946739 2.4843445342524531 40.9640662405491440 S
atom 10.2798404029023516 2.4843310656432287 40.9640662405491440 S
atom 5.3111659103516820 7.4530055581938761 40.9640662405491440 S
atom 9.5948592283178282 7.4530195804756207 40.9640662405491440 S
atom 2.4843377446846899 5.4675675039053235 35.9129745681555121 S
atom 7.4530123477616561 4.4697825885410021 35.9129745681555121 S
atom 2.4843378552109989 9.4384570810916397 35.9129745681555121 S
atom 7.4530127909078585 10.4362425501284957 35.9129745681555121 S
atom 2.4843307888069717 5.3111656335154072 40.9640662405491440 S
atom 7.4530193036393708 4.6261844589309193 40.9640662405491440 S
atom 2.4843448110887159 9.5948589514815570 40.9640662405491440 S
atom 7.4530058350301491 10.2798406797385837 40.9640662405491440 S
atom 2.4843375231115856 2.4843375231115834 43.2790039104413680 Ba
atom 7.4530122924985047 2.4843377999478400 43.2790039104413680 Ba
atom 2.4843377999478440 7.4530122924984887 43.2790039104413680 Ba
atom 7.4530125693347626 7.4530125693347467 43.2790039104413680 Ba
atom 4.9686750462231712 4.9686750462231668 43.5903085992813288 S
atom 9.9373498156100855 4.9686753230594212 43.5903085992813288 S
atom 4.9686753230594336 9.9373498156100730 43.5903085992813288 S
atom 9.9373500924463425 9.9373500924463336 43.5903085992813288 S
