#=======================================================
# FHI-aims file: sym_relax_RP_3_15.in
# Created using the Atomic Simulation Environment (ASE)
# Tue Feb 25 12:08:09 2025
#=======================================================
lattice_vector 10.0513339733344900 0.0489809414742476 0.0206168504260576 
lattice_vector 0.0489809414742476 10.0513339733344953 -0.0206168504260576 
lattice_vector 0.0729291481776023 -0.0729291481776022 35.6098465973696037 
atom -0.0129928914970364 -0.1510923188276148 0.2623039561896968 Ba
atom 5.1767593054948691 0.0374833622341612 0.2726123814027261 Ba
atom 0.1755827895647394 5.0386598781642800 0.2519955309766683 Ba
atom 5.0371645659073412 4.8990651385767618 0.2623039561896968 Ba
atom -0.1840355599591152 0.1493211742572245 4.9548547795562250 Ba
atom 4.8763458124100270 0.2085260306962396 4.9651632047692509 Ba
atom -0.1248307035201001 5.2097025466263602 4.9445463543431911 Ba
atom 4.8661218974452609 5.1994786316615969 4.9548547795562250 Ba
atom 2.5134116078271336 2.5158879383577162 2.3705884637342747 Zr
atom 7.5599365057139147 2.5612363203143689 2.3808968889473001 Zr
atom 2.5587599897837809 7.5624128362444889 2.3602800385212435 Zr
atom 7.5635690652315128 7.5660453957620932 2.3705884637342747 Zr
atom 2.5402723012391886 2.5098851561651863 7.4187180411186704 Zr
atom 7.5659392879064402 2.5343756269023108 7.4290264663316927 Zr
atom 2.5647627719763149 7.5355521428324375 7.4084096159056338 Zr
atom 7.5904297586435696 7.5600426135695580 7.4187180411186704 Zr
atom 2.6756921617499447 2.7328724211437323 -0.1229163991565450 S
atom 7.3429520229279035 2.3989557663915551 -0.1126079739435160 S
atom 2.3417755069977710 7.4001322823216711 -0.1332248243695737 S
atom 7.7258496191543236 7.7830298785480965 -0.1229163991565450 S
atom 2.2757208733182948 2.2095930938989063 4.9234831885093921 S
atom 7.8662313501727317 2.7989270548232033 4.9337916137224251 S
atom 2.8650548342425939 7.8001035707533299 4.9131747632963654 S
atom 7.3258783307226674 7.2597505513032745 4.9234831885093921 S
atom 2.6775593218233147 0.0134798913292805 2.2243053920059599 S
atom 7.3613507432613057 0.0419845826782281 2.7266408650804785 S
atom 2.3601742273311674 5.0431610986083548 2.7060240146544214 S
atom 7.7277167792276948 5.0636373487336481 2.2243053920059594 S
atom 2.8901447726996961 -0.0059638435902993 7.7221229566751273 S
atom 7.1915763457088158 0.0245576399905465 7.1359299759882555 S
atom 2.1903998297786886 5.0257341559206745 7.1153131255622002 S
atom 7.9403022301040718 5.0441936138140608 7.7221229566751273 S
atom 0.0110105794078440 2.3481076648439339 2.2139969667929300 S
atom 5.0326633454632796 2.7144737008103341 2.7163324398674495 S
atom 0.0314868295331438 7.7156502167404506 2.6957155894413898 S
atom 5.0611680368122247 7.3982651222483051 2.2139969667929300 S
atom 0.0304543143274243 2.1355222139675583 7.7118145314620996 S
atom 5.0500902881509520 2.8842480983628151 7.1256215507752296 S
atom 0.0489137722208263 7.8854246142929352 7.1050047003491734 S
atom 5.0806117717318067 7.1856796713719264 7.7118145314620996 S
atom 0.2144227050331171 -0.1797083193312246 9.8825813026811069 Ba
atom 5.2053753059984800 -0.1899322342959924 9.8928897278941310 Ba
atom 0.2041987900683492 4.8112442816341323 9.8722728774680704 Ba
atom 5.2645801624374924 4.8704491380731483 9.8825813026811051 Ba
atom 0.0433800365710382 0.1207051737536150 14.5751321260476399 Ba
atom 4.9049618129136334 -0.0188895658339136 14.5854405512606657 Ba
atom -0.0962147030164901 4.9822869500962073 14.5648237008346104 Ba
atom 5.0935374939754174 5.1708626311579815 14.5751321260476399 Ba
atom 2.5671329946512476 2.5038823739726568 12.4668476185030386 Zr
atom 7.5719420700989826 2.5075149334902496 12.4771560437160662 Zr
atom 2.5707655541688501 7.5086914494203789 12.4565391932900074 Zr
atom 7.6172904520556246 7.5540398313770281 12.4668476185030386 Zr
atom 2.8048237291600890 2.8101772184314693 9.9139528937279326 S
atom 7.2656472256401665 2.2698241989814147 9.9242613189409550 S
atom 2.2644707097100318 7.2710007149115334 9.9036444685148979 S
atom 7.8549811865644692 7.8603346758358317 9.9139528937279326 S
atom 2.4048524407284328 2.2868978911866442 14.9603524813938762 S
atom 7.7889265528849858 2.6697954874130621 14.9706609066069039 S
atom 2.7877500369548565 7.6709720033431914 14.9500440561808468 S
atom 7.4550098981328103 7.3370553485910142 14.9603524813938762 S
atom 2.7203703751472119 -0.0233907862779808 12.1314120675829038 S
atom 7.4041617965851891 0.0051139050709666 12.6337475406574189 S
atom 2.4029852806550669 5.0062904210010855 12.6131306902313529 S
atom 7.7705278325515934 5.0267666711263885 12.1314120675829038 S
atom 0.0478812570151054 2.3052966115200411 12.1211036423698744 S
atom 5.0695340230705428 2.6716626474864360 12.6234391154444001 S
atom 0.0683575071404053 7.6728391634165583 12.6028222650183341 S
atom 5.0980387144194852 7.3554540689244137 12.1211036423698744 S
atom 2.5485504112939581 2.3375218357857692 18.0672272548745099 Ba
atom 7.7383026082858501 2.5260975168475444 18.0775356800875215 Ba
atom 2.7371260923557319 7.5272740327776688 18.0569188296614627 Ba
atom 7.5987078686983338 7.3876792931901418 18.0672272548745099 Ba
atom 2.3775077428318756 2.6379353288706087 22.7597780782410197 Ba
atom 7.4378891152010116 2.6971401853096220 22.7700865034540421 Ba
atom 2.4367125992708893 7.6983167012397411 22.7494696530279903 Ba
atom 7.4276652002362589 7.6880927862749866 22.7597780782410197 Ba
atom 5.0749549106181266 5.0045020929711042 20.1755117624190454 Zr
atom 10.1214798085048958 5.0498504749277524 20.1858201876320962 Zr
atom 5.1203032925747740 10.0510269908578707 20.1652033372060338 Zr
atom 10.1251123680224957 10.0546595503754741 20.1755117624190454 Zr
atom 5.1018156040301754 4.9984993107785671 25.2236413398034429 Zr
atom 10.1274825906974488 5.0229897815156983 25.2339497650165043 Zr
atom 5.1263060747673075 10.0241662974458166 25.2133329145904490 Zr
atom 10.1519730614345640 10.0486567681829460 25.2236413398034429 Zr
atom 5.2372354645409338 5.2214865757571127 17.6820068995282327 S
atom 9.9044953257189174 4.8875699210049346 17.6923153247412692 S
atom 4.9033188097887681 9.8887464369350653 17.6716984743152210 S
atom 10.2873929219453188 10.2716440331614720 17.6820068995282327 S
atom 4.8372641761092794 4.6982072485122899 22.7284064871942064 S
atom 10.4277746529637074 5.2875412094365917 22.7387149124072252 S
atom 5.4265981370335874 10.2887177253667002 22.7180980619811521 S
atom 9.8874216335136520 9.7483647059166589 22.7284064871942064 S
atom 5.2391026246143060 2.5020940459426666 20.0292286906907684 S
atom 9.9228940460522743 2.5305987372916090 20.5315641637652853 S
atom 4.9217175301221632 7.5317752532217330 20.5109473133392299 S
atom 10.2892600820186946 7.5522515033470325 20.0292286906907684 S
atom 5.4516880754906776 2.4826503110230886 25.5270462553599309 S
atom 9.7531196484998208 2.5131717946039291 24.9408532746730529 S
atom 4.7519431325696706 7.5143483105340598 24.9202364242470118 S
atom 10.5018455328950573 7.5328077684274577 25.5270462553599309 S
atom 2.5725538821988332 4.8367218194573152 20.0189202654777318 S
atom 7.5942066482542536 5.2030878554237185 20.5212557385522345 S
atom 2.5930301323241358 10.2042643713538368 20.5006388881262005 S
atom 7.6227113396032182 9.8868792768616842 20.0189202654777318 S
atom 2.5919976171184147 4.6241363685809462 25.5167378301469014 S
atom 7.6116335909419455 5.3728622529762022 24.9305448494600306 S
atom 2.6104570750118188 10.3740387689063081 24.9099279990339717 S
atom 7.6421550745228011 9.6742938259853233 25.5167378301469014 S
atom 2.7759660078241080 2.3089058352821610 27.6875046013658910 Ba
atom 7.7669186087894717 2.2986819203173936 27.6978130265789204 Ba
atom 2.7657420928593410 7.2998584362475203 27.6771961761528829 Ba
atom 7.8261234652284815 7.3590632926865309 27.6875046013658910 Ba
atom 2.6049233393620286 2.6093193283670004 32.3800554247324115 Ba
atom 7.4665051157046340 2.4697245887794730 32.3903638499454658 Ba
atom 2.4653285997745011 7.4709011047095970 32.3697469995193998 Ba
atom 7.6550807967664101 7.6594767857713695 32.3800554247324115 Ba
atom 5.1286762974422375 4.9924965285860345 30.2717709171878759 Zr
atom 10.1334853728899734 4.9961290881036371 30.2820793424008983 Zr
atom 5.1323088569598374 9.9973056040337642 30.2614624919748252 Zr
atom 10.1788337548466217 10.0426539859904089 30.2717709171878759 Zr
atom 5.3663670319510812 5.2987913730448550 27.7188761924127327 S
atom 9.8271905284311547 4.7584383535947943 27.7291846176257657 S
atom 4.8260140125010134 9.7596148695249063 27.7085677671997139 S
atom 10.4165244893554618 10.3489488304492223 27.7188761924127327 S
atom 4.9663957435194277 4.7755120458000260 32.7652757800786887 S
atom 10.3504698556759660 5.1584096420264505 32.7755842052916861 S
atom 5.3492933397458406 10.1595861579565643 32.7549673548656415 S
atom 10.0165532009238145 9.8256695032044075 32.7652757800786887 S
atom 5.2819136779382037 2.4652233683354026 29.9363353662676914 S
atom 9.9657050993761782 2.4937280596843481 30.4386708393422190 S
atom 4.9645285834460600 7.4949045756144770 30.4180539889161743 S
atom 10.3320711353425914 7.5153808257397756 29.9363353662676950 S
atom 2.6094245598060950 4.7939107661334264 29.9260269410546549 S
atom 7.6310773258615283 5.1602768020998182 30.4283624141291789 S
atom 2.6299008099313990 10.1614533180299489 30.4077455637031235 S
atom 7.6595820172104840 9.8440682235377999 29.9260269410546549 S
