#=======================================================
# FHI-aims file: sym_relax_RP_2_132.in
# Created using the Atomic Simulation Environment (ASE)
# Tue Feb 25 12:07:15 2025
#=======================================================
lattice_vector 10.0975469659083021 -0.0000000000000004 0.0000000000000000 
lattice_vector -0.0000000000000004 10.0975469659083021 0.0000000000000000 
lattice_vector -0.0000000000000000 0.0000000000000000 25.4732519718873966 
atom -0.1651781453267486 0.0000000000000000 0.2875120005288007 Ba
atom 5.2139516282808946 -0.0000000000000000 0.2875120005288007 Ba
atom 0.1651781453267485 5.0487734829541484 0.2875120005288008 Ba
atom 4.8835953376274004 5.0487734829541484 0.2875120005288008 Ba
atom 0.0439915808124818 -0.0000000000000000 4.8987023022860336 Ba
atom 5.0047819021416604 0.0000000000000000 4.8987023022860336 Ba
atom -0.0439915808124818 5.0487734829541484 4.8987023022860336 Ba
atom 5.0927650637666382 5.0487734829541484 4.8987023022860336 Ba
atom 2.5243867414770742 2.5043279693736888 2.3639522809172724 Zr
atom 7.5731602244312226 2.5444455135804609 2.3639522809172724 Zr
atom 2.5243867414770742 7.5932189965346115 2.3639522809172724 Zr
atom 7.5731602244312226 7.5531014523278390 2.3639522809172724 Zr
atom 2.5243867414770742 2.5043279693736888 7.4334523236548016 Zr
atom 7.5731602244312226 2.5444455135804609 7.4334523236548016 Zr
atom 2.5243867414770742 7.5932189965346115 7.4334523236548016 Zr
atom 7.5731602244312226 7.5531014523278390 7.4334523236548016 Zr
atom 2.5243867414770742 2.8072733653419282 -0.1225308064586102 S
atom 7.5731602244312226 2.2415001176122207 -0.1225308064586103 S
atom 2.5243867414770742 7.2902736005663780 -0.1225308064586102 S
atom 7.5731602244312226 7.8560468482960717 -0.1225308064586103 S
atom 2.5243867414770742 2.1093151285426530 4.8987023022860336 S
atom 7.5731602244312226 2.9394583544114954 4.8987023022860336 S
atom 2.5243867414770742 7.9882318373656425 4.8987023022860336 S
atom 7.5731602244312226 7.1580886114968054 4.8987023022860336 S
atom 2.5243867414770742 0.0000000000000000 2.0833920714230429 S
atom 7.5731602244312226 0.0000000000000000 2.7784549823093654 S
atom 2.5243867414770742 5.0487734829541484 2.7784549823093654 S
atom 7.5731602244312226 5.0487734829541484 2.0833920714230429 S
atom 2.5243867414770742 0.0000000000000000 7.7140125331490310 S
atom 7.5731602244312226 0.0000000000000000 7.0189496222627108 S
atom 2.5243867414770742 5.0487734829541484 7.0189496222627108 S
atom 7.5731602244312226 5.0487734829541484 7.7140125331490310 S
atom -0.0000000000000000 2.5243867414770742 2.4787811565471736 S
atom 5.0487734829541484 2.5243867414770742 2.4787811565471736 S
atom -0.0000000000000000 7.5731602244312226 2.4787811565471736 S
atom 5.0487734829541484 7.5731602244312226 2.4787811565471736 S
atom -0.0000000000000000 2.5243867414770742 7.3186234480248977 S
atom 5.0487734829541484 2.5243867414770742 7.3186234480248977 S
atom -0.0000000000000000 7.5731602244312226 7.3186234480248977 S
atom 5.0487734829541484 7.5731602244312226 7.3186234480248977 S
atom -0.1651781453267486 0.0000000000000000 9.5098926040432641 Ba
atom 5.2139516282808946 -0.0000000000000000 9.5098926040432641 Ba
atom 0.1651781453267485 5.0487734829541484 9.5098926040432641 Ba
atom 4.8835953376274004 5.0487734829541484 9.5098926040432641 Ba
atom 2.5243867414770742 2.8072733653419282 9.9199354110306963 S
atom 7.5731602244312226 2.2415001176122207 9.9199354110306963 S
atom 2.5243867414770742 7.2902736005663780 9.9199354110306963 S
atom 7.5731602244312226 7.8560468482960717 9.9199354110306963 S
atom 2.5243867414770742 2.6895648868038209 13.0241379864724944 Ba
atom 7.5731602244312226 2.3592085961503280 13.0241379864724944 Ba
atom 2.5243867414770742 7.4079820791044719 13.0241379864724944 Ba
atom 7.5731602244312226 7.7383383697579688 13.0241379864724944 Ba
atom 2.5243867414770742 2.4803951606645933 17.6353282882297400 Ba
atom 7.5731602244312226 2.5683783222895555 17.6353282882297400 Ba
atom 2.5243867414770742 7.6171518052437071 17.6353282882297400 Ba
atom 7.5731602244312226 7.5291686436187364 17.6353282882297400 Ba
atom 5.0688322550575320 5.0487734829541484 15.1005782668609569 Zr
atom 10.0774881938049106 5.0487734829541484 15.1005782668609569 Zr
atom 5.0287147108507604 10.0975469659082968 15.1005782668609569 Zr
atom 10.1176057380116831 10.0975469659082968 15.1005782668609569 Zr
atom 5.0688322550575320 5.0487734829541484 20.1700783095984768 Zr
atom 10.0774881938049106 5.0487734829541484 20.1700783095984768 Zr
atom 5.0287147108507604 10.0975469659082968 20.1700783095984768 Zr
atom 10.1176057380116831 10.0975469659082968 20.1700783095984768 Zr
atom 4.7658868590892993 5.0487734829541484 12.6140951794850764 S
atom 10.3804335897731477 5.0487734829541484 12.6140951794850764 S
atom 5.3316601068189975 10.0975469659082968 12.6140951794850764 S
atom 9.8146603420434548 10.0975469659082968 12.6140951794850764 S
atom 5.4638450958885700 5.0487734829541484 17.6353282882297400 S
atom 9.6824753529738796 5.0487734829541484 17.6353282882297400 S
atom 4.6337018700197286 10.0975469659082968 17.6353282882297400 S
atom 10.5126185788427158 10.0975469659082968 17.6353282882297400 S
atom 5.0487734829541484 2.5243867414770742 15.2154071424908661 S
atom 10.0975469659082968 2.5243867414770742 15.2154071424908661 S
atom 5.0487734829541484 7.5731602244312226 15.2154071424908661 S
atom 10.0975469659082968 7.5731602244312226 15.2154071424908661 S
atom 5.0487734829541484 2.5243867414770742 20.0552494339685801 S
atom 10.0975469659082968 2.5243867414770742 20.0552494339685801 S
atom 5.0487734829541484 7.5731602244312226 20.0552494339685801 S
atom 10.0975469659082968 7.5731602244312226 20.0552494339685801 S
atom 2.5243867414770742 5.0487734829541484 15.5150809682530610 S
atom 7.5731602244312226 5.0487734829541484 14.8200180573667364 S
atom 2.5243867414770742 10.0975469659082968 14.8200180573667364 S
atom 7.5731602244312226 10.0975469659082968 15.5150809682530610 S
atom 2.5243867414770742 5.0487734829541484 19.7555756082064136 S
atom 7.5731602244312226 5.0487734829541484 20.4506385190927382 S
atom 2.5243867414770742 10.0975469659082968 20.4506385190927382 S
atom 7.5731602244312226 10.0975469659082968 19.7555756082064136 S
atom 2.5243867414770742 2.6895648868038209 22.2465185899869802 Ba
atom 7.5731602244312226 2.3592085961503284 22.2465185899869802 Ba
atom 2.5243867414770742 7.4079820791044719 22.2465185899869802 Ba
atom 7.5731602244312226 7.7383383697579688 22.2465185899869802 Ba
atom 4.7658868590892993 5.0487734829541484 22.6565613969743680 S
atom 10.3804335897731477 5.0487734829541484 22.6565613969743680 S
atom 5.3316601068189975 10.0975469659082968 22.6565613969743680 S
atom 9.8146603420434548 10.0975469659082968 22.6565613969743680 S
