#=======================================================
# FHI-aims file: sym_relax_RP_2_26.in
# Created using the Atomic Simulation Environment (ASE)
# Tue Feb 25 12:07:27 2025
#=======================================================
lattice_vector 10.0568663267727683 0.0519115647576421 0.0000000000000000 
lattice_vector 0.0519115647576420 10.0568663267727754 -0.0000000000000000 
lattice_vector 0.0000000000000000 -0.0000000000000000 25.6480240165984732 
atom 0.0000561345146763 -0.1574521532917507 0.2572881183662114 Ba
atom 5.1858853166781413 0.0258996478641450 0.2572881183662114 Ba
atom 0.1834079356705713 5.0283770288717111 0.2572881183662114 Ba
atom 5.0544450802798888 4.8969367924734541 0.2572881183662114 Ba
atom -0.1296407764497337 0.1348400500580914 4.9323123108843285 Ba
atom 4.8935931133282926 0.1555965588285545 4.9323123108843285 Ba
atom -0.1088842676792705 5.1580739398361253 4.9323123108843285 Ba
atom 4.9247481693154711 5.1892289958233011 4.9323123108843285 Ba
atom 2.5278140425323343 2.5104314140364878 2.3885649385629799 Zr
atom 7.5723906951151125 2.5525306856116927 2.3885649385629799 Zr
atom 2.5699133141075365 7.5550080666192549 2.3885649385629799 Zr
atom 7.5822029882975421 7.5648203598016934 2.3885649385629799 Zr
atom 2.5278140425323343 2.5104314140364878 7.4760596832056772 Zr
atom 7.5723906951151125 2.5525306856116927 7.4760596832056772 Zr
atom 2.5699133141075374 7.5550080666192549 7.4760596832056772 Zr
atom 7.5822029882975421 7.5648203598016934 7.4760596832056772 Zr
atom 2.6817075071380834 2.7287518426767452 -0.1111787707096507 S
atom 7.3540702664748503 2.3986372210059468 -0.1111787707096507 S
atom 2.3515928854672854 7.4011146020135170 -0.1111787707096507 S
atom 7.7360964529032872 7.7831407884419566 -0.1111787707096507 S
atom 2.2969202209746853 2.2483026831552424 4.9323123108843285 S
atom 7.8345194259963549 2.7834245071693426 4.9323123108843285 S
atom 2.8320420449887864 7.7859018881769044 4.9323123108843285 S
atom 7.3513091667399060 7.3026916289204573 4.9323123108843285 S
atom 2.7041538101726585 0.0065339821668507 2.2455025346620237 S
atom 7.3632046312567896 0.0360107813159171 2.7134868106026158 S
atom 2.3607272502492331 5.0384881623234801 2.7134868106026158 S
atom 7.7585427559378557 5.0609229279320562 2.2455025346620237 S
atom 2.7041538101726585 0.0065339821668507 7.6191220871066285 S
atom 7.3632046312567896 0.0360107813159171 7.1511378111660395 S
atom 2.3607272502492331 5.0384881623234801 7.1511378111660395 S
atom 7.7585427559378557 5.0609229279320562 7.6191220871066285 S
atom 0.0194218002119702 2.3242793532137322 2.2455025346620237 S
atom 5.0443339468281154 2.7196174778947948 2.7134868106026158 S
atom 0.0418565658205454 7.7220948589023672 2.7134868106026158 S
atom 5.0738107459771804 7.3786682989789449 2.2455025346620237 S
atom 0.0194218002119702 2.3242793532137322 7.6191220871066285 S
atom 5.0443339468281154 2.7196174778947948 7.1511378111660395 S
atom 0.0418565658205454 7.7220948589023672 7.1511378111660395 S
atom 5.0738107459771804 7.3786682989789449 7.6191220871066285 S
atom 0.0000561345146762 -0.1574521532917507 9.6073365034024452 Ba
atom 5.1858853166781413 0.0258996478641450 9.6073365034024452 Ba
atom 0.1834079356705713 5.0283770288717111 9.6073365034024452 Ba
atom 5.0544450802798888 4.8969367924734541 9.6073365034024452 Ba
atom 2.6817075071380834 2.7287518426767452 9.9758033924783263 S
atom 7.3540702664748503 2.3986372210059468 9.9758033924783263 S
atom 2.3515928854672854 7.4011146020135170 9.9758033924783263 S
atom 7.7360964529032872 7.7831407884419566 9.9758033924783263 S
atom 2.6815412889913337 2.5285810839878602 13.0784027461831514 Ba
atom 7.5542410251637309 2.3988034391526969 13.0784027461831514 Ba
atom 2.5517636441561695 7.4012808201602640 13.0784027461831514 Ba
atom 7.7359302347565446 7.5829700297530733 13.0784027461831514 Ba
atom 2.3808873007485585 2.6694544661598174 17.7563243191835873 Ba
atom 7.4133676429917728 2.6994574273954712 17.7563243191835873 Ba
atom 2.4108902619842074 7.7019348084030455 17.7563243191835873 Ba
atom 7.4352762465137614 7.7238434119250261 17.7563243191835873 Ba
atom 5.0643791316758735 5.0609471407857631 15.2112011579127131 Zr
atom 10.0762639141310419 5.0703545422333676 15.2112011579127131 Zr
atom 5.0737865331234762 10.0728319232409333 15.2112011579127131 Zr
atom 10.1187680774410733 10.1153360865509843 15.2112011579127131 Zr
atom 5.0643791316758735 5.0609471407857631 20.3014474804544669 Zr
atom 10.0762639141310419 5.0703545422333676 20.3014474804544669 Zr
atom 5.0737865331234762 10.0728319232409333 20.3014474804544669 Zr
atom 10.1187680774410733 10.1153360865509843 20.3014474804544669 Zr
atom 4.8489263465858592 4.9105445027150498 12.7108545961093267 S
atom 10.2266665522017455 5.2858073273233837 12.7108545961093267 S
atom 5.2241891711941824 10.2882847083309432 12.7108545961093267 S
atom 9.9033152923510599 9.9649334484802594 12.7108545961093267 S
atom 5.3227092657322812 5.2885724806192940 17.7563243191835873 S
atom 9.8486385742975031 4.8120244081769554 17.7563243191835873 S
atom 4.8461611932899453 9.8145017891845274 17.7563243191835873 S
atom 10.3770982114974952 10.3429614263844982 17.7563243191835873 S
atom 4.8441134376439630 2.5435526365330774 15.5327048793997378 S
atom 10.2642321929497360 2.5671709340115338 15.0734004244786988 S
atom 5.2617548119421684 7.5696483150191005 15.0734004244786988 S
atom 9.8985023834091912 7.5979415822982830 15.5327048793997378 S
atom 4.8441134376439630 2.5435526365330774 19.9799437589674227 S
atom 10.2642321929497360 2.5671709340115338 20.4392482138884439 S
atom 5.2617548119421684 7.5696483150191005 20.4392482138884439 S
atom 9.8985023834091912 7.5979415822982830 19.9799437589674227 S
atom 2.5367920916109488 5.2387086715076192 15.5327048793997378 S
atom 7.5675627398977072 4.8729788619670806 15.0734004244786988 S
atom 2.5650853588901392 9.8754562429746482 15.0734004244786988 S
atom 7.5911810373761588 10.2930976172728350 15.5327048793997378 S
atom 2.5367920916109488 5.2387086715076192 19.9799437589674227 S
atom 7.5675627398977072 4.8729788619670806 20.4392482138884439 S
atom 2.5650853588901392 9.8754562429746482 20.4392482138884439 S
atom 7.5911810373761588 10.2930976172728350 19.9799437589674227 S
atom 2.6815412889913337 2.5285810839878602 22.4342458921840304 Ba
atom 7.5542410251637309 2.3988034391526969 22.4342458921840304 Ba
atom 2.5517636441561695 7.4012808201602640 22.4342458921840304 Ba
atom 7.7359302347565446 7.5829700297530733 22.4342458921840304 Ba
atom 4.8489263465858592 4.9105445027150498 22.8017940422578143 S
atom 10.2266665522017455 5.2858073273233837 22.8017940422578143 S
atom 5.2241891711941824 10.2882847083309432 22.8017940422578143 S
atom 9.9033152923510599 9.9649334484802594 22.8017940422578143 S
