#=======================================================
# FHI-aims file: sym_relax_RP_4_54.in
# Created using the Atomic Simulation Environment (ASE)
# Tue Feb 25 12:09:45 2025
#=======================================================
lattice_vector 10.0236973021171334 0.0552395643276731 0.0000000000000000 
lattice_vector 0.0552395643276731 10.0236973021171405 -0.0000000000000000 
lattice_vector 0.0000000000000000 -0.0000000000000000 45.7363898096096548 
atom -0.0447783953012662 -0.1033860382946249 0.2528503390181358 Ba
atom 5.1152346893531924 0.0723981774651028 0.2528503390181358 Ba
atom 0.1310058204584617 5.0566270463598437 0.2528503390181358 Ba
atom 4.9946900379211350 4.9360823949277908 0.2528503390181358 Ba
atom -0.2247909998542577 0.1925218116419521 4.9768015711493616 Ba
atom 4.8193268394166067 0.2524107820180944 4.9768015711493616 Ba
atom -0.1649020294781150 5.2366396509128341 4.9768015711493616 Ba
atom 4.8146774333681401 5.2319902448643658 4.9768015711493616 Ba
atom 2.4696308335674639 2.5554511651322915 2.3692816953811944 Zr
atom 7.4958659191486845 2.5974573818187805 2.3692816953811944 Zr
atom 2.5116370502539516 7.5816862507135179 2.3692816953811944 Zr
atom 7.5090992667898586 7.5949195983547062 2.3692816953811944 Zr
atom 2.4457036473068743 2.5722555620482215 7.4282753567851305 Zr
atom 7.4790615222327439 2.6213845680793701 7.4282753567851305 Zr
atom 2.4948326533380256 7.6056134369741111 7.4282753567851305 Zr
atom 7.4851720805292725 7.6117239952706379 7.4282753567851305 Zr
atom 2.6233583015109301 2.7644166075239154 -0.1273794401054895 S
atom 7.2869004767570589 2.4437299138753081 -0.1273794401054894 S
atom 2.3026716078623259 7.4279587827700455 -0.1273794401054895 S
atom 7.6628267347333372 7.8038850407463300 -0.1273794401054894 S
atom 2.2462124288928869 2.2719348422379553 4.9305915051503479 S
atom 7.7793822420430034 2.8208757864933567 4.9305915051503479 S
atom 2.7951533731482883 7.8051046553880958 4.9305915051503479 S
atom 7.2856808621152824 7.3114032754603731 4.9305915051503479 S
atom 2.6459770500339239 0.0587220922907192 2.2331922944854257 S
atom 7.2707909044913572 0.0902043716646827 2.7124841242897855 S
atom 2.2865620355966287 5.0744332405594257 2.7124841242897855 S
atom 7.6854454832563146 5.0981905255131341 2.2331922944854257 S
atom 2.8365086036620060 0.0552538536504521 7.6838060492434064 S
atom 7.1093830762933674 0.0853849761131452 7.1828700186344481 S
atom 2.1251542073986291 5.0696138450078836 7.1828700186344481 S
atom 7.8759770368843984 5.0947222868728668 7.6838060492434064 S
atom -0.0311023101268820 2.3658716010246477 2.2331922944854257 S
atom 4.9768838437215566 2.7805261797896104 2.7124841242897855 S
atom -0.0073450251731742 7.7647550486843544 2.7124841242897855 S
atom 5.0083661230955157 7.4053400342470628 2.2331922944854257 S
atom -0.0276340714866156 2.1753400473965616 7.6838060492434064 S
atom 4.9817032392730916 2.9419340079876108 7.1828700186344481 S
atom -0.0025256296216359 7.9261628768823380 7.1828700186344481 S
atom 5.0118343617357910 7.2148084806189807 7.6838060492434064 S
atom -0.0299239047624409 -0.0299239047624410 9.9426934368716626 Ba
atom 5.0417725558210078 0.0575436869262773 9.9426934368716626 Ba
atom 0.0575436869262778 5.0417725558210185 9.9426934368716626 Ba
atom 5.0095445284599567 5.0095445284599682 9.9426934368716626 Ba
atom 0.1925218116419518 -0.2247909998542581 14.9085853025939539 Ba
atom 5.2366396509128155 -0.1649020294781157 14.9085853025939539 Ba
atom 0.2524107820180946 4.8193268394166244 14.9085853025939539 Ba
atom 5.2319902448643489 4.8146774333681535 14.9085853025939539 Ba
atom 2.5722555620482148 2.4457036473068761 12.4571115169581770 Zr
atom 7.6056134369740898 2.4948326533380270 12.4571115169581770 Zr
atom 2.6213845680793670 7.4790615222327634 12.4571115169581770 Zr
atom 7.6117239952706175 7.4851720805292947 12.4571115169581770 Zr
atom 2.5554511651322822 2.4696308335674675 17.5161051783621176 Zr
atom 7.5816862507134930 2.5116370502539573 17.5161051783621176 Zr
atom 2.5974573818187716 7.4958659191487014 17.5161051783621176 Zr
atom 7.5949195983546822 7.5090992667898853 17.5161051783621176 Zr
atom 2.7637481603586327 2.7637481603586429 9.9426934368716626 S
atom 7.2875689239223291 2.3033400550276051 9.9426934368716626 S
atom 2.3033400550275984 7.2875689239223425 9.9426934368716626 S
atom 7.8032165935810349 7.8032165935810607 9.9426934368716626 S
atom 2.2719348422379468 2.2462124288928935 14.9547953685929755 S
atom 7.8051046553880745 2.7951533731482932 14.9547953685929755 S
atom 2.8208757864933514 7.7793822420430354 14.9547953685929755 S
atom 7.3114032754603553 7.2856808621153073 14.9547953685929755 S
atom 2.1753400473965607 -0.0276340714866157 12.2015808244998993 S
atom 7.9261628768823185 -0.0025256296216363 12.7025168551088861 S
atom 2.9419340079876037 4.9817032392731120 12.7025168551088861 S
atom 7.2148084806189567 5.0118343617358008 12.2015808244998993 S
atom 2.3658716010246428 -0.0311023101268829 17.6521945792578769 S
atom 7.7647550486843322 -0.0073450251731741 17.1729027494535451 S
atom 2.7805261797896095 4.9768838437215646 17.1729027494535451 S
atom 7.4053400342470441 5.0083661230955290 17.6521945792578769 S
atom 0.0552538536504524 2.8365086036620153 12.2015808244998993 S
atom 5.0696138450078756 2.1251542073986358 12.7025168551088861 S
atom 0.0853849761131455 7.1093830762933843 12.7025168551088861 S
atom 5.0947222868728552 7.8759770368844162 12.2015808244998993 S
atom 0.0587220922907198 2.6459770500339297 17.6521945792578769 S
atom 5.0744332405594017 2.2865620355966354 17.1729027494535451 S
atom 0.0902043716646829 7.2707909044913750 17.1729027494535451 S
atom 5.0981905255131226 7.6854454832563359 17.6521945792578769 S
atom -0.1033860382946251 -0.0447783953012665 19.6325365347251903 Ba
atom 5.0566270463598313 0.1310058204584612 19.6325365347251903 Ba
atom 0.0723981774651028 5.1152346893532030 19.6325365347251903 Ba
atom 4.9360823949277766 4.9946900379211483 19.6325365347251903 Ba
atom 2.7644166075239096 2.6233583015109403 20.0127663138488110 S
atom 7.4279587827700260 2.3026716078623344 20.0127663138488110 S
atom 2.4437299138752988 7.2869004767570713 20.0127663138488110 S
atom 7.8038850407463070 7.6628267347333567 20.0127663138488110 S
atom 2.5645126119124670 2.6231202549058286 23.1210452438229623 Ba
atom 7.4281968293751319 2.5025756034737769 23.1210452438229623 Ba
atom 2.4439679604804128 7.4868044723685179 23.1210452438229623 Ba
atom 7.6039810451348657 7.6625886881282446 23.1210452438229623 Ba
atom 2.7445252164654570 2.3272124049692553 27.8449964759541899 Ba
atom 7.7241046793117203 2.3225629989207843 27.8449964759541899 Ba
atom 2.7398758104169874 7.3067918678155221 27.8449964759541899 Ba
atom 7.7839936496878499 7.3666808381916651 27.8449964759541899 Ba
atom 5.0895718162661314 5.0037514847013300 25.2374766001860351 Zr
atom 10.0870340328020394 5.0169848323425166 25.2374766001860351 Zr
atom 5.1028051639073215 10.0012137012372477 25.2374766001860351 Zr
atom 10.1290402494885292 10.0432199179237429 25.2374766001860351 Zr
atom 5.1134990025267273 4.9869470877853965 30.2964702615899668 Zr
atom 10.1038384297179800 4.9930576460819234 30.2964702615899668 Zr
atom 5.1196095608232595 9.9772865149766492 30.2964702615899668 Zr
atom 10.1529674357491331 10.0264155210078076 30.2964702615899668 Zr
atom 4.9358443483226617 4.7947860423097026 22.7408154646993275 S
atom 10.2959994751936676 5.1707123002859907 22.7408154646993275 S
atom 5.3117706062989400 10.1549411691807236 22.7408154646993275 S
atom 9.9753127815450675 9.8342544755321164 22.7408154646993275 S
atom 5.3129902209407067 5.2872678075956614 27.7987864099551736 S
atom 9.8035177099077107 4.7935664276679377 27.7987864099551736 S
atom 4.8192888410129848 9.7777952965626671 27.7987864099551736 S
atom 10.3524586541631205 10.3267362408180823 27.7987864099551736 S
atom 5.2726406142369715 2.4847694092741950 25.5806790290946005 S
atom 9.8974544686944181 2.5162516886481572 25.1013871992902651 S
atom 4.9132255997996870 7.5004805575428968 25.1013871992902651 S
atom 10.3121090474593693 7.5242378424966114 25.5806790290946005 S
atom 5.4340484424349613 2.4895888048257322 30.0510649234392915 S
atom 9.7069229150663201 2.5197199272884272 30.5520009540482071 S
atom 4.7226940461716005 7.5039487961831730 30.5520009540482071 S
atom 10.4735168756573600 7.5290572380481438 30.0510649234392915 S
atom 2.5823188061120463 4.7786764700440036 25.5806790290946005 S
atom 7.5903049599604770 5.1933310488089637 25.1013871992902651 S
atom 2.6060760910657570 10.1775599177036966 25.1013871992902651 S
atom 7.6217872393344477 9.8181449032664130 25.5806790290946005 S
atom 2.5774994105605131 4.6172686418460129 30.0510649234392915 S
atom 7.5868367213202079 5.3838626024370519 30.5520009540482071 S
atom 2.6026078524254910 10.3680914713318053 30.5520009540482071 S
atom 7.6169678437829056 9.6567370750684116 30.0510649234392915 S
atom 2.5496581213736405 2.5496581213736462 32.8108883416765167 Ba
atom 7.5016589629073209 2.5174300940126009 32.8108883416765167 Ba
atom 2.5174300940125938 7.5016589629073334 32.8108883416765167 Ba
atom 7.5891265545960405 7.5891265545960582 32.8108883416765167 Ba
atom 2.3272124049692482 2.7445252164654632 37.7767802073988364 Ba
atom 7.3067918678155053 2.7398758104169936 37.7767802073988364 Ba
atom 2.3225629989207808 7.7241046793117354 37.7767802073988364 Ba
atom 7.3666808381916482 7.7839936496878783 37.7767802073988364 Ba
atom 4.9869470877853868 5.1134990025267442 35.3253064217630737 Zr
atom 9.9772865149766368 5.1196095608232683 35.3253064217630737 Zr
atom 4.9930576460819012 10.1038384297180013 35.3253064217630737 Zr
atom 10.0264155210077721 10.1529674357491668 35.3253064217630737 Zr
atom 5.0037514847013203 5.0895718162661554 40.3843000831669841 Zr
atom 10.0012137012372282 5.1028051639073286 40.3843000831669841 Zr
atom 5.0169848323425024 10.0870340328020767 40.3843000831669841 Zr
atom 10.0432199179237127 10.1290402494885647 40.3843000831669841 Zr
atom 4.7954544894749631 4.7954544894749711 32.8108883416765167 S
atom 10.2953310280283983 5.3111021591336920 32.8108883416765167 S
atom 5.3111021591336769 10.2953310280284285 32.8108883416765167 S
atom 9.8349229226973627 9.8349229226973893 32.8108883416765167 S
atom 5.2872678075956419 5.3129902209407227 37.8229902733977994 S
atom 9.7777952965626476 4.8192888410129999 37.8229902733977994 S
atom 4.7935664276679262 9.8035177099077409 37.8229902733977994 S
atom 10.3267362408180503 10.3524586541631454 37.8229902733977994 S
atom 4.6172686418460085 2.5774994105605145 35.5707117599137064 S
atom 10.3680914713317716 2.6026078524254950 35.0697757293047303 S
atom 5.3838626024370280 7.5868367213202363 35.0697757293047303 S
atom 9.6567370750683850 7.6169678437829260 35.5707117599137064 S
atom 4.7786764700439948 2.5823188061120570 40.0410976542583654 S
atom 10.1775599177036717 2.6060760910657641 40.5203894840627328 S
atom 5.1933310488089548 7.5903049599605055 40.5203894840627328 S
atom 9.8181449032663988 7.6217872393344628 40.0410976542583654 S
atom 2.4895888048257295 5.4340484424349773 35.5707117599137064 S
atom 7.5039487961831526 4.7226940461716094 35.0697757293047303 S
atom 2.5197199272884192 9.7069229150663485 35.0697757293047303 S
atom 7.5290572380481242 10.4735168756573884 35.5707117599137064 S
atom 2.4847694092741892 5.2726406142369777 40.0410976542583654 S
atom 7.5004805575428790 4.9132255997996905 40.5203894840627328 S
atom 2.5162516886481483 9.8974544686944341 40.5203894840627328 S
atom 7.5242378424965937 10.3121090474593888 40.0410976542583654 S
atom 2.6231202549058268 2.5645126119124764 42.5007314395300213 Ba
atom 7.4868044723684974 2.4439679604804145 42.5007314395300213 Ba
atom 2.5025756034737725 7.4281968293751524 42.5007314395300213 Ba
atom 7.6625886881282250 7.6039810451348853 42.5007314395300213 Ba
atom 4.7947860423096866 4.9358443483226804 42.8809612186536384 S
atom 10.1549411691806970 5.3117706062989622 42.8809612186536384 S
atom 5.1707123002859703 10.2959994751937032 42.8809612186536384 S
atom 9.8342544755320844 9.9753127815450888 42.8809612186536384 S
