#=======================================================
# FHI-aims file: sym_relax_RP_4_50.in
# Created using the Atomic Simulation Environment (ASE)
# Tue Feb 25 12:09:11 2025
#=======================================================
lattice_vector 9.9060639215840620 0.0000000028411164 0.0000000000000000 
lattice_vector 0.0000000028411164 9.9060639215840531 0.0000000000000000 
lattice_vector 0.0000000000000000 0.0000000000000000 46.6837987329996125 
atom 0.0000000000000000 0.0000000000000000 0.1661039821793199 Ba
atom 4.9530319607920328 0.0000000014205580 0.1661039821793198 Ba
atom 0.0000000014205580 4.9530319607920221 0.1661039821793199 Ba
atom 4.9530319622125969 4.9530319622125809 0.1661039821793199 Ba
atom 0.0000000000000000 0.0000000000000000 5.0673541759235308 Ba
atom 4.9530319607920328 0.0000000014205580 5.0673541759235308 Ba
atom 0.0000000014205580 4.9530319607920221 5.0673541759235308 Ba
atom 4.9530319622125969 4.9530319622125809 5.0673541759235308 Ba
atom 2.4765159811062984 2.4765159811062905 2.4444093270168570 Zr
atom 7.4295479418983374 2.4765159825268488 2.4444093270168570 Zr
atom 2.4765159825268532 7.4295479418983081 2.4444093270168570 Zr
atom 7.4295479433188927 7.4295479433188696 2.4444093270168570 Zr
atom 2.4765159811062984 2.4765159811062905 7.5879962828504519 Zr
atom 7.4295479418983374 2.4765159825268488 7.5879962828504519 Zr
atom 2.4765159825268532 7.4295479418983081 7.5879962828504519 Zr
atom 7.4295479433188927 7.4295479433188696 7.5879962828504519 Zr
atom 2.4765159811062984 2.4765159811062905 -0.1007150371372102 S
atom 7.4295479418983374 2.4765159825268488 -0.1007150371372102 S
atom 2.4765159825268532 7.4295479418983081 -0.1007150371372101 S
atom 7.4295479433188927 7.4295479433188696 -0.1007150371372102 S
atom 2.4765159811062984 2.4765159811062905 5.0433614813840464 S
atom 7.4295479418983374 2.4765159825268488 5.0433614813840464 S
atom 2.4765159825268532 7.4295479418983081 5.0433614813840464 S
atom 7.4295479433188927 7.4295479433188696 5.0433614813840464 S
atom 2.0509239852756940 0.0000000614530409 2.5333767966407215 S
atom 7.8551399363083805 -0.0000000586119258 2.5333767966407215 S
atom 2.9021079769368985 4.9530319007595329 2.5333767966407215 S
atom 7.0039559474882891 4.9530320236656218 2.5333767966407215 S
atom 3.0104462246503165 0.0000000276472465 7.5962516505923432 S
atom 6.8956176969337495 -0.0000000248061304 7.5962516505923432 S
atom 1.9425857375622770 4.9530319345653329 7.5962516505923432 S
atom 7.9634781868629156 4.9530319898598263 7.5962516505923432 S
atom -0.0000000600324831 2.9021079755163313 2.5333767966407215 S
atom 4.9530320222450799 2.0509239866962470 2.5333767966407215 S
atom 0.0000000628735994 7.0039559460677063 2.5333767966407215 S
atom 4.9530319021801086 7.8551399377289188 2.5333767966407215 S
atom -0.0000000262266876 1.9425857361417120 7.5962516505923432 S
atom 4.9530319884392835 3.0104462260708620 7.5962516505923432 S
atom 0.0000000290678037 7.9634781854423302 7.5962516505923432 S
atom 4.9530319359859130 6.8956176983542896 7.5962516505923432 S
atom 0.0000000000000000 0.0000000000000000 10.1486518984781817 Ba
atom 4.9530319607920328 0.0000000014205580 10.1486518984781817 Ba
atom 0.0000000014205580 4.9530319607920221 10.1486518984781817 Ba
atom 4.9530319622125969 4.9530319622125809 10.1486518984781817 Ba
atom 0.0000000000000000 0.0000000000000000 15.2299496210328247 Ba
atom 4.9530319607920328 0.0000000014205580 15.2299496210328247 Ba
atom 0.0000000014205580 4.9530319607920221 15.2299496210328247 Ba
atom 4.9530319622125969 4.9530319622125809 15.2299496210328247 Ba
atom 2.4765159811062984 2.4765159811062905 12.7093075141058964 Zr
atom 7.4295479418983374 2.4765159825268488 12.7093075141058964 Zr
atom 2.4765159825268532 7.4295479418983081 12.7093075141058964 Zr
atom 7.4295479433188927 7.4295479433188696 12.7093075141058964 Zr
atom 2.4765159811062984 2.4765159811062905 17.8528944699394785 Zr
atom 7.4295479418983374 2.4765159825268488 17.8528944699394785 Zr
atom 2.4765159825268532 7.4295479418983081 17.8528944699394785 Zr
atom 7.4295479433188927 7.4295479433188696 17.8528944699394785 Zr
atom 2.4765159811062984 2.4765159811062905 10.1486518984781817 S
atom 7.4295479418983374 2.4765159825268488 10.1486518984781817 S
atom 2.4765159825268532 7.4295479418983081 10.1486518984781817 S
atom 7.4295479433188927 7.4295479433188696 10.1486518984781817 S
atom 2.4765159811062984 2.4765159811062905 15.2539423155722957 S
atom 7.4295479418983374 2.4765159825268488 15.2539423155722957 S
atom 2.4765159825268532 7.4295479418983081 15.2539423155722957 S
atom 7.4295479433188927 7.4295479433188696 15.2539423155722957 S
atom 1.9425857361417189 -0.0000000262266884 12.7010521463640131 S
atom 7.9634781854423586 0.0000000290678036 12.7010521463640131 S
atom 3.0104462260708740 4.9530319884392684 12.7010521463640131 S
atom 6.8956176983543163 4.9530319359858899 12.7010521463640131 S
atom 2.9021079755163406 -0.0000000600324829 17.7639270003156113 S
atom 7.0039559460677348 0.0000000628735998 17.7639270003156113 S
atom 2.0509239866962568 4.9530320222450630 17.7639270003156113 S
atom 7.8551399377289455 4.9530319021800944 17.7639270003156113 S
atom 0.0000000276472461 3.0104462246503059 12.7010521463640131 S
atom 4.9530319345653435 1.9425857375622697 12.7010521463640131 S
atom -0.0000000248061301 6.8956176969337299 12.7010521463640131 S
atom 4.9530319898598396 7.9634781868628872 12.7010521463640131 S
atom 0.0000000614530411 2.0509239852756878 17.7639270003156113 S
atom 4.9530319007595454 2.9021079769368892 17.7639270003156113 S
atom -0.0000000586119253 7.8551399363083592 17.7639270003156113 S
atom 4.9530320236656369 7.0039559474882687 17.7639270003156113 S
atom 0.0000000000000000 0.0000000000000000 20.1311998147770446 Ba
atom 4.9530319607920328 0.0000000014205580 20.1311998147770446 Ba
atom 0.0000000014205580 4.9530319607920221 20.1311998147770446 Ba
atom 4.9530319622125969 4.9530319622125809 20.1311998147770446 Ba
atom 2.4765159811062984 2.4765159811062905 20.3980188340935733 S
atom 7.4295479418983374 2.4765159825268488 20.3980188340935733 S
atom 2.4765159825268532 7.4295479418983081 20.3980188340935733 S
atom 7.4295479433188927 7.4295479433188696 20.3980188340935733 S
atom 2.4765159811062984 2.4765159811062905 23.5082988923638752 Ba
atom 7.4295479418983374 2.4765159825268488 23.5082988923638752 Ba
atom 2.4765159825268532 7.4295479418983081 23.5082988923638752 Ba
atom 7.4295479433188927 7.4295479433188696 23.5082988923638752 Ba
atom 2.4765159811062984 2.4765159811062905 28.4095514865230463 Ba
atom 7.4295479418983374 2.4765159825268488 28.4095514865230463 Ba
atom 2.4765159825268532 7.4295479418983081 28.4095514865230463 Ba
atom 7.4295479433188927 7.4295479433188696 28.4095514865230463 Ba
atom 4.9530319622125969 4.9530319622125809 25.7864383231895893 Zr
atom 9.9060639230046394 4.9530319636331361 25.7864383231895893 Zr
atom 4.9530319636331557 9.9060639230046057 25.7864383231895893 Zr
atom 9.9060639244251938 9.9060639244251618 25.7864383231895893 Zr
atom 4.9530319622125969 4.9530319622125809 30.9300111164346490 Zr
atom 9.9060639230046394 4.9530319636331361 30.9300111164346490 Zr
atom 4.9530319636331557 9.9060639230046057 30.9300111164346490 Zr
atom 9.9060639244251938 9.9060639244251618 30.9300111164346490 Zr
atom 4.9530319622125969 4.9530319622125809 23.2413672990788918 S
atom 9.9060639230046394 4.9530319636331361 23.2413672990788918 S
atom 4.9530319636331557 9.9060639230046057 23.2413672990788918 S
atom 9.9060639244251938 9.9060639244251618 23.2413672990788918 S
atom 4.9530319622125969 4.9530319622125809 28.3854335019488389 S
atom 9.9060639230046394 4.9530319636331361 28.3854335019488389 S
atom 4.9530319636331557 9.9060639230046057 28.3854335019488389 S
atom 9.9060639244251938 9.9060639244251618 28.3854335019488389 S
atom 4.5278221515372632 2.4765160400004054 25.8754279764168196 S
atom 10.3312737322594064 2.4765159250532904 25.8754279764168196 S
atom 5.3782417728879279 7.4295478844247498 25.8754279764168196 S
atom 9.4808541137498601 7.4295480022129858 25.8754279764168196 S
atom 5.4868184776716147 2.4765160087901217 30.9383570894632243 S
atom 9.3722774061250629 2.4765159562635719 30.9383570894632243 S
atom 4.4192454467535764 7.4295479156350330 30.9383570894632243 S
atom 10.4398504398842107 7.4295479710027008 30.9383570894632243 S
atom 2.4765159236327396 5.3782417714673549 25.8754279764168196 S
atom 7.4295480007924501 4.5278221529578015 25.8754279764168196 S
atom 2.4765160414209704 9.4808541123292684 25.8754279764168196 S
atom 7.4295478858453299 10.3312737336799305 25.8754279764168196 S
atom 2.4765159548430185 4.4192454453330017 30.9383570894632243 S
atom 7.4295479695821713 5.4868184790921513 30.9383570894632243 S
atom 2.4765160102106907 10.4398504384636013 30.9383570894632243 S
atom 7.4295479170556185 9.3722774075455799 30.9383570894632243 S
atom 2.4765159811062984 2.4765159811062905 33.4905512649779453 Ba
atom 7.4295479418983374 2.4765159825268488 33.4905512649779453 Ba
atom 2.4765159825268532 7.4295479418983081 33.4905512649779453 Ba
atom 7.4295479433188927 7.4295479433188696 33.4905512649779453 Ba
atom 2.4765159811062984 2.4765159811062905 38.5715510434329545 Ba
atom 7.4295479418983374 2.4765159825268488 38.5715510434329545 Ba
atom 2.4765159825268532 7.4295479418983081 38.5715510434329545 Ba
atom 7.4295479433188927 7.4295479433188696 38.5715510434329545 Ba
atom 4.9530319622125969 4.9530319622125809 36.0510914135213625 Zr
atom 9.9060639230046394 4.9530319636331361 36.0510914135213625 Zr
atom 4.9530319636331557 9.9060639230046057 36.0510914135213625 Zr
atom 9.9060639244251938 9.9060639244251618 36.0510914135213625 Zr
atom 4.9530319622125969 4.9530319622125809 41.1946642067663547 Zr
atom 9.9060639230046394 4.9530319636331361 41.1946642067663547 Zr
atom 4.9530319636331557 9.9060639230046057 41.1946642067663547 Zr
atom 9.9060639244251938 9.9060639244251618 41.1946642067663547 Zr
atom 4.9530319622125969 4.9530319622125809 33.4905512649779453 S
atom 9.9060639230046394 4.9530319636331361 33.4905512649779453 S
atom 4.9530319636331557 9.9060639230046057 33.4905512649779453 S
atom 9.9060639244251938 9.9060639244251618 33.4905512649779453 S
atom 4.9530319622125969 4.9530319622125809 38.5956690280070802 S
atom 9.9060639230046394 4.9530319636331361 38.5956690280070802 S
atom 4.9530319636331557 9.9060639230046057 38.5956690280070802 S
atom 9.9060639244251938 9.9060639244251618 38.5956690280070802 S
atom 4.4192454453330186 2.4765159548430131 36.0427454404927730 S
atom 10.4398504384636404 2.4765160102106831 36.0427454404927730 S
atom 5.4868184790921708 7.4295479695821465 36.0427454404927730 S
atom 9.3722774075456243 7.4295479170555847 36.0427454404927730 S
atom 5.3782417714673789 2.4765159236327303 41.1056745535390817 S
atom 9.4808541123292969 2.4765160414209606 41.1056745535390817 S
atom 4.5278221529578131 7.4295480007924271 41.1056745535390817 S
atom 10.3312737336799731 7.4295478858453059 41.1056745535390817 S
atom 2.4765160087901301 5.4868184776715934 36.0427454404927730 S
atom 7.4295479156350561 4.4192454467535631 36.0427454404927730 S
atom 2.4765159562635772 9.3722774061250362 36.0427454404927730 S
atom 7.4295479710027239 10.4398504398841681 36.0427454404927730 S
atom 2.4765160400004160 4.5278221515372437 41.1056745535390817 S
atom 7.4295478844247755 5.3782417728879128 41.1056745535390817 S
atom 2.4765159250533011 10.3312737322593797 41.1056745535390817 S
atom 7.4295480022130080 9.4808541137498192 41.1056745535390817 S
atom 2.4765159811062984 2.4765159811062905 43.4728036375921292 Ba
atom 7.4295479418983374 2.4765159825268488 43.4728036375921292 Ba
atom 2.4765159825268532 7.4295479418983081 43.4728036375921292 Ba
atom 7.4295479433188927 7.4295479433188696 43.4728036375921292 Ba
atom 4.9530319622125969 4.9530319622125809 43.7397352308770451 S
atom 9.9060639230046394 4.9530319636331361 43.7397352308770451 S
atom 4.9530319636331557 9.9060639230046057 43.7397352308770451 S
atom 9.9060639244251938 9.9060639244251618 43.7397352308770451 S
