#=======================================================
# FHI-aims file: sym_relax_RP_2_127.in
# Created using the Atomic Simulation Environment (ASE)
# Tue Feb 25 12:07:07 2025
#=======================================================
lattice_vector 10.0572291443524122 -0.0000000000000004 -0.0000000000000000 
lattice_vector -0.0000000000000004 10.0572291443524122 -0.0000000000000000 
lattice_vector 0.0000000000000000 -0.0000000000000000 25.6133873392591624 
atom 0.0000000000000000 -0.0000000000000000 0.2766341426545976 Ba
atom 5.0286145721762043 -0.0000000000000000 0.2766341426545976 Ba
atom 0.0000000000000000 5.0286145721762043 0.2766341426545977 Ba
atom 5.0286145721762043 5.0286145721762043 0.2766341426545976 Ba
atom -0.0000000000000000 -0.0000000000000000 4.9256514113959904 Ba
atom 5.0286145721762043 -0.0000000000000000 4.9256514113959904 Ba
atom 0.0000000000000000 5.0286145721762043 4.9256514113959904 Ba
atom 5.0286145721762043 5.0286145721762043 4.9256514113959904 Ba
atom 2.5143072860881022 2.5143072860881022 2.3624696418073832 Zr
atom 7.5429218582643047 2.5143072860881022 2.3624696418073832 Zr
atom 2.5143072860881022 7.5429218582643047 2.3624696418073832 Zr
atom 7.5429218582643047 7.5429218582643047 2.3624696418073832 Zr
atom 2.5143072860881022 2.5143072860881022 7.4888331809846056 Zr
atom 7.5429218582643047 2.5143072860881022 7.4888331809846056 Zr
atom 2.5143072860881022 7.5429218582643047 7.4888331809846056 Zr
atom 7.5429218582643047 7.5429218582643047 7.4888331809846056 Zr
atom 2.5143072860881022 2.5143072860881022 -0.1455403906650909 S
atom 7.5429218582643047 2.5143072860881022 -0.1455403906650909 S
atom 2.5143072860881022 7.5429218582643047 -0.1455403906650910 S
atom 7.5429218582643047 7.5429218582643047 -0.1455403906650910 S
atom 2.5143072860881022 2.5143072860881022 4.9256514113959904 S
atom 7.5429218582643047 2.5143072860881022 4.9256514113959904 S
atom 2.5143072860881022 7.5429218582643047 4.9256514113959904 S
atom 7.5429218582643047 7.5429218582643047 4.9256514113959904 S
atom 2.5579838340632679 0.0000000000000005 2.4617462768606737 S
atom 7.4992453102891368 -0.0000000000000000 2.4617462768606737 S
atom 2.4706307381129342 5.0286145721762043 2.4617462768606737 S
atom 7.5865984062394665 5.0286145721762043 2.4617462768606737 S
atom 2.5579838340632679 0.0000000000000005 7.3895565459313133 S
atom 7.4992453102891368 -0.0000000000000000 7.3895565459313133 S
atom 2.4706307381129342 5.0286145721762043 7.3895565459313133 S
atom 7.5865984062394665 5.0286145721762043 7.3895565459313133 S
atom -0.0000000000000000 2.4706307381129347 2.4617462768606737 S
atom 5.0286145721762043 2.5579838340632688 2.4617462768606737 S
atom 0.0000000000000000 7.5865984062394665 2.4617462768606737 S
atom 5.0286145721762043 7.4992453102891368 2.4617462768606737 S
atom -0.0000000000000000 2.4706307381129347 7.3895565459313133 S
atom 5.0286145721762043 2.5579838340632688 7.3895565459313133 S
atom 0.0000000000000000 7.5865984062394665 7.3895565459313133 S
atom 5.0286145721762043 7.4992453102891368 7.3895565459313133 S
atom -0.0000000000000000 -0.0000000000000000 9.5746686801373819 Ba
atom 5.0286145721762043 -0.0000000000000000 9.5746686801373819 Ba
atom 0.0000000000000000 5.0286145721762043 9.5746686801373819 Ba
atom 5.0286145721762043 5.0286145721762043 9.5746686801373819 Ba
atom 2.5143072860881022 2.5143072860881022 9.9968432134570797 S
atom 7.5429218582643047 2.5143072860881022 9.9968432134570797 S
atom 2.5143072860881022 7.5429218582643047 9.9968432134570797 S
atom 7.5429218582643047 7.5429218582643047 9.9968432134570797 S
atom 2.5143072860881022 2.5143072860881022 13.0845167312633510 Ba
atom 7.5429218582643047 2.5143072860881022 13.0845167312633510 Ba
atom 2.5143072860881022 7.5429218582643047 13.0845167312633510 Ba
atom 7.5429218582643047 7.5429218582643047 13.0845167312633510 Ba
atom 2.5143072860881022 2.5143072860881022 17.7323450810255743 Ba
atom 7.5429218582643047 2.5143072860881022 17.7323450810255743 Ba
atom 2.5143072860881022 7.5429218582643047 17.7323450810255743 Ba
atom 7.5429218582643047 7.5429218582643047 17.7323450810255743 Ba
atom 5.0286145721762043 5.0286145721762043 15.1693306104171874 Zr
atom 10.0572291443524087 5.0286145721762043 15.1693306104171874 Zr
atom 5.0286145721762043 10.0572291443524087 15.1693306104171874 Zr
atom 10.0572291443524087 10.0572291443524087 15.1693306104171874 Zr
atom 5.0286145721762043 5.0286145721762043 20.2953595516339540 Zr
atom 10.0572291443524087 5.0286145721762043 20.2953595516339540 Zr
atom 5.0286145721762043 10.0572291443524087 20.2953595516339540 Zr
atom 10.0572291443524087 10.0572291443524087 20.2953595516339540 Zr
atom 5.0286145721762043 5.0286145721762043 12.6615656513338575 S
atom 10.0572291443524087 5.0286145721762043 12.6615656513338575 S
atom 5.0286145721762043 10.0572291443524087 12.6615656513338575 S
atom 10.0572291443524087 10.0572291443524087 12.6615656513338575 S
atom 5.0286145721762043 5.0286145721762043 17.7323450810255743 S
atom 10.0572291443524087 5.0286145721762043 17.7323450810255743 S
atom 5.0286145721762043 10.0572291443524087 17.7323450810255743 S
atom 10.0572291443524087 10.0572291443524087 17.7323450810255743 S
atom 5.0286145721762043 2.5143071756144724 15.2684317071839999 S
atom 10.0572291443524087 2.5143073965617315 15.2684317071839999 S
atom 5.0286145721762043 7.5429219687379323 15.2684317071839999 S
atom 10.0572291443524087 7.5429217477906763 15.2684317071839999 S
atom 5.0286145721762043 2.5143071756144724 20.1962584548671416 S
atom 10.0572291443524087 2.5143073965617315 20.1962584548671416 S
atom 5.0286145721762043 7.5429219687379323 20.1962584548671416 S
atom 10.0572291443524087 7.5429217477906763 20.1962584548671416 S
atom 2.5143073965617311 5.0286145721762043 15.2684317071839999 S
atom 7.5429217477906763 5.0286145721762043 15.2684317071839999 S
atom 2.5143071756144724 10.0572291443524087 15.2684317071839999 S
atom 7.5429219687379323 10.0572291443524087 15.2684317071839999 S
atom 2.5143073965617311 5.0286145721762043 20.1962584548671416 S
atom 7.5429217477906763 5.0286145721762043 20.1962584548671416 S
atom 2.5143071756144724 10.0572291443524087 20.1962584548671416 S
atom 7.5429219687379323 10.0572291443524087 20.1962584548671416 S
atom 2.5143072860881022 2.5143072860881022 22.3801734307877886 Ba
atom 7.5429218582643047 2.5143072860881022 22.3801734307877886 Ba
atom 2.5143072860881022 7.5429218582643047 22.3801734307877886 Ba
atom 7.5429218582643047 7.5429218582643047 22.3801734307877886 Ba
atom 5.0286145721762043 5.0286145721762043 22.8031245107172964 S
atom 10.0572291443524087 5.0286145721762043 22.8031245107172964 S
atom 5.0286145721762043 10.0572291443524087 22.8031245107172964 S
atom 10.0572291443524087 10.0572291443524087 22.8031245107172964 S
