#=======================================================
# FHI-aims file: sym_relax_RP_4_127.in
# Created using the Atomic Simulation Environment (ASE)
# Tue Feb 25 12:08:52 2025
#=======================================================
lattice_vector 10.0160126950841324 -0.0000000000000004 -0.0000000000000000 
lattice_vector -0.0000000000000004 10.0160126950841324 -0.0000000000000000 
lattice_vector 0.0000000000000000 -0.0000000000000000 45.9709512508929876 
atom 0.0000000000000000 -0.0000000000000000 0.2038855630139220 Ba
atom 5.0080063475420618 -0.0000000000000000 0.2038855630139221 Ba
atom -0.0000000000000000 5.0080063475420618 0.2038855630139220 Ba
atom 5.0080063475420618 5.0080063475420618 0.2038855630139220 Ba
atom 0.0000000000000000 -0.0000000000000000 4.9480285669682642 Ba
atom 5.0080063475420618 -0.0000000000000000 4.9480285669682642 Ba
atom -0.0000000000000000 5.0080063475420618 4.9480285669682642 Ba
atom 5.0080063475420618 5.0080063475420618 4.9480285669682642 Ba
atom 2.5040031737710309 2.5040031737710309 2.3341145399726169 Zr
atom 7.5120095213130922 2.5040031737710309 2.3341145399726169 Zr
atom 2.5040031737710309 7.5120095213130922 2.3341145399726169 Zr
atom 7.5120095213130922 7.5120095213130922 2.3341145399726169 Zr
atom 2.5040031737710309 2.5040031737710309 7.4475306876252381 Zr
atom 7.5120095213130922 2.5040031737710309 7.4475306876252381 Zr
atom 2.5040031737710309 7.5120095213130922 7.4475306876252381 Zr
atom 7.5120095213130922 7.5120095213130922 7.4475306876252381 Zr
atom 2.5040031737710309 2.5040031737710309 -0.1776855576411069 S
atom 7.5120095213130922 2.5040031737710309 -0.1776855576411069 S
atom 2.5040031737710309 7.5120095213130922 -0.1776855576411069 S
atom 7.5120095213130922 7.5120095213130922 -0.1776855576411069 S
atom 2.5040031737710309 2.5040031737710309 4.9276521740723185 S
atom 7.5120095213130922 2.5040031737710309 4.9276521740723185 S
atom 2.5040031737710309 7.5120095213130922 4.9276521740723185 S
atom 7.5120095213130922 7.5120095213130922 4.9276521740723185 S
atom 2.2451344829932398 0.0000000000000005 2.4508861619749696 S
atom 7.7708782120908841 -0.0000000000000000 2.4508861619749696 S
atom 2.7628718645488202 5.0080063475420618 2.4508861619749696 S
atom 7.2531408305353091 5.0080063475420618 2.4508861619749696 S
atom 2.9897826917647694 0.0000000000000005 7.4501680568203126 S
atom 7.0262300033193599 -0.0000000000000000 7.4501680568203126 S
atom 2.0182236557772955 5.0080063475420618 7.4501680568203126 S
atom 7.9977890393068165 5.0080063475420618 7.4501680568203126 S
atom -0.0000000000000000 2.7628718645488202 2.4508861619749696 S
atom 5.0080063475420618 2.2451344829932407 2.4508861619749696 S
atom 0.0000000000000000 7.2531408305353073 2.4508861619749696 S
atom 5.0080063475420618 7.7708782120908824 2.4508861619749696 S
atom -0.0000000000000000 2.0182236557772955 7.4501680568203126 S
atom 5.0080063475420618 2.9897826917647703 7.4501680568203126 S
atom 0.0000000000000000 7.9977890393068156 7.4501680568203126 S
atom 5.0080063475420618 7.0262300033193599 7.4501680568203126 S
atom 0.0000000000000000 -0.0000000000000000 9.9936850545419400 Ba
atom 5.0080063475420618 -0.0000000000000000 9.9936850545419400 Ba
atom -0.0000000000000000 5.0080063475420618 9.9936850545419400 Ba
atom 5.0080063475420618 5.0080063475420618 9.9936850545419400 Ba
atom 0.0000000000000000 -0.0000000000000000 15.0393415421156362 Ba
atom 5.0080063475420618 -0.0000000000000000 15.0393415421156362 Ba
atom -0.0000000000000000 5.0080063475420618 15.0393415421156362 Ba
atom 5.0080063475420618 5.0080063475420618 15.0393415421156362 Ba
atom 2.5040031737710309 2.5040031737710309 12.5398394214586570 Zr
atom 7.5120095213130922 2.5040031737710309 12.5398394214586570 Zr
atom 2.5040031737710309 7.5120095213130922 12.5398394214586570 Zr
atom 7.5120095213130922 7.5120095213130922 12.5398394214586570 Zr
atom 2.5040031737710309 2.5040031737710309 17.6532555691112805 Zr
atom 7.5120095213130922 2.5040031737710309 17.6532555691112805 Zr
atom 2.5040031737710309 7.5120095213130922 17.6532555691112805 Zr
atom 7.5120095213130922 7.5120095213130922 17.6532555691112805 Zr
atom 2.5040031737710309 2.5040031737710309 9.9936850545419400 S
atom 7.5120095213130922 2.5040031737710309 9.9936850545419400 S
atom 2.5040031737710309 7.5120095213130922 9.9936850545419400 S
atom 7.5120095213130922 7.5120095213130922 9.9936850545419400 S
atom 2.5040031737710309 2.5040031737710309 15.0597179350115855 S
atom 7.5120095213130922 2.5040031737710309 15.0597179350115855 S
atom 2.5040031737710309 7.5120095213130922 15.0597179350115855 S
atom 7.5120095213130922 7.5120095213130922 15.0597179350115855 S
atom 2.9897826917647694 0.0000000000000005 12.5372020522635950 S
atom 7.0262300033193599 -0.0000000000000000 12.5372020522635950 S
atom 2.0182236557772955 5.0080063475420618 12.5372020522635950 S
atom 7.9977890393068165 5.0080063475420618 12.5372020522635950 S
atom 2.2451344829932398 0.0000000000000005 17.5364839471089340 S
atom 7.7708782120908841 -0.0000000000000000 17.5364839471089340 S
atom 2.7628718645488202 5.0080063475420618 17.5364839471089340 S
atom 7.2531408305353091 5.0080063475420618 17.5364839471089340 S
atom -0.0000000000000000 2.0182236557772955 12.5372020522635950 S
atom 5.0080063475420618 2.9897826917647703 12.5372020522635950 S
atom 0.0000000000000000 7.9977890393068156 12.5372020522635950 S
atom 5.0080063475420618 7.0262300033193599 12.5372020522635950 S
atom -0.0000000000000000 2.7628718645488202 17.5364839471089340 S
atom 5.0080063475420618 2.2451344829932407 17.5364839471089340 S
atom 0.0000000000000000 7.2531408305353073 17.5364839471089340 S
atom 5.0080063475420618 7.7708782120908824 17.5364839471089340 S
atom -0.0000000000000000 -0.0000000000000000 19.7834845460699640 Ba
atom 5.0080063475420618 -0.0000000000000000 19.7834845460699640 Ba
atom -0.0000000000000000 5.0080063475420618 19.7834845460699640 Ba
atom 5.0080063475420618 5.0080063475420618 19.7834845460699640 Ba
atom 2.5040031737710309 2.5040031737710309 20.1650556667250171 S
atom 7.5120095213130922 2.5040031737710309 20.1650556667250171 S
atom 2.5040031737710309 7.5120095213130922 20.1650556667250171 S
atom 7.5120095213130922 7.5120095213130922 20.1650556667250171 S
atom 2.5040031737710309 2.5040031737710309 23.2889672913539485 Ba
atom 7.5120095213130922 2.5040031737710309 23.2889672913539485 Ba
atom 2.5040031737710309 7.5120095213130922 23.2889672913539485 Ba
atom 7.5120095213130922 7.5120095213130922 23.2889672913539485 Ba
atom 2.5040031737710309 2.5040031737710309 28.0715383724322862 Ba
atom 7.5120095213130922 2.5040031737710309 28.0715383724322862 Ba
atom 2.5040031737710309 7.5120095213130922 28.0715383724322862 Ba
atom 7.5120095213130922 7.5120095213130922 28.0715383724322862 Ba
atom 5.0080063475420618 5.0080063475420618 25.3592302293408700 Zr
atom 10.0160126950841235 5.0080063475420618 25.3592302293408700 Zr
atom 5.0080063475420618 10.0160126950841235 25.3592302293408700 Zr
atom 10.0160126950841235 10.0160126950841235 25.3592302293408700 Zr
atom 5.0080063475420618 5.0080063475420618 30.4491098613152182 Zr
atom 10.0160126950841235 5.0080063475420618 30.4491098613152182 Zr
atom 5.0080063475420618 10.0160126950841235 30.4491098613152182 Zr
atom 10.0160126950841235 10.0160126950841235 30.4491098613152182 Zr
atom 5.0080063475420618 5.0080063475420618 22.8552272787844224 S
atom 10.0160126950841235 5.0080063475420618 22.8552272787844224 S
atom 5.0080063475420618 10.0160126950841235 22.8552272787844224 S
atom 10.0160126950841235 10.0160126950841235 22.8552272787844224 S
atom 5.0080063475420618 5.0080063475420618 27.9417523832777519 S
atom 10.0160126950841235 5.0080063475420618 27.9417523832777519 S
atom 5.0080063475420618 10.0160126950841235 27.9417523832777519 S
atom 10.0160126950841235 10.0160126950841235 27.9417523832777519 S
atom 5.0080063475420618 2.5038088821769091 25.4699215866317843 S
atom 10.0160126950841235 2.5041974653651522 25.4699215866317843 S
atom 5.0080063475420618 7.5122038129072095 25.4699215866317843 S
atom 10.0160126950841235 7.5118152297189678 25.4699215866317843 S
atom 5.0080063475420618 2.5040221284706039 30.4649756292429572 S
atom 10.0160126950841235 2.5039842190714623 30.4649756292429572 S
atom 5.0080063475420618 7.5119905666135249 30.4649756292429572 S
atom 10.0160126950841235 7.5120284760126541 30.4649756292429572 S
atom 2.5041974653651526 5.0080063475420618 25.4699215866317843 S
atom 7.5118152297189678 5.0080063475420618 25.4699215866317843 S
atom 2.5038088821769091 10.0160126950841235 25.4699215866317843 S
atom 7.5122038129072095 10.0160126950841235 25.4699215866317843 S
atom 2.5039842190714614 5.0080063475420618 30.4649756292429572 S
atom 7.5120284760126541 5.0080063475420618 30.4649756292429572 S
atom 2.5040221284706039 10.0160126950841235 30.4649756292429572 S
atom 7.5119905666135249 10.0160126950841235 30.4649756292429572 S
atom 2.5040031737710309 2.5040031737710309 32.9791606799884676 Ba
atom 7.5120095213130922 2.5040031737710309 32.9791606799884676 Ba
atom 2.5040031737710309 7.5120095213130922 32.9791606799884676 Ba
atom 7.5120095213130922 7.5120095213130922 32.9791606799884676 Ba
atom 2.5040031737710309 2.5040031737710309 37.8867829875446276 Ba
atom 7.5120095213130922 2.5040031737710309 37.8867829875446276 Ba
atom 2.5040031737710309 7.5120095213130922 37.8867829875446276 Ba
atom 7.5120095213130922 7.5120095213130922 37.8867829875446276 Ba
atom 5.0080063475420618 5.0080063475420618 35.5092114986616778 Zr
atom 10.0160126950841235 5.0080063475420618 35.5092114986616778 Zr
atom 5.0080063475420618 10.0160126950841235 35.5092114986616778 Zr
atom 10.0160126950841235 10.0160126950841235 35.5092114986616778 Zr
atom 5.0080063475420618 5.0080063475420618 40.5990911306360118 Zr
atom 10.0160126950841235 5.0080063475420618 40.5990911306360118 Zr
atom 5.0080063475420618 10.0160126950841235 40.5990911306360118 Zr
atom 10.0160126950841235 10.0160126950841235 40.5990911306360118 Zr
atom 5.0080063475420618 5.0080063475420618 32.9791606799884676 S
atom 10.0160126950841235 5.0080063475420618 32.9791606799884676 S
atom 5.0080063475420618 10.0160126950841235 32.9791606799884676 S
atom 10.0160126950841235 10.0160126950841235 32.9791606799884676 S
atom 5.0080063475420618 5.0080063475420618 38.0165689766991193 S
atom 10.0160126950841235 5.0080063475420618 38.0165689766991193 S
atom 5.0080063475420618 10.0160126950841235 38.0165689766991193 S
atom 10.0160126950841235 10.0160126950841235 38.0165689766991193 S
atom 5.0080063475420618 2.5040221284706030 35.4933457307339211 S
atom 10.0160126950841235 2.5039842190714614 35.4933457307339211 S
atom 5.0080063475420618 7.5119905666135249 35.4933457307339211 S
atom 10.0160126950841235 7.5120284760126541 35.4933457307339211 S
atom 5.0080063475420618 2.5038088821769091 40.4883997733450229 S
atom 10.0160126950841235 2.5041974653651522 40.4883997733450229 S
atom 5.0080063475420618 7.5122038129072095 40.4883997733450229 S
atom 10.0160126950841235 7.5118152297189678 40.4883997733450229 S
atom 2.5039842190714614 5.0080063475420618 35.4933457307339211 S
atom 7.5120284760126541 5.0080063475420618 35.4933457307339211 S
atom 2.5040221284706030 10.0160126950841235 35.4933457307339211 S
atom 7.5119905666135249 10.0160126950841235 35.4933457307339211 S
atom 2.5041974653651526 5.0080063475420618 40.4883997733450229 S
atom 7.5118152297189678 5.0080063475420618 40.4883997733450229 S
atom 2.5038088821769091 10.0160126950841235 40.4883997733450229 S
atom 7.5122038129072095 10.0160126950841235 40.4883997733450229 S
atom 2.5040031737710309 2.5040031737710309 42.6693540686229369 Ba
atom 7.5120095213130922 2.5040031737710309 42.6693540686229369 Ba
atom 2.5040031737710309 7.5120095213130922 42.6693540686229369 Ba
atom 7.5120095213130922 7.5120095213130922 42.6693540686229369 Ba
atom 5.0080063475420618 5.0080063475420618 43.1030940811925021 S
atom 10.0160126950841235 5.0080063475420618 43.1030940811925021 S
atom 5.0080063475420618 10.0160126950841235 43.1030940811925021 S
atom 10.0160126950841235 10.0160126950841235 43.1030940811925021 S
