#=======================================================
# FHI-aims file: sym_relax_RP_4_60.in
# Created using the Atomic Simulation Environment (ASE)
# Tue Feb 25 12:09:32 2025
#=======================================================
lattice_vector 10.0357677528859206 0.0575419995790262 -0.0000000000000000 
lattice_vector 0.0575419995790263 10.0357677528859188 0.0000000000000000 
lattice_vector -0.0000000000000000 0.0000000000000000 45.6350535085903601 
atom -0.0391124667442571 -0.0758482634984556 0.2463544456926164 Ba
atom 5.0937321399414088 0.0678834665337701 0.2463544456926165 Ba
atom 0.1046192632879695 5.0569963431872189 0.2463544456926165 Ba
atom 5.0075424094882068 4.9708066127340196 0.2463544456926165 Ba
atom -0.2399784442241049 0.2093909599799727 4.9724075414494253 Ba
atom 4.8084929164629804 0.2687494440136180 4.9724075414494253 Ba
atom -0.1806199601904592 5.2578623206670745 4.9724075414494253 Ba
atom 4.8066764320083601 5.2560458362124463 4.9724075414494253 Ba
atom 2.4657378790140210 2.5790815078930018 2.3623128596512730 Zr
atom 7.4854572447824257 2.6096879970079634 2.3623128596512730 Zr
atom 2.4963443681289870 7.5988008736614212 2.3623128596512730 Zr
atom 7.5123927552464771 7.6257363841254762 2.3623128596512730 Zr
atom 2.4456328944798185 2.5870404970133687 7.4126139474757622 Zr
atom 7.4774982556620433 2.6297929815421592 7.4126139474757622 Zr
atom 2.4883853790086148 7.6189058581956077 7.4126139474757622 Zr
atom 7.4922877707122977 7.6336953732458479 7.4126139474757622 Zr
atom 2.6595668404061885 2.8334766595539387 -0.1344435823599133 S
atom 7.2310620931214826 2.4158590356157958 -0.1344435823599133 S
atom 2.2419492164680492 7.4049719122692474 -0.1344435823599133 S
atom 7.7062217166386562 7.8801315357864112 -0.1344435823599133 S
atom 2.2205032462873828 2.2676743325055626 4.9182654500385556 S
atom 7.7968644201698618 2.8549226297346006 4.9182654500385556 S
atom 2.8077515435164195 7.8440355063880531 4.9182654500385556 S
atom 7.2671581225198523 7.3143292087380400 4.9182654500385556 S
atom 2.6213792910551699 0.0746359449769179 2.2011387942368597 S
atom 7.2582794277524894 0.1075006561966715 2.7350637328600738 S
atom 2.2691665510990560 5.0966135328501219 2.7350637328600738 S
atom 7.6680341672876349 5.1212908212093886 2.2011387942368597 S
atom 2.7978622111570250 0.0608181240963506 7.6898335691373445 S
atom 7.1319273016965754 0.0971521887602732 7.1444014133980316 S
atom 2.1428144250431287 5.0862650654137198 7.1444014133980316 S
atom 7.8445170873894989 5.1074730003288220 7.6898335691373445 S
atom -0.0458649451874041 2.3965045853877909 2.2011387942368597 S
atom 4.9679252198253065 2.8062593249229275 2.7350637328600738 S
atom -0.0211876568281333 7.7953722015763889 2.7350637328600738 S
atom 5.0007899310450643 7.4431594616202661 2.2011387942368597 S
atom -0.0320471243068375 2.2200216652859308 7.6898335691373445 S
atom 4.9782736872617059 2.9326114509788570 7.1444014133980316 S
atom -0.0108391893917343 7.9217243276323055 7.1444014133980316 S
atom 5.0146077519256291 7.2666765415184109 7.6898335691373445 S
atom -0.0150492951802320 -0.0150492951802321 9.9206638062153019 Ba
atom 5.0329331716231911 0.0438202949697450 9.9206638062153019 Ba
atom 0.0438202949697454 5.0329331716231982 9.9206638062153019 Ba
atom 5.0316055810522302 5.0316055810522435 9.9206638062153019 Ba
atom 0.2093909599799726 -0.2399784442241051 14.8689200709811757 Ba
atom 5.2578623206670621 -0.1806199601904598 14.8689200709811757 Ba
atom 0.2687494440136183 4.8084929164629902 14.8689200709811757 Ba
atom 5.2560458362124347 4.8066764320083699 14.8689200709811757 Ba
atom 2.5870404970133625 2.4456328944798282 12.4287136649548327 Zr
atom 7.6189058581955909 2.4883853790086201 12.4287136649548327 Zr
atom 2.6297929815421575 7.4774982556620699 12.4287136649548327 Zr
atom 7.6336953732458346 7.4922877707123092 12.4287136649548327 Zr
atom 2.5790815078929925 2.4657378790140236 17.4790147527793245 Zr
atom 7.5988008736614034 2.4963443681289892 17.4790147527793245 Zr
atom 2.6096879970079629 7.4854572447824363 17.4790147527793245 Zr
atom 7.6257363841254628 7.5123927552465002 17.4790147527793245 Zr
atom 2.7913723439603282 2.7913723439603366 9.9206638062153019 S
atom 7.2731664087150856 2.2840535320616540 9.9206638062153019 S
atom 2.2840535320616477 7.2731664087150980 9.9206638062153019 S
atom 7.8380272201928118 7.8380272201928172 9.9206638062153019 S
atom 2.2676743325055586 2.2205032462873873 14.9230621623920410 S
atom 7.8440355063880354 2.8077515435164253 14.9230621623920410 S
atom 2.8549226297345949 7.7968644201698760 14.9230621623920410 S
atom 7.3143292087380303 7.2671581225198656 14.9230621623920410 S
atom 2.2200216652859259 -0.0320471243068377 12.1514940432932441 S
atom 7.9217243276322833 -0.0108391893917348 12.6969261990325659 S
atom 2.9326114509788477 4.9782736872617255 12.6969261990325659 S
atom 7.2666765415183940 5.0146077519256380 12.1514940432932441 S
atom 2.3965045853877847 -0.0458649451874050 17.6401888181937458 S
atom 7.7953722015763640 -0.0211876568281332 17.1062638795704949 S
atom 2.8062593249229262 4.9679252198253181 17.1062638795704949 S
atom 7.4431594616202545 5.0007899310450714 17.6401888181937458 S
atom 0.0608181240963510 2.7978622111570290 12.1514940432932441 S
atom 5.0862650654137109 2.1428144250431340 12.6969261990325659 S
atom 0.0971521887602737 7.1319273016965852 12.6969261990325659 S
atom 5.1074730003288131 7.8445170873895149 12.1514940432932441 S
atom 0.0746359449769184 2.6213792910551725 17.6401888181937458 S
atom 5.0966135328501077 2.2691665510990604 17.1062638795704949 S
atom 0.1075006561966719 7.2582794277525053 17.1062638795704949 S
atom 5.1212908212093806 7.6680341672876473 17.6401888181937458 S
atom -0.0758482634984565 -0.0391124667442574 19.5949731667379687 Ba
atom 5.0569963431872180 0.1046192632879685 19.5949731667379687 Ba
atom 0.0678834665337703 5.0937321399414213 19.5949731667379723 Ba
atom 4.9708066127340054 5.0075424094882193 19.5949731667379687 Ba
atom 2.8334766595539285 2.6595668404061947 19.9757711947905072 S
atom 7.4049719122692288 2.2419492164680532 19.9757711947905072 S
atom 2.4158590356157896 7.2310620931214995 19.9757711947905072 S
atom 7.8801315357864015 7.7062217166386642 19.9757711947905072 S
atom 2.4474791746177784 2.4842149713719808 23.0638811999878008 Ba
atom 7.5803237813034423 2.6279467014042068 23.0638811999878008 Ba
atom 2.5912109046500031 7.6170595780576571 23.0638811999878044 Ba
atom 7.4941340508502421 7.5308698476044595 23.0638811999878044 Ba
atom 2.7327183980962060 2.2833489938921345 27.7899342957446152 Ba
atom 7.7811897587832970 2.3427074779257753 27.7899342957446152 Ba
atom 2.7920768821298494 7.3318203545792269 27.7899342957446152 Ba
atom 7.7793732743286741 7.3300038701246075 27.7899342957446152 Ba
atom 5.1024089460092226 4.9890653171302572 25.1798396139464451 Zr
atom 10.1221283117776402 5.0196718062452303 25.1798396139464451 Zr
atom 5.1330154351241974 10.0087846828986731 25.1798396139464451 Zr
atom 10.1490638222416933 10.0357201933627316 25.1798396139464451 Zr
atom 5.1103679351296067 4.9689603325960707 30.2301407017709707 Zr
atom 10.1422332963118187 5.0117128171248533 30.2301407017709707 Zr
atom 5.1531204196583875 10.0008256937783013 30.2301407017709707 Zr
atom 10.1570228113620686 10.0156152088285477 30.2301407017709707 Zr
atom 5.3568040976701656 5.1828942785224319 22.6830831719352801 S
atom 9.9282993503854584 4.7652766545842873 22.6830831719352801 S
atom 4.9391864737320246 9.7543895312377469 22.6830831719352801 S
atom 10.4034589739026178 10.2295491547549062 22.6830831719352801 S
atom 4.7910017706217891 4.7438306844036280 27.7357922043337197 S
atom 10.3673629445042508 5.3310789816326665 27.7357922043337197 S
atom 5.3782500678508320 10.3201918582861225 27.7357922043337197 S
atom 9.8376566468542528 9.7904855606361121 27.7357922043337197 S
atom 4.9198320235040134 2.4774624929288325 25.0186655485320344 S
atom 10.3186996396925892 2.5021397812881068 25.5525904871552711 S
atom 5.3295867630391633 7.4912526579415566 25.5525904871552711 S
atom 9.9664868997364895 7.5241173691613099 25.0186655485320344 S
atom 4.7433491034021618 2.4912803138094013 30.5073603234325255 S
atom 10.4450517657485182 2.5124882487245039 29.9619281676932374 S
atom 5.4559388890950791 7.5016011253779542 29.9619281676932374 S
atom 9.7900039796346157 7.5379351900418792 30.5073603234325255 S
atom 2.5979633830931506 5.1447067291714106 25.0186655485320344 S
atom 7.6199409709663479 4.7924939892152931 25.5525904871552711 S
atom 2.6308280943129043 9.7816068658687509 25.5525904871552711 S
atom 7.6446182593256200 10.1913616054038929 25.0186655485320344 S
atom 2.5841455622125853 5.3211896492732684 30.5073603234325255 S
atom 7.6095925035299334 4.6661418631593721 29.9619281676932374 S
atom 2.6204796268765054 9.6552547398128130 29.9619281676932374 S
atom 7.6308004384450525 10.3678445255057490 30.5073603234325255 S
atom 2.5082781429360019 2.5082781429360046 32.7381905605105032 Ba
atom 7.5562606097394234 2.5671477330859793 32.7381905605105032 Ba
atom 2.5671477330859771 7.5562606097394367 32.7381905605105032 Ba
atom 7.5549330191684660 7.5549330191684838 32.7381905605105032 Ba
atom 2.2833489938921265 2.7327183980962118 37.6864468252763558 Ba
atom 7.3318203545792171 2.7920768821298556 37.6864468252763558 Ba
atom 2.3427074779257744 7.7811897587833077 37.6864468252763558 Ba
atom 7.3300038701245915 7.7793732743286839 37.6864468252763558 Ba
atom 4.9689603325960521 5.1103679351296112 35.2462404192499719 Zr
atom 10.0008256937782907 5.1531204196583946 35.2462404192499719 Zr
atom 5.0117128171248426 10.1422332963118400 35.2462404192499719 Zr
atom 10.0156152088285211 10.1570228113620864 35.2462404192499719 Zr
atom 4.9890653171302528 5.1024089460092386 40.2965415070744939 Zr
atom 10.0087846828986518 5.1330154351242090 40.2965415070744939 Zr
atom 5.0196718062452188 10.1221283117776597 40.2965415070744939 Zr
atom 10.0357201933627032 10.1490638222417129 40.2965415070744939 Zr
atom 5.3146997820765689 5.3146997820765831 32.7381905605105032 S
atom 9.7964938468313214 4.8073809701778920 32.7381905605105032 S
atom 4.8073809701778769 9.7964938468313374 32.7381905605105032 S
atom 10.3613546583090486 10.3613546583090521 32.7381905605105032 S
atom 4.7438306844036235 4.7910017706218042 37.7405889166872441 S
atom 10.3201918582861065 5.3782500678508347 37.7405889166872441 S
atom 5.3310789816326523 10.3673629445042792 37.7405889166872441 S
atom 9.7904855606360961 9.8376566468542705 37.7405889166872441 S
atom 5.3211896492732622 2.5841455622125871 34.9690207975883851 S
atom 9.6552547398128095 2.6204796268765107 35.5144529533277833 S
atom 4.6661418631593667 7.6095925035299565 35.5144529533277833 S
atom 10.3678445255057348 7.6308004384450649 34.9690207975883851 S
atom 5.1447067291714035 2.5979633830931577 40.4577155724889650 S
atom 9.7816068658687332 2.6308280943129110 39.9237906338657424 S
atom 4.7924939892152860 7.6199409709663586 39.9237906338657424 S
atom 10.1913616054038609 7.6446182593256333 40.4577155724889650 S
atom 2.4912803138093969 4.7433491034021698 34.9690207975883851 S
atom 7.5016011253779462 5.4559388890950942 35.5144529533277833 S
atom 2.5124882487244991 10.4450517657485431 35.5144529533277833 S
atom 7.5379351900418579 9.7900039796346459 34.9690207975883851 S
atom 2.4774624929288285 4.9198320235040267 40.4577155724889650 S
atom 7.4912526579415344 5.3295867630391687 39.9237906338657424 S
atom 2.5021397812880997 10.3186996396926194 39.9237906338657424 S
atom 7.5241173691612939 9.9664868997365126 40.4577155724889650 S
atom 2.4842149713719763 2.4474791746177829 42.4124999210331950 Ba
atom 7.6170595780576411 2.5912109046500063 42.4124999210331950 Ba
atom 2.6279467014042055 7.5803237813034547 42.4124999210331950 Ba
atom 7.5308698476044409 7.4941340508502563 42.4124999210331950 Ba
atom 5.1828942785224266 5.3568040976701745 42.7932979490856980 S
atom 9.7543895312377202 4.9391864737320335 42.7932979490856980 S
atom 4.7652766545842793 9.9282993503854886 42.7932979490856980 S
atom 10.2295491547548743 10.4034589739026426 42.7932979490856980 S
