#=======================================================
# FHI-aims file: sym_relax_RP_2_15.in
# Created using the Atomic Simulation Environment (ASE)
# Tue Feb 25 12:07:14 2025
#=======================================================
lattice_vector 10.0859938254523165 0.1471031239817510 0.0047901935873241 
lattice_vector 0.1471031239817509 10.0859938254523094 -0.0047901935873240 
lattice_vector 0.0095906165204138 -0.0095906165204138 25.4394849971689290 
atom -0.0839874568059410 -0.0966833775390948 0.2757933027744647 Ba
atom 5.1396802902652503 0.1575390187968153 0.2781883995681263 Ba
atom 0.1702349395299703 5.1269843695320967 0.2733982059808024 Ba
atom 5.0325610179110818 5.0198650971779282 0.2757933027744647 Ba
atom 0.0293254139097820 0.0256367152480840 4.8922086533017186 Ba
atom 5.0173601974780659 0.0442261480810927 4.8946037500953858 Ba
atom 0.0479148467427907 5.0136714988163620 4.8898135565080612 Ba
atom 5.1458738886268058 5.1421851899651063 4.8922086533017186 Ba
atom 2.5569482709159908 2.5515790969456376 2.3538829909684487 Zr
atom 7.6079662904975480 2.6331517657919066 2.3562780877621132 Zr
atom 2.6385209397622629 7.6025971165271828 2.3514878941747863 Zr
atom 7.6734967456330194 7.6681275716626631 2.3538829909684482 Zr
atom 2.5552677956073313 2.5532595722542952 7.4305343156349934 Zr
atom 7.6062858151888895 2.6348322411005634 7.4329294124286545 Zr
atom 2.6368404644536048 7.6042775918358476 7.4281392188413307 Zr
atom 7.6718162703243626 7.6698080469713181 7.4305343156349934 Zr
atom 2.7902279403809098 2.7937018093048138 -0.1385412481619070 S
atom 7.3658435781383664 2.3998720963269893 -0.1361461513682453 S
atom 2.3963982274030884 7.3693174470622660 -0.1409363449555694 S
atom 7.9067764150979363 7.9102502840218403 -0.1385412481619070 S
atom 2.2846253965309882 2.2809366978692891 4.8922086533017186 S
atom 7.8786086895738805 2.9054746401769131 4.8946037500953858 S
atom 2.9091633388386100 7.8749199909121810 4.8898135565080612 S
atom 7.4011738712480204 7.3974851725863262 4.8922086533017186 S
atom 2.5289944246121121 0.0344472295424761 2.1984140112947945 S
atom 7.5642381792684521 0.1081486840357121 2.7059023765556685 S
atom 2.5947928285331807 5.0775940347710007 2.7011121829683420 S
atom 7.6455428993291470 5.1509957042595023 2.1984140112947945 S
atom 2.5176911867757399 0.0354156337867007 7.5883983921023095 S
atom 7.5684412575716982 0.1088173032752132 7.0857002204287518 S
atom 2.5989959068364152 5.0782626540104907 7.0809100268414236 S
atom 7.6342396614927663 5.1519641085037176 7.5883983921023095 S
atom 0.0391043324483983 2.5140024881140421 2.1960189145011317 S
atom 5.0819513526721805 2.5953072081747184 2.7035072797620052 S
atom 0.1125060019369122 7.5647525589099951 2.6987170861746828 S
atom 5.1556528071654197 7.6305509628310633 2.1960189145011317 S
atom 0.0381359282041736 2.5253057259504161 7.5860032953086476 S
atom 5.0812827334326975 2.5911041298714816 7.0833051236350979 S
atom 0.1118373826974101 7.5605494806067624 7.0785149300477705 S
atom 5.1546844029212009 7.6418542006674413 7.5860032953086476 S
atom -0.0929946788773972 -0.0876761554676387 9.5086240038289738 Ba
atom 5.1306730681938015 0.1665462408682717 9.5110191006226348 Ba
atom 0.1612277174585137 5.1359915916035463 9.5062289070353128 Ba
atom 5.0235537958396286 5.0288723192493840 9.5086240038289738 Ba
atom 2.7973905079665107 2.7865392417192103 9.9229585547653514 S
atom 7.3730061457239628 2.3927095287413906 9.9253536515590106 S
atom 2.4035607949886839 7.3621548794766722 9.9205634579716957 S
atom 7.9139389826835398 7.9030877164362439 9.9229585547653514 S
atom 2.4790820888127776 2.4567955515592126 12.9955358013589475 Ba
atom 7.7027498358839699 2.7110179478951228 12.9979308981526067 Ba
atom 2.7333044851486905 7.6804632986304027 12.9931407045652829 Ba
atom 7.5956305635298058 7.5733440262762342 12.9955358013589475 Ba
atom 2.5923949595285021 2.5791156443463885 17.6119511518861884 Ba
atom 7.5804297430967864 2.5977050771793957 17.6143462486798477 Ba
atom 2.6109843923615110 7.5671504279146768 17.6095560550925185 Ba
atom 7.7089434342455210 7.6956641190634167 17.6119511518861884 Ba
atom 5.1200178165347161 5.1050580260439391 15.0736254895529243 Zr
atom 10.1710358361162623 5.1866306948902174 15.0760205863465799 Zr
atom 5.2015904853809891 10.1560760456254986 15.0712303927592615 Zr
atom 10.2365662912517408 10.2216065007609629 15.0736254895529243 Zr
atom 5.1183373412260575 5.1067385013526048 20.1502768142194739 Zr
atom 10.1693553608075895 5.1883111701988742 20.1526719110131367 Zr
atom 5.1999100100723226 10.1577565209341465 20.1478817174258218 Zr
atom 10.2348858159430876 10.2232869760696268 20.1502768142194739 Zr
atom 5.3532974859996241 5.3471807384031242 12.5812012504225628 S
atom 9.9289131237570896 4.9533510254252926 12.5835963472162256 S
atom 4.9594677730218084 9.9227963761605604 12.5788061536289000 S
atom 10.4698459607166541 10.4637292131201338 12.5812012504225628 S
atom 4.8476949421497126 4.8344156269676013 17.6119511518861884 S
atom 10.4416782351925974 5.4589535692752147 17.6143462486798477 S
atom 5.4722328844573243 10.4283989200104834 17.6095560550925185 S
atom 9.9642434168667453 9.9509641016846349 17.6119511518861884 S
atom 5.0920639702308366 2.5879261586407822 14.9181565098792692 S
atom 10.1273077248871939 2.6616276131340206 15.4256448751401543 S
atom 5.1578623741519012 7.6310729638692996 15.4208546815528234 S
atom 10.2086124449478390 7.7044746333578074 14.9181565098792692 S
atom 5.0807607323944532 2.5888945628850055 20.3081408906867900 S
atom 10.1315108031904124 2.6622962323735178 19.8054427190132429 S
atom 5.1620654524551375 7.6317415831087958 19.8006525254259209 S
atom 10.1973092071114806 7.7054430376020289 20.3081408906867900 S
atom 2.6021738780671164 5.0674814172123419 14.9157614130856118 S
atom 7.6450208982909045 5.1487861372730270 15.4232497783464737 S
atom 2.6755755475556344 10.1182314880083037 15.4184595847591606 S
atom 7.7187223527841411 10.1840298919293755 14.9157614130856118 S
atom 2.6012054738228922 5.0787846550487190 20.3057457938931059 S
atom 7.6443522790514100 5.1445830589697907 19.8030476222195659 S
atom 2.6749069283161280 10.1140284097050692 19.7982574286322404 S
atom 7.7177539485399294 10.1953331297657410 20.3057457938931023 S
atom 2.4700748667413222 2.4658027736306671 22.2283665024134294 Ba
atom 7.6937426138125140 2.7200251699665809 22.2307615992070922 Ba
atom 2.7242972630772329 7.6894705207018568 22.2259714056197701 Ba
atom 7.5866233414583455 7.5823512483476909 22.2283665024134294 Ba
atom 5.3604600535852347 5.3400181708175145 22.6427010533498141 S
atom 9.9360756913426691 4.9461884578396997 22.6450961501434769 S
atom 4.9666303406074119 9.9156338085749738 22.6403059565561406 S
atom 10.4770085283022247 10.4565666455345649 22.6427010533498105 S
