#=======================================================
# FHI-aims file: sym_relax_RP_2_39.in
# Created using the Atomic Simulation Environment (ASE)
# Tue Feb 25 12:07:50 2025
#=======================================================
lattice_vector 10.0767178219955547 0.0772630656678094 -0.0000000000000000 
lattice_vector 0.0772630656678095 10.0767178219955547 0.0000000000000000 
lattice_vector 0.0000000000000000 0.0000000000000000 25.5352683634442705 
atom -0.0592952328777850 -0.1241375337615229 0.2819622758788030 Ba
atom 5.1624964447592951 0.0979267657116890 0.2819622758788028 Ba
atom 0.1627690665954267 5.0976541438755651 0.2819622758788028 Ba
atom 5.0176952109538915 4.9528529100701588 0.2819622758788029 Ba
atom -0.0510152828574994 0.1103519920566064 4.9106285314315929 Ba
atom 4.9280069189411657 0.0896468156914048 4.9106285314315929 Ba
atom -0.0717204592227027 5.0893741938552779 4.9106285314315929 Ba
atom 5.0259751609741743 5.1873424358882945 4.9106285314315929 Ba
atom 2.5398470429446514 2.5240897491946779 2.3668067930418553 Zr
atom 7.5912596056347761 2.5757749337209326 2.3668067930418553 Zr
atom 2.5915322274709083 7.5755023118848088 2.3668067930418553 Zr
atom 7.6168374867763236 7.6010801930263687 2.3668067930418553 Zr
atom 2.5398470429446514 2.5240897491946779 7.4544502698213373 Zr
atom 7.5912596056347761 2.5757749337209326 7.4544502698213373 Zr
atom 2.5915322274709083 7.5755023118848088 7.4544502698213373 Zr
atom 7.6168374867763236 7.6010801930263687 7.4544502698213373 Zr
atom 2.7019945175698612 2.7252692255441313 -0.1256342504969256 S
atom 7.3900801292853222 2.4136274590957236 -0.1256342504969256 S
atom 2.3903527511214540 7.4133548372596065 -0.1256342504969255 S
atom 7.7789849614015303 7.8022596693758244 -0.1256342504969255 S
atom 2.3215700909912198 2.2742088516569114 4.9106285314315929 S
atom 7.8411405031725412 2.7940518856743717 4.9106285314315929 S
atom 2.8414131250086712 7.7937792638382488 4.9106285314315929 S
atom 7.3985605348228916 7.3511992954886036 4.9106285314315929 S
atom 2.6024765983332578 0.0142401052824145 2.2417822477690121 S
atom 7.4659387229009573 0.0550423284847785 2.6853159188043576 S
atom 2.4662113447370917 5.0547697066486554 2.6853159188043576 S
atom 7.6794670421649256 5.0912305491140906 2.2417822477690121 S
atom 2.6024765983332578 0.0142401052824145 7.5794748150941764 S
atom 7.4659387229009573 0.0550423284847785 7.1359411440588429 S
atom 2.4662113447370917 5.0547697066486554 7.1359411440588429 S
atom 7.6794670421649256 5.0912305491140906 7.5794748150941764 S
atom 0.0243914275514901 2.4358823126645173 2.2417822477690121 S
atom 5.0605796481808030 2.6494106319284945 2.6853159188043576 S
atom 0.0608522700169347 7.6491380100923676 2.6853159188043576 S
atom 5.1013818713831727 7.5128727564962059 2.2417822477690121 S
atom 0.0243914275514901 2.4358823126645173 7.5794748150941764 S
atom 5.0605796481808030 2.6494106319284945 7.1359411440588429 S
atom 0.0608522700169347 7.6491380100923676 7.1359411440588429 S
atom 5.1013818713831727 7.5128727564962059 7.5794748150941764 S
atom -0.0592952328777850 -0.1241375337615228 9.5392947869843940 Ba
atom 5.1624964447592951 0.0979267657116890 9.5392947869843940 Ba
atom 0.1627690665954267 5.0976541438755651 9.5392947869843940 Ba
atom 5.0176952109538915 4.9528529100701588 9.5392947869843940 Ba
atom 2.7019945175698612 2.7252692255441313 9.9468913133601244 S
atom 7.3900801292853222 2.4136274590957227 9.9468913133601244 S
atom 2.3903527511214548 7.4133548372596065 9.9468913133601244 S
atom 7.7789849614015303 7.8022596693758244 9.9468913133601244 S
atom 2.6626327556773615 2.5977904547936257 13.0495964576009449 Ba
atom 7.5175589000358194 2.4529892209882251 13.0495964576009449 Ba
atom 2.5178315218719578 7.4527165991521001 13.0495964576009449 Ba
atom 7.7396231995090350 7.6747808986253121 13.0495964576009449 Ba
atom 2.4281432298592325 2.5895105047733455 17.6782627131537460 Ba
atom 7.5258388500561120 2.6874787468063532 17.6782627131537460 Ba
atom 2.5261114718922419 7.6872061249702259 17.6782627131537460 Ba
atom 7.5051336736909047 7.6665009486050320 17.6782627131537460 Ba
atom 5.0913959165528428 5.0756386228028720 15.1344409747640025 Zr
atom 10.1167011758582568 5.1012165039444284 15.1344409747640025 Zr
atom 5.1169737976943956 10.1009438821083180 15.1344409747640025 Zr
atom 10.1683863603845062 10.1526290666345602 15.1344409747640025 Zr
atom 5.0913959165528428 5.0756386228028720 20.2220844515434699 Zr
atom 10.1167011758582568 5.1012165039444284 20.2220844515434699 Zr
atom 5.1169737976943956 10.1009438821083180 20.2220844515434699 Zr
atom 10.1683863603845062 10.1526290666345602 20.2220844515434699 Zr
atom 4.8902164402033783 4.9134911481776671 12.6419999312252163 S
atom 10.2788486504834626 5.3023959802938840 12.6419999312252163 S
atom 5.2791212723195997 10.3021233584577505 12.6419999312252163 S
atom 9.9672068840350665 9.9904815920093455 12.6419999312252163 S
atom 5.3412768140905973 5.2939155747563138 17.6782627131537460 S
atom 9.8984242239048168 4.8513356064066597 17.6782627131537460 S
atom 4.8986968457409619 9.8510629845705449 17.6782627131537460 S
atom 10.4182672579222828 10.3709060185880073 17.6782627131537460 S
atom 4.9660750338190205 2.5549060175667151 15.4529501005265040 S
atom 10.1793307312468748 2.5913668600321609 15.0094164294911625 S
atom 5.1796033530829915 7.5910942381960274 15.0094164294911625 S
atom 10.0430654776507122 7.6318964613983997 15.4529501005265040 S
atom 4.9660750338190205 2.5549060175667151 19.9035753257810022 S
atom 10.1793307312468748 2.5913668600321609 20.3471089968163170 S
atom 5.1796033530829915 7.5910942381960274 20.3471089968163170 S
atom 10.0430654776507122 7.6318964613983997 19.9035753257810022 S
atom 2.5607159590988666 5.1492743210104361 15.4529501005265040 S
atom 7.6012455604651121 5.0130090674142629 15.0094164294911625 S
atom 2.6015181823012328 10.0127364455781471 15.0094164294911625 S
atom 7.6377064029305464 10.2262647648421137 15.4529501005265040 S
atom 2.5607159590988666 5.1492743210104361 19.9035753257810022 S
atom 7.6012455604651121 5.0130090674142629 20.3471089968163170 S
atom 2.6015181823012328 10.0127364455781471 20.3471089968163170 S
atom 7.6377064029305464 10.2262647648421137 19.9035753257810022 S
atom 2.6626327556773615 2.5977904547936257 22.3069289687065364 Ba
atom 7.5175589000358194 2.4529892209882251 22.3069289687065364 Ba
atom 2.5178315218719578 7.4527165991521001 22.3069289687065364 Ba
atom 7.7396231995090350 7.6747808986253121 22.3069289687065364 Ba
atom 4.8902164402033783 4.9134911481776653 22.7145254950822455 S
atom 10.2788486504834626 5.3023959802938840 22.7145254950822455 S
atom 5.2791212723195997 10.3021233584577505 22.7145254950822455 S
atom 9.9672068840350665 9.9904815920093437 22.7145254950822455 S
