#=======================================================
# FHI-aims file: sym_relax_RP_4_132.in
# Created using the Atomic Simulation Environment (ASE)
# Tue Feb 25 12:08:58 2025
#=======================================================
lattice_vector 10.0889894998492426 -0.0000000000000004 0.0000000000000000 
lattice_vector -0.0000000000000004 10.0889894998492426 0.0000000000000000 
lattice_vector -0.0000000000000000 0.0000000000000000 45.2580581568510780 
atom -0.1704257115611620 0.0000000000000000 0.2942972994063676 Ba
atom 5.2149204614857840 -0.0000000000000000 0.2942972994063676 Ba
atom 0.1704257115611620 5.0444947499246240 0.2942972994063676 Ba
atom 4.8740690383634568 5.0444947499246240 0.2942972994063676 Ba
atom 0.0283478771429143 -0.0000000000000000 4.9578460152677977 Ba
atom 5.0161468727817100 0.0000000000000000 4.9578460152677977 Ba
atom -0.0283478771429143 5.0444947499246240 4.9578460152677977 Ba
atom 5.0728426270675335 5.0444947499246240 4.9578460152677977 Ba
atom 2.5222473749623120 2.4999183559589451 2.3433209120663783 Zr
atom 7.5667421248869342 2.5445763939656749 2.3433209120663783 Zr
atom 2.5222473749623120 7.5890711438903047 2.3433209120663783 Zr
atom 7.5667421248869342 7.5444131058835673 2.3433209120663783 Zr
atom 2.5222473749623120 2.5230446892202250 7.3579438950150742 Zr
atom 7.5667421248869342 2.5214500607044017 7.3579438950150742 Zr
atom 2.5222473749623120 7.5659448106290235 7.3579438950150742 Zr
atom 7.5667421248869342 7.5675394391448485 7.3579438950150742 Zr
atom 2.5222473749623120 2.8102522228790168 -0.1353213953897766 S
atom 7.5667421248869342 2.2342425270456068 -0.1353213953897766 S
atom 2.5222473749623120 7.2787372769702348 -0.1353213953897766 S
atom 7.5667421248869342 7.8547469728036390 -0.1353213953897766 S
atom 2.5222473749623120 2.0555166924556008 4.8855788853612809 S
atom 7.5667421248869342 2.9889780574690210 4.8855788853612809 S
atom 2.5222473749623120 8.0334728073936450 4.8855788853612809 S
atom 7.5667421248869342 7.1000114423802323 4.8855788853612809 S
atom 2.5222473749623120 0.0000000000000000 2.0425757747645577 S
atom 7.5667421248869342 0.0000000000000000 2.7826161507664700 S
atom 2.5222473749623120 5.0444947499246240 2.7826161507664700 S
atom 7.5667421248869342 5.0444947499246240 2.0425757747645577 S
atom 2.5222473749623120 0.0000000000000000 7.8237515273710558 S
atom 7.5667421248869342 0.0000000000000000 6.8937474228386408 S
atom 2.5222473749623120 5.0444947499246240 6.8937474228386408 S
atom 7.5667421248869342 5.0444947499246240 7.8237515273710558 S
atom -0.0000000000000000 2.5222473749623120 2.4803926666715488 S
atom 5.0444947499246240 2.5222473749623120 2.4803926666715488 S
atom -0.0000000000000000 7.5667421248869342 2.4803926666715488 S
atom 5.0444947499246240 7.5667421248869342 2.4803926666715488 S
atom 0.0000000000000000 2.5222473749623120 7.3691820588923198 S
atom 5.0444947499246240 2.5222473749623120 7.3691820588923198 S
atom -0.0000000000000000 7.5667421248869342 7.3691820588923198 S
atom 5.0444947499246240 7.5667421248869342 7.3691820588923198 S
atom -0.0088227912605752 0.0000000000000000 9.8387082949676419 Ba
atom 5.0533175411851960 0.0000000000000000 9.8387082949676419 Ba
atom 0.0088227912605752 5.0444947499246240 9.8387082949676419 Ba
atom 5.0356719586640502 5.0444947499246240 9.8387082949676419 Ba
atom 0.0283478771429143 -0.0000000000000000 14.7195705746674737 Ba
atom 5.0161468727817100 0.0000000000000000 14.7195705746674737 Ba
atom -0.0283478771429143 5.0444947499246240 14.7195705746674737 Ba
atom 5.0728426270675335 5.0444947499246240 14.7195705746674737 Ba
atom 2.5222473749623120 2.5230446892202250 12.3194726949201918 Zr
atom 7.5667421248869342 2.5214500607044017 12.3194726949201918 Zr
atom 2.5222473749623120 7.5659448106290235 12.3194726949201918 Zr
atom 7.5667421248869342 7.5675394391448485 12.3194726949201918 Zr
atom 2.5222473749623120 2.4999183559589451 17.3340956778688913 Zr
atom 7.5667421248869342 2.5445763939656749 17.3340956778688913 Zr
atom 2.5222473749623120 7.5890711438903047 17.3340956778688913 Zr
atom 7.5667421248869342 7.5444131058835673 17.3340956778688913 Zr
atom 2.5222473749623120 3.0295137101454799 9.8387082949676419 S
atom 7.5667421248869342 2.0149810397791450 9.8387082949676419 S
atom 2.5222473749623120 7.0594757897037690 9.8387082949676419 S
atom 7.5667421248869342 8.0740084600700985 9.8387082949676419 S
atom 2.5222473749623120 2.0555166924556008 14.7918377045739824 S
atom 7.5667421248869342 2.9889780574690210 14.7918377045739824 S
atom 2.5222473749623120 8.0334728073936450 14.7918377045739824 S
atom 7.5667421248869342 7.1000114423802323 14.7918377045739824 S
atom 2.5222473749623120 0.0000000000000000 11.8536650625642146 S
atom 7.5667421248869342 0.0000000000000000 12.7836691670966101 S
atom 2.5222473749623120 5.0444947499246240 12.7836691670966101 S
atom 7.5667421248869342 5.0444947499246240 11.8536650625642146 S
atom 2.5222473749623120 0.0000000000000000 17.6348408151707190 S
atom 7.5667421248869342 0.0000000000000000 16.8948004391687867 S
atom 2.5222473749623120 5.0444947499246240 16.8948004391687867 S
atom 7.5667421248869342 5.0444947499246240 17.6348408151707190 S
atom -0.0000000000000000 2.5222473749623120 12.3082345310429471 S
atom 5.0444947499246240 2.5222473749623120 12.3082345310429471 S
atom 0.0000000000000000 7.5667421248869342 12.3082345310429471 S
atom 5.0444947499246240 7.5667421248869342 12.3082345310429471 S
atom 0.0000000000000000 2.5222473749623120 17.1970239232637283 S
atom 5.0444947499246240 2.5222473749623120 17.1970239232637283 S
atom -0.0000000000000000 7.5667421248869342 17.1970239232637283 S
atom 5.0444947499246240 7.5667421248869342 17.1970239232637283 S
atom -0.1704257115611620 0.0000000000000000 19.3831192905288994 Ba
atom 5.2149204614857840 -0.0000000000000000 19.3831192905288994 Ba
atom 0.1704257115611620 5.0444947499246240 19.3831192905288994 Ba
atom 4.8740690383634568 5.0444947499246240 19.3831192905288994 Ba
atom 2.5222473749623120 2.8102522228790168 19.8127379853250254 S
atom 7.5667421248869342 2.2342425270456068 19.8127379853250254 S
atom 2.5222473749623120 7.2787372769702348 19.8127379853250254 S
atom 7.5667421248869342 7.8547469728036390 19.8127379853250254 S
atom 2.5222473749623120 2.6926730865234743 22.9233263778319376 Ba
atom 7.5667421248869342 2.3518216634011497 22.9233263778319376 Ba
atom 2.5222473749623120 7.3963164133257715 22.9233263778319376 Ba
atom 7.5667421248869342 7.7371678364480996 22.9233263778319376 Ba
atom 2.5222473749623120 2.4938994978193980 27.5868750936933509 Ba
atom 7.5667421248869342 2.5505952521052273 27.5868750936933509 Ba
atom 2.5222473749623120 7.5950900020298437 27.5868750936933509 Ba
atom 7.5667421248869342 7.5383942477440264 27.5868750936933509 Ba
atom 5.0668237689279891 5.0444947499246240 24.9723499904919208 Zr
atom 10.0666604808458811 5.0444947499246240 24.9723499904919208 Zr
atom 5.0221657309212535 10.0889894998492480 24.9723499904919208 Zr
atom 10.1113185188526273 10.0889894998492480 24.9723499904919208 Zr
atom 5.0436974356667115 5.0444947499246240 29.9869729734406292 Zr
atom 10.0897868141071552 5.0444947499246240 29.9869729734406292 Zr
atom 5.0452920641825338 10.0889894998492480 29.9869729734406292 Zr
atom 10.0881921855913355 10.0889894998492480 29.9869729734406292 Zr
atom 4.7564899020079192 5.0444947499246240 22.4937076830358009 S
atom 10.3769943477659456 5.0444947499246240 22.4937076830358009 S
atom 5.3324995978413234 10.0889894998492480 22.4937076830358009 S
atom 9.8009846519325450 10.0889894998492480 22.4937076830358009 S
atom 5.5112254324313339 5.0444947499246240 27.5146079637868510 S
atom 9.6222588173425390 5.0444947499246240 27.5146079637868510 S
atom 4.5777640674179150 10.0889894998492480 27.5146079637868510 S
atom 10.5557201823559570 10.0889894998492480 27.5146079637868510 S
atom 5.0444947499246240 2.5222473749623120 25.1094217450971229 S
atom 10.0889894998492480 2.5222473749623120 25.1094217450971229 S
atom 5.0444947499246240 7.5667421248869342 25.1094217450971229 S
atom 10.0889894998492480 7.5667421248869342 25.1094217450971229 S
atom 5.0444947499246240 2.5222473749623120 29.9982111373178704 S
atom 10.0889894998492480 2.5222473749623120 29.9982111373178704 S
atom 5.0444947499246240 7.5667421248869342 29.9982111373178704 S
atom 10.0889894998492480 7.5667421248869342 29.9982111373178704 S
atom 2.5222473749623120 5.0444947499246240 25.4116452291920432 S
atom 7.5667421248869342 5.0444947499246240 24.6716048531901180 S
atom 2.5222473749623120 10.0889894998492480 24.6716048531901180 S
atom 7.5667421248869342 10.0889894998492480 25.4116452291920432 S
atom 2.5222473749623120 5.0444947499246240 29.5227765012641825 S
atom 7.5667421248869342 5.0444947499246240 30.4527806057965904 S
atom 2.5222473749623120 10.0889894998492480 30.4527806057965904 S
atom 7.5667421248869342 10.0889894998492480 29.5227765012641825 S
atom 2.5222473749623120 2.5310701662228863 32.4677373733931987 Ba
atom 7.5667421248869342 2.5134245837017390 32.4677373733931987 Ba
atom 2.5222473749623120 7.5579193336263630 32.4677373733931987 Ba
atom 7.5667421248869342 7.5755649161475098 32.4677373733931987 Ba
atom 2.5222473749623120 2.4938994978193980 37.3485996530930606 Ba
atom 7.5667421248869342 2.5505952521052273 37.3485996530930606 Ba
atom 2.5222473749623120 7.5950900020298437 37.3485996530930606 Ba
atom 7.5667421248869342 7.5383942477440264 37.3485996530930606 Ba
atom 5.0436974356667115 5.0444947499246240 34.9485017733457468 Zr
atom 10.0897868141071552 5.0444947499246240 34.9485017733457468 Zr
atom 5.0452920641825338 10.0889894998492480 34.9485017733457468 Zr
atom 10.0881921855913355 10.0889894998492480 34.9485017733457468 Zr
atom 5.0668237689279891 5.0444947499246240 39.9631247562943983 Zr
atom 10.0666604808458811 5.0444947499246240 39.9631247562943983 Zr
atom 5.0221657309212535 10.0889894998492480 39.9631247562943983 Zr
atom 10.1113185188526273 10.0889894998492480 39.9631247562943983 Zr
atom 4.5372284147414597 5.0444947499246240 32.4677373733931987 S
atom 10.5962558350324052 5.0444947499246240 32.4677373733931987 S
atom 5.5517610851077919 10.0889894998492480 32.4677373733931987 S
atom 9.5817231646660819 10.0889894998492480 32.4677373733931987 S
atom 5.5112254324313339 5.0444947499246240 37.4208667829995321 S
atom 9.6222588173425407 5.0444947499246240 37.4208667829995321 S
atom 4.5777640674179150 10.0889894998492480 37.4208667829995321 S
atom 10.5557201823559570 10.0889894998492480 37.4208667829995321 S
atom 5.0444947499246240 2.5222473749623120 34.9372636094684665 S
atom 10.0889894998492480 2.5222473749623120 34.9372636094684665 S
atom 5.0444947499246240 7.5667421248869342 34.9372636094684665 S
atom 10.0889894998492480 7.5667421248869342 34.9372636094684665 S
atom 5.0444947499246240 2.5222473749623120 39.8260530016892886 S
atom 10.0889894998492480 2.5222473749623120 39.8260530016892886 S
atom 5.0444947499246240 7.5667421248869342 39.8260530016892886 S
atom 10.0889894998492480 7.5667421248869342 39.8260530016892886 S
atom 2.5222473749623120 5.0444947499246240 35.4126982455221722 S
atom 7.5667421248869342 5.0444947499246240 34.4826941409897856 S
atom 2.5222473749623120 10.0889894998492480 34.4826941409897856 S
atom 7.5667421248869342 10.0889894998492480 35.4126982455221722 S
atom 2.5222473749623120 5.0444947499246240 39.5238295175943506 S
atom 7.5667421248869342 5.0444947499246240 40.2638698935962438 S
atom 2.5222473749623120 10.0889894998492480 40.2638698935962438 S
atom 7.5667421248869342 10.0889894998492480 39.5238295175943506 S
atom 2.5222473749623120 2.6926730865234743 42.0121483689544490 Ba
atom 7.5667421248869342 2.3518216634011497 42.0121483689544490 Ba
atom 2.5222473749623120 7.3963164133257715 42.0121483689544490 Ba
atom 7.5667421248869342 7.7371678364480996 42.0121483689544490 Ba
atom 4.7564899020079192 5.0444947499246240 42.4417670637505537 S
atom 10.3769943477659456 5.0444947499246240 42.4417670637505537 S
atom 5.3324995978413234 10.0889894998492480 42.4417670637505537 S
atom 9.8009846519325450 10.0889894998492480 42.4417670637505537 S
