#=======================================================
# FHI-aims file: sym_relax_RP_1_56.in
# Created using the Atomic Simulation Environment (ASE)
# Tue Feb 25 12:06:58 2025
#=======================================================
lattice_vector 10.0577715367969898 0.1251877056981996 0.0000000000000000 
lattice_vector 0.1251877056981996 10.0577715367969862 -0.0000000000000000 
lattice_vector 0.0000000000000000 -0.0000000000000000 15.6289940404737635 
atom -0.0907992412362378 -0.0908454979058889 0.2364304536404154 Ba
atom 5.1197312663043784 0.1533930940853374 0.2364304536404154 Ba
atom 0.1534393507549885 5.1196850096347237 0.2364304536404154 Ba
atom 5.0006803800113531 5.0006341233417002 0.2364304536404154 Ba
atom 0.0907992412362378 0.0908454979058889 4.6476301840076415 Ba
atom 4.9380402704925981 -0.0282053883871384 4.6476301840076415 Ba
atom -0.0282516450567895 4.9380865271622501 4.6476301840076415 Ba
atom 5.1822788624838223 5.1823251191534814 4.6476301840076415 Ba
atom 2.5457398106237936 2.5457398106237941 2.4420303188240267 Zr
atom 7.5746255790222801 2.6083336634728944 2.4420303188240267 Zr
atom 2.6083336634728909 7.5746255790222774 2.4420303188240267 Zr
atom 7.6372194318713778 7.6372194318713840 2.4420303188240267 Zr
atom 2.6909587901998520 2.6909675998814100 -0.0990304222200098 S
atom 7.4293977897646641 2.4631146838968343 -0.0990304222200098 S
atom 2.4631058742152763 7.4294065994462226 -0.0990304222200098 S
atom 7.7824384114474459 7.7824472211290026 -0.0990304222200098 S
atom 2.4005208310477339 2.4005120213661777 4.9830910598680598 S
atom 7.7198533682798987 2.7535526430489523 4.9830910598680598 S
atom 2.7535614527305068 7.7198445585983455 4.9830910598680598 S
atom 7.4920004522953176 7.4919916426137618 4.9830910598680598 S
atom 2.5145097287472642 0.0312918486609587 2.2904956241985093 S
atom 7.5432618080497189 0.0938958570372414 2.5935650134495458 S
atom 2.5769698925003248 5.0601877725866258 2.5935650134495458 S
atom 7.6059893499948430 5.1227714699085505 2.2904956241985093 S
atom 0.0313020041881413 2.5143760396512245 2.2904956241985093 S
atom 5.0601776170594448 2.5771035815963623 2.5935650134495458 S
atom 0.0938857015100576 7.5433954971457498 2.5935650134495458 S
atom 5.1227816254357244 7.6058556608988166 2.2904956241985093 S
atom 2.4548943127179048 2.4549405693875537 8.0509274738772945 Ba
atom 7.6654248202585125 2.6991791613787810 8.0509274738772945 Ba
atom 2.6991329047091308 7.6654710769281724 8.0509274738772945 Ba
atom 7.5463739339654854 7.5464201906351489 8.0509274738772945 Ba
atom 2.6365853085296829 2.6365390518600318 12.4621272042445188 Ba
atom 7.4838263377860450 2.5174881655670038 12.4621272042445188 Ba
atom 2.5175344222366540 7.4837800811163930 12.4621272042445188 Ba
atom 7.7280649297772648 7.7280186731076208 12.4621272042445188 Ba
atom 5.0914796212475872 5.0914796212475881 10.2565273390609111 Zr
atom 10.1203653896460644 5.1540734740966831 10.2565273390609111 Zr
atom 5.1540734740966814 10.1203653896460732 10.2565273390609111 Zr
atom 10.1829592424951745 10.1829592424951763 10.2565273390609111 Zr
atom 5.2367074105052049 5.2366986008236500 7.7154665980168780 S
atom 9.9751464100700105 5.0088456848390726 7.7154665980168780 S
atom 5.0088544945206257 9.9751376003884644 7.7154665980168780 S
atom 10.3281870317527904 10.3281782220712373 7.7154665980168780 S
atom 4.9462518319899660 4.9462606416715298 12.7975880801049442 S
atom 10.2655843692221467 5.2993012633543044 12.7975880801049442 S
atom 5.2992924536727513 10.2655931789036909 12.7975880801049442 S
atom 10.0377314532375657 10.0377402629191170 12.7975880801049442 S
atom 5.0601158502750172 2.5770418148119325 10.1049926444353879 S
atom 10.0891353077695332 2.6396255121338532 10.4080620336864360 S
atom 5.1228433922201519 7.6059174276832433 10.4080620336864360 S
atom 10.1515954715225973 7.6685214360595229 10.1049926444353879 S
atom 2.5770316592847529 5.0602495393710516 10.1049926444353879 S
atom 7.6059275832104163 5.1227097031241202 10.4080620336864360 S
atom 2.6396356676610311 10.0890016186735121 10.4080620336864360 S
atom 7.6685112805323365 10.1517291606186397 10.1049926444353879 S
