#=======================================================
# FHI-aims file: sym_relax_RP_4_15.in
# Created using the Atomic Simulation Environment (ASE)
# Tue Feb 25 12:09:22 2025
#=======================================================
lattice_vector 10.0341984478972481 0.0569163239454131 0.0286000760477459 
lattice_vector 0.0569163239454131 10.0341984478972481 -0.0286000760477459 
lattice_vector 0.1308794972523820 -0.1308794972523822 45.6427310437507856 
atom 0.0104413471916943 -0.1294083340047594 0.2500922509049948 Ba
atom 5.1465075579533890 0.0180168147810122 0.2643922889288677 Ba
atom 0.1578664959774659 5.0066578767569201 0.2357922128811216 Ba
atom 5.0559987331130269 4.9161490519165651 0.2500922509049947 Ba
atom -0.1929927101343396 0.1639008620039051 4.9701061341175894 Ba
atom 4.8531983619447221 0.2214508721070449 4.9844061721414645 Ba
atom -0.1354427000311985 5.2100919340829499 4.9558060960937160 Ba
atom 4.8525646757869954 5.2094582479252320 4.9701061341175885 Ba
atom 2.5144089857233793 2.5291097945854539 2.3612519054473977 Zr
atom 7.5335468152845095 2.5596065621706563 2.3755519434712697 Zr
atom 2.5449057533085817 7.5482476241465664 2.3469518674235230 Zr
atom 7.5599663716447179 7.5746671805067800 2.3612519054473982 Zr
atom 2.4831652528553754 2.5474384405156139 7.4135950773941941 Zr
atom 7.5152181693543403 2.5908502950386572 7.4278951154180692 Zr
atom 2.5265771073784280 7.5794913570145672 7.3992950393703270 Zr
atom 7.5287226387767170 7.5929958264369413 7.4135950773941923 Zr
atom 2.7073261623801876 2.7818136812936549 -0.1353848592869827 S
atom 7.2808429285763019 2.3666893855138516 -0.1210848212631100 S
atom 2.2922018666003816 7.3553304474897638 -0.1496848973108560 S
atom 7.7528835483015177 7.8273710672149797 -0.1353848592869828 S
atom 2.2674767951437018 2.2263632706180005 4.9186893426116596 S
atom 7.8362933392519558 2.8065387527503360 4.9329893806355249 S
atom 2.8476522772760364 7.7951798147262421 4.9043893045877827 S
atom 7.3130341810650341 7.2719206565393320 4.9186893426116596 S
atom 2.6689892239118267 0.0249171710814229 2.2122289302936529 S
atom 7.3130121752883683 0.0588351469803967 2.7522663919163235 S
atom 2.3243711133124436 5.0474762089563106 2.7236663158685768 S
atom 7.7145466098331577 5.0704745570027399 2.2122289302936524 S
atom 2.8357248395045973 0.0252522722428918 7.6973876615437646 S
atom 7.1670193727578075 0.0582597315569461 7.1677912639176800 S
atom 2.1783783107818779 5.0469007935328616 7.1391911878699359 S
atom 7.8812822254259247 5.0708096581642135 7.6973876615437646 S
atom 0.0035409908912831 2.3481100000368045 2.1979288922697786 S
atom 5.0151804009136463 2.7496444345815956 2.7379663538924515 S
atom 0.0265393389377230 7.7382854965575074 2.7093662778447043 S
atom 5.0490983768126192 7.3936673859581301 2.1979288922697791 S
atom 0.0032058897298140 2.1813743844440316 7.6830876235198851 S
atom 5.0157558163370917 2.8956372371121564 7.1534912258938110 S
atom 0.0271147543611735 7.8842782990880709 7.1248911498460625 S
atom 5.0487632756511429 7.2269317703653551 7.6830876235198859 S
atom 0.0115344386142803 -0.0453696906258858 9.9223328355980005 Ba
atom 5.0624689145745227 0.0169237233584255 9.9366328736218588 Ba
atom 0.0738278525985927 5.0055647853343430 9.9080327975741191 Ba
atom 5.0570918245356076 5.0001876952954376 9.9223328355980005 Ba
atom 0.2208049912440716 -0.2498968393745054 14.8745595370783921 Ba
atom 5.2669960633231288 -0.1923468292713655 14.8888595751022610 Ba
atom 0.2783550013472126 4.7962942327045495 14.8602594990545303 Ba
atom 5.2663623771653976 4.7956605465468263 14.8745595370783921 Ba
atom 2.6043425697557798 2.4262611236152081 12.4310705938017865 Zr
atom 7.6363954862547461 2.4696729781382549 12.4453706318256483 Zr
atom 2.6477544242788280 7.4583140401141712 12.4167705557779122 Zr
atom 7.6498999556771148 7.4718185095365355 12.4310705938017865 Zr
atom 2.5860139238256243 2.4575048564832103 17.4834137657485940 Zr
atom 7.6051517533867461 2.4880016240684073 17.4977138037724522 Zr
atom 2.6165106914108294 7.4766426860443289 17.4691137277247037 Zr
atom 7.6315713097469606 7.5030622424045310 17.4834137657485940 Zr
atom 2.8172248942778126 2.7603207650376400 9.9223328355980005 S
atom 7.3023358448323101 2.2567906536162217 9.9366328736218588 S
atom 2.3136947828563947 7.2454317155921357 9.9080327975741191 S
atom 7.8627822801991449 7.8058781509589705 9.9223328355980005 S
atom 2.2832673998581710 2.2105726659035336 14.9259763285843174 S
atom 7.8520839439664254 2.7907481480358669 14.9402763666081988 S
atom 2.8634428819905029 7.7793892100117707 14.9116762905604521 S
atom 7.3288247857795117 7.2561300518248624 14.9259763285843174 S
atom 2.2382785136841985 -0.0536982395103521 12.1615780476760893 S
atom 7.9411824283282364 -0.0297893748789927 12.7197745213499100 S
atom 2.9525413663523259 4.9588516870969190 12.6911744453021633 S
atom 7.2838358996055428 4.9918591464109712 12.1615780476760875 S
atom 2.4050141292769709 -0.0533631383488831 17.6467367789261971 S
atom 7.7951896257976996 -0.0303647903024441 17.1352993933512643 S
atom 2.8065485638217660 4.9582762716734718 17.1066993173035016 S
atom 7.4505715151982965 4.9921942475724483 17.6467367789261971 S
atom 0.0821564014830579 2.7788207102644225 12.1472780096522293 S
atom 5.1038049227730449 2.1214741815417075 12.7054744833260269 S
atom 0.1151638607971122 7.1101152435176251 12.6768744072782908 S
atom 5.1277137874043905 7.8243780961857352 12.1472780096522310 S
atom 0.0818213003215890 2.6120850946716603 17.6324367409023175 S
atom 5.1043803381964770 2.2674669840722728 17.1209993553274060 S
atom 0.1157392762205628 7.2561080460481850 17.0923992792796255 S
atom 5.1273786862429134 7.6576424805929753 17.6324367409023175 S
atom -0.0725042047645930 -0.0464627820484718 19.5945734202909776 Ba
atom 5.0635620059970980 0.1009623667372992 19.6088734583148465 Ba
atom 0.0749209440211785 5.0896034287132155 19.5802733822671122 Ba
atom 4.9730531811567404 4.9990946038728552 19.5945734202909776 Ba
atom 2.8387178105338298 2.6504220331400119 19.9800505304829734 S
atom 7.4122345767299400 2.2352977373602121 19.9943505685068317 S
atom 2.4235935147540251 7.2239387993361310 19.9657504924590938 S
atom 7.8842751964551541 7.6959794190613371 19.9800505304829699 S
atom 2.5986597887785514 2.3279306103297119 23.0714577727803665 Ba
atom 7.7347259995402542 2.4753557591154833 23.0857578108042460 Ba
atom 2.7460849375643237 7.4639968210913885 23.0571577347565082 Ba
atom 7.6442171746998859 7.3734879962510371 23.0714577727803665 Ba
atom 2.3952257314525198 2.6212398063383793 27.7914716559929857 Ba
atom 7.4414168035315811 2.6787898164415163 27.8057716940168511 Ba
atom 2.4527757415556626 7.6674308784174325 27.7771716179691097 Ba
atom 7.4407831173738517 7.6667971922596987 27.7914716559929857 Ba
atom 5.1026274273102299 4.9864487389199308 25.1826174273227394 Zr
atom 10.1217652568713632 5.0169455065051238 25.1969174653466332 Zr
atom 5.1331241948954434 10.0055865684810410 25.1683173892988883 Zr
atom 10.1481848132315857 10.0320061248412440 25.1826174273227394 Zr
atom 5.0713836944422397 5.0047773848500805 30.2349605992695807 Zr
atom 10.1034366109411913 5.0481892393731211 30.2492606372934354 Zr
atom 5.1147955489652848 10.0368303013490490 30.2206605612457011 Zr
atom 10.1169410803635635 10.0503347707714195 30.2349605992695807 Zr
atom 5.2955446039670360 5.2391526256281198 22.6859806625883991 S
atom 9.8690613701631698 4.8240283298483249 22.7002807006122573 S
atom 4.8804203081872348 9.8126693918242456 22.6716806245645017 S
atom 10.3411019898883723 10.2847100115494570 22.6859806625883991 S
atom 4.8556952367305675 4.6837022149524818 27.7400548644870319 S
atom 10.4245117808388201 5.2638776970848022 27.7543549025108973 S
atom 5.4358707188628932 10.2525187590607132 27.7257548264631453 S
atom 9.9012526226518940 9.7292596008738084 27.7400548644870319 S
atom 5.2572076654986741 2.4822561154158946 25.0335944521690301 S
atom 9.9012306168752389 2.5161740913148694 25.5736319137917185 S
atom 4.9125895548993004 7.5048151532907772 25.5450318377439736 S
atom 10.3027650514200086 7.5278135013372163 25.0335944521690301 S
atom 5.4239432810914536 2.4825912165773696 30.5187531834191574 S
atom 9.7552378143446710 2.5155986758914186 29.9891567857930461 S
atom 4.7665967523687405 7.5042397378673282 29.9605567097453225 S
atom 10.4695006670127668 7.5281486024986854 30.5187531834191610 S
atom 2.5917594324781419 4.8054489443712738 25.0192944141451470 S
atom 7.6033988425004937 5.2069833789160773 25.5593318757678638 S
atom 2.6147577805245836 10.1956244408919758 25.5307317997200762 S
atom 7.6373168183994871 9.8510063302926145 25.0192944141451470 S
atom 2.5914243313166754 4.6387133287785067 30.5044531453952779 S
atom 7.6039742579239498 5.3529761814466230 29.9748567477691914 S
atom 2.6153331959480290 10.3416172434225277 29.9462566717214429 S
atom 7.6369817172380055 9.6842707146998386 30.5044531453952779 S
atom 2.5997528802011440 2.4119692537085871 32.7436983574733418 Ba
atom 7.6506873561613782 2.4742626676928929 32.7579983954972320 Ba
atom 2.6620462941854464 7.4629037296688097 32.7293983194495084 Ba
atom 7.6453102661224674 7.4575266396299043 32.7436983574733418 Ba
atom 2.8090234328309300 2.2074421049599628 37.6959250589537689 Ba
atom 7.8552145049099851 2.2649921150631047 37.7102250969776023 Ba
atom 2.8665734429340697 7.2536331770390197 37.6816250209298715 Ba
atom 7.8545808187522672 7.2529994908812956 37.6959250589537689 Ba
atom 5.1925610113426366 4.8836000679496889 35.2524361156771704 Zr
atom 10.2246139278416077 4.9270119224727225 35.2667361537010322 Zr
atom 5.2359728658656781 9.9156529844486414 35.2381360776532873 Zr
atom 10.2381183972639853 9.9291574538709835 35.2524361156771704 Zr
atom 5.1742323654124780 4.9148438008176818 40.3047792876239512 Zr
atom 10.1933701949735980 4.9453405684028864 40.3190793256478557 Zr
atom 5.2047291329976870 9.9339816303788080 40.2904792496001036 Zr
atom 10.2197897513338170 9.9604011867390128 40.3047792876239512 Zr
atom 5.4054433358646667 5.2176597093721133 32.7436983574733418 S
atom 9.8905542864191656 4.7141295979506976 32.7579983954972320 S
atom 4.9019132244432502 9.7027706599265908 32.7293983194495084 S
atom 10.4510007217860270 10.2632170952934434 32.7436983574733418 S
atom 4.8714858414450370 4.6679116102379998 37.7473418504597049 S
atom 10.4403023855532791 5.2480870923703291 37.7616418884836094 S
atom 5.4516613235773592 10.2367281543462383 37.7330418124358715 S
atom 9.9170432273663653 9.7134689961593264 37.7473418504597049 S
atom 4.8264969552710593 2.4036407048241206 34.9829435695514874 S
atom 10.5294008699150936 2.4275495694554765 35.5411400432252691 S
atom 5.5407598079391800 7.4161906314313910 35.5125399671775739 S
atom 9.8720543411923956 7.4491980907454485 34.9829435695514874 S
atom 4.9932325708638281 2.4039758059855902 40.4681023008015828 S
atom 10.3834080673845381 2.4269741540320249 39.9566649152266251 S
atom 5.3947670054086343 7.4156152160079385 39.9280648391789157 S
atom 10.0387899567851786 7.4495331919069177 40.4681023008015828 S
atom 2.6703748430699141 5.2361596545988904 34.9686435315275688 S
atom 7.6920233643598914 4.5788131258761871 35.5268400052014286 S
atom 2.7033823023839703 9.5674541878521051 35.4982399291536979 S
atom 7.7159322289912575 10.2817170405202187 34.9686435315275688 S
atom 2.6700397419084472 5.0694240390061234 40.4538022627776925 S
atom 7.6925987797833431 4.7248059284067363 39.9423648772027491 S
atom 2.7039577178074219 9.7134469903826517 39.9137648011550112 S
atom 7.7155971278297741 10.1149814249274410 40.4538022627776925 S
atom 2.5157142368222618 2.4108761622860002 42.4159389421663278 Ba
atom 7.6517804475839553 2.5583013110717752 42.4302389801901683 Ba
atom 2.6631393856080368 7.5469423730476874 42.4016389041424517 Ba
atom 7.5612716227436003 7.4564335482073307 42.4159389421663278 Ba
atom 5.4269362521206812 5.1077609774744861 42.8014160523582774 S
atom 10.0004530183168114 4.6926366816946885 42.8157160903821463 S
atom 5.0118119563408827 9.6812777436705932 42.7871160143344085 S
atom 10.4724936380420068 10.1533183633958082 42.8014160523582774 S
