#=======================================================
# FHI-aims file: sym_relax_RP_2_57.in
# Created using the Atomic Simulation Environment (ASE)
# Tue Feb 25 12:07:36 2025
#=======================================================
lattice_vector 10.0673120352386576 0.0627479477101133 0.0000000000000000 
lattice_vector 0.0627479477101133 10.0673120352386594 0.0000000000000000 
lattice_vector 0.0000000000000000 0.0000000000000000 25.5913375886683632 
atom -0.0183758171869091 -0.1523393456838821 0.2676651911656510 Ba
atom 5.1859953633032259 0.0497497910419655 0.2676651911656510 Ba
atom 0.1837133195389390 5.0520318348062316 0.2676651911656509 Ba
atom 5.0466541742874877 4.9126906457904873 0.2676651911656510 Ba
atom -0.0944363042917346 0.1143092087783396 4.9214110747439133 Ba
atom 4.9193468088409933 0.1258102781467906 4.9214110747439133 Ba
atom -0.0829352349232836 5.1280923219110575 4.9214110747439133 Ba
atom 4.9705936871826601 5.1793392002527199 4.9214110747439133 Ba
atom 2.5359257009002643 2.5119634655824483 2.3785095503343219 Zr
atom 7.5867225435112697 2.5604782644291721 2.3785095503343219 Zr
atom 2.5844404997469903 7.5627603081934405 2.3785095503343219 Zr
atom 7.6009556923746473 7.5769934570568251 2.3785095503343219 Zr
atom 2.5359257009002643 2.5119634655824483 7.4643125991535033 Zr
atom 7.5867225435112697 2.5604782644291721 7.4643125991535033 Zr
atom 2.5844404997469903 7.5627603081934405 7.4643125991535033 Zr
atom 7.6009556923746473 7.5769934570568251 7.4643125991535033 Zr
atom 2.6878646964019643 2.7274698389952481 -0.1184224814167701 S
atom 7.3712161700984673 2.4085392689274774 -0.1184224814167701 S
atom 2.3689341263341910 7.4108213126917430 -0.1184224814167701 S
atom 7.7528946878763501 7.7924998304696249 -0.1184224814167701 S
atom 2.3074746370480108 2.2542134951574533 4.9214110747439133 S
atom 7.8444725139362577 2.7889293282814265 4.9214110747439133 S
atom 2.8421904701719853 7.7912113720456881 4.9214110747439133 S
atom 7.3725046285223996 7.3192434866318301 4.9214110747439133 S
atom 2.6777567947004455 0.0057519546865511 2.2443468502514685 S
atom 7.4106621177748604 0.0394520249879165 2.6984808844153254 S
atom 2.4083800740105779 5.0417340687521790 2.6984808844153254 S
atom 7.7427867861748352 5.0707819461609285 2.2443468502514685 S
atom 2.6777567947004455 0.0057519546865511 7.5984752992363731 S
atom 7.4106621177748604 0.0394520249879165 7.1443412650725096 S
atom 2.4083800740105779 5.0417340687521790 7.1443412650725096 S
atom 7.7427867861748352 5.0707819461609285 7.5984752992363731 S
atom 0.0256220191685053 2.3558992229188842 2.2443468502514685 S
atom 5.0569519403415253 2.6880238913188608 2.6984808844153254 S
atom 0.0546698965772523 7.6903059350831224 2.6984808844153254 S
atom 5.0906520106428923 7.4209292143932677 2.2443468502514685 S
atom 0.0256220191685053 2.3558992229188842 7.5984752992363731 S
atom 5.0569519403415253 2.6880238913188608 7.1443412650725096 S
atom 0.0546698965772523 7.6903059350831224 7.1443412650725096 S
atom 5.0906520106428923 7.4209292143932677 7.5984752992363731 S
atom -0.0183758171869091 -0.1523393456838821 9.5751569583221823 Ba
atom 5.1859953633032259 0.0497497910419655 9.5751569583221823 Ba
atom 0.1837133195389390 5.0520318348062316 9.5751569583221823 Ba
atom 5.0466541742874877 4.9126906457904873 9.5751569583221823 Ba
atom 2.6878646964019643 2.7274698389952481 9.9612446309046057 S
atom 7.3712161700984673 2.4085392689274774 9.9612446309046057 S
atom 2.3689341263341910 7.4108213126917430 9.9612446309046057 S
atom 7.7528946878763501 7.7924998304696249 9.9612446309046057 S
atom 2.5508908129241048 2.6848543414210719 13.0633339854998223 Ba
atom 7.4138316676726337 2.5455131524053356 13.0633339854998223 Ba
atom 2.4115496239083707 7.5477951961696004 13.0633339854998223 Ba
atom 7.6159208043984847 7.7498843328954568 13.0633339854998223 Ba
atom 2.6269513000289302 2.4182057869588460 17.7170798690780984 Ba
atom 7.6804802221348671 2.4694526653005120 17.7170798690780984 Ba
atom 2.6781981783705908 7.4717347090647834 17.7170798690780984 Ba
atom 7.6919812915033221 7.4832357784332251 17.7170798690780984 Ba
atom 5.0616192863113234 5.0855815216291171 15.1741783446684888 Zr
atom 10.0781344789389991 5.0998146704925080 15.1741783446684888 Zr
atom 5.0758524351747107 10.1020967142567937 15.1741783446684888 Zr
atom 10.1266492777856953 10.1506115131034900 15.1741783446684888 Zr
atom 5.0616192863113234 5.0855815216291171 20.2599813934876920 Zr
atom 10.0781344789389991 5.0998146704925080 20.2599813934876920 Zr
atom 5.0758524351747107 10.1020967142567937 20.2599813934876920 Zr
atom 10.1266492777856953 10.1506115131034900 20.2599813934876920 Zr
atom 4.9096802908096118 4.8700751482163191 12.6772463129173989 S
atom 10.2936408523517997 5.2517536659942046 12.6772463129173989 S
atom 5.2913588085875043 10.2540357097584796 12.6772463129173989 S
atom 9.9747102822840255 9.9351051396906946 12.6772463129173989 S
atom 5.2900703501635657 5.3433314920541202 17.7170798690780984 S
atom 9.8203845085139818 4.8713636066402488 17.7170798690780984 S
atom 4.8181024647497024 9.8736456504045194 17.7170798690780984 S
atom 10.3551003416379501 10.4083614835284823 17.7170798690780984 S
atom 5.1891649132010009 2.5558109184593842 15.4941496787495012 S
atom 9.9220702362754150 2.5895109887607535 15.0400156445856474 S
atom 4.9197881925111355 7.5917930325250156 15.0400156445856474 S
atom 10.2541949046753800 7.6208409099337597 15.4941496787495012 S
atom 5.1891649132010009 2.5558109184593842 19.9400100594066849 S
atom 9.9220702362754150 2.5895109887607535 20.3941440935705351 S
atom 4.9197881925111355 7.5917930325250156 20.3941440935705351 S
atom 10.2541949046753800 7.6208409099337597 19.9400100594066849 S
atom 2.5405930468700539 4.9095210958927105 15.4941496787495012 S
atom 7.5719229680430775 5.2416457642926781 15.0400156445856474 S
atom 2.5696409242787985 10.2439278080569647 15.0400156445856474 S
atom 7.6056230383444436 9.9745510873670913 15.4941496787495012 S
atom 2.5405930468700539 4.9095210958927105 19.9400100594066849 S
atom 7.5719229680430775 5.2416457642926781 20.3941440935705351 S
atom 2.5696409242787985 10.2439278080569647 20.3941440935705351 S
atom 7.6056230383444436 9.9745510873670913 19.9400100594066849 S
atom 2.5508908129241048 2.6848543414210719 22.3708257526563479 Ba
atom 7.4138316676726337 2.5455131524053356 22.3708257526563479 Ba
atom 2.4115496239083707 7.5477951961696004 22.3708257526563479 Ba
atom 7.6159208043984847 7.7498843328954568 22.3708257526563479 Ba
atom 4.9096802908096118 4.8700751482163191 22.7569134252387606 S
atom 10.2936408523517997 5.2517536659942046 22.7569134252387606 S
atom 5.2913588085875043 10.2540357097584796 22.7569134252387606 S
atom 9.9747102822840255 9.9351051396906946 22.7569134252387606 S
