#=======================================================
# FHI-aims file: sym_relax_RP_4_62.in
# Created using the Atomic Simulation Environment (ASE)
# Tue Feb 25 12:10:07 2025
#=======================================================
lattice_vector 10.0276199205153720 -0.0335960732121270 0.0000000000000000 
lattice_vector -0.0335960732121270 10.0276199205153720 0.0000000000000000 
lattice_vector 0.0000000000000000 0.0000000000000000 45.7630616859113672 
atom 0.0590695430461034 -0.1273191550402672 0.2307826499958895 Ba
atom 5.1411291152979421 -0.0758675796521657 0.2307826499958895 Ba
atom 0.1105211184342041 4.9547404172115810 0.2307826499958895 Ba
atom 5.0560814666977105 4.8696927686113485 0.2307826499958895 Ba
atom -0.2855975216180018 0.2226807625088049 4.9921587148717164 Ba
atom 4.7911291977488730 0.2687994850119397 4.9921587148717164 Ba
atom -0.2394787991148672 5.2994074818756847 4.9921587148717164 Ba
atom 4.7114144020336175 5.2196926861604274 4.9921587148717164 Ba
atom 2.4690708454023533 2.5306166871378486 2.3909016625047963 Zr
atom 7.4802051967714576 2.5111430416431975 2.3909016625047963 Zr
atom 2.4495971999077066 7.5417510385069484 2.3909016625047963 Zr
atom 7.4660827690539744 7.5276286107894634 2.3909016625047963 Zr
atom 2.4548585145179822 2.5398601090417632 7.4416672412218077 Zr
atom 7.4709617748675301 2.5253553725275744 7.4416672412218077 Zr
atom 2.4403537780037960 7.5559633693913195 7.4416672412218077 Zr
atom 7.4518704381695917 7.5368720326933811 7.4416672412218077 Zr
atom 2.6400746255447358 2.7918818998352282 -0.1123018123423860 S
atom 7.2189399840740602 2.3401392615008194 -0.1123018123423860 S
atom 2.1883319872103266 7.3707472583645588 -0.1123018123423860 S
atom 7.6370865491963507 7.7888938234868466 -0.1123018123423860 S
atom 2.2032334472294308 2.2253164847119371 4.9463114501928462 S
atom 7.7855053991973646 2.7769804398161240 4.9463114501928462 S
atom 2.7548974023336159 7.8075884366798656 4.9463114501928462 S
atom 7.2002453708810465 7.2223284083635537 4.9463114501928462 S
atom 2.7232869736120557 0.0326460714182431 2.2166888748542357 S
atom 7.1875249487002835 0.0194587129741253 2.7675587297874928 S
atom 2.1569169518365388 5.0500667098378749 2.7675587297874928 S
atom 7.7202988972636737 5.0296579950698650 2.2166888748542357 S
atom 2.8498968019330717 0.0279260531909130 7.7620114912396376 S
atom 7.1123728451757726 0.0157577492359431 7.1370309705453110 S
atom 2.0817648483120337 5.0463657460996885 7.1370309705453110 S
atom 7.8469087255846848 5.0249379768425362 7.7620114912396376 S
atom -0.0494441080243072 2.2905229866456223 2.2166888748542357 S
atom 4.9607551740714220 2.8232969352090143 2.7675587297874928 S
atom -0.0698528227923144 7.8539049320727559 2.7675587297874928 S
atom 4.9475678156273082 7.2875349102972367 2.2166888748542357 S
atom -0.0447240897969771 2.1639131583246054 7.7620114912396376 S
atom 4.9644561378096093 2.8984490387335238 7.1370309705453110 S
atom -0.0661518590541322 7.9290570355972667 7.1370309705453110 S
atom 4.9522878338546352 7.1609250819762300 7.7620114912396376 S
atom 0.2303358988254914 -0.1431151985520373 9.9484916708503004 Ba
atom 5.1569251588097176 -0.2471339354315544 9.9484916708503004 Ba
atom 0.1263171619459743 4.7834740614321900 9.9484916708503004 Ba
atom 5.2273478224771024 4.8538967250995784 9.9484916708503004 Ba
atom -0.2855975216180019 0.2226807625088049 14.9048246268288835 Ba
atom 4.7911291977488730 0.2687994850119397 14.9048246268288835 Ba
atom -0.2394787991148672 5.2994074818756847 14.9048246268288835 Ba
atom 4.7114144020336175 5.2196926861604274 14.9048246268288835 Ba
atom 2.4548585145179822 2.5398601090417632 12.4553161004787931 Zr
atom 7.4709617748675301 2.5253553725275744 12.4553161004787931 Zr
atom 2.4403537780037960 7.5559633693913195 12.4553161004787931 Zr
atom 7.4518704381695917 7.5368720326933811 12.4553161004787931 Zr
atom 2.4690708454023533 2.5306166871378486 17.5060816791957912 Zr
atom 7.4802051967714576 2.5111430416431975 17.5060816791957912 Zr
atom 2.4495971999077066 7.5417510385069484 17.5060816791957912 Zr
atom 7.4660827690539744 7.5276286107894634 17.5060816791957912 Zr
atom 2.7305264789771457 2.8686574703027938 9.9484916708503004 S
atom 7.1421644136065057 2.2496874080684055 9.9484916708503004 S
atom 2.1115564167427596 7.2802954049321560 9.9484916708503004 S
atom 7.7275384026287615 7.8656693939544198 9.9484916708503004 S
atom 2.2032334472294308 2.2253164847119371 14.9506718915077474 S
atom 7.7855053991973646 2.7769804398161240 14.9506718915077474 S
atom 2.7548974023336159 7.8075884366798656 14.9506718915077474 S
atom 7.2002453708810465 7.2223284083635537 14.9506718915077474 S
atom 2.8498968019330717 0.0279260531909130 12.1349718504609605 S
atom 7.1123728451757726 0.0157577492359431 12.7599523711552845 S
atom 2.0817648483120337 5.0463657460996885 12.7599523711552845 S
atom 7.8469087255846848 5.0249379768425362 12.1349718504609605 S
atom 2.7232869736120557 0.0326460714182431 17.6802944668463660 S
atom 7.1875249487002835 0.0194587129741253 17.1294246119130911 S
atom 2.1569169518365388 5.0500667098378749 17.1294246119130911 S
atom 7.7202988972636737 5.0296579950698650 17.6802944668463660 S
atom -0.0447240897969771 2.1639131583246054 12.1349718504609605 S
atom 4.9644561378096093 2.8984490387335238 12.7599523711552845 S
atom -0.0661518590541322 7.9290570355972667 12.7599523711552845 S
atom 4.9522878338546352 7.1609250819762300 12.1349718504609605 S
atom -0.0494441080243072 2.2905229866456223 17.6802944668463660 S
atom 4.9607551740714220 2.8232969352090143 17.1294246119130911 S
atom -0.0698528227923144 7.8539049320727559 17.1294246119130911 S
atom 4.9475678156273082 7.2875349102972367 17.6802944668463660 S
atom 0.0590695430461033 -0.1273191550402672 19.6662006917047236 Ba
atom 5.1411291152979421 -0.0758675796521657 19.6662006917047236 Ba
atom 0.1105211184342041 4.9547404172115810 19.6662006917047236 Ba
atom 5.0560814666977105 4.8696927686113485 19.6662006917047236 Ba
atom 2.6400746255447358 2.7918818998352282 20.0092851540429848 S
atom 7.2189399840740602 2.3401392615008194 20.0092851540429848 S
atom 2.1883319872103266 7.3707472583645588 20.0092851540429848 S
atom 7.6370865491963507 7.7888938234868466 20.0092851540429848 S
atom 2.3711868067855444 2.5575755048719104 23.1123134929515501 Ba
atom 7.4532463790373811 2.6090270802600095 23.1123134929515501 Ba
atom 2.4226383821736412 7.6396350771237520 23.1123134929515501 Ba
atom 7.3681987304371530 7.5545874285235319 23.1123134929515501 Ba
atom 2.7211867243346077 2.2129084402078081 27.8736895578273973 Ba
atom 7.7979134437014785 2.2590271627109422 27.8736895578273973 Ba
atom 2.7673054468377463 7.2896351595746882 27.8736895578273973 Ba
atom 7.7181986479862310 7.2099203638594274 27.8736895578273973 Ba
atom 5.0291226489636491 4.9675768072281672 25.2724325054604684 Zr
atom 10.0402570003327476 4.9481031617335249 25.2724325054604684 Zr
atom 5.0096490034690069 9.9787111585972710 25.2724325054604684 Zr
atom 10.0261345726152573 9.9645887308797700 25.2724325054604684 Zr
atom 5.0383660708675695 4.9533644763437845 30.3231980841774948 Zr
atom 10.0544693312171063 4.9388597398296090 30.3231980841774948 Zr
atom 5.0238613343533851 9.9694677366933426 30.3231980841774948 Zr
atom 10.0353779945191715 9.9503763999954202 30.3231980841774948 Zr
atom 5.2903878616610323 5.1385805873705435 22.7692290306132854 S
atom 9.8692532201903607 4.6868379490361338 22.7692290306132854 S
atom 4.8386452233266324 9.7174459458998879 22.7692290306132854 S
atom 10.2873997853126493 10.1355925110221676 22.7692290306132854 S
atom 4.7238224465377341 4.7017394090552438 27.8278422931485352 S
atom 10.3060943985056639 5.2534033641594293 27.8278422931485352 S
atom 5.2754864016419187 10.2840113610231896 27.8278422931485352 S
atom 9.7208343701893458 9.6987513327068715 27.8278422931485352 S
atom 4.7890289484714170 2.4490618538015037 25.0982197178099504 S
atom 10.3524108938985542 2.4286531390334956 25.6490895727431720 S
atom 5.3218028970348206 7.4592611358972363 25.6490895727431720 S
atom 9.7860408721230563 7.4460737774531189 25.0982197178099504 S
atom 4.6624191201504184 2.4537818720288369 30.6435423341953452 S
atom 10.4275629974230775 2.4323541027716802 30.0185618135010017 S
atom 5.3969550005593225 7.4629620996354245 30.0185618135010017 S
atom 9.6594310438020159 7.4507937956804460 30.6435423341953452 S
atom 2.5311520332440498 5.2217929354378754 25.0982197178099504 S
atom 7.5485726716636785 4.6554229136623482 25.6490895727431720 S
atom 2.5179646747999325 9.6860309105260995 25.6490895727431720 S
atom 7.5281639568956624 10.2188048590894862 25.0982197178099504 S
atom 2.5264320150167174 5.3484027637588785 30.6435423341953452 S
atom 7.5448717079254903 4.5802708101378498 30.0185618135010017 S
atom 2.5142637110617501 9.6108788070015905 30.0185618135010017 S
atom 7.5234439386683345 10.3454146874105035 30.6435423341953452 S
atom 2.3553907632737712 2.7288418606513014 32.8300225138059716 Ba
atom 7.2819800232579883 2.6248231237717827 32.8300225138059716 Ba
atom 2.2513720263942547 7.6554311206355372 32.8300225138059716 Ba
atom 7.3524026869253749 7.7258537843029202 32.8300225138059716 Ba
atom 2.7211867243346077 2.2129084402078081 37.7863554697845956 Ba
atom 7.7979134437014785 2.2590271627109422 37.7863554697845956 Ba
atom 2.7673054468377463 7.2896351595746882 37.7863554697845956 Ba
atom 7.7181986479862310 7.2099203638594274 37.7863554697845956 Ba
atom 5.0383660708675695 4.9533644763437845 35.3368469434344519 Zr
atom 10.0544693312171063 4.9388597398296090 35.3368469434344519 Zr
atom 5.0238613343533851 9.9694677366933426 35.3368469434344519 Zr
atom 10.0353779945191715 9.9503763999954202 35.3368469434344519 Zr
atom 5.0291226489636491 4.9675768072281672 40.3876125221515281 Zr
atom 10.0402570003327476 4.9481031617335249 40.3876125221515281 Zr
atom 5.0096490034690069 9.9787111585972710 40.3876125221515281 Zr
atom 10.0261345726152573 9.9645887308797700 40.3876125221515281 Zr
atom 5.3671634321286019 5.2290324408029623 32.8300225138059716 S
atom 9.7788013667579463 4.6100623785685650 32.8300225138059716 S
atom 4.7481933698942171 9.6406703754323235 32.8300225138059716 S
atom 10.3641753557802190 10.2260443644545802 32.8300225138059716 S
atom 4.7238224465377341 4.7017394090552438 37.8322027344634364 S
atom 10.3060943985056639 5.2534033641594293 37.8322027344634364 S
atom 5.2754864016419187 10.2840113610231896 37.8322027344634364 S
atom 9.7208343701893458 9.6987513327068715 37.8322027344634364 S
atom 4.6624191201504184 2.4537818720288369 35.0165026934166335 S
atom 10.4275629974230775 2.4323541027716802 35.6414832141109486 S
atom 5.3969550005593225 7.4629620996354245 35.6414832141109486 S
atom 9.6594310438020159 7.4507937956804460 35.0165026934166335 S
atom 4.7890289484714170 2.4490618538015037 40.5618253098020531 S
atom 10.3524108938985542 2.4286531390334956 40.0109554548687711 S
atom 5.3218028970348206 7.4592611358972363 40.0109554548687711 S
atom 9.7860408721230563 7.4460737774531189 40.5618253098020531 S
atom 2.5264320150167174 5.3484027637588785 35.0165026934166335 S
atom 7.5448717079254903 4.5802708101378498 35.6414832141109486 S
atom 2.5142637110617501 9.6108788070015905 35.6414832141109486 S
atom 7.5234439386683345 10.3454146874105035 35.0165026934166335 S
atom 2.5311520332440498 5.2217929354378754 40.5618253098020531 S
atom 7.5485726716636785 4.6554229136623482 40.0109554548687711 S
atom 2.5179646747999325 9.6860309105260995 40.0109554548687711 S
atom 7.5281639568956624 10.2188048590894862 40.5618253098020531 S
atom 2.3711868067855444 2.5575755048719104 42.5477315346603859 Ba
atom 7.4532463790373811 2.6090270802600095 42.5477315346603859 Ba
atom 2.4226383821736412 7.6396350771237520 42.5477315346603859 Ba
atom 7.3681987304371539 7.5545874285235319 42.5477315346603859 Ba
atom 5.2903878616610314 5.1385805873705435 42.8908159969986755 S
atom 9.8692532201903607 4.6868379490361338 42.8908159969986755 S
atom 4.8386452233266324 9.7174459458998879 42.8908159969986755 S
atom 10.2873997853126493 10.1355925110221676 42.8908159969986755 S
