#=======================================================
# FHI-aims file: sym_relax_RP_1_13.in
# Created using the Atomic Simulation Environment (ASE)
# Tue Feb 25 12:07:00 2025
#=======================================================
lattice_vector 10.0712683153081883 0.0064007638029048 -0.0005409625119330 
lattice_vector 0.0064007638029048 10.0712683153081848 -0.0005409625119330 
lattice_vector -0.0015932352738730 -0.0015932352738730 15.6175254403969497 
atom -0.1385155763445136 -0.0032609667544374 0.2385775204349839 Ba
atom 5.1736563479216695 0.0056898210312184 0.2382662800965047 Ba
atom 0.1412225721690266 5.0381235967838540 0.2382662800965047 Ba
atom 4.9003189632110251 5.0355735728010966 0.2380365579230508 Ba
atom 0.1380176903214289 0.0027630807313526 4.6418991796890658 Ba
atom 4.8971140813634255 0.0002130567486007 4.6416694575156141 Ba
atom -0.1353196943892069 5.0326468325012375 4.6416694575156141 Ba
atom 5.1768522298769675 5.0415976202869075 4.6413582171771290 Ba
atom 2.5191683267662310 2.5191683267662324 2.4399678688060562 Zr
atom 7.5548024844203150 2.5223687086676807 2.4396973875500909 Zr
atom 2.5223687086676820 7.5548024844203256 2.4396973875500909 Zr
atom 7.5580028663217655 7.5580028663217718 2.4394269062941270 Zr
atom 2.5234016212184387 2.7396764715816135 -0.0981525898188355 S
atom 7.5507317681509338 2.3018801024750757 -0.0983450219571739 S
atom 2.5182979923982969 7.3343138782277180 -0.0983450219571739 S
atom 7.5622361607739856 7.7785110111371543 -0.0986935523307686 S
atom 2.5149350323140194 2.2986601819508450 4.9780883274309522 S
atom 7.5588732006896997 2.7428573148602879 4.9777397970573558 S
atom 2.5264394249370654 7.7752910906129182 4.9777397970573558 S
atom 7.5537695718695579 7.3374947215063884 4.9775473649190163 S
atom 2.5175102834097962 0.0013336343502072 2.2108274611437331 S
atom 7.5532601458753019 0.0045692434296130 2.6691082764683802 S
atom 2.5208263701226654 5.0370030191822499 2.6691082764683798 S
atom 7.5563448229653316 5.0401681739057498 2.2102864986318007 S
atom 0.0013735967689068 2.5176090968637030 2.4358642290615742 S
atom 5.0369630567635468 2.5207275566687564 2.4440715085505418 S
atom 0.0045292810109129 7.5531613324213955 2.4440715085505413 S
atom 5.0402081363244609 7.5564436364192362 2.4353232665496418 S
atom 2.5153596853863966 2.3801050757963220 8.0470697593774894 Ba
atom 7.5567442489246854 2.6598432243098578 8.0467585190390025 Ba
atom 2.5243104731720534 7.6922770000625063 8.0467585190390025 Ba
atom 7.5541942249419387 7.4189396153518690 8.0465287968655481 Ba
atom 2.5213837328721862 2.6566383424622688 12.4503914186315701 Ba
atom 7.5512674846420769 2.3833009577516284 12.4501616964581316 Ba
atom 2.5188337088894350 7.4157347335042658 12.4501616964581316 Ba
atom 7.5602182724277336 7.6954728820178095 12.4498504561196395 Ba
atom 5.0377889789070611 5.0377889789070682 10.2484601077485671 Zr
atom 10.0734231365611446 5.0409893608085161 10.2481896264925982 Zr
atom 5.0409893608085179 10.0734231365611535 10.2481896264925965 Zr
atom 10.0766235184625987 10.0766235184625952 10.2479191452366365 Zr
atom 5.2582971237224472 5.0420222733592821 7.7103396491236769 S
atom 9.8529345303685361 5.0369186445391403 7.7101472169853364 S
atom 4.8205007546159147 10.0693524202917768 7.7101472169853364 S
atom 10.2971316632779839 10.0808568129148117 7.7097986866117383 S
atom 4.8172808340916813 5.0335556844548499 12.7865805663734662 S
atom 10.2939117427537727 5.0450600770779035 12.7862320359998591 S
atom 5.2614779670011274 10.0774938528305320 12.7862320359998591 S
atom 9.8561153736472153 10.0723902240104035 12.7860396038615356 S
atom 5.0362297490045389 2.5199942489097409 10.2443564680040815 S
atom 10.0717819845622554 2.5231499331517493 10.2525637474930491 S
atom 5.0393482088095949 7.5555837089043871 10.2525637474930527 S
atom 10.0750642885600818 7.5588287884652940 10.2438155054921527 S
atom 2.5199542864910431 5.0361309355506263 10.0193197000862497 S
atom 7.5556236713230858 5.0394470222635013 10.4776005154108933 S
atom 2.5231898955704479 10.0718807980161138 10.4776005154108915 S
atom 7.5587888260465883 10.0749654751061861 10.0187787375743138 S
