#=======================================================
# FHI-aims file: sym_relax_RP_3_12.in
# Created using the Atomic Simulation Environment (ASE)
# Tue Feb 25 12:08:34 2025
#=======================================================
lattice_vector 10.0581684634529989 -0.0000000000000000 0.0106494042786245 
lattice_vector -0.0000000000000000 10.1097074102708007 0.0000000000000000 
lattice_vector 0.0377586511734557 0.0000000000000000 35.4272055281206875 
atom -0.1812295032440950 0.0000000000000000 0.2894114492465172 Ba
atom 5.1793981297450689 0.0000000000000000 0.2882667905983824 Ba
atom 0.1503138980185640 5.0548537051354003 0.2829420884590700 Ba
atom 4.8478547284824014 5.0548537051354003 0.2947361513858295 Ba
atom -0.0425981796512117 0.0000000000000000 4.9633671227736302 Ba
atom 4.9277569034039246 0.0000000000000000 4.9234779768453754 Ba
atom -0.1013273283225797 5.0548537051354003 4.9181532747060643 Ba
atom 4.9864860520752909 5.0548537051354003 4.9686918249129413 Ba
atom 2.4923414473810834 2.5058976080509718 2.3496886091326079 Zr
atom 7.5214256791075877 2.5489560970844258 2.3550133112719225 Zr
atom 2.4923414473810834 7.6038098022198177 2.3496886091326088 Zr
atom 7.5214256791075877 7.5607513131863735 2.3550133112719225 Zr
atom 2.5224085015243873 2.5274268525677002 7.3833301694281346 Zr
atom 7.5514927332508828 2.5274268525677002 7.3886548715674367 Zr
atom 2.5224085015243873 7.5822805577030987 7.3833301694281346 Zr
atom 7.5514927332508828 7.5822805577030987 7.3886548715674367 Zr
atom 2.4997597620468710 2.8055176009303726 -0.1349245562932462 S
atom 7.5288439937733669 2.2493361042050268 -0.1295998541539339 S
atom 2.4997597620468710 7.3041898093404249 -0.1349245562932463 S
atom 7.5288439937733669 7.8603713060657796 -0.1295998541539339 S
atom 2.5055507974789166 2.0997950248996569 4.8956868807554716 S
atom 7.5346350292054112 2.9550586802357457 4.9010115828947889 S
atom 2.5055507974789166 8.0099123853711518 4.8956868807554716 S
atom 7.5346350292054112 7.1546487300350554 4.9010115828947871 S
atom 2.5097487596329442 0.0000000000000000 2.0727796677306185 S
atom 7.5069126952090937 0.0000000000000000 2.7693497851259306 S
atom 2.4778284634825964 5.0548537051354003 2.7640250829866155 S
atom 7.5388329913594410 5.0548537051354003 2.0781043698699300 S
atom 2.7448439213239588 0.0000000000000000 7.7976774940221336 S
atom 7.3290573134513179 0.0000000000000000 6.9743075469734288 S
atom 2.2999730817248167 5.0548537051354003 6.9689828448341187 S
atom 7.7739281530504476 5.0548537051354003 7.8030021961614482 S
atom -0.0194342138090239 2.5124536963219537 2.4737393457273362 S
atom 5.0096500179174717 2.5424000088134444 2.4790640478666446 S
atom -0.0194342138090239 7.5972537139488434 2.4737393457273362 S
atom 5.0096500179174717 7.5673074014573558 2.4790640478666446 S
atom 0.0078663856611361 2.2858454506673391 7.3806678183584769 S
atom 5.0369506173876335 2.7690082544680590 7.3859925204977879 S
atom 0.0078663856611361 7.8238619596034624 7.3806678183584769 S
atom 5.0369506173876335 7.3406991558027403 7.3859925204977879 S
atom 0.0583309509734851 0.0000000000000000 9.7979685139432959 Ba
atom 5.1461443313713460 0.0000000000000000 9.8485070641501995 Ba
atom 0.1170600996448517 5.0548537051354003 9.8431823620108805 Ba
atom 5.0874151826999787 5.0548537051354003 9.8032932160826221 Ba
atom 0.1969622745663684 0.0000000000000000 14.4719241874704387 Ba
atom 4.8945031050301999 0.0000000000000000 14.4837182503971906 Ba
atom -0.1345811266962909 5.0548537051354003 14.4783935482578752 Ba
atom 5.2260465062928647 5.0548537051354003 14.4772488896097347 Ba
atom 2.5524755556676904 2.5489560970844258 12.4169717297236470 Zr
atom 7.5815597873941778 2.5058976080509718 12.4222964318629483 Zr
atom 2.5524755556676904 7.5607513131863735 12.4169717297236470 Zr
atom 7.5815597873941778 7.6038098022198195 12.4222964318629483 Zr
atom 2.5392662055698514 2.9550586802357466 9.8709734581007957 S
atom 7.5683504372963490 2.0997950248996569 9.8762981602400988 S
atom 2.5392662055698514 7.1546487300350554 9.8709734581007957 S
atom 7.5683504372963490 8.0099123853711518 9.8762981602400988 S
atom 2.5450572410018983 2.2493361042050273 14.9015848951495027 S
atom 7.5741414727283995 2.8055176009303731 14.9069095972888181 S
atom 2.5450572410018983 7.8603713060657778 14.9015848951495027 S
atom 7.5741414727283995 7.3041898093404267 14.9069095972888181 S
atom 2.5669885395661729 0.0000000000000000 12.0026352558696345 S
atom 7.5641524751423255 0.0000000000000000 12.6992053732649435 S
atom 2.5350682434158314 5.0548537051354003 12.6938806711256440 S
atom 7.5960727712926701 5.0548537051354003 12.0079599580089340 S
atom 0.0351669851312961 2.5124536963219537 12.2875962909895904 S
atom 5.0642512168577962 2.5424000088134444 12.2929209931289130 S
atom 0.0351669851312961 7.5972537139488434 12.2875962909895904 S
atom 5.0642512168577962 7.5673074014573558 12.2929209931289130 S
atom 2.5464060151601227 2.3574266347359125 18.0117922613786625 Ba
atom 7.5754902468866181 2.6974270703994878 18.0171169635179282 Ba
atom 2.5464060151601227 7.7522807755348833 18.0117922613786625 Ba
atom 7.5754902468866181 7.4122803398713106 18.0171169635179282 Ba
atom 2.5433839847060109 2.5483452754814673 22.6714755663252632 Ba
atom 7.5724682164325046 2.5065084296539344 22.6768002684645680 Ba
atom 2.5433839847060109 7.5613621347893298 22.6714755663252632 Ba
atom 7.5724682164325046 7.6031989806168667 22.6768002684645644 Ba
atom 5.0367998455077103 5.0548537051354003 20.0765947014618469 Zr
atom 10.1120809036754835 5.0548537051354003 20.0855878661302683 Zr
atom 5.0829966719489850 10.1097074102708007 20.0802631639909350 Zr
atom 10.0658840772342231 10.1097074102708007 20.0819194036011623 Zr
atom 5.0558299429743627 5.0548537051354003 25.0995952845581236 Zr
atom 10.0849141747008577 5.0548537051354003 25.1049199866974497 Zr
atom 5.0558299429743627 10.1097074102708007 25.0995952845581236 Zr
atom 10.0849141747008595 10.1097074102708007 25.1049199866974497 Zr
atom 5.3534812947133803 5.0548537051354003 17.5959695970064764 S
atom 9.8007051279578370 5.0548537051354003 17.6003690881464294 S
atom 4.7716208962313402 10.1097074102708007 17.5950443860071069 S
atom 10.3825655264398709 10.1097074102708007 17.6012942991457919 S
atom 4.5879805804115064 5.0548537051354003 22.6176002075603577 S
atom 10.5575728036588359 5.0548537051354003 22.6252661036755960 S
atom 5.5284885719323471 10.1097074102708007 22.6199414015362663 S
atom 9.6170648121380093 10.1097074102708007 22.6229249096996945 S
atom 5.0594159901472597 2.5273011646588426 20.2057543789086758 S
atom 10.0885002218737618 2.5275525404765573 20.2110790810479877 S
atom 5.0594159901472597 7.5824062456119519 20.2057543789086758 S
atom 10.0885002218737618 7.5821548697942394 20.2110790810479877 S
atom 5.0558299429743627 2.5258189690608477 25.0995952845581236 S
atom 10.0849141747008577 2.5290347360745526 25.1049199866974497 S
atom 5.0558299429743627 7.5838884412099610 25.0995952845581236 S
atom 10.0849141747008577 7.5806726741962382 25.1049199866974497 S
atom 2.5446866978684546 5.0548537051354003 19.7568852057350774 S
atom 7.5739571847085285 5.0548537051354003 20.5186108993814891 S
atom 2.5448729529820273 10.1097074102708007 20.5132861972421665 S
atom 7.5737709295949580 10.1097074102708007 19.7622099078743858 S
atom 2.5415323174302675 5.0548537051354003 25.5608676964940464 S
atom 7.5701275685184628 5.0548537051354003 24.6383228726222114 S
atom 2.5410433367919616 10.1097074102708007 24.6329981704828853 S
atom 7.5706165491567656 10.1097074102708007 25.5661923986333761 S
atom 2.5391916695162160 2.5065084296539344 27.5223903006516935 Ba
atom 7.5682759012427177 2.5483452754814673 27.5277150027910089 Ba
atom 2.5391916695162160 7.6031989806168667 27.5223903006516935 Ba
atom 7.5682759012427177 7.5613621347893298 27.5277150027910089 Ba
atom 2.5361696390621131 2.6974270703994878 32.1820736055982550 Ba
atom 7.5652538707886094 2.3574266347359125 32.1873983077375954 Ba
atom 2.5361696390621131 7.4122803398713106 32.1820736055982550 Ba
atom 7.5652538707886094 7.7522807755348833 32.1873983077375954 Ba
atom 5.0748600404410125 5.0548537051354003 30.1225958676544074 Zr
atom 10.0577474457262408 5.0548537051354003 30.1242521072646170 Zr
atom 5.0286632139997369 10.1097074102708007 30.1189274051253228 Zr
atom 10.1039442721675012 10.1097074102708007 30.1279205697937051 Zr
atom 5.5236793055372235 5.0548537051354003 27.5815903615558966 S
atom 9.6122555457428831 5.0548537051354003 27.5845738697192751 S
atom 4.5831713140163757 10.1097074102708007 27.5792491675799916 S
atom 10.5527635372637114 10.1097074102708007 27.5869150636952156 S
atom 4.7581785912353336 5.0548537051354003 32.6032209721097956 S
atom 10.3691232214438855 5.0548537051354003 32.6094708852484345 S
atom 5.3400389897173870 10.1097074102708007 32.6041461831091439 S
atom 9.7872628229618499 10.1097074102708007 32.6085456742491004 S
atom 5.0522438958014639 2.5273011646588426 29.9934361902075963 S
atom 10.0813281275279554 2.5275525404765573 29.9987608923469331 S
atom 5.0522438958014639 7.5824062456119519 29.9934361902075963 S
atom 10.0813281275279554 7.5821548697942411 29.9987608923469331 S
atom 2.5377027012401969 5.0548537051354003 29.6805796697347795 S
atom 7.5669731880802642 5.0548537051354003 30.4423053633812124 S
atom 2.5378889563537674 10.1097074102708007 30.4369806612418863 S
atom 7.5667869329667008 10.1097074102708007 29.6859043718741020 S
