#=======================================================
# FHI-aims file: sym_relax_RP_1_15.in
# Created using the Atomic Simulation Environment (ASE)
# Tue Feb 25 12:06:54 2025
#=======================================================
lattice_vector 10.0578289284965763 0.1251261033433440 0.0008559304850849 
lattice_vector 0.1251261033433440 10.0578289284965781 -0.0008559304850849 
lattice_vector -0.0011051351077226 0.0011051351077227 15.6288677534684020 
atom 0.0908158180941813 0.0908304120718316 0.2364409785267071 Ba
atom 4.9380840521764657 -0.0282527664225103 0.2368689437692499 Ba
atom -0.0282673604001607 4.9380986461541010 0.2360130132841649 Ba
atom 5.1822933340141475 5.1823079279917907 0.2364409785267071 Ba
atom -0.0911611728153447 -0.0904850573506683 4.6475801944321740 Ba
atom 5.1193995215989592 0.1537242244870156 4.6480081596747107 Ba
atom 0.1530481090223392 5.1200756370636293 4.6471522291896328 Ba
atom 5.0003163431046147 5.0009924585692973 4.6475801944321731 Ba
atom 2.5455660805993992 2.5459114353205612 2.4420105864794399 Zr
atom 7.5744805448476926 2.6084744869922325 2.4424385517219807 Zr
atom 2.6081291322710731 7.5748258995688502 2.4415826212368956 Zr
atom 7.6370435965193613 7.6373889512405198 2.4420105864794399 Zr
atom 2.4005692791140874 2.4004960074997586 -0.0990408192885441 S
atom 7.7198959726684953 2.7534712884775443 -0.0986128540460015 S
atom 2.7535445600918753 7.7198227010541585 -0.0994687845310864 S
atom 7.4920467950340459 7.4919735234197109 -0.0990408192885442 S
atom 2.6905628820847123 2.6913268631413629 4.9830619922474266 S
atom 7.4290651170268811 2.4634776855069198 4.9834899574899669 S
atom 2.4627137044502669 7.4298290980835313 4.9826340270048775 S
atom 7.7820403980046793 7.7828043790613171 4.9830619922474266 S
atom 2.5143135535441998 0.0314627635856406 2.5937373647787396 S
atom 7.5431700202312300 0.0940086944788647 2.2911397386652217 S
atom 2.5768186076546069 5.0603601070554820 2.2902838081801318 S
atom 7.6057910694641526 5.1229402795056016 2.5937373647787396 S
atom 0.0311002880860304 2.5146009107040936 2.5933093995361984 S
atom 5.0600318731127665 2.5772219599370234 2.2907117734226774 S
atom 0.0936804605361482 7.5435733725136425 2.2898558429375950 S
atom 5.1225778040059984 7.6060784266240393 2.5933093995361989 S
atom 2.6360020085002991 2.6371217375856757 8.0508748552609131 Ba
atom 7.4832702425825754 2.5180385590913295 8.0513028205034463 Ba
atom 2.5169188300059626 7.4843899716679383 8.0504468900183728 Ba
atom 7.7274795244202696 7.7285992535056245 8.0508748552609131 Ba
atom 2.4540250175907747 2.4558062681631703 12.4620140711663687 Ba
atom 7.6645857120050831 2.7000155500008542 12.4624420364089001 Ba
atom 2.6982342994284547 7.6663669625774764 12.4615861059238213 Ba
atom 7.5455025335107342 7.5472837840831284 12.4620140711663687 Ba
atom 5.0907522710055249 5.0922027608344012 10.2564444632136471 Zr
atom 10.1196667352538139 5.1547658125060734 10.2568724284561803 Zr
atom 5.1533153226771908 10.1211172250826991 10.2560164979710944 Zr
atom 10.1822297869254790 10.1836802767543642 10.2564444632136471 Zr
atom 4.9457554695202042 4.9467873330135985 7.7153930574456497 S
atom 10.2650821630746130 5.2997626139913852 7.7158210226881874 S
atom 5.2987307504979846 10.2661140265679975 7.7149650922031121 S
atom 10.0372329854401734 10.0382648489335580 7.7153930574456497 S
atom 5.2357490724908349 5.2376181886552029 12.7974958689816223 S
atom 9.9742513074330077 5.0097690110207562 12.7979238342241644 S
atom 5.0078998948563900 9.9761204235973846 12.7970679037390838 S
atom 10.3272265884107863 10.3290957045751775 12.7974958689816223 S
atom 5.0594997439503073 2.5777540890994772 10.4081712415129370 S
atom 10.0883562106373450 2.6403000199927060 10.1055736153994342 S
atom 5.1220047980607211 7.6066514325693211 10.1047176849143447 S
atom 10.1509772598702739 7.6692316050194389 10.4081712415129370 S
atom 2.5762864784921500 5.0608922362179349 10.4077432762704003 S
atom 7.6052180635188931 5.1235132854508647 10.1051456501568939 S
atom 2.6388666509422718 10.0898646980274886 10.1042897196718062 S
atom 7.6677639944121161 10.1523697521378757 10.4077432762704003 S
