#=======================================================
# FHI-aims file: sym_relax_RP_3_13.in
# Created using the Atomic Simulation Environment (ASE)
# Tue Feb 25 12:08:38 2025
#=======================================================
lattice_vector 10.0856300467140141 0.0017343282969450 0.0128633914207118 
lattice_vector 0.0017343282969450 10.0856300467140088 0.0128633914207118 
lattice_vector 0.0451598684794079 0.0451598684794081 35.4478973943835811 
atom -0.1800751552322160 0.0080175328355922 0.2922322678011433 Ba
atom 5.2008868232910981 0.0105348932853165 0.2930488447049752 Ba
atom 0.1589389640825692 5.0524827524938392 0.2930488447049751 Ba
atom 4.8636070322732659 5.0516997203410785 0.3050956592218554 Ba
atom -0.0373891904100796 0.0129614148765816 4.9691091782908661 Ba
atom 4.9586935047157992 0.0144070732985813 4.9211618096416334 Ba
atom -0.0832543544927358 5.0563549325071158 4.9211618096416352 Ba
atom 5.0062929970954064 5.0566436023820529 4.9819725697115729 Ba
atom 2.5053354704513078 2.5064548390173500 2.3568551436636476 Zr
atom 7.5491445236591526 2.5517915505819322 2.3657970795016894 Zr
atom 2.5071966644506225 7.5937394097904640 2.3657970795016903 Zr
atom 7.5490176579567949 7.5501370265228287 2.3697185350843615 Zr
atom 2.5312493996859522 2.5312493996859526 7.3914103195402623 Zr
atom 7.5740644230429570 2.5321165638344194 7.3978420152506210 Zr
atom 2.5321165638344216 7.5740644230429526 7.3978420152506210 Zr
atom 7.5749315871914247 7.5749315871914247 7.4042737109609744 Zr
atom 2.5125747171313582 2.8164970956425219 -0.1256846807504576 S
atom 7.5548368965492614 2.2480987008045399 -0.1183592271954334 S
atom 2.5128890373407295 7.2900465600130664 -0.1183592271954333 S
atom 7.5562569046368351 7.8601792831479962 -0.1128212893297457 S
atom 2.5181669680700631 2.0917114735368938 4.9029155001415159 S
atom 7.5662507701605621 2.9737842722102048 4.9103823311232748 S
atom 2.5243029109520263 8.0157321314187389 4.9103823311232739 S
atom 7.5618491555755503 7.1353936610423778 4.9157788915622271 S
atom 2.5171905309485902 0.0095910910371476 2.0601593451782412 S
atom 7.5431179876661165 0.0090477855079377 2.7846120388611801 S
atom 2.5011701284575829 5.0509956447164761 2.7846120388611793 S
atom 7.5608727184540836 5.0532732785426262 2.0730227365989546 S
atom 2.7322920049584862 0.0091570593149979 7.8188887666301410 S
atom 7.3721546536219504 0.0113938808483667 6.9639318724503907 S
atom 2.3302067944134159 5.0533417400568945 6.9639318724503907 S
atom 7.7759741924639636 5.0528392468204784 7.8317521580508513 S
atom -0.0111409470886686 2.5243970577429375 2.4779842899833469 S
atom 5.0306659249921184 2.5318328699954762 2.4853887701736923 S
atom -0.0112819342164206 7.5737807292040191 2.4853887701736928 S
atom 5.0325412404168111 7.5680792452484127 2.4908476814040590 S
atom 0.0101274399815570 2.3117524057778933 7.3914151826226231 S
atom 5.0523713593903468 2.7507463935940049 7.3914054564579059 S
atom 0.0104235001818079 7.7926942528025487 7.3914054564579059 S
atom 5.0538096274870350 7.3554345932833627 7.4042785740433379 S
atom 0.0562058022765005 0.0058551969898390 9.8008480693689499 Ba
atom 5.1457531538646331 0.0061438668647838 9.8616588294388983 Ba
atom 0.1038052946561002 5.0480917260733147 9.8616588294388983 Ba
atom 5.0998879897819789 5.0495373844953182 9.8137114607896638 Ba
atom 0.1988917670986359 0.0107990790308280 14.4777249798586691 Ba
atom 4.9035598352893208 0.0100160468780482 14.4897717943755477 Ba
atom -0.1383880239192042 5.0519639060865815 14.4897717943755477 Ba
atom 5.2425739546041035 5.0544812665362970 14.4905883712793901 Ba
atom 2.5571633289205877 2.5560439603545482 12.4259654954168877 Zr
atom 7.5989843224267597 2.5124415770869066 12.4298869509995509 Zr
atom 2.5570364632182181 7.5543894362954456 12.4298869509995509 Zr
atom 7.6008455164260713 7.5997261478600295 12.4388288868375945 Zr
atom 2.5443318313018359 2.9707873258350030 9.8799051389390158 S
atom 7.5818780759253519 2.0904488554586389 9.8853016993779583 S
atom 2.5399302167168152 7.1323967146671672 9.8853016993779566 S
atom 7.5880140188073071 8.0144695133404795 9.8927685303597190 S
atom 2.5499240822405378 2.2460017037293727 14.9085053198310007 S
atom 7.5932919495366340 2.8161344268643003 14.9140432576966795 S
atom 2.5513440903281093 7.8580822860728272 14.9140432576966795 S
atom 7.5936062697460160 7.2896838912348487 14.9213687112517093 S
atom 2.5613286709143162 0.0115031546554272 11.9982086002193427 S
atom 7.5872561276318287 0.0109598491262172 12.7226612939022932 S
atom 2.5453082684233030 5.0529077083347467 12.7226612939022932 S
atom 7.6050108584197984 5.0551853421609012 12.0110719916400583 S
atom 0.0318328743797855 2.5306659293764193 12.2974318689068340 S
atom 5.0736397464605645 2.5381017416289566 12.3048363490971848 S
atom 0.0316918872520334 7.5800496008374871 12.3048363490971848 S
atom 5.0755150618852651 7.5743481168818834 12.3102952603275462 S
atom 2.5524385608280338 2.3643458727602247 18.0226126607032739 Ba
atom 7.5969037804862944 2.7033599920750131 18.0234292376071075 Ba
atom 2.5549559212777591 7.7453078512835418 18.0234292376071075 Ba
atom 7.5961207483335222 7.4080280602657087 18.0354760521239790 Ba
atom 2.5573824428690246 2.5070318375823648 22.6994895711930091 Ba
atom 7.6007759604995577 2.4611666734997080 22.6515422025437729 Ba
atom 2.5588281012910286 7.5031145327082429 22.6515422025437729 Ba
atom 7.6010646303745002 7.5507140250878404 22.7123529626137284 Ba
atom 5.0508758670097862 5.0497564984437444 20.0872355365658031 Zr
atom 10.1381604377829078 5.0516176924430658 20.0961774724038413 Zr
atom 5.0962125785743710 10.0935655516515883 20.0961774724038413 Zr
atom 10.0945580545152804 10.0934386859492271 20.1000989279865045 Zr
atom 5.0756704276783973 5.0756704276783911 25.1217907124424080 Zr
atom 10.1184854510354096 5.0765375918268534 25.1282224081527907 Zr
atom 5.0765375918268596 10.1184854510353972 25.1282224081527907 Zr
atom 10.1193526151838693 10.1193526151838622 25.1346541038631308 Zr
atom 5.3609181236349714 5.0569957451237988 17.6046957121517025 S
atom 9.8344675880055199 5.0573100653331799 17.6120211657066932 S
atom 4.7925197287969956 10.0992579245416998 17.6120211657066932 S
atom 10.4046003111404666 10.1006779326292691 17.6175591035724182 S
atom 4.6361325015293344 5.0625879960625086 22.6332958930436838 S
atom 10.5601531594111648 5.0687239389444718 22.6407627240254214 S
atom 5.5182053002026539 10.1106717981529872 22.6407627240254214 S
atom 9.6798146890348153 10.1062701835679878 22.6461592844643995 S
atom 5.0688180857353862 2.5332800809037739 20.2083646828855024 S
atom 10.1182017571964575 2.5331390937760188 20.2157691630758123 S
atom 5.0762538979879244 7.5750869529845506 20.2157691630758123 S
atom 10.1125002732408813 7.5769622684092521 20.2212280743062109 S
atom 4.8561734337703308 2.5545484679740031 25.1217955755247644 S
atom 10.3371152807949738 2.5548445281742498 25.1217858493600268 S
atom 5.2951674215864539 7.5967923873827790 25.1217858493600268 S
atom 9.8998556212758242 7.5982306554794770 25.1346589669454872 S
atom 2.5540121190295939 5.0616115589410375 19.7905397380804260 S
atom 7.5954166727089172 5.0455911564500164 20.5149924317633072 S
atom 2.5534688135003805 10.0875390156585460 20.5149924317633072 S
atom 7.5976943065350699 10.1052937464465078 19.8034031295011630 S
atom 2.5535780873074412 5.2767130329509317 25.5492691595322938 S
atom 7.5977627680493436 4.8746278224058530 24.6943122653525542 S
atom 2.5558149088408091 9.9165756816143897 24.6943122653525542 S
atom 7.5972602748129248 10.3203952204564100 25.5621325509529775 S
atom 2.5502762249822779 2.6006268302689413 27.5312284622711338 Ba
atom 7.5925127540657629 2.6482263226485383 27.5920392223410289 Ba
atom 2.5505648948572257 7.6901741818570768 27.5920392223410289 Ba
atom 7.5939584124877682 7.6443090177744271 27.5440918536918140 Ba
atom 2.5552201070232723 2.7433127950910769 32.2081053727608122 Ba
atom 7.5963849340790235 2.4060330040732372 32.2201521872777121 Ba
atom 2.5544370748704917 7.4479808632817655 32.2201521872777121 Ba
atom 7.5989022945287426 7.7869949825965543 32.2209687641815563 Ba
atom 5.1004649883469924 5.1015843569130324 30.1563458883190272 Zr
atom 10.0988104642878707 5.1014574912106578 30.1602673439016868 Zr
atom 5.0568626050793579 10.1434053504191972 30.1602673439016904 Zr
atom 10.1441471758524600 10.1452665444185097 30.1692092797397180 Zr
atom 5.5152083538274574 5.0887528592942743 27.6102855318411358 S
atom 9.6768177426596260 5.0843512447092545 27.6156820922801138 S
atom 4.6348698834510715 10.1262991039177930 27.6156820922801138 S
atom 10.5588905413329339 10.1324350467997562 27.6231489232618408 S
atom 4.7904227317218213 5.0943451102329824 32.6388857127331491 S
atom 10.4025033140652869 5.0957651183205455 32.6444236505988172 S
atom 5.3605554548567387 10.1377129775290840 32.6444236505988172 S
atom 9.8341049192272845 10.1380272977384482 32.6517491041538293 S
atom 5.0750869573688577 2.5762539023722320 30.0278122618089718 S
atom 10.1244706288299202 2.5761129152444755 30.0352167419993314 S
atom 5.0825227696214013 7.6180607744530038 30.0352167419993314 S
atom 10.1187691448743369 7.6199360898777044 30.0406756532297123 S
atom 2.5559241826478720 5.1057496989067594 29.7285889931215053 S
atom 7.5973287363271940 5.0897292964157472 30.4530416868044114 S
atom 2.5553808771186612 10.1316771556242813 30.4530416868044114 S
atom 7.5996063701533494 10.1494318864122270 29.7414523845421996 S
