#=======================================================
# FHI-aims file: sym_relax_RP_2_136.in
# Created using the Atomic Simulation Environment (ASE)
# Tue Feb 25 12:07:09 2025
#=======================================================
lattice_vector 10.1108496880991510 -0.0000000000000004 -0.0000000000000000 
lattice_vector -0.0000000000000004 10.1108496880991510 -0.0000000000000000 
lattice_vector -0.0000000000000000 -0.0000000000000000 25.3660237670811775 
atom -0.1548481652201168 0.0000000000000000 0.2814216266328550 Ba
atom 5.2102730092696969 -0.0000000000000000 0.2814216266328550 Ba
atom 0.1548481652201169 5.0554248440495764 0.2814216266328550 Ba
atom 4.9005766788294567 5.0554248440495764 0.2814216266328550 Ba
atom 0.0484051723939281 -0.0000000000000000 4.8780814936694625 Ba
atom 5.0070196716556499 0.0000000000000000 4.8780814936694625 Ba
atom -0.0484051723939281 5.0554248440495764 4.8780814936694625 Ba
atom 5.1038300164435029 5.0554248440495764 4.8780814936694625 Ba
atom 2.5277124220247882 2.5154674258667447 2.3473192363707782 Zr
atom 7.5831372660743650 2.5399574181828344 2.3473192363707782 Zr
atom 2.5277124220247882 7.5953822622324161 2.3473192363707782 Zr
atom 7.5831372660743650 7.5708922699163184 2.3473192363707782 Zr
atom 2.5277124220247882 2.5154674258667447 7.4088437509681340 Zr
atom 7.5831372660743650 2.5399574181828344 7.4088437509681340 Zr
atom 2.5277124220247882 7.5953822622324161 7.4088437509681340 Zr
atom 7.5831372660743650 7.5708922699163184 7.4088437509681340 Zr
atom 2.5277124220247882 2.8831368701067790 -0.1399907743324465 S
atom 7.5831372660743650 2.1722879739427983 -0.1399907743324465 S
atom 2.5277124220247882 7.2277128179923729 -0.1399907743324465 S
atom 7.5831372660743650 7.9385617141563563 -0.1399907743324465 S
atom 2.5277124220247882 2.0900392955858451 4.8780814936694625 S
atom 7.5831372660743650 2.9653855484637299 4.8780814936694625 S
atom 2.5277124220247882 8.0208103925133027 4.8780814936694625 S
atom 7.5831372660743650 7.1454641396354193 4.8780814936694625 S
atom 2.5277124220247882 -0.0000000000000000 2.0402545709437505 S
atom 7.5831372660743650 -0.0000000000000000 2.8000794947243084 S
atom 2.5277124220247882 5.0554248440495764 2.8000794947243084 S
atom 7.5831372660743650 5.0554248440495764 2.0402545709437505 S
atom 2.5277124220247882 -0.0000000000000000 7.7159084163951688 S
atom 7.5831372660743650 -0.0000000000000000 6.9560834926146082 S
atom 2.5277124220247882 5.0554248440495764 6.9560834926146082 S
atom 7.5831372660743650 5.0554248440495764 7.7159084163951688 S
atom -0.0000000000000000 2.5277124220247882 2.4609496751785911 S
atom 5.0554248440495764 2.5277124220247882 2.4609496751785911 S
atom 0.0000000000000000 7.5831372660743650 2.4609496751785911 S
atom 5.0554248440495764 7.5831372660743650 2.4609496751785911 S
atom -0.0000000000000000 2.5277124220247882 7.2952133121603273 S
atom 5.0554248440495764 2.5277124220247882 7.2952133121603273 S
atom 0.0000000000000000 7.5831372660743650 7.2952133121603273 S
atom 5.0554248440495764 7.5831372660743650 7.2952133121603273 S
atom -0.1548481652201168 0.0000000000000000 9.4747413607060587 Ba
atom 5.2102730092696969 -0.0000000000000000 9.4747413607060587 Ba
atom 0.1548481652201169 5.0554248440495764 9.4747413607060587 Ba
atom 4.9005766788294567 5.0554248440495764 9.4747413607060587 Ba
atom 2.5277124220247882 2.8831368701067790 9.8961537616713606 S
atom 7.5831372660743650 2.1722879739427983 9.8961537616713606 S
atom 2.5277124220247882 7.2277128179923729 9.8961537616713606 S
atom 7.5831372660743650 7.9385617141563563 9.8961537616713606 S
atom 2.5277124220247882 2.3728642568046729 12.9644335101734391 Ba
atom 7.5831372660743650 2.6825605872449043 12.9644335101734391 Ba
atom 2.5277124220247882 7.7379854312944838 12.9644335101734391 Ba
atom 7.5831372660743650 7.4282891008542444 12.9644335101734391 Ba
atom 2.5277124220247882 2.5761175944187173 17.5610933772100495 Ba
atom 7.5831372660743650 2.4793072496308626 17.5610933772100495 Ba
atom 2.5277124220247882 7.5347320936804358 17.5610933772100495 Ba
atom 7.5831372660743650 7.6315424384682933 17.5610933772100495 Ba
atom 5.0431798478915253 5.0554248440495764 15.0303311199113736 Zr
atom 10.1230946842571914 5.0554248440495764 15.0303311199113736 Zr
atom 5.0676698402076283 10.1108496880991527 15.0303311199113736 Zr
atom 10.0986046919411159 10.1108496880991527 15.0303311199113736 Zr
atom 5.0431798478915253 5.0554248440495764 20.0918556345087360 Zr
atom 10.1230946842571914 5.0554248440495764 20.0918556345087360 Zr
atom 5.0676698402076283 10.1108496880991527 20.0918556345087360 Zr
atom 10.0986046919411159 10.1108496880991527 20.0918556345087360 Zr
atom 5.4108492921315614 5.0554248440495764 12.5430211092081425 S
atom 9.7554252400171499 5.0554248440495764 12.5430211092081425 S
atom 4.7000003959675878 10.1108496880991527 12.5430211092081425 S
atom 10.4662741361811467 10.1108496880991527 12.5430211092081425 S
atom 4.6177517176106377 5.0554248440495764 17.5610933772100495 S
atom 10.5485228145380923 5.0554248440495764 17.5610933772100495 S
atom 5.4930979704885230 10.1108496880991527 17.5610933772100495 S
atom 9.6731765616602079 10.1108496880991527 17.5610933772100495 S
atom 5.0554248440495764 2.5277124220247882 15.1439615587191909 S
atom 10.1108496880991527 2.5277124220247882 15.1439615587191909 S
atom 5.0554248440495764 7.5831372660743650 15.1439615587191909 S
atom 10.1108496880991527 7.5831372660743650 15.1439615587191909 S
atom 5.0554248440495764 2.5277124220247882 19.9782251957009116 S
atom 10.1108496880991527 2.5277124220247882 19.9782251957009116 S
atom 5.0554248440495764 7.5831372660743650 19.9782251957009116 S
atom 10.1108496880991527 7.5831372660743650 19.9782251957009116 S
atom 2.5277124220247882 5.0554248440495764 14.7232664544843459 S
atom 7.5831372660743650 5.0554248440495764 15.4830913782648985 S
atom 2.5277124220247882 10.1108496880991527 15.4830913782648985 S
atom 7.5831372660743650 10.1108496880991527 14.7232664544843459 S
atom 2.5277124220247882 5.0554248440495764 20.3989202999357744 S
atom 7.5831372660743650 5.0554248440495764 19.6390953761551721 S
atom 2.5277124220247882 10.1108496880991527 19.6390953761551721 S
atom 7.5831372660743650 10.1108496880991527 20.3989202999357744 S
atom 2.5277124220247882 2.3728642568046729 22.1577532442466634 Ba
atom 7.5831372660743650 2.6825605872449043 22.1577532442466634 Ba
atom 2.5277124220247882 7.7379854312944838 22.1577532442466634 Ba
atom 7.5831372660743650 7.4282891008542444 22.1577532442466634 Ba
atom 5.4108492921315614 5.0554248440495764 22.5791656452119618 S
atom 9.7554252400171517 5.0554248440495764 22.5791656452119618 S
atom 4.7000003959675878 10.1108496880991527 22.5791656452119618 S
atom 10.4662741361811467 10.1108496880991527 22.5791656452119618 S
