#=======================================================
# FHI-aims file: sym_relax_RP_2_58.in
# Created using the Atomic Simulation Environment (ASE)
# Tue Feb 25 12:07:52 2025
#=======================================================
lattice_vector 10.1112162763532059 0.0032320178057623 0.0000000000000000 
lattice_vector 0.0032320178057623 10.1112162763532147 0.0000000000000000 
lattice_vector 0.0000000000000000 0.0000000000000000 25.3664033785568250 
atom -0.0013643154873808 -0.1546069993160236 0.2813822479003989 Ba
atom 5.0569724536639873 0.1562230082189046 0.2813822479003989 Ba
atom 0.0029803243902616 5.2102151374926367 0.2813822479003989 Ba
atom 5.0558598315921000 4.9026171477634639 0.2813822479003989 Ba
atom -0.0013941712232231 0.0482043051757266 4.8781544958763154 Ba
atom 5.0570023093998326 -0.0465882962728456 4.8781544958763154 Ba
atom 0.0030101801261040 5.0074038330008852 4.8781544958763154 Ba
atom 5.0558299758562617 5.1054284522552225 4.8781544958763154 Ba
atom 2.5165014086573452 2.5281563204384447 2.3476278393868064 Zr
atom 7.5963308765987483 2.5306838355439272 2.3476278393868064 Zr
atom 2.5423387473250281 7.5846759648176576 2.3476278393868064 Zr
atom 7.5737255557368206 7.5853804675179299 2.3476278393868064 Zr
atom 2.5165014086573452 2.5281563204384447 7.4086811523658156 Zr
atom 7.5963308765987483 2.5306838355439272 7.4086811523658156 Zr
atom 2.5423387473250281 7.5846759648176576 7.4086811523658156 Zr
atom 7.5737255557368206 7.5853804675179299 7.4086811523658156 Zr
atom 2.8845611682055430 2.5297372179924711 -0.1395072887085395 S
atom 7.2282711170505678 2.5291029379899004 -0.1395072887085395 S
atom 2.1742789877768280 7.5830950672636295 -0.1395072887085395 S
atom 7.9417853152850197 7.5869613650719590 -0.1395072887085395 S
atom 2.0911344333175679 2.5259364834432154 4.8781544958763154 S
atom 8.0216978519385282 2.5329036725391543 4.8781544958763154 S
atom 2.9677057226648009 7.5868958018128883 4.8781544958763154 S
atom 7.1483585803970611 7.5831606305227037 4.8781544958763154 S
atom 2.5278040690883019 0.0008080044514405 2.4585015713789118 S
atom 7.5834122072649084 0.0024240133543215 2.4628516788872670 S
atom 2.5294200779911833 5.0564161426280565 2.4628516788872670 S
atom 7.5850282161677809 5.0580321515309290 2.4585015713789118 S
atom 2.5278040690883019 0.0008080044514405 7.2978074203737151 S
atom 7.5834122072649084 0.0024240133543215 7.2934573128653488 S
atom 2.5294200779911833 5.0564161426280565 7.2934573128653488 S
atom 7.5850282161677809 5.0580321515309290 7.2978074203737151 S
atom 0.0008080044514405 2.5278040690883046 2.0413659477155397 S
atom 5.0564161426280352 2.5294200779911846 2.8014464996451549 S
atom 0.0024240133543214 7.5834122072649146 2.8014464996451549 S
atom 5.0580321515309317 7.5850282161677995 2.0413659477155397 S
atom 0.0008080044514405 2.5278040690883046 7.7149430440370876 S
atom 5.0564161426280352 2.5294200779911846 6.9548624921074751 S
atom 0.0024240133543214 7.5834122072649146 6.9548624921074751 S
atom 5.0580321515309317 7.5850282161677995 7.7149430440370876 S
atom -0.0013643154873808 -0.1546069993160236 9.4749267438522278 Ba
atom 5.0569724536639873 0.1562230082189045 9.4749267438522278 Ba
atom 0.0029803243902616 5.2102151374926367 9.4749267438522278 Ba
atom 5.0558598315921000 4.9026171477634639 9.4749267438522278 Ba
atom 2.8845611682055430 2.5297372179924711 9.8958162804611600 S
atom 7.2282711170505678 2.5291029379899004 9.8958162804611600 S
atom 2.1742789877768280 7.5830950672636295 9.8958162804611600 S
atom 7.9417853152850197 7.5869613650719590 9.8958162804611600 S
atom 2.3740050742237200 2.5272477580523662 12.9645839371788174 Ba
atom 7.7388272110323753 2.5315923979300039 12.9645839371788174 Ba
atom 2.6848350817586493 7.5855845272037410 12.9645839371788174 Ba
atom 7.4312292213032078 7.5844719051318545 12.9645839371788174 Ba
atom 2.5768163787154719 2.5272179023165240 17.5613561851547466 Ba
atom 7.5360159065406229 2.5316222536658475 17.5613561851547466 Ba
atom 2.4820237772668996 7.5856143829395828 17.5613561851547466 Ba
atom 7.6340405257949593 7.5844420493960065 17.5613561851547466 Ba
atom 5.0567683939781931 5.0451134821970962 15.0308295286652331 Zr
atom 10.1132880383573873 5.0709508208647724 15.0308295286652331 Zr
atom 5.0592959090836711 10.1249429501385020 15.0308295286652331 Zr
atom 10.1139925410576712 10.1023376292765743 15.0308295286652331 Zr
atom 5.0567683939781931 5.0451134821970962 20.0918828416442139 Zr
atom 10.1132880383573873 5.0709508208647724 20.0918828416442139 Zr
atom 5.0592959090836711 10.1249429501385020 20.0918828416442139 Zr
atom 10.1139925410576712 10.1023376292765743 20.0918828416442139 Zr
atom 5.0583492915322115 5.4131732417452838 12.5436944005698727 S
atom 10.1117071408033627 4.7028910613165813 12.5436944005698727 S
atom 5.0577150115296456 9.7568831905902922 12.5436944005698727 S
atom 10.1155734386116976 10.4703973888247894 12.5436944005698727 S
atom 5.0545485569829536 4.6197465068573100 17.5613561851547466 S
atom 10.1155078753526251 5.4963177962045515 17.5613561851547466 S
atom 5.0615157460789018 10.5503099254782811 17.5613561851547466 S
atom 10.1117727040624263 9.6769706539367899 17.5613561851547466 S
atom 5.0564161426280352 2.5294200779911846 14.7245676369939691 S
atom 10.1120242808046523 2.5310360868940687 15.4846481889235736 S
atom 5.0580321515309317 7.5850282161677995 15.4846481889235736 S
atom 10.1136402897075328 7.5866442250706783 14.7245676369939691 S
atom 5.0564161426280352 2.5294200779911846 20.3981447333155188 S
atom 10.1120242808046523 2.5310360868940687 19.6380641813858858 S
atom 5.0580321515309317 7.5850282161677995 19.6380641813858858 S
atom 10.1136402897075328 7.5866442250706783 20.3981447333155188 S
atom 2.5294200779911833 5.0564161426280565 15.1417032606573265 S
atom 7.5850282161677809 5.0580321515309290 15.1460533681656866 S
atom 2.5310360868940678 10.1120242808046559 15.1460533681656866 S
atom 7.5866442250706720 10.1136402897075328 15.1417032606573265 S
atom 2.5294200779911833 5.0564161426280565 19.9810091096520992 S
atom 7.5850282161677809 5.0580321515309290 19.9766590021437764 S
atom 2.5310360868940678 10.1120242808046559 19.9766590021437764 S
atom 7.5866442250706720 10.1136402897075328 19.9810091096520992 S
atom 2.3740050742237200 2.5272477580523662 22.1581284331306669 Ba
atom 7.7388272110323753 2.5315923979300039 22.1581284331306669 Ba
atom 2.6848350817586493 7.5855845272037410 22.1581284331306669 Ba
atom 7.4312292213032078 7.5844719051318545 22.1581284331306669 Ba
atom 5.0583492915322115 5.4131732417452838 22.5790179697395672 S
atom 10.1117071408033627 4.7028910613165813 22.5790179697395672 S
atom 5.0577150115296456 9.7568831905902922 22.5790179697395672 S
atom 10.1155734386116976 10.4703973888247894 22.5790179697395672 S
