#=======================================================
# FHI-aims file: sym_relax_RP_3_48.in
# Created using the Atomic Simulation Environment (ASE)
# Tue Feb 25 12:08:23 2025
#=======================================================
lattice_vector 10.0942814385691655 0.0001104341068349 0.0000000000000000 
lattice_vector 0.0001104341068348 10.0942814385691833 0.0000000000000000 
lattice_vector 0.0000000000000000 0.0000000000000000 35.3516918422448754 
atom -0.0003024312051311 -0.1708358093028664 0.2938484458680101 Ba
atom 5.0474431504897153 0.1708910263562838 0.2938484458680101 Ba
atom 0.0003576482585484 5.2179765285874504 0.2938484458680101 Ba
atom 5.0468935051328749 4.8763601270351336 0.2938484458680101 Ba
atom -0.0005734000513592 0.0279833439267353 4.9474657245223090 Ba
atom 5.0477141193359483 -0.0279281268733181 4.9474657245223090 Ba
atom 0.0006286171047765 5.0191573753578504 4.9474657245223090 Ba
atom 5.0466225362866401 5.0751792802647335 4.9474657245223090 Ba
atom 2.5005918111621908 2.5235104262930861 2.3492374116887493 Zr
atom 7.5937448444604012 2.5237407270983310 2.3492374116887493 Zr
atom 2.5466593422292254 7.5708262293294935 2.3492374116887493 Zr
atom 7.5477877475001920 7.5707063626310802 2.3492374116887493 Zr
atom 2.5235979681689980 2.5235979681689988 7.3649358004676824 Zr
atom 7.5707386874535825 2.5236531852224160 7.3649358004676824 Zr
atom 2.5236531852224173 7.5707386874535780 7.3649358004676824 Zr
atom 7.5707939045070036 7.5707939045069983 7.3649358004676824 Zr
atom 2.8125257787229820 2.5237016812858917 -0.1305079762091177 S
atom 7.2818108768996028 2.5235494721055227 -0.1305079762091177 S
atom 2.2347253746684359 7.5706349743366896 -0.1305079762091177 S
atom 7.8597217150609886 7.5708976176238929 -0.1305079762091177 S
atom 2.0578196657153938 2.5235343235413681 4.8872485220965096 S
atom 8.0365169899072040 2.5237168298500485 4.8872485220965096 S
atom 2.9894314876760246 7.5708023320812119 4.8872485220965096 S
atom 7.1050156020533892 7.5707302598793680 4.8872485220965096 S
atom 2.5235703596422896 0.0000276085267086 2.4795045928609802 S
atom 7.5707110789268786 0.0000828255801259 2.4794642376660727 S
atom 2.5236255766957090 5.0471683278112858 2.4794642376660727 S
atom 7.5707662959802935 5.0472235448647060 2.4795045928609802 S
atom 2.5235703596422896 0.0000276085267086 7.3649775524254490 S
atom 7.5707110789268786 0.0000828255801259 7.3648940485099175 S
atom 2.5236255766957090 5.0471683278112858 7.3648940485099175 S
atom 7.5707662959802935 5.0472235448647060 7.3649775524254490 S
atom 0.0000276085267086 2.5235703596422923 2.0446806127441448 S
atom 5.0471683278112938 2.5236255766957081 2.7834304129944996 S
atom 0.0000828255801259 7.5707110789268750 2.7834304129944996 S
atom 5.0472235448647158 7.5707662959802935 2.0446806127441448 S
atom 0.0000276085267086 2.5235703596422923 7.8164703390814028 S
atom 5.0471683278112938 2.5236255766957081 6.9134012618539558 S
atom 0.0000828255801259 7.5707110789268750 6.9134012618539558 S
atom 5.0472235448647158 7.5707662959802935 7.8164703390814028 S
atom 0.0005734000513592 -0.0279833439267353 9.7824058764130530 Ba
atom 5.0465673192332243 0.0280385609801526 9.7824058764130530 Ba
atom -0.0005181829979419 5.0751240632113124 9.7824058764130530 Ba
atom 5.0477693363893579 5.0192125924112689 9.7824058764130530 Ba
atom 0.0003024312051310 0.1708358093028665 14.4360231550673443 Ba
atom 5.0468382880794573 -0.1707805922494493 14.4360231550673443 Ba
atom -0.0002472141517139 4.8763049099817168 14.4360231550673443 Ba
atom 5.0474983675431284 5.2180317456408671 14.4360231550673443 Ba
atom 2.5466041251758096 2.5236855100449120 12.3806341892466136 Zr
atom 7.5477325304467824 2.5235656433465028 12.3806341892466136 Zr
atom 2.5006470282156084 7.5706511455776644 12.3806341892466136 Zr
atom 7.5938000615138144 7.5708814463829173 12.3806341892466136 Zr
atom 2.9893762706226066 2.5236616127966349 9.8426230788388427 S
atom 7.1049603849999734 2.5235895405947835 9.8426230788388427 S
atom 2.0578748827688087 7.5706750428259584 9.8426230788388427 S
atom 8.0365722069606189 7.5708575491346304 9.8426230788388427 S
atom 2.2346701576150214 2.5234942550521064 14.8603795771444691 S
atom 7.8596664980075648 2.5237568983393124 14.8603795771444691 S
atom 2.8125809957763996 7.5708424005704735 14.8603795771444691 S
atom 7.2818660939530151 7.5706901913901063 14.8603795771444691 S
atom 2.5235703596422896 0.0000276085267086 12.2504073632692805 S
atom 7.5707110789268786 0.0000828255801259 12.2503670080743881 S
atom 2.5236255766957090 5.0471683278112858 12.2503670080743881 S
atom 7.5707662959802935 5.0472235448647060 12.2504073632692805 S
atom 0.0000276085267086 2.5235703596422923 11.9464411879408487 S
atom 5.0471683278112938 2.5236255766957081 12.6851909881912075 S
atom 0.0000828255801259 7.5707110789268750 12.6851909881912075 S
atom 5.0472235448647158 7.5707662959802935 11.9464411879408487 S
atom 2.3527621588661316 2.5232955369638663 17.9696943669904492 Ba
atom 7.7415744967564564 2.5239556164275498 17.9696943669904492 Ba
atom 2.6944889945252872 7.5710411186587097 17.9696943669904492 Ba
atom 7.3999580952041368 7.5704914733018764 17.9696943669904492 Ba
atom 2.5515813120957382 2.5230245681176404 22.6233116456447405 Ba
atom 7.5427553435268546 2.5242265852737771 22.6233116456447405 Ba
atom 2.4956698412956810 7.5713120875049409 22.6233116456447405 Ba
atom 7.5987772484337333 7.5702205044556354 22.6233116456447405 Ba
atom 5.0471083944620840 5.0241897793311923 20.0250833328111817 Zr
atom 10.0944241974984976 5.0702573103982234 20.0250833328111817 Zr
atom 5.0473386952673325 10.1173428126293867 20.0250833328111817 Zr
atom 10.0943043308000959 10.0713857156691926 20.0250833328111817 Zr
atom 5.0471959363379959 5.0471959363379977 25.0407817215901076 Zr
atom 10.0943366556225875 5.0472511533914162 25.0407817215901076 Zr
atom 5.0472511533914179 10.0943366556225715 25.0407817215901076 Zr
atom 10.0943918726759918 10.0943918726759954 25.0407817215901076 Zr
atom 5.0472996494548914 5.3361237468919827 17.5453379449133209 S
atom 10.0942329425057054 4.7583233428374339 17.5453379449133209 S
atom 5.0471474402745260 9.8054088450685981 17.5453379449133209 S
atom 10.0944955857928953 10.3833196832299866 17.5453379449133209 S
atom 5.0471322917103745 4.5814176338843922 22.5630944432189544 S
atom 10.0944003002502161 5.5130294558450288 22.5630944432189544 S
atom 5.0473147980190571 10.5601149580761966 22.5630944432189544 S
atom 10.0943282280483722 9.6286135702223916 22.5630944432189544 S
atom 5.0471683278112938 2.5236255766957081 19.7205265338665860 S
atom 10.0943090470958836 2.5236807937491257 20.4592763341169537 S
atom 5.0472235448647158 7.5707662959802935 20.4592763341169537 S
atom 10.0943642641492897 7.5708215130337067 19.7205265338665860 S
atom 5.0471683278112938 2.5236255766957081 25.4923162602038360 S
atom 10.0943090470958836 2.5236807937491257 24.5892471829763934 S
atom 5.0472235448647158 7.5707662959802935 24.5892471829763934 S
atom 10.0943642641492897 7.5708215130337067 25.4923162602038360 S
atom 2.5236255766957090 5.0471683278112858 20.1553505139834250 S
atom 7.5707662959802935 5.0472235448647060 20.1553101587885415 S
atom 2.5236807937491292 10.0943090470958712 20.1553101587885415 S
atom 7.5708215130337173 10.0943642641492879 20.1553505139834250 S
atom 2.5236255766957090 5.0471683278112858 25.0408234735478636 S
atom 7.5707662959802935 5.0472235448647060 25.0407399696323409 S
atom 2.5236807937491292 10.0943090470958712 25.0407399696323409 S
atom 7.5708215130337173 10.0943642641492879 25.0408234735478636 S
atom 2.4956146242422639 2.5241713682203581 27.4582517975354925 Ba
atom 7.5987220313803183 2.5230797851710567 27.4582517975354925 Ba
atom 2.5516365291491576 7.5701652874022205 27.4582517975354925 Ba
atom 7.5428105605802767 7.5713673045583612 27.4582517975354925 Ba
atom 2.6944337774718701 2.5239003993741296 32.1118690761897838 Ba
atom 7.3999028781507192 2.5233507540172848 32.1118690761897838 Ba
atom 2.3528173759195505 7.5704362562484526 32.1118690761897838 Ba
atom 7.7416297138098704 7.5710963357121290 32.1118690761897838 Ba
atom 5.0472834782139149 5.0702020933448049 30.0564801103690336 Zr
atom 10.0942491137466828 5.0242449963846081 30.0564801103690336 Zr
atom 5.0471636115154999 10.0713304986157777 30.0564801103690336 Zr
atom 10.0944794145519019 10.1173980296828017 30.0564801103690336 Zr
atom 5.0472595809656342 5.5129742387916103 27.5184689999612715 S
atom 10.0942730109949519 4.5814728509378027 27.5184689999612715 S
atom 5.0471875087637912 9.6285583531689642 27.5184689999612715 S
atom 10.0944555173036274 10.5601701751295973 27.5184689999612715 S
atom 5.0470922232211040 4.7582681257840163 32.5362254982668659 S
atom 10.0944403687394821 5.3361789639454011 32.5362254982668659 S
atom 5.0473548665083126 10.3832644661765663 32.5362254982668659 S
atom 10.0942881595591167 9.8054640621220202 32.5362254982668659 S
atom 5.0471683278112938 2.5236255766957081 29.6222871090633006 S
atom 10.0943090470958836 2.5236807937491257 30.3610369093136434 S
atom 5.0472235448647158 7.5707662959802935 30.3610369093136434 S
atom 10.0943642641492897 7.5708215130337067 29.6222871090633006 S
atom 2.5236255766957090 5.0471683278112858 29.9262532843917164 S
atom 7.5707662959802935 5.0472235448647060 29.9262129291968186 S
atom 2.5236807937491292 10.0943090470958712 29.9262129291968186 S
atom 7.5708215130337173 10.0943642641492879 29.9262532843917164 S
