#=======================================================
# FHI-aims file: sym_relax_RP_2_54.in
# Created using the Atomic Simulation Environment (ASE)
# Tue Feb 25 12:07:18 2025
#=======================================================
lattice_vector 10.0817157112499771 0.1096274674576214 -0.0000000000000000 
lattice_vector 0.1096274674576212 10.0817157112499771 0.0000000000000000 
lattice_vector -0.0000000000000000 0.0000000000000000 25.5256366366436502 
atom -0.0906901813861385 -0.1074787223843861 0.2829628195250996 Ba
atom 5.1483365780093706 0.1455039151149490 0.2829628195250996 Ba
atom 0.1622924561131966 5.1315480370111342 0.2829628195250997 Ba
atom 5.0049814079676498 4.9881928669694178 0.2829628195250996 Ba
atom 0.0283033181570501 0.0283033181570501 4.9087762762776226 Ba
atom 5.0125545374679401 0.0265104155717604 4.9087762762776226 Ba
atom 0.0265104155717604 5.0125545374679410 4.9087762762776226 Ba
atom 5.1239749075108438 5.1239749075108492 4.9087762762776226 Ba
atom 2.5434636637571666 2.5344343983834778 2.3655744992160086 Zr
atom 7.6020950465953012 2.6070216593254445 2.3655744992160086 Zr
atom 2.6160509246991293 7.5930657812216227 2.3655744992160086 Zr
atom 7.6391352531109602 7.6301059877372808 2.3655744992160086 Zr
atom 2.5344343983834743 2.5434636637571666 7.4519780533392410 Zr
atom 7.5930657812216156 2.6160509246991333 7.4519780533392410 Zr
atom 2.6070216593254445 7.6020950465953119 7.4519780533392410 Zr
atom 7.6301059877372790 7.6391352531109655 7.4519780533392410 Zr
atom 2.7332280232308426 2.7253685593451449 -0.1261215769449926 S
atom 7.4111608856336408 2.4172572998517690 -0.1261215769449926 S
atom 2.4251167637374640 7.4033014217479467 -0.1261215769449926 S
atom 7.8288996125846415 7.8210401486989465 -0.1261215769449926 S
atom 2.2968336331260448 2.2968336331260453 4.9087762762776226 S
atom 7.8396958118527413 2.8536516899565680 4.9087762762776226 S
atom 2.8536516899565658 7.8396958118527493 4.9087762762776226 S
atom 7.3925052224798380 7.3925052224798407 4.9087762762776226 S
atom 2.5330417117280315 0.0236449398778148 2.2363868089035659 S
atom 7.5566374976304962 0.0787978170476056 2.6820578993092079 S
atom 2.5705933757343202 5.0648419389437871 2.6820578993092079 S
atom 7.6287133010818318 5.1193165292316225 2.2363868089035659 S
atom 2.5078161438969508 0.0311687938509956 7.5811657436516944 S
atom 7.5659360692444597 0.0856433841388259 7.1354946532460417 S
atom 2.5798919473482829 5.0716875060350048 7.1354946532460417 S
atom 7.6034877332507458 5.1268403832047937 7.5811657436516944 S
atom 0.0311687938509952 2.5078161438969540 2.2363868089035659 S
atom 5.0716875060349933 2.5798919473482878 2.6820578993092079 S
atom 0.0856433841388253 7.5659360692444633 2.6820578993092079 S
atom 5.1268403832047893 7.6034877332507520 2.2363868089035659 S
atom 0.0236449398778152 2.5330417117280355 7.5811657436516944 S
atom 5.0648419389437880 2.5705933757343220 7.1354946532460417 S
atom 0.0787978170476061 7.5566374976305069 7.1354946532460417 S
atom 5.1193165292316181 7.6287133010818406 7.5811657436516944 S
atom -0.1074787223843860 -0.0906901813861387 9.5345897330301650 Ba
atom 5.1315480370111306 0.1622924561131968 9.5345897330301650 Ba
atom 0.1455039151149488 5.1483365780093733 9.5345897330301650 Ba
atom 4.9881928669694160 5.0049814079676578 9.5345897330301650 Ba
atom 2.7253685593451431 2.7332280232308421 9.9436741295002431 S
atom 7.4033014217479396 2.4251167637374653 9.9436741295002431 S
atom 2.4172572998517659 7.4111608856336471 9.9436741295002431 S
atom 7.8210401486989412 7.8288996125846504 9.9436741295002431 S
atom 2.6385259760630366 2.6553145170612873 13.0457811378469177 Ba
atom 7.4812149279174980 2.5119593470195722 13.0457811378469177 Ba
atom 2.4951708060213225 7.4980034689157513 13.0457811378469177 Ba
atom 7.7341975654168307 7.7509861064150867 13.0457811378469177 Ba
atom 2.5195324765198510 2.5195324765198515 17.6715945945994584 Ba
atom 7.6169969684589320 2.6309528465627587 17.6715945945994584 Ba
atom 2.6309528465627570 7.6169969684589356 17.6715945945994584 Ba
atom 7.6152040658736420 7.6152040658736526 17.6715945945994584 Ba
atom 5.1000437202735300 5.1090729856472175 15.1283928175378506 Zr
atom 10.1231280486853432 5.1461131921628782 15.1283928175378506 Zr
atom 5.1370839267891855 10.1321573140590679 15.1283928175378506 Zr
atom 10.1957153096273245 10.2047445750010350 15.1283928175378506 Zr
atom 5.1090729856472201 5.1000437202735363 20.2147963716610946 Zr
atom 10.1321573140590573 5.1370839267891935 20.2147963716610946 Zr
atom 5.1461131921628809 10.1231280486853628 20.2147963716610946 Zr
atom 10.2047445750010226 10.1957153096273316 20.2147963716610946 Zr
atom 4.9102793607998603 4.9181388246855544 12.6366967413768254 S
atom 10.3140622096470267 5.3358775516365542 12.6366967413768254 S
atom 5.3280180877508476 10.3219216735327368 12.6366967413768254 S
atom 10.0059509501536450 10.0138104140393569 12.6366967413768254 S
atom 5.3466737509046549 5.3466737509046611 17.6715945945994584 S
atom 9.8855272834279262 4.8994831615317542 17.6715945945994584 S
atom 4.8994831615317596 9.8855272834279351 17.6715945945994584 S
atom 10.4423453402584432 10.4423453402584627 17.6715945945994584 S
atom 5.0729140082963706 2.5786654450869180 15.4448762176310410 S
atom 10.0965097941988375 2.6338183222567069 14.9992051272253928 S
atom 5.1104656723026549 7.6198624441528873 14.9992051272253928 S
atom 10.1685855976501767 7.6743370344407138 15.4448762176310410 S
atom 5.0636154366824062 2.5718198779956958 19.8983129715678615 S
atom 10.1217353620299075 2.6262944682835303 20.3439840619735257 S
atom 5.1356912401337480 7.6123385901797107 20.3439840619735257 S
atom 10.1592870260362123 7.6674914673494987 19.8983129715678615 S
atom 2.5718198779956953 5.0636154366824142 15.4448762176310410 S
atom 7.6123385901796965 5.1356912401337489 14.9992051272253928 S
atom 2.6262944682835232 10.1217353620299271 14.9992051272253928 S
atom 7.6674914673494916 10.1592870260362069 15.4448762176310410 S
atom 2.5786654450869131 5.0729140082963742 19.8983129715678615 S
atom 7.6198624441528766 5.1104656723026620 20.3439840619735257 S
atom 2.6338183222567029 10.0965097941988446 20.3439840619735257 S
atom 7.6743370344407023 10.1685855976501820 19.8983129715678615 S
atom 2.6553145170612868 2.6385259760630362 22.2974080513519652 Ba
atom 7.4980034689157478 2.4951708060213251 22.2974080513519652 Ba
atom 2.5119593470195674 7.4812149279175078 22.2974080513519652 Ba
atom 7.7509861064150760 7.7341975654168404 22.2974080513519652 Ba
atom 4.9181388246855482 4.9102793607998594 22.7064924478220505 S
atom 10.3219216735327404 5.3280180877508556 22.7064924478220505 S
atom 5.3358775516365506 10.3140622096470373 22.7064924478220505 S
atom 10.0138104140393356 10.0059509501536574 22.7064924478220505 S
