#=======================================================
# FHI-aims file: sym_relax_RP_1_61.in
# Created using the Atomic Simulation Environment (ASE)
# Tue Feb 25 12:06:50 2025
#=======================================================
lattice_vector 10.0858332492610643 0.2044765239213476 0.0000000000000000 
lattice_vector 0.2044765239213474 10.0858332492610643 0.0000000000000000 
lattice_vector 0.0000000000000000 0.0000000000000000 15.5513240591988087 
atom -0.1072123770530230 -0.1072170444824954 0.2366426701519010 Ba
atom 5.1501336691130222 0.2094506390136963 0.2366426701519010 Ba
atom 0.2094553064431690 5.1501290016835535 0.2366426701519010 Ba
atom 5.0379425095381869 5.0379378421087084 0.2366426701519010 Ba
atom 0.1072123770530230 0.1072170444824954 4.6231460983477310 Ba
atom 4.9356995801480359 -0.0049741150923493 4.6231460983477310 Ba
atom -0.0049787825218220 4.9357042475775081 4.6231460983477310 Ba
atom 5.2523672636442278 5.2523719310737027 4.6231460983477310 Ba
atom 2.5725774432956054 2.5725774432956032 2.4298943842498133 Zr
atom 7.6154940679261349 2.6748157052562758 2.4298943842498133 Zr
atom 2.6748157052562762 7.6154940679261331 2.4298943842498133 Zr
atom 7.7177323298868101 7.7177323298868057 2.4298943842498133 Zr
atom 2.7865467344208290 2.7865494358716867 -0.1074772757772375 S
atom 7.4015220753500506 2.4608464141310487 -0.1074772757772375 S
atom 2.4608437126801945 7.4015247768009100 -0.1074772757772375 S
atom 7.9317016210120403 7.9317043224628865 -0.1074772757772375 S
atom 2.3586081521703766 2.3586054507195158 4.9672660442768661 S
atom 7.8294660605022202 2.8887849963815015 4.9672660442768661 S
atom 2.8887876978323623 7.8294633590513527 4.9672660442768661 S
atom 7.5037630387615852 7.5037603373107222 4.9672660442768661 S
atom 2.5214668447386357 0.0511185183966809 2.2209494738877966 S
atom 7.5643664045224304 0.1533580055246654 2.6388392946118335 S
atom 2.6236880418525730 5.0940363681945184 2.6388392946118335 S
atom 7.6666217313298555 5.1962734049878847 2.2209494738877966 S
atom 0.0511197435639926 2.5214497798918947 2.2209494738877966 S
atom 5.0940351430272193 2.6237051066993060 2.6388392946118335 S
atom 0.1533567803573553 7.5643834693691669 2.6388392946118335 S
atom 5.1962746301551910 7.6666046664830905 2.2209494738877966 S
atom 2.6797898203486281 2.6797944877780990 8.0123046997513043 Ba
atom 7.5082770234436413 2.5676033282032504 8.0123046997513061 Ba
atom 2.5675986607737808 7.5082816908731091 8.0123046997513061 Ba
atom 7.8249447069398315 7.8249493743692984 8.0123046997513043 Ba
atom 2.4653650662425837 2.4653603988131074 12.3988081279471380 Ba
atom 7.7227111124086374 2.7820280823092975 12.3988081279471363 Ba
atom 2.7820327497387729 7.7227064449791563 12.3988081279471363 Ba
atom 7.6105199528337870 7.6105152854043059 12.3988081279471380 Ba
atom 5.1451548865912109 5.1451548865912065 10.2055564138492247 Zr
atom 10.1880715112217342 5.2473931485518719 10.2055564138492247 Zr
atom 5.2473931485518781 10.1880715112217288 10.2055564138492247 Zr
atom 10.2903097731824218 10.2903097731824129 10.2055564138492247 Zr
atom 4.9311855954659842 4.9311828940151203 7.6681847538221710 S
atom 10.4020435037978309 5.4613624396771003 7.6681847538221710 S
atom 5.4613651411279660 10.4020408023469564 7.6681847538221710 S
atom 10.0763404820571889 10.0763377806063215 7.6681847538221710 S
atom 5.3591241777164305 5.3591268791672864 12.7429280738762802 S
atom 9.9740995186456587 5.0334238574266470 12.7429280738762802 S
atom 5.0334211559757902 9.9741022200965084 12.7429280738762802 S
atom 10.5042790643076351 10.5042817657584884 12.7429280738762802 S
atom 5.0940442880342420 2.6236959616922815 10.4145013242112459 S
atom 10.1369438478180278 2.7259354488202683 9.9966115034871983 S
atom 5.1962654851481638 7.6666138114901239 9.9966115034871983 S
atom 10.2391991746254476 7.7688508482834919 10.4145013242112459 S
atom 2.6236971868595971 5.0940272231874895 10.4145013242112459 S
atom 7.6666125863228149 5.1962825499949146 9.9966115034871983 S
atom 2.7259342236529553 10.1369609126647600 9.9966115034871983 S
atom 7.7688520734507982 10.2391821097787012 10.4145013242112459 S
