#=======================================================
# FHI-aims file: sym_relax_RP_3_56.in
# Created using the Atomic Simulation Environment (ASE)
# Tue Feb 25 12:08:46 2025
#=======================================================
lattice_vector 10.0477773078894739 0.0450085753132312 0.0000000000000000 
lattice_vector 0.0450085753132311 10.0477773078894703 -0.0000000000000000 
lattice_vector 0.0000000000000000 -0.0000000000000000 35.6255203943366396 
atom -0.0205822429625539 -0.1300269938239716 0.2580830641082419 Ba
atom 5.1539156477687076 0.0430865306191689 0.2580830641082419 Ba
atom 0.1525312814805867 5.0444708969072831 0.2580830641082419 Ba
atom 5.0258106986388027 4.9163659477773711 0.2580830641082419 Ba
atom -0.2011118852544575 0.1737549337031454 4.9627148956019056 Ba
atom 4.8501337202415948 0.2236161729110726 4.9627148956019056 Ba
atom -0.1512506460465303 5.2250005391991827 4.9627148956019056 Ba
atom 4.8452810563468978 5.2201478753044865 4.9627148956019056 Ba
atom 2.4936958105752725 2.5347698812806381 2.3724505448200968 Zr
atom 7.5355117142654446 2.5752014186826915 2.3724505448200968 Zr
atom 2.5341273479773267 7.5765857849707983 2.3724505448200968 Zr
atom 7.5400887521766311 7.5811628228819847 2.3724505448200968 Zr
atom 2.5231964708006775 2.5231964708006700 7.4219834154868032 Zr
atom 7.5470851247454132 2.5457007584572864 7.4219834154868032 Zr
atom 2.5457007584572922 7.5470851247454016 7.4219834154868032 Zr
atom 7.5695894124020260 7.5695894124020109 7.4219834154868032 Zr
atom 2.6488788710109561 2.7546742741851178 -0.1220334066465643 S
atom 7.3156073213609636 2.4200183582470078 -0.1220334066465643 S
atom 2.3142229550728484 7.4214027245351231 -0.1220334066465643 S
atom 7.6952718126123090 7.8010672157864569 -0.1220334066465643 S
atom 2.2573557452780024 2.2242812368313691 4.9266980897182497 S
atom 7.8460003587147105 2.8115414839799611 4.9266980897182497 S
atom 2.8446159924265966 7.8129258502680754 4.9266980897182497 S
atom 7.3037486868793531 7.2706741784327180 4.9266980897182497 S
atom 2.6707452423413081 0.0335747590289713 2.2213126797343969 S
atom 7.3201218548619638 0.0596862288287070 2.7161848624359592 S
atom 2.3187374885738423 5.0610705951168251 2.7161848624359592 S
atom 7.7171381839426614 5.0799677006303190 2.2213126797343969 S
atom 2.8735877924691979 0.0079837575001810 7.7169816876289774 S
atom 7.1741895154202764 0.0370248178130498 7.1269851433446183 S
atom 2.1728051491321567 5.0384091841011589 7.1269851433446183 S
atom 7.9199807340705481 5.0543766991015247 7.7169816876289774 S
atom -0.0110704713723555 2.3531434116034218 2.2213126797343969 S
atom 5.0092110004292563 2.7501597406841203 2.7161848624359592 S
atom 0.0078266341411396 7.7515441069722337 2.7161848624359592 S
atom 5.0353224702290005 7.3995363532047627 2.2213126797343969 S
atom 0.0145205301564352 2.1503008614755394 7.7169816876289774 S
atom 5.0318724114449251 2.8960920801258045 7.1269851433446183 S
atom 0.0304880451567959 7.8974764464139176 7.1269851433446183 S
atom 5.0609134717577895 7.1966938030768803 7.7169816876289774 S
atom 0.2011118852544575 -0.1737549337031454 9.8812519353716777 Ba
atom 5.1976435876478790 -0.1786075975978419 9.8812519353716777 Ba
atom 0.1962592213597609 4.8227767686902734 9.8812519353716777 Ba
atom 5.2475048268558062 4.8726380078981970 9.8812519353716777 Ba
atom 0.0205822429625537 0.1300269938239718 14.5858837668653631 Ba
atom 4.8938616601207698 0.0019220446940617 14.5858837668653631 Ba
atom -0.1075227061673561 5.0033064109821757 14.5858837668653631 Ba
atom 5.0669751845639066 5.1764199354253071 14.5858837668653631 Ba
atom 2.5526971310260818 2.5116230603207024 12.4715162861535003 Zr
atom 7.5586585352253790 2.5162000982318822 12.4715162861535003 Zr
atom 2.5572741689372549 7.5175844645199970 12.4715162861535003 Zr
atom 7.5990900726274369 7.5580160019220459 12.4715162861535003 Zr
atom 2.7890371963233513 2.8221117047699709 9.9172687412553380 S
atom 7.2481698907761176 2.2798600329346108 9.9172687412553380 S
atom 2.2467855244879931 7.2812443992227225 9.9172687412553380 S
atom 7.8354301379247051 7.8685046463713064 9.9172687412553380 S
atom 2.3975140705903959 2.2917186674162258 14.9660002376201557 S
atom 7.7785629281298636 2.6713831586675667 14.9660002376201557 S
atom 2.7771785618417373 7.6727675249556819 14.9660002376201557 S
atom 7.4439070121917474 7.3381116090175666 14.9660002376201557 S
atom 2.7276554530275092 -0.0146776535154762 12.1277819685376631 S
atom 7.3770320655481596 0.0114338162842604 12.6226541512392174 S
atom 2.3756476992600479 5.0128181825723770 12.6226541512392174 S
atom 7.7740483946288688 5.0317152880858620 12.1277819685376631 S
atom 0.0371819411720912 2.2962332009172184 12.1277819685376631 S
atom 5.0574634129737106 2.6932495299979178 12.6226541512392174 S
atom 0.0560790466855861 7.6946338962860361 12.6226541512392174 S
atom 5.0835748827734450 7.3426261425185642 12.1277819685376631 S
atom 2.3931694769767056 2.5026142278381180 18.0708432612765826 Ba
atom 7.5676673677079620 2.6757277522812601 18.0708432612765826 Ba
atom 2.5662830014198432 7.6771121185693643 18.0708432612765826 Ba
atom 7.4395624185780571 7.5490071694394594 18.0708432612765826 Ba
atom 2.6969514045038188 2.3220845855462122 22.7754750927702467 Ba
atom 7.7481970099998643 2.3719458247541407 22.7754750927702467 Ba
atom 2.7468126437117490 7.3733301910422551 22.7754750927702467 Ba
atom 7.7433443461051690 7.3684775271475598 22.7754750927702467 Ba
atom 5.0579663520813236 5.0168922813759416 20.1852107419884277 Zr
atom 10.0997822557715118 5.0573238187779879 20.1852107419884277 Zr
atom 5.0983978894833673 10.0587081850661075 20.1852107419884277 Zr
atom 10.1043592936826663 10.0632852229772851 20.1852107419884277 Zr
atom 5.0463929416013551 5.0463929416013400 25.2347436126551337 Zr
atom 10.0702815955460974 5.0688972292579599 25.2347436126551337 Zr
atom 5.0688972292579724 10.0702815955460654 25.2347436126551337 Zr
atom 10.0927858832027102 10.0927858832026800 25.2347436126551337 Zr
atom 5.2778707449858011 5.1720753418116239 17.6907267905217509 S
atom 9.9445991953357957 4.8374194258735130 17.6907267905217509 S
atom 4.9432148290476796 9.8388037921616149 17.6907267905217509 S
atom 10.3242636865871447 10.2184682834129745 17.6907267905217509 S
atom 4.7474777076320542 4.7805522160786662 22.7394582868865847 S
atom 10.3361223210687641 5.3678124632272546 22.7394582868865847 S
atom 5.3347379547806426 10.3691968295153725 22.7394582868865847 S
atom 9.7938706492334155 9.8269451576800080 22.7394582868865847 S
atom 4.8763398824041033 2.5121259994283154 20.0340728769027336 S
atom 10.2747405777729117 2.5310231049418093 20.5289450596042791 S
atom 5.2733562114848009 7.5324074712299183 20.5289450596042791 S
atom 9.9227328240054646 7.5585189410296545 20.0340728769027336 S
atom 4.6734973322762094 2.5377170009571053 25.5297418847973105 S
atom 10.4206729172146062 2.5536845159574697 24.9397453405129426 S
atom 5.4192885509264830 7.5550688822455774 24.9397453405129426 S
atom 9.7198902738775566 7.5841099425584426 25.5297418847973105 S
atom 2.5567712298296468 5.1939417131419736 20.0340728769027336 S
atom 7.5842670659175111 4.8419339593745017 20.5289450596042791 S
atom 2.5828826996293826 9.8433183256626329 20.5289450596042791 S
atom 7.6031641714310023 10.2403346547433163 20.0340728769027336 S
atom 2.5311802283008591 5.3967842632698595 25.5297418847973105 S
atom 7.5616056549018458 4.6960016199328276 24.9397453405129426 S
atom 2.5602212886137270 9.6973859862209437 24.9397453405129426 S
atom 7.5775731699022062 10.4431772048711995 25.5297418847973105 S
atom 2.3494415370975292 2.7243083560551282 27.6940121325400028 Ba
atom 7.3459732394909567 2.7194556921604325 27.6940121325400028 Ba
atom 2.3445888732028357 7.7208400584485384 27.6940121325400028 Ba
atom 7.3958344786988901 7.7707012976564718 27.6940121325400028 Ba
atom 2.6532234646246455 2.5437787137632220 32.3986439640337736 Ba
atom 7.5265028817828608 2.4156737646333153 32.3986439640337736 Ba
atom 2.5251185154947393 7.4170581309214274 32.3986439640337736 Ba
atom 7.6996164062259966 7.5901716553645651 32.3986439640337736 Ba
atom 5.0348195311213821 5.0758936018267429 30.2842764833218467 Zr
atom 10.0407809353206847 5.0804706397379267 30.2842764833218467 Zr
atom 5.0393965690325677 10.0818550060260250 30.2842764833218467 Zr
atom 10.0812124727227417 10.1222865434281033 30.2842764833218467 Zr
atom 5.3453081755706462 5.3122336671240244 27.7300289384236720 S
atom 9.8044408700234129 4.7699819952886617 27.7300289384236720 S
atom 4.8030565037352915 9.7713663615767778 27.7300289384236720 S
atom 10.3917011171720084 10.3586266087253609 27.7300289384236720 S
atom 4.8149151382169038 4.9207105413910615 32.7787604347884738 S
atom 10.1959639957563883 5.3003750326424015 32.7787604347884738 S
atom 5.1945796294682518 10.3017593989305141 32.7787604347884738 S
atom 9.8613080798182651 9.9671034829923890 32.7787604347884738 S
atom 4.8194296717178977 2.5603784119727639 29.9405421657059634 S
atom 10.2178303670867212 2.5792755174862583 30.4354143484075372 S
atom 5.2164460007986015 7.5806598837743771 30.4354143484075372 S
atom 9.8658226133192706 7.6067713535741071 29.9405421657059634 S
atom 2.5085188172852013 5.2508519238281766 29.9405421657059634 S
atom 7.5360146533730532 4.8988441700607073 30.4354143484075372 S
atom 2.5346302870849375 9.9002285363488269 30.4354143484075372 S
atom 7.5549117588865515 10.2972448654294997 29.9405421657059634 S
