#=======================================================
# FHI-aims file: sym_relax_RP_2_62.in
# Created using the Atomic Simulation Environment (ASE)
# Tue Feb 25 12:07:40 2025
#=======================================================
lattice_vector 10.0911662102624433 0.1113646942194513 -0.0000000000000000 
lattice_vector 0.1113646942194512 10.0911662102624415 0.0000000000000000 
lattice_vector 0.0000000000000000 0.0000000000000000 25.4166049858594185 
atom -0.0686438181775112 -0.1122902241723831 0.2817438615552778 Ba
atom 5.1578733293035981 0.1243261652872366 0.2817438615552778 Ba
atom 0.1679725712821089 5.1142269233087250 0.2817438615552778 Ba
atom 5.0326216340634318 4.9889752280685560 0.2817438615552778 Ba
atom 0.0304254592898206 0.0149789861931535 4.8878086511268179 Ba
atom 5.0306041189380597 0.0252568878199052 4.8878086511268179 Ba
atom 0.0407033609165719 5.0151576458413913 4.8878086511268179 Ba
atom 5.1316909115307627 5.1162444384340997 4.8878086511268179 Ba
atom 2.5634782509967211 2.5295309796745804 2.3472692064383214 Zr
atom 7.6173175776975697 2.5934695483539412 2.3472692064383214 Zr
atom 2.6274168196760836 7.5833703063754383 2.3472692064383214 Zr
atom 7.6647437032376642 7.6307964319155257 2.3472692064383214 Zr
atom 2.5634782509967211 2.5295309796745804 7.4283480958152968 Zr
atom 7.6173175776975697 2.5934695483539412 7.4283480958152968 Zr
atom 2.6274168196760828 7.5833703063754383 7.4283480958152968 Zr
atom 7.6647437032376642 7.6307964319155257 7.4283480958152968 Zr
atom 2.7946954382671687 2.7680807879600304 -0.1432730539784744 S
atom 7.3787677694121196 2.3622523610834993 -0.1432730539784744 S
atom 2.3888670113906358 7.3521531191049849 -0.1432730539784744 S
atom 7.8959608905081078 7.8693462402009704 -0.1432730539784744 S
atom 2.3093482216939956 2.2600720632788009 4.8878086511268179 S
atom 7.8867764940933558 2.8475995776566685 4.8878086511268179 S
atom 2.8968757360718640 7.8375003356781594 4.8878086511268179 S
atom 7.4106136739349378 7.3613375155197405 4.8878086511268179 S
atom 2.5575078947321805 0.0084746785405353 2.1999249870131976 S
atom 7.5777089049313622 0.0644209062279014 2.6910962658831465 S
atom 2.5878081469098730 5.0543216642493860 2.6910962658831465 S
atom 7.6587733469731178 5.1097401307814776 2.1999249870131976 S
atom 2.5575078947321805 0.0084746785405354 7.5756923152404259 S
atom 7.5777089049313622 0.0644209062279014 7.0845210363704778 S
atom 2.5878081469098730 5.0543216642493860 7.0845210363704778 S
atom 7.6587733469731178 5.1097401307814776 7.5756923152404259 S
atom 0.0472076685691903 2.4880752103990349 2.1999249870131976 S
atom 5.0925268931227636 2.5691396524407937 2.6910962658831465 S
atom 0.1026261351012754 7.5590404104622877 2.6910962658831465 S
atom 5.1484731208101291 7.5893406626399793 2.1999249870131976 S
atom 0.0472076685691903 2.4880752103990349 7.5756923152404259 S
atom 5.0925268931227636 2.5691396524407937 7.0845210363704778 S
atom 0.1026261351012754 7.5590404104622877 7.0845210363704778 S
atom 5.1484731208101291 7.5893406626399793 7.5756923152404259 S
atom -0.0686438181775112 -0.1122902241723831 9.4938734406983496 Ba
atom 5.1578733293035981 0.1243261652872366 9.4938734406983496 Ba
atom 0.1679725712821089 5.1142269233087250 9.4938734406983496 Ba
atom 5.0326216340634318 4.9889752280685560 9.4938734406983496 Ba
atom 2.7946954382671687 2.7680807879600304 9.9188903562320956 S
atom 7.3787677694121196 2.3622523610834993 9.9188903562320956 S
atom 2.3888670113906358 7.3521531191049849 9.9188903562320956 S
atom 7.8959608905081078 7.8693462402009704 9.9188903562320956 S
atom 2.4383425019480849 2.4819889079429585 12.9900463544849796 Ba
atom 7.6648596494291974 2.7186052974025792 12.9900463544849796 Ba
atom 2.6749588914077069 7.7085060554240652 12.9900463544849796 Ba
atom 7.5396079541890231 7.5832543601839042 12.9900463544849796 Ba
atom 2.5656117123136211 2.5810581854102894 17.5961111440565148 Ba
atom 7.5657903719618647 2.5913360870370470 17.5961111440565148 Ba
atom 2.5758896139403737 7.5812368450585312 17.5961111440565148 Ba
atom 7.6668771645545677 7.6823236376512325 17.5961111440565148 Ba
atom 5.0801637057950559 5.1141109771171900 15.0555716993680306 Zr
atom 10.1340030324958885 5.1780495457965516 15.0555716993680306 Zr
atom 5.1441022744744203 10.1679503038180385 15.0555716993680306 Zr
atom 10.1814291580359964 10.2153764293581393 15.0555716993680306 Zr
atom 5.0801637057950559 5.1141109771171900 20.1366505887449954 Zr
atom 10.1340030324958885 5.1780495457965516 20.1366505887449954 Zr
atom 5.1441022744744203 10.1679503038180385 20.1366505887449954 Zr
atom 10.1814291580359964 10.2153764293581393 20.1366505887449954 Zr
atom 5.3187135140805095 5.3453281643876407 12.5650294389512265 S
atom 9.9027858452254662 4.9394997375111096 12.5650294389512265 S
atom 4.9128850872039687 9.9294004955326010 12.5650294389512265 S
atom 10.4199789663214410 10.4465936166285775 12.5650294389512265 S
atom 4.8107047893992725 4.8599809478144715 17.5961111440565148 S
atom 10.3881330617986372 5.4475084621923386 17.5961111440565148 S
atom 5.3982323037771360 10.4374092202138353 17.5961111440565148 S
atom 9.9119702416402156 9.9612464000554066 17.5961111440565148 S
atom 5.0387079365195078 2.5978403946896602 14.9082274799429175 S
atom 10.1096731365827619 2.6532588612217460 15.3993987588128505 S
atom 5.1197723785612697 7.6431596192432343 15.3993987588128505 S
atom 10.1399733887604544 7.6991058469305944 14.9082274799429175 S
atom 5.0387079365195078 2.5978403946896602 20.2839948081701245 S
atom 10.1096731365827619 2.6532588612217460 19.7928235293002110 S
atom 5.1197723785612697 7.6431596192432343 19.7928235293002110 S
atom 10.1399733887604544 7.6991058469305944 20.2839948081701245 S
atom 2.5591074046610074 5.1081406208526490 14.9082274799429175 S
atom 7.6049543903698611 5.1384408730303441 15.3993987588128505 S
atom 2.6150536323483711 10.1283416310518177 15.3993987588128505 S
atom 7.6603728569019447 10.2094060730935769 14.9082274799429175 S
atom 2.5591074046610074 5.1081406208526490 20.2839948081701245 S
atom 7.6049543903698611 5.1384408730303441 19.7928235293002110 S
atom 2.6150536323483711 10.1283416310518177 19.7928235293002110 S
atom 7.6603728569019447 10.2094060730935769 20.2839948081701245 S
atom 2.4383425019480849 2.4819889079429585 22.2021759336280695 Ba
atom 7.6648596494291974 2.7186052974025792 22.2021759336280695 Ba
atom 2.6749588914077060 7.7085060554240652 22.2021759336280695 Ba
atom 7.5396079541890231 7.5832543601839042 22.2021759336280695 Ba
atom 5.3187135140805095 5.3453281643876407 22.6271928491618119 S
atom 9.9027858452254662 4.9394997375111096 22.6271928491618119 S
atom 4.9128850872039687 9.9294004955326010 22.6271928491618119 S
atom 10.4199789663214410 10.4465936166285775 22.6271928491618119 S
