lattice_vector   -2.4772084300000001     2.4772084300000001    12.6664911199999999
lattice_vector    2.4772084300000001    -2.4772084300000001    12.6664911199999999
lattice_vector    2.4772084300000001     2.4772084300000001   -12.6664911199999999
atom_frac     1.0000000000000000     0.9999999999999999     0.9999999999999998 Ba
atom_frac     0.1811589528383320     0.1799042071617056     0.0000000000000376 Ba
atom_frac     0.8188410471616675     0.8200957928382938     0.9999999999999614 Ba
atom_frac     0.5000000000000006     0.5000000000000006     0.0000000000000011 S
atom_frac     0.3010153142435062     0.3008130857565011     0.0000000000000073 S
atom_frac     0.6989846857564949     0.6991869142435001     0.9999999999999950 S
atom_frac     0.9036865012915182     0.4046204315256199     0.5002596715933000 S
atom_frac     0.4034267684743432     0.9043606987084615     0.4997403284066428 S
atom_frac     0.0963134987084819     0.5953795684743793     0.4997403284066995 S
atom_frac     0.5965732315256561     0.0956393012915386     0.5002596715933567 S
atom_frac     0.3990912349637590     0.3998523850362178     0.9999999999999769 Zr
atom_frac     0.6009087650362410     0.6001476149637822     0.0000000000000232 Zr
