lattice_vector   -2.4610398899999999     2.4610398899999999     7.7807133700000000
lattice_vector    2.4610398899999999    -2.4610398899999999     7.7807133700000000
lattice_vector    2.4610398899999999     2.4610398899999999    -7.7807133700000000
atom_frac     0.6412025744770836     0.6410685655229165     0.0000000000000001 Ba
atom_frac     0.3587974255229164     0.3589314344770835     0.9999999999999999 Ba
atom_frac     0.5000000000000000     0.0000000000000000     0.5000000000000000 S
atom_frac     0.0000000000000000     0.5000000000000000     0.5000000000000000 S
atom_frac     0.8346885314746278     0.8367157685253706     0.9999999999999981 S
atom_frac     0.1653114685253723     0.1632842314746296     0.0000000000000019 S
atom_frac     0.0000000000000000     0.0000000000000000     0.0000000000000000 Zr
