lattice_vector   -2.4772084300000001     2.4772084300000001    12.6664911199999999
lattice_vector    2.4772084300000001    -2.4772084300000001    12.6664911199999999
lattice_vector    2.4772084300000001     2.4772084300000001   -12.6664911199999999
atom_frac     0.0000000000000000     0.0000000000000000     0.0000000000000000 Ba
atom_frac     0.1805368137847221     0.1805368137847221     0.9999999951889750 Ba
atom_frac     0.8194631862152780     0.8194631862152780     0.0000000048110251 Ba
atom_frac     0.5000000000000000     0.5000000000000000     0.0000000000000000 S
atom_frac     0.3011841165463141     0.3011841165463141     0.9999999337720545 S
atom_frac     0.6988158834536858     0.6988158834536858     0.0000000662279454 S
atom_frac     0.9040322049056000     0.4040323777641998     0.4999999461387381 S
atom_frac     0.4040323777641998     0.9040322049056000     0.4999999461387381 S
atom_frac     0.0959677950943999     0.5959676222358001     0.5000000538612619 S
atom_frac     0.5959676222358001     0.0959677950943999     0.5000000538612619 S
atom_frac     0.3994021132544451     0.3994021132544451     0.0000000122812043 Zr
atom_frac     0.6005978867455549     0.6005978867455549     0.9999999877187957 Zr
