lattice_vector   -2.4772084300000001     2.4772084300000001    12.6664911199999999
lattice_vector    2.4772084300000001    -2.4772084300000001    12.6664911199999999
lattice_vector    2.4772084300000001     2.4772084300000001   -12.6664911199999999
atom_frac     0.0000000000000000     0.0000000000000000     0.0000000000000000 Ba
atom_frac     0.1805655438219816     0.1805655438219816     0.0000000144510983 Ba
atom_frac     0.8194344561780185     0.8194344561780185     0.9999999855489017 Ba
atom_frac     0.5000000000000000     0.5000000000000000     0.0000000000000000 S
atom_frac     0.3008230820132887     0.3008230820132887     0.0000000853969540 S
atom_frac     0.6991769179867114     0.6991769179867114     0.9999999146030460 S
atom_frac     0.9041929237580190     0.4041929059988554     0.4999999706924956 S
atom_frac     0.4041929059988554     0.9041929237580190     0.4999999706924956 S
atom_frac     0.0958070762419810     0.5958070940011446     0.5000000293075044 S
atom_frac     0.5958070940011446     0.0958070762419810     0.5000000293075044 S
atom_frac     0.3993664314340846     0.3993664314340846     0.9999999791456310 Zr
atom_frac     0.6006335685659153     0.6006335685659153     0.0000000208543690 Zr
