# geometry.in for FHI-aims 
# | generated by phonopy.FHIaims.write_aims() 
lattice_vector -9.9088337200000005 9.9088337200000005 50.6659644799999995 
lattice_vector 9.9088337200000005 -9.9088337200000005 50.6659644799999995 
lattice_vector 2.4772084300000001 2.4772084300000001 -12.6664911199999999 
atom 0.0000000000000000 0.0000000000000000 0.0000000000000000 Ba 
atom -2.4772084300000001 2.4772084300000001 12.6664911199999999 Ba 
atom -4.9544168600000003 4.9544168600000003 25.3329822399999998 Ba 
atom -7.4316252900000004 7.4316252900000004 37.9994733599999961 Ba 
atom 2.4772084300000001 -2.4772084300000001 12.6664911199999999 Ba 
atom 0.0000000000000000 0.0000000000000000 25.3329822399999998 Ba 
atom -2.4772084300000001 2.4772084300000001 37.9994733599999961 Ba 
atom -4.9544168600000003 4.9544168600000003 50.6659644799999995 Ba 
atom 4.9544168600000003 -4.9544168600000003 25.3329822399999998 Ba 
atom 2.4772084300000001 -2.4772084300000001 37.9994733599999961 Ba 
atom 0.0000000000000000 0.0000000000000000 50.6659644799999995 Ba 
atom -2.4772084300000001 2.4772084300000001 63.3324555999999959 Ba 
atom 7.4316252900000004 -7.4316252900000004 37.9994733599999961 Ba 
atom 4.9544168600000003 -4.9544168600000003 50.6659644799999995 Ba 
atom 2.4772084300000001 -2.4772084300000001 63.3324556000000030 Ba 
atom 0.0000000000000000 0.0000000000000000 75.9989467199999922 Ba 
atom -0.0000000000000000 0.0000000000000000 4.5734033098991391 Ba 
atom -2.4772084300000001 2.4772084300000001 17.2398944298991381 Ba 
atom -4.9544168599999994 4.9544168599999994 29.9063855498991380 Ba 
atom -7.4316252899999995 7.4316252899999995 42.5728766698991308 Ba 
atom 2.4772084300000001 -2.4772084300000001 17.2398944298991381 Ba 
atom -0.0000000000000001 0.0000000000000001 29.9063855498991380 Ba 
atom -2.4772084299999992 2.4772084299999992 42.5728766698991379 Ba 
atom -4.9544168599999994 4.9544168599999994 55.2393677898991342 Ba 
atom 4.9544168599999994 -4.9544168599999994 29.9063855498991380 Ba 
atom 2.4772084299999997 -2.4772084299999997 42.5728766698991379 Ba 
atom 0.0000000000000002 -0.0000000000000002 55.2393677898991342 Ba 
atom -2.4772084299999997 2.4772084299999997 67.9058589098991234 Ba 
atom 7.4316252899999995 -7.4316252899999995 42.5728766698991379 Ba 
atom 4.9544168599999994 -4.9544168599999994 55.2393677898991342 Ba 
atom 2.4772084300000006 -2.4772084300000006 67.9058589098991376 Ba 
atom 0.0000000000000002 -0.0000000000000002 80.5723500298991269 Ba 
atom 0.0000000000000001 -0.0000000000000001 20.7595789301008615 Ba 
atom -2.4772084300000001 2.4772084300000001 33.4260700501008614 Ba 
atom -4.9544168599999994 4.9544168599999994 46.0925611701008577 Ba 
atom -7.4316252900000004 7.4316252900000004 58.7590522901008541 Ba 
atom 2.4772084300000001 -2.4772084300000001 33.4260700501008614 Ba 
atom 0.0000000000000001 -0.0000000000000001 46.0925611701008577 Ba 
atom -2.4772084299999992 2.4772084299999992 58.7590522901008612 Ba 
atom -4.9544168600000003 4.9544168600000003 71.4255434101008575 Ba 
atom 4.9544168599999994 -4.9544168599999994 46.0925611701008577 Ba 
atom 2.4772084299999997 -2.4772084299999997 58.7590522901008541 Ba 
atom 0.0000000000000004 -0.0000000000000004 71.4255434101008575 Ba 
atom -2.4772084300000006 2.4772084300000006 84.0920345301008467 Ba 
atom 7.4316252899999995 -7.4316252899999995 58.7590522901008541 Ba 
atom 4.9544168599999994 -4.9544168599999994 71.4255434101008575 Ba 
atom 2.4772084300000006 -2.4772084300000006 84.0920345301008609 Ba 
atom -0.0000000000000005 0.0000000000000005 96.7585256501008502 Ba 
atom 0.0000000000000000 0.0000000000000000 12.6664911199999999 S 
atom -2.4772084300000001 2.4772084300000001 25.3329822399999998 S 
atom -4.9544168600000003 4.9544168600000003 37.9994733600000032 S 
atom -7.4316252899999995 7.4316252899999995 50.6659644799999995 S 
atom 2.4772084300000001 -2.4772084300000001 25.3329822399999998 S 
atom 0.0000000000000000 0.0000000000000000 37.9994733599999961 S 
atom -2.4772084300000006 2.4772084300000006 50.6659644799999995 S 
atom -4.9544168600000003 4.9544168600000003 63.3324555999999959 S 
atom 4.9544168600000003 -4.9544168600000003 37.9994733599999961 S 
atom 2.4772084300000001 -2.4772084300000001 50.6659644799999995 S 
atom -0.0000000000000004 0.0000000000000004 63.3324556000000030 S 
atom -2.4772084299999997 2.4772084299999997 75.9989467199999922 S 
atom 7.4316252900000004 -7.4316252900000004 50.6659644799999995 S 
atom 4.9544168600000003 -4.9544168600000003 63.3324555999999959 S 
atom 2.4772084299999997 -2.4772084299999997 75.9989467200000064 S 
atom 0.0000000000000004 -0.0000000000000004 88.6654378399999956 S 
atom -0.0000000000000000 0.0000000000000000 7.6230540843638082 S 
atom -2.4772084300000001 2.4772084300000001 20.2895452043638080 S 
atom -4.9544168600000011 4.9544168600000011 32.9560363243638150 S 
atom -7.4316252900000004 7.4316252900000004 45.6225274443638114 S 
atom 2.4772084300000001 -2.4772084300000001 20.2895452043638080 S 
atom 0.0000000000000001 -0.0000000000000001 32.9560363243638079 S 
atom -2.4772084300000010 2.4772084300000010 45.6225274443638114 S 
atom -4.9544168600000003 4.9544168600000003 58.2890185643638077 S 
atom 4.9544168600000011 -4.9544168600000011 32.9560363243638079 S 
atom 2.4772084300000006 -2.4772084300000006 45.6225274443638114 S 
atom -0.0000000000000003 0.0000000000000003 58.2890185643638148 S 
atom -2.4772084299999997 2.4772084299999997 70.9555096843638040 S 
atom 7.4316252900000013 -7.4316252900000013 45.6225274443638114 S 
atom 4.9544168600000011 -4.9544168600000011 58.2890185643638077 S 
atom 2.4772084299999997 -2.4772084299999997 70.9555096843638182 S 
atom 0.0000000000000006 -0.0000000000000006 83.6220008043638074 S 
atom -0.0000000000000001 0.0000000000000001 17.7099281556361916 S 
atom -2.4772084300000001 2.4772084300000001 30.3764192756361915 S 
atom -4.9544168599999994 4.9544168599999994 43.0429103956361914 S 
atom -7.4316252899999995 7.4316252899999995 55.7094015156361877 S 
atom 2.4772084300000001 -2.4772084300000001 30.3764192756361915 S 
atom -0.0000000000000001 0.0000000000000001 43.0429103956361914 S 
atom -2.4772084299999992 2.4772084299999992 55.7094015156361877 S 
atom -4.9544168599999994 4.9544168599999994 68.3758926356361911 S 
atom 4.9544168599999994 -4.9544168599999994 43.0429103956361914 S 
atom 2.4772084299999997 -2.4772084299999997 55.7094015156361877 S 
atom 0.0000000000000003 -0.0000000000000003 68.3758926356361911 S 
atom -2.4772084299999997 2.4772084299999997 81.0423837556361804 S 
atom 7.4316252899999995 -7.4316252899999995 55.7094015156361877 S 
atom 4.9544168599999994 -4.9544168599999994 68.3758926356361911 S 
atom 2.4772084300000006 -2.4772084300000006 81.0423837556361946 S 
atom 0.0000000000000003 -0.0000000000000003 93.7088748756361838 S 
atom 0.0000000000000000 2.4772084300000001 10.2351226833408635 S 
atom -2.4772084300000001 4.9544168600000003 22.9016138033408652 S 
atom -4.9544168600000003 7.4316252899999995 35.5681049233408615 S 
atom -7.4316252899999995 9.9088337200000005 48.2345960433408578 S 
atom 2.4772084300000001 0.0000000000000000 22.9016138033408652 S 
atom 0.0000000000000000 2.4772084300000001 35.5681049233408615 S 
atom -2.4772084300000001 4.9544168600000003 48.2345960433408649 S 
atom -4.9544168600000003 7.4316252900000013 60.9010871633408541 S 
atom 4.9544168600000003 -2.4772084300000001 35.5681049233408615 S 
atom 2.4772084300000001 0.0000000000000000 48.2345960433408649 S 
atom 0.0000000000000000 2.4772084300000001 60.9010871633408684 S 
atom -2.4772084300000001 4.9544168600000003 73.5675782833408647 S 
atom 7.4316252899999995 -4.9544168600000003 48.2345960433408578 S 
atom 4.9544168600000003 -2.4772084300000001 60.9010871633408684 S 
atom 2.4772084300000001 0.0000000000000000 73.5675782833408647 S 
atom 0.0000000000000000 2.4772084300000001 86.2340694033408681 S 
atom 2.4772084300000001 0.0000000000000000 10.2351226833408635 S 
atom 0.0000000000000000 2.4772084300000001 22.9016138033408652 S 
atom -2.4772084299999997 4.9544168600000003 35.5681049233408615 S 
atom -4.9544168600000003 7.4316252899999995 48.2345960433408649 S 
atom 4.9544168600000003 -2.4772084300000001 22.9016138033408652 S 
atom 2.4772084300000001 0.0000000000000000 35.5681049233408615 S 
atom 0.0000000000000004 2.4772084299999997 48.2345960433408578 S 
atom -2.4772084299999997 4.9544168600000003 60.9010871633408684 S 
atom 7.4316252899999995 -4.9544168600000003 35.5681049233408615 S 
atom 4.9544168600000003 -2.4772084300000001 48.2345960433408578 S 
atom 2.4772084300000006 -0.0000000000000004 60.9010871633408541 S 
atom 0.0000000000000004 2.4772084299999997 73.5675782833408647 S 
atom 9.9088337200000005 -7.4316252899999995 48.2345960433408578 S 
atom 7.4316252899999995 -4.9544168600000003 60.9010871633408541 S 
atom 4.9544168600000003 -2.4772084300000006 73.5675782833408647 S 
atom 2.4772084300000006 -0.0000000000000004 86.2340694033408681 S 
atom 2.4772084300000001 0.0000000000000000 2.4313684366591346 S 
atom 0.0000000000000002 2.4772084300000001 15.0978595566591327 S 
atom -2.4772084300000001 4.9544168600000003 27.7643506766591344 S 
atom -4.9544168600000003 7.4316252900000013 40.4308417966591307 S 
atom 4.9544168600000003 -2.4772084300000006 15.0978595566591363 S 
atom 2.4772084300000006 -0.0000000000000004 27.7643506766591344 S 
atom 0.0000000000000000 2.4772084300000001 40.4308417966591307 S 
atom -2.4772084300000001 4.9544168600000003 53.0973329166591341 S 
atom 7.4316252900000013 -4.9544168600000003 27.7643506766591344 S 
atom 4.9544168600000003 -2.4772084300000006 40.4308417966591307 S 
atom 2.4772084300000001 0.0000000000000000 53.0973329166591341 S 
atom 0.0000000000000000 2.4772084300000001 65.7638240366591447 S 
atom 9.9088337200000005 -7.4316252899999995 40.4308417966591307 S 
atom 7.4316252900000013 -4.9544168600000003 53.0973329166591341 S 
atom 4.9544168600000003 -2.4772084300000001 65.7638240366591447 S 
atom 2.4772084300000001 0.0000000000000000 78.4303151566591339 S 
atom 0.0000000000000000 2.4772084300000001 2.4313684366591346 S 
atom -2.4772084300000006 4.9544168600000003 15.0978595566591363 S 
atom -4.9544168600000003 7.4316252900000013 27.7643506766591344 S 
atom -7.4316252899999995 9.9088337200000005 40.4308417966591378 S 
atom 2.4772084300000001 0.0000000000000002 15.0978595566591327 S 
atom -0.0000000000000004 2.4772084300000006 27.7643506766591344 S 
atom -2.4772084300000010 4.9544168600000011 40.4308417966591307 S 
atom -4.9544168600000003 7.4316252900000013 53.0973329166591341 S 
atom 4.9544168600000003 -2.4772084300000006 27.7643506766591344 S 
atom 2.4772084300000001 0.0000000000000000 40.4308417966591378 S 
atom -0.0000000000000004 2.4772084300000006 53.0973329166591341 S 
atom -2.4772084299999997 4.9544168600000003 65.7638240366591447 S 
atom 7.4316252900000013 -4.9544168600000003 40.4308417966591307 S 
atom 4.9544168600000003 -2.4772084300000001 53.0973329166591341 S 
atom 2.4772084299999997 0.0000000000000004 65.7638240366591447 S 
atom 0.0000000000000004 2.4772084299999997 78.4303151566591481 S 
atom 0.0000000000000000 -0.0000000000000000 10.1198122681106533 Zr 
atom -2.4772084300000001 2.4772084300000001 22.7863033881106496 Zr 
atom -4.9544168600000011 4.9544168600000011 35.4527945081106566 Zr 
atom -7.4316252900000004 7.4316252900000004 48.1192856281106529 Zr 
atom 2.4772084300000001 -2.4772084300000001 22.7863033881106531 Zr 
atom -0.0000000000000001 0.0000000000000001 35.4527945081106495 Zr 
atom -2.4772084300000010 2.4772084300000010 48.1192856281106529 Zr 
atom -4.9544168600000003 4.9544168600000003 60.7857767481106563 Zr 
atom 4.9544168600000011 -4.9544168600000011 35.4527945081106566 Zr 
atom 2.4772084300000006 -2.4772084300000006 48.1192856281106529 Zr 
atom -0.0000000000000004 0.0000000000000004 60.7857767481106563 Zr 
atom -2.4772084299999997 2.4772084299999997 73.4522678681106527 Zr 
atom 7.4316252900000013 -7.4316252900000013 48.1192856281106529 Zr 
atom 4.9544168600000011 -4.9544168600000011 60.7857767481106492 Zr 
atom 2.4772084299999997 -2.4772084299999997 73.4522678681106527 Zr 
atom 0.0000000000000004 -0.0000000000000004 86.1187589881106561 Zr 
atom 0.0000000000000001 -0.0000000000000001 15.2131699718893465 Zr 
atom -2.4772084299999997 2.4772084299999997 27.8796610918893428 Zr 
atom -4.9544168599999994 4.9544168599999994 40.5461522118893427 Zr 
atom -7.4316252899999995 7.4316252899999995 53.2126433318893461 Zr 
atom 2.4772084299999997 -2.4772084299999997 27.8796610918893464 Zr 
atom -0.0000000000000000 0.0000000000000000 40.5461522118893427 Zr 
atom -2.4772084299999997 2.4772084299999997 53.2126433318893461 Zr 
atom -4.9544168600000003 4.9544168600000003 65.8791344518893425 Zr 
atom 4.9544168600000003 -4.9544168600000003 40.5461522118893427 Zr 
atom 2.4772084300000001 -2.4772084300000001 53.2126433318893461 Zr 
atom 0.0000000000000004 -0.0000000000000004 65.8791344518893425 Zr 
atom -2.4772084299999997 2.4772084299999997 78.5456255718893459 Zr 
atom 7.4316252900000004 -7.4316252900000004 53.2126433318893461 Zr 
atom 4.9544168600000003 -4.9544168600000003 65.8791344518893425 Zr 
atom 2.4772084300000006 -2.4772084300000006 78.5456255718893459 Zr 
atom 0.0000000000000004 -0.0000000000000004 91.2121166918893493 Zr 
