lattice_vector   -2.4772084300000001     2.4772084300000001    12.6664911199999999
lattice_vector    2.4772084300000001    -2.4772084300000001    12.6664911199999999
lattice_vector    2.4772084300000001     2.4772084300000001   -12.6664911199999999
atom_frac     0.0000000000000000     0.0000000000000001     0.0000000000000002 Ba
atom_frac     0.1799042071616680     0.1811589528382944     0.9999999999999625 Ba
atom_frac     0.8200957928383324     0.8188410471617061     0.0000000000000386 Ba
atom_frac     0.4999999999999995     0.4999999999999994     0.9999999999999989 S
atom_frac     0.3008130857564938     0.3010153142434989     0.9999999999999927 S
atom_frac     0.6991869142435051     0.6989846857564999     0.0000000000000049 S
atom_frac     0.9043606987084818     0.4034267684743800     0.4997403284067000 S
atom_frac     0.4046204315256568     0.9036865012915385     0.5002596715933573 S
atom_frac     0.0956393012915180     0.5965732315256206     0.5002596715933006 S
atom_frac     0.5953795684743438     0.0963134987084613     0.4997403284066433 S
atom_frac     0.3998523850362409     0.3990912349637820     0.0000000000000231 Zr
atom_frac     0.6001476149637590     0.6009087650362178     0.9999999999999768 Zr
