lattice_vector   -2.4610398899999999     2.4610398899999999     7.7807133700000000
lattice_vector    2.4610398899999999    -2.4610398899999999     7.7807133700000000
lattice_vector    2.4610398899999999     2.4610398899999999    -7.7807133700000000
atom_frac     0.6421129853535463     0.6401581546464538     0.0000000000000002 Ba
atom_frac     0.3578870146464537     0.3598418453535462     0.9999999999999998 Ba
atom_frac     0.5000000000000000     0.0000000000000000     0.5000000000000000 S
atom_frac     0.0000000000000000     0.5000000000000000     0.5000000000000000 S
atom_frac     0.8359788652716734     0.8354254347283269     0.0000000000000000 S
atom_frac     0.1640211347283267     0.1645745652716732     1.0000000000000000 S
atom_frac     0.0000000000000000     0.0000000000000000     0.0000000000000000 Zr
