lattice_vector   -2.4810521300000001     2.4810521300000001    17.6247548199999997
lattice_vector    2.4810521300000001    -2.4810521300000001    17.6247548199999997
lattice_vector    2.4810521300000001     2.4810521300000001   -17.6247548199999997
atom_frac     0.4325688406868592     0.4325460993131409     1.0000000000000000 Ba
atom_frac     0.5674311593131408     0.5674539006868592     0.0000000000000000 Ba
atom_frac     0.3004982566759131     0.3005332233240868     0.0000000000000000 Ba
atom_frac     0.6995017433240869     0.6994667766759133     0.0000000000000000 Ba
atom_frac     0.5000000000000000     0.0000000000000000     0.5000000000000000 S
atom_frac     0.0000000000000000     0.5000000000000000     0.5000000000000000 S
atom_frac     0.9296364908476938     0.9290146091523060     0.9999999999999999 S
atom_frac     0.0703635091523061     0.0709853908476939     0.0000000000000001 S
atom_frac     0.7860667518325724     0.7864296681674278     0.0000000000000001 S
atom_frac     0.2139332481674276     0.2135703318325723     0.9999999999999999 S
atom_frac     0.8606718583668500     0.3606406294721199     0.4999827683331107 S
atom_frac     0.3609538905278801     0.8609226616331500     0.5000172316668894 S
atom_frac     0.1393281416331500     0.6393593705278802     0.5000172316668895 S
atom_frac     0.6390461094721199     0.1390773383668500     0.4999827683331106 S
atom_frac     0.0000000000000000     0.0000000000000000     0.0000000000000000 Zr
atom_frac     0.8566362974494426     0.8566236825505573     0.0000000000000000 Zr
atom_frac     0.1433637025505573     0.1433763174494427     0.0000000000000000 Zr
