#=======================================================
# FHI-aims file: geometry-primitive.in
# Created using the Atomic Simulation Environment (ASE)
# Thu Mar 20 18:07:48 2025
#=======================================================
lattice_vector -2.5000000000000000 2.5000000000000000 53.0000000000000000 
lattice_vector 2.5000000000000000 -2.5000000000000000 53.0000000000000000 
lattice_vector 2.5000000000000000 2.5000000000000000 -53.0000000000000000 
atom_frac 0.7641509433962264 0.7641509433962264 0.0000000000000000 Ba
atom_frac 0.8113207547169811 0.8113207547169812 0.0000000000000000 Ba
atom_frac 0.2877358490566038 0.2877358490566038 0.0000000000000000 Zr
atom_frac 0.3349056603773585 0.3349056603773586 -0.0000000000000000 Zr
atom_frac 0.2641509433962264 0.2641509433962264 0.0000000000000000 S
atom_frac 0.3113207547169812 0.3113207547169812 0.0000000000000000 S
atom_frac 0.7877358490566038 0.2877358490566038 0.5000000000000000 S
atom_frac 0.8349056603773586 0.3349056603773585 0.5000000000000000 S
atom_frac 0.2877358490566038 0.7877358490566038 0.5000000000000000 S
atom_frac 0.3349056603773585 0.8349056603773586 0.5000000000000000 S
atom_frac 0.8584905660377360 0.8584905660377360 0.0000000000000000 Ba
atom_frac 0.9056603773584906 0.9056603773584906 0.0000000000000000 Ba
atom_frac 0.3820754716981133 0.3820754716981133 -0.0000000000000000 Zr
atom_frac 0.4292452830188680 0.4292452830188680 0.0000000000000000 Zr
atom_frac 0.3584905660377359 0.3584905660377359 -0.0000000000000000 S
atom_frac 0.4056603773584905 0.4056603773584906 0.0000000000000000 S
atom_frac 0.8820754716981134 0.3820754716981132 0.5000000000000000 S
atom_frac 0.9292452830188680 0.4292452830188681 0.5000000000000000 S
atom_frac 0.3820754716981133 0.8820754716981134 0.5000000000000000 S
atom_frac 0.4292452830188681 0.9292452830188680 0.5000000000000000 S
atom_frac 0.9528301886792453 0.9528301886792451 0.0000000000000000 Ba
atom_frac 0.0000000000000000 -0.0000000000000000 0.0000000000000000 Ba
atom_frac 0.4764150943396227 0.4764150943396226 -0.0000000000000000 Zr
atom_frac 0.5235849056603773 0.5235849056603773 -0.0000000000000000 Zr
atom_frac 0.4528301886792453 0.4528301886792452 -0.0000000000000000 S
atom_frac 0.5000000000000000 0.5000000000000000 0.0000000000000000 S
atom_frac 0.9764150943396226 0.4764150943396226 0.5000000000000000 S
atom_frac 0.0235849056603773 0.5235849056603773 0.5000000000000000 S
atom_frac 0.4764150943396226 0.9764150943396226 0.5000000000000000 S
atom_frac 0.5235849056603773 0.0235849056603773 0.5000000000000000 S
atom_frac 0.0471698113207547 0.0471698113207547 0.0000000000000000 Ba
atom_frac 0.0943396226415094 0.0943396226415094 0.0000000000000000 Ba
atom_frac 0.5707547169811320 0.5707547169811320 -0.0000000000000000 Zr
atom_frac 0.6179245283018866 0.6179245283018866 0.0000000000000000 Zr
atom_frac 0.5471698113207547 0.5471698113207547 -0.0000000000000000 S
atom_frac 0.5943396226415094 0.5943396226415094 -0.0000000000000000 S
atom_frac 0.0707547169811319 0.5707547169811321 0.5000000000000000 S
atom_frac 0.1179245283018868 0.6179245283018867 0.5000000000000000 S
atom_frac 0.5707547169811319 0.0707547169811320 0.5000000000000000 S
atom_frac 0.6179245283018866 0.1179245283018867 0.5000000000000000 S
atom_frac 0.1415094339622641 0.1415094339622641 0.0000000000000000 Ba
atom_frac 0.1886792452830188 0.1886792452830188 0.0000000000000000 Ba
atom_frac 0.6650943396226416 0.6650943396226414 0.0000000000000000 Zr
atom_frac 0.7122641509433962 0.7122641509433962 0.0000000000000000 Zr
atom_frac 0.6415094339622641 0.6415094339622641 0.0000000000000000 S
atom_frac 0.6886792452830188 0.6886792452830188 0.0000000000000000 S
atom_frac 0.1650943396226415 0.6650943396226415 0.5000000000000000 S
atom_frac 0.2122641509433962 0.7122641509433962 0.5000000000000000 S
atom_frac 0.6650943396226415 0.1650943396226415 0.5000000000000000 S
atom_frac 0.7122641509433962 0.2122641509433962 0.5000000000000000 S
atom_frac 0.2358490566037735 0.2358490566037735 -0.0000000000000000 Ba
atom_frac 0.7358490566037735 0.7358490566037736 -0.0000000000000000 S
