#=======================================================
# FHI-aims file: geometry-primitive.in
# Created using the Atomic Simulation Environment (ASE)
# Thu Mar 20 18:05:15 2025
#=======================================================
lattice_vector -2.5000000000000000 2.5000000000000000 13.0000000000000000 
lattice_vector 2.5000000000000000 -2.5000000000000000 13.0000000000000000 
lattice_vector 2.5000000000000000 2.5000000000000000 -13.0000000000000000 
atom_frac 0.8076923076923077 0.8076923076923077 0.0000000000000000 Ba
atom_frac 0.0000000000000000 -0.0000000000000000 0.0000000000000000 Ba
atom_frac 0.4038461538461537 0.4038461538461539 -0.0000000000000000 Zr
atom_frac 0.5961538461538461 0.5961538461538461 -0.0000000000000000 Zr
atom_frac 0.3076923076923077 0.3076923076923077 0.0000000000000000 S
atom_frac 0.5000000000000000 0.5000000000000000 0.0000000000000000 S
atom_frac 0.9038461538461536 0.4038461538461539 0.5000000000000000 S
atom_frac 0.0961538461538462 0.5961538461538461 0.5000000000000000 S
atom_frac 0.4038461538461540 0.9038461538461537 0.5000000000000001 S
atom_frac 0.5961538461538461 0.0961538461538462 0.5000000000000000 S
atom_frac 0.1923076923076923 0.1923076923076923 0.0000000000000000 Ba
atom_frac 0.6923076923076922 0.6923076923076924 -0.0000000000000000 S
