#=======================================================
# FHI-aims file: geometry-conventional.in
# Created using the Atomic Simulation Environment (ASE)
# Thu Mar 20 12:40:30 2025
#=======================================================
lattice_vector 5.0000000000000000 0.0000000000000000 0.0000000000000000 
lattice_vector 0.0000000000000000 5.0000000000000000 0.0000000000000000 
lattice_vector 0.0000000000000000 0.0000000000000000 26.0000000000000000 
atom_frac 0.0000000000000000 0.0000000000000000 0.8076923076923077 Ba
atom_frac 0.0000000000000000 0.0000000000000000 0.0000000000000000 Ba
atom_frac 0.5000000000000000 0.5000000000000000 0.9038461538461539 Zr
atom_frac 0.5000000000000000 0.5000000000000000 0.0961538461538462 Zr
atom_frac 0.5000000000000000 0.5000000000000000 0.8076923076923077 S
atom_frac 0.5000000000000000 0.5000000000000000 0.0000000000000000 S
atom_frac 0.5000000000000000 0.0000000000000000 0.9038461538461539 S
atom_frac 0.5000000000000000 0.0000000000000000 0.0961538461538462 S
atom_frac 0.0000000000000000 0.5000000000000000 0.9038461538461539 S
atom_frac 0.0000000000000000 0.5000000000000000 0.0961538461538462 S
atom_frac 0.0000000000000000 0.0000000000000000 0.1923076923076923 Ba
atom_frac 0.5000000000000000 0.5000000000000000 0.1923076923076923 S
atom_frac 0.5000000000000000 0.5000000000000000 0.3076923076923077 Ba
atom_frac 0.5000000000000000 0.5000000000000000 0.5000000000000000 Ba
atom_frac 0.0000000000000000 0.0000000000000000 0.4038461538461537 Zr
atom_frac 0.0000000000000000 0.0000000000000000 0.5961538461538461 Zr
atom_frac 0.0000000000000000 0.0000000000000000 0.3076923076923077 S
atom_frac 0.0000000000000000 0.0000000000000000 0.5000000000000000 S
atom_frac 0.0000000000000000 0.5000000000000000 0.4038461538461537 S
atom_frac 0.0000000000000000 0.5000000000000000 0.5961538461538461 S
atom_frac 0.5000000000000000 0.0000000000000000 0.4038461538461537 S
atom_frac 0.5000000000000000 0.0000000000000000 0.5961538461538461 S
atom_frac 0.5000000000000000 0.5000000000000000 0.6923076923076923 Ba
atom_frac 0.0000000000000000 0.0000000000000000 0.6923076923076923 S
