#=======================================================
# FHI-aims file: geometry-primitive.in
# Created using the Atomic Simulation Environment (ASE)
# Thu Mar 20 18:05:28 2025
#=======================================================
lattice_vector -2.5000000000000000 2.5000000000000000 18.0000000000000000 
lattice_vector 2.5000000000000000 -2.5000000000000000 18.0000000000000000 
lattice_vector 2.5000000000000000 2.5000000000000000 -18.0000000000000000 
atom_frac 0.7916666666666666 0.7916666666666669 -0.0000000000000000 Ba
atom_frac 0.9305555555555555 0.9305555555555556 0.0000000000000000 Ba
atom_frac 0.3611111111111112 0.3611111111111112 0.0000000000000000 Zr
atom_frac 0.5000000000000000 0.5000000000000000 0.0000000000000000 Zr
atom_frac 0.2916666666666667 0.2916666666666668 0.0000000000000000 S
atom_frac 0.4305555555555555 0.4305555555555556 0.0000000000000000 S
atom_frac 0.8611111111111110 0.3611111111111112 0.5000000000000000 S
atom_frac 0.0000000000000000 0.5000000000000000 0.5000000000000000 S
atom_frac 0.3611111111111111 0.8611111111111112 0.5000000000000000 S
atom_frac 0.5000000000000000 -0.0000000000000000 0.5000000000000000 S
atom_frac 0.0694444444444444 0.0694444444444444 0.0000000000000000 Ba
atom_frac 0.2083333333333333 0.2083333333333333 0.0000000000000000 Ba
atom_frac 0.6388888888888887 0.6388888888888890 0.0000000000000000 Zr
atom_frac 0.5694444444444443 0.5694444444444445 -0.0000000000000000 S
atom_frac 0.7083333333333331 0.7083333333333334 0.0000000000000000 S
atom_frac 0.1388888888888888 0.6388888888888888 0.5000000000000000 S
atom_frac 0.6388888888888888 0.1388888888888889 0.5000000000000000 S
