#=======================================================
# FHI-aims file: geometry-conventional.in
# Created using the Atomic Simulation Environment (ASE)
# Thu Mar 20 12:40:45 2025
#=======================================================
lattice_vector 5.0000000000000000 0.0000000000000000 0.0000000000000000 
lattice_vector 0.0000000000000000 5.0000000000000000 0.0000000000000000 
lattice_vector 0.0000000000000000 0.0000000000000000 36.0000000000000000 
atom_frac 0.0000000000000000 0.0000000000000000 0.7916666666666667 Ba
atom_frac 0.0000000000000000 0.0000000000000000 0.9305555555555555 Ba
atom_frac 0.5000000000000000 0.5000000000000000 0.8611111111111110 Zr
atom_frac 0.5000000000000000 0.5000000000000000 0.0000000000000000 Zr
atom_frac 0.5000000000000000 0.5000000000000000 0.7916666666666667 S
atom_frac 0.5000000000000000 0.5000000000000000 0.9305555555555555 S
atom_frac 0.5000000000000000 0.0000000000000000 0.8611111111111110 S
atom_frac 0.5000000000000000 0.0000000000000000 0.0000000000000000 S
atom_frac 0.0000000000000000 0.5000000000000000 0.8611111111111110 S
atom_frac 0.0000000000000000 0.5000000000000000 0.0000000000000000 S
atom_frac 0.0000000000000000 0.0000000000000000 0.0694444444444444 Ba
atom_frac 0.0000000000000000 0.0000000000000000 0.2083333333333333 Ba
atom_frac 0.5000000000000000 0.5000000000000000 0.1388888888888888 Zr
atom_frac 0.5000000000000000 0.5000000000000000 0.0694444444444444 S
atom_frac 0.5000000000000000 0.5000000000000000 0.2083333333333333 S
atom_frac 0.5000000000000000 0.0000000000000000 0.1388888888888888 S
atom_frac 0.0000000000000000 0.5000000000000000 0.1388888888888888 S
atom_frac 0.5000000000000000 0.5000000000000000 0.2916666666666667 Ba
atom_frac 0.5000000000000000 0.5000000000000000 0.4305555555555555 Ba
atom_frac 0.0000000000000000 0.0000000000000000 0.3611111111111112 Zr
atom_frac 0.0000000000000000 0.0000000000000000 0.5000000000000000 Zr
atom_frac 0.0000000000000000 0.0000000000000000 0.2916666666666667 S
atom_frac 0.0000000000000000 0.0000000000000000 0.4305555555555555 S
atom_frac 0.0000000000000000 0.5000000000000000 0.3611111111111112 S
atom_frac 0.0000000000000000 0.5000000000000000 0.5000000000000000 S
atom_frac 0.5000000000000000 0.0000000000000000 0.3611111111111112 S
atom_frac 0.5000000000000000 0.0000000000000000 0.5000000000000000 S
atom_frac 0.5000000000000000 0.5000000000000000 0.5694444444444444 Ba
atom_frac 0.5000000000000000 0.5000000000000000 0.7083333333333331 Ba
atom_frac 0.0000000000000000 0.0000000000000000 0.6388888888888888 Zr
atom_frac 0.0000000000000000 0.0000000000000000 0.5694444444444444 S
atom_frac 0.0000000000000000 0.0000000000000000 0.7083333333333331 S
atom_frac 0.0000000000000000 0.5000000000000000 0.6388888888888888 S
atom_frac 0.5000000000000000 0.0000000000000000 0.6388888888888888 S
