#=======================================================
# FHI-aims file: geometry-primitive.in
# Created using the Atomic Simulation Environment (ASE)
# Thu Mar 20 18:05:37 2025
#=======================================================
lattice_vector -2.5000000000000000 2.5000000000000000 23.0000000000000000 
lattice_vector 2.5000000000000000 -2.5000000000000000 23.0000000000000000 
lattice_vector 2.5000000000000000 2.5000000000000000 -23.0000000000000000 
atom_frac 0.7826086956521738 0.7826086956521739 0.0000000000000000 Ba
atom_frac 0.8913043478260869 0.8913043478260869 0.0000000000000000 Ba
atom_frac 0.3369565217391304 0.3369565217391304 0.0000000000000000 Zr
atom_frac 0.4456521739130435 0.4456521739130435 0.0000000000000000 Zr
atom_frac 0.2826086956521739 0.2826086956521739 0.0000000000000000 S
atom_frac 0.3913043478260869 0.3913043478260870 0.0000000000000000 S
atom_frac 0.8369565217391304 0.3369565217391304 0.5000000000000000 S
atom_frac 0.9456521739130435 0.4456521739130435 0.5000000000000000 S
atom_frac 0.3369565217391304 0.8369565217391305 0.5000000000000000 S
atom_frac 0.4456521739130435 0.9456521739130435 0.5000000000000000 S
atom_frac 0.0000000000000000 -0.0000000000000000 0.0000000000000000 Ba
atom_frac 0.1086956521739130 0.1086956521739130 0.0000000000000000 Ba
atom_frac 0.5543478260869565 0.5543478260869565 0.0000000000000000 Zr
atom_frac 0.6630434782608695 0.6630434782608695 -0.0000000000000000 Zr
atom_frac 0.5000000000000000 0.5000000000000000 0.0000000000000000 S
atom_frac 0.6086956521739129 0.6086956521739131 -0.0000000000000000 S
atom_frac 0.0543478260869565 0.5543478260869565 0.5000000000000000 S
atom_frac 0.1630434782608693 0.6630434782608696 0.5000000000000000 S
atom_frac 0.5543478260869565 0.0543478260869565 0.5000000000000000 S
atom_frac 0.6630434782608695 0.1630434782608695 0.5000000000000000 S
atom_frac 0.2173913043478261 0.2173913043478261 -0.0000000000000000 Ba
atom_frac 0.7173913043478261 0.7173913043478262 -0.0000000000000000 S
