#=======================================================
# FHI-aims file: geometry-conventional.in
# Created using the Atomic Simulation Environment (ASE)
# Thu Mar 20 12:40:57 2025
#=======================================================
lattice_vector 5.0000000000000000 0.0000000000000000 0.0000000000000000 
lattice_vector 0.0000000000000000 5.0000000000000000 0.0000000000000000 
lattice_vector 0.0000000000000000 0.0000000000000000 46.0000000000000000 
atom_frac 0.0000000000000000 0.0000000000000000 0.7826086956521738 Ba
atom_frac 0.0000000000000000 0.0000000000000000 0.8913043478260869 Ba
atom_frac 0.5000000000000000 0.5000000000000000 0.8369565217391304 Zr
atom_frac 0.5000000000000000 0.5000000000000000 0.9456521739130435 Zr
atom_frac 0.5000000000000000 0.5000000000000000 0.7826086956521738 S
atom_frac 0.5000000000000000 0.5000000000000000 0.8913043478260869 S
atom_frac 0.5000000000000000 0.0000000000000000 0.8369565217391304 S
atom_frac 0.5000000000000000 0.0000000000000000 0.9456521739130435 S
atom_frac 0.0000000000000000 0.5000000000000000 0.8369565217391304 S
atom_frac 0.0000000000000000 0.5000000000000000 0.9456521739130435 S
atom_frac 0.0000000000000000 0.0000000000000000 0.0000000000000000 Ba
atom_frac 0.0000000000000000 0.0000000000000000 0.1086956521739130 Ba
atom_frac 0.5000000000000000 0.5000000000000000 0.0543478260869565 Zr
atom_frac 0.5000000000000000 0.5000000000000000 0.1630434782608695 Zr
atom_frac 0.5000000000000000 0.5000000000000000 0.0000000000000000 S
atom_frac 0.5000000000000000 0.5000000000000000 0.1086956521739130 S
atom_frac 0.5000000000000000 0.0000000000000000 0.0543478260869565 S
atom_frac 0.5000000000000000 0.0000000000000000 0.1630434782608695 S
atom_frac 0.0000000000000000 0.5000000000000000 0.0543478260869565 S
atom_frac 0.0000000000000000 0.5000000000000000 0.1630434782608695 S
atom_frac 0.0000000000000000 0.0000000000000000 0.2173913043478261 Ba
atom_frac 0.5000000000000000 0.5000000000000000 0.2173913043478261 S
atom_frac 0.5000000000000000 0.5000000000000000 0.2826086956521738 Ba
atom_frac 0.5000000000000000 0.5000000000000000 0.3913043478260869 Ba
atom_frac 0.0000000000000000 0.0000000000000000 0.3369565217391303 Zr
atom_frac 0.0000000000000000 0.0000000000000000 0.4456521739130435 Zr
atom_frac 0.0000000000000000 0.0000000000000000 0.2826086956521738 S
atom_frac 0.0000000000000000 0.0000000000000000 0.3913043478260869 S
atom_frac 0.0000000000000000 0.5000000000000000 0.3369565217391303 S
atom_frac 0.0000000000000000 0.5000000000000000 0.4456521739130435 S
atom_frac 0.5000000000000000 0.0000000000000000 0.3369565217391303 S
atom_frac 0.5000000000000000 0.0000000000000000 0.4456521739130435 S
atom_frac 0.5000000000000000 0.5000000000000000 0.5000000000000000 Ba
atom_frac 0.5000000000000000 0.5000000000000000 0.6086956521739130 Ba
atom_frac 0.0000000000000000 0.0000000000000000 0.5543478260869565 Zr
atom_frac 0.0000000000000000 0.0000000000000000 0.6630434782608695 Zr
atom_frac 0.0000000000000000 0.0000000000000000 0.5000000000000000 S
atom_frac 0.0000000000000000 0.0000000000000000 0.6086956521739130 S
atom_frac 0.0000000000000000 0.5000000000000000 0.5543478260869565 S
atom_frac 0.0000000000000000 0.5000000000000000 0.6630434782608695 S
atom_frac 0.5000000000000000 0.0000000000000000 0.5543478260869565 S
atom_frac 0.5000000000000000 0.0000000000000000 0.6630434782608695 S
atom_frac 0.5000000000000000 0.5000000000000000 0.7173913043478261 Ba
atom_frac 0.0000000000000000 0.0000000000000000 0.7173913043478261 S
