#=======================================================
# FHI-aims file: geometry-primitive.in
# Created using the Atomic Simulation Environment (ASE)
# Thu Mar 20 18:06:32 2025
#=======================================================
lattice_vector -2.5000000000000000 2.5000000000000000 28.0000000000000000 
lattice_vector 2.5000000000000000 -2.5000000000000000 28.0000000000000000 
lattice_vector 2.5000000000000000 2.5000000000000000 -28.0000000000000000 
atom_frac 0.7767857142857144 0.7767857142857144 0.0000000000000000 Ba
atom_frac 0.8660714285714286 0.8660714285714285 -0.0000000000000000 Ba
atom_frac 0.3214285714285714 0.3214285714285714 0.0000000000000000 Zr
atom_frac 0.4107142857142857 0.4107142857142856 -0.0000000000000000 Zr
atom_frac 0.2767857142857144 0.2767857142857144 -0.0000000000000000 S
atom_frac 0.3660714285714285 0.3660714285714285 0.0000000000000000 S
atom_frac 0.8214285714285714 0.3214285714285714 0.5000000000000000 S
atom_frac 0.9107142857142857 0.4107142857142855 0.5000000000000000 S
atom_frac 0.3214285714285714 0.8214285714285714 0.5000000000000000 S
atom_frac 0.4107142857142859 0.9107142857142855 0.5000000000000001 S
atom_frac 0.9553571428571428 0.9553571428571428 0.0000000000000000 Ba
atom_frac 0.0446428571428572 0.0446428571428572 0.0000000000000000 Ba
atom_frac 0.5000000000000000 0.4999999999999999 0.0000000000000000 Zr
atom_frac 0.5892857142857143 0.5892857142857143 -0.0000000000000000 Zr
atom_frac 0.4553571428571428 0.4553571428571427 0.0000000000000000 S
atom_frac 0.5446428571428573 0.5446428571428571 0.0000000000000000 S
atom_frac 0.0000000000000000 0.5000000000000000 0.5000000000000000 S
atom_frac 0.0892857142857143 0.5892857142857143 0.5000000000000000 S
atom_frac 0.5000000000000000 -0.0000000000000000 0.5000000000000000 S
atom_frac 0.5892857142857143 0.0892857142857142 0.5000000000000000 S
atom_frac 0.1339285714285714 0.1339285714285714 0.0000000000000000 Ba
atom_frac 0.2232142857142857 0.2232142857142857 0.0000000000000000 Ba
atom_frac 0.6785714285714287 0.6785714285714285 -0.0000000000000000 Zr
atom_frac 0.6339285714285714 0.6339285714285714 0.0000000000000000 S
atom_frac 0.7232142857142858 0.7232142857142856 0.0000000000000000 S
atom_frac 0.1785714285714285 0.6785714285714286 0.5000000000000000 S
atom_frac 0.6785714285714285 0.1785714285714286 0.5000000000000000 S
