#=======================================================
# FHI-aims file: geometry-primitive.in
# Created using the Atomic Simulation Environment (ASE)
# Thu Mar 20 18:06:52 2025
#=======================================================
lattice_vector -2.5000000000000000 2.5000000000000000 33.0000000000000000 
lattice_vector 2.5000000000000000 -2.5000000000000000 33.0000000000000000 
lattice_vector 2.5000000000000000 2.5000000000000000 -33.0000000000000000 
atom_frac 0.7727272727272726 0.7727272727272728 0.0000000000000000 Ba
atom_frac 0.8484848484848486 0.8484848484848486 0.0000000000000000 Ba
atom_frac 0.3106060606060606 0.3106060606060606 0.0000000000000000 Zr
atom_frac 0.3863636363636362 0.3863636363636364 0.0000000000000000 Zr
atom_frac 0.2727272727272727 0.2727272727272728 0.0000000000000000 S
atom_frac 0.3484848484848486 0.3484848484848486 -0.0000000000000000 S
atom_frac 0.8106060606060607 0.3106060606060606 0.5000000000000000 S
atom_frac 0.8863636363636361 0.3863636363636363 0.5000000000000000 S
atom_frac 0.3106060606060606 0.8106060606060606 0.5000000000000000 S
atom_frac 0.3863636363636361 0.8863636363636364 0.5000000000000000 S
atom_frac 0.9242424242424243 0.9242424242424244 0.0000000000000000 Ba
atom_frac 0.0000000000000000 -0.0000000000000000 0.0000000000000000 Ba
atom_frac 0.4621212121212122 0.4621212121212122 0.0000000000000000 Zr
atom_frac 0.5378787878787877 0.5378787878787880 -0.0000000000000000 Zr
atom_frac 0.4242424242424243 0.4242424242424243 0.0000000000000000 S
atom_frac 0.5000000000000000 0.5000000000000000 0.0000000000000000 S
atom_frac 0.9621212121212122 0.4621212121212122 0.5000000000000000 S
atom_frac 0.0378787878787878 0.5378787878787878 0.5000000000000000 S
atom_frac 0.4621212121212122 0.9621212121212122 0.5000000000000000 S
atom_frac 0.5378787878787878 0.0378787878787879 0.5000000000000000 S
atom_frac 0.0757575757575758 0.0757575757575758 0.0000000000000000 Ba
atom_frac 0.1515151515151515 0.1515151515151515 0.0000000000000000 Ba
atom_frac 0.6136363636363635 0.6136363636363638 -0.0000000000000000 Zr
atom_frac 0.6893939393939394 0.6893939393939394 0.0000000000000000 Zr
atom_frac 0.5757575757575758 0.5757575757575758 0.0000000000000000 S
atom_frac 0.6515151515151514 0.6515151515151516 0.0000000000000000 S
atom_frac 0.1136363636363635 0.6136363636363638 0.5000000000000000 S
atom_frac 0.1893939393939395 0.6893939393939394 0.5000000000000000 S
atom_frac 0.6136363636363636 0.1136363636363637 0.5000000000000000 S
atom_frac 0.6893939393939394 0.1893939393939394 0.5000000000000000 S
atom_frac 0.2272727272727273 0.2272727272727273 0.0000000000000000 Ba
atom_frac 0.7272727272727272 0.7272727272727274 -0.0000000000000000 S
