#=======================================================
# FHI-aims file: geometry-primitive.in
# Created using the Atomic Simulation Environment (ASE)
# Thu Mar 20 18:07:06 2025
#=======================================================
lattice_vector -2.5000000000000000 2.5000000000000000 38.0000000000000000 
lattice_vector 2.5000000000000000 -2.5000000000000000 38.0000000000000000 
lattice_vector 2.5000000000000000 2.5000000000000000 -38.0000000000000000 
atom_frac 0.7697368421052632 0.7697368421052633 0.0000000000000000 Ba
atom_frac 0.8355263157894738 0.8355263157894739 -0.0000000000000000 Ba
atom_frac 0.3026315789473686 0.3026315789473686 0.0000000000000000 Zr
atom_frac 0.3684210526315791 0.3684210526315791 -0.0000000000000000 Zr
atom_frac 0.2697368421052633 0.2697368421052633 0.0000000000000000 S
atom_frac 0.3355263157894738 0.3355263157894739 0.0000000000000000 S
atom_frac 0.8026315789473686 0.3026315789473686 0.5000000000000000 S
atom_frac 0.8684210526315791 0.3684210526315791 0.5000000000000000 S
atom_frac 0.3026315789473686 0.8026315789473686 0.5000000000000000 S
atom_frac 0.3684210526315791 0.8684210526315792 0.5000000000000000 S
atom_frac 0.9013157894736845 0.9013157894736846 -0.0000000000000000 Ba
atom_frac 0.9671052631578949 0.9671052631578949 0.0000000000000000 Ba
atom_frac 0.4342105263157897 0.4342105263157898 0.0000000000000000 Zr
atom_frac 0.5000000000000000 0.5000000000000000 0.0000000000000000 Zr
atom_frac 0.4013157894736844 0.4013157894736845 0.0000000000000000 S
atom_frac 0.4671052631578949 0.4671052631578949 0.0000000000000000 S
atom_frac 0.9342105263157898 0.4342105263157898 0.5000000000000000 S
atom_frac 0.0000000000000000 0.5000000000000000 0.5000000000000000 S
atom_frac 0.4342105263157897 0.9342105263157898 0.5000000000000000 S
atom_frac 0.5000000000000000 -0.0000000000000000 0.5000000000000000 S
atom_frac 0.0328947368421051 0.0328947368421051 0.0000000000000000 Ba
atom_frac 0.0986842105263156 0.0986842105263156 0.0000000000000000 Ba
atom_frac 0.5657894736842103 0.5657894736842102 0.0000000000000000 Zr
atom_frac 0.6315789473684209 0.6315789473684208 0.0000000000000000 Zr
atom_frac 0.5328947368421051 0.5328947368421051 -0.0000000000000000 S
atom_frac 0.5986842105263156 0.5986842105263156 0.0000000000000000 S
atom_frac 0.0657894736842103 0.5657894736842103 0.5000000000000000 S
atom_frac 0.1315789473684210 0.6315789473684209 0.5000000000000000 S
atom_frac 0.5657894736842102 0.0657894736842103 0.5000000000000000 S
atom_frac 0.6315789473684208 0.1315789473684209 0.5000000000000000 S
atom_frac 0.1644736842105261 0.1644736842105261 0.0000000000000000 Ba
atom_frac 0.2302631578947366 0.2302631578947366 -0.0000000000000000 Ba
atom_frac 0.6973684210526313 0.6973684210526314 0.0000000000000000 Zr
atom_frac 0.6644736842105261 0.6644736842105261 0.0000000000000000 S
atom_frac 0.7302631578947365 0.7302631578947367 -0.0000000000000000 S
atom_frac 0.1973684210526314 0.6973684210526314 0.5000000000000000 S
atom_frac 0.6973684210526313 0.1973684210526314 0.5000000000000000 S
