lattice_vector   -2.4772084300000001     2.4772084300000001    12.6664911199999999
lattice_vector    2.4772084300000001    -2.4772084300000001    12.6664911199999999
lattice_vector    2.4772084300000001     2.4772084300000001   -12.6664911199999999
atom_frac     0.0000000000000000     0.0000000000000000     0.0000000000000000 Ba
atom_frac     0.1807778533790202     0.1807778533790187     0.0004925987240726 Ba
atom_frac     0.8192221466209798     0.8192221466209814     0.9995074012759274 Ba
atom_frac     0.5000000000000000     0.5000000000000000     0.0000000000000000 S
atom_frac     0.3015004591128065     0.3015004591128028     0.0011724825765819 S
atom_frac     0.6984995408871933     0.6984995408871971     0.9988275174234180 S
atom_frac     0.9044022980378293     0.4038259133923454     0.5001809917980294 S
atom_frac     0.4038259133923442     0.9044022980378269     0.5001809917980258 S
atom_frac     0.0955977019621706     0.5961740866076546     0.4998190082019706 S
atom_frac     0.5961740866076559     0.0955977019621730     0.4998190082019743 S
atom_frac     0.4001288114477053     0.4001288114477011     0.0013140087911085 Zr
atom_frac     0.5998711885522947     0.5998711885522988     0.9986859912088916 Zr
