lattice_vector   -2.4810521300000001     2.4810521300000001    17.6247548199999997
lattice_vector    2.4810521300000001    -2.4810521300000001    17.6247548199999997
lattice_vector    2.4810521300000001     2.4810521300000001   -17.6247548199999997
atom_frac     0.4334987013654131     0.4316162386345858     0.9999999999999988 Ba
atom_frac     0.5665012986345871     0.5683837613654142     0.0000000000000013 Ba
atom_frac     0.3003353238806504     0.3006961561193496     0.0000000000000001 Ba
atom_frac     0.6996646761193496     0.6993038438806505     0.9999999999999999 Ba
atom_frac     0.5000000000000000     0.0000000000000000     0.5000000000000000 S
atom_frac     0.0000000000000000     0.5000000000000000     0.5000000000000000 S
atom_frac     0.9291589005408492     0.9294921994591510     0.0000000000000002 S
atom_frac     0.0708410994591508     0.0705078005408489     0.9999999999999998 S
atom_frac     0.7862586798881412     0.7862377401118588     1.0000000000000000 S
atom_frac     0.2137413201118588     0.2137622598881412     0.0000000000000000 S
atom_frac     0.8605613274592427     0.3608927144040929     0.4998593712263097 S
atom_frac     0.3607018055959071     0.8610331925407575     0.5001406287736905 S
atom_frac     0.1394386725407573     0.6391072855959070     0.5001406287736901 S
atom_frac     0.6392981944040930     0.1389668074592425     0.4998593712263096 S
atom_frac     0.0000000000000000     0.0000000000000000     0.0000000000000000 Zr
atom_frac     0.8565652822062902     0.8566946977937097     0.0000000000000000 Zr
atom_frac     0.1434347177937096     0.1433053022062903     1.0000000000000000 Zr
