lattice_vector   -2.4810521300000001     2.4810521300000001    17.6247548199999997
lattice_vector    2.4810521300000001    -2.4810521300000001    17.6247548199999997
lattice_vector    2.4810521300000001     2.4810521300000001   -17.6247548199999997
atom_frac     0.4326258953811520     0.4326258953811520     0.9999999571333023 Ba
atom_frac     0.5673741046188480     0.5673741046188480     0.0000000428666977 Ba
atom_frac     0.3003545002943620     0.3003545002943621     0.0000001521623974 Ba
atom_frac     0.6996454997056379     0.6996454997056379     0.9999998478376027 Ba
atom_frac     0.5000000000000000     0.0000000000000000     0.5000000000000000 S
atom_frac     0.0000000000000000     0.5000000000000000     0.5000000000000000 S
atom_frac     0.9293278809565809     0.9293278809565810     0.9999962628304048 S
atom_frac     0.0706721190434192     0.0706721190434192     0.0000037371695953 S
atom_frac     0.7862337216688956     0.7862337216688957     0.9999934412066912 S
atom_frac     0.2137662783311044     0.2137662783311044     0.0000065587933088 S
atom_frac     0.8607212853376582     0.3607288036536866     0.4999922855879856 S
atom_frac     0.3607288036536866     0.8607212853376580     0.4999922855879854 S
atom_frac     0.1392787146623419     0.6392711963463134     0.5000077144120144 S
atom_frac     0.6392711963463135     0.1392787146623418     0.5000077144120145 S
atom_frac     0.0000000000000000     0.0000000000000000     0.0000000000000000 Zr
atom_frac     0.8566267955207539     0.8566267955207539     0.0000063454242346 Zr
atom_frac     0.1433732044792460     0.1433732044792460     0.9999936545757654 Zr
