lattice_vector   -2.4810521300000001     2.4810521300000001    17.6247548199999997
lattice_vector    2.4810521300000001    -2.4810521300000001    17.6247548199999997
lattice_vector    2.4810521300000001     2.4810521300000001   -17.6247548199999997
atom_frac     0.4325548167042965     0.4325601232957036     0.0000000000000000 Ba
atom_frac     0.5674451832957036     0.5674398767042964     0.0000000000000000 Ba
atom_frac     0.3005141950664846     0.3005172849335153     0.0000000000000000 Ba
atom_frac     0.6994858049335154     0.6994827150664847     0.0000000000000000 Ba
atom_frac     0.5000000000000000     0.0000000000000000     0.5000000000000000 S
atom_frac     0.0000000000000000     0.5000000000000000     0.5000000000000000 S
atom_frac     0.9292152164312730     0.9294358835687269     0.0000000000000000 S
atom_frac     0.0707847835687270     0.0705641164312730     0.0000000000000000 S
atom_frac     0.7861547578199192     0.7863416621800808     0.0000000000000000 S
atom_frac     0.2138452421800810     0.2136583378199190     0.0000000000000000 S
atom_frac     0.8605871953046328     0.3598400640315175     0.4988324193539419 S
atom_frac     0.3617544559684823     0.8610073246953673     0.5011675806460579 S
atom_frac     0.1394128046953675     0.6401599359684835     0.5011675806460594 S
atom_frac     0.6382455440315165     0.1389926753046326     0.4988324193539406 S
atom_frac     0.0000000000000000     0.0000000000000000     0.0000000000000000 Zr
atom_frac     0.8564464416206164     0.8568135383793835     0.0000000000000000 Zr
atom_frac     0.1435535583793837     0.1431864616206163     0.0000000000000000 Zr
