lattice_vector   -2.4810521300000001     2.4810521300000001    17.6247548199999997
lattice_vector    2.4810521300000001    -2.4810521300000001    17.6247548199999997
lattice_vector    2.4810521300000001     2.4810521300000001   -17.6247548199999997
atom_frac     0.4325503184558352     0.4325503184558352     0.9999999507522173 Ba
atom_frac     0.5674496815441648     0.5674496815441648     0.0000000492477828 Ba
atom_frac     0.3005145702734378     0.3005145702734378     0.9999997055262208 Ba
atom_frac     0.6994854297265621     0.6994854297265621     0.0000002944737792 Ba
atom_frac     0.5000000000000000     0.0000000000000000     0.5000000000000000 S
atom_frac     0.0000000000000000     0.5000000000000000     0.5000000000000000 S
atom_frac     0.9295246140000268     0.9295246140000268     0.0000006818696984 S
atom_frac     0.0704753859999731     0.0704753859999731     0.9999993181303015 S
atom_frac     0.7862538277995730     0.7862538277995730     0.9999998698820702 S
atom_frac     0.2137461722004270     0.2137461722004270     0.0000001301179297 S
atom_frac     0.8607966360609699     0.3607954424086741     0.4999996864935504 S
atom_frac     0.3607954424086741     0.8607966360609699     0.4999996864935504 S
atom_frac     0.1392033639390300     0.6392045575913259     0.5000003135064495 S
atom_frac     0.6392045575913259     0.1392033639390300     0.5000003135064495 S
atom_frac     0.0000000000000000     0.0000000000000000     0.0000000000000000 Zr
atom_frac     0.8566045233180117     0.8566045233180117     0.0000005739479411 Zr
atom_frac     0.1433954766819883     0.1433954766819883     0.9999994260520588 Zr
