lattice_vector   -2.4810521300000001     2.4810521300000001    17.6247548199999997
lattice_vector    2.4810521300000001    -2.4810521300000001    17.6247548199999997
lattice_vector    2.4810521300000001     2.4810521300000001   -17.6247548199999997
atom_frac     0.4323831599198103     0.4327317800801897     0.9999999999999999 Ba
atom_frac     0.5676168400801898     0.5672682199198104     0.0000000000000001 Ba
atom_frac     0.2999334087678694     0.3010980712321290     0.9999999999999984 Ba
atom_frac     0.7000665912321307     0.6989019287678712     0.0000000000000016 Ba
atom_frac     0.5000000000000000     0.0000000000000000     0.5000000000000000 S
atom_frac     0.0000000000000000     0.5000000000000000     0.5000000000000000 S
atom_frac     0.9293036481219342     0.9293474518780656     0.9999999999999999 S
atom_frac     0.0706963518780657     0.0706525481219344     0.0000000000000002 S
atom_frac     0.7862844361030070     0.7862119838969931     0.0000000000000001 S
atom_frac     0.2137155638969930     0.2137880161030069     0.9999999999999999 S
atom_frac     0.8602292640492704     0.3611633547049808     0.4997977630819244 S
atom_frac     0.3604311652950182     0.8613652559507282     0.5002022369180732 S
atom_frac     0.1397707359507298     0.6388366452950193     0.5002022369180757 S
atom_frac     0.6395688347049818     0.1386347440492719     0.4997977630819269 S
atom_frac     0.0000000000000000     1.0000000000000000     1.0000000000000000 Zr
atom_frac     0.8561971705107565     0.8570628094892424     0.9999999999999990 Zr
atom_frac     0.1438028294892435     0.1429371905107576     0.0000000000000011 Zr
