lattice_vector   -2.4810521300000001     2.4810521300000001    17.6247548199999997
lattice_vector    2.4810521300000001    -2.4810521300000001    17.6247548199999997
lattice_vector    2.4810521300000001     2.4810521300000001   -17.6247548199999997
atom_frac     0.4325247014319435     0.4325247014319435     0.9999352486891483 Ba
atom_frac     0.5674752985680563     0.5674752985680563     0.0000647513108517 Ba
atom_frac     0.3005474945586253     0.3005474945586253     0.0000628725346293 Ba
atom_frac     0.6994525054413748     0.6994525054413748     0.9999371274653707 Ba
atom_frac     0.5000000000000000     0.0000000000000000     0.5000000000000000 S
atom_frac     0.0000000000000000     0.5000000000000000     0.5000000000000000 S
atom_frac     0.9290279760883633     0.9290279760883633     0.9994045956568915 S
atom_frac     0.0709720239116368     0.0709720239116368     0.0005954043431085 S
atom_frac     0.7857009494845099     0.7857009494845099     0.9989048338655616 S
atom_frac     0.2142990505154903     0.2142990505154902     0.0010951661344384 S
atom_frac     0.8600806077662027     0.3607371393084705     0.4992220430722326 S
atom_frac     0.3607371393084705     0.8600806077662027     0.4992220430722326 S
atom_frac     0.1399193922337975     0.6392628606915297     0.5007779569277675 S
atom_frac     0.6392628606915297     0.1399193922337974     0.5007779569277675 S
atom_frac     0.0000000000000000     0.0000000000000000     0.0000000000000000 Zr
atom_frac     0.8569570393499327     0.8569570393499327     0.0006531905095155 Zr
atom_frac     0.1430429606500672     0.1430429606500672     0.9993468094904845 Zr
