lattice_vector   -2.4810521300000001     2.4810521300000001    17.6247548199999997
lattice_vector    2.4810521300000001    -2.4810521300000001    17.6247548199999997
lattice_vector    2.4810521300000001     2.4810521300000001   -17.6247548199999997
atom_frac     0.4325506332984023     0.4325506332984023     0.0000010796797684 Ba
atom_frac     0.5674493667015977     0.5674493667015977     0.9999989203202316 Ba
atom_frac     0.3004878688652751     0.3004878688652751     0.9999956689256575 Ba
atom_frac     0.6995121311347250     0.6995121311347250     0.0000043310743425 Ba
atom_frac     0.5000000000000000     0.0000000000000000     0.5000000000000000 S
atom_frac     0.0000000000000000     0.5000000000000000     0.5000000000000000 S
atom_frac     0.9293630474189697     0.9293630474189697     0.9999923788229507 S
atom_frac     0.0706369525810303     0.0706369525810303     0.0000076211770494 S
atom_frac     0.7863239796703382     0.7863239796703382     0.9999952649790365 S
atom_frac     0.2136760203296618     0.2136760203296618     0.0000047350209636 S
atom_frac     0.8609006994023569     0.3608913978854571     0.5000115326126027 S
atom_frac     0.3608913978854571     0.8609006994023569     0.5000115326126027 S
atom_frac     0.1390993005976431     0.6391086021145430     0.4999884673873974 S
atom_frac     0.6391086021145430     0.1390993005976431     0.4999884673873974 S
atom_frac     0.0000000000000000     0.0000000000000000     0.0000000000000000 Zr
atom_frac     0.8567484752346053     0.8567484752346053     0.9999969551786339 Zr
atom_frac     0.1432515247653946     0.1432515247653946     0.0000030448213661 Zr
