lattice_vector   -2.4810521300000001     2.4810521300000001    17.6247548199999997
lattice_vector    2.4810521300000001    -2.4810521300000001    17.6247548199999997
lattice_vector    2.4810521300000001     2.4810521300000001   -17.6247548199999997
atom_frac     0.4324890446188480     0.4324890446188480     0.0000000428666977 Ba
atom_frac     0.5675109553811520     0.5675109553811520     0.9999999571333023 Ba
atom_frac     0.3006769797056379     0.3006769797056379     0.9999998478376025 Ba
atom_frac     0.6993230202943621     0.6993230202943621     0.0000001521623974 Ba
atom_frac     0.5000000000000000     1.0000000000000000     0.5000000000000000 S
atom_frac     1.0000000000000000     0.5000000000000000     0.5000000000000000 S
atom_frac     0.9293232190434191     0.9293232190434190     0.0000037371695953 S
atom_frac     0.0706767809565808     0.0706767809565808     0.9999962628304047 S
atom_frac     0.7862626983311044     0.7862626983311043     0.0000065587933088 S
atom_frac     0.2137373016688956     0.2137373016688956     0.9999934412066912 S
atom_frac     0.8608732346623419     0.3608657163463134     0.5000077144120144 S
atom_frac     0.3608657163463134     0.8608732346623421     0.5000077144120146 S
atom_frac     0.1391267653376581     0.6391342836536866     0.4999922855879856 S
atom_frac     0.6391342836536866     0.1391267653376582     0.4999922855879856 S
atom_frac     1.0000000000000000     1.0000000000000000     0.0000000000000000 Zr
atom_frac     0.8566331844792460     0.8566331844792460     0.9999936545757654 Zr
atom_frac     0.1433668155207540     0.1433668155207540     0.0000063454242346 Zr
