lattice_vector   -2.4810521300000001     2.4810521300000001    17.6247548199999997
lattice_vector    2.4810521300000001    -2.4810521300000001    17.6247548199999997
lattice_vector    2.4810521300000001     2.4810521300000001   -17.6247548199999997
atom_frac     0.4325258422722149     0.4325258422722149     0.9999367919075383 Ba
atom_frac     0.5674741577277851     0.5674741577277851     0.0000632080924617 Ba
atom_frac     0.3005621720865515     0.3005621720865515     0.0000928338980889 Ba
atom_frac     0.6994378279134486     0.6994378279134487     0.9999071661019111 Ba
atom_frac     0.5000000000000000     0.0000000000000000     0.5000000000000000 S
atom_frac     0.0000000000000000     0.5000000000000000     0.5000000000000000 S
atom_frac     0.9284542983587348     0.9284542983587353     0.9982574557510864 S
atom_frac     0.0715457016412651     0.0715457016412647     0.0017425442489136 S
atom_frac     0.7867464908607357     0.7867464908607354     0.0009965471442170 S
atom_frac     0.2132535091392643     0.2132535091392646     0.9990034528557830 S
atom_frac     0.8607777201196209     0.3607327489919784     0.4999161626364959 S
atom_frac     0.3607327489919785     0.8607777201196209     0.4999161626364959 S
atom_frac     0.1392222798803791     0.6392672510080215     0.5000838373635041 S
atom_frac     0.6392672510080215     0.1392222798803791     0.5000838373635041 S
atom_frac     0.0000000000000000     0.0000000000000000     0.0000000000000000 Zr
atom_frac     0.8566137278673304     0.8566137278673304     0.9999676948738866 Zr
atom_frac     0.1433862721326697     0.1433862721326697     0.0000323051261134 Zr
