lattice_vector   -2.4810521300000001     2.4810521300000001    17.6247548199999997
lattice_vector    2.4810521300000001    -2.4810521300000001    17.6247548199999997
lattice_vector    2.4810521300000001     2.4810521300000001   -17.6247548199999997
atom_frac     0.4325511356971373     0.4325511356971373     0.9999998711298769 Ba
atom_frac     0.5674488643028628     0.5674488643028628     0.0000001288701231 Ba
atom_frac     0.3004905025548434     0.3004905025548434     0.0000001409683219 Ba
atom_frac     0.6995094974451567     0.6995094974451567     0.9999998590316781 Ba
atom_frac     0.5000000000000000     0.0000000000000000     0.5000000000000000 S
atom_frac     0.0000000000000000     0.5000000000000000     0.5000000000000000 S
atom_frac     0.9293041007827345     0.9293041007827345     0.0000001757049501 S
atom_frac     0.0706958992172655     0.0706958992172655     0.9999998242950499 S
atom_frac     0.7861926174821988     0.7861926174821988     0.0000009068498868 S
atom_frac     0.2138073825178011     0.2138073825178011     0.9999990931501131 S
atom_frac     0.8609245341703522     0.3609226508477015     0.4999993958788901 S
atom_frac     0.3609226508477015     0.8609245341703522     0.4999993958788901 S
atom_frac     0.1390754658296479     0.6390773491522985     0.5000006041211099 S
atom_frac     0.6390773491522985     0.1390754658296479     0.5000006041211099 S
atom_frac     0.0000000000000000     0.0000000000000000     0.0000000000000000 Zr
atom_frac     0.8565676947725197     0.8565676947725197     0.0000000375316186 Zr
atom_frac     0.1434323052274803     0.1434323052274803     0.9999999624683814 Zr
