lattice_vector   -2.4810521300000001     2.4810521300000001    17.6247548199999997
lattice_vector    2.4810521300000001    -2.4810521300000001    17.6247548199999997
lattice_vector    2.4810521300000001     2.4810521300000001   -17.6247548199999997
atom_frac     0.4325871815957645     0.4325277584042356     1.0000000000000000 Ba
atom_frac     0.5674128184042355     0.5674722415957645     0.0000000000000000 Ba
atom_frac     0.3004698742559983     0.3005616057440016     0.0000000000000000 Ba
atom_frac     0.6995301257440018     0.6994383942559984     1.0000000000000000 Ba
atom_frac     0.5000000000000000     0.0000000000000000     0.5000000000000000 S
atom_frac     0.0000000000000000     0.5000000000000000     0.5000000000000000 S
atom_frac     0.9301345703882267     0.9285165296117729     0.9999999999999997 S
atom_frac     0.0698654296117733     0.0714834703882271     0.0000000000000004 S
atom_frac     0.7857796317207253     0.7867167882792749     0.0000000000000002 S
atom_frac     0.2142203682792747     0.2132832117207251     0.9999999999999998 S
atom_frac     0.8608784436035524     0.3607868656206853     0.4999679833496505 S
atom_frac     0.3608076543793147     0.8607160763964476     0.5000320166503495 S
atom_frac     0.1391215563964476     0.6392131343793148     0.5000320166503496 S
atom_frac     0.6391923456206853     0.1392839236035524     0.4999679833496505 S
atom_frac     0.0000000000000000     0.0000000000000000     0.0000000000000000 Zr
atom_frac     0.8566449458855105     0.8566150341144894     1.0000000000000000 Zr
atom_frac     0.1433550541144893     0.1433849658855106     0.0000000000000000 Zr
