lattice_vector   -2.4810521300000001     2.4810521300000001    17.6247548199999997
lattice_vector    2.4810521300000001    -2.4810521300000001    17.6247548199999997
lattice_vector    2.4810521300000001     2.4810521300000001   -17.6247548199999997
atom_frac     0.4326115485061646     0.4326115485061651     0.0001081638156916 Ba
atom_frac     0.5673884514938353     0.5673884514938349     0.9998918361843084 Ba
atom_frac     0.3010998106505915     0.3010998106505930     0.0011682289023137 Ba
atom_frac     0.6989001893494085     0.6989001893494070     0.9988317710976862 Ba
atom_frac     0.5000000000000000     0.0000000000000000     0.5000000000000000 S
atom_frac     0.0000000000000000     0.5000000000000000     0.5000000000000000 S
atom_frac     0.9293681267100483     0.9293681267100484     0.0000851199642279 S
atom_frac     0.0706318732899516     0.0706318732899516     0.9999148800357720 S
atom_frac     0.7862129714374242     0.7862129714374241     0.9999294917121310 S
atom_frac     0.2137870285625758     0.2137870285625759     0.0000705082878690 S
atom_frac     0.8614031656226013     0.3611641027434874     0.5009727633687605 S
atom_frac     0.3611641027434865     0.8614031656226027     0.5009727633687608 S
atom_frac     0.1385968343773987     0.6388358972565126     0.4990272366312396 S
atom_frac     0.6388358972565135     0.1385968343773973     0.4990272366312390 S
atom_frac     1.0000000000000000     0.0000000000000000     0.0000000000000000 Zr
atom_frac     0.8570380098806339     0.8570380098806351     0.0008159748178226 Zr
atom_frac     0.1429619901193659     0.1429619901193648     0.9991840251821774 Zr
