lattice_vector   -2.4810521300000001     2.4810521300000001    17.6247548199999997
lattice_vector    2.4810521300000001    -2.4810521300000001    17.6247548199999997
lattice_vector    2.4810521300000001     2.4810521300000001   -17.6247548199999997
atom_frac     0.4325601950497733     0.4325601950497733     0.0000053544490825 Ba
atom_frac     0.5674398049502267     0.5674398049502267     0.9999946455509174 Ba
atom_frac     0.3005174149743862     0.3005174149743862     0.0000030327805269 Ba
atom_frac     0.6994825850256139     0.6994825850256139     0.9999969672194731 Ba
atom_frac     0.5000000000000000     0.0000000000000000     0.5000000000000000 S
atom_frac     0.0000000000000000     0.5000000000000000     0.5000000000000000 S
atom_frac     0.9294353845852845     0.9294353845852845     0.0002181529373492 S
atom_frac     0.0705646154147155     0.0705646154147156     0.9997818470626508 S
atom_frac     0.7863333148162673     0.7863333148162673     0.0001855933741153 S
atom_frac     0.2136666851837326     0.2136666851837326     0.9998144066258847 S
atom_frac     0.8610054275012241     0.3598407117892766     0.4992524093881178 S
atom_frac     0.3598407117892766     0.8610054275012241     0.4992524093881178 S
atom_frac     0.1389945724987760     0.6401592882107234     0.5007475906118821 S
atom_frac     0.6401592882107234     0.1389945724987760     0.5007475906118823 S
atom_frac     0.0000000000000000     0.0000000000000000     0.0000000000000000 Zr
atom_frac     0.8568203104458982     0.8568203104458982     0.0003766799976004 Zr
atom_frac     0.1431796895541017     0.1431796895541017     0.9996233200023996 Zr
