lattice_vector   -2.4810521300000001     2.4810521300000001    17.6247548199999997
lattice_vector    2.4810521300000001    -2.4810521300000001    17.6247548199999997
lattice_vector    2.4810521300000001     2.4810521300000001   -17.6247548199999997
atom_frac     0.4325452183797844     0.4325697216202157     0.0000000000000000 Ba
atom_frac     0.5674547816202157     0.5674302783797843     0.0000000000000000 Ba
atom_frac     0.3002590344805215     0.3007724455194785     1.0000000000000000 Ba
atom_frac     0.6997409655194786     0.6992275544805217     0.0000000000000001 Ba
atom_frac     0.5000000000000000     0.0000000000000000     0.5000000000000000 S
atom_frac     1.0000000000000000     0.5000000000000000     0.5000000000000000 S
atom_frac     0.9289338257474663     0.9297172742525335     0.9999999999999999 S
atom_frac     0.0710661742525336     0.0702827257474664     0.0000000000000000 S
atom_frac     0.7857520024774862     0.7867444175225137     0.9999999999999999 S
atom_frac     0.2142479975225138     0.2132555824774863     0.0000000000000001 S
atom_frac     0.8615091737151659     0.3606548573976165     0.5005701212927950 S
atom_frac     0.3609396626023835     0.8600853462848344     0.4994298787072052 S
atom_frac     0.1384908262848341     0.6393451426023835     0.4994298787072051 S
atom_frac     0.6390603373976165     0.1399146537151658     0.5005701212927949 S
atom_frac     0.0000000000000000     0.0000000000000000     0.0000000000000000 Zr
atom_frac     0.8567788615442006     0.8564811184557993     0.0000000000000000 Zr
atom_frac     0.1432211384557993     0.1435188815442006     1.0000000000000000 Zr
