lattice_vector   -2.4810521300000001     2.4810521300000001    17.6247548199999997
lattice_vector    2.4810521300000001    -2.4810521300000001    17.6247548199999997
lattice_vector    2.4810521300000001     2.4810521300000001   -17.6247548199999997
atom_frac     0.4325646215441648     0.4325646215441648     0.0000000492477828 Ba
atom_frac     0.5674353784558352     0.5674353784558352     0.9999999507522173 Ba
atom_frac     0.3005169097265622     0.3005169097265622     0.0000002944737792 Ba
atom_frac     0.6994830902734379     0.6994830902734379     0.9999997055262208 Ba
atom_frac     0.5000000000000000     0.0000000000000000     0.5000000000000000 S
atom_frac     0.0000000000000000     0.5000000000000000     0.5000000000000000 S
atom_frac     0.9291264859999731     0.9291264859999731     0.9999993181303015 S
atom_frac     0.0708735140000269     0.0708735140000269     0.0000006818696984 S
atom_frac     0.7862425922004270     0.7862425922004270     0.0000001301179297 S
atom_frac     0.2137574077995730     0.2137574077995730     0.9999998698820702 S
atom_frac     0.8607978839390301     0.3607990775913259     0.5000003135064496 S
atom_frac     0.3607990775913259     0.8607978839390301     0.5000003135064496 S
atom_frac     0.1392021160609700     0.6392009224086741     0.4999996864935505 S
atom_frac     0.6392009224086741     0.1392021160609700     0.4999996864935505 S
atom_frac     0.0000000000000000     0.0000000000000000     0.0000000000000000 Zr
atom_frac     0.8566554566819882     0.8566554566819882     0.9999994260520588 Zr
atom_frac     0.1433445433180117     0.1433445433180117     0.0000005739479411 Zr
