lattice_vector   -2.4810521300000001     2.4810521300000001    17.6247548199999997
lattice_vector    2.4810521300000001    -2.4810521300000001    17.6247548199999997
lattice_vector    2.4810521300000001     2.4810521300000001   -17.6247548199999997
atom_frac     0.4325902385680565     0.4325902385680565     0.0000647513108517 Ba
atom_frac     0.5674097614319437     0.5674097614319437     0.9999352486891483 Ba
atom_frac     0.3004839854413747     0.3004839854413747     0.9999371274653707 Ba
atom_frac     0.6995160145586252     0.6995160145586252     0.0000628725346293 Ba
atom_frac     0.5000000000000000     0.0000000000000000     0.5000000000000000 S
atom_frac     0.0000000000000000     0.5000000000000000     0.5000000000000000 S
atom_frac     0.9296231239116367     0.9296231239116367     0.0005954043431085 S
atom_frac     0.0703768760883632     0.0703768760883632     0.9994045956568915 S
atom_frac     0.7867954705154903     0.7867954705154903     0.0010951661344384 S
atom_frac     0.2132045294845097     0.2132045294845098     0.9989048338655616 S
atom_frac     0.8615139122337974     0.3608573806915296     0.5007779569277674 S
atom_frac     0.3608573806915296     0.8615139122337974     0.5007779569277674 S
atom_frac     0.1384860877662026     0.6391426193084704     0.4992220430722326 S
atom_frac     0.6391426193084704     0.1384860877662026     0.4992220430722326 S
atom_frac     0.0000000000000000     0.0000000000000000     0.0000000000000000 Zr
atom_frac     0.8563029406500672     0.8563029406500672     0.9993468094904845 Zr
atom_frac     0.1436970593499328     0.1436970593499328     0.0006531905095155 Zr
