lattice_vector   -2.4810521300000001     2.4810521300000001    17.6247548199999997
lattice_vector    2.4810521300000001    -2.4810521300000001    17.6247548199999997
lattice_vector    2.4810521300000001     2.4810521300000001   -17.6247548199999997
atom_frac     0.4325657064252840     0.4325657064252840     0.0000164279488160 Ba
atom_frac     0.5674342935747160     0.5674342935747160     0.9999835720511839 Ba
atom_frac     0.3007708157856401     0.3007708157856401     0.0005102760546704 Ba
atom_frac     0.6992291842143599     0.6992291842143599     0.9994897239453295 Ba
atom_frac     0.5000000000000000     0.0000000000000000     0.5000000000000000 S
atom_frac     0.0000000000000000     0.5000000000000000     0.5000000000000000 S
atom_frac     0.9290346483105535     0.9290346483105536     0.9994182296116586 S
atom_frac     0.0709653516894463     0.0709653516894463     0.0005817703883414 S
atom_frac     0.7855515115652646     0.7855515115652647     0.9986068116356396 S
atom_frac     0.2144484884347354     0.2144484884347353     0.0013931883643604 S
atom_frac     0.8608848683885836     0.3604398351411777     0.4997306543368664 S
atom_frac     0.3604398351411777     0.8608848683885836     0.4997306543368664 S
atom_frac     0.1391151316114165     0.6395601648588223     0.5002693456631336 S
atom_frac     0.6395601648588223     0.1391151316114165     0.5002693456631336 S
atom_frac     0.0000000000000000     0.0000000000000000     0.0000000000000000 Zr
atom_frac     0.8561347882524786     0.8561347882524787     0.9990100371729626 Zr
atom_frac     0.1438652117475213     0.1438652117475213     0.0009899628270374 Zr
