lattice_vector   -2.4810521300000001     2.4810521300000001    17.6247548199999997
lattice_vector    2.4810521300000001    -2.4810521300000001    17.6247548199999997
lattice_vector    2.4810521300000001     2.4810521300000001   -17.6247548199999997
atom_frac     0.4325643067015977     0.4325643067015977     0.9999989203202316 Ba
atom_frac     0.5674356932984023     0.5674356932984023     0.0000010796797684 Ba
atom_frac     0.3005436111347249     0.3005436111347249     0.0000043310743425 Ba
atom_frac     0.6994563888652751     0.6994563888652751     0.9999956689256575 Ba
atom_frac     0.5000000000000000     0.0000000000000000     0.5000000000000000 S
atom_frac     0.0000000000000000     0.5000000000000000     0.5000000000000000 S
atom_frac     0.9292880525810302     0.9292880525810302     0.0000076211770494 S
atom_frac     0.0707119474189697     0.0707119474189697     0.9999923788229507 S
atom_frac     0.7861724403296618     0.7861724403296618     0.0000047350209636 S
atom_frac     0.2138275596703382     0.2138275596703382     0.9999952649790365 S
atom_frac     0.8606938205976431     0.3607031221145429     0.4999884673873974 S
atom_frac     0.3607031221145429     0.8606938205976431     0.4999884673873974 S
atom_frac     0.1393061794023569     0.6392968778854571     0.5000115326126027 S
atom_frac     0.6392968778854571     0.1393061794023569     0.5000115326126027 S
atom_frac     0.0000000000000000     0.0000000000000000     0.0000000000000000 Zr
atom_frac     0.8565115047653946     0.8565115047653946     0.0000030448213661 Zr
atom_frac     0.1434884952346054     0.1434884952346054     0.9999969551786339 Zr
