lattice_vector   -2.4810521300000001     2.4810521300000001    17.6247548199999997
lattice_vector    2.4810521300000001    -2.4810521300000001    17.6247548199999997
lattice_vector    2.4810521300000001     2.4810521300000001   -17.6247548199999997
atom_frac     0.4325748559108829     0.4325400840891172     0.0000000000000000 Ba
atom_frac     0.5674251440891172     0.5674599159108829     0.0000000000000000 Ba
atom_frac     0.3007756179240725     0.3002558620759274     1.0000000000000000 Ba
atom_frac     0.6992243820759275     0.6997441379240726     0.0000000000000000 Ba
atom_frac     0.5000000000000000     0.0000000000000000     0.5000000000000000 S
atom_frac     0.0000000000000000     0.5000000000000000     0.5000000000000000 S
atom_frac     0.9290459305407482     0.9296051694592516     0.0000000000000000 S
atom_frac     0.0709540694592517     0.0703948305407483     1.0000000000000000 S
atom_frac     0.7855778989160093     0.7869185210839909     0.0000000000000000 S
atom_frac     0.2144221010839908     0.2130814789160092     1.0000000000000000 S
atom_frac     0.8609591921377392     0.3611428860838432     0.5005077269275316 S
atom_frac     0.3604516339161568     0.8606353278622608     0.4994922730724684 S
atom_frac     0.1390408078622608     0.6388571139161568     0.4994922730724684 S
atom_frac     0.6395483660838431     0.1393646721377392     0.5005077269275315 S
atom_frac     0.0000000000000000     0.0000000000000000     0.0000000000000000 Zr
atom_frac     0.8561063258141817     0.8571536541858182     0.0000000000000000 Zr
atom_frac     0.1438936741858183     0.1428463458141817     1.0000000000000000 Zr
