lattice_vector   -2.4810521300000001     2.4810521300000001    17.6247548199999997
lattice_vector    2.4810521300000001    -2.4810521300000001    17.6247548199999997
lattice_vector    2.4810521300000001     2.4810521300000001   -17.6247548199999997
atom_frac     0.4315724379636617     0.4315724379636630     0.9980299289537843 Ba
atom_frac     0.5684275620363383     0.5684275620363370     0.0019700710462158 Ba
atom_frac     0.3005760525953768     0.3005760525953767     0.0001207904548764 Ba
atom_frac     0.6994239474046231     0.6994239474046233     0.9998792095451235 Ba
atom_frac     0.5000000000000000     0.0000000000000000     0.5000000000000000 S
atom_frac     0.0000000000000000     0.5000000000000000     0.5000000000000000 S
atom_frac     0.9294878648393353     0.9294878648393351     0.0003245641090469 S
atom_frac     0.0705121351606646     0.0705121351606649     0.9996754358909532 S
atom_frac     0.7862475796754419     0.7862475796754419     0.9999986027269175 S
atom_frac     0.2137524203245582     0.2137524203245582     0.0000013972730825 S
atom_frac     0.8609164890784785     0.3608245358596027     0.5001464031197340 S
atom_frac     0.3608245358596028     0.8609164890784783     0.5001464031197339 S
atom_frac     0.1390835109215214     0.6391754641403974     0.4998535968802659 S
atom_frac     0.6391754641403972     0.1390835109215217     0.4998535968802660 S
atom_frac     0.0000000000000000     0.0000000000000000     0.0000000000000000 Zr
atom_frac     0.8566197713833911     0.8566197713833911     0.9999792138605441 Zr
atom_frac     0.1433802286166088     0.1433802286166089     0.0000207861394559 Zr
