lattice_vector   -2.4810521300000001     2.4810521300000001    17.6247548199999997
lattice_vector    2.4810521300000001    -2.4810521300000001    17.6247548199999997
lattice_vector    2.4810521300000001     2.4810521300000001   -17.6247548199999997
atom_frac     0.4325228429915998     0.4325920970084003     0.0000000000000000 Ba
atom_frac     0.5674771570084003     0.5674079029915997     0.0000000000000000 Ba
atom_frac     0.3005472125550584     0.3004842674449416     0.0000000000000000 Ba
atom_frac     0.6994527874449417     0.6995157325550585     0.0000000000000000 Ba
atom_frac     0.5000000000000000     0.0000000000000000     0.5000000000000000 S
atom_frac     0.0000000000000000     0.5000000000000000     0.5000000000000000 S
atom_frac     0.9290129156866039     0.9296381843133960     0.0000000000000000 S
atom_frac     0.0709870843133960     0.0703618156866040     0.0000000000000000 S
atom_frac     0.7856599038716919     0.7868365161283081     0.0000000000000000 S
atom_frac     0.2143400961283080     0.2131634838716919     1.0000000000000000 S
atom_frac     0.8601068303098587     0.3608849134881982     0.4993960979897265 S
atom_frac     0.3607096065118018     0.8614876896901414     0.5006039020102736 S
atom_frac     0.1398931696901413     0.6391150865118018     0.5006039020102735 S
atom_frac     0.6392903934881983     0.1385123103098586     0.4993960979897266 S
atom_frac     0.0000000000000000     0.0000000000000000     0.0000000000000000 Zr
atom_frac     0.8569202088719223     0.8563397711280776     1.0000000000000000 Zr
atom_frac     0.1430797911280776     0.1436602288719224     0.0000000000000000 Zr
