lattice_vector   -2.4810521300000001     2.4810521300000001    17.6247548199999997
lattice_vector    2.4810521300000001    -2.4810521300000001    17.6247548199999997
lattice_vector    2.4810521300000001     2.4810521300000001   -17.6247548199999997
atom_frac     0.4325603210677089     0.4325546189322912     0.0000000000000000 Ba
atom_frac     0.5674453810677088     0.5674396789322912     0.0000000000000000 Ba
atom_frac     0.3005177277337414     0.3005137522662586     0.0000000000000000 Ba
atom_frac     0.6994862477337415     0.6994822722662587     0.0000000000000000 Ba
atom_frac     0.4999765055594936     0.9999930441302356     0.4999694459760767 S
atom_frac     0.0000069558697644     0.5000234944405065     0.5000305540239233 S
atom_frac     0.9294386366474051     0.9292124633525948     0.0000000000000000 S
atom_frac     0.0707875366474050     0.0705613633525950     0.0000000000000000 S
atom_frac     0.7863426597591683     0.7861537602408317     0.0000000000000000 S
atom_frac     0.2138462397591681     0.2136573402408319     0.0000000000000000 S
atom_frac     0.8610097756797699     0.3617537855798146     0.5011687236463275 S
atom_frac     0.3598407344201853     0.8605847443202302     0.4988312763536725 S
atom_frac     0.1394152556797696     0.6401592655798135     0.5011687236463261 S
atom_frac     0.6382462144201866     0.1389902243202304     0.4988312763536739 S
atom_frac     0.0000024531148590     0.9999975468851410     0.0000000000000000 Zr
atom_frac     0.8568132166195167     0.8564467633804832     0.0000000000000000 Zr
atom_frac     0.1435532366195165     0.1431867833804835     0.0000000000000000 Zr
