lattice_vector   -2.4810521300000001     2.4810521300000001    17.6247548199999997
lattice_vector    2.4810521300000001    -2.4810521300000001    17.6247548199999997
lattice_vector    2.4810521300000001     2.4810521300000001   -17.6247548199999997
atom_frac     0.4325684759088517     0.4325684759088517     0.0000223337898931 Ba
atom_frac     0.5674315240911485     0.5674315240911485     0.9999776662101069 Ba
atom_frac     0.3007725206221344     0.3007725206221344     0.0005138172517258 Ba
atom_frac     0.6992274793778656     0.6992274793778656     0.9994861827482742 Ba
atom_frac     0.5000000000000000     0.0000000000000000     0.5000000000000000 S
atom_frac     0.0000000000000000     0.5000000000000000     0.5000000000000000 S
atom_frac     0.9297153732208988     0.9297153732208989     0.0007789573664269 S
atom_frac     0.0702846267791011     0.0702846267791011     0.9992210426335731 S
atom_frac     0.7867717607269358     0.7867717607269359     0.0010461158329641 S
atom_frac     0.2132282392730641     0.2132282392730641     0.9989538841670358 S
atom_frac     0.8601028720892261     0.3606604016072182     0.4991674936236186 S
atom_frac     0.3606604016072182     0.8601028720892259     0.4991674936236185 S
atom_frac     0.1398971279107740     0.6393395983927818     0.5008325063763814 S
atom_frac     0.6393395983927818     0.1398971279107741     0.5008325063763815 S
atom_frac     0.0000000000000000     0.0000000000000000     0.0000000000000000 Zr
atom_frac     0.8564827478900424     0.8564827478900424     0.9997038768246737 Zr
atom_frac     0.1435172521099576     0.1435172521099576     0.0002961231753263 Zr
