lattice_vector   -2.4810521300000001     2.4810521300000001    17.6247548199999997
lattice_vector    2.4810521300000001    -2.4810521300000001    17.6247548199999997
lattice_vector    2.4810521300000001     2.4810521300000001   -17.6247548199999997
atom_frac     0.4325583121575422     0.4325583121575422     0.9999998489981466 Ba
atom_frac     0.5674416878424579     0.5674416878424579     0.0000001510018534 Ba
atom_frac     0.3005194280313803     0.3005194280313803     0.9999998474955381 Ba
atom_frac     0.6994805719686198     0.6994805719686198     0.0000001525044619 Ba
atom_frac     0.5000000000000000     0.0000000000000000     0.5000000000000000 S
atom_frac     0.0000000000000000     0.5000000000000000     0.5000000000000000 S
atom_frac     0.9293433941537583     0.9293433941537583     0.9999900804235403 S
atom_frac     0.0706566058462418     0.0706566058462418     0.0000099195764597 S
atom_frac     0.7860509386151405     0.7860509386151405     0.9999922061405233 S
atom_frac     0.2139490613848595     0.2139490613848595     0.0000077938594767 S
atom_frac     0.8607820304418891     0.3608302325149630     0.5000310353055175 S
atom_frac     0.3608302325149630     0.8607820304418891     0.5000310353055175 S
atom_frac     0.1392179695581109     0.6391697674850372     0.4999689646944825 S
atom_frac     0.6391697674850370     0.1392179695581109     0.4999689646944824 S
atom_frac     0.0000000000000000     0.0000000000000000     0.0000000000000000 Zr
atom_frac     0.8566685844014850     0.8566685844014850     0.9999843586647346 Zr
atom_frac     0.1433314155985149     0.1433314155985149     0.0000156413352654 Zr
