lattice_vector   -2.4810521300000001     2.4810521300000001    17.6247548199999997
lattice_vector    2.4810521300000001    -2.4810521300000001    17.6247548199999997
lattice_vector    2.4810521300000001     2.4810521300000001   -17.6247548199999997
atom_frac     0.4327317800801898     0.4323831599198104     0.0000000000000002 Ba
atom_frac     0.5672682199198102     0.5676168400801896     0.9999999999999999 Ba
atom_frac     0.3010980712321305     0.2999334087678709     0.0000000000000015 Ba
atom_frac     0.6989019287678695     0.7000665912321290     0.9999999999999983 Ba
atom_frac     0.5000000000000000     1.0000000000000000     0.4999999999999999 S
atom_frac     0.0000000000000000     0.5000000000000000     0.5000000000000000 S
atom_frac     0.9293474518780657     0.9293036481219343     0.0000000000000001 S
atom_frac     0.0706525481219343     0.0706963518780656     0.9999999999999999 S
atom_frac     0.7862119838969930     0.7862844361030069     0.9999999999999999 S
atom_frac     0.2137880161030070     0.2137155638969931     0.0000000000000001 S
atom_frac     0.8613652559507297     0.3604311652950192     0.5002022369180756 S
atom_frac     0.3611633547049818     0.8602292640492719     0.4997977630819269 S
atom_frac     0.1386347440492703     0.6395688347049808     0.4997977630819243 S
atom_frac     0.6388366452950182     0.1397707359507281     0.5002022369180731 S
atom_frac     0.0000000000000000     0.0000000000000000     0.0000000000000000 Zr
atom_frac     0.8570628094892434     0.8561971705107575     0.0000000000000010 Zr
atom_frac     0.1429371905107565     0.1438028294892424     0.9999999999999989 Zr
