lattice_vector   -2.4810521300000001     2.4810521300000001    17.6247548199999997
lattice_vector    2.4810521300000001    -2.4810521300000001    17.6247548199999997
lattice_vector    2.4810521300000001     2.4810521300000001   -17.6247548199999997
atom_frac     0.4325492335747161     0.4325492335747161     0.9999835720511839 Ba
atom_frac     0.5674507664252839     0.5674507664252839     0.0000164279488160 Ba
atom_frac     0.3002606642143599     0.3002606642143599     0.9994897239453295 Ba
atom_frac     0.6997393357856402     0.6997393357856402     0.0005102760546704 Ba
atom_frac     0.5000000000000000     0.0000000000000000     0.5000000000000000 S
atom_frac     0.0000000000000000     0.5000000000000000     0.5000000000000000 S
atom_frac     0.9296164516894464     0.9296164516894463     0.0005817703883414 S
atom_frac     0.0703835483105537     0.0703835483105537     0.9994182296116586 S
atom_frac     0.7869449084347355     0.7869449084347354     0.0013931883643604 S
atom_frac     0.2130550915652646     0.2130550915652647     0.9986068116356396 S
atom_frac     0.8607096516114164     0.3611546848588223     0.5002693456631336 S
atom_frac     0.3611546848588223     0.8607096516114164     0.5002693456631336 S
atom_frac     0.1392903483885835     0.6388453151411777     0.4997306543368664 S
atom_frac     0.6388453151411777     0.1392903483885835     0.4997306543368663 S
atom_frac     0.0000000000000000     0.0000000000000000     0.0000000000000000 Zr
atom_frac     0.8571251917475213     0.8571251917475212     0.0009899628270374 Zr
atom_frac     0.1428748082524787     0.1428748082524788     0.9990100371729626 Zr
