lattice_vector   -2.4610398899999999     2.4610398899999999     7.7807133700000000
lattice_vector    2.4610398899999999    -2.4610398899999999     7.7807133700000000
lattice_vector    2.4610398899999999     2.4610398899999999    -7.7807133700000000
atom_frac     0.6401581459115662     0.6401581459115659     0.9980448744360586 Ba
atom_frac     0.3598418540884340     0.3598418540884342     0.0019551255639414 Ba
atom_frac     0.5000000000000000     0.0000000000000000     0.5000000000000000 S
atom_frac     0.0000000000000000     0.5000000000000000     0.5000000000000000 S
atom_frac     0.8354259209513015     0.8354259209513015     0.9994476123828731 S
atom_frac     0.1645740790486986     0.1645740790486986     0.0005523876171270 S
atom_frac     0.0000000000000000     0.0000000000000000     0.0000000000000000 Zr
