lattice_vector   -2.4610398899999999     2.4610398899999999     7.7807133700000000
lattice_vector    2.4610398899999999    -2.4610398899999999     7.7807133700000000
lattice_vector    2.4610398899999999     2.4610398899999999    -7.7807133700000000
atom_frac     0.6406808951214442     0.6406808951214442     0.9999994409524553 Ba
atom_frac     0.3593191048785560     0.3593191048785560     0.0000005590475447 Ba
atom_frac     0.5000000000000000     0.0000000000000000     0.5000000000000000 S
atom_frac     1.0000000000000000     0.5000000000000000     0.4999999999999999 S
atom_frac     0.8357002696137510     0.8357002696137510     0.9999987079539394 S
atom_frac     0.1642997303862491     0.1642997303862491     0.0000012920460606 S
atom_frac     0.0000000000000000     0.0000000000000000     0.0000000000000000 Zr
