lattice_vector   -2.4772084300000001     2.4772084300000001    12.6664911199999999
lattice_vector    2.4772084300000001    -2.4772084300000001    12.6664911199999999
lattice_vector    2.4772084300000001     2.4772084300000001   -12.6664911199999999
atom_frac     0.0000000000000000     0.0000000000000000     0.0000000000000000 Ba
atom_frac     0.1805302976165227     0.1805302976165227     0.9999974343776468 Ba
atom_frac     0.8194697023834773     0.8194697023834773     0.0000025656223532 Ba
atom_frac     0.5000000000000000     0.5000000000000000     0.0000000000000000 S
atom_frac     0.3010029208536166     0.3010029208536159     0.0001774963356328 S
atom_frac     0.6989970791463833     0.6989970791463839     0.9998225036643672 S
atom_frac     0.9030588379786622     0.4042323506085346     0.4992439851260566 S
atom_frac     0.4042323506085362     0.9030588379786695     0.4992439851260654 S
atom_frac     0.0969411620213376     0.5957676493914652     0.5007560148739433 S
atom_frac     0.5957676493914638     0.0969411620213307     0.5007560148739348 S
atom_frac     0.3996622475014669     0.3996622475014655     0.0003808546985935 Zr
atom_frac     0.6003377524985331     0.6003377524985345     0.9996191453014066 Zr
