lattice_vector   -2.4772084300000001     2.4772084300000001    12.6664911199999999
lattice_vector    2.4772084300000001    -2.4772084300000001    12.6664911199999999
lattice_vector    2.4772084300000001     2.4772084300000001   -12.6664911199999999
atom_frac     0.0000000000000000     0.0000000000000000     0.0000000000000000 Ba
atom_frac     0.1802853546768204     0.1807778053231811     0.0000000000000016 Ba
atom_frac     0.8197146453231795     0.8192221946768189     0.9999999999999984 Ba
atom_frac     0.5000000000000000     0.5000000000000000     0.0000000000000000 S
atom_frac     0.3003276868622619     0.3015007131377419     0.0000000000000037 S
atom_frac     0.6996723131377381     0.6984992868622582     0.9999999999999963 S
atom_frac     0.9036449205507338     0.4038259235140260     0.4994237453299712 S
atom_frac     0.4042212764859727     0.9044022794492687     0.5005762546700300 S
atom_frac     0.0963550794492662     0.5961740764859739     0.5005762546700288 S
atom_frac     0.5957787235140273     0.0955977205507313     0.4994237453299701 S
atom_frac     0.3988149650683727     0.4001286549316314     0.0000000000000042 Zr
atom_frac     0.6011850349316272     0.5998713450683686     0.9999999999999959 Zr
