lattice_vector   -2.4610398899999999     2.4610398899999999     7.7807133700000000
lattice_vector    2.4610398899999999    -2.4610398899999999     7.7807133700000000
lattice_vector    2.4610398899999999     2.4610398899999999    -7.7807133700000000
atom_frac     0.6410686420160283     0.6410686420160282     0.9998662624855167 Ba
atom_frac     0.3589313579839718     0.3589313579839719     0.0001337375144833 Ba
atom_frac     0.5000000000000000     0.0000000000000000     0.5000000000000000 S
atom_frac     0.0000000000000000     0.5000000000000000     0.5000000000000000 S
atom_frac     0.8367159813019642     0.8367159813019661     0.0020272547534699 S
atom_frac     0.1632840186980359     0.1632840186980341     0.9979727452465300 S
atom_frac     0.0000000000000000     0.0000000000000000     0.0000000000000000 Zr
