lattice_vector   -2.4610398899999999     2.4610398899999999     7.7807133700000000
lattice_vector    2.4610398899999999    -2.4610398899999999     7.7807133700000000
lattice_vector    2.4610398899999999     2.4610398899999999    -7.7807133700000000
atom_frac     0.6411352924577177     0.6411352924577177     0.0000000212920671 Ba
atom_frac     0.3588647075422824     0.3588647075422824     0.9999999787079329 Ba
atom_frac     0.5000000000000000     0.0000000000000000     0.5000000000000000 S
atom_frac     0.0000000000000000     0.5000000000000000     0.5000000000000000 S
atom_frac     0.8361560927736980     0.8361560927736980     0.9999990915401895 S
atom_frac     0.1638439072263020     0.1638439072263020     0.0000009084598105 S
atom_frac     0.0000000000000000     0.0000000000000000     0.0000000000000000 Zr
