lattice_vector   -2.4810521300000001     2.4810521300000001    17.6247548199999997
lattice_vector    2.4810521300000001    -2.4810521300000001    17.6247548199999997
lattice_vector    2.4810521300000001     2.4810521300000001   -17.6247548199999997
atom_frac     0.4325638043028628     0.4325638043028628     0.0000001288701231 Ba
atom_frac     0.5674361956971372     0.5674361956971372     0.9999998711298769 Ba
atom_frac     0.3005409774451566     0.3005409774451566     0.9999998590316781 Ba
atom_frac     0.6994590225548434     0.6994590225548434     0.0000001409683219 Ba
atom_frac     0.5000000000000000     0.0000000000000000     0.5000000000000000 S
atom_frac     0.0000000000000000     0.5000000000000000     0.5000000000000000 S
atom_frac     0.9293469992172654     0.9293469992172654     0.9999998242950499 S
atom_frac     0.0706530007827345     0.0706530007827345     0.0000001757049501 S
atom_frac     0.7863038025178012     0.7863038025178012     0.9999990931501131 S
atom_frac     0.2136961974821989     0.2136961974821989     0.0000009068498868 S
atom_frac     0.8606699858296479     0.3606718691522985     0.5000006041211099 S
atom_frac     0.3606718691522985     0.8606699858296479     0.5000006041211099 S
atom_frac     0.1393300141703521     0.6393281308477016     0.4999993958788901 S
atom_frac     0.6393281308477016     0.1393300141703521     0.4999993958788901 S
atom_frac     0.0000000000000000     0.0000000000000000     0.0000000000000000 Zr
atom_frac     0.8566922852274802     0.8566922852274802     0.9999999624683814 Zr
atom_frac     0.1433077147725197     0.1433077147725197     0.0000000375316186 Zr
