lattice_vector   -2.4810521300000001     2.4810521300000001    17.6247548199999997
lattice_vector    2.4810521300000001    -2.4810521300000001    17.6247548199999997
lattice_vector    2.4810521300000001     2.4810521300000001   -17.6247548199999997
atom_frac     0.4327303648717897     0.4327303648717897     0.9999996981829637 Ba
atom_frac     0.5672696351282104     0.5672696351282104     0.0000003018170363 Ba
atom_frac     0.3005795367237554     0.3005795367237554     0.0000013170378458 Ba
atom_frac     0.6994204632762447     0.6994204632762447     0.9999986829621542 Ba
atom_frac     0.5000000000000000     1.0000000000000000     0.4999999999999999 S
atom_frac     0.0000000000000000     0.5000000000000000     0.5000000000000000 S
atom_frac     0.9293537271308869     0.9293537271308869     0.9999981783017786 S
atom_frac     0.0706462728691130     0.0706462728691130     0.0000018216982214 S
atom_frac     0.7862576611223490     0.7862576611223490     0.9999984230232110 S
atom_frac     0.2137423388776512     0.2137423388776512     0.0000015769767890 S
atom_frac     0.8608462167451703     0.3608483695360307     0.4999966012562401 S
atom_frac     0.3608483695360307     0.8608462167451703     0.4999966012562401 S
atom_frac     0.1391537832548298     0.6391516304639693     0.5000033987437600 S
atom_frac     0.6391516304639693     0.1391537832548298     0.5000033987437600 S
atom_frac     0.0000000000000000     0.0000000000000000     0.0000000000000000 Zr
atom_frac     0.8566328890491109     0.8566328890491109     0.0000011532288778 Zr
atom_frac     0.1433671109508890     0.1433671109508890     0.9999988467711222 Zr
