lattice_vector   -2.4772084300000001     2.4772084300000001    12.6664911199999999
lattice_vector    2.4772084300000001    -2.4772084300000001    12.6664911199999999
lattice_vector    2.4772084300000001     2.4772084300000001   -12.6664911199999999
atom_frac     0.0000000000000000     0.0000000000000000     0.0000000000000000 Ba
atom_frac     0.1805263462152779     0.1805263462152779     0.0000000048110251 Ba
atom_frac     0.8194736537847220     0.8194736537847220     0.9999999951889750 Ba
atom_frac     0.5000000000000000     0.5000000000000000     0.0000000000000000 S
atom_frac     0.3006442834536859     0.3006442834536859     0.0000000662279454 S
atom_frac     0.6993557165463141     0.6993557165463141     0.9999999337720545 S
atom_frac     0.9040149950944000     0.4040148222358002     0.5000000538612620 S
atom_frac     0.4040148222358002     0.9040149950944000     0.5000000538612620 S
atom_frac     0.0959850049056000     0.5959851777641997     0.4999999461387380 S
atom_frac     0.5959851777641997     0.0959850049056000     0.4999999461387380 S
atom_frac     0.3995415067455548     0.3995415067455548     0.9999999877187957 Zr
atom_frac     0.6004584932544452     0.6004584932544452     0.0000000122812043 Zr
