lattice_vector   -2.4610398899999999     2.4610398899999999     7.7807133700000000
lattice_vector    2.4610398899999999    -2.4610398899999999     7.7807133700000000
lattice_vector    2.4610398899999999     2.4610398899999999    -7.7807133700000000
atom_frac     0.6415902448785559     0.6415902448785559     0.0000005590475447 Ba
atom_frac     0.3584097551214442     0.3584097551214442     0.9999994409524553 Ba
atom_frac     0.5000000000000000     0.0000000000000000     0.5000000000000000 S
atom_frac     0.0000000000000000     0.5000000000000000     0.5000000000000000 S
atom_frac     0.8357040303862492     0.8357040303862492     0.0000012920460606 S
atom_frac     0.1642959696137509     0.1642959696137510     0.9999987079539394 S
atom_frac     0.0000000000000000     0.0000000000000000     0.0000000000000000 Zr
