lattice_vector   -2.4772084300000001     2.4772084300000001    12.6664911199999999
lattice_vector    2.4772084300000001    -2.4772084300000001    12.6664911199999999
lattice_vector    2.4772084300000001     2.4772084300000001   -12.6664911199999999
atom_frac     0.0000000000000000     0.0000000000000000     0.0000000000000000 Ba
atom_frac     0.1805328623834773     0.1805328623834773     0.0000025656223532 Ba
atom_frac     0.8194671376165227     0.8194671376165227     0.9999974343776468 Ba
atom_frac     0.5000000000000000     0.5000000000000000     1.0000000000000000 S
atom_frac     0.3008254791463834     0.3008254791463841     0.9998225036643672 S
atom_frac     0.6991745208536165     0.6991745208536160     0.0001774963356328 S
atom_frac     0.9049883620213379     0.4038148493914653     0.5007560148739435 S
atom_frac     0.4038148493914637     0.9049883620213306     0.5007560148739347 S
atom_frac     0.0950116379786623     0.5961851506085347     0.4992439851260568 S
atom_frac     0.5961851506085362     0.0950116379786692     0.4992439851260652 S
atom_frac     0.3992813724985330     0.3992813724985344     0.9996191453014065 Zr
atom_frac     0.6007186275014670     0.6007186275014655     0.0003808546985934 Zr
