#=======================================================
# FHI-aims file: geometry-primitive.in
# Created using the Atomic Simulation Environment (ASE)
# Thu Mar 20 15:17:59 2025
#=======================================================
lattice_vector -2.5000000000000000 2.5000000000000000 8.0000000000000000 
lattice_vector 2.5000000000000000 -2.5000000000000000 8.0000000000000000 
lattice_vector 2.5000000000000000 2.5000000000000000 -8.0000000000000000 
atom_frac 0.8437500000000000 0.8437500000000000 0.0000000000000000 Ba
atom_frac 0.1562500000000000 0.1562500000000000 0.0000000000000000 Ba
atom_frac 0.5000000000000000 0.5000000000000000 0.0000000000000000 Zr
atom_frac 0.3437500000000000 0.3437500000000000 0.0000000000000000 S
atom_frac 0.6562500000000000 0.6562500000000000 0.0000000000000000 S
atom_frac 0.0000000000000000 0.5000000000000000 0.5000000000000000 S
atom_frac 0.5000000000000000 -0.0000000000000000 0.5000000000000000 S
