lattice_vector   -2.4772084300000001     2.4772084300000001    12.6664911199999999
lattice_vector    2.4772084300000001    -2.4772084300000001    12.6664911199999999
lattice_vector    2.4772084300000001     2.4772084300000001   -12.6664911199999999
atom_frac     0.0000000000000001     1.0000000000000000     0.0000000000000001 Ba
atom_frac     0.1811590508073180     0.1811590508073561     0.0012549548312225 Ba
atom_frac     0.8188409491926819     0.8188409491926438     0.9987450451687773 Ba
atom_frac     0.4999999999999999     0.5000000000000001     0.0000000000000000 S
atom_frac     0.3010151328530372     0.3010151328530434     0.0002018434184239 S
atom_frac     0.6989848671469627     0.6989848671469567     0.9997981565815761 S
atom_frac     0.9036864842339252     0.4034268755039235     0.4990661545549178 S
atom_frac     0.4034268755039597     0.9036864842339047     0.4990661545549335 S
atom_frac     0.0963135157660747     0.5965731244960764     0.5009338454450821 S
atom_frac     0.5965731244960401     0.0963135157660952     0.5009338454450664 S
atom_frac     0.3990912401134257     0.3990912401134026     0.9992388415290108 Zr
atom_frac     0.6009087598865743     0.6009087598865974     0.0007611584709892 Zr
