lattice_vector   -2.4610398899999999     2.4610398899999999     7.7807133700000000
lattice_vector    2.4610398899999999    -2.4610398899999999     7.7807133700000000
lattice_vector    2.4610398899999999     2.4610398899999999    -7.7807133700000000
atom_frac     0.6421129940884339     0.6421129940884341     0.0019551255639414 Ba
atom_frac     0.3578870059115661     0.3578870059115660     0.9980448744360586 Ba
atom_frac     0.5000000000000000     0.0000000000000000     0.5000000000000000 S
atom_frac     0.0000000000000000     0.5000000000000000     0.5000000000000000 S
atom_frac     0.8359783790486988     0.8359783790486988     0.0005523876171270 S
atom_frac     0.1640216209513014     0.1640216209513014     0.9994476123828731 S
atom_frac     0.0000000000000000     0.0000000000000000     0.0000000000000000 Zr
