lattice_vector   -2.4810521300000001     2.4810521300000001    17.6247548199999997
lattice_vector    2.4810521300000001    -2.4810521300000001    17.6247548199999997
lattice_vector    2.4810521300000001     2.4810521300000001   -17.6247548199999997
atom_frac     0.4335425020363384     0.4335425020363372     0.0019700710462157 Ba
atom_frac     0.5664574979636617     0.5664574979636630     0.9980299289537842 Ba
atom_frac     0.3004554274046232     0.3004554274046233     0.9998792095451235 Ba
atom_frac     0.6995445725953769     0.6995445725953767     0.0001207904548765 Ba
atom_frac     0.5000000000000000     0.0000000000000000     0.5000000000000000 S
atom_frac     0.0000000000000000     0.5000000000000000     0.5000000000000000 S
atom_frac     0.9291632351606647     0.9291632351606649     0.9996754358909531 S
atom_frac     0.0708367648393354     0.0708367648393351     0.0003245641090468 S
atom_frac     0.7862488403245581     0.7862488403245581     0.0000013972730824 S
atom_frac     0.2137511596754418     0.2137511596754418     0.9999986027269175 S
atom_frac     0.8606780309215214     0.3607699841403973     0.4998535968802659 S
atom_frac     0.3607699841403972     0.8606780309215216     0.4998535968802660 S
atom_frac     0.1393219690784786     0.6392300158596027     0.5001464031197341 S
atom_frac     0.6392300158596029     0.1393219690784783     0.5001464031197340 S
atom_frac     0.0000000000000000     1.0000000000000000     1.0000000000000000 Zr
atom_frac     0.8566402086166088     0.8566402086166088     0.0000207861394559 Zr
atom_frac     0.1433597913833912     0.1433597913833911     0.9999792138605441 Zr
