lattice_vector   -2.4772084300000001     2.4772084300000001    12.6664911199999999
lattice_vector    2.4772084300000001    -2.4772084300000001    12.6664911199999999
lattice_vector    2.4772084300000001     2.4772084300000001   -12.6664911199999999
atom_frac     0.0000000000000000     0.0000000000000000     0.0000000000000000 Ba
atom_frac     0.1806731649781448     0.1803899950218557     0.0000000000000004 Ba
atom_frac     0.8193268350218552     0.8196100049781443     0.9999999999999996 Ba
atom_frac     0.5000000000000000     0.5000000000000000     0.0000000000000000 S
atom_frac     0.3013253600355045     0.3005030399644968     0.0000000000000012 S
atom_frac     0.6986746399644955     0.6994969600355032     0.9999999999999988 S
atom_frac     0.9041708702079623     0.4031365024401894     0.4992605475581218 S
atom_frac     0.4049106975598131     0.9038763297920381     0.5007394524418814 S
atom_frac     0.0958291297920376     0.5968634975598104     0.5007394524418783 S
atom_frac     0.5950893024401869     0.0961236702079618     0.4992605475581186 S
atom_frac     0.3993267839177845     0.3996168360822149     0.9999999999999996 Zr
atom_frac     0.6006732160822155     0.6003831639177850     0.0000000000000004 Zr
